Node Numbers,X Locations (inches),Y Locations (inches),Z Locations (inches),Equivalent Elastic Strains (in/in),Equivalent Stress (psi),Max Principal Elastic Strain (in/in),Max Principal Stress (psi),Middle Principal Elastic Strain (in/in),Middle Principal Stress (psi),Min Principal Elastic Strain (in/in),Min Principal Stress (psi),Total Deformation (in)
1,3.1,2.1818,0,0.002027,20256,0.0007924,1573.6,0.00060103,135.71,-0.0019941,-19363,0.062348
2,3.1,2.3636,0,0.0015983,15972,0.00062634,1167.3,0.00046423,-50.629,-0.0015758,-15379,0.063741
3,3.1,2.5455,0,0.0014007,13998,0.00053157,836.83,0.00042014,-0.39442,-0.0013846,-13561,0.064724
4,3.1,2.7273,0,0.0012988,12979,0.00048365,660.21,0.00039499,-5.9564,-0.0012864,-12639,0.065352
5,3.1,2.9091,0,0.0012553,12544,0.00046243,578.83,0.00038498,-3.0766,-0.0012445,-12246,0.065659
6,3.1,3.0909,0,0.0012553,12544,0.00046243,578.83,0.00038498,-3.0766,-0.0012445,-12246,0.065659
7,3.1,3.2727,0,0.0012988,12979,0.00048365,660.21,0.00039499,-5.9564,-0.0012864,-12639,0.065352
8,3.1,3.4545,0,0.0014007,13998,0.00053157,836.83,0.00042014,-0.39444,-0.0013846,-13561,0.064724
9,3.1,3.6364,0,0.0015983,15972,0.00062634,1167.3,0.00046423,-50.629,-0.0015758,-15379,0.063741
10,3.1,3.8182,0,0.002027,20256,0.0007924,1573.6,0.00060103,135.71,-0.0019941,-19363,0.062348
11,3.2667,2.1818,0,0.0020072,20058,0.00078599,1584,0.00059522,150.59,-0.0019738,-19152,0.070726
12,3.2667,2.3636,0,0.0015875,15864,0.00062612,1207.5,0.00045842,-52.532,-0.0015641,-15249,0.072127
13,3.2667,2.5455,0,0.0013948,13939,0.00053432,894.66,0.00041532,0.60239,-0.0013775,-13470,0.073118
14,3.2667,2.7273,0,0.0012948,12939,0.00048763,725.03,0.00039036,-5.7965,-0.001281,-12564,0.073751
15,3.2667,2.9091,0,0.001252,12511,0.00046691,646.72,0.00038045,-2.8886,-0.0012397,-12176,0.074061
16,3.2667,3.0909,0,0.001252,12511,0.00046691,646.72,0.00038045,-2.8886,-0.0012397,-12176,0.074061
17,3.2667,3.2727,0,0.0012948,12939,0.00048763,725.03,0.00039036,-5.7964,-0.001281,-12564,0.073751
18,3.2667,3.4545,0,0.0013948,13939,0.00053432,894.67,0.00041532,0.60237,-0.0013775,-13470,0.073118
19,3.2667,3.6364,0,0.0015875,15864,0.00062612,1207.5,0.00045842,-52.532,-0.0015641,-15249,0.072127
20,3.2667,3.8182,0,0.0020072,20058,0.00078599,1584,0.00059522,150.59,-0.0019738,-19152,0.070726
21,2.9176,5.8182,0,0.0001347,1346,6.2847e-05,199.72,3.0173e-05,-45.78,-0.00013039,-1252.2,0.036962
22,2.9176,5.6364,0,0.00019404,1939,9.4338e-05,360.56,4.3331e-05,-22.694,-0.00018542,-1741.5,0.038366
23,2.9176,5.4545,0,0.00026651,2663.3,0.0001399,636.1,5.3086e-05,-16.193,-0.0002499,-2292.7,0.039799
24,2.9176,5.2727,0,0.00034506,3448.2,0.00019168,965.05,6.1457e-05,-13.394,-0.00031829,-2866.7,0.041277
25,2.9176,5.0909,0,0.00043163,4313.3,0.00025011,1345.7,6.9325e-05,-12.642,-0.00039259,-3483.3,0.04281
26,2.9176,4.9091,0,0.00053066,5302.9,0.00031782,1792.4,7.729e-05,-14.819,-0.00047678,-4177.9,0.044406
27,2.9176,4.7273,0,0.00065,6495.6,0.00039954,2336.2,8.6948e-05,-12.466,-0.00057778,-5007,0.046065
28,2.9176,4.5455,0,0.00080262,8020.6,0.00050267,2999.8,9.8615e-05,-36.186,-0.00070785,-6095.7,0.047783
29,2.9176,4.3636,0,0.0010218,10211,0.00064714,3949.7,0.00012352,15.389,-0.0008958,-7643.4,0.049542
30,2.9176,4.1818,0,0.0013389,13379,0.00080153,4423.5,0.00018477,-210.59,-0.0012055,-10657,0.051294
31,2.9176,4,0,0.0015862,15851,0.00078833,2830.3,0.00030774,-780.66,-0.0015202,-14515,0.05295
32,2.9176,3.8182,0,0.0015113,15102,0.00058117,986.54,0.00044759,-17.128,-0.0014923,-14592,0.054393
33,2.9176,3.6364,0,0.0014055,14046,0.00052221,687.43,0.00042696,-28.275,-0.0013929,-13702,0.055553
34,2.9176,3.4545,0,0.0012943,12934,0.00046535,461.39,0.00040426,2.3765,-0.0012858,-12696,0.056412
35,2.9176,3.2727,0,0.0012299,12290,0.00043556,353.85,0.00038774,-5.4467,-0.0012235,-12112,0.056976
36,2.9176,3.0909,0,0.0011995,11987,0.00042094,300.72,0.00038075,-1.2037,-0.0011942,-11834,0.057255
37,2.9176,2.9091,0,0.0011995,11987,0.00042094,300.72,0.00038075,-1.2037,-0.0011942,-11834,0.057255
38,2.9176,2.7273,0,0.0012299,12290,0.00043556,353.85,0.00038774,-5.4467,-0.0012235,-12112,0.056976
39,2.9176,2.5455,0,0.0012943,12934,0.00046535,461.39,0.00040426,2.3765,-0.0012858,-12696,0.056412
40,2.9176,2.3636,0,0.0014055,14046,0.00052221,687.43,0.00042696,-28.275,-0.0013929,-13702,0.055553
41,2.9176,2.1818,0,0.0015113,15102,0.00058117,986.54,0.00044759,-17.128,-0.0014923,-14592,0.054393
42,2.9176,2,0,0.0015862,15851,0.00078833,2830.3,0.00030774,-780.66,-0.0015202,-14515,0.05295
43,2.9176,1.8182,0,0.0013389,13379,0.00080153,4423.5,0.00018477,-210.59,-0.0012055,-10657,0.051294
44,2.9176,1.6364,0,0.0010218,10211,0.00064714,3949.7,0.00012352,15.389,-0.0008958,-7643.4,0.049542
45,2.9176,1.4545,0,0.00080262,8020.6,0.00050267,2999.8,9.8615e-05,-36.186,-0.00070785,-6095.7,0.047783
46,2.9176,1.2727,0,0.00065,6495.6,0.00039954,2336.2,8.6948e-05,-12.466,-0.00057778,-5007,0.046065
47,2.9176,1.0909,0,0.00053066,5302.9,0.00031782,1792.4,7.729e-05,-14.819,-0.00047678,-4177.9,0.044406
48,2.9176,0.90909,0,0.00043163,4313.3,0.00025011,1345.7,6.9325e-05,-12.642,-0.00039259,-3483.3,0.04281
49,2.9176,0.72727,0,0.00034506,3448.2,0.00019168,965.05,6.1457e-05,-13.394,-0.00031829,-2866.7,0.041277
50,2.9176,0.54545,0,0.00026651,2663.3,0.0001399,636.1,5.3086e-05,-16.193,-0.0002499,-2292.7,0.039799
51,2.9176,0.36364,0,0.00019404,1939,9.4338e-05,360.56,4.3331e-05,-22.694,-0.00018542,-1741.5,0.038366
52,2.9176,0.18182,0,0.0001347,1346,6.2847e-05,199.72,3.0173e-05,-45.78,-0.00013039,-1252.2,0.036962
53,2.7353,5.8182,0,0.00019865,1985.1,7.9083e-05,151.89,5.6116e-05,-20.681,-0.00019585,-1913.9,0.032824
54,2.7353,5.6364,0,0.00022606,2259,8.9373e-05,168.42,6.4562e-05,-18,-0.00022292,-2178.1,0.034154
55,2.7353,5.4545,0,0.0002754,2752.1,0.00011691,311.03,7.4155e-05,-10.228,-0.00026887,-2587.6,0.035482
56,2.7353,5.2727,0,0.00033632,3360.9,0.0001538,521.24,8.3656e-05,-5.7653,-0.00032443,-3072,0.036821
57,2.7353,5.0909,0,0.0004065,4062.2,0.00019705,772.59,9.3697e-05,-3.9326,-0.00038782,-3621.9,0.03818
58,2.7353,4.9091,0,0.00048695,4866.1,0.00024606,1054.3,0.00010536,-2.8487,-0.00046037,-4253.5,0.03956
59,2.7353,4.7273,0,0.00058091,5805.1,0.00030136,1358.4,0.00012018,-2.9073,-0.00054575,-5006.4,0.040958
60,2.7353,4.5455,0,0.00069099,6905.1,0.00036032,1639.2,0.00014156,-4.4577,-0.00064834,-5939.4,0.04236
61,2.7353,4.3636,0,0.00082022,8196.6,0.00041593,1798,0.00017678,1.051,-0.0007747,-7148,0.043741
62,2.7353,4.1818,0,0.00095925,9585.9,0.00044785,1618,0.00023397,11.049,-0.00092138,-8669.8,0.045064
63,2.7353,4,0,0.0010548,10541,0.0004073,773.94,0.00031755,99.656,-0.0010384,-10088,0.04628
64,2.7353,3.8182,0,0.0011323,11315,0.00038738,194.17,0.00036816,49.803,-0.001128,-11192,0.047351
65,2.7353,3.6364,0,0.0011494,11486,0.00038479,35.447,0.00037324,-51.39,-0.0011496,-11494,0.04825
66,2.7353,3.4545,0,0.0011358,11351,0.00037975,17.372,0.00036809,-70.235,-0.0011367,-11377,0.048942
67,2.7353,3.2727,0,0.001115,11143,0.00037297,3.5094,0.00035981,-95.389,-0.0011166,-11188,0.049408
68,2.7353,3.0909,0,0.0011028,11020,0.00036929,-0.014229,0.00035482,-108.79,-0.0011046,-11074,0.049642
69,2.7353,2.9091,0,0.0011028,11020,0.00036929,-0.014235,0.00035482,-108.79,-0.0011046,-11074,0.049642
70,2.7353,2.7273,0,0.001115,11143,0.00037297,3.5094,0.00035981,-95.389,-0.0011166,-11188,0.049408
71,2.7353,2.5455,0,0.0011358,11351,0.00037975,17.372,0.00036809,-70.236,-0.0011367,-11377,0.048942
72,2.7353,2.3636,0,0.0011494,11486,0.00038479,35.446,0.00037324,-51.391,-0.0011496,-11494,0.04825
73,2.7353,2.1818,0,0.0011323,11315,0.00038738,194.17,0.00036816,49.803,-0.001128,-11192,0.047351
74,2.7353,2,0,0.0010548,10541,0.0004073,773.94,0.00031755,99.656,-0.0010384,-10088,0.04628
75,2.7353,1.8182,0,0.00095926,9585.9,0.00044785,1618,0.00023397,11.049,-0.00092138,-8669.8,0.045064
76,2.7353,1.6364,0,0.00082022,8196.6,0.00041593,1798,0.00017678,1.051,-0.0007747,-7148,0.043741
77,2.7353,1.4545,0,0.00069099,6905.1,0.00036032,1639.2,0.00014156,-4.4577,-0.00064834,-5939.4,0.04236
78,2.7353,1.2727,0,0.00058091,5805.1,0.00030136,1358.4,0.00012018,-2.9073,-0.00054575,-5006.4,0.040958
79,2.7353,1.0909,0,0.00048695,4866.1,0.00024606,1054.3,0.00010536,-2.8487,-0.00046037,-4253.5,0.03956
80,2.7353,0.90909,0,0.0004065,4062.2,0.00019705,772.59,9.3697e-05,-3.9326,-0.00038782,-3621.9,0.03818
81,2.7353,0.72727,0,0.00033632,3360.9,0.0001538,521.24,8.3656e-05,-5.7653,-0.00032443,-3072,0.036821
82,2.7353,0.54545,0,0.0002754,2752.1,0.00011691,311.03,7.4155e-05,-10.228,-0.00026887,-2587.6,0.035482
83,2.7353,0.36364,0,0.00022606,2259,8.9373e-05,168.42,6.4562e-05,-18,-0.00022292,-2178.1,0.034154
84,2.7353,0.18182,0,0.00019865,1985.1,7.9083e-05,151.89,5.6116e-05,-20.681,-0.00019585,-1913.9,0.032824
85,2.5529,5.8182,0,0.00026677,2665.9,0.00010173,158.1,7.9025e-05,-12.48,-0.00026388,-2589,0.028783
86,2.5529,5.6364,0,0.00028203,2818.4,0.0001044,127.16,8.5338e-05,-16.086,-0.00027987,-2760.1,0.030032
87,2.5529,5.4545,0,0.00031587,3156.6,0.00012014,184.16,9.383e-05,-13.55,-0.00031251,-3066.6,0.031254
88,2.5529,5.2727,0,0.00036202,3617.7,0.00014428,294.93,0.00010371,-9.8827,-0.0003562,-3465.5,0.03246
89,2.5529,5.0909,0,0.00041787,4175.8,0.00017421,436.9,0.000115,-7.9596,-0.00040879,-3943.5,0.033655
90,2.5529,4.9091,0,0.00048244,4821,0.00020783,588.41,0.00012852,-7.499,-0.00046978,-4502.9,0.034838
91,2.5529,4.7273,0,0.0005554,5550.2,0.00024273,721.12,0.00014573,-7.6599,-0.00053966,-5157.5,0.036005
92,2.5529,4.5455,0,0.00063626,6358.2,0.00027521,790.98,0.00016887,-7.968,-0.00061916,-5928.9,0.037143
93,2.5529,4.3636,0,0.00071939,7188.9,0.00029695,712.46,0.00019959,-19.119,-0.00070479,-6814.3,0.038233
94,2.5529,4.1818,0,0.00079902,7984.7,0.00029927,419.06,0.00024115,-17.659,-0.0007913,-7775.1,0.039251
95,2.5529,4,0,0.00087035,8697.5,0.0002939,40.401,0.00027959,-67.133,-0.00087076,-8710.4,0.040175
96,2.5529,3.8182,0,0.00092857,9279.3,0.00032294,-8.0949,0.00027741,-350.16,-0.00093419,-9453.7,0.040989
97,2.5529,3.6364,0,0.00097014,9694.7,0.00034495,8.8775,0.00027825,-492.26,-0.00097739,-9926.6,0.041675
98,2.5529,3.4545,0,0.00098849,9878,0.00035217,1.7573,0.00028161,-528.43,-0.00099638,-10131,0.04221
99,2.5529,3.2727,0,0.00099366,9929.7,0.00035423,1.585,0.00028267,-536.1,-0.0010017,-10186,0.042577
100,2.5529,3.0909,0,0.00099406,9933.7,0.00035437,0.92516,0.00028274,-537.3,-0.0010021,-10191,0.042763
101,2.5529,2.9091,0,0.00099406,9933.7,0.00035437,0.92516,0.00028274,-537.3,-0.0010021,-10191,0.042763
102,2.5529,2.7273,0,0.00099366,9929.7,0.00035423,1.585,0.00028267,-536.1,-0.0010017,-10186,0.042577
103,2.5529,2.5455,0,0.00098849,9878,0.00035217,1.7573,0.00028161,-528.43,-0.00099638,-10131,0.04221
104,2.5529,2.3636,0,0.00097014,9694.7,0.00034495,8.8775,0.00027825,-492.26,-0.00097739,-9926.6,0.041675
105,2.5529,2.1818,0,0.00092857,9279.3,0.00032294,-8.0949,0.00027741,-350.16,-0.00093419,-9453.7,0.040989
106,2.5529,2,0,0.00087035,8697.5,0.0002939,40.401,0.00027959,-67.133,-0.00087076,-8710.4,0.040175
107,2.5529,1.8182,0,0.00079902,7984.7,0.00029927,419.06,0.00024115,-17.659,-0.0007913,-7775.1,0.039251
108,2.5529,1.6364,0,0.00071939,7188.9,0.00029695,712.46,0.00019959,-19.119,-0.00070479,-6814.3,0.038233
109,2.5529,1.4545,0,0.00063626,6358.2,0.00027521,790.98,0.00016887,-7.9679,-0.00061916,-5928.9,0.037143
110,2.5529,1.2727,0,0.0005554,5550.2,0.00024273,721.12,0.00014573,-7.6598,-0.00053966,-5157.5,0.036005
111,2.5529,1.0909,0,0.00048244,4821,0.00020783,588.41,0.00012852,-7.499,-0.00046978,-4502.9,0.034838
112,2.5529,0.90909,0,0.00041787,4175.8,0.00017421,436.9,0.000115,-7.9596,-0.00040879,-3943.5,0.033655
113,2.5529,0.72727,0,0.00036202,3617.7,0.00014428,294.93,0.00010371,-9.8827,-0.0003562,-3465.5,0.03246
114,2.5529,0.54545,0,0.00031587,3156.6,0.00012014,184.16,9.383e-05,-13.55,-0.00031251,-3066.6,0.031254
115,2.5529,0.36364,0,0.00028203,2818.4,0.0001044,127.16,8.5338e-05,-16.086,-0.00027987,-2760.1,0.030032
116,2.5529,0.18182,0,0.00026677,2665.9,0.00010173,158.1,7.9025e-05,-12.48,-0.00026388,-2589,0.028783
117,2.3706,5.8182,0,0.00032844,3282.1,0.00012227,163.24,9.9583e-05,-7.2435,-0.00032545,-3200.8,0.02489
118,2.3706,5.6364,0,0.000338,3377.7,0.00012138,111.53,0.00010499,-11.562,-0.00033613,-3326,0.026054
119,2.3706,5.4545,0,0.00036184,3615.9,0.00012972,115.67,0.00011243,-14.292,-0.00035994,-3563.5,0.027172
120,2.3706,5.2727,0,0.00039589,3956.2,0.00014365,148.88,0.00012209,-13.089,-0.00039333,-3885.8,0.028251
121,2.3706,5.0909,0,0.00043838,4380.8,0.00016161,197.49,0.0001338,-11.428,-0.00043484,-4284,0.029295
122,2.3706,4.9091,0,0.00048783,4874.9,0.00018163,242.79,0.0001479,-10.649,-0.00048338,-4753.9,0.030305
123,2.3706,4.7273,0,0.00054271,5423.3,0.00020116,259.24,0.00016513,-11.482,-0.00053798,-5294.4,0.031276
124,2.3706,4.5455,0,0.00060095,6005.4,0.00021699,215.68,0.00018623,-15.501,-0.00059721,-5902,0.032201
125,2.3706,4.3636,0,0.00065972,6592.6,0.0002272,93.084,0.00021013,-35.179,-0.00065864,-6562.7,0.033067
126,2.3706,4.1818,0,0.00071531,7148.1,0.00024746,14.877,0.00021794,-206.86,-0.00071832,-7241.6,0.033861
127,2.3706,4,0,0.00076701,7664.8,0.00027745,8.7921,0.0002118,-484.5,-0.00077391,-7890.8,0.034574
128,2.3706,3.8182,0,0.0008128,8122.4,0.00030344,7.0423,0.00020732,-715.2,-0.00082243,-8452.3,0.035197
129,2.3706,3.6364,0,0.00084921,8486.3,0.00032129,1.6841,0.00020831,-847.21,-0.00086041,-8877.1,0.035719
130,2.3706,3.4545,0,0.00087419,8735.9,0.000332,1.9013,0.00021216,-898.47,-0.00088596,-9149.3,0.036127
131,2.3706,3.2727,0,0.00088817,8875.6,0.00033724,1.5417,0.00021564,-912.14,-0.00090013,-9295.6,0.036408
132,2.3706,3.0909,0,0.00089412,8935,0.00033929,1.2724,0.00021742,-914.41,-0.00090612,-9356.3,0.03655
133,2.3706,2.9091,0,0.00089412,8935,0.00033929,1.2724,0.00021742,-914.41,-0.00090612,-9356.3,0.03655
134,2.3706,2.7273,0,0.00088817,8875.6,0.00033724,1.5417,0.00021564,-912.14,-0.00090013,-9295.6,0.036408
135,2.3706,2.5455,0,0.00087419,8735.9,0.000332,1.9013,0.00021216,-898.47,-0.00088596,-9149.3,0.036127
136,2.3706,2.3636,0,0.00084922,8486.3,0.00032129,1.6841,0.00020831,-847.21,-0.00086041,-8877.1,0.035719
137,2.3706,2.1818,0,0.0008128,8122.4,0.00030344,7.0423,0.00020732,-715.2,-0.00082243,-8452.4,0.035197
138,2.3706,2,0,0.00076701,7664.8,0.00027745,8.7921,0.0002118,-484.5,-0.00077391,-7890.8,0.034574
139,2.3706,1.8182,0,0.00071531,7148.1,0.00024746,14.877,0.00021794,-206.86,-0.00071832,-7241.6,0.033861
140,2.3706,1.6364,0,0.00065972,6592.6,0.0002272,93.085,0.00021013,-35.178,-0.00065864,-6562.7,0.033067
141,2.3706,1.4545,0,0.00060095,6005.4,0.00021699,215.68,0.00018623,-15.501,-0.00059722,-5902,0.032201
142,2.3706,1.2727,0,0.00054271,5423.3,0.00020116,259.24,0.00016513,-11.482,-0.00053798,-5294.4,0.031276
143,2.3706,1.0909,0,0.00048783,4874.9,0.00018163,242.79,0.0001479,-10.649,-0.00048338,-4753.9,0.030305
144,2.3706,0.90909,0,0.00043838,4380.8,0.00016161,197.49,0.0001338,-11.428,-0.00043484,-4284,0.029295
145,2.3706,0.72727,0,0.00039589,3956.2,0.00014365,148.88,0.00012209,-13.089,-0.00039333,-3885.8,0.028251
146,2.3706,0.54545,0,0.00036184,3615.9,0.00012972,115.67,0.00011243,-14.292,-0.00035994,-3563.5,0.027172
147,2.3706,0.36364,0,0.000338,3377.7,0.00012138,111.53,0.00010499,-11.562,-0.00033613,-3326,0.026054
148,2.3706,0.18182,0,0.00032844,3282.1,0.00012227,163.24,9.9583e-05,-7.2435,-0.00032545,-3200.8,0.02489
149,2.1882,5.8182,0,0.00038233,3820.6,0.00013973,160.35,0.00011771,-5.1434,-0.00037942,-3740.3,0.021187
150,2.1882,5.6364,0,0.00038822,3879.5,0.00013646,94.603,0.00012259,-9.6577,-0.00038667,-3836,0.022265
151,2.1882,5.4545,0,0.00040505,4047.7,0.00013996,64.645,0.0001289,-18.464,-0.0004042,-4024,0.023281
152,2.1882,5.2727,0,0.00042964,4293.5,0.00014731,49.263,0.00013692,-28.797,-0.00042924,-4282.7,0.024242
153,2.1882,5.0909,0,0.00046085,4605.3,0.00015737,39.063,0.00014668,-41.216,-0.00046083,-4605.8,0.025151
154,2.1882,4.9091,0,0.00049737,4970.3,0.00016959,27.928,0.00015743,-63.407,-0.00049791,-4987.4,0.02601
155,2.1882,4.7273,0,0.00053768,5373.1,0.00018443,16.737,0.00016706,-113.75,-0.00053921,-5420.4,0.026818
156,2.1882,4.5455,0,0.00057997,5795.7,0.00020268,9.1743,0.0001729,-214.53,-0.00058314,-5895.1,0.02757
157,2.1882,4.3636,0,0.00062224,6218.1,0.00022412,4.8212,0.00017331,-376.94,-0.00062769,-6395.3,0.028261
158,2.1882,4.1818,0,0.00066313,6626.7,0.00024756,3.0236,0.00016889,-588.07,-0.0006711,-6899.4,0.028886
159,2.1882,4,0,0.00070166,7011.7,0.00027061,1.3186,0.00016264,-809.99,-0.00071188,-7380.8,0.029439
160,2.1882,3.8182,0,0.00073691,7364,0.00029085,0.65303,0.00015833,-995.04,-0.00074875,-7810.5,0.029916
161,2.1882,3.6364,0,0.000767,7664.7,0.00030653,1.4548,0.00015768,-1116.9,-0.00077983,-8161,0.030313
162,2.1882,3.4545,0,0.00078984,7893,0.00031708,1.421,0.00015967,-1181.3,-0.00080323,-8416.1,0.030622
163,2.1882,3.2727,0,0.00080468,8041.2,0.00032326,1.2613,0.00016221,-1208.8,-0.00081836,-8576.4,0.030833
164,2.1882,3.0909,0,0.00081183,8112.7,0.00032606,1.2346,0.00016379,-1218,-0.00082563,-8652.1,0.030941
165,2.1882,2.9091,0,0.00081183,8112.7,0.00032606,1.2346,0.00016379,-1218,-0.00082563,-8652.1,0.030941
166,2.1882,2.7273,0,0.00080468,8041.2,0.00032326,1.2613,0.00016221,-1208.8,-0.00081836,-8576.4,0.030833
167,2.1882,2.5455,0,0.00078984,7893,0.00031708,1.421,0.00015967,-1181.3,-0.00080323,-8416.1,0.030622
168,2.1882,2.3636,0,0.000767,7664.7,0.00030653,1.4548,0.00015768,-1116.9,-0.00077983,-8161,0.030313
169,2.1882,2.1818,0,0.00073691,7364,0.00029085,0.65304,0.00015833,-995.04,-0.00074875,-7810.5,0.029916
170,2.1882,2,0,0.00070166,7011.7,0.00027061,1.3186,0.00016264,-809.99,-0.00071188,-7380.8,0.029439
171,2.1882,1.8182,0,0.00066313,6626.7,0.00024756,3.0236,0.00016889,-588.07,-0.0006711,-6899.4,0.028886
172,2.1882,1.6364,0,0.00062224,6218.1,0.00022412,4.8212,0.00017331,-376.94,-0.00062769,-6395.3,0.028261
173,2.1882,1.4545,0,0.00057997,5795.7,0.00020268,9.1743,0.0001729,-214.53,-0.00058314,-5895.1,0.02757
174,2.1882,1.2727,0,0.00053768,5373.1,0.00018443,16.737,0.00016706,-113.75,-0.00053921,-5420.4,0.026818
175,2.1882,1.0909,0,0.00049737,4970.3,0.00016959,27.928,0.00015743,-63.407,-0.00049791,-4987.4,0.02601
176,2.1882,0.90909,0,0.00046085,4605.3,0.00015737,39.063,0.00014668,-41.216,-0.00046083,-4605.9,0.025151
177,2.1882,0.72727,0,0.00042964,4293.5,0.00014731,49.263,0.00013692,-28.797,-0.00042924,-4282.7,0.024242
178,2.1882,0.54545,0,0.00040505,4047.7,0.00013996,64.645,0.0001289,-18.464,-0.0004042,-4024,0.023281
179,2.1882,0.36364,0,0.00038822,3879.5,0.00013646,94.603,0.00012259,-9.6577,-0.00038667,-3836,0.022265
180,2.1882,0.18182,0,0.00038233,3820.6,0.00013973,160.35,0.00011771,-5.1434,-0.00037942,-3740.3,0.021187
181,2.0059,5.8182,0,0.00042847,4281.8,0.0001542,151.65,0.00013347,-4.1657,-0.00042575,-4205.9,0.017714
182,2.0059,5.6364,0,0.00043124,4309.5,0.00014876,71.599,0.00013793,-9.7298,-0.00043013,-4277.9,0.018706
183,2.0059,5.4545,0,0.00044259,4422.9,0.00014995,26.03,0.00014183,-34.979,-0.00044271,-4427,0.019624
184,2.0059,5.2727,0,0.00045969,4593.7,0.00015722,11.696,0.00014337,-92.315,-0.00046097,-4633.1,0.020474
185,2.0059,5.0909,0,0.0004818,4814.7,0.00016771,7.2857,0.00014476,-165.13,-0.00048425,-4891.3,0.021262
186,2.0059,4.9091,0,0.000508,5076.5,0.00018043,5.104,0.00014609,-252.89,-0.00051173,-5195.5,0.021991
187,2.0059,4.7273,0,0.00053712,5367.5,0.00019525,3.7164,0.00014639,-363.37,-0.00054229,-5537.9,0.022661
188,2.0059,4.5455,0,0.00056786,5674.6,0.00021203,2.7959,0.00014458,-503.97,-0.00057468,-5908.2,0.023273
189,2.0059,4.3636,0,0.00059899,5985.8,0.00023036,2.1882,0.00014016,-675.5,-0.00060756,-6293.6,0.023825
190,2.0059,4.1818,0,0.00062957,6291.4,0.00024934,1.6687,0.00013376,-866.81,-0.00063977,-6678.8,0.024316
191,2.0059,4,0,0.00065889,6584.4,0.00026769,1.4454,0.00012713,-1054.7,-0.00067042,-7047.2,0.024745
192,2.0059,3.8182,0,0.00068607,6856,0.00028395,1.258,0.00012223,-1213.9,-0.00069857,-7381.1,0.025111
193,2.0059,3.6364,0,0.00070982,7093.3,0.00029705,0.97329,0.00012002,-1329.2,-0.00072299,-7663.2,0.025412
194,2.0059,3.4545,0,0.00072873,7282.3,0.00030658,0.94532,0.00012003,-1400.7,-0.00074235,-7880.3,0.025643
195,2.0059,3.2727,0,0.00074171,7412,0.00031262,0.99617,0.00012102,-1438.7,-0.0007556,-8025.2,0.025801
196,2.0059,3.0909,0,0.00074827,7477.5,0.00031552,1.0034,0.00012182,-1454.3,-0.00076228,-8097.2,0.025882
197,2.0059,2.9091,0,0.00074827,7477.5,0.00031552,1.0034,0.00012182,-1454.3,-0.00076228,-8097.2,0.025882
198,2.0059,2.7273,0,0.00074171,7412,0.00031262,0.99617,0.00012102,-1438.7,-0.0007556,-8025.2,0.025801
199,2.0059,2.5455,0,0.00072873,7282.3,0.00030658,0.94532,0.00012003,-1400.7,-0.00074235,-7880.3,0.025643
200,2.0059,2.3636,0,0.00070982,7093.3,0.00029705,0.97329,0.00012002,-1329.2,-0.00072299,-7663.2,0.025412
201,2.0059,2.1818,0,0.00068607,6856,0.00028395,1.258,0.00012223,-1213.9,-0.00069857,-7381.1,0.025111
202,2.0059,2,0,0.00065889,6584.4,0.00026769,1.4454,0.00012713,-1054.7,-0.00067042,-7047.2,0.024745
203,2.0059,1.8182,0,0.00062957,6291.4,0.00024934,1.6687,0.00013376,-866.81,-0.00063977,-6678.8,0.024316
204,2.0059,1.6364,0,0.00059899,5985.8,0.00023036,2.1882,0.00014016,-675.5,-0.00060756,-6293.6,0.023825
205,2.0059,1.4545,0,0.00056786,5674.6,0.00021203,2.7959,0.00014458,-503.97,-0.00057468,-5908.2,0.023273
206,2.0059,1.2727,0,0.00053712,5367.5,0.00019525,3.7164,0.00014639,-363.37,-0.00054229,-5537.9,0.022661
207,2.0059,1.0909,0,0.000508,5076.5,0.00018043,5.104,0.00014609,-252.89,-0.00051173,-5195.5,0.021991
208,2.0059,0.90909,0,0.0004818,4814.7,0.00016771,7.2858,0.00014476,-165.13,-0.00048425,-4891.3,0.021262
209,2.0059,0.72727,0,0.00045969,4593.7,0.00015722,11.697,0.00014337,-92.315,-0.00046097,-4633.1,0.020474
210,2.0059,0.54545,0,0.00044259,4422.9,0.00014995,26.03,0.00014183,-34.979,-0.00044271,-4427,0.019624
211,2.0059,0.36364,0,0.00043124,4309.5,0.00014876,71.599,0.00013793,-9.7298,-0.00043013,-4277.9,0.018706
212,2.0059,0.18182,0,0.00042847,4281.8,0.0001542,151.65,0.00013347,-4.1657,-0.00042575,-4205.9,0.017714
213,1.8235,5.8182,0,0.00046723,4669,0.000166,139.69,0.00014688,-3.9281,-0.00046475,-4599.5,0.014503
214,1.8235,5.6364,0,0.00046695,4666.3,0.00015843,44.218,0.0001508,-13.14,-0.0004664,-4650.5,0.015408
215,1.8235,5.4545,0,0.00047367,4733.5,0.00016097,9.4875,0.00014927,-78.383,-0.00047479,-4767.3,0.016231
216,1.8235,5.2727,0,0.00048472,4843.9,0.00016932,4.7799,0.00014436,-182.73,-0.00048748,-4930.1,0.016979
217,1.8235,5.0909,0,0.00049966,4993.2,0.00017979,3.1847,0.00013943,-300.01,-0.00050402,-5134.7,0.017657
218,1.8235,4.9091,0,0.00051792,5175.7,0.00019194,2.3491,0.00013446,-429.57,-0.00052384,-5375.7,0.018271
219,1.8235,4.7273,0,0.00053871,5383.4,0.00020558,1.8191,0.00012898,-573.78,-0.00054613,-5646.2,0.018825
220,1.8235,4.5455,0,0.00056113,5607.5,0.00022045,1.4495,0.00012257,-733.97,-0.00056996,-5937.4,0.01932
221,1.8235,4.3636,0,0.00058434,5839.3,0.00023611,1.1653,0.00011521,-907.27,-0.00059442,-6239.1,0.01976
222,1.8235,4.1818,0,0.00060757,6071.5,0.00025188,0.94509,0.00010741,-1084.6,-0.00061868,-6540.1,0.020144
223,1.8235,4,0,0.00063015,6297.1,0.0002669,0.744,0.00010022,-1251.6,-0.00064201,-6828.5,0.020476
224,1.8235,3.8182,0,0.00065128,6508.3,0.00028029,0.63829,9.4685e-05,-1393.9,-0.00066367,-7092,0.020755
225,1.8235,3.6364,0,0.00066998,6695.1,0.00029135,0.65589,9.1308e-05,-1502.4,-0.00068274,-7318.2,0.020981
226,1.8235,3.4545,0,0.00068512,6846.5,0.00029966,0.69209,8.9842e-05,-1575.8,-0.00069815,-7496.5,0.021154
227,1.8235,3.2727,0,0.00069575,6952.7,0.00030514,0.72733,8.9543e-05,-1619.2,-0.00070897,-7618.9,0.021271
228,1.8235,3.0909,0,0.00070121,7007.3,0.00030784,0.7535,8.9628e-05,-1638.8,-0.00071453,-7680.9,0.02133
229,1.8235,2.9091,0,0.00070121,7007.3,0.00030784,0.7535,8.9628e-05,-1638.8,-0.00071453,-7680.9,0.02133
230,1.8235,2.7273,0,0.00069575,6952.7,0.00030514,0.72733,8.9543e-05,-1619.2,-0.00070897,-7618.9,0.021271
231,1.8235,2.5455,0,0.00068512,6846.5,0.00029966,0.69209,8.9842e-05,-1575.8,-0.00069815,-7496.5,0.021154
232,1.8235,2.3636,0,0.00066998,6695.2,0.00029135,0.6559,9.1308e-05,-1502.4,-0.00068274,-7318.3,0.020981
233,1.8235,2.1818,0,0.00065128,6508.3,0.00028029,0.63829,9.4685e-05,-1393.9,-0.00066367,-7092,0.020755
234,1.8235,2,0,0.00063015,6297.1,0.0002669,0.744,0.00010022,-1251.6,-0.00064201,-6828.5,0.020476
235,1.8235,1.8182,0,0.00060757,6071.5,0.00025188,0.94509,0.00010741,-1084.6,-0.00061868,-6540.1,0.020144
236,1.8235,1.6364,0,0.00058434,5839.3,0.00023611,1.1653,0.00011521,-907.27,-0.00059442,-6239.1,0.01976
237,1.8235,1.4545,0,0.00056113,5607.5,0.00022045,1.4495,0.00012258,-733.97,-0.00056996,-5937.4,0.01932
238,1.8235,1.2727,0,0.00053871,5383.4,0.00020558,1.8191,0.00012898,-573.78,-0.00054613,-5646.2,0.018825
239,1.8235,1.0909,0,0.00051792,5175.7,0.00019194,2.3491,0.00013446,-429.57,-0.00052384,-5375.7,0.018271
240,1.8235,0.90909,0,0.00049966,4993.2,0.00017979,3.1847,0.00013944,-300.01,-0.00050402,-5134.7,0.017657
241,1.8235,0.72727,0,0.00048472,4843.9,0.00016932,4.7799,0.00014436,-182.73,-0.00048748,-4930.1,0.016979
242,1.8235,0.54545,0,0.00047368,4733.5,0.00016097,9.4875,0.00014927,-78.383,-0.00047479,-4767.3,0.016231
243,1.8235,0.36364,0,0.00046695,4666.3,0.00015843,44.218,0.0001508,-13.14,-0.0004664,-4650.5,0.015408
244,1.8235,0.18182,0,0.00046723,4669,0.000166,139.69,0.00014688,-3.9281,-0.00046475,-4599.5,0.014503
245,1.6412,5.8182,0,0.00049907,4987.3,0.00017546,126.94,0.00015802,-4.1645,-0.00049686,-4924.6,0.011581
246,1.6412,5.6364,0,0.0004957,4953.6,0.00016657,20.383,0.0001604,-25.982,-0.00049578,-4956.2,0.012399
247,1.6412,5.4545,0,0.00049838,4980.4,0.00017171,4.6924,0.00015253,-139.44,-0.00050052,-5046.2,0.01313
248,1.6412,5.2727,0,0.00050451,5041.7,0.00018037,2.7238,0.0001428,-279.57,-0.00050863,-5174.1,0.01378
249,1.6412,5.0909,0,0.00051391,5135.5,0.00019065,1.9008,0.00013301,-431.19,-0.00051984,-5336.5,0.014359
250,1.6412,4.9091,0,0.00052626,5259,0.00020224,1.4485,0.00012338,-591.02,-0.00053378,-5528.7,0.014871
251,1.6412,4.7273,0,0.00054106,5406.8,0.00021484,1.1589,0.00011388,-757.45,-0.00054991,-5744.9,0.015324
252,1.6412,4.5455,0,0.00055764,5572.5,0.00022817,0.95989,0.00010445,-928.59,-0.00056757,-5977.9,0.015722
253,1.6412,4.3636,0,0.0005753,5749,0.0002418,0.80975,9.5209e-05,-1100.6,-0.00058603,-6219.2,0.016068
254,1.6412,4.1818,0,0.00059335,5929.4,0.00025524,0.68607,8.6519e-05,-1267,-0.00060463,-6460,0.016367
255,1.6412,4,0,0.00061111,6106.8,0.00026787,0.59511,7.8946e-05,-1418.9,-0.00062272,-6691,0.01662
256,1.6412,3.8182,0,0.00062782,6273.9,0.00027912,0.53479,7.3017e-05,-1548,-0.00063964,-6902.6,0.01683
257,1.6412,3.6364,0,0.00064266,6422.2,0.00028849,0.50811,6.896e-05,-1648.9,-0.00065461,-7085.5,0.016999
258,1.6412,3.4545,0,0.00065475,6543,0.00029566,0.5226,6.6599e-05,-1720.5,-0.0006668,-7231,0.017126
259,1.6412,3.2727,0,0.0006633,6628.5,0.00030047,0.55273,6.5468e-05,-1765.1,-0.00067543,-7332,0.017212
260,1.6412,3.0909,0,0.00066773,6672.7,0.00030287,0.57335,6.5062e-05,-1786.2,-0.0006799,-7383.6,0.017255
261,1.6412,2.9091,0,0.00066773,6672.7,0.00030287,0.57335,6.5062e-05,-1786.2,-0.0006799,-7383.6,0.017255
262,1.6412,2.7273,0,0.0006633,6628.5,0.00030047,0.55273,6.5468e-05,-1765.1,-0.00067543,-7332,0.017212
263,1.6412,2.5455,0,0.00065475,6543,0.00029566,0.5226,6.6599e-05,-1720.5,-0.0006668,-7231,0.017126
264,1.6412,2.3636,0,0.00064266,6422.2,0.00028849,0.50812,6.896e-05,-1648.9,-0.00065461,-7085.5,0.016999
265,1.6412,2.1818,0,0.00062782,6273.9,0.00027912,0.53479,7.3017e-05,-1548,-0.00063964,-6902.6,0.01683
266,1.6412,2,0,0.00061111,6106.8,0.00026787,0.59511,7.8946e-05,-1418.9,-0.00062272,-6691,0.01662
267,1.6412,1.8182,0,0.00059335,5929.4,0.00025524,0.68607,8.652e-05,-1267,-0.00060463,-6460,0.016367
268,1.6412,1.6364,0,0.0005753,5749,0.0002418,0.80975,9.5209e-05,-1100.6,-0.00058603,-6219.2,0.016068
269,1.6412,1.4545,0,0.00055764,5572.5,0.00022817,0.95989,0.00010445,-928.59,-0.00056757,-5977.9,0.015722
270,1.6412,1.2727,0,0.00054106,5406.8,0.00021484,1.1589,0.00011388,-757.45,-0.00054991,-5744.9,0.015324
271,1.6412,1.0909,0,0.00052626,5259,0.00020224,1.4485,0.00012338,-591.02,-0.00053378,-5528.7,0.014871
272,1.6412,0.90909,0,0.00051391,5135.5,0.00019065,1.9008,0.00013301,-431.19,-0.00051984,-5336.5,0.014359
273,1.6412,0.72727,0,0.00050451,5041.7,0.00018037,2.7238,0.0001428,-279.57,-0.00050863,-5174.1,0.01378
274,1.6412,0.54545,0,0.00049838,4980.4,0.00017171,4.6924,0.00015253,-139.44,-0.00050052,-5046.2,0.01313
275,1.6412,0.36364,0,0.0004957,4953.6,0.00016657,20.383,0.0001604,-25.982,-0.00049578,-4956.2,0.012399
276,1.6412,0.18182,0,0.00049907,4987.3,0.00017546,126.94,0.00015802,-4.1645,-0.00049686,-4924.6,0.011581
277,1.4588,5.8182,0,0.00052445,5240.8,0.00018291,115.33,0.00016692,-4.8494,-0.00052246,-5184.6,0.0089693
278,1.4588,5.6364,0,0.0005179,5175.4,0.00017446,9.3664,0.00016574,-56.213,-0.00051867,-5198.5,0.0096997
279,1.4588,5.4545,0,0.000517,5166.4,0.00018115,2.8782,0.00015279,-210.21,-0.0005202,-5266.8,0.010339
280,1.4588,5.2727,0,0.00051918,5188.3,0.0001901,1.7789,0.00013888,-383.06,-0.0005246,-5368.2,0.010897
281,1.4588,5.0909,0,0.00052445,5240.9,0.00020036,1.2419,0.00012511,-564.16,-0.00053173,-5499.4,0.011382
282,1.4588,4.9091,0,0.00053267,5323,0.00021157,0.94136,0.00011198,-747.39,-0.0005414,-5656.6,0.011804
283,1.4588,4.7273,0,0.00054343,5430.6,0.00022342,0.74573,9.971e-05,-928.75,-0.00055322,-5834.6,0.012169
284,1.4588,4.5455,0,0.00055615,5557.7,0.00023558,0.61041,8.8407e-05,-1105.2,-0.00056662,-6026.9,0.012483
285,1.4588,4.3636,0,0.00057015,5697.5,0.00024771,0.50651,7.8153e-05,-1273.5,-0.00058101,-6226.2,0.012751
286,1.4588,4.1818,0,0.00058471,5843,0.00025941,0.4222,6.9112e-05,-1429.4,-0.00059574,-6424.8,0.012979
287,1.4588,4,0,0.00059914,5987.3,0.00027027,0.35579,6.1513e-05,-1568.1,-0.00061019,-6615,0.013169
288,1.4588,3.8182,0,0.00061274,6123.2,0.00027987,0.31558,5.5554e-05,-1685.1,-0.00062374,-6789.1,0.013325
289,1.4588,3.6364,0,0.00062479,6243.6,0.00028789,0.30451,5.1279e-05,-1777.5,-0.00063573,-6939.4,0.013448
290,1.4588,3.4545,0,0.0006346,6341.6,0.00029405,0.31315,4.8525e-05,-1844.5,-0.0006455,-7059.1,0.01354
291,1.4588,3.2727,0,0.00064153,6410.9,0.00029823,0.32985,4.6979e-05,-1887.4,-0.00065242,-7142.5,0.013601
292,1.4588,3.0909,0,0.00064512,6446.8,0.00030033,0.34228,4.631e-05,-1908.2,-0.00065601,-7185.2,0.013632
293,1.4588,2.9091,0,0.00064512,6446.8,0.00030033,0.34228,4.631e-05,-1908.2,-0.00065601,-7185.2,0.013632
294,1.4588,2.7273,0,0.00064153,6410.9,0.00029823,0.32985,4.6979e-05,-1887.4,-0.00065242,-7142.5,0.013601
295,1.4588,2.5455,0,0.0006346,6341.6,0.00029405,0.31315,4.8526e-05,-1844.5,-0.0006455,-7059.1,0.01354
296,1.4588,2.3636,0,0.00062479,6243.6,0.00028789,0.30451,5.1279e-05,-1777.5,-0.00063573,-6939.4,0.013448
297,1.4588,2.1818,0,0.00061274,6123.2,0.00027987,0.31558,5.5554e-05,-1685.1,-0.00062374,-6789.1,0.013325
298,1.4588,2,0,0.00059914,5987.3,0.00027027,0.35579,6.1513e-05,-1568.1,-0.00061019,-6615,0.013169
299,1.4588,1.8182,0,0.00058471,5843,0.00025941,0.4222,6.9112e-05,-1429.4,-0.00059574,-6424.8,0.012979
300,1.4588,1.6364,0,0.00057015,5697.5,0.00024771,0.50651,7.8154e-05,-1273.5,-0.00058101,-6226.2,0.012751
301,1.4588,1.4545,0,0.00055615,5557.7,0.00023558,0.61041,8.8407e-05,-1105.2,-0.00056663,-6026.9,0.012483
302,1.4588,1.2727,0,0.00054343,5430.6,0.00022342,0.74573,9.971e-05,-928.75,-0.00055322,-5834.6,0.012169
303,1.4588,1.0909,0,0.00053267,5323,0.00021157,0.94136,0.00011198,-747.39,-0.0005414,-5656.6,0.011804
304,1.4588,0.90909,0,0.00052445,5240.9,0.00020036,1.2419,0.00012511,-564.16,-0.00053173,-5499.4,0.011382
305,1.4588,0.72727,0,0.00051918,5188.3,0.0001901,1.7789,0.00013888,-383.06,-0.0005246,-5368.2,0.010897
306,1.4588,0.54545,0,0.000517,5166.4,0.00018115,2.8782,0.00015279,-210.21,-0.0005202,-5266.8,0.010339
307,1.4588,0.36364,0,0.0005179,5175.4,0.00017446,9.3664,0.00016574,-56.213,-0.00051867,-5198.5,0.0096997
308,1.4588,0.18182,0,0.00052445,5240.8,0.00018291,115.33,0.00016692,-4.8494,-0.00052246,-5184.6,0.0089693
309,1.2765,5.8182,0,0.00054357,5432,0.00018853,106.44,0.00017359,-5.8308,-0.00054177,-5380.8,0.0066855
310,1.2765,5.6364,0,0.00053378,5334.1,0.00018147,6.0034,0.00016765,-97.86,-0.00053526,-5379.2,0.0073258
311,1.2765,5.4545,0,0.00052975,5293.9,0.00018919,2.3389,0.00015026,-290.15,-0.00053404,-5431.7,0.0078743
312,1.2765,5.2727,0,0.00052892,5285.6,0.00019869,1.6197,0.0001324,-496.46,-0.00053557,-5515.3,0.0083422
313,1.2765,5.0909,0,0.00053142,5310.5,0.00020922,1.2288,0.00011524,-704.85,-0.00053985,-5627,0.0087405
314,1.2765,4.9091,0,0.00053714,5367.7,0.00022035,1.0155,9.9516e-05,-906.88,-0.00054676,-5762.7,0.0090787
315,1.2765,4.7273,0,0.00054562,5452.5,0.00023174,0.87725,8.5532e-05,-1097.7,-0.00055591,-5917.2,0.0093653
316,1.2765,4.5455,0,0.00055618,5558,0.00024308,0.78287,7.3335e-05,-1274.6,-0.00056676,-6084.1,0.0096071
317,1.2765,4.3636,0,0.00056805,5676.6,0.0002541,0.71086,6.286e-05,-1436.2,-0.00057866,-6256.3,0.0098102
318,1.2765,4.1818,0,0.00058048,5800.8,0.00026449,0.65286,5.4039e-05,-1580.6,-0.00059095,-6426.8,0.0099792
319,1.2765,4,0,0.00059277,5923.6,0.00027399,0.60801,4.6842e-05,-1706.1,-0.00060304,-6589,0.010118
320,1.2765,3.8182,0,0.00060428,6038.6,0.00028231,0.57825,4.1239e-05,-1810.7,-0.00061432,-6736.4,0.01023
321,1.2765,3.6364,0,0.00061439,6139.6,0.00028921,0.56474,3.7146e-05,-1893.4,-0.00062426,-6862.9,0.010318
322,1.2765,3.4545,0,0.00062255,6221.2,0.00029453,0.56523,3.4394e-05,-1954,-0.0006323,-6963.2,0.010382
323,1.2765,3.2727,0,0.00062829,6278.6,0.00029813,0.57255,3.2754e-05,-1993.3,-0.00063796,-7032.9,0.010425
324,1.2765,3.0909,0,0.00063126,6308.2,0.00029994,0.57868,3.2002e-05,-2012.6,-0.0006409,-7068.5,0.010446
325,1.2765,2.9091,0,0.00063126,6308.2,0.00029994,0.57868,3.2002e-05,-2012.6,-0.0006409,-7068.5,0.010446
326,1.2765,2.7273,0,0.00062829,6278.6,0.00029813,0.57255,3.2754e-05,-1993.3,-0.00063796,-7032.9,0.010425
327,1.2765,2.5455,0,0.00062255,6221.2,0.00029453,0.56523,3.4394e-05,-1954,-0.0006323,-6963.2,0.010382
328,1.2765,2.3636,0,0.00061439,6139.6,0.00028921,0.56474,3.7146e-05,-1893.4,-0.00062426,-6862.9,0.010318
329,1.2765,2.1818,0,0.00060428,6038.6,0.00028231,0.57825,4.1239e-05,-1810.7,-0.00061432,-6736.4,0.01023
330,1.2765,2,0,0.00059277,5923.6,0.00027399,0.60801,4.6842e-05,-1706.1,-0.00060304,-6589,0.010118
331,1.2765,1.8182,0,0.00058048,5800.8,0.00026449,0.65286,5.4039e-05,-1580.6,-0.00059095,-6426.8,0.0099792
332,1.2765,1.6364,0,0.00056805,5676.6,0.0002541,0.71086,6.286e-05,-1436.2,-0.00057866,-6256.3,0.0098102
333,1.2765,1.4545,0,0.00055618,5558,0.00024308,0.78287,7.3335e-05,-1274.6,-0.00056676,-6084.1,0.0096071
334,1.2765,1.2727,0,0.00054562,5452.5,0.00023174,0.87725,8.5532e-05,-1097.7,-0.00055591,-5917.2,0.0093653
335,1.2765,1.0909,0,0.00053714,5367.7,0.00022035,1.0155,9.9516e-05,-906.88,-0.00054676,-5762.7,0.0090787
336,1.2765,0.90909,0,0.00053142,5310.5,0.00020922,1.2288,0.00011524,-704.85,-0.00053985,-5627,0.0087405
337,1.2765,0.72727,0,0.00052892,5285.6,0.00019869,1.6197,0.0001324,-496.46,-0.00053557,-5515.3,0.0083422
338,1.2765,0.54545,0,0.00052975,5293.9,0.00018919,2.3389,0.00015026,-290.15,-0.00053404,-5431.7,0.0078743
339,1.2765,0.36364,0,0.00053378,5334.1,0.00018147,6.0034,0.00016765,-97.861,-0.00053526,-5379.2,0.0073258
340,1.2765,0.18182,0,0.00054357,5432,0.00018853,106.43,0.00017359,-5.8308,-0.00054177,-5380.8,0.0066855
341,1.0941,5.8182,0,0.00055626,5558.8,0.00019237,101.13,0.00017789,-7.6615,-0.00055459,-5511.3,0.004741
342,1.0941,5.6364,0,0.00054311,5427.3,0.00018681,4.0175,0.00016667,-147.32,-0.00054539,-5497.4,0.0052882
343,1.0941,5.4545,0,0.00053646,5360.9,0.00019575,1.0139,0.00014464,-383,-0.00054192,-5541.6,0.0057453
344,1.0941,5.2727,0,0.00053367,5333,0.00020623,0.32785,0.00012288,-625.94,-0.00054155,-5618.2,0.0061254
345,1.0941,5.0909,0,0.00053489,5345.2,0.00021741,-0.082393,0.00010289,-860.58,-0.00054431,-5723.4,0.0064409
346,1.0941,4.9091,0,0.00053981,5394.4,0.00022879,-0.30956,8.5464e-05,-1077.2,-0.00055001,-5851.9,0.0067026
347,1.0941,4.7273,0,0.00054768,5473,0.00024,-0.45903,7.0786e-05,-1271.9,-0.00055813,-5997.3,0.0069194
348,1.0941,4.5455,0,0.00055757,5571.9,0.0002508,-0.56191,5.8651e-05,-1444.3,-0.00056793,-6152.2,0.0070987
349,1.0941,4.3636,0,0.0005686,5682.1,0.00026099,-0.63958,4.8727e-05,-1595.5,-0.0005787,-6309.7,0.0072462
350,1.0941,4.1818,0,0.00057996,5795.6,0.00027037,-0.70048,4.0702e-05,-1726.3,-0.00058973,-6463.2,0.0073668
351,1.0941,4,0,0.000591,5906,0.00027878,-0.74731,3.4331e-05,-1837.4,-0.00060044,-6606.8,0.0074643
352,1.0941,3.8182,0,0.00060116,6007.4,0.00028605,-0.77989,2.9431e-05,-1928.9,-0.0006103,-6735.5,0.0075417
353,1.0941,3.6364,0,0.00060995,6095.3,0.00029203,-0.79864,2.5837e-05,-2000.9,-0.00061885,-6844.8,0.0076013
354,1.0941,3.4545,0,0.00061695,6165.3,0.00029661,-0.80626,2.3375e-05,-2053.8,-0.00062569,-6930.6,0.0076448
355,1.0941,3.2727,0,0.00062183,6214,0.00029971,-0.80719,2.1867e-05,-2088.4,-0.00063047,-6989.8,0.0076732
356,1.0941,3.0909,0,0.00062434,6239.1,0.00030127,-0.80613,2.1159e-05,-2105.4,-0.00063293,-7020,0.0076873
357,1.0941,2.9091,0,0.00062434,6239.1,0.00030127,-0.80613,2.1159e-05,-2105.4,-0.00063293,-7020,0.0076873
358,1.0941,2.7273,0,0.00062183,6214,0.00029971,-0.80719,2.1867e-05,-2088.4,-0.00063047,-6989.8,0.0076732
359,1.0941,2.5455,0,0.00061695,6165.3,0.00029661,-0.80626,2.3375e-05,-2053.8,-0.00062569,-6930.6,0.0076448
360,1.0941,2.3636,0,0.00060995,6095.3,0.00029203,-0.79864,2.5837e-05,-2000.9,-0.00061885,-6844.8,0.0076013
361,1.0941,2.1818,0,0.00060116,6007.4,0.00028605,-0.77989,2.9431e-05,-1928.9,-0.0006103,-6735.5,0.0075417
362,1.0941,2,0,0.000591,5906,0.00027878,-0.74731,3.4331e-05,-1837.4,-0.00060044,-6606.8,0.0074643
363,1.0941,1.8182,0,0.00057996,5795.6,0.00027037,-0.70048,4.0702e-05,-1726.3,-0.00058973,-6463.2,0.0073668
364,1.0941,1.6364,0,0.0005686,5682.1,0.00026099,-0.63958,4.8727e-05,-1595.5,-0.0005787,-6309.7,0.0072462
365,1.0941,1.4545,0,0.00055757,5571.9,0.0002508,-0.56191,5.8651e-05,-1444.3,-0.00056794,-6152.2,0.0070987
366,1.0941,1.2727,0,0.00054768,5473,0.00024,-0.45903,7.0786e-05,-1271.9,-0.00055813,-5997.3,0.0069194
367,1.0941,1.0909,0,0.00053981,5394.4,0.00022879,-0.30956,8.5464e-05,-1077.2,-0.00055001,-5851.9,0.0067026
368,1.0941,0.90909,0,0.00053489,5345.2,0.00021741,-0.082393,0.00010289,-860.58,-0.00054431,-5723.4,0.0064409
369,1.0941,0.72727,0,0.00053367,5333,0.00020623,0.32785,0.00012288,-625.94,-0.00054155,-5618.2,0.0061254
370,1.0941,0.54545,0,0.00053646,5360.9,0.00019575,1.0139,0.00014464,-383,-0.00054192,-5541.6,0.0057453
371,1.0941,0.36364,0,0.00054311,5427.3,0.00018681,4.0175,0.00016667,-147.32,-0.00054539,-5497.4,0.0052882
372,1.0941,0.18182,0,0.00055626,5558.8,0.00019237,101.13,0.00017789,-7.6615,-0.00055459,-5511.3,0.004741
373,0.91176,5.8182,0,0.00056178,5613.9,0.0001942,100.92,0.00017967,-8.2226,-0.00056012,-5566.8,0.0031426
374,0.91176,5.6364,0,0.00054534,5449.7,0.00019057,6.4637,0.00016239,-205.26,-0.00054842,-5546,0.003593
375,0.91176,5.4545,0,0.00053694,5365.7,0.00020148,4.6853,0.00013511,-493.94,-0.00054352,-5593,0.0039576
376,0.91176,5.2727,0,0.00053378,5334.1,0.00021362,4.5153,0.00010952,-777.6,-0.00054261,-5677.5,0.0042516
377,0.91176,5.0909,0,0.0005357,5353.3,0.00022595,4.4157,8.7458e-05,-1036.2,-0.00054561,-5792.8,0.0044887
378,0.91176,4.9091,0,0.00054178,5414.1,0.00023793,4.408,6.9483e-05,-1261.2,-0.00055194,-5930.4,0.0046803
379,0.91176,4.7273,0,0.00055072,5503.4,0.00024922,4.4129,5.5288e-05,-1452.8,-0.00056068,-6080.9,0.0048354
380,0.91176,4.5455,0,0.00056128,5609,0.00025969,4.4193,4.4216e-05,-1614.6,-0.00057086,-6236,0.0049608
381,0.91176,4.3636,0,0.00057248,5720.9,0.00026923,4.4189,3.5598e-05,-1751,-0.00058161,-6388.5,0.0050619
382,0.91176,4.1818,0,0.00058356,5831.5,0.00027778,4.4124,2.8892e-05,-1865.6,-0.00059226,-6532.7,0.005143
383,0.91176,4,0,0.00059395,5935.4,0.00028527,4.4028,2.3709e-05,-1960.9,-0.00060229,-6664.4,0.0052074
384,0.91176,3.8182,0,0.00060325,6028.3,0.00029164,4.3937,1.9778e-05,-2038.3,-0.00061129,-6779.9,0.0052576
385,0.91176,3.6364,0,0.00061111,6106.9,0.00029682,4.3875,1.69e-05,-2098.8,-0.00061893,-6876.1,0.0052957
386,0.91176,3.4545,0,0.00061727,6168.4,0.00030075,4.3848,1.4914e-05,-2143.3,-0.00062492,-6950.8,0.0053231
387,0.91176,3.2727,0,0.0006215,6210.7,0.00030339,4.3846,1.3682e-05,-2172.4,-0.00062906,-7001.7,0.0053409
388,0.91176,3.0909,0,0.00062366,6232.3,0.00030472,4.3852,1.3095e-05,-2186.8,-0.00063117,-7027.6,0.0053496
389,0.91176,2.9091,0,0.00062366,6232.3,0.00030472,4.3852,1.3095e-05,-2186.8,-0.00063117,-7027.6,0.0053496
390,0.91176,2.7273,0,0.0006215,6210.7,0.00030339,4.3846,1.3682e-05,-2172.4,-0.00062906,-7001.7,0.0053409
391,0.91176,2.5455,0,0.00061727,6168.4,0.00030075,4.3848,1.4914e-05,-2143.3,-0.00062492,-6950.8,0.0053231
392,0.91176,2.3636,0,0.00061111,6106.9,0.00029682,4.3875,1.6901e-05,-2098.8,-0.00061893,-6876.1,0.0052957
393,0.91176,2.1818,0,0.00060325,6028.3,0.00029164,4.3937,1.9778e-05,-2038.3,-0.00061129,-6779.9,0.0052576
394,0.91176,2,0,0.00059395,5935.4,0.00028527,4.4028,2.3709e-05,-1960.9,-0.00060229,-6664.4,0.0052074
395,0.91176,1.8182,0,0.00058356,5831.5,0.00027778,4.4124,2.8892e-05,-1865.6,-0.00059226,-6532.8,0.005143
396,0.91176,1.6364,0,0.00057248,5720.9,0.00026923,4.4189,3.5598e-05,-1751,-0.00058161,-6388.5,0.0050619
397,0.91176,1.4545,0,0.00056128,5609,0.00025969,4.4193,4.4216e-05,-1614.6,-0.00057086,-6236,0.0049608
398,0.91176,1.2727,0,0.00055072,5503.4,0.00024922,4.4129,5.5288e-05,-1452.8,-0.00056068,-6080.9,0.0048354
399,0.91176,1.0909,0,0.00054178,5414.1,0.00023793,4.408,6.9483e-05,-1261.2,-0.00055194,-5930.4,0.0046803
400,0.91176,0.90909,0,0.0005357,5353.3,0.00022595,4.4157,8.7458e-05,-1036.2,-0.00054561,-5792.8,0.0044887
401,0.91176,0.72727,0,0.00053378,5334.1,0.00021362,4.5153,0.00010952,-777.6,-0.00054261,-5677.5,0.0042516
402,0.91176,0.54545,0,0.00053694,5365.7,0.00020148,4.6853,0.00013511,-493.94,-0.00054353,-5593,0.0039576
403,0.91176,0.36364,0,0.00054534,5449.7,0.00019057,6.4637,0.00016239,-205.26,-0.00054842,-5546,0.003593
404,0.91176,0.18182,0,0.00056178,5613.9,0.0001942,100.92,0.00017967,-8.2226,-0.00056012,-5566.8,0.0031426
405,0.72941,5.8182,0,0.00055766,5572.8,0.00019336,102.54,0.00017758,-16.041,-0.00055609,-5528.6,0.0018911
406,0.72941,5.6364,0,0.00053766,5372.9,0.00019102,-4.9755,0.00015355,-286.54,-0.00054207,-5513.1,0.0022406
407,0.72941,5.4545,0,0.00052882,5284.5,0.00020466,-10.346,0.00012015,-645.33,-0.0005371,-5583.7,0.0025119
408,0.72941,5.2727,0,0.00052775,5273.9,0.00021917,-12.278,9.1247e-05,-973.41,-0.0005379,-5700.6,0.0027224
409,0.72941,5.0909,0,0.00053302,5326.5,0.00023307,-13.565,6.857e-05,-1249.5,-0.00054363,-5849.4,0.0028865
410,0.72941,4.9091,0,0.00054242,5420.4,0.00024583,-14.381,5.1694e-05,-1473.1,-0.00055278,-6014.9,0.0030154
411,0.72941,4.7273,0,0.00055393,5535.5,0.00025729,-14.955,3.9378e-05,-1652.3,-0.00056381,-6184.4,0.003117
412,0.72941,4.5455,0,0.00056613,5657.4,0.00026746,-15.366,3.0374e-05,-1796.7,-0.0005755,-6349,0.0031973
413,0.72941,4.3636,0,0.00057809,5776.9,0.00027639,-15.667,2.371e-05,-1914.2,-0.00058701,-6502.9,0.0032608
414,0.72941,4.1818,0,0.00058925,5888.4,0.00028415,-15.886,1.8713e-05,-2010.3,-0.0005978,-6642.5,0.0033106
415,0.72941,4,0,0.00059926,5988.4,0.00029078,-16.044,1.4945e-05,-2088.5,-0.00060751,-6765.4,0.0033494
416,0.72941,3.8182,0,0.00060789,6074.7,0.0002963,-16.153,1.2124e-05,-2151.3,-0.00061592,-6870.2,0.0033791
417,0.72941,3.6364,0,0.00061499,6145.7,0.00030072,-16.226,1.0067e-05,-2200.1,-0.00062285,-6955.6,0.0034013
418,0.72941,3.4545,0,0.00062043,6200.1,0.00030404,-16.272,8.6428e-06,-2235.8,-0.00062818,-7020.6,0.003417
419,0.72941,3.2727,0,0.00062412,6236.9,0.00030626,-16.298,7.7523e-06,-2259.2,-0.00063179,-7064.5,0.0034271
420,0.72941,3.0909,0,0.00062598,6255.5,0.00030737,-16.31,7.3258e-06,-2270.7,-0.00063362,-7086.6,0.003432
421,0.72941,2.9091,0,0.00062598,6255.5,0.00030737,-16.31,7.3258e-06,-2270.7,-0.00063362,-7086.6,0.003432
422,0.72941,2.7273,0,0.00062412,6236.9,0.00030626,-16.298,7.7523e-06,-2259.2,-0.00063179,-7064.5,0.0034271
423,0.72941,2.5455,0,0.00062043,6200.1,0.00030404,-16.272,8.6428e-06,-2235.8,-0.00062818,-7020.6,0.003417
424,0.72941,2.3636,0,0.00061499,6145.7,0.00030072,-16.226,1.0067e-05,-2200.1,-0.00062285,-6955.6,0.0034013
425,0.72941,2.1818,0,0.00060789,6074.7,0.0002963,-16.153,1.2125e-05,-2151.3,-0.00061592,-6870.2,0.0033791
426,0.72941,2,0,0.00059926,5988.4,0.00029078,-16.044,1.4945e-05,-2088.5,-0.00060751,-6765.4,0.0033494
427,0.72941,1.8182,0,0.00058925,5888.4,0.00028415,-15.886,1.8713e-05,-2010.3,-0.0005978,-6642.5,0.0033106
428,0.72941,1.6364,0,0.00057809,5776.9,0.00027639,-15.667,2.371e-05,-1914.2,-0.00058701,-6502.9,0.0032608
429,0.72941,1.4545,0,0.00056613,5657.4,0.00026746,-15.366,3.0374e-05,-1796.7,-0.0005755,-6349,0.0031973
430,0.72941,1.2727,0,0.00055393,5535.5,0.00025729,-14.955,3.9378e-05,-1652.3,-0.00056381,-6184.4,0.003117
431,0.72941,1.0909,0,0.00054242,5420.4,0.00024583,-14.381,5.1694e-05,-1473.1,-0.00055278,-6014.9,0.0030154
432,0.72941,0.90909,0,0.00053302,5326.5,0.00023307,-13.565,6.857e-05,-1249.5,-0.00054363,-5849.4,0.0028865
433,0.72941,0.72727,0,0.00052775,5273.9,0.00021917,-12.278,9.1247e-05,-973.41,-0.0005379,-5700.6,0.0027224
434,0.72941,0.54545,0,0.00052882,5284.5,0.00020466,-10.346,0.00012015,-645.33,-0.0005371,-5583.7,0.0025119
435,0.72941,0.36364,0,0.00053766,5372.9,0.00019102,-4.9755,0.00015355,-286.54,-0.00054207,-5513.1,0.0022406
436,0.72941,0.18182,0,0.00055766,5572.8,0.00019336,102.54,0.00017758,-16.041,-0.00055609,-5528.6,0.0018911
437,0.54706,5.8182,0,0.00054077,5404,0.00018817,116.95,0.00017267,0.49498,-0.00053868,-5344.3,0.00098006
438,0.54706,5.6364,0,0.00052037,5200.1,0.00019399,42,0.00013682,-387.51,-0.00052492,-5359.6,0.0012251
439,0.54706,5.4545,0,0.00051649,5161.3,0.00021384,50.306,9.6828e-05,-828.85,-0.00052408,-5494.1,0.0014045
440,0.54706,5.2727,0,0.00052334,5229.8,0.00023251,54.789,6.6864e-05,-1189.8,-0.00053141,-5685,0.0015369
441,0.54706,5.0909,0,0.00053642,5360.5,0.00024891,57.928,4.6465e-05,-1463.1,-0.00054388,-5898.8,0.001636
442,0.54706,4.9091,0,0.00055184,5514.6,0.00026289,60.193,3.2993e-05,-1667.1,-0.00055848,-6111.3,0.0017113
443,0.54706,4.7273,0,0.00056732,5669.3,0.0002747,61.816,2.4029e-05,-1821.6,-0.00057327,-6309.5,0.0017692
444,0.54706,4.5455,0,0.00058177,5813.7,0.00028465,62.982,1.7905e-05,-1941.2,-0.00058719,-6487.7,0.0018139
445,0.54706,4.3636,0,0.00059473,5943.2,0.00029302,63.81,1.3585e-05,-2035.8,-0.00059976,-6644.2,0.0018485
446,0.54706,4.1818,0,0.00060603,6056.1,0.00030003,64.388,1.0449e-05,-2111.4,-0.00061077,-6779,0.001875
447,0.54706,4,0,0.00061565,6152.2,0.00030583,64.78,8.1288e-06,-2172.1,-0.00062018,-6892.9,0.0018952
448,0.54706,3.8182,0,0.00062361,6231.8,0.00031054,65.04,6.4089e-06,-2220.1,-0.00062799,-6986.7,0.0019104
449,0.54706,3.6364,0,0.00062994,6295,0.00031424,65.205,5.157e-06,-2257.1,-0.00063421,-7061.1,0.0019215
450,0.54706,3.4545,0,0.00063467,6342.3,0.00031697,65.305,4.2874e-06,-2284.1,-0.00063887,-7116.5,0.0019292
451,0.54706,3.2727,0,0.00063782,6373.8,0.00031877,65.361,3.7409e-06,-2301.7,-0.00064198,-7153.4,0.0019341
452,0.54706,3.0909,0,0.0006394,6389.6,0.00031967,65.386,3.478e-06,-2310.3,-0.00064354,-7171.7,0.0019364
453,0.54706,2.9091,0,0.0006394,6389.6,0.00031967,65.386,3.478e-06,-2310.3,-0.00064354,-7171.7,0.0019364
454,0.54706,2.7273,0,0.00063782,6373.8,0.00031877,65.361,3.7409e-06,-2301.7,-0.00064198,-7153.4,0.0019341
455,0.54706,2.5455,0,0.00063467,6342.4,0.00031697,65.305,4.2874e-06,-2284.1,-0.00063887,-7116.5,0.0019292
456,0.54706,2.3636,0,0.00062994,6295,0.00031424,65.205,5.157e-06,-2257.1,-0.00063421,-7061.1,0.0019215
457,0.54706,2.1818,0,0.00062361,6231.8,0.00031054,65.04,6.409e-06,-2220.1,-0.00062799,-6986.7,0.0019104
458,0.54706,2,0,0.00061565,6152.2,0.00030583,64.78,8.1289e-06,-2172.1,-0.00062018,-6892.9,0.0018952
459,0.54706,1.8182,0,0.00060603,6056.1,0.00030003,64.388,1.0449e-05,-2111.4,-0.00061077,-6779,0.001875
460,0.54706,1.6364,0,0.00059473,5943.2,0.00029302,63.81,1.3585e-05,-2035.8,-0.00059976,-6644.2,0.0018485
461,0.54706,1.4545,0,0.00058177,5813.7,0.00028465,62.982,1.7905e-05,-1941.2,-0.00058719,-6487.7,0.0018139
462,0.54706,1.2727,0,0.00056732,5669.3,0.0002747,61.816,2.4029e-05,-1821.6,-0.00057327,-6309.5,0.0017692
463,0.54706,1.0909,0,0.00055184,5514.6,0.00026289,60.193,3.2993e-05,-1667.1,-0.00055848,-6111.3,0.0017113
464,0.54706,0.90909,0,0.00053642,5360.5,0.00024891,57.928,4.6465e-05,-1463.1,-0.00054388,-5898.8,0.001636
465,0.54706,0.72727,0,0.00052334,5229.8,0.00023251,54.789,6.6864e-05,-1189.8,-0.00053141,-5685,0.0015369
466,0.54706,0.54545,0,0.00051649,5161.3,0.00021384,50.306,9.6828e-05,-828.85,-0.00052408,-5494.1,0.0014045
467,0.54706,0.36364,0,0.00052037,5200.1,0.00019399,42,0.00013682,-387.51,-0.00052492,-5359.6,0.0012251
468,0.54706,0.18182,0,0.00054077,5404,0.00018817,116.95,0.00017267,0.49495,-0.00053868,-5344.3,0.00098006
469,0.36471,5.8182,0,0.00049454,4942,0.00017464,85.099,0.00015147,-88.975,-0.00049438,-4941.6,0.0003916
470,0.36471,5.6364,0,0.00047085,4705.3,0.00017574,-141.17,0.00010621,-663.57,-0.00048236,-5085.8,0.0005323
471,0.36471,5.4545,0,0.00047798,4776.5,0.00019956,-186.55,6.2685e-05,-1215,-0.00049344,-5393.5,0.00062659
472,0.36471,5.2727,0,0.0004985,4981.6,0.0002207,-209.34,3.7765e-05,-1583.9,-0.00051457,-5733.9,0.00069165
473,0.36471,5.0909,0,0.00052136,5210,0.00023778,-224.02,2.3885e-05,-1831.2,-0.00053737,-6048.2,0.00073822
474,0.36471,4.9091,0,0.00054253,5421.5,0.0002514,-234.18,1.5952e-05,-2003.2,-0.00055848,-6319.3,0.0007725
475,0.36471,4.7273,0,0.00056088,5605,0.00026231,-241.39,1.1147e-05,-2128.6,-0.00057683,-6546.4,0.00079815
476,0.36471,4.5455,0,0.00057636,5759.7,0.00027112,-246.57,8.0622e-06,-2223.1,-0.00059234,-6734.3,0.0008175
477,0.36471,4.3636,0,0.00058923,5888.2,0.00027826,-250.29,5.97e-06,-2296.2,-0.00060524,-6888.5,0.0008321
478,0.36471,4.1818,0,0.00059979,5993.8,0.00028403,-252.92,4.4856e-06,-2353.3,-0.00061584,-7014.2,0.00084306
479,0.36471,4,0,0.00060835,6079.3,0.00028867,-254.74,3.4e-06,-2398.2,-0.00062442,-7115.4,0.00085119
480,0.36471,3.8182,0,0.00061514,6147.2,0.00029234,-255.96,2.5977e-06,-2433,-0.00063124,-7195.4,0.00085714
481,0.36471,3.6364,0,0.00062037,6199.4,0.00029516,-256.76,2.0127e-06,-2459.3,-0.00063648,-7256.7,0.00086137
482,0.36471,3.4545,0,0.00062418,6237.4,0.0002972,-257.25,1.6045e-06,-2478.3,-0.00064029,-7301.2,0.00086425
483,0.36471,3.2727,0,0.00062666,6262.3,0.00029854,-257.53,1.3466e-06,-2490.5,-0.00064278,-7330.2,0.00086604
484,0.36471,3.0909,0,0.00062789,6274.6,0.0002992,-257.66,1.2221e-06,-2496.5,-0.00064401,-7344.6,0.00086689
485,0.36471,2.9091,0,0.00062789,6274.6,0.0002992,-257.66,1.2221e-06,-2496.5,-0.00064401,-7344.6,0.00086689
486,0.36471,2.7273,0,0.00062666,6262.3,0.00029854,-257.53,1.3466e-06,-2490.5,-0.00064278,-7330.2,0.00086604
487,0.36471,2.5455,0,0.00062418,6237.5,0.0002972,-257.25,1.6045e-06,-2478.3,-0.00064029,-7301.2,0.00086425
488,0.36471,2.3636,0,0.00062037,6199.4,0.00029516,-256.76,2.0127e-06,-2459.3,-0.00063648,-7256.7,0.00086137
489,0.36471,2.1818,0,0.00061514,6147.2,0.00029234,-255.96,2.5978e-06,-2433,-0.00063124,-7195.4,0.00085714
490,0.36471,2,0,0.00060835,6079.3,0.00028867,-254.74,3.4e-06,-2398.2,-0.00062442,-7115.4,0.00085119
491,0.36471,1.8182,0,0.00059979,5993.8,0.00028403,-252.92,4.4856e-06,-2353.3,-0.00061584,-7014.2,0.00084306
492,0.36471,1.6364,0,0.00058923,5888.2,0.00027826,-250.29,5.97e-06,-2296.2,-0.00060524,-6888.5,0.0008321
493,0.36471,1.4545,0,0.00057636,5759.7,0.00027112,-246.57,8.0622e-06,-2223.1,-0.00059234,-6734.3,0.0008175
494,0.36471,1.2727,0,0.00056088,5605,0.00026231,-241.39,1.1147e-05,-2128.6,-0.00057683,-6546.4,0.00079816
495,0.36471,1.0909,0,0.00054253,5421.5,0.0002514,-234.18,1.5953e-05,-2003.2,-0.00055848,-6319.3,0.0007725
496,0.36471,0.90909,0,0.00052136,5210,0.00023778,-224.02,2.3885e-05,-1831.2,-0.00053737,-6048.2,0.00073822
497,0.36471,0.72727,0,0.0004985,4981.6,0.0002207,-209.34,3.7765e-05,-1583.9,-0.00051457,-5733.9,0.00069165
498,0.36471,0.54545,0,0.00047798,4776.5,0.00019956,-186.55,6.2685e-05,-1215,-0.00049344,-5393.5,0.00062659
499,0.36471,0.36364,0,0.00047085,4705.3,0.00017574,-141.17,0.00010621,-663.57,-0.00048236,-5085.8,0.0005323
500,0.36471,0.18182,0,0.00049454,4942,0.00017464,85.099,0.00015147,-88.975,-0.00049438,-4941.6,0.0003916
501,0.18235,5.8182,0,0.00040615,4058.7,0.00016238,329.07,0.00011527,-24.881,-0.00039981,-3895,9.0126e-05
502,0.18235,5.6364,0,0.00045796,4576.4,0.00023898,624.95,4.4162e-05,-838.86,-0.00044367,-4504.3,0.00013951
503,0.18235,5.4545,0,0.00052483,5244.7,0.00028908,754.89,2.0029e-05,-1266.6,-0.00050343,-5199.7,0.00016822
504,0.18235,5.2727,0,0.00057701,5766.1,0.00032318,839.06,1.0193e-05,-1512.6,-0.00055128,-5731.3,0.00018646
505,0.18235,5.0909,0,0.00061615,6157.2,0.00034693,892.75,6.0155e-06,-1668.8,-0.00058797,-6131.8,0.00019897
506,0.18235,4.9091,0,0.00064563,6451.9,0.00036431,930.93,3.8642e-06,-1777.3,-0.00061586,-6433.7,0.00020792
507,0.18235,4.7273,0,0.00066804,6675.8,0.00037725,958.09,2.6511e-06,-1856.5,-0.0006372,-6664.1,0.00021447
508,0.18235,4.5455,0,0.00068518,6847.1,0.00038702,977.7,1.8942e-06,-1916,-0.0006536,-6841.1,0.00021929
509,0.18235,4.3636,0,0.0006983,6978.2,0.00039443,991.74,1.3867e-06,-1961.4,-0.00066621,-6977.5,0.00022283
510,0.18235,4.1818,0,0.00070831,7078.2,0.00040003,1001.6,1.0255e-06,-1996.3,-0.00067586,-7082.2,0.00022541
511,0.18235,4,0,0.00071587,7153.8,0.00040423,1008.5,7.5847e-07,-2023.1,-0.00068318,-7161.9,0.00022727
512,0.18235,3.8182,0,0.0007215,7210,0.00040733,1013,5.5841e-07,-2043.3,-0.00068865,-7221.7,0.00022858
513,0.18235,3.6364,0,0.00072558,7250.8,0.00040956,1016,4.105e-07,-2058.2,-0.00069263,-7265.5,0.00022947
514,0.18235,3.4545,0,0.00072841,7279.1,0.0004111,1017.8,3.0609e-07,-2068.8,-0.0006954,-7296,0.00023006
515,0.18235,3.2727,0,0.00073019,7296.8,0.00041206,1018.8,2.3955e-07,-2075.4,-0.00069714,-7315.3,0.00023041
516,0.18235,3.0909,0,0.00073104,7305.4,0.00041252,1019.3,2.0724e-07,-2078.7,-0.00069798,-7324.6,0.00023057
517,0.18235,2.9091,0,0.00073104,7305.4,0.00041252,1019.3,2.0724e-07,-2078.7,-0.00069798,-7324.6,0.00023057
518,0.18235,2.7273,0,0.00073019,7296.8,0.00041206,1018.8,2.3956e-07,-2075.4,-0.00069714,-7315.3,0.00023041
519,0.18235,2.5455,0,0.00072841,7279.1,0.0004111,1017.8,3.061e-07,-2068.8,-0.0006954,-7296,0.00023006
520,0.18235,2.3636,0,0.00072558,7250.8,0.00040956,1016,4.1052e-07,-2058.2,-0.00069263,-7265.5,0.00022947
521,0.18235,2.1818,0,0.0007215,7210,0.00040733,1013,5.5842e-07,-2043.3,-0.00068865,-7221.7,0.00022858
522,0.18235,2,0,0.00071587,7153.8,0.00040423,1008.5,7.5848e-07,-2023.1,-0.00068318,-7161.9,0.00022727
523,0.18235,1.8182,0,0.00070831,7078.2,0.00040003,1001.6,1.0255e-06,-1996.3,-0.00067586,-7082.2,0.00022541
524,0.18235,1.6364,0,0.0006983,6978.2,0.00039443,991.74,1.3867e-06,-1961.4,-0.00066621,-6977.5,0.00022283
525,0.18235,1.4545,0,0.00068518,6847.1,0.00038702,977.7,1.8943e-06,-1916,-0.0006536,-6841.1,0.00021929
526,0.18235,1.2727,0,0.00066804,6675.8,0.00037725,958.09,2.6511e-06,-1856.5,-0.0006372,-6664.1,0.00021447
527,0.18235,1.0909,0,0.00064563,6451.9,0.00036431,930.93,3.8642e-06,-1777.3,-0.00061586,-6433.7,0.00020792
528,0.18235,0.90909,0,0.00061615,6157.3,0.00034693,892.75,6.0155e-06,-1668.8,-0.00058797,-6131.8,0.00019897
529,0.18235,0.72727,0,0.00057701,5766.1,0.00032318,839.06,1.0193e-05,-1512.6,-0.00055128,-5731.3,0.00018646
530,0.18235,0.54545,0,0.00052483,5244.7,0.00028908,754.89,2.0029e-05,-1266.6,-0.00050343,-5199.7,0.00016822
531,0.18235,0.36364,0,0.00045796,4576.4,0.00023898,624.95,4.4162e-05,-838.86,-0.00044367,-4504.3,0.00013951
532,0.18235,0.18182,0,0.00040615,4058.7,0.00016238,329.07,0.00011527,-24.881,-0.00039981,-3895,9.0126e-05
533,3.4501,5.8182,0,0.00010239,1023.2,4.7996e-05,157.81,2.3109e-05,-29.177,-9.8914e-05,-946.01,0.061286
534,3.6336,5.8182,0,0.00015386,1537.5,6.0762e-05,115.79,4.4174e-05,-8.8432,-0.00015166,-1480.3,0.075101
535,3.8171,5.8182,0,0.000208,2078.6,7.8434e-05,115.85,6.2479e-05,-4.0291,-0.00020584,-2020.1,0.089005
536,4.0006,5.8182,0,0.00025651,2563.4,9.4315e-05,115.86,7.876e-05,-1.0151,-0.00025436,-2503.9,0.10304
537,4.1841,5.8182,0,0.00029819,2979.9,0.0001076,110.55,9.2868e-05,-0.11332,-0.00029616,-2923.1,0.11723
538,4.3676,5.8182,0,0.00033302,3327.9,0.00011832,101.39,0.00010485,0.2251,-0.00033118,-3275.9,0.13162
539,4.551,5.8182,0,0.00036138,3611.3,0.00012673,89.94,0.00011479,0.27002,-0.00035976,-3565.3,0.14622
540,4.7345,5.8182,0,0.0003839,3836.3,0.00013314,77.591,0.00012284,0.22869,-0.00038251,-3796.8,0.16107
541,4.918,5.8182,0,0.00040131,4010.4,0.00013787,65.346,0.0001292,0.16627,-0.00040016,-3977.2,0.17617
542,5.1015,5.8182,0,0.00041437,4140.9,0.00014123,53.85,0.00013408,0.11202,-0.00041343,-4113.6,0.19153
543,5.285,5.8182,0,0.00042379,4234.9,0.00014347,43.464,0.0001377,0.072478,-0.00042303,-4213,0.20718
544,5.4684,5.8182,0,0.00043019,4298.9,0.00014483,34.346,0.00014026,0.046706,-0.00042959,-4281.6,0.22311
545,5.6519,5.8182,0,0.00043413,4338.3,0.00014548,26.524,0.00014195,0.03098,-0.00043367,-4324.9,0.23932
546,5.8354,5.8182,0,0.00043608,4357.8,0.00014557,19.944,0.00014292,0.021254,-0.00043574,-4347.8,0.25583
547,6.0189,5.8182,0,0.00043644,4361.3,0.00014523,14.51,0.00014331,0.013752,-0.00043619,-4354.1,0.27263
548,6.2024,5.8182,0,0.00043552,4352.2,0.00014456,10.105,0.00014322,0.004694,-0.00043534,-4347.1,0.28972
549,6.3858,5.8182,0,0.00043359,4332.9,0.00014364,6.6084,0.00014276,-0.011071,-0.00043348,-4329.6,0.30711
550,6.5693,5.8182,0,0.00043087,4305.7,0.00014252,3.9101,0.00014199,-0.044617,-0.00043081,-4303.8,0.32479
551,6.7528,5.8182,0,0.00042753,4272.3,0.00014125,1.9336,0.00014098,-0.13335,-0.0004275,-4271.4,0.34276
552,6.9363,5.8182,0,0.0004237,4234.1,0.00013991,0.73613,0.00013975,-0.43782,-0.0004237,-4234,0.36101
553,7.1198,5.8182,0,0.0004195,4192.1,0.00013852,0.34194,0.00013833,-1.0746,-0.00041951,-4192.5,0.37955
554,7.3032,5.8182,0,0.00041501,4147.3,0.00013705,0.24387,0.00013681,-1.6177,-0.00041504,-4147.9,0.39837
555,7.4867,5.8182,0,0.0004103,4100.2,0.00013551,0.21263,0.00013523,-1.9085,-0.00041033,-4101.1,0.41748
556,7.6702,5.8182,0,0.00040543,4051.5,0.00013391,0.20571,0.00013362,-1.9651,-0.00040546,-4052.4,0.43685
557,7.8537,5.8182,0,0.00040044,4001.6,0.00013225,0.21459,0.00013198,-1.8311,-0.00040046,-4002.4,0.4565
558,8.0372,5.8182,0,0.00039535,3950.8,0.00013056,0.24136,0.00013032,-1.5526,-0.00039537,-3951.5,0.47642
559,8.2206,5.8182,0,0.0003902,3899.4,0.00012885,0.29861,0.00012865,-1.1791,-0.00039022,-3899.8,0.49661
560,8.4041,5.8182,0,0.00038501,3847.5,0.00012713,0.42123,0.00012697,-0.77623,-0.00038502,-3847.7,0.51706
561,8.5876,5.8182,0,0.00037979,3795.3,0.00012541,0.68132,0.00012526,-0.44169,-0.00037979,-3795.2,0.53776
562,8.7711,5.8182,0,0.00037456,3743,0.00012371,1.1267,0.00012353,-0.24414,-0.00037454,-3742.6,0.55872
563,8.9546,5.8182,0,0.00036932,3690.6,0.00012202,1.7037,0.00012178,-0.14682,-0.00036929,-3689.8,0.57994
564,9.1381,5.8182,0,0.00036408,3638.2,0.00012035,2.3455,0.00012002,-0.096625,-0.00036404,-3637.1,0.6014
565,9.3215,5.8182,0,0.00035884,3585.9,0.00011867,3.0157,0.00011826,-0.06792,-0.00035879,-3584.4,0.6231
566,9.505,5.8182,0,0.00035361,3533.7,0.000117,3.6952,0.00011651,-0.050024,-0.00035355,-3531.9,0.64505
567,9.6885,5.8182,0,0.0003484,3481.6,0.00011534,4.3726,0.00011475,-0.038123,-0.00034833,-3479.4,0.66723
568,9.872,5.8182,0,0.0003432,3429.7,0.00011368,5.0406,0.000113,-0.029828,-0.00034312,-3427.2,0.68965
569,10.055,5.8182,0,0.00033802,3377.9,0.00011202,5.6944,0.00011126,-0.023816,-0.00033793,-3375.1,0.7123
570,10.239,5.8182,0,0.00033286,3326.3,0.00011037,6.3307,0.00010953,-0.019341,-0.00033275,-3323.2,0.73517
571,10.422,5.8182,0,0.00032772,3274.9,0.00010873,6.9473,0.0001078,-0.015961,-0.0003276,-3271.4,0.75827
572,10.606,5.8182,0,0.0003226,3223.7,0.00010709,7.5432,0.00010608,-0.013324,-0.00032247,-3220,0.78159
573,10.789,5.8182,0,0.00031749,3172.7,0.00010545,8.1176,0.00010437,-0.011226,-0.00031735,-3168.7,0.80512
574,10.973,5.8182,0,0.00031241,3122,0.00010382,8.6705,0.00010267,-0.0095229,-0.00031226,-3117.6,0.82887
575,11.156,5.8182,0,0.00030735,3071.4,0.00010219,9.2022,0.00010097,-0.0081787,-0.00030719,-3066.8,0.85283
576,11.34,5.8182,0,0.00030231,3021,0.00010057,9.7132,9.928e-05,-0.0070795,-0.00030214,-3016.2,0.87699
577,11.523,5.8182,0,0.00029729,2970.9,9.8959e-05,10.204,9.76e-05,-0.0061223,-0.00029712,-2965.7,0.90135
578,11.707,5.8182,0,0.00029229,2920.9,9.7349e-05,10.677,9.5927e-05,-0.0053541,-0.00029211,-2915.6,0.92592
579,11.89,5.8182,0,0.00028732,2871.2,9.5744e-05,11.131,9.4262e-05,-0.0046976,-0.00028713,-2865.6,0.95068
580,12.074,5.8182,0,0.00028236,2821.7,9.4146e-05,11.569,9.2605e-05,-0.0041322,-0.00028216,-2815.9,0.97563
581,12.257,5.8182,0,0.00027743,2772.4,9.2552e-05,11.991,9.0956e-05,-0.0036753,-0.00027722,-2766.3,1.0008
582,12.441,5.8182,0,0.00027251,2723.3,9.0965e-05,12.398,8.9314e-05,-0.0032643,-0.0002723,-2717,1.0261
583,12.624,5.8182,0,0.00026762,2674.4,8.9383e-05,12.793,8.768e-05,-0.0028939,-0.0002674,-2667.9,1.0516
584,12.808,5.8182,0,0.00026275,2625.7,8.7807e-05,13.175,8.6054e-05,-0.00255,-0.00026252,-2619.1,1.0773
585,12.991,5.8182,0,0.0002579,2577.2,8.6238e-05,13.546,8.4434e-05,-0.0022796,-0.00025767,-2570.4,1.1032
586,13.175,5.8182,0,0.00025307,2528.9,8.4674e-05,13.908,8.2822e-05,-0.0020407,-0.00025283,-2522,1.1292
587,13.358,5.8182,0,0.00024826,2480.9,8.3116e-05,14.261,8.1218e-05,-0.001788,-0.00024801,-2473.7,1.1554
588,13.542,5.8182,0,0.00024347,2433,8.1565e-05,14.606,7.962e-05,-0.0015915,-0.00024322,-2425.7,1.1818
589,13.725,5.8182,0,0.0002387,2385.4,8.0019e-05,14.945,7.803e-05,-0.0014036,-0.00023844,-2377.9,1.2083
590,13.909,5.8182,0,0.00023395,2337.9,7.848e-05,15.278,7.6447e-05,-0.0012289,-0.00023369,-2330.3,1.235
591,14.092,5.8182,0,0.00022923,2290.7,7.6948e-05,15.607,7.4871e-05,-0.0010969,-0.00022896,-2282.9,1.2618
592,14.276,5.8182,0,0.00022452,2243.7,7.5422e-05,15.932,7.3301e-05,-0.0009395,-0.00022425,-2235.7,1.2888
593,14.459,5.8182,0,0.00021984,2196.8,7.3902e-05,16.254,7.1739e-05,-0.00079479,-0.00021955,-2188.7,1.316
594,14.642,5.8182,0,0.00021517,2150.2,7.2389e-05,16.574,7.0183e-05,-0.00068883,-0.00021488,-2141.9,1.3433
595,14.826,5.8182,0,0.00021052,2103.8,7.0883e-05,16.893,6.8635e-05,-0.00057474,-0.00021023,-2095.3,1.3707
596,15.009,5.8182,0,0.0002059,2057.6,6.9383e-05,17.212,6.7093e-05,-0.00046303,-0.0002056,-2048.9,1.3983
597,15.193,5.8182,0,0.0002013,2011.6,6.789e-05,17.531,6.5557e-05,-0.00033651,-0.00020099,-2002.7,1.426
598,15.376,5.8182,0,0.00019671,1965.8,6.6404e-05,17.851,6.4028e-05,-0.00024034,-0.0001964,-1956.8,1.4539
599,15.56,5.8182,0,0.00019215,1920.1,6.4925e-05,18.174,6.2506e-05,-0.00014423,-0.00019183,-1911,1.4818
600,15.743,5.8182,0,0.0001876,1874.7,6.3453e-05,18.499,6.0991e-05,-4.75e-05,-0.00018728,-1865.4,1.51
601,15.927,5.8182,0,0.00018308,1829.5,6.1987e-05,18.827,5.9481e-05,2.2365e-05,-0.00018275,-1820,1.5382
602,16.11,5.8182,0,0.00017858,1784.5,6.0529e-05,19.159,5.7979e-05,0.00011743,-0.00017824,-1774.9,1.5665
603,16.294,5.8182,0,0.00017409,1739.7,5.9077e-05,19.496,5.6482e-05,0.0002091,-0.00017375,-1729.9,1.595
604,16.477,5.8182,0,0.00016963,1695.1,5.7632e-05,19.838,5.4992e-05,0.00027268,-0.00016928,-1685.1,1.6236
605,16.661,5.8182,0,0.00016519,1650.7,5.6195e-05,20.186,5.3508e-05,0.00034654,-0.00016483,-1640.5,1.6523
606,16.844,5.8182,0,0.00016076,1606.5,5.4764e-05,20.54,5.2031e-05,0.00042412,-0.0001604,-1596.1,1.6811
607,17.028,5.8182,0,0.00015636,1562.5,5.3341e-05,20.901,5.0559e-05,0.00050919,-0.00015599,-1551.9,1.71
608,17.211,5.8182,0,0.00015197,1518.7,5.1925e-05,21.269,4.9094e-05,0.00057143,-0.0001516,-1507.9,1.739
609,17.395,5.8182,0,0.00014761,1475.1,5.0515e-05,21.645,4.7635e-05,0.00063481,-0.00014723,-1464.1,1.7682
610,17.578,5.8182,0,0.00014326,1431.6,4.9113e-05,22.029,4.6181e-05,0.00069365,-0.00014288,-1420.5,1.7974
611,17.762,5.8182,0,0.00013894,1388.4,4.7718e-05,22.422,4.4734e-05,0.00072962,-0.00013854,-1377.1,1.8267
612,17.945,5.8182,0,0.00013463,1345.4,4.633e-05,22.823,4.3293e-05,0.00078196,-0.00013423,-1333.8,1.8561
613,18.129,5.8182,0,0.00013034,1302.5,4.4949e-05,23.234,4.1857e-05,0.00082291,-0.00012993,-1290.7,1.8856
614,18.312,5.8182,0,0.00012607,1259.9,4.3575e-05,23.654,4.0427e-05,0.00083323,-0.00012565,-1247.9,1.9152
615,18.496,5.8182,0,0.00012182,1217.4,4.2208e-05,24.084,3.9002e-05,0.00084017,-0.00012139,-1205.2,1.9448
616,18.679,5.8182,0,0.00011759,1175.1,4.0847e-05,24.523,3.7584e-05,0.0008357,-0.00011715,-1162.6,1.9746
617,18.863,5.8182,0,0.00011338,1133,3.9494e-05,24.972,3.617e-05,0.00081458,-0.00011293,-1120.3,2.0044
618,19.046,5.8182,0,0.00010918,1091,3.8147e-05,25.43,3.4762e-05,0.00075826,-0.00010873,-1078.1,2.0343
619,19.229,5.8182,0,0.000105,1049.3,3.6807e-05,25.898,3.336e-05,0.0006729,-0.00010454,-1036.1,2.0642
620,19.413,5.8182,0,0.00010084,1007.7,3.5473e-05,26.374,3.1962e-05,0.00055259,-0.00010037,-994.26,2.0943
621,19.596,5.8182,0,9.6696e-05,966.3,3.4145e-05,26.858,3.057e-05,0.00037329,-9.6212e-05,-952.59,2.1244
622,19.78,5.8182,0,9.2569e-05,925.05,3.2823e-05,27.35,2.9183e-05,0.00015622,-9.2073e-05,-911.07,2.1545
623,19.963,5.8182,0,8.8458e-05,883.97,3.1507e-05,27.848,2.7801e-05,-0.00013048,-8.7951e-05,-869.71,2.1848
624,20.147,5.8182,0,8.4362e-05,843.04,3.0197e-05,28.351,2.6423e-05,-0.00050895,-8.3844e-05,-828.51,2.215
625,20.33,5.8182,0,8.0282e-05,802.27,2.8892e-05,28.858,2.5051e-05,-0.00098206,-7.9752e-05,-787.45,2.2454
626,20.514,5.8182,0,7.6217e-05,761.64,2.7591e-05,29.366,2.3683e-05,-0.0015707,-7.5675e-05,-746.53,2.2757
627,20.697,5.8182,0,7.2166e-05,721.16,2.6296e-05,29.875,2.2319e-05,-0.002299,-7.1611e-05,-705.76,2.3062
628,20.881,5.8182,0,6.8128e-05,680.81,2.5004e-05,30.38,2.096e-05,-0.0032137,-6.7561e-05,-665.12,2.3366
629,21.064,5.8182,0,6.4105e-05,640.6,2.3716e-05,30.879,1.9606e-05,-0.0043419,-6.3524e-05,-624.61,2.3672
630,21.248,5.8182,0,6.0094e-05,600.52,2.2432e-05,31.368,1.8256e-05,-0.0057322,-5.9499e-05,-584.23,2.3977
631,21.431,5.8182,0,5.6095e-05,560.57,2.115e-05,31.842,1.6911e-05,-0.007458,-5.5486e-05,-543.97,2.4283
632,21.615,5.8182,0,5.2109e-05,520.73,1.987e-05,32.296,1.557e-05,-0.0095781,-5.1484e-05,-503.83,2.459
633,21.798,5.8182,0,4.8134e-05,481,1.8592e-05,32.725,1.4234e-05,-0.012206,-4.7494e-05,-463.81,2.4896
634,21.982,5.8182,0,4.417e-05,441.4,1.7313e-05,33.119,1.2903e-05,-0.015482,-4.3514e-05,-423.91,2.5203
635,22.165,5.8182,0,4.0218e-05,401.9,1.6035e-05,33.471,1.1578e-05,-0.019563,-3.9544e-05,-384.13,2.551
636,22.349,5.8182,0,3.6278e-05,362.53,1.4755e-05,33.77,1.0258e-05,-0.0247,-3.5585e-05,-344.47,2.5818
637,22.532,5.8182,0,3.235e-05,323.27,1.3474e-05,34.001,8.9441e-06,-0.03119,-3.1637e-05,-304.94,2.6126
638,22.716,5.8182,0,2.8436e-05,284.16,1.2188e-05,34.151,7.6378e-06,-0.0396,-2.7701e-05,-265.56,2.6433
639,22.899,5.8182,0,2.4538e-05,245.22,1.0898e-05,34.199,6.34e-06,-0.050197,-2.3777e-05,-226.34,2.6742
640,23.083,5.8182,0,2.0663e-05,206.49,9.6029e-06,34.124,5.0526e-06,-0.065468,-1.987e-05,-187.33,2.705
641,23.266,5.8182,0,1.682e-05,168.09,8.3024e-06,33.909,3.7785e-06,-0.081076,-1.5985e-05,-148.58,2.7358
642,23.45,5.8182,0,1.3033e-05,130.24,7.0018e-06,33.559,2.5194e-06,-0.12094,-1.2133e-05,-110.22,2.7666
643,23.633,5.8182,0,9.3691e-06,93.626,5.7225e-06,33.22,1.2864e-06,-0.11106,-8.3495e-06,-72.511,2.7975
644,23.817,5.8182,0,6.1634e-06,61.591,4.6581e-06,34.201,3.8811e-08,-0.50635,-4.8064e-06,-36.911,2.8283
645,3.4501,5.6364,0,0.00014962,1495.2,7.6339e-05,325.84,3.108e-05,-14.216,-0.00014139,-1310.1,0.063077
646,3.6336,5.6364,0,0.0001784,1782.7,7.4085e-05,181.61,4.9151e-05,-5.7304,-0.00017466,-1687.4,0.076838
647,3.8171,5.6364,0,0.00022532,2251.7,8.7681e-05,158.74,6.5999e-05,-4.1688,-0.00022225,-2170,0.090687
648,4.0006,5.6364,0,0.0002711,2709.1,0.00010251,156.43,8.1444e-05,-1.8445,-0.00026812,-2628.3,0.10466
649,4.1841,5.6364,0,0.00031124,3110.3,0.00011544,152.87,9.4952e-05,-1.0798,-0.00030837,-3031.5,0.11881
650,4.3676,5.6364,0,0.00034473,3445,0.00012578,144.29,0.00010648,-0.68679,-0.00034206,-3370.9,0.13315
651,4.551,5.6364,0,0.00037172,3714.6,0.0001336,131.18,0.00011607,-0.51232,-0.00036932,-3647.6,0.14772
652,4.7345,5.6364,0,0.00039283,3925.6,0.00013924,115.23,0.00012385,-0.40699,-0.00039075,-3866.9,0.16253
653,4.918,5.6364,0,0.00040884,4085.6,0.0001431,98.094,0.00013,-0.33411,-0.00040709,-4035.8,0.1776
654,5.1015,5.6364,0,0.00042058,4202.9,0.00014556,81.06,0.00013473,-0.27567,-0.00041914,-4161.9,0.19294
655,5.285,5.6364,0,0.00042878,4284.8,0.00014693,65.009,0.00013825,-0.22694,-0.00042764,-4252.1,0.20856
656,5.4684,5.6364,0,0.00043411,4338.1,0.00014747,50.461,0.00014073,-0.18647,-0.00043323,-4312.7,0.22447
657,5.6519,5.6364,0,0.00043712,4368.2,0.0001474,37.67,0.00014237,-0.15446,-0.00043647,-4349.3,0.24067
658,5.8354,5.6364,0,0.00043828,4379.8,0.00014687,26.704,0.0001433,-0.13215,-0.00043782,-4366.5,0.25716
659,6.0189,5.6364,0,0.00043798,4376.8,0.000146,17.512,0.00014365,-0.12301,-0.00043768,-4368,0.27395
660,6.2024,5.6364,0,0.00043652,4362.2,0.00014489,9.9839,0.00014354,-0.13899,-0.00043635,-4357.3,0.29103
661,6.3858,5.6364,0,0.00043415,4338.5,0.00014362,4.0263,0.00014305,-0.24851,-0.00043409,-4336.7,0.30841
662,6.5693,5.6364,0,0.00043108,4307.8,0.00014238,0.54365,0.0001421,-1.5313,-0.0004311,-4308.3,0.32608
663,6.7528,5.6364,0,0.00042746,4271.7,0.00014131,0.16234,0.00014065,-4.789,-0.00042754,-4274,0.34403
664,6.9363,5.6364,0,0.00042342,4231.3,0.0001401,0.10387,0.0001391,-7.4102,-0.00042354,-4234.9,0.36228
665,7.1198,5.6364,0,0.00041905,4187.6,0.00013875,0.083325,0.00013751,-9.2634,-0.00041921,-4192.2,0.38081
666,7.3032,5.6364,0,0.00041444,4141.5,0.00013729,0.073146,0.00013589,-10.459,-0.00041462,-4146.7,0.39962
667,7.4867,5.6364,0,0.00040964,4093.6,0.00013574,0.066769,0.00013425,-11.111,-0.00040983,-4099.1,0.41872
668,7.6702,5.6364,0,0.00040471,4044.3,0.00013412,0.061982,0.0001326,-11.324,-0.0004049,-4049.9,0.43808
669,7.8537,5.6364,0,0.00039967,3994,0.00013245,0.057906,0.00013095,-11.185,-0.00039986,-3999.5,0.45772
670,8.0372,5.6364,0,0.00039456,3942.9,0.00013074,0.05417,0.0001293,-10.773,-0.00039474,-3948.3,0.47763
671,8.2206,5.6364,0,0.0003894,3891.3,0.00012901,0.050619,0.00012765,-10.15,-0.00038957,-3896.4,0.4978
672,8.4041,5.6364,0,0.00038421,3839.5,0.00012726,0.047195,0.000126,-9.3707,-0.00038437,-3844.1,0.51824
673,8.5876,5.6364,0,0.000379,3787.4,0.00012549,0.043882,0.00012436,-8.4777,-0.00037914,-3791.6,0.53894
674,8.7711,5.6364,0,0.00037377,3735.2,0.00012372,0.040692,0.00012272,-7.5073,-0.0003739,-3738.9,0.55988
675,8.9546,5.6364,0,0.00036855,3682.9,0.00012195,0.037644,0.00012108,-6.4883,-0.00036866,-3686.2,0.58109
676,9.1381,5.6364,0,0.00036332,3630.7,0.00012017,0.034767,0.00011944,-5.4437,-0.00036342,-3633.4,0.60253
677,9.3215,5.6364,0,0.00035811,3578.6,0.0001184,0.032107,0.00011781,-4.3918,-0.00035818,-3580.8,0.62423
678,9.505,5.6364,0,0.0003529,3526.6,0.00011663,0.029748,0.00011618,-3.3465,-0.00035296,-3528.3,0.64616
679,9.6885,5.6364,0,0.00034771,3474.7,0.00011486,0.027906,0.00011455,-2.3188,-0.00034775,-3475.9,0.66833
680,9.872,5.6364,0,0.00034253,3423,0.0001131,0.027379,0.00011292,-1.3175,-0.00034256,-3423.6,0.69074
681,10.055,5.6364,0,0.00033737,3371.4,0.00011135,0.036886,0.0001113,-0.35693,-0.00033738,-3371.6,0.71337
682,10.239,5.6364,0,0.00033223,3320,0.00010969,0.60787,0.00010961,0.0075686,-0.00033222,-3319.7,0.73623
683,10.422,5.6364,0,0.00032711,3268.8,0.00010807,1.5019,0.00010787,0.011824,-0.00032708,-3268.1,0.75931
684,10.606,5.6364,0,0.000322,3217.8,0.00010646,2.3623,0.00010614,0.011392,-0.00032196,-3216.6,0.78262
685,10.789,5.6364,0,0.00031691,3167,0.00010485,3.1845,0.00010442,0.010254,-0.00031686,-3165.4,0.80614
686,10.973,5.6364,0,0.00031185,3116.3,0.00010324,3.9686,0.00010271,0.0089584,-0.00031178,-3114.3,0.82987
687,11.156,5.6364,0,0.0003068,3065.9,0.00010164,4.7148,0.00010101,0.0075921,-0.00030672,-3063.5,0.85381
688,11.34,5.6364,0,0.00030177,3015.6,0.00010004,5.4244,9.9317e-05,0.0062568,-0.00030168,-3012.9,0.87796
689,11.523,5.6364,0,0.00029677,2965.6,9.8442e-05,6.0991,9.7631e-05,0.0050255,-0.00029666,-2962.5,0.90231
690,11.707,5.6364,0,0.00029178,2915.8,9.6849e-05,6.7403,9.5953e-05,0.0038195,-0.00029166,-2912.4,0.92686
691,11.89,5.6364,0,0.00028681,2866.1,9.5261e-05,7.35,9.4283e-05,0.0026896,-0.00028668,-2862.4,0.9516
692,12.074,5.6364,0,0.00028186,2816.7,9.3677e-05,7.9301,9.2622e-05,0.0016335,-0.00028173,-2812.7,0.97654
693,12.257,5.6364,0,0.00027694,2767.4,9.2097e-05,8.4823,9.0968e-05,0.00061121,-0.00027679,-2763.2,1.0017
694,12.441,5.6364,0,0.00027203,2718.4,9.0522e-05,9.009,8.9323e-05,-0.0003308,-0.00027187,-2713.9,1.027
695,12.624,5.6364,0,0.00026714,2669.6,8.8951e-05,9.5118,8.7685e-05,-0.0012004,-0.00026698,-2664.8,1.0525
696,12.808,5.6364,0,0.00026228,2620.9,8.7385e-05,9.9928,8.6055e-05,-0.0019979,-0.0002621,-2615.9,1.0781
697,12.991,5.6364,0,0.00025743,2572.5,8.5824e-05,10.454,8.4433e-05,-0.0027842,-0.00025725,-2567.3,1.104
698,13.175,5.6364,0,0.0002526,2524.3,8.4269e-05,10.896,8.2818e-05,-0.0035235,-0.00025241,-2518.8,1.13
699,13.358,5.6364,0,0.0002478,2476.2,8.2718e-05,11.323,8.1211e-05,-0.0041794,-0.0002476,-2470.6,1.1562
700,13.542,5.6364,0,0.00024301,2428.4,8.1173e-05,11.735,7.961e-05,-0.0048313,-0.00024281,-2422.5,1.1825
701,13.725,5.6364,0,0.00023824,2380.8,7.9633e-05,12.133,7.8018e-05,-0.0054418,-0.00023803,-2374.7,1.2091
702,13.909,5.6364,0,0.0002335,2333.3,7.8099e-05,12.52,7.6432e-05,-0.0060145,-0.00023328,-2327.1,1.2357
703,14.092,5.6364,0,0.00022877,2286.1,7.6571e-05,12.897,7.4854e-05,-0.006589,-0.00022855,-2279.6,1.2626
704,14.276,5.6364,0,0.00022406,2239.1,7.5049e-05,13.266,7.3282e-05,-0.0071028,-0.00022383,-2232.4,1.2896
705,14.459,5.6364,0,0.00021938,2192.3,7.3532e-05,13.627,7.1718e-05,-0.0075972,-0.00021914,-2185.4,1.3167
706,14.642,5.6364,0,0.00021471,2145.6,7.2022e-05,13.983,7.016e-05,-0.0081056,-0.00021447,-2138.6,1.344
707,14.826,5.6364,0,0.00021006,2099.2,7.0518e-05,14.334,6.861e-05,-0.0085849,-0.00020982,-2092,1.3714
708,15.009,5.6364,0,0.00020544,2053,6.9021e-05,14.681,6.7066e-05,-0.0090406,-0.00020519,-2045.6,1.399
709,15.193,5.6364,0,0.00020083,2006.9,6.753e-05,15.027,6.5528e-05,-0.0094761,-0.00020057,-1999.4,1.4267
710,15.376,5.6364,0,0.00019625,1961.1,6.6045e-05,15.372,6.3998e-05,-0.0099278,-0.00019598,-1953.4,1.4545
711,15.56,5.6364,0,0.00019168,1915.5,6.4567e-05,15.717,6.2474e-05,-0.010373,-0.00019141,-1907.6,1.4825
712,15.743,5.6364,0,0.00018714,1870.1,6.3096e-05,16.064,6.0956e-05,-0.010812,-0.00018686,-1862,1.5106
713,15.927,5.6364,0,0.00018261,1824.8,6.1631e-05,16.413,5.9445e-05,-0.011279,-0.00018232,-1816.6,1.5388
714,16.11,5.6364,0,0.0001781,1779.8,6.0174e-05,16.765,5.7941e-05,-0.011721,-0.00017781,-1771.4,1.5671
715,16.294,5.6364,0,0.00017362,1735,5.8723e-05,17.123,5.6442e-05,-0.012174,-0.00017332,-1726.4,1.5956
716,16.477,5.6364,0,0.00016915,1690.3,5.7279e-05,17.486,5.4951e-05,-0.012664,-0.00016885,-1681.5,1.6242
717,16.661,5.6364,0,0.00016471,1645.9,5.5843e-05,17.856,5.3465e-05,-0.013156,-0.00016439,-1636.9,1.6528
718,16.844,5.6364,0,0.00016028,1601.7,5.4414e-05,18.233,5.1985e-05,-0.013658,-0.00015996,-1592.5,1.6816
719,17.028,5.6364,0,0.00015587,1557.6,5.2992e-05,18.62,5.0512e-05,-0.014173,-0.00015555,-1548.3,1.7105
720,17.211,5.6364,0,0.00015149,1513.8,5.1577e-05,19.016,4.9044e-05,-0.01473,-0.00015115,-1504.2,1.7396
721,17.395,5.6364,0,0.00014712,1470.2,5.017e-05,19.423,4.7583e-05,-0.015314,-0.00014678,-1460.4,1.7687
722,17.578,5.6364,0,0.00014277,1426.7,4.877e-05,19.841,4.6127e-05,-0.015924,-0.00014242,-1416.7,1.7979
723,17.762,5.6364,0,0.00013844,1383.5,4.7377e-05,20.273,4.4677e-05,-0.016592,-0.00013809,-1373.2,1.8272
724,17.945,5.6364,0,0.00013413,1340.4,4.5993e-05,20.718,4.3233e-05,-0.01728,-0.00013377,-1330,1.8566
725,18.129,5.6364,0,0.00012985,1297.6,4.4615e-05,21.179,4.1794e-05,-0.018012,-0.00012947,-1286.9,1.886
726,18.312,5.6364,0,0.00012558,1254.9,4.3246e-05,21.654,4.0361e-05,-0.018817,-0.00012519,-1243.9,1.9156
727,18.496,5.6364,0,0.00012133,1212.4,4.1884e-05,22.147,3.8934e-05,-0.019666,-0.00012093,-1201.2,1.9452
728,18.679,5.6364,0,0.00011709,1170.1,4.053e-05,22.657,3.7511e-05,-0.020576,-0.00011669,-1158.6,1.975
729,18.863,5.6364,0,0.00011288,1128,3.9183e-05,23.186,3.6094e-05,-0.021546,-0.00011247,-1116.3,2.0048
730,19.046,5.6364,0,0.00010869,1086.1,3.7844e-05,23.734,3.4682e-05,-0.022608,-0.00010826,-1074.1,2.0347
731,19.229,5.6364,0,0.00010451,1044.4,3.6513e-05,24.303,3.3275e-05,-0.023748,-0.00010408,-1032,2.0646
732,19.413,5.6364,0,0.00010035,1002.8,3.519e-05,24.893,3.1873e-05,-0.02498,-9.9906e-05,-990.16,2.0946
733,19.596,5.6364,0,9.6212e-05,961.46,3.3874e-05,25.505,3.0476e-05,-0.026324,-9.5753e-05,-948.46,2.1247
734,19.78,5.6364,0,9.209e-05,920.27,3.2566e-05,26.139,2.9083e-05,-0.027766,-9.1618e-05,-906.93,2.1549
735,19.963,5.6364,0,8.7986e-05,879.25,3.1266e-05,26.797,2.7695e-05,-0.029327,-8.75e-05,-865.56,2.1851
736,20.147,5.6364,0,8.3898e-05,838.4,2.9973e-05,27.479,2.6312e-05,-0.031037,-8.3398e-05,-824.34,2.2153
737,20.33,5.6364,0,7.9828e-05,797.73,2.8688e-05,28.186,2.4932e-05,-0.032887,-7.9312e-05,-783.28,2.2456
738,20.514,5.6364,0,7.5775e-05,757.22,2.741e-05,28.917,2.3557e-05,-0.034895,-7.5242e-05,-742.37,2.276
739,20.697,5.6364,0,7.1738e-05,716.88,2.614e-05,29.675,2.2185e-05,-0.037073,-7.1187e-05,-701.6,2.3064
740,20.881,5.6364,0,6.7717e-05,676.7,2.4877e-05,30.459,2.0817e-05,-0.039456,-6.7148e-05,-660.98,2.3369
741,21.064,5.6364,0,6.3712e-05,636.68,2.3621e-05,31.269,1.9454e-05,-0.042047,-6.3123e-05,-620.49,2.3674
742,21.248,5.6364,0,5.9724e-05,596.82,2.2372e-05,32.107,1.8093e-05,-0.044871,-5.9113e-05,-580.14,2.398
743,21.431,5.6364,0,5.5751e-05,557.13,2.1131e-05,32.973,1.6736e-05,-0.047958,-5.5118e-05,-539.93,2.4286
744,21.615,5.6364,0,5.1795e-05,517.6,1.9897e-05,33.869,1.5383e-05,-0.051312,-5.1137e-05,-499.85,2.4592
745,21.798,5.6364,0,4.7856e-05,478.23,1.8671e-05,34.796,1.4033e-05,-0.05496,-4.717e-05,-459.91,2.4898
746,21.982,5.6364,0,4.3935e-05,439.05,1.7453e-05,35.757,1.2686e-05,-0.058937,-4.3218e-05,-420.1,2.5205
747,22.165,5.6364,0,4.0033e-05,400.06,1.6244e-05,36.758,1.1343e-05,-0.063227,-3.9282e-05,-380.44,2.5512
748,22.349,5.6364,0,3.6154e-05,361.29,1.5044e-05,37.806,1.0003e-05,-0.067832,-3.5362e-05,-340.93,2.582
749,22.532,5.6364,0,3.23e-05,322.78,1.3856e-05,38.915,8.6668e-06,-0.072669,-3.1462e-05,-301.58,2.6127
750,22.716,5.6364,0,2.8478e-05,284.58,1.2682e-05,40.107,7.3341e-06,-0.07772,-2.7583e-05,-262.43,2.6435
751,22.899,5.6364,0,2.4699e-05,246.82,1.1529e-05,41.421,6.0053e-06,-0.082135,-2.3733e-05,-223.52,2.6743
752,23.083,5.6364,0,2.0982e-05,209.67,1.0405e-05,42.931,4.68e-06,-0.087146,-1.9919e-05,-184.91,2.7051
753,23.266,5.6364,0,1.736e-05,173.48,9.329e-06,44.779,3.3582e-06,-0.083315,-1.6159e-05,-146.73,2.736
754,23.45,5.6364,0,1.3902e-05,138.93,8.3358e-06,47.244,2.0351e-06,-0.096349,-1.2481e-05,-109.16,2.7668
755,23.633,5.6364,0,1.077e-05,107.62,7.5043e-06,51.029,7.1313e-07,0.002676,-8.9518e-06,-72.616,2.7976
756,23.817,5.6364,0,8.3297e-06,83.239,7.0142e-06,57.482,-6.742e-07,-0.28485,-5.6844e-06,-37.929,2.8285
757,3.4501,5.4545,0,0.00020949,2093.4,0.00011696,592.18,3.6707e-05,-10.826,-0.00019297,-1736.6,0.064881
758,3.6336,5.4545,0,0.00022057,2204.2,0.00010123,346.85,5.4656e-05,-3.119,-0.00021263,-2011.4,0.078562
759,3.8171,5.4545,0,0.00025674,2565.6,0.00010663,264.16,7.0987e-05,-3.6462,-0.00025126,-2424.9,0.092333
760,4.0006,5.4545,0,0.00029598,2957.7,0.00011663,228.24,8.5968e-05,-2.1085,-0.00029146,-2837.9,0.10624
761,4.1841,5.4545,0,0.00033167,3314.4,0.00012648,204.88,9.9021e-05,-1.4429,-0.00032772,-3207.8,0.12032
762,4.3676,5.4545,0,0.00036169,3614.4,0.00013462,183.43,0.00011008,-0.96102,-0.00035823,-3519.6,0.13461
763,4.551,5.4545,0,0.00038575,3854.9,0.0001407,160.99,0.00011918,-0.68511,-0.00038277,-3772.2,0.14912
764,4.7345,5.4545,0,0.00040432,4040.5,0.0001449,137.7,0.00012651,-0.50347,-0.00040181,-3970.1,0.16389
765,4.918,5.4545,0,0.00041815,4178.6,0.00014753,114.48,0.00013225,-0.38538,-0.00041609,-4120.3,0.17893
766,5.1015,5.4545,0,0.000428,4277,0.00014894,92.287,0.00013662,-0.30728,-0.00042636,-4230.3,0.19425
767,5.285,5.4545,0,0.0004346,4343,0.00014942,71.815,0.00013983,-0.25805,-0.00043334,-4306.8,0.20984
768,5.4684,5.4545,0,0.00043859,4382.9,0.00014921,53.495,0.00014206,-0.23173,-0.00043766,-4356,0.22574
769,5.6519,5.4545,0,0.00044049,4401.9,0.00014851,37.525,0.00014348,-0.22792,-0.00043985,-4383.1,0.24192
770,5.8354,5.4545,0,0.00044075,4404.4,0.00014746,23.937,0.00014424,-0.2557,-0.00044034,-4392.5,0.2584
771,6.0189,5.4545,0,0.00043971,4394,0.00014618,12.678,0.00014444,-0.35911,-0.00043949,-4387.8,0.27517
772,6.2024,5.4545,0,0.00043765,4373.5,0.0001448,3.9342,0.00014416,-0.89288,-0.0004376,-4372,0.29225
773,6.3858,5.4545,0,0.00043481,4345.1,0.00014378,0.56727,0.00014305,-4.9278,-0.00043489,-4347.3,0.30961
774,6.5693,5.4545,0,0.00043137,4310.7,0.00014288,0.22046,0.00014148,-10.331,-0.00043154,-4315.8,0.32727
775,6.7528,5.4545,0,0.00042746,4271.7,0.00014179,0.12949,0.00013984,-14.562,-0.0004277,-4278.9,0.34522
776,6.9363,5.4545,0,0.0004232,4229.1,0.00014054,0.089414,0.00013818,-17.628,-0.00042349,-4237.8,0.36346
777,7.1198,5.4545,0,0.00041867,4183.8,0.00013914,0.067203,0.00013651,-19.693,-0.000419,-4193.6,0.38198
778,7.3032,5.4545,0,0.00041394,4136.5,0.00013764,0.05315,0.00013485,-20.924,-0.00041429,-4146.9,0.40078
779,7.4867,5.4545,0,0.00040905,4087.7,0.00013605,0.04344,0.00013319,-21.472,-0.00040941,-4098.4,0.41987
780,7.6702,5.4545,0,0.00040406,4037.8,0.00013441,0.036303,0.00013154,-21.472,-0.00040442,-4048.5,0.43922
781,7.8537,5.4545,0,0.00039899,3987.2,0.00013271,0.030809,0.00012991,-21.039,-0.00039935,-3997.6,0.45885
782,8.0372,5.4545,0,0.00039387,3935.9,0.00013098,0.026433,0.00012828,-20.271,-0.00039421,-3946,0.47875
783,8.2206,5.4545,0,0.0003887,3884.4,0.00012923,0.022854,0.00012666,-19.249,-0.00038903,-3893.9,0.49892
784,8.4041,5.4545,0,0.00038352,3832.5,0.00012746,0.019869,0.00012505,-18.042,-0.00038382,-3841.5,0.51934
785,8.5876,5.4545,0,0.00037832,3780.6,0.00012567,0.017337,0.00012345,-16.706,-0.0003786,-3788.9,0.54003
786,8.7711,5.4545,0,0.00037311,3728.6,0.00012388,0.015163,0.00012185,-15.287,-0.00037337,-3736.2,0.56096
787,8.9546,5.4545,0,0.00036791,3676.6,0.0001221,0.013279,0.00012025,-13.82,-0.00036814,-3683.4,0.58215
788,9.1381,5.4545,0,0.00036271,3624.6,0.00012031,0.011634,0.00011866,-12.335,-0.00036292,-3630.7,0.60359
789,9.3215,5.4545,0,0.00035752,3572.7,0.00011852,0.01019,0.00011707,-10.854,-0.0003577,-3578.1,0.62527
790,9.505,5.4545,0,0.00035234,3521,0.00011674,0.0089144,0.00011549,-9.3943,-0.0003525,-3525.7,0.64719
791,9.6885,5.4545,0,0.00034718,3469.4,0.00011496,0.007793,0.0001139,-7.9694,-0.00034731,-3473.3,0.66935
792,9.872,5.4545,0,0.00034203,3417.9,0.0001132,0.0068,0.00011232,-6.5885,-0.00034214,-3421.2,0.69174
793,10.055,5.4545,0,0.00033689,3366.6,0.00011143,0.005948,0.00011073,-5.2582,-0.00033698,-3369.2,0.71437
794,10.239,5.4545,0,0.00033177,3315.4,0.00010968,0.0052295,0.00010915,-3.9826,-0.00033184,-3317.4,0.73721
795,10.422,5.4545,0,0.00032667,3264.5,0.00010794,0.0046588,0.00010757,-2.7646,-0.00032672,-3265.8,0.76028
796,10.606,5.4545,0,0.00032159,3213.7,0.0001062,0.0044776,0.00010599,-1.605,-0.00032161,-3214.5,0.78358
797,10.789,5.4545,0,0.00031652,3163,0.00010448,0.0065551,0.00010441,-0.50589,-0.00031653,-3163.3,0.80708
798,10.973,5.4545,0,0.00031147,3112.6,0.00010283,0.54645,0.00010276,-0.0016411,-0.00031147,-3112.3,0.8308
799,11.156,5.4545,0,0.00030645,3062.3,0.00010126,1.533,0.00010105,0.00019326,-0.00030642,-3061.6,0.85473
800,11.34,5.4545,0,0.00030144,3012.3,9.968e-05,2.4678,9.9351e-05,0.00018948,-0.00030139,-3011,0.87886
801,11.523,5.4545,0,0.00029644,2962.4,9.8106e-05,3.3519,9.766e-05,-8.2009e-06,-0.00029639,-2960.7,0.9032
802,11.707,5.4545,0,0.00029147,2912.7,9.6535e-05,4.1873,9.5978e-05,-0.00030594,-0.0002914,-2910.6,0.92773
803,11.89,5.4545,0,0.00028652,2863.2,9.4966e-05,4.9771,9.4304e-05,-0.00060671,-0.00028643,-2860.7,0.95246
804,12.074,5.4545,0,0.00028158,2813.9,9.34e-05,5.7239,9.2638e-05,-0.00089558,-0.00028148,-2811,0.97739
805,12.257,5.4545,0,0.00027667,2764.8,9.1837e-05,6.4305,9.0981e-05,-0.0012021,-0.00027656,-2761.5,1.0025
806,12.441,5.4545,0,0.00027177,2715.8,9.0277e-05,7.0999,8.9332e-05,-0.0014763,-0.00027165,-2712.3,1.0278
807,12.624,5.4545,0,0.00026689,2667.1,8.8721e-05,7.7348,8.7691e-05,-0.0017228,-0.00026676,-2663.2,1.0533
808,12.808,5.4545,0,0.00026203,2618.5,8.7168e-05,8.3381,8.6058e-05,-0.0019355,-0.00026189,-2614.4,1.0789
809,12.991,5.4545,0,0.0002572,2570.2,8.5619e-05,8.9121,8.4433e-05,-0.0021723,-0.00025704,-2565.7,1.1048
810,13.175,5.4545,0,0.00025238,2522,8.4074e-05,9.4596,8.2815e-05,-0.0023962,-0.00025221,-2517.3,1.1308
811,13.358,5.4545,0,0.00024758,2474.1,8.2534e-05,9.9831,8.1205e-05,-0.0025678,-0.00024741,-2469,1.1569
812,13.542,5.4545,0,0.0002428,2426.3,8.0998e-05,10.485,7.9602e-05,-0.0027589,-0.00024262,-2421,1.1833
813,13.725,5.4545,0,0.00023804,2378.7,7.9467e-05,10.967,7.8007e-05,-0.0029368,-0.00023785,-2373.2,1.2098
814,13.909,5.4545,0,0.00023329,2331.3,7.7942e-05,11.432,7.642e-05,-0.0030973,-0.0002331,-2325.6,1.2365
815,14.092,5.4545,0,0.00022857,2284.1,7.6421e-05,11.882,7.4839e-05,-0.0032809,-0.00022837,-2278.2,1.2633
816,14.276,5.4545,0,0.00022387,2237.2,7.4906e-05,12.318,7.3266e-05,-0.0034186,-0.00022366,-2231,1.2902
817,14.459,5.4545,0,0.00021919,2190.4,7.3396e-05,12.744,7.1699e-05,-0.0035519,-0.00021897,-2184,1.3174
818,14.642,5.4545,0,0.00021453,2143.8,7.1892e-05,13.16,7.014e-05,-0.0037115,-0.0002143,-2137.2,1.3446
819,14.826,5.4545,0,0.00020988,2097.4,7.0394e-05,13.568,6.8588e-05,-0.0038513,-0.00020965,-2090.6,1.372
820,15.009,5.4545,0,0.00020526,2051.2,6.8902e-05,13.971,6.7042e-05,-0.0039776,-0.00020502,-2044.2,1.3996
821,15.193,5.4545,0,0.00020066,2005.2,6.7416e-05,14.369,6.5503e-05,-0.0040877,-0.00020041,-1998,1.4273
822,15.376,5.4545,0,0.00019607,1959.4,6.5937e-05,14.765,6.3971e-05,-0.0042181,-0.00019582,-1952,1.4551
823,15.56,5.4545,0,0.00019151,1913.8,6.4464e-05,15.16,6.2445e-05,-0.0043432,-0.00019125,-1906.1,1.4831
824,15.743,5.4545,0,0.00018697,1868.4,6.2997e-05,15.556,6.0926e-05,-0.0044629,-0.0001867,-1860.5,1.5111
825,15.927,5.4545,0,0.00018244,1823.2,6.1537e-05,15.953,5.9414e-05,-0.004606,-0.00018217,-1815.1,1.5393
826,16.11,5.4545,0,0.00017794,1778.2,6.0085e-05,16.355,5.7907e-05,-0.004721,-0.00017765,-1769.9,1.5677
827,16.294,5.4545,0,0.00017345,1733.3,5.8639e-05,16.762,5.6407e-05,-0.0048393,-0.00017316,-1724.9,1.5961
828,16.477,5.4545,0,0.00016899,1688.7,5.72e-05,17.175,5.4914e-05,-0.0049858,-0.00016869,-1680.1,1.6247
829,16.661,5.4545,0,0.00016455,1644.3,5.5769e-05,17.597,5.3426e-05,-0.0051201,-0.00016424,-1635.5,1.6534
830,16.844,5.4545,0,0.00016012,1600.1,5.4345e-05,18.029,5.1945e-05,-0.0052542,-0.00015981,-1591,1.6821
831,17.028,5.4545,0,0.00015572,1556.1,5.2928e-05,18.471,5.0469e-05,-0.0053824,-0.0001554,-1546.8,1.711
832,17.211,5.4545,0,0.00015134,1512.3,5.152e-05,18.927,4.9e-05,-0.005533,-0.000151,-1502.8,1.74
833,17.395,5.4545,0,0.00014697,1468.7,5.0118e-05,19.397,4.7536e-05,-0.005688,-0.00014663,-1458.9,1.7691
834,17.578,5.4545,0,0.00014263,1425.3,4.8725e-05,19.883,4.6078e-05,-0.0058458,-0.00014228,-1415.2,1.7983
835,17.762,5.4545,0,0.0001383,1382.1,4.734e-05,20.387,4.4626e-05,-0.006031,-0.00013795,-1371.8,1.8276
836,17.945,5.4545,0,0.000134,1339.1,4.5963e-05,20.91,4.3179e-05,-0.0062027,-0.00013363,-1328.5,1.857
837,18.129,5.4545,0,0.00012971,1296.2,4.4594e-05,21.454,4.1738e-05,-0.0063847,-0.00012934,-1285.4,1.8864
838,18.312,5.4545,0,0.00012545,1253.6,4.3234e-05,22.02,4.0302e-05,-0.0065973,-0.00012506,-1242.5,1.916
839,18.496,5.4545,0,0.0001212,1211.2,4.1882e-05,22.611,3.8872e-05,-0.0068137,-0.0001208,-1199.7,1.9456
840,18.679,5.4545,0,0.00011698,1169,4.0538e-05,23.227,3.7446e-05,-0.0070353,-0.00011657,-1157.2,1.9753
841,18.863,5.4545,0,0.00011277,1126.9,3.9204e-05,23.872,3.6026e-05,-0.0072652,-0.00011235,-1114.8,2.0051
842,19.046,5.4545,0,0.00010859,1085.1,3.7878e-05,24.547,3.461e-05,-0.0075217,-0.00010815,-1072.6,2.035
843,19.229,5.4545,0,0.00010442,1043.5,3.6561e-05,25.253,3.3199e-05,-0.0077921,-0.00010397,-1030.6,2.0649
844,19.413,5.4545,0,0.00010027,1002,3.5253e-05,25.993,3.1793e-05,-0.008075,-9.9803e-05,-988.77,2.0949
845,19.596,5.4545,0,9.6141e-05,960.75,3.3955e-05,26.769,3.0391e-05,-0.0083866,-9.5658e-05,-947.09,2.125
846,19.78,5.4545,0,9.2031e-05,919.68,3.2665e-05,27.584,2.8993e-05,-0.0087023,-9.1531e-05,-905.58,2.1552
847,19.963,5.4545,0,8.794e-05,878.8,3.1386e-05,28.438,2.7599e-05,-0.0090326,-8.7422e-05,-864.24,2.1854
848,20.147,5.4545,0,8.3868e-05,838.1,3.0115e-05,29.335,2.621e-05,-0.0093918,-8.333e-05,-823.05,2.2156
849,20.33,5.4545,0,7.9814e-05,797.59,2.8855e-05,30.278,2.4824e-05,-0.0097564,-7.9256e-05,-782.02,2.2459
850,20.514,5.4545,0,7.5779e-05,757.27,2.7604e-05,31.268,2.3441e-05,-0.010127,-7.5199e-05,-741.15,2.2763
851,20.697,5.4545,0,7.1763e-05,717.13,2.6364e-05,32.31,2.2062e-05,-0.0105,-7.1158e-05,-700.43,2.3067
852,20.881,5.4545,0,6.7765e-05,677.18,2.5134e-05,33.406,2.0686e-05,-0.010879,-6.7135e-05,-659.86,2.3371
853,21.064,5.4545,0,6.3786e-05,637.42,2.3915e-05,34.561,1.9313e-05,-0.011243,-6.3128e-05,-619.44,2.3676
854,21.248,5.4545,0,5.9826e-05,597.85,2.2706e-05,35.78,1.7943e-05,-0.011574,-5.9137e-05,-579.16,2.3982
855,21.431,5.4545,0,5.5887e-05,558.48,2.151e-05,37.068,1.6575e-05,-0.01186,-5.5164e-05,-539.03,2.4288
856,21.615,5.4545,0,5.1968e-05,519.32,2.0326e-05,38.433,1.5209e-05,-0.012052,-5.1207e-05,-499.04,2.4594
857,21.798,5.4545,0,4.8071e-05,480.38,1.9156e-05,39.885,1.3846e-05,-0.0121,-4.7268e-05,-459.2,2.49
858,21.982,5.4545,0,4.4199e-05,441.68,1.8e-05,41.437,1.2484e-05,-0.011943,-4.3348e-05,-419.51,2.5207
859,22.165,5.4545,0,4.0354e-05,403.26,1.6862e-05,43.106,1.1123e-05,-0.011443,-3.9448e-05,-379.98,2.5514
860,22.349,5.4545,0,3.6541e-05,365.16,1.5744e-05,44.919,9.7641e-06,-0.010442,-3.5569e-05,-340.63,2.5822
861,22.532,5.4545,0,3.2768e-05,327.45,1.465e-05,46.912,8.4054e-06,-0.0086089,-3.1717e-05,-301.47,2.6129
862,22.716,5.4545,0,2.9045e-05,290.25,1.3587e-05,49.139,7.0467e-06,-0.0056252,-2.7895e-05,-262.54,2.6437
863,22.899,5.4545,0,2.5389e-05,253.72,1.2566e-05,51.684,5.687e-06,-0.00012533,-2.4112e-05,-223.9,2.6745
864,23.083,5.4545,0,2.183e-05,218.15,1.1601e-05,54.68,4.3243e-06,0.0071009,-2.038e-05,-185.61,2.7053
865,23.266,5.4545,0,1.8416e-05,184.04,1.0718e-05,58.341,2.9565e-06,0.027942,-1.6716e-05,-147.79,2.7361
866,23.45,5.4545,0,1.5232e-05,152.21,9.9554e-06,63.001,1.5747e-06,0.031522,-1.3148e-05,-110.59,2.7669
867,23.633,5.4545,0,1.2431e-05,124.22,9.3719e-06,69.239,1.8095e-07,0.18206,-9.7143e-06,-74.167,2.7978
868,23.817,5.4545,0,1.0277e-05,102.7,9.0524e-06,77.653,-1.2868e-06,-0.031968,-6.4442e-06,-38.782,2.8286
869,3.4501,5.2727,0,0.00027715,2769.6,0.00016414,910.4,4.1692e-05,-9.633,-0.00025011,-2202.1,0.066704
870,3.6336,5.2727,0,0.00027433,2741.4,0.00013666,568.9,6.0736e-05,-1.5722,-0.00026019,-2412.9,0.080276
871,3.8171,5.2727,0,0.00029954,2993.4,0.00013275,412.34,7.7435e-05,-3.2615,-0.00029041,-2767.1,0.093945
872,4.0006,5.2727,0,0.00033003,3298,0.00013554,322.06,9.2373e-05,-2.2512,-0.00032339,-3126.1,0.10776
873,4.1841,5.2727,0,0.0003589,3586.5,0.00014017,261.9,0.00010507,-1.8473,-0.00035375,-3449.2,0.12176
874,4.3676,5.2727,0,0.00038349,3832.3,0.00014454,216.2,0.00011557,-1.4271,-0.00037938,-3720.3,0.13598
875,4.551,5.2727,0,0.00040314,4028.7,0.00014786,177.88,0.00012403,-1.1367,-0.00039984,-3937.3,0.15045
876,4.7345,5.2727,0,0.0004181,4178.2,0.00015,144.16,0.00013069,-0.92015,-0.00041548,-4104.7,0.16517
877,4.918,5.2727,0,0.00042897,4286.7,0.00015109,114.05,0.00013581,-0.76969,-0.00042693,-4228.9,0.18017
878,5.1015,5.2727,0,0.00043641,4361.1,0.00015132,87.24,0.00013962,-0.67106,-0.00043487,-4317.1,0.19546
879,5.285,5.2727,0,0.00044106,4407.5,0.00015089,63.664,0.00014233,-0.62047,-0.00043995,-4375.6,0.21103
880,5.4684,5.2727,0,0.00044346,4431.6,0.00014998,43.263,0.00014414,-0.62539,-0.00044272,-4410.1,0.2269
881,5.6519,5.2727,0,0.00044409,4437.9,0.00014876,25.968,0.0001452,-0.72713,-0.00044366,-4425.2,0.24307
882,5.8354,5.2727,0,0.00044333,4430.3,0.00014734,11.819,0.00014562,-1.1394,-0.00044315,-4424.9,0.25954
883,6.0189,5.2727,0,0.00044148,4411.8,0.00014609,2.5655,0.00014524,-3.8321,-0.00044151,-4412.4,0.2763
884,6.2024,5.2727,0,0.0004388,4384.9,0.00014542,0.63968,0.00014381,-11.489,-0.00043898,-4390.3,0.29336
885,6.3858,5.2727,0,0.00043546,4351.6,0.00014465,0.3014,0.00014213,-18.639,-0.00043577,-4360.8,0.31072
886,6.5693,5.2727,0,0.00043164,4313.4,0.00014365,0.1811,0.00014041,-24.179,-0.00043204,-4325.3,0.32837
887,6.7528,5.2727,0,0.00042743,4271.4,0.00014246,0.12295,0.00013869,-28.214,-0.00042791,-4285.4,0.34631
888,6.9363,5.2727,0,0.00042295,4226.6,0.00014111,0.089913,0.00013698,-30.949,-0.00042347,-4241.9,0.36454
889,7.1198,5.2727,0,0.00041826,4179.7,0.00013964,0.069125,0.0001353,-32.592,-0.0004188,-4195.9,0.38306
890,7.3032,5.2727,0,0.00041341,4131.3,0.00013808,0.055061,0.00013363,-33.335,-0.00041397,-4147.8,0.40185
891,7.4867,5.2727,0,0.00040845,4081.7,0.00013644,0.045011,0.000132,-33.351,-0.00040901,-4098.2,0.42093
892,7.6702,5.2727,0,0.00040341,4031.3,0.00013475,0.037519,0.00013038,-32.788,-0.00040396,-4047.6,0.44028
893,7.8537,5.2727,0,0.00039831,3980.4,0.00013302,0.031741,0.00012878,-31.774,-0.00039884,-3996.1,0.4599
894,8.0372,5.2727,0,0.00039317,3929,0.00013125,0.027162,0.0001272,-30.419,-0.00039368,-3944.1,0.47979
895,8.2206,5.2727,0,0.00038801,3877.4,0.00012947,0.023454,0.00012563,-28.814,-0.00038849,-3891.7,0.49994
896,8.4041,5.2727,0,0.00038283,3825.7,0.00012767,0.020396,0.00012407,-27.032,-0.00038329,-3839.1,0.52036
897,8.5876,5.2727,0,0.00037765,3773.9,0.00012587,0.017838,0.00012252,-25.136,-0.00037807,-3786.4,0.54104
898,8.7711,5.2727,0,0.00037247,3722.1,0.00012406,0.015676,0.00012098,-23.175,-0.00037286,-3733.6,0.56196
899,8.9546,5.2727,0,0.00036729,3670.3,0.00012225,0.013829,0.00011943,-21.188,-0.00036764,-3680.9,0.58314
900,9.1381,5.2727,0,0.00036212,3618.7,0.00012045,0.012242,0.00011789,-19.206,-0.00036244,-3628.2,0.60457
901,9.3215,5.2727,0,0.00035695,3567.1,0.00011865,0.010872,0.00011635,-17.253,-0.00035724,-3575.7,0.62624
902,9.505,5.2727,0,0.0003518,3515.6,0.00011686,0.0096865,0.00011481,-15.348,-0.00035206,-3523.2,0.64815
903,9.6885,5.2727,0,0.00034666,3464.3,0.00011507,0.0086653,0.00011327,-13.502,-0.00034689,-3471,0.6703
904,9.872,5.2727,0,0.00034154,3413.1,0.00011329,0.0077842,0.00011173,-11.726,-0.00034174,-3418.9,0.69268
905,10.055,5.2727,0,0.00033643,3362,0.00011152,0.0070532,0.00011018,-10.025,-0.0003366,-3367,0.71529
906,10.239,5.2727,0,0.00033134,3311.1,0.00010976,0.0064574,0.00010864,-8.4028,-0.00033148,-3315.3,0.73813
907,10.422,5.2727,0,0.00032626,3260.4,0.00010801,0.0059835,0.00010709,-6.8613,-0.00032638,-3263.8,0.76118
908,10.606,5.2727,0,0.0003212,3209.8,0.00010626,0.0057212,0.00010554,-5.4002,-0.00032129,-3212.5,0.78446
909,10.789,5.2727,0,0.00031615,3159.4,0.00010453,0.0057763,0.00010399,-4.0187,-0.00031622,-3161.4,0.80796
910,10.973,5.2727,0,0.00031113,3109.1,0.00010281,0.0064601,0.00010244,-2.7149,-0.00031117,-3110.5,0.83166
911,11.156,5.2727,0,0.00030612,3059,0.00010109,0.0089739,0.00010089,-1.4873,-0.00030614,-3059.8,0.85558
912,11.34,5.2727,0,0.00030112,3009.1,9.939e-05,0.03012,9.934e-05,-0.34962,-0.00030113,-3009.3,0.8797
913,11.523,5.2727,0,0.00029615,2959.4,9.7794e-05,0.78311,9.7689e-05,-0.011244,-0.00029613,-2959,0.90403
914,11.707,5.2727,0,0.00029119,2909.9,9.6243e-05,1.8036,9.6002e-05,-0.0044226,-0.00029116,-2909,0.92855
915,11.89,5.2727,0,0.00028625,2860.5,9.4693e-05,2.7692,9.4324e-05,-0.0028407,-0.0002862,-2859.1,0.95327
916,12.074,5.2727,0,0.00028133,2811.3,9.3145e-05,3.6795,9.2655e-05,-0.002259,-0.00028126,-2809.5,0.97818
917,12.257,5.2727,0,0.00027642,2762.3,9.1598e-05,4.5377,9.0994e-05,-0.0020627,-0.00027634,-2760,1.0033
918,12.441,5.2727,0,0.00027154,2713.5,9.0054e-05,5.3474,8.9342e-05,-0.0020048,-0.00027144,-2710.8,1.0286
919,12.624,5.2727,0,0.00026667,2664.8,8.8511e-05,6.1122,8.7697e-05,-0.0020118,-0.00026656,-2661.8,1.054
920,12.808,5.2727,0,0.00026182,2616.4,8.6971e-05,6.8357,8.6061e-05,-0.0020452,-0.0002617,-2613,1.0797
921,12.991,5.2727,0,0.00025699,2568.1,8.5434e-05,7.521,8.4433e-05,-0.00214,-0.00025686,-2564.3,1.1055
922,13.175,5.2727,0,0.00025218,2520,8.3901e-05,8.1717,8.2813e-05,-0.0022463,-0.00025204,-2515.9,1.1315
923,13.358,5.2727,0,0.00024738,2472.1,8.2371e-05,8.7909,8.12e-05,-0.0023182,-0.00024723,-2467.7,1.1576
924,13.542,5.2727,0,0.00024261,2424.4,8.0845e-05,9.3816,7.9596e-05,-0.0024275,-0.00024245,-2419.7,1.184
925,13.725,5.2727,0,0.00023785,2376.9,7.9323e-05,9.9467,7.7998e-05,-0.0025294,-0.00023768,-2371.9,1.2105
926,13.909,5.2727,0,0.00023312,2329.6,7.7805e-05,10.489,7.6409e-05,-0.0026223,-0.00023294,-2324.3,1.2371
927,14.092,5.2727,0,0.0002284,2282.4,7.6292e-05,11.011,7.4826e-05,-0.0027459,-0.00022821,-2276.9,1.2639
928,14.276,5.2727,0,0.0002237,2235.5,7.4784e-05,11.516,7.3251e-05,-0.0028287,-0.00022351,-2229.7,1.2909
929,14.459,5.2727,0,0.00021903,2188.7,7.3281e-05,12.005,7.1683e-05,-0.0029106,-0.00021882,-2182.7,1.318
930,14.642,5.2727,0,0.00021437,2142.2,7.1783e-05,12.482,7.0122e-05,-0.0030201,-0.00021415,-2135.9,1.3452
931,14.826,5.2727,0,0.00020973,2095.8,7.0291e-05,12.948,6.8567e-05,-0.0031139,-0.0002095,-2089.3,1.3726
932,15.009,5.2727,0,0.00020511,2049.7,6.8805e-05,13.406,6.702e-05,-0.0031943,-0.00020488,-2042.9,1.4002
933,15.193,5.2727,0,0.00020051,2003.7,6.7324e-05,13.858,6.548e-05,-0.0032598,-0.00020027,-1996.7,1.4279
934,15.376,5.2727,0,0.00019593,1957.9,6.585e-05,14.306,6.3946e-05,-0.0033468,-0.00019568,-1950.7,1.4557
935,15.56,5.2727,0,0.00019137,1912.3,6.4382e-05,14.751,6.2418e-05,-0.003428,-0.00019111,-1904.9,1.4836
936,15.743,5.2727,0,0.00018683,1867,6.2921e-05,15.197,6.0898e-05,-0.0035028,-0.00018656,-1859.3,1.5117
937,15.927,5.2727,0,0.0001823,1821.8,6.1466e-05,15.645,5.9384e-05,-0.0036018,-0.00018203,-1813.9,1.5399
938,16.11,5.2727,0,0.0001778,1776.8,6.0019e-05,16.097,5.7876e-05,-0.0036715,-0.00017752,-1768.7,1.5682
939,16.294,5.2727,0,0.00017332,1732,5.8578e-05,16.555,5.6374e-05,-0.0037401,-0.00017304,-1723.7,1.5966
940,16.477,5.2727,0,0.00016886,1687.5,5.7145e-05,17.021,5.4879e-05,-0.0038378,-0.00016857,-1678.9,1.6252
941,16.661,5.2727,0,0.00016442,1643.1,5.5719e-05,17.497,5.339e-05,-0.0039212,-0.00016412,-1634.3,1.6538
942,16.844,5.2727,0,0.00016,1598.9,5.43e-05,17.984,5.1906e-05,-0.0039968,-0.00015969,-1589.8,1.6826
943,17.028,5.2727,0,0.0001556,1554.9,5.289e-05,18.486,5.0429e-05,-0.0040686,-0.00015528,-1545.6,1.7115
944,17.211,5.2727,0,0.00015122,1511.1,5.1487e-05,19.004,4.8958e-05,-0.0041569,-0.00015089,-1501.6,1.7405
945,17.395,5.2727,0,0.00014686,1467.6,5.0093e-05,19.539,4.7492e-05,-0.0042453,-0.00014652,-1457.7,1.7695
946,17.578,5.2727,0,0.00014252,1424.2,4.8707e-05,20.096,4.6032e-05,-0.0043308,-0.00014217,-1414.1,1.7987
947,17.762,5.2727,0,0.0001382,1381,4.733e-05,20.674,4.4577e-05,-0.0044363,-0.00013784,-1370.6,1.828
948,17.945,5.2727,0,0.0001339,1338.1,4.5961e-05,21.278,4.3128e-05,-0.0045274,-0.00013352,-1327.3,1.8574
949,18.129,5.2727,0,0.00012962,1295.3,4.4601e-05,21.908,4.1685e-05,-0.0046189,-0.00012923,-1284.2,1.8868
950,18.312,5.2727,0,0.00012536,1252.7,4.325e-05,22.569,4.0246e-05,-0.0047342,-0.00012496,-1241.3,1.9164
951,18.496,5.2727,0,0.00012112,1210.4,4.1909e-05,23.261,3.8812e-05,-0.0048406,-0.00012071,-1198.6,1.946
952,18.679,5.2727,0,0.0001169,1168.2,4.0577e-05,23.988,3.7384e-05,-0.0049444,-0.00011648,-1156.1,1.9757
953,18.863,5.2727,0,0.00011271,1126.3,3.9255e-05,24.753,3.596e-05,-0.0050447,-0.00011227,-1113.7,2.0055
954,19.046,5.2727,0,0.00010853,1084.5,3.7943e-05,25.559,3.4541e-05,-0.0051594,-0.00010807,-1071.5,2.0353
955,19.229,5.2727,0,0.00010437,1043,3.6641e-05,26.408,3.3126e-05,-0.005272,-0.0001039,-1029.5,2.0653
956,19.413,5.2727,0,0.00010023,1001.7,3.535e-05,27.304,3.1715e-05,-0.005383,-9.9742e-05,-987.73,2.0953
957,19.596,5.2727,0,9.6118e-05,960.52,3.4069e-05,28.25,3.0309e-05,-0.005504,-9.5606e-05,-946.08,2.1253
958,19.78,5.2727,0,9.2021e-05,919.58,3.28e-05,29.251,2.8906e-05,-0.005603,-9.1489e-05,-904.61,2.1554
959,19.963,5.2727,0,8.7945e-05,878.85,3.1542e-05,30.308,2.7507e-05,-0.0056924,-8.7391e-05,-863.3,2.1856
960,20.147,5.2727,0,8.389e-05,838.32,3.0295e-05,31.428,2.6112e-05,-0.0057836,-8.3311e-05,-822.17,2.2159
961,20.33,5.2727,0,7.9855e-05,798,2.9061e-05,32.615,2.4719e-05,-0.0058473,-7.925e-05,-781.19,2.2462
962,20.514,5.2727,0,7.584e-05,757.88,2.7839e-05,33.873,2.333e-05,-0.0058805,-7.5207e-05,-740.38,2.2765
963,20.697,5.2727,0,7.1847e-05,717.97,2.663e-05,35.209,2.1944e-05,-0.0058724,-7.1183e-05,-699.72,2.3069
964,20.881,5.2727,0,6.7875e-05,678.28,2.5435e-05,36.629,2.0559e-05,-0.0058119,-6.7178e-05,-659.23,2.3374
965,21.064,5.2727,0,6.3925e-05,638.81,2.4254e-05,38.141,1.9177e-05,-0.0056823,-6.3191e-05,-618.89,2.3679
966,21.248,5.2727,0,5.9998e-05,599.56,2.3088e-05,39.753,1.7797e-05,-0.0054426,-5.9222e-05,-578.7,2.3984
967,21.431,5.2727,0,5.6094e-05,560.56,2.1939e-05,41.477,1.6418e-05,-0.0050727,-5.5273e-05,-538.67,2.429
968,21.615,5.2727,0,5.2216e-05,521.8,2.0807e-05,43.327,1.504e-05,-0.0045049,-5.1344e-05,-498.79,2.4596
969,21.798,5.2727,0,4.8367e-05,483.33,1.9695e-05,45.318,1.3663e-05,-0.0036697,-4.7436e-05,-459.08,2.4902
970,21.982,5.2727,0,4.4548e-05,445.17,1.8605e-05,47.475,1.2286e-05,-0.0024765,-4.355e-05,-419.53,2.5209
971,22.165,5.2727,0,4.0765e-05,407.37,1.754e-05,49.824,1.0909e-05,-0.00076084,-3.9688e-05,-380.16,2.5516
972,22.349,5.2727,0,3.7024e-05,369.99,1.6505e-05,52.406,9.5299e-06,0.0016883,-3.5853e-05,-340.99,2.5823
973,22.532,5.2727,0,3.3336e-05,333.13,1.5505e-05,55.274,8.1491e-06,0.0052425,-3.2049e-05,-302.03,2.6131
974,22.716,5.2727,0,2.9714e-05,296.93,1.455e-05,58.502,6.7649e-06,0.010274,-2.8283e-05,-263.32,2.6438
975,22.899,5.2727,0,2.618e-05,261.62,1.365e-05,62.194,5.3754e-06,0.018253,-2.4562e-05,-224.92,2.6746
976,23.083,5.2727,0,2.2769e-05,227.53,1.2824e-05,66.497,3.9777e-06,0.028343,-2.0896e-05,-186.86,2.7054
977,23.266,5.2727,0,1.9531e-05,195.17,1.2093e-05,71.619,2.5685e-06,0.052814,-1.7301e-05,-149.24,2.7363
978,23.45,5.2727,0,1.6548e-05,165.36,1.1486e-05,77.813,1.1383e-06,0.061913,-1.3789e-05,-112.09,2.7671
979,23.633,5.2727,0,1.3948e-05,139.39,1.1033e-05,85.445,-3.0941e-07,0.21939,-1.0375e-05,-75.41,2.7979
980,23.817,5.2727,0,1.194e-05,119.32,1.0775e-05,94.72,-1.8279e-06,0.022957,-7.0611e-06,-39.298,2.8288
981,3.4501,5.0909,0,0.00035461,3543.7,0.00021851,1280.3,4.6834e-05,-9.6092,-0.00031492,-2727.7,0.068549
982,3.6336,5.0909,0,0.00033859,3383.6,0.00017855,829.64,6.7999e-05,-1.0175,-0.00031675,-2891.9,0.08198
983,3.8171,5.0909,0,0.00035259,3523.4,0.00016431,586.69,8.5792e-05,-3.2346,-0.00033893,-3194.5,0.095521
984,4.0006,5.0909,0,0.0003726,3723.4,0.00015815,427.13,0.00010098,-2.4459,-0.00036351,-3492.5,0.10922
985,4.1841,5.0909,0,0.00039254,3922.7,0.00015585,317.46,0.00011331,-2.2187,-0.0003862,-3755.3,0.12313
986,4.3676,5.0909,0,0.00040985,4095.7,0.00015515,239.09,0.00012307,-1.8781,-0.00040528,-3971.8,0.13728
987,4.551,5.0909,0,0.00042366,4233.6,0.00015486,180.31,0.00013064,-1.6431,-0.00042032,-4141.4,0.15168
988,4.7345,5.0909,0,0.00043397,4336.7,0.00015445,134.33,0.00013638,-1.4678,-0.00043155,-4268.6,0.16635
989,4.918,5.0909,0,0.00044115,4408.4,0.00015374,97.239,0.00014062,-1.3695,-0.00043943,-4359.7,0.18132
990,5.1015,5.0909,0,0.00044568,4453.7,0.00015271,66.801,0.00014364,-1.3623,-0.00044452,-4420.6,0.19657
991,5.285,5.0909,0,0.00044803,4477.2,0.0001514,41.719,0.00014565,-1.5089,-0.00044733,-4456.9,0.21212
992,5.4684,5.0909,0,0.00044863,4483.2,0.00014993,21.379,0.00014681,-2.0625,-0.0004483,-4473.5,0.22797
993,5.6519,5.0909,0,0.00044784,4475.3,0.00014858,6.772,0.00014707,-4.623,-0.00044781,-4474.3,0.24413
994,5.8354,5.0909,0,0.00044597,4456.6,0.00014798,1.6768,0.00014596,-13.444,-0.00044617,-4462.5,0.26058
995,6.0189,5.0909,0,0.00044326,4429.6,0.0001475,0.69975,0.00014427,-23.533,-0.00044364,-4440.9,0.27733
996,6.2024,5.0909,0,0.00043991,4396,0.00014677,0.3837,0.00014249,-31.797,-0.00044043,-4411.6,0.29439
997,6.3858,5.0909,0,0.00043606,4357.6,0.0001458,0.24055,0.0001407,-38.079,-0.00043669,-4376.4,0.31174
998,6.5693,5.0909,0,0.00043184,4315.5,0.00014463,0.16346,0.00013894,-42.583,-0.00043255,-4336.5,0.32938
999,6.7528,5.0909,0,0.00042735,4270.6,0.00014329,0.11735,0.00013721,-45.555,-0.00042811,-4293.1,0.34732
1000,6.9363,5.0909,0,0.00042266,4223.6,0.00014182,0.087703,0.00013552,-47.24,-0.00042344,-4247,0.36554
1001,7.1198,5.0909,0,0.00041781,4175.2,0.00014025,0.067595,0.00013387,-47.861,-0.0004186,-4198.9,0.38405
1002,7.3032,5.0909,0,0.00041285,4125.7,0.0001386,0.05338,0.00013225,-47.62,-0.00041364,-4149.3,0.40283
1003,7.4867,5.0909,0,0.00040782,4075.4,0.00013689,0.04299,0.00013067,-46.692,-0.0004086,-4098.5,0.4219
1004,7.6702,5.0909,0,0.00040274,4024.6,0.00013514,0.035187,0.00012912,-45.23,-0.00040349,-4047,0.44125
1005,7.8537,5.0909,0,0.00039762,3973.4,0.00013336,0.029194,0.00012758,-43.363,-0.00039833,-3994.9,0.46086
1006,8.0372,5.0909,0,0.00039247,3922,0.00013155,0.024506,0.00012607,-41.201,-0.00039316,-3942.4,0.48074
1007,8.2206,5.0909,0,0.00038732,3870.5,0.00012973,0.020779,0.00012456,-38.834,-0.00038796,-3889.7,0.50089
1008,8.4041,5.0909,0,0.00038215,3818.9,0.00012791,0.017779,0.00012307,-36.336,-0.00038276,-3836.9,0.5213
1009,8.5876,5.0909,0,0.00037699,3767.3,0.00012608,0.015336,0.00012158,-33.767,-0.00037755,-3784.1,0.54196
1010,8.7711,5.0909,0,0.00037183,3715.7,0.00012425,0.01333,0.0001201,-31.177,-0.00037235,-3731.2,0.56288
1011,8.9546,5.0909,0,0.00036668,3664.3,0.00012242,0.011669,0.00011861,-28.602,-0.00036716,-3678.5,0.58405
1012,9.1381,5.0909,0,0.00036153,3612.9,0.0001206,0.010288,0.00011713,-26.072,-0.00036197,-3625.8,0.60547
1013,9.3215,5.0909,0,0.0003564,3561.6,0.00011878,0.0091357,0.00011564,-23.608,-0.0003568,-3573.3,0.62713
1014,9.505,5.0909,0,0.00035128,3510.4,0.00011697,0.0081717,0.00011415,-21.227,-0.00035164,-3520.9,0.64903
1015,9.6885,5.0909,0,0.00034617,3459.3,0.00011517,0.0073712,0.00011265,-18.939,-0.00034649,-3468.7,0.67117
1016,9.872,5.0909,0,0.00034107,3408.4,0.00011338,0.0067049,0.00011115,-16.753,-0.00034135,-3416.7,0.69354
1017,10.055,5.0909,0,0.00033599,3357.6,0.0001116,0.0061765,0.00010965,-14.672,-0.00033624,-3364.9,0.71614
1018,10.239,5.0909,0,0.00033092,3306.9,0.00010983,0.0057634,0.00010814,-12.698,-0.00033114,-3313.3,0.73897
1019,10.422,5.0909,0,0.00032587,3256.4,0.00010807,0.0054373,0.00010663,-10.83,-0.00032605,-3261.8,0.76201
1020,10.606,5.0909,0,0.00032083,3206.1,0.00010632,0.0052587,0.00010512,-9.0675,-0.00032098,-3210.6,0.78528
1021,10.789,5.0909,0,0.0003158,3155.9,0.00010458,0.0052555,0.0001036,-7.4069,-0.00031593,-3159.6,0.80877
1022,10.973,5.0909,0,0.0003108,3105.8,0.00010285,0.0055016,0.00010207,-5.8447,-0.00031089,-3108.7,0.83246
1023,11.156,5.0909,0,0.0003058,3055.9,0.00010113,0.0060805,0.00010055,-4.377,-0.00030588,-3058.1,0.85637
1024,11.34,5.0909,0,0.00030083,3006.2,9.9422e-05,0.0074531,9.9022e-05,-2.9995,-0.00030088,-3007.7,0.88048
1025,11.523,5.0909,0,0.00029587,2956.6,9.7721e-05,0.011256,9.7492e-05,-1.7088,-0.00029589,-2957.5,0.90479
1026,11.707,5.0909,0,0.00029092,2907.2,9.6033e-05,0.032661,9.596e-05,-0.51537,-0.00029093,-2907.5,0.9293
1027,11.89,5.0909,0,0.00028599,2858,9.4436e-05,0.67985,9.4343e-05,-0.022227,-0.00028598,-2857.6,0.95401
1028,12.074,5.0909,0,0.00028108,2808.9,9.2903e-05,1.7364,9.2671e-05,-0.0080149,-0.00028106,-2808,0.9789
1029,12.257,5.0909,0,0.00027619,2760,9.1372e-05,2.7392,9.1007e-05,-0.0048307,-0.00027615,-2758.6,1.004
1030,12.441,5.0909,0,0.00027132,2711.3,8.9842e-05,3.684,8.9351e-05,-0.0034961,-0.00027125,-2709.4,1.0293
1031,12.624,5.0909,0,0.00026646,2662.7,8.8313e-05,4.5741,8.7704e-05,-0.0027892,-0.00026638,-2660.5,1.0547
1032,12.808,5.0909,0,0.00026162,2614.4,8.6786e-05,5.4135,8.6065e-05,-0.0023552,-0.00026152,-2611.7,1.0804
1033,12.991,5.0909,0,0.00025679,2566.2,8.5261e-05,6.2064,8.4434e-05,-0.0021143,-0.00025669,-2563.1,1.1062
1034,13.175,5.0909,0,0.00025199,2518.2,8.3738e-05,6.9567,8.2812e-05,-0.0019629,-0.00025187,-2514.7,1.1321
1035,13.358,5.0909,0,0.0002472,2470.3,8.2218e-05,7.6685,8.1197e-05,-0.0018268,-0.00024707,-2466.5,1.1583
1036,13.542,5.0909,0,0.00024244,2422.7,8.0701e-05,8.3451,7.959e-05,-0.0017583,-0.00024229,-2418.5,1.1846
1037,13.725,5.0909,0,0.00023769,2375.2,7.9187e-05,8.9903,7.7991e-05,-0.0017089,-0.00023753,-2370.7,1.2111
1038,13.909,5.0909,0,0.00023296,2327.9,7.7678e-05,9.6075,7.6399e-05,-0.0016693,-0.00023279,-2323.1,1.2377
1039,14.092,5.0909,0,0.00022824,2280.9,7.6172e-05,10.2,7.4814e-05,-0.0016709,-0.00022807,-2275.7,1.2645
1040,14.276,5.0909,0,0.00022355,2234,7.4671e-05,10.77,7.3237e-05,-0.0016413,-0.00022337,-2228.6,1.2915
1041,14.459,5.0909,0,0.00021888,2187.3,7.3174e-05,11.322,7.1667e-05,-0.0016203,-0.00021868,-2181.6,1.3186
1042,14.642,5.0909,0,0.00021422,2140.7,7.1683e-05,11.858,7.0105e-05,-0.0016348,-0.00021402,-2134.8,1.3458
1043,14.826,5.0909,0,0.00020959,2094.4,7.0197e-05,12.38,6.8549e-05,-0.0016342,-0.00020937,-2088.2,1.3732
1044,15.009,5.0909,0,0.00020497,2048.3,6.8716e-05,12.892,6.7e-05,-0.0016261,-0.00020475,-2041.8,1.4007
1045,15.193,5.0909,0,0.00020037,2002.3,6.7241e-05,13.396,6.5458e-05,-0.0016069,-0.00020014,-1995.6,1.4284
1046,15.376,5.0909,0,0.00019579,1956.6,6.5772e-05,13.895,6.3923e-05,-0.0016066,-0.00019555,-1949.6,1.4562
1047,15.56,5.0909,0,0.00019124,1911.1,6.4309e-05,14.391,6.2394e-05,-0.0016053,-0.00019099,-1903.8,1.4841
1048,15.743,5.0909,0,0.0001867,1865.7,6.2853e-05,14.886,6.0872e-05,-0.0015964,-0.00018644,-1858.2,1.5122
1049,15.927,5.0909,0,0.00018218,1820.6,6.1404e-05,15.384,5.9356e-05,-0.0016115,-0.00018191,-1812.8,1.5404
1050,16.11,5.0909,0,0.00017768,1775.6,5.9961e-05,15.886,5.7847e-05,-0.0015938,-0.00017741,-1767.6,1.5687
1051,16.294,5.0909,0,0.0001732,1730.9,5.8526e-05,16.394,5.6343e-05,-0.0015746,-0.00017292,-1722.6,1.5971
1052,16.477,5.0909,0,0.00016875,1686.3,5.7098e-05,16.912,5.4847e-05,-0.0015813,-0.00016845,-1677.8,1.6256
1053,16.661,5.0909,0,0.00016431,1642,5.5677e-05,17.442,5.3356e-05,-0.0015728,-0.00016401,-1633.2,1.6543
1054,16.844,5.0909,0,0.00015989,1597.8,5.4265e-05,17.985,5.1871e-05,-0.0015518,-0.00015958,-1588.7,1.683
1055,17.028,5.0909,0,0.00015549,1553.9,5.286e-05,18.546,5.0392e-05,-0.0015202,-0.00015517,-1544.5,1.7119
1056,17.211,5.0909,0,0.00015112,1510.1,5.1464e-05,19.125,4.8918e-05,-0.0015026,-0.00015078,-1500.5,1.7409
1057,17.395,5.0909,0,0.00014676,1466.6,5.0077e-05,19.727,4.7451e-05,-0.0014772,-0.00014642,-1456.6,1.7699
1058,17.578,5.0909,0,0.00014243,1423.3,4.8698e-05,20.353,4.5989e-05,-0.0014448,-0.00014207,-1413,1.7991
1059,17.762,5.0909,0,0.00013811,1380.2,4.7328e-05,21.007,4.4532e-05,-0.001427,-0.00013774,-1369.5,1.8284
1060,17.945,5.0909,0,0.00013382,1337.2,4.5968e-05,21.692,4.3081e-05,-0.001379,-0.00013343,-1326.3,1.8577
1061,18.129,5.0909,0,0.00012954,1294.5,4.4617e-05,22.41,4.1635e-05,-0.001329,-0.00012915,-1283.2,1.8872
1062,18.312,5.0909,0,0.00012529,1252,4.3276e-05,23.164,4.0193e-05,-0.0012882,-0.00012488,-1240.3,1.9167
1063,18.496,5.0909,0,0.00012106,1209.8,4.1946e-05,23.959,3.8757e-05,-0.0012311,-0.00012063,-1197.6,1.9463
1064,18.679,5.0909,0,0.00011685,1167.7,4.0626e-05,24.798,3.7325e-05,-0.0011579,-0.00011641,-1155.1,1.976
1065,18.863,5.0909,0,0.00011266,1125.8,3.9317e-05,25.684,3.5898e-05,-0.0010641,-0.0001122,-1112.8,2.0058
1066,19.046,5.0909,0,0.00010849,1084.2,3.8019e-05,26.621,3.4476e-05,-0.0009758,-0.00010801,-1070.6,2.0356
1067,19.229,5.0909,0,0.00010435,1042.7,3.6732e-05,27.615,3.3057e-05,-0.00086391,-0.00010385,-1028.7,2.0655
1068,19.413,5.0909,0,0.00010022,1001.5,3.5458e-05,28.668,3.1642e-05,-0.00072939,-9.9702e-05,-986.87,2.0955
1069,19.596,5.0909,0,9.6117e-05,960.5,3.4196e-05,29.785,3.0232e-05,-0.00058752,-9.5575e-05,-945.27,2.1256
1070,19.78,5.0909,0,9.2035e-05,919.71,3.2947e-05,30.973,2.8824e-05,-0.0003978,-9.1469e-05,-903.84,2.1557
1071,19.963,5.0909,0,8.7975e-05,879.14,3.1711e-05,32.236,2.742e-05,-0.000177,-8.7382e-05,-862.58,2.1859
1072,20.147,5.0909,0,8.3937e-05,838.79,3.0489e-05,33.581,2.6019e-05,7.3551e-05,-8.3315e-05,-821.5,2.2161
1073,20.33,5.0909,0,7.9922e-05,798.67,2.9281e-05,35.014,2.4621e-05,0.00038342,-7.9269e-05,-780.58,2.2464
1074,20.514,5.0909,0,7.593e-05,758.77,2.8088e-05,36.543,2.3225e-05,0.00076151,-7.5242e-05,-739.84,2.2768
1075,20.697,5.0909,0,7.1961e-05,719.11,2.6912e-05,38.175,2.1831e-05,0.001223,-7.1235e-05,-699.26,2.3071
1076,20.881,5.0909,0,6.8016e-05,679.69,2.5752e-05,39.922,2.0439e-05,0.0017782,-6.7249e-05,-658.85,2.3376
1077,21.064,5.0909,0,6.4096e-05,640.52,2.461e-05,41.792,1.9048e-05,0.0024659,-6.3283e-05,-618.6,2.3681
1078,21.248,5.0909,0,6.0203e-05,601.62,2.3487e-05,43.8,1.7658e-05,0.0033151,-5.9338e-05,-578.52,2.3986
1079,21.431,5.0909,0,5.6338e-05,562.99,2.2385e-05,45.961,1.6269e-05,0.0043655,-5.5415e-05,-538.6,2.4292
1080,21.615,5.0909,0,5.2503e-05,524.67,2.1306e-05,48.293,1.4879e-05,0.005701,-5.1514e-05,-498.85,2.4598
1081,21.798,5.0909,0,4.8701e-05,486.68,2.0252e-05,50.819,1.3489e-05,0.0073914,-4.7637e-05,-459.27,2.4904
1082,21.982,5.0909,0,4.4937e-05,449.06,1.9226e-05,53.569,1.2097e-05,0.0095518,-4.3786e-05,-419.87,2.5211
1083,22.165,5.0909,0,4.1217e-05,411.88,1.8232e-05,56.579,1.0703e-05,0.012357,-3.9962e-05,-380.66,2.5518
1084,22.349,5.0909,0,3.7548e-05,375.22,1.7276e-05,59.896,9.3063e-06,0.01604,-3.6168e-05,-341.66,2.5825
1085,22.532,5.0909,0,3.3942e-05,339.18,1.6364e-05,63.582,7.9046e-06,0.020992,-3.241e-05,-302.89,2.6132
1086,22.716,5.0909,0,3.0415e-05,303.94,1.5505e-05,67.716,6.4966e-06,0.027605,-2.8692e-05,-264.36,2.644
1087,22.899,5.0909,0,2.6991e-05,269.72,1.4711e-05,72.402,5.08e-06,0.037385,-2.502e-05,-226.12,2.6748
1088,23.083,5.0909,0,2.3704e-05,236.87,1.3996e-05,77.773,3.6514e-06,0.049534,-2.1403e-05,-188.2,2.7056
1089,23.266,5.0909,0,2.0603e-05,205.89,1.3376e-05,83.991,2.2074e-06,0.076545,-1.7847e-05,-150.6,2.7364
1090,23.45,5.0909,0,1.7762e-05,177.5,1.2868e-05,91.22,7.392e-07,0.088569,-1.4357e-05,-113.34,2.7672
1091,23.633,5.0909,0,1.5293e-05,152.82,1.2486e-05,99.68,-7.4695e-07,0.25432,-1.0934e-05,-76.29,2.7981
1092,23.817,5.0909,0,1.3371e-05,133.62,1.2251e-05,109.39,-2.2983e-06,0.075569,-7.5741e-06,-39.564,2.8289
1093,3.4501,4.9091,0,0.00044619,4458.8,0.00028262,1715,5.2741e-05,-12.191,-0.00039137,-3349.1,0.070419
1094,3.6336,4.9091,0,0.00041477,4144.8,0.00022675,1120.9,7.7491e-05,-0.57263,-0.00038416,-3469.2,0.083671
1095,3.8171,4.9091,0,0.00041562,4153.4,0.00019988,769.9,9.6904e-05,-3.8088,-0.00039715,-3715.9,0.097054
1096,4.0006,4.9091,0,0.00042286,4225.7,0.00018286,526.63,0.00011241,-2.7447,-0.00041145,-3938.8,0.11062
1097,4.1841,4.9091,0,0.00043171,4314.1,0.00017224,359.21,0.00012407,-2.6752,-0.00042451,-4124.5,0.12442
1098,4.3676,4.9091,0,0.00044,4397,0.00016557,244.38,0.00013272,-2.4576,-0.00043537,-4270.9,0.13848
1099,4.551,4.9091,0,0.0004467,4463.9,0.00016117,164.17,0.000139,-2.4068,-0.00044371,-4380.7,0.15282
1100,4.7345,4.9091,0,0.00045147,4511.6,0.00015799,106.65,0.00014346,-2.492,-0.0004496,-4458.5,0.16744
1101,4.918,4.9091,0,0.00045436,4540.5,0.00015544,64.301,0.00014651,-2.8341,-0.00045328,-4509.4,0.18236
1102,5.1015,4.9091,0,0.00045557,4552.6,0.00015327,32.857,0.00014839,-3.8534,-0.00045507,-4538,0.19758
1103,5.285,4.9091,0,0.00045536,4550.4,0.00015161,11.562,0.00014905,-7.6895,-0.00045529,-4548.5,0.21311
1104,5.4684,4.9091,0,0.00045397,4536.6,0.00015103,3.3079,0.00014805,-19.049,-0.00045424,-4544.4,0.22895
1105,5.6519,4.9091,0,0.00045166,4513.4,0.00015076,1.3907,0.00014627,-32.406,-0.00045217,-4528.8,0.24508
1106,5.8354,4.9091,0,0.00044861,4483,0.00015025,0.74757,0.00014436,-43.511,-0.00044932,-4504.2,0.26153
1107,6.0189,4.9091,0,0.00044499,4446.8,0.00014946,0.45525,0.00014247,-52.043,-0.00044585,-4472.4,0.27827
1108,6.2024,4.9091,0,0.00044095,4406.4,0.00014841,0.29892,0.00014062,-58.26,-0.00044191,-4435.1,0.29532
1109,6.3858,4.9091,0,0.00043658,4362.8,0.00014717,0.20668,0.00013883,-62.484,-0.00043761,-4393.6,0.31266
1110,6.5693,4.9091,0,0.00043198,4316.8,0.00014577,0.14852,0.0001371,-65.025,-0.00043305,-4348.9,0.3303
1111,6.7528,4.9091,0,0.0004272,4269.1,0.00014425,0.11002,0.00013543,-66.162,-0.00042829,-4301.7,0.34823
1112,6.9363,4.9091,0,0.0004223,4220.1,0.00014263,0.083555,0.00013382,-66.148,-0.00042339,-4252.7,0.36644
1113,7.1198,4.9091,0,0.00041731,4170.2,0.00014094,0.064789,0.00013225,-65.206,-0.00041838,-4202.4,0.38495
1114,7.3032,4.9091,0,0.00041226,4119.7,0.00013918,0.05114,0.00013072,-63.529,-0.0004133,-4151.1,0.40373
1115,7.4867,4.9091,0,0.00040716,4068.8,0.00013739,0.041,0.00012923,-61.286,-0.00040817,-4099.1,0.42279
1116,7.6702,4.9091,0,0.00040205,4017.7,0.00013557,0.033325,0.00012776,-58.621,-0.00040301,-4046.6,0.44213
1117,7.8537,4.9091,0,0.00039691,3966.4,0.00013373,0.027426,0.00012632,-55.653,-0.00039783,-3993.9,0.46174
1118,8.0372,4.9091,0,0.00039177,3915,0.00013188,0.022831,0.00012489,-52.483,-0.00039263,-3940.9,0.48161
1119,8.2206,4.9091,0,0.00038662,3863.5,0.00013002,0.019209,0.00012347,-49.195,-0.00038743,-3887.9,0.50175
1120,8.4041,4.9091,0,0.00038148,3812.1,0.00012815,0.016326,0.00012205,-45.854,-0.00038224,-3834.9,0.52215
1121,8.5876,4.9091,0,0.00037634,3760.8,0.00012629,0.014013,0.00012063,-42.514,-0.00037704,-3781.9,0.54281
1122,8.7711,4.9091,0,0.00037121,3709.5,0.00012444,0.012142,0.00011922,-39.217,-0.00037186,-3729,0.56372
1123,8.9546,4.9091,0,0.00036608,3658.3,0.00012259,0.010623,0.0001178,-35.994,-0.00036668,-3676.2,0.58489
1124,9.1381,4.9091,0,0.00036097,3607.2,0.00012075,0.0093818,0.00011637,-32.871,-0.00036152,-3623.5,0.6063
1125,9.3215,4.9091,0,0.00035587,3556.2,0.00011891,0.0083671,0.00011494,-29.863,-0.00035637,-3571,0.62795
1126,9.505,4.9091,0,0.00035077,3505.3,0.00011709,0.0075365,0.0001135,-26.984,-0.00035123,-3518.7,0.64984
1127,9.6885,4.9091,0,0.00034569,3454.6,0.00011528,0.0068633,0.00011205,-24.239,-0.0003461,-3466.6,0.67197
1128,9.872,4.9091,0,0.00034062,3403.9,0.00011348,0.0063135,0.0001106,-21.632,-0.00034099,-3414.7,0.69433
1129,10.055,4.9091,0,0.00033557,3353.4,0.00011169,0.0058905,0.00010913,-19.166,-0.00033589,-3362.9,0.71692
1130,10.239,4.9091,0,0.00033052,3303,0.00010991,0.0055672,0.00010766,-16.837,-0.00033081,-3311.3,0.73974
1131,10.422,4.9091,0,0.00032549,3252.7,0.00010814,0.0053095,0.00010619,-14.644,-0.00032574,-3260,0.76277
1132,10.606,4.9091,0,0.00032048,3202.5,0.00010638,0.0051661,0.0001047,-12.583,-0.00032069,-3208.8,0.78603
1133,10.789,4.9091,0,0.00031547,3152.5,0.00010463,0.0051482,0.00010322,-10.647,-0.00031565,-3157.9,0.80951
1134,10.973,4.9091,0,0.00031048,3102.7,0.0001029,0.0052815,0.00010172,-8.8322,-0.00031063,-3107.1,0.83319
1135,11.156,4.9091,0,0.00030551,3053,0.00010117,0.0055508,0.00010022,-7.1317,-0.00030563,-3056.5,0.85708
1136,11.34,4.9091,0,0.00030055,3003.4,9.9455e-05,0.0061006,9.8717e-05,-5.5396,-0.00030064,-3006.2,0.88118
1137,11.523,4.9091,0,0.0002956,2954,9.775e-05,0.0072235,9.721e-05,-4.0494,-0.00029567,-2956,0.90549
1138,11.707,4.9091,0,0.00029067,2904.7,9.6054e-05,0.0095354,9.5699e-05,-2.6558,-0.00029072,-2906,0.92999
1139,11.89,4.9091,0,0.00028576,2855.6,9.4368e-05,0.016299,9.4186e-05,-1.3554,-0.00028578,-2856.3,0.95468
1140,12.074,4.9091,0,0.00028086,2806.7,9.2702e-05,0.093297,9.2661e-05,-0.20795,-0.00028086,-2806.7,0.97957
1141,12.257,4.9091,0,0.00027598,2757.9,9.1161e-05,1.0493,9.1019e-05,-0.016364,-0.00027596,-2757.3,1.0046
1142,12.441,4.9091,0,0.00027111,2709.2,8.9644e-05,2.117,8.9361e-05,-0.0072357,-0.00027107,-2708.2,1.0299
1143,12.624,4.9091,0,0.00026626,2660.8,8.8128e-05,3.1255,8.7711e-05,-0.0043929,-0.00026621,-2659.2,1.0554
1144,12.808,4.9091,0,0.00026143,2612.5,8.6612e-05,4.0754,8.607e-05,-0.003018,-0.00026136,-2610.5,1.081
1145,12.991,4.9091,0,0.00025661,2564.4,8.5098e-05,4.9708,8.4436e-05,-0.0022522,-0.00025653,-2561.9,1.1068
1146,13.175,4.9091,0,0.00025182,2516.4,8.3586e-05,5.8163,8.2811e-05,-0.0017692,-0.00025172,-2513.5,1.1327
1147,13.358,4.9091,0,0.00024704,2468.7,8.2075e-05,6.6163,8.1194e-05,-0.0013974,-0.00024692,-2465.4,1.1589
1148,13.542,4.9091,0,0.00024228,2421.1,8.0567e-05,7.3751,7.9585e-05,-0.0011543,-0.00024215,-2417.4,1.1852
1149,13.725,4.9091,0,0.00023753,2373.7,7.9062e-05,8.0969,7.7984e-05,-0.00096333,-0.00023739,-2369.6,1.2117
1150,13.909,4.9091,0,0.00023281,2326.4,7.756e-05,8.7856,7.639e-05,-0.00080733,-0.00023265,-2322,1.2383
1151,14.092,4.9091,0,0.0002281,2279.4,7.6061e-05,9.4449,7.4804e-05,-0.00070889,-0.00022794,-2274.7,1.2651
1152,14.276,4.9091,0,0.00022341,2232.6,7.4567e-05,10.079,7.3225e-05,-0.0005942,-0.00022324,-2227.5,1.292
1153,14.459,4.9091,0,0.00021874,2185.9,7.3077e-05,10.69,7.1654e-05,-0.00049083,-0.00021856,-2180.5,1.3191
1154,14.642,4.9091,0,0.00021409,2139.4,7.1591e-05,11.282,7.0089e-05,-0.00043283,-0.00021389,-2133.7,1.3463
1155,14.826,4.9091,0,0.00020946,2093.1,7.011e-05,11.859,6.8532e-05,-0.00036512,-0.00020925,-2087.2,1.3737
1156,15.009,4.9091,0,0.00020484,2047,6.8635e-05,12.423,6.6982e-05,-0.00029077,-0.00020463,-2040.8,1.4012
1157,15.193,4.9091,0,0.00020025,2001.1,6.7166e-05,12.978,6.5438e-05,-0.00020923,-0.00020002,-1994.6,1.4289
1158,15.376,4.9091,0,0.00019567,1955.4,6.5702e-05,13.526,6.3901e-05,-0.00014925,-0.00019544,-1948.6,1.4567
1159,15.56,4.9091,0,0.00019112,1909.9,6.4244e-05,14.07,6.2371e-05,-8.4974e-05,-0.00019088,-1902.8,1.4846
1160,15.743,4.9091,0,0.00018659,1864.6,6.2793e-05,14.614,6.0848e-05,-1.5068e-05,-0.00018633,-1857.2,1.5126
1161,15.927,4.9091,0,0.00018207,1819.4,6.1348e-05,15.159,5.9331e-05,3.0459e-05,-0.00018181,-1811.8,1.5408
1162,16.11,4.9091,0,0.00017757,1774.5,5.9911e-05,15.71,5.782e-05,0.00010807,-0.0001773,-1766.6,1.5691
1163,16.294,4.9091,0,0.0001731,1729.8,5.848e-05,16.268,5.6315e-05,0.00018948,-0.00017282,-1721.6,1.5975
1164,16.477,4.9091,0,0.00016864,1685.3,5.7058e-05,16.836,5.4817e-05,0.00024659,-0.00016835,-1676.8,1.626
1165,16.661,4.9091,0,0.00016421,1641,5.5643e-05,17.418,5.3324e-05,0.00032392,-0.00016391,-1632.2,1.6547
1166,16.844,4.9091,0,0.0001598,1596.9,5.4236e-05,18.017,5.1838e-05,0.00041073,-0.00015948,-1587.8,1.6834
1167,17.028,4.9091,0,0.0001554,1553,5.2837e-05,18.635,5.0357e-05,0.00051481,-0.00015508,-1543.6,1.7123
1168,17.211,4.9091,0,0.00015103,1509.3,5.1447e-05,19.276,4.8882e-05,0.00060684,-0.00015069,-1499.5,1.7412
1169,17.395,4.9091,0,0.00014668,1465.8,5.0067e-05,19.942,4.7413e-05,0.00071107,-0.00014633,-1455.7,1.7703
1170,17.578,4.9091,0,0.00014235,1422.5,4.8695e-05,20.637,4.5949e-05,0.00082534,-0.00014198,-1412.1,1.7995
1171,17.762,4.9091,0,0.00013804,1379.4,4.7333e-05,21.365,4.449e-05,0.00093351,-0.00013766,-1368.6,1.8287
1172,17.945,4.9091,0,0.00013375,1336.6,4.5982e-05,22.13,4.3037e-05,0.0010745,-0.00013336,-1325.4,1.8581
1173,18.129,4.9091,0,0.00012948,1293.9,4.464e-05,22.934,4.1588e-05,0.0012245,-0.00012908,-1282.3,1.8875
1174,18.312,4.9091,0,0.00012524,1251.5,4.3309e-05,23.781,4.0144e-05,0.0013689,-0.00012481,-1239.4,1.917
1175,18.496,4.9091,0,0.00012101,1209.3,4.199e-05,24.677,3.8705e-05,0.0015398,-0.00012057,-1196.8,1.9466
1176,18.679,4.9091,0,0.00011681,1167.3,4.0681e-05,25.626,3.7271e-05,0.0017358,-0.00011635,-1154.3,1.9763
1177,18.863,4.9091,0,0.00011263,1125.5,3.9385e-05,26.632,3.5841e-05,0.0019545,-0.00011215,-1112,2.0061
1178,19.046,4.9091,0,0.00010847,1084,3.8101e-05,27.699,3.4415e-05,0.0021854,-0.00010797,-1069.8,2.0359
1179,19.229,4.9091,0,0.00010434,1042.6,3.683e-05,28.834,3.2993e-05,0.0024476,-0.00010382,-1027.9,2.0658
1180,19.413,4.9091,0,0.00010022,1001.5,3.5572e-05,30.043,3.1574e-05,0.0027394,-9.9678e-05,-986.18,2.0958
1181,19.596,4.9091,0,9.6133e-05,960.66,3.4329e-05,31.33,3.0159e-05,0.0030574,-9.5561e-05,-944.61,2.1258
1182,19.78,4.9091,0,9.2066e-05,920.02,3.31e-05,32.703,2.8748e-05,0.0034327,-9.1466e-05,-903.23,2.1559
1183,19.963,4.9091,0,8.8022e-05,879.62,3.1886e-05,34.169,2.7339e-05,0.0038556,-8.7391e-05,-862.03,2.1861
1184,20.147,4.9091,0,8.4003e-05,839.45,3.0688e-05,35.736,2.5932e-05,0.0043266,-8.3338e-05,-821.01,2.2163
1185,20.33,4.9091,0,8.0008e-05,799.53,2.9507e-05,37.412,2.4528e-05,0.0048764,-7.9306e-05,-780.16,2.2466
1186,20.514,4.9091,0,7.6038e-05,759.86,2.8343e-05,39.207,2.3126e-05,0.0055132,-7.5295e-05,-739.49,2.277
1187,20.697,4.9091,0,7.2094e-05,720.45,2.7199e-05,41.132,2.1725e-05,0.0062605,-7.1306e-05,-699,2.3074
1188,20.881,4.9091,0,6.8177e-05,681.3,2.6074e-05,43.199,2.0325e-05,0.0071261,-6.734e-05,-658.67,2.3378
1189,21.064,4.9091,0,6.4289e-05,642.44,2.497e-05,45.421,1.8926e-05,0.0081526,-6.3395e-05,-618.52,2.3683
1190,21.248,4.9091,0,6.043e-05,603.88,2.389e-05,47.815,1.7527e-05,0.0093738,-5.9474e-05,-578.55,2.3988
1191,21.431,4.9091,0,5.6603e-05,565.64,2.2834e-05,50.399,1.6128e-05,0.010836,-5.5576e-05,-538.74,2.4293
1192,21.615,4.9091,0,5.281e-05,527.74,2.1805e-05,53.197,1.4727e-05,0.012622,-5.1704e-05,-499.12,2.4599
1193,21.798,4.9091,0,4.9056e-05,490.22,2.0807e-05,56.235,1.3324e-05,0.014808,-4.7857e-05,-459.68,2.4906
1194,21.982,4.9091,0,4.5346e-05,453.14,1.9842e-05,59.547,1.1919e-05,0.017514,-4.4038e-05,-420.42,2.5212
1195,22.165,4.9091,0,4.1685e-05,416.56,1.8914e-05,63.172,1.051e-05,0.020921,-4.0249e-05,-381.36,2.5519
1196,22.349,4.9091,0,3.8083e-05,380.57,1.803e-05,67.161,9.0952e-06,0.025262,-3.6493e-05,-342.51,2.5826
1197,22.532,4.9091,0,3.4552e-05,345.28,1.7196e-05,71.576,7.6742e-06,0.030934,-3.2773e-05,-303.87,2.6134
1198,22.716,4.9091,0,3.1109e-05,310.88,1.642e-05,76.493,6.2447e-06,0.03833,-2.9094e-05,-265.48,2.6441
1199,22.899,4.9091,0,2.7778e-05,277.58,1.5711e-05,82.002,4.8041e-06,0.048969,-2.5458e-05,-227.33,2.6749
1200,23.083,4.9091,0,2.459e-05,245.73,1.5081e-05,88.208,3.3491e-06,0.062075,-2.1872e-05,-189.44,2.7057
1201,23.266,4.9091,0,2.1594e-05,215.79,1.4539e-05,95.23,1.8765e-06,0.090398,-1.8336e-05,-151.78,2.7365
1202,23.45,4.9091,0,1.8855e-05,188.42,1.4095e-05,103.16,3.7871e-07,0.10389,-1.4849e-05,-114.31,2.7674
1203,23.633,4.9091,0,1.6475e-05,164.64,1.3752e-05,112.14,-1.1357e-06,0.27466,-1.1409e-05,-76.913,2.7982
1204,23.817,4.9091,0,1.4612e-05,146.02,1.3525e-05,122.09,-2.71e-06,0.10858,-8.0081e-06,-39.7,2.829
1205,3.4501,4.7273,0,0.00055951,5591.3,0.00036094,2242.8,6.1095e-05,-10.068,-0.00048636,-4123.4,0.072309
1206,3.6336,4.7273,0,0.00050639,5060.4,0.000282,1435.8,9.0766e-05,-1.0494,-0.00046643,-4187.6,0.08534
1207,3.8171,4.7273,0,0.00048871,4883.7,0.00023745,936.1,0.00011228,-4.4093,-0.00046601,-4349.4,0.098533
1208,4.0006,4.7273,0,0.00047959,4792.6,0.00020734,596.4,0.0001275,-3.4477,-0.00046668,-4467.9,0.11195
1209,4.1841,4.7273,0,0.000475,4746.8,0.00018747,370.1,0.00013778,-3.2793,-0.00046766,-4552.3,0.12563
1210,4.3676,4.7273,0,0.00047278,4724.5,0.0001746,221.97,0.00014461,-3.3794,-0.00046865,-4611.2,0.13959
1211,4.551,4.7273,0,0.0004714,4710.7,0.00016614,124.75,0.00014901,-3.9357,-0.00046921,-4649,0.15386
1212,4.7345,4.7273,0,0.00047001,4696.9,0.00016043,60.625,0.00015163,-5.4874,-0.00046904,-4669,0.16843
1213,4.918,4.7273,0,0.0004682,4678.8,0.0001568,20.938,0.00015255,-11.002,-0.00046803,-4673.8,0.18331
1214,5.1015,4.7273,0,0.00046582,4655,0.00015558,5.8292,0.00015111,-27.721,-0.00046619,-4665.9,0.1985
1215,5.285,4.7273,0,0.00046286,4625.4,0.00015527,2.4275,0.00014868,-47.11,-0.0004636,-4647.5,0.214
1216,5.4684,4.7273,0,0.00045937,4590.5,0.00015478,1.3059,0.0001463,-62.411,-0.00046038,-4620.8,0.22982
1217,5.6519,4.7273,0,0.00045545,4551.3,0.000154,0.79371,0.00014409,-73.64,-0.00045664,-4587.3,0.24594
1218,5.8354,4.7273,0,0.00045118,4508.6,0.00015295,0.51717,0.00014203,-81.529,-0.0004525,-4548.6,0.26238
1219,6.0189,4.7273,0,0.00044664,4463.3,0.00015169,0.3528,0.00014011,-86.724,-0.00044804,-4505.8,0.27911
1220,6.2024,4.7273,0,0.0004419,4416,0.00015027,0.24888,0.00013829,-89.733,-0.00044335,-4460,0.29615
1221,6.3858,4.7273,0,0.00043702,4367.2,0.00014871,0.18025,0.00013658,-90.967,-0.00043849,-4411.9,0.31349
1222,6.5693,4.7273,0,0.00043204,4317.4,0.00014706,0.1334,0.00013496,-90.765,-0.00043351,-4362,0.33112
1223,6.7528,4.7273,0,0.00042699,4266.9,0.00014532,0.10059,0.00013341,-89.411,-0.00042843,-4310.9,0.34905
1224,6.9363,4.7273,0,0.00042189,4216,0.00014352,0.077089,0.00013192,-87.148,-0.0004233,-4258.8,0.36726
1225,7.1198,4.7273,0,0.00041677,4164.8,0.00014169,0.059953,0.00013048,-84.181,-0.00041813,-4206.2,0.38576
1226,7.3032,4.7273,0,0.00041163,4113.4,0.00013982,0.047254,0.00012907,-80.689,-0.00041294,-4153.2,0.40454
1227,7.4867,4.7273,0,0.00040648,4062,0.00013793,0.037713,0.0001277,-76.817,-0.00040774,-4099.9,0.4236
1228,7.6702,4.7273,0,0.00040134,4010.6,0.00013603,0.030457,0.00012635,-72.693,-0.00040253,-4046.5,0.44293
1229,7.8537,4.7273,0,0.0003962,3959.2,0.00013412,0.024879,0.00012501,-68.417,-0.00039732,-3993,0.46253
1230,8.0372,4.7273,0,0.00039106,3907.9,0.00013221,0.020553,0.00012368,-64.075,-0.00039211,-3939.6,0.4824
1231,8.2206,4.7273,0,0.00038593,3856.7,0.00013031,0.017168,0.00012235,-59.733,-0.00038692,-3886.2,0.50254
1232,8.4041,4.7273,0,0.00038081,3805.5,0.00012841,0.014503,0.00012103,-55.446,-0.00038173,-3832.9,0.52293
1233,8.5876,4.7273,0,0.0003757,3754.4,0.00012651,0.012391,0.00011969,-51.255,-0.00037655,-3779.8,0.54358
1234,8.7711,4.7273,0,0.0003706,3703.5,0.00012463,0.010711,0.00011835,-47.19,-0.00037138,-3726.8,0.56449
1235,8.9546,4.7273,0,0.00036551,3652.6,0.00012276,0.0093688,0.000117,-43.276,-0.00036623,-3674,0.58564
1236,9.1381,4.7273,0,0.00036043,3601.8,0.00012089,0.0082951,0.00011563,-39.526,-0.00036108,-3621.4,0.60704
1237,9.3215,4.7273,0,0.00035535,3551.1,0.00011904,0.0074357,0.00011426,-35.952,-0.00035595,-3568.9,0.62869
1238,9.505,4.7273,0,0.00035029,3500.5,0.00011721,0.0067492,0.00011287,-32.559,-0.00035083,-3516.7,0.65057
1239,9.6885,4.7273,0,0.00034524,3450,0.00011538,0.0062068,0.00011147,-29.348,-0.00034573,-3464.6,0.67269
1240,9.872,4.7273,0,0.0003402,3399.6,0.00011357,0.0057766,0.00011006,-26.317,-0.00034064,-3412.7,0.69504
1241,10.055,4.7273,0,0.00033517,3349.4,0.00011177,0.0054589,0.00010864,-23.465,-0.00033556,-3361,0.71763
1242,10.239,4.7273,0,0.00033015,3299.2,0.00010998,0.0052264,0.00010721,-20.785,-0.0003305,-3309.6,0.74043
1243,10.422,4.7273,0,0.00032514,3249.2,0.0001082,0.0050414,0.00010577,-18.272,-0.00032545,-3258.3,0.76346
1244,10.606,4.7273,0,0.00032014,3199.2,0.00010644,0.0049498,0.00010432,-15.917,-0.00032041,-3207.2,0.78671
1245,10.789,4.7273,0,0.00031516,3149.4,0.00010468,0.0049528,0.00010286,-13.714,-0.00031539,-3156.3,0.81018
1246,10.973,4.7273,0,0.00031019,3099.8,0.00010294,0.0050649,0.00010139,-11.654,-0.00031039,-3105.6,0.83385
1247,11.156,4.7273,0,0.00030523,3050.2,0.00010121,0.0052384,9.9913e-05,-9.7288,-0.0003054,-3055.1,0.85774
1248,11.34,4.7273,0,0.00030029,3000.8,9.9488e-05,0.0055589,9.8431e-05,-7.9308,-0.00030042,-3004.7,0.88183
1249,11.523,4.7273,0,0.00029536,2951.5,9.7777e-05,0.0061573,9.6945e-05,-6.2516,-0.00029546,-2954.6,0.90612
1250,11.707,4.7273,0,0.00029044,2902.4,9.6077e-05,0.0071193,9.5453e-05,-4.6835,-0.00029052,-2904.7,0.93061
1251,11.89,4.7273,0,0.00028554,2853.4,9.4387e-05,0.0089648,9.3958e-05,-3.2193,-0.00028559,-2855,0.9553
1252,12.074,4.7273,0,0.00028065,2804.6,9.2707e-05,0.01343,9.2459e-05,-1.8532,-0.00028068,-2805.5,0.98018
1253,12.257,4.7273,0,0.00027578,2755.9,9.1039e-05,0.035884,9.0955e-05,-0.59353,-0.00027579,-2756.2,1.0052
1254,12.441,4.7273,0,0.00027092,2707.3,8.9461e-05,0.66999,8.9369e-05,-0.027013,-0.00027091,-2707,1.0305
1255,12.624,4.7273,0,0.00026608,2659,8.7956e-05,1.777,8.7718e-05,-0.0085387,-0.00026605,-2658.1,1.0559
1256,12.808,4.7273,0,0.00026126,2610.8,8.6451e-05,2.8296,8.6074e-05,-0.0043889,-0.00026121,-2609.4,1.0815
1257,12.991,4.7273,0,0.00025645,2562.7,8.4948e-05,3.8213,8.4439e-05,-0.0026039,-0.00025638,-2560.8,1.1073
1258,13.175,4.7273,0,0.00025166,2514.8,8.3445e-05,4.7564,8.2811e-05,-0.0016132,-0.00025158,-2512.5,1.1333
1259,13.358,4.7273,0,0.00024688,2467.1,8.1943e-05,5.6398,8.1192e-05,-0.00094241,-0.00024679,-2464.3,1.1594
1260,13.542,4.7273,0,0.00024213,2419.6,8.0443e-05,6.4761,7.9581e-05,-0.00050018,-0.00024202,-2416.4,1.1857
1261,13.725,4.7273,0,0.00023739,2372.3,7.8946e-05,7.2702,7.7978e-05,-0.0001631,-0.00023727,-2368.6,1.2122
1262,13.909,4.7273,0,0.00023267,2325.1,7.7451e-05,8.0264,7.6383e-05,0.00010743,-0.00023253,-2321.1,1.2388
1263,14.092,4.7273,0,0.00022797,2278.1,7.5959e-05,8.7491,7.4795e-05,0.00029752,-0.00022782,-2273.7,1.2656
1264,14.276,4.7273,0,0.00022328,2231.3,7.4471e-05,9.4424,7.3215e-05,0.00049357,-0.00022312,-2226.5,1.2925
1265,14.459,4.7273,0,0.00021861,2184.6,7.2987e-05,10.11,7.1641e-05,0.00066506,-0.00021844,-2179.6,1.3196
1266,14.642,4.7273,0,0.00021397,2138.2,7.1507e-05,10.756,7.0076e-05,0.0007879,-0.00021378,-2132.8,1.3468
1267,14.826,4.7273,0,0.00020934,2091.9,7.0032e-05,11.385,6.8517e-05,0.00091567,-0.00020914,-2086.2,1.3742
1268,15.009,4.7273,0,0.00020473,2045.9,6.8562e-05,11.998,6.6965e-05,0.0010447,-0.00020452,-2039.8,1.4017
1269,15.193,4.7273,0,0.00020014,2000,6.7097e-05,12.601,6.542e-05,0.0011826,-0.00019992,-1993.7,1.4293
1270,15.376,4.7273,0,0.00019557,1954.3,6.5638e-05,13.196,6.3882e-05,0.001294,-0.00019534,-1947.7,1.4571
1271,15.56,4.7273,0,0.00019101,1908.8,6.4186e-05,13.786,6.2351e-05,0.0014095,-0.00019078,-1901.9,1.485
1272,15.743,4.7273,0,0.00018648,1863.5,6.2739e-05,14.376,6.0826e-05,0.0015296,-0.00018623,-1856.3,1.513
1273,15.927,4.7273,0,0.00018197,1818.4,6.1299e-05,14.967,5.9307e-05,0.0016283,-0.00018171,-1810.9,1.5412
1274,16.11,4.7273,0,0.00017748,1773.6,5.9867e-05,15.564,5.7795e-05,0.0017594,-0.00017721,-1765.7,1.5695
1275,16.294,4.7273,0,0.00017301,1728.9,5.8441e-05,16.17,5.6289e-05,0.0018929,-0.00017273,-1720.7,1.5979
1276,16.477,4.7273,0,0.00016855,1684.4,5.7024e-05,16.787,5.479e-05,0.0020053,-0.00016826,-1675.9,1.6264
1277,16.661,4.7273,0,0.00016412,1640.1,5.5614e-05,17.42,5.3296e-05,0.0021377,-0.00016382,-1631.3,1.655
1278,16.844,4.7273,0,0.00015971,1596,5.4213e-05,18.072,5.1808e-05,0.002287,-0.0001594,-1586.9,1.6838
1279,17.028,4.7273,0,0.00015532,1552.2,5.282e-05,18.745,5.0325e-05,0.0024491,-0.000155,-1542.7,1.7126
1280,17.211,4.7273,0,0.00015095,1508.5,5.1436e-05,19.445,4.8849e-05,0.0026057,-0.00015061,-1498.7,1.7416
1281,17.395,4.7273,0,0.00014661,1465.1,5.0062e-05,20.174,4.7378e-05,0.0027748,-0.00014625,-1454.9,1.7706
1282,17.578,4.7273,0,0.00014228,1421.8,4.8698e-05,20.936,4.5912e-05,0.0029644,-0.00014191,-1411.2,1.7998
1283,17.762,4.7273,0,0.00013798,1378.8,4.7344e-05,21.736,4.4451e-05,0.0031425,-0.00013759,-1367.8,1.829
1284,17.945,4.7273,0,0.00013369,1336,4.6e-05,22.577,4.2996e-05,0.0033588,-0.00013329,-1324.6,1.8584
1285,18.129,4.7273,0,0.00012943,1293.4,4.4668e-05,23.464,4.1545e-05,0.0035921,-0.00012902,-1281.5,1.8878
1286,18.312,4.7273,0,0.00012519,1251.1,4.3347e-05,24.402,4.0099e-05,0.0038259,-0.00012476,-1238.7,1.9173
1287,18.496,4.7273,0,0.00012098,1208.9,4.2037e-05,25.396,3.8658e-05,0.0040889,-0.00012052,-1196,1.9469
1288,18.679,4.7273,0,0.00011678,1167,4.0741e-05,26.451,3.7221e-05,0.0043825,-0.00011631,-1153.6,1.9766
1289,18.863,4.7273,0,0.00011261,1125.3,3.9457e-05,27.573,3.5788e-05,0.0047083,-0.00011212,-1111.3,2.0063
1290,19.046,4.7273,0,0.00010846,1083.9,3.8187e-05,28.767,3.4359e-05,0.0050503,-0.00010794,-1069.2,2.0362
1291,19.229,4.7273,0,0.00010434,1042.7,3.6931e-05,30.04,3.2933e-05,0.0054311,-0.00010379,-1027.3,2.0661
1292,19.413,4.7273,0,0.00010024,1001.7,3.569e-05,31.399,3.1511e-05,0.0058534,-9.9667e-05,-985.61,2.096
1293,19.596,4.7273,0,9.6161e-05,960.95,3.4464e-05,32.85,3.0093e-05,0.0063076,-9.556e-05,-944.1,2.1261
1294,19.78,4.7273,0,9.2109e-05,920.46,3.3254e-05,34.403,2.8677e-05,0.0068301,-9.1476e-05,-902.77,2.1562
1295,19.963,4.7273,0,8.8082e-05,880.22,3.2062e-05,36.066,2.7263e-05,0.0074166,-8.7413e-05,-861.63,2.1863
1296,20.147,4.7273,0,8.4081e-05,840.23,3.0888e-05,37.847,2.5852e-05,0.0080573,-8.3373e-05,-820.67,2.2166
1297,20.33,4.7273,0,8.0107e-05,800.51,2.9732e-05,39.758,2.4442e-05,0.0087898,-7.9356e-05,-779.89,2.2468
1298,20.514,4.7273,0,7.6159e-05,761.07,2.8597e-05,41.811,2.3034e-05,0.0096289,-7.5362e-05,-739.3,2.2772
1299,20.697,4.7273,0,7.224e-05,721.9,2.7483e-05,44.016,2.1627e-05,0.01059,-7.139e-05,-698.88,2.3075
1300,20.881,4.7273,0,6.8351e-05,683.03,2.6392e-05,46.39,2.022e-05,0.011686,-6.7443e-05,-658.65,2.338
1301,21.064,4.7273,0,6.4492e-05,644.47,2.5326e-05,48.948,1.8813e-05,0.01296,-6.3519e-05,-618.6,2.3684
1302,21.248,4.7273,0,6.0666e-05,606.25,2.4285e-05,51.71,1.7405e-05,0.014457,-5.9621e-05,-578.73,2.3989
1303,21.431,4.7273,0,5.6876e-05,568.37,2.3273e-05,54.695,1.5996e-05,0.016212,-5.5748e-05,-539.04,2.4295
1304,21.615,4.7273,0,5.3125e-05,530.88,2.2292e-05,57.93,1.4585e-05,0.018313,-5.1901e-05,-499.53,2.4601
1305,21.798,4.7273,0,4.9416e-05,493.82,2.1345e-05,61.443,1.3171e-05,0.020846,-4.8083e-05,-460.21,2.4907
1306,21.982,4.7273,0,4.5755e-05,457.23,2.0436e-05,65.27,1.1752e-05,0.02392,-4.4294e-05,-421.08,2.5214
1307,22.165,4.7273,0,4.2149e-05,421.2,1.9569e-05,69.451,1.0329e-05,0.027722,-4.0536e-05,-382.15,2.5521
1308,22.349,4.7273,0,3.8608e-05,385.81,1.8748e-05,74.036,8.8989e-06,0.032486,-3.6811e-05,-343.41,2.5828
1309,22.532,4.7273,0,3.5142e-05,351.18,1.798e-05,79.08,7.4606e-06,0.038608,-3.3122e-05,-304.89,2.6135
1310,22.716,4.7273,0,3.1771e-05,317.49,1.7272e-05,84.651,6.012e-06,0.046487,-2.9472e-05,-266.57,2.6443
1311,22.899,4.7273,0,2.8515e-05,284.95,1.6631e-05,90.823,4.5507e-06,0.057662,-2.5862e-05,-228.45,2.675
1312,23.083,4.7273,0,2.5406e-05,253.88,1.6064e-05,97.673,3.0735e-06,0.071393,-2.2294e-05,-190.53,2.7058
1313,23.266,4.7273,0,2.2489e-05,224.73,1.5576e-05,105.28,1.5778e-06,0.10062,-1.8766e-05,-152.75,2.7366
1314,23.45,4.7273,0,1.9825e-05,198.12,1.5174e-05,113.7,5.6849e-08,0.11529,-1.5273e-05,-115.07,2.7675
1315,23.633,4.7273,0,1.7511e-05,174.98,1.4855e-05,123.02,-1.4788e-06,0.28994,-1.1813e-05,-77.357,2.7983
1316,23.817,4.7273,0,1.5689e-05,156.78,1.4629e-05,133.12,-3.0696e-06,0.13442,-8.3787e-06,-39.756,2.8291
1317,3.4501,4.5455,0,0.00070775,7072.6,0.00046099,2886.8,7.2319e-05,-33.506,-0.00061241,-5178.3,0.074212
1318,3.6336,4.5455,0,0.00061622,6157.9,0.0003419,1730,0.00011133,-2.3835,-0.00056826,-5108.6,0.086971
1319,3.8171,4.5455,0,0.00057148,5710.9,0.00027361,1043.3,0.0001341,-4.9343,-0.00054655,-5119.1,0.099944
1320,4.0006,4.5455,0,0.00054064,5402.7,0.00022824,603.86,0.00014728,-4.4694,-0.00052787,-5077.2,0.11319
1321,4.1841,4.5455,0,0.00052044,5200.8,0.00019936,331.05,0.00015471,-4.4073,-0.00051407,-5029.4,0.12674
1322,4.3676,4.5455,0,0.0005067,5063.5,0.00018104,163.13,0.00015861,-5.3539,-0.0005038,-4982.5,0.14061
1323,4.551,4.5455,0,0.00049675,4964,0.00016952,61.503,0.00016009,-9.352,-0.00049582,-4937.6,0.1548
1324,4.7345,4.5455,0,0.00048891,4885.8,0.0001639,13.758,0.00015828,-28.478,-0.00048915,-4893,0.16931
1325,4.918,4.5455,0,0.00048222,4818.9,0.00016256,4.3918,0.00015372,-62.061,-0.00048317,-4847.4,0.18415
1326,5.1015,4.5455,0,0.00047613,4758,0.00016163,2.1896,0.00014967,-87.674,-0.00047752,-4800.1,0.19932
1327,5.285,4.5455,0,0.00047033,4700.1,0.00016048,1.3004,0.00014636,-104.75,-0.000472,-4750.9,0.2148
1328,5.4684,4.5455,0,0.00046469,4643.7,0.00015911,0.84066,0.00014361,-115.63,-0.00046654,-4700,0.2306
1329,5.6519,4.5455,0,0.00045914,4588.2,0.00015757,0.57075,0.00014125,-122.06,-0.00046108,-4647.7,0.24671
1330,5.8354,4.5455,0,0.00045364,4533.2,0.00015589,0.40021,0.00013917,-125.24,-0.00045563,-4594.3,0.26313
1331,6.0189,4.5455,0,0.00044817,4478.6,0.00015412,0.28727,0.00013731,-126,-0.00045018,-4540.2,0.27987
1332,6.2024,4.5455,0,0.00044275,4424.4,0.00015227,0.21003,0.00013562,-124.91,-0.00044474,-4485.5,0.2969
1333,6.3858,4.5455,0,0.00043736,4370.6,0.00015036,0.15593,0.00013405,-122.42,-0.00043931,-4430.5,0.31423
1334,6.5693,4.5455,0,0.00043202,4317.2,0.00014842,0.11733,0.00013259,-118.86,-0.00043391,-4375.3,0.33186
1335,6.7528,4.5455,0,0.00042671,4264.1,0.00014645,0.089351,0.0001312,-114.5,-0.00042854,-4320.2,0.34978
1336,6.9363,4.5455,0,0.00042143,4211.4,0.00014447,0.068816,0.00012988,-109.56,-0.00042319,-4265.1,0.36799
1337,7.1198,4.5455,0,0.00041619,4159,0.00014248,0.053572,0.0001286,-104.22,-0.00041786,-4210.1,0.38649
1338,7.3032,4.5455,0,0.00041098,4106.9,0.00014048,0.042143,0.00012735,-98.619,-0.00041257,-4155.3,0.40526
1339,7.4867,4.5455,0,0.00040579,4055.1,0.00013849,0.033498,0.00012612,-92.882,-0.00040729,-4100.7,0.42431
1340,7.6702,4.5455,0,0.00040063,4003.5,0.0001365,0.026908,0.00012491,-87.106,-0.00040204,-4046.4,0.44364
1341,7.8537,4.5455,0,0.00039549,3952.2,0.00013452,0.02185,0.00012369,-81.37,-0.00039681,-3992.2,0.46324
1342,8.0372,4.5455,0,0.00039037,3901,0.00013256,0.017943,0.00012247,-75.733,-0.0003916,-3938.3,0.48311
1343,8.2206,4.5455,0,0.00038526,3850,0.0001306,0.014911,0.00012125,-70.245,-0.00038641,-3884.6,0.50324
1344,8.4041,4.5455,0,0.00038017,3799.1,0.00012866,0.012548,0.00012002,-64.94,-0.00038123,-3831.1,0.52363
1345,8.5876,4.5455,0,0.00037509,3748.3,0.00012673,0.0107,0.00011877,-59.843,-0.00037607,-3777.9,0.54427
1346,8.7711,4.5455,0,0.00037002,3697.6,0.00012482,0.0092504,0.0001175,-54.973,-0.00037092,-3724.8,0.56517
1347,8.9546,4.5455,0,0.00036496,3647.1,0.00012292,0.008114,0.00011622,-50.339,-0.00036579,-3672,0.58632
1348,9.1381,4.5455,0,0.00035991,3596.6,0.00012104,0.0072237,0.00011492,-45.946,-0.00036067,-3619.4,0.60771
1349,9.3215,4.5455,0,0.00035487,3546.2,0.00011917,0.0065282,0.00011361,-41.795,-0.00035556,-3567,0.62935
1350,9.505,4.5455,0,0.00034984,3496,0.00011732,0.0059861,0.00011228,-37.884,-0.00035047,-3514.7,0.65123
1351,9.6885,4.5455,0,0.00034481,3445.8,0.00011548,0.0055731,0.00011093,-34.207,-0.00034538,-3462.7,0.67334
1352,9.872,4.5455,0,0.0003398,3395.7,0.00011365,0.0052566,0.00010956,-30.757,-0.00034031,-3410.9,0.69569
1353,10.055,4.5455,0,0.00033479,3345.6,0.00011184,0.005039,0.00010818,-27.525,-0.00033525,-3359.3,0.71826
1354,10.239,4.5455,0,0.0003298,3295.7,0.00011005,0.0048901,0.00010678,-24.501,-0.00033021,-3307.9,0.74106
1355,10.422,4.5455,0,0.00032481,3245.9,0.00010826,0.0047742,0.00010537,-21.677,-0.00032518,-3256.7,0.76408
1356,10.606,4.5455,0,0.00031984,3196.2,0.00010649,0.0047337,0.00010395,-19.039,-0.00032016,-3205.6,0.78732
1357,10.789,4.5455,0,0.00031487,3146.5,0.00010473,0.0047685,0.00010252,-16.579,-0.00031515,-3154.8,0.81078
1358,10.973,4.5455,0,0.00030992,3097,0.00010298,0.0048854,0.00010108,-14.285,-0.00031016,-3104.2,0.83445
1359,11.156,4.5455,0,0.00030498,3047.7,0.00010124,0.0050278,9.9626e-05,-12.146,-0.00030518,-3053.7,0.85833
1360,11.34,4.5455,0,0.00030005,2998.4,9.9518e-05,0.0052566,9.8166e-05,-10.153,-0.00030022,-3003.5,0.88241
1361,11.523,4.5455,0,0.00029513,2949.3,9.7804e-05,0.0056597,9.6699e-05,-8.2955,-0.00029527,-2953.4,0.90669
1362,11.707,4.5455,0,0.00029023,2900.2,9.61e-05,0.0062163,9.5225e-05,-6.5639,-0.00029034,-2903.5,0.93117
1363,11.89,4.5455,0,0.00028533,2851.4,9.4406e-05,0.0071236,9.3746e-05,-4.9492,-0.00028542,-2853.8,0.95585
1364,12.074,4.5455,0,0.00028046,2802.6,9.2722e-05,0.0087668,9.2263e-05,-3.4431,-0.00028052,-2804.4,0.98072
1365,12.257,4.5455,0,0.0002756,2754.1,9.1049e-05,0.012461,9.0776e-05,-2.0388,-0.00027563,-2755.1,1.0058
1366,12.441,4.5455,0,0.00027075,2705.6,8.9386e-05,0.028463,8.9284e-05,-0.73837,-0.00027076,-2706,1.031
1367,12.624,4.5455,0,0.00026592,2657.3,8.78e-05,0.5528,8.7722e-05,-0.030575,-0.00026591,-2657.1,1.0564
1368,12.808,4.5455,0,0.0002611,2609.2,8.6304e-05,1.685,8.6079e-05,-0.0076948,-0.00026107,-2608.4,1.0821
1369,12.991,4.5455,0,0.0002563,2561.2,8.481e-05,2.765,8.4441e-05,-0.0033506,-0.00025625,-2559.8,1.1078
1370,13.175,4.5455,0,0.00025151,2513.4,8.3316e-05,3.7832,8.2812e-05,-0.0015233,-0.00025145,-2511.5,1.1338
1371,13.358,4.5455,0,0.00024675,2465.8,8.1822e-05,4.7441,8.1191e-05,-0.00046513,-0.00024666,-2463.4,1.1599
1372,13.542,4.5455,0,0.00024199,2418.3,8.033e-05,5.6526,7.9578e-05,0.00019467,-0.0002419,-2415.4,1.1862
1373,13.725,4.5455,0,0.00023726,2371,7.884e-05,6.5139,7.7973e-05,0.0006712,-0.00023715,-2367.7,1.2126
1374,13.909,4.5455,0,0.00023254,2323.8,7.7352e-05,7.3331,7.6376e-05,0.0010382,-0.00023242,-2320.2,1.2393
1375,14.092,4.5455,0,0.00022785,2276.9,7.5867e-05,8.1149,7.4787e-05,0.0013074,-0.00022771,-2272.8,1.266
1376,14.276,4.5455,0,0.00022317,2230.1,7.4385e-05,8.8639,7.3205e-05,0.0015644,-0.00022301,-2225.7,1.2929
1377,14.459,4.5455,0,0.0002185,2183.5,7.2906e-05,9.5845,7.1631e-05,0.0017901,-0.00021834,-2178.7,1.32
1378,14.642,4.5455,0,0.00021386,2137.1,7.1432e-05,10.281,7.0064e-05,0.0019618,-0.00021368,-2131.9,1.3472
1379,14.826,4.5455,0,0.00020923,2090.9,6.9962e-05,10.957,6.8504e-05,0.0021333,-0.00020904,-2085.4,1.3746
1380,15.009,4.5455,0,0.00020463,2044.8,6.8496e-05,11.617,6.6951e-05,0.0023065,-0.00020443,-2039,1.4021
1381,15.193,4.5455,0,0.00020004,1999,6.7036e-05,12.265,6.5404e-05,0.0024853,-0.00019983,-1992.8,1.4297
1382,15.376,4.5455,0,0.00019547,1953.4,6.5582e-05,12.903,6.3865e-05,0.0026365,-0.00019525,-1946.9,1.4575
1383,15.56,4.5455,0,0.00019092,1907.9,6.4134e-05,13.537,6.2332e-05,0.0027898,-0.00019069,-1901.1,1.4854
1384,15.743,4.5455,0,0.00018639,1862.6,6.2692e-05,14.17,6.0806e-05,0.0029516,-0.00018615,-1855.5,1.5134
1385,15.927,4.5455,0,0.00018188,1817.6,6.1257e-05,14.805,5.9287e-05,0.0030894,-0.00018163,-1810.1,1.5416
1386,16.11,4.5455,0,0.00017739,1772.7,5.9829e-05,15.446,5.7773e-05,0.0032583,-0.00017713,-1764.9,1.5698
1387,16.294,4.5455,0,0.00017292,1728,5.8408e-05,16.096,5.6266e-05,0.0034367,-0.00017264,-1719.9,1.5982
1388,16.477,4.5455,0,0.00016848,1683.6,5.6995e-05,16.76,5.4765e-05,0.0035923,-0.00016818,-1675.1,1.6267
1389,16.661,4.5455,0,0.00016405,1639.3,5.5591e-05,17.441,5.327e-05,0.0037661,-0.00016374,-1630.6,1.6554
1390,16.844,4.5455,0,0.00015964,1595.3,5.4195e-05,18.142,5.178e-05,0.0039596,-0.00015932,-1586.2,1.6841
1391,17.028,4.5455,0,0.00015525,1551.5,5.2808e-05,18.869,5.0297e-05,0.0041713,-0.00015492,-1541.9,1.7129
1392,17.211,4.5455,0,0.00015089,1507.9,5.143e-05,19.624,4.8819e-05,0.0043775,-0.00015055,-1497.9,1.7419
1393,17.395,4.5455,0,0.00014655,1464.5,5.0062e-05,20.412,4.7346e-05,0.0045976,-0.00014619,-1454.1,1.7709
1394,17.578,4.5455,0,0.00014222,1421.3,4.8705e-05,21.238,4.5879e-05,0.0048388,-0.00014185,-1410.5,1.8001
1395,17.762,4.5455,0,0.00013792,1378.3,4.7358e-05,22.106,4.4416e-05,0.0050755,-0.00013754,-1367.1,1.8293
1396,17.945,4.5455,0,0.00013365,1335.6,4.6022e-05,23.021,4.2959e-05,0.0053543,-0.00013324,-1323.9,1.8586
1397,18.129,4.5455,0,0.00012939,1293,4.4698e-05,23.987,4.1506e-05,0.0056502,-0.00012897,-1280.9,1.8881
1398,18.312,4.5455,0,0.00012516,1250.7,4.3386e-05,25.011,4.0058e-05,0.0059503,-0.00012472,-1238,1.9176
1399,18.496,4.5455,0,0.00012095,1208.7,4.2087e-05,26.098,3.8614e-05,0.0062826,-0.00012049,-1195.4,1.9471
1400,18.679,4.5455,0,0.00011676,1166.8,4.0801e-05,27.255,3.7175e-05,0.0066502,-0.00011628,-1153,1.9768
1401,18.863,4.5455,0,0.0001126,1125.2,3.953e-05,28.486,3.5739e-05,0.0070552,-0.00011209,-1110.7,2.0066
1402,19.046,4.5455,0,0.00010846,1083.9,3.8273e-05,29.801,3.4308e-05,0.0074819,-0.00010793,-1068.7,2.0364
1403,19.229,4.5455,0,0.00010435,1042.8,3.7031e-05,31.205,3.2879e-05,0.0079542,-0.00010378,-1026.8,2.0663
1404,19.413,4.5455,0,0.00010026,1001.9,3.5806e-05,32.706,3.1454e-05,0.0084747,-9.9665e-05,-985.17,2.0962
1405,19.596,4.5455,0,9.6199e-05,961.32,3.4597e-05,34.314,3.0031e-05,0.009027,-9.5569e-05,-943.7,2.1263
1406,19.78,4.5455,0,9.2161e-05,920.98,3.3406e-05,36.038,2.8611e-05,0.0096611,-9.1495e-05,-902.42,2.1564
1407,19.963,4.5455,0,8.8151e-05,880.9,3.2235e-05,37.887,2.7194e-05,0.010359,-8.7445e-05,-861.34,2.1865
1408,20.147,4.5455,0,8.4167e-05,841.09,3.1083e-05,39.872,2.5778e-05,0.011126,-8.3418e-05,-820.44,2.2167
1409,20.33,4.5455,0,8.0212e-05,801.57,2.9952e-05,42.005,2.4363e-05,0.011991,-7.9415e-05,-779.73,2.247
1410,20.514,4.5455,0,7.6286e-05,762.34,2.8844e-05,44.3,2.2949e-05,0.012966,-7.5436e-05,-739.22,2.2773
1411,20.697,4.5455,0,7.2391e-05,723.41,2.7759e-05,46.771,2.1536e-05,0.014081,-7.1482e-05,-698.88,2.3077
1412,20.881,4.5455,0,6.8528e-05,684.8,2.67e-05,49.433,2.0123e-05,0.015343,-6.7552e-05,-658.74,2.3381
1413,21.064,4.5455,0,6.4698e-05,646.53,2.5667e-05,52.305,1.8708e-05,0.016788,-6.3649e-05,-618.78,2.3686
1414,21.248,4.5455,0,6.0904e-05,608.62,2.4665e-05,55.407,1.7293e-05,0.018473,-5.9771e-05,-579.01,2.3991
1415,21.431,4.5455,0,5.7148e-05,571.09,2.3693e-05,58.763,1.5875e-05,0.020424,-5.5921e-05,-539.43,2.4296
1416,21.615,4.5455,0,5.3435e-05,533.98,2.2756e-05,62.398,1.4454e-05,0.022734,-5.2099e-05,-500.03,2.4602
1417,21.798,4.5455,0,4.9767e-05,497.33,2.1855e-05,66.342,1.3029e-05,0.025488,-4.8305e-05,-460.82,2.4909
1418,21.982,4.5455,0,4.6151e-05,461.19,2.0996e-05,70.629,1.1599e-05,0.028792,-4.4542e-05,-421.79,2.5215
1419,22.165,4.5455,0,4.2594e-05,425.65,2.018e-05,75.3,1.0163e-05,0.032837,-4.081e-05,-382.96,2.5522
1420,22.349,4.5455,0,3.9105e-05,390.78,1.9414e-05,80.398,8.7191e-06,0.037856,-3.7111e-05,-344.31,2.5829
1421,22.532,4.5455,0,3.5696e-05,356.71,1.8702e-05,85.973,7.2655e-06,0.044241,-3.3447e-05,-305.85,2.6136
1422,22.716,4.5455,0,3.2383e-05,323.61,1.8049e-05,92.081,5.8004e-06,0.052407,-2.9818e-05,-267.57,2.6444
1423,22.899,4.5455,0,2.9188e-05,291.68,1.746e-05,98.779,4.3214e-06,0.063919,-2.6225e-05,-229.45,2.6752
1424,23.083,4.5455,0,2.6141e-05,261.23,1.6939e-05,106.12,2.8257e-06,0.078065,-2.2666e-05,-191.46,2.706
1425,23.266,4.5455,0,2.3285e-05,232.69,1.6491e-05,114.16,1.3113e-06,0.10794,-1.9139e-05,-153.54,2.7368
1426,23.45,4.5455,0,2.0678e-05,206.64,1.6116e-05,122.92,-2.2773e-07,0.12347,-1.5637e-05,-115.65,2.7676
1427,23.633,4.5455,0,1.8413e-05,184,1.5812e-05,132.48,-1.7795e-06,0.30112,-1.2158e-05,-77.676,2.7984
1428,23.817,4.5455,0,1.6623e-05,166.11,1.5585e-05,142.67,-3.3827e-06,0.15426,-8.6959e-06,-39.767,2.8292
1429,3.4501,4.3636,0,0.00092244,9218,0.00060124,3800.3,9.769e-05,16.872,-0.00079726,-6707.5,0.07611
1430,3.6336,4.3636,0,0.00074862,7481,0.00040084,1915.7,0.00014625,2.7769,-0.0006974,-6336.1,0.088539
1431,3.8171,4.3636,0,0.00065811,6576.6,0.00030001,1005.9,0.0001641,-15.26,-0.00063528,-6021.6,0.10127
1432,4.0006,4.3636,0,0.00060273,6023.2,0.00024147,513.86,0.00017259,-3.6617,-0.00059238,-5751.4,0.11433
1433,4.1841,4.3636,0,0.00056568,5652.9,0.00020608,229.47,0.00017458,-7.1721,-0.00056152,-5538,0.12775
1434,4.3676,4.3636,0,0.00054033,5399.6,0.00018482,70.035,0.00017369,-13.538,-0.00053932,-5370.9,0.14152
1435,4.551,4.3636,0,0.00052182,5214.6,0.00017586,11.525,0.00016705,-54.639,-0.00052252,-5235.9,0.15564
1436,4.7345,4.3636,0,0.00050758,5072.3,0.0001731,4.0516,0.00015835,-106.76,-0.00050923,-5122.7,0.1701
1437,4.918,4.3636,0,0.00049602,4956.8,0.00017077,2.1488,0.0001518,-140.33,-0.00049822,-5024.3,0.1849
1438,5.1015,4.3636,0,0.00048622,4858.9,0.00016842,1.3315,0.00014696,-159.96,-0.00048872,-4936.2,0.20003
1439,5.285,4.3636,0,0.00047761,4772.8,0.00016605,0.88771,0.00014325,-170.4,-0.00048027,-4855.3,0.2155
1440,5.4684,4.3636,0,0.00046984,4695.1,0.00016367,0.61743,0.00014033,-174.76,-0.00047255,-4779.7,0.23128
1441,5.6519,4.3636,0,0.00046266,4623.4,0.0001613,0.44088,0.00013795,-175.04,-0.00046538,-4708.2,0.24738
1442,5.8354,4.3636,0,0.00045595,4556.3,0.00015895,0.32061,0.00013595,-172.53,-0.00045863,-4640,0.2638
1443,6.0189,4.3636,0,0.00044958,4492.7,0.00015663,0.23633,0.00013423,-168.08,-0.0004522,-4574.3,0.28052
1444,6.2024,4.3636,0,0.00044349,4431.8,0.00015433,0.17612,0.00013271,-162.28,-0.00044603,-4510.7,0.29755
1445,6.3858,4.3636,0,0.00043762,4373.2,0.00015206,0.13248,0.00013134,-155.56,-0.00044006,-4448.8,0.31488
1446,6.5693,4.3636,0,0.00043193,4316.3,0.00014982,0.10051,0.00013008,-148.22,-0.00043426,-4388.4,0.33251
1447,6.7528,4.3636,0,0.00042638,4260.8,0.00014761,0.076865,0.0001289,-140.51,-0.00042859,-4329.3,0.35043
1448,6.9363,4.3636,0,0.00042094,4206.5,0.00014543,0.059251,0.00012777,-132.61,-0.00042304,-4271.2,0.36863
1449,7.1198,4.3636,0,0.00041559,4153.1,0.00014328,0.046042,0.00012668,-124.66,-0.00041757,-4214,0.38713
1450,7.3032,4.3636,0,0.00041032,4100.4,0.00014115,0.036077,0.00012561,-116.76,-0.00041218,-4157.5,0.4059
1451,7.4867,4.3636,0,0.0004051,4048.2,0.00013905,0.028523,0.00012454,-109.01,-0.00040685,-4101.6,0.42495
1452,7.6702,4.3636,0,0.00039993,3996.6,0.00013697,0.02277,0.00012347,-101.47,-0.00040156,-4046.3,0.44428
1453,7.8537,4.3636,0,0.0003948,3945.3,0.00013492,0.018372,0.00012239,-94.179,-0.00039632,-3991.5,0.46387
1454,8.0372,4.3636,0,0.0003897,3894.3,0.0001329,0.015,0.00012129,-87.181,-0.00039111,-3937.1,0.48373
1455,8.2206,4.3636,0,0.00038462,3843.5,0.00013089,0.012409,0.00012018,-80.496,-0.00038592,-3883.1,0.50386
1456,8.4041,4.3636,0,0.00037956,3792.9,0.00012891,0.010415,0.00011904,-74.138,-0.00038076,-3829.5,0.52424
1457,8.5876,4.3636,0,0.00037451,3742.5,0.00012695,0.0088794,0.00011788,-68.113,-0.00037562,-3776.1,0.54488
1458,8.7711,4.3636,0,0.00036947,3692.2,0.00012501,0.0076994,0.0001167,-62.423,-0.00037049,-3723,0.56578
1459,8.9546,4.3636,0,0.00036444,3641.9,0.00012308,0.0067955,0.00011549,-57.064,-0.00036538,-3670.1,0.58692
1460,9.1381,4.3636,0,0.00035943,3591.8,0.00012118,0.0061046,0.00011425,-52.028,-0.00036028,-3617.5,0.60831
1461,9.3215,4.3636,0,0.00035442,3541.7,0.00011929,0.0055836,0.000113,-47.305,-0.0003552,-3565.1,0.62994
1462,9.505,4.3636,0,0.00034941,3491.7,0.00011742,0.0051945,0.00011172,-42.885,-0.00035012,-3513,0.65181
1463,9.6885,4.3636,0,0.00034442,3441.8,0.00011557,0.0049148,0.00011041,-38.753,-0.00034506,-3461,0.67392
1464,9.872,4.3636,0,0.00033943,3392,0.00011374,0.0047135,0.00010909,-34.895,-0.00034001,-3409.3,0.69626
1465,10.055,4.3636,0,0.00033445,3342.2,0.00011192,0.0045939,0.00010775,-31.297,-0.00033497,-3357.7,0.71883
1466,10.239,4.3636,0,0.00032948,3292.5,0.00011011,0.0045296,0.00010639,-27.945,-0.00032994,-3306.4,0.74162
1467,10.422,4.3636,0,0.00032451,3242.9,0.00010832,0.0044833,0.00010501,-24.823,-0.00032493,-3255.2,0.76463
1468,10.606,4.3636,0,0.00031956,3193.4,0.00010654,0.004498,0.00010362,-21.918,-0.00031992,-3204.3,0.78787
1469,10.789,4.3636,0,0.00031461,3143.9,0.00010477,0.0045711,0.00010221,-19.215,-0.00031493,-3153.5,0.81132
1470,10.973,4.3636,0,0.00030967,3094.6,0.00010302,0.0047085,0.00010079,-16.701,-0.00030995,-3102.9,0.83498
1471,11.156,4.3636,0,0.00030474,3045.3,0.00010128,0.0048468,9.9364e-05,-14.363,-0.00030499,-3052.5,0.85885
1472,11.34,4.3636,0,0.00029983,2996.2,9.9547e-05,0.005039,9.7924e-05,-12.188,-0.00030003,-3002.3,0.88292
1473,11.523,4.3636,0,0.00029492,2947.2,9.7828e-05,0.0053553,9.6475e-05,-10.164,-0.0002951,-2952.3,0.9072
1474,11.707,4.3636,0,0.00029003,2898.3,9.6121e-05,0.0057382,9.5018e-05,-8.2808,-0.00029017,-2902.4,0.93167
1475,11.89,4.3636,0,0.00028515,2849.5,9.4424e-05,0.0063004,9.3554e-05,-6.5274,-0.00028526,-2852.8,0.95634
1476,12.074,4.3636,0,0.00028028,2800.9,9.2737e-05,0.0071789,9.2084e-05,-4.8939,-0.00028037,-2803.3,0.98121
1477,12.257,4.3636,0,0.00027543,2752.4,9.106e-05,0.0087029,9.061e-05,-3.3713,-0.00027549,-2754.1,1.0063
1478,12.441,4.3636,0,0.00027059,2704,8.9393e-05,0.012258,8.9132e-05,-1.9517,-0.00027062,-2705,1.0315
1479,12.624,4.3636,0,0.00026577,2655.8,8.7737e-05,0.029391,8.7648e-05,-0.63869,-0.00026578,-2656.1,1.0569
1480,12.808,4.3636,0,0.00026096,2607.8,8.6172e-05,0.65704,8.6082e-05,-0.020994,-0.00026095,-2607.5,1.0825
1481,12.991,4.3636,0,0.00025616,2559.9,8.4685e-05,1.8087,8.4444e-05,-0.0049769,-0.00025613,-2559,1.1083
1482,13.175,4.3636,0,0.00025138,2512.1,8.3199e-05,2.9024,8.2813e-05,-0.0015124,-0.00025133,-2510.7,1.1342
1483,13.358,4.3636,0,0.00024662,2464.5,8.1714e-05,3.9341,8.119e-05,6.0557e-05,-0.00024655,-2462.5,1.1603
1484,13.542,4.3636,0,0.00024188,2417.1,8.0229e-05,4.9087,7.9576e-05,0.00094703,-0.00024179,-2414.6,1.1866
1485,13.725,4.3636,0,0.00023715,2369.8,7.8745e-05,5.8318,7.7969e-05,0.0015438,-0.00023705,-2366.9,1.2131
1486,13.909,4.3636,0,0.00023243,2322.7,7.7263e-05,6.7087,7.6371e-05,0.0019915,-0.00023232,-2319.4,1.2397
1487,14.092,4.3636,0,0.00022774,2275.8,7.5784e-05,7.5446,7.478e-05,0.0023139,-0.00022761,-2272,1.2664
1488,14.276,4.3636,0,0.00022306,2229.1,7.4307e-05,8.3447,7.3197e-05,0.0026169,-0.00022292,-2224.9,1.2933
1489,14.459,4.3636,0,0.0002184,2182.5,7.2834e-05,9.1136,7.1621e-05,0.0028803,-0.00021825,-2177.9,1.3204
1490,14.642,4.3636,0,0.00021376,2136.1,7.1364e-05,9.856,7.0053e-05,0.0030842,-0.00021359,-2131.2,1.3476
1491,14.826,4.3636,0,0.00020914,2089.9,6.9899e-05,10.576,6.8492e-05,0.0032882,-0.00020896,-2084.6,1.3749
1492,15.009,4.3636,0,0.00020454,2043.9,6.8438e-05,11.279,6.6938e-05,0.0034896,-0.00020434,-2038.3,1.4024
1493,15.193,4.3636,0,0.00019995,1998.1,6.6983e-05,11.968,6.539e-05,0.0036967,-0.00019974,-1992.1,1.4301
1494,15.376,4.3636,0,0.00019538,1952.5,6.5533e-05,12.647,6.385e-05,0.0038782,-0.00019517,-1946.1,1.4578
1495,15.56,4.3636,0,0.00019084,1907.1,6.4089e-05,13.322,6.2316e-05,0.0040622,-0.00019061,-1900.4,1.4857
1496,15.743,4.3636,0,0.00018631,1861.8,6.2651e-05,13.994,6.0789e-05,0.0042518,-0.00018607,-1854.8,1.5137
1497,15.927,4.3636,0,0.00018181,1816.8,6.122e-05,14.669,5.9268e-05,0.0044185,-0.00018155,-1809.4,1.5419
1498,16.11,4.3636,0,0.00017732,1772,5.9796e-05,15.351,5.7754e-05,0.0046208,-0.00017705,-1764.2,1.5701
1499,16.294,4.3636,0,0.00017285,1727.3,5.838e-05,16.043,5.6245e-05,0.0048276,-0.00017257,-1719.3,1.5985
1500,16.477,4.3636,0,0.00016841,1682.9,5.6972e-05,16.749,5.4743e-05,0.0050151,-0.00016812,-1674.5,1.627
1501,16.661,4.3636,0,0.00016398,1638.7,5.5572e-05,17.475,5.3247e-05,0.0052271,-0.00016368,-1629.9,1.6557
1502,16.844,4.3636,0,0.00015958,1594.7,5.4181e-05,18.223,5.1756e-05,0.0054534,-0.00015926,-1585.5,1.6844
1503,17.028,4.3636,0,0.0001552,1550.9,5.2799e-05,18.998,5.0271e-05,0.0057008,-0.00015486,-1541.3,1.7132
1504,17.211,4.3636,0,0.00015083,1507.3,5.1427e-05,19.805,4.8792e-05,0.0059461,-0.00015049,-1497.3,1.7421
1505,17.395,4.3636,0,0.0001465,1463.9,5.0065e-05,20.649,4.7318e-05,0.0062064,-0.00014613,-1453.5,1.7712
1506,17.578,4.3636,0,0.00014218,1420.8,4.8714e-05,21.534,4.5849e-05,0.0064892,-0.0001418,-1409.9,1.8003
1507,17.762,4.3636,0,0.00013788,1377.9,4.7374e-05,22.465,4.4385e-05,0.0067687,-0.00013749,-1366.5,1.8296
1508,17.945,4.3636,0,0.00013361,1335.2,4.6045e-05,23.448,4.2926e-05,0.0070931,-0.0001332,-1323.3,1.8589
1509,18.129,4.3636,0,0.00012936,1292.7,4.4729e-05,24.489,4.1471e-05,0.0074374,-0.00012893,-1280.3,1.8883
1510,18.312,4.3636,0,0.00012514,1250.5,4.3426e-05,25.593,4.0021e-05,0.0077881,-0.00012468,-1237.5,1.9178
1511,18.496,4.3636,0,0.00012093,1208.5,4.2137e-05,26.767,3.8575e-05,0.0081752,-0.00012046,-1194.9,1.9474
1512,18.679,4.3636,0,0.00011676,1166.7,4.0862e-05,28.018,3.7134e-05,0.0086017,-0.00011625,-1152.5,1.977
1513,18.863,4.3636,0,0.0001126,1125.2,3.9601e-05,29.352,3.5696e-05,0.0090673,-0.00011207,-1110.3,2.0068
1514,19.046,4.3636,0,0.00010847,1084,3.8356e-05,30.778,3.4261e-05,0.0095575,-0.00010792,-1068.3,2.0366
1515,19.229,4.3636,0,0.00010437,1043,3.7128e-05,32.305,3.283e-05,0.010096,-0.00010378,-1026.4,2.0665
1516,19.413,4.3636,0,0.00010029,1002.2,3.5917e-05,33.94,3.1402e-05,0.010685,-9.9671e-05,-984.82,2.0964
1517,19.596,4.3636,0,9.6241e-05,961.75,3.4725e-05,35.693,2.9976e-05,0.011321,-9.5584e-05,-943.4,2.1265
1518,19.78,4.3636,0,9.2218e-05,921.54,3.3552e-05,37.575,2.8553e-05,0.012033,-9.1521e-05,-902.17,2.1565
1519,19.963,4.3636,0,8.8222e-05,881.61,3.2399e-05,39.597,2.7131e-05,0.012818,-8.7482e-05,-861.14,2.1867
1520,20.147,4.3636,0,8.4256e-05,841.98,3.1268e-05,41.771,2.5711e-05,0.013674,-8.3467e-05,-820.31,2.2169
1521,20.33,4.3636,0,8.0319e-05,802.64,3.016e-05,44.11,2.4292e-05,0.014638,-7.9478e-05,-779.67,2.2472
1522,20.514,4.3636,0,7.6414e-05,763.61,2.9077e-05,46.629,2.2873e-05,0.01572,-7.5513e-05,-739.22,2.2775
1523,20.697,4.3636,0,7.2541e-05,724.91,2.8019e-05,49.343,2.1454e-05,0.016942,-7.1575e-05,-698.97,2.3079
1524,20.881,4.3636,0,6.8701e-05,686.54,2.6989e-05,52.27,2.0035e-05,0.018315,-6.7663e-05,-658.9,2.3383
1525,21.064,4.3636,0,6.4898e-05,648.53,2.5988e-05,55.429,1.8614e-05,0.019888,-6.3777e-05,-619.03,2.3687
1526,21.248,4.3636,0,6.1133e-05,610.91,2.5019e-05,58.842,1.7191e-05,0.021695,-5.9919e-05,-579.35,2.3992
1527,21.431,4.3636,0,5.7409e-05,573.7,2.4084e-05,62.531,1.5765e-05,0.023781,-5.6089e-05,-539.86,2.4298
1528,21.615,4.3636,0,5.373e-05,536.93,2.3186e-05,66.523,1.4336e-05,0.026232,-5.2288e-05,-500.56,2.4604
1529,21.798,4.3636,0,5.0099e-05,500.65,2.2327e-05,70.848,1.2901e-05,0.029129,-4.8516e-05,-461.44,2.491
1530,21.982,4.3636,0,4.6523e-05,464.91,2.151e-05,75.538,1.1461e-05,0.032582,-4.4775e-05,-422.5,2.5216
1531,22.165,4.3636,0,4.3008e-05,429.78,2.074e-05,80.63,1.0013e-05,0.036781,-4.1065e-05,-383.74,2.5523
1532,22.349,4.3636,0,3.9563e-05,395.36,2.0019e-05,86.163,8.557e-06,0.041955,-3.7387e-05,-345.16,2.583
1533,22.532,4.3636,0,3.6201e-05,361.76,1.9352e-05,92.178,7.0902e-06,0.048516,-3.3741e-05,-306.74,2.6137
1534,22.716,4.3636,0,3.2936e-05,329.13,1.8742e-05,98.721,5.611e-06,0.056872,-3.0126e-05,-268.46,2.6445
1535,22.899,4.3636,0,2.979e-05,297.69,1.8194e-05,105.83,4.1172e-06,0.068617,-2.6543e-05,-230.3,2.6753
1536,23.083,4.3636,0,2.6792e-05,267.73,1.7708e-05,113.55,2.6063e-06,0.083072,-2.2989e-05,-192.23,2.7061
1537,23.266,4.3636,0,2.3982e-05,239.66,1.7288e-05,121.92,1.0768e-06,0.11346,-1.9458e-05,-154.18,2.7369
1538,23.45,4.3636,0,2.1421e-05,214.06,1.6931e-05,130.93,-4.7652e-07,0.12967,-1.5946e-05,-116.1,2.7677
1539,23.633,4.3636,0,1.9194e-05,191.81,1.6637e-05,140.65,-2.0408e-06,0.30969,-1.2451e-05,-77.908,2.7985
1540,23.817,4.3636,0,1.7428e-05,174.16,1.6407e-05,150.9,-3.6533e-06,0.17008,-8.9666e-06,-39.752,2.8293
1541,3.4501,4.1818,0,0.0012413,12404,0.00075674,4282.5,0.00016029,-199.07,-0.0011095,-9739.5,0.077957
1542,3.6336,4.1818,0,0.00089155,8909.3,0.00043664,1763.3,0.00020361,12.419,-0.00084833,-7891.5,0.090009
1543,3.8171,4.1818,0,0.0007422,7416.8,0.00030756,754.93,0.00020564,-10.915,-0.00072657,-7015.1,0.10248
1544,4.0006,4.1818,0,0.00066158,6611.3,0.00024491,316.22,0.00020185,-7.3068,-0.00065573,-6450.9,0.11536
1545,4.1841,4.1818,0,0.00060904,6086.1,0.00020867,81.484,0.00019541,-18.139,-0.0006079,-6053.9,0.12865
1546,4.3676,4.1818,0,0.00057264,5722.5,0.00019417,10.908,0.00018115,-86.859,-0.00057387,-5759.8,0.14232
1547,4.551,4.1818,0,0.00054598,5456,0.00018839,3.9497,0.0001665,-160.54,-0.00054845,-5532.4,0.15637
1548,4.7345,4.1818,0,0.00052556,5252,0.00018363,2.1729,0.00015617,-204.16,-0.00052869,-5349.9,0.17079
1549,4.918,4.1818,0,0.0005093,5089.5,0.00017932,1.3682,0.00014887,-227.4,-0.00051276,-5198.6,0.18555
1550,5.1015,4.1818,0,0.0004959,4955.6,0.00017536,0.93038,0.0001436,-237.67,-0.0004995,-5069.7,0.20066
1551,5.285,4.1818,0,0.00048455,4842.2,0.00017168,0.65648,0.00013969,-239.69,-0.00048817,-4957.2,0.2161
1552,5.4684,4.1818,0,0.0004747,4743.7,0.00016826,0.47472,0.00013672,-236.44,-0.00047827,-4857.3,0.23187
1553,5.6519,4.1818,0,0.00046596,4656.4,0.00016504,0.34841,0.00013441,-229.82,-0.00046944,-4766.9,0.24797
1554,5.8354,4.1818,0,0.00045808,4577.6,0.000162,0.25841,0.00013255,-221.06,-0.00046143,-4684,0.26438
1555,6.0189,4.1818,0,0.00045085,4505.4,0.00015912,0.19314,0.00013102,-210.99,-0.00045406,-4607,0.2811
1556,6.2024,4.1818,0,0.00044413,4438.2,0.00015638,0.14527,0.00012972,-200.15,-0.00044719,-4534.8,0.29812
1557,6.3858,4.1818,0,0.0004378,4375,0.00015374,0.10986,0.00012858,-188.94,-0.00044071,-4466.4,0.31545
1558,6.5693,4.1818,0,0.00043179,4314.9,0.00015121,0.083506,0.00012755,-177.63,-0.00043453,-4400.9,0.33307
1559,6.7528,4.1818,0,0.00042602,4257.2,0.00014875,0.063804,0.0001266,-166.41,-0.0004286,-4338,0.35099
1560,6.9363,4.1818,0,0.00042043,4201.4,0.00014638,0.049017,0.00012568,-155.43,-0.00042286,-4277,0.36919
1561,7.1198,4.1818,0,0.000415,4147.1,0.00014406,0.037883,0.00012479,-144.77,-0.00041727,-4217.6,0.38768
1562,7.3032,4.1818,0,0.00040967,4093.9,0.0001418,0.029477,0.0001239,-134.51,-0.0004118,-4159.5,0.40646
1563,7.4867,4.1818,0,0.00040444,4041.6,0.0001396,0.02312,0.000123,-124.69,-0.00040641,-4102.5,0.4255
1564,7.6702,4.1818,0,0.00039927,3989.9,0.00013743,0.018303,0.00012208,-115.34,-0.0004011,-4046.3,0.44483
1565,7.8537,4.1818,0,0.00039415,3938.8,0.00013531,0.014651,0.00012113,-106.48,-0.00039585,-3990.9,0.46442
1566,8.0372,4.1818,0,0.00038907,3888,0.00013322,0.011883,0.00012016,-98.114,-0.00039064,-3936.1,0.48428
1567,8.2206,4.1818,0,0.00038401,3837.5,0.00013117,0.0097867,0.00011916,-90.231,-0.00038547,-3881.8,0.5044
1568,8.4041,4.1818,0,0.00037898,3787.2,0.00012914,0.0082029,0.00011812,-82.826,-0.00038032,-3827.9,0.52478
1569,8.5876,4.1818,0,0.00037397,3737.1,0.00012715,0.007012,0.00011705,-75.884,-0.0003752,-3774.4,0.54542
1570,8.7711,4.1818,0,0.00036896,3687.1,0.00012518,0.006122,0.00011594,-69.39,-0.00037009,-3721.3,0.56631
1571,8.9546,4.1818,0,0.00036397,3637.2,0.00012323,0.0054637,0.0001148,-63.323,-0.000365,-3668.4,0.58745
1572,9.1381,4.1818,0,0.00035898,3587.4,0.00012131,0.0049842,0.00011363,-57.664,-0.00035993,-3615.8,0.60883
1573,9.3215,4.1818,0,0.000354,3537.6,0.00011941,0.0046427,0.00011243,-52.391,-0.00035487,-3563.5,0.63046
1574,9.505,4.1818,0,0.00034903,3487.9,0.00011752,0.0044085,0.0001112,-47.483,-0.00034981,-3511.4,0.65232
1575,9.6885,4.1818,0,0.00034406,3438.2,0.00011566,0.0042608,0.00010995,-42.918,-0.00034477,-3459.5,0.67442
1576,9.872,4.1818,0,0.0003391,3388.6,0.00011381,0.0041734,0.00010866,-38.675,-0.00033974,-3407.8,0.69676
1577,10.055,4.1818,0,0.00033414,3339.1,0.00011198,0.0041515,0.00010736,-34.734,-0.00033472,-3356.3,0.71932
1578,10.239,4.1818,0,0.00032919,3289.6,0.00011017,0.0041689,0.00010603,-31.073,-0.0003297,-3305,0.74211
1579,10.422,4.1818,0,0.00032424,3240.2,0.00010837,0.004191,0.00010468,-27.676,-0.0003247,-3253.9,0.76512
1580,10.606,4.1818,0,0.0003193,3190.8,0.00010658,0.0042613,0.00010332,-24.522,-0.00031971,-3203,0.78834
1581,10.789,4.1818,0,0.00031437,3141.6,0.00010481,0.0043751,0.00010194,-21.595,-0.00031473,-3152.3,0.81179
1582,10.973,4.1818,0,0.00030945,3092.4,0.00010305,0.004538,0.00010054,-18.878,-0.00030977,-3101.8,0.83544
1583,11.156,4.1818,0,0.00030454,3043.3,0.00010131,0.0046864,9.9129e-05,-16.356,-0.00030481,-3051.4,0.8593
1584,11.34,4.1818,0,0.00029963,2994.3,9.9573e-05,0.0048682,9.7707e-05,-14.015,-0.00029987,-3001.2,0.88337
1585,11.523,4.1818,0,0.00029474,2945.4,9.7851e-05,0.0051427,9.6274e-05,-11.84,-0.00029494,-2951.3,0.90764
1586,11.707,4.1818,0,0.00028986,2896.6,9.614e-05,0.005441,9.4832e-05,-9.8195,-0.00029002,-2901.5,0.93211
1587,11.89,4.1818,0,0.00028499,2847.9,9.444e-05,0.0058386,9.3382e-05,-7.9404,-0.00028512,-2851.9,0.95677
1588,12.074,4.1818,0,0.00028013,2799.4,9.275e-05,0.0064003,9.1925e-05,-6.1918,-0.00028023,-2802.5,0.98163
1589,12.257,4.1818,0,0.00027528,2750.9,9.1071e-05,0.0072294,9.0462e-05,-4.5635,-0.00027536,-2753.2,1.0067
1590,12.441,4.1818,0,0.00027045,2702.7,8.9401e-05,0.0087681,8.8995e-05,-3.0456,-0.0002705,-2704.2,1.0319
1591,12.624,4.1818,0,0.00026564,2654.5,8.7741e-05,0.012666,8.7523e-05,-1.6309,-0.00026566,-2655.3,1.0573
1592,12.808,4.1818,0,0.00026083,2606.5,8.6095e-05,0.044034,8.6044e-05,-0.33558,-0.00026084,-2606.7,1.0829
1593,12.991,4.1818,0,0.00025604,2558.7,8.4575e-05,0.96056,8.4446e-05,-0.0093989,-0.00025603,-2558.2,1.1087
1594,13.175,4.1818,0,0.00025127,2511,8.3096e-05,2.1193,8.2814e-05,-0.0016285,-0.00025123,-2509.9,1.1346
1595,13.358,4.1818,0,0.00024651,2463.4,8.1617e-05,3.2145,8.119e-05,0.00065806,-0.00024646,-2461.8,1.1607
1596,13.542,4.1818,0,0.00024177,2416,8.0139e-05,4.2485,7.9574e-05,0.0017646,-0.0002417,-2413.9,1.187
1597,13.725,4.1818,0,0.00023704,2368.8,7.8661e-05,5.227,7.7966e-05,0.0024563,-0.00023696,-2366.2,1.2134
1598,13.909,4.1818,0,0.00023234,2321.8,7.7185e-05,6.1558,7.6366e-05,0.0029498,-0.00023223,-2318.7,1.24
1599,14.092,4.1818,0,0.00022765,2274.9,7.5711e-05,7.0404,7.4774e-05,0.0033051,-0.00022752,-2271.4,1.2668
1600,14.276,4.1818,0,0.00022297,2228.2,7.4239e-05,7.8865,7.319e-05,0.0036303,-0.00022284,-2224.2,1.2937
1601,14.459,4.1818,0,0.00021832,2181.6,7.277e-05,8.699,7.1613e-05,0.0039118,-0.00021817,-2177.3,1.3207
1602,14.642,4.1818,0,0.00021368,2135.3,7.1305e-05,9.4828,7.0044e-05,0.0041347,-0.00021351,-2130.5,1.3479
1603,14.826,4.1818,0,0.00020906,2089.1,6.9844e-05,10.243,6.8481e-05,0.0043564,-0.00020888,-2084,1.3753
1604,15.009,4.1818,0,0.00020446,2043.2,6.8387e-05,10.984,6.6926e-05,0.0045761,-0.00020427,-2037.6,1.4027
1605,15.193,4.1818,0,0.00019987,1997.4,6.6936e-05,11.71,6.5378e-05,0.0048008,-0.00019967,-1991.5,1.4304
1606,15.376,4.1818,0,0.00019531,1951.8,6.549e-05,12.426,6.3837e-05,0.0050012,-0.0001951,-1945.5,1.4581
1607,15.56,4.1818,0,0.00019077,1906.4,6.405e-05,13.137,6.2302e-05,0.0052036,-0.00019054,-1899.8,1.486
1608,15.743,4.1818,0,0.00018624,1861.1,6.2616e-05,13.846,6.0774e-05,0.0054158,-0.000186,-1854.2,1.514
1609,15.927,4.1818,0,0.00018174,1816.1,6.1188e-05,14.557,5.9252e-05,0.0056023,-0.00018149,-1808.8,1.5422
1610,16.11,4.1818,0,0.00017725,1771.3,5.9769e-05,15.275,5.7736e-05,0.0058272,-0.00017699,-1763.6,1.5704
1611,16.294,4.1818,0,0.00017279,1726.7,5.8356e-05,16.005,5.6227e-05,0.0060564,-0.00017251,-1718.7,1.5988
1612,16.477,4.1818,0,0.00016835,1682.3,5.6952e-05,16.751,5.4724e-05,0.0062691,-0.00016806,-1673.9,1.6273
1613,16.661,4.1818,0,0.00016393,1638.1,5.5557e-05,17.516,5.3226e-05,0.0065026,-0.00016362,-1629.3,1.6559
1614,16.844,4.1818,0,0.00015953,1594.2,5.417e-05,18.307,5.1735e-05,0.0067569,-0.00015921,-1584.9,1.6846
1615,17.028,4.1818,0,0.00015515,1550.4,5.2793e-05,19.127,5.0248e-05,0.0070323,-0.00015481,-1540.7,1.7135
1616,17.211,4.1818,0,0.00015079,1506.8,5.1426e-05,19.981,4.8768e-05,0.007304,-0.00015044,-1496.8,1.7424
1617,17.395,4.1818,0,0.00014645,1463.5,5.007e-05,20.875,4.7292e-05,0.0075947,-0.00014609,-1453,1.7714
1618,17.578,4.1818,0,0.00014214,1420.4,4.8724e-05,21.814,4.5822e-05,0.0079085,-0.00014176,-1409.4,1.8005
1619,17.762,4.1818,0,0.00013785,1377.5,4.7391e-05,22.803,4.4357e-05,0.0082212,-0.00013745,-1366,1.8298
1620,17.945,4.1818,0,0.00013358,1334.9,4.6069e-05,23.848,4.2896e-05,0.008581,-0.00013316,-1322.8,1.8591
1621,18.129,4.1818,0,0.00012934,1292.5,4.4761e-05,24.956,4.144e-05,0.0089622,-0.0001289,-1279.8,1.8885
1622,18.312,4.1818,0,0.00012512,1250.3,4.3465e-05,26.133,3.9989e-05,0.0093509,-0.00012465,-1237,1.918
1623,18.496,4.1818,0,0.00012092,1208.4,4.2185e-05,27.387,3.8541e-05,0.0097777,-0.00012043,-1194.5,1.9476
1624,18.679,4.1818,0,0.00011675,1166.7,4.0919e-05,28.723,3.7097e-05,0.010247,-0.00011624,-1152.1,1.9772
1625,18.863,4.1818,0,0.00011261,1125.3,3.9669e-05,30.152,3.5657e-05,0.010758,-0.00011206,-1109.9,2.007
1626,19.046,4.1818,0,0.00010849,1084.1,3.8435e-05,31.68,3.422e-05,0.011297,-0.00010791,-1067.9,2.0368
1627,19.229,4.1818,0,0.00010439,1043.2,3.7219e-05,33.317,3.2787e-05,0.011884,-0.00010378,-1026.1,2.0666
1628,19.413,4.1818,0,0.00010033,1002.6,3.6022e-05,35.074,3.1356e-05,0.012529,-9.9682e-05,-984.56,2.0966
1629,19.596,4.1818,0,9.6286e-05,962.19,3.4844e-05,36.959,2.9927e-05,0.013217,-9.5604e-05,-943.18,2.1266
1630,19.78,4.1818,0,9.2275e-05,922.12,3.3687e-05,38.986,2.85e-05,0.013991,-9.155e-05,-902,2.1567
1631,19.963,4.1818,0,8.8294e-05,882.33,3.2552e-05,41.165,2.7075e-05,0.014841,-8.7521e-05,-861.02,2.1868
1632,20.147,4.1818,0,8.4343e-05,842.85,3.144e-05,43.51,2.5651e-05,0.015763,-8.3518e-05,-820.24,2.2171
1633,20.33,4.1818,0,8.0423e-05,803.68,3.0353e-05,46.035,2.4228e-05,0.016796,-7.9541e-05,-779.66,2.2473
1634,20.514,4.1818,0,7.6536e-05,764.83,2.9291e-05,48.756,2.2805e-05,0.017953,-7.559e-05,-739.28,2.2776
1635,20.697,4.1818,0,7.2683e-05,726.33,2.8258e-05,51.689,2.1381e-05,0.019251,-7.1666e-05,-699.1,2.308
1636,20.881,4.1818,0,6.8866e-05,688.19,2.7254e-05,54.854,1.9956e-05,0.020708,-6.7768e-05,-659.11,2.3384
1637,21.064,4.1818,0,6.5087e-05,650.42,2.6282e-05,58.268,1.853e-05,0.022363,-6.3899e-05,-619.32,2.3689
1638,21.248,4.1818,0,6.1348e-05,613.05,2.5343e-05,61.955,1.71e-05,0.024259,-6.0058e-05,-579.71,2.3994
1639,21.431,4.1818,0,5.7652e-05,576.12,2.444e-05,65.938,1.5667e-05,0.026435,-5.6246e-05,-540.3,2.4299
1640,21.615,4.1818,0,5.4002e-05,539.65,2.3575e-05,70.243,1.423e-05,0.028978,-5.2463e-05,-501.08,2.4605
1641,21.798,4.1818,0,5.0404e-05,503.69,2.2752e-05,74.898,1.2788e-05,0.031967,-4.871e-05,-462.04,2.4911
1642,21.982,4.1818,0,4.6862e-05,468.29,2.1972e-05,79.932,1.1338e-05,0.035515,-4.4987e-05,-423.17,2.5217
1643,22.165,4.1818,0,4.3382e-05,433.52,2.1239e-05,85.379,9.8807e-06,0.039809,-4.1294e-05,-384.47,2.5524
1644,22.349,4.1818,0,3.9975e-05,399.47,2.0555e-05,91.273,8.4138e-06,0.045089,-3.7632e-05,-345.92,2.5831
1645,22.532,4.1818,0,3.6651e-05,366.25,1.9925e-05,97.648,6.9357e-06,0.051756,-3.3999e-05,-307.52,2.6138
1646,22.716,4.1818,0,3.3424e-05,334.01,1.935e-05,104.54,5.4445e-06,0.060242,-3.0395e-05,-269.23,2.6446
1647,22.899,4.1818,0,3.0317e-05,302.96,1.8832e-05,111.97,3.9385e-06,0.07216,-2.6818e-05,-231.02,2.6754
1648,23.083,4.1818,0,2.7357e-05,273.38,1.8373e-05,119.98,2.4152e-06,0.086855,-2.3264e-05,-192.86,2.7061
1649,23.266,4.1818,0,2.4585e-05,245.68,1.7972e-05,128.59,8.7357e-07,0.11764,-1.973e-05,-154.69,2.7369
1650,23.45,4.1818,0,2.2058e-05,220.43,1.7629e-05,137.78,-6.91e-07,0.13439,-1.6208e-05,-116.45,2.7678
1651,23.633,4.1818,0,1.9862e-05,198.48,1.7341e-05,147.63,-2.2651e-06,0.31631,-1.2699e-05,-78.076,2.7986
1652,23.817,4.1818,0,1.8114e-05,181.01,1.7108e-05,157.91,-3.8847e-06,0.18272,-9.1959e-06,-39.723,2.8294
1653,3.4501,4,0,0.0015003,14993,0.00075539,2786,0.00028238,-768.11,-0.001434,-13664,0.079674
1654,3.6336,4,0,0.00099622,9955.3,0.00040475,980.49,0.00028759,100.17,-0.00097491,-9385.8,0.091336
1655,3.8171,4,0,0.00081797,8174,0.00030243,377.64,0.00024897,-24.096,-0.00081121,-7989.9,0.10356
1656,4.0006,4,0,0.00071637,7158.8,0.00024425,83.756,0.00023077,-17.513,-0.00071519,-7125.1,0.11627
1657,4.1841,4,0,0.00064963,6491.8,0.00022126,8.7171,0.00020347,-124.97,-0.0006515,-6548.9,0.12944
1658,4.3676,4,0,0.00060314,6027.2,0.00021019,3.9981,0.00018031,-220.46,-0.00060651,-6132.3,0.14302
1659,4.551,4,0,0.00056881,5684.2,0.00020137,2.093,0.0001644,-275.64,-0.00057296,-5815.9,0.15701
1660,4.7345,4,0,0.00054255,5421.8,0.000194,1.4027,0.00015337,-303.81,-0.00054705,-5566.5,0.17137
1661,4.918,4,0,0.00052181,5214.5,0.00018763,0.957,0.0001456,-314.84,-0.00052643,-5364.2,0.1861
1662,5.1015,4,0,0.00050498,5046.3,0.00018206,0.68867,0.00014005,-314.94,-0.00050959,-5196.1,0.20119
1663,5.285,4,0,0.00049102,4906.9,0.0001771,0.50245,0.00013602,-308.14,-0.00049553,-5053.4,0.21661
1664,5.4684,4,0,0.0004792,4788.7,0.00017265,0.37181,0.00013307,-297.07,-0.00048355,-4930.1,0.23237
1665,5.6519,4,0,0.00046898,4686.6,0.00016861,0.27696,0.00013086,-283.43,-0.00047316,-4821.7,0.24846
1666,5.8354,4,0,0.00046,4596.8,0.00016492,0.20736,0.00012917,-268.38,-0.00046397,-4725,0.26486
1667,6.0189,4,0,0.00045197,4516.6,0.0001615,0.15577,0.00012785,-252.66,-0.00045573,-4637.5,0.28158
1668,6.2024,4,0,0.00044466,4443.6,0.00015832,0.11733,0.00012679,-236.78,-0.00044822,-4557.2,0.2986
1669,6.3858,4,0,0.00043792,4376.2,0.00015534,0.088594,0.0001259,-221.1,-0.00044126,-4482.5,0.31593
1670,6.5693,4,0,0.00043162,4313.2,0.00015251,0.067057,0.00012511,-205.84,-0.00043475,-4412.4,0.33355
1671,6.7528,4,0,0.00042565,4253.6,0.00014983,0.050892,0.00012438,-191.15,-0.00042858,-4345.9,0.35147
1672,6.9363,4,0,0.00041994,4196.5,0.00014727,0.03875,0.00012369,-177.12,-0.00042267,-4282.3,0.36967
1673,7.1198,4,0,0.00041443,4141.4,0.0001448,0.029626,0.00012299,-163.8,-0.00041697,-4220.9,0.38816
1674,7.3032,4,0,0.00040906,4087.8,0.00014241,0.022773,0.00012228,-151.23,-0.00041143,-4161.3,0.40693
1675,7.4867,4,0,0.00040381,4035.4,0.00014011,0.017629,0.00012155,-139.39,-0.000406,-4103.2,0.42598
1676,7.6702,4,0,0.00039865,3983.7,0.00013786,0.013775,0.00012078,-128.29,-0.00040067,-4046.3,0.4453
1677,7.8537,4,0,0.00039354,3932.7,0.00013567,0.010896,0.00011997,-117.91,-0.00039542,-3990.3,0.46489
1678,8.0372,4,0,0.00038849,3882.2,0.00013352,0.0087553,0.00011912,-108.22,-0.00039021,-3935.1,0.48474
1679,8.2206,4,0,0.00038346,3832,0.00013142,0.0071718,0.00011822,-99.19,-0.00038505,-3880.6,0.50486
1680,8.4041,4,0,0.00037846,3782,0.00012936,0.0060128,0.00011728,-90.786,-0.00037992,-3826.6,0.52524
1681,8.5876,4,0,0.00037348,3732.2,0.00012733,0.0051738,0.00011629,-82.973,-0.00037482,-3773,0.54587
1682,8.7711,4,0,0.00036851,3682.5,0.00012534,0.0045787,0.00011526,-75.719,-0.00036973,-3719.8,0.56676
1683,8.9546,4,0,0.00036354,3632.9,0.00012337,0.0041686,0.00011419,-68.988,-0.00036467,-3666.9,0.58789
1684,9.1381,4,0,0.00035859,3583.4,0.00012143,0.0038981,0.00011308,-62.746,-0.00035961,-3614.3,0.60927
1685,9.3215,4,0,0.00035363,3533.9,0.00011951,0.0037351,0.00011193,-56.961,-0.00035457,-3562,0.6309
1686,9.505,4,0,0.00034869,3484.5,0.00011761,0.003652,0.00011074,-51.602,-0.00034953,-3510,0.65276
1687,9.6885,4,0,0.00034374,3435,0.00011574,0.0036323,0.00010953,-46.638,-0.00034451,-3458.1,0.67486
1688,9.872,4,0,0.0003388,3385.7,0.00011388,0.0036545,0.00010828,-42.042,-0.0003395,-3406.5,0.69718
1689,10.055,4,0,0.00033386,3336.3,0.00011204,0.0037255,0.00010701,-37.786,-0.00033449,-3355.1,0.71974
1690,10.239,4,0,0.00032893,3287,0.00011022,0.0038209,0.00010571,-33.846,-0.00032949,-3303.8,0.74252
1691,10.422,4,0,0.000324,3237.8,0.00010841,0.0039087,0.00010439,-30.198,-0.00032451,-3252.8,0.76553
1692,10.606,4,0,0.00031908,3188.6,0.00010662,0.00403,0.00010305,-26.82,-0.00031953,-3201.9,0.78875
1693,10.789,4,0,0.00031416,3139.5,0.00010485,0.0041863,0.00010169,-23.692,-0.00031456,-3151.3,0.81219
1694,10.973,4,0,0.00030926,3090.4,0.00010308,0.0043796,0.00010032,-20.793,-0.0003096,-3100.8,0.83584
1695,11.156,4,0,0.00030436,3041.5,0.00010133,0.0045432,9.8923e-05,-18.108,-0.00030466,-3050.5,0.85969
1696,11.34,4,0,0.00029946,2992.6,9.9596e-05,0.0047263,9.7516e-05,-15.619,-0.00029973,-3000.3,0.88376
1697,11.523,4,0,0.00029458,2943.8,9.787e-05,0.0049838,9.6098e-05,-13.309,-0.0002948,-2950.4,0.90802
1698,11.707,4,0,0.00028971,2895.1,9.6157e-05,0.0052361,9.467e-05,-11.166,-0.0002899,-2900.6,0.93248
1699,11.89,4,0,0.00028485,2846.5,9.4454e-05,0.0055484,9.3232e-05,-9.176,-0.000285,-2851.1,0.95714
1700,12.074,4,0,0.00028,2798,9.2762e-05,0.005951,9.1786e-05,-7.3259,-0.00028012,-2801.7,0.98199
1701,12.257,4,0,0.00027516,2749.7,9.108e-05,0.0064697,9.0333e-05,-5.6046,-0.00027525,-2752.5,1.007
1702,12.441,4,0,0.00027033,2701.5,8.9409e-05,0.0073103,8.8875e-05,-4.0013,-0.0002704,-2703.5,1.0323
1703,12.624,4,0,0.00026552,2653.4,8.7747e-05,0.008959,8.7412e-05,-2.5065,-0.00026556,-2654.6,1.0577
1704,12.808,4,0,0.00026072,2605.4,8.6095e-05,0.014197,8.5945e-05,-1.1134,-0.00026074,-2606,1.0832
1705,12.991,4,0,0.00025594,2557.6,8.4482e-05,0.24686,8.4445e-05,-0.037443,-0.00025594,-2557.5,1.109
1706,13.175,4,0,0.00025117,2510,8.3007e-05,1.4387,8.2815e-05,-0.0019706,-0.00025115,-2509.3,1.1349
1707,13.358,4,0,0.00024642,2462.5,8.1534e-05,2.5893,8.1189e-05,0.0013694,-0.00024637,-2461.2,1.161
1708,13.542,4,0,0.00024168,2415.1,8.0061e-05,3.6754,7.9572e-05,0.0026578,-0.00024162,-2413.3,1.1873
1709,13.725,4,0,0.00023696,2367.9,7.8589e-05,4.7026,7.7963e-05,0.0033923,-0.00023688,-2365.6,1.2137
1710,13.909,4,0,0.00023225,2320.9,7.7117e-05,5.677,7.6362e-05,0.0038983,-0.00023216,-2318.1,1.2403
1711,14.092,4,0,0.00022756,2274.1,7.5648e-05,6.6044,7.4769e-05,0.0042534,-0.00022745,-2270.8,1.2671
1712,14.276,4,0,0.00022289,2227.4,7.418e-05,7.4908,7.3184e-05,0.0045799,-0.00022277,-2223.6,1.294
1713,14.459,4,0,0.00021824,2180.9,7.2716e-05,8.3415,7.1606e-05,0.0048663,-0.0002181,-2176.7,1.321
1714,14.642,4,0,0.0002136,2134.6,7.1254e-05,9.1618,7.0036e-05,0.0050935,-0.00021345,-2130,1.3482
1715,14.826,4,0,0.00020899,2088.4,6.9797e-05,9.9569,6.8473e-05,0.0053203,-0.00020882,-2083.4,1.3755
1716,15.009,4,0,0.00020439,2042.5,6.8344e-05,10.732,6.6917e-05,0.0055482,-0.0002042,-2037.1,1.403
1717,15.193,4,0,0.00019981,1996.7,6.6896e-05,11.491,6.5367e-05,0.0057846,-0.00019961,-1990.9,1.4306
1718,15.376,4,0,0.00019525,1951.1,6.5453e-05,12.239,6.3825e-05,0.0059922,-0.00019504,-1945,1.4584
1719,15.56,4,0,0.00019071,1905.7,6.4016e-05,12.982,6.229e-05,0.0062075,-0.00019048,-1899.2,1.4863
1720,15.743,4,0,0.00018618,1860.6,6.2586e-05,13.722,6.0761e-05,0.0064293,-0.00018595,-1853.7,1.5143
1721,15.927,4,0,0.00018168,1815.6,6.1162e-05,14.466,5.9238e-05,0.0066323,-0.00018143,-1808.3,1.5424
1722,16.11,4,0,0.0001772,1770.8,5.9746e-05,15.217,5.7722e-05,0.006872,-0.00017694,-1763.1,1.5707
1723,16.294,4,0,0.00017274,1726.2,5.8337e-05,15.98,5.6211e-05,0.0071172,-0.00017246,-1718.2,1.599
1724,16.477,4,0,0.0001683,1681.8,5.6937e-05,16.76,5.4707e-05,0.0073457,-0.00016801,-1673.4,1.6275
1725,16.661,4,0,0.00016388,1637.7,5.5545e-05,17.561,5.3209e-05,0.0075969,-0.00016357,-1628.8,1.6561
1726,16.844,4,0,0.00015948,1593.7,5.4162e-05,18.389,5.1716e-05,0.0078711,-0.00015916,-1584.4,1.6848
1727,17.028,4,0,0.00015511,1550,5.279e-05,19.249,5.0229e-05,0.0081651,-0.00015477,-1540.3,1.7137
1728,17.211,4,0,0.00015075,1506.5,5.1427e-05,20.145,4.8747e-05,0.0084599,-0.0001504,-1496.3,1.7426
1729,17.395,4,0,0.00014642,1463.2,5.0076e-05,21.084,4.7271e-05,0.0087713,-0.00014605,-1452.5,1.7716
1730,17.578,4,0,0.00014211,1420.1,4.8736e-05,22.07,4.5799e-05,0.009107,-0.00014172,-1408.9,1.8007
1731,17.762,4,0,0.00013782,1377.3,4.7407e-05,23.11,4.4333e-05,0.0094489,-0.00013742,-1365.6,1.83
1732,17.945,4,0,0.00013356,1334.7,4.6092e-05,24.211,4.2871e-05,0.0098305,-0.00013313,-1322.4,1.8593
1733,18.129,4,0,0.00012932,1292.3,4.479e-05,25.379,4.1414e-05,0.010238,-0.00012887,-1279.4,1.8887
1734,18.312,4,0,0.00012511,1250.2,4.3502e-05,26.621,3.996e-05,0.010655,-0.00012463,-1236.7,1.9182
1735,18.496,4,0,0.00012092,1208.3,4.2229e-05,27.944,3.8511e-05,0.011115,-0.00012042,-1194.1,1.9477
1736,18.679,4,0,0.00011675,1166.7,4.0971e-05,29.357,3.7066e-05,0.011613,-0.00011622,-1151.8,1.9774
1737,18.863,4,0,0.00011261,1125.4,3.9731e-05,30.869,3.5624e-05,0.01216,-0.00011206,-1109.6,2.0071
1738,19.046,4,0,0.0001085,1084.3,3.8507e-05,32.487,3.4185e-05,0.012732,-0.00010791,-1067.6,2.0369
1739,19.229,4,0,0.00010442,1043.4,3.7302e-05,34.223,3.2749e-05,0.013359,-0.00010379,-1025.9,2.0668
1740,19.413,4,0,0.00010036,1002.9,3.6117e-05,36.087,3.1316e-05,0.014041,-9.9696e-05,-984.35,2.0967
1741,19.596,4,0,9.633e-05,962.63,3.4952e-05,38.09,2.9885e-05,0.014773,-9.5625e-05,-943.02,2.1268
1742,19.78,4,0,9.2331e-05,922.67,3.3809e-05,40.243,2.8455e-05,0.015587,-9.158e-05,-901.88,2.1568
1743,19.963,4,0,8.8362e-05,883.01,3.2689e-05,42.561,2.7027e-05,0.016483,-8.756e-05,-860.95,2.187
1744,20.147,4,0,8.4424e-05,843.66,3.1594e-05,45.057,2.56e-05,0.017454,-8.3567e-05,-820.22,2.2172
1745,20.33,4,0,8.052e-05,804.64,3.0525e-05,47.746,2.4173e-05,0.018539,-7.9601e-05,-779.7,2.2474
1746,20.514,4,0,7.6649e-05,765.96,2.9484e-05,50.644,2.2746e-05,0.019746,-7.5662e-05,-739.37,2.2777
1747,20.697,4,0,7.2814e-05,727.64,2.8471e-05,53.77,2.1318e-05,0.021101,-7.175e-05,-699.25,2.3081
1748,20.881,4,0,6.9016e-05,689.69,2.749e-05,57.141,1.9888e-05,0.022613,-6.7866e-05,-659.33,2.3385
1749,21.064,4,0,6.5258e-05,652.13,2.6542e-05,60.777,1.8456e-05,0.024329,-6.4011e-05,-619.6,2.369
1750,21.248,4,0,6.1542e-05,614.99,2.5629e-05,64.702,1.7022e-05,0.026281,-6.0185e-05,-580.07,2.3995
1751,21.431,4,0,5.787e-05,578.3,2.4754e-05,68.937,1.5583e-05,0.028519,-5.6387e-05,-540.73,2.43
1752,21.615,4,0,5.4246e-05,542.08,2.3918e-05,73.508,1.4139e-05,0.031119,-5.262e-05,-501.57,2.4606
1753,21.798,4,0,5.0675e-05,506.4,2.3124e-05,78.441,1.2689e-05,0.034169,-4.8882e-05,-462.58,2.4912
1754,21.982,4,0,4.7161e-05,471.28,2.2375e-05,83.763,1.1232e-05,0.037777,-4.5174e-05,-423.77,2.5218
1755,22.165,4,0,4.3711e-05,436.81,2.1673e-05,89.504,9.7659e-06,0.042135,-4.1495e-05,-385.11,2.5525
1756,22.349,4,0,4.0334e-05,403.06,2.1019e-05,95.691,8.2901e-06,0.04748,-3.7844e-05,-346.59,2.5832
1757,22.532,4,0,3.704e-05,370.15,2.0418e-05,102.35,6.8025e-06,0.054221,-3.4222e-05,-308.18,2.6139
1758,22.716,4,0,3.3845e-05,338.22,1.9869e-05,109.52,5.3016e-06,0.062806,-3.0624e-05,-269.87,2.6447
1759,22.899,4,0,3.0768e-05,307.47,1.9375e-05,117.21,3.7855e-06,0.074859,-2.705e-05,-231.61,2.6754
1760,23.083,4,0,2.7838e-05,278.19,1.8935e-05,125.44,2.2522e-06,0.089742,-2.3496e-05,-193.37,2.7062
1761,23.266,4,0,2.5095e-05,250.77,1.8549e-05,134.23,7.0095e-07,0.12085,-1.9956e-05,-155.09,2.737
1762,23.45,4,0,2.2595e-05,225.8,1.8216e-05,143.56,-8.7249e-07,0.13803,-1.6425e-05,-116.72,2.7678
1763,23.633,4,0,2.0423e-05,204.09,1.7931e-05,153.49,-2.4541e-06,0.32145,-1.2905e-05,-78.199,2.7987
1764,23.817,4,0,1.869e-05,186.77,1.7696e-05,163.8,-4.0793e-06,0.19283,-9.3872e-06,-39.688,2.8295
1765,3.4501,3.8182,0,0.0014606,14596,0.00056941,1056.4,0.00042854,-2.077,-0.0014398,-14040,0.081158
1766,3.6336,3.8182,0,0.001083,10823,0.00039138,438.1,0.00033964,49.357,-0.0010742,-10574,0.092491
1767,3.8171,3.8182,0,0.00088186,8812.5,0.00029818,75.032,0.00028575,-18.311,-0.00088085,-8783.7,0.10449
1768,4.0006,3.8182,0,0.00076564,7651.2,0.00026059,10.419,0.00024013,-143.33,-0.00076779,-7716.5,0.11705
1769,4.1841,3.8182,0,0.00068699,6865.2,0.0002401,2.3389,0.00020398,-269.02,-0.00069113,-6994.5,0.1301
1770,4.3676,3.8182,0,0.00063133,6309,0.00022518,2.2652,0.00017951,-340.92,-0.00063639,-6471.3,0.14361
1771,4.551,3.8182,0,0.00058994,5895.3,0.00021326,1.3278,0.00016265,-378.95,-0.00059544,-6074.9,0.15754
1772,4.7345,3.8182,0,0.00055822,5578.3,0.00020348,0.99618,0.00015087,-394.3,-0.00056386,-5764.5,0.17186
1773,4.918,3.8182,0,0.00053328,5329.2,0.00019524,0.71476,0.00014258,-394.94,-0.00053889,-5515.2,0.18656
1774,5.1015,3.8182,0,0.00051326,5129.1,0.00018819,0.53182,0.00013673,-386.1,-0.00051873,-5310.9,0.20162
1775,5.285,3.8182,0,0.00049688,4965.4,0.00018205,0.39536,0.00013258,-371.36,-0.00050215,-5140.4,0.21704
1776,5.4684,3.8182,0,0.00048324,4829.1,0.00017666,0.29563,0.00012963,-353.1,-0.00048827,-4995.8,0.23279
1777,5.6519,3.8182,0,0.00047167,4713.5,0.00017187,0.22119,0.00012753,-332.96,-0.00047645,-4871,0.24887
1778,5.8354,3.8182,0,0.00046169,4613.8,0.00016757,0.16563,0.00012602,-312.03,-0.00046621,-4761.8,0.26527
1779,6.0189,3.8182,0,0.00045293,4526.2,0.00016366,0.124,0.00012491,-291.03,-0.00045718,-4664.6,0.28198
1780,6.2024,3.8182,0,0.00044511,4448,0.00016009,0.092812,0.00012408,-270.44,-0.00044909,-4577,0.299
1781,6.3858,3.8182,0,0.000438,4377,0.00015678,0.069441,0.00012342,-250.57,-0.00044172,-4496.8,0.31633
1782,6.5693,3.8182,0,0.00043144,4311.4,0.0001537,0.05194,0.00012287,-231.62,-0.00043491,-4422.5,0.33395
1783,6.7528,3.8182,0,0.0004253,4250.1,0.0001508,0.038851,0.00012236,-213.68,-0.00042853,-4352.9,0.35186
1784,6.9363,3.8182,0,0.00041949,4192,0.00014807,0.029077,0.00012187,-196.81,-0.00042249,-4286.9,0.37007
1785,7.1198,3.8182,0,0.00041391,4136.2,0.00014546,0.021798,0.00012137,-181.02,-0.00041669,-4223.8,0.38855
1786,7.3032,3.8182,0,0.00040851,4082.3,0.00014296,0.016394,0.00012083,-166.29,-0.00041109,-4162.9,0.40732
1787,7.4867,3.8182,0,0.00040325,4029.8,0.00014056,0.012401,0.00012025,-152.6,-0.00040563,-4103.9,0.42637
1788,7.6702,3.8182,0,0.00039809,3978.2,0.00013824,0.0094684,0.00011962,-139.88,-0.00040029,-4046.3,0.44569
1789,7.8537,3.8182,0,0.00039301,3927.4,0.00013599,0.0073336,0.00011894,-128.1,-0.00039503,-3989.8,0.46527
1790,8.0372,3.8182,0,0.00038797,3877,0.00013379,0.005796,0.00011819,-117.2,-0.00038983,-3934.3,0.48513
1791,8.2206,3.8182,0,0.00038297,3827.1,0.00013165,0.0047088,0.00011739,-107.12,-0.00038468,-3879.5,0.50525
1792,8.4041,3.8182,0,0.000378,3777.4,0.00012955,0.0039562,0.00011654,-97.804,-0.00037957,-3825.4,0.52562
1793,8.5876,3.8182,0,0.00037305,3727.9,0.0001275,0.0034556,0.00011563,-89.203,-0.00037449,-3771.7,0.54625
1794,8.7711,3.8182,0,0.00036811,3678.5,0.00012548,0.0031423,0.00011466,-81.262,-0.00036942,-3718.5,0.56714
1795,8.9546,3.8182,0,0.00036317,3629.2,0.00012349,0.0029675,0.00011365,-73.933,-0.00036437,-3665.6,0.58827
1796,9.1381,3.8182,0,0.00035824,3579.9,0.00012153,0.0028942,0.00011259,-67.169,-0.00035934,-3613.1,0.60964
1797,9.3215,3.8182,0,0.00035332,3530.7,0.0001196,0.0028976,0.00011149,-60.927,-0.00035431,-3560.8,0.63126
1798,9.505,3.8182,0,0.00034839,3481.5,0.00011769,0.0029541,0.00011035,-55.166,-0.0003493,-3508.8,0.65312
1799,9.6885,3.8182,0,0.00034347,3432.3,0.0001158,0.0030548,0.00010917,-49.849,-0.00034429,-3457,0.67521
1800,9.872,3.8182,0,0.00033855,3383.1,0.00011394,0.0031764,0.00010796,-44.941,-0.00033929,-3405.4,0.69754
1801,10.055,3.8182,0,0.00033363,3334,0.00011209,0.0033326,0.00010671,-40.409,-0.0003343,-3354,0.72009
1802,10.239,3.8182,0,0.00032871,3284.9,0.00011026,0.0034995,0.00010544,-36.224,-0.00032931,-3302.8,0.74287
1803,10.422,3.8182,0,0.0003238,3235.8,0.00010845,0.0036459,0.00010415,-32.357,-0.00032434,-3251.8,0.76587
1804,10.606,3.8182,0,0.00031889,3186.7,0.00010666,0.0038173,0.00010283,-28.784,-0.00031937,-3201,0.78909
1805,10.789,3.8182,0,0.00031399,3137.7,0.00010488,0.0040109,0.00010148,-25.481,-0.00031441,-3150.4,0.81252
1806,10.973,3.8182,0,0.00030909,3088.8,0.00010311,0.004232,0.00010012,-22.426,-0.00030947,-3099.9,0.83617
1807,11.156,3.8182,0,0.0003042,3039.9,0.00010136,0.0044159,9.8747e-05,-19.599,-0.00030453,-3049.7,0.86002
1808,11.34,3.8182,0,0.00029932,2991.1,9.9616e-05,0.0046061,9.7355e-05,-16.982,-0.0002996,-2999.6,0.88408
1809,11.523,3.8182,0,0.00029445,2942.4,9.7887e-05,0.0048572,9.5949e-05,-14.557,-0.00029469,-2949.7,0.90834
1810,11.707,3.8182,0,0.00028958,2893.8,9.6171e-05,0.0050869,9.4532e-05,-12.309,-0.00028979,-2899.9,0.9328
1811,11.89,3.8182,0,0.00028473,2845.3,9.4466e-05,0.0053517,9.3105e-05,-10.224,-0.0002849,-2850.4,0.95745
1812,12.074,3.8182,0,0.00027988,2796.9,9.2772e-05,0.0056649,9.1668e-05,-8.2866,-0.00028002,-2801,0.98229
1813,12.257,3.8182,0,0.00027505,2748.6,9.1089e-05,0.0060238,9.0224e-05,-6.486,-0.00027516,-2751.8,1.0073
1814,12.441,3.8182,0,0.00027023,2700.5,8.9415e-05,0.0065446,8.8774e-05,-4.8099,-0.00027031,-2702.9,1.0325
1815,12.624,3.8182,0,0.00026542,2652.4,8.7752e-05,0.0074108,8.7318e-05,-3.248,-0.00026548,-2654,1.0579
1816,12.808,3.8182,0,0.00026063,2604.5,8.6098e-05,0.0093807,8.5858e-05,-1.7907,-0.00026066,-2605.4,1.0835
1817,12.991,3.8182,0,0.00025585,2556.8,8.4455e-05,0.021797,8.4394e-05,-0.43841,-0.00025586,-2557,1.1093
1818,13.175,3.8182,0,0.00025109,2509.1,8.2931e-05,0.86537,8.2816e-05,-0.0028398,-0.00025107,-2508.7,1.1352
1819,13.358,3.8182,0,0.00024634,2461.7,8.1464e-05,2.0621,8.1189e-05,0.0022303,-0.0002463,-2460.6,1.1613
1820,13.542,3.8182,0,0.0002416,2414.4,7.9996e-05,3.1927,7.9571e-05,0.0036118,-0.00024155,-2412.8,1.1876
1821,13.725,3.8182,0,0.00023688,2367.2,7.8528e-05,4.2613,7.7961e-05,0.0043223,-0.00023681,-2365.1,1.214
1822,13.909,3.8182,0,0.00023218,2320.2,7.7061e-05,5.2745,7.6359e-05,0.0047987,-0.00023209,-2317.6,1.2406
1823,14.092,3.8182,0,0.0002275,2273.4,7.5595e-05,6.2382,7.4765e-05,0.0051308,-0.00022739,-2270.3,1.2673
1824,14.276,3.8182,0,0.00022283,2226.8,7.4131e-05,7.1589,7.3179e-05,0.0054415,-0.00022271,-2223.2,1.2942
1825,14.459,3.8182,0,0.00021818,2180.3,7.267e-05,8.0422,7.16e-05,0.005715,-0.00021804,-2176.2,1.3212
1826,14.642,3.8182,0,0.00021354,2134,7.1212e-05,8.8935,7.0029e-05,0.0059356,-0.00021339,-2129.5,1.3484
1827,14.826,3.8182,0,0.00020893,2087.9,6.9758e-05,9.7183,6.8465e-05,0.0061598,-0.00020876,-2083,1.3758
1828,15.009,3.8182,0,0.00020433,2041.9,6.8308e-05,10.522,6.6908e-05,0.0063874,-0.00020415,-2036.6,1.4032
1829,15.193,3.8182,0,0.00019975,1996.2,6.6863e-05,11.309,6.5359e-05,0.0066232,-0.00019956,-1990.5,1.4309
1830,15.376,3.8182,0,0.0001952,1950.6,6.5423e-05,12.085,6.3816e-05,0.0068381,-0.00019499,-1944.5,1.4586
1831,15.56,3.8182,0,0.00019066,1905.2,6.3989e-05,12.855,6.2279e-05,0.007059,-0.00019043,-1898.8,1.4865
1832,15.743,3.8182,0,0.00018614,1860.1,6.2562e-05,13.622,6.075e-05,0.0072889,-0.0001859,-1853.2,1.5145
1833,15.927,3.8182,0,0.00018164,1815.1,6.1141e-05,14.393,5.9226e-05,0.0075005,-0.00018139,-1807.9,1.5426
1834,16.11,3.8182,0,0.00017716,1770.3,5.9727e-05,15.172,5.7709e-05,0.0077484,-0.00017689,-1762.7,1.5709
1835,16.294,3.8182,0,0.0001727,1725.8,5.8322e-05,15.964,5.6198e-05,0.0080038,-0.00017242,-1717.7,1.5992
1836,16.477,3.8182,0,0.00016826,1681.4,5.6924e-05,16.773,5.4693e-05,0.0082444,-0.00016797,-1673,1.6277
1837,16.661,3.8182,0,0.00016384,1637.3,5.5536e-05,17.605,5.3194e-05,0.0085082,-0.00016354,-1628.4,1.6563
1838,16.844,3.8182,0,0.00015945,1593.4,5.4157e-05,18.465,5.1701e-05,0.0087932,-0.00015912,-1584,1.685
1839,17.028,3.8182,0,0.00015507,1549.7,5.2788e-05,19.359,5.0213e-05,0.0091027,-0.00015473,-1539.9,1.7138
1840,17.211,3.8182,0,0.00015072,1506.2,5.1429e-05,20.291,4.873e-05,0.0094096,-0.00015036,-1495.9,1.7428
1841,17.395,3.8182,0,0.00014639,1462.9,5.0082e-05,21.268,4.7253e-05,0.0097391,-0.00014602,-1452.1,1.7718
1842,17.578,3.8182,0,0.00014209,1419.9,4.8746e-05,22.295,4.578e-05,0.010092,-0.00014169,-1408.6,1.8009
1843,17.762,3.8182,0,0.0001378,1377.1,4.7423e-05,23.379,4.4313e-05,0.010449,-0.00013739,-1365.2,1.8301
1844,17.945,3.8182,0,0.00013354,1334.5,4.6113e-05,24.528,4.285e-05,0.01085,-0.00013311,-1322.1,1.8594
1845,18.129,3.8182,0,0.00012931,1292.2,4.4816e-05,25.747,4.1391e-05,0.011279,-0.00012885,-1279.1,1.8888
1846,18.312,3.8182,0,0.0001251,1250.1,4.3534e-05,27.044,3.9937e-05,0.011716,-0.00012462,-1236.4,1.9183
1847,18.496,3.8182,0,0.00012091,1208.3,4.2268e-05,28.428,3.8486e-05,0.012197,-0.0001204,-1193.8,1.9479
1848,18.679,3.8182,0,0.00011675,1166.7,4.1018e-05,29.906,3.7039e-05,0.01272,-0.00011622,-1151.5,1.9775
1849,18.863,3.8182,0,0.00011262,1125.4,3.9785e-05,31.489,3.5596e-05,0.013286,-0.00011205,-1109.4,2.0072
1850,19.046,3.8182,0,0.00010852,1084.4,3.857e-05,33.185,3.4155e-05,0.013888,-0.00010791,-1067.4,2.037
1851,19.229,3.8182,0,0.00010444,1043.7,3.7375e-05,35.005,3.2718e-05,0.014541,-0.0001038,-1025.7,2.0669
1852,19.413,3.8182,0,0.00010039,1003.2,3.6199e-05,36.961,3.1282e-05,0.015252,-9.971e-05,-984.21,2.0969
1853,19.596,3.8182,0,9.637e-05,963.04,3.5046e-05,39.064,2.9849e-05,0.016013,-9.5646e-05,-942.9,2.1269
1854,19.78,3.8182,0,9.2381e-05,923.17,3.3915e-05,41.326,2.8417e-05,0.016862,-9.1608e-05,-901.81,2.157
1855,19.963,3.8182,0,8.8423e-05,883.62,3.2808e-05,43.762,2.6986e-05,0.017787,-8.7597e-05,-860.92,2.1871
1856,20.147,3.8182,0,8.4497e-05,844.39,3.1728e-05,46.387,2.5556e-05,0.018797,-8.3612e-05,-820.23,2.2173
1857,20.33,3.8182,0,8.0606e-05,805.5,3.0674e-05,49.215,2.4126e-05,0.019916,-7.9655e-05,-779.75,2.2475
1858,20.514,3.8182,0,7.6749e-05,766.96,2.9649e-05,52.264,2.2696e-05,0.021162,-7.5726e-05,-739.48,2.2778
1859,20.697,3.8182,0,7.2929e-05,728.79,2.8655e-05,55.552,2.1264e-05,0.022554,-7.1825e-05,-699.41,2.3082
1860,20.881,3.8182,0,6.9148e-05,691,2.7693e-05,59.097,1.9831e-05,0.024105,-6.7952e-05,-659.55,2.3386
1861,21.064,3.8182,0,6.5407e-05,653.62,2.6766e-05,62.92,1.8395e-05,0.02586,-6.4109e-05,-619.87,2.3691
1862,21.248,3.8182,0,6.171e-05,616.67,2.5874e-05,67.043,1.6955e-05,0.027851,-6.0295e-05,-580.4,2.3995
1863,21.431,3.8182,0,5.8058e-05,580.18,2.5022e-05,71.488,1.5511e-05,0.030129,-5.651e-05,-541.11,2.4301
1864,21.615,3.8182,0,5.4455e-05,544.18,2.421e-05,76.279,1.4062e-05,0.032769,-5.2755e-05,-502,2.4606
1865,21.798,3.8182,0,5.0906e-05,508.71,2.344e-05,81.44,1.2606e-05,0.035858,-4.9029e-05,-463.07,2.4913
1866,21.982,3.8182,0,4.7416e-05,473.83,2.2715e-05,86.996,1.1142e-05,0.039503,-4.5332e-05,-424.29,2.5219
1867,22.165,3.8182,0,4.399e-05,439.59,2.2038e-05,92.973,9.6695e-06,0.0439,-4.1664e-05,-385.65,2.5526
1868,22.349,3.8182,0,4.0637e-05,406.09,2.1408e-05,99.394,8.1863e-06,0.049287,-3.8022e-05,-347.14,2.5833
1869,22.532,3.8182,0,3.7367e-05,373.41,2.0829e-05,106.28,6.6911e-06,0.056088,-3.4406e-05,-308.74,2.614
1870,22.716,3.8182,0,3.4196e-05,341.72,2.0301e-05,113.66,5.1823e-06,0.064741,-3.0814e-05,-270.4,2.6447
1871,22.899,3.8182,0,3.1143e-05,311.21,1.9824e-05,121.54,3.6582e-06,0.076897,-2.7241e-05,-232.09,2.6755
1872,23.083,3.8182,0,2.8236e-05,282.16,1.9399e-05,129.94,2.117e-06,0.091927,-2.3685e-05,-193.77,2.7063
1873,23.266,3.8182,0,2.5515e-05,254.98,1.9024e-05,138.87,5.5823e-07,0.12328,-2.014e-05,-155.4,2.7371
1874,23.45,3.8182,0,2.3037e-05,230.21,1.8697e-05,148.3,-1.0221e-06,0.1408,-1.6602e-05,-116.92,2.7679
1875,23.633,3.8182,0,2.0884e-05,208.69,1.8415e-05,158.3,-2.6096e-06,0.3254,-1.3072e-05,-78.287,2.7987
1876,23.817,3.8182,0,1.9162e-05,191.49,1.8177e-05,168.63,-4.239e-06,0.2008,-9.5432e-06,-39.653,2.8296
1877,3.4501,3.6364,0,0.001377,13761,0.00052436,830.53,0.00041058,-24.387,-0.0013613,-13338,0.08235
1878,3.6336,3.6364,0,0.0011128,11120,0.00039149,284.59,0.00035201,-12.104,-0.0011078,-10981,0.093453
1879,3.8171,3.6364,0,0.0009304,9297.6,0.00031009,9.5627,0.00030273,-45.736,-0.000931,-9315.5,0.10527
1880,4.0006,3.6364,0,0.00080632,8057.6,0.00027822,2.1295,0.00024556,-243.25,-0.00081014,-8175.4,0.1177
1881,4.1841,3.6364,0,0.00071956,7190.7,0.00025528,1.9977,0.00020696,-361.07,-0.00072499,-7363.3,0.13065
1882,4.3676,3.6364,0,0.00065624,6557.9,0.00023748,1.4322,0.00018047,-426.95,-0.00066243,-6760.2,0.14409
1883,4.551,3.6364,0,0.00060867,6082.5,0.00022323,1.036,0.00016206,-458.57,-0.00061515,-6298.2,0.15796
1884,4.7345,3.6364,0,0.00057207,5716.7,0.00021153,0.77886,0.0001492,-467.53,-0.00057857,-5935.7,0.17225
1885,4.918,3.6364,0,0.00054337,5430,0.00020174,0.57955,0.00014022,-461.71,-0.00054974,-5645.8,0.18693
1886,5.1015,3.6364,0,0.00052049,5201.3,0.00019344,0.43382,0.00013396,-446.48,-0.00052664,-5410,0.20197
1887,5.285,3.6364,0,0.00050196,5016.2,0.00018631,0.3236,0.00012963,-425.55,-0.00050784,-5215.2,0.21737
1888,5.4684,3.6364,0,0.00048672,4863.8,0.00018011,0.24111,0.00012665,-401.41,-0.00049229,-5051.9,0.23311
1889,5.6519,3.6364,0,0.00047396,4736.4,0.00017467,0.17918,0.00012463,-375.77,-0.00047923,-4913,0.24919
1890,5.8354,3.6364,0,0.00046312,4628,0.00016984,0.13284,0.00012327,-349.79,-0.00046807,-4792.9,0.26558
1891,6.0189,3.6364,0,0.00045373,4534.2,0.00016551,0.098204,0.00012235,-324.21,-0.00045838,-4687.6,0.2823
1892,6.2024,3.6364,0,0.00044546,4451.6,0.00016159,0.072378,0.00012172,-299.51,-0.0004498,-4593.7,0.29932
1893,6.3858,3.6364,0,0.00043804,4377.4,0.00015801,0.053161,0.00012128,-275.98,-0.00044208,-4508.8,0.31664
1894,6.5693,3.6364,0,0.00043127,4309.8,0.00015471,0.038898,0.00012093,-253.8,-0.00043503,-4431,0.33426
1895,6.7528,3.6364,0,0.00042499,4247,0.00015163,0.028347,0.00012062,-233.02,-0.00042848,-4358.7,0.35218
1896,6.9363,3.6364,0,0.00041909,4188,0.00014875,0.020576,0.00012031,-213.68,-0.00042231,-4290.7,0.37038
1897,7.1198,3.6364,0,0.00041346,4131.8,0.00014602,0.014884,0.00011997,-195.73,-0.00041644,-4226.1,0.38887
1898,7.3032,3.6364,0,0.00040804,4077.6,0.00014343,0.010746,0.00011959,-179.13,-0.0004108,-4164.2,0.40764
1899,7.4867,3.6364,0,0.00040278,4025,0.00014095,0.0077667,0.00011915,-163.82,-0.00040532,-4104.4,0.42668
1900,7.6702,3.6364,0,0.00039763,3973.5,0.00013856,0.0056527,0.00011864,-149.7,-0.00039996,-4046.3,0.446
1901,7.8537,3.6364,0,0.00039256,3922.8,0.00013626,0.0041799,0.00011806,-136.71,-0.0003947,-3989.4,0.46559
1902,8.0372,3.6364,0,0.00038754,3872.7,0.00013402,0.0031836,0.00011741,-124.76,-0.00038951,-3933.6,0.48544
1903,8.2206,3.6364,0,0.00038257,3823,0.00013184,0.0025385,0.0001167,-113.78,-0.00038438,-3878.7,0.50555
1904,8.4041,3.6364,0,0.00037762,3773.6,0.00012972,0.0021507,0.00011592,-103.69,-0.00037928,-3824.4,0.52593
1905,8.5876,3.6364,0,0.00037269,3724.4,0.00012764,0.0019505,0.00011507,-94.409,-0.00037421,-3770.7,0.54656
1906,8.7711,3.6364,0,0.00036778,3675.2,0.0001256,0.0018872,0.00011417,-85.882,-0.00036916,-3717.4,0.56744
1907,8.9546,3.6364,0,0.00036287,3626.2,0.00012359,0.0019201,0.0001132,-78.044,-0.00036413,-3664.5,0.58857
1908,9.1381,3.6364,0,0.00035796,3577.1,0.00012162,0.0020225,0.00011219,-70.837,-0.00035911,-3612,0.60994
1909,9.3215,3.6364,0,0.00035305,3528.1,0.00011967,0.0021712,0.00011113,-64.208,-0.0003541,-3559.8,0.63156
1910,9.505,3.6364,0,0.00034815,3479.1,0.00011776,0.0023513,0.00011002,-58.109,-0.0003491,-3507.8,0.65341
1911,9.6885,3.6364,0,0.00034324,3430.1,0.00011586,0.0025552,0.00010887,-52.494,-0.00034411,-3456,0.6755
1912,9.872,3.6364,0,0.00033834,3381.1,0.00011399,0.0027644,0.00010769,-47.325,-0.00033912,-3404.5,0.69782
1913,10.055,3.6364,0,0.00033344,3332.1,0.00011214,0.0029934,0.00010647,-42.562,-0.00033414,-3353.1,0.72037
1914,10.239,3.6364,0,0.00032853,3283.1,0.0001103,0.003222,0.00010522,-38.172,-0.00032917,-3302,0.74315
1915,10.422,3.6364,0,0.00032363,3234.1,0.00010849,0.0034189,0.00010394,-34.123,-0.0003242,-3251,0.76615
1916,10.606,3.6364,0,0.00031874,3185.2,0.00010669,0.0036326,0.00010264,-30.388,-0.00031924,-3200.3,0.78936
1917,10.789,3.6364,0,0.00031385,3136.3,0.0001049,0.0038602,0.00010131,-26.941,-0.00031429,-3149.7,0.81279
1918,10.973,3.6364,0,0.00030896,3087.4,0.00010313,0.0041069,9.9969e-05,-23.756,-0.00030935,-3099.3,0.83643
1919,11.156,3.6364,0,0.00030408,3038.7,0.00010137,0.0043082,9.8604e-05,-20.812,-0.00030443,-3049,0.86028
1920,11.34,3.6364,0,0.0002992,2990,9.9632e-05,0.0045085,9.7224e-05,-18.09,-0.00029951,-2999,0.88433
1921,11.523,3.6364,0,0.00029434,2941.3,9.7901e-05,0.0047594,9.5828e-05,-15.571,-0.0002946,-2949.1,0.90859
1922,11.707,3.6364,0,0.00028948,2892.8,9.6183e-05,0.0049778,9.4421e-05,-13.237,-0.0002897,-2899.4,0.93305
1923,11.89,3.6364,0,0.00028463,2844.3,9.4476e-05,0.0052146,9.3002e-05,-11.074,-0.00028482,-2849.9,0.9577
1924,12.074,3.6364,0,0.00027979,2796,9.278e-05,0.0054771,9.1573e-05,-9.0656,-0.00027994,-2800.5,0.98254
1925,12.257,3.6364,0,0.00027497,2747.8,9.1095e-05,0.0057457,9.0136e-05,-7.2003,-0.00027509,-2751.3,1.0076
1926,12.441,3.6364,0,0.00027015,2699.6,8.9421e-05,0.0060977,8.8692e-05,-5.465,-0.00027024,-2702.4,1.0328
1927,12.624,3.6364,0,0.00026535,2651.6,8.7756e-05,0.0066118,8.7243e-05,-3.8486,-0.00026541,-2653.6,1.0582
1928,12.808,3.6364,0,0.00026056,2603.8,8.6101e-05,0.0075503,8.5788e-05,-2.3407,-0.0002606,-2604.9,1.0838
1929,12.991,3.6364,0,0.00025578,2556.1,8.4455e-05,0.010602,8.433e-05,-0.93328,-0.0002558,-2556.5,1.1095
1930,13.175,3.6364,0,0.00025102,2508.5,8.2871e-05,0.40414,8.2816e-05,-0.0055487,-0.00025101,-2508.3,1.1354
1931,13.358,3.6364,0,0.00024627,2461,8.1407e-05,1.6361,8.119e-05,0.0032743,-0.00024625,-2460.2,1.1615
1932,13.542,3.6364,0,0.00024154,2413.8,7.9943e-05,2.8029,7.957e-05,0.0045876,-0.00024149,-2412.4,1.1878
1933,13.725,3.6364,0,0.00023683,2366.6,7.8479e-05,3.9054,7.796e-05,0.0052028,-0.00023676,-2364.7,1.2142
1934,13.909,3.6364,0,0.00023213,2319.7,7.7015e-05,4.95,7.6357e-05,0.0056124,-0.00023204,-2317.2,1.2408
1935,14.092,3.6364,0,0.00022744,2272.9,7.5552e-05,5.9434,7.4762e-05,0.0058995,-0.00022734,-2269.9,1.2675
1936,14.276,3.6364,0,0.00022278,2226.2,7.4092e-05,6.892,7.3175e-05,0.006181,-0.00022266,-2222.8,1.2944
1937,14.459,3.6364,0,0.00021813,2179.8,7.2633e-05,7.8017,7.1596e-05,0.0064343,-0.00021799,-2175.9,1.3214
1938,14.642,3.6364,0,0.0002135,2133.5,7.1178e-05,8.6783,7.0024e-05,0.0066418,-0.00021335,-2129.1,1.3486
1939,14.826,3.6364,0,0.00020888,2087.4,6.9727e-05,9.5274,6.846e-05,0.0068576,-0.00020872,-2082.6,1.376
1940,15.009,3.6364,0,0.00020429,2041.5,6.8279e-05,10.354,6.6902e-05,0.0070799,-0.00020411,-2036.3,1.4034
1941,15.193,3.6364,0,0.00019971,1995.7,6.6837e-05,11.164,6.5352e-05,0.0073147,-0.00019952,-1990.1,1.431
1942,15.376,3.6364,0,0.00019515,1950.2,6.5399e-05,11.963,6.3808e-05,0.0075298,-0.00019495,-1944.2,1.4588
1943,15.56,3.6364,0,0.00019062,1904.8,6.3968e-05,12.754,6.2271e-05,0.0077522,-0.0001904,-1898.4,1.4866
1944,15.743,3.6364,0,0.0001861,1859.7,6.2542e-05,13.544,6.0741e-05,0.0079851,-0.00018586,-1852.9,1.5146
1945,15.927,3.6364,0,0.0001816,1814.7,6.1124e-05,14.338,5.9217e-05,0.0081998,-0.00018135,-1807.5,1.5428
1946,16.11,3.6364,0,0.00017712,1770,5.9713e-05,15.139,5.7699e-05,0.0084532,-0.00017686,-1762.4,1.571
1947,16.294,3.6364,0,0.00017266,1725.4,5.831e-05,15.954,5.6188e-05,0.0087148,-0.00017239,-1717.4,1.5994
1948,16.477,3.6364,0,0.00016823,1681.1,5.6915e-05,16.788,5.4682e-05,0.008962,-0.00016794,-1672.7,1.6279
1949,16.661,3.6364,0,0.00016381,1637,5.5529e-05,17.645,5.3182e-05,0.0092372,-0.0001635,-1628.1,1.6565
1950,16.844,3.6364,0,0.00015942,1593.1,5.4153e-05,18.531,5.1688e-05,0.0095305,-0.00015909,-1583.7,1.6852
1951,17.028,3.6364,0,0.00015505,1549.4,5.2787e-05,19.452,5.02e-05,0.0098488,-0.00015471,-1539.6,1.714
1952,17.211,3.6364,0,0.0001507,1505.9,5.1432e-05,20.414,4.8716e-05,0.010167,-0.00015034,-1495.6,1.7429
1953,17.395,3.6364,0,0.00014637,1462.7,5.0088e-05,21.422,4.7238e-05,0.010506,-0.00014599,-1451.9,1.7719
1954,17.578,3.6364,0,0.00014207,1419.7,4.8756e-05,22.483,4.5765e-05,0.01087,-0.00014167,-1408.3,1.801
1955,17.762,3.6364,0,0.00013779,1376.9,4.7436e-05,23.603,4.4296e-05,0.011239,-0.00013737,-1365,1.8302
1956,17.945,3.6364,0,0.00013353,1334.4,4.613e-05,24.79,4.2833e-05,0.011655,-0.00013309,-1321.8,1.8595
1957,18.129,3.6364,0,0.0001293,1292.1,4.4839e-05,26.051,4.1373e-05,0.012096,-0.00012884,-1278.9,1.8889
1958,18.312,3.6364,0,0.00012509,1250.1,4.3562e-05,27.394,3.9918e-05,0.01255,-0.0001246,-1236.1,1.9184
1959,18.496,3.6364,0,0.00012091,1208.3,4.2301e-05,28.827,3.8466e-05,0.013045,-0.0001204,-1193.6,1.948
1960,18.679,3.6364,0,0.00011676,1166.8,4.1057e-05,30.359,3.7018e-05,0.013582,-0.00011621,-1151.3,1.9776
1961,18.863,3.6364,0,0.00011263,1125.5,3.983e-05,32,3.5573e-05,0.014171,-0.00011205,-1109.2,2.0074
1962,19.046,3.6364,0,0.00010853,1084.6,3.8622e-05,33.759,3.4131e-05,0.014788,-0.00010792,-1067.3,2.0371
1963,19.229,3.6364,0,0.00010446,1043.9,3.7435e-05,35.649,3.2692e-05,0.015459,-0.00010381,-1025.6,2.067
1964,19.413,3.6364,0,0.00010042,1003.5,3.6268e-05,37.679,3.1255e-05,0.016192,-9.9723e-05,-984.1,2.097
1965,19.596,3.6364,0,9.6405e-05,963.39,3.5123e-05,39.864,2.982e-05,0.016973,-9.5665e-05,-942.83,2.127
1966,19.78,3.6364,0,9.2424e-05,923.6,3.4002e-05,42.215,2.8386e-05,0.017844,-9.1633e-05,-901.76,2.157
1967,19.963,3.6364,0,8.8475e-05,884.14,3.2907e-05,44.748,2.6954e-05,0.018796,-8.7628e-05,-860.9,2.1872
1968,20.147,3.6364,0,8.4559e-05,845.01,3.1837e-05,47.477,2.5521e-05,0.019828,-8.3651e-05,-820.26,2.2174
1969,20.33,3.6364,0,8.0678e-05,806.22,3.0796e-05,50.418,2.4089e-05,0.020972,-7.9701e-05,-779.82,2.2476
1970,20.514,3.6364,0,7.6833e-05,767.8,2.9785e-05,53.589,2.2656e-05,0.022242,-7.578e-05,-739.59,2.2779
1971,20.697,3.6364,0,7.3025e-05,729.75,2.8805e-05,57.008,2.1221e-05,0.02366,-7.1888e-05,-699.56,2.3083
1972,20.881,3.6364,0,6.9257e-05,692.09,2.7859e-05,60.694,1.9785e-05,0.025239,-6.8024e-05,-659.74,2.3387
1973,21.064,3.6364,0,6.5531e-05,654.86,2.6948e-05,64.668,1.8345e-05,0.027019,-6.419e-05,-620.11,2.3691
1974,21.248,3.6364,0,6.1848e-05,618.06,2.6074e-05,68.949,1.6902e-05,0.029039,-6.0386e-05,-580.68,2.3996
1975,21.431,3.6364,0,5.8213e-05,581.72,2.524e-05,73.562,1.5454e-05,0.031338,-5.6611e-05,-541.43,2.4301
1976,21.615,3.6364,0,5.4627e-05,545.89,2.4446e-05,78.527,1.4e-05,0.034002,-5.2865e-05,-502.36,2.4607
1977,21.798,3.6364,0,5.1095e-05,510.6,2.3696e-05,83.867,1.2539e-05,0.037114,-4.9149e-05,-463.46,2.4913
1978,21.982,3.6364,0,4.7623e-05,475.9,2.2991e-05,89.606,1.107e-05,0.040787,-4.5461e-05,-424.71,2.522
1979,22.165,3.6364,0,4.4215e-05,441.85,2.2332e-05,95.766,9.592e-06,0.04521,-4.18e-05,-386.1,2.5526
1980,22.349,3.6364,0,4.0881e-05,408.53,2.1721e-05,102.37,8.103e-06,0.050627,-3.8165e-05,-347.59,2.5833
1981,22.532,3.6364,0,3.763e-05,376.04,2.1158e-05,109.43,6.6018e-06,0.057463,-3.4554e-05,-309.17,2.614
1982,22.716,3.6364,0,3.4477e-05,344.53,2.0645e-05,116.97,5.0868e-06,0.066176,-3.0964e-05,-270.81,2.6448
1983,22.899,3.6364,0,3.1442e-05,314.2,2.0182e-05,124.99,3.5565e-06,0.078411,-2.7392e-05,-232.46,2.6756
1984,23.083,3.6364,0,2.8552e-05,285.33,1.9767e-05,133.52,2.0093e-06,0.093552,-2.3833e-05,-194.08,2.7063
1985,23.266,3.6364,0,2.5849e-05,258.31,1.9399e-05,142.54,4.4481e-07,0.12509,-2.0285e-05,-155.63,2.7371
1986,23.45,3.6364,0,2.3387e-05,233.71,1.9077e-05,152.05,-1.1407e-06,0.14288,-1.6741e-05,-117.07,2.768
1987,23.633,3.6364,0,2.1248e-05,212.33,1.8797e-05,162.09,-2.7326e-06,0.32837,-1.3204e-05,-78.349,2.7988
1988,23.817,3.6364,0,1.9535e-05,195.21,1.8557e-05,172.43,-4.3651e-06,0.20691,-9.666e-06,-39.622,2.8296
1989,3.4501,3.4545,0,0.0012765,12756,0.00047446,644.7,0.00038934,5.1518,-0.0012642,-12419,0.083235
1990,3.6336,3.4545,0,0.0011092,11084,0.00038881,273.53,0.00035237,-0.29244,-0.0011043,-10945,0.094191
1991,3.8171,3.4545,0,0.00095561,9549.6,0.00031837,4.3345,0.00031064,-53.748,-0.00095644,-9574.1,0.10588
1992,4.0006,3.4545,0,0.0008357,8351.2,0.00028917,2.1549,0.0002531,-268.81,-0.00083991,-8481.3,0.11819
1993,4.1841,3.4545,0,0.00074504,7445.3,0.00026565,1.6874,0.00021191,-402.09,-0.00075103,-7637.3,0.13107
1994,4.3676,3.4545,0,0.00067644,6759.7,0.00024652,1.2104,0.00018292,-476.64,-0.00068326,-6984.8,0.14445
1995,4.551,3.4545,0,0.000624,6235.7,0.00023081,0.92943,0.00016261,-511.5,-0.0006311,-6475.2,0.15828
1996,4.7345,3.4545,0,0.00058341,5830.1,0.00021777,0.69093,0.00014845,-520.14,-0.0005905,-6072.3,0.17254
1997,4.918,3.4545,0,0.0005516,5512.2,0.00020684,0.51393,0.00013864,-511.87,-0.00055851,-5750,0.1872
1998,5.1015,3.4545,0,0.00052635,5259.9,0.00019758,0.37978,0.00013191,-493.02,-0.000533,-5488.9,0.20223
1999,5.285,3.4545,0,0.00050605,5057,0.00018966,0.27952,0.00012735,-467.94,-0.00051238,-5274.6,0.21762
2000,5.4684,3.4545,0,0.00048949,4891.6,0.00018283,0.20493,0.00012431,-439.51,-0.00049548,-5096.4,0.23336
2001,5.6519,3.4545,0,0.00047578,4754.5,0.00017688,0.14966,0.00012233,-409.7,-0.00048142,-4946.1,0.24943
2002,5.8354,3.4545,0,0.00046424,4639.2,0.00017164,0.10883,0.00012108,-379.78,-0.00046953,-4817.4,0.26582
2003,6.0189,3.4545,0,0.00045436,4540.4,0.00016697,0.078742,0.0001203,-350.58,-0.0004593,-4705.5,0.28253
2004,6.2024,3.4545,0,0.00044573,4454.2,0.00016279,0.056621,0.00011984,-322.6,-0.00045034,-4606.7,0.29955
2005,6.3858,3.4545,0,0.00043807,4377.7,0.00015899,0.040404,0.00011957,-296.16,-0.00044235,-4518.2,0.31688
2006,6.5693,3.4545,0,0.00043113,4308.3,0.00015551,0.028559,0.00011938,-271.38,-0.0004351,-4437.6,0.3345
2007,6.7528,3.4545,0,0.00042474,4244.5,0.00015229,0.019953,0.00011923,-248.34,-0.00042842,-4363.2,0.35241
2008,6.9363,3.4545,0,0.00041877,4184.8,0.00014929,0.013743,0.00011907,-227.01,-0.00042217,-4293.7,0.37062
2009,7.1198,3.4545,0,0.00041311,4128.2,0.00014647,0.0093066,0.00011887,-207.34,-0.00041624,-4228,0.3891
2010,7.3032,3.4545,0,0.00040767,4073.9,0.0001438,0.0061796,0.00011861,-189.24,-0.00041056,-4165.2,0.40787
2011,7.4867,3.4545,0,0.00040241,4021.3,0.00014125,0.0040181,0.00011828,-172.63,-0.00040506,-4104.8,0.42691
2012,7.6702,3.4545,0,0.00039726,3969.9,0.00013882,0.0025649,0.00011787,-157.4,-0.0003997,-4046.2,0.44623
2013,7.8537,3.4545,0,0.0003922,3919.3,0.00013647,0.0016313,0.00011738,-143.45,-0.00039445,-3989.1,0.46582
2014,8.0372,3.4545,0,0.00038721,3869.4,0.0001342,0.0010733,0.00011681,-130.67,-0.00038926,-3933.1,0.48567
2015,8.2206,3.4545,0,0.00038225,3819.9,0.00013199,0.00078871,0.00011616,-118.97,-0.00038414,-3878,0.50578
2016,8.4041,3.4545,0,0.00037733,3770.7,0.00012984,0.00069748,0.00011543,-108.26,-0.00037905,-3823.6,0.52615
2017,8.5876,3.4545,0,0.00037242,3721.6,0.00012774,0.0007421,0.00011464,-98.448,-0.000374,-3769.9,0.54678
2018,8.7711,3.4545,0,0.00036752,3672.7,0.00012569,0.00088137,0.00011378,-89.459,-0.00036896,-3716.6,0.56766
2019,8.9546,3.4545,0,0.00036263,3623.8,0.00012367,0.0010838,0.00011286,-81.221,-0.00036394,-3663.7,0.58879
2020,9.1381,3.4545,0,0.00035774,3574.9,0.00012168,0.0013254,0.00011188,-73.666,-0.00035894,-3611.2,0.61016
2021,9.3215,3.4545,0,0.00035285,3526.1,0.00011973,0.0015924,0.00011085,-66.734,-0.00035394,-3559,0.63178
2022,9.505,3.4545,0,0.00034796,3477.2,0.00011781,0.001871,0.00010977,-60.37,-0.00034895,-3507,0.65363
2023,9.6885,3.4545,0,0.00034307,3428.3,0.0001159,0.0021581,0.00010865,-54.524,-0.00034397,-3455.3,0.67572
2024,9.872,3.4545,0,0.00033818,3379.5,0.00011403,0.0024364,0.00010748,-49.151,-0.00033899,-3403.8,0.69804
2025,10.055,3.4545,0,0.00033329,3330.6,0.00011217,0.0027232,0.00010628,-44.209,-0.00033402,-3352.5,0.72058
2026,10.239,3.4545,0,0.0003284,3281.7,0.00011033,0.0030015,0.00010505,-39.66,-0.00032905,-3301.4,0.74336
2027,10.422,3.4545,0,0.00032351,3232.8,0.00010851,0.0032401,0.00010379,-35.472,-0.0003241,-3250.4,0.76635
2028,10.606,3.4545,0,0.00031862,3184,0.00010671,0.0034857,0.0001025,-31.612,-0.00031915,-3199.7,0.78956
2029,10.789,3.4545,0,0.00031374,3135.2,0.00010492,0.0037412,0.00010119,-28.053,-0.0003142,-3149.1,0.81299
2030,10.973,3.4545,0,0.00030886,3086.4,0.00010315,0.004009,9.985e-05,-24.768,-0.00030927,-3098.7,0.83663
2031,11.156,3.4545,0,0.00030398,3037.7,0.00010139,0.0042255,9.8496e-05,-21.735,-0.00030435,-3048.5,0.86048
2032,11.34,3.4545,0,0.00029911,2989.1,9.9644e-05,0.0044339,9.7124e-05,-18.933,-0.00029943,-2998.5,0.88453
2033,11.523,3.4545,0,0.00029425,2940.5,9.7912e-05,0.0046888,9.5737e-05,-16.341,-0.00029453,-2948.6,0.90878
2034,11.707,3.4545,0,0.0002894,2892,9.6192e-05,0.0049006,9.4336e-05,-13.941,-0.00028963,-2898.9,0.93323
2035,11.89,3.4545,0,0.00028456,2843.6,9.4484e-05,0.005123,9.2924e-05,-11.718,-0.00028475,-2849.4,0.95788
2036,12.074,3.4545,0,0.00027972,2795.3,9.2787e-05,0.0053555,9.1501e-05,-9.6561,-0.00027989,-2800.1,0.98272
2037,12.257,3.4545,0,0.0002749,2747.1,9.1101e-05,0.0055711,9.007e-05,-7.7414,-0.00027503,-2751,1.0077
2038,12.441,3.4545,0,0.00027009,2699,8.9425e-05,0.0058319,8.8631e-05,-5.961,-0.00027019,-2702,1.033
2039,12.624,3.4545,0,0.00026529,2651.1,8.7759e-05,0.0061633,8.7185e-05,-4.3033,-0.00026536,-2653.2,1.0584
2040,12.808,3.4545,0,0.0002605,2603.2,8.6103e-05,0.0066661,8.5735e-05,-2.7572,-0.00026055,-2604.6,1.0839
2041,12.991,3.4545,0,0.00025573,2555.5,8.4456e-05,0.0077653,8.4281e-05,-1.3131,-0.00025575,-2556.2,1.1097
2042,13.175,3.4545,0,0.00025097,2508,8.2828e-05,0.07601,8.2814e-05,-0.028047,-0.00025097,-2507.9,1.1356
2043,13.358,3.4545,0,0.00024623,2460.6,8.1364e-05,1.3139,8.119e-05,0.0044742,-0.0002462,-2459.9,1.1617
2044,13.542,3.4545,0,0.0002415,2413.3,7.9903e-05,2.5085,7.957e-05,0.005504,-0.00024145,-2412,1.1879
2045,13.725,3.4545,0,0.00023678,2366.2,7.8442e-05,3.6366,7.7958e-05,0.0059654,-0.00023672,-2364.4,1.2144
2046,13.909,3.4545,0,0.00023208,2319.2,7.6981e-05,4.7053,7.6355e-05,0.0062893,-0.000232,-2316.9,1.2409
2047,14.092,3.4545,0,0.0002274,2272.5,7.552e-05,5.7212,7.476e-05,0.0065238,-0.0002273,-2269.6,1.2677
2048,14.276,3.4545,0,0.00022274,2225.8,7.4062e-05,6.691,7.3172e-05,0.0067694,-0.00022262,-2222.5,1.2945
2049,14.459,3.4545,0,0.00021809,2179.4,7.2606e-05,7.6208,7.1593e-05,0.0070027,-0.00021796,-2175.6,1.3216
2050,14.642,3.4545,0,0.00021346,2133.1,7.1153e-05,8.5165,7.002e-05,0.0071921,-0.00021331,-2128.9,1.3488
2051,14.826,3.4545,0,0.00020885,2087,6.9703e-05,9.3841,6.8455e-05,0.0073973,-0.00020869,-2082.3,1.3761
2052,15.009,3.4545,0,0.00020425,2041.1,6.8258e-05,10.229,6.6897e-05,0.0076132,-0.00020408,-2036,1.4036
2053,15.193,3.4545,0,0.00019968,1995.4,6.6817e-05,11.056,6.5346e-05,0.0078427,-0.00019949,-1989.9,1.4312
2054,15.376,3.4545,0,0.00019512,1949.9,6.5381e-05,11.872,6.3802e-05,0.0080546,-0.00019492,-1943.9,1.4589
2055,15.56,3.4545,0,0.00019059,1904.5,6.3952e-05,12.68,6.2265e-05,0.0082766,-0.00019037,-1898.2,1.4868
2056,15.743,3.4545,0,0.00018607,1859.4,6.2528e-05,13.487,6.0734e-05,0.0085108,-0.00018584,-1852.6,1.5148
2057,15.927,3.4545,0,0.00018157,1814.5,6.1112e-05,14.297,5.921e-05,0.0087288,-0.00018132,-1807.3,1.5429
2058,16.11,3.4545,0,0.0001771,1769.7,5.9702e-05,15.116,5.7692e-05,0.0089847,-0.00017683,-1762.1,1.5711
2059,16.294,3.4545,0,0.00017264,1725.2,5.8301e-05,15.949,5.618e-05,0.0092521,-0.00017236,-1717.2,1.5995
2060,16.477,3.4545,0,0.0001682,1680.9,5.6909e-05,16.801,5.4674e-05,0.0095013,-0.00016791,-1672.4,1.628
2061,16.661,3.4545,0,0.00016379,1636.8,5.5525e-05,17.677,5.3173e-05,0.0097802,-0.00016348,-1627.9,1.6566
2062,16.844,3.4545,0,0.0001594,1592.9,5.4151e-05,18.583,5.1679e-05,0.010081,-0.00015907,-1583.5,1.6853
2063,17.028,3.4545,0,0.00015503,1549.2,5.2787e-05,19.525,5.019e-05,0.010404,-0.00015469,-1539.3,1.7141
2064,17.211,3.4545,0,0.00015068,1505.8,5.1434e-05,20.509,4.8706e-05,0.01073,-0.00015032,-1495.4,1.743
2065,17.395,3.4545,0,0.00014636,1462.5,5.0093e-05,21.541,4.7227e-05,0.011077,-0.00014598,-1451.6,1.772
2066,17.578,3.4545,0,0.00014205,1419.6,4.8763e-05,22.628,4.5753e-05,0.011447,-0.00014166,-1408.1,1.8011
2067,17.762,3.4545,0,0.00013778,1376.8,4.7447e-05,23.776,4.4284e-05,0.011826,-0.00013736,-1364.8,1.8303
2068,17.945,3.4545,0,0.00013352,1334.3,4.6144e-05,24.992,4.282e-05,0.012248,-0.00013308,-1321.6,1.8596
2069,18.129,3.4545,0,0.00012929,1292,4.4856e-05,26.285,4.1359e-05,0.012701,-0.00012883,-1278.7,1.889
2070,18.312,3.4545,0,0.00012509,1250,4.3583e-05,27.662,3.9903e-05,0.013164,-0.0001246,-1236,1.9185
2071,18.496,3.4545,0,0.00012091,1208.3,4.2326e-05,29.133,3.8451e-05,0.01367,-0.00012039,-1193.5,1.9481
2072,18.679,3.4545,0,0.00011676,1166.8,4.1087e-05,30.706,3.7002e-05,0.014219,-0.00011621,-1151.2,1.9777
2073,18.863,3.4545,0,0.00011264,1125.6,3.9865e-05,32.391,3.5556e-05,0.014816,-0.00011205,-1109.1,2.0074
2074,19.046,3.4545,0,0.00010854,1084.7,3.8663e-05,34.199,3.4113e-05,0.015448,-0.00010792,-1067.2,2.0372
2075,19.229,3.4545,0,0.00010448,1044,3.7481e-05,36.141,3.2673e-05,0.016133,-0.00010381,-1025.5,2.0671
2076,19.413,3.4545,0,0.00010044,1003.7,3.632e-05,38.229,3.1235e-05,0.016879,-9.9734e-05,-984.03,2.097
2077,19.596,3.4545,0,9.6433e-05,963.66,3.5183e-05,40.476,2.9798e-05,0.017675,-9.568e-05,-942.78,2.127
2078,19.78,3.4545,0,9.2458e-05,923.94,3.407e-05,42.895,2.8363e-05,0.018561,-9.1653e-05,-901.74,2.1571
2079,19.963,3.4545,0,8.8515e-05,884.54,3.2982e-05,45.501,2.6929e-05,0.019527,-8.7653e-05,-860.91,2.1872
2080,20.147,3.4545,0,8.4607e-05,845.49,3.1922e-05,48.309,2.5495e-05,0.020573,-8.3681e-05,-820.29,2.2174
2081,20.33,3.4545,0,8.0734e-05,806.78,3.089e-05,51.337,2.4061e-05,0.021737,-7.9738e-05,-779.88,2.2477
2082,20.514,3.4545,0,7.6897e-05,768.44,2.9889e-05,54.6,2.2625e-05,0.023024,-7.5823e-05,-739.68,2.278
2083,20.697,3.4545,0,7.3099e-05,730.49,2.8921e-05,58.119,2.1189e-05,0.024462,-7.1937e-05,-699.68,2.3083
2084,20.881,3.4545,0,6.9341e-05,692.94,2.7986e-05,61.911,1.975e-05,0.026056,-6.808e-05,-659.89,2.3387
2085,21.064,3.4545,0,6.5626e-05,655.8,2.7087e-05,65.997,1.8307e-05,0.027851,-6.4253e-05,-620.3,2.3692
2086,21.248,3.4545,0,6.1955e-05,619.12,2.6227e-05,70.398,1.6861e-05,0.029887,-6.0456e-05,-580.9,2.3997
2087,21.431,3.4545,0,5.8331e-05,582.91,2.5406e-05,75.135,1.541e-05,0.032205,-5.6688e-05,-541.68,2.4302
2088,21.615,3.4545,0,5.4758e-05,547.2,2.4626e-05,80.229,1.3953e-05,0.034883,-5.295e-05,-502.64,2.4608
2089,21.798,3.4545,0,5.1239e-05,512.04,2.389e-05,85.703,1.2489e-05,0.03801,-4.924e-05,-463.77,2.4914
2090,21.982,3.4545,0,4.778e-05,477.47,2.3198e-05,91.577,1.1016e-05,0.041697,-4.5558e-05,-425.03,2.522
2091,22.165,3.4545,0,4.4386e-05,443.55,2.2553e-05,97.87,9.5336e-06,0.046136,-4.1903e-05,-386.43,2.5527
2092,22.349,3.4545,0,4.1065e-05,410.37,2.1955e-05,104.6,8.0404e-06,0.051575,-3.8272e-05,-347.93,2.5834
2093,22.532,3.4545,0,3.7827e-05,378.01,2.1405e-05,111.79,6.5347e-06,0.058441,-3.4664e-05,-309.5,2.6141
2094,22.716,3.4545,0,3.4688e-05,346.64,2.0903e-05,119.44,5.0152e-06,0.067186,-3.1076e-05,-271.11,2.6448
2095,22.899,3.4545,0,3.1665e-05,316.44,2.0448e-05,127.57,3.4804e-06,0.079477,-2.7504e-05,-232.72,2.6756
2096,23.083,3.4545,0,2.8788e-05,287.69,2.0041e-05,136.18,1.9288e-06,0.094705,-2.3944e-05,-194.3,2.7064
2097,23.266,3.4545,0,2.6097e-05,260.79,1.9678e-05,145.27,3.6018e-07,0.12638,-2.0392e-05,-155.8,2.7372
2098,23.45,3.4545,0,2.3647e-05,236.31,1.9359e-05,154.83,-1.2291e-06,0.14435,-1.6844e-05,-117.18,2.768
2099,23.633,3.4545,0,2.1518e-05,215.04,1.908e-05,164.91,-2.8241e-06,0.33049,-1.3301e-05,-78.391,2.7988
2100,23.817,3.4545,0,1.9811e-05,197.98,1.8839e-05,175.26,-4.4588e-06,0.21136,-9.7569e-06,-39.596,2.8297
2101,3.4501,3.2727,0,0.0012172,12163,0.00044827,558.98,0.00037328,-4.4625,-0.0012068,-11876,0.083816
2102,3.6336,3.2727,0,0.0010943,10935,0.00038274,259.34,0.00034813,-0.70484,-0.0010896,-10804,0.094688
2103,3.8171,3.2727,0,0.00096568,9650.2,0.00032092,3.8279,0.00031523,-38.943,-0.00096628,-9667.7,0.10629
2104,4.0006,3.2727,0,0.00085316,8525.8,0.00029465,1.8265,0.00025933,-263.5,-0.00085731,-8653.5,0.11853
2105,4.1841,3.2727,0,0.00076208,7615.5,0.00027179,1.497,0.00021662,-413,-0.00076823,-7812.8,0.13136
2106,4.3676,3.2727,0,0.00069056,6900.8,0.00025229,1.2033,0.00018562,-499.75,-0.00069767,-7136.4,0.14469
2107,4.551,3.2727,0,0.00063489,6344.5,0.00023584,0.90665,0.00016365,-541.48,-0.00064234,-6597.4,0.1585
2108,4.7345,3.2727,0,0.0005915,5910.9,0.00022199,0.67098,0.00014832,-552.86,-0.00059894,-6167.5,0.17274
2109,4.918,3.2727,0,0.00055746,5570.7,0.00021032,0.48996,0.00013777,-544.63,-0.00056471,-5822.8,0.18738
2110,5.1015,3.2727,0,0.00053051,5301.4,0.00020042,0.35497,0.0001306,-524.27,-0.00053747,-5543.9,0.2024
2111,5.285,3.2727,0,0.00050894,5085.8,0.00019198,0.25586,0.00012582,-496.84,-0.00051556,-5315.9,0.21779
2112,5.4684,3.2727,0,0.00049144,4911,0.00018471,0.18364,0.0001227,-465.73,-0.0004977,-5127.2,0.23352
2113,5.6519,3.2727,0,0.00047705,4767.2,0.00017841,0.13123,0.00012074,-433.15,-0.00048294,-4968.9,0.24959
2114,5.8354,3.2727,0,0.00046502,4647,0.00017288,0.093255,0.00011955,-400.57,-0.00047053,-4834.3,0.26598
2115,6.0189,3.2727,0,0.00045478,4544.7,0.00016798,0.065782,0.00011888,-368.87,-0.00045993,-4717.9,0.28269
2116,6.2024,3.2727,0,0.00044591,4456.1,0.00016361,0.04594,0.00011853,-338.63,-0.00045071,-4615.7,0.29971
2117,6.3858,3.2727,0,0.00043808,4377.8,0.00015966,0.031649,0.00011838,-310.15,-0.00044253,-4524.6,0.31703
2118,6.5693,3.2727,0,0.00043103,4307.3,0.00015606,0.021402,0.00011831,-283.58,-0.00043515,-4442.1,0.33465
2119,6.7528,3.2727,0,0.00042457,4242.8,0.00015274,0.014106,0.00011827,-258.95,-0.00042838,-4366.3,0.35257
2120,6.9363,3.2727,0,0.00041855,4182.6,0.00014966,0.008965,0.00011822,-236.23,-0.00042207,-4295.7,0.37077
2121,7.1198,3.2727,0,0.00041286,4125.8,0.00014677,0.0053958,0.00011811,-215.36,-0.0004161,-4229.2,0.38926
2122,7.3032,3.2727,0,0.00040742,4071.3,0.00014405,0.0029726,0.00011793,-196.22,-0.0004104,-4165.9,0.40803
2123,7.4867,3.2727,0,0.00040215,4018.7,0.00014146,0.0013822,0.00011768,-178.71,-0.00040489,-4105.1,0.42707
2124,7.6702,3.2727,0,0.00039701,3967.3,0.00013899,0.00039425,0.00011734,-162.7,-0.00039953,-4046.2,0.44639
2125,7.8537,3.2727,0,0.00039196,3916.9,0.00013661,-0.00016095,0.0001169,-148.08,-0.00039427,-3988.8,0.46597
2126,8.0372,3.2727,0,0.00038698,3867.1,0.00013432,-0.00040843,0.00011639,-134.72,-0.00038909,-3932.7,0.48582
2127,8.2206,3.2727,0,0.00038204,3817.7,0.00013209,-0.00043955,0.00011579,-122.53,-0.00038397,-3877.5,0.50594
2128,8.4041,3.2727,0,0.00037713,3768.7,0.00012993,-0.00032202,0.0001151,-111.39,-0.0003789,-3823.1,0.52631
2129,8.5876,3.2727,0,0.00037223,3719.8,0.00012782,-0.00010474,0.00011435,-101.21,-0.00037385,-3769.3,0.54693
2130,8.7711,3.2727,0,0.00036735,3671,0.00012575,0.00017743,0.00011352,-91.899,-0.00036883,-3716,0.56781
2131,8.9546,3.2727,0,0.00036247,3622.2,0.00012372,0.00049797,0.00011262,-83.384,-0.00036382,-3663.2,0.58894
2132,9.1381,3.2727,0,0.00035759,3573.5,0.00012173,0.00083939,0.00011167,-75.59,-0.00035882,-3610.7,0.61031
2133,9.3215,3.2727,0,0.00035272,3524.7,0.00011977,0.0011887,0.00011066,-68.45,-0.00035383,-3558.4,0.63192
2134,9.505,3.2727,0,0.00034784,3476,0.00011784,0.0015358,0.0001096,-61.905,-0.00034885,-3506.5,0.65377
2135,9.6885,3.2727,0,0.00034296,3427.2,0.00011593,0.0018802,0.00010849,-55.9,-0.00034387,-3454.8,0.67586
2136,9.872,3.2727,0,0.00033807,3378.4,0.00011405,0.0022075,0.00010734,-50.388,-0.0003389,-3403.3,0.69818
2137,10.055,3.2727,0,0.00033319,3329.6,0.00011219,0.0025358,0.00010616,-45.323,-0.00033394,-3352,0.72072
2138,10.239,3.2727,0,0.00032831,3280.8,0.00011035,0.0028473,0.00010494,-40.666,-0.00032898,-3300.9,0.7435
2139,10.422,3.2727,0,0.00032342,3232,0.00010853,0.003113,0.00010368,-36.382,-0.00032403,-3250,0.76649
2140,10.606,3.2727,0,0.00031854,3183.2,0.00010672,0.0033837,0.0001024,-32.437,-0.00031908,-3199.3,0.7897
2141,10.789,3.2727,0,0.00031366,3134.5,0.00010493,0.0036575,0.0001011,-28.802,-0.00031414,-3148.8,0.81312
2142,10.973,3.2727,0,0.00030879,3085.8,0.00010316,0.0039404,9.9771e-05,-25.45,-0.00030921,-3098.4,0.83676
2143,11.156,3.2727,0,0.00030392,3037.1,0.0001014,0.0041671,9.8423e-05,-22.357,-0.00030429,-3048.2,0.86061
2144,11.34,3.2727,0,0.00029905,2988.5,9.9653e-05,0.0043832,9.7057e-05,-19.5,-0.00029938,-2998.2,0.88466
2145,11.523,3.2727,0,0.0002942,2939.9,9.7919e-05,0.0046404,9.5675e-05,-16.858,-0.00029448,-2948.3,0.90891
2146,11.707,3.2727,0,0.00028935,2891.5,9.6198e-05,0.0048502,9.4279e-05,-14.415,-0.00028959,-2898.7,0.93336
2147,11.89,3.2727,0,0.00028451,2843.1,9.4489e-05,0.0050643,9.2871e-05,-12.151,-0.00028471,-2849.2,0.958
2148,12.074,3.2727,0,0.00027968,2794.8,9.2791e-05,0.0052807,9.1453e-05,-10.053,-0.00027985,-2799.8,0.98284
2149,12.257,3.2727,0,0.00027486,2746.7,9.1104e-05,0.0054666,9.0025e-05,-8.1048,-0.00027499,-2750.7,1.0079
2150,12.441,3.2727,0,0.00027005,2698.6,8.9428e-05,0.0056758,8.8589e-05,-6.294,-0.00027015,-2701.7,1.0331
2151,12.624,3.2727,0,0.00026525,2650.7,8.7761e-05,0.0059148,8.7147e-05,-4.6085,-0.00026533,-2653,1.0585
2152,12.808,3.2727,0,0.00026047,2602.9,8.6105e-05,0.0062147,8.57e-05,-3.0367,-0.00026052,-2604.4,1.084
2153,12.991,3.2727,0,0.00025569,2555.2,8.4457e-05,0.0066457,8.4248e-05,-1.5686,-0.00025572,-2556,1.1098
2154,13.175,3.2727,0,0.00025094,2507.6,8.282e-05,0.010539,8.2792e-05,-0.19763,-0.00025094,-2507.7,1.1357
2155,13.358,3.2727,0,0.00024619,2460.2,8.1335e-05,1.0976,8.119e-05,0.0056479,-0.00024618,-2459.7,1.1618
2156,13.542,3.2727,0,0.00024147,2413,7.9876e-05,2.3111,7.957e-05,0.0062357,-0.00024143,-2411.8,1.188
2157,13.725,3.2727,0,0.00023675,2365.9,7.8417e-05,3.4567,7.7958e-05,0.0065351,-0.00023669,-2364.2,1.2145
2158,13.909,3.2727,0,0.00023206,2319,7.6958e-05,4.5415,7.6354e-05,0.0067768,-0.00023198,-2316.7,1.241
2159,14.092,3.2727,0,0.00022738,2272.2,7.5499e-05,5.5725,7.4758e-05,0.0069641,-0.00022728,-2269.4,1.2678
2160,14.276,3.2727,0,0.00022271,2225.6,7.4042e-05,6.5566,7.3171e-05,0.0071799,-0.0002226,-2222.3,1.2946
2161,14.459,3.2727,0,0.00021807,2179.1,7.2588e-05,7.4999,7.159e-05,0.0073914,-0.00021794,-2175.4,1.3217
2162,14.642,3.2727,0,0.00021344,2132.9,7.1136e-05,8.4086,7.0018e-05,0.0075682,-0.00021329,-2128.7,1.3489
2163,14.826,3.2727,0,0.00020883,2086.8,6.9687e-05,9.2885,6.8452e-05,0.007765,-0.00020867,-2082.1,1.3762
2164,15.009,3.2727,0,0.00020423,2040.9,6.8243e-05,10.145,6.6894e-05,0.0079736,-0.00020406,-2035.8,1.4036
2165,15.193,3.2727,0,0.00019966,1995.2,6.6804e-05,10.984,6.5343e-05,0.0082,-0.00019947,-1989.7,1.4313
2166,15.376,3.2727,0,0.0001951,1949.7,6.5369e-05,11.811,6.3799e-05,0.0084104,-0.0001949,-1943.7,1.459
2167,15.56,3.2727,0,0.00019057,1904.4,6.3941e-05,12.631,6.2261e-05,0.0086303,-0.00019035,-1898,1.4869
2168,15.743,3.2727,0,0.00018605,1859.2,6.2519e-05,13.449,6.073e-05,0.0088648,-0.00018582,-1852.5,1.5149
2169,15.927,3.2727,0,0.00018155,1814.3,6.1103e-05,14.271,5.9205e-05,0.009082,-0.00018131,-1807.1,1.543
2170,16.11,3.2727,0,0.00017708,1769.6,5.9695e-05,15.102,5.7687e-05,0.0093388,-0.00017682,-1762,1.5712
2171,16.294,3.2727,0,0.00017262,1725,5.8296e-05,15.946,5.6175e-05,0.0096084,-0.00017235,-1717,1.5996
2172,16.477,3.2727,0,0.00016819,1680.7,5.6904e-05,16.81,5.4668e-05,0.0098613,-0.0001679,-1672.2,1.6281
2173,16.661,3.2727,0,0.00016378,1636.6,5.5522e-05,17.7,5.3168e-05,0.01014,-0.00016347,-1627.7,1.6566
2174,16.844,3.2727,0,0.00015938,1592.7,5.4149e-05,18.619,5.1673e-05,0.010445,-0.00015906,-1583.3,1.6853
2175,17.028,3.2727,0,0.00015502,1549.1,5.2787e-05,19.576,5.0183e-05,0.010773,-0.00015467,-1539.2,1.7142
2176,17.211,3.2727,0,0.00015067,1505.6,5.1436e-05,20.575,4.8699e-05,0.011102,-0.00015031,-1495.2,1.7431
2177,17.395,3.2727,0,0.00014635,1462.4,5.0096e-05,21.623,4.722e-05,0.011453,-0.00014597,-1451.5,1.7721
2178,17.578,3.2727,0,0.00014205,1419.5,4.8769e-05,22.727,4.5746e-05,0.011831,-0.00014164,-1408,1.8012
2179,17.762,3.2727,0,0.00013777,1376.7,4.7454e-05,23.893,4.4276e-05,0.012211,-0.00013735,-1364.6,1.8304
2180,17.945,3.2727,0,0.00013352,1334.3,4.6154e-05,25.13,4.2811e-05,0.012641,-0.00013307,-1321.5,1.8597
2181,18.129,3.2727,0,0.00012929,1292,4.4868e-05,26.444,4.135e-05,0.013098,-0.00012882,-1278.6,1.8891
2182,18.312,3.2727,0,0.00012509,1250,4.3598e-05,27.845,3.9894e-05,0.013567,-0.00012459,-1235.9,1.9186
2183,18.496,3.2727,0,0.00012091,1208.3,4.2344e-05,29.341,3.8441e-05,0.014077,-0.00012039,-1193.4,1.9481
2184,18.679,3.2727,0,0.00011677,1166.9,4.1107e-05,30.942,3.6991e-05,0.014635,-0.00011621,-1151.1,1.9778
2185,18.863,3.2727,0,0.00011264,1125.7,3.9889e-05,32.657,3.5545e-05,0.015243,-0.00011205,-1109,2.0075
2186,19.046,3.2727,0,0.00010855,1084.8,3.869e-05,34.497,3.4101e-05,0.015879,-0.00010792,-1067.1,2.0373
2187,19.229,3.2727,0,0.00010449,1044.2,3.7512e-05,36.475,3.266e-05,0.016575,-0.00010382,-1025.4,2.0671
2188,19.413,3.2727,0,0.00010045,1003.9,3.6356e-05,38.601,3.1221e-05,0.01733,-9.9742e-05,-983.99,2.0971
2189,19.596,3.2727,0,9.6452e-05,963.85,3.5223e-05,40.89,2.9784e-05,0.018131,-9.5691e-05,-942.75,2.1271
2190,19.78,3.2727,0,9.2481e-05,924.17,3.4115e-05,43.355,2.8348e-05,0.019029,-9.1667e-05,-901.72,2.1572
2191,19.963,3.2727,0,8.8543e-05,884.82,3.3033e-05,46.01,2.6912e-05,0.020005,-8.7671e-05,-860.91,2.1873
2192,20.147,3.2727,0,8.464e-05,845.82,3.1979e-05,48.872,2.5477e-05,0.021066,-8.3702e-05,-820.31,2.2175
2193,20.33,3.2727,0,8.0772e-05,807.16,3.0954e-05,51.957,2.4042e-05,0.022234,-7.9762e-05,-779.92,2.2477
2194,20.514,3.2727,0,7.6942e-05,768.88,2.996e-05,55.283,2.2605e-05,0.023535,-7.5852e-05,-739.74,2.278
2195,20.697,3.2727,0,7.315e-05,730.99,2.8998e-05,58.867,2.1167e-05,0.024977,-7.197e-05,-699.77,2.3084
2196,20.881,3.2727,0,6.9399e-05,693.51,2.8072e-05,62.731,1.9726e-05,0.026587,-6.8118e-05,-660,2.3388
2197,21.064,3.2727,0,6.569e-05,656.45,2.7181e-05,66.892,1.8282e-05,0.028389,-6.4296e-05,-620.43,2.3692
2198,21.248,3.2727,0,6.2027e-05,619.84,2.6329e-05,71.372,1.6834e-05,0.030435,-6.0503e-05,-581.05,2.3997
2199,21.431,3.2727,0,5.8411e-05,583.71,2.5517e-05,76.192,1.5381e-05,0.032759,-5.674e-05,-541.86,2.4302
2200,21.615,3.2727,0,5.4846e-05,548.08,2.4747e-05,81.372,1.3921e-05,0.035449,-5.3007e-05,-502.84,2.4608
2201,21.798,3.2727,0,5.1336e-05,513.01,2.402e-05,86.934,1.2455e-05,0.038584,-4.9301e-05,-463.97,2.4914
2202,21.982,3.2727,0,4.7886e-05,478.53,2.3338e-05,92.896,1.098e-05,0.042279,-4.5624e-05,-425.25,2.522
2203,22.165,3.2727,0,4.45e-05,444.7,2.2701e-05,99.277,9.4946e-06,0.046728,-4.1972e-05,-386.65,2.5527
2204,22.349,3.2727,0,4.1188e-05,411.6,2.2112e-05,106.09,7.9985e-06,0.05218,-3.8344e-05,-348.15,2.5834
2205,22.532,3.2727,0,3.7959e-05,379.33,2.1569e-05,113.36,6.49e-06,0.059062,-3.4738e-05,-309.71,2.6141
2206,22.716,3.2727,0,3.4828e-05,348.04,2.1074e-05,121.09,4.9675e-06,0.067836,-3.115e-05,-271.31,2.6449
2207,22.899,3.2727,0,3.1814e-05,317.92,2.0625e-05,129.28,3.4298e-06,0.080162,-2.7578e-05,-232.9,2.6756
2208,23.083,3.2727,0,2.8945e-05,289.25,2.0222e-05,137.95,1.8753e-06,0.095444,-2.4017e-05,-194.45,2.7064
2209,23.266,3.2727,0,2.6262e-05,262.44,1.9863e-05,147.09,3.0398e-07,0.12721,-2.0463e-05,-155.91,2.7372
2210,23.45,3.2727,0,2.382e-05,238.03,1.9546e-05,156.68,-1.2877e-06,0.1453,-1.6911e-05,-117.25,2.768
2211,23.633,3.2727,0,2.1698e-05,216.83,1.9268e-05,166.78,-2.8847e-06,0.33187,-1.3366e-05,-78.417,2.7988
2212,23.817,3.2727,0,1.9995e-05,199.81,1.9025e-05,177.13,-4.5209e-06,0.21426,-9.817e-06,-39.579,2.8297
2213,3.4501,3.0909,0,0.0011889,11881,0.00043513,514.98,0.00036651,-0.62533,-0.0011793,-11616,0.084104
2214,3.6336,3.0909,0,0.0010847,10839,0.00037904,253.22,0.00034532,-0.085057,-0.0010802,-10711,0.094937
2215,3.8171,3.0909,0,0.00096854,9678.8,0.00032111,1.6394,0.00031726,-27.275,-0.00096898,-9691.5,0.1065
2216,4.0006,3.0909,0,0.00086098,8603.8,0.00029682,1.5584,0.00026258,-255.72,-0.00086501,-8728,0.11871
2217,4.1841,3.0909,0,0.00077047,7699.3,0.00027458,1.4746,0.00021935,-413.49,-0.00077664,-7897,0.1315
2218,4.3676,3.0909,0,0.00069777,6972.9,0.00025506,1.1989,0.00018731,-507.84,-0.000705,-7212.3,0.14482
2219,4.551,3.0909,0,0.00064054,6401,0.00023832,0.91419,0.00016441,-554.46,-0.00064815,-6659.7,0.15861
2220,4.7345,3.0909,0,0.00059571,5953,0.00022411,0.67197,0.0001484,-568.23,-0.00060332,-6216.4,0.17284
2221,4.918,3.0909,0,0.00056051,5601.2,0.00021208,0.4848,0.0001374,-560.65,-0.00056792,-5860.2,0.18747
2222,5.1015,3.0909,0,0.00053267,5323,0.00020187,0.34636,0.00012997,-539.87,-0.00053979,-5572.2,0.20249
2223,5.285,3.0909,0,0.00051043,5100.8,0.00019316,0.24604,0.00012506,-511.44,-0.0005172,-5337.1,0.21787
2224,5.4684,3.0909,0,0.00049245,4921.1,0.00018567,0.17401,0.00012189,-479.06,-0.00049884,-5143,0.2336
2225,5.6519,3.0909,0,0.0004777,4773.7,0.00017919,0.12247,0.00011993,-445.12,-0.00048371,-4980.6,0.24967
2226,5.8354,3.0909,0,0.00046542,4651,0.00017351,0.085636,0.00011877,-411.19,-0.00047105,-4842.9,0.26606
2227,6.0189,3.0909,0,0.000455,4546.9,0.0001685,0.059327,0.00011815,-378.24,-0.00046025,-4724.2,0.28277
2228,6.2024,3.0909,0,0.00044601,4457,0.00016403,0.040556,0.00011786,-346.84,-0.00045089,-4620.2,0.29979
2229,6.3858,3.0909,0,0.00043808,4377.8,0.00016,0.0272,0.00011777,-317.32,-0.00044262,-4527.8,0.31711
2230,6.5693,3.0909,0,0.00043098,4306.8,0.00015634,0.017746,0.00011776,-289.82,-0.00043517,-4444.4,0.33473
2231,6.7528,3.0909,0,0.00042448,4241.8,0.00015297,0.011108,0.00011778,-264.37,-0.00042836,-4367.8,0.35265
2232,6.9363,3.0909,0,0.00041844,4181.5,0.00014985,0.0065078,0.00011778,-240.95,-0.00042201,-4296.7,0.37085
2233,7.1198,3.0909,0,0.00041273,4124.5,0.00014693,0.0033815,0.00011772,-219.45,-0.00041603,-4229.8,0.38934
2234,7.3032,3.0909,0,0.00040728,4070,0.00014418,0.001319,0.00011759,-199.78,-0.00041031,-4166.2,0.4081
2235,7.4867,3.0909,0,0.00040202,4017.4,0.00014157,2.2541e-05,0.00011737,-181.81,-0.0004048,-4105.2,0.42715
2236,7.6702,3.0909,0,0.00039688,3966.1,0.00013908,-0.00072589,0.00011706,-165.4,-0.00039944,-4046.2,0.44646
2237,7.8537,3.0909,0,0.00039184,3915.7,0.00013669,-0.0010855,0.00011667,-150.43,-0.00039418,-3988.7,0.46605
2238,8.0372,3.0909,0,0.00038686,3865.9,0.00013438,-0.0011727,0.00011618,-136.78,-0.00038901,-3932.5,0.4859
2239,8.2206,3.0909,0,0.00038193,3816.6,0.00013214,-0.0010729,0.0001156,-124.33,-0.00038389,-3877.3,0.50601
2240,8.4041,3.0909,0,0.00037702,3767.6,0.00012997,-0.00084717,0.00011494,-112.98,-0.00037882,-3822.9,0.52638
2241,8.5876,3.0909,0,0.00037214,3718.8,0.00012785,-0.00054066,0.0001142,-102.61,-0.00037378,-3769,0.54701
2242,8.7711,3.0909,0,0.00036726,3670.1,0.00012578,-0.00018494,0.00011338,-93.136,-0.00036876,-3715.8,0.56789
2243,8.9546,3.0909,0,0.00036239,3621.4,0.00012375,0.00019678,0.0001125,-84.48,-0.00036375,-3662.9,0.58901
2244,9.1381,3.0909,0,0.00035752,3572.7,0.00012175,0.00058906,0.00011156,-76.564,-0.00035876,-3610.4,0.61038
2245,9.3215,3.0909,0,0.00035265,3524,0.00011979,0.0009804,0.00011056,-69.318,-0.00035377,-3558.2,0.632
2246,9.505,3.0909,0,0.00034777,3475.3,0.00011786,0.0013637,0.00010951,-62.68,-0.0003488,-3506.2,0.65385
2247,9.6885,3.0909,0,0.0003429,3426.6,0.00011595,0.0017374,0.00010842,-56.595,-0.00034382,-3454.5,0.67593
2248,9.872,3.0909,0,0.00033802,3377.9,0.00011406,0.0020898,0.00010727,-51.012,-0.00033886,-3403.1,0.69825
2249,10.055,3.0909,0,0.00033314,3329.1,0.0001122,0.0024388,0.00010609,-45.885,-0.0003339,-3351.8,0.72079
2250,10.239,3.0909,0,0.00032826,3280.3,0.00011036,0.0027677,0.00010488,-41.174,-0.00032894,-3300.7,0.74356
2251,10.422,3.0909,0,0.00032338,3231.6,0.00010854,0.0030491,0.00010363,-36.841,-0.00032399,-3249.8,0.76656
2252,10.606,3.0909,0,0.0003185,3182.8,0.00010673,0.0033308,0.00010236,-32.853,-0.00031905,-3199.1,0.78977
2253,10.789,3.0909,0,0.00031363,3134.1,0.00010494,0.0036139,0.00010105,-29.18,-0.00031411,-3148.6,0.81319
2254,10.973,3.0909,0,0.00030875,3085.4,0.00010316,0.0039046,9.9731e-05,-25.793,-0.00030918,-3098.2,0.83683
2255,11.156,3.0909,0,0.00030389,3036.8,0.0001014,0.0041373,9.8386e-05,-22.669,-0.00030427,-3048,0.86067
2256,11.34,3.0909,0,0.00029902,2988.2,9.9657e-05,0.0043565,9.7023e-05,-19.785,-0.00029936,-2998,0.88472
2257,11.523,3.0909,0,0.00029417,2939.7,9.7923e-05,0.0046157,9.5644e-05,-17.119,-0.00029446,-2948.2,0.90897
2258,11.707,3.0909,0,0.00028932,2891.2,9.6201e-05,0.0048252,9.4251e-05,-14.652,-0.00028957,-2898.5,0.93342
2259,11.89,3.0909,0,0.00028448,2842.9,9.4492e-05,0.0050354,9.2845e-05,-12.369,-0.00028469,-2849,0.95806
2260,12.074,3.0909,0,0.00027965,2794.6,9.2793e-05,0.0052444,9.1428e-05,-10.252,-0.00027983,-2799.7,0.9829
2261,12.257,3.0909,0,0.00027483,2746.4,9.1106e-05,0.0054178,9.0002e-05,-8.2873,-0.00027497,-2750.6,1.0079
2262,12.441,3.0909,0,0.00027003,2698.4,8.9429e-05,0.0056046,8.8568e-05,-6.4612,-0.00027014,-2701.6,1.0331
2263,12.624,3.0909,0,0.00026523,2650.5,8.7762e-05,0.0058021,8.7128e-05,-4.7617,-0.00026531,-2652.9,1.0585
2264,12.808,3.0909,0,0.00026045,2602.7,8.6105e-05,0.0060194,8.5682e-05,-3.177,-0.0002605,-2604.3,1.0841
2265,12.991,3.0909,0,0.00025568,2555,8.4458e-05,0.006213,8.4231e-05,-1.6969,-0.00025571,-2555.8,1.1098
2266,13.175,3.0909,0,0.00025092,2507.5,8.282e-05,0.0066273,8.2777e-05,-0.31164,-0.00025093,-2507.6,1.1358
2267,13.358,3.0909,0,0.00024618,2460.1,8.1321e-05,0.98896,8.119e-05,0.0064239,-0.00024616,-2459.6,1.1618
2268,13.542,3.0909,0,0.00024145,2412.8,7.9863e-05,2.2121,7.957e-05,0.0066491,-0.00024141,-2411.7,1.1881
2269,13.725,3.0909,0,0.00023674,2365.7,7.8405e-05,3.3664,7.7957e-05,0.0068412,-0.00023668,-2364.1,1.2145
2270,13.909,3.0909,0,0.00023204,2318.8,7.6946e-05,4.4594,7.6353e-05,0.007033,-0.00023197,-2316.6,1.2411
2271,14.092,3.0909,0,0.00022736,2272.1,7.5488e-05,5.498,7.4758e-05,0.0071921,-0.00022727,-2269.3,1.2678
2272,14.276,3.0909,0,0.0002227,2225.5,7.4032e-05,6.4893,7.317e-05,0.0073903,-0.00022259,-2222.2,1.2947
2273,14.459,3.0909,0,0.00021805,2179,7.2578e-05,7.4394,7.1589e-05,0.00759,-0.00021793,-2175.3,1.3217
2274,14.642,3.0909,0,0.00021342,2132.8,7.1127e-05,8.3545,7.0016e-05,0.0077615,-0.00021328,-2128.6,1.3489
2275,14.826,3.0909,0,0.00020881,2086.7,6.968e-05,9.2407,6.8451e-05,0.00795,-0.00020865,-2082.1,1.3762
2276,15.009,3.0909,0,0.00020422,2040.8,6.8236e-05,10.103,6.6893e-05,0.0081566,-0.00020405,-2035.7,1.4037
2277,15.193,3.0909,0,0.00019965,1995.1,6.6797e-05,10.948,6.5341e-05,0.0083795,-0.00019946,-1989.6,1.4313
2278,15.376,3.0909,0,0.00019509,1949.6,6.5364e-05,11.781,6.3797e-05,0.0085879,-0.00019489,-1943.7,1.459
2279,15.56,3.0909,0,0.00019056,1904.3,6.3936e-05,12.607,6.2259e-05,0.0088077,-0.00019034,-1897.9,1.4869
2280,15.743,3.0909,0,0.00018604,1859.1,6.2514e-05,13.431,6.0728e-05,0.0090404,-0.00018581,-1852.4,1.5149
2281,15.927,3.0909,0,0.00018154,1814.2,6.1099e-05,14.258,5.9203e-05,0.0092599,-0.0001813,-1807,1.543
2282,16.11,3.0909,0,0.00017707,1769.5,5.9692e-05,15.095,5.7684e-05,0.0095172,-0.00017681,-1761.9,1.5713
2283,16.294,3.0909,0,0.00017261,1725,5.8293e-05,15.945,5.6172e-05,0.0097867,-0.00017234,-1716.9,1.5996
2284,16.477,3.0909,0,0.00016818,1680.6,5.6902e-05,16.816,5.4665e-05,0.010041,-0.00016789,-1672.2,1.6281
2285,16.661,3.0909,0,0.00016377,1636.6,5.552e-05,17.711,5.3165e-05,0.010322,-0.00016346,-1627.6,1.6567
2286,16.844,3.0909,0,0.00015938,1592.7,5.4149e-05,18.638,5.167e-05,0.010628,-0.00015905,-1583.3,1.6854
2287,17.028,3.0909,0,0.00015501,1549,5.2787e-05,19.601,5.018e-05,0.010957,-0.00015467,-1539.1,1.7142
2288,17.211,3.0909,0,0.00015066,1505.6,5.1437e-05,20.608,4.8695e-05,0.011289,-0.0001503,-1495.2,1.7431
2289,17.395,3.0909,0,0.00014634,1462.4,5.0098e-05,21.664,4.7216e-05,0.011642,-0.00014596,-1451.4,1.7721
2290,17.578,3.0909,0,0.00014204,1419.4,4.8772e-05,22.777,4.5742e-05,0.012019,-0.00014164,-1407.9,1.8012
2291,17.762,3.0909,0,0.00013777,1376.7,4.7458e-05,23.952,4.4272e-05,0.012404,-0.00013734,-1364.6,1.8304
2292,17.945,3.0909,0,0.00013351,1334.2,4.6159e-05,25.199,4.2807e-05,0.012837,-0.00013307,-1321.4,1.8597
2293,18.129,3.0909,0,0.00012929,1292,4.4874e-05,26.524,4.1346e-05,0.013295,-0.00012882,-1278.5,1.8891
2294,18.312,3.0909,0,0.00012509,1250,4.3605e-05,27.937,3.9889e-05,0.013766,-0.00012459,-1235.8,1.9186
2295,18.496,3.0909,0,0.00012091,1208.3,4.2353e-05,29.446,3.8436e-05,0.014284,-0.00012039,-1193.3,1.9482
2296,18.679,3.0909,0,0.00011677,1166.9,4.1118e-05,31.06,3.6986e-05,0.014844,-0.00011621,-1151,1.9778
2297,18.863,3.0909,0,0.00011265,1125.7,3.9901e-05,32.791,3.5539e-05,0.015451,-0.00011205,-1108.9,2.0075
2298,19.046,3.0909,0,0.00010856,1084.8,3.8704e-05,34.648,3.4095e-05,0.016096,-0.00010793,-1067.1,2.0373
2299,19.229,3.0909,0,0.00010449,1044.2,3.7528e-05,36.643,3.2654e-05,0.016791,-0.00010382,-1025.4,2.0672
2300,19.413,3.0909,0,0.00010046,1003.9,3.6374e-05,38.789,3.1214e-05,0.01755,-9.9746e-05,-983.97,2.0971
2301,19.596,3.0909,0,9.6462e-05,963.95,3.5244e-05,41.099,2.9776e-05,0.018361,-9.5697e-05,-942.74,2.1271
2302,19.78,3.0909,0,9.2493e-05,924.29,3.4138e-05,43.586,2.834e-05,0.019261,-9.1674e-05,-901.72,2.1572
2303,19.963,3.0909,0,8.8558e-05,884.97,3.3059e-05,46.266,2.6904e-05,0.020241,-8.7679e-05,-860.91,2.1873
2304,20.147,3.0909,0,8.4657e-05,845.98,3.2008e-05,49.155,2.5468e-05,0.021304,-8.3713e-05,-820.32,2.2175
2305,20.33,3.0909,0,8.0792e-05,807.36,3.0986e-05,52.269,2.4032e-05,0.022481,-7.9775e-05,-779.94,2.2477
2306,20.514,3.0909,0,7.6964e-05,769.11,2.9995e-05,55.626,2.2595e-05,0.023785,-7.5866e-05,-739.77,2.278
2307,20.697,3.0909,0,7.3175e-05,731.25,2.9037e-05,59.244,2.1156e-05,0.025234,-7.1987e-05,-699.81,2.3084
2308,20.881,3.0909,0,6.9428e-05,693.8,2.8115e-05,63.143,1.9714e-05,0.026842,-6.8137e-05,-660.06,2.3388
2309,21.064,3.0909,0,6.5723e-05,656.77,2.7228e-05,67.342,1.827e-05,0.028652,-6.4317e-05,-620.5,2.3692
2310,21.248,3.0909,0,6.2063e-05,620.2,2.6381e-05,71.862,1.682e-05,0.030707,-6.0527e-05,-581.13,2.3997
2311,21.431,3.0909,0,5.8451e-05,584.11,2.5573e-05,76.723,1.5366e-05,0.033034,-5.6767e-05,-541.94,2.4302
2312,21.615,3.0909,0,5.4891e-05,548.53,2.4807e-05,81.946,1.3906e-05,0.035725,-5.3035e-05,-502.93,2.4608
2313,21.798,3.0909,0,5.1385e-05,513.49,2.4085e-05,87.551,1.2438e-05,0.038865,-4.9332e-05,-464.08,2.4914
2314,21.982,3.0909,0,4.7939e-05,479.06,2.3407e-05,93.557,1.0961e-05,0.042565,-4.5656e-05,-425.36,2.522
2315,22.165,3.0909,0,4.4558e-05,445.27,2.2775e-05,99.981,9.475e-06,0.047017,-4.2006e-05,-386.76,2.5527
2316,22.349,3.0909,0,4.125e-05,412.21,2.219e-05,106.84,7.9776e-06,0.052476,-3.838e-05,-348.26,2.5834
2317,22.532,3.0909,0,3.8025e-05,379.99,2.1652e-05,114.15,6.4676e-06,0.059366,-3.4774e-05,-309.82,2.6141
2318,22.716,3.0909,0,3.4898e-05,348.74,2.116e-05,121.91,4.9436e-06,0.068149,-3.1187e-05,-271.41,2.6449
2319,22.899,3.0909,0,3.1888e-05,318.66,2.0714e-05,130.14,3.4044e-06,0.080501,-2.7615e-05,-232.99,2.6756
2320,23.083,3.0909,0,2.9024e-05,290.04,2.0313e-05,138.83,1.8486e-06,0.095804,-2.4053e-05,-194.52,2.7064
2321,23.266,3.0909,0,2.6344e-05,263.26,1.9955e-05,147.99,2.7593e-07,0.12761,-2.0498e-05,-155.96,2.7372
2322,23.45,3.0909,0,2.3906e-05,238.89,1.9639e-05,157.6,-1.3169e-06,0.14576,-1.6945e-05,-117.28,2.768
2323,23.633,3.0909,0,2.1787e-05,217.72,1.9361e-05,167.71,-2.915e-06,0.33254,-1.3398e-05,-78.429,2.7989
2324,23.817,3.0909,0,2.0086e-05,200.72,1.9118e-05,178.06,-4.5518e-06,0.21569,-9.8469e-06,-39.57,2.8297
2325,3.4501,2.9091,0,0.0011889,11881,0.00043513,514.98,0.00036651,-0.62533,-0.0011793,-11616,0.084104
2326,3.6336,2.9091,0,0.0010847,10839,0.00037904,253.22,0.00034532,-0.085058,-0.0010802,-10711,0.094937
2327,3.8171,2.9091,0,0.00096854,9678.8,0.00032111,1.6394,0.00031726,-27.275,-0.00096898,-9691.5,0.1065
2328,4.0006,2.9091,0,0.00086098,8603.8,0.00029682,1.5584,0.00026258,-255.72,-0.00086501,-8728,0.11871
2329,4.1841,2.9091,0,0.00077047,7699.3,0.00027458,1.4746,0.00021935,-413.49,-0.00077664,-7897,0.1315
2330,4.3676,2.9091,0,0.00069777,6972.9,0.00025506,1.1989,0.00018731,-507.84,-0.000705,-7212.3,0.14482
2331,4.551,2.9091,0,0.00064054,6401,0.00023832,0.9142,0.00016441,-554.46,-0.00064815,-6659.7,0.15861
2332,4.7345,2.9091,0,0.00059571,5953,0.00022411,0.67198,0.0001484,-568.23,-0.00060332,-6216.4,0.17284
2333,4.918,2.9091,0,0.00056051,5601.2,0.00021208,0.4848,0.0001374,-560.65,-0.00056792,-5860.2,0.18747
2334,5.1015,2.9091,0,0.00053267,5323,0.00020187,0.34636,0.00012997,-539.87,-0.00053979,-5572.2,0.20249
2335,5.285,2.9091,0,0.00051043,5100.8,0.00019316,0.24604,0.00012506,-511.44,-0.0005172,-5337.1,0.21787
2336,5.4684,2.9091,0,0.00049245,4921.1,0.00018567,0.17401,0.00012189,-479.06,-0.00049884,-5143,0.2336
2337,5.6519,2.9091,0,0.0004777,4773.7,0.00017919,0.12247,0.00011993,-445.12,-0.00048371,-4980.6,0.24967
2338,5.8354,2.9091,0,0.00046542,4651,0.00017351,0.085636,0.00011877,-411.19,-0.00047105,-4842.9,0.26606
2339,6.0189,2.9091,0,0.000455,4546.9,0.0001685,0.059327,0.00011815,-378.24,-0.00046025,-4724.2,0.28277
2340,6.2024,2.9091,0,0.00044601,4457,0.00016403,0.040556,0.00011786,-346.84,-0.00045089,-4620.2,0.29979
2341,6.3858,2.9091,0,0.00043808,4377.8,0.00016,0.0272,0.00011777,-317.32,-0.00044262,-4527.8,0.31711
2342,6.5693,2.9091,0,0.00043098,4306.8,0.00015634,0.017746,0.00011776,-289.82,-0.00043517,-4444.4,0.33473
2343,6.7528,2.9091,0,0.00042448,4241.8,0.00015297,0.011108,0.00011778,-264.37,-0.00042836,-4367.8,0.35265
2344,6.9363,2.9091,0,0.00041844,4181.5,0.00014985,0.0065081,0.00011778,-240.95,-0.00042201,-4296.7,0.37085
2345,7.1198,2.9091,0,0.00041273,4124.5,0.00014693,0.0033812,0.00011772,-219.45,-0.00041603,-4229.8,0.38934
2346,7.3032,2.9091,0,0.00040728,4070,0.00014418,0.0013189,0.00011759,-199.78,-0.00041031,-4166.2,0.4081
2347,7.4867,2.9091,0,0.00040202,4017.4,0.00014157,2.2538e-05,0.00011737,-181.81,-0.0004048,-4105.2,0.42715
2348,7.6702,2.9091,0,0.00039688,3966.1,0.00013908,-0.00072595,0.00011706,-165.4,-0.00039944,-4046.2,0.44646
2349,7.8537,2.9091,0,0.00039184,3915.7,0.00013669,-0.0010856,0.00011667,-150.43,-0.00039418,-3988.7,0.46605
2350,8.0372,2.9091,0,0.00038686,3865.9,0.00013438,-0.0011729,0.00011618,-136.78,-0.00038901,-3932.5,0.4859
2351,8.2206,2.9091,0,0.00038193,3816.6,0.00013214,-0.0010724,0.0001156,-124.33,-0.00038389,-3877.3,0.50601
2352,8.4041,2.9091,0,0.00037702,3767.6,0.00012997,-0.00084729,0.00011494,-112.98,-0.00037882,-3822.9,0.52638
2353,8.5876,2.9091,0,0.00037214,3718.8,0.00012785,-0.00054054,0.0001142,-102.61,-0.00037378,-3769.1,0.54701
2354,8.7711,2.9091,0,0.00036726,3670.1,0.00012578,-0.00018512,0.00011338,-93.136,-0.00036876,-3715.8,0.56789
2355,8.9546,2.9091,0,0.00036239,3621.4,0.00012375,0.00019719,0.0001125,-84.48,-0.00036375,-3662.9,0.58901
2356,9.1381,2.9091,0,0.00035752,3572.7,0.00012175,0.00058882,0.00011156,-76.564,-0.00035876,-3610.4,0.61038
2357,9.3215,2.9091,0,0.00035265,3524,0.00011979,0.0009807,0.00011056,-69.318,-0.00035377,-3558.2,0.632
2358,9.505,2.9091,0,0.00034777,3475.3,0.00011786,0.0013638,0.00010951,-62.68,-0.0003488,-3506.2,0.65385
2359,9.6885,2.9091,0,0.0003429,3426.6,0.00011595,0.0017379,0.00010842,-56.595,-0.00034382,-3454.5,0.67593
2360,9.872,2.9091,0,0.00033802,3377.9,0.00011406,0.0020898,0.00010727,-51.012,-0.00033886,-3403.1,0.69825
2361,10.055,2.9091,0,0.00033314,3329.1,0.0001122,0.0024388,0.00010609,-45.885,-0.0003339,-3351.8,0.72079
2362,10.239,2.9091,0,0.00032826,3280.3,0.00011036,0.0027673,0.00010488,-41.174,-0.00032894,-3300.7,0.74356
2363,10.422,2.9091,0,0.00032338,3231.6,0.00010854,0.0030488,0.00010363,-36.841,-0.00032399,-3249.8,0.76656
2364,10.606,2.9091,0,0.0003185,3182.8,0.00010673,0.0033304,0.00010236,-32.853,-0.00031905,-3199.1,0.78977
2365,10.789,2.9091,0,0.00031363,3134.1,0.00010494,0.0036138,0.00010105,-29.18,-0.00031411,-3148.6,0.81319
2366,10.973,2.9091,0,0.00030875,3085.4,0.00010316,0.0039043,9.9731e-05,-25.793,-0.00030918,-3098.2,0.83683
2367,11.156,2.9091,0,0.00030389,3036.8,0.0001014,0.004137,9.8386e-05,-22.669,-0.00030427,-3048,0.86067
2368,11.34,2.9091,0,0.00029902,2988.2,9.9657e-05,0.0043571,9.7023e-05,-19.785,-0.00029936,-2998,0.88472
2369,11.523,2.9091,0,0.00029417,2939.7,9.7923e-05,0.0046157,9.5644e-05,-17.119,-0.00029446,-2948.2,0.90897
2370,11.707,2.9091,0,0.00028932,2891.2,9.6201e-05,0.0048258,9.4251e-05,-14.652,-0.00028957,-2898.5,0.93342
2371,11.89,2.9091,0,0.00028448,2842.9,9.4492e-05,0.0050348,9.2845e-05,-12.369,-0.00028469,-2849,0.95806
2372,12.074,2.9091,0,0.00027965,2794.6,9.2793e-05,0.0052451,9.1428e-05,-10.252,-0.00027983,-2799.7,0.9829
2373,12.257,2.9091,0,0.00027483,2746.4,9.1106e-05,0.005417,9.0002e-05,-8.2873,-0.00027497,-2750.6,1.0079
2374,12.441,2.9091,0,0.00027003,2698.4,8.9429e-05,0.0056052,8.8568e-05,-6.4612,-0.00027014,-2701.6,1.0331
2375,12.624,2.9091,0,0.00026523,2650.5,8.7762e-05,0.0058015,8.7128e-05,-4.7617,-0.00026531,-2652.9,1.0585
2376,12.808,2.9091,0,0.00026045,2602.7,8.6105e-05,0.0060195,8.5682e-05,-3.177,-0.0002605,-2604.3,1.0841
2377,12.991,2.9091,0,0.00025568,2555,8.4458e-05,0.0062133,8.4231e-05,-1.6969,-0.00025571,-2555.8,1.1098
2378,13.175,2.9091,0,0.00025092,2507.5,8.282e-05,0.0066269,8.2777e-05,-0.31164,-0.00025093,-2507.6,1.1358
2379,13.358,2.9091,0,0.00024618,2460.1,8.1321e-05,0.98896,8.119e-05,0.0064227,-0.00024616,-2459.6,1.1618
2380,13.542,2.9091,0,0.00024145,2412.8,7.9863e-05,2.2121,7.957e-05,0.0066504,-0.00024141,-2411.7,1.1881
2381,13.725,2.9091,0,0.00023674,2365.7,7.8405e-05,3.3664,7.7957e-05,0.006841,-0.00023668,-2364.1,1.2145
2382,13.909,2.9091,0,0.00023204,2318.8,7.6946e-05,4.4594,7.6353e-05,0.0070324,-0.00023197,-2316.6,1.2411
2383,14.092,2.9091,0,0.00022736,2272.1,7.5488e-05,5.498,7.4758e-05,0.0071919,-0.00022727,-2269.3,1.2678
2384,14.276,2.9091,0,0.0002227,2225.5,7.4032e-05,6.4893,7.317e-05,0.007391,-0.00022259,-2222.2,1.2947
2385,14.459,2.9091,0,0.00021805,2179,7.2578e-05,7.4394,7.1589e-05,0.0075907,-0.00021793,-2175.3,1.3217
2386,14.642,2.9091,0,0.00021342,2132.8,7.1127e-05,8.3545,7.0016e-05,0.0077599,-0.00021328,-2128.6,1.3489
2387,14.826,2.9091,0,0.00020881,2086.7,6.968e-05,9.2407,6.8451e-05,0.0079517,-0.00020865,-2082.1,1.3762
2388,15.009,2.9091,0,0.00020422,2040.8,6.8236e-05,10.103,6.6893e-05,0.0081562,-0.00020405,-2035.7,1.4037
2389,15.193,2.9091,0,0.00019965,1995.1,6.6797e-05,10.948,6.5341e-05,0.0083795,-0.00019946,-1989.6,1.4313
2390,15.376,2.9091,0,0.00019509,1949.6,6.5364e-05,11.781,6.3797e-05,0.0085879,-0.00019489,-1943.7,1.459
2391,15.56,2.9091,0,0.00019056,1904.3,6.3936e-05,12.607,6.2259e-05,0.0088082,-0.00019034,-1897.9,1.4869
2392,15.743,2.9091,0,0.00018604,1859.1,6.2514e-05,13.431,6.0728e-05,0.0090408,-0.00018581,-1852.4,1.5149
2393,15.927,2.9091,0,0.00018154,1814.2,6.1099e-05,14.258,5.9203e-05,0.0092586,-0.0001813,-1807,1.543
2394,16.11,2.9091,0,0.00017707,1769.5,5.9692e-05,15.095,5.7684e-05,0.0095176,-0.00017681,-1761.9,1.5713
2395,16.294,2.9091,0,0.00017261,1725,5.8293e-05,15.945,5.6172e-05,0.0097848,-0.00017234,-1716.9,1.5996
2396,16.477,2.9091,0,0.00016818,1680.6,5.6902e-05,16.816,5.4665e-05,0.010041,-0.00016789,-1672.2,1.6281
2397,16.661,2.9091,0,0.00016377,1636.6,5.552e-05,17.711,5.3165e-05,0.010322,-0.00016346,-1627.6,1.6567
2398,16.844,2.9091,0,0.00015938,1592.7,5.4149e-05,18.638,5.167e-05,0.010627,-0.00015905,-1583.3,1.6854
2399,17.028,2.9091,0,0.00015501,1549,5.2787e-05,19.601,5.018e-05,0.010957,-0.00015467,-1539.1,1.7142
2400,17.211,2.9091,0,0.00015066,1505.6,5.1437e-05,20.608,4.8695e-05,0.011287,-0.0001503,-1495.2,1.7431
2401,17.395,2.9091,0,0.00014634,1462.4,5.0098e-05,21.664,4.7216e-05,0.01164,-0.00014596,-1451.4,1.7721
2402,17.578,2.9091,0,0.00014204,1419.4,4.8772e-05,22.777,4.5742e-05,0.01202,-0.00014164,-1407.9,1.8012
2403,17.762,2.9091,0,0.00013777,1376.7,4.7458e-05,23.952,4.4272e-05,0.012404,-0.00013734,-1364.6,1.8304
2404,17.945,2.9091,0,0.00013351,1334.2,4.6159e-05,25.199,4.2807e-05,0.012837,-0.00013307,-1321.4,1.8597
2405,18.129,2.9091,0,0.00012929,1292,4.4874e-05,26.524,4.1346e-05,0.013295,-0.00012882,-1278.5,1.8891
2406,18.312,2.9091,0,0.00012509,1250,4.3605e-05,27.937,3.9889e-05,0.013768,-0.00012459,-1235.8,1.9186
2407,18.496,2.9091,0,0.00012091,1208.3,4.2353e-05,29.446,3.8436e-05,0.014283,-0.00012039,-1193.3,1.9482
2408,18.679,2.9091,0,0.00011677,1166.9,4.1118e-05,31.06,3.6986e-05,0.014844,-0.00011621,-1151,1.9778
2409,18.863,2.9091,0,0.00011265,1125.7,3.9901e-05,32.791,3.5539e-05,0.015452,-0.00011205,-1108.9,2.0075
2410,19.046,2.9091,0,0.00010856,1084.8,3.8704e-05,34.648,3.4095e-05,0.016094,-0.00010793,-1067.1,2.0373
2411,19.229,2.9091,0,0.00010449,1044.2,3.7528e-05,36.643,3.2654e-05,0.016792,-0.00010382,-1025.4,2.0672
2412,19.413,2.9091,0,0.00010046,1003.9,3.6374e-05,38.789,3.1214e-05,0.017551,-9.9746e-05,-983.97,2.0971
2413,19.596,2.9091,0,9.6462e-05,963.95,3.5244e-05,41.099,2.9776e-05,0.01836,-9.5697e-05,-942.74,2.1271
2414,19.78,2.9091,0,9.2493e-05,924.29,3.4138e-05,43.586,2.834e-05,0.01926,-9.1674e-05,-901.72,2.1572
2415,19.963,2.9091,0,8.8558e-05,884.97,3.3059e-05,46.266,2.6904e-05,0.02024,-8.7679e-05,-860.91,2.1873
2416,20.147,2.9091,0,8.4657e-05,845.98,3.2008e-05,49.155,2.5468e-05,0.021304,-8.3713e-05,-820.32,2.2175
2417,20.33,2.9091,0,8.0792e-05,807.36,3.0986e-05,52.269,2.4032e-05,0.022479,-7.9775e-05,-779.94,2.2477
2418,20.514,2.9091,0,7.6964e-05,769.11,2.9995e-05,55.626,2.2595e-05,0.023782,-7.5866e-05,-739.77,2.278
2419,20.697,2.9091,0,7.3175e-05,731.25,2.9037e-05,59.244,2.1156e-05,0.025234,-7.1987e-05,-699.81,2.3084
2420,20.881,2.9091,0,6.9428e-05,693.8,2.8115e-05,63.143,1.9714e-05,0.026845,-6.8137e-05,-660.06,2.3388
2421,21.064,2.9091,0,6.5723e-05,656.77,2.7228e-05,67.342,1.827e-05,0.028657,-6.4317e-05,-620.5,2.3692
2422,21.248,2.9091,0,6.2063e-05,620.2,2.6381e-05,71.862,1.682e-05,0.030704,-6.0527e-05,-581.13,2.3997
2423,21.431,2.9091,0,5.8451e-05,584.11,2.5573e-05,76.723,1.5366e-05,0.033033,-5.6767e-05,-541.94,2.4302
2424,21.615,2.9091,0,5.4891e-05,548.53,2.4807e-05,81.946,1.3906e-05,0.035727,-5.3035e-05,-502.93,2.4608
2425,21.798,2.9091,0,5.1385e-05,513.49,2.4085e-05,87.551,1.2438e-05,0.038862,-4.9332e-05,-464.08,2.4914
2426,21.982,2.9091,0,4.7939e-05,479.06,2.3407e-05,93.557,1.0961e-05,0.042564,-4.5656e-05,-425.36,2.522
2427,22.165,2.9091,0,4.4558e-05,445.27,2.2775e-05,99.981,9.475e-06,0.047018,-4.2006e-05,-386.76,2.5527
2428,22.349,2.9091,0,4.125e-05,412.21,2.219e-05,106.84,7.9776e-06,0.052474,-3.838e-05,-348.26,2.5834
2429,22.532,2.9091,0,3.8025e-05,379.99,2.1652e-05,114.15,6.4676e-06,0.059364,-3.4774e-05,-309.82,2.6141
2430,22.716,2.9091,0,3.4898e-05,348.74,2.116e-05,121.91,4.9436e-06,0.068152,-3.1187e-05,-271.41,2.6449
2431,22.899,2.9091,0,3.1888e-05,318.66,2.0714e-05,130.14,3.4044e-06,0.080496,-2.7615e-05,-232.99,2.6756
2432,23.083,2.9091,0,2.9024e-05,290.04,2.0313e-05,138.83,1.8486e-06,0.095803,-2.4053e-05,-194.52,2.7064
2433,23.266,2.9091,0,2.6344e-05,263.26,1.9955e-05,147.99,2.7594e-07,0.12762,-2.0498e-05,-155.96,2.7372
2434,23.45,2.9091,0,2.3906e-05,238.89,1.9639e-05,157.6,-1.3169e-06,0.14576,-1.6945e-05,-117.28,2.768
2435,23.633,2.9091,0,2.1787e-05,217.72,1.9361e-05,167.71,-2.915e-06,0.33254,-1.3398e-05,-78.429,2.7989
2436,23.817,2.9091,0,2.0086e-05,200.72,1.9118e-05,178.06,-4.5518e-06,0.21569,-9.8469e-06,-39.57,2.8297
2437,3.4501,2.7273,0,0.0012172,12163,0.00044827,558.98,0.00037328,-4.4625,-0.0012068,-11876,0.083816
2438,3.6336,2.7273,0,0.0010943,10935,0.00038274,259.34,0.00034813,-0.70484,-0.0010896,-10804,0.094688
2439,3.8171,2.7273,0,0.00096568,9650.2,0.00032092,3.8279,0.00031523,-38.944,-0.00096628,-9667.7,0.10629
2440,4.0006,2.7273,0,0.00085316,8525.8,0.00029465,1.8265,0.00025933,-263.5,-0.00085731,-8653.5,0.11853
2441,4.1841,2.7273,0,0.00076208,7615.5,0.00027179,1.497,0.00021662,-413,-0.00076823,-7812.8,0.13136
2442,4.3676,2.7273,0,0.00069056,6900.8,0.00025229,1.2033,0.00018562,-499.75,-0.00069767,-7136.4,0.14469
2443,4.551,2.7273,0,0.00063489,6344.5,0.00023584,0.90665,0.00016365,-541.48,-0.00064234,-6597.4,0.1585
2444,4.7345,2.7273,0,0.0005915,5910.9,0.00022199,0.67098,0.00014832,-552.86,-0.00059894,-6167.5,0.17274
2445,4.918,2.7273,0,0.00055746,5570.7,0.00021032,0.48996,0.00013777,-544.63,-0.00056471,-5822.8,0.18738
2446,5.1015,2.7273,0,0.00053051,5301.4,0.00020042,0.35497,0.0001306,-524.27,-0.00053747,-5543.9,0.2024
2447,5.285,2.7273,0,0.00050894,5085.8,0.00019198,0.25586,0.00012582,-496.84,-0.00051556,-5315.9,0.21779
2448,5.4684,2.7273,0,0.00049144,4911,0.00018471,0.18364,0.0001227,-465.73,-0.0004977,-5127.2,0.23352
2449,5.6519,2.7273,0,0.00047705,4767.2,0.00017841,0.13123,0.00012074,-433.15,-0.00048294,-4968.9,0.24959
2450,5.8354,2.7273,0,0.00046502,4647,0.00017288,0.093255,0.00011955,-400.57,-0.00047053,-4834.3,0.26598
2451,6.0189,2.7273,0,0.00045478,4544.7,0.00016798,0.065782,0.00011888,-368.87,-0.00045993,-4717.9,0.28269
2452,6.2024,2.7273,0,0.00044591,4456.1,0.00016361,0.04594,0.00011853,-338.63,-0.00045071,-4615.7,0.29971
2453,6.3858,2.7273,0,0.00043808,4377.8,0.00015966,0.031649,0.00011838,-310.15,-0.00044253,-4524.6,0.31703
2454,6.5693,2.7273,0,0.00043103,4307.3,0.00015606,0.021403,0.00011831,-283.58,-0.00043515,-4442.1,0.33465
2455,6.7528,2.7273,0,0.00042457,4242.8,0.00015274,0.014106,0.00011827,-258.95,-0.00042838,-4366.3,0.35257
2456,6.9363,2.7273,0,0.00041855,4182.6,0.00014966,0.0089649,0.00011822,-236.23,-0.00042207,-4295.7,0.37077
2457,7.1198,2.7273,0,0.00041286,4125.8,0.00014677,0.0053958,0.00011811,-215.36,-0.0004161,-4229.2,0.38926
2458,7.3032,2.7273,0,0.00040742,4071.3,0.00014405,0.0029728,0.00011793,-196.22,-0.0004104,-4165.9,0.40803
2459,7.4867,2.7273,0,0.00040215,4018.7,0.00014146,0.0013823,0.00011768,-178.71,-0.00040489,-4105.1,0.42707
2460,7.6702,2.7273,0,0.00039701,3967.3,0.00013899,0.00039466,0.00011734,-162.7,-0.00039953,-4046.2,0.44639
2461,7.8537,2.7273,0,0.00039196,3916.9,0.00013661,-0.00016096,0.0001169,-148.08,-0.00039427,-3988.8,0.46597
2462,8.0372,2.7273,0,0.00038698,3867.1,0.00013432,-0.00040837,0.00011639,-134.72,-0.00038909,-3932.7,0.48582
2463,8.2206,2.7273,0,0.00038204,3817.7,0.00013209,-0.0004392,0.00011579,-122.53,-0.00038397,-3877.5,0.50594
2464,8.4041,2.7273,0,0.00037713,3768.7,0.00012993,-0.00032197,0.0001151,-111.39,-0.0003789,-3823.1,0.52631
2465,8.5876,2.7273,0,0.00037223,3719.8,0.00012782,-0.0001041,0.00011435,-101.21,-0.00037385,-3769.3,0.54693
2466,8.7711,2.7273,0,0.00036735,3671,0.00012575,0.00017736,0.00011352,-91.899,-0.00036883,-3716,0.56781
2467,8.9546,2.7273,0,0.00036247,3622.2,0.00012372,0.00049803,0.00011262,-83.384,-0.00036382,-3663.2,0.58894
2468,9.1381,2.7273,0,0.00035759,3573.5,0.00012173,0.00083921,0.00011167,-75.59,-0.00035882,-3610.7,0.61031
2469,9.3215,2.7273,0,0.00035272,3524.7,0.00011977,0.0011884,0.00011066,-68.45,-0.00035383,-3558.4,0.63192
2470,9.505,2.7273,0,0.00034784,3476,0.00011784,0.0015363,0.0001096,-61.905,-0.00034885,-3506.5,0.65377
2471,9.6885,2.7273,0,0.00034296,3427.2,0.00011593,0.0018803,0.00010849,-55.9,-0.00034387,-3454.8,0.67586
2472,9.872,2.7273,0,0.00033807,3378.4,0.00011405,0.0022075,0.00010734,-50.388,-0.0003389,-3403.3,0.69818
2473,10.055,2.7273,0,0.00033319,3329.6,0.00011219,0.0025356,0.00010616,-45.323,-0.00033394,-3352,0.72072
2474,10.239,2.7273,0,0.00032831,3280.8,0.00011035,0.0028472,0.00010494,-40.666,-0.00032898,-3300.9,0.7435
2475,10.422,2.7273,0,0.00032342,3232,0.00010853,0.0031138,0.00010368,-36.382,-0.00032403,-3250,0.76649
2476,10.606,2.7273,0,0.00031854,3183.2,0.00010672,0.0033843,0.0001024,-32.437,-0.00031908,-3199.3,0.7897
2477,10.789,2.7273,0,0.00031366,3134.5,0.00010493,0.003657,0.0001011,-28.802,-0.00031414,-3148.8,0.81312
2478,10.973,2.7273,0,0.00030879,3085.8,0.00010316,0.00394,9.9771e-05,-25.45,-0.00030921,-3098.4,0.83676
2479,11.156,2.7273,0,0.00030392,3037.1,0.0001014,0.0041673,9.8423e-05,-22.357,-0.00030429,-3048.2,0.86061
2480,11.34,2.7273,0,0.00029905,2988.5,9.9653e-05,0.0043829,9.7057e-05,-19.5,-0.00029938,-2998.2,0.88466
2481,11.523,2.7273,0,0.0002942,2939.9,9.7919e-05,0.0046399,9.5675e-05,-16.858,-0.00029448,-2948.3,0.90891
2482,11.707,2.7273,0,0.00028935,2891.5,9.6198e-05,0.0048503,9.4279e-05,-14.415,-0.00028959,-2898.7,0.93336
2483,11.89,2.7273,0,0.00028451,2843.1,9.4489e-05,0.0050635,9.2871e-05,-12.151,-0.00028471,-2849.2,0.958
2484,12.074,2.7273,0,0.00027968,2794.8,9.2791e-05,0.0052806,9.1453e-05,-10.053,-0.00027985,-2799.8,0.98284
2485,12.257,2.7273,0,0.00027486,2746.7,9.1104e-05,0.0054673,9.0025e-05,-8.1048,-0.00027499,-2750.7,1.0079
2486,12.441,2.7273,0,0.00027005,2698.6,8.9428e-05,0.005676,8.8589e-05,-6.294,-0.00027015,-2701.7,1.0331
2487,12.624,2.7273,0,0.00026525,2650.7,8.7761e-05,0.0059139,8.7147e-05,-4.6085,-0.00026533,-2653,1.0585
2488,12.808,2.7273,0,0.00026047,2602.9,8.6105e-05,0.0062149,8.57e-05,-3.0367,-0.00026052,-2604.4,1.084
2489,12.991,2.7273,0,0.00025569,2555.2,8.4457e-05,0.0066455,8.4248e-05,-1.5686,-0.00025572,-2556,1.1098
2490,13.175,2.7273,0,0.00025094,2507.6,8.282e-05,0.010539,8.2792e-05,-0.19763,-0.00025094,-2507.7,1.1357
2491,13.358,2.7273,0,0.00024619,2460.2,8.1335e-05,1.0976,8.119e-05,0.005648,-0.00024618,-2459.7,1.1618
2492,13.542,2.7273,0,0.00024147,2413,7.9876e-05,2.3111,7.957e-05,0.0062362,-0.00024143,-2411.8,1.188
2493,13.725,2.7273,0,0.00023675,2365.9,7.8417e-05,3.4567,7.7958e-05,0.0065343,-0.00023669,-2364.2,1.2145
2494,13.909,2.7273,0,0.00023206,2319,7.6958e-05,4.5415,7.6354e-05,0.006778,-0.00023198,-2316.7,1.241
2495,14.092,2.7273,0,0.00022738,2272.2,7.5499e-05,5.5725,7.4758e-05,0.0069646,-0.00022728,-2269.4,1.2678
2496,14.276,2.7273,0,0.00022271,2225.6,7.4042e-05,6.5566,7.3171e-05,0.0071798,-0.0002226,-2222.3,1.2946
2497,14.459,2.7273,0,0.00021807,2179.1,7.2588e-05,7.4999,7.159e-05,0.0073918,-0.00021794,-2175.4,1.3217
2498,14.642,2.7273,0,0.00021344,2132.9,7.1136e-05,8.4086,7.0018e-05,0.0075693,-0.00021329,-2128.7,1.3489
2499,14.826,2.7273,0,0.00020883,2086.8,6.9687e-05,9.2885,6.8452e-05,0.0077637,-0.00020867,-2082.1,1.3762
2500,15.009,2.7273,0,0.00020423,2040.9,6.8243e-05,10.145,6.6894e-05,0.0079739,-0.00020406,-2035.8,1.4036
2501,15.193,2.7273,0,0.00019966,1995.2,6.6804e-05,10.984,6.5343e-05,0.0081998,-0.00019947,-1989.7,1.4313
2502,15.376,2.7273,0,0.0001951,1949.7,6.5369e-05,11.811,6.3799e-05,0.0084107,-0.0001949,-1943.7,1.459
2503,15.56,2.7273,0,0.00019057,1904.4,6.3941e-05,12.631,6.2261e-05,0.0086293,-0.00019035,-1898,1.4869
2504,15.743,2.7273,0,0.00018605,1859.2,6.2519e-05,13.449,6.073e-05,0.0088637,-0.00018582,-1852.5,1.5149
2505,15.927,2.7273,0,0.00018155,1814.3,6.1103e-05,14.271,5.9205e-05,0.0090822,-0.00018131,-1807.1,1.543
2506,16.11,2.7273,0,0.00017708,1769.6,5.9695e-05,15.102,5.7687e-05,0.0093397,-0.00017682,-1762,1.5712
2507,16.294,2.7273,0,0.00017262,1725,5.8296e-05,15.946,5.6175e-05,0.0096072,-0.00017235,-1717,1.5996
2508,16.477,2.7273,0,0.00016819,1680.7,5.6904e-05,16.81,5.4668e-05,0.0098605,-0.0001679,-1672.2,1.6281
2509,16.661,2.7273,0,0.00016378,1636.6,5.5522e-05,17.7,5.3168e-05,0.010142,-0.00016347,-1627.7,1.6566
2510,16.844,2.7273,0,0.00015938,1592.7,5.4149e-05,18.619,5.1673e-05,0.010444,-0.00015906,-1583.3,1.6853
2511,17.028,2.7273,0,0.00015502,1549.1,5.2787e-05,19.576,5.0183e-05,0.010773,-0.00015467,-1539.2,1.7142
2512,17.211,2.7273,0,0.00015067,1505.6,5.1436e-05,20.575,4.8699e-05,0.011101,-0.00015031,-1495.2,1.7431
2513,17.395,2.7273,0,0.00014635,1462.4,5.0096e-05,21.623,4.722e-05,0.011454,-0.00014597,-1451.5,1.7721
2514,17.578,2.7273,0,0.00014205,1419.5,4.8769e-05,22.727,4.5746e-05,0.01183,-0.00014164,-1408,1.8012
2515,17.762,2.7273,0,0.00013777,1376.7,4.7454e-05,23.893,4.4276e-05,0.012212,-0.00013735,-1364.6,1.8304
2516,17.945,2.7273,0,0.00013352,1334.3,4.6154e-05,25.13,4.2811e-05,0.01264,-0.00013307,-1321.5,1.8597
2517,18.129,2.7273,0,0.00012929,1292,4.4868e-05,26.444,4.135e-05,0.013099,-0.00012882,-1278.6,1.8891
2518,18.312,2.7273,0,0.00012509,1250,4.3598e-05,27.845,3.9894e-05,0.013567,-0.00012459,-1235.9,1.9186
2519,18.496,2.7273,0,0.00012091,1208.3,4.2344e-05,29.341,3.8441e-05,0.014078,-0.00012039,-1193.4,1.9481
2520,18.679,2.7273,0,0.00011677,1166.9,4.1107e-05,30.942,3.6991e-05,0.014638,-0.00011621,-1151.1,1.9778
2521,18.863,2.7273,0,0.00011264,1125.7,3.9889e-05,32.657,3.5545e-05,0.015243,-0.00011205,-1109,2.0075
2522,19.046,2.7273,0,0.00010855,1084.8,3.869e-05,34.497,3.4101e-05,0.01588,-0.00010792,-1067.1,2.0373
2523,19.229,2.7273,0,0.00010449,1044.2,3.7512e-05,36.475,3.266e-05,0.016574,-0.00010382,-1025.4,2.0671
2524,19.413,2.7273,0,0.00010045,1003.9,3.6356e-05,38.601,3.1221e-05,0.017328,-9.9742e-05,-983.99,2.0971
2525,19.596,2.7273,0,9.6452e-05,963.85,3.5223e-05,40.89,2.9784e-05,0.018133,-9.5691e-05,-942.75,2.1271
2526,19.78,2.7273,0,9.2481e-05,924.17,3.4115e-05,43.355,2.8348e-05,0.019029,-9.1667e-05,-901.72,2.1572
2527,19.963,2.7273,0,8.8543e-05,884.82,3.3033e-05,46.01,2.6912e-05,0.020006,-8.7671e-05,-860.91,2.1873
2528,20.147,2.7273,0,8.464e-05,845.82,3.1979e-05,48.872,2.5477e-05,0.021062,-8.3702e-05,-820.31,2.2175
2529,20.33,2.7273,0,8.0772e-05,807.16,3.0954e-05,51.957,2.4042e-05,0.022235,-7.9762e-05,-779.92,2.2477
2530,20.514,2.7273,0,7.6942e-05,768.88,2.996e-05,55.283,2.2605e-05,0.023534,-7.5852e-05,-739.74,2.278
2531,20.697,2.7273,0,7.315e-05,730.99,2.8998e-05,58.867,2.1167e-05,0.024978,-7.197e-05,-699.77,2.3084
2532,20.881,2.7273,0,6.9399e-05,693.51,2.8072e-05,62.731,1.9726e-05,0.026584,-6.8118e-05,-660,2.3388
2533,21.064,2.7273,0,6.569e-05,656.45,2.7181e-05,66.892,1.8282e-05,0.028388,-6.4296e-05,-620.43,2.3692
2534,21.248,2.7273,0,6.2027e-05,619.84,2.6329e-05,71.372,1.6834e-05,0.030436,-6.0503e-05,-581.05,2.3997
2535,21.431,2.7273,0,5.8411e-05,583.71,2.5517e-05,76.192,1.5381e-05,0.03276,-5.674e-05,-541.86,2.4302
2536,21.615,2.7273,0,5.4846e-05,548.08,2.4747e-05,81.372,1.3921e-05,0.035448,-5.3007e-05,-502.84,2.4608
2537,21.798,2.7273,0,5.1336e-05,513.01,2.402e-05,86.934,1.2455e-05,0.038585,-4.9301e-05,-463.97,2.4914
2538,21.982,2.7273,0,4.7886e-05,478.53,2.3338e-05,92.896,1.098e-05,0.042279,-4.5624e-05,-425.25,2.522
2539,22.165,2.7273,0,4.45e-05,444.7,2.2701e-05,99.277,9.4946e-06,0.046729,-4.1972e-05,-386.65,2.5527
2540,22.349,2.7273,0,4.1188e-05,411.6,2.2112e-05,106.09,7.9985e-06,0.052179,-3.8344e-05,-348.15,2.5834
2541,22.532,2.7273,0,3.7959e-05,379.33,2.1569e-05,113.36,6.49e-06,0.059062,-3.4738e-05,-309.71,2.6141
2542,22.716,2.7273,0,3.4828e-05,348.04,2.1074e-05,121.09,4.9675e-06,0.067836,-3.115e-05,-271.31,2.6449
2543,22.899,2.7273,0,3.1814e-05,317.92,2.0625e-05,129.28,3.4297e-06,0.080164,-2.7578e-05,-232.9,2.6756
2544,23.083,2.7273,0,2.8945e-05,289.25,2.0222e-05,137.95,1.8753e-06,0.095443,-2.4017e-05,-194.45,2.7064
2545,23.266,2.7273,0,2.6262e-05,262.44,1.9863e-05,147.09,3.0398e-07,0.12721,-2.0463e-05,-155.91,2.7372
2546,23.45,2.7273,0,2.382e-05,238.03,1.9546e-05,156.68,-1.2877e-06,0.1453,-1.6911e-05,-117.25,2.768
2547,23.633,2.7273,0,2.1698e-05,216.83,1.9268e-05,166.78,-2.8847e-06,0.33187,-1.3366e-05,-78.417,2.7988
2548,23.817,2.7273,0,1.9995e-05,199.81,1.9025e-05,177.13,-4.5209e-06,0.21426,-9.817e-06,-39.579,2.8297
2549,3.4501,2.5455,0,0.0012765,12756,0.00047446,644.69,0.00038934,5.1518,-0.0012642,-12419,0.083235
2550,3.6336,2.5455,0,0.0011092,11084,0.00038881,273.53,0.00035237,-0.29246,-0.0011043,-10945,0.094191
2551,3.8171,2.5455,0,0.00095561,9549.6,0.00031837,4.3345,0.00031064,-53.748,-0.00095644,-9574.1,0.10588
2552,4.0006,2.5455,0,0.0008357,8351.2,0.00028917,2.1549,0.0002531,-268.81,-0.00083991,-8481.3,0.11819
2553,4.1841,2.5455,0,0.00074504,7445.3,0.00026565,1.6874,0.00021191,-402.09,-0.00075103,-7637.3,0.13107
2554,4.3676,2.5455,0,0.00067644,6759.7,0.00024652,1.2104,0.00018292,-476.64,-0.00068326,-6984.8,0.14445
2555,4.551,2.5455,0,0.000624,6235.7,0.00023081,0.92943,0.00016261,-511.5,-0.0006311,-6475.2,0.15828
2556,4.7345,2.5455,0,0.00058341,5830.1,0.00021777,0.69094,0.00014845,-520.14,-0.0005905,-6072.3,0.17254
2557,4.918,2.5455,0,0.0005516,5512.2,0.00020684,0.51393,0.00013864,-511.87,-0.00055851,-5750,0.1872
2558,5.1015,2.5455,0,0.00052636,5259.9,0.00019758,0.37978,0.00013191,-493.02,-0.000533,-5488.9,0.20223
2559,5.285,2.5455,0,0.00050605,5057,0.00018966,0.27953,0.00012735,-467.94,-0.00051238,-5274.6,0.21762
2560,5.4684,2.5455,0,0.00048949,4891.6,0.00018283,0.20493,0.00012431,-439.51,-0.00049548,-5096.4,0.23336
2561,5.6519,2.5455,0,0.00047578,4754.5,0.00017688,0.14966,0.00012233,-409.7,-0.00048142,-4946.1,0.24943
2562,5.8354,2.5455,0,0.00046424,4639.2,0.00017164,0.10883,0.00012108,-379.78,-0.00046953,-4817.4,0.26582
2563,6.0189,2.5455,0,0.00045436,4540.4,0.00016697,0.078742,0.0001203,-350.58,-0.0004593,-4705.5,0.28253
2564,6.2024,2.5455,0,0.00044573,4454.2,0.00016279,0.056621,0.00011984,-322.6,-0.00045034,-4606.7,0.29955
2565,6.3858,2.5455,0,0.00043807,4377.7,0.00015899,0.040404,0.00011957,-296.16,-0.00044235,-4518.2,0.31688
2566,6.5693,2.5455,0,0.00043113,4308.3,0.00015551,0.02856,0.00011938,-271.38,-0.0004351,-4437.6,0.3345
2567,6.7528,2.5455,0,0.00042474,4244.5,0.00015229,0.019953,0.00011923,-248.34,-0.00042842,-4363.2,0.35241
2568,6.9363,2.5455,0,0.00041877,4184.8,0.00014929,0.013744,0.00011907,-227.01,-0.00042217,-4293.7,0.37062
2569,7.1198,2.5455,0,0.00041311,4128.2,0.00014647,0.0093072,0.00011887,-207.34,-0.00041624,-4228,0.3891
2570,7.3032,2.5455,0,0.00040767,4073.9,0.0001438,0.0061797,0.00011861,-189.24,-0.00041056,-4165.2,0.40787
2571,7.4867,2.5455,0,0.00040241,4021.3,0.00014125,0.004018,0.00011828,-172.63,-0.00040506,-4104.8,0.42691
2572,7.6702,2.5455,0,0.00039726,3969.9,0.00013882,0.0025651,0.00011787,-157.4,-0.0003997,-4046.2,0.44623
2573,7.8537,2.5455,0,0.0003922,3919.3,0.00013647,0.0016315,0.00011738,-143.45,-0.00039445,-3989.1,0.46582
2574,8.0372,2.5455,0,0.00038721,3869.4,0.0001342,0.001074,0.00011681,-130.67,-0.00038926,-3933.1,0.48567
2575,8.2206,2.5455,0,0.00038225,3819.9,0.00013199,0.00078899,0.00011616,-118.97,-0.00038414,-3878,0.50578
2576,8.4041,2.5455,0,0.00037733,3770.7,0.00012984,0.00069729,0.00011543,-108.26,-0.00037905,-3823.6,0.52615
2577,8.5876,2.5455,0,0.00037242,3721.6,0.00012774,0.00074293,0.00011464,-98.448,-0.000374,-3769.9,0.54678
2578,8.7711,2.5455,0,0.00036752,3672.7,0.00012569,0.00088172,0.00011378,-89.459,-0.00036896,-3716.6,0.56766
2579,8.9546,2.5455,0,0.00036263,3623.8,0.00012367,0.0010837,0.00011286,-81.221,-0.00036394,-3663.7,0.58879
2580,9.1381,2.5455,0,0.00035774,3574.9,0.00012168,0.0013257,0.00011188,-73.666,-0.00035894,-3611.2,0.61016
2581,9.3215,2.5455,0,0.00035285,3526.1,0.00011973,0.0015925,0.00011085,-66.734,-0.00035394,-3559,0.63178
2582,9.505,2.5455,0,0.00034796,3477.2,0.00011781,0.0018716,0.00010977,-60.37,-0.00034895,-3507,0.65363
2583,9.6885,2.5455,0,0.00034307,3428.3,0.0001159,0.0021579,0.00010865,-54.524,-0.00034397,-3455.3,0.67572
2584,9.872,2.5455,0,0.00033818,3379.5,0.00011403,0.0024366,0.00010748,-49.151,-0.00033899,-3403.8,0.69804
2585,10.055,2.5455,0,0.00033329,3330.6,0.00011217,0.0027241,0.00010628,-44.209,-0.00033402,-3352.5,0.72058
2586,10.239,2.5455,0,0.0003284,3281.7,0.00011033,0.0030016,0.00010505,-39.66,-0.00032905,-3301.4,0.74336
2587,10.422,2.5455,0,0.00032351,3232.8,0.00010851,0.0032398,0.00010379,-35.472,-0.0003241,-3250.4,0.76635
2588,10.606,2.5455,0,0.00031862,3184,0.00010671,0.0034862,0.0001025,-31.612,-0.00031915,-3199.7,0.78956
2589,10.789,2.5455,0,0.00031374,3135.2,0.00010492,0.003741,0.00010119,-28.053,-0.0003142,-3149.1,0.81299
2590,10.973,2.5455,0,0.00030886,3086.4,0.00010315,0.0040096,9.985e-05,-24.768,-0.00030927,-3098.7,0.83663
2591,11.156,2.5455,0,0.00030398,3037.7,0.00010139,0.0042254,9.8496e-05,-21.735,-0.00030435,-3048.5,0.86048
2592,11.34,2.5455,0,0.00029911,2989.1,9.9644e-05,0.0044342,9.7124e-05,-18.933,-0.00029943,-2998.5,0.88453
2593,11.523,2.5455,0,0.00029425,2940.5,9.7912e-05,0.0046887,9.5737e-05,-16.341,-0.00029453,-2948.6,0.90878
2594,11.707,2.5455,0,0.0002894,2892,9.6192e-05,0.0049013,9.4336e-05,-13.941,-0.00028963,-2898.9,0.93323
2595,11.89,2.5455,0,0.00028456,2843.6,9.4484e-05,0.0051228,9.2924e-05,-11.718,-0.00028475,-2849.4,0.95788
2596,12.074,2.5455,0,0.00027972,2795.3,9.2787e-05,0.0053558,9.1501e-05,-9.6561,-0.00027989,-2800.1,0.98272
2597,12.257,2.5455,0,0.0002749,2747.1,9.1101e-05,0.0055713,9.007e-05,-7.7414,-0.00027503,-2751,1.0077
2598,12.441,2.5455,0,0.00027009,2699,8.9425e-05,0.0058313,8.8631e-05,-5.961,-0.00027019,-2702,1.033
2599,12.624,2.5455,0,0.00026529,2651.1,8.7759e-05,0.0061635,8.7185e-05,-4.3033,-0.00026536,-2653.2,1.0584
2600,12.808,2.5455,0,0.0002605,2603.2,8.6103e-05,0.006666,8.5735e-05,-2.7572,-0.00026055,-2604.6,1.0839
2601,12.991,2.5455,0,0.00025573,2555.5,8.4456e-05,0.0077659,8.4281e-05,-1.3131,-0.00025575,-2556.2,1.1097
2602,13.175,2.5455,0,0.00025097,2508,8.2828e-05,0.076013,8.2814e-05,-0.028048,-0.00025097,-2507.9,1.1356
2603,13.358,2.5455,0,0.00024623,2460.6,8.1364e-05,1.3139,8.119e-05,0.0044727,-0.0002462,-2459.9,1.1617
2604,13.542,2.5455,0,0.0002415,2413.3,7.9903e-05,2.5085,7.957e-05,0.0055035,-0.00024145,-2412,1.1879
2605,13.725,2.5455,0,0.00023678,2366.2,7.8442e-05,3.6367,7.7958e-05,0.0059671,-0.00023672,-2364.4,1.2144
2606,13.909,2.5455,0,0.00023208,2319.2,7.6981e-05,4.7053,7.6355e-05,0.0062894,-0.000232,-2316.9,1.2409
2607,14.092,2.5455,0,0.0002274,2272.5,7.552e-05,5.7212,7.476e-05,0.0065246,-0.0002273,-2269.6,1.2677
2608,14.276,2.5455,0,0.00022274,2225.8,7.4062e-05,6.691,7.3172e-05,0.0067699,-0.00022262,-2222.5,1.2945
2609,14.459,2.5455,0,0.00021809,2179.4,7.2606e-05,7.6208,7.1593e-05,0.0070014,-0.00021796,-2175.6,1.3216
2610,14.642,2.5455,0,0.00021346,2133.1,7.1153e-05,8.5165,7.002e-05,0.0071923,-0.00021331,-2128.9,1.3488
2611,14.826,2.5455,0,0.00020885,2087,6.9703e-05,9.3841,6.8455e-05,0.0073977,-0.00020869,-2082.3,1.3761
2612,15.009,2.5455,0,0.00020425,2041.1,6.8258e-05,10.229,6.6897e-05,0.0076131,-0.00020408,-2036,1.4036
2613,15.193,2.5455,0,0.00019968,1995.4,6.6817e-05,11.056,6.5346e-05,0.0078428,-0.00019949,-1989.9,1.4312
2614,15.376,2.5455,0,0.00019512,1949.9,6.5381e-05,11.872,6.3802e-05,0.0080563,-0.00019492,-1943.9,1.4589
2615,15.56,2.5455,0,0.00019059,1904.5,6.3952e-05,12.68,6.2265e-05,0.0082778,-0.00019037,-1898.2,1.4868
2616,15.743,2.5455,0,0.00018607,1859.4,6.2528e-05,13.487,6.0734e-05,0.0085106,-0.00018584,-1852.6,1.5148
2617,15.927,2.5455,0,0.00018157,1814.5,6.1112e-05,14.297,5.921e-05,0.0087293,-0.00018132,-1807.3,1.5429
2618,16.11,2.5455,0,0.0001771,1769.7,5.9702e-05,15.116,5.7692e-05,0.0089852,-0.00017683,-1762.1,1.5711
2619,16.294,2.5455,0,0.00017264,1725.2,5.8301e-05,15.949,5.618e-05,0.0092511,-0.00017236,-1717.2,1.5995
2620,16.477,2.5455,0,0.0001682,1680.9,5.6909e-05,16.801,5.4674e-05,0.0095021,-0.00016791,-1672.4,1.628
2621,16.661,2.5455,0,0.00016379,1636.8,5.5525e-05,17.677,5.3173e-05,0.0097796,-0.00016348,-1627.9,1.6566
2622,16.844,2.5455,0,0.0001594,1592.9,5.4151e-05,18.583,5.1679e-05,0.01008,-0.00015907,-1583.5,1.6853
2623,17.028,2.5455,0,0.00015503,1549.2,5.2787e-05,19.525,5.019e-05,0.010404,-0.00015469,-1539.3,1.7141
2624,17.211,2.5455,0,0.00015068,1505.8,5.1434e-05,20.509,4.8706e-05,0.01073,-0.00015032,-1495.4,1.743
2625,17.395,2.5455,0,0.00014636,1462.5,5.0093e-05,21.541,4.7227e-05,0.011076,-0.00014598,-1451.6,1.772
2626,17.578,2.5455,0,0.00014205,1419.6,4.8763e-05,22.628,4.5753e-05,0.011448,-0.00014166,-1408.1,1.8011
2627,17.762,2.5455,0,0.00013778,1376.8,4.7447e-05,23.776,4.4284e-05,0.011826,-0.00013736,-1364.8,1.8303
2628,17.945,2.5455,0,0.00013352,1334.3,4.6144e-05,24.992,4.282e-05,0.012248,-0.00013308,-1321.6,1.8596
2629,18.129,2.5455,0,0.00012929,1292,4.4856e-05,26.285,4.1359e-05,0.0127,-0.00012883,-1278.7,1.889
2630,18.312,2.5455,0,0.00012509,1250,4.3583e-05,27.662,3.9903e-05,0.013162,-0.0001246,-1236,1.9185
2631,18.496,2.5455,0,0.00012091,1208.3,4.2326e-05,29.133,3.8451e-05,0.013669,-0.00012039,-1193.5,1.9481
2632,18.679,2.5455,0,0.00011676,1166.8,4.1087e-05,30.706,3.7002e-05,0.014219,-0.00011621,-1151.2,1.9777
2633,18.863,2.5455,0,0.00011264,1125.6,3.9865e-05,32.391,3.5556e-05,0.014815,-0.00011205,-1109.1,2.0074
2634,19.046,2.5455,0,0.00010854,1084.7,3.8663e-05,34.199,3.4113e-05,0.01545,-0.00010792,-1067.2,2.0372
2635,19.229,2.5455,0,0.00010448,1044,3.7481e-05,36.141,3.2673e-05,0.016131,-0.00010381,-1025.5,2.0671
2636,19.413,2.5455,0,0.00010044,1003.7,3.632e-05,38.229,3.1235e-05,0.01688,-9.9734e-05,-984.03,2.097
2637,19.596,2.5455,0,9.6433e-05,963.66,3.5183e-05,40.476,2.9798e-05,0.017678,-9.568e-05,-942.78,2.127
2638,19.78,2.5455,0,9.2458e-05,923.94,3.407e-05,42.895,2.8363e-05,0.018561,-9.1653e-05,-901.74,2.1571
2639,19.963,2.5455,0,8.8515e-05,884.54,3.2982e-05,45.501,2.6929e-05,0.019529,-8.7653e-05,-860.91,2.1872
2640,20.147,2.5455,0,8.4607e-05,845.49,3.1922e-05,48.309,2.5495e-05,0.020576,-8.3681e-05,-820.29,2.2174
2641,20.33,2.5455,0,8.0734e-05,806.78,3.089e-05,51.337,2.4061e-05,0.021735,-7.9738e-05,-779.88,2.2477
2642,20.514,2.5455,0,7.6897e-05,768.44,2.9889e-05,54.6,2.2625e-05,0.023026,-7.5823e-05,-739.68,2.278
2643,20.697,2.5455,0,7.3099e-05,730.49,2.8921e-05,58.119,2.1189e-05,0.02446,-7.1937e-05,-699.68,2.3083
2644,20.881,2.5455,0,6.9341e-05,692.94,2.7986e-05,61.911,1.975e-05,0.026058,-6.808e-05,-659.89,2.3387
2645,21.064,2.5455,0,6.5626e-05,655.8,2.7087e-05,65.997,1.8307e-05,0.027854,-6.4253e-05,-620.3,2.3692
2646,21.248,2.5455,0,6.1955e-05,619.12,2.6227e-05,70.398,1.6861e-05,0.029887,-6.0456e-05,-580.9,2.3997
2647,21.431,2.5455,0,5.8331e-05,582.91,2.5406e-05,75.135,1.541e-05,0.032203,-5.6688e-05,-541.68,2.4302
2648,21.615,2.5455,0,5.4758e-05,547.2,2.4626e-05,80.229,1.3953e-05,0.034883,-5.295e-05,-502.64,2.4608
2649,21.798,2.5455,0,5.1239e-05,512.04,2.389e-05,85.703,1.2489e-05,0.038008,-4.924e-05,-463.77,2.4914
2650,21.982,2.5455,0,4.778e-05,477.47,2.3198e-05,91.577,1.1016e-05,0.041697,-4.5558e-05,-425.03,2.522
2651,22.165,2.5455,0,4.4386e-05,443.55,2.2553e-05,97.87,9.5336e-06,0.046134,-4.1903e-05,-386.43,2.5527
2652,22.349,2.5455,0,4.1065e-05,410.37,2.1955e-05,104.6,8.0404e-06,0.051575,-3.8272e-05,-347.93,2.5834
2653,22.532,2.5455,0,3.7827e-05,378.01,2.1405e-05,111.79,6.5347e-06,0.058442,-3.4664e-05,-309.5,2.6141
2654,22.716,2.5455,0,3.4688e-05,346.64,2.0903e-05,119.44,5.0152e-06,0.067187,-3.1076e-05,-271.11,2.6448
2655,22.899,2.5455,0,3.1665e-05,316.43,2.0448e-05,127.57,3.4804e-06,0.07948,-2.7504e-05,-232.72,2.6756
2656,23.083,2.5455,0,2.8788e-05,287.69,2.0041e-05,136.18,1.9288e-06,0.094707,-2.3944e-05,-194.3,2.7064
2657,23.266,2.5455,0,2.6097e-05,260.79,1.9678e-05,145.27,3.6018e-07,0.12638,-2.0392e-05,-155.8,2.7372
2658,23.45,2.5455,0,2.3647e-05,236.31,1.9359e-05,154.83,-1.2291e-06,0.14435,-1.6844e-05,-117.18,2.768
2659,23.633,2.5455,0,2.1518e-05,215.04,1.908e-05,164.91,-2.8241e-06,0.33049,-1.3301e-05,-78.391,2.7988
2660,23.817,2.5455,0,1.9811e-05,197.98,1.8839e-05,175.26,-4.4588e-06,0.21136,-9.7569e-06,-39.596,2.8297
2661,3.4501,2.3636,0,0.001377,13761,0.00052436,830.53,0.00041058,-24.387,-0.0013613,-13338,0.08235
2662,3.6336,2.3636,0,0.0011128,11120,0.00039149,284.59,0.00035201,-12.104,-0.0011078,-10981,0.093453
2663,3.8171,2.3636,0,0.0009304,9297.6,0.00031009,9.5627,0.00030273,-45.736,-0.000931,-9315.5,0.10527
2664,4.0006,2.3636,0,0.00080632,8057.6,0.00027822,2.1295,0.00024556,-243.25,-0.00081014,-8175.4,0.1177
2665,4.1841,2.3636,0,0.00071957,7190.7,0.00025528,1.9977,0.00020696,-361.07,-0.00072499,-7363.3,0.13065
2666,4.3676,2.3636,0,0.00065624,6557.9,0.00023748,1.4322,0.00018047,-426.95,-0.00066243,-6760.2,0.14409
2667,4.551,2.3636,0,0.00060867,6082.5,0.00022323,1.036,0.00016206,-458.57,-0.00061515,-6298.2,0.15796
2668,4.7345,2.3636,0,0.00057207,5716.7,0.00021153,0.77887,0.0001492,-467.53,-0.00057857,-5935.7,0.17225
2669,4.918,2.3636,0,0.00054337,5430,0.00020174,0.57956,0.00014022,-461.71,-0.00054974,-5645.8,0.18693
2670,5.1015,2.3636,0,0.00052049,5201.4,0.00019344,0.43382,0.00013396,-446.48,-0.00052664,-5410,0.20197
2671,5.285,2.3636,0,0.00050196,5016.2,0.00018631,0.3236,0.00012963,-425.55,-0.00050784,-5215.2,0.21737
2672,5.4684,2.3636,0,0.00048672,4863.8,0.00018011,0.24111,0.00012665,-401.41,-0.00049229,-5051.9,0.23311
2673,5.6519,2.3636,0,0.00047396,4736.4,0.00017467,0.17918,0.00012463,-375.77,-0.00047923,-4913,0.24919
2674,5.8354,2.3636,0,0.00046312,4628,0.00016984,0.13284,0.00012327,-349.79,-0.00046807,-4792.9,0.26558
2675,6.0189,2.3636,0,0.00045373,4534.2,0.00016551,0.098204,0.00012235,-324.21,-0.00045838,-4687.6,0.2823
2676,6.2024,2.3636,0,0.00044546,4451.6,0.00016159,0.072379,0.00012172,-299.51,-0.0004498,-4593.7,0.29932
2677,6.3858,2.3636,0,0.00043804,4377.4,0.00015801,0.053161,0.00012128,-275.98,-0.00044208,-4508.8,0.31664
2678,6.5693,2.3636,0,0.00043127,4309.8,0.00015471,0.038898,0.00012093,-253.8,-0.00043503,-4431,0.33426
2679,6.7528,2.3636,0,0.00042499,4247,0.00015163,0.028347,0.00012062,-233.02,-0.00042848,-4358.7,0.35218
2680,6.9363,2.3636,0,0.00041909,4188,0.00014875,0.020576,0.00012031,-213.68,-0.00042231,-4290.7,0.37038
2681,7.1198,2.3636,0,0.00041346,4131.8,0.00014602,0.014884,0.00011997,-195.73,-0.00041644,-4226.1,0.38887
2682,7.3032,2.3636,0,0.00040804,4077.6,0.00014343,0.010746,0.00011959,-179.13,-0.0004108,-4164.2,0.40764
2683,7.4867,2.3636,0,0.00040278,4025,0.00014095,0.0077674,0.00011915,-163.82,-0.00040532,-4104.4,0.42668
2684,7.6702,2.3636,0,0.00039763,3973.5,0.00013856,0.0056523,0.00011864,-149.7,-0.00039996,-4046.3,0.446
2685,7.8537,2.3636,0,0.00039256,3922.8,0.00013626,0.0041809,0.00011806,-136.71,-0.0003947,-3989.4,0.46559
2686,8.0372,2.3636,0,0.00038754,3872.7,0.00013402,0.0031844,0.00011741,-124.76,-0.00038951,-3933.6,0.48544
2687,8.2206,2.3636,0,0.00038257,3823,0.00013184,0.002538,0.0001167,-113.78,-0.00038438,-3878.7,0.50555
2688,8.4041,2.3636,0,0.00037762,3773.6,0.00012972,0.0021513,0.00011592,-103.69,-0.00037928,-3824.4,0.52593
2689,8.5876,2.3636,0,0.00037269,3724.4,0.00012764,0.0019507,0.00011507,-94.409,-0.00037421,-3770.7,0.54656
2690,8.7711,2.3636,0,0.00036778,3675.2,0.0001256,0.0018871,0.00011417,-85.882,-0.00036916,-3717.4,0.56744
2691,8.9546,2.3636,0,0.00036287,3626.2,0.00012359,0.0019208,0.0001132,-78.044,-0.00036413,-3664.5,0.58857
2692,9.1381,2.3636,0,0.00035796,3577.1,0.00012162,0.0020227,0.00011219,-70.837,-0.00035911,-3612,0.60994
2693,9.3215,2.3636,0,0.00035305,3528.1,0.00011967,0.0021717,0.00011113,-64.208,-0.0003541,-3559.8,0.63156
2694,9.505,2.3636,0,0.00034815,3479.1,0.00011776,0.0023509,0.00011002,-58.109,-0.0003491,-3507.8,0.65341
2695,9.6885,2.3636,0,0.00034324,3430.1,0.00011586,0.002555,0.00010887,-52.494,-0.00034411,-3456,0.6755
2696,9.872,2.3636,0,0.00033834,3381.1,0.00011399,0.0027641,0.00010769,-47.325,-0.00033912,-3404.5,0.69782
2697,10.055,2.3636,0,0.00033344,3332.1,0.00011214,0.002994,0.00010647,-42.562,-0.00033414,-3353.1,0.72037
2698,10.239,2.3636,0,0.00032853,3283.1,0.0001103,0.003222,0.00010522,-38.172,-0.00032917,-3302,0.74315
2699,10.422,2.3636,0,0.00032363,3234.1,0.00010849,0.00342,0.00010394,-34.123,-0.0003242,-3251,0.76615
2700,10.606,2.3636,0,0.00031874,3185.2,0.00010669,0.003633,0.00010264,-30.388,-0.00031924,-3200.3,0.78936
2701,10.789,2.3636,0,0.00031385,3136.3,0.0001049,0.0038602,0.00010131,-26.941,-0.00031429,-3149.7,0.81279
2702,10.973,2.3636,0,0.00030896,3087.4,0.00010313,0.0041074,9.9969e-05,-23.756,-0.00030935,-3099.3,0.83643
2703,11.156,2.3636,0,0.00030408,3038.7,0.00010137,0.0043083,9.8604e-05,-20.812,-0.00030443,-3049,0.86028
2704,11.34,2.3636,0,0.0002992,2990,9.9632e-05,0.0045084,9.7224e-05,-18.09,-0.00029951,-2999,0.88434
2705,11.523,2.3636,0,0.00029434,2941.3,9.7901e-05,0.0047612,9.5828e-05,-15.571,-0.0002946,-2949.1,0.90859
2706,11.707,2.3636,0,0.00028948,2892.8,9.6183e-05,0.004978,9.4421e-05,-13.237,-0.0002897,-2899.4,0.93305
2707,11.89,2.3636,0,0.00028463,2844.3,9.4476e-05,0.0052145,9.3002e-05,-11.074,-0.00028482,-2849.9,0.9577
2708,12.074,2.3636,0,0.00027979,2796,9.278e-05,0.0054781,9.1573e-05,-9.0656,-0.00027994,-2800.5,0.98254
2709,12.257,2.3636,0,0.00027497,2747.8,9.1095e-05,0.0057456,9.0136e-05,-7.2003,-0.00027509,-2751.3,1.0076
2710,12.441,2.3636,0,0.00027015,2699.6,8.9421e-05,0.0060992,8.8692e-05,-5.465,-0.00027024,-2702.4,1.0328
2711,12.624,2.3636,0,0.00026535,2651.6,8.7756e-05,0.0066112,8.7243e-05,-3.8486,-0.00026541,-2653.6,1.0582
2712,12.808,2.3636,0,0.00026056,2603.8,8.6101e-05,0.0075507,8.5788e-05,-2.3407,-0.0002606,-2604.9,1.0838
2713,12.991,2.3636,0,0.00025578,2556.1,8.4455e-05,0.010601,8.433e-05,-0.93328,-0.0002558,-2556.5,1.1095
2714,13.175,2.3636,0,0.00025102,2508.5,8.2871e-05,0.40415,8.2816e-05,-0.0055477,-0.00025101,-2508.3,1.1354
2715,13.358,2.3636,0,0.00024627,2461,8.1407e-05,1.6361,8.119e-05,0.0032759,-0.00024625,-2460.2,1.1615
2716,13.542,2.3636,0,0.00024154,2413.8,7.9943e-05,2.8029,7.957e-05,0.0045873,-0.00024149,-2412.4,1.1878
2717,13.725,2.3636,0,0.00023683,2366.6,7.8479e-05,3.9054,7.796e-05,0.0052028,-0.00023676,-2364.7,1.2142
2718,13.909,2.3636,0,0.00023213,2319.7,7.7015e-05,4.95,7.6357e-05,0.0056122,-0.00023204,-2317.2,1.2408
2719,14.092,2.3636,0,0.00022744,2272.9,7.5552e-05,5.9434,7.4762e-05,0.0059009,-0.00022734,-2269.9,1.2675
2720,14.276,2.3636,0,0.00022278,2226.2,7.4092e-05,6.892,7.3175e-05,0.0061812,-0.00022266,-2222.8,1.2944
2721,14.459,2.3636,0,0.00021813,2179.8,7.2633e-05,7.8017,7.1596e-05,0.0064347,-0.00021799,-2175.9,1.3214
2722,14.642,2.3636,0,0.0002135,2133.5,7.1178e-05,8.6783,7.0024e-05,0.0066421,-0.00021335,-2129.1,1.3486
2723,14.826,2.3636,0,0.00020888,2087.4,6.9727e-05,9.5274,6.846e-05,0.0068574,-0.00020872,-2082.6,1.376
2724,15.009,2.3636,0,0.00020429,2041.5,6.8279e-05,10.354,6.6902e-05,0.0070802,-0.00020411,-2036.3,1.4034
2725,15.193,2.3636,0,0.00019971,1995.7,6.6837e-05,11.164,6.5352e-05,0.0073146,-0.00019952,-1990.1,1.431
2726,15.376,2.3636,0,0.00019515,1950.2,6.5399e-05,11.963,6.3808e-05,0.0075292,-0.00019495,-1944.2,1.4588
2727,15.56,2.3636,0,0.00019062,1904.8,6.3968e-05,12.754,6.2271e-05,0.0077515,-0.0001904,-1898.4,1.4866
2728,15.743,2.3636,0,0.0001861,1859.7,6.2542e-05,13.544,6.0741e-05,0.0079843,-0.00018586,-1852.9,1.5146
2729,15.927,2.3636,0,0.0001816,1814.7,6.1124e-05,14.338,5.9217e-05,0.0081999,-0.00018135,-1807.5,1.5428
2730,16.11,2.3636,0,0.00017712,1770,5.9713e-05,15.139,5.7699e-05,0.0084524,-0.00017686,-1762.4,1.571
2731,16.294,2.3636,0,0.00017266,1725.4,5.831e-05,15.954,5.6188e-05,0.0087166,-0.00017239,-1717.4,1.5994
2732,16.477,2.3636,0,0.00016823,1681.1,5.6915e-05,16.788,5.4682e-05,0.0089626,-0.00016794,-1672.7,1.6279
2733,16.661,2.3636,0,0.00016381,1637,5.5529e-05,17.645,5.3182e-05,0.0092353,-0.0001635,-1628.1,1.6565
2734,16.844,2.3636,0,0.00015942,1593.1,5.4153e-05,18.531,5.1688e-05,0.00953,-0.00015909,-1583.7,1.6852
2735,17.028,2.3636,0,0.00015505,1549.4,5.2787e-05,19.452,5.02e-05,0.009848,-0.00015471,-1539.6,1.714
2736,17.211,2.3636,0,0.0001507,1505.9,5.1432e-05,20.414,4.8716e-05,0.010165,-0.00015034,-1495.6,1.7429
2737,17.395,2.3636,0,0.00014637,1462.7,5.0088e-05,21.422,4.7238e-05,0.010507,-0.00014599,-1451.9,1.7719
2738,17.578,2.3636,0,0.00014207,1419.7,4.8756e-05,22.483,4.5765e-05,0.01087,-0.00014167,-1408.3,1.801
2739,17.762,2.3636,0,0.00013779,1376.9,4.7436e-05,23.603,4.4296e-05,0.011239,-0.00013737,-1365,1.8302
2740,17.945,2.3636,0,0.00013353,1334.4,4.613e-05,24.79,4.2833e-05,0.011654,-0.00013309,-1321.8,1.8595
2741,18.129,2.3636,0,0.0001293,1292.1,4.4839e-05,26.051,4.1373e-05,0.012096,-0.00012884,-1278.9,1.8889
2742,18.312,2.3636,0,0.00012509,1250.1,4.3562e-05,27.394,3.9918e-05,0.012549,-0.0001246,-1236.1,1.9184
2743,18.496,2.3636,0,0.00012091,1208.3,4.2301e-05,28.827,3.8466e-05,0.013045,-0.0001204,-1193.6,1.948
2744,18.679,2.3636,0,0.00011676,1166.8,4.1057e-05,30.359,3.7018e-05,0.013583,-0.00011621,-1151.3,1.9776
2745,18.863,2.3636,0,0.00011263,1125.5,3.983e-05,32,3.5573e-05,0.01417,-0.00011205,-1109.2,2.0074
2746,19.046,2.3636,0,0.00010853,1084.6,3.8622e-05,33.759,3.4131e-05,0.014786,-0.00010792,-1067.3,2.0371
2747,19.229,2.3636,0,0.00010446,1043.9,3.7435e-05,35.649,3.2692e-05,0.015462,-0.00010381,-1025.6,2.067
2748,19.413,2.3636,0,0.00010042,1003.5,3.6268e-05,37.679,3.1255e-05,0.016192,-9.9723e-05,-984.1,2.097
2749,19.596,2.3636,0,9.6405e-05,963.39,3.5123e-05,39.864,2.982e-05,0.016974,-9.5665e-05,-942.83,2.127
2750,19.78,2.3636,0,9.2424e-05,923.6,3.4002e-05,42.215,2.8386e-05,0.017844,-9.1633e-05,-901.76,2.157
2751,19.963,2.3636,0,8.8475e-05,884.14,3.2907e-05,44.748,2.6954e-05,0.018794,-8.7628e-05,-860.9,2.1872
2752,20.147,2.3636,0,8.4559e-05,845.01,3.1837e-05,47.477,2.5521e-05,0.019827,-8.3651e-05,-820.26,2.2174
2753,20.33,2.3636,0,8.0678e-05,806.22,3.0796e-05,50.418,2.4089e-05,0.020972,-7.9701e-05,-779.82,2.2476
2754,20.514,2.3636,0,7.6833e-05,767.8,2.9785e-05,53.589,2.2656e-05,0.022244,-7.578e-05,-739.59,2.2779
2755,20.697,2.3636,0,7.3025e-05,729.75,2.8805e-05,57.008,2.1221e-05,0.023659,-7.1888e-05,-699.56,2.3083
2756,20.881,2.3636,0,6.9257e-05,692.09,2.7859e-05,60.694,1.9785e-05,0.02524,-6.8024e-05,-659.74,2.3387
2757,21.064,2.3636,0,6.5531e-05,654.86,2.6948e-05,64.668,1.8345e-05,0.027016,-6.419e-05,-620.11,2.3691
2758,21.248,2.3636,0,6.1848e-05,618.06,2.6074e-05,68.949,1.6902e-05,0.029038,-6.0386e-05,-580.68,2.3996
2759,21.431,2.3636,0,5.8213e-05,581.72,2.524e-05,73.562,1.5454e-05,0.031339,-5.6611e-05,-541.43,2.4301
2760,21.615,2.3636,0,5.4627e-05,545.89,2.4446e-05,78.527,1.4e-05,0.034005,-5.2865e-05,-502.36,2.4607
2761,21.798,2.3636,0,5.1095e-05,510.6,2.3696e-05,83.867,1.2539e-05,0.037114,-4.9149e-05,-463.46,2.4913
2762,21.982,2.3636,0,4.7623e-05,475.9,2.2991e-05,89.606,1.107e-05,0.040785,-4.5461e-05,-424.71,2.522
2763,22.165,2.3636,0,4.4215e-05,441.85,2.2332e-05,95.766,9.592e-06,0.04521,-4.18e-05,-386.1,2.5526
2764,22.349,2.3636,0,4.0881e-05,408.53,2.1721e-05,102.37,8.103e-06,0.050628,-3.8165e-05,-347.59,2.5833
2765,22.532,2.3636,0,3.763e-05,376.04,2.1158e-05,109.43,6.6018e-06,0.057465,-3.4554e-05,-309.17,2.614
2766,22.716,2.3636,0,3.4477e-05,344.53,2.0645e-05,116.97,5.0868e-06,0.066174,-3.0964e-05,-270.81,2.6448
2767,22.899,2.3636,0,3.1442e-05,314.2,2.0182e-05,124.99,3.5565e-06,0.078409,-2.7392e-05,-232.46,2.6756
2768,23.083,2.3636,0,2.8552e-05,285.33,1.9767e-05,133.52,2.0093e-06,0.093551,-2.3833e-05,-194.08,2.7063
2769,23.266,2.3636,0,2.5849e-05,258.31,1.9399e-05,142.54,4.4481e-07,0.1251,-2.0285e-05,-155.63,2.7371
2770,23.45,2.3636,0,2.3387e-05,233.71,1.9077e-05,152.05,-1.1407e-06,0.14288,-1.6741e-05,-117.07,2.768
2771,23.633,2.3636,0,2.1248e-05,212.33,1.8797e-05,162.09,-2.7326e-06,0.32837,-1.3204e-05,-78.349,2.7988
2772,23.817,2.3636,0,1.9535e-05,195.21,1.8557e-05,172.43,-4.3651e-06,0.20691,-9.666e-06,-39.622,2.8296
2773,3.4501,2.1818,0,0.0014606,14596,0.00056941,1056.4,0.00042854,-2.0772,-0.0014398,-14040,0.081158
2774,3.6336,2.1818,0,0.001083,10823,0.00039138,438.1,0.00033964,49.357,-0.0010742,-10574,0.092491
2775,3.8171,2.1818,0,0.00088186,8812.5,0.00029818,75.032,0.00028575,-18.311,-0.00088085,-8783.7,0.10449
2776,4.0006,2.1818,0,0.00076565,7651.2,0.00026059,10.419,0.00024013,-143.33,-0.00076779,-7716.5,0.11705
2777,4.1841,2.1818,0,0.00068699,6865.2,0.0002401,2.3389,0.00020398,-269.02,-0.00069113,-6994.5,0.1301
2778,4.3676,2.1818,0,0.00063133,6309,0.00022519,2.2652,0.00017951,-340.92,-0.00063639,-6471.3,0.14361
2779,4.551,2.1818,0,0.00058994,5895.3,0.00021326,1.3278,0.00016265,-378.95,-0.00059544,-6074.9,0.15754
2780,4.7345,2.1818,0,0.00055822,5578.4,0.00020348,0.99619,0.00015087,-394.3,-0.00056386,-5764.5,0.17186
2781,4.918,2.1818,0,0.00053328,5329.2,0.00019524,0.71476,0.00014258,-394.94,-0.00053889,-5515.2,0.18656
2782,5.1015,2.1818,0,0.00051326,5129.1,0.00018819,0.53182,0.00013673,-386.1,-0.00051873,-5310.9,0.20162
2783,5.285,2.1818,0,0.00049688,4965.4,0.00018205,0.39536,0.00013258,-371.36,-0.00050215,-5140.4,0.21704
2784,5.4684,2.1818,0,0.00048324,4829.1,0.00017666,0.29563,0.00012963,-353.1,-0.00048827,-4995.8,0.23279
2785,5.6519,2.1818,0,0.00047167,4713.5,0.00017187,0.22119,0.00012753,-332.96,-0.00047645,-4871,0.24887
2786,5.8354,2.1818,0,0.00046169,4613.8,0.00016757,0.16563,0.00012602,-312.03,-0.00046621,-4761.8,0.26527
2787,6.0189,2.1818,0,0.00045293,4526.2,0.00016366,0.124,0.00012491,-291.03,-0.00045718,-4664.6,0.28198
2788,6.2024,2.1818,0,0.00044511,4448,0.00016009,0.092813,0.00012408,-270.44,-0.00044909,-4577,0.299
2789,6.3858,2.1818,0,0.000438,4377,0.00015678,0.069442,0.00012342,-250.57,-0.00044172,-4496.8,0.31633
2790,6.5693,2.1818,0,0.00043144,4311.4,0.0001537,0.051941,0.00012287,-231.62,-0.00043491,-4422.5,0.33395
2791,6.7528,2.1818,0,0.0004253,4250.1,0.0001508,0.038851,0.00012236,-213.68,-0.00042853,-4352.9,0.35186
2792,6.9363,2.1818,0,0.00041949,4192,0.00014807,0.029077,0.00012187,-196.81,-0.00042249,-4286.9,0.37007
2793,7.1198,2.1818,0,0.00041391,4136.2,0.00014546,0.021798,0.00012137,-181.02,-0.00041669,-4223.8,0.38855
2794,7.3032,2.1818,0,0.00040851,4082.3,0.00014296,0.016394,0.00012083,-166.29,-0.00041109,-4162.9,0.40732
2795,7.4867,2.1818,0,0.00040325,4029.8,0.00014056,0.012401,0.00012025,-152.6,-0.00040563,-4103.9,0.42637
2796,7.6702,2.1818,0,0.00039809,3978.2,0.00013824,0.0094688,0.00011962,-139.88,-0.00040029,-4046.3,0.44569
2797,7.8537,2.1818,0,0.00039301,3927.4,0.00013599,0.0073336,0.00011894,-128.1,-0.00039503,-3989.8,0.46527
2798,8.0372,2.1818,0,0.00038797,3877,0.00013379,0.0057967,0.00011819,-117.2,-0.00038983,-3934.3,0.48513
2799,8.2206,2.1818,0,0.00038298,3827.1,0.00013165,0.004709,0.00011739,-107.12,-0.00038468,-3879.5,0.50525
2800,8.4041,2.1818,0,0.000378,3777.4,0.00012955,0.003957,0.00011654,-97.804,-0.00037957,-3825.4,0.52562
2801,8.5876,2.1818,0,0.00037305,3727.9,0.0001275,0.0034562,0.00011563,-89.203,-0.00037449,-3771.7,0.54625
2802,8.7711,2.1818,0,0.00036811,3678.5,0.00012548,0.0031426,0.00011466,-81.262,-0.00036942,-3718.5,0.56714
2803,8.9546,2.1818,0,0.00036317,3629.2,0.00012349,0.0029672,0.00011365,-73.933,-0.00036437,-3665.6,0.58827
2804,9.1381,2.1818,0,0.00035824,3579.9,0.00012153,0.0028949,0.00011259,-67.169,-0.00035934,-3613.1,0.60964
2805,9.3215,2.1818,0,0.00035332,3530.7,0.0001196,0.0028977,0.00011149,-60.927,-0.00035431,-3560.8,0.63126
2806,9.505,2.1818,0,0.00034839,3481.5,0.00011769,0.0029549,0.00011035,-55.166,-0.0003493,-3508.8,0.65312
2807,9.6885,2.1818,0,0.00034347,3432.3,0.0001158,0.003055,0.00010917,-49.849,-0.00034429,-3457,0.67521
2808,9.872,2.1818,0,0.00033855,3383.1,0.00011394,0.0031766,0.00010796,-44.941,-0.00033929,-3405.4,0.69754
2809,10.055,2.1818,0,0.00033363,3334,0.00011209,0.0033333,0.00010671,-40.409,-0.0003343,-3354,0.72009
2810,10.239,2.1818,0,0.00032871,3284.9,0.00011026,0.0035,0.00010544,-36.224,-0.00032931,-3302.8,0.74287
2811,10.422,2.1818,0,0.0003238,3235.8,0.00010845,0.0036467,0.00010415,-32.357,-0.00032434,-3251.8,0.76587
2812,10.606,2.1818,0,0.00031889,3186.7,0.00010666,0.0038171,0.00010283,-28.784,-0.00031937,-3201,0.78909
2813,10.789,2.1818,0,0.00031399,3137.7,0.00010488,0.0040113,0.00010148,-25.481,-0.00031441,-3150.4,0.81252
2814,10.973,2.1818,0,0.00030909,3088.8,0.00010311,0.0042332,0.00010012,-22.426,-0.00030947,-3099.9,0.83617
2815,11.156,2.1818,0,0.0003042,3039.9,0.00010136,0.0044159,9.8747e-05,-19.599,-0.00030453,-3049.7,0.86002
2816,11.34,2.1818,0,0.00029932,2991.1,9.9616e-05,0.0046063,9.7355e-05,-16.982,-0.0002996,-2999.6,0.88408
2817,11.523,2.1818,0,0.00029445,2942.4,9.7887e-05,0.0048575,9.5949e-05,-14.557,-0.00029469,-2949.7,0.90834
2818,11.707,2.1818,0,0.00028958,2893.8,9.6171e-05,0.0050872,9.4532e-05,-12.309,-0.00028979,-2899.9,0.9328
2819,11.89,2.1818,0,0.00028473,2845.3,9.4466e-05,0.0053522,9.3105e-05,-10.224,-0.0002849,-2850.4,0.95745
2820,12.074,2.1818,0,0.00027988,2796.9,9.2772e-05,0.0056649,9.1668e-05,-8.2866,-0.00028002,-2801,0.98229
2821,12.257,2.1818,0,0.00027505,2748.6,9.1089e-05,0.0060243,9.0224e-05,-6.486,-0.00027516,-2751.8,1.0073
2822,12.441,2.1818,0,0.00027023,2700.5,8.9415e-05,0.0065441,8.8774e-05,-4.8099,-0.00027031,-2702.9,1.0325
2823,12.624,2.1818,0,0.00026542,2652.4,8.7752e-05,0.0074118,8.7318e-05,-3.248,-0.00026548,-2654,1.0579
2824,12.808,2.1818,0,0.00026063,2604.5,8.6098e-05,0.0093806,8.5858e-05,-1.7907,-0.00026066,-2605.4,1.0835
2825,12.991,2.1818,0,0.00025585,2556.8,8.4455e-05,0.021798,8.4394e-05,-0.4384,-0.00025586,-2557,1.1093
2826,13.175,2.1818,0,0.00025109,2509.1,8.2931e-05,0.86537,8.2816e-05,-0.0028402,-0.00025107,-2508.7,1.1352
2827,13.358,2.1818,0,0.00024634,2461.7,8.1464e-05,2.0621,8.1189e-05,0.0022299,-0.0002463,-2460.6,1.1613
2828,13.542,2.1818,0,0.0002416,2414.4,7.9996e-05,3.1927,7.9571e-05,0.0036134,-0.00024155,-2412.8,1.1876
2829,13.725,2.1818,0,0.00023688,2367.2,7.8528e-05,4.2613,7.7961e-05,0.0043223,-0.00023681,-2365.1,1.214
2830,13.909,2.1818,0,0.00023218,2320.2,7.7061e-05,5.2745,7.6359e-05,0.0047983,-0.00023209,-2317.6,1.2406
2831,14.092,2.1818,0,0.0002275,2273.4,7.5595e-05,6.2382,7.4765e-05,0.0051306,-0.00022739,-2270.3,1.2673
2832,14.276,2.1818,0,0.00022283,2226.8,7.4131e-05,7.1589,7.3179e-05,0.0054407,-0.00022271,-2223.2,1.2942
2833,14.459,2.1818,0,0.00021818,2180.3,7.267e-05,8.0422,7.16e-05,0.0057161,-0.00021804,-2176.2,1.3212
2834,14.642,2.1818,0,0.00021354,2134,7.1212e-05,8.8935,7.0029e-05,0.0059352,-0.00021339,-2129.5,1.3484
2835,14.826,2.1818,0,0.00020893,2087.9,6.9758e-05,9.7184,6.8465e-05,0.0061599,-0.00020876,-2083,1.3758
2836,15.009,2.1818,0,0.00020433,2041.9,6.8308e-05,10.522,6.6908e-05,0.0063879,-0.00020415,-2036.6,1.4032
2837,15.193,2.1818,0,0.00019975,1996.2,6.6863e-05,11.309,6.5359e-05,0.0066233,-0.00019956,-1990.5,1.4309
2838,15.376,2.1818,0,0.0001952,1950.6,6.5423e-05,12.085,6.3816e-05,0.006839,-0.00019499,-1944.5,1.4586
2839,15.56,2.1818,0,0.00019066,1905.2,6.3989e-05,12.855,6.2279e-05,0.0070589,-0.00019043,-1898.8,1.4865
2840,15.743,2.1818,0,0.00018614,1860.1,6.2562e-05,13.622,6.075e-05,0.0072888,-0.0001859,-1853.2,1.5145
2841,15.927,2.1818,0,0.00018164,1815.1,6.1141e-05,14.393,5.9226e-05,0.0074991,-0.00018139,-1807.9,1.5426
2842,16.11,2.1818,0,0.00017716,1770.3,5.9727e-05,15.172,5.7709e-05,0.0077497,-0.00017689,-1762.7,1.5709
2843,16.294,2.1818,0,0.0001727,1725.8,5.8322e-05,15.964,5.6198e-05,0.0080043,-0.00017242,-1717.7,1.5992
2844,16.477,2.1818,0,0.00016826,1681.4,5.6924e-05,16.773,5.4693e-05,0.0082407,-0.00016797,-1673,1.6277
2845,16.661,2.1818,0,0.00016384,1637.3,5.5536e-05,17.605,5.3194e-05,0.0085096,-0.00016354,-1628.4,1.6563
2846,16.844,2.1818,0,0.00015945,1593.4,5.4157e-05,18.465,5.1701e-05,0.0087929,-0.00015912,-1584,1.685
2847,17.028,2.1818,0,0.00015507,1549.7,5.2788e-05,19.359,5.0213e-05,0.0091034,-0.00015473,-1539.9,1.7138
2848,17.211,2.1818,0,0.00015072,1506.2,5.1429e-05,20.291,4.873e-05,0.0094109,-0.00015036,-1495.9,1.7428
2849,17.395,2.1818,0,0.00014639,1462.9,5.0082e-05,21.268,4.7253e-05,0.0097401,-0.00014602,-1452.1,1.7718
2850,17.578,2.1818,0,0.00014209,1419.9,4.8746e-05,22.295,4.578e-05,0.010091,-0.00014169,-1408.6,1.8009
2851,17.762,2.1818,0,0.0001378,1377.1,4.7423e-05,23.379,4.4313e-05,0.010449,-0.00013739,-1365.2,1.8301
2852,17.945,2.1818,0,0.00013354,1334.5,4.6113e-05,24.528,4.285e-05,0.010852,-0.00013311,-1322.1,1.8594
2853,18.129,2.1818,0,0.00012931,1292.2,4.4816e-05,25.747,4.1391e-05,0.011278,-0.00012885,-1279.1,1.8888
2854,18.312,2.1818,0,0.0001251,1250.1,4.3534e-05,27.044,3.9937e-05,0.011718,-0.00012462,-1236.4,1.9183
2855,18.496,2.1818,0,0.00012091,1208.3,4.2268e-05,28.428,3.8486e-05,0.012198,-0.0001204,-1193.8,1.9479
2856,18.679,2.1818,0,0.00011675,1166.7,4.1018e-05,29.906,3.7039e-05,0.012719,-0.00011622,-1151.5,1.9775
2857,18.863,2.1818,0,0.00011262,1125.4,3.9785e-05,31.489,3.5596e-05,0.013289,-0.00011205,-1109.4,2.0072
2858,19.046,2.1818,0,0.00010852,1084.4,3.857e-05,33.185,3.4155e-05,0.013891,-0.00010791,-1067.4,2.037
2859,19.229,2.1818,0,0.00010444,1043.7,3.7375e-05,35.005,3.2718e-05,0.01454,-0.0001038,-1025.7,2.0669
2860,19.413,2.1818,0,0.00010039,1003.2,3.6199e-05,36.961,3.1282e-05,0.015254,-9.971e-05,-984.21,2.0969
2861,19.596,2.1818,0,9.637e-05,963.04,3.5046e-05,39.064,2.9849e-05,0.016012,-9.5646e-05,-942.9,2.1269
2862,19.78,2.1818,0,9.2381e-05,923.17,3.3915e-05,41.326,2.8417e-05,0.016863,-9.1608e-05,-901.81,2.157
2863,19.963,2.1818,0,8.8423e-05,883.62,3.2808e-05,43.762,2.6986e-05,0.01779,-8.7597e-05,-860.92,2.1871
2864,20.147,2.1818,0,8.4497e-05,844.39,3.1728e-05,46.387,2.5556e-05,0.018796,-8.3612e-05,-820.23,2.2173
2865,20.33,2.1818,0,8.0606e-05,805.5,3.0674e-05,49.215,2.4126e-05,0.019918,-7.9655e-05,-779.75,2.2475
2866,20.514,2.1818,0,7.6749e-05,766.96,2.9649e-05,52.264,2.2696e-05,0.02116,-7.5726e-05,-739.48,2.2778
2867,20.697,2.1818,0,7.2929e-05,728.79,2.8655e-05,55.552,2.1264e-05,0.022554,-7.1825e-05,-699.41,2.3082
2868,20.881,2.1818,0,6.9148e-05,691,2.7693e-05,59.097,1.9831e-05,0.024106,-6.7952e-05,-659.55,2.3386
2869,21.064,2.1818,0,6.5407e-05,653.62,2.6766e-05,62.92,1.8395e-05,0.02586,-6.4109e-05,-619.87,2.3691
2870,21.248,2.1818,0,6.171e-05,616.67,2.5874e-05,67.043,1.6955e-05,0.027852,-6.0295e-05,-580.4,2.3995
2871,21.431,2.1818,0,5.8058e-05,580.18,2.5022e-05,71.488,1.5511e-05,0.030127,-5.651e-05,-541.11,2.4301
2872,21.615,2.1818,0,5.4455e-05,544.18,2.421e-05,76.279,1.4062e-05,0.032768,-5.2755e-05,-502,2.4606
2873,21.798,2.1818,0,5.0906e-05,508.71,2.344e-05,81.44,1.2606e-05,0.035856,-4.9029e-05,-463.06,2.4913
2874,21.982,2.1818,0,4.7416e-05,473.83,2.2715e-05,86.996,1.1142e-05,0.039504,-4.5332e-05,-424.29,2.5219
2875,22.165,2.1818,0,4.399e-05,439.59,2.2038e-05,92.973,9.6695e-06,0.0439,-4.1664e-05,-385.65,2.5526
2876,22.349,2.1818,0,4.0637e-05,406.09,2.1408e-05,99.394,8.1863e-06,0.049287,-3.8022e-05,-347.14,2.5833
2877,22.532,2.1818,0,3.7367e-05,373.41,2.0829e-05,106.28,6.6911e-06,0.05609,-3.4406e-05,-308.74,2.614
2878,22.716,2.1818,0,3.4196e-05,341.72,2.0301e-05,113.66,5.1823e-06,0.064742,-3.0814e-05,-270.39,2.6447
2879,22.899,2.1818,0,3.1143e-05,311.21,1.9824e-05,121.54,3.6582e-06,0.076899,-2.7241e-05,-232.09,2.6755
2880,23.083,2.1818,0,2.8236e-05,282.16,1.9399e-05,129.94,2.117e-06,0.091928,-2.3685e-05,-193.77,2.7063
2881,23.266,2.1818,0,2.5515e-05,254.98,1.9024e-05,138.87,5.5823e-07,0.12328,-2.014e-05,-155.4,2.7371
2882,23.45,2.1818,0,2.3037e-05,230.21,1.8697e-05,148.3,-1.0221e-06,0.1408,-1.6602e-05,-116.92,2.7679
2883,23.633,2.1818,0,2.0884e-05,208.69,1.8415e-05,158.3,-2.6096e-06,0.3254,-1.3072e-05,-78.287,2.7987
2884,23.817,2.1818,0,1.9162e-05,191.49,1.8177e-05,168.63,-4.239e-06,0.2008,-9.5432e-06,-39.653,2.8296
2885,3.4501,2,0,0.0015003,14993,0.0007554,2786,0.00028238,-768.11,-0.001434,-13665,0.079674
2886,3.6336,2,0,0.00099622,9955.3,0.00040475,980.49,0.00028759,100.17,-0.00097491,-9385.8,0.091336
2887,3.8171,2,0,0.00081797,8174,0.00030243,377.64,0.00024897,-24.096,-0.00081121,-7989.9,0.10356
2888,4.0006,2,0,0.00071637,7158.8,0.00024425,83.756,0.00023077,-17.513,-0.00071519,-7125.1,0.11627
2889,4.1841,2,0,0.00064963,6491.8,0.00022126,8.717,0.00020347,-124.97,-0.0006515,-6548.9,0.12944
2890,4.3676,2,0,0.00060314,6027.2,0.00021019,3.9981,0.00018031,-220.46,-0.00060651,-6132.3,0.14302
2891,4.551,2,0,0.00056881,5684.2,0.00020137,2.093,0.0001644,-275.64,-0.00057296,-5815.9,0.15701
2892,4.7345,2,0,0.00054255,5421.8,0.000194,1.4027,0.00015337,-303.81,-0.00054705,-5566.5,0.17137
2893,4.918,2,0,0.00052181,5214.5,0.00018763,0.957,0.0001456,-314.84,-0.00052643,-5364.2,0.1861
2894,5.1015,2,0,0.00050498,5046.3,0.00018206,0.68867,0.00014005,-314.94,-0.00050959,-5196.1,0.20119
2895,5.285,2,0,0.00049102,4906.9,0.0001771,0.50245,0.00013602,-308.14,-0.00049553,-5053.4,0.21661
2896,5.4684,2,0,0.0004792,4788.7,0.00017265,0.37181,0.00013307,-297.07,-0.00048355,-4930.1,0.23237
2897,5.6519,2,0,0.00046898,4686.6,0.00016861,0.27696,0.00013086,-283.43,-0.00047316,-4821.7,0.24846
2898,5.8354,2,0,0.00046,4596.8,0.00016492,0.20736,0.00012917,-268.38,-0.00046397,-4725,0.26486
2899,6.0189,2,0,0.00045197,4516.6,0.0001615,0.15577,0.00012785,-252.66,-0.00045573,-4637.5,0.28158
2900,6.2024,2,0,0.00044466,4443.6,0.00015832,0.11733,0.00012679,-236.78,-0.00044822,-4557.2,0.2986
2901,6.3858,2,0,0.00043792,4376.2,0.00015534,0.088594,0.0001259,-221.1,-0.00044126,-4482.5,0.31593
2902,6.5693,2,0,0.00043162,4313.2,0.00015251,0.067057,0.00012511,-205.84,-0.00043475,-4412.4,0.33355
2903,6.7528,2,0,0.00042565,4253.6,0.00014983,0.050893,0.00012438,-191.15,-0.00042858,-4345.9,0.35147
2904,6.9363,2,0,0.00041994,4196.5,0.00014727,0.038751,0.00012369,-177.12,-0.00042267,-4282.3,0.36967
2905,7.1198,2,0,0.00041443,4141.4,0.0001448,0.029627,0.00012299,-163.8,-0.00041697,-4220.9,0.38816
2906,7.3032,2,0,0.00040906,4087.8,0.00014241,0.022773,0.00012228,-151.23,-0.00041143,-4161.3,0.40693
2907,7.4867,2,0,0.00040381,4035.4,0.00014011,0.017629,0.00012155,-139.39,-0.000406,-4103.2,0.42598
2908,7.6702,2,0,0.00039865,3983.7,0.00013786,0.013776,0.00012078,-128.29,-0.00040067,-4046.3,0.4453
2909,7.8537,2,0,0.00039354,3932.7,0.00013567,0.010897,0.00011997,-117.91,-0.00039542,-3990.3,0.46489
2910,8.0372,2,0,0.00038849,3882.2,0.00013352,0.0087554,0.00011912,-108.22,-0.00039021,-3935.1,0.48474
2911,8.2206,2,0,0.00038346,3832,0.00013142,0.0071726,0.00011822,-99.19,-0.00038505,-3880.6,0.50486
2912,8.4041,2,0,0.00037846,3782,0.00012936,0.0060129,0.00011728,-90.786,-0.00037992,-3826.6,0.52524
2913,8.5876,2,0,0.00037348,3732.2,0.00012733,0.005174,0.00011629,-82.973,-0.00037482,-3773,0.54587
2914,8.7711,2,0,0.00036851,3682.5,0.00012534,0.0045791,0.00011526,-75.719,-0.00036973,-3719.8,0.56676
2915,8.9546,2,0,0.00036354,3632.9,0.00012337,0.0041688,0.00011419,-68.988,-0.00036467,-3666.9,0.58789
2916,9.1381,2,0,0.00035859,3583.4,0.00012143,0.0038987,0.00011308,-62.746,-0.00035961,-3614.3,0.60927
2917,9.3215,2,0,0.00035363,3533.9,0.00011951,0.0037353,0.00011193,-56.961,-0.00035457,-3562,0.6309
2918,9.505,2,0,0.00034869,3484.5,0.00011761,0.0036515,0.00011074,-51.602,-0.00034953,-3510,0.65276
2919,9.6885,2,0,0.00034374,3435,0.00011574,0.0036334,0.00010953,-46.638,-0.00034451,-3458.1,0.67486
2920,9.872,2,0,0.0003388,3385.7,0.00011388,0.0036554,0.00010828,-42.042,-0.0003395,-3406.5,0.69718
2921,10.055,2,0,0.00033386,3336.3,0.00011204,0.0037255,0.00010701,-37.786,-0.00033449,-3355.1,0.71974
2922,10.239,2,0,0.00032893,3287,0.00011022,0.003822,0.00010571,-33.846,-0.00032949,-3303.8,0.74252
2923,10.422,2,0,0.000324,3237.8,0.00010841,0.0039084,0.00010439,-30.198,-0.00032451,-3252.8,0.76553
2924,10.606,2,0,0.00031908,3188.6,0.00010662,0.0040311,0.00010305,-26.82,-0.00031953,-3201.9,0.78875
2925,10.789,2,0,0.00031416,3139.5,0.00010485,0.0041861,0.00010169,-23.692,-0.00031456,-3151.3,0.81219
2926,10.973,2,0,0.00030926,3090.4,0.00010308,0.0043795,0.00010032,-20.793,-0.0003096,-3100.8,0.83584
2927,11.156,2,0,0.00030436,3041.5,0.00010133,0.0045434,9.8923e-05,-18.108,-0.00030466,-3050.5,0.85969
2928,11.34,2,0,0.00029946,2992.6,9.9596e-05,0.0047263,9.7516e-05,-15.619,-0.00029973,-3000.3,0.88376
2929,11.523,2,0,0.00029458,2943.8,9.787e-05,0.0049842,9.6098e-05,-13.309,-0.0002948,-2950.4,0.90802
2930,11.707,2,0,0.00028971,2895.1,9.6157e-05,0.0052369,9.467e-05,-11.166,-0.0002899,-2900.6,0.93248
2931,11.89,2,0,0.00028485,2846.5,9.4454e-05,0.0055486,9.3232e-05,-9.176,-0.000285,-2851.1,0.95714
2932,12.074,2,0,0.00028,2798,9.2762e-05,0.0059513,9.1786e-05,-7.3259,-0.00028012,-2801.7,0.98199
2933,12.257,2,0,0.00027516,2749.7,9.108e-05,0.0064706,9.0333e-05,-5.6046,-0.00027525,-2752.5,1.007
2934,12.441,2,0,0.00027033,2701.5,8.9409e-05,0.0073112,8.8875e-05,-4.0012,-0.0002704,-2703.5,1.0323
2935,12.624,2,0,0.00026552,2653.4,8.7747e-05,0.0089587,8.7412e-05,-2.5064,-0.00026556,-2654.6,1.0577
2936,12.808,2,0,0.00026072,2605.4,8.6095e-05,0.014199,8.5945e-05,-1.1134,-0.00026074,-2606,1.0832
2937,12.991,2,0,0.00025594,2557.6,8.4482e-05,0.24686,8.4445e-05,-0.037441,-0.00025594,-2557.5,1.109
2938,13.175,2,0,0.00025117,2510,8.3007e-05,1.4387,8.2815e-05,-0.0019688,-0.00025115,-2509.3,1.1349
2939,13.358,2,0,0.00024642,2462.5,8.1534e-05,2.5893,8.1189e-05,0.0013694,-0.00024637,-2461.2,1.161
2940,13.542,2,0,0.00024168,2415.1,8.0061e-05,3.6754,7.9572e-05,0.0026576,-0.00024162,-2413.3,1.1873
2941,13.725,2,0,0.00023696,2367.9,7.8589e-05,4.7026,7.7963e-05,0.0033927,-0.00023688,-2365.6,1.2137
2942,13.909,2,0,0.00023225,2320.9,7.7117e-05,5.677,7.6362e-05,0.0038978,-0.00023216,-2318.1,1.2403
2943,14.092,2,0,0.00022756,2274.1,7.5648e-05,6.6044,7.4769e-05,0.0042541,-0.00022745,-2270.8,1.2671
2944,14.276,2,0,0.00022289,2227.4,7.418e-05,7.4908,7.3184e-05,0.0045805,-0.00022277,-2223.6,1.294
2945,14.459,2,0,0.00021824,2180.9,7.2716e-05,8.3415,7.1606e-05,0.0048657,-0.0002181,-2176.7,1.321
2946,14.642,2,0,0.0002136,2134.6,7.1254e-05,9.1618,7.0036e-05,0.0050942,-0.00021345,-2130,1.3482
2947,14.826,2,0,0.00020899,2088.4,6.9797e-05,9.9569,6.8473e-05,0.0053195,-0.00020882,-2083.4,1.3755
2948,15.009,2,0,0.00020439,2042.5,6.8344e-05,10.732,6.6917e-05,0.0055483,-0.0002042,-2037.1,1.403
2949,15.193,2,0,0.00019981,1996.7,6.6896e-05,11.491,6.5367e-05,0.0057816,-0.00019961,-1990.9,1.4306
2950,15.376,2,0,0.00019525,1951.1,6.5453e-05,12.239,6.3825e-05,0.0059927,-0.00019504,-1945,1.4584
2951,15.56,2,0,0.00019071,1905.7,6.4016e-05,12.982,6.229e-05,0.0062081,-0.00019048,-1899.2,1.4863
2952,15.743,2,0,0.00018618,1860.6,6.2586e-05,13.722,6.0761e-05,0.0064306,-0.00018595,-1853.7,1.5143
2953,15.927,2,0,0.00018168,1815.6,6.1162e-05,14.466,5.9238e-05,0.0066342,-0.00018143,-1808.3,1.5424
2954,16.11,2,0,0.0001772,1770.8,5.9746e-05,15.217,5.7722e-05,0.0068715,-0.00017694,-1763.1,1.5707
2955,16.294,2,0,0.00017274,1726.2,5.8337e-05,15.98,5.6211e-05,0.0071177,-0.00017246,-1718.2,1.599
2956,16.477,2,0,0.0001683,1681.8,5.6937e-05,16.76,5.4707e-05,0.0073465,-0.00016801,-1673.4,1.6275
2957,16.661,2,0,0.00016388,1637.7,5.5545e-05,17.561,5.3209e-05,0.0075984,-0.00016357,-1628.8,1.6561
2958,16.844,2,0,0.00015948,1593.7,5.4163e-05,18.389,5.1716e-05,0.0078704,-0.00015916,-1584.4,1.6848
2959,17.028,2,0,0.00015511,1550,5.279e-05,19.249,5.0229e-05,0.0081652,-0.00015477,-1540.3,1.7137
2960,17.211,2,0,0.00015075,1506.5,5.1427e-05,20.145,4.8747e-05,0.008459,-0.0001504,-1496.3,1.7426
2961,17.395,2,0,0.00014642,1463.2,5.0076e-05,21.084,4.7271e-05,0.0087724,-0.00014605,-1452.5,1.7716
2962,17.578,2,0,0.00014211,1420.1,4.8736e-05,22.07,4.5799e-05,0.0091075,-0.00014172,-1408.9,1.8007
2963,17.762,2,0,0.00013782,1377.3,4.7407e-05,23.11,4.4333e-05,0.0094472,-0.00013742,-1365.6,1.83
2964,17.945,2,0,0.00013356,1334.7,4.6092e-05,24.211,4.2871e-05,0.0098304,-0.00013313,-1322.4,1.8593
2965,18.129,2,0,0.00012932,1292.3,4.479e-05,25.379,4.1414e-05,0.010239,-0.00012887,-1279.4,1.8887
2966,18.312,2,0,0.00012511,1250.2,4.3502e-05,26.621,3.996e-05,0.010657,-0.00012463,-1236.7,1.9182
2967,18.496,2,0,0.00012092,1208.3,4.2229e-05,27.944,3.8511e-05,0.011114,-0.00012042,-1194.1,1.9477
2968,18.679,2,0,0.00011675,1166.7,4.0971e-05,29.357,3.7066e-05,0.011614,-0.00011622,-1151.8,1.9774
2969,18.863,2,0,0.00011261,1125.4,3.9731e-05,30.869,3.5624e-05,0.012158,-0.00011206,-1109.6,2.0071
2970,19.046,2,0,0.0001085,1084.3,3.8507e-05,32.487,3.4185e-05,0.012734,-0.00010791,-1067.6,2.0369
2971,19.229,2,0,0.00010442,1043.4,3.7302e-05,34.223,3.2749e-05,0.013358,-0.00010379,-1025.9,2.0668
2972,19.413,2,0,0.00010036,1002.9,3.6117e-05,36.087,3.1316e-05,0.014042,-9.9696e-05,-984.35,2.0967
2973,19.596,2,0,9.633e-05,962.63,3.4952e-05,38.09,2.9885e-05,0.014773,-9.5625e-05,-943.02,2.1268
2974,19.78,2,0,9.2331e-05,922.67,3.3809e-05,40.243,2.8455e-05,0.015588,-9.158e-05,-901.88,2.1568
2975,19.963,2,0,8.8362e-05,883.01,3.2689e-05,42.561,2.7027e-05,0.016483,-8.756e-05,-860.95,2.187
2976,20.147,2,0,8.4424e-05,843.66,3.1594e-05,45.057,2.56e-05,0.017453,-8.3567e-05,-820.22,2.2172
2977,20.33,2,0,8.052e-05,804.64,3.0525e-05,47.746,2.4173e-05,0.018539,-7.9601e-05,-779.7,2.2474
2978,20.514,2,0,7.6649e-05,765.96,2.9484e-05,50.645,2.2746e-05,0.019749,-7.5662e-05,-739.37,2.2777
2979,20.697,2,0,7.2814e-05,727.64,2.8471e-05,53.77,2.1318e-05,0.021101,-7.175e-05,-699.25,2.3081
2980,20.881,2,0,6.9016e-05,689.69,2.749e-05,57.141,1.9888e-05,0.022615,-6.7866e-05,-659.33,2.3385
2981,21.064,2,0,6.5258e-05,652.13,2.6542e-05,60.777,1.8456e-05,0.024329,-6.4011e-05,-619.6,2.369
2982,21.248,2,0,6.1542e-05,614.99,2.5629e-05,64.702,1.7022e-05,0.026281,-6.0185e-05,-580.07,2.3995
2983,21.431,2,0,5.787e-05,578.3,2.4754e-05,68.937,1.5583e-05,0.028517,-5.6387e-05,-540.73,2.43
2984,21.615,2,0,5.4246e-05,542.08,2.3918e-05,73.508,1.4139e-05,0.03112,-5.262e-05,-501.57,2.4606
2985,21.798,2,0,5.0675e-05,506.4,2.3124e-05,78.441,1.2689e-05,0.034167,-4.8882e-05,-462.58,2.4912
2986,21.982,2,0,4.7161e-05,471.28,2.2375e-05,83.763,1.1232e-05,0.037778,-4.5174e-05,-423.77,2.5218
2987,22.165,2,0,4.3711e-05,436.81,2.1673e-05,89.504,9.7659e-06,0.042135,-4.1495e-05,-385.11,2.5525
2988,22.349,2,0,4.0334e-05,403.06,2.1019e-05,95.691,8.2901e-06,0.047479,-3.7844e-05,-346.59,2.5832
2989,22.532,2,0,3.704e-05,370.15,2.0418e-05,102.35,6.8025e-06,0.054226,-3.4221e-05,-308.18,2.6139
2990,22.716,2,0,3.3845e-05,338.22,1.9869e-05,109.52,5.3016e-06,0.062804,-3.0624e-05,-269.87,2.6447
2991,22.899,2,0,3.0768e-05,307.47,1.9375e-05,117.21,3.7855e-06,0.074859,-2.705e-05,-231.61,2.6754
2992,23.083,2,0,2.7838e-05,278.19,1.8935e-05,125.44,2.2522e-06,0.089742,-2.3496e-05,-193.37,2.7062
2993,23.266,2,0,2.5095e-05,250.77,1.8549e-05,134.23,7.0095e-07,0.12085,-1.9956e-05,-155.09,2.737
2994,23.45,2,0,2.2595e-05,225.8,1.8216e-05,143.56,-8.7249e-07,0.13803,-1.6425e-05,-116.72,2.7678
2995,23.633,2,0,2.0423e-05,204.09,1.7931e-05,153.49,-2.4541e-06,0.32144,-1.2905e-05,-78.199,2.7987
2996,23.817,2,0,1.869e-05,186.77,1.7696e-05,163.8,-4.0793e-06,0.19283,-9.3872e-06,-39.688,2.8295
2997,3.4501,1.8182,0,0.0012413,12404,0.00075674,4282.5,0.00016029,-199.07,-0.0011095,-9739.6,0.077957
2998,3.6336,1.8182,0,0.00089155,8909.3,0.00043664,1763.3,0.00020361,12.419,-0.00084833,-7891.5,0.090009
2999,3.8171,1.8182,0,0.0007422,7416.8,0.00030756,754.93,0.00020564,-10.915,-0.00072657,-7015.1,0.10248
3000,4.0006,1.8182,0,0.00066158,6611.3,0.00024491,316.22,0.00020185,-7.3068,-0.00065573,-6450.9,0.11536
3001,4.1841,1.8182,0,0.00060904,6086.2,0.00020867,81.483,0.00019541,-18.139,-0.0006079,-6053.9,0.12865
3002,4.3676,1.8182,0,0.00057264,5722.5,0.00019417,10.908,0.00018115,-86.859,-0.00057387,-5759.8,0.14232
3003,4.551,1.8182,0,0.00054598,5456,0.00018839,3.9497,0.0001665,-160.54,-0.00054845,-5532.4,0.15637
3004,4.7345,1.8182,0,0.00052556,5252,0.00018363,2.1729,0.00015617,-204.16,-0.00052869,-5349.9,0.17079
3005,4.918,1.8182,0,0.0005093,5089.5,0.00017932,1.3682,0.00014887,-227.4,-0.00051276,-5198.6,0.18555
3006,5.1015,1.8182,0,0.0004959,4955.6,0.00017536,0.93038,0.0001436,-237.67,-0.0004995,-5069.7,0.20066
3007,5.285,1.8182,0,0.00048455,4842.2,0.00017168,0.65648,0.00013969,-239.69,-0.00048817,-4957.2,0.2161
3008,5.4684,1.8182,0,0.0004747,4743.7,0.00016826,0.47472,0.00013672,-236.44,-0.00047827,-4857.3,0.23187
3009,5.6519,1.8182,0,0.00046596,4656.4,0.00016504,0.34841,0.00013441,-229.82,-0.00046944,-4766.9,0.24797
3010,5.8354,1.8182,0,0.00045808,4577.6,0.000162,0.25841,0.00013255,-221.06,-0.00046143,-4684,0.26438
3011,6.0189,1.8182,0,0.00045085,4505.4,0.00015912,0.19314,0.00013102,-210.99,-0.00045406,-4607.1,0.2811
3012,6.2024,1.8182,0,0.00044413,4438.2,0.00015638,0.14527,0.00012972,-200.15,-0.00044719,-4534.8,0.29812
3013,6.3858,1.8182,0,0.0004378,4375,0.00015374,0.10986,0.00012858,-188.94,-0.00044071,-4466.4,0.31545
3014,6.5693,1.8182,0,0.00043179,4314.9,0.00015121,0.083506,0.00012755,-177.63,-0.00043454,-4400.9,0.33307
3015,6.7528,1.8182,0,0.00042602,4257.2,0.00014875,0.063805,0.0001266,-166.41,-0.0004286,-4338,0.35099
3016,6.9363,1.8182,0,0.00042043,4201.4,0.00014638,0.049017,0.00012568,-155.43,-0.00042286,-4277,0.36919
3017,7.1198,1.8182,0,0.000415,4147.1,0.00014406,0.037883,0.00012479,-144.77,-0.00041727,-4217.6,0.38768
3018,7.3032,1.8182,0,0.00040967,4093.9,0.0001418,0.029478,0.0001239,-134.51,-0.0004118,-4159.5,0.40646
3019,7.4867,1.8182,0,0.00040444,4041.6,0.0001396,0.02312,0.000123,-124.69,-0.00040641,-4102.5,0.4255
3020,7.6702,1.8182,0,0.00039927,3989.9,0.00013743,0.018303,0.00012208,-115.34,-0.0004011,-4046.3,0.44483
3021,7.8537,1.8182,0,0.00039415,3938.8,0.00013531,0.014651,0.00012113,-106.48,-0.00039585,-3990.9,0.46442
3022,8.0372,1.8182,0,0.00038907,3888,0.00013322,0.011883,0.00012016,-98.114,-0.00039064,-3936.1,0.48428
3023,8.2206,1.8182,0,0.00038401,3837.5,0.00013117,0.009787,0.00011916,-90.231,-0.00038547,-3881.8,0.5044
3024,8.4041,1.8182,0,0.00037898,3787.2,0.00012914,0.0082037,0.00011812,-82.826,-0.00038032,-3827.9,0.52478
3025,8.5876,1.8182,0,0.00037397,3737.1,0.00012715,0.0070128,0.00011705,-75.884,-0.0003752,-3774.4,0.54542
3026,8.7711,1.8182,0,0.00036896,3687.1,0.00012518,0.0061227,0.00011594,-69.39,-0.00037009,-3721.3,0.56631
3027,8.9546,1.8182,0,0.00036397,3637.2,0.00012323,0.0054642,0.0001148,-63.323,-0.000365,-3668.4,0.58745
3028,9.1381,1.8182,0,0.00035898,3587.4,0.00012131,0.0049845,0.00011363,-57.664,-0.00035993,-3615.8,0.60883
3029,9.3215,1.8182,0,0.000354,3537.6,0.00011941,0.0046435,0.00011243,-52.391,-0.00035487,-3563.5,0.63046
3030,9.505,1.8182,0,0.00034903,3487.9,0.00011752,0.0044093,0.0001112,-47.483,-0.00034981,-3511.4,0.65232
3031,9.6885,1.8182,0,0.00034406,3438.2,0.00011566,0.0042612,0.00010995,-42.918,-0.00034477,-3459.5,0.67442
3032,9.872,1.8182,0,0.0003391,3388.6,0.00011381,0.0041743,0.00010866,-38.675,-0.00033974,-3407.8,0.69676
3033,10.055,1.8182,0,0.00033414,3339.1,0.00011198,0.0041521,0.00010736,-34.734,-0.00033472,-3356.3,0.71932
3034,10.239,1.8182,0,0.00032919,3289.6,0.00011017,0.0041697,0.00010603,-31.073,-0.0003297,-3305,0.74211
3035,10.422,1.8182,0,0.00032424,3240.2,0.00010837,0.0041917,0.00010468,-27.676,-0.0003247,-3253.9,0.76512
3036,10.606,1.8182,0,0.0003193,3190.8,0.00010658,0.0042608,0.00010332,-24.522,-0.00031971,-3203,0.78834
3037,10.789,1.8182,0,0.00031437,3141.6,0.00010481,0.0043755,0.00010194,-21.595,-0.00031473,-3152.3,0.81179
3038,10.973,1.8182,0,0.00030945,3092.4,0.00010305,0.0045385,0.00010054,-18.878,-0.00030977,-3101.8,0.83544
3039,11.156,1.8182,0,0.00030454,3043.3,0.00010131,0.0046868,9.9129e-05,-16.356,-0.00030481,-3051.4,0.8593
3040,11.34,1.8182,0,0.00029963,2994.3,9.9573e-05,0.0048692,9.7707e-05,-14.015,-0.00029987,-3001.2,0.88337
3041,11.523,1.8182,0,0.00029474,2945.4,9.7851e-05,0.0051441,9.6274e-05,-11.84,-0.00029494,-2951.3,0.90764
3042,11.707,1.8182,0,0.00028986,2896.6,9.614e-05,0.0054402,9.4832e-05,-9.8195,-0.00029002,-2901.5,0.93211
3043,11.89,1.8182,0,0.00028499,2847.9,9.444e-05,0.0058397,9.3382e-05,-7.9404,-0.00028512,-2851.9,0.95677
3044,12.074,1.8182,0,0.00028013,2799.4,9.275e-05,0.0064008,9.1925e-05,-6.1918,-0.00028023,-2802.5,0.98163
3045,12.257,1.8182,0,0.00027528,2750.9,9.1071e-05,0.0072287,9.0462e-05,-4.5634,-0.00027536,-2753.2,1.0067
3046,12.441,1.8182,0,0.00027045,2702.7,8.9401e-05,0.0087679,8.8995e-05,-3.0456,-0.0002705,-2704.2,1.0319
3047,12.624,1.8182,0,0.00026564,2654.5,8.7741e-05,0.012668,8.7523e-05,-1.6309,-0.00026566,-2655.3,1.0573
3048,12.808,1.8182,0,0.00026083,2606.5,8.6095e-05,0.044035,8.6044e-05,-0.33556,-0.00026084,-2606.7,1.0829
3049,12.991,1.8182,0,0.00025604,2558.7,8.4575e-05,0.96058,8.4446e-05,-0.0093983,-0.00025603,-2558.2,1.1087
3050,13.175,1.8182,0,0.00025127,2511,8.3096e-05,2.1193,8.2814e-05,-0.0016279,-0.00025123,-2509.9,1.1346
3051,13.358,1.8182,0,0.00024651,2463.4,8.1617e-05,3.2145,8.119e-05,0.0006583,-0.00024646,-2461.8,1.1607
3052,13.542,1.8182,0,0.00024177,2416,8.0139e-05,4.2485,7.9574e-05,0.0017662,-0.0002417,-2413.9,1.187
3053,13.725,1.8182,0,0.00023704,2368.8,7.8661e-05,5.227,7.7966e-05,0.002456,-0.00023696,-2366.2,1.2134
3054,13.909,1.8182,0,0.00023234,2321.8,7.7185e-05,6.1558,7.6366e-05,0.0029517,-0.00023223,-2318.7,1.24
3055,14.092,1.8182,0,0.00022765,2274.9,7.5711e-05,7.0405,7.4774e-05,0.0033043,-0.00022752,-2271.4,1.2668
3056,14.276,1.8182,0,0.00022297,2228.2,7.4239e-05,7.8865,7.319e-05,0.0036301,-0.00022284,-2224.2,1.2937
3057,14.459,1.8182,0,0.00021832,2181.6,7.277e-05,8.699,7.1613e-05,0.0039131,-0.00021817,-2177.3,1.3207
3058,14.642,1.8182,0,0.00021368,2135.3,7.1305e-05,9.4828,7.0044e-05,0.004135,-0.00021351,-2130.5,1.3479
3059,14.826,1.8182,0,0.00020906,2089.1,6.9844e-05,10.243,6.8481e-05,0.0043565,-0.00020888,-2084,1.3753
3060,15.009,1.8182,0,0.00020446,2043.2,6.8387e-05,10.984,6.6926e-05,0.0045768,-0.00020427,-2037.6,1.4027
3061,15.193,1.8182,0,0.00019987,1997.4,6.6936e-05,11.71,6.5378e-05,0.0048007,-0.00019967,-1991.5,1.4304
3062,15.376,1.8182,0,0.00019531,1951.8,6.549e-05,12.426,6.3837e-05,0.005002,-0.0001951,-1945.5,1.4581
3063,15.56,1.8182,0,0.00019077,1906.4,6.405e-05,13.137,6.2302e-05,0.0052043,-0.00019054,-1899.8,1.486
3064,15.743,1.8182,0,0.00018624,1861.1,6.2616e-05,13.846,6.0774e-05,0.0054144,-0.000186,-1854.2,1.514
3065,15.927,1.8182,0,0.00018174,1816.1,6.1189e-05,14.557,5.9252e-05,0.0056026,-0.00018149,-1808.8,1.5422
3066,16.11,1.8182,0,0.00017725,1771.3,5.9769e-05,15.275,5.7736e-05,0.0058267,-0.00017699,-1763.6,1.5704
3067,16.294,1.8182,0,0.00017279,1726.7,5.8356e-05,16.005,5.6227e-05,0.0060555,-0.00017251,-1718.7,1.5988
3068,16.477,1.8182,0,0.00016835,1682.3,5.6952e-05,16.751,5.4724e-05,0.0062693,-0.00016806,-1673.9,1.6273
3069,16.661,1.8182,0,0.00016393,1638.1,5.5557e-05,17.516,5.3226e-05,0.0065015,-0.00016362,-1629.3,1.6559
3070,16.844,1.8182,0,0.00015953,1594.2,5.417e-05,18.307,5.1735e-05,0.006757,-0.00015921,-1584.9,1.6846
3071,17.028,1.8182,0,0.00015515,1550.4,5.2793e-05,19.127,5.0248e-05,0.0070301,-0.00015481,-1540.7,1.7135
3072,17.211,1.8182,0,0.00015079,1506.8,5.1426e-05,19.981,4.8768e-05,0.0073042,-0.00015044,-1496.8,1.7424
3073,17.395,1.8182,0,0.00014645,1463.5,5.007e-05,20.875,4.7292e-05,0.0075954,-0.00014609,-1453,1.7714
3074,17.578,1.8182,0,0.00014214,1420.4,4.8724e-05,21.814,4.5822e-05,0.0079094,-0.00014176,-1409.4,1.8005
3075,17.762,1.8182,0,0.00013785,1377.5,4.7391e-05,22.803,4.4357e-05,0.0082222,-0.00013745,-1366,1.8298
3076,17.945,1.8182,0,0.00013358,1334.9,4.6069e-05,23.848,4.2896e-05,0.0085814,-0.00013316,-1322.8,1.8591
3077,18.129,1.8182,0,0.00012934,1292.5,4.4761e-05,24.956,4.144e-05,0.008962,-0.0001289,-1279.8,1.8885
3078,18.312,1.8182,0,0.00012512,1250.3,4.3465e-05,26.133,3.9989e-05,0.0093489,-0.00012465,-1237,1.918
3079,18.496,1.8182,0,0.00012092,1208.4,4.2185e-05,27.387,3.8541e-05,0.0097784,-0.00012043,-1194.5,1.9476
3080,18.679,1.8182,0,0.00011675,1166.7,4.0919e-05,28.723,3.7097e-05,0.010247,-0.00011624,-1152.1,1.9772
3081,18.863,1.8182,0,0.00011261,1125.3,3.9669e-05,30.152,3.5657e-05,0.010754,-0.00011206,-1109.9,2.007
3082,19.046,1.8182,0,0.00010849,1084.1,3.8435e-05,31.68,3.422e-05,0.011298,-0.00010791,-1067.9,2.0368
3083,19.229,1.8182,0,0.00010439,1043.2,3.7219e-05,33.317,3.2787e-05,0.011884,-0.00010378,-1026.1,2.0666
3084,19.413,1.8182,0,0.00010033,1002.6,3.6022e-05,35.074,3.1356e-05,0.012529,-9.9682e-05,-984.56,2.0966
3085,19.596,1.8182,0,9.6286e-05,962.19,3.4844e-05,36.959,2.9927e-05,0.013218,-9.5604e-05,-943.18,2.1266
3086,19.78,1.8182,0,9.2275e-05,922.12,3.3687e-05,38.986,2.85e-05,0.01399,-9.155e-05,-902,2.1567
3087,19.963,1.8182,0,8.8294e-05,882.33,3.2552e-05,41.165,2.7075e-05,0.014843,-8.7521e-05,-861.02,2.1868
3088,20.147,1.8182,0,8.4343e-05,842.85,3.144e-05,43.51,2.5651e-05,0.015763,-8.3518e-05,-820.24,2.2171
3089,20.33,1.8182,0,8.0423e-05,803.68,3.0353e-05,46.035,2.4228e-05,0.016798,-7.9541e-05,-779.66,2.2473
3090,20.514,1.8182,0,7.6536e-05,764.83,2.9291e-05,48.756,2.2805e-05,0.01795,-7.559e-05,-739.28,2.2776
3091,20.697,1.8182,0,7.2683e-05,726.33,2.8258e-05,51.689,2.1381e-05,0.01925,-7.1666e-05,-699.1,2.308
3092,20.881,1.8182,0,6.8866e-05,688.19,2.7254e-05,54.854,1.9956e-05,0.020708,-6.7768e-05,-659.11,2.3384
3093,21.064,1.8182,0,6.5087e-05,650.42,2.6282e-05,58.268,1.853e-05,0.022364,-6.3899e-05,-619.32,2.3689
3094,21.248,1.8182,0,6.1348e-05,613.05,2.5343e-05,61.955,1.71e-05,0.02426,-6.0058e-05,-579.71,2.3994
3095,21.431,1.8182,0,5.7652e-05,576.12,2.444e-05,65.938,1.5667e-05,0.026433,-5.6246e-05,-540.3,2.4299
3096,21.615,1.8182,0,5.4002e-05,539.65,2.3575e-05,70.243,1.423e-05,0.028978,-5.2463e-05,-501.08,2.4605
3097,21.798,1.8182,0,5.0404e-05,503.69,2.2752e-05,74.898,1.2788e-05,0.031968,-4.871e-05,-462.04,2.4911
3098,21.982,1.8182,0,4.6862e-05,468.29,2.1972e-05,79.932,1.1338e-05,0.035514,-4.4987e-05,-423.17,2.5217
3099,22.165,1.8182,0,4.3382e-05,433.52,2.1239e-05,85.379,9.8807e-06,0.039811,-4.1294e-05,-384.47,2.5524
3100,22.349,1.8182,0,3.9975e-05,399.47,2.0555e-05,91.273,8.4138e-06,0.045086,-3.7632e-05,-345.92,2.5831
3101,22.532,1.8182,0,3.6651e-05,366.25,1.9925e-05,97.648,6.9357e-06,0.051755,-3.3999e-05,-307.52,2.6138
3102,22.716,1.8182,0,3.3424e-05,334.01,1.935e-05,104.54,5.4445e-06,0.060242,-3.0395e-05,-269.23,2.6446
3103,22.899,1.8182,0,3.0317e-05,302.96,1.8832e-05,111.97,3.9385e-06,0.072163,-2.6818e-05,-231.02,2.6754
3104,23.083,1.8182,0,2.7357e-05,273.38,1.8373e-05,119.98,2.4152e-06,0.086853,-2.3264e-05,-192.86,2.7061
3105,23.266,1.8182,0,2.4585e-05,245.68,1.7972e-05,128.59,8.7357e-07,0.11764,-1.973e-05,-154.69,2.7369
3106,23.45,1.8182,0,2.2058e-05,220.43,1.7629e-05,137.78,-6.9101e-07,0.1344,-1.6208e-05,-116.45,2.7678
3107,23.633,1.8182,0,1.9862e-05,198.48,1.7341e-05,147.63,-2.2651e-06,0.31631,-1.2699e-05,-78.076,2.7986
3108,23.817,1.8182,0,1.8114e-05,181.01,1.7108e-05,157.91,-3.8847e-06,0.18272,-9.1959e-06,-39.723,2.8294
3109,3.4501,1.6364,0,0.00092244,9218,0.00060124,3800.3,9.7691e-05,16.872,-0.00079726,-6707.5,0.07611
3110,3.6336,1.6364,0,0.00074862,7481,0.00040084,1915.7,0.00014625,2.7769,-0.0006974,-6336.1,0.088539
3111,3.8171,1.6364,0,0.00065811,6576.6,0.00030001,1005.9,0.0001641,-15.26,-0.00063528,-6021.6,0.10127
3112,4.0006,1.6364,0,0.00060273,6023.2,0.00024147,513.86,0.00017259,-3.6617,-0.00059238,-5751.4,0.11433
3113,4.1841,1.6364,0,0.00056568,5652.9,0.00020608,229.47,0.00017458,-7.1721,-0.00056152,-5538,0.12775
3114,4.3676,1.6364,0,0.00054033,5399.6,0.00018482,70.034,0.00017369,-13.538,-0.00053932,-5370.9,0.14152
3115,4.551,1.6364,0,0.00052182,5214.6,0.00017586,11.525,0.00016705,-54.639,-0.00052252,-5235.9,0.15564
3116,4.7345,1.6364,0,0.00050758,5072.3,0.0001731,4.0516,0.00015835,-106.76,-0.00050923,-5122.7,0.1701
3117,4.918,1.6364,0,0.00049602,4956.8,0.00017077,2.1488,0.0001518,-140.33,-0.00049822,-5024.3,0.1849
3118,5.1015,1.6364,0,0.00048622,4858.9,0.00016842,1.3315,0.00014696,-159.96,-0.00048872,-4936.2,0.20003
3119,5.285,1.6364,0,0.00047761,4772.8,0.00016605,0.88771,0.00014325,-170.4,-0.00048027,-4855.3,0.2155
3120,5.4684,1.6364,0,0.00046984,4695.1,0.00016367,0.61743,0.00014033,-174.76,-0.00047255,-4779.7,0.23128
3121,5.6519,1.6364,0,0.00046266,4623.4,0.0001613,0.44088,0.00013795,-175.04,-0.00046538,-4708.2,0.24738
3122,5.8354,1.6364,0,0.00045595,4556.3,0.00015895,0.32061,0.00013595,-172.53,-0.00045863,-4640,0.2638
3123,6.0189,1.6364,0,0.00044958,4492.7,0.00015663,0.23633,0.00013423,-168.08,-0.0004522,-4574.3,0.28052
3124,6.2024,1.6364,0,0.00044349,4431.9,0.00015433,0.17612,0.00013271,-162.28,-0.00044603,-4510.7,0.29755
3125,6.3858,1.6364,0,0.00043762,4373.2,0.00015206,0.13248,0.00013134,-155.56,-0.00044006,-4448.8,0.31488
3126,6.5693,1.6364,0,0.00043193,4316.3,0.00014982,0.10051,0.00013008,-148.22,-0.00043426,-4388.4,0.33251
3127,6.7528,1.6364,0,0.00042638,4260.8,0.00014761,0.076865,0.0001289,-140.51,-0.00042859,-4329.3,0.35043
3128,6.9363,1.6364,0,0.00042094,4206.5,0.00014543,0.059251,0.00012777,-132.61,-0.00042304,-4271.2,0.36864
3129,7.1198,1.6364,0,0.00041559,4153.1,0.00014328,0.046042,0.00012668,-124.66,-0.00041757,-4214,0.38713
3130,7.3032,1.6364,0,0.00041032,4100.4,0.00014115,0.036078,0.00012561,-116.76,-0.00041218,-4157.5,0.4059
3131,7.4867,1.6364,0,0.0004051,4048.2,0.00013905,0.028524,0.00012454,-109.01,-0.00040685,-4101.6,0.42495
3132,7.6702,1.6364,0,0.00039993,3996.6,0.00013697,0.02277,0.00012347,-101.47,-0.00040156,-4046.3,0.44428
3133,7.8537,1.6364,0,0.0003948,3945.3,0.00013492,0.018373,0.00012239,-94.179,-0.00039632,-3991.5,0.46387
3134,8.0372,1.6364,0,0.0003897,3894.3,0.0001329,0.015001,0.00012129,-87.181,-0.00039111,-3937.1,0.48373
3135,8.2206,1.6364,0,0.00038462,3843.5,0.00013089,0.01241,0.00012018,-80.496,-0.00038592,-3883.1,0.50386
3136,8.4041,1.6364,0,0.00037956,3792.9,0.00012891,0.010415,0.00011904,-74.138,-0.00038076,-3829.5,0.52424
3137,8.5876,1.6364,0,0.00037451,3742.5,0.00012695,0.0088802,0.00011788,-68.113,-0.00037562,-3776.1,0.54488
3138,8.7711,1.6364,0,0.00036947,3692.2,0.00012501,0.0077001,0.0001167,-62.423,-0.00037049,-3723,0.56578
3139,8.9546,1.6364,0,0.00036444,3641.9,0.00012308,0.0067955,0.00011549,-57.064,-0.00036538,-3670.1,0.58692
3140,9.1381,1.6364,0,0.00035943,3591.8,0.00012118,0.0061052,0.00011425,-52.028,-0.00036028,-3617.5,0.60831
3141,9.3215,1.6364,0,0.00035442,3541.7,0.00011929,0.0055841,0.000113,-47.305,-0.0003552,-3565.1,0.62994
3142,9.505,1.6364,0,0.00034941,3491.7,0.00011742,0.0051947,0.00011172,-42.885,-0.00035012,-3513,0.65181
3143,9.6885,1.6364,0,0.00034442,3441.8,0.00011557,0.0049151,0.00011041,-38.753,-0.00034506,-3461,0.67392
3144,9.872,1.6364,0,0.00033943,3392,0.00011374,0.0047132,0.00010909,-34.895,-0.00034001,-3409.3,0.69626
3145,10.055,1.6364,0,0.00033445,3342.2,0.00011192,0.0045951,0.00010775,-31.297,-0.00033497,-3357.7,0.71883
3146,10.239,1.6364,0,0.00032948,3292.5,0.00011011,0.0045299,0.00010639,-27.945,-0.00032994,-3306.4,0.74162
3147,10.422,1.6364,0,0.00032451,3242.9,0.00010832,0.0044839,0.00010501,-24.823,-0.00032493,-3255.2,0.76463
3148,10.606,1.6364,0,0.00031956,3193.4,0.00010654,0.0044978,0.00010362,-21.918,-0.00031992,-3204.3,0.78787
3149,10.789,1.6364,0,0.00031461,3143.9,0.00010477,0.0045721,0.00010221,-19.215,-0.00031493,-3153.5,0.81132
3150,10.973,1.6364,0,0.00030967,3094.6,0.00010302,0.0047086,0.00010079,-16.701,-0.00030995,-3102.9,0.83498
3151,11.156,1.6364,0,0.00030474,3045.3,0.00010128,0.0048468,9.9364e-05,-14.363,-0.00030499,-3052.5,0.85885
3152,11.34,1.6364,0,0.00029983,2996.2,9.9547e-05,0.0050397,9.7924e-05,-12.188,-0.00030003,-3002.3,0.88292
3153,11.523,1.6364,0,0.00029492,2947.2,9.7828e-05,0.0053556,9.6475e-05,-10.164,-0.0002951,-2952.3,0.9072
3154,11.707,1.6364,0,0.00029003,2898.3,9.6121e-05,0.0057385,9.5018e-05,-8.2808,-0.00029017,-2902.4,0.93167
3155,11.89,1.6364,0,0.00028515,2849.5,9.4424e-05,0.0063005,9.3554e-05,-6.5274,-0.00028526,-2852.8,0.95634
3156,12.074,1.6364,0,0.00028028,2800.9,9.2737e-05,0.0071797,9.2084e-05,-4.8939,-0.00028037,-2803.3,0.98121
3157,12.257,1.6364,0,0.00027543,2752.4,9.106e-05,0.0087033,9.061e-05,-3.3712,-0.00027549,-2754.1,1.0063
3158,12.441,1.6364,0,0.00027059,2704,8.9393e-05,0.012259,8.9132e-05,-1.9517,-0.00027062,-2705,1.0315
3159,12.624,1.6364,0,0.00026577,2655.8,8.7737e-05,0.029393,8.7648e-05,-0.63867,-0.00026578,-2656.1,1.0569
3160,12.808,1.6364,0,0.00026096,2607.8,8.6172e-05,0.65706,8.6082e-05,-0.020993,-0.00026095,-2607.5,1.0825
3161,12.991,1.6364,0,0.00025616,2559.9,8.4685e-05,1.8087,8.4444e-05,-0.0049767,-0.00025613,-2559,1.1083
3162,13.175,1.6364,0,0.00025138,2512.1,8.3199e-05,2.9024,8.2813e-05,-0.0015124,-0.00025133,-2510.7,1.1342
3163,13.358,1.6364,0,0.00024662,2464.5,8.1714e-05,3.9342,8.119e-05,6.1912e-05,-0.00024655,-2462.5,1.1603
3164,13.542,1.6364,0,0.00024188,2417.1,8.0229e-05,4.9087,7.9576e-05,0.00094596,-0.00024179,-2414.6,1.1866
3165,13.725,1.6364,0,0.00023715,2369.8,7.8745e-05,5.8318,7.7969e-05,0.0015438,-0.00023705,-2366.9,1.2131
3166,13.909,1.6364,0,0.00023243,2322.7,7.7263e-05,6.7087,7.6371e-05,0.0019915,-0.00023232,-2319.4,1.2397
3167,14.092,1.6364,0,0.00022774,2275.8,7.5784e-05,7.5446,7.478e-05,0.0023144,-0.00022761,-2272,1.2664
3168,14.276,1.6364,0,0.00022306,2229.1,7.4307e-05,8.3447,7.3197e-05,0.0026163,-0.00022292,-2224.9,1.2933
3169,14.459,1.6364,0,0.0002184,2182.5,7.2834e-05,9.1136,7.1621e-05,0.0028808,-0.00021825,-2177.9,1.3204
3170,14.642,1.6364,0,0.00021376,2136.1,7.1364e-05,9.856,7.0053e-05,0.0030853,-0.00021359,-2131.2,1.3476
3171,14.826,1.6364,0,0.00020914,2089.9,6.9899e-05,10.576,6.8492e-05,0.0032891,-0.00020896,-2084.6,1.3749
3172,15.009,1.6364,0,0.00020454,2043.9,6.8438e-05,11.279,6.6938e-05,0.00349,-0.00020434,-2038.3,1.4024
3173,15.193,1.6364,0,0.00019995,1998.1,6.6983e-05,11.968,6.539e-05,0.0036976,-0.00019974,-1992.1,1.4301
3174,15.376,1.6364,0,0.00019538,1952.5,6.5533e-05,12.647,6.385e-05,0.0038776,-0.00019517,-1946.1,1.4578
3175,15.56,1.6364,0,0.00019084,1907.1,6.4089e-05,13.322,6.2316e-05,0.0040624,-0.00019061,-1900.4,1.4857
3176,15.743,1.6364,0,0.00018631,1861.8,6.2651e-05,13.994,6.0789e-05,0.0042512,-0.00018607,-1854.8,1.5137
3177,15.927,1.6364,0,0.00018181,1816.8,6.122e-05,14.669,5.9268e-05,0.0044173,-0.00018155,-1809.4,1.5419
3178,16.11,1.6364,0,0.00017732,1772,5.9796e-05,15.351,5.7754e-05,0.0046214,-0.00017705,-1764.2,1.5701
3179,16.294,1.6364,0,0.00017285,1727.3,5.838e-05,16.043,5.6245e-05,0.0048283,-0.00017257,-1719.3,1.5985
3180,16.477,1.6364,0,0.00016841,1682.9,5.6972e-05,16.749,5.4743e-05,0.005016,-0.00016812,-1674.5,1.627
3181,16.661,1.6364,0,0.00016398,1638.7,5.5572e-05,17.475,5.3247e-05,0.0052259,-0.00016368,-1629.9,1.6557
3182,16.844,1.6364,0,0.00015958,1594.7,5.4181e-05,18.223,5.1756e-05,0.0054542,-0.00015926,-1585.5,1.6844
3183,17.028,1.6364,0,0.0001552,1550.9,5.2799e-05,18.998,5.0271e-05,0.0057004,-0.00015486,-1541.3,1.7132
3184,17.211,1.6364,0,0.00015083,1507.3,5.1427e-05,19.805,4.8792e-05,0.0059448,-0.00015049,-1497.3,1.7421
3185,17.395,1.6364,0,0.0001465,1463.9,5.0065e-05,20.649,4.7318e-05,0.0062057,-0.00014613,-1453.5,1.7712
3186,17.578,1.6364,0,0.00014218,1420.8,4.8714e-05,21.534,4.5849e-05,0.0064881,-0.0001418,-1409.9,1.8003
3187,17.762,1.6364,0,0.00013788,1377.9,4.7374e-05,22.465,4.4385e-05,0.0067703,-0.00013749,-1366.5,1.8296
3188,17.945,1.6364,0,0.00013361,1335.2,4.6045e-05,23.448,4.2926e-05,0.0070929,-0.0001332,-1323.3,1.8589
3189,18.129,1.6364,0,0.00012936,1292.7,4.4729e-05,24.489,4.1471e-05,0.0074373,-0.00012893,-1280.3,1.8883
3190,18.312,1.6364,0,0.00012514,1250.5,4.3426e-05,25.593,4.0021e-05,0.0077881,-0.00012468,-1237.5,1.9178
3191,18.496,1.6364,0,0.00012093,1208.5,4.2137e-05,26.767,3.8575e-05,0.0081771,-0.00012046,-1194.9,1.9474
3192,18.679,1.6364,0,0.00011676,1166.7,4.0862e-05,28.018,3.7134e-05,0.0086,-0.00011625,-1152.5,1.977
3193,18.863,1.6364,0,0.0001126,1125.2,3.9601e-05,29.352,3.5696e-05,0.0090674,-0.00011207,-1110.3,2.0068
3194,19.046,1.6364,0,0.00010847,1084,3.8356e-05,30.778,3.4261e-05,0.0095578,-0.00010792,-1068.3,2.0366
3195,19.229,1.6364,0,0.00010437,1043,3.7128e-05,32.305,3.283e-05,0.010095,-0.00010378,-1026.4,2.0665
3196,19.413,1.6364,0,0.00010029,1002.2,3.5917e-05,33.94,3.1402e-05,0.010687,-9.9671e-05,-984.82,2.0964
3197,19.596,1.6364,0,9.6241e-05,961.75,3.4725e-05,35.693,2.9976e-05,0.011319,-9.5584e-05,-943.4,2.1265
3198,19.78,1.6364,0,9.2218e-05,921.54,3.3552e-05,37.575,2.8553e-05,0.012032,-9.1521e-05,-902.17,2.1565
3199,19.963,1.6364,0,8.8222e-05,881.61,3.2399e-05,39.597,2.7131e-05,0.012818,-8.7482e-05,-861.14,2.1867
3200,20.147,1.6364,0,8.4256e-05,841.98,3.1268e-05,41.771,2.5711e-05,0.013675,-8.3467e-05,-820.31,2.2169
3201,20.33,1.6364,0,8.0319e-05,802.64,3.016e-05,44.11,2.4292e-05,0.014639,-7.9478e-05,-779.67,2.2472
3202,20.514,1.6364,0,7.6414e-05,763.61,2.9077e-05,46.629,2.2873e-05,0.01572,-7.5513e-05,-739.22,2.2775
3203,20.697,1.6364,0,7.2541e-05,724.91,2.8019e-05,49.343,2.1454e-05,0.016941,-7.1575e-05,-698.97,2.3079
3204,20.881,1.6364,0,6.8701e-05,686.54,2.6989e-05,52.27,2.0035e-05,0.018316,-6.7663e-05,-658.9,2.3383
3205,21.064,1.6364,0,6.4898e-05,648.53,2.5988e-05,55.429,1.8614e-05,0.019887,-6.3777e-05,-619.03,2.3687
3206,21.248,1.6364,0,6.1133e-05,610.91,2.5019e-05,58.842,1.7191e-05,0.021696,-5.9919e-05,-579.35,2.3992
3207,21.431,1.6364,0,5.7409e-05,573.7,2.4084e-05,62.531,1.5765e-05,0.023783,-5.6089e-05,-539.86,2.4298
3208,21.615,1.6364,0,5.373e-05,536.93,2.3186e-05,66.523,1.4336e-05,0.026233,-5.2288e-05,-500.56,2.4604
3209,21.798,1.6364,0,5.0099e-05,500.65,2.2327e-05,70.848,1.2901e-05,0.029127,-4.8516e-05,-461.44,2.491
3210,21.982,1.6364,0,4.6523e-05,464.91,2.151e-05,75.538,1.1461e-05,0.032583,-4.4775e-05,-422.5,2.5216
3211,22.165,1.6364,0,4.3008e-05,429.78,2.074e-05,80.63,1.0013e-05,0.036782,-4.1065e-05,-383.74,2.5523
3212,22.349,1.6364,0,3.9563e-05,395.36,2.0019e-05,86.163,8.557e-06,0.041958,-3.7387e-05,-345.16,2.583
3213,22.532,1.6364,0,3.6201e-05,361.76,1.9352e-05,92.178,7.0902e-06,0.048513,-3.3741e-05,-306.74,2.6137
3214,22.716,1.6364,0,3.2936e-05,329.13,1.8742e-05,98.721,5.611e-06,0.05687,-3.0126e-05,-268.46,2.6445
3215,22.899,1.6364,0,2.979e-05,297.69,1.8194e-05,105.83,4.1172e-06,0.068616,-2.6543e-05,-230.3,2.6753
3216,23.083,1.6364,0,2.6792e-05,267.73,1.7708e-05,113.55,2.6063e-06,0.083071,-2.2989e-05,-192.23,2.7061
3217,23.266,1.6364,0,2.3982e-05,239.66,1.7288e-05,121.92,1.0768e-06,0.11346,-1.9458e-05,-154.18,2.7369
3218,23.45,1.6364,0,2.1421e-05,214.06,1.6931e-05,130.93,-4.7652e-07,0.12967,-1.5946e-05,-116.1,2.7677
3219,23.633,1.6364,0,1.9194e-05,191.81,1.6637e-05,140.65,-2.0408e-06,0.30969,-1.2451e-05,-77.908,2.7985
3220,23.817,1.6364,0,1.7428e-05,174.16,1.6407e-05,150.9,-3.6533e-06,0.17008,-8.9666e-06,-39.752,2.8293
3221,3.4501,1.4545,0,0.00070775,7072.6,0.00046099,2886.8,7.2319e-05,-33.506,-0.00061241,-5178.3,0.074212
3222,3.6336,1.4545,0,0.00061622,6157.9,0.0003419,1730,0.00011133,-2.3835,-0.00056826,-5108.6,0.086971
3223,3.8171,1.4545,0,0.00057148,5710.9,0.00027361,1043.3,0.0001341,-4.9343,-0.00054655,-5119.1,0.099944
3224,4.0006,1.4545,0,0.00054064,5402.7,0.00022824,603.86,0.00014728,-4.4695,-0.00052787,-5077.2,0.11319
3225,4.1841,1.4545,0,0.00052044,5200.8,0.00019936,331.05,0.00015471,-4.4073,-0.00051407,-5029.4,0.12674
3226,4.3676,1.4545,0,0.0005067,5063.5,0.00018104,163.13,0.00015861,-5.354,-0.0005038,-4982.5,0.14061
3227,4.551,1.4545,0,0.00049675,4964,0.00016952,61.503,0.00016009,-9.3521,-0.00049582,-4937.6,0.1548
3228,4.7345,1.4545,0,0.00048891,4885.8,0.0001639,13.758,0.00015828,-28.478,-0.00048915,-4893,0.16931
3229,4.918,1.4545,0,0.00048222,4818.9,0.00016256,4.3918,0.00015372,-62.061,-0.00048317,-4847.4,0.18415
3230,5.1015,1.4545,0,0.00047613,4758,0.00016163,2.1896,0.00014967,-87.674,-0.00047752,-4800.1,0.19932
3231,5.285,1.4545,0,0.00047033,4700.1,0.00016048,1.3004,0.00014636,-104.75,-0.000472,-4750.9,0.2148
3232,5.4684,1.4545,0,0.0004647,4643.7,0.00015911,0.84066,0.00014361,-115.63,-0.00046654,-4700,0.2306
3233,5.6519,1.4545,0,0.00045914,4588.2,0.00015757,0.57075,0.00014125,-122.06,-0.00046108,-4647.7,0.24671
3234,5.8354,1.4545,0,0.00045364,4533.2,0.00015589,0.40021,0.00013917,-125.24,-0.00045563,-4594.3,0.26313
3235,6.0189,1.4545,0,0.00044817,4478.6,0.00015412,0.28727,0.00013731,-126,-0.00045018,-4540.2,0.27987
3236,6.2024,1.4545,0,0.00044275,4424.4,0.00015227,0.21003,0.00013562,-124.91,-0.00044474,-4485.5,0.2969
3237,6.3858,1.4545,0,0.00043736,4370.6,0.00015036,0.15593,0.00013405,-122.42,-0.00043931,-4430.5,0.31423
3238,6.5693,1.4545,0,0.00043202,4317.2,0.00014842,0.11733,0.00013259,-118.86,-0.00043391,-4375.3,0.33186
3239,6.7528,1.4545,0,0.00042671,4264.1,0.00014645,0.089351,0.0001312,-114.5,-0.00042854,-4320.2,0.34978
3240,6.9363,1.4545,0,0.00042143,4211.4,0.00014447,0.068817,0.00012988,-109.56,-0.00042319,-4265.1,0.36799
3241,7.1198,1.4545,0,0.00041619,4159,0.00014248,0.053573,0.0001286,-104.22,-0.00041786,-4210.1,0.38649
3242,7.3032,1.4545,0,0.00041098,4106.9,0.00014048,0.042144,0.00012735,-98.619,-0.00041257,-4155.3,0.40526
3243,7.4867,1.4545,0,0.00040579,4055.1,0.00013849,0.033499,0.00012612,-92.882,-0.00040729,-4100.7,0.42431
3244,7.6702,1.4545,0,0.00040063,4003.5,0.0001365,0.026909,0.00012491,-87.106,-0.00040204,-4046.4,0.44364
3245,7.8537,1.4545,0,0.00039549,3952.2,0.00013452,0.02185,0.00012369,-81.37,-0.00039681,-3992.2,0.46324
3246,8.0372,1.4545,0,0.00039037,3901,0.00013256,0.017944,0.00012247,-75.733,-0.0003916,-3938.3,0.48311
3247,8.2206,1.4545,0,0.00038526,3850,0.0001306,0.014912,0.00012125,-70.245,-0.00038641,-3884.6,0.50324
3248,8.4041,1.4545,0,0.00038017,3799.1,0.00012866,0.012549,0.00012002,-64.94,-0.00038123,-3831.1,0.52363
3249,8.5876,1.4545,0,0.00037509,3748.3,0.00012673,0.0107,0.00011877,-59.844,-0.00037607,-3777.9,0.54427
3250,8.7711,1.4545,0,0.00037002,3697.6,0.00012482,0.0092518,0.0001175,-54.973,-0.00037092,-3724.8,0.56517
3251,8.9546,1.4545,0,0.00036496,3647.1,0.00012292,0.0081155,0.00011622,-50.339,-0.00036579,-3672,0.58632
3252,9.1381,1.4545,0,0.00035991,3596.6,0.00012104,0.0072241,0.00011492,-45.946,-0.00036067,-3619.4,0.60771
3253,9.3215,1.4545,0,0.00035487,3546.2,0.00011917,0.0065282,0.00011361,-41.795,-0.00035556,-3567,0.62935
3254,9.505,1.4545,0,0.00034984,3496,0.00011732,0.0059865,0.00011228,-37.884,-0.00035047,-3514.7,0.65123
3255,9.6885,1.4545,0,0.00034481,3445.8,0.00011548,0.0055744,0.00011093,-34.207,-0.00034538,-3462.7,0.67334
3256,9.872,1.4545,0,0.0003398,3395.7,0.00011365,0.0052571,0.00010956,-30.757,-0.00034031,-3410.9,0.69569
3257,10.055,1.4545,0,0.00033479,3345.6,0.00011184,0.005039,0.00010818,-27.525,-0.00033525,-3359.3,0.71826
3258,10.239,1.4545,0,0.0003298,3295.7,0.00011005,0.0048909,0.00010678,-24.501,-0.00033021,-3307.9,0.74106
3259,10.422,1.4545,0,0.00032481,3245.9,0.00010826,0.0047745,0.00010537,-21.677,-0.00032518,-3256.7,0.76408
3260,10.606,1.4545,0,0.00031984,3196.2,0.00010649,0.0047341,0.00010395,-19.039,-0.00032016,-3205.6,0.78732
3261,10.789,1.4545,0,0.00031487,3146.6,0.00010473,0.0047695,0.00010252,-16.579,-0.00031515,-3154.8,0.81078
3262,10.973,1.4545,0,0.00030992,3097,0.00010298,0.004886,0.00010108,-14.285,-0.00031016,-3104.2,0.83445
3263,11.156,1.4545,0,0.00030498,3047.7,0.00010124,0.005028,9.9626e-05,-12.146,-0.00030518,-3053.7,0.85833
3264,11.34,1.4545,0,0.00030005,2998.4,9.9518e-05,0.0052571,9.8166e-05,-10.153,-0.00030022,-3003.5,0.88241
3265,11.523,1.4545,0,0.00029513,2949.3,9.7804e-05,0.0056611,9.6699e-05,-8.2955,-0.00029527,-2953.4,0.90669
3266,11.707,1.4545,0,0.00029023,2900.2,9.61e-05,0.0062166,9.5225e-05,-6.5639,-0.00029034,-2903.5,0.93117
3267,11.89,1.4545,0,0.00028533,2851.4,9.4406e-05,0.0071251,9.3746e-05,-4.9492,-0.00028542,-2853.8,0.95585
3268,12.074,1.4545,0,0.00028046,2802.6,9.2722e-05,0.0087673,9.2263e-05,-3.4431,-0.00028052,-2804.4,0.98072
3269,12.257,1.4545,0,0.0002756,2754.1,9.1049e-05,0.01246,9.0776e-05,-2.0388,-0.00027563,-2755.1,1.0058
3270,12.441,1.4545,0,0.00027075,2705.6,8.9386e-05,0.028464,8.9284e-05,-0.73834,-0.00027076,-2706,1.031
3271,12.624,1.4545,0,0.00026592,2657.3,8.78e-05,0.55283,8.7722e-05,-0.030574,-0.00026591,-2657.1,1.0564
3272,12.808,1.4545,0,0.0002611,2609.2,8.6304e-05,1.685,8.6079e-05,-0.0076943,-0.00026107,-2608.4,1.0821
3273,12.991,1.4545,0,0.0002563,2561.2,8.481e-05,2.765,8.4441e-05,-0.0033506,-0.00025625,-2559.8,1.1078
3274,13.175,1.4545,0,0.00025151,2513.4,8.3316e-05,3.7833,8.2812e-05,-0.0015223,-0.00025145,-2511.5,1.1338
3275,13.358,1.4545,0,0.00024675,2465.8,8.1822e-05,4.7441,8.1191e-05,-0.00046419,-0.00024666,-2463.4,1.1599
3276,13.542,1.4545,0,0.00024199,2418.3,8.033e-05,5.6526,7.9578e-05,0.00019431,-0.0002419,-2415.4,1.1862
3277,13.725,1.4545,0,0.00023726,2371,7.884e-05,6.5139,7.7973e-05,0.00067184,-0.00023715,-2367.7,1.2126
3278,13.909,1.4545,0,0.00023254,2323.8,7.7352e-05,7.3331,7.6376e-05,0.0010391,-0.00023242,-2320.2,1.2393
3279,14.092,1.4545,0,0.00022785,2276.9,7.5867e-05,8.1149,7.4787e-05,0.0013062,-0.00022771,-2272.8,1.266
3280,14.276,1.4545,0,0.00022317,2230.1,7.4385e-05,8.8639,7.3205e-05,0.0015653,-0.00022301,-2225.7,1.2929
3281,14.459,1.4545,0,0.0002185,2183.5,7.2906e-05,9.5845,7.1631e-05,0.0017903,-0.00021834,-2178.7,1.32
3282,14.642,1.4545,0,0.00021386,2137.1,7.1432e-05,10.281,7.0064e-05,0.0019609,-0.00021368,-2131.9,1.3472
3283,14.826,1.4545,0,0.00020923,2090.9,6.9962e-05,10.957,6.8504e-05,0.0021338,-0.00020904,-2085.4,1.3746
3284,15.009,1.4545,0,0.00020463,2044.8,6.8496e-05,11.617,6.6951e-05,0.002307,-0.00020443,-2039,1.4021
3285,15.193,1.4545,0,0.00020004,1999,6.7036e-05,12.265,6.5404e-05,0.0024849,-0.00019983,-1992.8,1.4297
3286,15.376,1.4545,0,0.00019547,1953.4,6.5582e-05,12.903,6.3865e-05,0.0026365,-0.00019525,-1946.9,1.4575
3287,15.56,1.4545,0,0.00019092,1907.9,6.4134e-05,13.537,6.2332e-05,0.0027914,-0.00019069,-1901.1,1.4854
3288,15.743,1.4545,0,0.00018639,1862.6,6.2692e-05,14.17,6.0806e-05,0.0029521,-0.00018615,-1855.5,1.5134
3289,15.927,1.4545,0,0.00018188,1817.6,6.1257e-05,14.805,5.9287e-05,0.0030898,-0.00018163,-1810.1,1.5416
3290,16.11,1.4545,0,0.00017739,1772.7,5.9829e-05,15.446,5.7773e-05,0.0032618,-0.00017713,-1764.9,1.5698
3291,16.294,1.4545,0,0.00017292,1728,5.8408e-05,16.096,5.6266e-05,0.0034361,-0.00017264,-1719.9,1.5982
3292,16.477,1.4545,0,0.00016848,1683.6,5.6995e-05,16.76,5.4765e-05,0.0035928,-0.00016818,-1675.1,1.6267
3293,16.661,1.4545,0,0.00016405,1639.3,5.5591e-05,17.441,5.327e-05,0.0037674,-0.00016374,-1630.6,1.6554
3294,16.844,1.4545,0,0.00015964,1595.3,5.4195e-05,18.142,5.178e-05,0.0039598,-0.00015932,-1586.2,1.6841
3295,17.028,1.4545,0,0.00015525,1551.5,5.2808e-05,18.869,5.0297e-05,0.0041729,-0.00015492,-1541.9,1.7129
3296,17.211,1.4545,0,0.00015089,1507.9,5.143e-05,19.624,4.8819e-05,0.0043784,-0.00015055,-1497.9,1.7419
3297,17.395,1.4545,0,0.00014655,1464.5,5.0062e-05,20.412,4.7346e-05,0.0045983,-0.00014619,-1454.1,1.7709
3298,17.578,1.4545,0,0.00014222,1421.3,4.8705e-05,21.238,4.5879e-05,0.0048383,-0.00014185,-1410.5,1.8001
3299,17.762,1.4545,0,0.00013792,1378.3,4.7358e-05,22.106,4.4416e-05,0.0050768,-0.00013754,-1367.1,1.8293
3300,17.945,1.4545,0,0.00013365,1335.6,4.6022e-05,23.021,4.2959e-05,0.0053528,-0.00013324,-1323.9,1.8586
3301,18.129,1.4545,0,0.00012939,1293,4.4698e-05,23.987,4.1506e-05,0.0056494,-0.00012897,-1280.9,1.8881
3302,18.312,1.4545,0,0.00012516,1250.7,4.3386e-05,25.011,4.0058e-05,0.0059493,-0.00012472,-1238,1.9176
3303,18.496,1.4545,0,0.00012095,1208.7,4.2087e-05,26.098,3.8614e-05,0.0062817,-0.00012049,-1195.4,1.9471
3304,18.679,1.4545,0,0.00011676,1166.8,4.0801e-05,27.255,3.7175e-05,0.0066523,-0.00011628,-1153,1.9768
3305,18.863,1.4545,0,0.0001126,1125.2,3.953e-05,28.486,3.5739e-05,0.0070563,-0.00011209,-1110.7,2.0066
3306,19.046,1.4545,0,0.00010846,1083.9,3.8273e-05,29.801,3.4308e-05,0.0074843,-0.00010793,-1068.7,2.0364
3307,19.229,1.4545,0,0.00010435,1042.8,3.7031e-05,31.205,3.2879e-05,0.0079542,-0.00010378,-1026.8,2.0663
3308,19.413,1.4545,0,0.00010026,1001.9,3.5806e-05,32.706,3.1454e-05,0.0084722,-9.9665e-05,-985.17,2.0962
3309,19.596,1.4545,0,9.6199e-05,961.32,3.4597e-05,34.314,3.0031e-05,0.0090294,-9.5569e-05,-943.7,2.1263
3310,19.78,1.4545,0,9.2161e-05,920.98,3.3407e-05,36.038,2.8611e-05,0.0096612,-9.1495e-05,-902.42,2.1564
3311,19.963,1.4545,0,8.8151e-05,880.9,3.2235e-05,37.887,2.7194e-05,0.010359,-8.7445e-05,-861.34,2.1865
3312,20.147,1.4545,0,8.4167e-05,841.09,3.1083e-05,39.872,2.5778e-05,0.011125,-8.3418e-05,-820.44,2.2167
3313,20.33,1.4545,0,8.0212e-05,801.57,2.9952e-05,42.005,2.4363e-05,0.01199,-7.9415e-05,-779.73,2.247
3314,20.514,1.4545,0,7.6286e-05,762.34,2.8844e-05,44.3,2.2949e-05,0.012971,-7.5436e-05,-739.22,2.2773
3315,20.697,1.4545,0,7.2391e-05,723.41,2.7759e-05,46.771,2.1536e-05,0.014081,-7.1482e-05,-698.88,2.3077
3316,20.881,1.4545,0,6.8528e-05,684.8,2.67e-05,49.433,2.0123e-05,0.015344,-6.7552e-05,-658.74,2.3381
3317,21.064,1.4545,0,6.4698e-05,646.53,2.5667e-05,52.305,1.8708e-05,0.016792,-6.3649e-05,-618.78,2.3686
3318,21.248,1.4545,0,6.0904e-05,608.62,2.4665e-05,55.408,1.7293e-05,0.018473,-5.9771e-05,-579.01,2.3991
3319,21.431,1.4545,0,5.7148e-05,571.09,2.3693e-05,58.763,1.5875e-05,0.020424,-5.5921e-05,-539.43,2.4296
3320,21.615,1.4545,0,5.3435e-05,533.98,2.2756e-05,62.398,1.4454e-05,0.022736,-5.2099e-05,-500.03,2.4602
3321,21.798,1.4545,0,4.9767e-05,497.33,2.1855e-05,66.342,1.3029e-05,0.025487,-4.8305e-05,-460.82,2.4909
3322,21.982,1.4545,0,4.6151e-05,461.19,2.0996e-05,70.629,1.1599e-05,0.028791,-4.4542e-05,-421.79,2.5215
3323,22.165,1.4545,0,4.2594e-05,425.65,2.018e-05,75.3,1.0163e-05,0.032839,-4.081e-05,-382.96,2.5522
3324,22.349,1.4545,0,3.9105e-05,390.78,1.9414e-05,80.398,8.7191e-06,0.037854,-3.7111e-05,-344.31,2.5829
3325,22.532,1.4545,0,3.5696e-05,356.71,1.8702e-05,85.973,7.2655e-06,0.044241,-3.3447e-05,-305.85,2.6136
3326,22.716,1.4545,0,3.2383e-05,323.61,1.8049e-05,92.081,5.8004e-06,0.052407,-2.9818e-05,-267.57,2.6444
3327,22.899,1.4545,0,2.9188e-05,291.68,1.746e-05,98.779,4.3214e-06,0.06392,-2.6225e-05,-229.45,2.6752
3328,23.083,1.4545,0,2.6141e-05,261.23,1.6939e-05,106.12,2.8257e-06,0.078064,-2.2666e-05,-191.46,2.706
3329,23.266,1.4545,0,2.3285e-05,232.69,1.6491e-05,114.16,1.3113e-06,0.10795,-1.9139e-05,-153.54,2.7368
3330,23.45,1.4545,0,2.0678e-05,206.64,1.6116e-05,122.92,-2.2773e-07,0.12347,-1.5637e-05,-115.65,2.7676
3331,23.633,1.4545,0,1.8413e-05,184,1.5812e-05,132.48,-1.7795e-06,0.30112,-1.2158e-05,-77.676,2.7984
3332,23.817,1.4545,0,1.6623e-05,166.11,1.5585e-05,142.67,-3.3827e-06,0.15426,-8.6959e-06,-39.767,2.8292
3333,3.4501,1.2727,0,0.00055951,5591.3,0.00036094,2242.8,6.1095e-05,-10.068,-0.00048636,-4123.4,0.072309
3334,3.6336,1.2727,0,0.00050639,5060.4,0.000282,1435.8,9.0766e-05,-1.0494,-0.00046643,-4187.6,0.08534
3335,3.8171,1.2727,0,0.00048871,4883.7,0.00023745,936.1,0.00011228,-4.4094,-0.00046601,-4349.4,0.098533
3336,4.0006,1.2727,0,0.00047959,4792.6,0.00020734,596.4,0.0001275,-3.4477,-0.00046668,-4467.9,0.11195
3337,4.1841,1.2727,0,0.000475,4746.8,0.00018747,370.1,0.00013778,-3.2793,-0.00046766,-4552.3,0.12563
3338,4.3676,1.2727,0,0.00047278,4724.5,0.0001746,221.97,0.00014461,-3.3794,-0.00046865,-4611.2,0.13959
3339,4.551,1.2727,0,0.0004714,4710.7,0.00016614,124.75,0.00014901,-3.9357,-0.00046921,-4649,0.15386
3340,4.7345,1.2727,0,0.00047001,4696.9,0.00016043,60.625,0.00015163,-5.4874,-0.00046904,-4669,0.16843
3341,4.918,1.2727,0,0.0004682,4678.8,0.0001568,20.938,0.00015255,-11.003,-0.00046803,-4673.8,0.18331
3342,5.1015,1.2727,0,0.00046582,4655,0.00015558,5.8292,0.00015111,-27.721,-0.00046619,-4665.9,0.1985
3343,5.285,1.2727,0,0.00046286,4625.4,0.00015527,2.4275,0.00014868,-47.11,-0.0004636,-4647.5,0.214
3344,5.4684,1.2727,0,0.00045937,4590.5,0.00015478,1.3059,0.0001463,-62.411,-0.00046038,-4620.8,0.22982
3345,5.6519,1.2727,0,0.00045545,4551.3,0.000154,0.79371,0.00014409,-73.64,-0.00045664,-4587.3,0.24594
3346,5.8354,1.2727,0,0.00045118,4508.6,0.00015295,0.51717,0.00014203,-81.53,-0.0004525,-4548.6,0.26238
3347,6.0189,1.2727,0,0.00044664,4463.3,0.00015169,0.3528,0.00014011,-86.724,-0.00044804,-4505.8,0.27911
3348,6.2024,1.2727,0,0.0004419,4416,0.00015027,0.24888,0.00013829,-89.733,-0.00044335,-4460,0.29615
3349,6.3858,1.2727,0,0.00043702,4367.2,0.00014871,0.18025,0.00013658,-90.967,-0.00043849,-4411.9,0.31349
3350,6.5693,1.2727,0,0.00043204,4317.4,0.00014706,0.1334,0.00013496,-90.765,-0.00043351,-4362,0.33112
3351,6.7528,1.2727,0,0.00042699,4266.9,0.00014532,0.10059,0.00013341,-89.411,-0.00042843,-4310.9,0.34905
3352,6.9363,1.2727,0,0.00042189,4216,0.00014352,0.07709,0.00013192,-87.148,-0.0004233,-4258.8,0.36726
3353,7.1198,1.2727,0,0.00041677,4164.8,0.00014169,0.059954,0.00013048,-84.181,-0.00041813,-4206.2,0.38576
3354,7.3032,1.2727,0,0.00041163,4113.4,0.00013982,0.047255,0.00012907,-80.689,-0.00041294,-4153.2,0.40454
3355,7.4867,1.2727,0,0.00040648,4062,0.00013793,0.037714,0.0001277,-76.817,-0.00040774,-4099.9,0.4236
3356,7.6702,1.2727,0,0.00040134,4010.6,0.00013603,0.030458,0.00012635,-72.693,-0.00040253,-4046.5,0.44293
3357,7.8537,1.2727,0,0.0003962,3959.2,0.00013412,0.024881,0.00012501,-68.417,-0.00039732,-3993,0.46253
3358,8.0372,1.2727,0,0.00039106,3907.9,0.00013221,0.020553,0.00012368,-64.075,-0.00039211,-3939.6,0.4824
3359,8.2206,1.2727,0,0.00038593,3856.7,0.00013031,0.017169,0.00012235,-59.733,-0.00038692,-3886.2,0.50254
3360,8.4041,1.2727,0,0.00038081,3805.5,0.00012841,0.014503,0.00012103,-55.446,-0.00038173,-3832.9,0.52293
3361,8.5876,1.2727,0,0.0003757,3754.4,0.00012651,0.012392,0.00011969,-51.255,-0.00037655,-3779.8,0.54358
3362,8.7711,1.2727,0,0.0003706,3703.5,0.00012463,0.010712,0.00011835,-47.19,-0.00037138,-3726.8,0.56449
3363,8.9546,1.2727,0,0.00036551,3652.6,0.00012276,0.0093696,0.000117,-43.276,-0.00036623,-3674,0.58564
3364,9.1381,1.2727,0,0.00036043,3601.8,0.00012089,0.0082957,0.00011563,-39.526,-0.00036108,-3621.4,0.60704
3365,9.3215,1.2727,0,0.00035535,3551.1,0.00011904,0.0074364,0.00011426,-35.952,-0.00035595,-3568.9,0.62869
3366,9.505,1.2727,0,0.00035029,3500.5,0.00011721,0.0067496,0.00011287,-32.559,-0.00035084,-3516.7,0.65057
3367,9.6885,1.2727,0,0.00034524,3450,0.00011538,0.0062076,0.00011147,-29.348,-0.00034573,-3464.6,0.67269
3368,9.872,1.2727,0,0.0003402,3399.6,0.00011357,0.0057771,0.00011006,-26.317,-0.00034064,-3412.7,0.69504
3369,10.055,1.2727,0,0.00033517,3349.4,0.00011177,0.0054598,0.00010864,-23.465,-0.00033556,-3361,0.71763
3370,10.239,1.2727,0,0.00033015,3299.2,0.00010998,0.0052267,0.00010721,-20.785,-0.0003305,-3309.6,0.74043
3371,10.422,1.2727,0,0.00032514,3249.2,0.0001082,0.0050427,0.00010577,-18.272,-0.00032545,-3258.3,0.76346
3372,10.606,1.2727,0,0.00032014,3199.2,0.00010644,0.0049496,0.00010432,-15.917,-0.00032041,-3207.2,0.78671
3373,10.789,1.2727,0,0.00031516,3149.4,0.00010468,0.0049533,0.00010286,-13.714,-0.00031539,-3156.3,0.81018
3374,10.973,1.2727,0,0.00031019,3099.8,0.00010294,0.0050651,0.00010139,-11.654,-0.00031039,-3105.6,0.83385
3375,11.156,1.2727,0,0.00030523,3050.2,0.00010121,0.0052394,9.9913e-05,-9.7288,-0.0003054,-3055.1,0.85774
3376,11.34,1.2727,0,0.00030029,3000.8,9.9488e-05,0.0055593,9.8431e-05,-7.9308,-0.00030042,-3004.8,0.88183
3377,11.523,1.2727,0,0.00029536,2951.5,9.7777e-05,0.0061564,9.6945e-05,-6.2516,-0.00029546,-2954.6,0.90612
3378,11.707,1.2727,0,0.00029044,2902.4,9.6077e-05,0.0071198,9.5453e-05,-4.6835,-0.00029052,-2904.7,0.93061
3379,11.89,1.2727,0,0.00028554,2853.4,9.4387e-05,0.008965,9.3958e-05,-3.2193,-0.00028559,-2855,0.9553
3380,12.074,1.2727,0,0.00028065,2804.6,9.2707e-05,0.01343,9.2459e-05,-1.8531,-0.00028068,-2805.5,0.98018
3381,12.257,1.2727,0,0.00027578,2755.9,9.1039e-05,0.035886,9.0955e-05,-0.59349,-0.00027579,-2756.2,1.0052
3382,12.441,1.2727,0,0.00027092,2707.3,8.9461e-05,0.67002,8.9369e-05,-0.027011,-0.00027091,-2707,1.0305
3383,12.624,1.2727,0,0.00026608,2659,8.7956e-05,1.777,8.7718e-05,-0.0085375,-0.00026605,-2658.1,1.0559
3384,12.808,1.2727,0,0.00026126,2610.8,8.6451e-05,2.8296,8.6074e-05,-0.004388,-0.00026121,-2609.4,1.0815
3385,12.991,1.2727,0,0.00025645,2562.7,8.4948e-05,3.8214,8.4439e-05,-0.0026039,-0.00025638,-2560.8,1.1073
3386,13.175,1.2727,0,0.00025166,2514.8,8.3445e-05,4.7565,8.2811e-05,-0.0016124,-0.00025158,-2512.5,1.1333
3387,13.358,1.2727,0,0.00024688,2467.1,8.1943e-05,5.6398,8.1192e-05,-0.00094201,-0.00024679,-2464.3,1.1594
3388,13.542,1.2727,0,0.00024213,2419.6,8.0443e-05,6.4761,7.9581e-05,-0.00049742,-0.00024202,-2416.4,1.1857
3389,13.725,1.2727,0,0.00023739,2372.3,7.8946e-05,7.2702,7.7978e-05,-0.00016275,-0.00023727,-2368.6,1.2122
3390,13.909,1.2727,0,0.00023267,2325.1,7.7451e-05,8.0264,7.6383e-05,0.00010719,-0.00023253,-2321.1,1.2388
3391,14.092,1.2727,0,0.00022797,2278.1,7.5959e-05,8.7491,7.4795e-05,0.00029813,-0.00022782,-2273.7,1.2656
3392,14.276,1.2727,0,0.00022328,2231.3,7.4471e-05,9.4425,7.3215e-05,0.0004931,-0.00022312,-2226.5,1.2925
3393,14.459,1.2727,0,0.00021861,2184.6,7.2987e-05,10.11,7.1641e-05,0.00066507,-0.00021844,-2179.6,1.3196
3394,14.642,1.2727,0,0.00021397,2138.2,7.1507e-05,10.756,7.0076e-05,0.00078795,-0.00021378,-2132.8,1.3468
3395,14.826,1.2727,0,0.00020934,2091.9,7.0032e-05,11.385,6.8517e-05,0.00091528,-0.00020914,-2086.2,1.3742
3396,15.009,1.2727,0,0.00020473,2045.9,6.8562e-05,11.998,6.6965e-05,0.0010453,-0.00020452,-2039.8,1.4017
3397,15.193,1.2727,0,0.00020014,2000,6.7097e-05,12.601,6.542e-05,0.0011826,-0.00019992,-1993.7,1.4293
3398,15.376,1.2727,0,0.00019557,1954.3,6.5638e-05,13.196,6.3882e-05,0.0012943,-0.00019534,-1947.7,1.4571
3399,15.56,1.2727,0,0.00019101,1908.8,6.4186e-05,13.786,6.2351e-05,0.0014099,-0.00019078,-1901.9,1.485
3400,15.743,1.2727,0,0.00018648,1863.5,6.2739e-05,14.376,6.0826e-05,0.0015306,-0.00018623,-1856.3,1.513
3401,15.927,1.2727,0,0.00018197,1818.4,6.1299e-05,14.967,5.9307e-05,0.0016285,-0.00018171,-1810.9,1.5412
3402,16.11,1.2727,0,0.00017748,1773.6,5.9867e-05,15.564,5.7795e-05,0.0017591,-0.00017721,-1765.7,1.5695
3403,16.294,1.2727,0,0.00017301,1728.9,5.8441e-05,16.17,5.6289e-05,0.0018928,-0.00017273,-1720.7,1.5979
3404,16.477,1.2727,0,0.00016855,1684.4,5.7024e-05,16.787,5.479e-05,0.0020076,-0.00016826,-1675.9,1.6264
3405,16.661,1.2727,0,0.00016412,1640.1,5.5614e-05,17.42,5.3296e-05,0.0021376,-0.00016382,-1631.3,1.655
3406,16.844,1.2727,0,0.00015971,1596,5.4213e-05,18.072,5.1808e-05,0.0022855,-0.0001594,-1586.9,1.6838
3407,17.028,1.2727,0,0.00015532,1552.2,5.282e-05,18.745,5.0325e-05,0.0024488,-0.000155,-1542.7,1.7126
3408,17.211,1.2727,0,0.00015095,1508.5,5.1436e-05,19.445,4.8849e-05,0.0026058,-0.00015061,-1498.7,1.7416
3409,17.395,1.2727,0,0.00014661,1465.1,5.0062e-05,20.174,4.7378e-05,0.0027764,-0.00014625,-1454.9,1.7706
3410,17.578,1.2727,0,0.00014228,1421.8,4.8698e-05,20.936,4.5912e-05,0.0029621,-0.00014191,-1411.2,1.7998
3411,17.762,1.2727,0,0.00013798,1378.8,4.7344e-05,21.736,4.4451e-05,0.0031432,-0.00013759,-1367.8,1.829
3412,17.945,1.2727,0,0.00013369,1336,4.6e-05,22.577,4.2996e-05,0.0033607,-0.00013329,-1324.6,1.8584
3413,18.129,1.2727,0,0.00012943,1293.4,4.4668e-05,23.464,4.1545e-05,0.0035929,-0.00012902,-1281.5,1.8878
3414,18.312,1.2727,0,0.00012519,1251.1,4.3347e-05,24.402,4.0099e-05,0.0038257,-0.00012476,-1238.7,1.9173
3415,18.496,1.2727,0,0.00012098,1208.9,4.2037e-05,25.396,3.8658e-05,0.0040883,-0.00012052,-1196,1.9469
3416,18.679,1.2727,0,0.00011678,1167,4.0741e-05,26.451,3.7221e-05,0.004382,-0.00011631,-1153.6,1.9766
3417,18.863,1.2727,0,0.00011261,1125.3,3.9457e-05,27.573,3.5788e-05,0.0047078,-0.00011212,-1111.3,2.0063
3418,19.046,1.2727,0,0.00010846,1083.9,3.8187e-05,28.767,3.4359e-05,0.0050506,-0.00010794,-1069.2,2.0362
3419,19.229,1.2727,0,0.00010434,1042.7,3.6931e-05,30.04,3.2933e-05,0.005432,-0.00010379,-1027.3,2.0661
3420,19.413,1.2727,0,0.00010024,1001.7,3.569e-05,31.399,3.1511e-05,0.0058541,-9.9667e-05,-985.61,2.096
3421,19.596,1.2727,0,9.6161e-05,960.95,3.4464e-05,32.85,3.0093e-05,0.0063083,-9.556e-05,-944.1,2.1261
3422,19.78,1.2727,0,9.2109e-05,920.46,3.3254e-05,34.403,2.8677e-05,0.0068314,-9.1476e-05,-902.77,2.1562
3423,19.963,1.2727,0,8.8082e-05,880.22,3.2062e-05,36.066,2.7263e-05,0.0074155,-8.7413e-05,-861.63,2.1863
3424,20.147,1.2727,0,8.4081e-05,840.23,3.0888e-05,37.847,2.5852e-05,0.008056,-8.3373e-05,-820.67,2.2166
3425,20.33,1.2727,0,8.0107e-05,800.51,2.9732e-05,39.758,2.4442e-05,0.0087905,-7.9356e-05,-779.89,2.2468
3426,20.514,1.2727,0,7.6159e-05,761.07,2.8597e-05,41.811,2.3034e-05,0.0096267,-7.5362e-05,-739.3,2.2772
3427,20.697,1.2727,0,7.224e-05,721.9,2.7483e-05,44.016,2.1627e-05,0.010588,-7.139e-05,-698.88,2.3075
3428,20.881,1.2727,0,6.8351e-05,683.03,2.6392e-05,46.39,2.022e-05,0.011685,-6.7443e-05,-658.65,2.338
3429,21.064,1.2727,0,6.4492e-05,644.47,2.5326e-05,48.948,1.8813e-05,0.012963,-6.3519e-05,-618.6,2.3684
3430,21.248,1.2727,0,6.0666e-05,606.25,2.4285e-05,51.71,1.7405e-05,0.014458,-5.9621e-05,-578.73,2.3989
3431,21.431,1.2727,0,5.6876e-05,568.37,2.3273e-05,54.695,1.5996e-05,0.016212,-5.5748e-05,-539.04,2.4295
3432,21.615,1.2727,0,5.3125e-05,530.88,2.2292e-05,57.93,1.4585e-05,0.018316,-5.1901e-05,-499.53,2.4601
3433,21.798,1.2727,0,4.9416e-05,493.82,2.1345e-05,61.443,1.3171e-05,0.020846,-4.8083e-05,-460.21,2.4907
3434,21.982,1.2727,0,4.5755e-05,457.23,2.0436e-05,65.27,1.1752e-05,0.02392,-4.4294e-05,-421.08,2.5214
3435,22.165,1.2727,0,4.2149e-05,421.2,1.9569e-05,69.451,1.0329e-05,0.027723,-4.0536e-05,-382.15,2.5521
3436,22.349,1.2727,0,3.8608e-05,385.81,1.8748e-05,74.036,8.8989e-06,0.032487,-3.6811e-05,-343.41,2.5828
3437,22.532,1.2727,0,3.5142e-05,351.18,1.798e-05,79.08,7.4606e-06,0.03861,-3.3122e-05,-304.89,2.6135
3438,22.716,1.2727,0,3.1771e-05,317.49,1.7272e-05,84.651,6.012e-06,0.046484,-2.9472e-05,-266.57,2.6443
3439,22.899,1.2727,0,2.8515e-05,284.95,1.6631e-05,90.823,4.5507e-06,0.057663,-2.5862e-05,-228.45,2.675
3440,23.083,1.2727,0,2.5406e-05,253.88,1.6064e-05,97.673,3.0735e-06,0.071393,-2.2294e-05,-190.53,2.7058
3441,23.266,1.2727,0,2.2489e-05,224.73,1.5576e-05,105.28,1.5778e-06,0.10062,-1.8766e-05,-152.75,2.7366
3442,23.45,1.2727,0,1.9825e-05,198.12,1.5174e-05,113.7,5.6848e-08,0.11529,-1.5273e-05,-115.07,2.7675
3443,23.633,1.2727,0,1.7511e-05,174.98,1.4855e-05,123.02,-1.4788e-06,0.28994,-1.1813e-05,-77.357,2.7983
3444,23.817,1.2727,0,1.5689e-05,156.78,1.4629e-05,133.12,-3.0696e-06,0.13442,-8.3787e-06,-39.756,2.8291
3445,3.4501,1.0909,0,0.00044619,4458.8,0.00028262,1715,5.2741e-05,-12.191,-0.00039137,-3349.1,0.070419
3446,3.6336,1.0909,0,0.00041477,4144.8,0.00022675,1120.9,7.7491e-05,-0.57264,-0.00038416,-3469.2,0.083671
3447,3.8171,1.0909,0,0.00041562,4153.4,0.00019988,769.9,9.6904e-05,-3.8088,-0.00039715,-3715.9,0.097054
3448,4.0006,1.0909,0,0.00042286,4225.7,0.00018286,526.63,0.00011241,-2.7447,-0.00041145,-3938.8,0.11062
3449,4.1841,1.0909,0,0.00043171,4314.1,0.00017224,359.21,0.00012407,-2.6752,-0.00042451,-4124.5,0.12442
3450,4.3676,1.0909,0,0.00044,4397,0.00016557,244.38,0.00013272,-2.4576,-0.00043537,-4270.9,0.13848
3451,4.551,1.0909,0,0.0004467,4463.9,0.00016117,164.17,0.000139,-2.4068,-0.00044371,-4380.7,0.15282
3452,4.7345,1.0909,0,0.00045147,4511.6,0.00015799,106.65,0.00014346,-2.492,-0.0004496,-4458.5,0.16744
3453,4.918,1.0909,0,0.00045436,4540.5,0.00015544,64.301,0.00014651,-2.8341,-0.00045328,-4509.4,0.18236
3454,5.1015,1.0909,0,0.00045557,4552.6,0.00015327,32.857,0.00014839,-3.8534,-0.00045507,-4538,0.19758
3455,5.285,1.0909,0,0.00045536,4550.4,0.00015161,11.562,0.00014905,-7.6896,-0.00045529,-4548.5,0.21311
3456,5.4684,1.0909,0,0.00045397,4536.6,0.00015103,3.3079,0.00014805,-19.049,-0.00045424,-4544.4,0.22895
3457,5.6519,1.0909,0,0.00045166,4513.4,0.00015076,1.3907,0.00014627,-32.406,-0.00045217,-4528.8,0.24508
3458,5.8354,1.0909,0,0.00044861,4483,0.00015025,0.74757,0.00014436,-43.511,-0.00044932,-4504.2,0.26153
3459,6.0189,1.0909,0,0.00044499,4446.8,0.00014946,0.45525,0.00014247,-52.043,-0.00044585,-4472.4,0.27827
3460,6.2024,1.0909,0,0.00044095,4406.4,0.00014841,0.29892,0.00014062,-58.26,-0.00044191,-4435.1,0.29532
3461,6.3858,1.0909,0,0.00043658,4362.8,0.00014717,0.20668,0.00013883,-62.484,-0.00043761,-4393.6,0.31266
3462,6.5693,1.0909,0,0.00043198,4316.8,0.00014577,0.14852,0.0001371,-65.025,-0.00043305,-4348.9,0.3303
3463,6.7528,1.0909,0,0.0004272,4269.1,0.00014425,0.11003,0.00013543,-66.162,-0.00042829,-4301.7,0.34823
3464,6.9363,1.0909,0,0.0004223,4220.1,0.00014263,0.083555,0.00013382,-66.148,-0.00042339,-4252.7,0.36644
3465,7.1198,1.0909,0,0.00041731,4170.2,0.00014094,0.064789,0.00013225,-65.206,-0.00041838,-4202.4,0.38495
3466,7.3032,1.0909,0,0.00041226,4119.7,0.00013918,0.051141,0.00013072,-63.529,-0.0004133,-4151.1,0.40373
3467,7.4867,1.0909,0,0.00040716,4068.8,0.00013739,0.041,0.00012923,-61.286,-0.00040817,-4099.1,0.42279
3468,7.6702,1.0909,0,0.00040205,4017.7,0.00013557,0.033326,0.00012776,-58.621,-0.00040301,-4046.6,0.44213
3469,7.8537,1.0909,0,0.00039691,3966.4,0.00013373,0.027427,0.00012632,-55.653,-0.00039783,-3993.9,0.46174
3470,8.0372,1.0909,0,0.00039177,3915,0.00013188,0.022832,0.00012489,-52.483,-0.00039263,-3940.9,0.48161
3471,8.2206,1.0909,0,0.00038662,3863.5,0.00013002,0.01921,0.00012347,-49.195,-0.00038743,-3887.9,0.50175
3472,8.4041,1.0909,0,0.00038148,3812.1,0.00012815,0.016327,0.00012205,-45.854,-0.00038224,-3834.9,0.52215
3473,8.5876,1.0909,0,0.00037634,3760.8,0.00012629,0.014013,0.00012063,-42.514,-0.00037704,-3781.9,0.54281
3474,8.7711,1.0909,0,0.00037121,3709.5,0.00012444,0.012143,0.00011922,-39.217,-0.00037186,-3729,0.56372
3475,8.9546,1.0909,0,0.00036608,3658.3,0.00012259,0.010623,0.0001178,-35.994,-0.00036668,-3676.2,0.58489
3476,9.1381,1.0909,0,0.00036097,3607.2,0.00012075,0.0093824,0.00011637,-32.871,-0.00036152,-3623.5,0.6063
3477,9.3215,1.0909,0,0.00035587,3556.2,0.00011891,0.0083677,0.00011494,-29.863,-0.00035637,-3571,0.62795
3478,9.505,1.0909,0,0.00035077,3505.3,0.00011709,0.0075373,0.0001135,-26.983,-0.00035123,-3518.7,0.64984
3479,9.6885,1.0909,0,0.00034569,3454.6,0.00011528,0.0068636,0.00011205,-24.239,-0.0003461,-3466.6,0.67197
3480,9.872,1.0909,0,0.00034062,3403.9,0.00011348,0.0063141,0.0001106,-21.632,-0.00034099,-3414.7,0.69433
3481,10.055,1.0909,0,0.00033557,3353.4,0.00011169,0.0058916,0.00010913,-19.166,-0.00033589,-3362.9,0.71692
3482,10.239,1.0909,0,0.00033052,3303,0.00010991,0.0055675,0.00010766,-16.837,-0.00033081,-3311.3,0.73974
3483,10.422,1.0909,0,0.00032549,3252.7,0.00010814,0.0053096,0.00010619,-14.644,-0.00032574,-3260,0.76277
3484,10.606,1.0909,0,0.00032048,3202.5,0.00010638,0.0051676,0.0001047,-12.583,-0.00032069,-3208.8,0.78603
3485,10.789,1.0909,0,0.00031547,3152.5,0.00010463,0.0051488,0.00010322,-10.647,-0.00031565,-3157.9,0.80951
3486,10.973,1.0909,0,0.00031048,3102.7,0.0001029,0.0052827,0.00010172,-8.8321,-0.00031063,-3107.1,0.83319
3487,11.156,1.0909,0,0.00030551,3053,0.00010117,0.0055514,0.00010022,-7.1317,-0.00030563,-3056.5,0.85708
3488,11.34,1.0909,0,0.00030055,3003.4,9.9455e-05,0.0061015,9.8717e-05,-5.5396,-0.00030064,-3006.2,0.88118
3489,11.523,1.0909,0,0.0002956,2954,9.775e-05,0.0072237,9.721e-05,-4.0494,-0.00029567,-2956,0.90549
3490,11.707,1.0909,0,0.00029067,2904.7,9.6054e-05,0.009536,9.5699e-05,-2.6557,-0.00029072,-2906,0.92999
3491,11.89,1.0909,0,0.00028576,2855.6,9.4368e-05,0.016299,9.4186e-05,-1.3554,-0.00028578,-2856.3,0.95468
3492,12.074,1.0909,0,0.00028086,2806.7,9.2702e-05,0.093311,9.2661e-05,-0.20793,-0.00028086,-2806.7,0.97957
3493,12.257,1.0909,0,0.00027598,2757.9,9.1161e-05,1.0494,9.1019e-05,-0.016363,-0.00027596,-2757.3,1.0046
3494,12.441,1.0909,0,0.00027111,2709.2,8.9644e-05,2.117,8.9361e-05,-0.0072341,-0.00027108,-2708.2,1.0299
3495,12.624,1.0909,0,0.00026626,2660.8,8.8128e-05,3.1255,8.7711e-05,-0.0043925,-0.00026621,-2659.2,1.0554
3496,12.808,1.0909,0,0.00026143,2612.5,8.6612e-05,4.0755,8.607e-05,-0.003017,-0.00026136,-2610.5,1.081
3497,12.991,1.0909,0,0.00025661,2564.4,8.5098e-05,4.9709,8.4436e-05,-0.0022526,-0.00025653,-2561.9,1.1068
3498,13.175,1.0909,0,0.00025182,2516.4,8.3586e-05,5.8163,8.2811e-05,-0.0017686,-0.00025172,-2513.5,1.1327
3499,13.358,1.0909,0,0.00024704,2468.7,8.2075e-05,6.6164,8.1194e-05,-0.0013977,-0.00024692,-2465.4,1.1589
3500,13.542,1.0909,0,0.00024228,2421.1,8.0567e-05,7.3752,7.9585e-05,-0.0011535,-0.00024215,-2417.4,1.1852
3501,13.725,1.0909,0,0.00023753,2373.7,7.9062e-05,8.0969,7.7984e-05,-0.0009628,-0.00023739,-2369.6,1.2117
3502,13.909,1.0909,0,0.00023281,2326.4,7.756e-05,8.7856,7.639e-05,-0.00080766,-0.00023265,-2322,1.2383
3503,14.092,1.0909,0,0.0002281,2279.4,7.6061e-05,9.4449,7.4804e-05,-0.00070949,-0.00022794,-2274.7,1.2651
3504,14.276,1.0909,0,0.00022341,2232.6,7.4567e-05,10.079,7.3225e-05,-0.00059265,-0.00022324,-2227.5,1.292
3505,14.459,1.0909,0,0.00021874,2185.9,7.3077e-05,10.69,7.1654e-05,-0.00049062,-0.00021856,-2180.5,1.3191
3506,14.642,1.0909,0,0.00021409,2139.4,7.1591e-05,11.282,7.0089e-05,-0.00043299,-0.00021389,-2133.7,1.3463
3507,14.826,1.0909,0,0.00020946,2093.1,7.011e-05,11.859,6.8532e-05,-0.00036422,-0.00020925,-2087.2,1.3737
3508,15.009,1.0909,0,0.00020484,2047,6.8635e-05,12.423,6.6982e-05,-0.00029032,-0.00020463,-2040.8,1.4012
3509,15.193,1.0909,0,0.00020025,2001.1,6.7166e-05,12.978,6.5438e-05,-0.00020814,-0.00020003,-1994.6,1.4289
3510,15.376,1.0909,0,0.00019567,1955.4,6.5702e-05,13.526,6.3901e-05,-0.00014819,-0.00019544,-1948.6,1.4567
3511,15.56,1.0909,0,0.00019112,1909.9,6.4244e-05,14.07,6.2371e-05,-8.3418e-05,-0.00019088,-1902.8,1.4846
3512,15.743,1.0909,0,0.00018659,1864.6,6.2793e-05,14.614,6.0848e-05,-1.5786e-05,-0.00018633,-1857.2,1.5126
3513,15.927,1.0909,0,0.00018207,1819.4,6.1348e-05,15.159,5.9331e-05,3.1397e-05,-0.00018181,-1811.8,1.5408
3514,16.11,1.0909,0,0.00017757,1774.5,5.9911e-05,15.71,5.782e-05,0.00010924,-0.0001773,-1766.6,1.5691
3515,16.294,1.0909,0,0.0001731,1729.8,5.848e-05,16.268,5.6315e-05,0.00018835,-0.00017282,-1721.6,1.5975
3516,16.477,1.0909,0,0.00016864,1685.3,5.7058e-05,16.836,5.4817e-05,0.00024969,-0.00016835,-1676.8,1.626
3517,16.661,1.0909,0,0.00016421,1641,5.5643e-05,17.418,5.3324e-05,0.00032227,-0.00016391,-1632.2,1.6547
3518,16.844,1.0909,0,0.0001598,1596.9,5.4236e-05,18.017,5.1838e-05,0.00041176,-0.00015948,-1587.8,1.6834
3519,17.028,1.0909,0,0.0001554,1553,5.2837e-05,18.635,5.0357e-05,0.00051571,-0.00015508,-1543.6,1.7123
3520,17.211,1.0909,0,0.00015103,1509.3,5.1448e-05,19.276,4.8882e-05,0.00060796,-0.00015069,-1499.5,1.7412
3521,17.395,1.0909,0,0.00014668,1465.8,5.0067e-05,19.942,4.7413e-05,0.00070995,-0.00014633,-1455.7,1.7703
3522,17.578,1.0909,0,0.00014235,1422.5,4.8695e-05,20.637,4.5949e-05,0.00082697,-0.00014198,-1412.1,1.7995
3523,17.762,1.0909,0,0.00013804,1379.4,4.7333e-05,21.365,4.449e-05,0.0009334,-0.00013766,-1368.6,1.8287
3524,17.945,1.0909,0,0.00013375,1336.6,4.5982e-05,22.13,4.3037e-05,0.0010736,-0.00013336,-1325.4,1.8581
3525,18.129,1.0909,0,0.00012948,1293.9,4.464e-05,22.934,4.1588e-05,0.0012256,-0.00012908,-1282.3,1.8875
3526,18.312,1.0909,0,0.00012524,1251.5,4.3309e-05,23.781,4.0144e-05,0.0013697,-0.00012481,-1239.4,1.917
3527,18.496,1.0909,0,0.00012101,1209.3,4.199e-05,24.677,3.8705e-05,0.0015418,-0.00012057,-1196.8,1.9466
3528,18.679,1.0909,0,0.00011681,1167.3,4.0681e-05,25.626,3.7271e-05,0.0017348,-0.00011635,-1154.3,1.9763
3529,18.863,1.0909,0,0.00011263,1125.5,3.9385e-05,26.632,3.5841e-05,0.001956,-0.00011215,-1112,2.0061
3530,19.046,1.0909,0,0.00010847,1084,3.8101e-05,27.699,3.4415e-05,0.0021857,-0.00010797,-1069.8,2.0359
3531,19.229,1.0909,0,0.00010434,1042.6,3.683e-05,28.834,3.2993e-05,0.0024465,-0.00010382,-1027.9,2.0658
3532,19.413,1.0909,0,0.00010022,1001.5,3.5572e-05,30.043,3.1574e-05,0.0027401,-9.9678e-05,-986.17,2.0958
3533,19.596,1.0909,0,9.6133e-05,960.66,3.4329e-05,31.33,3.0159e-05,0.0030567,-9.5561e-05,-944.61,2.1258
3534,19.78,1.0909,0,9.2066e-05,920.02,3.31e-05,32.703,2.8748e-05,0.003434,-9.1466e-05,-903.23,2.1559
3535,19.963,1.0909,0,8.8022e-05,879.62,3.1886e-05,34.169,2.7339e-05,0.0038556,-8.7391e-05,-862.03,2.1861
3536,20.147,1.0909,0,8.4003e-05,839.45,3.0688e-05,35.736,2.5932e-05,0.0043282,-8.3338e-05,-821.01,2.2163
3537,20.33,1.0909,0,8.0008e-05,799.53,2.9507e-05,37.412,2.4528e-05,0.0048751,-7.9306e-05,-780.16,2.2466
3538,20.514,1.0909,0,7.6038e-05,759.86,2.8343e-05,39.207,2.3126e-05,0.0055127,-7.5295e-05,-739.49,2.277
3539,20.697,1.0909,0,7.2094e-05,720.45,2.7199e-05,41.132,2.1725e-05,0.0062592,-7.1306e-05,-699,2.3074
3540,20.881,1.0909,0,6.8177e-05,681.3,2.6074e-05,43.199,2.0325e-05,0.0071265,-6.734e-05,-658.67,2.3378
3541,21.064,1.0909,0,6.4289e-05,642.44,2.497e-05,45.421,1.8926e-05,0.0081526,-6.3395e-05,-618.52,2.3683
3542,21.248,1.0909,0,6.043e-05,603.88,2.389e-05,47.815,1.7527e-05,0.0093739,-5.9474e-05,-578.55,2.3988
3543,21.431,1.0909,0,5.6603e-05,565.64,2.2834e-05,50.399,1.6128e-05,0.010838,-5.5576e-05,-538.74,2.4293
3544,21.615,1.0909,0,5.281e-05,527.74,2.1805e-05,53.197,1.4727e-05,0.012623,-5.1704e-05,-499.12,2.4599
3545,21.798,1.0909,0,4.9056e-05,490.22,2.0807e-05,56.235,1.3324e-05,0.014809,-4.7857e-05,-459.68,2.4906
3546,21.982,1.0909,0,4.5346e-05,453.14,1.9842e-05,59.547,1.1919e-05,0.017514,-4.4038e-05,-420.42,2.5212
3547,22.165,1.0909,0,4.1685e-05,416.56,1.8914e-05,63.172,1.051e-05,0.020924,-4.0249e-05,-381.36,2.5519
3548,22.349,1.0909,0,3.8083e-05,380.57,1.803e-05,67.161,9.0952e-06,0.025264,-3.6493e-05,-342.51,2.5826
3549,22.532,1.0909,0,3.4552e-05,345.28,1.7196e-05,71.576,7.6742e-06,0.030933,-3.2773e-05,-303.87,2.6134
3550,22.716,1.0909,0,3.1109e-05,310.88,1.642e-05,76.493,6.2447e-06,0.038333,-2.9094e-05,-265.48,2.6441
3551,22.899,1.0909,0,2.7778e-05,277.58,1.5711e-05,82.002,4.8041e-06,0.048971,-2.5458e-05,-227.33,2.6749
3552,23.083,1.0909,0,2.459e-05,245.73,1.5081e-05,88.208,3.3491e-06,0.062075,-2.1872e-05,-189.44,2.7057
3553,23.266,1.0909,0,2.1594e-05,215.79,1.4539e-05,95.23,1.8765e-06,0.090396,-1.8336e-05,-151.78,2.7365
3554,23.45,1.0909,0,1.8855e-05,188.42,1.4095e-05,103.16,3.7871e-07,0.10389,-1.4849e-05,-114.31,2.7674
3555,23.633,1.0909,0,1.6475e-05,164.64,1.3752e-05,112.14,-1.1357e-06,0.27466,-1.1409e-05,-76.913,2.7982
3556,23.817,1.0909,0,1.4612e-05,146.02,1.3525e-05,122.09,-2.71e-06,0.10857,-8.0081e-06,-39.7,2.829
3557,3.4501,0.90909,0,0.00035461,3543.7,0.00021851,1280.3,4.6834e-05,-9.6092,-0.00031492,-2727.7,0.068549
3558,3.6336,0.90909,0,0.00033859,3383.6,0.00017855,829.64,6.7999e-05,-1.0175,-0.00031675,-2891.9,0.08198
3559,3.8171,0.90909,0,0.00035259,3523.4,0.00016431,586.69,8.5792e-05,-3.2346,-0.00033893,-3194.5,0.095521
3560,4.0006,0.90909,0,0.0003726,3723.4,0.00015815,427.12,0.00010098,-2.4459,-0.00036351,-3492.5,0.10922
3561,4.1841,0.90909,0,0.00039254,3922.7,0.00015585,317.46,0.00011331,-2.2187,-0.0003862,-3755.3,0.12313
3562,4.3676,0.90909,0,0.00040985,4095.7,0.00015515,239.09,0.00012307,-1.8781,-0.00040528,-3971.8,0.13728
3563,4.551,0.90909,0,0.00042366,4233.6,0.00015486,180.31,0.00013064,-1.6431,-0.00042032,-4141.4,0.15168
3564,4.7345,0.90909,0,0.00043397,4336.7,0.00015445,134.33,0.00013638,-1.4678,-0.00043155,-4268.6,0.16635
3565,4.918,0.90909,0,0.00044115,4408.4,0.00015374,97.238,0.00014062,-1.3695,-0.00043943,-4359.7,0.18132
3566,5.1015,0.90909,0,0.00044568,4453.7,0.00015271,66.801,0.00014364,-1.3623,-0.00044452,-4420.6,0.19657
3567,5.285,0.90909,0,0.00044803,4477.2,0.0001514,41.719,0.00014565,-1.5089,-0.00044733,-4456.9,0.21212
3568,5.4684,0.90909,0,0.00044863,4483.2,0.00014993,21.379,0.00014681,-2.0626,-0.0004483,-4473.5,0.22797
3569,5.6519,0.90909,0,0.00044784,4475.3,0.00014858,6.772,0.00014707,-4.623,-0.00044781,-4474.3,0.24413
3570,5.8354,0.90909,0,0.00044597,4456.6,0.00014798,1.6768,0.00014596,-13.444,-0.00044617,-4462.5,0.26058
3571,6.0189,0.90909,0,0.00044326,4429.6,0.0001475,0.69975,0.00014427,-23.533,-0.00044364,-4440.9,0.27734
3572,6.2024,0.90909,0,0.00043991,4396,0.00014677,0.3837,0.00014249,-31.797,-0.00044043,-4411.6,0.29439
3573,6.3858,0.90909,0,0.00043606,4357.6,0.0001458,0.24055,0.0001407,-38.079,-0.00043669,-4376.4,0.31174
3574,6.5693,0.90909,0,0.00043184,4315.5,0.00014463,0.16347,0.00013894,-42.583,-0.00043255,-4336.5,0.32938
3575,6.7528,0.90909,0,0.00042735,4270.6,0.00014329,0.11735,0.00013721,-45.555,-0.00042811,-4293.1,0.34732
3576,6.9363,0.90909,0,0.00042266,4223.6,0.00014182,0.087705,0.00013552,-47.24,-0.00042344,-4247,0.36554
3577,7.1198,0.90909,0,0.00041781,4175.2,0.00014025,0.067597,0.00013387,-47.861,-0.0004186,-4198.9,0.38405
3578,7.3032,0.90909,0,0.00041285,4125.7,0.0001386,0.053381,0.00013225,-47.62,-0.00041364,-4149.3,0.40284
3579,7.4867,0.90909,0,0.00040782,4075.4,0.00013689,0.042991,0.00013067,-46.692,-0.0004086,-4098.5,0.4219
3580,7.6702,0.90909,0,0.00040274,4024.6,0.00013514,0.035189,0.00012912,-45.23,-0.00040349,-4047,0.44125
3581,7.8537,0.90909,0,0.00039762,3973.4,0.00013336,0.029196,0.00012758,-43.363,-0.00039834,-3994.9,0.46086
3582,8.0372,0.90909,0,0.00039247,3922,0.00013155,0.024507,0.00012607,-41.201,-0.00039316,-3942.4,0.48074
3583,8.2206,0.90909,0,0.00038732,3870.5,0.00012973,0.020781,0.00012456,-38.834,-0.00038796,-3889.7,0.50089
3584,8.4041,0.90909,0,0.00038215,3818.9,0.00012791,0.01778,0.00012307,-36.336,-0.00038276,-3836.9,0.5213
3585,8.5876,0.90909,0,0.00037699,3767.3,0.00012608,0.015338,0.00012158,-33.767,-0.00037755,-3784.1,0.54196
3586,8.7711,0.90909,0,0.00037183,3715.7,0.00012425,0.013331,0.0001201,-31.177,-0.00037235,-3731.2,0.56288
3587,8.9546,0.90909,0,0.00036668,3664.3,0.00012242,0.011671,0.00011861,-28.602,-0.00036716,-3678.5,0.58405
3588,9.1381,0.90909,0,0.00036153,3612.9,0.0001206,0.01029,0.00011713,-26.072,-0.00036197,-3625.8,0.60547
3589,9.3215,0.90909,0,0.0003564,3561.6,0.00011878,0.0091377,0.00011564,-23.608,-0.0003568,-3573.3,0.62713
3590,9.505,0.90909,0,0.00035128,3510.4,0.00011697,0.0081732,0.00011415,-21.227,-0.00035164,-3520.9,0.64903
3591,9.6885,0.90909,0,0.00034617,3459.3,0.00011517,0.0073726,0.00011265,-18.939,-0.00034649,-3468.7,0.67117
3592,9.872,0.90909,0,0.00034107,3408.4,0.00011338,0.0067061,0.00011115,-16.753,-0.00034135,-3416.7,0.69354
3593,10.055,0.90909,0,0.00033599,3357.6,0.0001116,0.0061774,0.00010965,-14.672,-0.00033624,-3364.9,0.71614
3594,10.239,0.90909,0,0.00033092,3306.9,0.00010983,0.0057647,0.00010814,-12.698,-0.00033114,-3313.3,0.73897
3595,10.422,0.90909,0,0.00032587,3256.4,0.00010807,0.0054392,0.00010663,-10.83,-0.00032605,-3261.8,0.76201
3596,10.606,0.90909,0,0.00032083,3206.1,0.00010632,0.0052599,0.00010512,-9.0674,-0.00032098,-3210.6,0.78528
3597,10.789,0.90909,0,0.0003158,3155.9,0.00010458,0.0052578,0.0001036,-7.4068,-0.00031593,-3159.6,0.80877
3598,10.973,0.90909,0,0.0003108,3105.8,0.00010285,0.0055031,0.00010207,-5.8446,-0.00031089,-3108.7,0.83246
3599,11.156,0.90909,0,0.0003058,3055.9,0.00010113,0.006082,0.00010055,-4.377,-0.00030588,-3058.1,0.85637
3600,11.34,0.90909,0,0.00030083,3006.2,9.9422e-05,0.0074545,9.9022e-05,-2.9994,-0.00030088,-3007.7,0.88048
3601,11.523,0.90909,0,0.00029587,2956.6,9.7721e-05,0.011258,9.7492e-05,-1.7087,-0.00029589,-2957.5,0.90479
3602,11.707,0.90909,0,0.00029092,2907.2,9.6033e-05,0.032665,9.596e-05,-0.51532,-0.00029093,-2907.5,0.9293
3603,11.89,0.90909,0,0.00028599,2858,9.4436e-05,0.6799,9.4343e-05,-0.022223,-0.00028598,-2857.6,0.95401
3604,12.074,0.90909,0,0.00028108,2808.9,9.2903e-05,1.7365,9.2671e-05,-0.0080129,-0.00028106,-2808,0.9789
3605,12.257,0.90909,0,0.00027619,2760,9.1372e-05,2.7393,9.1007e-05,-0.0048292,-0.00027615,-2758.6,1.004
3606,12.441,0.90909,0,0.00027132,2711.3,8.9842e-05,3.6841,8.9351e-05,-0.0034952,-0.00027125,-2709.4,1.0293
3607,12.624,0.90909,0,0.00026646,2662.7,8.8313e-05,4.5741,8.7704e-05,-0.0027876,-0.00026638,-2660.5,1.0547
3608,12.808,0.90909,0,0.00026162,2614.4,8.6786e-05,5.4136,8.6065e-05,-0.0023542,-0.00026152,-2611.7,1.0804
3609,12.991,0.90909,0,0.00025679,2566.2,8.5261e-05,6.2064,8.4434e-05,-0.0021126,-0.00025669,-2563.1,1.1062
3610,13.175,0.90909,0,0.00025199,2518.2,8.3738e-05,6.9568,8.2812e-05,-0.0019609,-0.00025187,-2514.7,1.1321
3611,13.358,0.90909,0,0.0002472,2470.3,8.2218e-05,7.6685,8.1197e-05,-0.001824,-0.00024707,-2466.5,1.1583
3612,13.542,0.90909,0,0.00024244,2422.7,8.0701e-05,8.3451,7.959e-05,-0.0017575,-0.00024229,-2418.5,1.1846
3613,13.725,0.90909,0,0.00023769,2375.2,7.9187e-05,8.9903,7.7991e-05,-0.001708,-0.00023753,-2370.7,1.2111
3614,13.909,0.90909,0,0.00023296,2327.9,7.7678e-05,9.6075,7.6399e-05,-0.0016661,-0.00023279,-2323.1,1.2377
3615,14.092,0.90909,0,0.00022824,2280.9,7.6172e-05,10.2,7.4814e-05,-0.0016688,-0.00022807,-2275.7,1.2645
3616,14.276,0.90909,0,0.00022355,2234,7.4671e-05,10.77,7.3237e-05,-0.0016406,-0.00022337,-2228.6,1.2915
3617,14.459,0.90909,0,0.00021888,2187.3,7.3174e-05,11.322,7.1667e-05,-0.0016199,-0.00021868,-2181.6,1.3186
3618,14.642,0.90909,0,0.00021422,2140.7,7.1683e-05,11.858,7.0105e-05,-0.0016338,-0.00021402,-2134.8,1.3458
3619,14.826,0.90909,0,0.00020959,2094.4,7.0197e-05,12.38,6.8549e-05,-0.0016333,-0.00020937,-2088.2,1.3732
3620,15.009,0.90909,0,0.00020497,2048.3,6.8716e-05,12.892,6.7e-05,-0.0016247,-0.00020475,-2041.8,1.4007
3621,15.193,0.90909,0,0.00020037,2002.3,6.7241e-05,13.396,6.5458e-05,-0.0016028,-0.00020014,-1995.6,1.4284
3622,15.376,0.90909,0,0.00019579,1956.6,6.5772e-05,13.895,6.3923e-05,-0.0016058,-0.00019555,-1949.6,1.4562
3623,15.56,0.90909,0,0.00019124,1911.1,6.4309e-05,14.391,6.2394e-05,-0.0016039,-0.00019099,-1903.8,1.4841
3624,15.743,0.90909,0,0.0001867,1865.7,6.2853e-05,14.887,6.0872e-05,-0.0015936,-0.00018644,-1858.2,1.5122
3625,15.927,0.90909,0,0.00018218,1820.6,6.1404e-05,15.384,5.9356e-05,-0.0016086,-0.00018191,-1812.8,1.5404
3626,16.11,0.90909,0,0.00017768,1775.6,5.9961e-05,15.886,5.7847e-05,-0.0015922,-0.00017741,-1767.6,1.5687
3627,16.294,0.90909,0,0.0001732,1730.9,5.8526e-05,16.394,5.6343e-05,-0.0015738,-0.00017292,-1722.6,1.5971
3628,16.477,0.90909,0,0.00016875,1686.3,5.7098e-05,16.912,5.4847e-05,-0.0015802,-0.00016845,-1677.8,1.6256
3629,16.661,0.90909,0,0.00016431,1642,5.5677e-05,17.442,5.3356e-05,-0.001572,-0.00016401,-1633.2,1.6543
3630,16.844,0.90909,0,0.00015989,1597.8,5.4265e-05,17.985,5.1871e-05,-0.0015502,-0.00015958,-1588.7,1.683
3631,17.028,0.90909,0,0.00015549,1553.9,5.286e-05,18.546,5.0392e-05,-0.0015192,-0.00015517,-1544.5,1.7119
3632,17.211,0.90909,0,0.00015112,1510.1,5.1464e-05,19.125,4.8918e-05,-0.0014999,-0.00015078,-1500.5,1.7409
3633,17.395,0.90909,0,0.00014676,1466.6,5.0077e-05,19.727,4.7451e-05,-0.0014763,-0.00014642,-1456.6,1.7699
3634,17.578,0.90909,0,0.00014243,1423.3,4.8698e-05,20.353,4.5989e-05,-0.0014447,-0.00014207,-1413,1.7991
3635,17.762,0.90909,0,0.00013811,1380.2,4.7328e-05,21.007,4.4532e-05,-0.0014263,-0.00013774,-1369.5,1.8284
3636,17.945,0.90909,0,0.00013382,1337.2,4.5968e-05,21.692,4.3081e-05,-0.0013776,-0.00013344,-1326.3,1.8577
3637,18.129,0.90909,0,0.00012954,1294.5,4.4617e-05,22.41,4.1635e-05,-0.001326,-0.00012915,-1283.2,1.8872
3638,18.312,0.90909,0,0.00012529,1252.1,4.3276e-05,23.164,4.0193e-05,-0.0012867,-0.00012488,-1240.3,1.9167
3639,18.496,0.90909,0,0.00012106,1209.8,4.1946e-05,23.959,3.8757e-05,-0.0012296,-0.00012063,-1197.6,1.9463
3640,18.679,0.90909,0,0.00011685,1167.7,4.0626e-05,24.798,3.7325e-05,-0.0011559,-0.00011641,-1155.1,1.976
3641,18.863,0.90909,0,0.00011266,1125.8,3.9317e-05,25.684,3.5898e-05,-0.0010641,-0.0001122,-1112.8,2.0058
3642,19.046,0.90909,0,0.00010849,1084.2,3.8019e-05,26.621,3.4476e-05,-0.00096958,-0.00010801,-1070.6,2.0356
3643,19.229,0.90909,0,0.00010435,1042.7,3.6732e-05,27.615,3.3057e-05,-0.00086008,-0.00010385,-1028.7,2.0655
3644,19.413,0.90909,0,0.00010022,1001.5,3.5458e-05,28.668,3.1642e-05,-0.00072662,-9.9702e-05,-986.87,2.0955
3645,19.596,0.90909,0,9.6117e-05,960.5,3.4196e-05,29.785,3.0232e-05,-0.00058596,-9.5575e-05,-945.27,2.1256
3646,19.78,0.90909,0,9.2035e-05,919.71,3.2947e-05,30.973,2.8824e-05,-0.00039498,-9.1469e-05,-903.84,2.1557
3647,19.963,0.90909,0,8.7975e-05,879.14,3.1711e-05,32.236,2.742e-05,-0.00017699,-8.7382e-05,-862.58,2.1859
3648,20.147,0.90909,0,8.3937e-05,838.79,3.0489e-05,33.581,2.6019e-05,7.524e-05,-8.3315e-05,-821.5,2.2161
3649,20.33,0.90909,0,7.9922e-05,798.67,2.9281e-05,35.014,2.4621e-05,0.00038735,-7.9269e-05,-780.58,2.2464
3650,20.514,0.90909,0,7.593e-05,758.77,2.8088e-05,36.543,2.3225e-05,0.00076359,-7.5242e-05,-739.84,2.2768
3651,20.697,0.90909,0,7.1961e-05,719.11,2.6912e-05,38.175,2.1831e-05,0.0012262,-7.1235e-05,-699.26,2.3071
3652,20.881,0.90909,0,6.8016e-05,679.69,2.5752e-05,39.922,2.0439e-05,0.0017817,-6.7249e-05,-658.85,2.3376
3653,21.064,0.90909,0,6.4096e-05,640.52,2.461e-05,41.792,1.9048e-05,0.0024695,-6.3283e-05,-618.6,2.3681
3654,21.248,0.90909,0,6.0203e-05,601.62,2.3487e-05,43.8,1.7658e-05,0.0033196,-5.9338e-05,-578.52,2.3986
3655,21.431,0.90909,0,5.6338e-05,562.99,2.2385e-05,45.961,1.6269e-05,0.0043709,-5.5415e-05,-538.6,2.4292
3656,21.615,0.90909,0,5.2503e-05,524.67,2.1306e-05,48.293,1.4879e-05,0.0057018,-5.1514e-05,-498.85,2.4598
3657,21.798,0.90909,0,4.8701e-05,486.68,2.0252e-05,50.819,1.3489e-05,0.0073949,-4.7637e-05,-459.27,2.4904
3658,21.982,0.90909,0,4.4937e-05,449.06,1.9226e-05,53.569,1.2097e-05,0.009554,-4.3785e-05,-419.87,2.5211
3659,22.165,0.90909,0,4.1217e-05,411.88,1.8232e-05,56.579,1.0703e-05,0.01236,-3.9962e-05,-380.66,2.5518
3660,22.349,0.90909,0,3.7548e-05,375.22,1.7276e-05,59.896,9.3063e-06,0.01604,-3.6168e-05,-341.66,2.5825
3661,22.532,0.90909,0,3.3942e-05,339.18,1.6364e-05,63.582,7.9046e-06,0.020995,-3.241e-05,-302.89,2.6132
3662,22.716,0.90909,0,3.0415e-05,303.94,1.5505e-05,67.716,6.4966e-06,0.027608,-2.8692e-05,-264.36,2.644
3663,22.899,0.90909,0,2.6991e-05,269.72,1.4711e-05,72.402,5.08e-06,0.037381,-2.502e-05,-226.12,2.6748
3664,23.083,0.90909,0,2.3704e-05,236.87,1.3996e-05,77.773,3.6514e-06,0.049535,-2.1403e-05,-188.2,2.7056
3665,23.266,0.90909,0,2.0603e-05,205.89,1.3376e-05,83.991,2.2074e-06,0.076547,-1.7847e-05,-150.6,2.7364
3666,23.45,0.90909,0,1.7762e-05,177.5,1.2868e-05,91.22,7.392e-07,0.088573,-1.4357e-05,-113.34,2.7672
3667,23.633,0.90909,0,1.5293e-05,152.82,1.2486e-05,99.68,-7.4696e-07,0.25432,-1.0934e-05,-76.29,2.7981
3668,23.817,0.90909,0,1.3371e-05,133.62,1.2251e-05,109.39,-2.2983e-06,0.075571,-7.5741e-06,-39.564,2.8289
3669,3.4501,0.72727,0,0.00027715,2769.6,0.00016414,910.4,4.1692e-05,-9.633,-0.00025011,-2202.1,0.066704
3670,3.6336,0.72727,0,0.00027433,2741.4,0.00013666,568.9,6.0736e-05,-1.5723,-0.00026019,-2412.9,0.080276
3671,3.8171,0.72727,0,0.00029954,2993.4,0.00013275,412.34,7.7435e-05,-3.2615,-0.00029041,-2767.1,0.093945
3672,4.0006,0.72727,0,0.00033003,3298,0.00013554,322.06,9.2373e-05,-2.2512,-0.00032339,-3126.1,0.10776
3673,4.1841,0.72727,0,0.0003589,3586.5,0.00014017,261.9,0.00010507,-1.8473,-0.00035375,-3449.2,0.12176
3674,4.3676,0.72727,0,0.00038349,3832.3,0.00014454,216.2,0.00011557,-1.4271,-0.00037938,-3720.3,0.13598
3675,4.551,0.72727,0,0.00040314,4028.7,0.00014786,177.88,0.00012403,-1.1367,-0.00039984,-3937.3,0.15045
3676,4.7345,0.72727,0,0.0004181,4178.2,0.00015,144.16,0.00013069,-0.92015,-0.00041548,-4104.7,0.16517
3677,4.918,0.72727,0,0.00042897,4286.7,0.00015109,114.05,0.00013581,-0.76969,-0.00042693,-4228.9,0.18017
3678,5.1015,0.72727,0,0.00043641,4361.1,0.00015132,87.24,0.00013962,-0.67106,-0.00043487,-4317.1,0.19546
3679,5.285,0.72727,0,0.00044106,4407.5,0.00015089,63.664,0.00014233,-0.62047,-0.00043995,-4375.6,0.21103
3680,5.4684,0.72727,0,0.00044346,4431.6,0.00014998,43.263,0.00014414,-0.62539,-0.00044272,-4410.1,0.2269
3681,5.6519,0.72727,0,0.0004441,4437.9,0.00014876,25.968,0.0001452,-0.72713,-0.00044366,-4425.2,0.24307
3682,5.8354,0.72727,0,0.00044333,4430.3,0.00014734,11.819,0.00014562,-1.1394,-0.00044315,-4424.9,0.25954
3683,6.0189,0.72727,0,0.00044148,4411.8,0.00014609,2.5654,0.00014524,-3.8322,-0.00044151,-4412.4,0.2763
3684,6.2024,0.72727,0,0.0004388,4384.9,0.00014542,0.63968,0.00014381,-11.489,-0.00043898,-4390.3,0.29336
3685,6.3858,0.72727,0,0.00043546,4351.6,0.00014465,0.3014,0.00014213,-18.639,-0.00043577,-4360.8,0.31072
3686,6.5693,0.72727,0,0.00043164,4313.4,0.00014365,0.1811,0.00014041,-24.179,-0.00043204,-4325.3,0.32837
3687,6.7528,0.72727,0,0.00042743,4271.4,0.00014246,0.12295,0.00013869,-28.214,-0.00042791,-4285.4,0.34631
3688,6.9363,0.72727,0,0.00042295,4226.6,0.00014111,0.089914,0.00013698,-30.949,-0.00042347,-4241.9,0.36454
3689,7.1198,0.72727,0,0.00041826,4179.7,0.00013964,0.069126,0.0001353,-32.592,-0.0004188,-4195.9,0.38306
3690,7.3032,0.72727,0,0.00041341,4131.3,0.00013808,0.055062,0.00013363,-33.335,-0.00041397,-4147.8,0.40185
3691,7.4867,0.72727,0,0.00040845,4081.7,0.00013644,0.045013,0.000132,-33.351,-0.00040901,-4098.2,0.42093
3692,7.6702,0.72727,0,0.00040341,4031.3,0.00013475,0.037521,0.00013038,-32.788,-0.00040396,-4047.6,0.44028
3693,7.8537,0.72727,0,0.00039831,3980.4,0.00013302,0.031742,0.00012878,-31.774,-0.00039884,-3996.1,0.4599
3694,8.0372,0.72727,0,0.00039317,3929,0.00013125,0.027163,0.0001272,-30.419,-0.00039368,-3944.1,0.47979
3695,8.2206,0.72727,0,0.00038801,3877.4,0.00012947,0.023455,0.00012563,-28.814,-0.00038849,-3891.7,0.49994
3696,8.4041,0.72727,0,0.00038283,3825.7,0.00012767,0.020397,0.00012407,-27.032,-0.00038329,-3839.1,0.52036
3697,8.5876,0.72727,0,0.00037765,3773.9,0.00012587,0.01784,0.00012252,-25.136,-0.00037807,-3786.4,0.54104
3698,8.7711,0.72727,0,0.00037247,3722.1,0.00012406,0.015677,0.00012098,-23.175,-0.00037286,-3733.6,0.56196
3699,8.9546,0.72727,0,0.00036729,3670.3,0.00012225,0.01383,0.00011943,-21.188,-0.00036764,-3680.9,0.58314
3700,9.1381,0.72727,0,0.00036212,3618.7,0.00012045,0.012243,0.00011789,-19.206,-0.00036244,-3628.2,0.60457
3701,9.3215,0.72727,0,0.00035695,3567.1,0.00011865,0.010873,0.00011635,-17.253,-0.00035724,-3575.7,0.62624
3702,9.505,0.72727,0,0.0003518,3515.6,0.00011686,0.0096876,0.00011481,-15.348,-0.00035206,-3523.2,0.64815
3703,9.6885,0.72727,0,0.00034666,3464.3,0.00011507,0.0086668,0.00011327,-13.502,-0.00034689,-3471,0.6703
3704,9.872,0.72727,0,0.00034154,3413.1,0.00011329,0.0077853,0.00011173,-11.726,-0.00034174,-3418.9,0.69268
3705,10.055,0.72727,0,0.00033643,3362,0.00011152,0.0070551,0.00011018,-10.025,-0.0003366,-3367,0.71529
3706,10.239,0.72727,0,0.00033134,3311.1,0.00010976,0.0064595,0.00010864,-8.4027,-0.00033148,-3315.3,0.73813
3707,10.422,0.72727,0,0.00032626,3260.4,0.00010801,0.0059848,0.00010709,-6.8612,-0.00032638,-3263.8,0.76119
3708,10.606,0.72727,0,0.0003212,3209.8,0.00010626,0.0057224,0.00010554,-5.4002,-0.00032129,-3212.5,0.78446
3709,10.789,0.72727,0,0.00031615,3159.4,0.00010453,0.0057775,0.00010399,-4.0187,-0.00031622,-3161.4,0.80796
3710,10.973,0.72727,0,0.00031113,3109.1,0.00010281,0.0064607,0.00010244,-2.7148,-0.00031117,-3110.5,0.83166
3711,11.156,0.72727,0,0.00030612,3059,0.00010109,0.008976,0.00010089,-1.4873,-0.00030614,-3059.8,0.85558
3712,11.34,0.72727,0,0.00030112,3009.1,9.939e-05,0.030124,9.934e-05,-0.34957,-0.00030113,-3009.3,0.8797
3713,11.523,0.72727,0,0.00029615,2959.4,9.7794e-05,0.78317,9.7689e-05,-0.011242,-0.00029613,-2959,0.90403
3714,11.707,0.72727,0,0.00029119,2909.9,9.6243e-05,1.8036,9.6003e-05,-0.0044216,-0.00029116,-2909,0.92855
3715,11.89,0.72727,0,0.00028625,2860.5,9.4693e-05,2.7692,9.4324e-05,-0.0028396,-0.0002862,-2859.1,0.95327
3716,12.074,0.72727,0,0.00028133,2811.3,9.3145e-05,3.6796,9.2655e-05,-0.002259,-0.00028126,-2809.5,0.97818
3717,12.257,0.72727,0,0.00027642,2762.3,9.1598e-05,4.5378,9.0994e-05,-0.0020612,-0.00027634,-2760,1.0033
3718,12.441,0.72727,0,0.00027154,2713.5,9.0054e-05,5.3475,8.9342e-05,-0.0020019,-0.00027144,-2710.8,1.0286
3719,12.624,0.72727,0,0.00026667,2664.8,8.8511e-05,6.1123,8.7697e-05,-0.0020113,-0.00026656,-2661.8,1.054
3720,12.808,0.72727,0,0.00026182,2616.4,8.6971e-05,6.8357,8.6061e-05,-0.0020424,-0.0002617,-2613,1.0797
3721,12.991,0.72727,0,0.00025699,2568.1,8.5434e-05,7.5211,8.4433e-05,-0.0021374,-0.00025686,-2564.3,1.1055
3722,13.175,0.72727,0,0.00025218,2520,8.3901e-05,8.1717,8.2813e-05,-0.0022442,-0.00025204,-2515.9,1.1315
3723,13.358,0.72727,0,0.00024738,2472.1,8.2371e-05,8.791,8.12e-05,-0.002317,-0.00024723,-2467.7,1.1576
3724,13.542,0.72727,0,0.00024261,2424.4,8.0845e-05,9.3816,7.9596e-05,-0.0024238,-0.00024245,-2419.7,1.184
3725,13.725,0.72727,0,0.00023785,2376.9,7.9323e-05,9.9467,7.7998e-05,-0.0025272,-0.00023768,-2371.9,1.2105
3726,13.909,0.72727,0,0.00023312,2329.6,7.7805e-05,10.489,7.6409e-05,-0.0026199,-0.00023294,-2324.3,1.2371
3727,14.092,0.72727,0,0.0002284,2282.4,7.6292e-05,11.011,7.4826e-05,-0.0027439,-0.00022821,-2276.9,1.2639
3728,14.276,0.72727,0,0.0002237,2235.5,7.4784e-05,11.516,7.3251e-05,-0.0028253,-0.00022351,-2229.7,1.2909
3729,14.459,0.72727,0,0.00021903,2188.7,7.3281e-05,12.005,7.1683e-05,-0.0029082,-0.00021882,-2182.7,1.318
3730,14.642,0.72727,0,0.00021437,2142.2,7.1783e-05,12.482,7.0122e-05,-0.0030184,-0.00021415,-2135.9,1.3452
3731,14.826,0.72727,0,0.00020973,2095.8,7.0291e-05,12.948,6.8567e-05,-0.0031118,-0.0002095,-2089.3,1.3726
3732,15.009,0.72727,0,0.00020511,2049.7,6.8805e-05,13.406,6.702e-05,-0.0031917,-0.00020488,-2042.9,1.4002
3733,15.193,0.72727,0,0.00020051,2003.7,6.7324e-05,13.858,6.548e-05,-0.0032573,-0.00020027,-1996.7,1.4279
3734,15.376,0.72727,0,0.00019593,1957.9,6.585e-05,14.306,6.3946e-05,-0.0033443,-0.00019568,-1950.7,1.4557
3735,15.56,0.72727,0,0.00019137,1912.3,6.4382e-05,14.751,6.2419e-05,-0.0034271,-0.00019111,-1904.9,1.4836
3736,15.743,0.72727,0,0.00018683,1867,6.2921e-05,15.197,6.0898e-05,-0.0035008,-0.00018656,-1859.3,1.5117
3737,15.927,0.72727,0,0.0001823,1821.8,6.1466e-05,15.645,5.9384e-05,-0.0035994,-0.00018203,-1813.9,1.5399
3738,16.11,0.72727,0,0.0001778,1776.8,6.0019e-05,16.097,5.7876e-05,-0.0036682,-0.00017752,-1768.7,1.5682
3739,16.294,0.72727,0,0.00017332,1732,5.8578e-05,16.555,5.6374e-05,-0.0037384,-0.00017304,-1723.7,1.5966
3740,16.477,0.72727,0,0.00016886,1687.5,5.7145e-05,17.021,5.4879e-05,-0.0038359,-0.00016857,-1678.9,1.6252
3741,16.661,0.72727,0,0.00016442,1643.1,5.5719e-05,17.497,5.339e-05,-0.0039184,-0.00016412,-1634.3,1.6538
3742,16.844,0.72727,0,0.00016,1598.9,5.43e-05,17.984,5.1906e-05,-0.0039961,-0.00015969,-1589.8,1.6826
3743,17.028,0.72727,0,0.0001556,1554.9,5.289e-05,18.486,5.0429e-05,-0.0040667,-0.00015528,-1545.6,1.7115
3744,17.211,0.72727,0,0.00015122,1511.1,5.1487e-05,19.004,4.8958e-05,-0.0041548,-0.00015089,-1501.6,1.7405
3745,17.395,0.72727,0,0.00014686,1467.6,5.0093e-05,19.539,4.7492e-05,-0.0042436,-0.00014652,-1457.7,1.7695
3746,17.578,0.72727,0,0.00014252,1424.2,4.8707e-05,20.096,4.6032e-05,-0.0043307,-0.00014217,-1414.1,1.7987
3747,17.762,0.72727,0,0.0001382,1381,4.733e-05,20.674,4.4577e-05,-0.0044376,-0.00013784,-1370.6,1.828
3748,17.945,0.72727,0,0.0001339,1338.1,4.5961e-05,21.278,4.3128e-05,-0.0045239,-0.00013352,-1327.3,1.8574
3749,18.129,0.72727,0,0.00012962,1295.3,4.4601e-05,21.908,4.1685e-05,-0.0046169,-0.00012923,-1284.2,1.8868
3750,18.312,0.72727,0,0.00012536,1252.7,4.325e-05,22.569,4.0246e-05,-0.0047304,-0.00012496,-1241.3,1.9164
3751,18.496,0.72727,0,0.00012112,1210.4,4.1909e-05,23.261,3.8812e-05,-0.0048388,-0.00012071,-1198.6,1.946
3752,18.679,0.72727,0,0.0001169,1168.2,4.0577e-05,23.988,3.7384e-05,-0.004943,-0.00011648,-1156.1,1.9757
3753,18.863,0.72727,0,0.00011271,1126.3,3.9255e-05,24.754,3.596e-05,-0.0050394,-0.00011227,-1113.7,2.0055
3754,19.046,0.72727,0,0.00010853,1084.5,3.7943e-05,25.559,3.4541e-05,-0.0051595,-0.00010807,-1071.5,2.0353
3755,19.229,0.72727,0,0.00010437,1043,3.6641e-05,26.408,3.3126e-05,-0.0052708,-0.0001039,-1029.5,2.0653
3756,19.413,0.72727,0,0.00010023,1001.7,3.535e-05,27.304,3.1715e-05,-0.0053797,-9.9742e-05,-987.73,2.0953
3757,19.596,0.72727,0,9.6118e-05,960.52,3.4069e-05,28.25,3.0309e-05,-0.0055012,-9.5606e-05,-946.08,2.1253
3758,19.78,0.72727,0,9.2021e-05,919.58,3.28e-05,29.251,2.8906e-05,-0.0055989,-9.1489e-05,-904.61,2.1554
3759,19.963,0.72727,0,8.7945e-05,878.85,3.1542e-05,30.309,2.7507e-05,-0.0056886,-8.7391e-05,-863.3,2.1856
3760,20.147,0.72727,0,8.389e-05,838.32,3.0295e-05,31.428,2.6112e-05,-0.00578,-8.3311e-05,-822.17,2.2159
3761,20.33,0.72727,0,7.9855e-05,798,2.9061e-05,32.615,2.4719e-05,-0.0058455,-7.925e-05,-781.19,2.2462
3762,20.514,0.72727,0,7.584e-05,757.88,2.7839e-05,33.873,2.333e-05,-0.0058741,-7.5207e-05,-740.38,2.2765
3763,20.697,0.72727,0,7.1847e-05,717.97,2.663e-05,35.209,2.1944e-05,-0.0058656,-7.1183e-05,-699.72,2.3069
3764,20.881,0.72727,0,6.7875e-05,678.28,2.5435e-05,36.629,2.0559e-05,-0.0058123,-6.7178e-05,-659.23,2.3374
3765,21.064,0.72727,0,6.3925e-05,638.81,2.4254e-05,38.141,1.9177e-05,-0.0056761,-6.3191e-05,-618.89,2.3679
3766,21.248,0.72727,0,5.9998e-05,599.56,2.3088e-05,39.753,1.7797e-05,-0.0054416,-5.9222e-05,-578.7,2.3984
3767,21.431,0.72727,0,5.6094e-05,560.56,2.1939e-05,41.477,1.6418e-05,-0.005072,-5.5273e-05,-538.67,2.429
3768,21.615,0.72727,0,5.2216e-05,521.8,2.0807e-05,43.327,1.504e-05,-0.0045025,-5.1344e-05,-498.79,2.4596
3769,21.798,0.72727,0,4.8367e-05,483.33,1.9695e-05,45.318,1.3663e-05,-0.003667,-4.7436e-05,-459.08,2.4902
3770,21.982,0.72727,0,4.4548e-05,445.17,1.8605e-05,47.475,1.2286e-05,-0.002477,-4.355e-05,-419.53,2.5209
3771,22.165,0.72727,0,4.0765e-05,407.37,1.754e-05,49.824,1.0909e-05,-0.00076315,-3.9688e-05,-380.16,2.5516
3772,22.349,0.72727,0,3.7024e-05,369.99,1.6505e-05,52.406,9.5299e-06,0.0016928,-3.5853e-05,-340.99,2.5823
3773,22.532,0.72727,0,3.3336e-05,333.13,1.5505e-05,55.274,8.1491e-06,0.0052419,-3.2049e-05,-302.03,2.6131
3774,22.716,0.72727,0,2.9714e-05,296.93,1.455e-05,58.502,6.7649e-06,0.010277,-2.8283e-05,-263.32,2.6438
3775,22.899,0.72727,0,2.618e-05,261.62,1.365e-05,62.194,5.3754e-06,0.018255,-2.4562e-05,-224.92,2.6746
3776,23.083,0.72727,0,2.2769e-05,227.53,1.2824e-05,66.497,3.9777e-06,0.028346,-2.0896e-05,-186.86,2.7054
3777,23.266,0.72727,0,1.9531e-05,195.17,1.2093e-05,71.619,2.5685e-06,0.052819,-1.7301e-05,-149.24,2.7363
3778,23.45,0.72727,0,1.6548e-05,165.36,1.1486e-05,77.813,1.1383e-06,0.061916,-1.3789e-05,-112.09,2.7671
3779,23.633,0.72727,0,1.3948e-05,139.39,1.1033e-05,85.445,-3.0942e-07,0.21939,-1.0375e-05,-75.41,2.7979
3780,23.817,0.72727,0,1.194e-05,119.32,1.0775e-05,94.72,-1.8279e-06,0.022958,-7.0611e-06,-39.298,2.8288
3781,3.4501,0.54545,0,0.00020949,2093.4,0.00011696,592.18,3.6707e-05,-10.826,-0.00019297,-1736.6,0.064881
3782,3.6336,0.54545,0,0.00022057,2204.2,0.00010123,346.85,5.4656e-05,-3.119,-0.00021263,-2011.4,0.078562
3783,3.8171,0.54545,0,0.00025674,2565.6,0.00010663,264.16,7.0987e-05,-3.6462,-0.00025126,-2424.9,0.092333
3784,4.0006,0.54545,0,0.00029598,2957.7,0.00011663,228.24,8.5968e-05,-2.1085,-0.00029146,-2837.9,0.10624
3785,4.1841,0.54545,0,0.00033167,3314.4,0.00012648,204.88,9.9021e-05,-1.4429,-0.00032772,-3207.8,0.12032
3786,4.3676,0.54545,0,0.00036169,3614.4,0.00013462,183.43,0.00011008,-0.96103,-0.00035823,-3519.6,0.13461
3787,4.551,0.54545,0,0.00038575,3854.9,0.0001407,160.99,0.00011918,-0.68511,-0.00038277,-3772.2,0.14912
3788,4.7345,0.54545,0,0.00040432,4040.5,0.0001449,137.7,0.00012651,-0.50347,-0.00040181,-3970.1,0.16389
3789,4.918,0.54545,0,0.00041815,4178.6,0.00014753,114.48,0.00013225,-0.38538,-0.00041609,-4120.3,0.17893
3790,5.1015,0.54545,0,0.000428,4277,0.00014894,92.287,0.00013662,-0.30728,-0.00042636,-4230.3,0.19425
3791,5.285,0.54545,0,0.0004346,4343,0.00014942,71.815,0.00013983,-0.25805,-0.00043334,-4306.8,0.20984
3792,5.4684,0.54545,0,0.00043859,4382.9,0.00014921,53.495,0.00014206,-0.23173,-0.00043766,-4356,0.22574
3793,5.6519,0.54545,0,0.00044049,4401.9,0.00014851,37.525,0.00014348,-0.22792,-0.00043985,-4383.1,0.24192
3794,5.8354,0.54545,0,0.00044075,4404.4,0.00014746,23.937,0.00014424,-0.2557,-0.00044034,-4392.5,0.2584
3795,6.0189,0.54545,0,0.00043971,4394,0.00014618,12.678,0.00014444,-0.35911,-0.00043949,-4387.8,0.27517
3796,6.2024,0.54545,0,0.00043765,4373.5,0.0001448,3.9342,0.00014416,-0.89288,-0.0004376,-4372,0.29225
3797,6.3858,0.54545,0,0.00043481,4345.1,0.00014378,0.56727,0.00014305,-4.9278,-0.00043489,-4347.3,0.30961
3798,6.5693,0.54545,0,0.00043137,4310.7,0.00014288,0.22046,0.00014148,-10.331,-0.00043154,-4315.8,0.32727
3799,6.7528,0.54545,0,0.00042746,4271.7,0.00014179,0.12949,0.00013984,-14.562,-0.0004277,-4278.9,0.34522
3800,6.9363,0.54545,0,0.0004232,4229.1,0.00014054,0.089414,0.00013818,-17.628,-0.00042349,-4237.8,0.36346
3801,7.1198,0.54545,0,0.00041867,4183.8,0.00013914,0.067203,0.00013651,-19.693,-0.000419,-4193.6,0.38198
3802,7.3032,0.54545,0,0.00041394,4136.5,0.00013764,0.053149,0.00013485,-20.924,-0.00041429,-4146.9,0.40078
3803,7.4867,0.54545,0,0.00040905,4087.7,0.00013605,0.043441,0.00013319,-21.472,-0.00040941,-4098.4,0.41987
3804,7.6702,0.54545,0,0.00040406,4037.8,0.00013441,0.036303,0.00013154,-21.472,-0.00040442,-4048.5,0.43922
3805,7.8537,0.54545,0,0.00039899,3987.2,0.00013271,0.030809,0.00012991,-21.039,-0.00039935,-3997.6,0.45885
3806,8.0372,0.54545,0,0.00039387,3935.9,0.00013098,0.026434,0.00012828,-20.271,-0.00039421,-3946,0.47875
3807,8.2206,0.54545,0,0.0003887,3884.4,0.00012923,0.022855,0.00012666,-19.249,-0.00038903,-3893.9,0.49892
3808,8.4041,0.54545,0,0.00038352,3832.5,0.00012746,0.019869,0.00012505,-18.042,-0.00038382,-3841.5,0.51934
3809,8.5876,0.54545,0,0.00037832,3780.6,0.00012567,0.017336,0.00012345,-16.706,-0.0003786,-3788.9,0.54003
3810,8.7711,0.54545,0,0.00037311,3728.6,0.00012389,0.015164,0.00012185,-15.287,-0.00037337,-3736.2,0.56096
3811,8.9546,0.54545,0,0.00036791,3676.6,0.0001221,0.01328,0.00012025,-13.82,-0.00036814,-3683.4,0.58215
3812,9.1381,0.54545,0,0.00036271,3624.6,0.00012031,0.011635,0.00011866,-12.335,-0.00036292,-3630.7,0.60359
3813,9.3215,0.54545,0,0.00035752,3572.7,0.00011852,0.010189,0.00011707,-10.854,-0.0003577,-3578.1,0.62527
3814,9.505,0.54545,0,0.00035234,3521,0.00011674,0.0089146,0.00011549,-9.3943,-0.0003525,-3525.7,0.64719
3815,9.6885,0.54545,0,0.00034718,3469.4,0.00011496,0.0077936,0.0001139,-7.9694,-0.00034731,-3473.3,0.66935
3816,9.872,0.54545,0,0.00034203,3417.9,0.0001132,0.0068,0.00011232,-6.5885,-0.00034214,-3421.2,0.69174
3817,10.055,0.54545,0,0.00033689,3366.6,0.00011143,0.0059482,0.00011073,-5.2581,-0.00033698,-3369.2,0.71437
3818,10.239,0.54545,0,0.00033177,3315.4,0.00010968,0.0052293,0.00010915,-3.9826,-0.00033184,-3317.4,0.73721
3819,10.422,0.54545,0,0.00032667,3264.5,0.00010794,0.0046594,0.00010757,-2.7645,-0.00032672,-3265.8,0.76029
3820,10.606,0.54545,0,0.00032159,3213.7,0.0001062,0.0044778,0.00010599,-1.605,-0.00032161,-3214.5,0.78358
3821,10.789,0.54545,0,0.00031652,3163,0.00010448,0.0065555,0.00010441,-0.50582,-0.00031653,-3163.3,0.80708
3822,10.973,0.54545,0,0.00031147,3112.6,0.00010283,0.54652,0.00010276,-0.0016406,-0.00031147,-3112.3,0.8308
3823,11.156,0.54545,0,0.00030645,3062.3,0.00010126,1.5331,0.00010105,0.00019281,-0.00030642,-3061.6,0.85473
3824,11.34,0.54545,0,0.00030144,3012.3,9.968e-05,2.4679,9.9351e-05,0.00018817,-0.00030139,-3011,0.87886
3825,11.523,0.54545,0,0.00029644,2962.4,9.8106e-05,3.3519,9.766e-05,-8.3354e-06,-0.00029639,-2960.7,0.9032
3826,11.707,0.54545,0,0.00029147,2912.7,9.6535e-05,4.1874,9.5978e-05,-0.00030511,-0.0002914,-2910.6,0.92773
3827,11.89,0.54545,0,0.00028652,2863.2,9.4966e-05,4.9771,9.4304e-05,-0.00060669,-0.00028643,-2860.7,0.95246
3828,12.074,0.54545,0,0.00028158,2813.9,9.34e-05,5.7239,9.2638e-05,-0.00089516,-0.00028148,-2811,0.97739
3829,12.257,0.54545,0,0.00027667,2764.8,9.1837e-05,6.4306,9.0981e-05,-0.001202,-0.00027656,-2761.5,1.0025
3830,12.441,0.54545,0,0.00027177,2715.8,9.0277e-05,7.1,8.9332e-05,-0.0014757,-0.00027165,-2712.3,1.0278
3831,12.624,0.54545,0,0.00026689,2667.1,8.8721e-05,7.7349,8.7691e-05,-0.0017236,-0.00026676,-2663.2,1.0533
3832,12.808,0.54545,0,0.00026203,2618.5,8.7168e-05,8.3382,8.6058e-05,-0.0019353,-0.00026189,-2614.4,1.0789
3833,12.991,0.54545,0,0.0002572,2570.2,8.5619e-05,8.9122,8.4433e-05,-0.0021723,-0.00025704,-2565.7,1.1048
3834,13.175,0.54545,0,0.00025238,2522,8.4074e-05,9.4597,8.2815e-05,-0.0023978,-0.00025221,-2517.3,1.1308
3835,13.358,0.54545,0,0.00024758,2474.1,8.2534e-05,9.9832,8.1205e-05,-0.002567,-0.00024741,-2469,1.1569
3836,13.542,0.54545,0,0.0002428,2426.3,8.0998e-05,10.485,7.9603e-05,-0.0027611,-0.00024262,-2421,1.1833
3837,13.725,0.54545,0,0.00023804,2378.7,7.9467e-05,10.967,7.8007e-05,-0.0029367,-0.00023785,-2373.2,1.2098
3838,13.909,0.54545,0,0.00023329,2331.3,7.7942e-05,11.432,7.642e-05,-0.0030977,-0.0002331,-2325.6,1.2365
3839,14.092,0.54545,0,0.00022857,2284.1,7.6421e-05,11.882,7.4839e-05,-0.0032816,-0.00022837,-2278.2,1.2633
3840,14.276,0.54545,0,0.00022387,2237.2,7.4906e-05,12.319,7.3266e-05,-0.0034195,-0.00022366,-2231,1.2902
3841,14.459,0.54545,0,0.00021919,2190.4,7.3396e-05,12.744,7.1699e-05,-0.0035506,-0.00021897,-2184,1.3174
3842,14.642,0.54545,0,0.00021453,2143.8,7.1892e-05,13.16,7.014e-05,-0.0037114,-0.0002143,-2137.2,1.3446
3843,14.826,0.54545,0,0.00020988,2097.4,7.0394e-05,13.568,6.8588e-05,-0.0038508,-0.00020965,-2090.6,1.372
3844,15.009,0.54545,0,0.00020526,2051.2,6.8902e-05,13.971,6.7042e-05,-0.0039773,-0.00020502,-2044.2,1.3996
3845,15.193,0.54545,0,0.00020066,2005.2,6.7416e-05,14.369,6.5503e-05,-0.0040877,-0.00020041,-1998,1.4273
3846,15.376,0.54545,0,0.00019607,1959.4,6.5937e-05,14.765,6.3971e-05,-0.0042176,-0.00019582,-1952,1.4551
3847,15.56,0.54545,0,0.00019151,1913.8,6.4464e-05,15.16,6.2445e-05,-0.0043445,-0.00019125,-1906.1,1.4831
3848,15.743,0.54545,0,0.00018697,1868.4,6.2997e-05,15.556,6.0926e-05,-0.0044656,-0.0001867,-1860.5,1.5111
3849,15.927,0.54545,0,0.00018244,1823.2,6.1537e-05,15.953,5.9414e-05,-0.0046076,-0.00018217,-1815.1,1.5393
3850,16.11,0.54545,0,0.00017794,1778.2,6.0085e-05,16.355,5.7907e-05,-0.0047201,-0.00017765,-1769.9,1.5677
3851,16.294,0.54545,0,0.00017345,1733.3,5.8639e-05,16.762,5.6407e-05,-0.0048392,-0.00017316,-1724.9,1.5961
3852,16.477,0.54545,0,0.00016899,1688.7,5.72e-05,17.175,5.4914e-05,-0.0049835,-0.00016869,-1680.1,1.6247
3853,16.661,0.54545,0,0.00016455,1644.3,5.5769e-05,17.597,5.3426e-05,-0.0051203,-0.00016424,-1635.5,1.6534
3854,16.844,0.54545,0,0.00016012,1600.1,5.4345e-05,18.029,5.1945e-05,-0.0052517,-0.00015981,-1591,1.6821
3855,17.028,0.54545,0,0.00015572,1556.1,5.2928e-05,18.472,5.0469e-05,-0.0053832,-0.0001554,-1546.8,1.711
3856,17.211,0.54545,0,0.00015134,1512.3,5.152e-05,18.927,4.9e-05,-0.0055325,-0.000151,-1502.8,1.74
3857,17.395,0.54545,0,0.00014697,1468.7,5.0118e-05,19.397,4.7536e-05,-0.0056879,-0.00014663,-1458.9,1.7691
3858,17.578,0.54545,0,0.00014263,1425.3,4.8725e-05,19.883,4.6078e-05,-0.0058428,-0.00014228,-1415.2,1.7983
3859,17.762,0.54545,0,0.0001383,1382.1,4.734e-05,20.387,4.4626e-05,-0.0060288,-0.00013795,-1371.8,1.8276
3860,17.945,0.54545,0,0.000134,1339.1,4.5963e-05,20.91,4.3179e-05,-0.0062025,-0.00013363,-1328.5,1.857
3861,18.129,0.54545,0,0.00012971,1296.2,4.4594e-05,21.454,4.1738e-05,-0.0063862,-0.00012934,-1285.4,1.8864
3862,18.312,0.54545,0,0.00012545,1253.6,4.3234e-05,22.02,4.0302e-05,-0.0065966,-0.00012506,-1242.5,1.916
3863,18.496,0.54545,0,0.0001212,1211.2,4.1882e-05,22.611,3.8872e-05,-0.0068128,-0.0001208,-1199.7,1.9456
3864,18.679,0.54545,0,0.00011698,1169,4.0538e-05,23.227,3.7446e-05,-0.0070357,-0.00011657,-1157.2,1.9753
3865,18.863,0.54545,0,0.00011277,1126.9,3.9204e-05,23.872,3.6026e-05,-0.0072649,-0.00011235,-1114.8,2.0051
3866,19.046,0.54545,0,0.00010859,1085.1,3.7878e-05,24.547,3.461e-05,-0.0075212,-0.00010815,-1072.6,2.035
3867,19.229,0.54545,0,0.00010442,1043.5,3.6561e-05,25.253,3.3199e-05,-0.0077915,-0.00010397,-1030.6,2.0649
3868,19.413,0.54545,0,0.00010027,1002,3.5253e-05,25.993,3.1793e-05,-0.0080741,-9.9803e-05,-988.77,2.0949
3869,19.596,0.54545,0,9.6141e-05,960.75,3.3955e-05,26.77,3.0391e-05,-0.0083867,-9.5658e-05,-947.09,2.125
3870,19.78,0.54545,0,9.2031e-05,919.68,3.2665e-05,27.584,2.8993e-05,-0.0087014,-9.1531e-05,-905.58,2.1552
3871,19.963,0.54545,0,8.794e-05,878.8,3.1386e-05,28.438,2.7599e-05,-0.0090309,-8.7422e-05,-864.24,2.1854
3872,20.147,0.54545,0,8.3868e-05,838.1,3.0115e-05,29.335,2.621e-05,-0.0093896,-8.333e-05,-823.05,2.2156
3873,20.33,0.54545,0,7.9814e-05,797.59,2.8855e-05,30.278,2.4824e-05,-0.0097578,-7.9256e-05,-782.02,2.2459
3874,20.514,0.54545,0,7.5779e-05,757.27,2.7604e-05,31.268,2.3441e-05,-0.010129,-7.5199e-05,-741.15,2.2763
3875,20.697,0.54545,0,7.1763e-05,717.13,2.6364e-05,32.31,2.2062e-05,-0.010502,-7.1158e-05,-700.43,2.3067
3876,20.881,0.54545,0,6.7765e-05,677.18,2.5134e-05,33.406,2.0686e-05,-0.010877,-6.7135e-05,-659.86,2.3371
3877,21.064,0.54545,0,6.3786e-05,637.42,2.3915e-05,34.561,1.9313e-05,-0.011245,-6.3128e-05,-619.44,2.3676
3878,21.248,0.54545,0,5.9826e-05,597.85,2.2706e-05,35.78,1.7943e-05,-0.011575,-5.9137e-05,-579.16,2.3982
3879,21.431,0.54545,0,5.5887e-05,558.48,2.151e-05,37.068,1.6575e-05,-0.011859,-5.5164e-05,-539.03,2.4288
3880,21.615,0.54545,0,5.1968e-05,519.32,2.0326e-05,38.433,1.5209e-05,-0.01205,-5.1207e-05,-499.04,2.4594
3881,21.798,0.54545,0,4.8071e-05,480.38,1.9156e-05,39.885,1.3846e-05,-0.0121,-4.7268e-05,-459.2,2.49
3882,21.982,0.54545,0,4.4199e-05,441.68,1.8e-05,41.437,1.2484e-05,-0.01194,-4.3348e-05,-419.51,2.5207
3883,22.165,0.54545,0,4.0354e-05,403.26,1.6862e-05,43.106,1.1123e-05,-0.011445,-3.9448e-05,-379.98,2.5514
3884,22.349,0.54545,0,3.6541e-05,365.16,1.5744e-05,44.919,9.7641e-06,-0.010441,-3.5569e-05,-340.63,2.5822
3885,22.532,0.54545,0,3.2768e-05,327.45,1.465e-05,46.912,8.4054e-06,-0.0086078,-3.1717e-05,-301.47,2.6129
3886,22.716,0.54545,0,2.9045e-05,290.25,1.3587e-05,49.139,7.0467e-06,-0.0056252,-2.7895e-05,-262.54,2.6437
3887,22.899,0.54545,0,2.5389e-05,253.72,1.2566e-05,51.684,5.687e-06,-0.00012374,-2.4112e-05,-223.9,2.6745
3888,23.083,0.54545,0,2.183e-05,218.15,1.1601e-05,54.68,4.3243e-06,0.007101,-2.038e-05,-185.61,2.7053
3889,23.266,0.54545,0,1.8416e-05,184.04,1.0718e-05,58.341,2.9565e-06,0.027939,-1.6716e-05,-147.79,2.7361
3890,23.45,0.54545,0,1.5232e-05,152.21,9.9554e-06,63.001,1.5747e-06,0.031525,-1.3148e-05,-110.59,2.7669
3891,23.633,0.54545,0,1.2431e-05,124.22,9.3719e-06,69.239,1.8094e-07,0.18206,-9.7143e-06,-74.167,2.7978
3892,23.817,0.54545,0,1.0277e-05,102.7,9.0524e-06,77.653,-1.2868e-06,-0.031975,-6.4442e-06,-38.782,2.8286
3893,3.4501,0.36364,0,0.00014962,1495.2,7.6339e-05,325.84,3.108e-05,-14.216,-0.00014139,-1310.1,0.063077
3894,3.6336,0.36364,0,0.0001784,1782.7,7.4085e-05,181.61,4.9151e-05,-5.7304,-0.00017466,-1687.4,0.076838
3895,3.8171,0.36364,0,0.00022532,2251.7,8.7681e-05,158.74,6.5999e-05,-4.1688,-0.00022225,-2170,0.090687
3896,4.0006,0.36364,0,0.0002711,2709.1,0.00010251,156.43,8.1445e-05,-1.8445,-0.00026812,-2628.3,0.10466
3897,4.1841,0.36364,0,0.00031124,3110.3,0.00011544,152.87,9.4952e-05,-1.0798,-0.00030837,-3031.5,0.11881
3898,4.3676,0.36364,0,0.00034473,3445,0.00012578,144.29,0.00010648,-0.68679,-0.00034206,-3370.9,0.13315
3899,4.551,0.36364,0,0.00037172,3714.6,0.0001336,131.18,0.00011607,-0.51232,-0.00036932,-3647.6,0.14772
3900,4.7345,0.36364,0,0.00039283,3925.6,0.00013924,115.23,0.00012385,-0.40699,-0.00039075,-3866.9,0.16253
3901,4.918,0.36364,0,0.00040884,4085.6,0.0001431,98.094,0.00013,-0.3341,-0.00040709,-4035.8,0.1776
3902,5.1015,0.36364,0,0.00042058,4202.9,0.00014556,81.06,0.00013473,-0.27567,-0.00041914,-4161.9,0.19294
3903,5.285,0.36364,0,0.00042878,4284.8,0.00014693,65.009,0.00013825,-0.22694,-0.00042764,-4252.1,0.20856
3904,5.4684,0.36364,0,0.00043411,4338.1,0.00014747,50.461,0.00014073,-0.18647,-0.00043323,-4312.7,0.22447
3905,5.6519,0.36364,0,0.00043712,4368.2,0.0001474,37.67,0.00014237,-0.15446,-0.00043647,-4349.3,0.24067
3906,5.8354,0.36364,0,0.00043828,4379.8,0.00014687,26.704,0.0001433,-0.13215,-0.00043782,-4366.5,0.25716
3907,6.0189,0.36364,0,0.00043798,4376.8,0.000146,17.512,0.00014365,-0.12301,-0.00043768,-4368,0.27395
3908,6.2024,0.36364,0,0.00043652,4362.2,0.00014489,9.9839,0.00014355,-0.13899,-0.00043635,-4357.3,0.29103
3909,6.3858,0.36364,0,0.00043415,4338.5,0.00014362,4.0263,0.00014305,-0.24851,-0.00043409,-4336.7,0.30841
3910,6.5693,0.36364,0,0.00043108,4307.8,0.00014238,0.54366,0.0001421,-1.5313,-0.0004311,-4308.3,0.32608
3911,6.7528,0.36364,0,0.00042746,4271.7,0.00014131,0.16234,0.00014065,-4.789,-0.00042754,-4274,0.34403
3912,6.9363,0.36364,0,0.00042342,4231.3,0.0001401,0.10388,0.0001391,-7.4102,-0.00042354,-4234.9,0.36228
3913,7.1198,0.36364,0,0.00041905,4187.6,0.00013875,0.083326,0.00013751,-9.2633,-0.00041921,-4192.2,0.38081
3914,7.3032,0.36364,0,0.00041444,4141.5,0.00013729,0.073147,0.00013589,-10.459,-0.00041462,-4146.7,0.39962
3915,7.4867,0.36364,0,0.00040964,4093.6,0.00013574,0.066771,0.00013425,-11.111,-0.00040983,-4099.1,0.41872
3916,7.6702,0.36364,0,0.00040471,4044.3,0.00013412,0.061983,0.0001326,-11.323,-0.0004049,-4049.9,0.43808
3917,7.8537,0.36364,0,0.00039967,3994,0.00013245,0.057907,0.00013095,-11.185,-0.00039986,-3999.5,0.45772
3918,8.0372,0.36364,0,0.00039456,3942.9,0.00013074,0.054171,0.0001293,-10.773,-0.00039474,-3948.3,0.47763
3919,8.2206,0.36364,0,0.0003894,3891.3,0.00012901,0.05062,0.00012765,-10.15,-0.00038957,-3896.4,0.4978
3920,8.4041,0.36364,0,0.00038421,3839.5,0.00012726,0.047196,0.000126,-9.3706,-0.00038437,-3844.1,0.51824
3921,8.5876,0.36364,0,0.000379,3787.4,0.00012549,0.043883,0.00012436,-8.4777,-0.00037914,-3791.6,0.53894
3922,8.7711,0.36364,0,0.00037377,3735.2,0.00012372,0.040693,0.00012272,-7.5073,-0.0003739,-3738.9,0.55988
3923,8.9546,0.36364,0,0.00036855,3682.9,0.00012195,0.037645,0.00012108,-6.4883,-0.00036866,-3686.2,0.58109
3924,9.1381,0.36364,0,0.00036332,3630.7,0.00012017,0.034768,0.00011944,-5.4437,-0.00036342,-3633.4,0.60253
3925,9.3215,0.36364,0,0.00035811,3578.6,0.0001184,0.032107,0.00011781,-4.3917,-0.00035818,-3580.8,0.62423
3926,9.505,0.36364,0,0.0003529,3526.6,0.00011663,0.029748,0.00011618,-3.3464,-0.00035296,-3528.3,0.64616
3927,9.6885,0.36364,0,0.00034771,3474.7,0.00011486,0.027906,0.00011455,-2.3187,-0.00034775,-3475.9,0.66833
3928,9.872,0.36364,0,0.00034253,3423,0.0001131,0.02738,0.00011292,-1.3174,-0.00034256,-3423.6,0.69074
3929,10.055,0.36364,0,0.00033737,3371.4,0.00011135,0.036889,0.0001113,-0.35686,-0.00033738,-3371.6,0.71337
3930,10.239,0.36364,0,0.00033223,3320,0.00010969,0.60795,0.00010961,0.0075714,-0.00033222,-3319.7,0.73623
3931,10.422,0.36364,0,0.00032711,3268.8,0.00010807,1.5019,0.00010787,0.011824,-0.00032708,-3268.1,0.75931
3932,10.606,0.36364,0,0.000322,3217.8,0.00010646,2.3624,0.00010614,0.011393,-0.00032196,-3216.6,0.78262
3933,10.789,0.36364,0,0.00031691,3167,0.00010485,3.1846,0.00010442,0.010255,-0.00031686,-3165.4,0.80614
3934,10.973,0.36364,0,0.00031185,3116.3,0.00010324,3.9686,0.00010271,0.0089595,-0.00031178,-3114.3,0.82987
3935,11.156,0.36364,0,0.0003068,3065.9,0.00010164,4.7148,0.00010101,0.0075927,-0.00030672,-3063.5,0.85381
3936,11.34,0.36364,0,0.00030177,3015.6,0.00010004,5.4245,9.9317e-05,0.0062568,-0.00030168,-3012.9,0.87796
3937,11.523,0.36364,0,0.00029677,2965.6,9.8442e-05,6.0992,9.7631e-05,0.0050259,-0.00029666,-2962.5,0.90231
3938,11.707,0.36364,0,0.00029178,2915.8,9.685e-05,6.7404,9.5953e-05,0.0038197,-0.00029166,-2912.4,0.92686
3939,11.89,0.36364,0,0.00028681,2866.1,9.5261e-05,7.3501,9.4283e-05,0.00269,-0.00028668,-2862.4,0.9516
3940,12.074,0.36364,0,0.00028186,2816.7,9.3677e-05,7.9301,9.2622e-05,0.001633,-0.00028173,-2812.7,0.97654
3941,12.257,0.36364,0,0.00027694,2767.5,9.2097e-05,8.4824,9.0968e-05,0.00061142,-0.00027679,-2763.2,1.0017
3942,12.441,0.36364,0,0.00027203,2718.4,9.0522e-05,9.009,8.9323e-05,-0.00033077,-0.00027187,-2713.9,1.027
3943,12.624,0.36364,0,0.00026714,2669.6,8.8951e-05,9.5118,8.7685e-05,-0.0011995,-0.00026698,-2664.8,1.0525
3944,12.808,0.36364,0,0.00026228,2620.9,8.7385e-05,9.9929,8.6055e-05,-0.0019984,-0.0002621,-2615.9,1.0781
3945,12.991,0.36364,0,0.00025743,2572.5,8.5824e-05,10.454,8.4433e-05,-0.0027839,-0.00025725,-2567.3,1.104
3946,13.175,0.36364,0,0.0002526,2524.3,8.4269e-05,10.897,8.2818e-05,-0.0035233,-0.00025241,-2518.8,1.13
3947,13.358,0.36364,0,0.0002478,2476.2,8.2718e-05,11.323,8.1211e-05,-0.0041804,-0.0002476,-2470.6,1.1562
3948,13.542,0.36364,0,0.00024301,2428.4,8.1173e-05,11.735,7.961e-05,-0.0048307,-0.00024281,-2422.5,1.1825
3949,13.725,0.36364,0,0.00023824,2380.8,7.9633e-05,12.133,7.8018e-05,-0.0054416,-0.00023803,-2374.7,1.2091
3950,13.909,0.36364,0,0.0002335,2333.3,7.8099e-05,12.52,7.6432e-05,-0.0060149,-0.00023328,-2327.1,1.2357
3951,14.092,0.36364,0,0.00022877,2286.1,7.6571e-05,12.897,7.4854e-05,-0.0065888,-0.00022855,-2279.6,1.2626
3952,14.276,0.36364,0,0.00022406,2239.1,7.5049e-05,13.266,7.3282e-05,-0.0071044,-0.00022383,-2232.4,1.2896
3953,14.459,0.36364,0,0.00021938,2192.3,7.3532e-05,13.627,7.1718e-05,-0.0075982,-0.00021914,-2185.4,1.3167
3954,14.642,0.36364,0,0.00021471,2145.6,7.2022e-05,13.983,7.016e-05,-0.0081069,-0.00021447,-2138.6,1.344
3955,14.826,0.36364,0,0.00021007,2099.2,7.0518e-05,14.334,6.861e-05,-0.0085854,-0.00020982,-2092,1.3714
3956,15.009,0.36364,0,0.00020544,2053,6.9021e-05,14.681,6.7066e-05,-0.0090414,-0.00020519,-2045.6,1.399
3957,15.193,0.36364,0,0.00020083,2006.9,6.753e-05,15.027,6.5528e-05,-0.0094771,-0.00020057,-1999.4,1.4267
3958,15.376,0.36364,0,0.00019625,1961.1,6.6045e-05,15.372,6.3998e-05,-0.0099291,-0.00019598,-1953.4,1.4545
3959,15.56,0.36364,0,0.00019168,1915.5,6.4567e-05,15.717,6.2474e-05,-0.010373,-0.00019141,-1907.6,1.4825
3960,15.743,0.36364,0,0.00018714,1870.1,6.3096e-05,16.064,6.0956e-05,-0.010813,-0.00018686,-1862,1.5106
3961,15.927,0.36364,0,0.00018261,1824.8,6.1631e-05,16.413,5.9445e-05,-0.01128,-0.00018232,-1816.6,1.5388
3962,16.11,0.36364,0,0.0001781,1779.8,6.0174e-05,16.766,5.7941e-05,-0.011723,-0.00017781,-1771.4,1.5671
3963,16.294,0.36364,0,0.00017362,1735,5.8723e-05,17.123,5.6443e-05,-0.012175,-0.00017332,-1726.4,1.5956
3964,16.477,0.36364,0,0.00016915,1690.3,5.7279e-05,17.486,5.4951e-05,-0.012667,-0.00016885,-1681.5,1.6242
3965,16.661,0.36364,0,0.00016471,1645.9,5.5843e-05,17.856,5.3465e-05,-0.013157,-0.00016439,-1636.9,1.6528
3966,16.844,0.36364,0,0.00016028,1601.7,5.4414e-05,18.233,5.1985e-05,-0.013664,-0.00015996,-1592.5,1.6816
3967,17.028,0.36364,0,0.00015587,1557.6,5.2992e-05,18.62,5.0512e-05,-0.014173,-0.00015555,-1548.3,1.7105
3968,17.211,0.36364,0,0.00015149,1513.8,5.1577e-05,19.016,4.9044e-05,-0.014731,-0.00015115,-1504.2,1.7396
3969,17.395,0.36364,0,0.00014712,1470.2,5.017e-05,19.423,4.7583e-05,-0.015315,-0.00014678,-1460.4,1.7687
3970,17.578,0.36364,0,0.00014277,1426.7,4.877e-05,19.842,4.6127e-05,-0.015925,-0.00014242,-1416.7,1.7979
3971,17.762,0.36364,0,0.00013844,1383.5,4.7377e-05,20.273,4.4677e-05,-0.016592,-0.00013809,-1373.2,1.8272
3972,17.945,0.36364,0,0.00013413,1340.4,4.5993e-05,20.718,4.3233e-05,-0.017278,-0.00013377,-1330,1.8566
3973,18.129,0.36364,0,0.00012985,1297.6,4.4615e-05,21.179,4.1794e-05,-0.018016,-0.00012947,-1286.9,1.886
3974,18.312,0.36364,0,0.00012558,1254.9,4.3246e-05,21.654,4.0361e-05,-0.018818,-0.00012519,-1243.9,1.9156
3975,18.496,0.36364,0,0.00012133,1212.4,4.1884e-05,22.147,3.8934e-05,-0.01967,-0.00012093,-1201.2,1.9452
3976,18.679,0.36364,0,0.00011709,1170.1,4.053e-05,22.657,3.7511e-05,-0.020577,-0.00011669,-1158.6,1.975
3977,18.863,0.36364,0,0.00011288,1128,3.9183e-05,23.186,3.6094e-05,-0.021549,-0.00011247,-1116.3,2.0048
3978,19.046,0.36364,0,0.00010869,1086.1,3.7844e-05,23.734,3.4682e-05,-0.022609,-0.00010826,-1074.1,2.0347
3979,19.229,0.36364,0,0.00010451,1044.4,3.6513e-05,24.303,3.3275e-05,-0.023751,-0.00010408,-1032,2.0646
3980,19.413,0.36364,0,0.00010035,1002.8,3.519e-05,24.893,3.1873e-05,-0.024981,-9.9906e-05,-990.16,2.0946
3981,19.596,0.36364,0,9.6212e-05,961.46,3.3874e-05,25.505,3.0476e-05,-0.026326,-9.5753e-05,-948.46,2.1247
3982,19.78,0.36364,0,9.209e-05,920.27,3.2566e-05,26.139,2.9083e-05,-0.027768,-9.1618e-05,-906.93,2.1549
3983,19.963,0.36364,0,8.7986e-05,879.25,3.1266e-05,26.797,2.7695e-05,-0.02933,-8.75e-05,-865.56,2.1851
3984,20.147,0.36364,0,8.3898e-05,838.4,2.9973e-05,27.479,2.6312e-05,-0.031038,-8.3398e-05,-824.34,2.2153
3985,20.33,0.36364,0,7.9828e-05,797.73,2.8688e-05,28.186,2.4932e-05,-0.03289,-7.9312e-05,-783.28,2.2456
3986,20.514,0.36364,0,7.5775e-05,757.22,2.741e-05,28.918,2.3557e-05,-0.034894,-7.5242e-05,-742.37,2.276
3987,20.697,0.36364,0,7.1738e-05,716.88,2.614e-05,29.675,2.2185e-05,-0.037076,-7.1187e-05,-701.6,2.3064
3988,20.881,0.36364,0,6.7717e-05,676.7,2.4877e-05,30.459,2.0817e-05,-0.039459,-6.7148e-05,-660.98,2.3369
3989,21.064,0.36364,0,6.3712e-05,636.68,2.3621e-05,31.269,1.9454e-05,-0.04205,-6.3123e-05,-620.49,2.3674
3990,21.248,0.36364,0,5.9724e-05,596.82,2.2372e-05,32.107,1.8093e-05,-0.044875,-5.9113e-05,-580.14,2.398
3991,21.431,0.36364,0,5.5751e-05,557.13,2.1131e-05,32.973,1.6736e-05,-0.04796,-5.5118e-05,-539.93,2.4286
3992,21.615,0.36364,0,5.1795e-05,517.6,1.9897e-05,33.869,1.5383e-05,-0.051311,-5.1137e-05,-499.85,2.4592
3993,21.798,0.36364,0,4.7856e-05,478.23,1.8671e-05,34.796,1.4033e-05,-0.054964,-4.717e-05,-459.91,2.4898
3994,21.982,0.36364,0,4.3935e-05,439.05,1.7453e-05,35.757,1.2686e-05,-0.058938,-4.3218e-05,-420.1,2.5205
3995,22.165,0.36364,0,4.0033e-05,400.06,1.6244e-05,36.758,1.1343e-05,-0.063231,-3.9282e-05,-380.44,2.5512
3996,22.349,0.36364,0,3.6154e-05,361.29,1.5044e-05,37.806,1.0003e-05,-0.067838,-3.5362e-05,-340.93,2.582
3997,22.532,0.36364,0,3.23e-05,322.78,1.3856e-05,38.915,8.6668e-06,-0.072671,-3.1462e-05,-301.58,2.6127
3998,22.716,0.36364,0,2.8478e-05,284.58,1.2682e-05,40.107,7.3341e-06,-0.077721,-2.7583e-05,-262.43,2.6435
3999,22.899,0.36364,0,2.4699e-05,246.82,1.1529e-05,41.421,6.0052e-06,-0.082136,-2.3733e-05,-223.52,2.6743
4000,23.083,0.36364,0,2.0982e-05,209.67,1.0405e-05,42.931,4.6799e-06,-0.08715,-1.9919e-05,-184.91,2.7051
4001,23.266,0.36364,0,1.736e-05,173.48,9.329e-06,44.779,3.3582e-06,-0.083319,-1.6159e-05,-146.73,2.736
4002,23.45,0.36364,0,1.3902e-05,138.93,8.3358e-06,47.244,2.0351e-06,-0.09635,-1.2481e-05,-109.16,2.7668
4003,23.633,0.36364,0,1.077e-05,107.62,7.5043e-06,51.029,7.1313e-07,0.0026725,-8.9518e-06,-72.616,2.7976
4004,23.817,0.36364,0,8.3297e-06,83.239,7.0142e-06,57.483,-6.7421e-07,-0.28485,-5.6844e-06,-37.929,2.8285
4005,3.4501,0.18182,0,0.00010239,1023.2,4.7996e-05,157.81,2.3109e-05,-29.177,-9.8914e-05,-946.01,0.061286
4006,3.6336,0.18182,0,0.00015386,1537.5,6.0762e-05,115.79,4.4174e-05,-8.8433,-0.00015166,-1480.3,0.075101
4007,3.8171,0.18182,0,0.000208,2078.6,7.8434e-05,115.85,6.2479e-05,-4.0291,-0.00020584,-2020.1,0.089005
4008,4.0006,0.18182,0,0.00025651,2563.4,9.4315e-05,115.86,7.876e-05,-1.0151,-0.00025436,-2503.9,0.10304
4009,4.1841,0.18182,0,0.00029819,2979.9,0.0001076,110.55,9.2868e-05,-0.11332,-0.00029616,-2923.1,0.11723
4010,4.3676,0.18182,0,0.00033302,3327.9,0.00011832,101.39,0.00010485,0.22511,-0.00033118,-3275.9,0.13162
4011,4.551,0.18182,0,0.00036138,3611.3,0.00012673,89.94,0.00011479,0.27002,-0.00035976,-3565.3,0.14622
4012,4.7345,0.18182,0,0.0003839,3836.3,0.00013314,77.591,0.00012284,0.22869,-0.00038251,-3796.8,0.16107
4013,4.918,0.18182,0,0.00040131,4010.4,0.00013787,65.346,0.0001292,0.16627,-0.00040016,-3977.2,0.17617
4014,5.1015,0.18182,0,0.00041437,4140.9,0.00014123,53.85,0.00013408,0.11202,-0.00041343,-4113.6,0.19153
4015,5.285,0.18182,0,0.00042379,4234.9,0.00014347,43.464,0.0001377,0.07248,-0.00042303,-4213,0.20718
4016,5.4684,0.18182,0,0.00043019,4298.9,0.00014483,34.346,0.00014026,0.046708,-0.00042959,-4281.6,0.22311
4017,5.6519,0.18182,0,0.00043413,4338.3,0.00014548,26.524,0.00014195,0.030982,-0.00043367,-4325,0.23932
4018,5.8354,0.18182,0,0.00043608,4357.8,0.00014557,19.944,0.00014292,0.021256,-0.00043574,-4347.8,0.25583
4019,6.0189,0.18182,0,0.00043644,4361.3,0.00014523,14.51,0.00014331,0.013754,-0.00043619,-4354.1,0.27263
4020,6.2024,0.18182,0,0.00043552,4352.2,0.00014456,10.105,0.00014322,0.0046952,-0.00043534,-4347.1,0.28972
4021,6.3858,0.18182,0,0.00043359,4332.9,0.00014364,6.6085,0.00014276,-0.01107,-0.00043348,-4329.6,0.30711
4022,6.5693,0.18182,0,0.00043087,4305.7,0.00014252,3.9102,0.00014199,-0.044616,-0.00043081,-4303.8,0.32479
4023,6.7528,0.18182,0,0.00042753,4272.3,0.00014125,1.9337,0.00014098,-0.13335,-0.0004275,-4271.4,0.34276
4024,6.9363,0.18182,0,0.0004237,4234.1,0.00013991,0.73615,0.00013975,-0.43781,-0.0004237,-4234,0.36101
4025,7.1198,0.18182,0,0.0004195,4192.1,0.00013852,0.34195,0.00013833,-1.0746,-0.00041951,-4192.5,0.37955
4026,7.3032,0.18182,0,0.00041501,4147.3,0.00013705,0.24388,0.00013681,-1.6177,-0.00041504,-4148,0.39838
4027,7.4867,0.18182,0,0.00041031,4100.2,0.00013551,0.21264,0.00013523,-1.9084,-0.00041033,-4101.1,0.41748
4028,7.6702,0.18182,0,0.00040543,4051.5,0.00013391,0.20572,0.00013362,-1.9651,-0.00040546,-4052.4,0.43685
4029,7.8537,0.18182,0,0.00040044,4001.6,0.00013225,0.2146,0.00013198,-1.8311,-0.00040046,-4002.4,0.4565
4030,8.0372,0.18182,0,0.00039535,3950.8,0.00013056,0.24137,0.00013032,-1.5525,-0.00039537,-3951.5,0.47642
4031,8.2206,0.18182,0,0.0003902,3899.4,0.00012885,0.29863,0.00012865,-1.179,-0.00039022,-3899.8,0.49661
4032,8.4041,0.18182,0,0.00038501,3847.5,0.00012713,0.42126,0.00012697,-0.77619,-0.00038502,-3847.7,0.51706
4033,8.5876,0.18182,0,0.00037979,3795.3,0.00012541,0.68136,0.00012526,-0.44167,-0.00037979,-3795.2,0.53776
4034,8.7711,0.18182,0,0.00037456,3743,0.00012371,1.1268,0.00012353,-0.24412,-0.00037454,-3742.6,0.55872
4035,8.9546,0.18182,0,0.00036932,3690.6,0.00012202,1.7037,0.00012178,-0.14682,-0.00036929,-3689.8,0.57994
4036,9.1381,0.18182,0,0.00036408,3638.2,0.00012035,2.3455,0.00012002,-0.096622,-0.00036404,-3637.1,0.6014
4037,9.3215,0.18182,0,0.00035884,3585.9,0.00011867,3.0158,0.00011826,-0.067918,-0.00035879,-3584.4,0.6231
4038,9.505,0.18182,0,0.00035361,3533.7,0.000117,3.6952,0.00011651,-0.050022,-0.00035355,-3531.9,0.64505
4039,9.6885,0.18182,0,0.0003484,3481.6,0.00011534,4.3727,0.00011475,-0.038122,-0.00034833,-3479.4,0.66723
4040,9.872,0.18182,0,0.0003432,3429.7,0.00011368,5.0407,0.000113,-0.029827,-0.00034312,-3427.2,0.68965
4041,10.055,0.18182,0,0.00033802,3377.9,0.00011202,5.6945,0.00011126,-0.023815,-0.00033793,-3375.1,0.7123
4042,10.239,0.18182,0,0.00033286,3326.3,0.00011037,6.3308,0.00010953,-0.01934,-0.00033275,-3323.2,0.73518
4043,10.422,0.18182,0,0.00032772,3274.9,0.00010873,6.9474,0.0001078,-0.01596,-0.0003276,-3271.5,0.75827
4044,10.606,0.18182,0,0.0003226,3223.7,0.00010709,7.5433,0.00010608,-0.013323,-0.00032247,-3220,0.78159
4045,10.789,0.18182,0,0.00031749,3172.7,0.00010545,8.1177,0.00010437,-0.011224,-0.00031735,-3168.7,0.80512
4046,10.973,0.18182,0,0.00031241,3122,0.00010382,8.6706,0.00010267,-0.0095215,-0.00031226,-3117.6,0.82887
4047,11.156,0.18182,0,0.00030735,3071.4,0.00010219,9.2023,0.00010097,-0.0081778,-0.00030719,-3066.8,0.85283
4048,11.34,0.18182,0,0.00030231,3021,0.00010057,9.7133,9.928e-05,-0.0070781,-0.00030214,-3016.2,0.87699
4049,11.523,0.18182,0,0.00029729,2970.9,9.8959e-05,10.205,9.76e-05,-0.0061221,-0.00029712,-2965.7,0.90135
4050,11.707,0.18182,0,0.00029229,2920.9,9.7349e-05,10.677,9.5927e-05,-0.0053533,-0.00029211,-2915.6,0.92592
4051,11.89,0.18182,0,0.00028732,2871.2,9.5744e-05,11.131,9.4262e-05,-0.004698,-0.00028713,-2865.6,0.95068
4052,12.074,0.18182,0,0.00028236,2821.7,9.4146e-05,11.569,9.2605e-05,-0.0041316,-0.00028216,-2815.9,0.97563
4053,12.257,0.18182,0,0.00027743,2772.4,9.2552e-05,11.991,9.0956e-05,-0.0036747,-0.00027722,-2766.3,1.0008
4054,12.441,0.18182,0,0.00027251,2723.3,9.0965e-05,12.398,8.9314e-05,-0.0032641,-0.0002723,-2717,1.0261
4055,12.624,0.18182,0,0.00026762,2674.4,8.9383e-05,12.793,8.768e-05,-0.0028934,-0.0002674,-2667.9,1.0516
4056,12.808,0.18182,0,0.00026275,2625.7,8.7807e-05,13.175,8.6054e-05,-0.00255,-0.00026252,-2619.1,1.0773
4057,12.991,0.18182,0,0.0002579,2577.2,8.6238e-05,13.547,8.4434e-05,-0.0022786,-0.00025767,-2570.4,1.1032
4058,13.175,0.18182,0,0.00025307,2528.9,8.4674e-05,13.908,8.2822e-05,-0.0020417,-0.00025283,-2522,1.1292
4059,13.358,0.18182,0,0.00024826,2480.9,8.3116e-05,14.261,8.1218e-05,-0.0017873,-0.00024801,-2473.7,1.1554
4060,13.542,0.18182,0,0.00024347,2433,8.1565e-05,14.606,7.962e-05,-0.0015907,-0.00024322,-2425.7,1.1818
4061,13.725,0.18182,0,0.0002387,2385.4,8.0019e-05,14.945,7.803e-05,-0.0014047,-0.00023844,-2377.9,1.2083
4062,13.909,0.18182,0,0.00023395,2337.9,7.8481e-05,15.278,7.6447e-05,-0.0012283,-0.00023369,-2330.3,1.235
4063,14.092,0.18182,0,0.00022923,2290.7,7.6948e-05,15.607,7.4871e-05,-0.0010983,-0.00022896,-2282.9,1.2618
4064,14.276,0.18182,0,0.00022452,2243.7,7.5422e-05,15.932,7.3301e-05,-0.00094037,-0.00022425,-2235.7,1.2888
4065,14.459,0.18182,0,0.00021984,2196.8,7.3902e-05,16.254,7.1739e-05,-0.00079282,-0.00021955,-2188.7,1.316
4066,14.642,0.18182,0,0.00021517,2150.2,7.2389e-05,16.574,7.0183e-05,-0.00068976,-0.00021488,-2141.9,1.3433
4067,14.826,0.18182,0,0.00021052,2103.8,7.0883e-05,16.893,6.8635e-05,-0.00057585,-0.00021023,-2095.3,1.3707
4068,15.009,0.18182,0,0.0002059,2057.6,6.9383e-05,17.212,6.7093e-05,-0.000463,-0.0002056,-2048.9,1.3983
4069,15.193,0.18182,0,0.0002013,2011.6,6.789e-05,17.531,6.5557e-05,-0.00033728,-0.00020099,-2002.7,1.426
4070,15.376,0.18182,0,0.00019671,1965.8,6.6404e-05,17.851,6.4028e-05,-0.00023961,-0.0001964,-1956.8,1.4539
4071,15.56,0.18182,0,0.00019215,1920.1,6.4925e-05,18.174,6.2506e-05,-0.00014421,-0.00019183,-1911,1.4818
4072,15.743,0.18182,0,0.0001876,1874.7,6.3453e-05,18.499,6.0991e-05,-4.5387e-05,-0.00018728,-1865.4,1.51
4073,15.927,0.18182,0,0.00018308,1829.5,6.1987e-05,18.827,5.9481e-05,2.2711e-05,-0.00018275,-1820,1.5382
4074,16.11,0.18182,0,0.00017858,1784.5,6.0529e-05,19.159,5.7979e-05,0.00011566,-0.00017824,-1774.9,1.5665
4075,16.294,0.18182,0,0.00017409,1739.7,5.9077e-05,19.496,5.6482e-05,0.00020812,-0.00017375,-1729.9,1.595
4076,16.477,0.18182,0,0.00016963,1695.1,5.7632e-05,19.838,5.4992e-05,0.00027327,-0.00016928,-1685.1,1.6236
4077,16.661,0.18182,0,0.00016519,1650.7,5.6195e-05,20.186,5.3508e-05,0.00034522,-0.00016483,-1640.5,1.6523
4078,16.844,0.18182,0,0.00016076,1606.5,5.4764e-05,20.54,5.2031e-05,0.00042632,-0.0001604,-1596.1,1.6811
4079,17.028,0.18182,0,0.00015636,1562.5,5.3341e-05,20.901,5.0559e-05,0.00050881,-0.00015599,-1551.9,1.71
4080,17.211,0.18182,0,0.00015197,1518.7,5.1925e-05,21.269,4.9094e-05,0.0005685,-0.0001516,-1507.9,1.739
4081,17.395,0.18182,0,0.00014761,1475.1,5.0515e-05,21.645,4.7635e-05,0.00063199,-0.00014723,-1464.1,1.7682
4082,17.578,0.18182,0,0.00014326,1431.6,4.9113e-05,22.029,4.6181e-05,0.00069162,-0.00014288,-1420.5,1.7974
4083,17.762,0.18182,0,0.00013894,1388.4,4.7718e-05,22.422,4.4734e-05,0.00072966,-0.00013854,-1377.1,1.8267
4084,17.945,0.18182,0,0.00013463,1345.4,4.633e-05,22.823,4.3293e-05,0.00078014,-0.00013423,-1333.8,1.8561
4085,18.129,0.18182,0,0.00013034,1302.5,4.4949e-05,23.234,4.1857e-05,0.00082168,-0.00012993,-1290.7,1.8856
4086,18.312,0.18182,0,0.00012607,1259.9,4.3575e-05,23.654,4.0427e-05,0.00083211,-0.00012565,-1247.9,1.9152
4087,18.496,0.18182,0,0.00012182,1217.4,4.2208e-05,24.084,3.9002e-05,0.00083808,-0.00012139,-1205.2,1.9448
4088,18.679,0.18182,0,0.00011759,1175.1,4.0847e-05,24.523,3.7584e-05,0.0008343,-0.00011715,-1162.6,1.9746
4089,18.863,0.18182,0,0.00011338,1133,3.9494e-05,24.972,3.617e-05,0.00081475,-0.00011293,-1120.3,2.0044
4090,19.046,0.18182,0,0.00010918,1091,3.8147e-05,25.43,3.4762e-05,0.00075666,-0.00010873,-1078.1,2.0343
4091,19.229,0.18182,0,0.000105,1049.3,3.6807e-05,25.898,3.336e-05,0.00067055,-0.00010454,-1036.1,2.0642
4092,19.413,0.18182,0,0.00010084,1007.7,3.5473e-05,26.374,3.1962e-05,0.00055078,-0.00010037,-994.26,2.0943
4093,19.596,0.18182,0,9.6696e-05,966.3,3.4145e-05,26.858,3.057e-05,0.00037441,-9.6212e-05,-952.59,2.1244
4094,19.78,0.18182,0,9.2569e-05,925.05,3.2823e-05,27.35,2.9183e-05,0.0001535,-9.2073e-05,-911.07,2.1545
4095,19.963,0.18182,0,8.8458e-05,883.97,3.1507e-05,27.848,2.7801e-05,-0.00013125,-8.7951e-05,-869.71,2.1848
4096,20.147,0.18182,0,8.4362e-05,843.04,3.0197e-05,28.351,2.6423e-05,-0.00051054,-8.3844e-05,-828.51,2.215
4097,20.33,0.18182,0,8.0282e-05,802.27,2.8892e-05,28.858,2.5051e-05,-0.00098332,-7.9752e-05,-787.45,2.2454
4098,20.514,0.18182,0,7.6217e-05,761.64,2.7591e-05,29.366,2.3683e-05,-0.0015728,-7.5675e-05,-746.53,2.2757
4099,20.697,0.18182,0,7.2166e-05,721.16,2.6296e-05,29.875,2.2319e-05,-0.0023011,-7.1611e-05,-705.76,2.3062
4100,20.881,0.18182,0,6.8128e-05,680.81,2.5004e-05,30.38,2.096e-05,-0.0032159,-6.7561e-05,-665.12,2.3366
4101,21.064,0.18182,0,6.4105e-05,640.6,2.3716e-05,30.879,1.9606e-05,-0.0043424,-6.3524e-05,-624.61,2.3672
4102,21.248,0.18182,0,6.0094e-05,600.52,2.2432e-05,31.368,1.8256e-05,-0.0057323,-5.9499e-05,-584.23,2.3977
4103,21.431,0.18182,0,5.6095e-05,560.56,2.115e-05,31.842,1.6911e-05,-0.0074608,-5.5486e-05,-543.97,2.4283
4104,21.615,0.18182,0,5.2109e-05,520.73,1.987e-05,32.297,1.557e-05,-0.0095816,-5.1484e-05,-503.83,2.459
4105,21.798,0.18182,0,4.8134e-05,481,1.8592e-05,32.725,1.4234e-05,-0.012209,-4.7493e-05,-463.81,2.4896
4106,21.982,0.18182,0,4.417e-05,441.4,1.7313e-05,33.12,1.2903e-05,-0.015483,-4.3514e-05,-423.91,2.5203
4107,22.165,0.18182,0,4.0218e-05,401.9,1.6035e-05,33.472,1.1578e-05,-0.019567,-3.9544e-05,-384.13,2.551
4108,22.349,0.18182,0,3.6278e-05,362.53,1.4755e-05,33.77,1.0258e-05,-0.024702,-3.5585e-05,-344.47,2.5818
4109,22.532,0.18182,0,3.235e-05,323.27,1.3474e-05,34.002,8.9441e-06,-0.031193,-3.1637e-05,-304.94,2.6126
4110,22.716,0.18182,0,2.8436e-05,284.16,1.2188e-05,34.151,7.6377e-06,-0.039604,-2.7701e-05,-265.56,2.6433
4111,22.899,0.18182,0,2.4538e-05,245.22,1.0898e-05,34.199,6.34e-06,-0.0502,-2.3777e-05,-226.34,2.6742
4112,23.083,0.18182,0,2.0663e-05,206.49,9.6029e-06,34.124,5.0526e-06,-0.065468,-1.987e-05,-187.33,2.705
4113,23.266,0.18182,0,1.682e-05,168.09,8.3024e-06,33.91,3.7785e-06,-0.081076,-1.5985e-05,-148.58,2.7358
4114,23.45,0.18182,0,1.3033e-05,130.24,7.0018e-06,33.559,2.5193e-06,-0.12094,-1.2133e-05,-110.22,2.7666
4115,23.633,0.18182,0,9.3691e-06,93.626,5.7225e-06,33.22,1.2864e-06,-0.11107,-8.3495e-06,-72.511,2.7975
4116,23.817,0.18182,0,6.1634e-06,61.591,4.6581e-06,34.201,3.881e-08,-0.50635,-4.8064e-06,-36.911,2.8283
4117,23.817,0.18182,0.1,6.1634e-06,61.591,4.8064e-06,36.911,-3.8811e-08,0.50635,-4.6581e-06,-34.201,2.8283
4118,23.633,0.18182,0.1,9.3691e-06,93.626,8.3495e-06,72.511,-1.2864e-06,0.11107,-5.7225e-06,-33.22,2.7975
4119,23.45,0.18182,0.1,1.3033e-05,130.24,1.2133e-05,110.22,-2.5193e-06,0.12094,-7.0018e-06,-33.559,2.7666
4120,23.266,0.18182,0.1,1.682e-05,168.09,1.5985e-05,148.58,-3.7785e-06,0.081078,-8.3024e-06,-33.91,2.7358
4121,23.083,0.18182,0.1,2.0663e-05,206.49,1.987e-05,187.33,-5.0526e-06,0.065468,-9.6029e-06,-34.124,2.705
4122,22.899,0.18182,0.1,2.4538e-05,245.22,2.3777e-05,226.34,-6.34e-06,0.050201,-1.0898e-05,-34.199,2.6742
4123,22.716,0.18182,0.1,2.8436e-05,284.16,2.7701e-05,265.56,-7.6377e-06,0.039602,-1.2188e-05,-34.151,2.6433
4124,22.532,0.18182,0.1,3.235e-05,323.27,3.1637e-05,304.94,-8.9441e-06,0.031193,-1.3474e-05,-34.002,2.6126
4125,22.349,0.18182,0.1,3.6278e-05,362.53,3.5585e-05,344.47,-1.0258e-05,0.024701,-1.4755e-05,-33.77,2.5818
4126,22.165,0.18182,0.1,4.0218e-05,401.9,3.9544e-05,384.13,-1.1578e-05,0.019565,-1.6035e-05,-33.472,2.551
4127,21.982,0.18182,0.1,4.417e-05,441.4,4.3514e-05,423.91,-1.2903e-05,0.015482,-1.7313e-05,-33.12,2.5203
4128,21.798,0.18182,0.1,4.8134e-05,481,4.7493e-05,463.81,-1.4234e-05,0.012209,-1.8592e-05,-32.725,2.4896
4129,21.615,0.18182,0.1,5.2109e-05,520.73,5.1484e-05,503.83,-1.557e-05,0.0095798,-1.987e-05,-32.297,2.459
4130,21.431,0.18182,0.1,5.6095e-05,560.56,5.5486e-05,543.97,-1.6911e-05,0.0074607,-2.115e-05,-31.842,2.4283
4131,21.248,0.18182,0.1,6.0094e-05,600.52,5.9499e-05,584.23,-1.8256e-05,0.0057331,-2.2432e-05,-31.368,2.3977
4132,21.064,0.18182,0.1,6.4105e-05,640.6,6.3524e-05,624.61,-1.9606e-05,0.0043418,-2.3716e-05,-30.879,2.3672
4133,20.881,0.18182,0.1,6.8128e-05,680.81,6.7561e-05,665.12,-2.096e-05,0.0032143,-2.5004e-05,-30.38,2.3366
4134,20.697,0.18182,0.1,7.2166e-05,721.16,7.1611e-05,705.76,-2.2319e-05,0.0022994,-2.6296e-05,-29.875,2.3062
4135,20.514,0.18182,0.1,7.6217e-05,761.64,7.5675e-05,746.53,-2.3683e-05,0.0015722,-2.7591e-05,-29.366,2.2757
4136,20.33,0.18182,0.1,8.0282e-05,802.27,7.9752e-05,787.45,-2.5051e-05,0.00098304,-2.8892e-05,-28.858,2.2454
4137,20.147,0.18182,0.1,8.4362e-05,843.04,8.3844e-05,828.51,-2.6423e-05,0.00051196,-3.0197e-05,-28.351,2.215
4138,19.963,0.18182,0.1,8.8458e-05,883.97,8.7951e-05,869.71,-2.7801e-05,0.00013111,-3.1507e-05,-27.848,2.1848
4139,19.78,0.18182,0.1,9.2569e-05,925.05,9.2073e-05,911.07,-2.9183e-05,-0.00015472,-3.2823e-05,-27.35,2.1545
4140,19.596,0.18182,0.1,9.6696e-05,966.3,9.6212e-05,952.59,-3.057e-05,-0.00037452,-3.4145e-05,-26.858,2.1244
4141,19.413,0.18182,0.1,0.00010084,1007.7,0.00010037,994.26,-3.1962e-05,-0.00055111,-3.5473e-05,-26.374,2.0943
4142,19.229,0.18182,0.1,0.000105,1049.3,0.00010454,1036.1,-3.336e-05,-0.00067145,-3.6807e-05,-25.898,2.0642
4143,19.046,0.18182,0.1,0.00010918,1091,0.00010873,1078.1,-3.4762e-05,-0.00075803,-3.8147e-05,-25.43,2.0343
4144,18.863,0.18182,0.1,0.00011338,1133,0.00011293,1120.3,-3.617e-05,-0.00081401,-3.9494e-05,-24.972,2.0044
4145,18.679,0.18182,0.1,0.00011759,1175.1,0.00011715,1162.6,-3.7584e-05,-0.0008338,-4.0847e-05,-24.523,1.9746
4146,18.496,0.18182,0.1,0.00012182,1217.4,0.00012139,1205.2,-3.9002e-05,-0.00083997,-4.2208e-05,-24.084,1.9448
4147,18.312,0.18182,0.1,0.00012607,1259.9,0.00012565,1247.9,-4.0427e-05,-0.00083229,-4.3575e-05,-23.654,1.9152
4148,18.129,0.18182,0.1,0.00013034,1302.5,0.00012993,1290.7,-4.1857e-05,-0.00082124,-4.4949e-05,-23.234,1.8856
4149,17.945,0.18182,0.1,0.00013463,1345.4,0.00013423,1333.8,-4.3293e-05,-0.00078028,-4.633e-05,-22.823,1.8561
4150,17.762,0.18182,0.1,0.00013894,1388.4,0.00013854,1377.1,-4.4734e-05,-0.00072931,-4.7718e-05,-22.422,1.8267
4151,17.578,0.18182,0.1,0.00014326,1431.6,0.00014288,1420.5,-4.6181e-05,-0.00069247,-4.9113e-05,-22.029,1.7974
4152,17.395,0.18182,0.1,0.00014761,1475.1,0.00014723,1464.1,-4.7635e-05,-0.00063313,-5.0515e-05,-21.645,1.7682
4153,17.211,0.18182,0.1,0.00015197,1518.7,0.0001516,1507.9,-4.9094e-05,-0.00057093,-5.1925e-05,-21.269,1.739
4154,17.028,0.18182,0.1,0.00015636,1562.5,0.00015599,1551.9,-5.0559e-05,-0.00050843,-5.3341e-05,-20.901,1.71
4155,16.844,0.18182,0.1,0.00016076,1606.5,0.0001604,1596.1,-5.2031e-05,-0.00042571,-5.4764e-05,-20.54,1.6811
4156,16.661,0.18182,0.1,0.00016519,1650.7,0.00016483,1640.5,-5.3508e-05,-0.00034588,-5.6195e-05,-20.186,1.6523
4157,16.477,0.18182,0.1,0.00016963,1695.1,0.00016928,1685.1,-5.4992e-05,-0.00027323,-5.7632e-05,-19.838,1.6236
4158,16.294,0.18182,0.1,0.00017409,1739.7,0.00017375,1729.9,-5.6482e-05,-0.00020823,-5.9077e-05,-19.496,1.595
4159,16.11,0.18182,0.1,0.00017858,1784.5,0.00017824,1774.9,-5.7979e-05,-0.0001165,-6.0529e-05,-19.159,1.5665
4160,15.927,0.18182,0.1,0.00018308,1829.5,0.00018275,1820,-5.9481e-05,-2.3074e-05,-6.1987e-05,-18.827,1.5382
4161,15.743,0.18182,0.1,0.0001876,1874.7,0.00018728,1865.4,-6.0991e-05,4.432e-05,-6.3453e-05,-18.499,1.51
4162,15.56,0.18182,0.1,0.00019215,1920.1,0.00019183,1911,-6.2506e-05,0.00014234,-6.4925e-05,-18.174,1.4818
4163,15.376,0.18182,0.1,0.00019671,1965.8,0.0001964,1956.8,-6.4028e-05,0.0002394,-6.6404e-05,-17.851,1.4539
4164,15.193,0.18182,0.1,0.0002013,2011.6,0.00020099,2002.7,-6.5557e-05,0.00033603,-6.789e-05,-17.531,1.426
4165,15.009,0.18182,0.1,0.0002059,2057.6,0.0002056,2048.9,-6.7093e-05,0.00046301,-6.9383e-05,-17.212,1.3983
4166,14.826,0.18182,0.1,0.00021052,2103.8,0.00021023,2095.3,-6.8635e-05,0.00057596,-7.0883e-05,-16.893,1.3707
4167,14.642,0.18182,0.1,0.00021517,2150.2,0.00021488,2141.9,-7.0183e-05,0.00068939,-7.2389e-05,-16.574,1.3433
4168,14.459,0.18182,0.1,0.00021984,2196.8,0.00021955,2188.7,-7.1739e-05,0.00079347,-7.3902e-05,-16.254,1.316
4169,14.276,0.18182,0.1,0.00022452,2243.7,0.00022425,2235.7,-7.3301e-05,0.00094003,-7.5422e-05,-15.932,1.2888
4170,14.092,0.18182,0.1,0.00022923,2290.7,0.00022896,2282.9,-7.4871e-05,0.0010964,-7.6948e-05,-15.607,1.2618
4171,13.909,0.18182,0.1,0.00023395,2337.9,0.00023369,2330.3,-7.6447e-05,0.001228,-7.848e-05,-15.278,1.235
4172,13.725,0.18182,0.1,0.0002387,2385.4,0.00023844,2377.9,-7.803e-05,0.0014046,-8.0019e-05,-14.945,1.2083
4173,13.542,0.18182,0.1,0.00024347,2433,0.00024322,2425.7,-7.962e-05,0.0015906,-8.1565e-05,-14.606,1.1818
4174,13.358,0.18182,0.1,0.00024826,2480.9,0.00024801,2473.7,-8.1218e-05,0.0017882,-8.3116e-05,-14.261,1.1554
4175,13.175,0.18182,0.1,0.00025307,2528.9,0.00025283,2522,-8.2822e-05,0.0020401,-8.4674e-05,-13.908,1.1292
4176,12.991,0.18182,0.1,0.0002579,2577.2,0.00025767,2570.4,-8.4434e-05,0.0022786,-8.6238e-05,-13.547,1.1032
4177,12.808,0.18182,0.1,0.00026275,2625.7,0.00026252,2619.1,-8.6054e-05,0.0025495,-8.7807e-05,-13.175,1.0773
4178,12.624,0.18182,0.1,0.00026762,2674.4,0.0002674,2667.9,-8.768e-05,0.002893,-8.9383e-05,-12.793,1.0516
4179,12.441,0.18182,0.1,0.00027251,2723.3,0.0002723,2717,-8.9314e-05,0.0032644,-9.0965e-05,-12.398,1.0261
4180,12.257,0.18182,0.1,0.00027743,2772.4,0.00027722,2766.3,-9.0956e-05,0.0036745,-9.2552e-05,-11.991,1.0008
4181,12.074,0.18182,0.1,0.00028236,2821.7,0.00028216,2815.9,-9.2605e-05,0.0041321,-9.4146e-05,-11.569,0.97563
4182,11.89,0.18182,0.1,0.00028732,2871.2,0.00028713,2865.6,-9.4262e-05,0.0046976,-9.5744e-05,-11.131,0.95068
4183,11.707,0.18182,0.1,0.00029229,2920.9,0.00029211,2915.6,-9.5927e-05,0.0053535,-9.7349e-05,-10.677,0.92592
4184,11.523,0.18182,0.1,0.00029729,2970.9,0.00029712,2965.7,-9.76e-05,0.0061215,-9.8959e-05,-10.205,0.90135
4185,11.34,0.18182,0.1,0.00030231,3021,0.00030214,3016.2,-9.928e-05,0.0070789,-0.00010057,-9.7133,0.87699
4186,11.156,0.18182,0.1,0.00030735,3071.4,0.00030719,3066.8,-0.00010097,0.0081773,-0.00010219,-9.2023,0.85283
4187,10.973,0.18182,0.1,0.00031241,3122,0.00031226,3117.6,-0.00010267,0.0095212,-0.00010382,-8.6706,0.82887
4188,10.789,0.18182,0.1,0.00031749,3172.7,0.00031735,3168.7,-0.00010437,0.011224,-0.00010545,-8.1177,0.80512
4189,10.606,0.18182,0.1,0.0003226,3223.7,0.00032247,3220,-0.00010608,0.013324,-0.00010709,-7.5433,0.78159
4190,10.422,0.18182,0.1,0.00032772,3274.9,0.0003276,3271.4,-0.0001078,0.01596,-0.00010873,-6.9474,0.75827
4191,10.239,0.18182,0.1,0.00033286,3326.3,0.00033275,3323.2,-0.00010953,0.01934,-0.00011037,-6.3308,0.73518
4192,10.055,0.18182,0.1,0.00033802,3377.9,0.00033793,3375.1,-0.00011126,0.023815,-0.00011202,-5.6945,0.7123
4193,9.872,0.18182,0.1,0.0003432,3429.7,0.00034312,3427.2,-0.000113,0.029827,-0.00011368,-5.0407,0.68965
4194,9.6885,0.18182,0.1,0.0003484,3481.6,0.00034833,3479.4,-0.00011475,0.038121,-0.00011534,-4.3727,0.66723
4195,9.505,0.18182,0.1,0.00035361,3533.7,0.00035355,3531.9,-0.00011651,0.050023,-0.000117,-3.6953,0.64505
4196,9.3215,0.18182,0.1,0.00035884,3585.9,0.00035879,3584.4,-0.00011826,0.067918,-0.00011867,-3.0158,0.6231
4197,9.1381,0.18182,0.1,0.00036408,3638.2,0.00036404,3637.1,-0.00012002,0.096622,-0.00012035,-2.3455,0.6014
4198,8.9546,0.18182,0.1,0.00036932,3690.6,0.00036929,3689.8,-0.00012178,0.14682,-0.00012202,-1.7037,0.57994
4199,8.7711,0.18182,0.1,0.00037456,3743,0.00037454,3742.6,-0.00012353,0.24412,-0.00012371,-1.1268,0.55872
4200,8.5876,0.18182,0.1,0.00037979,3795.3,0.00037979,3795.2,-0.00012526,0.44167,-0.00012541,-0.68136,0.53776
4201,8.4041,0.18182,0.1,0.00038501,3847.5,0.00038502,3847.7,-0.00012697,0.77619,-0.00012713,-0.42126,0.51706
4202,8.2206,0.18182,0.1,0.0003902,3899.4,0.00039022,3899.8,-0.00012865,1.179,-0.00012885,-0.29863,0.49661
4203,8.0372,0.18182,0.1,0.00039535,3950.8,0.00039537,3951.5,-0.00013032,1.5525,-0.00013056,-0.24137,0.47642
4204,7.8537,0.18182,0.1,0.00040044,4001.6,0.00040046,4002.4,-0.00013198,1.8311,-0.00013225,-0.2146,0.4565
4205,7.6702,0.18182,0.1,0.00040543,4051.5,0.00040546,4052.4,-0.00013362,1.9651,-0.00013391,-0.20572,0.43685
4206,7.4867,0.18182,0.1,0.0004103,4100.2,0.00041033,4101.1,-0.00013523,1.9084,-0.00013551,-0.21264,0.41748
4207,7.3032,0.18182,0.1,0.00041501,4147.3,0.00041504,4147.9,-0.00013681,1.6177,-0.00013705,-0.24388,0.39838
4208,7.1198,0.18182,0.1,0.0004195,4192.1,0.00041951,4192.5,-0.00013833,1.0746,-0.00013852,-0.34195,0.37955
4209,6.9363,0.18182,0.1,0.0004237,4234.1,0.0004237,4234,-0.00013975,0.43781,-0.00013991,-0.73615,0.36101
4210,6.7528,0.18182,0.1,0.00042753,4272.3,0.0004275,4271.4,-0.00014098,0.13335,-0.00014125,-1.9337,0.34276
4211,6.5693,0.18182,0.1,0.00043087,4305.7,0.00043081,4303.8,-0.00014199,0.044616,-0.00014252,-3.9102,0.32479
4212,6.3858,0.18182,0.1,0.00043359,4332.9,0.00043348,4329.6,-0.00014276,0.011069,-0.00014364,-6.6085,0.30711
4213,6.2024,0.18182,0.1,0.00043552,4352.2,0.00043534,4347.1,-0.00014322,-0.0046953,-0.00014456,-10.105,0.28972
4214,6.0189,0.18182,0.1,0.00043644,4361.3,0.00043619,4354.1,-0.00014331,-0.013754,-0.00014523,-14.51,0.27263
4215,5.8354,0.18182,0.1,0.00043608,4357.8,0.00043574,4347.8,-0.00014292,-0.021256,-0.00014557,-19.944,0.25583
4216,5.6519,0.18182,0.1,0.00043413,4338.3,0.00043367,4324.9,-0.00014195,-0.030982,-0.00014548,-26.524,0.23932
4217,5.4684,0.18182,0.1,0.00043019,4298.9,0.00042959,4281.6,-0.00014026,-0.046708,-0.00014483,-34.346,0.22311
4218,5.285,0.18182,0.1,0.00042379,4234.9,0.00042303,4213,-0.0001377,-0.07248,-0.00014347,-43.464,0.20718
4219,5.1015,0.18182,0.1,0.00041437,4140.9,0.00041343,4113.6,-0.00013408,-0.11202,-0.00014123,-53.85,0.19153
4220,4.918,0.18182,0.1,0.00040131,4010.4,0.00040016,3977.2,-0.0001292,-0.16627,-0.00013787,-65.346,0.17617
4221,4.7345,0.18182,0.1,0.0003839,3836.3,0.00038251,3796.8,-0.00012284,-0.22869,-0.00013314,-77.591,0.16107
4222,4.551,0.18182,0.1,0.00036138,3611.3,0.00035976,3565.3,-0.00011479,-0.27002,-0.00012673,-89.94,0.14622
4223,4.3676,0.18182,0.1,0.00033302,3327.9,0.00033118,3275.9,-0.00010485,-0.2251,-0.00011832,-101.39,0.13162
4224,4.1841,0.18182,0.1,0.00029819,2979.9,0.00029616,2923.1,-9.2868e-05,0.11332,-0.0001076,-110.55,0.11723
4225,4.0006,0.18182,0.1,0.00025651,2563.4,0.00025436,2503.9,-7.876e-05,1.0151,-9.4315e-05,-115.86,0.10304
4226,3.8171,0.18182,0.1,0.000208,2078.6,0.00020584,2020.1,-6.2479e-05,4.0291,-7.8434e-05,-115.85,0.089005
4227,3.6336,0.18182,0.1,0.00015386,1537.5,0.00015166,1480.3,-4.4174e-05,8.8433,-6.0762e-05,-115.79,0.075101
4228,3.4501,0.18182,0.1,0.00010239,1023.2,9.8914e-05,946.01,-2.3109e-05,29.177,-4.7996e-05,-157.81,0.061286
4229,23.817,0.36364,0.1,8.3297e-06,83.239,5.6844e-06,37.929,6.7421e-07,0.28486,-7.0142e-06,-57.482,2.8285
4230,23.633,0.36364,0.1,1.077e-05,107.62,8.9518e-06,72.616,-7.1313e-07,-0.0026745,-7.5043e-06,-51.029,2.7976
4231,23.45,0.36364,0.1,1.3902e-05,138.93,1.2481e-05,109.16,-2.0351e-06,0.096351,-8.3358e-06,-47.244,2.7668
4232,23.266,0.36364,0.1,1.736e-05,173.48,1.6159e-05,146.73,-3.3582e-06,0.083317,-9.329e-06,-44.779,2.736
4233,23.083,0.36364,0.1,2.0982e-05,209.67,1.9919e-05,184.91,-4.6799e-06,0.087151,-1.0405e-05,-42.931,2.7051
4234,22.899,0.36364,0.1,2.4699e-05,246.82,2.3733e-05,223.52,-6.0052e-06,0.082137,-1.1529e-05,-41.421,2.6743
4235,22.716,0.36364,0.1,2.8478e-05,284.58,2.7583e-05,262.43,-7.3341e-06,0.077722,-1.2682e-05,-40.107,2.6435
4236,22.532,0.36364,0.1,3.23e-05,322.78,3.1462e-05,301.58,-8.6668e-06,0.072673,-1.3856e-05,-38.915,2.6127
4237,22.349,0.36364,0.1,3.6154e-05,361.29,3.5362e-05,340.93,-1.0003e-05,0.067839,-1.5044e-05,-37.806,2.582
4238,22.165,0.36364,0.1,4.0033e-05,400.06,3.9282e-05,380.44,-1.1343e-05,0.063229,-1.6244e-05,-36.758,2.5512
4239,21.982,0.36364,0.1,4.3935e-05,439.05,4.3218e-05,420.1,-1.2686e-05,0.058938,-1.7453e-05,-35.757,2.5205
4240,21.798,0.36364,0.1,4.7856e-05,478.23,4.717e-05,459.91,-1.4033e-05,0.054964,-1.8671e-05,-34.796,2.4898
4241,21.615,0.36364,0.1,5.1795e-05,517.6,5.1137e-05,499.85,-1.5383e-05,0.051314,-1.9897e-05,-33.869,2.4592
4242,21.431,0.36364,0.1,5.5751e-05,557.13,5.5118e-05,539.93,-1.6736e-05,0.047962,-2.1131e-05,-32.973,2.4286
4243,21.248,0.36364,0.1,5.9724e-05,596.82,5.9113e-05,580.14,-1.8093e-05,0.044875,-2.2372e-05,-32.107,2.398
4244,21.064,0.36364,0.1,6.3712e-05,636.68,6.3123e-05,620.49,-1.9454e-05,0.04205,-2.3621e-05,-31.269,2.3674
4245,20.881,0.36364,0.1,6.7717e-05,676.7,6.7148e-05,660.98,-2.0817e-05,0.039459,-2.4877e-05,-30.459,2.3369
4246,20.697,0.36364,0.1,7.1737e-05,716.88,7.1187e-05,701.6,-2.2185e-05,0.037076,-2.614e-05,-29.675,2.3064
4247,20.514,0.36364,0.1,7.5775e-05,757.22,7.5242e-05,742.37,-2.3557e-05,0.034896,-2.741e-05,-28.918,2.276
4248,20.33,0.36364,0.1,7.9828e-05,797.73,7.9312e-05,783.28,-2.4932e-05,0.032888,-2.8688e-05,-28.186,2.2456
4249,20.147,0.36364,0.1,8.3898e-05,838.4,8.3398e-05,824.34,-2.6312e-05,0.031039,-2.9973e-05,-27.479,2.2153
4250,19.963,0.36364,0.1,8.7986e-05,879.25,8.75e-05,865.56,-2.7695e-05,0.029332,-3.1266e-05,-26.797,2.1851
4251,19.78,0.36364,0.1,9.209e-05,920.27,9.1618e-05,906.93,-2.9083e-05,0.027768,-3.2566e-05,-26.139,2.1549
4252,19.596,0.36364,0.1,9.6212e-05,961.46,9.5753e-05,948.46,-3.0476e-05,0.026326,-3.3874e-05,-25.505,2.1247
4253,19.413,0.36364,0.1,0.00010035,1002.8,9.9906e-05,990.16,-3.1873e-05,0.024982,-3.519e-05,-24.893,2.0946
4254,19.229,0.36364,0.1,0.00010451,1044.4,0.00010408,1032,-3.3275e-05,0.02375,-3.6513e-05,-24.303,2.0646
4255,19.046,0.36364,0.1,0.00010869,1086.1,0.00010826,1074.1,-3.4682e-05,0.022607,-3.7844e-05,-23.735,2.0347
4256,18.863,0.36364,0.1,0.00011288,1128,0.00011247,1116.3,-3.6094e-05,0.021551,-3.9183e-05,-23.186,2.0048
4257,18.679,0.36364,0.1,0.00011709,1170.1,0.00011669,1158.6,-3.7511e-05,0.020577,-4.053e-05,-22.657,1.975
4258,18.496,0.36364,0.1,0.00012133,1212.4,0.00012093,1201.2,-3.8934e-05,0.019669,-4.1884e-05,-22.147,1.9452
4259,18.312,0.36364,0.1,0.00012558,1254.9,0.00012519,1243.9,-4.0361e-05,0.018818,-4.3246e-05,-21.654,1.9156
4260,18.129,0.36364,0.1,0.00012985,1297.6,0.00012947,1286.9,-4.1794e-05,0.018015,-4.4615e-05,-21.179,1.886
4261,17.945,0.36364,0.1,0.00013413,1340.4,0.00013377,1330,-4.3233e-05,0.01728,-4.5993e-05,-20.718,1.8566
4262,17.762,0.36364,0.1,0.00013844,1383.5,0.00013809,1373.2,-4.4677e-05,0.016592,-4.7377e-05,-20.273,1.8272
4263,17.578,0.36364,0.1,0.00014277,1426.7,0.00014242,1416.7,-4.6127e-05,0.015924,-4.877e-05,-19.842,1.7979
4264,17.395,0.36364,0.1,0.00014712,1470.2,0.00014678,1460.4,-4.7583e-05,0.015314,-5.017e-05,-19.423,1.7687
4265,17.211,0.36364,0.1,0.00015149,1513.8,0.00015115,1504.2,-4.9044e-05,0.01473,-5.1577e-05,-19.016,1.7396
4266,17.028,0.36364,0.1,0.00015587,1557.6,0.00015555,1548.3,-5.0512e-05,0.014173,-5.2992e-05,-18.62,1.7105
4267,16.844,0.36364,0.1,0.00016028,1601.7,0.00015996,1592.5,-5.1985e-05,0.013663,-5.4414e-05,-18.233,1.6816
4268,16.661,0.36364,0.1,0.00016471,1645.9,0.00016439,1636.9,-5.3465e-05,0.013157,-5.5843e-05,-17.856,1.6528
4269,16.477,0.36364,0.1,0.00016915,1690.3,0.00016885,1681.5,-5.4951e-05,0.012666,-5.7279e-05,-17.486,1.6242
4270,16.294,0.36364,0.1,0.00017362,1735,0.00017332,1726.4,-5.6442e-05,0.012176,-5.8723e-05,-17.123,1.5956
4271,16.11,0.36364,0.1,0.0001781,1779.8,0.00017781,1771.4,-5.7941e-05,0.011723,-6.0174e-05,-16.766,1.5671
4272,15.927,0.36364,0.1,0.00018261,1824.8,0.00018232,1816.6,-5.9445e-05,0.011279,-6.1631e-05,-16.413,1.5388
4273,15.743,0.36364,0.1,0.00018714,1870.1,0.00018686,1862,-6.0956e-05,0.010812,-6.3096e-05,-16.064,1.5106
4274,15.56,0.36364,0.1,0.00019168,1915.5,0.00019141,1907.6,-6.2474e-05,0.010375,-6.4567e-05,-15.717,1.4825
4275,15.376,0.36364,0.1,0.00019625,1961.1,0.00019598,1953.4,-6.3998e-05,0.0099301,-6.6045e-05,-15.372,1.4545
4276,15.193,0.36364,0.1,0.00020083,2006.9,0.00020057,1999.4,-6.5528e-05,0.0094769,-6.753e-05,-15.027,1.4267
4277,15.009,0.36364,0.1,0.00020544,2053,0.00020519,2045.6,-6.7066e-05,0.0090419,-6.9021e-05,-14.681,1.399
4278,14.826,0.36364,0.1,0.00021006,2099.2,0.00020982,2092,-6.861e-05,0.0085861,-7.0518e-05,-14.334,1.3714
4279,14.642,0.36364,0.1,0.00021471,2145.6,0.00021447,2138.6,-7.016e-05,0.0081066,-7.2022e-05,-13.983,1.344
4280,14.459,0.36364,0.1,0.00021938,2192.3,0.00021914,2185.4,-7.1718e-05,0.0075994,-7.3532e-05,-13.627,1.3167
4281,14.276,0.36364,0.1,0.00022406,2239.1,0.00022383,2232.4,-7.3282e-05,0.0071043,-7.5049e-05,-13.266,1.2896
4282,14.092,0.36364,0.1,0.00022877,2286.1,0.00022855,2279.6,-7.4854e-05,0.0065898,-7.6571e-05,-12.897,1.2626
4283,13.909,0.36364,0.1,0.0002335,2333.3,0.00023328,2327.1,-7.6432e-05,0.0060151,-7.8099e-05,-12.52,1.2357
4284,13.725,0.36364,0.1,0.00023824,2380.8,0.00023803,2374.7,-7.8018e-05,0.0054416,-7.9633e-05,-12.133,1.2091
4285,13.542,0.36364,0.1,0.00024301,2428.4,0.00024281,2422.5,-7.961e-05,0.0048313,-8.1173e-05,-11.735,1.1825
4286,13.358,0.36364,0.1,0.0002478,2476.2,0.0002476,2470.6,-8.1211e-05,0.0041803,-8.2718e-05,-11.323,1.1562
4287,13.175,0.36364,0.1,0.0002526,2524.3,0.00025241,2518.8,-8.2818e-05,0.0035243,-8.4269e-05,-10.897,1.13
4288,12.991,0.36364,0.1,0.00025743,2572.5,0.00025725,2567.3,-8.4433e-05,0.0027835,-8.5824e-05,-10.454,1.104
4289,12.808,0.36364,0.1,0.00026228,2620.9,0.0002621,2615.9,-8.6055e-05,0.0019984,-8.7385e-05,-9.9929,1.0781
4290,12.624,0.36364,0.1,0.00026714,2669.6,0.00026698,2664.8,-8.7685e-05,0.0012004,-8.8951e-05,-9.5119,1.0525
4291,12.441,0.36364,0.1,0.00027203,2718.4,0.00027187,2713.9,-8.9323e-05,0.00033055,-9.0522e-05,-9.009,1.027
4292,12.257,0.36364,0.1,0.00027694,2767.4,0.00027679,2763.2,-9.0968e-05,-0.00061121,-9.2097e-05,-8.4824,1.0017
4293,12.074,0.36364,0.1,0.00028186,2816.7,0.00028173,2812.7,-9.2622e-05,-0.0016328,-9.3677e-05,-7.9301,0.97654
4294,11.89,0.36364,0.1,0.00028681,2866.1,0.00028668,2862.4,-9.4283e-05,-0.00269,-9.5261e-05,-7.3501,0.9516
4295,11.707,0.36364,0.1,0.00029178,2915.8,0.00029166,2912.4,-9.5953e-05,-0.00382,-9.685e-05,-6.7404,0.92686
4296,11.523,0.36364,0.1,0.00029677,2965.6,0.00029666,2962.5,-9.7631e-05,-0.0050257,-9.8442e-05,-6.0992,0.90231
4297,11.34,0.36364,0.1,0.00030177,3015.6,0.00030168,3012.9,-9.9317e-05,-0.0062569,-0.00010004,-5.4245,0.87796
4298,11.156,0.36364,0.1,0.0003068,3065.9,0.00030672,3063.5,-0.00010101,-0.0075924,-0.00010164,-4.7149,0.85381
4299,10.973,0.36364,0.1,0.00031185,3116.3,0.00031178,3114.3,-0.00010271,-0.0089588,-0.00010324,-3.9686,0.82987
4300,10.789,0.36364,0.1,0.00031691,3167,0.00031686,3165.4,-0.00010442,-0.010255,-0.00010485,-3.1846,0.80614
4301,10.606,0.36364,0.1,0.000322,3217.8,0.00032196,3216.6,-0.00010614,-0.011393,-0.00010646,-2.3624,0.78262
4302,10.422,0.36364,0.1,0.00032711,3268.8,0.00032708,3268.1,-0.00010787,-0.011824,-0.00010807,-1.5019,0.75931
4303,10.239,0.36364,0.1,0.00033223,3320,0.00033222,3319.7,-0.00010961,-0.0075707,-0.00010969,-0.60795,0.73623
4304,10.055,0.36364,0.1,0.00033737,3371.4,0.00033738,3371.6,-0.0001113,0.35686,-0.00011135,-0.036889,0.71337
4305,9.872,0.36364,0.1,0.00034253,3423,0.00034256,3423.6,-0.00011292,1.3174,-0.0001131,-0.027379,0.69074
4306,9.6885,0.36364,0.1,0.00034771,3474.7,0.00034775,3475.9,-0.00011455,2.3187,-0.00011486,-0.027906,0.66833
4307,9.505,0.36364,0.1,0.0003529,3526.6,0.00035296,3528.3,-0.00011618,3.3464,-0.00011663,-0.029748,0.64616
4308,9.3215,0.36364,0.1,0.00035811,3578.6,0.00035818,3580.8,-0.00011781,4.3917,-0.0001184,-0.032108,0.62423
4309,9.1381,0.36364,0.1,0.00036332,3630.7,0.00036342,3633.4,-0.00011944,5.4437,-0.00012017,-0.034768,0.60253
4310,8.9546,0.36364,0.1,0.00036855,3682.9,0.00036866,3686.2,-0.00012108,6.4883,-0.00012195,-0.037645,0.58109
4311,8.7711,0.36364,0.1,0.00037377,3735.2,0.0003739,3738.9,-0.00012272,7.5073,-0.00012372,-0.040693,0.55988
4312,8.5876,0.36364,0.1,0.000379,3787.4,0.00037914,3791.6,-0.00012436,8.4777,-0.00012549,-0.043883,0.53894
4313,8.4041,0.36364,0.1,0.00038421,3839.5,0.00038437,3844.1,-0.000126,9.3706,-0.00012726,-0.047196,0.51824
4314,8.2206,0.36364,0.1,0.0003894,3891.3,0.00038957,3896.4,-0.00012765,10.15,-0.00012901,-0.05062,0.4978
4315,8.0372,0.36364,0.1,0.00039456,3942.9,0.00039474,3948.3,-0.0001293,10.773,-0.00013074,-0.054171,0.47763
4316,7.8537,0.36364,0.1,0.00039967,3994,0.00039986,3999.5,-0.00013095,11.185,-0.00013245,-0.057907,0.45772
4317,7.6702,0.36364,0.1,0.00040471,4044.3,0.0004049,4049.9,-0.0001326,11.323,-0.00013412,-0.061983,0.43808
4318,7.4867,0.36364,0.1,0.00040964,4093.6,0.00040983,4099.1,-0.00013425,11.111,-0.00013574,-0.066771,0.41872
4319,7.3032,0.36364,0.1,0.00041444,4141.5,0.00041462,4146.7,-0.00013589,10.459,-0.00013729,-0.073147,0.39962
4320,7.1198,0.36364,0.1,0.00041905,4187.6,0.00041921,4192.2,-0.00013751,9.2633,-0.00013875,-0.083326,0.38081
4321,6.9363,0.36364,0.1,0.00042342,4231.3,0.00042354,4234.9,-0.0001391,7.4102,-0.0001401,-0.10387,0.36228
4322,6.7528,0.36364,0.1,0.00042746,4271.7,0.00042754,4274,-0.00014065,4.789,-0.00014131,-0.16234,0.34403
4323,6.5693,0.36364,0.1,0.00043108,4307.8,0.0004311,4308.3,-0.0001421,1.5313,-0.00014238,-0.54366,0.32608
4324,6.3858,0.36364,0.1,0.00043415,4338.5,0.00043409,4336.7,-0.00014305,0.24851,-0.00014362,-4.0263,0.30841
4325,6.2024,0.36364,0.1,0.00043652,4362.2,0.00043635,4357.3,-0.00014354,0.13899,-0.00014489,-9.9839,0.29103
4326,6.0189,0.36364,0.1,0.00043798,4376.8,0.00043768,4368,-0.00014365,0.12301,-0.000146,-17.512,0.27395
4327,5.8354,0.36364,0.1,0.00043828,4379.8,0.00043782,4366.5,-0.0001433,0.13215,-0.00014687,-26.704,0.25716
4328,5.6519,0.36364,0.1,0.00043712,4368.2,0.00043647,4349.3,-0.00014237,0.15446,-0.0001474,-37.67,0.24067
4329,5.4684,0.36364,0.1,0.00043411,4338.1,0.00043323,4312.7,-0.00014073,0.18646,-0.00014747,-50.461,0.22447
4330,5.285,0.36364,0.1,0.00042878,4284.8,0.00042764,4252.1,-0.00013825,0.22694,-0.00014693,-65.009,0.20856
4331,5.1015,0.36364,0.1,0.00042058,4202.9,0.00041914,4161.9,-0.00013473,0.27567,-0.00014556,-81.06,0.19294
4332,4.918,0.36364,0.1,0.00040884,4085.6,0.00040709,4035.8,-0.00013,0.3341,-0.0001431,-98.094,0.1776
4333,4.7345,0.36364,0.1,0.00039283,3925.6,0.00039075,3866.9,-0.00012385,0.40699,-0.00013924,-115.23,0.16253
4334,4.551,0.36364,0.1,0.00037172,3714.6,0.00036932,3647.6,-0.00011607,0.51232,-0.0001336,-131.18,0.14772
4335,4.3676,0.36364,0.1,0.00034473,3445,0.00034206,3370.9,-0.00010648,0.68679,-0.00012578,-144.29,0.13315
4336,4.1841,0.36364,0.1,0.00031124,3110.3,0.00030837,3031.5,-9.4952e-05,1.0798,-0.00011544,-152.87,0.11881
4337,4.0006,0.36364,0.1,0.0002711,2709.1,0.00026812,2628.3,-8.1445e-05,1.8445,-0.00010251,-156.43,0.10466
4338,3.8171,0.36364,0.1,0.00022532,2251.7,0.00022225,2170,-6.5999e-05,4.1688,-8.7681e-05,-158.74,0.090687
4339,3.6336,0.36364,0.1,0.0001784,1782.7,0.00017466,1687.4,-4.9151e-05,5.7304,-7.4085e-05,-181.61,0.076838
4340,3.4501,0.36364,0.1,0.00014962,1495.2,0.00014139,1310.1,-3.108e-05,14.216,-7.6339e-05,-325.84,0.063077
4341,23.817,0.54545,0.1,1.0277e-05,102.7,6.4442e-06,38.782,1.2868e-06,0.031975,-9.0524e-06,-77.653,2.8286
4342,23.633,0.54545,0.1,1.2431e-05,124.22,9.7143e-06,74.167,-1.8094e-07,-0.18206,-9.3719e-06,-69.239,2.7978
4343,23.45,0.54545,0.1,1.5232e-05,152.21,1.3148e-05,110.59,-1.5747e-06,-0.031525,-9.9554e-06,-63.001,2.7669
4344,23.266,0.54545,0.1,1.8416e-05,184.04,1.6716e-05,147.79,-2.9565e-06,-0.02794,-1.0718e-05,-58.341,2.7361
4345,23.083,0.54545,0.1,2.183e-05,218.15,2.038e-05,185.61,-4.3243e-06,-0.0071013,-1.1601e-05,-54.68,2.7053
4346,22.899,0.54545,0.1,2.5389e-05,253.72,2.4112e-05,223.9,-5.687e-06,0.00012365,-1.2566e-05,-51.684,2.6745
4347,22.716,0.54545,0.1,2.9045e-05,290.25,2.7895e-05,262.54,-7.0467e-06,0.0056229,-1.3587e-05,-49.139,2.6437
4348,22.532,0.54545,0.1,3.2768e-05,327.45,3.1717e-05,301.47,-8.4054e-06,0.0086093,-1.465e-05,-46.912,2.6129
4349,22.349,0.54545,0.1,3.6541e-05,365.16,3.5569e-05,340.63,-9.7641e-06,0.010441,-1.5744e-05,-44.919,2.5822
4350,22.165,0.54545,0.1,4.0354e-05,403.26,3.9448e-05,379.98,-1.1123e-05,0.011443,-1.6862e-05,-43.106,2.5514
4351,21.982,0.54545,0.1,4.4199e-05,441.68,4.3348e-05,419.51,-1.2484e-05,0.011939,-1.8e-05,-41.437,2.5207
4352,21.798,0.54545,0.1,4.8071e-05,480.38,4.7268e-05,459.2,-1.3846e-05,0.0121,-1.9156e-05,-39.885,2.49
4353,21.615,0.54545,0.1,5.1968e-05,519.32,5.1207e-05,499.04,-1.5209e-05,0.012049,-2.0326e-05,-38.433,2.4594
4354,21.431,0.54545,0.1,5.5887e-05,558.48,5.5164e-05,539.03,-1.6575e-05,0.01186,-2.151e-05,-37.068,2.4288
4355,21.248,0.54545,0.1,5.9826e-05,597.85,5.9137e-05,579.16,-1.7943e-05,0.011576,-2.2706e-05,-35.78,2.3982
4356,21.064,0.54545,0.1,6.3786e-05,637.42,6.3128e-05,619.44,-1.9313e-05,0.011243,-2.3915e-05,-34.561,2.3676
4357,20.881,0.54545,0.1,6.7765e-05,677.18,6.7135e-05,659.86,-2.0686e-05,0.010877,-2.5134e-05,-33.406,2.3371
4358,20.697,0.54545,0.1,7.1763e-05,717.13,7.1158e-05,700.43,-2.2062e-05,0.010502,-2.6364e-05,-32.31,2.3067
4359,20.514,0.54545,0.1,7.5779e-05,757.27,7.5199e-05,741.15,-2.3441e-05,0.010127,-2.7604e-05,-31.268,2.2763
4360,20.33,0.54545,0.1,7.9814e-05,797.59,7.9256e-05,782.02,-2.4824e-05,0.0097576,-2.8855e-05,-30.278,2.2459
4361,20.147,0.54545,0.1,8.3868e-05,838.1,8.333e-05,823.05,-2.621e-05,0.0093899,-3.0115e-05,-29.335,2.2156
4362,19.963,0.54545,0.1,8.794e-05,878.8,8.7422e-05,864.24,-2.7599e-05,0.0090315,-3.1386e-05,-28.438,2.1854
4363,19.78,0.54545,0.1,9.2031e-05,919.68,9.1531e-05,905.58,-2.8993e-05,0.0087024,-3.2665e-05,-27.584,2.1552
4364,19.596,0.54545,0.1,9.6141e-05,960.75,9.5658e-05,947.09,-3.0391e-05,0.0083862,-3.3955e-05,-26.77,2.125
4365,19.413,0.54545,0.1,0.00010027,1002,9.9803e-05,988.77,-3.1793e-05,0.0080744,-3.5253e-05,-25.993,2.0949
4366,19.229,0.54545,0.1,0.00010442,1043.5,0.00010397,1030.6,-3.3199e-05,0.007792,-3.6561e-05,-25.253,2.0649
4367,19.046,0.54545,0.1,0.00010859,1085.1,0.00010815,1072.6,-3.461e-05,0.0075225,-3.7878e-05,-24.547,2.035
4368,18.863,0.54545,0.1,0.00011277,1126.9,0.00011235,1114.8,-3.6026e-05,0.0072647,-3.9204e-05,-23.872,2.0051
4369,18.679,0.54545,0.1,0.00011698,1169,0.00011657,1157.2,-3.7446e-05,0.0070346,-4.0538e-05,-23.227,1.9753
4370,18.496,0.54545,0.1,0.0001212,1211.2,0.0001208,1199.7,-3.8872e-05,0.0068127,-4.1882e-05,-22.611,1.9456
4371,18.312,0.54545,0.1,0.00012545,1253.6,0.00012506,1242.5,-4.0302e-05,0.006597,-4.3234e-05,-22.02,1.916
4372,18.129,0.54545,0.1,0.00012971,1296.2,0.00012934,1285.4,-4.1738e-05,0.0063852,-4.4594e-05,-21.454,1.8864
4373,17.945,0.54545,0.1,0.000134,1339.1,0.00013363,1328.5,-4.3179e-05,0.0062037,-4.5963e-05,-20.91,1.857
4374,17.762,0.54545,0.1,0.0001383,1382.1,0.00013795,1371.8,-4.4626e-05,0.0060282,-4.734e-05,-20.387,1.8276
4375,17.578,0.54545,0.1,0.00014263,1425.3,0.00014228,1415.2,-4.6078e-05,0.0058436,-4.8725e-05,-19.883,1.7983
4376,17.395,0.54545,0.1,0.00014697,1468.7,0.00014663,1458.9,-4.7536e-05,0.0056868,-5.0118e-05,-19.397,1.7691
4377,17.211,0.54545,0.1,0.00015134,1512.3,0.000151,1502.8,-4.9e-05,0.0055332,-5.152e-05,-18.927,1.74
4378,17.028,0.54545,0.1,0.00015572,1556.1,0.0001554,1546.8,-5.0469e-05,0.0053837,-5.2928e-05,-18.472,1.711
4379,16.844,0.54545,0.1,0.00016012,1600.1,0.00015981,1591,-5.1945e-05,0.0052525,-5.4345e-05,-18.029,1.6821
4380,16.661,0.54545,0.1,0.00016455,1644.3,0.00016424,1635.5,-5.3426e-05,0.0051208,-5.5769e-05,-17.597,1.6534
4381,16.477,0.54545,0.1,0.00016899,1688.7,0.00016869,1680.1,-5.4914e-05,0.0049837,-5.72e-05,-17.175,1.6247
4382,16.294,0.54545,0.1,0.00017345,1733.3,0.00017316,1724.9,-5.6407e-05,0.0048388,-5.8639e-05,-16.762,1.5961
4383,16.11,0.54545,0.1,0.00017794,1778.2,0.00017765,1769.9,-5.7907e-05,0.0047198,-6.0085e-05,-16.355,1.5677
4384,15.927,0.54545,0.1,0.00018244,1823.2,0.00018217,1815.1,-5.9414e-05,0.0046075,-6.1537e-05,-15.954,1.5393
4385,15.743,0.54545,0.1,0.00018697,1868.4,0.0001867,1860.5,-6.0926e-05,0.0044648,-6.2997e-05,-15.556,1.5111
4386,15.56,0.54545,0.1,0.00019151,1913.8,0.00019125,1906.1,-6.2445e-05,0.0043447,-6.4464e-05,-15.16,1.4831
4387,15.376,0.54545,0.1,0.00019607,1959.4,0.00019582,1952,-6.3971e-05,0.0042181,-6.5937e-05,-14.765,1.4551
4388,15.193,0.54545,0.1,0.00020066,2005.2,0.00020041,1998,-6.5503e-05,0.0040874,-6.7416e-05,-14.369,1.4273
4389,15.009,0.54545,0.1,0.00020526,2051.2,0.00020502,2044.2,-6.7042e-05,0.0039767,-6.8902e-05,-13.971,1.3996
4390,14.826,0.54545,0.1,0.00020988,2097.4,0.00020965,2090.6,-6.8588e-05,0.0038515,-7.0394e-05,-13.568,1.372
4391,14.642,0.54545,0.1,0.00021453,2143.8,0.0002143,2137.2,-7.014e-05,0.0037115,-7.1892e-05,-13.16,1.3446
4392,14.459,0.54545,0.1,0.00021919,2190.4,0.00021897,2184,-7.1699e-05,0.0035516,-7.3396e-05,-12.744,1.3174
4393,14.276,0.54545,0.1,0.00022387,2237.2,0.00022366,2231,-7.3266e-05,0.0034199,-7.4906e-05,-12.319,1.2902
4394,14.092,0.54545,0.1,0.00022857,2284.1,0.00022837,2278.2,-7.4839e-05,0.0032806,-7.6421e-05,-11.882,1.2633
4395,13.909,0.54545,0.1,0.00023329,2331.3,0.0002331,2325.6,-7.642e-05,0.0030972,-7.7942e-05,-11.432,1.2365
4396,13.725,0.54545,0.1,0.00023804,2378.7,0.00023785,2373.2,-7.8007e-05,0.0029367,-7.9467e-05,-10.967,1.2098
4397,13.542,0.54545,0.1,0.0002428,2426.3,0.00024262,2421,-7.9602e-05,0.0027599,-8.0998e-05,-10.485,1.1833
4398,13.358,0.54545,0.1,0.00024758,2474.1,0.0002474,2469,-8.1205e-05,0.0025671,-8.2534e-05,-9.9832,1.1569
4399,13.175,0.54545,0.1,0.00025238,2522,0.00025221,2517.3,-8.2815e-05,0.0023973,-8.4074e-05,-9.4597,1.1308
4400,12.991,0.54545,0.1,0.0002572,2570.2,0.00025704,2565.7,-8.4432e-05,0.0021724,-8.5619e-05,-8.9122,1.1048
4401,12.808,0.54545,0.1,0.00026203,2618.5,0.00026189,2614.4,-8.6058e-05,0.0019353,-8.7168e-05,-8.3382,1.0789
4402,12.624,0.54545,0.1,0.00026689,2667.1,0.00026676,2663.2,-8.7691e-05,0.0017229,-8.8721e-05,-7.7349,1.0533
4403,12.441,0.54545,0.1,0.00027177,2715.8,0.00027165,2712.3,-8.9332e-05,0.0014765,-9.0277e-05,-7.1,1.0278
4404,12.257,0.54545,0.1,0.00027667,2764.8,0.00027656,2761.5,-9.0981e-05,0.0012016,-9.1837e-05,-6.4306,1.0025
4405,12.074,0.54545,0.1,0.00028158,2813.9,0.00028148,2811,-9.2638e-05,0.00089489,-9.34e-05,-5.7239,0.97739
4406,11.89,0.54545,0.1,0.00028652,2863.2,0.00028643,2860.7,-9.4304e-05,0.00060623,-9.4966e-05,-4.9771,0.95246
4407,11.707,0.54545,0.1,0.00029147,2912.7,0.0002914,2910.6,-9.5978e-05,0.00030515,-9.6535e-05,-4.1874,0.92773
4408,11.523,0.54545,0.1,0.00029644,2962.4,0.00029639,2960.7,-9.766e-05,6.7823e-06,-9.8106e-05,-3.3519,0.9032
4409,11.34,0.54545,0.1,0.00030144,3012.3,0.00030139,3011,-9.9351e-05,-0.00018839,-9.968e-05,-2.4679,0.87886
4410,11.156,0.54545,0.1,0.00030645,3062.3,0.00030642,3061.6,-0.00010105,-0.00019359,-0.00010126,-1.5331,0.85473
4411,10.973,0.54545,0.1,0.00031147,3112.6,0.00031147,3112.3,-0.00010276,0.0016401,-0.00010283,-0.54652,0.8308
4412,10.789,0.54545,0.1,0.00031652,3163,0.00031653,3163.3,-0.00010441,0.50583,-0.00010448,-0.0065551,0.80708
4413,10.606,0.54545,0.1,0.00032159,3213.7,0.00032161,3214.5,-0.00010599,1.605,-0.0001062,-0.0044773,0.78358
4414,10.422,0.54545,0.1,0.00032667,3264.5,0.00032672,3265.8,-0.00010757,2.7645,-0.00010794,-0.0046592,0.76029
4415,10.239,0.54545,0.1,0.00033177,3315.4,0.00033184,3317.4,-0.00010915,3.9826,-0.00010968,-0.0052298,0.73721
4416,10.055,0.54545,0.1,0.00033689,3366.6,0.00033698,3369.2,-0.00011073,5.2581,-0.00011143,-0.0059485,0.71437
4417,9.872,0.54545,0.1,0.00034203,3417.9,0.00034214,3421.2,-0.00011232,6.5885,-0.0001132,-0.0067994,0.69174
4418,9.6885,0.54545,0.1,0.00034718,3469.4,0.00034731,3473.3,-0.0001139,7.9694,-0.00011496,-0.0077933,0.66935
4419,9.505,0.54545,0.1,0.00035234,3521,0.0003525,3525.7,-0.00011549,9.3942,-0.00011674,-0.008915,0.64719
4420,9.3215,0.54545,0.1,0.00035752,3572.7,0.0003577,3578.1,-0.00011707,10.854,-0.00011852,-0.01019,0.62527
4421,9.1381,0.54545,0.1,0.00036271,3624.6,0.00036292,3630.7,-0.00011866,12.335,-0.00012031,-0.011634,0.60359
4422,8.9546,0.54545,0.1,0.00036791,3676.6,0.00036814,3683.4,-0.00012025,13.82,-0.0001221,-0.01328,0.58215
4423,8.7711,0.54545,0.1,0.00037311,3728.6,0.00037337,3736.2,-0.00012185,15.287,-0.00012388,-0.015164,0.56096
4424,8.5876,0.54545,0.1,0.00037832,3780.6,0.0003786,3788.9,-0.00012345,16.706,-0.00012567,-0.017337,0.54003
4425,8.4041,0.54545,0.1,0.00038352,3832.5,0.00038382,3841.5,-0.00012505,18.042,-0.00012746,-0.019869,0.51934
4426,8.2206,0.54545,0.1,0.0003887,3884.4,0.00038903,3893.9,-0.00012666,19.249,-0.00012923,-0.022855,0.49892
4427,8.0372,0.54545,0.1,0.00039387,3935.9,0.00039421,3946,-0.00012828,20.271,-0.00013098,-0.026433,0.47875
4428,7.8537,0.54545,0.1,0.00039899,3987.2,0.00039935,3997.6,-0.00012991,21.039,-0.00013271,-0.030809,0.45885
4429,7.6702,0.54545,0.1,0.00040406,4037.8,0.00040442,4048.5,-0.00013154,21.472,-0.00013441,-0.036303,0.43922
4430,7.4867,0.54545,0.1,0.00040905,4087.7,0.00040941,4098.4,-0.00013319,21.472,-0.00013605,-0.043441,0.41987
4431,7.3032,0.54545,0.1,0.00041394,4136.5,0.00041429,4146.9,-0.00013485,20.924,-0.00013764,-0.05315,0.40078
4432,7.1198,0.54545,0.1,0.00041867,4183.8,0.000419,4193.6,-0.00013651,19.693,-0.00013914,-0.067203,0.38198
4433,6.9363,0.54545,0.1,0.0004232,4229.1,0.00042349,4237.8,-0.00013818,17.628,-0.00014054,-0.089414,0.36346
4434,6.7528,0.54545,0.1,0.00042746,4271.7,0.0004277,4278.9,-0.00013984,14.562,-0.00014179,-0.12949,0.34522
4435,6.5693,0.54545,0.1,0.00043137,4310.7,0.00043154,4315.8,-0.00014148,10.331,-0.00014288,-0.22046,0.32727
4436,6.3858,0.54545,0.1,0.00043481,4345.1,0.00043489,4347.3,-0.00014305,4.9279,-0.00014378,-0.56727,0.30961
4437,6.2024,0.54545,0.1,0.00043765,4373.5,0.0004376,4372,-0.00014416,0.89289,-0.0001448,-3.9341,0.29225
4438,6.0189,0.54545,0.1,0.00043971,4394,0.00043949,4387.8,-0.00014444,0.35911,-0.00014618,-12.678,0.27517
4439,5.8354,0.54545,0.1,0.00044075,4404.4,0.00044034,4392.5,-0.00014424,0.2557,-0.00014746,-23.937,0.2584
4440,5.6519,0.54545,0.1,0.00044049,4401.9,0.00043985,4383.1,-0.00014348,0.22792,-0.00014851,-37.525,0.24192
4441,5.4684,0.54545,0.1,0.00043859,4382.9,0.00043766,4356,-0.00014206,0.23173,-0.00014921,-53.495,0.22574
4442,5.285,0.54545,0.1,0.0004346,4343,0.00043334,4306.8,-0.00013983,0.25805,-0.00014942,-71.815,0.20984
4443,5.1015,0.54545,0.1,0.000428,4277,0.00042636,4230.3,-0.00013662,0.30728,-0.00014894,-92.287,0.19425
4444,4.918,0.54545,0.1,0.00041815,4178.6,0.00041609,4120.3,-0.00013225,0.38538,-0.00014753,-114.48,0.17893
4445,4.7345,0.54545,0.1,0.00040432,4040.5,0.00040181,3970.1,-0.00012651,0.50347,-0.0001449,-137.7,0.16389
4446,4.551,0.54545,0.1,0.00038575,3854.9,0.00038277,3772.2,-0.00011918,0.68511,-0.0001407,-160.99,0.14912
4447,4.3676,0.54545,0.1,0.00036169,3614.4,0.00035823,3519.6,-0.00011008,0.96103,-0.00013462,-183.43,0.13461
4448,4.1841,0.54545,0.1,0.00033167,3314.4,0.00032772,3207.8,-9.9021e-05,1.4429,-0.00012648,-204.88,0.12032
4449,4.0006,0.54545,0.1,0.00029598,2957.7,0.00029146,2837.9,-8.5968e-05,2.1085,-0.00011663,-228.24,0.10624
4450,3.8171,0.54545,0.1,0.00025674,2565.6,0.00025126,2424.9,-7.0987e-05,3.6462,-0.00010663,-264.16,0.092333
4451,3.6336,0.54545,0.1,0.00022057,2204.2,0.00021263,2011.4,-5.4656e-05,3.119,-0.00010123,-346.85,0.078562
4452,3.4501,0.54545,0.1,0.00020949,2093.4,0.00019297,1736.6,-3.6707e-05,10.826,-0.00011696,-592.18,0.064881
4453,23.817,0.72727,0.1,1.194e-05,119.32,7.0611e-06,39.298,1.8279e-06,-0.022956,-1.0775e-05,-94.72,2.8288
4454,23.633,0.72727,0.1,1.3948e-05,139.39,1.0375e-05,75.41,3.0941e-07,-0.21939,-1.1033e-05,-85.445,2.7979
4455,23.45,0.72727,0.1,1.6548e-05,165.36,1.3789e-05,112.09,-1.1383e-06,-0.061918,-1.1486e-05,-77.813,2.7671
4456,23.266,0.72727,0.1,1.9531e-05,195.17,1.7301e-05,149.24,-2.5685e-06,-0.052819,-1.2093e-05,-71.619,2.7363
4457,23.083,0.72727,0.1,2.2769e-05,227.53,2.0896e-05,186.86,-3.9777e-06,-0.028344,-1.2824e-05,-66.497,2.7054
4458,22.899,0.72727,0.1,2.618e-05,261.62,2.4562e-05,224.92,-5.3754e-06,-0.018256,-1.365e-05,-62.194,2.6746
4459,22.716,0.72727,0.1,2.9714e-05,296.93,2.8283e-05,263.32,-6.7649e-06,-0.010276,-1.455e-05,-58.502,2.6438
4460,22.532,0.72727,0.1,3.3336e-05,333.13,3.2049e-05,302.03,-8.1491e-06,-0.0052434,-1.5505e-05,-55.274,2.6131
4461,22.349,0.72727,0.1,3.7024e-05,369.99,3.5853e-05,340.99,-9.5299e-06,-0.0016902,-1.6505e-05,-52.406,2.5823
4462,22.165,0.72727,0.1,4.0765e-05,407.37,3.9688e-05,380.16,-1.0909e-05,0.00075998,-1.754e-05,-49.824,2.5516
4463,21.982,0.72727,0.1,4.4548e-05,445.17,4.355e-05,419.53,-1.2286e-05,0.0024765,-1.8605e-05,-47.475,2.5209
4464,21.798,0.72727,0.1,4.8366e-05,483.33,4.7436e-05,459.08,-1.3663e-05,0.0036683,-1.9695e-05,-45.318,2.4902
4465,21.615,0.72727,0.1,5.2216e-05,521.8,5.1344e-05,498.79,-1.504e-05,0.0045013,-2.0807e-05,-43.327,2.4596
4466,21.431,0.72727,0.1,5.6094e-05,560.56,5.5273e-05,538.67,-1.6418e-05,0.0050734,-2.1939e-05,-41.477,2.429
4467,21.248,0.72727,0.1,5.9998e-05,599.56,5.9222e-05,578.7,-1.7797e-05,0.005443,-2.3088e-05,-39.753,2.3984
4468,21.064,0.72727,0.1,6.3925e-05,638.81,6.3191e-05,618.89,-1.9177e-05,0.0056766,-2.4254e-05,-38.141,2.3679
4469,20.881,0.72727,0.1,6.7875e-05,678.28,6.7178e-05,659.23,-2.0559e-05,0.0058089,-2.5435e-05,-36.629,2.3374
4470,20.697,0.72727,0.1,7.1847e-05,717.97,7.1183e-05,699.72,-2.1944e-05,0.0058659,-2.663e-05,-35.209,2.3069
4471,20.514,0.72727,0.1,7.584e-05,757.88,7.5207e-05,740.38,-2.333e-05,0.0058762,-2.7839e-05,-33.873,2.2765
4472,20.33,0.72727,0.1,7.9855e-05,798,7.925e-05,781.19,-2.4719e-05,0.0058457,-2.9061e-05,-32.615,2.2462
4473,20.147,0.72727,0.1,8.389e-05,838.32,8.3311e-05,822.17,-2.6112e-05,0.0057812,-3.0295e-05,-31.428,2.2159
4474,19.963,0.72727,0.1,8.7945e-05,878.85,8.7391e-05,863.3,-2.7507e-05,0.0056897,-3.1542e-05,-30.309,2.1856
4475,19.78,0.72727,0.1,9.2021e-05,919.58,9.1489e-05,904.61,-2.8906e-05,0.0055974,-3.28e-05,-29.251,2.1554
4476,19.596,0.72727,0.1,9.6118e-05,960.52,9.5606e-05,946.08,-3.0309e-05,0.0055012,-3.4069e-05,-28.25,2.1253
4477,19.413,0.72727,0.1,0.00010023,1001.7,9.9742e-05,987.73,-3.1715e-05,0.0053788,-3.535e-05,-27.304,2.0953
4478,19.229,0.72727,0.1,0.00010437,1043,0.0001039,1029.5,-3.3126e-05,0.0052689,-3.6641e-05,-26.408,2.0653
4479,19.046,0.72727,0.1,0.00010853,1084.5,0.00010807,1071.5,-3.4541e-05,0.0051572,-3.7943e-05,-25.559,2.0353
4480,18.863,0.72727,0.1,0.00011271,1126.3,0.00011227,1113.7,-3.596e-05,0.005041,-3.9255e-05,-24.754,2.0055
4481,18.679,0.72727,0.1,0.0001169,1168.2,0.00011648,1156.1,-3.7384e-05,0.0049427,-4.0577e-05,-23.988,1.9757
4482,18.496,0.72727,0.1,0.00012112,1210.4,0.00012071,1198.6,-3.8812e-05,0.0048364,-4.1909e-05,-23.261,1.946
4483,18.312,0.72727,0.1,0.00012536,1252.7,0.00012496,1241.3,-4.0246e-05,0.0047291,-4.325e-05,-22.569,1.9164
4484,18.129,0.72727,0.1,0.00012962,1295.3,0.00012923,1284.2,-4.1685e-05,0.0046158,-4.4601e-05,-21.908,1.8868
4485,17.945,0.72727,0.1,0.0001339,1338.1,0.00013352,1327.3,-4.3128e-05,0.0045244,-4.5961e-05,-21.278,1.8574
4486,17.762,0.72727,0.1,0.0001382,1381,0.00013784,1370.6,-4.4577e-05,0.0044371,-4.733e-05,-20.674,1.828
4487,17.578,0.72727,0.1,0.00014252,1424.2,0.00014217,1414.1,-4.6032e-05,0.0043307,-4.8707e-05,-20.096,1.7987
4488,17.395,0.72727,0.1,0.00014686,1467.6,0.00014652,1457.7,-4.7492e-05,0.0042431,-5.0093e-05,-19.539,1.7695
4489,17.211,0.72727,0.1,0.00015122,1511.1,0.00015089,1501.6,-4.8958e-05,0.0041547,-5.1487e-05,-19.004,1.7405
4490,17.028,0.72727,0.1,0.0001556,1554.9,0.00015528,1545.6,-5.0429e-05,0.0040661,-5.289e-05,-18.486,1.7115
4491,16.844,0.72727,0.1,0.00016,1598.9,0.00015969,1589.8,-5.1906e-05,0.0039973,-5.43e-05,-17.984,1.6826
4492,16.661,0.72727,0.1,0.00016442,1643.1,0.00016412,1634.3,-5.339e-05,0.0039172,-5.5719e-05,-17.497,1.6538
4493,16.477,0.72727,0.1,0.00016886,1687.5,0.00016857,1678.9,-5.4879e-05,0.0038339,-5.7145e-05,-17.021,1.6252
4494,16.294,0.72727,0.1,0.00017332,1732,0.00017304,1723.7,-5.6374e-05,0.0037373,-5.8578e-05,-16.555,1.5966
4495,16.11,0.72727,0.1,0.0001778,1776.8,0.00017752,1768.7,-5.7876e-05,0.0036678,-6.0019e-05,-16.097,1.5682
4496,15.927,0.72727,0.1,0.0001823,1821.8,0.00018203,1813.9,-5.9384e-05,0.0035996,-6.1466e-05,-15.645,1.5399
4497,15.743,0.72727,0.1,0.00018683,1867,0.00018656,1859.3,-6.0898e-05,0.0035005,-6.2921e-05,-15.197,1.5117
4498,15.56,0.72727,0.1,0.00019137,1912.3,0.00019111,1904.9,-6.2418e-05,0.0034264,-6.4382e-05,-14.751,1.4836
4499,15.376,0.72727,0.1,0.00019593,1957.9,0.00019568,1950.7,-6.3946e-05,0.0033451,-6.585e-05,-14.306,1.4557
4500,15.193,0.72727,0.1,0.00020051,2003.7,0.00020027,1996.7,-6.548e-05,0.0032575,-6.7324e-05,-13.858,1.4279
4501,15.009,0.72727,0.1,0.00020511,2049.7,0.00020488,2042.9,-6.702e-05,0.003191,-6.8805e-05,-13.406,1.4002
4502,14.826,0.72727,0.1,0.00020973,2095.8,0.0002095,2089.3,-6.8567e-05,0.003111,-7.0291e-05,-12.948,1.3726
4503,14.642,0.72727,0.1,0.00021437,2142.2,0.00021415,2135.9,-7.0122e-05,0.003018,-7.1783e-05,-12.482,1.3452
4504,14.459,0.72727,0.1,0.00021903,2188.7,0.00021882,2182.7,-7.1683e-05,0.0029076,-7.3281e-05,-12.005,1.318
4505,14.276,0.72727,0.1,0.0002237,2235.5,0.00022351,2229.7,-7.3251e-05,0.0028263,-7.4784e-05,-11.516,1.2909
4506,14.092,0.72727,0.1,0.0002284,2282.4,0.00022821,2276.9,-7.4826e-05,0.0027438,-7.6292e-05,-11.011,1.2639
4507,13.909,0.72727,0.1,0.00023312,2329.6,0.00023294,2324.3,-7.6409e-05,0.0026201,-7.7805e-05,-10.489,1.2371
4508,13.725,0.72727,0.1,0.00023785,2376.9,0.00023768,2371.9,-7.7998e-05,0.0025266,-7.9323e-05,-9.9467,1.2105
4509,13.542,0.72727,0.1,0.00024261,2424.4,0.00024245,2419.7,-7.9596e-05,0.0024256,-8.0845e-05,-9.3816,1.184
4510,13.358,0.72727,0.1,0.00024738,2472.1,0.00024723,2467.7,-8.12e-05,0.0023162,-8.2371e-05,-8.791,1.1576
4511,13.175,0.72727,0.1,0.00025218,2520,0.00025204,2515.9,-8.2813e-05,0.0022439,-8.3901e-05,-8.1717,1.1315
4512,12.991,0.72727,0.1,0.00025699,2568.1,0.00025686,2564.3,-8.4433e-05,0.0021368,-8.5434e-05,-7.5211,1.1055
4513,12.808,0.72727,0.1,0.00026182,2616.4,0.0002617,2613,-8.6061e-05,0.0020429,-8.6971e-05,-6.8357,1.0797
4514,12.624,0.72727,0.1,0.00026667,2664.8,0.00026656,2661.8,-8.7697e-05,0.0020108,-8.8511e-05,-6.1123,1.054
4515,12.441,0.72727,0.1,0.00027154,2713.5,0.00027144,2710.8,-8.9342e-05,0.0020025,-9.0054e-05,-5.3475,1.0286
4516,12.257,0.72727,0.1,0.00027642,2762.3,0.00027634,2760,-9.0994e-05,0.0020614,-9.1598e-05,-4.5378,1.0033
4517,12.074,0.72727,0.1,0.00028133,2811.3,0.00028126,2809.5,-9.2655e-05,0.0022583,-9.3145e-05,-3.6796,0.97818
4518,11.89,0.72727,0.1,0.00028625,2860.5,0.0002862,2859.1,-9.4324e-05,0.0028397,-9.4693e-05,-2.7692,0.95327
4519,11.707,0.72727,0.1,0.00029119,2909.9,0.00029116,2909,-9.6002e-05,0.004421,-9.6243e-05,-1.8036,0.92855
4520,11.523,0.72727,0.1,0.00029615,2959.4,0.00029613,2959,-9.7689e-05,0.011242,-9.7794e-05,-0.78317,0.90403
4521,11.34,0.72727,0.1,0.00030112,3009.1,0.00030113,3009.3,-9.934e-05,0.34957,-9.939e-05,-0.030126,0.8797
4522,11.156,0.72727,0.1,0.00030612,3059,0.00030614,3059.8,-0.00010089,1.4873,-0.00010109,-0.0089761,0.85558
4523,10.973,0.72727,0.1,0.00031113,3109.1,0.00031117,3110.5,-0.00010244,2.7148,-0.00010281,-0.0064615,0.83166
4524,10.789,0.72727,0.1,0.00031615,3159.4,0.00031622,3161.4,-0.00010399,4.0187,-0.00010453,-0.0057778,0.80796
4525,10.606,0.72727,0.1,0.0003212,3209.8,0.00032129,3212.5,-0.00010554,5.4002,-0.00010626,-0.0057228,0.78446
4526,10.422,0.72727,0.1,0.00032626,3260.4,0.00032638,3263.8,-0.00010709,6.8612,-0.00010801,-0.0059854,0.76119
4527,10.239,0.72727,0.1,0.00033134,3311.1,0.00033148,3315.3,-0.00010864,8.4027,-0.00010976,-0.0064594,0.73813
4528,10.055,0.72727,0.1,0.00033643,3362,0.0003366,3367,-0.00011018,10.025,-0.00011152,-0.0070545,0.71529
4529,9.872,0.72727,0.1,0.00034154,3413.1,0.00034174,3418.9,-0.00011173,11.726,-0.00011329,-0.0077856,0.69268
4530,9.6885,0.72727,0.1,0.00034666,3464.3,0.00034689,3471,-0.00011327,13.502,-0.00011507,-0.008667,0.6703
4531,9.505,0.72727,0.1,0.0003518,3515.6,0.00035206,3523.2,-0.00011481,15.348,-0.00011686,-0.0096879,0.64815
4532,9.3215,0.72727,0.1,0.00035695,3567.1,0.00035724,3575.7,-0.00011635,17.253,-0.00011865,-0.010874,0.62624
4533,9.1381,0.72727,0.1,0.00036212,3618.7,0.00036244,3628.2,-0.00011789,19.206,-0.00012045,-0.012243,0.60457
4534,8.9546,0.72727,0.1,0.00036729,3670.3,0.00036764,3680.9,-0.00011943,21.188,-0.00012225,-0.013831,0.58314
4535,8.7711,0.72727,0.1,0.00037247,3722.1,0.00037286,3733.6,-0.00012098,23.175,-0.00012406,-0.015676,0.56196
4536,8.5876,0.72727,0.1,0.00037765,3773.9,0.00037807,3786.4,-0.00012252,25.136,-0.00012587,-0.01784,0.54104
4537,8.4041,0.72727,0.1,0.00038283,3825.7,0.00038329,3839.1,-0.00012407,27.032,-0.00012767,-0.020397,0.52036
4538,8.2206,0.72727,0.1,0.00038801,3877.4,0.00038849,3891.7,-0.00012563,28.814,-0.00012947,-0.023455,0.49994
4539,8.0372,0.72727,0.1,0.00039317,3929,0.00039368,3944.1,-0.0001272,30.419,-0.00013125,-0.027163,0.47979
4540,7.8537,0.72727,0.1,0.00039831,3980.4,0.00039884,3996.1,-0.00012878,31.774,-0.00013302,-0.031742,0.4599
4541,7.6702,0.72727,0.1,0.00040341,4031.3,0.00040396,4047.6,-0.00013038,32.788,-0.00013475,-0.037521,0.44028
4542,7.4867,0.72727,0.1,0.00040845,4081.7,0.00040901,4098.2,-0.000132,33.351,-0.00013644,-0.045013,0.42093
4543,7.3032,0.72727,0.1,0.00041341,4131.3,0.00041397,4147.8,-0.00013363,33.335,-0.00013808,-0.055062,0.40185
4544,7.1198,0.72727,0.1,0.00041826,4179.7,0.0004188,4195.9,-0.0001353,32.592,-0.00013964,-0.069126,0.38306
4545,6.9363,0.72727,0.1,0.00042295,4226.6,0.00042347,4241.9,-0.00013698,30.949,-0.00014111,-0.089913,0.36454
4546,6.7528,0.72727,0.1,0.00042743,4271.4,0.00042791,4285.4,-0.00013869,28.214,-0.00014246,-0.12295,0.34631
4547,6.5693,0.72727,0.1,0.00043164,4313.4,0.00043204,4325.3,-0.00014041,24.179,-0.00014365,-0.1811,0.32837
4548,6.3858,0.72727,0.1,0.00043546,4351.6,0.00043577,4360.8,-0.00014213,18.639,-0.00014465,-0.3014,0.31072
4549,6.2024,0.72727,0.1,0.0004388,4384.9,0.00043898,4390.3,-0.00014381,11.489,-0.00014542,-0.63967,0.29336
4550,6.0189,0.72727,0.1,0.00044148,4411.8,0.00044151,4412.4,-0.00014524,3.8322,-0.00014609,-2.5654,0.2763
4551,5.8354,0.72727,0.1,0.00044333,4430.3,0.00044315,4424.9,-0.00014562,1.1394,-0.00014734,-11.818,0.25954
4552,5.6519,0.72727,0.1,0.00044409,4437.9,0.00044366,4425.2,-0.0001452,0.72713,-0.00014876,-25.967,0.24307
4553,5.4684,0.72727,0.1,0.00044346,4431.6,0.00044272,4410.1,-0.00014414,0.62539,-0.00014998,-43.263,0.2269
4554,5.285,0.72727,0.1,0.00044106,4407.5,0.00043995,4375.6,-0.00014233,0.62047,-0.00015089,-63.664,0.21103
4555,5.1015,0.72727,0.1,0.00043641,4361.1,0.00043487,4317.1,-0.00013962,0.67106,-0.00015132,-87.24,0.19546
4556,4.918,0.72727,0.1,0.00042897,4286.7,0.00042693,4228.9,-0.00013581,0.76969,-0.00015109,-114.05,0.18017
4557,4.7345,0.72727,0.1,0.0004181,4178.2,0.00041548,4104.7,-0.00013069,0.92015,-0.00015,-144.16,0.16517
4558,4.551,0.72727,0.1,0.00040314,4028.7,0.00039984,3937.3,-0.00012403,1.1367,-0.00014786,-177.88,0.15045
4559,4.3676,0.72727,0.1,0.00038349,3832.3,0.00037938,3720.3,-0.00011557,1.4271,-0.00014454,-216.2,0.13598
4560,4.1841,0.72727,0.1,0.0003589,3586.5,0.00035375,3449.2,-0.00010507,1.8473,-0.00014017,-261.9,0.12176
4561,4.0006,0.72727,0.1,0.00033003,3298,0.00032339,3126.1,-9.2373e-05,2.2512,-0.00013554,-322.06,0.10776
4562,3.8171,0.72727,0.1,0.00029954,2993.4,0.00029041,2767.1,-7.7435e-05,3.2615,-0.00013275,-412.34,0.093945
4563,3.6336,0.72727,0.1,0.00027433,2741.4,0.00026019,2412.9,-6.0736e-05,1.5722,-0.00013666,-568.9,0.080276
4564,3.4501,0.72727,0.1,0.00027715,2769.6,0.00025011,2202.1,-4.1692e-05,9.633,-0.00016414,-910.4,0.066704
4565,23.817,0.90909,0.1,1.3371e-05,133.62,7.5741e-06,39.564,2.2983e-06,-0.075569,-1.2251e-05,-109.39,2.8289
4566,23.633,0.90909,0.1,1.5293e-05,152.82,1.0934e-05,76.29,7.4695e-07,-0.25433,-1.2486e-05,-99.68,2.7981
4567,23.45,0.90909,0.1,1.7762e-05,177.5,1.4357e-05,113.34,-7.392e-07,-0.088571,-1.2868e-05,-91.22,2.7672
4568,23.266,0.90909,0.1,2.0603e-05,205.89,1.7847e-05,150.6,-2.2074e-06,-0.076546,-1.3376e-05,-83.991,2.7364
4569,23.083,0.90909,0.1,2.3704e-05,236.87,2.1403e-05,188.2,-3.6514e-06,-0.049535,-1.3996e-05,-77.773,2.7056
4570,22.899,0.90909,0.1,2.6991e-05,269.72,2.502e-05,226.12,-5.08e-06,-0.037383,-1.4711e-05,-72.402,2.6748
4571,22.716,0.90909,0.1,3.0415e-05,303.94,2.8692e-05,264.36,-6.4966e-06,-0.027608,-1.5505e-05,-67.716,2.644
4572,22.532,0.90909,0.1,3.3942e-05,339.18,3.241e-05,302.89,-7.9046e-06,-0.020991,-1.6364e-05,-63.582,2.6132
4573,22.349,0.90909,0.1,3.7548e-05,375.22,3.6168e-05,341.66,-9.3063e-06,-0.016042,-1.7276e-05,-59.896,2.5825
4574,22.165,0.90909,0.1,4.1217e-05,411.88,3.9962e-05,380.66,-1.0703e-05,-0.012361,-1.8232e-05,-56.579,2.5518
4575,21.982,0.90909,0.1,4.4937e-05,449.06,4.3785e-05,419.87,-1.2097e-05,-0.0095544,-1.9226e-05,-53.569,2.5211
4576,21.798,0.90909,0.1,4.8701e-05,486.68,4.7637e-05,459.27,-1.3489e-05,-0.007395,-2.0252e-05,-50.819,2.4904
4577,21.615,0.90909,0.1,5.2503e-05,524.67,5.1514e-05,498.85,-1.4879e-05,-0.0057009,-2.1306e-05,-48.293,2.4598
4578,21.431,0.90909,0.1,5.6338e-05,562.99,5.5415e-05,538.6,-1.6269e-05,-0.0043705,-2.2385e-05,-45.961,2.4292
4579,21.248,0.90909,0.1,6.0203e-05,601.62,5.9338e-05,578.52,-1.7658e-05,-0.0033196,-2.3487e-05,-43.8,2.3986
4580,21.064,0.90909,0.1,6.4096e-05,640.52,6.3283e-05,618.6,-1.9048e-05,-0.0024676,-2.461e-05,-41.792,2.3681
4581,20.881,0.90909,0.1,6.8016e-05,679.69,6.7249e-05,658.85,-2.0439e-05,-0.0017813,-2.5752e-05,-39.922,2.3376
4582,20.697,0.90909,0.1,7.1961e-05,719.11,7.1235e-05,699.26,-2.1831e-05,-0.0012274,-2.6912e-05,-38.175,2.3071
4583,20.514,0.90909,0.1,7.593e-05,758.77,7.5242e-05,739.84,-2.3225e-05,-0.00076286,-2.8088e-05,-36.543,2.2768
4584,20.33,0.90909,0.1,7.9922e-05,798.67,7.9269e-05,780.58,-2.4621e-05,-0.00038576,-2.9281e-05,-35.014,2.2464
4585,20.147,0.90909,0.1,8.3937e-05,838.79,8.3315e-05,821.5,-2.6019e-05,-7.4822e-05,-3.0489e-05,-33.581,2.2161
4586,19.963,0.90909,0.1,8.7975e-05,879.14,8.7382e-05,862.58,-2.742e-05,0.00017802,-3.1711e-05,-32.236,2.1859
4587,19.78,0.90909,0.1,9.2035e-05,919.71,9.1469e-05,903.84,-2.8824e-05,0.00039541,-3.2947e-05,-30.973,2.1557
4588,19.596,0.90909,0.1,9.6117e-05,960.5,9.5575e-05,945.27,-3.0232e-05,0.00058589,-3.4196e-05,-29.785,2.1256
4589,19.413,0.90909,0.1,0.00010022,1001.5,9.9702e-05,986.87,-3.1642e-05,0.0007282,-3.5458e-05,-28.668,2.0955
4590,19.229,0.90909,0.1,0.00010435,1042.7,0.00010385,1028.7,-3.3057e-05,0.00085956,-3.6732e-05,-27.615,2.0655
4591,19.046,0.90909,0.1,0.00010849,1084.2,0.00010801,1070.6,-3.4476e-05,0.00097072,-3.8019e-05,-26.621,2.0356
4592,18.863,0.90909,0.1,0.00011266,1125.8,0.0001122,1112.8,-3.5898e-05,0.0010659,-3.9317e-05,-25.684,2.0058
4593,18.679,0.90909,0.1,0.00011685,1167.7,0.00011641,1155.1,-3.7325e-05,0.0011556,-4.0626e-05,-24.798,1.976
4594,18.496,0.90909,0.1,0.00012106,1209.8,0.00012063,1197.6,-3.8757e-05,0.0012276,-4.1946e-05,-23.959,1.9463
4595,18.312,0.90909,0.1,0.00012529,1252,0.00012488,1240.3,-4.0193e-05,0.0012873,-4.3276e-05,-23.164,1.9167
4596,18.129,0.90909,0.1,0.00012954,1294.5,0.00012915,1283.2,-4.1635e-05,0.0013248,-4.4617e-05,-22.41,1.8872
4597,17.945,0.90909,0.1,0.00013382,1337.2,0.00013343,1326.3,-4.3081e-05,0.0013792,-4.5968e-05,-21.692,1.8577
4598,17.762,0.90909,0.1,0.00013811,1380.2,0.00013774,1369.5,-4.4532e-05,0.0014253,-4.7328e-05,-21.007,1.8284
4599,17.578,0.90909,0.1,0.00014243,1423.3,0.00014207,1413,-4.5989e-05,0.0014453,-4.8698e-05,-20.353,1.7991
4600,17.395,0.90909,0.1,0.00014676,1466.6,0.00014642,1456.6,-4.7451e-05,0.001476,-5.0077e-05,-19.727,1.7699
4601,17.211,0.90909,0.1,0.00015112,1510.1,0.00015078,1500.5,-4.8918e-05,0.0015002,-5.1464e-05,-19.125,1.7409
4602,17.028,0.90909,0.1,0.00015549,1553.9,0.00015517,1544.5,-5.0392e-05,0.0015192,-5.286e-05,-18.546,1.7119
4603,16.844,0.90909,0.1,0.00015989,1597.8,0.00015958,1588.7,-5.1871e-05,0.0015517,-5.4265e-05,-17.985,1.683
4604,16.661,0.90909,0.1,0.00016431,1642,0.00016401,1633.2,-5.3356e-05,0.0015711,-5.5677e-05,-17.442,1.6543
4605,16.477,0.90909,0.1,0.00016875,1686.3,0.00016845,1677.8,-5.4847e-05,0.0015789,-5.7098e-05,-16.912,1.6256
4606,16.294,0.90909,0.1,0.0001732,1730.9,0.00017292,1722.6,-5.6343e-05,0.0015735,-5.8526e-05,-16.394,1.5971
4607,16.11,0.90909,0.1,0.00017768,1775.6,0.00017741,1767.6,-5.7847e-05,0.0015919,-5.9961e-05,-15.886,1.5687
4608,15.927,0.90909,0.1,0.00018218,1820.6,0.00018191,1812.8,-5.9356e-05,0.001608,-6.1404e-05,-15.384,1.5404
4609,15.743,0.90909,0.1,0.0001867,1865.7,0.00018644,1858.2,-6.0872e-05,0.0015941,-6.2853e-05,-14.887,1.5122
4610,15.56,0.90909,0.1,0.00019124,1911.1,0.00019099,1903.8,-6.2394e-05,0.0016033,-6.4309e-05,-14.391,1.4841
4611,15.376,0.90909,0.1,0.00019579,1956.6,0.00019555,1949.6,-6.3923e-05,0.0016059,-6.5772e-05,-13.895,1.4562
4612,15.193,0.90909,0.1,0.00020037,2002.3,0.00020014,1995.6,-6.5458e-05,0.0016034,-6.7241e-05,-13.396,1.4284
4613,15.009,0.90909,0.1,0.00020497,2048.3,0.00020475,2041.8,-6.7e-05,0.0016248,-6.8716e-05,-12.892,1.4007
4614,14.826,0.90909,0.1,0.00020959,2094.4,0.00020937,2088.2,-6.8549e-05,0.0016331,-7.0197e-05,-12.38,1.3732
4615,14.642,0.90909,0.1,0.00021422,2140.7,0.00021402,2134.8,-7.0105e-05,0.0016333,-7.1683e-05,-11.858,1.3458
4616,14.459,0.90909,0.1,0.00021888,2187.3,0.00021868,2181.6,-7.1667e-05,0.0016196,-7.3174e-05,-11.322,1.3186
4617,14.276,0.90909,0.1,0.00022355,2234,0.00022337,2228.6,-7.3237e-05,0.0016402,-7.4671e-05,-10.77,1.2915
4618,14.092,0.90909,0.1,0.00022824,2280.9,0.00022807,2275.7,-7.4814e-05,0.0016676,-7.6172e-05,-10.2,1.2645
4619,13.909,0.90909,0.1,0.00023296,2327.9,0.00023279,2323.1,-7.6399e-05,0.001667,-7.7678e-05,-9.6075,1.2377
4620,13.725,0.90909,0.1,0.00023769,2375.2,0.00023753,2370.7,-7.7991e-05,0.0017077,-7.9187e-05,-8.9903,1.2111
4621,13.542,0.90909,0.1,0.00024244,2422.7,0.00024229,2418.5,-7.959e-05,0.0017573,-8.0701e-05,-8.3451,1.1846
4622,13.358,0.90909,0.1,0.0002472,2470.3,0.00024707,2466.5,-8.1197e-05,0.0018245,-8.2218e-05,-7.6685,1.1583
4623,13.175,0.90909,0.1,0.00025199,2518.2,0.00025187,2514.7,-8.2812e-05,0.0019612,-8.3738e-05,-6.9568,1.1321
4624,12.991,0.90909,0.1,0.00025679,2566.2,0.00025669,2563.1,-8.4434e-05,0.0021121,-8.5261e-05,-6.2064,1.1062
4625,12.808,0.90909,0.1,0.00026162,2614.4,0.00026152,2611.7,-8.6065e-05,0.0023537,-8.6786e-05,-5.4136,1.0804
4626,12.624,0.90909,0.1,0.00026646,2662.7,0.00026638,2660.5,-8.7704e-05,0.0027875,-8.8313e-05,-4.5741,1.0547
4627,12.441,0.90909,0.1,0.00027132,2711.3,0.00027125,2709.4,-8.9351e-05,0.0034955,-8.9842e-05,-3.6841,1.0293
4628,12.257,0.90909,0.1,0.00027619,2760,0.00027615,2758.6,-9.1007e-05,0.0048292,-9.1372e-05,-2.7393,1.004
4629,12.074,0.90909,0.1,0.00028108,2808.9,0.00028106,2808,-9.2671e-05,0.0080134,-9.2903e-05,-1.7365,0.9789
4630,11.89,0.90909,0.1,0.00028599,2858,0.00028598,2857.6,-9.4343e-05,0.022223,-9.4436e-05,-0.67989,0.95401
4631,11.707,0.90909,0.1,0.00029092,2907.2,0.00029093,2907.5,-9.596e-05,0.51532,-9.6033e-05,-0.032666,0.9293
4632,11.523,0.90909,0.1,0.00029587,2956.6,0.00029589,2957.5,-9.7492e-05,1.7087,-9.7721e-05,-0.011257,0.90479
4633,11.34,0.90909,0.1,0.00030083,3006.2,0.00030088,3007.7,-9.9022e-05,2.9994,-9.9422e-05,-0.0074552,0.88048
4634,11.156,0.90909,0.1,0.0003058,3055.9,0.00030588,3058.1,-0.00010055,4.377,-0.00010113,-0.0060822,0.85637
4635,10.973,0.90909,0.1,0.0003108,3105.8,0.00031089,3108.7,-0.00010207,5.8446,-0.00010285,-0.0055031,0.83246
4636,10.789,0.90909,0.1,0.0003158,3155.9,0.00031593,3159.6,-0.0001036,7.4069,-0.00010458,-0.0052574,0.80877
4637,10.606,0.90909,0.1,0.00032083,3206.1,0.00032098,3210.6,-0.00010512,9.0674,-0.00010632,-0.00526,0.78528
4638,10.422,0.90909,0.1,0.00032587,3256.4,0.00032605,3261.8,-0.00010663,10.83,-0.00010807,-0.0054392,0.76201
4639,10.239,0.90909,0.1,0.00033092,3306.9,0.00033114,3313.3,-0.00010814,12.698,-0.00010983,-0.0057648,0.73897
4640,10.055,0.90909,0.1,0.00033599,3357.6,0.00033624,3364.9,-0.00010965,14.672,-0.0001116,-0.0061779,0.71614
4641,9.872,0.90909,0.1,0.00034107,3408.4,0.00034135,3416.7,-0.00011115,16.753,-0.00011338,-0.0067063,0.69354
4642,9.6885,0.90909,0.1,0.00034617,3459.3,0.00034649,3468.7,-0.00011265,18.939,-0.00011517,-0.007373,0.67117
4643,9.505,0.90909,0.1,0.00035128,3510.4,0.00035164,3520.9,-0.00011415,21.227,-0.00011697,-0.0081733,0.64903
4644,9.3215,0.90909,0.1,0.0003564,3561.6,0.0003568,3573.3,-0.00011564,23.608,-0.00011878,-0.0091373,0.62713
4645,9.1381,0.90909,0.1,0.00036153,3612.9,0.00036197,3625.8,-0.00011713,26.072,-0.0001206,-0.01029,0.60547
4646,8.9546,0.90909,0.1,0.00036668,3664.3,0.00036716,3678.5,-0.00011861,28.602,-0.00012242,-0.011671,0.58405
4647,8.7711,0.90909,0.1,0.00037183,3715.7,0.00037235,3731.2,-0.0001201,31.177,-0.00012425,-0.013331,0.56288
4648,8.5876,0.90909,0.1,0.00037699,3767.3,0.00037755,3784.1,-0.00012158,33.767,-0.00012608,-0.015338,0.54196
4649,8.4041,0.90909,0.1,0.00038215,3818.9,0.00038276,3836.9,-0.00012307,36.336,-0.00012791,-0.01778,0.5213
4650,8.2206,0.90909,0.1,0.00038732,3870.5,0.00038796,3889.7,-0.00012456,38.834,-0.00012973,-0.02078,0.50089
4651,8.0372,0.90909,0.1,0.00039247,3922,0.00039316,3942.4,-0.00012607,41.201,-0.00013155,-0.024507,0.48074
4652,7.8537,0.90909,0.1,0.00039762,3973.4,0.00039833,3994.9,-0.00012758,43.363,-0.00013336,-0.029196,0.46086
4653,7.6702,0.90909,0.1,0.00040274,4024.6,0.00040349,4047,-0.00012912,45.23,-0.00013514,-0.035189,0.44125
4654,7.4867,0.90909,0.1,0.00040782,4075.4,0.0004086,4098.5,-0.00013067,46.692,-0.00013689,-0.042991,0.4219
4655,7.3032,0.90909,0.1,0.00041285,4125.7,0.00041364,4149.3,-0.00013225,47.62,-0.0001386,-0.053381,0.40284
4656,7.1198,0.90909,0.1,0.00041781,4175.2,0.0004186,4198.9,-0.00013387,47.861,-0.00014025,-0.067597,0.38405
4657,6.9363,0.90909,0.1,0.00042266,4223.6,0.00042344,4247,-0.00013552,47.24,-0.00014182,-0.087705,0.36554
4658,6.7528,0.90909,0.1,0.00042735,4270.6,0.00042811,4293.1,-0.00013721,45.555,-0.00014329,-0.11735,0.34732
4659,6.5693,0.90909,0.1,0.00043184,4315.5,0.00043255,4336.5,-0.00013894,42.583,-0.00014463,-0.16347,0.32938
4660,6.3858,0.90909,0.1,0.00043606,4357.6,0.00043669,4376.4,-0.0001407,38.079,-0.0001458,-0.24055,0.31174
4661,6.2024,0.90909,0.1,0.00043991,4396,0.00044043,4411.6,-0.00014249,31.797,-0.00014677,-0.3837,0.29439
4662,6.0189,0.90909,0.1,0.00044326,4429.6,0.00044364,4440.9,-0.00014427,23.533,-0.0001475,-0.69975,0.27734
4663,5.8354,0.90909,0.1,0.00044597,4456.6,0.00044617,4462.5,-0.00014596,13.444,-0.00014798,-1.6768,0.26058
4664,5.6519,0.90909,0.1,0.00044784,4475.3,0.00044781,4474.3,-0.00014707,4.6231,-0.00014858,-6.7719,0.24413
4665,5.4684,0.90909,0.1,0.00044863,4483.2,0.0004483,4473.5,-0.00014681,2.0626,-0.00014993,-21.379,0.22797
4666,5.285,0.90909,0.1,0.00044803,4477.2,0.00044733,4456.9,-0.00014565,1.5089,-0.0001514,-41.719,0.21212
4667,5.1015,0.90909,0.1,0.00044568,4453.7,0.00044452,4420.6,-0.00014364,1.3623,-0.00015271,-66.801,0.19657
4668,4.918,0.90909,0.1,0.00044115,4408.4,0.00043943,4359.7,-0.00014062,1.3695,-0.00015374,-97.238,0.18132
4669,4.7345,0.90909,0.1,0.00043397,4336.7,0.00043155,4268.6,-0.00013638,1.4678,-0.00015445,-134.33,0.16635
4670,4.551,0.90909,0.1,0.00042366,4233.6,0.00042032,4141.4,-0.00013064,1.6431,-0.00015486,-180.31,0.15168
4671,4.3676,0.90909,0.1,0.00040985,4095.7,0.00040528,3971.8,-0.00012307,1.8781,-0.00015515,-239.09,0.13728
4672,4.1841,0.90909,0.1,0.00039254,3922.7,0.0003862,3755.3,-0.00011331,2.2187,-0.00015585,-317.46,0.12313
4673,4.0006,0.90909,0.1,0.0003726,3723.4,0.00036351,3492.5,-0.00010098,2.4459,-0.00015815,-427.12,0.10922
4674,3.8171,0.90909,0.1,0.00035259,3523.4,0.00033893,3194.5,-8.5792e-05,3.2346,-0.00016431,-586.69,0.095521
4675,3.6336,0.90909,0.1,0.00033859,3383.6,0.00031675,2891.9,-6.7999e-05,1.0175,-0.00017855,-829.64,0.08198
4676,3.4501,0.90909,0.1,0.00035461,3543.7,0.00031492,2727.7,-4.6834e-05,9.6092,-0.00021851,-1280.3,0.068549
4677,23.817,1.0909,0.1,1.4612e-05,146.02,8.0081e-06,39.7,2.71e-06,-0.10857,-1.3525e-05,-122.09,2.829
4678,23.633,1.0909,0.1,1.6475e-05,164.64,1.1409e-05,76.913,1.1357e-06,-0.27466,-1.3752e-05,-112.14,2.7982
4679,23.45,1.0909,0.1,1.8855e-05,188.42,1.4849e-05,114.31,-3.7871e-07,-0.10389,-1.4095e-05,-103.16,2.7674
4680,23.266,1.0909,0.1,2.1594e-05,215.79,1.8336e-05,151.78,-1.8765e-06,-0.090396,-1.4539e-05,-95.23,2.7365
4681,23.083,1.0909,0.1,2.459e-05,245.73,2.1872e-05,189.44,-3.3491e-06,-0.062073,-1.5081e-05,-88.208,2.7057
4682,22.899,1.0909,0.1,2.7778e-05,277.58,2.5458e-05,227.33,-4.8041e-06,-0.048967,-1.5711e-05,-82.002,2.6749
4683,22.716,1.0909,0.1,3.1109e-05,310.88,2.9094e-05,265.48,-6.2447e-06,-0.038332,-1.642e-05,-76.493,2.6441
4684,22.532,1.0909,0.1,3.4552e-05,345.28,3.2773e-05,303.87,-7.6742e-06,-0.030933,-1.7196e-05,-71.576,2.6134
4685,22.349,1.0909,0.1,3.8083e-05,380.57,3.6493e-05,342.51,-9.0952e-06,-0.025263,-1.803e-05,-67.161,2.5826
4686,22.165,1.0909,0.1,4.1685e-05,416.56,4.0249e-05,381.36,-1.051e-05,-0.020924,-1.8914e-05,-63.172,2.5519
4687,21.982,1.0909,0.1,4.5346e-05,453.14,4.4038e-05,420.42,-1.1919e-05,-0.017517,-1.9842e-05,-59.547,2.5212
4688,21.798,1.0909,0.1,4.9056e-05,490.22,4.7857e-05,459.68,-1.3324e-05,-0.014809,-2.0807e-05,-56.235,2.4906
4689,21.615,1.0909,0.1,5.281e-05,527.74,5.1704e-05,499.12,-1.4727e-05,-0.012621,-2.1805e-05,-53.197,2.4599
4690,21.431,1.0909,0.1,5.6603e-05,565.64,5.5576e-05,538.74,-1.6128e-05,-0.010837,-2.2834e-05,-50.399,2.4293
4691,21.248,1.0909,0.1,6.043e-05,603.88,5.9474e-05,578.55,-1.7527e-05,-0.0093738,-2.389e-05,-47.815,2.3988
4692,21.064,1.0909,0.1,6.4289e-05,642.44,6.3395e-05,618.52,-1.8926e-05,-0.0081508,-2.497e-05,-45.421,2.3683
4693,20.881,1.0909,0.1,6.8177e-05,681.3,6.734e-05,658.67,-2.0325e-05,-0.0071265,-2.6074e-05,-43.199,2.3378
4694,20.697,1.0909,0.1,7.2094e-05,720.45,7.1306e-05,699,-2.1725e-05,-0.0062598,-2.7199e-05,-41.132,2.3074
4695,20.514,1.0909,0.1,7.6038e-05,759.86,7.5295e-05,739.49,-2.3126e-05,-0.0055125,-2.8343e-05,-39.207,2.277
4696,20.33,1.0909,0.1,8.0008e-05,799.53,7.9306e-05,780.16,-2.4528e-05,-0.0048752,-2.9507e-05,-37.412,2.2466
4697,20.147,1.0909,0.1,8.4003e-05,839.45,8.3338e-05,821.01,-2.5932e-05,-0.0043271,-3.0688e-05,-35.736,2.2163
4698,19.963,1.0909,0.1,8.8022e-05,879.62,8.7391e-05,862.03,-2.7339e-05,-0.0038563,-3.1886e-05,-34.169,2.1861
4699,19.78,1.0909,0.1,9.2066e-05,920.02,9.1466e-05,903.23,-2.8748e-05,-0.0034324,-3.31e-05,-32.703,2.1559
4700,19.596,1.0909,0.1,9.6133e-05,960.66,9.5561e-05,944.61,-3.0159e-05,-0.0030574,-3.4329e-05,-31.33,2.1258
4701,19.413,1.0909,0.1,0.00010022,1001.5,9.9678e-05,986.17,-3.1574e-05,-0.0027409,-3.5572e-05,-30.043,2.0958
4702,19.229,1.0909,0.1,0.00010434,1042.6,0.00010382,1027.9,-3.2993e-05,-0.0024469,-3.683e-05,-28.834,2.0658
4703,19.046,1.0909,0.1,0.00010847,1084,0.00010797,1069.8,-3.4415e-05,-0.0021865,-3.8101e-05,-27.699,2.0359
4704,18.863,1.0909,0.1,0.00011263,1125.5,0.00011215,1112,-3.5841e-05,-0.0019552,-3.9385e-05,-26.632,2.0061
4705,18.679,1.0909,0.1,0.00011681,1167.3,0.00011635,1154.3,-3.7271e-05,-0.0017347,-4.0681e-05,-25.626,1.9763
4706,18.496,1.0909,0.1,0.00012101,1209.3,0.00012057,1196.8,-3.8705e-05,-0.0015404,-4.199e-05,-24.677,1.9466
4707,18.312,1.0909,0.1,0.00012524,1251.5,0.00012481,1239.4,-4.0144e-05,-0.0013699,-4.3309e-05,-23.781,1.917
4708,18.129,1.0909,0.1,0.00012948,1293.9,0.00012908,1282.3,-4.1588e-05,-0.0012253,-4.464e-05,-22.934,1.8875
4709,17.945,1.0909,0.1,0.00013375,1336.6,0.00013336,1325.4,-4.3037e-05,-0.0010731,-4.5982e-05,-22.13,1.8581
4710,17.762,1.0909,0.1,0.00013804,1379.4,0.00013766,1368.6,-4.449e-05,-0.00093344,-4.7333e-05,-21.365,1.8287
4711,17.578,1.0909,0.1,0.00014235,1422.5,0.00014198,1412.1,-4.5949e-05,-0.00082718,-4.8695e-05,-20.637,1.7995
4712,17.395,1.0909,0.1,0.00014668,1465.8,0.00014633,1455.7,-4.7413e-05,-0.0007108,-5.0067e-05,-19.942,1.7703
4713,17.211,1.0909,0.1,0.00015103,1509.3,0.00015069,1499.5,-4.8882e-05,-0.00060858,-5.1447e-05,-19.276,1.7412
4714,17.028,1.0909,0.1,0.0001554,1553,0.00015508,1543.6,-5.0357e-05,-0.00051595,-5.2837e-05,-18.635,1.7123
4715,16.844,1.0909,0.1,0.0001598,1596.9,0.00015948,1587.8,-5.1838e-05,-0.00041152,-5.4236e-05,-18.017,1.6834
4716,16.661,1.0909,0.1,0.00016421,1641,0.00016391,1632.2,-5.3324e-05,-0.00032363,-5.5643e-05,-17.419,1.6547
4717,16.477,1.0909,0.1,0.00016864,1685.3,0.00016835,1676.8,-5.4817e-05,-0.00024858,-5.7058e-05,-16.836,1.626
4718,16.294,1.0909,0.1,0.0001731,1729.8,0.00017282,1721.6,-5.6315e-05,-0.00018875,-5.848e-05,-16.268,1.5975
4719,16.11,1.0909,0.1,0.00017757,1774.5,0.0001773,1766.6,-5.782e-05,-0.0001099,-5.9911e-05,-15.71,1.5691
4720,15.927,1.0909,0.1,0.00018207,1819.4,0.00018181,1811.8,-5.9331e-05,-3.0476e-05,-6.1348e-05,-15.159,1.5408
4721,15.743,1.0909,0.1,0.00018658,1864.6,0.00018633,1857.2,-6.0848e-05,1.5627e-05,-6.2793e-05,-14.614,1.5126
4722,15.56,1.0909,0.1,0.00019112,1909.9,0.00019088,1902.8,-6.2371e-05,8.4347e-05,-6.4244e-05,-14.07,1.4846
4723,15.376,1.0909,0.1,0.00019567,1955.4,0.00019544,1948.6,-6.3901e-05,0.00014848,-6.5702e-05,-13.526,1.4567
4724,15.193,1.0909,0.1,0.00020025,2001.1,0.00020002,1994.6,-6.5438e-05,0.00020714,-6.7166e-05,-12.978,1.4289
4725,15.009,1.0909,0.1,0.00020484,2047,0.00020463,2040.8,-6.6982e-05,0.00029132,-6.8635e-05,-12.423,1.4012
4726,14.826,1.0909,0.1,0.00020946,2093.1,0.00020925,2087.2,-6.8532e-05,0.00036456,-7.011e-05,-11.859,1.3737
4727,14.642,1.0909,0.1,0.00021409,2139.4,0.00021389,2133.7,-7.0089e-05,0.00043283,-7.1591e-05,-11.282,1.3463
4728,14.459,1.0909,0.1,0.00021874,2185.9,0.00021856,2180.5,-7.1654e-05,0.00049214,-7.3077e-05,-10.69,1.3191
4729,14.276,1.0909,0.1,0.00022341,2232.6,0.00022324,2227.5,-7.3225e-05,0.00059316,-7.4567e-05,-10.079,1.292
4730,14.092,1.0909,0.1,0.0002281,2279.4,0.00022794,2274.7,-7.4804e-05,0.00070924,-7.6061e-05,-9.4449,1.2651
4731,13.909,1.0909,0.1,0.00023281,2326.4,0.00023265,2322,-7.639e-05,0.00080784,-7.756e-05,-8.7856,1.2383
4732,13.725,1.0909,0.1,0.00023753,2373.7,0.00023739,2369.6,-7.7984e-05,0.00096371,-7.9062e-05,-8.0969,1.2117
4733,13.542,1.0909,0.1,0.00024228,2421.1,0.00024215,2417.4,-7.9585e-05,0.0011538,-8.0567e-05,-7.3751,1.1852
4734,13.358,1.0909,0.1,0.00024704,2468.7,0.00024692,2465.4,-8.1194e-05,0.0013974,-8.2075e-05,-6.6164,1.1589
4735,13.175,1.0909,0.1,0.00025182,2516.4,0.00025172,2513.5,-8.2811e-05,0.0017684,-8.3586e-05,-5.8163,1.1327
4736,12.991,1.0909,0.1,0.00025661,2564.4,0.00025653,2561.9,-8.4436e-05,0.0022528,-8.5098e-05,-4.9709,1.1068
4737,12.808,1.0909,0.1,0.00026143,2612.5,0.00026136,2610.5,-8.607e-05,0.0030167,-8.6612e-05,-4.0755,1.081
4738,12.624,1.0909,0.1,0.00026626,2660.8,0.00026621,2659.2,-8.7711e-05,0.0043931,-8.8128e-05,-3.1255,1.0554
4739,12.441,1.0909,0.1,0.00027111,2709.2,0.00027107,2708.2,-8.9361e-05,0.007235,-8.9644e-05,-2.117,1.0299
4740,12.257,1.0909,0.1,0.00027598,2757.9,0.00027596,2757.3,-9.1019e-05,0.016363,-9.1161e-05,-1.0494,1.0046
4741,12.074,1.0909,0.1,0.00028086,2806.7,0.00028086,2806.7,-9.2661e-05,0.20793,-9.2702e-05,-0.093311,0.97957
4742,11.89,1.0909,0.1,0.00028576,2855.6,0.00028578,2856.3,-9.4186e-05,1.3554,-9.4368e-05,-0.016299,0.95468
4743,11.707,1.0909,0.1,0.00029067,2904.7,0.00029072,2906,-9.5699e-05,2.6557,-9.6054e-05,-0.0095358,0.92999
4744,11.523,1.0909,0.1,0.0002956,2954,0.00029567,2956,-9.721e-05,4.0494,-9.775e-05,-0.007224,0.90549
4745,11.34,1.0909,0.1,0.00030055,3003.4,0.00030064,3006.2,-9.8717e-05,5.5396,-9.9455e-05,-0.0061009,0.88118
4746,11.156,1.0909,0.1,0.00030551,3053,0.00030563,3056.5,-0.00010022,7.1317,-0.00010117,-0.0055514,0.85708
4747,10.973,1.0909,0.1,0.00031048,3102.7,0.00031063,3107.1,-0.00010172,8.8321,-0.0001029,-0.0052828,0.83319
4748,10.789,1.0909,0.1,0.00031547,3152.5,0.00031565,3157.9,-0.00010322,10.647,-0.00010463,-0.0051486,0.80951
4749,10.606,1.0909,0.1,0.00032048,3202.5,0.00032069,3208.8,-0.0001047,12.583,-0.00010638,-0.0051671,0.78603
4750,10.422,1.0909,0.1,0.00032549,3252.7,0.00032574,3260,-0.00010619,14.644,-0.00010814,-0.0053099,0.76277
4751,10.239,1.0909,0.1,0.00033052,3303,0.00033081,3311.3,-0.00010766,16.837,-0.00010991,-0.0055678,0.73974
4752,10.055,1.0909,0.1,0.00033557,3353.4,0.00033589,3362.9,-0.00010913,19.166,-0.00011169,-0.0058912,0.71692
4753,9.872,1.0909,0.1,0.00034062,3403.9,0.00034099,3414.7,-0.0001106,21.632,-0.00011348,-0.0063137,0.69433
4754,9.6885,1.0909,0.1,0.00034569,3454.6,0.0003461,3466.6,-0.00011205,24.239,-0.00011528,-0.0068641,0.67197
4755,9.505,1.0909,0.1,0.00035077,3505.3,0.00035123,3518.7,-0.0001135,26.983,-0.00011709,-0.0075374,0.64984
4756,9.3215,1.0909,0.1,0.00035587,3556.2,0.00035637,3571,-0.00011494,29.863,-0.00011891,-0.0083677,0.62795
4757,9.1381,1.0909,0.1,0.00036097,3607.2,0.00036152,3623.5,-0.00011637,32.871,-0.00012075,-0.0093821,0.6063
4758,8.9546,1.0909,0.1,0.00036608,3658.3,0.00036668,3676.2,-0.0001178,35.994,-0.00012259,-0.010623,0.58489
4759,8.7711,1.0909,0.1,0.00037121,3709.5,0.00037186,3729,-0.00011922,39.217,-0.00012444,-0.012143,0.56372
4760,8.5876,1.0909,0.1,0.00037634,3760.8,0.00037704,3781.9,-0.00012063,42.514,-0.00012629,-0.014013,0.54281
4761,8.4041,1.0909,0.1,0.00038148,3812.1,0.00038224,3834.9,-0.00012205,45.854,-0.00012815,-0.016327,0.52215
4762,8.2206,1.0909,0.1,0.00038662,3863.5,0.00038743,3887.9,-0.00012347,49.195,-0.00013002,-0.01921,0.50175
4763,8.0372,1.0909,0.1,0.00039177,3915,0.00039263,3940.9,-0.00012489,52.483,-0.00013188,-0.022832,0.48161
4764,7.8537,1.0909,0.1,0.00039691,3966.4,0.00039783,3993.9,-0.00012632,55.653,-0.00013373,-0.027427,0.46174
4765,7.6702,1.0909,0.1,0.00040205,4017.7,0.00040301,4046.6,-0.00012776,58.621,-0.00013557,-0.033326,0.44213
4766,7.4867,1.0909,0.1,0.00040716,4068.8,0.00040817,4099.1,-0.00012923,61.286,-0.00013739,-0.041,0.42279
4767,7.3032,1.0909,0.1,0.00041226,4119.7,0.0004133,4151.1,-0.00013072,63.529,-0.00013918,-0.051141,0.40373
4768,7.1198,1.0909,0.1,0.00041731,4170.2,0.00041838,4202.4,-0.00013225,65.206,-0.00014094,-0.064789,0.38495
4769,6.9363,1.0909,0.1,0.0004223,4220.1,0.00042339,4252.7,-0.00013382,66.148,-0.00014263,-0.083555,0.36644
4770,6.7528,1.0909,0.1,0.0004272,4269.1,0.00042829,4301.7,-0.00013543,66.162,-0.00014425,-0.11003,0.34823
4771,6.5693,1.0909,0.1,0.00043198,4316.8,0.00043305,4348.9,-0.0001371,65.025,-0.00014577,-0.14852,0.3303
4772,6.3858,1.0909,0.1,0.00043658,4362.8,0.00043761,4393.6,-0.00013883,62.484,-0.00014717,-0.20668,0.31266
4773,6.2024,1.0909,0.1,0.00044095,4406.4,0.00044191,4435.1,-0.00014062,58.26,-0.00014841,-0.29892,0.29532
4774,6.0189,1.0909,0.1,0.00044499,4446.8,0.00044585,4472.4,-0.00014247,52.043,-0.00014946,-0.45525,0.27827
4775,5.8354,1.0909,0.1,0.00044861,4483,0.00044932,4504.2,-0.00014436,43.511,-0.00015025,-0.74757,0.26153
4776,5.6519,1.0909,0.1,0.00045166,4513.4,0.00045217,4528.8,-0.00014627,32.406,-0.00015076,-1.3907,0.24508
4777,5.4684,1.0909,0.1,0.00045397,4536.6,0.00045424,4544.4,-0.00014805,19.049,-0.00015103,-3.3079,0.22895
4778,5.285,1.0909,0.1,0.00045536,4550.4,0.00045529,4548.5,-0.00014905,7.6896,-0.00015161,-11.562,0.21311
4779,5.1015,1.0909,0.1,0.00045557,4552.6,0.00045507,4538,-0.00014839,3.8535,-0.00015327,-32.857,0.19758
4780,4.918,1.0909,0.1,0.00045436,4540.5,0.00045328,4509.4,-0.00014651,2.8341,-0.00015544,-64.301,0.18236
4781,4.7345,1.0909,0.1,0.00045147,4511.6,0.0004496,4458.5,-0.00014346,2.492,-0.00015799,-106.65,0.16744
4782,4.551,1.0909,0.1,0.0004467,4463.9,0.00044371,4380.7,-0.000139,2.4068,-0.00016117,-164.17,0.15282
4783,4.3676,1.0909,0.1,0.00044,4397,0.00043537,4270.9,-0.00013272,2.4576,-0.00016557,-244.38,0.13848
4784,4.1841,1.0909,0.1,0.00043171,4314.1,0.00042451,4124.5,-0.00012407,2.6752,-0.00017224,-359.21,0.12442
4785,4.0006,1.0909,0.1,0.00042286,4225.7,0.00041145,3938.8,-0.00011241,2.7447,-0.00018286,-526.63,0.11062
4786,3.8171,1.0909,0.1,0.00041562,4153.4,0.00039715,3715.9,-9.6904e-05,3.8088,-0.00019988,-769.9,0.097054
4787,3.6336,1.0909,0.1,0.00041477,4144.8,0.00038416,3469.2,-7.7491e-05,0.57264,-0.00022675,-1120.9,0.083671
4788,3.4501,1.0909,0.1,0.00044619,4458.8,0.00039137,3349.1,-5.2741e-05,12.191,-0.00028262,-1715,0.070419
4789,23.817,1.2727,0.1,1.5689e-05,156.78,8.3787e-06,39.756,3.0696e-06,-0.13441,-1.4629e-05,-133.12,2.8291
4790,23.633,1.2727,0.1,1.7511e-05,174.98,1.1813e-05,77.357,1.4788e-06,-0.28994,-1.4855e-05,-123.02,2.7983
4791,23.45,1.2727,0.1,1.9825e-05,198.12,1.5273e-05,115.07,-5.6849e-08,-0.11529,-1.5174e-05,-113.7,2.7675
4792,23.266,1.2727,0.1,2.2489e-05,224.73,1.8766e-05,152.75,-1.5778e-06,-0.10062,-1.5576e-05,-105.28,2.7366
4793,23.083,1.2727,0.1,2.5406e-05,253.88,2.2294e-05,190.53,-3.0735e-06,-0.071394,-1.6064e-05,-97.673,2.7058
4794,22.899,1.2727,0.1,2.8515e-05,284.95,2.5862e-05,228.45,-4.5507e-06,-0.057662,-1.6631e-05,-90.823,2.675
4795,22.716,1.2727,0.1,3.1771e-05,317.49,2.9472e-05,266.57,-6.012e-06,-0.046486,-1.7272e-05,-84.651,2.6443
4796,22.532,1.2727,0.1,3.5142e-05,351.18,3.3122e-05,304.89,-7.4606e-06,-0.038607,-1.798e-05,-79.08,2.6135
4797,22.349,1.2727,0.1,3.8608e-05,385.81,3.6811e-05,343.41,-8.8989e-06,-0.032488,-1.8748e-05,-74.036,2.5828
4798,22.165,1.2727,0.1,4.2149e-05,421.2,4.0536e-05,382.15,-1.0329e-05,-0.027722,-1.9569e-05,-69.451,2.5521
4799,21.982,1.2727,0.1,4.5755e-05,457.23,4.4294e-05,421.08,-1.1752e-05,-0.023921,-2.0436e-05,-65.27,2.5214
4800,21.798,1.2727,0.1,4.9416e-05,493.82,4.8083e-05,460.21,-1.3171e-05,-0.020846,-2.1345e-05,-61.443,2.4907
4801,21.615,1.2727,0.1,5.3125e-05,530.88,5.1901e-05,499.53,-1.4585e-05,-0.018317,-2.2292e-05,-57.93,2.4601
4802,21.431,1.2727,0.1,5.6876e-05,568.37,5.5748e-05,539.04,-1.5996e-05,-0.016212,-2.3273e-05,-54.695,2.4295
4803,21.248,1.2727,0.1,6.0666e-05,606.25,5.9621e-05,578.73,-1.7405e-05,-0.014457,-2.4285e-05,-51.71,2.3989
4804,21.064,1.2727,0.1,6.4492e-05,644.47,6.3519e-05,618.6,-1.8813e-05,-0.012962,-2.5326e-05,-48.948,2.3684
4805,20.881,1.2727,0.1,6.8351e-05,683.03,6.7443e-05,658.65,-2.022e-05,-0.011686,-2.6392e-05,-46.39,2.338
4806,20.697,1.2727,0.1,7.224e-05,721.9,7.139e-05,698.88,-2.1627e-05,-0.010588,-2.7483e-05,-44.016,2.3075
4807,20.514,1.2727,0.1,7.6159e-05,761.07,7.5362e-05,739.3,-2.3034e-05,-0.009627,-2.8597e-05,-41.811,2.2772
4808,20.33,1.2727,0.1,8.0107e-05,800.51,7.9356e-05,779.89,-2.4442e-05,-0.0087902,-2.9732e-05,-39.758,2.2468
4809,20.147,1.2727,0.1,8.4081e-05,840.23,8.3373e-05,820.67,-2.5852e-05,-0.0080553,-3.0888e-05,-37.847,2.2166
4810,19.963,1.2727,0.1,8.8082e-05,880.22,8.7413e-05,861.63,-2.7263e-05,-0.0074143,-3.2062e-05,-36.066,2.1863
4811,19.78,1.2727,0.1,9.2109e-05,920.46,9.1476e-05,902.77,-2.8677e-05,-0.0068311,-3.3254e-05,-34.403,2.1562
4812,19.596,1.2727,0.1,9.6161e-05,960.95,9.556e-05,944.1,-3.0093e-05,-0.0063076,-3.4464e-05,-32.85,2.1261
4813,19.413,1.2727,0.1,0.00010024,1001.7,9.9667e-05,985.61,-3.1511e-05,-0.0058551,-3.569e-05,-31.399,2.096
4814,19.229,1.2727,0.1,0.00010434,1042.7,0.00010379,1027.3,-3.2933e-05,-0.0054313,-3.6931e-05,-30.04,2.0661
4815,19.046,1.2727,0.1,0.00010846,1083.9,0.00010794,1069.2,-3.4359e-05,-0.0050523,-3.8187e-05,-28.767,2.0362
4816,18.863,1.2727,0.1,0.00011261,1125.3,0.00011212,1111.3,-3.5788e-05,-0.0047078,-3.9457e-05,-27.573,2.0063
4817,18.679,1.2727,0.1,0.00011678,1167,0.00011631,1153.6,-3.7221e-05,-0.0043812,-4.0741e-05,-26.451,1.9766
4818,18.496,1.2727,0.1,0.00012098,1208.9,0.00012052,1196,-3.8658e-05,-0.0040917,-4.2037e-05,-25.396,1.9469
4819,18.312,1.2727,0.1,0.00012519,1251.1,0.00012476,1238.7,-4.0099e-05,-0.0038265,-4.3347e-05,-24.402,1.9173
4820,18.129,1.2727,0.1,0.00012943,1293.4,0.00012902,1281.5,-4.1545e-05,-0.0035937,-4.4668e-05,-23.464,1.8878
4821,17.945,1.2727,0.1,0.00013369,1336,0.00013329,1324.6,-4.2996e-05,-0.0033593,-4.6e-05,-22.577,1.8584
4822,17.762,1.2727,0.1,0.00013798,1378.8,0.00013759,1367.8,-4.4451e-05,-0.003143,-4.7344e-05,-21.736,1.829
4823,17.578,1.2727,0.1,0.00014228,1421.8,0.00014191,1411.2,-4.5912e-05,-0.002962,-4.8698e-05,-20.936,1.7998
4824,17.395,1.2727,0.1,0.00014661,1465.1,0.00014625,1454.9,-4.7378e-05,-0.0027773,-5.0062e-05,-20.174,1.7706
4825,17.211,1.2727,0.1,0.00015095,1508.5,0.00015061,1498.7,-4.8849e-05,-0.0026062,-5.1436e-05,-19.445,1.7416
4826,17.028,1.2727,0.1,0.00015532,1552.2,0.000155,1542.7,-5.0325e-05,-0.0024489,-5.282e-05,-18.745,1.7126
4827,16.844,1.2727,0.1,0.00015971,1596,0.0001594,1586.9,-5.1808e-05,-0.0022859,-5.4213e-05,-18.072,1.6838
4828,16.661,1.2727,0.1,0.00016412,1640.1,0.00016382,1631.3,-5.3296e-05,-0.0021376,-5.5614e-05,-17.42,1.655
4829,16.477,1.2727,0.1,0.00016855,1684.4,0.00016826,1675.9,-5.479e-05,-0.0020077,-5.7024e-05,-16.787,1.6264
4830,16.294,1.2727,0.1,0.00017301,1728.9,0.00017273,1720.7,-5.6289e-05,-0.0018928,-5.8441e-05,-16.17,1.5979
4831,16.11,1.2727,0.1,0.00017748,1773.6,0.00017721,1765.7,-5.7795e-05,-0.0017594,-5.9867e-05,-15.564,1.5695
4832,15.927,1.2727,0.1,0.00018197,1818.4,0.00018171,1810.9,-5.9307e-05,-0.0016295,-6.1299e-05,-14.967,1.5412
4833,15.743,1.2727,0.1,0.00018648,1863.5,0.00018623,1856.3,-6.0826e-05,-0.0015312,-6.2739e-05,-14.376,1.513
4834,15.56,1.2727,0.1,0.00019101,1908.8,0.00019078,1901.9,-6.2351e-05,-0.0014097,-6.4186e-05,-13.786,1.485
4835,15.376,1.2727,0.1,0.00019557,1954.3,0.00019534,1947.7,-6.3882e-05,-0.0012945,-6.5638e-05,-13.196,1.4571
4836,15.193,1.2727,0.1,0.00020014,2000,0.00019992,1993.7,-6.542e-05,-0.001182,-6.7097e-05,-12.601,1.4293
4837,15.009,1.2727,0.1,0.00020473,2045.9,0.00020452,2039.8,-6.6965e-05,-0.0010459,-6.8562e-05,-11.998,1.4017
4838,14.826,1.2727,0.1,0.00020934,2091.9,0.00020914,2086.2,-6.8517e-05,-0.00091559,-7.0032e-05,-11.385,1.3742
4839,14.642,1.2727,0.1,0.00021397,2138.2,0.00021378,2132.8,-7.0076e-05,-0.00078915,-7.1507e-05,-10.756,1.3468
4840,14.459,1.2727,0.1,0.00021861,2184.6,0.00021844,2179.6,-7.1641e-05,-0.00066492,-7.2987e-05,-10.11,1.3196
4841,14.276,1.2727,0.1,0.00022328,2231.3,0.00022312,2226.5,-7.3215e-05,-0.00049414,-7.4471e-05,-9.4425,1.2925
4842,14.092,1.2727,0.1,0.00022797,2278.1,0.00022782,2273.7,-7.4795e-05,-0.00029809,-7.5959e-05,-8.7491,1.2656
4843,13.909,1.2727,0.1,0.00023267,2325.1,0.00023253,2321.1,-7.6383e-05,-0.00010753,-7.7451e-05,-8.0264,1.2388
4844,13.725,1.2727,0.1,0.00023739,2372.3,0.00023727,2368.6,-7.7978e-05,0.00016276,-7.8946e-05,-7.2702,1.2122
4845,13.542,1.2727,0.1,0.00024213,2419.6,0.00024202,2416.4,-7.9581e-05,0.00049678,-8.0443e-05,-6.4761,1.1857
4846,13.358,1.2727,0.1,0.00024688,2467.1,0.00024679,2464.3,-8.1192e-05,0.00094223,-8.1943e-05,-5.6398,1.1594
4847,13.175,1.2727,0.1,0.00025166,2514.8,0.00025158,2512.5,-8.2811e-05,0.0016129,-8.3445e-05,-4.7565,1.1333
4848,12.991,1.2727,0.1,0.00025645,2562.7,0.00025638,2560.8,-8.4439e-05,0.0026038,-8.4948e-05,-3.8214,1.1073
4849,12.808,1.2727,0.1,0.00026126,2610.8,0.00026121,2609.4,-8.6074e-05,0.0043874,-8.6451e-05,-2.8296,1.0815
4850,12.624,1.2727,0.1,0.00026608,2659,0.00026605,2658.1,-8.7718e-05,0.0085383,-8.7956e-05,-1.777,1.0559
4851,12.441,1.2727,0.1,0.00027092,2707.3,0.00027091,2707,-8.9369e-05,0.027011,-8.9461e-05,-0.67002,1.0305
4852,12.257,1.2727,0.1,0.00027578,2755.9,0.00027579,2756.2,-9.0955e-05,0.5935,-9.1039e-05,-0.035886,1.0052
4853,12.074,1.2727,0.1,0.00028065,2804.6,0.00028068,2805.5,-9.2459e-05,1.8531,-9.2707e-05,-0.013431,0.98018
4854,11.89,1.2727,0.1,0.00028554,2853.4,0.00028559,2855,-9.3958e-05,3.2193,-9.4387e-05,-0.0089649,0.9553
4855,11.707,1.2727,0.1,0.00029044,2902.4,0.00029052,2904.7,-9.5453e-05,4.6835,-9.6077e-05,-0.0071204,0.93061
4856,11.523,1.2727,0.1,0.00029536,2951.5,0.00029546,2954.6,-9.6945e-05,6.2516,-9.7777e-05,-0.0061574,0.90612
4857,11.34,1.2727,0.1,0.00030029,3000.8,0.00030042,3004.7,-9.8431e-05,7.9308,-9.9488e-05,-0.0055594,0.88183
4858,11.156,1.2727,0.1,0.00030523,3050.2,0.0003054,3055.1,-9.9913e-05,9.7288,-0.00010121,-0.0052394,0.85774
4859,10.973,1.2727,0.1,0.00031019,3099.8,0.00031039,3105.6,-0.00010139,11.654,-0.00010294,-0.0050656,0.83385
4860,10.789,1.2727,0.1,0.00031516,3149.4,0.00031539,3156.3,-0.00010286,13.714,-0.00010468,-0.0049535,0.81018
4861,10.606,1.2727,0.1,0.00032014,3199.2,0.00032041,3207.2,-0.00010432,15.917,-0.00010644,-0.0049495,0.78671
4862,10.422,1.2727,0.1,0.00032514,3249.2,0.00032545,3258.3,-0.00010577,18.272,-0.0001082,-0.0050423,0.76346
4863,10.239,1.2727,0.1,0.00033015,3299.2,0.0003305,3309.6,-0.00010721,20.785,-0.00010998,-0.0052273,0.74043
4864,10.055,1.2727,0.1,0.00033517,3349.4,0.00033556,3361,-0.00010864,23.465,-0.00011177,-0.0054598,0.71763
4865,9.872,1.2727,0.1,0.0003402,3399.6,0.00034064,3412.7,-0.00011006,26.317,-0.00011357,-0.0057772,0.69504
4866,9.6885,1.2727,0.1,0.00034524,3450,0.00034573,3464.6,-0.00011147,29.348,-0.00011538,-0.0062071,0.67269
4867,9.505,1.2727,0.1,0.00035029,3500.5,0.00035083,3516.7,-0.00011287,32.559,-0.00011721,-0.0067498,0.65057
4868,9.3215,1.2727,0.1,0.00035535,3551.1,0.00035595,3568.9,-0.00011426,35.952,-0.00011904,-0.0074368,0.62869
4869,9.1381,1.2727,0.1,0.00036043,3601.8,0.00036108,3621.4,-0.00011563,39.526,-0.00012089,-0.0082959,0.60704
4870,8.9546,1.2727,0.1,0.00036551,3652.6,0.00036623,3674,-0.000117,43.276,-0.00012276,-0.0093695,0.58564
4871,8.7711,1.2727,0.1,0.0003706,3703.5,0.00037138,3726.8,-0.00011835,47.19,-0.00012463,-0.010711,0.56449
4872,8.5876,1.2727,0.1,0.0003757,3754.4,0.00037655,3779.8,-0.00011969,51.255,-0.00012651,-0.012392,0.54358
4873,8.4041,1.2727,0.1,0.00038081,3805.5,0.00038173,3832.9,-0.00012103,55.446,-0.00012841,-0.014504,0.52293
4874,8.2206,1.2727,0.1,0.00038593,3856.7,0.00038692,3886.2,-0.00012235,59.733,-0.00013031,-0.017168,0.50254
4875,8.0372,1.2727,0.1,0.00039106,3907.9,0.00039211,3939.6,-0.00012368,64.075,-0.00013221,-0.020553,0.4824
4876,7.8537,1.2727,0.1,0.0003962,3959.2,0.00039732,3993,-0.00012501,68.417,-0.00013412,-0.02488,0.46253
4877,7.6702,1.2727,0.1,0.00040134,4010.6,0.00040253,4046.5,-0.00012635,72.693,-0.00013603,-0.030458,0.44293
4878,7.4867,1.2727,0.1,0.00040648,4062,0.00040774,4099.9,-0.0001277,76.817,-0.00013793,-0.037714,0.4236
4879,7.3032,1.2727,0.1,0.00041163,4113.4,0.00041294,4153.2,-0.00012907,80.689,-0.00013982,-0.047255,0.40454
4880,7.1198,1.2727,0.1,0.00041677,4164.8,0.00041813,4206.2,-0.00013048,84.182,-0.00014169,-0.059954,0.38576
4881,6.9363,1.2727,0.1,0.00042189,4216,0.0004233,4258.8,-0.00013192,87.148,-0.00014352,-0.07709,0.36726
4882,6.7528,1.2727,0.1,0.00042699,4266.9,0.00042843,4310.9,-0.00013341,89.411,-0.00014532,-0.10059,0.34905
4883,6.5693,1.2727,0.1,0.00043204,4317.4,0.00043351,4362,-0.00013496,90.765,-0.00014706,-0.1334,0.33112
4884,6.3858,1.2727,0.1,0.00043702,4367.2,0.00043849,4411.9,-0.00013658,90.967,-0.00014871,-0.18025,0.31349
4885,6.2024,1.2727,0.1,0.0004419,4416,0.00044335,4460,-0.00013829,89.733,-0.00015027,-0.24888,0.29615
4886,6.0189,1.2727,0.1,0.00044664,4463.3,0.00044804,4505.8,-0.00014011,86.724,-0.00015169,-0.3528,0.27911
4887,5.8354,1.2727,0.1,0.00045118,4508.6,0.0004525,4548.6,-0.00014203,81.53,-0.00015295,-0.51717,0.26238
4888,5.6519,1.2727,0.1,0.00045545,4551.3,0.00045664,4587.3,-0.00014409,73.64,-0.000154,-0.79371,0.24594
4889,5.4684,1.2727,0.1,0.00045937,4590.5,0.00046038,4620.8,-0.0001463,62.411,-0.00015478,-1.3059,0.22982
4890,5.285,1.2727,0.1,0.00046286,4625.4,0.0004636,4647.5,-0.00014868,47.11,-0.00015527,-2.4275,0.214
4891,5.1015,1.2727,0.1,0.00046582,4655,0.00046619,4665.9,-0.00015111,27.721,-0.00015558,-5.8291,0.1985
4892,4.918,1.2727,0.1,0.0004682,4678.8,0.00046803,4673.8,-0.00015255,11.003,-0.0001568,-20.938,0.18331
4893,4.7345,1.2727,0.1,0.00047001,4696.9,0.00046904,4669,-0.00015163,5.4875,-0.00016043,-60.625,0.16843
4894,4.551,1.2727,0.1,0.0004714,4710.7,0.00046921,4649,-0.00014901,3.9357,-0.00016614,-124.75,0.15386
4895,4.3676,1.2727,0.1,0.00047278,4724.5,0.00046865,4611.2,-0.00014461,3.3794,-0.0001746,-221.97,0.13959
4896,4.1841,1.2727,0.1,0.000475,4746.8,0.00046766,4552.3,-0.00013778,3.2793,-0.00018747,-370.1,0.12563
4897,4.0006,1.2727,0.1,0.00047959,4792.6,0.00046668,4467.9,-0.0001275,3.4477,-0.00020734,-596.4,0.11195
4898,3.8171,1.2727,0.1,0.00048871,4883.7,0.00046601,4349.4,-0.00011228,4.4094,-0.00023745,-936.1,0.098533
4899,3.6336,1.2727,0.1,0.00050639,5060.4,0.00046643,4187.6,-9.0766e-05,1.0494,-0.000282,-1435.8,0.08534
4900,3.4501,1.2727,0.1,0.00055951,5591.3,0.00048636,4123.4,-6.1095e-05,10.068,-0.00036094,-2242.8,0.072309
4901,23.817,1.4545,0.1,1.6623e-05,166.11,8.6959e-06,39.767,3.3827e-06,-0.15426,-1.5585e-05,-142.67,2.8292
4902,23.633,1.4545,0.1,1.8413e-05,184,1.2158e-05,77.677,1.7795e-06,-0.30112,-1.5812e-05,-132.48,2.7984
4903,23.45,1.4545,0.1,2.0678e-05,206.64,1.5637e-05,115.65,2.2773e-07,-0.12347,-1.6116e-05,-122.92,2.7676
4904,23.266,1.4545,0.1,2.3285e-05,232.69,1.9139e-05,153.54,-1.3113e-06,-0.10795,-1.6491e-05,-114.16,2.7368
4905,23.083,1.4545,0.1,2.6141e-05,261.23,2.2666e-05,191.46,-2.8257e-06,-0.078063,-1.6939e-05,-106.12,2.706
4906,22.899,1.4545,0.1,2.9188e-05,291.68,2.6225e-05,229.45,-4.3214e-06,-0.06392,-1.746e-05,-98.779,2.6752
4907,22.716,1.4545,0.1,3.2383e-05,323.61,2.9818e-05,267.57,-5.8004e-06,-0.052407,-1.8049e-05,-92.081,2.6444
4908,22.532,1.4545,0.1,3.5696e-05,356.71,3.3447e-05,305.85,-7.2655e-06,-0.044241,-1.8702e-05,-85.973,2.6136
4909,22.349,1.4545,0.1,3.9105e-05,390.78,3.7111e-05,344.31,-8.7191e-06,-0.037854,-1.9414e-05,-80.398,2.5829
4910,22.165,1.4545,0.1,4.2594e-05,425.65,4.081e-05,382.96,-1.0163e-05,-0.032839,-2.018e-05,-75.3,2.5522
4911,21.982,1.4545,0.1,4.6151e-05,461.19,4.4542e-05,421.79,-1.1599e-05,-0.028793,-2.0996e-05,-70.629,2.5215
4912,21.798,1.4545,0.1,4.9767e-05,497.33,4.8305e-05,460.82,-1.3029e-05,-0.025486,-2.1855e-05,-66.342,2.4909
4913,21.615,1.4545,0.1,5.3435e-05,533.98,5.2099e-05,500.03,-1.4454e-05,-0.022735,-2.2756e-05,-62.398,2.4602
4914,21.431,1.4545,0.1,5.7148e-05,571.09,5.5921e-05,539.43,-1.5875e-05,-0.020424,-2.3693e-05,-58.763,2.4296
4915,21.248,1.4545,0.1,6.0904e-05,608.62,5.9771e-05,579.01,-1.7293e-05,-0.018471,-2.4665e-05,-55.407,2.3991
4916,21.064,1.4545,0.1,6.4698e-05,646.53,6.3649e-05,618.78,-1.8708e-05,-0.016791,-2.5667e-05,-52.305,2.3686
4917,20.881,1.4545,0.1,6.8528e-05,684.8,6.7552e-05,658.74,-2.0123e-05,-0.015344,-2.67e-05,-49.433,2.3381
4918,20.697,1.4545,0.1,7.2391e-05,723.41,7.1482e-05,698.88,-2.1536e-05,-0.014081,-2.7759e-05,-46.771,2.3077
4919,20.514,1.4545,0.1,7.6286e-05,762.34,7.5436e-05,739.22,-2.2949e-05,-0.012971,-2.8844e-05,-44.3,2.2773
4920,20.33,1.4545,0.1,8.0212e-05,801.57,7.9415e-05,779.73,-2.4363e-05,-0.01199,-2.9952e-05,-42.005,2.247
4921,20.147,1.4545,0.1,8.4167e-05,841.09,8.3418e-05,820.44,-2.5778e-05,-0.011124,-3.1083e-05,-39.872,2.2167
4922,19.963,1.4545,0.1,8.8151e-05,880.9,8.7445e-05,861.34,-2.7194e-05,-0.010359,-3.2235e-05,-37.887,2.1865
4923,19.78,1.4545,0.1,9.2161e-05,920.98,9.1495e-05,902.42,-2.8611e-05,-0.0096603,-3.3406e-05,-36.038,2.1564
4924,19.596,1.4545,0.1,9.6199e-05,961.32,9.5569e-05,943.7,-3.0031e-05,-0.0090275,-3.4597e-05,-34.314,2.1263
4925,19.413,1.4545,0.1,0.00010026,1001.9,9.9665e-05,985.17,-3.1454e-05,-0.0084721,-3.5806e-05,-32.706,2.0962
4926,19.229,1.4545,0.1,0.00010435,1042.8,0.00010378,1026.8,-3.2879e-05,-0.007954,-3.7031e-05,-31.205,2.0663
4927,19.046,1.4545,0.1,0.00010846,1083.9,0.00010793,1068.7,-3.4308e-05,-0.0074842,-3.8273e-05,-29.801,2.0364
4928,18.863,1.4545,0.1,0.0001126,1125.2,0.00011209,1110.7,-3.5739e-05,-0.0070563,-3.953e-05,-28.486,2.0066
4929,18.679,1.4545,0.1,0.00011676,1166.8,0.00011628,1153,-3.7175e-05,-0.006651,-4.0801e-05,-27.255,1.9768
4930,18.496,1.4545,0.1,0.00012095,1208.7,0.00012049,1195.4,-3.8614e-05,-0.006282,-4.2087e-05,-26.098,1.9471
4931,18.312,1.4545,0.1,0.00012516,1250.7,0.00012472,1238,-4.0058e-05,-0.0059511,-4.3386e-05,-25.011,1.9176
4932,18.129,1.4545,0.1,0.00012939,1293,0.00012897,1280.9,-4.1506e-05,-0.0056505,-4.4698e-05,-23.987,1.8881
4933,17.945,1.4545,0.1,0.00013365,1335.6,0.00013324,1323.9,-4.2959e-05,-0.0053536,-4.6022e-05,-23.021,1.8586
4934,17.762,1.4545,0.1,0.00013792,1378.3,0.00013754,1367.1,-4.4416e-05,-0.0050765,-4.7358e-05,-22.106,1.8293
4935,17.578,1.4545,0.1,0.00014222,1421.3,0.00014185,1410.5,-4.5879e-05,-0.0048387,-4.8705e-05,-21.238,1.8001
4936,17.395,1.4545,0.1,0.00014655,1464.5,0.00014619,1454.1,-4.7346e-05,-0.0045977,-5.0062e-05,-20.412,1.7709
4937,17.211,1.4545,0.1,0.00015089,1507.9,0.00015055,1497.9,-4.8819e-05,-0.0043778,-5.143e-05,-19.624,1.7419
4938,17.028,1.4545,0.1,0.00015525,1551.5,0.00015492,1541.9,-5.0297e-05,-0.0041718,-5.2808e-05,-18.869,1.7129
4939,16.844,1.4545,0.1,0.00015964,1595.3,0.00015932,1586.2,-5.178e-05,-0.0039597,-5.4195e-05,-18.142,1.6841
4940,16.661,1.4545,0.1,0.00016405,1639.3,0.00016374,1630.6,-5.327e-05,-0.0037673,-5.5591e-05,-17.441,1.6554
4941,16.477,1.4545,0.1,0.00016848,1683.6,0.00016818,1675.1,-5.4765e-05,-0.0035932,-5.6995e-05,-16.76,1.6267
4942,16.294,1.4545,0.1,0.00017292,1728,0.00017264,1719.9,-5.6266e-05,-0.0034359,-5.8408e-05,-16.096,1.5982
4943,16.11,1.4545,0.1,0.00017739,1772.7,0.00017713,1764.9,-5.7773e-05,-0.0032615,-5.9829e-05,-15.446,1.5698
4944,15.927,1.4545,0.1,0.00018188,1817.6,0.00018163,1810.1,-5.9287e-05,-0.0030893,-6.1257e-05,-14.805,1.5416
4945,15.743,1.4545,0.1,0.00018639,1862.6,0.00018615,1855.5,-6.0806e-05,-0.0029517,-6.2692e-05,-14.17,1.5134
4946,15.56,1.4545,0.1,0.00019092,1907.9,0.00019069,1901.1,-6.2332e-05,-0.0027913,-6.4134e-05,-13.537,1.4854
4947,15.376,1.4545,0.1,0.00019547,1953.4,0.00019525,1946.9,-6.3865e-05,-0.0026358,-6.5582e-05,-12.903,1.4575
4948,15.193,1.4545,0.1,0.00020004,1999,0.00019983,1992.8,-6.5404e-05,-0.0024852,-6.7036e-05,-12.265,1.4297
4949,15.009,1.4545,0.1,0.00020463,2044.8,0.00020443,2039,-6.6951e-05,-0.0023073,-6.8496e-05,-11.617,1.4021
4950,14.826,1.4545,0.1,0.00020923,2090.9,0.00020904,2085.4,-6.8504e-05,-0.0021332,-6.9962e-05,-10.957,1.3746
4951,14.642,1.4545,0.1,0.00021386,2137.1,0.00021368,2131.9,-7.0064e-05,-0.0019611,-7.1432e-05,-10.281,1.3472
4952,14.459,1.4545,0.1,0.0002185,2183.5,0.00021834,2178.7,-7.1631e-05,-0.00179,-7.2906e-05,-9.5845,1.32
4953,14.276,1.4545,0.1,0.00022317,2230.1,0.00022301,2225.7,-7.3205e-05,-0.0015641,-7.4385e-05,-8.8639,1.2929
4954,14.092,1.4545,0.1,0.00022785,2276.9,0.00022771,2272.8,-7.4787e-05,-0.0013073,-7.5867e-05,-8.1149,1.266
4955,13.909,1.4545,0.1,0.00023254,2323.8,0.00023242,2320.2,-7.6376e-05,-0.0010387,-7.7352e-05,-7.3331,1.2393
4956,13.725,1.4545,0.1,0.00023726,2371,0.00023715,2367.7,-7.7973e-05,-0.00067069,-7.884e-05,-6.5139,1.2126
4957,13.542,1.4545,0.1,0.00024199,2418.3,0.0002419,2415.4,-7.9578e-05,-0.00019406,-8.033e-05,-5.6526,1.1862
4958,13.358,1.4545,0.1,0.00024675,2465.8,0.00024666,2463.4,-8.1191e-05,0.00046461,-8.1822e-05,-4.7441,1.1599
4959,13.175,1.4545,0.1,0.00025151,2513.4,0.00025145,2511.5,-8.2812e-05,0.0015214,-8.3316e-05,-3.7833,1.1338
4960,12.991,1.4545,0.1,0.0002563,2561.2,0.00025625,2559.8,-8.4441e-05,0.0033502,-8.481e-05,-2.765,1.1078
4961,12.808,1.4545,0.1,0.0002611,2609.2,0.00026107,2608.4,-8.6079e-05,0.0076937,-8.6304e-05,-1.685,1.0821
4962,12.624,1.4545,0.1,0.00026592,2657.3,0.00026591,2657.1,-8.7722e-05,0.030574,-8.78e-05,-0.55283,1.0564
4963,12.441,1.4545,0.1,0.00027075,2705.6,0.00027076,2706,-8.9284e-05,0.73835,-8.9386e-05,-0.028464,1.031
4964,12.257,1.4545,0.1,0.0002756,2754.1,0.00027563,2755.1,-9.0776e-05,2.0388,-9.1049e-05,-0.012461,1.0058
4965,12.074,1.4545,0.1,0.00028046,2802.6,0.00028052,2804.4,-9.2263e-05,3.4431,-9.2722e-05,-0.0087673,0.98072
4966,11.89,1.4545,0.1,0.00028533,2851.4,0.00028542,2853.8,-9.3746e-05,4.9492,-9.4406e-05,-0.0071252,0.95585
4967,11.707,1.4545,0.1,0.00029023,2900.2,0.00029034,2903.5,-9.5225e-05,6.5639,-9.61e-05,-0.0062165,0.93117
4968,11.523,1.4545,0.1,0.00029513,2949.3,0.00029527,2953.4,-9.6699e-05,8.2955,-9.7804e-05,-0.0056611,0.90669
4969,11.34,1.4545,0.1,0.00030005,2998.4,0.00030022,3003.5,-9.8166e-05,10.153,-9.9518e-05,-0.0052574,0.88241
4970,11.156,1.4545,0.1,0.00030498,3047.7,0.00030518,3053.7,-9.9626e-05,12.146,-0.00010124,-0.0050278,0.85833
4971,10.973,1.4545,0.1,0.00030992,3097,0.00031016,3104.2,-0.00010108,14.285,-0.00010298,-0.0048863,0.83445
4972,10.789,1.4545,0.1,0.00031487,3146.5,0.00031515,3154.8,-0.00010252,16.579,-0.00010473,-0.0047694,0.81078
4973,10.606,1.4545,0.1,0.00031984,3196.2,0.00032016,3205.6,-0.00010395,19.039,-0.00010649,-0.0047349,0.78732
4974,10.422,1.4545,0.1,0.00032481,3245.9,0.00032518,3256.7,-0.00010537,21.677,-0.00010826,-0.0047749,0.76408
4975,10.239,1.4545,0.1,0.0003298,3295.7,0.00033021,3307.9,-0.00010678,24.501,-0.00011005,-0.0048908,0.74106
4976,10.055,1.4545,0.1,0.00033479,3345.6,0.00033525,3359.3,-0.00010818,27.525,-0.00011184,-0.0050393,0.71826
4977,9.872,1.4545,0.1,0.0003398,3395.7,0.00034031,3410.9,-0.00010956,30.757,-0.00011365,-0.0052572,0.69569
4978,9.6885,1.4545,0.1,0.00034481,3445.8,0.00034538,3462.7,-0.00011093,34.207,-0.00011548,-0.0055742,0.67334
4979,9.505,1.4545,0.1,0.00034984,3496,0.00035047,3514.7,-0.00011228,37.884,-0.00011732,-0.0059869,0.65123
4980,9.3215,1.4545,0.1,0.00035487,3546.2,0.00035556,3567,-0.00011361,41.795,-0.00011917,-0.0065283,0.62935
4981,9.1381,1.4545,0.1,0.00035991,3596.6,0.00036067,3619.4,-0.00011492,45.946,-0.00012104,-0.0072243,0.60771
4982,8.9546,1.4545,0.1,0.00036496,3647.1,0.00036579,3672,-0.00011622,50.339,-0.00012292,-0.0081155,0.58632
4983,8.7711,1.4545,0.1,0.00037002,3697.6,0.00037092,3724.8,-0.0001175,54.973,-0.00012482,-0.0092516,0.56517
4984,8.5876,1.4545,0.1,0.00037509,3748.3,0.00037607,3777.9,-0.00011877,59.844,-0.00012673,-0.0107,0.54427
4985,8.4041,1.4545,0.1,0.00038017,3799.1,0.00038123,3831.1,-0.00012002,64.94,-0.00012866,-0.012549,0.52363
4986,8.2206,1.4545,0.1,0.00038526,3850,0.00038641,3884.6,-0.00012125,70.245,-0.0001306,-0.014912,0.50324
4987,8.0372,1.4545,0.1,0.00039037,3901,0.0003916,3938.3,-0.00012247,75.733,-0.00013256,-0.017944,0.48311
4988,7.8537,1.4545,0.1,0.00039549,3952.2,0.00039681,3992.2,-0.00012369,81.37,-0.00013452,-0.02185,0.46324
4989,7.6702,1.4545,0.1,0.00040063,4003.5,0.00040204,4046.4,-0.00012491,87.106,-0.0001365,-0.026909,0.44364
4990,7.4867,1.4545,0.1,0.00040579,4055.1,0.00040729,4100.7,-0.00012612,92.882,-0.00013849,-0.033498,0.42431
4991,7.3032,1.4545,0.1,0.00041098,4106.9,0.00041256,4155.3,-0.00012735,98.619,-0.00014048,-0.042144,0.40526
4992,7.1198,1.4545,0.1,0.00041619,4159,0.00041786,4210.1,-0.0001286,104.22,-0.00014248,-0.053573,0.38649
4993,6.9363,1.4545,0.1,0.00042143,4211.4,0.00042319,4265.1,-0.00012988,109.56,-0.00014447,-0.068817,0.36799
4994,6.7528,1.4545,0.1,0.00042671,4264.1,0.00042854,4320.2,-0.0001312,114.51,-0.00014645,-0.089351,0.34978
4995,6.5693,1.4545,0.1,0.00043202,4317.2,0.00043391,4375.3,-0.00013259,118.86,-0.00014842,-0.11733,0.33186
4996,6.3858,1.4545,0.1,0.00043736,4370.6,0.00043931,4430.5,-0.00013405,122.42,-0.00015036,-0.15593,0.31423
4997,6.2024,1.4545,0.1,0.00044275,4424.4,0.00044474,4485.5,-0.00013562,124.91,-0.00015227,-0.21003,0.2969
4998,6.0189,1.4545,0.1,0.00044817,4478.6,0.00045018,4540.2,-0.00013731,126,-0.00015412,-0.28727,0.27987
4999,5.8354,1.4545,0.1,0.00045364,4533.2,0.00045563,4594.3,-0.00013917,125.24,-0.00015589,-0.40021,0.26313
5000,5.6519,1.4545,0.1,0.00045914,4588.2,0.00046108,4647.7,-0.00014125,122.06,-0.00015757,-0.57075,0.24671
5001,5.4684,1.4545,0.1,0.00046469,4643.7,0.00046654,4700,-0.00014361,115.63,-0.00015911,-0.84066,0.2306
5002,5.285,1.4545,0.1,0.00047033,4700.1,0.000472,4750.9,-0.00014636,104.75,-0.00016048,-1.3004,0.2148
5003,5.1015,1.4545,0.1,0.00047613,4758,0.00047752,4800.1,-0.00014967,87.674,-0.00016163,-2.1896,0.19932
5004,4.918,1.4545,0.1,0.00048222,4818.9,0.00048317,4847.4,-0.00015372,62.062,-0.00016256,-4.3917,0.18415
5005,4.7345,1.4545,0.1,0.00048891,4885.8,0.00048915,4893,-0.00015828,28.478,-0.0001639,-13.758,0.16931
5006,4.551,1.4545,0.1,0.00049675,4964,0.00049582,4937.6,-0.00016009,9.3521,-0.00016952,-61.502,0.1548
5007,4.3676,1.4545,0.1,0.0005067,5063.5,0.0005038,4982.5,-0.00015861,5.354,-0.00018104,-163.13,0.14061
5008,4.1841,1.4545,0.1,0.00052044,5200.8,0.00051407,5029.4,-0.00015471,4.4073,-0.00019936,-331.05,0.12674
5009,4.0006,1.4545,0.1,0.00054064,5402.7,0.00052787,5077.2,-0.00014728,4.4695,-0.00022824,-603.86,0.11319
5010,3.8171,1.4545,0.1,0.00057148,5710.9,0.00054655,5119.1,-0.0001341,4.9343,-0.00027361,-1043.3,0.099944
5011,3.6336,1.4545,0.1,0.00061622,6157.9,0.00056826,5108.6,-0.00011133,2.3835,-0.0003419,-1730,0.086971
5012,3.4501,1.4545,0.1,0.00070775,7072.6,0.00061241,5178.3,-7.2319e-05,33.506,-0.00046099,-2886.8,0.074212
5013,23.817,1.6364,0.1,1.7428e-05,174.16,8.9666e-06,39.752,3.6533e-06,-0.17008,-1.6407e-05,-150.9,2.8293
5014,23.633,1.6364,0.1,1.9194e-05,191.81,1.2451e-05,77.908,2.0408e-06,-0.30969,-1.6637e-05,-140.65,2.7985
5015,23.45,1.6364,0.1,2.1421e-05,214.06,1.5946e-05,116.1,4.7652e-07,-0.12967,-1.6931e-05,-130.93,2.7677
5016,23.266,1.6364,0.1,2.3982e-05,239.66,1.9458e-05,154.18,-1.0768e-06,-0.11346,-1.7288e-05,-121.92,2.7369
5017,23.083,1.6364,0.1,2.6792e-05,267.73,2.2989e-05,192.23,-2.6063e-06,-0.083069,-1.7708e-05,-113.55,2.7061
5018,22.899,1.6364,0.1,2.979e-05,297.69,2.6543e-05,230.3,-4.1172e-06,-0.068616,-1.8194e-05,-105.83,2.6753
5019,22.716,1.6364,0.1,3.2936e-05,329.13,3.0126e-05,268.46,-5.611e-06,-0.056871,-1.8742e-05,-98.721,2.6445
5020,22.532,1.6364,0.1,3.6201e-05,361.76,3.3741e-05,306.74,-7.0902e-06,-0.048514,-1.9352e-05,-92.178,2.6137
5021,22.349,1.6364,0.1,3.9563e-05,395.36,3.7387e-05,345.16,-8.557e-06,-0.041957,-2.0019e-05,-86.163,2.583
5022,22.165,1.6364,0.1,4.3008e-05,429.78,4.1065e-05,383.74,-1.0013e-05,-0.036784,-2.074e-05,-80.63,2.5523
5023,21.982,1.6364,0.1,4.6523e-05,464.91,4.4775e-05,422.5,-1.1461e-05,-0.032585,-2.151e-05,-75.538,2.5216
5024,21.798,1.6364,0.1,5.0099e-05,500.65,4.8516e-05,461.44,-1.2901e-05,-0.029127,-2.2327e-05,-70.848,2.491
5025,21.615,1.6364,0.1,5.373e-05,536.93,5.2288e-05,500.56,-1.4336e-05,-0.026233,-2.3186e-05,-66.523,2.4604
5026,21.431,1.6364,0.1,5.7409e-05,573.7,5.6089e-05,539.86,-1.5765e-05,-0.023783,-2.4084e-05,-62.531,2.4298
5027,21.248,1.6364,0.1,6.1133e-05,610.91,5.9919e-05,579.35,-1.7191e-05,-0.021694,-2.5019e-05,-58.842,2.3992
5028,21.064,1.6364,0.1,6.4898e-05,648.53,6.3777e-05,619.03,-1.8614e-05,-0.019886,-2.5988e-05,-55.429,2.3687
5029,20.881,1.6364,0.1,6.8701e-05,686.54,6.7663e-05,658.9,-2.0035e-05,-0.018317,-2.6989e-05,-52.27,2.3383
5030,20.697,1.6364,0.1,7.2541e-05,724.91,7.1575e-05,698.97,-2.1454e-05,-0.016941,-2.8019e-05,-49.343,2.3079
5031,20.514,1.6364,0.1,7.6414e-05,763.61,7.5513e-05,739.22,-2.2873e-05,-0.015719,-2.9077e-05,-46.629,2.2775
5032,20.33,1.6364,0.1,8.0319e-05,802.64,7.9478e-05,779.67,-2.4292e-05,-0.014638,-3.016e-05,-44.11,2.2472
5033,20.147,1.6364,0.1,8.4256e-05,841.98,8.3467e-05,820.31,-2.5711e-05,-0.013674,-3.1268e-05,-41.771,2.2169
5034,19.963,1.6364,0.1,8.8222e-05,881.61,8.7482e-05,861.14,-2.7131e-05,-0.012817,-3.2399e-05,-39.597,2.1867
5035,19.78,1.6364,0.1,9.2218e-05,921.54,9.1521e-05,902.17,-2.8553e-05,-0.012031,-3.3552e-05,-37.575,2.1565
5036,19.596,1.6364,0.1,9.6241e-05,961.75,9.5584e-05,943.4,-2.9976e-05,-0.01132,-3.4725e-05,-35.693,2.1265
5037,19.413,1.6364,0.1,0.00010029,1002.2,9.9671e-05,984.82,-3.1402e-05,-0.010687,-3.5917e-05,-33.94,2.0964
5038,19.229,1.6364,0.1,0.00010437,1043,0.00010378,1026.4,-3.283e-05,-0.010096,-3.7128e-05,-32.305,2.0665
5039,19.046,1.6364,0.1,0.00010847,1084,0.00010792,1068.3,-3.4261e-05,-0.0095583,-3.8356e-05,-30.778,2.0366
5040,18.863,1.6364,0.1,0.0001126,1125.2,0.00011207,1110.3,-3.5696e-05,-0.0090679,-3.9601e-05,-29.352,2.0068
5041,18.679,1.6364,0.1,0.00011676,1166.7,0.00011625,1152.5,-3.7134e-05,-0.0086002,-4.0862e-05,-28.018,1.977
5042,18.496,1.6364,0.1,0.00012093,1208.5,0.00012046,1194.9,-3.8575e-05,-0.008177,-4.2137e-05,-26.767,1.9474
5043,18.312,1.6364,0.1,0.00012514,1250.5,0.00012468,1237.5,-4.0021e-05,-0.0077886,-4.3426e-05,-25.593,1.9178
5044,18.129,1.6364,0.1,0.00012936,1292.7,0.00012893,1280.3,-4.1471e-05,-0.0074381,-4.4729e-05,-24.489,1.8883
5045,17.945,1.6364,0.1,0.00013361,1335.2,0.0001332,1323.3,-4.2926e-05,-0.0070921,-4.6045e-05,-23.448,1.8589
5046,17.762,1.6364,0.1,0.00013788,1377.9,0.00013749,1366.5,-4.4385e-05,-0.0067693,-4.7374e-05,-22.465,1.8296
5047,17.578,1.6364,0.1,0.00014218,1420.8,0.0001418,1409.9,-4.5849e-05,-0.0064882,-4.8714e-05,-21.534,1.8003
5048,17.395,1.6364,0.1,0.0001465,1463.9,0.00014613,1453.5,-4.7318e-05,-0.0062072,-5.0065e-05,-20.649,1.7712
5049,17.211,1.6364,0.1,0.00015083,1507.3,0.00015049,1497.3,-4.8792e-05,-0.0059458,-5.1427e-05,-19.805,1.7421
5050,17.028,1.6364,0.1,0.0001552,1550.9,0.00015486,1541.3,-5.0271e-05,-0.0057001,-5.2799e-05,-18.998,1.7132
5051,16.844,1.6364,0.1,0.00015958,1594.7,0.00015926,1585.5,-5.1756e-05,-0.0054534,-5.4181e-05,-18.223,1.6844
5052,16.661,1.6364,0.1,0.00016398,1638.7,0.00016368,1629.9,-5.3247e-05,-0.0052266,-5.5572e-05,-17.475,1.6557
5053,16.477,1.6364,0.1,0.00016841,1682.9,0.00016812,1674.5,-5.4743e-05,-0.0050166,-5.6972e-05,-16.749,1.627
5054,16.294,1.6364,0.1,0.00017285,1727.3,0.00017257,1719.3,-5.6245e-05,-0.0048278,-5.838e-05,-16.043,1.5985
5055,16.11,1.6364,0.1,0.00017732,1772,0.00017705,1764.2,-5.7754e-05,-0.0046209,-5.9796e-05,-15.351,1.5701
5056,15.927,1.6364,0.1,0.00018181,1816.8,0.00018155,1809.4,-5.9268e-05,-0.0044195,-6.122e-05,-14.669,1.5419
5057,15.743,1.6364,0.1,0.00018631,1861.8,0.00018607,1854.8,-6.0789e-05,-0.0042519,-6.2651e-05,-13.994,1.5137
5058,15.56,1.6364,0.1,0.00019084,1907.1,0.00019061,1900.4,-6.2316e-05,-0.004062,-6.4089e-05,-13.322,1.4857
5059,15.376,1.6364,0.1,0.00019538,1952.5,0.00019517,1946.1,-6.385e-05,-0.003879,-6.5533e-05,-12.647,1.4578
5060,15.193,1.6364,0.1,0.00019995,1998.1,0.00019974,1992.1,-6.539e-05,-0.003697,-6.6983e-05,-11.968,1.4301
5061,15.009,1.6364,0.1,0.00020454,2043.9,0.00020434,2038.3,-6.6938e-05,-0.0034906,-6.8438e-05,-11.279,1.4024
5062,14.826,1.6364,0.1,0.00020914,2089.9,0.00020896,2084.6,-6.8492e-05,-0.0032884,-6.9899e-05,-10.576,1.3749
5063,14.642,1.6364,0.1,0.00021376,2136.1,0.00021359,2131.2,-7.0053e-05,-0.0030856,-7.1364e-05,-9.856,1.3476
5064,14.459,1.6364,0.1,0.0002184,2182.5,0.00021825,2177.9,-7.1621e-05,-0.0028799,-7.2834e-05,-9.1136,1.3204
5065,14.276,1.6364,0.1,0.00022306,2229.1,0.00022292,2224.9,-7.3197e-05,-0.002617,-7.4307e-05,-8.3447,1.2933
5066,14.092,1.6364,0.1,0.00022774,2275.8,0.00022761,2272,-7.478e-05,-0.0023142,-7.5784e-05,-7.5446,1.2664
5067,13.909,1.6364,0.1,0.00023243,2322.7,0.00023232,2319.4,-7.6371e-05,-0.0019904,-7.7263e-05,-6.7087,1.2397
5068,13.725,1.6364,0.1,0.00023715,2369.8,0.00023705,2366.9,-7.7969e-05,-0.0015437,-7.8745e-05,-5.8318,1.2131
5069,13.542,1.6364,0.1,0.00024188,2417.1,0.00024179,2414.6,-7.9576e-05,-0.00094643,-8.0229e-05,-4.9087,1.1866
5070,13.358,1.6364,0.1,0.00024662,2464.5,0.00024655,2462.5,-8.119e-05,-6.1179e-05,-8.1714e-05,-3.9342,1.1603
5071,13.175,1.6364,0.1,0.00025138,2512.1,0.00025133,2510.7,-8.2813e-05,0.0015122,-8.3199e-05,-2.9024,1.1342
5072,12.991,1.6364,0.1,0.00025616,2559.9,0.00025613,2559,-8.4444e-05,0.004977,-8.4685e-05,-1.8087,1.1083
5073,12.808,1.6364,0.1,0.00026096,2607.8,0.00026095,2607.5,-8.6082e-05,0.020993,-8.6172e-05,-0.65706,1.0825
5074,12.624,1.6364,0.1,0.00026577,2655.8,0.00026578,2656.1,-8.7648e-05,0.63867,-8.7737e-05,-0.029393,1.0569
5075,12.441,1.6364,0.1,0.00027059,2704,0.00027062,2705,-8.9132e-05,1.9517,-8.9393e-05,-0.012258,1.0315
5076,12.257,1.6364,0.1,0.00027543,2752.4,0.00027549,2754.1,-9.061e-05,3.3712,-9.106e-05,-0.0087041,1.0063
5077,12.074,1.6364,0.1,0.00028028,2800.9,0.00028037,2803.3,-9.2084e-05,4.8939,-9.2737e-05,-0.0071787,0.98121
5078,11.89,1.6364,0.1,0.00028515,2849.5,0.00028526,2852.8,-9.3554e-05,6.5274,-9.4424e-05,-0.0063002,0.95634
5079,11.707,1.6364,0.1,0.00029003,2898.3,0.00029017,2902.4,-9.5018e-05,8.2808,-9.6121e-05,-0.005739,0.93167
5080,11.523,1.6364,0.1,0.00029492,2947.2,0.0002951,2952.3,-9.6475e-05,10.164,-9.7828e-05,-0.0053558,0.9072
5081,11.34,1.6364,0.1,0.00029983,2996.2,0.00030003,3002.3,-9.7924e-05,12.188,-9.9547e-05,-0.005039,0.88292
5082,11.156,1.6364,0.1,0.00030474,3045.3,0.00030499,3052.5,-9.9364e-05,14.363,-0.00010128,-0.0048468,0.85885
5083,10.973,1.6364,0.1,0.00030967,3094.6,0.00030995,3102.9,-0.00010079,16.701,-0.00010302,-0.0047088,0.83498
5084,10.789,1.6364,0.1,0.00031461,3143.9,0.00031493,3153.5,-0.00010221,19.215,-0.00010477,-0.0045718,0.81132
5085,10.606,1.6364,0.1,0.00031956,3193.4,0.00031992,3204.3,-0.00010362,21.918,-0.00010654,-0.0044979,0.78787
5086,10.422,1.6364,0.1,0.00032451,3242.9,0.00032493,3255.2,-0.00010501,24.823,-0.00010832,-0.0044842,0.76463
5087,10.239,1.6364,0.1,0.00032948,3292.5,0.00032994,3306.4,-0.00010639,27.945,-0.00011011,-0.0045301,0.74162
5088,10.055,1.6364,0.1,0.00033445,3342.2,0.00033497,3357.7,-0.00010775,31.297,-0.00011192,-0.0045948,0.71883
5089,9.872,1.6364,0.1,0.00033943,3392,0.00034001,3409.3,-0.00010909,34.895,-0.00011374,-0.0047131,0.69626
5090,9.6885,1.6364,0.1,0.00034442,3441.8,0.00034506,3461,-0.00011041,38.753,-0.00011557,-0.0049148,0.67392
5091,9.505,1.6364,0.1,0.00034941,3491.7,0.00035012,3513,-0.00011172,42.885,-0.00011742,-0.0051951,0.65181
5092,9.3215,1.6364,0.1,0.00035442,3541.7,0.0003552,3565.1,-0.000113,47.305,-0.00011929,-0.005584,0.62994
5093,9.1381,1.6364,0.1,0.00035943,3591.8,0.00036028,3617.5,-0.00011425,52.028,-0.00012118,-0.0061052,0.60831
5094,8.9546,1.6364,0.1,0.00036444,3641.9,0.00036538,3670.1,-0.00011549,57.064,-0.00012308,-0.0067952,0.58692
5095,8.7711,1.6364,0.1,0.00036947,3692.2,0.00037049,3723,-0.0001167,62.423,-0.00012501,-0.0077001,0.56578
5096,8.5876,1.6364,0.1,0.00037451,3742.5,0.00037562,3776.1,-0.00011788,68.113,-0.00012695,-0.0088801,0.54488
5097,8.4041,1.6364,0.1,0.00037956,3792.9,0.00038076,3829.5,-0.00011904,74.138,-0.00012891,-0.010415,0.52424
5098,8.2206,1.6364,0.1,0.00038462,3843.5,0.00038592,3883.1,-0.00012018,80.496,-0.00013089,-0.01241,0.50386
5099,8.0372,1.6364,0.1,0.0003897,3894.3,0.00039111,3937.1,-0.00012129,87.181,-0.0001329,-0.015001,0.48373
5100,7.8537,1.6364,0.1,0.0003948,3945.3,0.00039632,3991.5,-0.00012239,94.179,-0.00013492,-0.018373,0.46387
5101,7.6702,1.6364,0.1,0.00039993,3996.6,0.00040156,4046.3,-0.00012347,101.47,-0.00013697,-0.02277,0.44428
5102,7.4867,1.6364,0.1,0.0004051,4048.2,0.00040685,4101.6,-0.00012454,109.01,-0.00013905,-0.028523,0.42495
5103,7.3032,1.6364,0.1,0.00041032,4100.4,0.00041218,4157.5,-0.00012561,116.76,-0.00014115,-0.036078,0.4059
5104,7.1198,1.6364,0.1,0.00041559,4153.1,0.00041757,4214,-0.00012668,124.66,-0.00014328,-0.046042,0.38713
5105,6.9363,1.6364,0.1,0.00042094,4206.5,0.00042304,4271.2,-0.00012777,132.61,-0.00014543,-0.059251,0.36864
5106,6.7528,1.6364,0.1,0.00042638,4260.8,0.00042859,4329.3,-0.0001289,140.51,-0.00014761,-0.076865,0.35043
5107,6.5693,1.6364,0.1,0.00043193,4316.3,0.00043426,4388.4,-0.00013008,148.22,-0.00014982,-0.10051,0.33251
5108,6.3858,1.6364,0.1,0.00043762,4373.2,0.00044006,4448.8,-0.00013134,155.56,-0.00015206,-0.13248,0.31488
5109,6.2024,1.6364,0.1,0.00044349,4431.8,0.00044603,4510.7,-0.00013271,162.28,-0.00015433,-0.17612,0.29755
5110,6.0189,1.6364,0.1,0.00044958,4492.7,0.0004522,4574.3,-0.00013423,168.08,-0.00015663,-0.23633,0.28052
5111,5.8354,1.6364,0.1,0.00045595,4556.3,0.00045863,4640,-0.00013595,172.53,-0.00015895,-0.32061,0.2638
5112,5.6519,1.6364,0.1,0.00046266,4623.4,0.00046538,4708.2,-0.00013795,175.04,-0.0001613,-0.44088,0.24738
5113,5.4684,1.6364,0.1,0.00046984,4695.1,0.00047255,4779.7,-0.00014033,174.76,-0.00016367,-0.61743,0.23128
5114,5.285,1.6364,0.1,0.00047761,4772.8,0.00048027,4855.3,-0.00014325,170.4,-0.00016605,-0.8877,0.2155
5115,5.1015,1.6364,0.1,0.00048622,4858.9,0.00048872,4936.2,-0.00014696,159.96,-0.00016842,-1.3315,0.20003
5116,4.918,1.6364,0.1,0.00049602,4956.8,0.00049822,5024.3,-0.0001518,140.33,-0.00017077,-2.1488,0.1849
5117,4.7345,1.6364,0.1,0.00050758,5072.3,0.00050923,5122.7,-0.00015835,106.76,-0.0001731,-4.0516,0.1701
5118,4.551,1.6364,0.1,0.00052182,5214.6,0.00052252,5235.9,-0.00016705,54.639,-0.00017586,-11.524,0.15564
5119,4.3676,1.6364,0.1,0.00054033,5399.6,0.00053932,5370.9,-0.00017369,13.538,-0.00018482,-70.034,0.14152
5120,4.1841,1.6364,0.1,0.00056568,5652.9,0.00056152,5538,-0.00017458,7.1721,-0.00020608,-229.47,0.12775
5121,4.0006,1.6364,0.1,0.00060273,6023.2,0.00059238,5751.4,-0.00017259,3.6617,-0.00024147,-513.86,0.11433
5122,3.8171,1.6364,0.1,0.00065811,6576.6,0.00063528,6021.6,-0.0001641,15.26,-0.00030001,-1005.9,0.10127
5123,3.6336,1.6364,0.1,0.00074862,7481,0.0006974,6336.1,-0.00014625,-2.7769,-0.00040084,-1915.7,0.088539
5124,3.4501,1.6364,0.1,0.00092244,9218,0.00079726,6707.5,-9.7691e-05,-16.872,-0.00060124,-3800.3,0.07611
5125,23.817,1.8182,0.1,1.8114e-05,181.01,9.1959e-06,39.723,3.8847e-06,-0.18272,-1.7108e-05,-157.91,2.8294
5126,23.633,1.8182,0.1,1.9862e-05,198.48,1.2699e-05,78.076,2.2651e-06,-0.31631,-1.7341e-05,-147.63,2.7986
5127,23.45,1.8182,0.1,2.2058e-05,220.43,1.6208e-05,116.45,6.91e-07,-0.1344,-1.7629e-05,-137.78,2.7678
5128,23.266,1.8182,0.1,2.4585e-05,245.68,1.973e-05,154.69,-8.7357e-07,-0.11764,-1.7972e-05,-128.59,2.7369
5129,23.083,1.8182,0.1,2.7357e-05,273.38,2.3264e-05,192.86,-2.4152e-06,-0.086854,-1.8373e-05,-119.98,2.7061
5130,22.899,1.8182,0.1,3.0317e-05,302.96,2.6818e-05,231.02,-3.9385e-06,-0.072163,-1.8832e-05,-111.97,2.6754
5131,22.716,1.8182,0.1,3.3424e-05,334.01,3.0395e-05,269.23,-5.4445e-06,-0.060242,-1.935e-05,-104.54,2.6446
5132,22.532,1.8182,0.1,3.6651e-05,366.25,3.3999e-05,307.52,-6.9357e-06,-0.051755,-1.9925e-05,-97.648,2.6138
5133,22.349,1.8182,0.1,3.9975e-05,399.47,3.7632e-05,345.92,-8.4138e-06,-0.045086,-2.0555e-05,-91.273,2.5831
5134,22.165,1.8182,0.1,4.3382e-05,433.52,4.1294e-05,384.47,-9.8807e-06,-0.039811,-2.1239e-05,-85.379,2.5524
5135,21.982,1.8182,0.1,4.6862e-05,468.29,4.4987e-05,423.17,-1.1338e-05,-0.035516,-2.1972e-05,-79.932,2.5217
5136,21.798,1.8182,0.1,5.0404e-05,503.69,4.871e-05,462.04,-1.2788e-05,-0.031966,-2.2752e-05,-74.898,2.4911
5137,21.615,1.8182,0.1,5.4002e-05,539.65,5.2463e-05,501.08,-1.423e-05,-0.028977,-2.3575e-05,-70.243,2.4605
5138,21.431,1.8182,0.1,5.7652e-05,576.12,5.6246e-05,540.3,-1.5667e-05,-0.026433,-2.444e-05,-65.938,2.4299
5139,21.248,1.8182,0.1,6.1348e-05,613.05,6.0058e-05,579.71,-1.71e-05,-0.024259,-2.5343e-05,-61.955,2.3994
5140,21.064,1.8182,0.1,6.5087e-05,650.42,6.3899e-05,619.32,-1.853e-05,-0.022363,-2.6282e-05,-58.268,2.3689
5141,20.881,1.8182,0.1,6.8866e-05,688.19,6.7768e-05,659.11,-1.9956e-05,-0.020709,-2.7254e-05,-54.854,2.3384
5142,20.697,1.8182,0.1,7.2683e-05,726.33,7.1666e-05,699.1,-2.1381e-05,-0.019252,-2.8258e-05,-51.689,2.308
5143,20.514,1.8182,0.1,7.6536e-05,764.83,7.559e-05,739.28,-2.2805e-05,-0.017951,-2.9291e-05,-48.756,2.2776
5144,20.33,1.8182,0.1,8.0423e-05,803.68,7.9541e-05,779.66,-2.4228e-05,-0.016797,-3.0353e-05,-46.035,2.2473
5145,20.147,1.8182,0.1,8.4343e-05,842.85,8.3518e-05,820.24,-2.5651e-05,-0.015762,-3.144e-05,-43.51,2.2171
5146,19.963,1.8182,0.1,8.8294e-05,882.33,8.7521e-05,861.02,-2.7075e-05,-0.014841,-3.2552e-05,-41.165,2.1868
5147,19.78,1.8182,0.1,9.2275e-05,922.12,9.155e-05,902,-2.85e-05,-0.013991,-3.3687e-05,-38.986,2.1567
5148,19.596,1.8182,0.1,9.6286e-05,962.19,9.5604e-05,943.18,-2.9927e-05,-0.013219,-3.4844e-05,-36.959,2.1266
5149,19.413,1.8182,0.1,0.00010033,1002.6,9.9682e-05,984.55,-3.1356e-05,-0.012529,-3.6022e-05,-35.074,2.0966
5150,19.229,1.8182,0.1,0.00010439,1043.2,0.00010378,1026.1,-3.2787e-05,-0.011885,-3.7219e-05,-33.317,2.0666
5151,19.046,1.8182,0.1,0.00010849,1084.1,0.00010791,1067.9,-3.422e-05,-0.011298,-3.8435e-05,-31.68,2.0368
5152,18.863,1.8182,0.1,0.00011261,1125.3,0.00011206,1109.9,-3.5657e-05,-0.010757,-3.9669e-05,-30.152,2.007
5153,18.679,1.8182,0.1,0.00011675,1166.7,0.00011624,1152.1,-3.7097e-05,-0.010246,-4.0919e-05,-28.723,1.9772
5154,18.496,1.8182,0.1,0.00012092,1208.4,0.00012043,1194.5,-3.8541e-05,-0.0097795,-4.2185e-05,-27.387,1.9476
5155,18.312,1.8182,0.1,0.00012512,1250.3,0.00012465,1237,-3.9989e-05,-0.0093517,-4.3465e-05,-26.133,1.918
5156,18.129,1.8182,0.1,0.00012934,1292.5,0.0001289,1279.8,-4.144e-05,-0.0089628,-4.4761e-05,-24.956,1.8885
5157,17.945,1.8182,0.1,0.00013358,1334.9,0.00013316,1322.8,-4.2896e-05,-0.0085805,-4.6069e-05,-23.848,1.8591
5158,17.762,1.8182,0.1,0.00013785,1377.5,0.00013745,1366,-4.4357e-05,-0.0082225,-4.7391e-05,-22.803,1.8298
5159,17.578,1.8182,0.1,0.00014214,1420.4,0.00014176,1409.4,-4.5822e-05,-0.0079083,-4.8724e-05,-21.814,1.8005
5160,17.395,1.8182,0.1,0.00014645,1463.5,0.00014609,1453,-4.7292e-05,-0.0075963,-5.007e-05,-20.875,1.7714
5161,17.211,1.8182,0.1,0.00015079,1506.8,0.00015044,1496.8,-4.8768e-05,-0.0073045,-5.1426e-05,-19.981,1.7424
5162,17.028,1.8182,0.1,0.00015515,1550.4,0.00015481,1540.7,-5.0248e-05,-0.0070311,-5.2793e-05,-19.127,1.7135
5163,16.844,1.8182,0.1,0.00015953,1594.2,0.00015921,1584.9,-5.1735e-05,-0.0067555,-5.417e-05,-18.307,1.6846
5164,16.661,1.8182,0.1,0.00016393,1638.1,0.00016362,1629.3,-5.3226e-05,-0.0065025,-5.5557e-05,-17.516,1.6559
5165,16.477,1.8182,0.1,0.00016835,1682.3,0.00016806,1673.9,-5.4724e-05,-0.0062696,-5.6952e-05,-16.751,1.6273
5166,16.294,1.8182,0.1,0.00017279,1726.7,0.00017251,1718.7,-5.6227e-05,-0.0060575,-5.8356e-05,-16.005,1.5988
5167,16.11,1.8182,0.1,0.00017725,1771.3,0.00017699,1763.6,-5.7736e-05,-0.0058279,-5.9769e-05,-15.275,1.5704
5168,15.927,1.8182,0.1,0.00018174,1816.1,0.00018149,1808.8,-5.9252e-05,-0.0056045,-6.1188e-05,-14.557,1.5422
5169,15.743,1.8182,0.1,0.00018624,1861.1,0.000186,1854.2,-6.0774e-05,-0.0054146,-6.2616e-05,-13.846,1.514
5170,15.56,1.8182,0.1,0.00019077,1906.4,0.00019054,1899.8,-6.2302e-05,-0.0052044,-6.405e-05,-13.137,1.486
5171,15.376,1.8182,0.1,0.00019531,1951.8,0.0001951,1945.5,-6.3837e-05,-0.0050015,-6.549e-05,-12.426,1.4581
5172,15.193,1.8182,0.1,0.00019987,1997.4,0.00019967,1991.5,-6.5378e-05,-0.0048015,-6.6936e-05,-11.71,1.4304
5173,15.009,1.8182,0.1,0.00020446,2043.2,0.00020427,2037.6,-6.6926e-05,-0.004577,-6.8387e-05,-10.984,1.4027
5174,14.826,1.8182,0.1,0.00020906,2089.1,0.00020888,2084,-6.8481e-05,-0.0043569,-6.9844e-05,-10.243,1.3753
5175,14.642,1.8182,0.1,0.00021368,2135.3,0.00021351,2130.5,-7.0044e-05,-0.0041354,-7.1305e-05,-9.4828,1.3479
5176,14.459,1.8182,0.1,0.00021832,2181.6,0.00021817,2177.3,-7.1613e-05,-0.0039124,-7.277e-05,-8.699,1.3207
5177,14.276,1.8182,0.1,0.00022297,2228.2,0.00022284,2224.2,-7.319e-05,-0.0036297,-7.4239e-05,-7.8865,1.2937
5178,14.092,1.8182,0.1,0.00022765,2274.9,0.00022752,2271.4,-7.4774e-05,-0.003305,-7.5711e-05,-7.0404,1.2668
5179,13.909,1.8182,0.1,0.00023234,2321.8,0.00023223,2318.7,-7.6366e-05,-0.0029522,-7.7185e-05,-6.1558,1.24
5180,13.725,1.8182,0.1,0.00023704,2368.8,0.00023696,2366.2,-7.7966e-05,-0.002455,-7.8661e-05,-5.227,1.2134
5181,13.542,1.8182,0.1,0.00024177,2416,0.0002417,2413.9,-7.9574e-05,-0.0017663,-8.0139e-05,-4.2485,1.187
5182,13.358,1.8182,0.1,0.00024651,2463.4,0.00024646,2461.8,-8.119e-05,-0.00065757,-8.1617e-05,-3.2145,1.1607
5183,13.175,1.8182,0.1,0.00025127,2511,0.00025123,2509.9,-8.2814e-05,0.0016279,-8.3096e-05,-2.1193,1.1346
5184,12.991,1.8182,0.1,0.00025604,2558.7,0.00025603,2558.2,-8.4446e-05,0.0093982,-8.4575e-05,-0.96058,1.1087
5185,12.808,1.8182,0.1,0.00026083,2606.5,0.00026084,2606.7,-8.6044e-05,0.33556,-8.6095e-05,-0.044037,1.0829
5186,12.624,1.8182,0.1,0.00026564,2654.5,0.00026566,2655.3,-8.7523e-05,1.6309,-8.7741e-05,-0.012667,1.0573
5187,12.441,1.8182,0.1,0.00027045,2702.7,0.0002705,2704.2,-8.8995e-05,3.0456,-8.9401e-05,-0.0087685,1.0319
5188,12.257,1.8182,0.1,0.00027528,2750.9,0.00027536,2753.2,-9.0462e-05,4.5634,-9.1071e-05,-0.0072293,1.0067
5189,12.074,1.8182,0.1,0.00028013,2799.4,0.00028023,2802.5,-9.1925e-05,6.1918,-9.275e-05,-0.0064014,0.98163
5190,11.89,1.8182,0.1,0.00028499,2847.9,0.00028512,2851.9,-9.3382e-05,7.9404,-9.444e-05,-0.0058396,0.95677
5191,11.707,1.8182,0.1,0.00028986,2896.6,0.00029002,2901.5,-9.4832e-05,9.8195,-9.614e-05,-0.0054413,0.93211
5192,11.523,1.8182,0.1,0.00029474,2945.4,0.00029494,2951.3,-9.6274e-05,11.84,-9.7851e-05,-0.0051441,0.90764
5193,11.34,1.8182,0.1,0.00029963,2994.3,0.00029987,3001.2,-9.7707e-05,14.015,-9.9573e-05,-0.0048685,0.88337
5194,11.156,1.8182,0.1,0.00030454,3043.3,0.00030481,3051.4,-9.9129e-05,16.356,-0.00010131,-0.0046874,0.8593
5195,10.973,1.8182,0.1,0.00030945,3092.4,0.00030977,3101.8,-0.00010054,18.878,-0.00010305,-0.0045386,0.83544
5196,10.789,1.8182,0.1,0.00031437,3141.6,0.00031473,3152.3,-0.00010194,21.595,-0.00010481,-0.0043755,0.81179
5197,10.606,1.8182,0.1,0.0003193,3190.8,0.00031971,3203,-0.00010332,24.522,-0.00010658,-0.004261,0.78834
5198,10.422,1.8182,0.1,0.00032424,3240.2,0.0003247,3253.9,-0.00010468,27.676,-0.00010837,-0.0041917,0.76512
5199,10.239,1.8182,0.1,0.00032919,3289.6,0.0003297,3305,-0.00010603,31.073,-0.00011017,-0.0041699,0.74211
5200,10.055,1.8182,0.1,0.00033414,3339.1,0.00033472,3356.3,-0.00010736,34.734,-0.00011198,-0.0041518,0.71932
5201,9.872,1.8182,0.1,0.0003391,3388.6,0.00033974,3407.8,-0.00010866,38.675,-0.00011381,-0.004174,0.69676
5202,9.6885,1.8182,0.1,0.00034406,3438.2,0.00034477,3459.5,-0.00010995,42.918,-0.00011566,-0.0042614,0.67442
5203,9.505,1.8182,0.1,0.00034903,3487.9,0.00034981,3511.4,-0.0001112,47.483,-0.00011752,-0.0044094,0.65232
5204,9.3215,1.8182,0.1,0.000354,3537.6,0.00035487,3563.5,-0.00011243,52.391,-0.00011941,-0.0046433,0.63046
5205,9.1381,1.8182,0.1,0.00035898,3587.4,0.00035993,3615.8,-0.00011363,57.664,-0.00012131,-0.0049844,0.60883
5206,8.9546,1.8182,0.1,0.00036397,3637.2,0.000365,3668.4,-0.0001148,63.323,-0.00012323,-0.0054644,0.58745
5207,8.7711,1.8182,0.1,0.00036896,3687.1,0.00037009,3721.3,-0.00011594,69.39,-0.00012518,-0.0061226,0.56631
5208,8.5876,1.8182,0.1,0.00037397,3737.1,0.0003752,3774.4,-0.00011705,75.884,-0.00012715,-0.0070127,0.54542
5209,8.4041,1.8182,0.1,0.00037898,3787.2,0.00038032,3827.9,-0.00011812,82.826,-0.00012914,-0.0082035,0.52478
5210,8.2206,1.8182,0.1,0.00038401,3837.5,0.00038547,3881.8,-0.00011916,90.231,-0.00013117,-0.009787,0.5044
5211,8.0372,1.8182,0.1,0.00038907,3888,0.00039064,3936.1,-0.00012016,98.114,-0.00013322,-0.011883,0.48428
5212,7.8537,1.8182,0.1,0.00039415,3938.8,0.00039585,3990.9,-0.00012113,106.48,-0.00013531,-0.014652,0.46442
5213,7.6702,1.8182,0.1,0.00039927,3989.9,0.0004011,4046.3,-0.00012208,115.34,-0.00013743,-0.018303,0.44483
5214,7.4867,1.8182,0.1,0.00040444,4041.6,0.00040641,4102.5,-0.000123,124.69,-0.0001396,-0.02312,0.4255
5215,7.3032,1.8182,0.1,0.00040967,4093.9,0.0004118,4159.5,-0.0001239,134.51,-0.0001418,-0.029478,0.40646
5216,7.1198,1.8182,0.1,0.000415,4147.1,0.00041727,4217.6,-0.00012479,144.77,-0.00014406,-0.037883,0.38768
5217,6.9363,1.8182,0.1,0.00042043,4201.4,0.00042286,4277,-0.00012568,155.43,-0.00014638,-0.049017,0.36919
5218,6.7528,1.8182,0.1,0.00042602,4257.2,0.0004286,4338,-0.0001266,166.41,-0.00014875,-0.063804,0.35099
5219,6.5693,1.8182,0.1,0.00043179,4314.9,0.00043453,4400.9,-0.00012755,177.63,-0.00015121,-0.083506,0.33307
5220,6.3858,1.8182,0.1,0.0004378,4375,0.00044071,4466.4,-0.00012858,188.94,-0.00015374,-0.10986,0.31545
5221,6.2024,1.8182,0.1,0.00044413,4438.2,0.00044719,4534.8,-0.00012972,200.15,-0.00015638,-0.14527,0.29812
5222,6.0189,1.8182,0.1,0.00045085,4505.4,0.00045406,4607,-0.00013102,210.99,-0.00015912,-0.19314,0.2811
5223,5.8354,1.8182,0.1,0.00045808,4577.6,0.00046143,4684,-0.00013255,221.06,-0.000162,-0.25841,0.26438
5224,5.6519,1.8182,0.1,0.00046596,4656.4,0.00046944,4766.9,-0.00013441,229.82,-0.00016504,-0.34841,0.24797
5225,5.4684,1.8182,0.1,0.0004747,4743.7,0.00047827,4857.3,-0.00013672,236.44,-0.00016826,-0.47472,0.23187
5226,5.285,1.8182,0.1,0.00048455,4842.2,0.00048817,4957.2,-0.00013969,239.69,-0.00017168,-0.65648,0.2161
5227,5.1015,1.8182,0.1,0.0004959,4955.6,0.0004995,5069.7,-0.0001436,237.67,-0.00017536,-0.93038,0.20066
5228,4.918,1.8182,0.1,0.0005093,5089.5,0.00051276,5198.6,-0.00014887,227.4,-0.00017932,-1.3682,0.18555
5229,4.7345,1.8182,0.1,0.00052556,5252,0.00052869,5349.9,-0.00015617,204.17,-0.00018363,-2.1729,0.17079
5230,4.551,1.8182,0.1,0.00054598,5456,0.00054845,5532.4,-0.0001665,160.54,-0.00018839,-3.9497,0.15637
5231,4.3676,1.8182,0.1,0.00057264,5722.5,0.00057387,5759.8,-0.00018115,86.86,-0.00019417,-10.908,0.14232
5232,4.1841,1.8182,0.1,0.00060904,6086.1,0.0006079,6053.9,-0.00019541,18.139,-0.00020867,-81.483,0.12865
5233,4.0006,1.8182,0.1,0.00066158,6611.3,0.00065573,6450.9,-0.00020185,7.3068,-0.00024491,-316.22,0.11536
5234,3.8171,1.8182,0.1,0.0007422,7416.8,0.00072657,7015.1,-0.00020564,10.915,-0.00030756,-754.93,0.10248
5235,3.6336,1.8182,0.1,0.00089155,8909.3,0.00084833,7891.5,-0.00020361,-12.419,-0.00043664,-1763.3,0.090009
5236,3.4501,1.8182,0.1,0.0012413,12404,0.0011095,9739.5,-0.00016029,199.07,-0.00075674,-4282.5,0.077957
5237,23.817,2,0.1,1.869e-05,186.77,9.3872e-06,39.688,4.0793e-06,-0.19283,-1.7696e-05,-163.8,2.8295
5238,23.633,2,0.1,2.0423e-05,204.09,1.2905e-05,78.199,2.4541e-06,-0.32144,-1.7931e-05,-153.49,2.7987
5239,23.45,2,0.1,2.2595e-05,225.8,1.6425e-05,116.72,8.7249e-07,-0.13803,-1.8216e-05,-143.56,2.7678
5240,23.266,2,0.1,2.5095e-05,250.77,1.9956e-05,155.09,-7.0095e-07,-0.12085,-1.8549e-05,-134.23,2.737
5241,23.083,2,0.1,2.7838e-05,278.19,2.3496e-05,193.37,-2.2522e-06,-0.089742,-1.8935e-05,-125.44,2.7062
5242,22.899,2,0.1,3.0768e-05,307.47,2.705e-05,231.61,-3.7855e-06,-0.074857,-1.9375e-05,-117.21,2.6754
5243,22.716,2,0.1,3.3845e-05,338.22,3.0624e-05,269.87,-5.3016e-06,-0.062806,-1.9869e-05,-109.52,2.6447
5244,22.532,2,0.1,3.704e-05,370.15,3.4222e-05,308.18,-6.8025e-06,-0.054223,-2.0418e-05,-102.35,2.6139
5245,22.349,2,0.1,4.0334e-05,403.06,3.7844e-05,346.59,-8.2901e-06,-0.047478,-2.1019e-05,-95.691,2.5832
5246,22.165,2,0.1,4.3711e-05,436.81,4.1495e-05,385.11,-9.7659e-06,-0.042138,-2.1673e-05,-89.504,2.5525
5247,21.982,2,0.1,4.7161e-05,471.28,4.5174e-05,423.77,-1.1232e-05,-0.03778,-2.2375e-05,-83.763,2.5218
5248,21.798,2,0.1,5.0675e-05,506.4,4.8882e-05,462.58,-1.2689e-05,-0.034167,-2.3124e-05,-78.441,2.4912
5249,21.615,2,0.1,5.4246e-05,542.08,5.262e-05,501.57,-1.4139e-05,-0.031121,-2.3918e-05,-73.508,2.4606
5250,21.431,2,0.1,5.787e-05,578.3,5.6387e-05,540.73,-1.5583e-05,-0.028517,-2.4754e-05,-68.937,2.43
5251,21.248,2,0.1,6.1542e-05,614.99,6.0185e-05,580.07,-1.7022e-05,-0.026281,-2.5629e-05,-64.702,2.3995
5252,21.064,2,0.1,6.5258e-05,652.13,6.4011e-05,619.6,-1.8456e-05,-0.024329,-2.6542e-05,-60.777,2.369
5253,20.881,2,0.1,6.9016e-05,689.69,6.7866e-05,659.33,-1.9888e-05,-0.022614,-2.749e-05,-57.141,2.3385
5254,20.697,2,0.1,7.2814e-05,727.64,7.175e-05,699.25,-2.1318e-05,-0.021101,-2.8471e-05,-53.77,2.3081
5255,20.514,2,0.1,7.6649e-05,765.96,7.5662e-05,739.37,-2.2746e-05,-0.019747,-2.9484e-05,-50.645,2.2777
5256,20.33,2,0.1,8.052e-05,804.64,7.9601e-05,779.7,-2.4173e-05,-0.018537,-3.0525e-05,-47.746,2.2474
5257,20.147,2,0.1,8.4424e-05,843.66,8.3567e-05,820.22,-2.56e-05,-0.017453,-3.1594e-05,-45.057,2.2172
5258,19.963,2,0.1,8.8362e-05,883.01,8.756e-05,860.95,-2.7027e-05,-0.016483,-3.2689e-05,-42.561,2.187
5259,19.78,2,0.1,9.2331e-05,922.67,9.158e-05,901.88,-2.8455e-05,-0.015587,-3.3809e-05,-40.243,2.1568
5260,19.596,2,0.1,9.633e-05,962.63,9.5625e-05,943.02,-2.9885e-05,-0.014773,-3.4952e-05,-38.09,2.1268
5261,19.413,2,0.1,0.00010036,1002.9,9.9696e-05,984.35,-3.1316e-05,-0.014041,-3.6117e-05,-36.087,2.0967
5262,19.229,2,0.1,0.00010442,1043.4,0.00010379,1025.9,-3.2749e-05,-0.013359,-3.7302e-05,-34.223,2.0668
5263,19.046,2,0.1,0.0001085,1084.3,0.00010791,1067.6,-3.4185e-05,-0.012732,-3.8507e-05,-32.487,2.0369
5264,18.863,2,0.1,0.00011261,1125.4,0.00011206,1109.6,-3.5624e-05,-0.012159,-3.9731e-05,-30.869,2.0071
5265,18.679,2,0.1,0.00011675,1166.7,0.00011622,1151.8,-3.7066e-05,-0.011613,-4.0971e-05,-29.357,1.9774
5266,18.496,2,0.1,0.00012092,1208.3,0.00012042,1194.1,-3.8511e-05,-0.011115,-4.2229e-05,-27.944,1.9477
5267,18.312,2,0.1,0.00012511,1250.2,0.00012463,1236.7,-3.996e-05,-0.010656,-4.3502e-05,-26.621,1.9182
5268,18.129,2,0.1,0.00012932,1292.3,0.00012887,1279.4,-4.1414e-05,-0.010239,-4.479e-05,-25.379,1.8887
5269,17.945,2,0.1,0.00013356,1334.7,0.00013313,1322.4,-4.2871e-05,-0.0098299,-4.6092e-05,-24.211,1.8593
5270,17.762,2,0.1,0.00013782,1377.3,0.00013742,1365.6,-4.4333e-05,-0.0094459,-4.7407e-05,-23.11,1.83
5271,17.578,2,0.1,0.00014211,1420.1,0.00014172,1408.9,-4.5799e-05,-0.0091085,-4.8736e-05,-22.07,1.8007
5272,17.395,2,0.1,0.00014642,1463.2,0.00014605,1452.5,-4.7271e-05,-0.0087726,-5.0076e-05,-21.084,1.7716
5273,17.211,2,0.1,0.00015075,1506.5,0.0001504,1496.3,-4.8747e-05,-0.0084595,-5.1427e-05,-20.145,1.7426
5274,17.028,2,0.1,0.00015511,1550,0.00015477,1540.3,-5.0229e-05,-0.008166,-5.279e-05,-19.249,1.7137
5275,16.844,2,0.1,0.00015948,1593.7,0.00015916,1584.4,-5.1716e-05,-0.0078703,-5.4162e-05,-18.389,1.6848
5276,16.661,2,0.1,0.00016388,1637.7,0.00016357,1628.8,-5.3209e-05,-0.0075981,-5.5545e-05,-17.561,1.6561
5277,16.477,2,0.1,0.0001683,1681.8,0.00016801,1673.4,-5.4707e-05,-0.0073467,-5.6937e-05,-16.76,1.6275
5278,16.294,2,0.1,0.00017274,1726.2,0.00017246,1718.2,-5.6211e-05,-0.0071172,-5.8337e-05,-15.98,1.599
5279,16.11,2,0.1,0.0001772,1770.8,0.00017694,1763.1,-5.7722e-05,-0.0068702,-5.9746e-05,-15.217,1.5707
5280,15.927,2,0.1,0.00018168,1815.6,0.00018143,1808.3,-5.9238e-05,-0.0066336,-6.1162e-05,-14.466,1.5424
5281,15.743,2,0.1,0.00018618,1860.6,0.00018595,1853.7,-6.076e-05,-0.0064307,-6.2586e-05,-13.722,1.5143
5282,15.56,2,0.1,0.00019071,1905.7,0.00019048,1899.2,-6.229e-05,-0.0062079,-6.4016e-05,-12.982,1.4863
5283,15.376,2,0.1,0.00019525,1951.1,0.00019504,1945,-6.3825e-05,-0.0059925,-6.5453e-05,-12.239,1.4584
5284,15.193,2,0.1,0.00019981,1996.7,0.00019961,1990.9,-6.5367e-05,-0.0057828,-6.6896e-05,-11.491,1.4306
5285,15.009,2,0.1,0.00020439,2042.5,0.0002042,2037.1,-6.6917e-05,-0.0055483,-6.8344e-05,-10.732,1.403
5286,14.826,2,0.1,0.00020899,2088.4,0.00020882,2083.4,-6.8473e-05,-0.0053212,-6.9797e-05,-9.9569,1.3755
5287,14.642,2,0.1,0.0002136,2134.6,0.00021345,2130,-7.0036e-05,-0.0050936,-7.1254e-05,-9.1618,1.3482
5288,14.459,2,0.1,0.00021824,2180.9,0.0002181,2176.7,-7.1606e-05,-0.004866,-7.2716e-05,-8.3415,1.321
5289,14.276,2,0.1,0.00022289,2227.4,0.00022277,2223.6,-7.3184e-05,-0.0045799,-7.418e-05,-7.4908,1.294
5290,14.092,2,0.1,0.00022756,2274.1,0.00022745,2270.8,-7.4769e-05,-0.0042541,-7.5648e-05,-6.6044,1.2671
5291,13.909,2,0.1,0.00023225,2320.9,0.00023216,2318.1,-7.6362e-05,-0.0038974,-7.7117e-05,-5.677,1.2403
5292,13.725,2,0.1,0.00023696,2367.9,0.00023688,2365.6,-7.7963e-05,-0.0033921,-7.8589e-05,-4.7026,1.2137
5293,13.542,2,0.1,0.00024168,2415.1,0.00024162,2413.3,-7.9572e-05,-0.0026581,-8.0061e-05,-3.6754,1.1873
5294,13.358,2,0.1,0.00024642,2462.5,0.00024637,2461.2,-8.1189e-05,-0.0013688,-8.1534e-05,-2.5893,1.161
5295,13.175,2,0.1,0.00025117,2510,0.00025115,2509.3,-8.2815e-05,0.0019696,-8.3007e-05,-1.4387,1.1349
5296,12.991,2,0.1,0.00025594,2557.6,0.00025594,2557.5,-8.4445e-05,0.037442,-8.4482e-05,-0.24686,1.109
5297,12.808,2,0.1,0.00026072,2605.4,0.00026074,2606,-8.5945e-05,1.1134,-8.6095e-05,-0.014199,1.0832
5298,12.624,2,0.1,0.00026552,2653.4,0.00026556,2654.6,-8.7412e-05,2.5064,-8.7747e-05,-0.0089595,1.0577
5299,12.441,2,0.1,0.00027033,2701.5,0.0002704,2703.5,-8.8875e-05,4.0013,-8.9409e-05,-0.0073102,1.0323
5300,12.257,2,0.1,0.00027516,2749.7,0.00027525,2752.5,-9.0333e-05,5.6046,-9.108e-05,-0.0064703,1.007
5301,12.074,2,0.1,0.00028,2798,0.00028012,2801.7,-9.1786e-05,7.3259,-9.2762e-05,-0.0059503,0.98199
5302,11.89,2,0.1,0.00028485,2846.5,0.000285,2851.1,-9.3232e-05,9.176,-9.4454e-05,-0.0055483,0.95714
5303,11.707,2,0.1,0.00028971,2895.1,0.0002899,2900.6,-9.467e-05,11.166,-9.6157e-05,-0.0052366,0.93248
5304,11.523,2,0.1,0.00029458,2943.8,0.0002948,2950.4,-9.6098e-05,13.309,-9.787e-05,-0.0049842,0.90802
5305,11.34,2,0.1,0.00029946,2992.6,0.00029973,3000.3,-9.7516e-05,15.619,-9.9596e-05,-0.0047265,0.88376
5306,11.156,2,0.1,0.00030436,3041.5,0.00030466,3050.5,-9.8923e-05,18.108,-0.00010133,-0.0045433,0.85969
5307,10.973,2,0.1,0.00030926,3090.4,0.0003096,3100.8,-0.00010032,20.793,-0.00010308,-0.0043795,0.83584
5308,10.789,2,0.1,0.00031416,3139.5,0.00031456,3151.3,-0.00010169,23.692,-0.00010485,-0.0041863,0.81219
5309,10.606,2,0.1,0.00031908,3188.6,0.00031953,3201.9,-0.00010305,26.82,-0.00010662,-0.0040305,0.78875
5310,10.422,2,0.1,0.000324,3237.8,0.00032451,3252.8,-0.00010439,30.198,-0.00010841,-0.0039084,0.76553
5311,10.239,2,0.1,0.00032893,3287,0.00032949,3303.8,-0.00010571,33.846,-0.00011022,-0.0038218,0.74252
5312,10.055,2,0.1,0.00033386,3336.3,0.00033449,3355.1,-0.00010701,37.786,-0.00011204,-0.0037253,0.71974
5313,9.872,2,0.1,0.0003388,3385.7,0.0003395,3406.5,-0.00010828,42.042,-0.00011388,-0.0036548,0.69718
5314,9.6885,2,0.1,0.00034374,3435,0.00034451,3458.1,-0.00010953,46.638,-0.00011574,-0.0036331,0.67486
5315,9.505,2,0.1,0.00034869,3484.5,0.00034953,3510,-0.00011074,51.602,-0.00011761,-0.0036517,0.65276
5316,9.3215,2,0.1,0.00035363,3533.9,0.00035457,3562,-0.00011193,56.961,-0.00011951,-0.0037351,0.6309
5317,9.1381,2,0.1,0.00035859,3583.4,0.00035961,3614.3,-0.00011308,62.746,-0.00012143,-0.0038985,0.60927
5318,8.9546,2,0.1,0.00036354,3632.9,0.00036467,3666.9,-0.00011419,68.988,-0.00012337,-0.0041688,0.58789
5319,8.7711,2,0.1,0.00036851,3682.5,0.00036973,3719.8,-0.00011526,75.719,-0.00012534,-0.0045791,0.56676
5320,8.5876,2,0.1,0.00037348,3732.2,0.00037482,3773,-0.00011629,82.973,-0.00012733,-0.0051742,0.54587
5321,8.4041,2,0.1,0.00037846,3782,0.00037992,3826.6,-0.00011728,90.786,-0.00012936,-0.006013,0.52524
5322,8.2206,2,0.1,0.00038346,3832,0.00038505,3880.6,-0.00011822,99.19,-0.00013142,-0.0071724,0.50486
5323,8.0372,2,0.1,0.00038849,3882.2,0.00039021,3935.1,-0.00011912,108.22,-0.00013352,-0.0087555,0.48474
5324,7.8537,2,0.1,0.00039354,3932.7,0.00039542,3990.3,-0.00011997,117.91,-0.00013567,-0.010897,0.46489
5325,7.6702,2,0.1,0.00039865,3983.7,0.00040067,4046.3,-0.00012078,128.29,-0.00013786,-0.013776,0.4453
5326,7.4867,2,0.1,0.00040381,4035.4,0.000406,4103.2,-0.00012155,139.39,-0.00014011,-0.017629,0.42598
5327,7.3032,2,0.1,0.00040906,4087.8,0.00041143,4161.3,-0.00012228,151.23,-0.00014241,-0.022773,0.40693
5328,7.1198,2,0.1,0.00041443,4141.4,0.00041697,4220.9,-0.00012299,163.8,-0.0001448,-0.029627,0.38816
5329,6.9363,2,0.1,0.00041994,4196.5,0.00042267,4282.3,-0.00012369,177.12,-0.00014727,-0.038751,0.36967
5330,6.7528,2,0.1,0.00042565,4253.6,0.00042858,4345.9,-0.00012438,191.15,-0.00014983,-0.050893,0.35147
5331,6.5693,2,0.1,0.00043162,4313.2,0.00043475,4412.4,-0.00012511,205.84,-0.00015251,-0.067057,0.33355
5332,6.3858,2,0.1,0.00043792,4376.2,0.00044126,4482.5,-0.0001259,221.1,-0.00015534,-0.088594,0.31593
5333,6.2024,2,0.1,0.00044466,4443.6,0.00044822,4557.2,-0.00012679,236.78,-0.00015832,-0.11733,0.2986
5334,6.0189,2,0.1,0.00045197,4516.6,0.00045573,4637.5,-0.00012785,252.66,-0.0001615,-0.15577,0.28158
5335,5.8354,2,0.1,0.00046,4596.8,0.00046397,4725,-0.00012917,268.38,-0.00016492,-0.20736,0.26486
5336,5.6519,2,0.1,0.00046898,4686.6,0.00047316,4821.7,-0.00013086,283.43,-0.00016861,-0.27696,0.24846
5337,5.4684,2,0.1,0.0004792,4788.7,0.00048355,4930.1,-0.00013307,297.07,-0.00017265,-0.37181,0.23237
5338,5.285,2,0.1,0.00049102,4906.9,0.00049553,5053.4,-0.00013602,308.14,-0.0001771,-0.50245,0.21661
5339,5.1015,2,0.1,0.00050498,5046.3,0.00050959,5196.1,-0.00014005,314.94,-0.00018206,-0.68867,0.20119
5340,4.918,2,0.1,0.00052181,5214.5,0.00052643,5364.2,-0.0001456,314.84,-0.00018763,-0.957,0.1861
5341,4.7345,2,0.1,0.00054255,5421.8,0.00054705,5566.5,-0.00015337,303.81,-0.000194,-1.4027,0.17137
5342,4.551,2,0.1,0.00056881,5684.2,0.00057296,5815.9,-0.0001644,275.64,-0.00020137,-2.093,0.15701
5343,4.3676,2,0.1,0.00060314,6027.2,0.00060651,6132.3,-0.00018031,220.46,-0.00021019,-3.9981,0.14302
5344,4.1841,2,0.1,0.00064963,6491.8,0.0006515,6548.9,-0.00020347,124.97,-0.00022126,-8.717,0.12944
5345,4.0006,2,0.1,0.00071637,7158.8,0.00071519,7125.1,-0.00023077,17.513,-0.00024425,-83.756,0.11627
5346,3.8171,2,0.1,0.00081797,8174,0.00081121,7989.9,-0.00024897,24.096,-0.00030243,-377.64,0.10356
5347,3.6336,2,0.1,0.00099622,9955.3,0.00097491,9385.8,-0.00028759,-100.17,-0.00040475,-980.49,0.091336
5348,3.4501,2,0.1,0.0015003,14993,0.001434,13664,-0.00028238,768.11,-0.00075539,-2786,0.079674
5349,23.817,2.1818,0.1,1.9162e-05,191.49,9.5432e-06,39.653,4.239e-06,-0.2008,-1.8177e-05,-168.63,2.8296
5350,23.633,2.1818,0.1,2.0884e-05,208.69,1.3072e-05,78.287,2.6096e-06,-0.3254,-1.8415e-05,-158.3,2.7987
5351,23.45,2.1818,0.1,2.3037e-05,230.21,1.6602e-05,116.92,1.0221e-06,-0.1408,-1.8697e-05,-148.3,2.7679
5352,23.266,2.1818,0.1,2.5515e-05,254.98,2.014e-05,155.4,-5.5823e-07,-0.12328,-1.9024e-05,-138.87,2.7371
5353,23.083,2.1818,0.1,2.8236e-05,282.16,2.3685e-05,193.77,-2.117e-06,-0.091927,-1.9399e-05,-129.94,2.7063
5354,22.899,2.1818,0.1,3.1143e-05,311.21,2.7241e-05,232.09,-3.6582e-06,-0.076899,-1.9824e-05,-121.54,2.6755
5355,22.716,2.1818,0.1,3.4196e-05,341.72,3.0814e-05,270.39,-5.1823e-06,-0.064742,-2.0301e-05,-113.66,2.6447
5356,22.532,2.1818,0.1,3.7367e-05,373.41,3.4406e-05,308.74,-6.6911e-06,-0.056087,-2.0829e-05,-106.28,2.614
5357,22.349,2.1818,0.1,4.0637e-05,406.09,3.8022e-05,347.14,-8.1863e-06,-0.049288,-2.1408e-05,-99.394,2.5833
5358,22.165,2.1818,0.1,4.399e-05,439.59,4.1664e-05,385.65,-9.6695e-06,-0.043899,-2.2038e-05,-92.973,2.5526
5359,21.982,2.1818,0.1,4.7416e-05,473.83,4.5332e-05,424.29,-1.1142e-05,-0.039504,-2.2715e-05,-86.996,2.5219
5360,21.798,2.1818,0.1,5.0906e-05,508.71,4.9029e-05,463.06,-1.2606e-05,-0.035855,-2.344e-05,-81.44,2.4913
5361,21.615,2.1818,0.1,5.4455e-05,544.18,5.2755e-05,502,-1.4062e-05,-0.032768,-2.421e-05,-76.279,2.4606
5362,21.431,2.1818,0.1,5.8058e-05,580.18,5.651e-05,541.11,-1.5511e-05,-0.030128,-2.5022e-05,-71.488,2.4301
5363,21.248,2.1818,0.1,6.171e-05,616.67,6.0295e-05,580.4,-1.6955e-05,-0.027852,-2.5874e-05,-67.043,2.3995
5364,21.064,2.1818,0.1,6.5407e-05,653.62,6.4109e-05,619.87,-1.8395e-05,-0.02586,-2.6766e-05,-62.92,2.3691
5365,20.881,2.1818,0.1,6.9148e-05,691,6.7952e-05,659.54,-1.9831e-05,-0.024107,-2.7693e-05,-59.097,2.3386
5366,20.697,2.1818,0.1,7.2929e-05,728.79,7.1825e-05,699.41,-2.1264e-05,-0.022554,-2.8655e-05,-55.552,2.3082
5367,20.514,2.1818,0.1,7.6749e-05,766.96,7.5726e-05,739.48,-2.2696e-05,-0.02116,-2.9649e-05,-52.264,2.2778
5368,20.33,2.1818,0.1,8.0606e-05,805.5,7.9655e-05,779.75,-2.4126e-05,-0.019917,-3.0674e-05,-49.215,2.2475
5369,20.147,2.1818,0.1,8.4497e-05,844.39,8.3612e-05,820.23,-2.5556e-05,-0.018796,-3.1728e-05,-46.387,2.2173
5370,19.963,2.1818,0.1,8.8423e-05,883.62,8.7597e-05,860.92,-2.6986e-05,-0.01779,-3.2808e-05,-43.762,2.1871
5371,19.78,2.1818,0.1,9.2381e-05,923.17,9.1608e-05,901.81,-2.8417e-05,-0.016862,-3.3915e-05,-41.326,2.157
5372,19.596,2.1818,0.1,9.637e-05,963.04,9.5646e-05,942.9,-2.9849e-05,-0.016013,-3.5046e-05,-39.064,2.1269
5373,19.413,2.1818,0.1,0.00010039,1003.2,9.971e-05,984.21,-3.1282e-05,-0.015253,-3.6199e-05,-36.961,2.0969
5374,19.229,2.1818,0.1,0.00010444,1043.7,0.0001038,1025.7,-3.2718e-05,-0.014541,-3.7375e-05,-35.005,2.0669
5375,19.046,2.1818,0.1,0.00010852,1084.4,0.00010791,1067.4,-3.4155e-05,-0.013889,-3.857e-05,-33.185,2.037
5376,18.863,2.1818,0.1,0.00011262,1125.4,0.00011205,1109.4,-3.5596e-05,-0.013288,-3.9785e-05,-31.489,2.0072
5377,18.679,2.1818,0.1,0.00011675,1166.7,0.00011622,1151.5,-3.7039e-05,-0.012719,-4.1018e-05,-29.906,1.9775
5378,18.496,2.1818,0.1,0.00012091,1208.3,0.0001204,1193.8,-3.8486e-05,-0.012197,-4.2268e-05,-28.428,1.9479
5379,18.312,2.1818,0.1,0.0001251,1250.1,0.00012462,1236.4,-3.9937e-05,-0.011717,-4.3534e-05,-27.044,1.9183
5380,18.129,2.1818,0.1,0.00012931,1292.2,0.00012885,1279.1,-4.1391e-05,-0.01128,-4.4816e-05,-25.746,1.8888
5381,17.945,2.1818,0.1,0.00013354,1334.5,0.00013311,1322.1,-4.285e-05,-0.01085,-4.6113e-05,-24.527,1.8594
5382,17.762,2.1818,0.1,0.0001378,1377.1,0.00013739,1365.2,-4.4313e-05,-0.010449,-4.7423e-05,-23.379,1.8301
5383,17.578,2.1818,0.1,0.00014209,1419.9,0.00014169,1408.6,-4.578e-05,-0.010092,-4.8746e-05,-22.295,1.8009
5384,17.395,2.1818,0.1,0.00014639,1462.9,0.00014602,1452.1,-4.7253e-05,-0.0097404,-5.0082e-05,-21.268,1.7718
5385,17.211,2.1818,0.1,0.00015072,1506.2,0.00015036,1495.9,-4.873e-05,-0.0094102,-5.1429e-05,-20.291,1.7428
5386,17.028,2.1818,0.1,0.00015507,1549.7,0.00015473,1539.9,-5.0213e-05,-0.0091036,-5.2788e-05,-19.359,1.7138
5387,16.844,2.1818,0.1,0.00015945,1593.4,0.00015912,1584,-5.1701e-05,-0.0087932,-5.4157e-05,-18.465,1.685
5388,16.661,2.1818,0.1,0.00016384,1637.3,0.00016354,1628.4,-5.3194e-05,-0.0085087,-5.5536e-05,-17.605,1.6563
5389,16.477,2.1818,0.1,0.00016826,1681.4,0.00016797,1673,-5.4693e-05,-0.0082434,-5.6924e-05,-16.773,1.6277
5390,16.294,2.1818,0.1,0.0001727,1725.8,0.00017242,1717.7,-5.6198e-05,-0.008005,-5.8322e-05,-15.964,1.5992
5391,16.11,2.1818,0.1,0.00017716,1770.3,0.00017689,1762.7,-5.7709e-05,-0.0077485,-5.9727e-05,-15.172,1.5709
5392,15.927,2.1818,0.1,0.00018164,1815.1,0.00018139,1807.9,-5.9226e-05,-0.0074998,-6.1141e-05,-14.393,1.5426
5393,15.743,2.1818,0.1,0.00018614,1860.1,0.0001859,1853.2,-6.075e-05,-0.0072902,-6.2562e-05,-13.622,1.5145
5394,15.56,2.1818,0.1,0.00019066,1905.2,0.00019043,1898.8,-6.2279e-05,-0.0070592,-6.3989e-05,-12.855,1.4865
5395,15.376,2.1818,0.1,0.0001952,1950.6,0.00019499,1944.5,-6.3816e-05,-0.0068385,-6.5423e-05,-12.085,1.4586
5396,15.193,2.1818,0.1,0.00019975,1996.2,0.00019956,1990.5,-6.5359e-05,-0.0066241,-6.6863e-05,-11.309,1.4309
5397,15.009,2.1818,0.1,0.00020433,2041.9,0.00020415,2036.6,-6.6908e-05,-0.0063872,-6.8308e-05,-10.522,1.4032
5398,14.826,2.1818,0.1,0.00020893,2087.9,0.00020876,2083,-6.8465e-05,-0.0061598,-6.9758e-05,-9.7183,1.3758
5399,14.642,2.1818,0.1,0.00021354,2134,0.00021339,2129.5,-7.0029e-05,-0.0059355,-7.1212e-05,-8.8935,1.3484
5400,14.459,2.1818,0.1,0.00021818,2180.3,0.00021804,2176.2,-7.16e-05,-0.0057152,-7.267e-05,-8.0422,1.3212
5401,14.276,2.1818,0.1,0.00022283,2226.8,0.00022271,2223.2,-7.3179e-05,-0.0054412,-7.4131e-05,-7.1589,1.2942
5402,14.092,2.1818,0.1,0.0002275,2273.4,0.00022739,2270.3,-7.4765e-05,-0.0051311,-7.5595e-05,-6.2382,1.2673
5403,13.909,2.1818,0.1,0.00023218,2320.2,0.00023209,2317.6,-7.6359e-05,-0.0047983,-7.7061e-05,-5.2744,1.2406
5404,13.725,2.1818,0.1,0.00023688,2367.2,0.00023681,2365.1,-7.7961e-05,-0.004322,-7.8528e-05,-4.2613,1.214
5405,13.542,2.1818,0.1,0.0002416,2414.4,0.00024155,2412.8,-7.9571e-05,-0.0036118,-7.9996e-05,-3.1927,1.1876
5406,13.358,2.1818,0.1,0.00024634,2461.7,0.0002463,2460.6,-8.1189e-05,-0.0022306,-8.1464e-05,-2.0621,1.1613
5407,13.175,2.1818,0.1,0.00025109,2509.1,0.00025107,2508.7,-8.2816e-05,0.0028399,-8.2931e-05,-0.86537,1.1352
5408,12.991,2.1818,0.1,0.00025585,2556.8,0.00025586,2557,-8.4394e-05,0.4384,-8.4455e-05,-0.021799,1.1093
5409,12.808,2.1818,0.1,0.00026063,2604.5,0.00026066,2605.4,-8.5858e-05,1.7907,-8.6098e-05,-0.0093809,1.0835
5410,12.624,2.1818,0.1,0.00026542,2652.4,0.00026548,2654,-8.7318e-05,3.248,-8.7752e-05,-0.0074124,1.0579
5411,12.441,2.1818,0.1,0.00027023,2700.5,0.00027031,2702.9,-8.8774e-05,4.8099,-8.9415e-05,-0.0065446,1.0325
5412,12.257,2.1818,0.1,0.00027505,2748.6,0.00027516,2751.8,-9.0224e-05,6.486,-9.1089e-05,-0.0060238,1.0073
5413,12.074,2.1818,0.1,0.00027988,2796.9,0.00028002,2801,-9.1668e-05,8.2866,-9.2772e-05,-0.0056661,0.98229
5414,11.89,2.1818,0.1,0.00028473,2845.3,0.0002849,2850.4,-9.3105e-05,10.224,-9.4466e-05,-0.0053513,0.95745
5415,11.707,2.1818,0.1,0.00028958,2893.8,0.00028979,2899.9,-9.4532e-05,12.309,-9.6171e-05,-0.0050873,0.9328
5416,11.523,2.1818,0.1,0.00029445,2942.4,0.00029469,2949.7,-9.5949e-05,14.557,-9.7887e-05,-0.0048576,0.90834
5417,11.34,2.1818,0.1,0.00029932,2991.1,0.0002996,2999.6,-9.7355e-05,16.982,-9.9616e-05,-0.0046067,0.88408
5418,11.156,2.1818,0.1,0.0003042,3039.9,0.00030453,3049.7,-9.8747e-05,19.599,-0.00010136,-0.004416,0.86002
5419,10.973,2.1818,0.1,0.00030909,3088.8,0.00030947,3099.9,-0.00010012,22.426,-0.00010311,-0.0042331,0.83617
5420,10.789,2.1818,0.1,0.00031399,3137.7,0.00031441,3150.4,-0.00010148,25.481,-0.00010488,-0.0040113,0.81252
5421,10.606,2.1818,0.1,0.00031889,3186.7,0.00031937,3201,-0.00010283,28.784,-0.00010666,-0.0038171,0.78909
5422,10.422,2.1818,0.1,0.0003238,3235.8,0.00032434,3251.8,-0.00010415,32.357,-0.00010845,-0.0036466,0.76587
5423,10.239,2.1818,0.1,0.00032871,3284.9,0.00032931,3302.8,-0.00010544,36.224,-0.00011026,-0.0035,0.74287
5424,10.055,2.1818,0.1,0.00033363,3334,0.0003343,3354,-0.00010671,40.409,-0.00011209,-0.003333,0.72009
5425,9.872,2.1818,0.1,0.00033855,3383.1,0.00033929,3405.4,-0.00010796,44.941,-0.00011394,-0.0031768,0.69754
5426,9.6885,2.1818,0.1,0.00034347,3432.3,0.00034429,3457,-0.00010917,49.849,-0.0001158,-0.0030551,0.67521
5427,9.505,2.1818,0.1,0.00034839,3481.5,0.0003493,3508.8,-0.00011035,55.166,-0.00011769,-0.0029552,0.65312
5428,9.3215,2.1818,0.1,0.00035332,3530.7,0.00035431,3560.8,-0.00011149,60.927,-0.0001196,-0.0028976,0.63126
5429,9.1381,2.1818,0.1,0.00035824,3579.9,0.00035934,3613.1,-0.00011259,67.169,-0.00012153,-0.0028949,0.60964
5430,8.9546,2.1818,0.1,0.00036317,3629.2,0.00036437,3665.6,-0.00011365,73.933,-0.00012349,-0.0029672,0.58827
5431,8.7711,2.1818,0.1,0.00036811,3678.5,0.00036942,3718.5,-0.00011466,81.262,-0.00012548,-0.0031422,0.56714
5432,8.5876,2.1818,0.1,0.00037305,3727.9,0.00037449,3771.7,-0.00011563,89.203,-0.0001275,-0.0034563,0.54625
5433,8.4041,2.1818,0.1,0.000378,3777.4,0.00037957,3825.4,-0.00011654,97.804,-0.00012955,-0.0039568,0.52562
5434,8.2206,2.1818,0.1,0.00038297,3827.1,0.00038468,3879.5,-0.00011739,107.12,-0.00013165,-0.0047089,0.50525
5435,8.0372,2.1818,0.1,0.00038797,3877,0.00038983,3934.3,-0.00011819,117.2,-0.00013379,-0.0057967,0.48513
5436,7.8537,2.1818,0.1,0.00039301,3927.4,0.00039503,3989.8,-0.00011894,128.1,-0.00013599,-0.0073334,0.46527
5437,7.6702,2.1818,0.1,0.00039809,3978.2,0.00040029,4046.3,-0.00011962,139.88,-0.00013824,-0.0094686,0.44569
5438,7.4867,2.1818,0.1,0.00040325,4029.8,0.00040563,4103.9,-0.00012025,152.6,-0.00014056,-0.012401,0.42637
5439,7.3032,2.1818,0.1,0.00040851,4082.3,0.00041109,4162.9,-0.00012083,166.29,-0.00014296,-0.016394,0.40732
5440,7.1198,2.1818,0.1,0.00041391,4136.2,0.00041669,4223.8,-0.00012137,181.02,-0.00014546,-0.021798,0.38855
5441,6.9363,2.1818,0.1,0.00041949,4192,0.00042249,4286.9,-0.00012187,196.81,-0.00014807,-0.029077,0.37007
5442,6.7528,2.1818,0.1,0.0004253,4250.1,0.00042853,4352.9,-0.00012236,213.68,-0.0001508,-0.038851,0.35186
5443,6.5693,2.1818,0.1,0.00043144,4311.4,0.00043491,4422.5,-0.00012287,231.62,-0.0001537,-0.051941,0.33395
5444,6.3858,2.1818,0.1,0.000438,4377,0.00044172,4496.8,-0.00012342,250.57,-0.00015678,-0.069442,0.31633
5445,6.2024,2.1818,0.1,0.00044511,4448,0.00044909,4577,-0.00012408,270.44,-0.00016009,-0.092812,0.299
5446,6.0189,2.1818,0.1,0.00045293,4526.2,0.00045718,4664.6,-0.00012491,291.03,-0.00016366,-0.124,0.28198
5447,5.8354,2.1818,0.1,0.00046169,4613.8,0.00046621,4761.8,-0.00012602,312.03,-0.00016757,-0.16563,0.26527
5448,5.6519,2.1818,0.1,0.00047167,4713.5,0.00047645,4871,-0.00012753,332.96,-0.00017187,-0.22119,0.24887
5449,5.4684,2.1818,0.1,0.00048324,4829.1,0.00048827,4995.8,-0.00012963,353.1,-0.00017666,-0.29563,0.23279
5450,5.285,2.1818,0.1,0.00049688,4965.4,0.00050215,5140.4,-0.00013258,371.36,-0.00018205,-0.39536,0.21704
5451,5.1015,2.1818,0.1,0.00051326,5129.1,0.00051873,5310.9,-0.00013673,386.1,-0.00018819,-0.53182,0.20162
5452,4.918,2.1818,0.1,0.00053328,5329.2,0.00053889,5515.2,-0.00014258,394.94,-0.00019524,-0.71476,0.18656
5453,4.7345,2.1818,0.1,0.00055822,5578.3,0.00056386,5764.5,-0.00015087,394.3,-0.00020348,-0.99618,0.17186
5454,4.551,2.1818,0.1,0.00058994,5895.3,0.00059544,6074.9,-0.00016265,378.95,-0.00021326,-1.3278,0.15754
5455,4.3676,2.1818,0.1,0.00063133,6309,0.00063639,6471.3,-0.00017951,340.92,-0.00022518,-2.2651,0.14361
5456,4.1841,2.1818,0.1,0.00068699,6865.2,0.00069113,6994.5,-0.00020398,269.02,-0.0002401,-2.3389,0.1301
5457,4.0006,2.1818,0.1,0.00076564,7651.2,0.00076779,7716.5,-0.00024013,143.33,-0.00026059,-10.419,0.11705
5458,3.8171,2.1818,0.1,0.00088186,8812.5,0.00088085,8783.7,-0.00028575,18.311,-0.00029818,-75.032,0.10449
5459,3.6336,2.1818,0.1,0.001083,10823,0.0010742,10574,-0.00033964,-49.357,-0.00039138,-438.1,0.092491
5460,3.4501,2.1818,0.1,0.0014606,14596,0.0014398,14040,-0.00042854,2.0772,-0.00056941,-1056.4,0.081158
5461,23.817,2.3636,0.1,1.9535e-05,195.21,9.666e-06,39.622,4.3651e-06,-0.20691,-1.8557e-05,-172.43,2.8296
5462,23.633,2.3636,0.1,2.1248e-05,212.33,1.3204e-05,78.349,2.7326e-06,-0.32836,-1.8797e-05,-162.09,2.7988
5463,23.45,2.3636,0.1,2.3387e-05,233.71,1.6741e-05,117.07,1.1407e-06,-0.14288,-1.9077e-05,-152.05,2.768
5464,23.266,2.3636,0.1,2.5849e-05,258.31,2.0285e-05,155.63,-4.4481e-07,-0.12509,-1.9399e-05,-142.54,2.7371
5465,23.083,2.3636,0.1,2.8552e-05,285.33,2.3833e-05,194.08,-2.0093e-06,-0.09355,-1.9767e-05,-133.52,2.7063
5466,22.899,2.3636,0.1,3.1442e-05,314.2,2.7392e-05,232.46,-3.5565e-06,-0.078407,-2.0182e-05,-124.99,2.6756
5467,22.716,2.3636,0.1,3.4477e-05,344.53,3.0964e-05,270.81,-5.0868e-06,-0.066175,-2.0645e-05,-116.97,2.6448
5468,22.532,2.3636,0.1,3.763e-05,376.04,3.4554e-05,309.17,-6.6018e-06,-0.057465,-2.1158e-05,-109.43,2.614
5469,22.349,2.3636,0.1,4.0881e-05,408.53,3.8165e-05,347.59,-8.103e-06,-0.050628,-2.1721e-05,-102.37,2.5833
5470,22.165,2.3636,0.1,4.4215e-05,441.85,4.18e-05,386.1,-9.592e-06,-0.04521,-2.2332e-05,-95.766,2.5526
5471,21.982,2.3636,0.1,4.7623e-05,475.9,4.5461e-05,424.71,-1.107e-05,-0.040789,-2.2991e-05,-89.606,2.522
5472,21.798,2.3636,0.1,5.1095e-05,510.6,4.9149e-05,463.46,-1.2539e-05,-0.037113,-2.3696e-05,-83.867,2.4913
5473,21.615,2.3636,0.1,5.4627e-05,545.89,5.2865e-05,502.36,-1.4e-05,-0.034003,-2.4446e-05,-78.527,2.4607
5474,21.431,2.3636,0.1,5.8213e-05,581.72,5.6611e-05,541.43,-1.5454e-05,-0.031339,-2.524e-05,-73.562,2.4301
5475,21.248,2.3636,0.1,6.1848e-05,618.06,6.0386e-05,580.68,-1.6902e-05,-0.029037,-2.6074e-05,-68.949,2.3996
5476,21.064,2.3636,0.1,6.5531e-05,654.86,6.419e-05,620.11,-1.8345e-05,-0.027017,-2.6948e-05,-64.668,2.3691
5477,20.881,2.3636,0.1,6.9257e-05,692.09,6.8024e-05,659.74,-1.9785e-05,-0.025241,-2.7859e-05,-60.694,2.3387
5478,20.697,2.3636,0.1,7.3025e-05,729.75,7.1888e-05,699.56,-2.1221e-05,-0.023661,-2.8805e-05,-57.008,2.3083
5479,20.514,2.3636,0.1,7.6833e-05,767.8,7.578e-05,739.59,-2.2656e-05,-0.022243,-2.9785e-05,-53.589,2.2779
5480,20.33,2.3636,0.1,8.0678e-05,806.22,7.9701e-05,779.82,-2.4089e-05,-0.02097,-3.0796e-05,-50.418,2.2476
5481,20.147,2.3636,0.1,8.4559e-05,845.01,8.3651e-05,820.26,-2.5521e-05,-0.019826,-3.1837e-05,-47.477,2.2174
5482,19.963,2.3636,0.1,8.8475e-05,884.14,8.7628e-05,860.9,-2.6954e-05,-0.018796,-3.2907e-05,-44.748,2.1872
5483,19.78,2.3636,0.1,9.2424e-05,923.6,9.1633e-05,901.76,-2.8386e-05,-0.017844,-3.4002e-05,-42.215,2.157
5484,19.596,2.3636,0.1,9.6405e-05,963.39,9.5665e-05,942.83,-2.982e-05,-0.016975,-3.5123e-05,-39.864,2.127
5485,19.413,2.3636,0.1,0.00010042,1003.5,9.9723e-05,984.1,-3.1255e-05,-0.016191,-3.6268e-05,-37.679,2.097
5486,19.229,2.3636,0.1,0.00010446,1043.9,0.00010381,1025.6,-3.2692e-05,-0.015461,-3.7435e-05,-35.649,2.067
5487,19.046,2.3636,0.1,0.00010853,1084.6,0.00010792,1067.3,-3.4131e-05,-0.014789,-3.8622e-05,-33.759,2.0371
5488,18.863,2.3636,0.1,0.00011263,1125.5,0.00011205,1109.2,-3.5573e-05,-0.01417,-3.983e-05,-32,2.0074
5489,18.679,2.3636,0.1,0.00011676,1166.8,0.00011621,1151.3,-3.7018e-05,-0.013583,-4.1057e-05,-30.359,1.9776
5490,18.496,2.3636,0.1,0.00012091,1208.3,0.0001204,1193.6,-3.8466e-05,-0.013045,-4.2301e-05,-28.827,1.948
5491,18.312,2.3636,0.1,0.00012509,1250.1,0.0001246,1236.1,-3.9918e-05,-0.01255,-4.3562e-05,-27.394,1.9184
5492,18.129,2.3636,0.1,0.0001293,1292.1,0.00012884,1278.9,-4.1373e-05,-0.012096,-4.4839e-05,-26.051,1.8889
5493,17.945,2.3636,0.1,0.00013353,1334.4,0.00013309,1321.8,-4.2833e-05,-0.011654,-4.613e-05,-24.79,1.8595
5494,17.762,2.3636,0.1,0.00013779,1376.9,0.00013737,1365,-4.4296e-05,-0.011239,-4.7436e-05,-23.603,1.8302
5495,17.578,2.3636,0.1,0.00014207,1419.7,0.00014167,1408.3,-4.5765e-05,-0.010871,-4.8756e-05,-22.483,1.801
5496,17.395,2.3636,0.1,0.00014637,1462.7,0.00014599,1451.9,-4.7238e-05,-0.010506,-5.0088e-05,-21.422,1.7719
5497,17.211,2.3636,0.1,0.0001507,1505.9,0.00015034,1495.6,-4.8716e-05,-0.010166,-5.1432e-05,-20.414,1.7429
5498,17.028,2.3636,0.1,0.00015505,1549.4,0.00015471,1539.6,-5.02e-05,-0.0098477,-5.2787e-05,-19.452,1.714
5499,16.844,2.3636,0.1,0.00015942,1593.1,0.00015909,1583.7,-5.1688e-05,-0.0095298,-5.4153e-05,-18.531,1.6852
5500,16.661,2.3636,0.1,0.00016381,1637,0.0001635,1628.1,-5.3182e-05,-0.0092366,-5.5529e-05,-17.645,1.6565
5501,16.477,2.3636,0.1,0.00016823,1681.1,0.00016794,1672.7,-5.4682e-05,-0.0089635,-5.6915e-05,-16.788,1.6279
5502,16.294,2.3636,0.1,0.00017266,1725.4,0.00017239,1717.4,-5.6188e-05,-0.0087154,-5.831e-05,-15.954,1.5994
5503,16.11,2.3636,0.1,0.00017712,1770,0.00017686,1762.4,-5.7699e-05,-0.0084533,-5.9713e-05,-15.139,1.571
5504,15.927,2.3636,0.1,0.0001816,1814.7,0.00018135,1807.5,-5.9217e-05,-0.0082003,-6.1124e-05,-14.338,1.5428
5505,15.743,2.3636,0.1,0.0001861,1859.7,0.00018586,1852.9,-6.0741e-05,-0.007985,-6.2542e-05,-13.544,1.5146
5506,15.56,2.3636,0.1,0.00019062,1904.8,0.0001904,1898.4,-6.2271e-05,-0.0077512,-6.3968e-05,-12.754,1.4866
5507,15.376,2.3636,0.1,0.00019515,1950.2,0.00019495,1944.2,-6.3808e-05,-0.0075292,-6.5399e-05,-11.963,1.4588
5508,15.193,2.3636,0.1,0.00019971,1995.7,0.00019952,1990.1,-6.5352e-05,-0.0073149,-6.6837e-05,-11.164,1.431
5509,15.009,2.3636,0.1,0.00020429,2041.5,0.00020411,2036.3,-6.6902e-05,-0.0070805,-6.8279e-05,-10.354,1.4034
5510,14.826,2.3636,0.1,0.00020888,2087.4,0.00020872,2082.6,-6.846e-05,-0.0068578,-6.9727e-05,-9.5274,1.376
5511,14.642,2.3636,0.1,0.0002135,2133.5,0.00021335,2129.1,-7.0024e-05,-0.0066424,-7.1178e-05,-8.6782,1.3486
5512,14.459,2.3636,0.1,0.00021813,2179.8,0.00021799,2175.9,-7.1596e-05,-0.0064343,-7.2633e-05,-7.8017,1.3214
5513,14.276,2.3636,0.1,0.00022278,2226.2,0.00022266,2222.8,-7.3175e-05,-0.0061807,-7.4092e-05,-6.892,1.2944
5514,14.092,2.3636,0.1,0.00022744,2272.9,0.00022734,2269.9,-7.4762e-05,-0.0058998,-7.5552e-05,-5.9434,1.2675
5515,13.909,2.3636,0.1,0.00023213,2319.7,0.00023204,2317.2,-7.6357e-05,-0.0056117,-7.7015e-05,-4.95,1.2408
5516,13.725,2.3636,0.1,0.00023683,2366.6,0.00023676,2364.7,-7.796e-05,-0.0052031,-7.8479e-05,-3.9054,1.2142
5517,13.542,2.3636,0.1,0.00024154,2413.8,0.00024149,2412.4,-7.957e-05,-0.0045872,-7.9943e-05,-2.8029,1.1878
5518,13.358,2.3636,0.1,0.00024627,2461,0.00024625,2460.2,-8.119e-05,-0.0032746,-8.1407e-05,-1.6361,1.1615
5519,13.175,2.3636,0.1,0.00025102,2508.5,0.00025101,2508.3,-8.2816e-05,0.005548,-8.2871e-05,-0.40414,1.1354
5520,12.991,2.3636,0.1,0.00025578,2556.1,0.0002558,2556.5,-8.433e-05,0.93328,-8.4455e-05,-0.010601,1.1095
5521,12.808,2.3636,0.1,0.00026056,2603.8,0.0002606,2604.9,-8.5788e-05,2.3407,-8.6101e-05,-0.0075516,1.0838
5522,12.624,2.3636,0.1,0.00026535,2651.6,0.00026541,2653.6,-8.7243e-05,3.8486,-8.7756e-05,-0.0066109,1.0582
5523,12.441,2.3636,0.1,0.00027015,2699.6,0.00027024,2702.4,-8.8692e-05,5.465,-8.9421e-05,-0.0060992,1.0328
5524,12.257,2.3636,0.1,0.00027497,2747.8,0.00027509,2751.3,-9.0136e-05,7.2003,-9.1095e-05,-0.0057454,1.0076
5525,12.074,2.3636,0.1,0.00027979,2796,0.00027994,2800.5,-9.1573e-05,9.0656,-9.278e-05,-0.0054778,0.98254
5526,11.89,2.3636,0.1,0.00028463,2844.3,0.00028482,2849.9,-9.3002e-05,11.074,-9.4476e-05,-0.0052148,0.9577
5527,11.707,2.3636,0.1,0.00028948,2892.8,0.0002897,2899.4,-9.4421e-05,13.237,-9.6183e-05,-0.0049782,0.93305
5528,11.523,2.3636,0.1,0.00029434,2941.3,0.0002946,2949.1,-9.5828e-05,15.571,-9.7901e-05,-0.0047608,0.90859
5529,11.34,2.3636,0.1,0.0002992,2990,0.00029951,2999,-9.7224e-05,18.09,-9.9632e-05,-0.0045081,0.88434
5530,11.156,2.3636,0.1,0.00030408,3038.7,0.00030443,3049,-9.8604e-05,20.812,-0.00010137,-0.0043086,0.86028
5531,10.973,2.3636,0.1,0.00030896,3087.4,0.00030935,3099.3,-9.9969e-05,23.756,-0.00010313,-0.0041079,0.83643
5532,10.789,2.3636,0.1,0.00031385,3136.3,0.00031429,3149.7,-0.00010131,26.941,-0.0001049,-0.0038602,0.81279
5533,10.606,2.3636,0.1,0.00031874,3185.2,0.00031924,3200.3,-0.00010264,30.388,-0.00010669,-0.0036325,0.78936
5534,10.422,2.3636,0.1,0.00032363,3234.1,0.0003242,3251,-0.00010394,34.123,-0.00010849,-0.0034202,0.76615
5535,10.239,2.3636,0.1,0.00032853,3283.1,0.00032917,3302,-0.00010522,38.172,-0.0001103,-0.0032223,0.74315
5536,10.055,2.3636,0.1,0.00033344,3332.1,0.00033414,3353.1,-0.00010647,42.562,-0.00011214,-0.0029933,0.72037
5537,9.872,2.3636,0.1,0.00033834,3381.1,0.00033912,3404.5,-0.00010769,47.325,-0.00011399,-0.0027643,0.69782
5538,9.6885,2.3636,0.1,0.00034324,3430.1,0.00034411,3456,-0.00010887,52.494,-0.00011586,-0.0025549,0.6755
5539,9.505,2.3636,0.1,0.00034815,3479.1,0.0003491,3507.8,-0.00011002,58.109,-0.00011776,-0.0023518,0.65341
5540,9.3215,2.3636,0.1,0.00035305,3528.1,0.0003541,3559.8,-0.00011113,64.208,-0.00011967,-0.0021715,0.63156
5541,9.1381,2.3636,0.1,0.00035796,3577.1,0.00035911,3612,-0.00011219,70.837,-0.00012162,-0.0020223,0.60994
5542,8.9546,2.3636,0.1,0.00036287,3626.2,0.00036413,3664.5,-0.0001132,78.044,-0.00012359,-0.0019207,0.58857
5543,8.7711,2.3636,0.1,0.00036778,3675.2,0.00036916,3717.4,-0.00011417,85.882,-0.0001256,-0.0018875,0.56744
5544,8.5876,2.3636,0.1,0.00037269,3724.4,0.00037421,3770.7,-0.00011507,94.409,-0.00012764,-0.0019512,0.54656
5545,8.4041,2.3636,0.1,0.00037762,3773.6,0.00037928,3824.4,-0.00011592,103.69,-0.00012972,-0.0021509,0.52593
5546,8.2206,2.3636,0.1,0.00038257,3823,0.00038438,3878.7,-0.0001167,113.78,-0.00013184,-0.0025381,0.50555
5547,8.0372,2.3636,0.1,0.00038754,3872.7,0.00038951,3933.6,-0.00011741,124.76,-0.00013402,-0.0031842,0.48544
5548,7.8537,2.3636,0.1,0.00039256,3922.8,0.0003947,3989.4,-0.00011806,136.71,-0.00013626,-0.0041809,0.46559
5549,7.6702,2.3636,0.1,0.00039763,3973.5,0.00039996,4046.3,-0.00011864,149.7,-0.00013856,-0.0056524,0.446
5550,7.4867,2.3636,0.1,0.00040278,4025,0.00040532,4104.4,-0.00011915,163.82,-0.00014095,-0.0077673,0.42668
5551,7.3032,2.3636,0.1,0.00040804,4077.6,0.0004108,4164.2,-0.00011959,179.13,-0.00014343,-0.010746,0.40764
5552,7.1198,2.3636,0.1,0.00041346,4131.8,0.00041644,4226.1,-0.00011997,195.73,-0.00014602,-0.014884,0.38887
5553,6.9363,2.3636,0.1,0.00041909,4188,0.00042231,4290.7,-0.00012031,213.68,-0.00014875,-0.020576,0.37038
5554,6.7528,2.3636,0.1,0.00042499,4247,0.00042848,4358.7,-0.00012062,233.02,-0.00015163,-0.028347,0.35218
5555,6.5693,2.3636,0.1,0.00043127,4309.8,0.00043503,4431,-0.00012093,253.8,-0.00015471,-0.038898,0.33426
5556,6.3858,2.3636,0.1,0.00043804,4377.4,0.00044208,4508.8,-0.00012128,275.98,-0.00015801,-0.053161,0.31664
5557,6.2024,2.3636,0.1,0.00044546,4451.6,0.0004498,4593.7,-0.00012172,299.51,-0.00016159,-0.072378,0.29932
5558,6.0189,2.3636,0.1,0.00045373,4534.2,0.00045838,4687.6,-0.00012235,324.21,-0.00016551,-0.098204,0.2823
5559,5.8354,2.3636,0.1,0.00046312,4628,0.00046807,4792.9,-0.00012327,349.79,-0.00016984,-0.13284,0.26558
5560,5.6519,2.3636,0.1,0.00047396,4736.4,0.00047923,4913,-0.00012463,375.77,-0.00017467,-0.17918,0.24919
5561,5.4684,2.3636,0.1,0.00048672,4863.8,0.00049229,5051.9,-0.00012665,401.41,-0.00018011,-0.24111,0.23311
5562,5.285,2.3636,0.1,0.00050196,5016.2,0.00050784,5215.2,-0.00012963,425.55,-0.00018631,-0.3236,0.21737
5563,5.1015,2.3636,0.1,0.00052049,5201.3,0.00052664,5410,-0.00013396,446.48,-0.00019344,-0.43382,0.20197
5564,4.918,2.3636,0.1,0.00054337,5430,0.00054974,5645.8,-0.00014022,461.71,-0.00020174,-0.57955,0.18693
5565,4.7345,2.3636,0.1,0.00057207,5716.7,0.00057857,5935.7,-0.0001492,467.53,-0.00021153,-0.77886,0.17225
5566,4.551,2.3636,0.1,0.00060867,6082.5,0.00061515,6298.2,-0.00016206,458.57,-0.00022323,-1.036,0.15796
5567,4.3676,2.3636,0.1,0.00065624,6557.9,0.00066243,6760.2,-0.00018047,426.95,-0.00023748,-1.4322,0.14409
5568,4.1841,2.3636,0.1,0.00071956,7190.7,0.00072499,7363.3,-0.00020696,361.07,-0.00025528,-1.9977,0.13065
5569,4.0006,2.3636,0.1,0.00080632,8057.6,0.00081014,8175.4,-0.00024556,243.25,-0.00027822,-2.1295,0.1177
5570,3.8171,2.3636,0.1,0.0009304,9297.6,0.000931,9315.5,-0.00030273,45.736,-0.00031009,-9.5627,0.10527
5571,3.6336,2.3636,0.1,0.0011128,11120,0.0011078,10981,-0.00035201,12.104,-0.00039149,-284.59,0.093453
5572,3.4501,2.3636,0.1,0.001377,13761,0.0013613,13338,-0.00041058,24.387,-0.00052436,-830.53,0.08235
5573,23.817,2.5455,0.1,1.9811e-05,197.98,9.7569e-06,39.597,4.4588e-06,-0.21136,-1.8839e-05,-175.26,2.8297
5574,23.633,2.5455,0.1,2.1518e-05,215.04,1.3301e-05,78.391,2.8241e-06,-0.33049,-1.908e-05,-164.91,2.7988
5575,23.45,2.5455,0.1,2.3647e-05,236.31,1.6844e-05,117.18,1.2291e-06,-0.14435,-1.9359e-05,-154.83,2.768
5576,23.266,2.5455,0.1,2.6097e-05,260.79,2.0392e-05,155.8,-3.6018e-07,-0.12638,-1.9678e-05,-145.27,2.7372
5577,23.083,2.5455,0.1,2.8788e-05,287.69,2.3944e-05,194.3,-1.9288e-06,-0.094702,-2.0041e-05,-136.18,2.7064
5578,22.899,2.5455,0.1,3.1665e-05,316.44,2.7504e-05,232.72,-3.4804e-06,-0.079478,-2.0448e-05,-127.57,2.6756
5579,22.716,2.5455,0.1,3.4688e-05,346.64,3.1076e-05,271.11,-5.0152e-06,-0.067187,-2.0903e-05,-119.44,2.6448
5580,22.532,2.5455,0.1,3.7827e-05,378.01,3.4664e-05,309.5,-6.5347e-06,-0.05844,-2.1405e-05,-111.79,2.6141
5581,22.349,2.5455,0.1,4.1065e-05,410.37,3.8272e-05,347.93,-8.0404e-06,-0.051573,-2.1955e-05,-104.6,2.5834
5582,22.165,2.5455,0.1,4.4386e-05,443.55,4.1903e-05,386.43,-9.5336e-06,-0.046136,-2.2553e-05,-97.87,2.5527
5583,21.982,2.5455,0.1,4.778e-05,477.47,4.5558e-05,425.03,-1.1016e-05,-0.041697,-2.3198e-05,-91.577,2.522
5584,21.798,2.5455,0.1,5.1239e-05,512.04,4.924e-05,463.77,-1.2489e-05,-0.038008,-2.389e-05,-85.703,2.4914
5585,21.615,2.5455,0.1,5.4758e-05,547.2,5.295e-05,502.64,-1.3953e-05,-0.034884,-2.4626e-05,-80.229,2.4608
5586,21.431,2.5455,0.1,5.8331e-05,582.91,5.6688e-05,541.68,-1.541e-05,-0.032202,-2.5406e-05,-75.135,2.4302
5587,21.248,2.5455,0.1,6.1955e-05,619.12,6.0456e-05,580.9,-1.6861e-05,-0.029886,-2.6227e-05,-70.398,2.3997
5588,21.064,2.5455,0.1,6.5626e-05,655.8,6.4253e-05,620.3,-1.8307e-05,-0.027853,-2.7087e-05,-65.997,2.3692
5589,20.881,2.5455,0.1,6.9341e-05,692.94,6.808e-05,659.89,-1.975e-05,-0.026057,-2.7986e-05,-61.911,2.3387
5590,20.697,2.5455,0.1,7.3099e-05,730.49,7.1937e-05,699.68,-2.1189e-05,-0.024462,-2.8921e-05,-58.119,2.3083
5591,20.514,2.5455,0.1,7.6897e-05,768.44,7.5823e-05,739.68,-2.2625e-05,-0.023025,-2.9889e-05,-54.6,2.278
5592,20.33,2.5455,0.1,8.0734e-05,806.78,7.9738e-05,779.88,-2.4061e-05,-0.021735,-3.089e-05,-51.337,2.2477
5593,20.147,2.5455,0.1,8.4607e-05,845.49,8.3681e-05,820.29,-2.5495e-05,-0.020575,-3.1922e-05,-48.309,2.2174
5594,19.963,2.5455,0.1,8.8515e-05,884.54,8.7653e-05,860.91,-2.6929e-05,-0.019528,-3.2982e-05,-45.501,2.1872
5595,19.78,2.5455,0.1,9.2458e-05,923.94,9.1653e-05,901.74,-2.8363e-05,-0.018561,-3.407e-05,-42.895,2.1571
5596,19.596,2.5455,0.1,9.6433e-05,963.66,9.568e-05,942.78,-2.9798e-05,-0.017676,-3.5183e-05,-40.476,2.127
5597,19.413,2.5455,0.1,0.00010044,1003.7,9.9734e-05,984.03,-3.1235e-05,-0.016879,-3.632e-05,-38.229,2.097
5598,19.229,2.5455,0.1,0.00010448,1044,0.00010381,1025.5,-3.2673e-05,-0.016134,-3.7481e-05,-36.141,2.0671
5599,19.046,2.5455,0.1,0.00010854,1084.7,0.00010792,1067.2,-3.4113e-05,-0.015449,-3.8663e-05,-34.199,2.0372
5600,18.863,2.5455,0.1,0.00011264,1125.6,0.00011205,1109.1,-3.5556e-05,-0.014816,-3.9865e-05,-32.391,2.0074
5601,18.679,2.5455,0.1,0.00011676,1166.8,0.00011621,1151.2,-3.7002e-05,-0.014219,-4.1087e-05,-30.706,1.9777
5602,18.496,2.5455,0.1,0.00012091,1208.3,0.00012039,1193.5,-3.8451e-05,-0.013669,-4.2326e-05,-29.133,1.9481
5603,18.312,2.5455,0.1,0.00012509,1250,0.0001246,1236,-3.9903e-05,-0.013163,-4.3583e-05,-27.662,1.9185
5604,18.129,2.5455,0.1,0.00012929,1292,0.00012883,1278.7,-4.1359e-05,-0.012701,-4.4856e-05,-26.285,1.889
5605,17.945,2.5455,0.1,0.00013352,1334.3,0.00013308,1321.6,-4.282e-05,-0.012248,-4.6144e-05,-24.992,1.8596
5606,17.762,2.5455,0.1,0.00013778,1376.8,0.00013736,1364.8,-4.4284e-05,-0.011824,-4.7447e-05,-23.775,1.8303
5607,17.578,2.5455,0.1,0.00014205,1419.6,0.00014166,1408.1,-4.5753e-05,-0.011449,-4.8763e-05,-22.628,1.8011
5608,17.395,2.5455,0.1,0.00014636,1462.5,0.00014598,1451.6,-4.7227e-05,-0.011077,-5.0093e-05,-21.541,1.772
5609,17.211,2.5455,0.1,0.00015068,1505.8,0.00015032,1495.4,-4.8706e-05,-0.010729,-5.1434e-05,-20.509,1.743
5610,17.028,2.5455,0.1,0.00015503,1549.2,0.00015469,1539.3,-5.019e-05,-0.010404,-5.2787e-05,-19.525,1.7141
5611,16.844,2.5455,0.1,0.0001594,1592.9,0.00015907,1583.5,-5.1679e-05,-0.010079,-5.4151e-05,-18.583,1.6853
5612,16.661,2.5455,0.1,0.00016379,1636.8,0.00016348,1627.9,-5.3173e-05,-0.0097799,-5.5525e-05,-17.677,1.6566
5613,16.477,2.5455,0.1,0.0001682,1680.9,0.00016791,1672.4,-5.4674e-05,-0.0095022,-5.6909e-05,-16.801,1.628
5614,16.294,2.5455,0.1,0.00017264,1725.2,0.00017236,1717.2,-5.618e-05,-0.0092514,-5.8301e-05,-15.949,1.5995
5615,16.11,2.5455,0.1,0.0001771,1769.7,0.00017683,1762.1,-5.7692e-05,-0.0089846,-5.9702e-05,-15.116,1.5711
5616,15.927,2.5455,0.1,0.00018157,1814.5,0.00018132,1807.3,-5.921e-05,-0.0087294,-6.1112e-05,-14.297,1.5429
5617,15.743,2.5455,0.1,0.00018607,1859.4,0.00018584,1852.6,-6.0734e-05,-0.0085108,-6.2528e-05,-13.487,1.5148
5618,15.56,2.5455,0.1,0.00019059,1904.5,0.00019037,1898.2,-6.2265e-05,-0.0082769,-6.3952e-05,-12.68,1.4868
5619,15.376,2.5455,0.1,0.00019512,1949.9,0.00019492,1943.9,-6.3802e-05,-0.0080555,-6.5381e-05,-11.872,1.4589
5620,15.193,2.5455,0.1,0.00019968,1995.4,0.00019949,1989.9,-6.5346e-05,-0.0078439,-6.6817e-05,-11.056,1.4312
5621,15.009,2.5455,0.1,0.00020425,2041.1,0.00020408,2036,-6.6897e-05,-0.0076135,-6.8258e-05,-10.229,1.4036
5622,14.826,2.5455,0.1,0.00020885,2087,0.00020869,2082.3,-6.8455e-05,-0.0073978,-6.9703e-05,-9.384,1.3761
5623,14.642,2.5455,0.1,0.00021346,2133.1,0.00021331,2128.9,-7.002e-05,-0.0071924,-7.1153e-05,-8.5165,1.3488
5624,14.459,2.5455,0.1,0.00021809,2179.4,0.00021796,2175.6,-7.1593e-05,-0.0070006,-7.2606e-05,-7.6208,1.3216
5625,14.276,2.5455,0.1,0.00022274,2225.8,0.00022262,2222.5,-7.3172e-05,-0.0067695,-7.4062e-05,-6.691,1.2945
5626,14.092,2.5455,0.1,0.0002274,2272.5,0.0002273,2269.6,-7.476e-05,-0.0065249,-7.552e-05,-5.7212,1.2677
5627,13.909,2.5455,0.1,0.00023208,2319.2,0.000232,2316.9,-7.6355e-05,-0.0062894,-7.6981e-05,-4.7053,1.2409
5628,13.725,2.5455,0.1,0.00023678,2366.2,0.00023672,2364.4,-7.7958e-05,-0.0059654,-7.8442e-05,-3.6366,1.2144
5629,13.542,2.5455,0.1,0.0002415,2413.3,0.00024145,2412,-7.957e-05,-0.0055038,-7.9903e-05,-2.5085,1.1879
5630,13.358,2.5455,0.1,0.00024623,2460.6,0.0002462,2459.9,-8.119e-05,-0.0044734,-8.1364e-05,-1.3139,1.1617
5631,13.175,2.5455,0.1,0.00025097,2508,0.00025097,2507.9,-8.2814e-05,0.02805,-8.2828e-05,-0.076008,1.1356
5632,12.991,2.5455,0.1,0.00025573,2555.5,0.00025575,2556.2,-8.4281e-05,1.3131,-8.4456e-05,-0.0077664,1.1097
5633,12.808,2.5455,0.1,0.0002605,2603.2,0.00026055,2604.6,-8.5735e-05,2.7572,-8.6103e-05,-0.0066666,1.0839
5634,12.624,2.5455,0.1,0.00026529,2651.1,0.00026536,2653.2,-8.7185e-05,4.3033,-8.7759e-05,-0.0061633,1.0584
5635,12.441,2.5455,0.1,0.00027009,2699,0.00027019,2702,-8.8631e-05,5.961,-8.9425e-05,-0.005831,1.033
5636,12.257,2.5455,0.1,0.0002749,2747.1,0.00027503,2751,-9.007e-05,7.7414,-9.1101e-05,-0.0055716,1.0077
5637,12.074,2.5455,0.1,0.00027972,2795.3,0.00027989,2800.1,-9.1501e-05,9.6561,-9.2787e-05,-0.005356,0.98272
5638,11.89,2.5455,0.1,0.00028456,2843.6,0.00028475,2849.4,-9.2924e-05,11.718,-9.4484e-05,-0.0051223,0.95788
5639,11.707,2.5455,0.1,0.0002894,2892,0.00028963,2898.9,-9.4336e-05,13.941,-9.6192e-05,-0.0049013,0.93323
5640,11.523,2.5455,0.1,0.00029425,2940.5,0.00029453,2948.6,-9.5737e-05,16.341,-9.7912e-05,-0.0046884,0.90878
5641,11.34,2.5455,0.1,0.00029911,2989.1,0.00029943,2998.5,-9.7124e-05,18.933,-9.9644e-05,-0.0044351,0.88453
5642,11.156,2.5455,0.1,0.00030398,3037.7,0.00030435,3048.5,-9.8496e-05,21.735,-0.00010139,-0.0042253,0.86048
5643,10.973,2.5455,0.1,0.00030886,3086.4,0.00030927,3098.7,-9.985e-05,24.768,-0.00010315,-0.0040094,0.83663
5644,10.789,2.5455,0.1,0.00031374,3135.2,0.0003142,3149.1,-0.00010119,28.053,-0.00010492,-0.0037412,0.81299
5645,10.606,2.5455,0.1,0.00031862,3184,0.00031915,3199.7,-0.0001025,31.612,-0.00010671,-0.0034858,0.78956
5646,10.422,2.5455,0.1,0.00032351,3232.8,0.0003241,3250.4,-0.00010379,35.472,-0.00010851,-0.0032399,0.76635
5647,10.239,2.5455,0.1,0.0003284,3281.7,0.00032905,3301.4,-0.00010505,39.66,-0.00011033,-0.0030015,0.74336
5648,10.055,2.5455,0.1,0.00033329,3330.6,0.00033402,3352.5,-0.00010628,44.209,-0.00011217,-0.002724,0.72058
5649,9.872,2.5455,0.1,0.00033818,3379.5,0.00033899,3403.8,-0.00010748,49.151,-0.00011403,-0.0024365,0.69804
5650,9.6885,2.5455,0.1,0.00034307,3428.3,0.00034397,3455.3,-0.00010865,54.524,-0.0001159,-0.0021578,0.67572
5651,9.505,2.5455,0.1,0.00034796,3477.2,0.00034895,3507,-0.00010977,60.37,-0.00011781,-0.0018717,0.65363
5652,9.3215,2.5455,0.1,0.00035285,3526.1,0.00035394,3559,-0.00011085,66.734,-0.00011973,-0.0015929,0.63178
5653,9.1381,2.5455,0.1,0.00035774,3574.9,0.00035894,3611.2,-0.00011188,73.666,-0.00012168,-0.001326,0.61016
5654,8.9546,2.5455,0.1,0.00036263,3623.8,0.00036394,3663.7,-0.00011286,81.221,-0.00012367,-0.0010833,0.58879
5655,8.7711,2.5455,0.1,0.00036752,3672.7,0.00036896,3716.6,-0.00011378,89.459,-0.00012569,-0.0008813,0.56766
5656,8.5876,2.5455,0.1,0.00037242,3721.6,0.000374,3769.9,-0.00011464,98.448,-0.00012774,-0.00074251,0.54678
5657,8.4041,2.5455,0.1,0.00037733,3770.7,0.00037905,3823.6,-0.00011543,108.26,-0.00012984,-0.00069723,0.52615
5658,8.2206,2.5455,0.1,0.00038225,3819.9,0.00038414,3878,-0.00011616,118.97,-0.00013199,-0.00078911,0.50578
5659,8.0372,2.5455,0.1,0.00038721,3869.4,0.00038926,3933.1,-0.00011681,130.67,-0.0001342,-0.001074,0.48567
5660,7.8537,2.5455,0.1,0.0003922,3919.3,0.00039445,3989.1,-0.00011738,143.45,-0.00013647,-0.0016313,0.46582
5661,7.6702,2.5455,0.1,0.00039726,3969.9,0.0003997,4046.2,-0.00011787,157.4,-0.00013882,-0.0025652,0.44623
5662,7.4867,2.5455,0.1,0.00040241,4021.3,0.00040506,4104.8,-0.00011828,172.63,-0.00014125,-0.004018,0.42691
5663,7.3032,2.5455,0.1,0.00040767,4073.9,0.00041056,4165.2,-0.00011861,189.24,-0.0001438,-0.0061798,0.40787
5664,7.1198,2.5455,0.1,0.00041311,4128.2,0.00041624,4228,-0.00011887,207.34,-0.00014647,-0.009307,0.3891
5665,6.9363,2.5455,0.1,0.00041877,4184.8,0.00042217,4293.7,-0.00011907,227.01,-0.00014929,-0.013744,0.37062
5666,6.7528,2.5455,0.1,0.00042474,4244.5,0.00042842,4363.2,-0.00011923,248.34,-0.00015229,-0.019953,0.35241
5667,6.5693,2.5455,0.1,0.00043113,4308.3,0.0004351,4437.6,-0.00011938,271.38,-0.00015551,-0.028559,0.3345
5668,6.3858,2.5455,0.1,0.00043807,4377.7,0.00044235,4518.2,-0.00011957,296.16,-0.00015899,-0.040404,0.31688
5669,6.2024,2.5455,0.1,0.00044573,4454.2,0.00045034,4606.7,-0.00011984,322.6,-0.00016279,-0.056621,0.29955
5670,6.0189,2.5455,0.1,0.00045436,4540.4,0.0004593,4705.5,-0.0001203,350.58,-0.00016697,-0.078742,0.28253
5671,5.8354,2.5455,0.1,0.00046424,4639.2,0.00046953,4817.4,-0.00012108,379.78,-0.00017164,-0.10883,0.26582
5672,5.6519,2.5455,0.1,0.00047578,4754.5,0.00048142,4946.1,-0.00012233,409.7,-0.00017688,-0.14966,0.24943
5673,5.4684,2.5455,0.1,0.00048949,4891.6,0.00049548,5096.4,-0.00012431,439.51,-0.00018283,-0.20493,0.23336
5674,5.285,2.5455,0.1,0.00050605,5057,0.00051238,5274.6,-0.00012735,467.94,-0.00018966,-0.27953,0.21762
5675,5.1015,2.5455,0.1,0.00052635,5259.9,0.000533,5488.9,-0.00013191,493.02,-0.00019758,-0.37978,0.20223
5676,4.918,2.5455,0.1,0.0005516,5512.2,0.00055851,5750,-0.00013864,511.87,-0.00020684,-0.51392,0.1872
5677,4.7345,2.5455,0.1,0.00058341,5830.1,0.0005905,6072.3,-0.00014845,520.14,-0.00021777,-0.69093,0.17254
5678,4.551,2.5455,0.1,0.000624,6235.7,0.0006311,6475.2,-0.00016261,511.5,-0.00023081,-0.92943,0.15828
5679,4.3676,2.5455,0.1,0.00067644,6759.7,0.00068326,6984.8,-0.00018292,476.64,-0.00024652,-1.2104,0.14445
5680,4.1841,2.5455,0.1,0.00074504,7445.3,0.00075103,7637.3,-0.00021191,402.1,-0.00026565,-1.6874,0.13107
5681,4.0006,2.5455,0.1,0.0008357,8351.2,0.00083991,8481.3,-0.0002531,268.81,-0.00028917,-2.1549,0.11819
5682,3.8171,2.5455,0.1,0.00095561,9549.6,0.00095644,9574.1,-0.00031064,53.748,-0.00031837,-4.3345,0.10588
5683,3.6336,2.5455,0.1,0.0011092,11084,0.0011043,10945,-0.00035237,0.29244,-0.00038881,-273.53,0.094191
5684,3.4501,2.5455,0.1,0.0012765,12756,0.0012642,12419,-0.00038934,-5.1518,-0.00047446,-644.7,0.083235
5685,23.817,2.7273,0.1,1.9995e-05,199.81,9.817e-06,39.579,4.5209e-06,-0.21426,-1.9025e-05,-177.13,2.8297
5686,23.633,2.7273,0.1,2.1698e-05,216.83,1.3366e-05,78.417,2.8847e-06,-0.33187,-1.9268e-05,-166.78,2.7988
5687,23.45,2.7273,0.1,2.382e-05,238.03,1.6911e-05,117.25,1.2877e-06,-0.1453,-1.9546e-05,-156.68,2.768
5688,23.266,2.7273,0.1,2.6262e-05,262.44,2.0463e-05,155.91,-3.0398e-07,-0.12721,-1.9863e-05,-147.09,2.7372
5689,23.083,2.7273,0.1,2.8945e-05,289.25,2.4017e-05,194.45,-1.8753e-06,-0.095443,-2.0222e-05,-137.95,2.7064
5690,22.899,2.7273,0.1,3.1814e-05,317.92,2.7578e-05,232.9,-3.4298e-06,-0.080164,-2.0625e-05,-129.28,2.6756
5691,22.716,2.7273,0.1,3.4828e-05,348.04,3.115e-05,271.31,-4.9675e-06,-0.067836,-2.1074e-05,-121.09,2.6449
5692,22.532,2.7273,0.1,3.7959e-05,379.33,3.4738e-05,309.71,-6.49e-06,-0.059063,-2.1569e-05,-113.36,2.6141
5693,22.349,2.7273,0.1,4.1188e-05,411.6,3.8344e-05,348.15,-7.9985e-06,-0.052181,-2.2112e-05,-106.09,2.5834
5694,22.165,2.7273,0.1,4.45e-05,444.7,4.1972e-05,386.65,-9.4946e-06,-0.046729,-2.2701e-05,-99.277,2.5527
5695,21.982,2.7273,0.1,4.7886e-05,478.53,4.5624e-05,425.25,-1.098e-05,-0.04228,-2.3338e-05,-92.896,2.522
5696,21.798,2.7273,0.1,5.1336e-05,513.01,4.9301e-05,463.97,-1.2455e-05,-0.038584,-2.402e-05,-86.934,2.4914
5697,21.615,2.7273,0.1,5.4846e-05,548.08,5.3007e-05,502.84,-1.3921e-05,-0.035449,-2.4747e-05,-81.372,2.4608
5698,21.431,2.7273,0.1,5.8411e-05,583.71,5.674e-05,541.86,-1.5381e-05,-0.032759,-2.5517e-05,-76.192,2.4302
5699,21.248,2.7273,0.1,6.2027e-05,619.84,6.0503e-05,581.05,-1.6834e-05,-0.030436,-2.6329e-05,-71.372,2.3997
5700,21.064,2.7273,0.1,6.569e-05,656.45,6.4296e-05,620.43,-1.8282e-05,-0.02839,-2.7181e-05,-66.892,2.3692
5701,20.881,2.7273,0.1,6.9399e-05,693.51,6.8118e-05,660,-1.9726e-05,-0.026586,-2.8072e-05,-62.731,2.3388
5702,20.697,2.7273,0.1,7.315e-05,730.99,7.197e-05,699.77,-2.1167e-05,-0.024978,-2.8998e-05,-58.867,2.3084
5703,20.514,2.7273,0.1,7.6942e-05,768.88,7.5852e-05,739.74,-2.2605e-05,-0.023534,-2.996e-05,-55.283,2.278
5704,20.33,2.7273,0.1,8.0772e-05,807.16,7.9762e-05,779.92,-2.4042e-05,-0.022235,-3.0954e-05,-51.957,2.2477
5705,20.147,2.7273,0.1,8.464e-05,845.82,8.3702e-05,820.31,-2.5477e-05,-0.021062,-3.1979e-05,-48.872,2.2175
5706,19.963,2.7273,0.1,8.8543e-05,884.82,8.7671e-05,860.91,-2.6912e-05,-0.020006,-3.3033e-05,-46.01,2.1873
5707,19.78,2.7273,0.1,9.2481e-05,924.17,9.1667e-05,901.72,-2.8348e-05,-0.019028,-3.4115e-05,-43.355,2.1572
5708,19.596,2.7273,0.1,9.6452e-05,963.85,9.5691e-05,942.75,-2.9784e-05,-0.018134,-3.5223e-05,-40.89,2.1271
5709,19.413,2.7273,0.1,0.00010045,1003.9,9.9742e-05,983.99,-3.1221e-05,-0.017329,-3.6356e-05,-38.601,2.0971
5710,19.229,2.7273,0.1,0.00010449,1044.2,0.00010382,1025.4,-3.266e-05,-0.016573,-3.7512e-05,-36.475,2.0671
5711,19.046,2.7273,0.1,0.00010855,1084.8,0.00010792,1067.1,-3.4101e-05,-0.015882,-3.869e-05,-34.497,2.0373
5712,18.863,2.7273,0.1,0.00011264,1125.7,0.00011205,1109,-3.5545e-05,-0.015241,-3.9889e-05,-32.657,2.0075
5713,18.679,2.7273,0.1,0.00011677,1166.9,0.00011621,1151.1,-3.6991e-05,-0.014638,-4.1107e-05,-30.942,1.9778
5714,18.496,2.7273,0.1,0.00012091,1208.3,0.00012039,1193.4,-3.8441e-05,-0.014079,-4.2344e-05,-29.341,1.9481
5715,18.312,2.7273,0.1,0.00012509,1250,0.00012459,1235.9,-3.9894e-05,-0.013568,-4.3598e-05,-27.845,1.9186
5716,18.129,2.7273,0.1,0.00012929,1292,0.00012882,1278.6,-4.135e-05,-0.013098,-4.4868e-05,-26.444,1.8891
5717,17.945,2.7273,0.1,0.00013352,1334.3,0.00013307,1321.5,-4.2811e-05,-0.012641,-4.6154e-05,-25.13,1.8597
5718,17.762,2.7273,0.1,0.00013777,1376.7,0.00013735,1364.6,-4.4276e-05,-0.012211,-4.7454e-05,-23.893,1.8304
5719,17.578,2.7273,0.1,0.00014205,1419.5,0.00014164,1408,-4.5746e-05,-0.01183,-4.8769e-05,-22.727,1.8012
5720,17.395,2.7273,0.1,0.00014635,1462.4,0.00014597,1451.5,-4.722e-05,-0.011454,-5.0096e-05,-21.623,1.7721
5721,17.211,2.7273,0.1,0.00015067,1505.6,0.00015031,1495.2,-4.8699e-05,-0.011101,-5.1436e-05,-20.575,1.7431
5722,17.028,2.7273,0.1,0.00015502,1549.1,0.00015467,1539.2,-5.0183e-05,-0.010774,-5.2787e-05,-19.576,1.7142
5723,16.844,2.7273,0.1,0.00015938,1592.7,0.00015906,1583.3,-5.1673e-05,-0.010444,-5.4149e-05,-18.619,1.6853
5724,16.661,2.7273,0.1,0.00016378,1636.6,0.00016347,1627.7,-5.3168e-05,-0.010143,-5.5522e-05,-17.7,1.6566
5725,16.477,2.7273,0.1,0.00016819,1680.7,0.0001679,1672.2,-5.4668e-05,-0.009862,-5.6904e-05,-16.81,1.6281
5726,16.294,2.7273,0.1,0.00017262,1725,0.00017235,1717,-5.6175e-05,-0.0096081,-5.8296e-05,-15.946,1.5996
5727,16.11,2.7273,0.1,0.00017708,1769.6,0.00017682,1762,-5.7687e-05,-0.00934,-5.9695e-05,-15.102,1.5712
5728,15.927,2.7273,0.1,0.00018155,1814.3,0.00018131,1807.1,-5.9205e-05,-0.0090829,-6.1103e-05,-14.271,1.543
5729,15.743,2.7273,0.1,0.00018605,1859.2,0.00018582,1852.5,-6.073e-05,-0.0088642,-6.2519e-05,-13.449,1.5149
5730,15.56,2.7273,0.1,0.00019057,1904.4,0.00019035,1898,-6.2261e-05,-0.008631,-6.3941e-05,-12.631,1.4869
5731,15.376,2.7273,0.1,0.0001951,1949.7,0.0001949,1943.7,-6.3799e-05,-0.0084094,-6.5369e-05,-11.811,1.459
5732,15.193,2.7273,0.1,0.00019966,1995.2,0.00019947,1989.7,-6.5343e-05,-0.0082004,-6.6804e-05,-10.984,1.4313
5733,15.009,2.7273,0.1,0.00020423,2040.9,0.00020406,2035.8,-6.6894e-05,-0.0079742,-6.8243e-05,-10.145,1.4036
5734,14.826,2.7273,0.1,0.00020883,2086.8,0.00020867,2082.1,-6.8452e-05,-0.0077647,-6.9687e-05,-9.2885,1.3762
5735,14.642,2.7273,0.1,0.00021344,2132.9,0.00021329,2128.7,-7.0018e-05,-0.0075691,-7.1136e-05,-8.4085,1.3489
5736,14.459,2.7273,0.1,0.00021807,2179.1,0.00021794,2175.4,-7.159e-05,-0.0073907,-7.2588e-05,-7.4999,1.3217
5737,14.276,2.7273,0.1,0.00022271,2225.6,0.0002226,2222.3,-7.3171e-05,-0.0071802,-7.4042e-05,-6.5566,1.2946
5738,14.092,2.7273,0.1,0.00022738,2272.2,0.00022728,2269.4,-7.4758e-05,-0.0069649,-7.5499e-05,-5.5725,1.2678
5739,13.909,2.7273,0.1,0.00023206,2319,0.00023198,2316.7,-7.6354e-05,-0.0067766,-7.6958e-05,-4.5415,1.241
5740,13.725,2.7273,0.1,0.00023675,2365.9,0.00023669,2364.2,-7.7958e-05,-0.0065354,-7.8417e-05,-3.4566,1.2145
5741,13.542,2.7273,0.1,0.00024147,2413,0.00024143,2411.8,-7.957e-05,-0.0062363,-7.9876e-05,-2.3111,1.188
5742,13.358,2.7273,0.1,0.00024619,2460.2,0.00024618,2459.7,-8.119e-05,-0.0056479,-8.1335e-05,-1.0976,1.1618
5743,13.175,2.7273,0.1,0.00025094,2507.6,0.00025094,2507.7,-8.2792e-05,0.19764,-8.282e-05,-0.010539,1.1357
5744,12.991,2.7273,0.1,0.00025569,2555.2,0.00025572,2556,-8.4248e-05,1.5686,-8.4457e-05,-0.0066456,1.1098
5745,12.808,2.7273,0.1,0.00026047,2602.9,0.00026052,2604.4,-8.57e-05,3.0367,-8.6105e-05,-0.0062152,1.084
5746,12.624,2.7273,0.1,0.00026525,2650.7,0.00026533,2653,-8.7147e-05,4.6085,-8.7761e-05,-0.0059145,1.0585
5747,12.441,2.7273,0.1,0.00027005,2698.6,0.00027015,2701.7,-8.8589e-05,6.2941,-8.9428e-05,-0.0056762,1.0331
5748,12.257,2.7273,0.1,0.00027486,2746.7,0.00027499,2750.7,-9.0025e-05,8.1048,-9.1104e-05,-0.0054669,1.0079
5749,12.074,2.7273,0.1,0.00027968,2794.8,0.00027985,2799.8,-9.1453e-05,10.053,-9.2791e-05,-0.0052811,0.98284
5750,11.89,2.7273,0.1,0.00028451,2843.1,0.00028471,2849.2,-9.2871e-05,12.151,-9.4489e-05,-0.0050642,0.958
5751,11.707,2.7273,0.1,0.00028935,2891.5,0.00028959,2898.7,-9.4279e-05,14.415,-9.6198e-05,-0.0048508,0.93336
5752,11.523,2.7273,0.1,0.0002942,2939.9,0.00029448,2948.3,-9.5675e-05,16.858,-9.7919e-05,-0.0046409,0.90891
5753,11.34,2.7273,0.1,0.00029905,2988.5,0.00029938,2998.2,-9.7057e-05,19.5,-9.9653e-05,-0.0043832,0.88466
5754,11.156,2.7273,0.1,0.00030392,3037.1,0.00030429,3048.2,-9.8423e-05,22.357,-0.0001014,-0.0041674,0.86061
5755,10.973,2.7273,0.1,0.00030879,3085.8,0.00030921,3098.4,-9.9771e-05,25.45,-0.00010316,-0.0039405,0.83676
5756,10.789,2.7273,0.1,0.00031366,3134.5,0.00031414,3148.8,-0.0001011,28.802,-0.00010493,-0.0036571,0.81312
5757,10.606,2.7273,0.1,0.00031854,3183.2,0.00031908,3199.3,-0.0001024,32.437,-0.00010672,-0.0033841,0.7897
5758,10.422,2.7273,0.1,0.00032342,3232,0.00032403,3250,-0.00010368,36.382,-0.00010853,-0.003114,0.76649
5759,10.239,2.7273,0.1,0.00032831,3280.8,0.00032898,3300.9,-0.00010494,40.666,-0.00011035,-0.0028472,0.7435
5760,10.055,2.7273,0.1,0.00033319,3329.6,0.00033394,3352,-0.00010616,45.323,-0.00011219,-0.0025358,0.72072
5761,9.872,2.7273,0.1,0.00033807,3378.4,0.0003389,3403.3,-0.00010734,50.388,-0.00011405,-0.0022078,0.69818
5762,9.6885,2.7273,0.1,0.00034296,3427.2,0.00034387,3454.8,-0.00010849,55.9,-0.00011593,-0.0018804,0.67586
5763,9.505,2.7273,0.1,0.00034784,3476,0.00034885,3506.5,-0.0001096,61.905,-0.00011784,-0.0015363,0.65377
5764,9.3215,2.7273,0.1,0.00035272,3524.7,0.00035383,3558.4,-0.00011066,68.45,-0.00011977,-0.0011885,0.63192
5765,9.1381,2.7273,0.1,0.00035759,3573.5,0.00035882,3610.7,-0.00011167,75.59,-0.00012173,-0.00083945,0.61031
5766,8.9546,2.7273,0.1,0.00036247,3622.2,0.00036382,3663.2,-0.00011262,83.384,-0.00012372,-0.0004982,0.58894
5767,8.7711,2.7273,0.1,0.00036735,3671,0.00036883,3716,-0.00011352,91.899,-0.00012575,-0.00017719,0.56781
5768,8.5876,2.7273,0.1,0.00037223,3719.8,0.00037385,3769.3,-0.00011435,101.21,-0.00012782,0.00010362,0.54693
5769,8.4041,2.7273,0.1,0.00037713,3768.7,0.0003789,3823.1,-0.0001151,111.39,-0.00012993,0.00032196,0.52631
5770,8.2206,2.7273,0.1,0.00038204,3817.7,0.00038397,3877.5,-0.00011579,122.53,-0.00013209,0.00043914,0.50594
5771,8.0372,2.7273,0.1,0.00038698,3867.1,0.00038909,3932.7,-0.00011639,134.72,-0.00013432,0.00040808,0.48582
5772,7.8537,2.7273,0.1,0.00039196,3916.9,0.00039427,3988.8,-0.0001169,148.08,-0.00013661,0.00016072,0.46597
5773,7.6702,2.7273,0.1,0.00039701,3967.3,0.00039953,4046.2,-0.00011734,162.7,-0.00013899,-0.00039453,0.44639
5774,7.4867,2.7273,0.1,0.00040215,4018.7,0.00040489,4105.1,-0.00011768,178.71,-0.00014146,-0.0013824,0.42707
5775,7.3032,2.7273,0.1,0.00040742,4071.3,0.0004104,4165.9,-0.00011793,196.22,-0.00014405,-0.0029728,0.40803
5776,7.1198,2.7273,0.1,0.00041286,4125.8,0.0004161,4229.2,-0.00011811,215.36,-0.00014677,-0.0053957,0.38926
5777,6.9363,2.7273,0.1,0.00041855,4182.6,0.00042207,4295.7,-0.00011822,236.23,-0.00014966,-0.0089651,0.37077
5778,6.7528,2.7273,0.1,0.00042457,4242.8,0.00042838,4366.3,-0.00011827,258.95,-0.00015274,-0.014107,0.35257
5779,6.5693,2.7273,0.1,0.00043103,4307.3,0.00043515,4442.1,-0.00011831,283.58,-0.00015606,-0.021403,0.33465
5780,6.3858,2.7273,0.1,0.00043808,4377.8,0.00044253,4524.6,-0.00011838,310.15,-0.00015966,-0.031649,0.31703
5781,6.2024,2.7273,0.1,0.00044591,4456.1,0.00045071,4615.7,-0.00011853,338.63,-0.00016361,-0.04594,0.29971
5782,6.0189,2.7273,0.1,0.00045478,4544.7,0.00045993,4717.9,-0.00011888,368.87,-0.00016798,-0.065782,0.28269
5783,5.8354,2.7273,0.1,0.00046502,4647,0.00047053,4834.3,-0.00011955,400.57,-0.00017288,-0.093255,0.26598
5784,5.6519,2.7273,0.1,0.00047705,4767.2,0.00048294,4968.9,-0.00012074,433.15,-0.00017841,-0.13123,0.24959
5785,5.4684,2.7273,0.1,0.00049144,4911,0.0004977,5127.2,-0.0001227,465.73,-0.00018471,-0.18364,0.23352
5786,5.285,2.7273,0.1,0.00050894,5085.8,0.00051556,5315.9,-0.00012582,496.84,-0.00019198,-0.25586,0.21779
5787,5.1015,2.7273,0.1,0.00053051,5301.4,0.00053747,5543.9,-0.0001306,524.27,-0.00020042,-0.35497,0.2024
5788,4.918,2.7273,0.1,0.00055746,5570.7,0.00056471,5822.8,-0.00013777,544.63,-0.00021032,-0.48996,0.18738
5789,4.7345,2.7273,0.1,0.0005915,5910.9,0.00059894,6167.5,-0.00014832,552.86,-0.00022199,-0.67098,0.17274
5790,4.551,2.7273,0.1,0.00063489,6344.5,0.00064234,6597.4,-0.00016365,541.48,-0.00023584,-0.90665,0.1585
5791,4.3676,2.7273,0.1,0.00069056,6900.8,0.00069767,7136.4,-0.00018562,499.75,-0.00025229,-1.2033,0.14469
5792,4.1841,2.7273,0.1,0.00076208,7615.5,0.00076823,7812.8,-0.00021662,413,-0.00027179,-1.497,0.13136
5793,4.0006,2.7273,0.1,0.00085316,8525.8,0.00085731,8653.5,-0.00025933,263.5,-0.00029465,-1.8265,0.11853
5794,3.8171,2.7273,0.1,0.00096568,9650.2,0.00096628,9667.7,-0.00031523,38.944,-0.00032092,-3.8279,0.10629
5795,3.6336,2.7273,0.1,0.0010943,10935,0.0010896,10804,-0.00034813,0.70484,-0.00038274,-259.34,0.094688
5796,3.4501,2.7273,0.1,0.0012172,12163,0.0012068,11876,-0.00037328,4.4625,-0.00044827,-558.98,0.083816
5797,23.817,2.9091,0.1,2.0086e-05,200.72,9.8469e-06,39.57,4.5518e-06,-0.21569,-1.9118e-05,-178.06,2.8297
5798,23.633,2.9091,0.1,2.1787e-05,217.72,1.3398e-05,78.429,2.915e-06,-0.33254,-1.9361e-05,-167.71,2.7989
5799,23.45,2.9091,0.1,2.3906e-05,238.89,1.6945e-05,117.28,1.3169e-06,-0.14577,-1.9639e-05,-157.6,2.768
5800,23.266,2.9091,0.1,2.6344e-05,263.26,2.0498e-05,155.96,-2.7594e-07,-0.12762,-1.9955e-05,-147.99,2.7372
5801,23.083,2.9091,0.1,2.9024e-05,290.04,2.4053e-05,194.52,-1.8486e-06,-0.095804,-2.0313e-05,-138.83,2.7064
5802,22.899,2.9091,0.1,3.1888e-05,318.66,2.7615e-05,232.99,-3.4044e-06,-0.080496,-2.0714e-05,-130.14,2.6756
5803,22.716,2.9091,0.1,3.4898e-05,348.74,3.1187e-05,271.41,-4.9436e-06,-0.068152,-2.116e-05,-121.91,2.6449
5804,22.532,2.9091,0.1,3.8025e-05,379.99,3.4774e-05,309.82,-6.4676e-06,-0.059366,-2.1652e-05,-114.15,2.6141
5805,22.349,2.9091,0.1,4.125e-05,412.21,3.838e-05,348.26,-7.9776e-06,-0.052475,-2.219e-05,-106.84,2.5834
5806,22.165,2.9091,0.1,4.4558e-05,445.27,4.2006e-05,386.76,-9.475e-06,-0.047019,-2.2775e-05,-99.981,2.5527
5807,21.982,2.9091,0.1,4.7939e-05,479.06,4.5656e-05,425.36,-1.0961e-05,-0.042565,-2.3407e-05,-93.557,2.522
5808,21.798,2.9091,0.1,5.1385e-05,513.49,4.9332e-05,464.08,-1.2438e-05,-0.038862,-2.4085e-05,-87.551,2.4914
5809,21.615,2.9091,0.1,5.4891e-05,548.53,5.3035e-05,502.93,-1.3906e-05,-0.035726,-2.4807e-05,-81.946,2.4608
5810,21.431,2.9091,0.1,5.8451e-05,584.11,5.6767e-05,541.94,-1.5366e-05,-0.033032,-2.5573e-05,-76.723,2.4302
5811,21.248,2.9091,0.1,6.2063e-05,620.2,6.0527e-05,581.13,-1.682e-05,-0.030704,-2.6381e-05,-71.862,2.3997
5812,21.064,2.9091,0.1,6.5723e-05,656.77,6.4317e-05,620.5,-1.827e-05,-0.028656,-2.7228e-05,-67.342,2.3692
5813,20.881,2.9091,0.1,6.9428e-05,693.8,6.8137e-05,660.06,-1.9714e-05,-0.026845,-2.8115e-05,-63.143,2.3388
5814,20.697,2.9091,0.1,7.3175e-05,731.25,7.1987e-05,699.81,-2.1156e-05,-0.025234,-2.9037e-05,-59.244,2.3084
5815,20.514,2.9091,0.1,7.6964e-05,769.11,7.5866e-05,739.77,-2.2595e-05,-0.023783,-2.9995e-05,-55.626,2.278
5816,20.33,2.9091,0.1,8.0792e-05,807.36,7.9775e-05,779.94,-2.4032e-05,-0.022479,-3.0986e-05,-52.269,2.2477
5817,20.147,2.9091,0.1,8.4657e-05,845.98,8.3713e-05,820.32,-2.5468e-05,-0.021302,-3.2008e-05,-49.155,2.2175
5818,19.963,2.9091,0.1,8.8558e-05,884.97,8.7679e-05,860.91,-2.6904e-05,-0.02024,-3.3059e-05,-46.266,2.1873
5819,19.78,2.9091,0.1,9.2493e-05,924.29,9.1674e-05,901.72,-2.834e-05,-0.019259,-3.4138e-05,-43.586,2.1572
5820,19.596,2.9091,0.1,9.6462e-05,963.95,9.5697e-05,942.74,-2.9776e-05,-0.018361,-3.5244e-05,-41.099,2.1271
5821,19.413,2.9091,0.1,0.00010046,1003.9,9.9746e-05,983.97,-3.1214e-05,-0.017549,-3.6374e-05,-38.789,2.0971
5822,19.229,2.9091,0.1,0.00010449,1044.2,0.00010382,1025.4,-3.2654e-05,-0.016793,-3.7528e-05,-36.643,2.0672
5823,19.046,2.9091,0.1,0.00010856,1084.8,0.00010793,1067.1,-3.4095e-05,-0.016093,-3.8704e-05,-34.648,2.0373
5824,18.863,2.9091,0.1,0.00011265,1125.7,0.00011205,1108.9,-3.5539e-05,-0.015452,-3.9901e-05,-32.791,2.0075
5825,18.679,2.9091,0.1,0.00011677,1166.9,0.00011621,1151,-3.6986e-05,-0.014843,-4.1118e-05,-31.06,1.9778
5826,18.496,2.9091,0.1,0.00012091,1208.3,0.00012039,1193.3,-3.8436e-05,-0.014284,-4.2353e-05,-29.446,1.9482
5827,18.312,2.9091,0.1,0.00012509,1250,0.00012459,1235.8,-3.9889e-05,-0.013768,-4.3605e-05,-27.937,1.9186
5828,18.129,2.9091,0.1,0.00012929,1292,0.00012882,1278.5,-4.1346e-05,-0.013297,-4.4874e-05,-26.524,1.8891
5829,17.945,2.9091,0.1,0.00013351,1334.2,0.00013307,1321.4,-4.2807e-05,-0.012835,-4.6159e-05,-25.199,1.8597
5830,17.762,2.9091,0.1,0.00013777,1376.7,0.00013734,1364.6,-4.4272e-05,-0.012405,-4.7458e-05,-23.952,1.8304
5831,17.578,2.9091,0.1,0.00014204,1419.4,0.00014164,1407.9,-4.5742e-05,-0.01202,-4.8772e-05,-22.777,1.8012
5832,17.395,2.9091,0.1,0.00014634,1462.4,0.00014596,1451.4,-4.7216e-05,-0.011642,-5.0098e-05,-21.664,1.7721
5833,17.211,2.9091,0.1,0.00015066,1505.6,0.0001503,1495.2,-4.8695e-05,-0.011288,-5.1437e-05,-20.608,1.7431
5834,17.028,2.9091,0.1,0.00015501,1549,0.00015467,1539.1,-5.018e-05,-0.010957,-5.2787e-05,-19.601,1.7142
5835,16.844,2.9091,0.1,0.00015938,1592.7,0.00015905,1583.3,-5.167e-05,-0.010627,-5.4149e-05,-18.638,1.6854
5836,16.661,2.9091,0.1,0.00016377,1636.6,0.00016346,1627.6,-5.3165e-05,-0.010322,-5.552e-05,-17.711,1.6567
5837,16.477,2.9091,0.1,0.00016818,1680.6,0.00016789,1672.2,-5.4665e-05,-0.010042,-5.6902e-05,-16.816,1.6281
5838,16.294,2.9091,0.1,0.00017261,1725,0.00017234,1716.9,-5.6172e-05,-0.0097851,-5.8293e-05,-15.945,1.5996
5839,16.11,2.9091,0.1,0.00017707,1769.5,0.00017681,1761.9,-5.7684e-05,-0.0095176,-5.9692e-05,-15.095,1.5713
5840,15.927,2.9091,0.1,0.00018154,1814.2,0.0001813,1807,-5.9203e-05,-0.009259,-6.1099e-05,-14.258,1.543
5841,15.743,2.9091,0.1,0.00018604,1859.1,0.00018581,1852.4,-6.0728e-05,-0.0090422,-6.2514e-05,-13.431,1.5149
5842,15.56,2.9091,0.1,0.00019056,1904.3,0.00019034,1897.9,-6.2259e-05,-0.0088068,-6.3936e-05,-12.607,1.4869
5843,15.376,2.9091,0.1,0.00019509,1949.6,0.00019489,1943.7,-6.3797e-05,-0.0085883,-6.5364e-05,-11.781,1.459
5844,15.193,2.9091,0.1,0.00019965,1995.1,0.00019946,1989.6,-6.5341e-05,-0.0083802,-6.6797e-05,-10.948,1.4313
5845,15.009,2.9091,0.1,0.00020422,2040.8,0.00020405,2035.7,-6.6893e-05,-0.0081561,-6.8236e-05,-10.103,1.4037
5846,14.826,2.9091,0.1,0.00020881,2086.7,0.00020865,2082.1,-6.8451e-05,-0.0079511,-6.968e-05,-9.2407,1.3762
5847,14.642,2.9091,0.1,0.00021342,2132.8,0.00021328,2128.6,-7.0016e-05,-0.0077599,-7.1127e-05,-8.3545,1.3489
5848,14.459,2.9091,0.1,0.00021805,2179,0.00021793,2175.3,-7.1589e-05,-0.0075898,-7.2578e-05,-7.4394,1.3217
5849,14.276,2.9091,0.1,0.0002227,2225.5,0.00022259,2222.2,-7.317e-05,-0.0073909,-7.4032e-05,-6.4893,1.2947
5850,14.092,2.9091,0.1,0.00022736,2272.1,0.00022727,2269.3,-7.4758e-05,-0.007192,-7.5488e-05,-5.498,1.2678
5851,13.909,2.9091,0.1,0.00023204,2318.8,0.00023197,2316.6,-7.6353e-05,-0.0070326,-7.6946e-05,-4.4594,1.2411
5852,13.725,2.9091,0.1,0.00023674,2365.7,0.00023668,2364.1,-7.7957e-05,-0.0068411,-7.8405e-05,-3.3664,1.2145
5853,13.542,2.9091,0.1,0.00024145,2412.8,0.00024141,2411.7,-7.957e-05,-0.0066488,-7.9863e-05,-2.2121,1.1881
5854,13.358,2.9091,0.1,0.00024618,2460.1,0.00024616,2459.6,-8.119e-05,-0.0064232,-8.1321e-05,-0.98895,1.1618
5855,13.175,2.9091,0.1,0.00025092,2507.5,0.00025093,2507.6,-8.2777e-05,0.31164,-8.282e-05,-0.0066272,1.1358
5856,12.991,2.9091,0.1,0.00025568,2555,0.00025571,2555.8,-8.4231e-05,1.6969,-8.4458e-05,-0.006213,1.1098
5857,12.808,2.9091,0.1,0.00026045,2602.7,0.0002605,2604.3,-8.5682e-05,3.177,-8.6105e-05,-0.0060202,1.0841
5858,12.624,2.9091,0.1,0.00026523,2650.5,0.00026531,2652.9,-8.7128e-05,4.7617,-8.7762e-05,-0.0058024,1.0585
5859,12.441,2.9091,0.1,0.00027003,2698.4,0.00027014,2701.6,-8.8568e-05,6.4613,-8.9429e-05,-0.0056046,1.0331
5860,12.257,2.9091,0.1,0.00027483,2746.4,0.00027497,2750.6,-9.0002e-05,8.2873,-9.1106e-05,-0.0054172,1.0079
5861,12.074,2.9091,0.1,0.00027965,2794.6,0.00027983,2799.7,-9.1428e-05,10.252,-9.2793e-05,-0.0052445,0.9829
5862,11.89,2.9091,0.1,0.00028448,2842.9,0.00028469,2849,-9.2845e-05,12.369,-9.4492e-05,-0.0050349,0.95806
5863,11.707,2.9091,0.1,0.00028932,2891.2,0.00028957,2898.5,-9.4251e-05,14.652,-9.6201e-05,-0.0048259,0.93342
5864,11.523,2.9091,0.1,0.00029417,2939.7,0.00029446,2948.2,-9.5644e-05,17.119,-9.7923e-05,-0.004616,0.90897
5865,11.34,2.9091,0.1,0.00029902,2988.2,0.00029936,2998,-9.7023e-05,19.785,-9.9657e-05,-0.004357,0.88472
5866,11.156,2.9091,0.1,0.00030389,3036.8,0.00030427,3048,-9.8386e-05,22.669,-0.0001014,-0.004137,0.86067
5867,10.973,2.9091,0.1,0.00030875,3085.4,0.00030918,3098.2,-9.9731e-05,25.793,-0.00010316,-0.0039044,0.83683
5868,10.789,2.9091,0.1,0.00031363,3134.1,0.00031411,3148.6,-0.00010105,29.18,-0.00010494,-0.0036139,0.81319
5869,10.606,2.9091,0.1,0.0003185,3182.8,0.00031905,3199.1,-0.00010236,32.853,-0.00010673,-0.0033305,0.78977
5870,10.422,2.9091,0.1,0.00032338,3231.6,0.00032399,3249.8,-0.00010363,36.841,-0.00010854,-0.0030488,0.76656
5871,10.239,2.9091,0.1,0.00032826,3280.3,0.00032894,3300.7,-0.00010488,41.174,-0.00011036,-0.0027679,0.74356
5872,10.055,2.9091,0.1,0.00033314,3329.1,0.0003339,3351.8,-0.00010609,45.885,-0.0001122,-0.0024387,0.72079
5873,9.872,2.9091,0.1,0.00033802,3377.9,0.00033886,3403.1,-0.00010727,51.012,-0.00011406,-0.0020898,0.69825
5874,9.6885,2.9091,0.1,0.0003429,3426.6,0.00034382,3454.5,-0.00010842,56.595,-0.00011595,-0.0017377,0.67593
5875,9.505,2.9091,0.1,0.00034777,3475.3,0.0003488,3506.2,-0.00010951,62.68,-0.00011786,-0.001364,0.65385
5876,9.3215,2.9091,0.1,0.00035265,3524,0.00035377,3558.2,-0.00011056,69.318,-0.00011979,-0.00098099,0.632
5877,9.1381,2.9091,0.1,0.00035752,3572.7,0.00035876,3610.4,-0.00011156,76.564,-0.00012175,-0.00058876,0.61038
5878,8.9546,2.9091,0.1,0.00036239,3621.4,0.00036375,3662.9,-0.0001125,84.48,-0.00012375,-0.00019653,0.58901
5879,8.7711,2.9091,0.1,0.00036726,3670.1,0.00036876,3715.8,-0.00011338,93.136,-0.00012578,0.00018482,0.56789
5880,8.5876,2.9091,0.1,0.00037214,3718.8,0.00037378,3769,-0.0001142,102.61,-0.00012785,0.00054048,0.54701
5881,8.4041,2.9091,0.1,0.00037702,3767.6,0.00037882,3822.9,-0.00011494,112.98,-0.00012997,0.00084735,0.52638
5882,8.2206,2.9091,0.1,0.00038193,3816.6,0.00038389,3877.3,-0.0001156,124.33,-0.00013214,0.0010724,0.50601
5883,8.0372,2.9091,0.1,0.00038686,3865.9,0.00038901,3932.5,-0.00011618,136.78,-0.00013438,0.0011731,0.4859
5884,7.8537,2.9091,0.1,0.00039184,3915.7,0.00039418,3988.7,-0.00011667,150.43,-0.00013669,0.0010855,0.46605
5885,7.6702,2.9091,0.1,0.00039688,3966.1,0.00039944,4046.2,-0.00011706,165.4,-0.00013908,0.00072583,0.44646
5886,7.4867,2.9091,0.1,0.00040202,4017.4,0.0004048,4105.2,-0.00011737,181.81,-0.00014157,-2.2298e-05,0.42715
5887,7.3032,2.9091,0.1,0.00040728,4070,0.00041031,4166.2,-0.00011759,199.78,-0.00014418,-0.0013189,0.4081
5888,7.1198,2.9091,0.1,0.00041273,4124.5,0.00041603,4229.8,-0.00011772,219.45,-0.00014693,-0.0033814,0.38934
5889,6.9363,2.9091,0.1,0.00041844,4181.5,0.00042201,4296.7,-0.00011778,240.95,-0.00014985,-0.0065078,0.37085
5890,6.7528,2.9091,0.1,0.00042448,4241.8,0.00042836,4367.8,-0.00011778,264.37,-0.00015297,-0.011108,0.35265
5891,6.5693,2.9091,0.1,0.00043098,4306.8,0.00043517,4444.4,-0.00011776,289.82,-0.00015634,-0.017746,0.33473
5892,6.3858,2.9091,0.1,0.00043808,4377.8,0.00044262,4527.8,-0.00011777,317.32,-0.00016,-0.0272,0.31711
5893,6.2024,2.9091,0.1,0.00044601,4457,0.00045089,4620.2,-0.00011786,346.84,-0.00016403,-0.040556,0.29979
5894,6.0189,2.9091,0.1,0.000455,4546.9,0.00046025,4724.2,-0.00011815,378.24,-0.0001685,-0.059327,0.28277
5895,5.8354,2.9091,0.1,0.00046542,4651,0.00047105,4842.9,-0.00011877,411.19,-0.00017351,-0.085636,0.26606
5896,5.6519,2.9091,0.1,0.0004777,4773.7,0.00048371,4980.6,-0.00011993,445.12,-0.00017919,-0.12247,0.24967
5897,5.4684,2.9091,0.1,0.00049245,4921.1,0.00049884,5143,-0.00012189,479.06,-0.00018567,-0.17401,0.2336
5898,5.285,2.9091,0.1,0.00051043,5100.8,0.0005172,5337.1,-0.00012506,511.44,-0.00019316,-0.24604,0.21787
5899,5.1015,2.9091,0.1,0.00053267,5323,0.00053979,5572.2,-0.00012997,539.87,-0.00020187,-0.34636,0.20249
5900,4.918,2.9091,0.1,0.00056051,5601.2,0.00056792,5860.2,-0.0001374,560.65,-0.00021208,-0.4848,0.18747
5901,4.7345,2.9091,0.1,0.00059571,5953,0.00060332,6216.4,-0.0001484,568.23,-0.00022411,-0.67197,0.17284
5902,4.551,2.9091,0.1,0.00064054,6401,0.00064815,6659.7,-0.00016441,554.46,-0.00023832,-0.91419,0.15861
5903,4.3676,2.9091,0.1,0.00069777,6972.9,0.000705,7212.3,-0.00018731,507.84,-0.00025506,-1.1989,0.14482
5904,4.1841,2.9091,0.1,0.00077047,7699.3,0.00077664,7897,-0.00021935,413.49,-0.00027458,-1.4746,0.1315
5905,4.0006,2.9091,0.1,0.00086098,8603.8,0.00086501,8728,-0.00026258,255.72,-0.00029682,-1.5584,0.11871
5906,3.8171,2.9091,0.1,0.00096854,9678.8,0.00096898,9691.5,-0.00031726,27.275,-0.00032111,-1.6394,0.1065
5907,3.6336,2.9091,0.1,0.0010847,10839,0.0010802,10711,-0.00034532,0.085059,-0.00037904,-253.22,0.094937
5908,3.4501,2.9091,0.1,0.0011889,11881,0.0011793,11616,-0.00036651,0.62533,-0.00043513,-514.98,0.084104
5909,23.817,3.0909,0.1,2.0086e-05,200.72,9.8469e-06,39.57,4.5518e-06,-0.21569,-1.9118e-05,-178.06,2.8297
5910,23.633,3.0909,0.1,2.1787e-05,217.72,1.3398e-05,78.429,2.915e-06,-0.33254,-1.9361e-05,-167.71,2.7989
5911,23.45,3.0909,0.1,2.3906e-05,238.89,1.6945e-05,117.28,1.3169e-06,-0.14576,-1.9639e-05,-157.6,2.768
5912,23.266,3.0909,0.1,2.6344e-05,263.26,2.0498e-05,155.96,-2.7594e-07,-0.12762,-1.9955e-05,-147.99,2.7372
5913,23.083,3.0909,0.1,2.9024e-05,290.04,2.4053e-05,194.52,-1.8486e-06,-0.0958,-2.0313e-05,-138.83,2.7064
5914,22.899,3.0909,0.1,3.1888e-05,318.66,2.7615e-05,232.99,-3.4044e-06,-0.080501,-2.0714e-05,-130.14,2.6756
5915,22.716,3.0909,0.1,3.4898e-05,348.74,3.1187e-05,271.41,-4.9436e-06,-0.068152,-2.116e-05,-121.91,2.6449
5916,22.532,3.0909,0.1,3.8025e-05,379.99,3.4774e-05,309.82,-6.4676e-06,-0.059365,-2.1652e-05,-114.15,2.6141
5917,22.349,3.0909,0.1,4.125e-05,412.21,3.838e-05,348.26,-7.9776e-06,-0.052475,-2.219e-05,-106.84,2.5834
5918,22.165,3.0909,0.1,4.4558e-05,445.27,4.2006e-05,386.76,-9.475e-06,-0.047018,-2.2775e-05,-99.981,2.5527
5919,21.982,3.0909,0.1,4.7939e-05,479.06,4.5656e-05,425.36,-1.0961e-05,-0.042565,-2.3407e-05,-93.557,2.522
5920,21.798,3.0909,0.1,5.1385e-05,513.49,4.9332e-05,464.08,-1.2438e-05,-0.038863,-2.4085e-05,-87.551,2.4914
5921,21.615,3.0909,0.1,5.4891e-05,548.53,5.3035e-05,502.93,-1.3906e-05,-0.035725,-2.4807e-05,-81.946,2.4608
5922,21.431,3.0909,0.1,5.8451e-05,584.11,5.6767e-05,541.94,-1.5366e-05,-0.033032,-2.5573e-05,-76.723,2.4302
5923,21.248,3.0909,0.1,6.2063e-05,620.2,6.0527e-05,581.13,-1.682e-05,-0.030704,-2.6381e-05,-71.862,2.3997
5924,21.064,3.0909,0.1,6.5723e-05,656.77,6.4317e-05,620.5,-1.827e-05,-0.028655,-2.7228e-05,-67.342,2.3692
5925,20.881,3.0909,0.1,6.9428e-05,693.8,6.8137e-05,660.06,-1.9714e-05,-0.026844,-2.8115e-05,-63.143,2.3388
5926,20.697,3.0909,0.1,7.3175e-05,731.25,7.1987e-05,699.81,-2.1156e-05,-0.025234,-2.9037e-05,-59.244,2.3084
5927,20.514,3.0909,0.1,7.6964e-05,769.11,7.5866e-05,739.77,-2.2595e-05,-0.023784,-2.9995e-05,-55.626,2.278
5928,20.33,3.0909,0.1,8.0792e-05,807.36,7.9775e-05,779.94,-2.4032e-05,-0.022479,-3.0986e-05,-52.269,2.2477
5929,20.147,3.0909,0.1,8.4657e-05,845.98,8.3713e-05,820.32,-2.5468e-05,-0.021304,-3.2008e-05,-49.155,2.2175
5930,19.963,3.0909,0.1,8.8558e-05,884.97,8.7679e-05,860.91,-2.6904e-05,-0.02024,-3.3059e-05,-46.266,2.1873
5931,19.78,3.0909,0.1,9.2493e-05,924.29,9.1674e-05,901.72,-2.834e-05,-0.01926,-3.4138e-05,-43.586,2.1572
5932,19.596,3.0909,0.1,9.6462e-05,963.95,9.5697e-05,942.74,-2.9776e-05,-0.018362,-3.5244e-05,-41.099,2.1271
5933,19.413,3.0909,0.1,0.00010046,1003.9,9.9746e-05,983.97,-3.1214e-05,-0.017549,-3.6374e-05,-38.789,2.0971
5934,19.229,3.0909,0.1,0.00010449,1044.2,0.00010382,1025.4,-3.2654e-05,-0.016793,-3.7528e-05,-36.643,2.0672
5935,19.046,3.0909,0.1,0.00010856,1084.8,0.00010793,1067.1,-3.4095e-05,-0.016095,-3.8704e-05,-34.648,2.0373
5936,18.863,3.0909,0.1,0.00011265,1125.7,0.00011205,1108.9,-3.5539e-05,-0.015452,-3.9901e-05,-32.791,2.0075
5937,18.679,3.0909,0.1,0.00011677,1166.9,0.00011621,1151,-3.6986e-05,-0.014843,-4.1118e-05,-31.06,1.9778
5938,18.496,3.0909,0.1,0.00012091,1208.3,0.00012039,1193.3,-3.8436e-05,-0.014283,-4.2353e-05,-29.446,1.9482
5939,18.312,3.0909,0.1,0.00012509,1250,0.00012459,1235.8,-3.9889e-05,-0.013767,-4.3605e-05,-27.937,1.9186
5940,18.129,3.0909,0.1,0.00012929,1292,0.00012882,1278.5,-4.1346e-05,-0.013295,-4.4874e-05,-26.524,1.8891
5941,17.945,3.0909,0.1,0.00013351,1334.2,0.00013307,1321.4,-4.2807e-05,-0.012835,-4.6159e-05,-25.199,1.8597
5942,17.762,3.0909,0.1,0.00013777,1376.7,0.00013734,1364.6,-4.4272e-05,-0.012404,-4.7458e-05,-23.952,1.8304
5943,17.578,3.0909,0.1,0.00014204,1419.4,0.00014164,1407.9,-4.5742e-05,-0.012019,-4.8772e-05,-22.777,1.8012
5944,17.395,3.0909,0.1,0.00014634,1462.4,0.00014596,1451.4,-4.7216e-05,-0.011642,-5.0098e-05,-21.664,1.7721
5945,17.211,3.0909,0.1,0.00015066,1505.6,0.0001503,1495.2,-4.8695e-05,-0.011288,-5.1437e-05,-20.608,1.7431
5946,17.028,3.0909,0.1,0.00015501,1549,0.00015467,1539.1,-5.018e-05,-0.010957,-5.2787e-05,-19.601,1.7142
5947,16.844,3.0909,0.1,0.00015938,1592.7,0.00015905,1583.3,-5.167e-05,-0.010627,-5.4149e-05,-18.638,1.6854
5948,16.661,3.0909,0.1,0.00016377,1636.6,0.00016346,1627.6,-5.3165e-05,-0.010323,-5.552e-05,-17.711,1.6567
5949,16.477,3.0909,0.1,0.00016818,1680.6,0.00016789,1672.2,-5.4665e-05,-0.010041,-5.6902e-05,-16.816,1.6281
5950,16.294,3.0909,0.1,0.00017261,1725,0.00017234,1716.9,-5.6172e-05,-0.0097872,-5.8293e-05,-15.945,1.5996
5951,16.11,3.0909,0.1,0.00017707,1769.5,0.00017681,1761.9,-5.7684e-05,-0.0095177,-5.9692e-05,-15.095,1.5713
5952,15.927,3.0909,0.1,0.00018154,1814.2,0.0001813,1807,-5.9203e-05,-0.0092587,-6.1099e-05,-14.258,1.543
5953,15.743,3.0909,0.1,0.00018604,1859.1,0.00018581,1852.4,-6.0728e-05,-0.0090416,-6.2514e-05,-13.431,1.5149
5954,15.56,3.0909,0.1,0.00019056,1904.3,0.00019034,1897.9,-6.2259e-05,-0.0088077,-6.3936e-05,-12.607,1.4869
5955,15.376,3.0909,0.1,0.00019509,1949.6,0.00019489,1943.7,-6.3797e-05,-0.0085878,-6.5364e-05,-11.781,1.459
5956,15.193,3.0909,0.1,0.00019965,1995.1,0.00019946,1989.6,-6.5341e-05,-0.0083802,-6.6797e-05,-10.948,1.4313
5957,15.009,3.0909,0.1,0.00020422,2040.8,0.00020405,2035.7,-6.6893e-05,-0.008156,-6.8236e-05,-10.103,1.4037
5958,14.826,3.0909,0.1,0.00020881,2086.7,0.00020865,2082.1,-6.8451e-05,-0.007951,-6.968e-05,-9.2407,1.3762
5959,14.642,3.0909,0.1,0.00021342,2132.8,0.00021328,2128.6,-7.0016e-05,-0.0077604,-7.1127e-05,-8.3545,1.3489
5960,14.459,3.0909,0.1,0.00021805,2179,0.00021793,2175.3,-7.1589e-05,-0.0075897,-7.2578e-05,-7.4394,1.3217
5961,14.276,3.0909,0.1,0.0002227,2225.5,0.00022259,2222.2,-7.317e-05,-0.0073904,-7.4032e-05,-6.4893,1.2947
5962,14.092,3.0909,0.1,0.00022736,2272.1,0.00022727,2269.3,-7.4758e-05,-0.0071923,-7.5488e-05,-5.498,1.2678
5963,13.909,3.0909,0.1,0.00023204,2318.8,0.00023197,2316.6,-7.6353e-05,-0.0070325,-7.6946e-05,-4.4594,1.2411
5964,13.725,3.0909,0.1,0.00023674,2365.7,0.00023668,2364.1,-7.7957e-05,-0.0068409,-7.8405e-05,-3.3664,1.2145
5965,13.542,3.0909,0.1,0.00024145,2412.8,0.00024141,2411.7,-7.957e-05,-0.006649,-7.9863e-05,-2.2121,1.1881
5966,13.358,3.0909,0.1,0.00024618,2460.1,0.00024616,2459.6,-8.119e-05,-0.0064233,-8.1321e-05,-0.98895,1.1618
5967,13.175,3.0909,0.1,0.00025092,2507.5,0.00025093,2507.6,-8.2777e-05,0.31164,-8.282e-05,-0.006628,1.1358
5968,12.991,3.0909,0.1,0.00025568,2555,0.00025571,2555.8,-8.4231e-05,1.6969,-8.4458e-05,-0.006213,1.1098
5969,12.808,3.0909,0.1,0.00026045,2602.7,0.0002605,2604.3,-8.5682e-05,3.177,-8.6105e-05,-0.00602,1.0841
5970,12.624,3.0909,0.1,0.00026523,2650.5,0.00026531,2652.9,-8.7128e-05,4.7617,-8.7762e-05,-0.0058024,1.0585
5971,12.441,3.0909,0.1,0.00027003,2698.4,0.00027014,2701.6,-8.8568e-05,6.4613,-8.9429e-05,-0.005604,1.0331
5972,12.257,3.0909,0.1,0.00027483,2746.4,0.00027497,2750.6,-9.0002e-05,8.2873,-9.1106e-05,-0.0054177,1.0079
5973,12.074,3.0909,0.1,0.00027965,2794.6,0.00027983,2799.7,-9.1428e-05,10.252,-9.2793e-05,-0.0052446,0.9829
5974,11.89,3.0909,0.1,0.00028448,2842.9,0.00028469,2849,-9.2845e-05,12.369,-9.4492e-05,-0.0050349,0.95806
5975,11.707,3.0909,0.1,0.00028932,2891.2,0.00028957,2898.5,-9.4251e-05,14.652,-9.6201e-05,-0.0048253,0.93342
5976,11.523,3.0909,0.1,0.00029417,2939.7,0.00029446,2948.2,-9.5644e-05,17.119,-9.7923e-05,-0.004616,0.90897
5977,11.34,3.0909,0.1,0.00029902,2988.2,0.00029936,2998,-9.7023e-05,19.785,-9.9657e-05,-0.0043567,0.88472
5978,11.156,3.0909,0.1,0.00030389,3036.8,0.00030427,3048,-9.8386e-05,22.669,-0.0001014,-0.0041372,0.86067
5979,10.973,3.0909,0.1,0.00030875,3085.4,0.00030918,3098.2,-9.9731e-05,25.793,-0.00010316,-0.0039047,0.83683
5980,10.789,3.0909,0.1,0.00031363,3134.1,0.00031411,3148.6,-0.00010105,29.18,-0.00010494,-0.0036137,0.81319
5981,10.606,3.0909,0.1,0.0003185,3182.8,0.00031905,3199.1,-0.00010236,32.853,-0.00010673,-0.0033302,0.78977
5982,10.422,3.0909,0.1,0.00032338,3231.6,0.00032399,3249.8,-0.00010363,36.841,-0.00010854,-0.0030489,0.76656
5983,10.239,3.0909,0.1,0.00032826,3280.3,0.00032894,3300.7,-0.00010488,41.174,-0.00011036,-0.0027678,0.74356
5984,10.055,3.0909,0.1,0.00033314,3329.1,0.0003339,3351.8,-0.00010609,45.885,-0.0001122,-0.0024387,0.72079
5985,9.872,3.0909,0.1,0.00033802,3377.9,0.00033886,3403.1,-0.00010727,51.012,-0.00011406,-0.0020898,0.69825
5986,9.6885,3.0909,0.1,0.0003429,3426.6,0.00034382,3454.5,-0.00010842,56.595,-0.00011595,-0.0017376,0.67593
5987,9.505,3.0909,0.1,0.00034777,3475.3,0.0003488,3506.2,-0.00010951,62.68,-0.00011786,-0.0013636,0.65385
5988,9.3215,3.0909,0.1,0.00035265,3524,0.00035377,3558.2,-0.00011056,69.318,-0.00011979,-0.00098064,0.632
5989,9.1381,3.0909,0.1,0.00035752,3572.7,0.00035876,3610.4,-0.00011156,76.564,-0.00012175,-0.00058882,0.61038
5990,8.9546,3.0909,0.1,0.00036239,3621.4,0.00036375,3662.9,-0.0001125,84.48,-0.00012375,-0.00019695,0.58901
5991,8.7711,3.0909,0.1,0.00036726,3670.1,0.00036876,3715.8,-0.00011338,93.136,-0.00012578,0.000185,0.56789
5992,8.5876,3.0909,0.1,0.00037214,3718.8,0.00037378,3769,-0.0001142,102.61,-0.00012785,0.00054054,0.54701
5993,8.4041,3.0909,0.1,0.00037702,3767.6,0.00037882,3822.9,-0.00011494,112.98,-0.00012997,0.00084723,0.52638
5994,8.2206,3.0909,0.1,0.00038193,3816.6,0.00038389,3877.3,-0.0001156,124.33,-0.00013214,0.0010727,0.50601
5995,8.0372,3.0909,0.1,0.00038686,3865.9,0.00038901,3932.5,-0.00011618,136.78,-0.00013438,0.0011727,0.4859
5996,7.8537,3.0909,0.1,0.00039184,3915.7,0.00039418,3988.7,-0.00011667,150.43,-0.00013669,0.0010854,0.46605
5997,7.6702,3.0909,0.1,0.00039688,3966.1,0.00039944,4046.2,-0.00011706,165.4,-0.00013908,0.00072583,0.44646
5998,7.4867,3.0909,0.1,0.00040202,4017.4,0.0004048,4105.2,-0.00011737,181.81,-0.00014157,-2.272e-05,0.42715
5999,7.3032,3.0909,0.1,0.00040728,4070,0.00041031,4166.2,-0.00011759,199.78,-0.00014418,-0.0013191,0.4081
6000,7.1198,3.0909,0.1,0.00041273,4124.5,0.00041603,4229.8,-0.00011772,219.45,-0.00014693,-0.0033811,0.38934
6001,6.9363,3.0909,0.1,0.00041844,4181.5,0.00042201,4296.7,-0.00011778,240.95,-0.00014985,-0.0065081,0.37085
6002,6.7528,3.0909,0.1,0.00042448,4241.8,0.00042836,4367.8,-0.00011778,264.37,-0.00015297,-0.011108,0.35265
6003,6.5693,3.0909,0.1,0.00043098,4306.8,0.00043517,4444.4,-0.00011776,289.82,-0.00015634,-0.017746,0.33473
6004,6.3858,3.0909,0.1,0.00043808,4377.8,0.00044262,4527.8,-0.00011777,317.32,-0.00016,-0.0272,0.31711
6005,6.2024,3.0909,0.1,0.00044601,4457,0.00045089,4620.2,-0.00011786,346.84,-0.00016403,-0.040556,0.29979
6006,6.0189,3.0909,0.1,0.000455,4546.9,0.00046025,4724.2,-0.00011815,378.24,-0.0001685,-0.059327,0.28277
6007,5.8354,3.0909,0.1,0.00046542,4651,0.00047105,4842.9,-0.00011877,411.19,-0.00017351,-0.085636,0.26606
6008,5.6519,3.0909,0.1,0.0004777,4773.7,0.00048371,4980.6,-0.00011993,445.12,-0.00017919,-0.12247,0.24967
6009,5.4684,3.0909,0.1,0.00049245,4921.1,0.00049884,5143,-0.00012189,479.06,-0.00018567,-0.17401,0.2336
6010,5.285,3.0909,0.1,0.00051043,5100.8,0.0005172,5337.1,-0.00012506,511.44,-0.00019316,-0.24604,0.21787
6011,5.1015,3.0909,0.1,0.00053267,5323,0.00053979,5572.2,-0.00012997,539.87,-0.00020187,-0.34636,0.20249
6012,4.918,3.0909,0.1,0.00056051,5601.2,0.00056792,5860.2,-0.0001374,560.65,-0.00021208,-0.4848,0.18747
6013,4.7345,3.0909,0.1,0.00059571,5953,0.00060332,6216.4,-0.0001484,568.23,-0.00022411,-0.67198,0.17284
6014,4.551,3.0909,0.1,0.00064054,6401,0.00064815,6659.7,-0.00016441,554.46,-0.00023832,-0.9142,0.15861
6015,4.3676,3.0909,0.1,0.00069777,6972.9,0.000705,7212.3,-0.00018731,507.84,-0.00025506,-1.1989,0.14482
6016,4.1841,3.0909,0.1,0.00077047,7699.3,0.00077664,7897,-0.00021935,413.49,-0.00027458,-1.4746,0.1315
6017,4.0006,3.0909,0.1,0.00086098,8603.8,0.00086501,8728,-0.00026258,255.72,-0.00029682,-1.5584,0.11871
6018,3.8171,3.0909,0.1,0.00096854,9678.8,0.00096898,9691.5,-0.00031726,27.275,-0.00032111,-1.6394,0.1065
6019,3.6336,3.0909,0.1,0.0010847,10839,0.0010802,10711,-0.00034532,0.085059,-0.00037904,-253.22,0.094937
6020,3.4501,3.0909,0.1,0.0011889,11881,0.0011793,11616,-0.00036651,0.62533,-0.00043513,-514.98,0.084104
6021,23.817,3.2727,0.1,1.9995e-05,199.81,9.817e-06,39.579,4.5209e-06,-0.21426,-1.9025e-05,-177.13,2.8297
6022,23.633,3.2727,0.1,2.1698e-05,216.83,1.3366e-05,78.417,2.8847e-06,-0.33187,-1.9268e-05,-166.78,2.7988
6023,23.45,3.2727,0.1,2.382e-05,238.03,1.6911e-05,117.25,1.2877e-06,-0.1453,-1.9546e-05,-156.68,2.768
6024,23.266,3.2727,0.1,2.6262e-05,262.44,2.0463e-05,155.91,-3.0398e-07,-0.12721,-1.9863e-05,-147.09,2.7372
6025,23.083,3.2727,0.1,2.8945e-05,289.25,2.4017e-05,194.45,-1.8753e-06,-0.095444,-2.0222e-05,-137.95,2.7064
6026,22.899,3.2727,0.1,3.1814e-05,317.92,2.7578e-05,232.9,-3.4298e-06,-0.080163,-2.0625e-05,-129.28,2.6756
6027,22.716,3.2727,0.1,3.4828e-05,348.04,3.115e-05,271.31,-4.9675e-06,-0.067835,-2.1074e-05,-121.09,2.6449
6028,22.532,3.2727,0.1,3.7959e-05,379.33,3.4738e-05,309.71,-6.49e-06,-0.059063,-2.1569e-05,-113.36,2.6141
6029,22.349,3.2727,0.1,4.1188e-05,411.6,3.8344e-05,348.15,-7.9985e-06,-0.052179,-2.2112e-05,-106.09,2.5834
6030,22.165,3.2727,0.1,4.45e-05,444.7,4.1972e-05,386.65,-9.4946e-06,-0.046729,-2.2701e-05,-99.277,2.5527
6031,21.982,3.2727,0.1,4.7886e-05,478.53,4.5624e-05,425.25,-1.098e-05,-0.04228,-2.3338e-05,-92.896,2.522
6032,21.798,3.2727,0.1,5.1336e-05,513.01,4.9301e-05,463.97,-1.2455e-05,-0.038583,-2.402e-05,-86.934,2.4914
6033,21.615,3.2727,0.1,5.4846e-05,548.08,5.3007e-05,502.84,-1.3921e-05,-0.035449,-2.4747e-05,-81.372,2.4608
6034,21.431,3.2727,0.1,5.8411e-05,583.71,5.674e-05,541.86,-1.5381e-05,-0.03276,-2.5517e-05,-76.192,2.4302
6035,21.248,3.2727,0.1,6.2027e-05,619.84,6.0503e-05,581.05,-1.6834e-05,-0.030436,-2.6329e-05,-71.372,2.3997
6036,21.064,3.2727,0.1,6.569e-05,656.45,6.4296e-05,620.43,-1.8282e-05,-0.02839,-2.7181e-05,-66.892,2.3692
6037,20.881,3.2727,0.1,6.9399e-05,693.51,6.8118e-05,660,-1.9726e-05,-0.026587,-2.8072e-05,-62.731,2.3388
6038,20.697,3.2727,0.1,7.315e-05,730.99,7.197e-05,699.77,-2.1167e-05,-0.024979,-2.8998e-05,-58.867,2.3084
6039,20.514,3.2727,0.1,7.6942e-05,768.88,7.5852e-05,739.74,-2.2605e-05,-0.023532,-2.996e-05,-55.283,2.278
6040,20.33,3.2727,0.1,8.0772e-05,807.16,7.9762e-05,779.92,-2.4042e-05,-0.022234,-3.0954e-05,-51.957,2.2477
6041,20.147,3.2727,0.1,8.464e-05,845.82,8.3702e-05,820.31,-2.5477e-05,-0.021061,-3.1979e-05,-48.872,2.2175
6042,19.963,3.2727,0.1,8.8543e-05,884.82,8.7671e-05,860.91,-2.6912e-05,-0.020005,-3.3033e-05,-46.01,2.1873
6043,19.78,3.2727,0.1,9.2481e-05,924.17,9.1667e-05,901.72,-2.8348e-05,-0.019029,-3.4115e-05,-43.355,2.1572
6044,19.596,3.2727,0.1,9.6452e-05,963.85,9.5691e-05,942.75,-2.9784e-05,-0.018134,-3.5223e-05,-40.89,2.1271
6045,19.413,3.2727,0.1,0.00010045,1003.9,9.9742e-05,983.99,-3.1221e-05,-0.017329,-3.6356e-05,-38.601,2.0971
6046,19.229,3.2727,0.1,0.00010449,1044.2,0.00010382,1025.4,-3.266e-05,-0.016574,-3.7512e-05,-36.475,2.0671
6047,19.046,3.2727,0.1,0.00010855,1084.8,0.00010792,1067.1,-3.4101e-05,-0.01588,-3.869e-05,-34.497,2.0373
6048,18.863,3.2727,0.1,0.00011264,1125.7,0.00011205,1109,-3.5545e-05,-0.015242,-3.9889e-05,-32.657,2.0075
6049,18.679,3.2727,0.1,0.00011677,1166.9,0.00011621,1151.1,-3.6991e-05,-0.014636,-4.1107e-05,-30.942,1.9778
6050,18.496,3.2727,0.1,0.00012091,1208.3,0.00012039,1193.4,-3.8441e-05,-0.01408,-4.2344e-05,-29.341,1.9481
6051,18.312,3.2727,0.1,0.00012509,1250,0.00012459,1235.9,-3.9894e-05,-0.013568,-4.3598e-05,-27.845,1.9186
6052,18.129,3.2727,0.1,0.00012929,1292,0.00012882,1278.6,-4.135e-05,-0.013098,-4.4868e-05,-26.444,1.8891
6053,17.945,3.2727,0.1,0.00013352,1334.3,0.00013307,1321.5,-4.2811e-05,-0.012641,-4.6154e-05,-25.13,1.8597
6054,17.762,3.2727,0.1,0.00013777,1376.7,0.00013735,1364.6,-4.4276e-05,-0.012211,-4.7454e-05,-23.893,1.8304
6055,17.578,3.2727,0.1,0.00014205,1419.5,0.00014164,1408,-4.5746e-05,-0.011831,-4.8769e-05,-22.727,1.8012
6056,17.395,3.2727,0.1,0.00014635,1462.4,0.00014597,1451.5,-4.722e-05,-0.011454,-5.0096e-05,-21.623,1.7721
6057,17.211,3.2727,0.1,0.00015067,1505.6,0.00015031,1495.2,-4.8699e-05,-0.011102,-5.1436e-05,-20.575,1.7431
6058,17.028,3.2727,0.1,0.00015502,1549.1,0.00015467,1539.2,-5.0183e-05,-0.010773,-5.2787e-05,-19.576,1.7142
6059,16.844,3.2727,0.1,0.00015938,1592.7,0.00015906,1583.3,-5.1673e-05,-0.010445,-5.4149e-05,-18.619,1.6853
6060,16.661,3.2727,0.1,0.00016378,1636.6,0.00016347,1627.7,-5.3168e-05,-0.010142,-5.5522e-05,-17.7,1.6566
6061,16.477,3.2727,0.1,0.00016819,1680.7,0.0001679,1672.2,-5.4668e-05,-0.0098629,-5.6904e-05,-16.81,1.6281
6062,16.294,3.2727,0.1,0.00017262,1725,0.00017235,1717,-5.6175e-05,-0.0096074,-5.8296e-05,-15.946,1.5996
6063,16.11,3.2727,0.1,0.00017708,1769.6,0.00017682,1762,-5.7687e-05,-0.0093384,-5.9695e-05,-15.102,1.5712
6064,15.927,3.2727,0.1,0.00018155,1814.3,0.00018131,1807.1,-5.9205e-05,-0.0090826,-6.1103e-05,-14.271,1.543
6065,15.743,3.2727,0.1,0.00018605,1859.2,0.00018582,1852.5,-6.073e-05,-0.0088642,-6.2519e-05,-13.449,1.5149
6066,15.56,3.2727,0.1,0.00019057,1904.4,0.00019035,1898,-6.2261e-05,-0.0086307,-6.3941e-05,-12.631,1.4869
6067,15.376,3.2727,0.1,0.0001951,1949.7,0.0001949,1943.7,-6.3799e-05,-0.00841,-6.5369e-05,-11.811,1.459
6068,15.193,3.2727,0.1,0.00019966,1995.2,0.00019947,1989.7,-6.5343e-05,-0.0082002,-6.6804e-05,-10.984,1.4313
6069,15.009,3.2727,0.1,0.00020423,2040.9,0.00020406,2035.8,-6.6894e-05,-0.0079741,-6.8243e-05,-10.145,1.4036
6070,14.826,3.2727,0.1,0.00020883,2086.8,0.00020867,2082.1,-6.8452e-05,-0.0077651,-6.9687e-05,-9.2885,1.3762
6071,14.642,3.2727,0.1,0.00021344,2132.9,0.00021329,2128.7,-7.0018e-05,-0.0075686,-7.1136e-05,-8.4085,1.3489
6072,14.459,3.2727,0.1,0.00021807,2179.1,0.00021794,2175.4,-7.159e-05,-0.0073916,-7.2588e-05,-7.4999,1.3217
6073,14.276,3.2727,0.1,0.00022271,2225.6,0.0002226,2222.3,-7.3171e-05,-0.0071791,-7.4042e-05,-6.5566,1.2946
6074,14.092,3.2727,0.1,0.00022738,2272.2,0.00022728,2269.4,-7.4758e-05,-0.0069638,-7.5499e-05,-5.5725,1.2678
6075,13.909,3.2727,0.1,0.00023206,2319,0.00023198,2316.7,-7.6354e-05,-0.0067772,-7.6958e-05,-4.5415,1.241
6076,13.725,3.2727,0.1,0.00023675,2365.9,0.00023669,2364.2,-7.7958e-05,-0.0065347,-7.8417e-05,-3.4566,1.2145
6077,13.542,3.2727,0.1,0.00024147,2413,0.00024143,2411.8,-7.957e-05,-0.0062353,-7.9876e-05,-2.3111,1.188
6078,13.358,3.2727,0.1,0.00024619,2460.2,0.00024618,2459.7,-8.119e-05,-0.0056485,-8.1335e-05,-1.0976,1.1618
6079,13.175,3.2727,0.1,0.00025094,2507.6,0.00025094,2507.7,-8.2792e-05,0.19764,-8.282e-05,-0.010539,1.1357
6080,12.991,3.2727,0.1,0.00025569,2555.2,0.00025572,2556,-8.4248e-05,1.5686,-8.4457e-05,-0.0066457,1.1098
6081,12.808,3.2727,0.1,0.00026047,2602.9,0.00026052,2604.4,-8.57e-05,3.0367,-8.6105e-05,-0.0062152,1.084
6082,12.624,3.2727,0.1,0.00026525,2650.7,0.00026533,2653,-8.7147e-05,4.6085,-8.7761e-05,-0.0059144,1.0585
6083,12.441,3.2727,0.1,0.00027005,2698.6,0.00027015,2701.7,-8.8589e-05,6.2941,-8.9428e-05,-0.0056759,1.0331
6084,12.257,3.2727,0.1,0.00027486,2746.7,0.00027499,2750.7,-9.0025e-05,8.1048,-9.1104e-05,-0.0054664,1.0079
6085,12.074,3.2727,0.1,0.00027968,2794.8,0.00027985,2799.8,-9.1453e-05,10.053,-9.2791e-05,-0.0052806,0.98284
6086,11.89,3.2727,0.1,0.00028451,2843.1,0.00028471,2849.2,-9.2871e-05,12.151,-9.4489e-05,-0.0050638,0.958
6087,11.707,3.2727,0.1,0.00028935,2891.5,0.00028959,2898.7,-9.4279e-05,14.415,-9.6198e-05,-0.0048506,0.93336
6088,11.523,3.2727,0.1,0.0002942,2939.9,0.00029448,2948.3,-9.5675e-05,16.858,-9.7919e-05,-0.0046398,0.90891
6089,11.34,3.2727,0.1,0.00029905,2988.5,0.00029938,2998.2,-9.7057e-05,19.5,-9.9653e-05,-0.004383,0.88466
6090,11.156,3.2727,0.1,0.00030392,3037.1,0.00030429,3048.2,-9.8423e-05,22.357,-0.0001014,-0.0041673,0.86061
6091,10.973,3.2727,0.1,0.00030879,3085.8,0.00030921,3098.4,-9.9771e-05,25.45,-0.00010316,-0.0039403,0.83676
6092,10.789,3.2727,0.1,0.00031366,3134.5,0.00031414,3148.8,-0.0001011,28.802,-0.00010493,-0.0036569,0.81312
6093,10.606,3.2727,0.1,0.00031854,3183.2,0.00031908,3199.3,-0.0001024,32.437,-0.00010672,-0.0033834,0.7897
6094,10.422,3.2727,0.1,0.00032342,3232,0.00032403,3250,-0.00010368,36.382,-0.00010853,-0.0031136,0.76649
6095,10.239,3.2727,0.1,0.00032831,3280.8,0.00032898,3300.9,-0.00010494,40.666,-0.00011035,-0.0028474,0.7435
6096,10.055,3.2727,0.1,0.00033319,3329.6,0.00033394,3352,-0.00010616,45.323,-0.00011219,-0.0025358,0.72072
6097,9.872,3.2727,0.1,0.00033807,3378.4,0.0003389,3403.3,-0.00010734,50.388,-0.00011405,-0.0022072,0.69818
6098,9.6885,3.2727,0.1,0.00034296,3427.2,0.00034387,3454.8,-0.00010849,55.9,-0.00011593,-0.0018804,0.67586
6099,9.505,3.2727,0.1,0.00034784,3476,0.00034885,3506.5,-0.0001096,61.905,-0.00011784,-0.001536,0.65377
6100,9.3215,3.2727,0.1,0.00035272,3524.7,0.00035383,3558.4,-0.00011066,68.45,-0.00011977,-0.0011886,0.63192
6101,9.1381,3.2727,0.1,0.00035759,3573.5,0.00035882,3610.7,-0.00011167,75.59,-0.00012173,-0.00083921,0.61031
6102,8.9546,3.2727,0.1,0.00036247,3622.2,0.00036382,3663.2,-0.00011262,83.384,-0.00012372,-0.00049827,0.58894
6103,8.7711,3.2727,0.1,0.00036735,3671,0.00036883,3716,-0.00011352,91.899,-0.00012575,-0.00017743,0.56781
6104,8.5876,3.2727,0.1,0.00037223,3719.8,0.00037385,3769.3,-0.00011435,101.21,-0.00012782,0.0001048,0.54693
6105,8.4041,3.2727,0.1,0.00037713,3768.7,0.0003789,3823.1,-0.0001151,111.39,-0.00012993,0.00032214,0.52631
6106,8.2206,3.2727,0.1,0.00038204,3817.7,0.00038397,3877.5,-0.00011579,122.53,-0.00013209,0.00043955,0.50594
6107,8.0372,3.2727,0.1,0.00038698,3867.1,0.00038909,3932.7,-0.00011639,134.72,-0.00013432,0.00040831,0.48582
6108,7.8537,3.2727,0.1,0.00039196,3916.9,0.00039427,3988.8,-0.0001169,148.08,-0.00013661,0.00016083,0.46597
6109,7.6702,3.2727,0.1,0.00039701,3967.3,0.00039953,4046.2,-0.00011734,162.7,-0.00013899,-0.00039401,0.44639
6110,7.4867,3.2727,0.1,0.00040215,4018.7,0.00040489,4105.1,-0.00011768,178.71,-0.00014146,-0.0013822,0.42707
6111,7.3032,3.2727,0.1,0.00040742,4071.3,0.0004104,4165.9,-0.00011793,196.22,-0.00014405,-0.0029724,0.40803
6112,7.1198,3.2727,0.1,0.00041286,4125.8,0.0004161,4229.2,-0.00011811,215.36,-0.00014677,-0.0053959,0.38926
6113,6.9363,3.2727,0.1,0.00041855,4182.6,0.00042207,4295.7,-0.00011822,236.23,-0.00014966,-0.0089648,0.37077
6114,6.7528,3.2727,0.1,0.00042457,4242.8,0.00042838,4366.3,-0.00011827,258.95,-0.00015274,-0.014107,0.35257
6115,6.5693,3.2727,0.1,0.00043103,4307.3,0.00043515,4442.1,-0.00011831,283.58,-0.00015606,-0.021402,0.33465
6116,6.3858,3.2727,0.1,0.00043808,4377.8,0.00044253,4524.6,-0.00011838,310.15,-0.00015966,-0.031649,0.31703
6117,6.2024,3.2727,0.1,0.00044591,4456.1,0.00045071,4615.7,-0.00011853,338.63,-0.00016361,-0.04594,0.29971
6118,6.0189,3.2727,0.1,0.00045478,4544.7,0.00045993,4717.9,-0.00011888,368.87,-0.00016798,-0.065782,0.28269
6119,5.8354,3.2727,0.1,0.00046502,4647,0.00047053,4834.3,-0.00011955,400.57,-0.00017288,-0.093255,0.26598
6120,5.6519,3.2727,0.1,0.00047705,4767.2,0.00048294,4968.9,-0.00012074,433.15,-0.00017841,-0.13123,0.24959
6121,5.4684,3.2727,0.1,0.00049144,4911,0.0004977,5127.2,-0.0001227,465.73,-0.00018471,-0.18364,0.23352
6122,5.285,3.2727,0.1,0.00050894,5085.8,0.00051556,5315.9,-0.00012582,496.84,-0.00019198,-0.25586,0.21779
6123,5.1015,3.2727,0.1,0.00053051,5301.4,0.00053747,5543.9,-0.0001306,524.27,-0.00020042,-0.35497,0.2024
6124,4.918,3.2727,0.1,0.00055746,5570.7,0.00056471,5822.8,-0.00013777,544.63,-0.00021032,-0.48996,0.18738
6125,4.7345,3.2727,0.1,0.0005915,5910.9,0.00059894,6167.5,-0.00014832,552.86,-0.00022199,-0.67098,0.17274
6126,4.551,3.2727,0.1,0.00063489,6344.5,0.00064234,6597.4,-0.00016365,541.48,-0.00023584,-0.90665,0.1585
6127,4.3676,3.2727,0.1,0.00069056,6900.8,0.00069767,7136.4,-0.00018562,499.75,-0.00025229,-1.2033,0.14469
6128,4.1841,3.2727,0.1,0.00076208,7615.5,0.00076823,7812.8,-0.00021662,413,-0.00027179,-1.497,0.13136
6129,4.0006,3.2727,0.1,0.00085316,8525.8,0.00085731,8653.5,-0.00025933,263.5,-0.00029465,-1.8265,0.11853
6130,3.8171,3.2727,0.1,0.00096568,9650.2,0.00096628,9667.7,-0.00031523,38.944,-0.00032092,-3.8279,0.10629
6131,3.6336,3.2727,0.1,0.0010943,10935,0.0010896,10804,-0.00034813,0.70484,-0.00038274,-259.34,0.094688
6132,3.4501,3.2727,0.1,0.0012172,12163,0.0012068,11876,-0.00037328,4.4625,-0.00044827,-558.98,0.083816
6133,23.817,3.4545,0.1,1.9811e-05,197.98,9.7569e-06,39.596,4.4588e-06,-0.21136,-1.8839e-05,-175.26,2.8297
6134,23.633,3.4545,0.1,2.1518e-05,215.04,1.3301e-05,78.391,2.8241e-06,-0.33049,-1.908e-05,-164.91,2.7988
6135,23.45,3.4545,0.1,2.3647e-05,236.31,1.6844e-05,117.18,1.2291e-06,-0.14435,-1.9359e-05,-154.83,2.768
6136,23.266,3.4545,0.1,2.6097e-05,260.79,2.0392e-05,155.8,-3.6018e-07,-0.12638,-1.9678e-05,-145.27,2.7372
6137,23.083,3.4545,0.1,2.8788e-05,287.69,2.3944e-05,194.3,-1.9288e-06,-0.094702,-2.0041e-05,-136.18,2.7064
6138,22.899,3.4545,0.1,3.1665e-05,316.44,2.7504e-05,232.72,-3.4804e-06,-0.079481,-2.0448e-05,-127.57,2.6756
6139,22.716,3.4545,0.1,3.4688e-05,346.64,3.1076e-05,271.11,-5.0152e-06,-0.067187,-2.0903e-05,-119.44,2.6448
6140,22.532,3.4545,0.1,3.7827e-05,378.01,3.4664e-05,309.5,-6.5347e-06,-0.05844,-2.1405e-05,-111.79,2.6141
6141,22.349,3.4545,0.1,4.1065e-05,410.37,3.8272e-05,347.93,-8.0404e-06,-0.051574,-2.1955e-05,-104.6,2.5834
6142,22.165,3.4545,0.1,4.4386e-05,443.55,4.1903e-05,386.43,-9.5336e-06,-0.046137,-2.2553e-05,-97.87,2.5527
6143,21.982,3.4545,0.1,4.778e-05,477.47,4.5558e-05,425.03,-1.1016e-05,-0.041698,-2.3198e-05,-91.577,2.522
6144,21.798,3.4545,0.1,5.1239e-05,512.04,4.924e-05,463.77,-1.2489e-05,-0.038009,-2.389e-05,-85.703,2.4914
6145,21.615,3.4545,0.1,5.4758e-05,547.2,5.295e-05,502.64,-1.3953e-05,-0.034884,-2.4626e-05,-80.229,2.4608
6146,21.431,3.4545,0.1,5.8331e-05,582.91,5.6688e-05,541.68,-1.541e-05,-0.032203,-2.5406e-05,-75.135,2.4302
6147,21.248,3.4545,0.1,6.1955e-05,619.12,6.0456e-05,580.9,-1.6861e-05,-0.029887,-2.6227e-05,-70.398,2.3997
6148,21.064,3.4545,0.1,6.5626e-05,655.8,6.4253e-05,620.3,-1.8307e-05,-0.027853,-2.7087e-05,-65.997,2.3692
6149,20.881,3.4545,0.1,6.9341e-05,692.94,6.808e-05,659.89,-1.975e-05,-0.026056,-2.7986e-05,-61.911,2.3387
6150,20.697,3.4545,0.1,7.3099e-05,730.49,7.1937e-05,699.68,-2.1189e-05,-0.02446,-2.8921e-05,-58.119,2.3083
6151,20.514,3.4545,0.1,7.6897e-05,768.44,7.5823e-05,739.68,-2.2625e-05,-0.023025,-2.9889e-05,-54.6,2.278
6152,20.33,3.4545,0.1,8.0734e-05,806.78,7.9738e-05,779.88,-2.4061e-05,-0.021737,-3.089e-05,-51.337,2.2477
6153,20.147,3.4545,0.1,8.4607e-05,845.49,8.3681e-05,820.29,-2.5495e-05,-0.020573,-3.1922e-05,-48.309,2.2174
6154,19.963,3.4545,0.1,8.8515e-05,884.54,8.7653e-05,860.91,-2.6929e-05,-0.019529,-3.2982e-05,-45.501,2.1872
6155,19.78,3.4545,0.1,9.2458e-05,923.94,9.1653e-05,901.74,-2.8363e-05,-0.01856,-3.407e-05,-42.895,2.1571
6156,19.596,3.4545,0.1,9.6433e-05,963.66,9.568e-05,942.78,-2.9798e-05,-0.017677,-3.5183e-05,-40.476,2.127
6157,19.413,3.4545,0.1,0.00010044,1003.7,9.9734e-05,984.03,-3.1235e-05,-0.016878,-3.632e-05,-38.229,2.097
6158,19.229,3.4545,0.1,0.00010448,1044,0.00010381,1025.5,-3.2673e-05,-0.016134,-3.7481e-05,-36.141,2.0671
6159,19.046,3.4545,0.1,0.00010854,1084.7,0.00010792,1067.2,-3.4113e-05,-0.015449,-3.8663e-05,-34.199,2.0372
6160,18.863,3.4545,0.1,0.00011264,1125.6,0.00011205,1109.1,-3.5556e-05,-0.014815,-3.9865e-05,-32.391,2.0074
6161,18.679,3.4545,0.1,0.00011676,1166.8,0.00011621,1151.2,-3.7002e-05,-0.014219,-4.1087e-05,-30.706,1.9777
6162,18.496,3.4545,0.1,0.00012091,1208.3,0.00012039,1193.5,-3.8451e-05,-0.013671,-4.2326e-05,-29.133,1.9481
6163,18.312,3.4545,0.1,0.00012509,1250,0.0001246,1236,-3.9903e-05,-0.013164,-4.3583e-05,-27.662,1.9185
6164,18.129,3.4545,0.1,0.00012929,1292,0.00012883,1278.7,-4.1359e-05,-0.0127,-4.4856e-05,-26.285,1.889
6165,17.945,3.4545,0.1,0.00013352,1334.3,0.00013308,1321.6,-4.282e-05,-0.012248,-4.6144e-05,-24.992,1.8596
6166,17.762,3.4545,0.1,0.00013778,1376.8,0.00013736,1364.8,-4.4284e-05,-0.011826,-4.7447e-05,-23.775,1.8303
6167,17.578,3.4545,0.1,0.00014205,1419.6,0.00014166,1408.1,-4.5753e-05,-0.011448,-4.8763e-05,-22.628,1.8011
6168,17.395,3.4545,0.1,0.00014636,1462.5,0.00014598,1451.6,-4.7227e-05,-0.011077,-5.0093e-05,-21.541,1.772
6169,17.211,3.4545,0.1,0.00015068,1505.8,0.00015032,1495.4,-4.8706e-05,-0.010729,-5.1434e-05,-20.509,1.743
6170,17.028,3.4545,0.1,0.00015503,1549.2,0.00015469,1539.3,-5.019e-05,-0.010405,-5.2787e-05,-19.525,1.7141
6171,16.844,3.4545,0.1,0.0001594,1592.9,0.00015907,1583.5,-5.1679e-05,-0.010078,-5.4151e-05,-18.583,1.6853
6172,16.661,3.4545,0.1,0.00016379,1636.8,0.00016348,1627.9,-5.3173e-05,-0.0097808,-5.5525e-05,-17.677,1.6566
6173,16.477,3.4545,0.1,0.0001682,1680.9,0.00016791,1672.4,-5.4674e-05,-0.0095022,-5.6909e-05,-16.801,1.628
6174,16.294,3.4545,0.1,0.00017264,1725.2,0.00017236,1717.2,-5.618e-05,-0.0092513,-5.8301e-05,-15.949,1.5995
6175,16.11,3.4545,0.1,0.0001771,1769.7,0.00017683,1762.1,-5.7692e-05,-0.0089858,-5.9702e-05,-15.116,1.5711
6176,15.927,3.4545,0.1,0.00018157,1814.5,0.00018132,1807.3,-5.921e-05,-0.0087284,-6.1112e-05,-14.297,1.5429
6177,15.743,3.4545,0.1,0.00018607,1859.4,0.00018584,1852.6,-6.0734e-05,-0.0085121,-6.2528e-05,-13.487,1.5148
6178,15.56,3.4545,0.1,0.00019059,1904.5,0.00019037,1898.2,-6.2265e-05,-0.0082761,-6.3952e-05,-12.68,1.4868
6179,15.376,3.4545,0.1,0.00019512,1949.9,0.00019492,1943.9,-6.3802e-05,-0.0080557,-6.5381e-05,-11.872,1.4589
6180,15.193,3.4545,0.1,0.00019968,1995.4,0.00019949,1989.9,-6.5346e-05,-0.0078434,-6.6817e-05,-11.056,1.4312
6181,15.009,3.4545,0.1,0.00020425,2041.1,0.00020408,2036,-6.6897e-05,-0.0076136,-6.8258e-05,-10.229,1.4036
6182,14.826,3.4545,0.1,0.00020885,2087,0.00020869,2082.3,-6.8455e-05,-0.0073971,-6.9703e-05,-9.384,1.3761
6183,14.642,3.4545,0.1,0.00021346,2133.1,0.00021331,2128.9,-7.002e-05,-0.0071918,-7.1153e-05,-8.5165,1.3488
6184,14.459,3.4545,0.1,0.00021809,2179.4,0.00021796,2175.6,-7.1593e-05,-0.0070012,-7.2606e-05,-7.6208,1.3216
6185,14.276,3.4545,0.1,0.00022274,2225.8,0.00022262,2222.5,-7.3172e-05,-0.0067701,-7.4062e-05,-6.691,1.2945
6186,14.092,3.4545,0.1,0.0002274,2272.5,0.0002273,2269.6,-7.476e-05,-0.0065249,-7.552e-05,-5.7212,1.2677
6187,13.909,3.4545,0.1,0.00023208,2319.2,0.000232,2316.9,-7.6355e-05,-0.006289,-7.6981e-05,-4.7053,1.2409
6188,13.725,3.4545,0.1,0.00023678,2366.2,0.00023672,2364.4,-7.7958e-05,-0.0059654,-7.8442e-05,-3.6366,1.2144
6189,13.542,3.4545,0.1,0.0002415,2413.3,0.00024145,2412,-7.957e-05,-0.005504,-7.9903e-05,-2.5085,1.1879
6190,13.358,3.4545,0.1,0.00024623,2460.6,0.0002462,2459.9,-8.119e-05,-0.0044733,-8.1364e-05,-1.3139,1.1617
6191,13.175,3.4545,0.1,0.00025097,2508,0.00025097,2507.9,-8.2814e-05,0.02805,-8.2828e-05,-0.076007,1.1356
6192,12.991,3.4545,0.1,0.00025573,2555.5,0.00025575,2556.2,-8.4281e-05,1.3131,-8.4456e-05,-0.0077658,1.1097
6193,12.808,3.4545,0.1,0.0002605,2603.2,0.00026055,2604.6,-8.5735e-05,2.7572,-8.6103e-05,-0.0066664,1.0839
6194,12.624,3.4545,0.1,0.00026529,2651.1,0.00026536,2653.2,-8.7185e-05,4.3033,-8.7759e-05,-0.0061637,1.0584
6195,12.441,3.4545,0.1,0.00027009,2699,0.00027019,2702,-8.8631e-05,5.961,-8.9425e-05,-0.0058311,1.033
6196,12.257,3.4545,0.1,0.0002749,2747.1,0.00027503,2751,-9.007e-05,7.7414,-9.1101e-05,-0.0055709,1.0077
6197,12.074,3.4545,0.1,0.00027972,2795.3,0.00027989,2800.1,-9.1501e-05,9.6561,-9.2787e-05,-0.0053561,0.98272
6198,11.89,3.4545,0.1,0.00028456,2843.6,0.00028475,2849.4,-9.2924e-05,11.718,-9.4484e-05,-0.0051224,0.95788
6199,11.707,3.4545,0.1,0.0002894,2892,0.00028963,2898.9,-9.4336e-05,13.941,-9.6192e-05,-0.0049008,0.93323
6200,11.523,3.4545,0.1,0.00029425,2940.5,0.00029453,2948.6,-9.5737e-05,16.341,-9.7912e-05,-0.0046889,0.90878
6201,11.34,3.4545,0.1,0.00029911,2989.1,0.00029943,2998.5,-9.7124e-05,18.933,-9.9644e-05,-0.0044339,0.88453
6202,11.156,3.4545,0.1,0.00030398,3037.7,0.00030435,3048.5,-9.8496e-05,21.735,-0.00010139,-0.0042251,0.86048
6203,10.973,3.4545,0.1,0.00030886,3086.4,0.00030927,3098.7,-9.985e-05,24.768,-0.00010315,-0.0040093,0.83663
6204,10.789,3.4545,0.1,0.00031374,3135.2,0.0003142,3149.1,-0.00010119,28.053,-0.00010492,-0.0037409,0.81299
6205,10.606,3.4545,0.1,0.00031862,3184,0.00031915,3199.7,-0.0001025,31.612,-0.00010671,-0.003486,0.78956
6206,10.422,3.4545,0.1,0.00032351,3232.8,0.0003241,3250.4,-0.00010379,35.472,-0.00010851,-0.0032401,0.76635
6207,10.239,3.4545,0.1,0.0003284,3281.7,0.00032905,3301.4,-0.00010505,39.66,-0.00011033,-0.0030013,0.74336
6208,10.055,3.4545,0.1,0.00033329,3330.6,0.00033402,3352.5,-0.00010628,44.209,-0.00011217,-0.0027238,0.72058
6209,9.872,3.4545,0.1,0.00033818,3379.5,0.00033899,3403.8,-0.00010748,49.151,-0.00011403,-0.0024363,0.69804
6210,9.6885,3.4545,0.1,0.00034307,3428.3,0.00034397,3455.3,-0.00010865,54.524,-0.0001159,-0.0021578,0.67572
6211,9.505,3.4545,0.1,0.00034796,3477.2,0.00034895,3507,-0.00010977,60.37,-0.00011781,-0.001871,0.65363
6212,9.3215,3.4545,0.1,0.00035285,3526.1,0.00035394,3559,-0.00011085,66.734,-0.00011973,-0.0015927,0.63178
6213,9.1381,3.4545,0.1,0.00035774,3574.9,0.00035894,3611.2,-0.00011188,73.666,-0.00012168,-0.0013253,0.61016
6214,8.9546,3.4545,0.1,0.00036263,3623.8,0.00036394,3663.7,-0.00011286,81.221,-0.00012367,-0.0010835,0.58879
6215,8.7711,3.4545,0.1,0.00036752,3672.7,0.00036896,3716.6,-0.00011378,89.459,-0.00012569,-0.00088131,0.56766
6216,8.5876,3.4545,0.1,0.00037242,3721.6,0.000374,3769.9,-0.00011464,98.448,-0.00012774,-0.00074246,0.54678
6217,8.4041,3.4545,0.1,0.00037733,3770.7,0.00037905,3823.6,-0.00011543,108.26,-0.00012984,-0.00069742,0.52615
6218,8.2206,3.4545,0.1,0.00038225,3819.9,0.00038414,3878,-0.00011616,118.97,-0.00013199,-0.00078859,0.50578
6219,8.0372,3.4545,0.1,0.00038721,3869.4,0.00038926,3933.1,-0.00011681,130.67,-0.0001342,-0.0010737,0.48567
6220,7.8537,3.4545,0.1,0.0003922,3919.3,0.00039445,3989.1,-0.00011738,143.45,-0.00013647,-0.0016313,0.46582
6221,7.6702,3.4545,0.1,0.00039726,3969.9,0.0003997,4046.2,-0.00011787,157.4,-0.00013882,-0.0025654,0.44623
6222,7.4867,3.4545,0.1,0.00040241,4021.3,0.00040506,4104.8,-0.00011828,172.63,-0.00014125,-0.0040181,0.42691
6223,7.3032,3.4545,0.1,0.00040767,4073.9,0.00041056,4165.2,-0.00011861,189.24,-0.0001438,-0.0061797,0.40787
6224,7.1198,3.4545,0.1,0.00041311,4128.2,0.00041624,4228,-0.00011887,207.34,-0.00014647,-0.0093066,0.3891
6225,6.9363,3.4545,0.1,0.00041877,4184.8,0.00042217,4293.7,-0.00011907,227.01,-0.00014929,-0.013744,0.37062
6226,6.7528,3.4545,0.1,0.00042474,4244.5,0.00042842,4363.2,-0.00011923,248.34,-0.00015229,-0.019953,0.35241
6227,6.5693,3.4545,0.1,0.00043113,4308.3,0.0004351,4437.6,-0.00011938,271.38,-0.00015551,-0.028559,0.3345
6228,6.3858,3.4545,0.1,0.00043807,4377.7,0.00044235,4518.2,-0.00011957,296.16,-0.00015899,-0.040404,0.31688
6229,6.2024,3.4545,0.1,0.00044573,4454.2,0.00045034,4606.7,-0.00011984,322.6,-0.00016279,-0.056621,0.29955
6230,6.0189,3.4545,0.1,0.00045436,4540.4,0.0004593,4705.5,-0.0001203,350.58,-0.00016697,-0.078742,0.28253
6231,5.8354,3.4545,0.1,0.00046424,4639.2,0.00046953,4817.4,-0.00012108,379.78,-0.00017164,-0.10883,0.26582
6232,5.6519,3.4545,0.1,0.00047578,4754.5,0.00048142,4946.1,-0.00012233,409.7,-0.00017688,-0.14966,0.24943
6233,5.4684,3.4545,0.1,0.00048949,4891.6,0.00049548,5096.4,-0.00012431,439.51,-0.00018283,-0.20493,0.23336
6234,5.285,3.4545,0.1,0.00050605,5057,0.00051238,5274.6,-0.00012735,467.94,-0.00018966,-0.27953,0.21762
6235,5.1015,3.4545,0.1,0.00052636,5259.9,0.000533,5488.9,-0.00013191,493.02,-0.00019758,-0.37978,0.20223
6236,4.918,3.4545,0.1,0.0005516,5512.2,0.00055851,5750,-0.00013864,511.87,-0.00020684,-0.51393,0.1872
6237,4.7345,3.4545,0.1,0.00058341,5830.1,0.0005905,6072.3,-0.00014845,520.14,-0.00021777,-0.69094,0.17254
6238,4.551,3.4545,0.1,0.000624,6235.7,0.0006311,6475.2,-0.00016261,511.5,-0.00023081,-0.92943,0.15828
6239,4.3676,3.4545,0.1,0.00067644,6759.7,0.00068326,6984.8,-0.00018292,476.64,-0.00024652,-1.2104,0.14445
6240,4.1841,3.4545,0.1,0.00074504,7445.3,0.00075103,7637.3,-0.00021191,402.09,-0.00026565,-1.6874,0.13107
6241,4.0006,3.4545,0.1,0.0008357,8351.2,0.00083991,8481.3,-0.0002531,268.81,-0.00028917,-2.1549,0.11819
6242,3.8171,3.4545,0.1,0.00095561,9549.6,0.00095644,9574.1,-0.00031064,53.748,-0.00031837,-4.3345,0.10588
6243,3.6336,3.4545,0.1,0.0011092,11084,0.0011043,10945,-0.00035237,0.29244,-0.00038881,-273.53,0.094191
6244,3.4501,3.4545,0.1,0.0012765,12756,0.0012642,12419,-0.00038934,-5.1518,-0.00047446,-644.69,0.083235
6245,23.817,3.6364,0.1,1.9535e-05,195.21,9.666e-06,39.622,4.3651e-06,-0.20691,-1.8557e-05,-172.43,2.8296
6246,23.633,3.6364,0.1,2.1248e-05,212.33,1.3204e-05,78.349,2.7326e-06,-0.32837,-1.8797e-05,-162.09,2.7988
6247,23.45,3.6364,0.1,2.3387e-05,233.71,1.6741e-05,117.07,1.1407e-06,-0.14288,-1.9077e-05,-152.05,2.768
6248,23.266,3.6364,0.1,2.5849e-05,258.31,2.0285e-05,155.63,-4.4481e-07,-0.12509,-1.9399e-05,-142.54,2.7371
6249,23.083,3.6364,0.1,2.8552e-05,285.33,2.3833e-05,194.08,-2.0093e-06,-0.093552,-1.9767e-05,-133.52,2.7063
6250,22.899,3.6364,0.1,3.1442e-05,314.2,2.7392e-05,232.46,-3.5565e-06,-0.078408,-2.0182e-05,-124.99,2.6756
6251,22.716,3.6364,0.1,3.4477e-05,344.53,3.0964e-05,270.81,-5.0868e-06,-0.066175,-2.0645e-05,-116.97,2.6448
6252,22.532,3.6364,0.1,3.763e-05,376.04,3.4554e-05,309.17,-6.6018e-06,-0.057463,-2.1158e-05,-109.43,2.614
6253,22.349,3.6364,0.1,4.0881e-05,408.53,3.8165e-05,347.59,-8.103e-06,-0.050627,-2.1721e-05,-102.37,2.5833
6254,22.165,3.6364,0.1,4.4215e-05,441.85,4.18e-05,386.1,-9.592e-06,-0.045211,-2.2332e-05,-95.766,2.5526
6255,21.982,3.6364,0.1,4.7623e-05,475.9,4.5461e-05,424.71,-1.107e-05,-0.040787,-2.2991e-05,-89.606,2.522
6256,21.798,3.6364,0.1,5.1095e-05,510.6,4.9149e-05,463.46,-1.2539e-05,-0.037113,-2.3696e-05,-83.867,2.4913
6257,21.615,3.6364,0.1,5.4627e-05,545.89,5.2865e-05,502.36,-1.4e-05,-0.034003,-2.4446e-05,-78.527,2.4607
6258,21.431,3.6364,0.1,5.8213e-05,581.72,5.6611e-05,541.43,-1.5454e-05,-0.031338,-2.524e-05,-73.562,2.4301
6259,21.248,3.6364,0.1,6.1848e-05,618.06,6.0386e-05,580.68,-1.6902e-05,-0.029038,-2.6074e-05,-68.949,2.3996
6260,21.064,3.6364,0.1,6.5531e-05,654.86,6.419e-05,620.11,-1.8345e-05,-0.027019,-2.6948e-05,-64.668,2.3691
6261,20.881,3.6364,0.1,6.9257e-05,692.09,6.8024e-05,659.74,-1.9785e-05,-0.025239,-2.7859e-05,-60.694,2.3387
6262,20.697,3.6364,0.1,7.3025e-05,729.75,7.1888e-05,699.56,-2.1221e-05,-0.023663,-2.8805e-05,-57.008,2.3083
6263,20.514,3.6364,0.1,7.6833e-05,767.8,7.578e-05,739.59,-2.2656e-05,-0.022241,-2.9785e-05,-53.589,2.2779
6264,20.33,3.6364,0.1,8.0678e-05,806.22,7.9701e-05,779.82,-2.4089e-05,-0.02097,-3.0796e-05,-50.418,2.2476
6265,20.147,3.6364,0.1,8.4559e-05,845.01,8.3651e-05,820.26,-2.5521e-05,-0.019827,-3.1837e-05,-47.477,2.2174
6266,19.963,3.6364,0.1,8.8475e-05,884.14,8.7628e-05,860.9,-2.6954e-05,-0.018795,-3.2907e-05,-44.748,2.1872
6267,19.78,3.6364,0.1,9.2424e-05,923.6,9.1633e-05,901.76,-2.8386e-05,-0.017845,-3.4002e-05,-42.215,2.157
6268,19.596,3.6364,0.1,9.6405e-05,963.39,9.5665e-05,942.83,-2.982e-05,-0.016974,-3.5123e-05,-39.864,2.127
6269,19.413,3.6364,0.1,0.00010042,1003.5,9.9723e-05,984.1,-3.1255e-05,-0.016192,-3.6268e-05,-37.679,2.097
6270,19.229,3.6364,0.1,0.00010446,1043.9,0.00010381,1025.6,-3.2692e-05,-0.015461,-3.7435e-05,-35.648,2.067
6271,19.046,3.6364,0.1,0.00010853,1084.6,0.00010792,1067.3,-3.4131e-05,-0.014788,-3.8622e-05,-33.759,2.0371
6272,18.863,3.6364,0.1,0.00011263,1125.5,0.00011205,1109.2,-3.5573e-05,-0.01417,-3.983e-05,-32,2.0074
6273,18.679,3.6364,0.1,0.00011676,1166.8,0.00011621,1151.3,-3.7018e-05,-0.013583,-4.1057e-05,-30.359,1.9776
6274,18.496,3.6364,0.1,0.00012091,1208.3,0.0001204,1193.6,-3.8466e-05,-0.013045,-4.2301e-05,-28.827,1.948
6275,18.312,3.6364,0.1,0.00012509,1250.1,0.0001246,1236.1,-3.9918e-05,-0.01255,-4.3562e-05,-27.394,1.9184
6276,18.129,3.6364,0.1,0.0001293,1292.1,0.00012884,1278.9,-4.1373e-05,-0.012096,-4.4839e-05,-26.051,1.8889
6277,17.945,3.6364,0.1,0.00013353,1334.4,0.00013309,1321.8,-4.2833e-05,-0.011655,-4.613e-05,-24.79,1.8595
6278,17.762,3.6364,0.1,0.00013779,1376.9,0.00013737,1365,-4.4296e-05,-0.011238,-4.7436e-05,-23.603,1.8302
6279,17.578,3.6364,0.1,0.00014207,1419.7,0.00014167,1408.3,-4.5765e-05,-0.010871,-4.8756e-05,-22.482,1.801
6280,17.395,3.6364,0.1,0.00014637,1462.7,0.00014599,1451.9,-4.7238e-05,-0.010506,-5.0088e-05,-21.422,1.7719
6281,17.211,3.6364,0.1,0.0001507,1505.9,0.00015034,1495.6,-4.8716e-05,-0.010166,-5.1432e-05,-20.414,1.7429
6282,17.028,3.6364,0.1,0.00015505,1549.4,0.00015471,1539.6,-5.02e-05,-0.009848,-5.2787e-05,-19.452,1.714
6283,16.844,3.6364,0.1,0.00015942,1593.1,0.00015909,1583.7,-5.1688e-05,-0.0095296,-5.4153e-05,-18.531,1.6852
6284,16.661,3.6364,0.1,0.00016381,1637,0.0001635,1628.1,-5.3182e-05,-0.0092351,-5.5529e-05,-17.645,1.6565
6285,16.477,3.6364,0.1,0.00016823,1681.1,0.00016794,1672.7,-5.4682e-05,-0.0089629,-5.6915e-05,-16.788,1.6279
6286,16.294,3.6364,0.1,0.00017266,1725.4,0.00017239,1717.4,-5.6188e-05,-0.0087153,-5.831e-05,-15.954,1.5994
6287,16.11,3.6364,0.1,0.00017712,1770,0.00017686,1762.4,-5.7699e-05,-0.0084526,-5.9713e-05,-15.139,1.571
6288,15.927,3.6364,0.1,0.0001816,1814.7,0.00018135,1807.5,-5.9217e-05,-0.0082012,-6.1124e-05,-14.338,1.5428
6289,15.743,3.6364,0.1,0.0001861,1859.7,0.00018586,1852.9,-6.0741e-05,-0.007985,-6.2542e-05,-13.544,1.5146
6290,15.56,3.6364,0.1,0.00019062,1904.8,0.0001904,1898.4,-6.2271e-05,-0.0077516,-6.3968e-05,-12.754,1.4866
6291,15.376,3.6364,0.1,0.00019515,1950.2,0.00019495,1944.2,-6.3808e-05,-0.0075286,-6.5399e-05,-11.963,1.4588
6292,15.193,3.6364,0.1,0.00019971,1995.7,0.00019952,1990.1,-6.5352e-05,-0.0073147,-6.6837e-05,-11.164,1.431
6293,15.009,3.6364,0.1,0.00020429,2041.5,0.00020411,2036.3,-6.6902e-05,-0.0070805,-6.8279e-05,-10.354,1.4034
6294,14.826,3.6364,0.1,0.00020888,2087.4,0.00020872,2082.6,-6.846e-05,-0.0068577,-6.9727e-05,-9.5274,1.376
6295,14.642,3.6364,0.1,0.0002135,2133.5,0.00021335,2129.1,-7.0024e-05,-0.0066419,-7.1178e-05,-8.6782,1.3486
6296,14.459,3.6364,0.1,0.00021813,2179.8,0.00021799,2175.9,-7.1596e-05,-0.0064347,-7.2633e-05,-7.8017,1.3214
6297,14.276,3.6364,0.1,0.00022278,2226.2,0.00022266,2222.8,-7.3175e-05,-0.0061794,-7.4092e-05,-6.892,1.2944
6298,14.092,3.6364,0.1,0.00022744,2272.9,0.00022734,2269.9,-7.4762e-05,-0.0059002,-7.5552e-05,-5.9434,1.2675
6299,13.909,3.6364,0.1,0.00023213,2319.7,0.00023204,2317.2,-7.6357e-05,-0.005612,-7.7015e-05,-4.95,1.2408
6300,13.725,3.6364,0.1,0.00023683,2366.6,0.00023676,2364.7,-7.796e-05,-0.0052027,-7.8479e-05,-3.9053,1.2142
6301,13.542,3.6364,0.1,0.00024154,2413.8,0.00024149,2412.4,-7.957e-05,-0.0045873,-7.9943e-05,-2.8029,1.1878
6302,13.358,3.6364,0.1,0.00024627,2461,0.00024625,2460.2,-8.119e-05,-0.003275,-8.1407e-05,-1.6361,1.1615
6303,13.175,3.6364,0.1,0.00025102,2508.5,0.00025101,2508.3,-8.2816e-05,0.0055491,-8.2871e-05,-0.40414,1.1354
6304,12.991,3.6364,0.1,0.00025578,2556.1,0.0002558,2556.5,-8.433e-05,0.93329,-8.4455e-05,-0.0106,1.1095
6305,12.808,3.6364,0.1,0.00026056,2603.8,0.0002606,2604.9,-8.5788e-05,2.3407,-8.6101e-05,-0.0075512,1.0838
6306,12.624,3.6364,0.1,0.00026535,2651.6,0.00026541,2653.6,-8.7243e-05,3.8486,-8.7756e-05,-0.0066114,1.0582
6307,12.441,3.6364,0.1,0.00027015,2699.6,0.00027024,2702.4,-8.8692e-05,5.465,-8.9421e-05,-0.006098,1.0328
6308,12.257,3.6364,0.1,0.00027497,2747.8,0.00027509,2751.3,-9.0136e-05,7.2003,-9.1095e-05,-0.0057456,1.0076
6309,12.074,3.6364,0.1,0.00027979,2796,0.00027994,2800.5,-9.1573e-05,9.0656,-9.278e-05,-0.0054778,0.98254
6310,11.89,3.6364,0.1,0.00028463,2844.3,0.00028482,2849.9,-9.3002e-05,11.074,-9.4476e-05,-0.0052144,0.9577
6311,11.707,3.6364,0.1,0.00028948,2892.8,0.0002897,2899.4,-9.4421e-05,13.237,-9.6183e-05,-0.0049777,0.93305
6312,11.523,3.6364,0.1,0.00029434,2941.3,0.0002946,2949.1,-9.5828e-05,15.571,-9.7901e-05,-0.0047606,0.90859
6313,11.34,3.6364,0.1,0.0002992,2990,0.00029951,2999,-9.7224e-05,18.09,-9.9632e-05,-0.0045079,0.88433
6314,11.156,3.6364,0.1,0.00030408,3038.7,0.00030443,3049,-9.8604e-05,20.812,-0.00010137,-0.0043083,0.86028
6315,10.973,3.6364,0.1,0.00030896,3087.4,0.00030935,3099.3,-9.9969e-05,23.756,-0.00010313,-0.0041081,0.83643
6316,10.789,3.6364,0.1,0.00031385,3136.3,0.00031429,3149.7,-0.00010131,26.941,-0.0001049,-0.0038602,0.81279
6317,10.606,3.6364,0.1,0.00031874,3185.2,0.00031924,3200.3,-0.00010264,30.388,-0.00010669,-0.0036322,0.78936
6318,10.422,3.6364,0.1,0.00032363,3234.1,0.0003242,3251,-0.00010394,34.123,-0.00010849,-0.0034193,0.76615
6319,10.239,3.6364,0.1,0.00032853,3283.1,0.00032917,3302,-0.00010522,38.172,-0.0001103,-0.0032223,0.74315
6320,10.055,3.6364,0.1,0.00033344,3332.1,0.00033414,3353.1,-0.00010647,42.562,-0.00011214,-0.0029933,0.72037
6321,9.872,3.6364,0.1,0.00033834,3381.1,0.00033912,3404.5,-0.00010769,47.325,-0.00011399,-0.0027643,0.69782
6322,9.6885,3.6364,0.1,0.00034324,3430.1,0.00034411,3456,-0.00010887,52.494,-0.00011586,-0.0025549,0.6755
6323,9.505,3.6364,0.1,0.00034815,3479.1,0.0003491,3507.8,-0.00011002,58.109,-0.00011776,-0.0023509,0.65341
6324,9.3215,3.6364,0.1,0.00035305,3528.1,0.0003541,3559.8,-0.00011113,64.208,-0.00011967,-0.0021712,0.63156
6325,9.1381,3.6364,0.1,0.00035796,3577.1,0.00035911,3612,-0.00011219,70.837,-0.00012162,-0.0020222,0.60994
6326,8.9546,3.6364,0.1,0.00036287,3626.2,0.00036413,3664.5,-0.0001132,78.044,-0.00012359,-0.0019203,0.58857
6327,8.7711,3.6364,0.1,0.00036778,3675.2,0.00036916,3717.4,-0.00011417,85.882,-0.0001256,-0.0018871,0.56744
6328,8.5876,3.6364,0.1,0.00037269,3724.4,0.00037421,3770.7,-0.00011507,94.409,-0.00012764,-0.0019506,0.54656
6329,8.4041,3.6364,0.1,0.00037762,3773.6,0.00037928,3824.4,-0.00011592,103.69,-0.00012972,-0.0021507,0.52593
6330,8.2206,3.6364,0.1,0.00038257,3823,0.00038438,3878.7,-0.0001167,113.78,-0.00013184,-0.0025382,0.50555
6331,8.0372,3.6364,0.1,0.00038754,3872.7,0.00038951,3933.6,-0.00011741,124.76,-0.00013402,-0.0031834,0.48544
6332,7.8537,3.6364,0.1,0.00039256,3922.8,0.0003947,3989.4,-0.00011806,136.71,-0.00013626,-0.00418,0.46559
6333,7.6702,3.6364,0.1,0.00039763,3973.5,0.00039996,4046.3,-0.00011864,149.7,-0.00013856,-0.0056525,0.446
6334,7.4867,3.6364,0.1,0.00040278,4025,0.00040532,4104.4,-0.00011915,163.82,-0.00014095,-0.0077668,0.42668
6335,7.3032,3.6364,0.1,0.00040804,4077.6,0.0004108,4164.2,-0.00011959,179.13,-0.00014343,-0.010746,0.40764
6336,7.1198,3.6364,0.1,0.00041346,4131.8,0.00041644,4226.1,-0.00011997,195.73,-0.00014602,-0.014884,0.38887
6337,6.9363,3.6364,0.1,0.00041909,4188,0.00042231,4290.7,-0.00012031,213.68,-0.00014875,-0.020576,0.37038
6338,6.7528,3.6364,0.1,0.00042499,4247,0.00042848,4358.7,-0.00012062,233.02,-0.00015163,-0.028347,0.35218
6339,6.5693,3.6364,0.1,0.00043127,4309.8,0.00043503,4431,-0.00012093,253.8,-0.00015471,-0.038898,0.33426
6340,6.3858,3.6364,0.1,0.00043804,4377.4,0.00044208,4508.8,-0.00012128,275.98,-0.00015801,-0.053161,0.31664
6341,6.2024,3.6364,0.1,0.00044546,4451.6,0.0004498,4593.7,-0.00012172,299.51,-0.00016159,-0.072379,0.29932
6342,6.0189,3.6364,0.1,0.00045373,4534.2,0.00045838,4687.6,-0.00012235,324.21,-0.00016551,-0.098204,0.2823
6343,5.8354,3.6364,0.1,0.00046312,4628,0.00046807,4792.9,-0.00012327,349.79,-0.00016984,-0.13284,0.26558
6344,5.6519,3.6364,0.1,0.00047396,4736.4,0.00047923,4913,-0.00012463,375.77,-0.00017467,-0.17918,0.24919
6345,5.4684,3.6364,0.1,0.00048672,4863.8,0.00049229,5051.9,-0.00012665,401.41,-0.00018011,-0.24111,0.23311
6346,5.285,3.6364,0.1,0.00050196,5016.2,0.00050784,5215.2,-0.00012963,425.54,-0.00018631,-0.3236,0.21737
6347,5.1015,3.6364,0.1,0.00052049,5201.4,0.00052664,5410,-0.00013396,446.48,-0.00019344,-0.43382,0.20197
6348,4.918,3.6364,0.1,0.00054337,5430,0.00054974,5645.8,-0.00014022,461.71,-0.00020174,-0.57956,0.18693
6349,4.7345,3.6364,0.1,0.00057207,5716.7,0.00057857,5935.7,-0.0001492,467.53,-0.00021153,-0.77887,0.17225
6350,4.551,3.6364,0.1,0.00060867,6082.5,0.00061515,6298.2,-0.00016206,458.57,-0.00022323,-1.036,0.15796
6351,4.3676,3.6364,0.1,0.00065624,6557.9,0.00066243,6760.2,-0.00018047,426.95,-0.00023748,-1.4323,0.14409
6352,4.1841,3.6364,0.1,0.00071957,7190.7,0.00072499,7363.3,-0.00020696,361.07,-0.00025528,-1.9978,0.13065
6353,4.0006,3.6364,0.1,0.00080632,8057.6,0.00081014,8175.4,-0.00024556,243.25,-0.00027822,-2.1295,0.1177
6354,3.8171,3.6364,0.1,0.0009304,9297.6,0.000931,9315.5,-0.00030273,45.736,-0.00031009,-9.5627,0.10527
6355,3.6336,3.6364,0.1,0.0011128,11120,0.0011078,10981,-0.00035201,12.104,-0.00039149,-284.59,0.093453
6356,3.4501,3.6364,0.1,0.001377,13761,0.0013613,13338,-0.00041058,24.387,-0.00052436,-830.53,0.08235
6357,23.817,3.8182,0.1,1.9162e-05,191.49,9.5432e-06,39.653,4.239e-06,-0.20079,-1.8177e-05,-168.63,2.8296
6358,23.633,3.8182,0.1,2.0884e-05,208.69,1.3072e-05,78.287,2.6096e-06,-0.3254,-1.8415e-05,-158.3,2.7987
6359,23.45,3.8182,0.1,2.3037e-05,230.21,1.6602e-05,116.92,1.0221e-06,-0.1408,-1.8697e-05,-148.3,2.7679
6360,23.266,3.8182,0.1,2.5515e-05,254.98,2.014e-05,155.4,-5.5823e-07,-0.12328,-1.9024e-05,-138.87,2.7371
6361,23.083,3.8182,0.1,2.8236e-05,282.16,2.3685e-05,193.77,-2.117e-06,-0.091925,-1.9399e-05,-129.94,2.7063
6362,22.899,3.8182,0.1,3.1143e-05,311.21,2.7241e-05,232.09,-3.6582e-06,-0.076898,-1.9824e-05,-121.54,2.6755
6363,22.716,3.8182,0.1,3.4196e-05,341.72,3.0814e-05,270.4,-5.1823e-06,-0.064741,-2.0301e-05,-113.66,2.6447
6364,22.532,3.8182,0.1,3.7367e-05,373.41,3.4406e-05,308.74,-6.6911e-06,-0.056087,-2.0829e-05,-106.28,2.614
6365,22.349,3.8182,0.1,4.0637e-05,406.09,3.8022e-05,347.15,-8.1863e-06,-0.049287,-2.1408e-05,-99.394,2.5833
6366,22.165,3.8182,0.1,4.399e-05,439.59,4.1664e-05,385.65,-9.6695e-06,-0.043901,-2.2038e-05,-92.973,2.5526
6367,21.982,3.8182,0.1,4.7416e-05,473.83,4.5332e-05,424.29,-1.1142e-05,-0.039505,-2.2715e-05,-86.996,2.5219
6368,21.798,3.8182,0.1,5.0906e-05,508.71,4.9029e-05,463.07,-1.2606e-05,-0.035855,-2.344e-05,-81.44,2.4913
6369,21.615,3.8182,0.1,5.4455e-05,544.18,5.2755e-05,502,-1.4062e-05,-0.032771,-2.421e-05,-76.279,2.4606
6370,21.431,3.8182,0.1,5.8058e-05,580.18,5.651e-05,541.11,-1.5511e-05,-0.030127,-2.5022e-05,-71.488,2.4301
6371,21.248,3.8182,0.1,6.171e-05,616.67,6.0295e-05,580.4,-1.6955e-05,-0.027852,-2.5874e-05,-67.043,2.3995
6372,21.064,3.8182,0.1,6.5407e-05,653.62,6.4109e-05,619.87,-1.8395e-05,-0.025859,-2.6766e-05,-62.92,2.3691
6373,20.881,3.8182,0.1,6.9148e-05,691,6.7952e-05,659.55,-1.9831e-05,-0.024107,-2.7693e-05,-59.097,2.3386
6374,20.697,3.8182,0.1,7.2929e-05,728.79,7.1825e-05,699.41,-2.1264e-05,-0.022554,-2.8655e-05,-55.552,2.3082
6375,20.514,3.8182,0.1,7.6749e-05,766.96,7.5726e-05,739.48,-2.2696e-05,-0.021161,-2.9649e-05,-52.264,2.2778
6376,20.33,3.8182,0.1,8.0606e-05,805.5,7.9655e-05,779.75,-2.4126e-05,-0.019916,-3.0674e-05,-49.215,2.2475
6377,20.147,3.8182,0.1,8.4497e-05,844.39,8.3612e-05,820.23,-2.5556e-05,-0.018796,-3.1728e-05,-46.387,2.2173
6378,19.963,3.8182,0.1,8.8423e-05,883.62,8.7597e-05,860.92,-2.6986e-05,-0.01779,-3.2808e-05,-43.762,2.1871
6379,19.78,3.8182,0.1,9.2381e-05,923.17,9.1608e-05,901.81,-2.8417e-05,-0.016861,-3.3915e-05,-41.326,2.157
6380,19.596,3.8182,0.1,9.637e-05,963.04,9.5646e-05,942.9,-2.9849e-05,-0.016014,-3.5046e-05,-39.063,2.1269
6381,19.413,3.8182,0.1,0.00010039,1003.2,9.971e-05,984.21,-3.1282e-05,-0.015254,-3.6199e-05,-36.961,2.0969
6382,19.229,3.8182,0.1,0.00010444,1043.7,0.0001038,1025.7,-3.2718e-05,-0.01454,-3.7375e-05,-35.005,2.0669
6383,19.046,3.8182,0.1,0.00010852,1084.4,0.00010791,1067.4,-3.4155e-05,-0.013889,-3.857e-05,-33.185,2.037
6384,18.863,3.8182,0.1,0.00011262,1125.4,0.00011205,1109.4,-3.5596e-05,-0.013287,-3.9785e-05,-31.489,2.0072
6385,18.679,3.8182,0.1,0.00011675,1166.7,0.00011622,1151.5,-3.7039e-05,-0.01272,-4.1018e-05,-29.906,1.9775
6386,18.496,3.8182,0.1,0.00012091,1208.3,0.0001204,1193.8,-3.8486e-05,-0.012197,-4.2268e-05,-28.428,1.9479
6387,18.312,3.8182,0.1,0.0001251,1250.1,0.00012462,1236.4,-3.9937e-05,-0.011717,-4.3534e-05,-27.044,1.9183
6388,18.129,3.8182,0.1,0.00012931,1292.2,0.00012885,1279.1,-4.1391e-05,-0.01128,-4.4816e-05,-25.746,1.8888
6389,17.945,3.8182,0.1,0.00013354,1334.5,0.00013311,1322.1,-4.285e-05,-0.01085,-4.6113e-05,-24.527,1.8594
6390,17.762,3.8182,0.1,0.0001378,1377.1,0.00013739,1365.2,-4.4313e-05,-0.010449,-4.7423e-05,-23.379,1.8301
6391,17.578,3.8182,0.1,0.00014209,1419.9,0.00014169,1408.6,-4.578e-05,-0.010093,-4.8746e-05,-22.295,1.8009
6392,17.395,3.8182,0.1,0.00014639,1462.9,0.00014602,1452.1,-4.7253e-05,-0.0097396,-5.0082e-05,-21.268,1.7718
6393,17.211,3.8182,0.1,0.00015072,1506.2,0.00015036,1495.9,-4.873e-05,-0.0094116,-5.1429e-05,-20.291,1.7428
6394,17.028,3.8182,0.1,0.00015507,1549.7,0.00015473,1539.9,-5.0213e-05,-0.0091031,-5.2788e-05,-19.359,1.7138
6395,16.844,3.8182,0.1,0.00015945,1593.4,0.00015912,1584,-5.1701e-05,-0.0087938,-5.4157e-05,-18.465,1.685
6396,16.661,3.8182,0.1,0.00016384,1637.3,0.00016354,1628.4,-5.3194e-05,-0.0085088,-5.5536e-05,-17.605,1.6563
6397,16.477,3.8182,0.1,0.00016826,1681.4,0.00016797,1673,-5.4693e-05,-0.0082444,-5.6924e-05,-16.773,1.6277
6398,16.294,3.8182,0.1,0.0001727,1725.8,0.00017242,1717.7,-5.6198e-05,-0.0080039,-5.8322e-05,-15.964,1.5992
6399,16.11,3.8182,0.1,0.00017716,1770.3,0.00017689,1762.7,-5.7709e-05,-0.0077494,-5.9727e-05,-15.172,1.5709
6400,15.927,3.8182,0.1,0.00018164,1815.1,0.00018139,1807.9,-5.9226e-05,-0.0074987,-6.1141e-05,-14.393,1.5426
6401,15.743,3.8182,0.1,0.00018614,1860.1,0.0001859,1853.2,-6.075e-05,-0.0072905,-6.2562e-05,-13.622,1.5145
6402,15.56,3.8182,0.1,0.00019066,1905.2,0.00019043,1898.8,-6.2279e-05,-0.007058,-6.3989e-05,-12.855,1.4865
6403,15.376,3.8182,0.1,0.0001952,1950.6,0.00019499,1944.5,-6.3816e-05,-0.006839,-6.5423e-05,-12.085,1.4586
6404,15.193,3.8182,0.1,0.00019975,1996.2,0.00019956,1990.5,-6.5359e-05,-0.0066238,-6.6863e-05,-11.309,1.4309
6405,15.009,3.8182,0.1,0.00020433,2041.9,0.00020415,2036.6,-6.6908e-05,-0.0063876,-6.8308e-05,-10.522,1.4032
6406,14.826,3.8182,0.1,0.00020893,2087.9,0.00020876,2083,-6.8465e-05,-0.0061598,-6.9758e-05,-9.7183,1.3758
6407,14.642,3.8182,0.1,0.00021354,2134,0.00021339,2129.5,-7.0029e-05,-0.0059354,-7.1212e-05,-8.8934,1.3484
6408,14.459,3.8182,0.1,0.00021818,2180.3,0.00021804,2176.2,-7.16e-05,-0.0057145,-7.267e-05,-8.0421,1.3212
6409,14.276,3.8182,0.1,0.00022283,2226.8,0.00022271,2223.2,-7.3179e-05,-0.0054409,-7.4131e-05,-7.1589,1.2942
6410,14.092,3.8182,0.1,0.0002275,2273.4,0.00022739,2270.3,-7.4765e-05,-0.0051315,-7.5595e-05,-6.2382,1.2673
6411,13.909,3.8182,0.1,0.00023218,2320.2,0.00023209,2317.6,-7.6359e-05,-0.0047979,-7.7061e-05,-5.2744,1.2406
6412,13.725,3.8182,0.1,0.00023688,2367.2,0.00023681,2365.1,-7.7961e-05,-0.0043228,-7.8528e-05,-4.2613,1.214
6413,13.542,3.8182,0.1,0.0002416,2414.4,0.00024155,2412.8,-7.9571e-05,-0.0036119,-7.9996e-05,-3.1927,1.1876
6414,13.358,3.8182,0.1,0.00024634,2461.7,0.0002463,2460.6,-8.1189e-05,-0.0022307,-8.1464e-05,-2.0621,1.1613
6415,13.175,3.8182,0.1,0.00025109,2509.1,0.00025107,2508.7,-8.2816e-05,0.0028394,-8.2931e-05,-0.86536,1.1352
6416,12.991,3.8182,0.1,0.00025585,2556.8,0.00025586,2557,-8.4394e-05,0.43841,-8.4455e-05,-0.021797,1.1093
6417,12.808,3.8182,0.1,0.00026063,2604.5,0.00026066,2605.4,-8.5858e-05,1.7907,-8.6098e-05,-0.0093807,1.0835
6418,12.624,3.8182,0.1,0.00026542,2652.4,0.00026548,2654,-8.7318e-05,3.248,-8.7752e-05,-0.0074112,1.0579
6419,12.441,3.8182,0.1,0.00027023,2700.5,0.00027031,2702.9,-8.8774e-05,4.8099,-8.9415e-05,-0.0065445,1.0325
6420,12.257,3.8182,0.1,0.00027505,2748.6,0.00027516,2751.8,-9.0224e-05,6.486,-9.1089e-05,-0.0060234,1.0073
6421,12.074,3.8182,0.1,0.00027988,2796.9,0.00028002,2801,-9.1668e-05,8.2866,-9.2772e-05,-0.0056656,0.98229
6422,11.89,3.8182,0.1,0.00028473,2845.3,0.0002849,2850.4,-9.3105e-05,10.224,-9.4466e-05,-0.005351,0.95745
6423,11.707,3.8182,0.1,0.00028958,2893.8,0.00028979,2899.9,-9.4532e-05,12.309,-9.6171e-05,-0.005087,0.9328
6424,11.523,3.8182,0.1,0.00029445,2942.4,0.00029469,2949.7,-9.5949e-05,14.557,-9.7887e-05,-0.0048576,0.90834
6425,11.34,3.8182,0.1,0.00029932,2991.1,0.0002996,2999.6,-9.7355e-05,16.982,-9.9616e-05,-0.004606,0.88408
6426,11.156,3.8182,0.1,0.0003042,3039.9,0.00030453,3049.7,-9.8747e-05,19.599,-0.00010136,-0.0044157,0.86002
6427,10.973,3.8182,0.1,0.00030909,3088.8,0.00030947,3099.9,-0.00010012,22.426,-0.00010311,-0.0042321,0.83617
6428,10.789,3.8182,0.1,0.00031399,3137.7,0.00031441,3150.4,-0.00010148,25.481,-0.00010488,-0.0040113,0.81252
6429,10.606,3.8182,0.1,0.00031889,3186.7,0.00031937,3201,-0.00010283,28.784,-0.00010666,-0.0038165,0.78909
6430,10.422,3.8182,0.1,0.0003238,3235.8,0.00032434,3251.8,-0.00010415,32.357,-0.00010845,-0.0036466,0.76587
6431,10.239,3.8182,0.1,0.00032871,3284.9,0.00032931,3302.8,-0.00010544,36.224,-0.00011026,-0.0034998,0.74287
6432,10.055,3.8182,0.1,0.00033363,3334,0.0003343,3354,-0.00010671,40.409,-0.00011209,-0.003333,0.72009
6433,9.872,3.8182,0.1,0.00033855,3383.1,0.00033929,3405.4,-0.00010796,44.941,-0.00011394,-0.0031763,0.69754
6434,9.6885,3.8182,0.1,0.00034347,3432.3,0.00034429,3457,-0.00010917,49.849,-0.0001158,-0.003055,0.67521
6435,9.505,3.8182,0.1,0.00034839,3481.5,0.0003493,3508.8,-0.00011035,55.166,-0.00011769,-0.0029547,0.65312
6436,9.3215,3.8182,0.1,0.00035332,3530.7,0.00035431,3560.8,-0.00011149,60.927,-0.0001196,-0.0028976,0.63126
6437,9.1381,3.8182,0.1,0.00035824,3579.9,0.00035934,3613.1,-0.00011259,67.169,-0.00012153,-0.0028943,0.60964
6438,8.9546,3.8182,0.1,0.00036317,3629.2,0.00036437,3665.6,-0.00011365,73.933,-0.00012349,-0.0029675,0.58827
6439,8.7711,3.8182,0.1,0.00036811,3678.5,0.00036942,3718.5,-0.00011466,81.262,-0.00012548,-0.0031417,0.56714
6440,8.5876,3.8182,0.1,0.00037305,3727.9,0.00037449,3771.7,-0.00011563,89.203,-0.0001275,-0.0034559,0.54625
6441,8.4041,3.8182,0.1,0.000378,3777.4,0.00037957,3825.4,-0.00011654,97.804,-0.00012955,-0.0039567,0.52562
6442,8.2206,3.8182,0.1,0.00038298,3827.1,0.00038468,3879.5,-0.00011739,107.12,-0.00013165,-0.0047086,0.50525
6443,8.0372,3.8182,0.1,0.00038797,3877,0.00038983,3934.3,-0.00011819,117.2,-0.00013379,-0.0057966,0.48513
6444,7.8537,3.8182,0.1,0.00039301,3927.4,0.00039503,3989.8,-0.00011894,128.1,-0.00013599,-0.0073335,0.46527
6445,7.6702,3.8182,0.1,0.00039809,3978.2,0.00040029,4046.3,-0.00011962,139.88,-0.00013824,-0.0094686,0.44569
6446,7.4867,3.8182,0.1,0.00040325,4029.8,0.00040563,4103.9,-0.00012025,152.6,-0.00014056,-0.012401,0.42637
6447,7.3032,3.8182,0.1,0.00040851,4082.3,0.00041109,4162.9,-0.00012083,166.29,-0.00014296,-0.016394,0.40732
6448,7.1198,3.8182,0.1,0.00041391,4136.2,0.00041669,4223.8,-0.00012137,181.02,-0.00014546,-0.021797,0.38855
6449,6.9363,3.8182,0.1,0.00041949,4192,0.00042249,4286.9,-0.00012187,196.81,-0.00014807,-0.029077,0.37007
6450,6.7528,3.8182,0.1,0.0004253,4250.1,0.00042853,4352.9,-0.00012236,213.68,-0.0001508,-0.038851,0.35186
6451,6.5693,3.8182,0.1,0.00043144,4311.4,0.00043491,4422.5,-0.00012287,231.61,-0.0001537,-0.05194,0.33395
6452,6.3858,3.8182,0.1,0.000438,4377,0.00044172,4496.8,-0.00012342,250.57,-0.00015678,-0.069441,0.31633
6453,6.2024,3.8182,0.1,0.00044511,4448,0.00044909,4577,-0.00012408,270.44,-0.00016009,-0.092812,0.299
6454,6.0189,3.8182,0.1,0.00045293,4526.2,0.00045718,4664.6,-0.00012491,291.03,-0.00016366,-0.124,0.28198
6455,5.8354,3.8182,0.1,0.00046169,4613.8,0.00046621,4761.8,-0.00012602,312.03,-0.00016757,-0.16563,0.26527
6456,5.6519,3.8182,0.1,0.00047167,4713.5,0.00047645,4871,-0.00012753,332.96,-0.00017187,-0.22119,0.24887
6457,5.4684,3.8182,0.1,0.00048324,4829.1,0.00048827,4995.8,-0.00012963,353.1,-0.00017666,-0.29563,0.23279
6458,5.285,3.8182,0.1,0.00049688,4965.4,0.00050215,5140.4,-0.00013258,371.36,-0.00018205,-0.39536,0.21704
6459,5.1015,3.8182,0.1,0.00051326,5129.1,0.00051873,5310.9,-0.00013673,386.1,-0.00018819,-0.53182,0.20162
6460,4.918,3.8182,0.1,0.00053328,5329.2,0.00053889,5515.2,-0.00014258,394.94,-0.00019524,-0.71477,0.18656
6461,4.7345,3.8182,0.1,0.00055822,5578.4,0.00056386,5764.5,-0.00015087,394.3,-0.00020348,-0.99619,0.17186
6462,4.551,3.8182,0.1,0.00058994,5895.3,0.00059544,6074.9,-0.00016265,378.95,-0.00021326,-1.3278,0.15754
6463,4.3676,3.8182,0.1,0.00063133,6309,0.00063639,6471.3,-0.00017951,340.92,-0.00022519,-2.2652,0.14361
6464,4.1841,3.8182,0.1,0.00068699,6865.2,0.00069113,6994.5,-0.00020398,269.02,-0.0002401,-2.3389,0.1301
6465,4.0006,3.8182,0.1,0.00076565,7651.2,0.00076779,7716.5,-0.00024013,143.33,-0.00026059,-10.419,0.11705
6466,3.8171,3.8182,0.1,0.00088186,8812.5,0.00088085,8783.7,-0.00028575,18.311,-0.00029818,-75.032,0.10449
6467,3.6336,3.8182,0.1,0.001083,10823,0.0010742,10574,-0.00033964,-49.357,-0.00039138,-438.1,0.092491
6468,3.4501,3.8182,0.1,0.0014606,14596,0.0014398,14040,-0.00042854,2.0771,-0.00056941,-1056.4,0.081158
6469,23.817,4,0.1,1.869e-05,186.77,9.3872e-06,39.688,4.0793e-06,-0.19282,-1.7696e-05,-163.8,2.8295
6470,23.633,4,0.1,2.0423e-05,204.09,1.2905e-05,78.199,2.4541e-06,-0.32144,-1.7931e-05,-153.49,2.7987
6471,23.45,4,0.1,2.2595e-05,225.8,1.6425e-05,116.72,8.7248e-07,-0.13803,-1.8216e-05,-143.56,2.7678
6472,23.266,4,0.1,2.5095e-05,250.77,1.9956e-05,155.09,-7.0095e-07,-0.12085,-1.8549e-05,-134.23,2.737
6473,23.083,4,0.1,2.7838e-05,278.19,2.3496e-05,193.37,-2.2522e-06,-0.089741,-1.8935e-05,-125.44,2.7062
6474,22.899,4,0.1,3.0768e-05,307.47,2.705e-05,231.61,-3.7855e-06,-0.074858,-1.9375e-05,-117.21,2.6754
6475,22.716,4,0.1,3.3845e-05,338.22,3.0624e-05,269.87,-5.3016e-06,-0.062806,-1.9869e-05,-109.52,2.6447
6476,22.532,4,0.1,3.704e-05,370.15,3.4222e-05,308.18,-6.8025e-06,-0.054223,-2.0418e-05,-102.35,2.6139
6477,22.349,4,0.1,4.0334e-05,403.06,3.7844e-05,346.59,-8.2901e-06,-0.047479,-2.1019e-05,-95.691,2.5832
6478,22.165,4,0.1,4.3711e-05,436.81,4.1495e-05,385.11,-9.7659e-06,-0.042137,-2.1673e-05,-89.504,2.5525
6479,21.982,4,0.1,4.7161e-05,471.28,4.5174e-05,423.77,-1.1232e-05,-0.037779,-2.2375e-05,-83.763,2.5218
6480,21.798,4,0.1,5.0675e-05,506.4,4.8882e-05,462.58,-1.2689e-05,-0.034168,-2.3124e-05,-78.441,2.4912
6481,21.615,4,0.1,5.4246e-05,542.08,5.262e-05,501.57,-1.4139e-05,-0.031121,-2.3918e-05,-73.508,2.4606
6482,21.431,4,0.1,5.787e-05,578.3,5.6388e-05,540.73,-1.5583e-05,-0.028517,-2.4754e-05,-68.937,2.43
6483,21.248,4,0.1,6.1542e-05,614.99,6.0185e-05,580.07,-1.7022e-05,-0.026282,-2.5629e-05,-64.702,2.3995
6484,21.064,4,0.1,6.5258e-05,652.13,6.4011e-05,619.6,-1.8456e-05,-0.024327,-2.6542e-05,-60.777,2.369
6485,20.881,4,0.1,6.9016e-05,689.69,6.7866e-05,659.33,-1.9888e-05,-0.022615,-2.749e-05,-57.141,2.3385
6486,20.697,4,0.1,7.2814e-05,727.64,7.175e-05,699.25,-2.1318e-05,-0.021102,-2.8471e-05,-53.77,2.3081
6487,20.514,4,0.1,7.6649e-05,765.96,7.5662e-05,739.37,-2.2746e-05,-0.019746,-2.9484e-05,-50.644,2.2777
6488,20.33,4,0.1,8.052e-05,804.64,7.9601e-05,779.7,-2.4173e-05,-0.018538,-3.0525e-05,-47.746,2.2474
6489,20.147,4,0.1,8.4424e-05,843.66,8.3567e-05,820.22,-2.56e-05,-0.017455,-3.1594e-05,-45.057,2.2172
6490,19.963,4,0.1,8.8362e-05,883.01,8.756e-05,860.95,-2.7027e-05,-0.016481,-3.2689e-05,-42.561,2.187
6491,19.78,4,0.1,9.2331e-05,922.67,9.158e-05,901.88,-2.8455e-05,-0.015587,-3.3809e-05,-40.243,2.1568
6492,19.596,4,0.1,9.633e-05,962.63,9.5625e-05,943.02,-2.9885e-05,-0.014773,-3.4952e-05,-38.09,2.1268
6493,19.413,4,0.1,0.00010036,1002.9,9.9696e-05,984.35,-3.1316e-05,-0.01404,-3.6117e-05,-36.087,2.0967
6494,19.229,4,0.1,0.00010442,1043.4,0.00010379,1025.9,-3.2749e-05,-0.01336,-3.7302e-05,-34.223,2.0668
6495,19.046,4,0.1,0.0001085,1084.3,0.00010791,1067.6,-3.4185e-05,-0.012732,-3.8507e-05,-32.487,2.0369
6496,18.863,4,0.1,0.00011261,1125.4,0.00011206,1109.6,-3.5624e-05,-0.012158,-3.9731e-05,-30.869,2.0071
6497,18.679,4,0.1,0.00011675,1166.7,0.00011622,1151.8,-3.7066e-05,-0.011613,-4.0971e-05,-29.357,1.9774
6498,18.496,4,0.1,0.00012092,1208.3,0.00012042,1194.1,-3.8511e-05,-0.011115,-4.2229e-05,-27.944,1.9477
6499,18.312,4,0.1,0.00012511,1250.2,0.00012463,1236.7,-3.996e-05,-0.010656,-4.3502e-05,-26.621,1.9182
6500,18.129,4,0.1,0.00012932,1292.3,0.00012887,1279.4,-4.1414e-05,-0.010238,-4.479e-05,-25.379,1.8887
6501,17.945,4,0.1,0.00013356,1334.7,0.00013313,1322.4,-4.2871e-05,-0.0098295,-4.6092e-05,-24.211,1.8593
6502,17.762,4,0.1,0.00013782,1377.3,0.00013742,1365.6,-4.4333e-05,-0.0094465,-4.7407e-05,-23.11,1.83
6503,17.578,4,0.1,0.00014211,1420.1,0.00014172,1408.9,-4.5799e-05,-0.0091083,-4.8736e-05,-22.07,1.8007
6504,17.395,4,0.1,0.00014642,1463.2,0.00014605,1452.5,-4.7271e-05,-0.0087717,-5.0076e-05,-21.083,1.7716
6505,17.211,4,0.1,0.00015075,1506.5,0.0001504,1496.3,-4.8747e-05,-0.0084599,-5.1427e-05,-20.145,1.7426
6506,17.028,4,0.1,0.00015511,1550,0.00015477,1540.3,-5.0229e-05,-0.0081653,-5.279e-05,-19.249,1.7137
6507,16.844,4,0.1,0.00015948,1593.7,0.00015916,1584.4,-5.1716e-05,-0.0078693,-5.4163e-05,-18.389,1.6848
6508,16.661,4,0.1,0.00016388,1637.7,0.00016357,1628.8,-5.3209e-05,-0.007598,-5.5545e-05,-17.561,1.6561
6509,16.477,4,0.1,0.0001683,1681.8,0.00016801,1673.4,-5.4707e-05,-0.0073461,-5.6937e-05,-16.76,1.6275
6510,16.294,4,0.1,0.00017274,1726.2,0.00017246,1718.2,-5.6211e-05,-0.0071169,-5.8337e-05,-15.98,1.599
6511,16.11,4,0.1,0.0001772,1770.8,0.00017694,1763.1,-5.7722e-05,-0.006872,-5.9746e-05,-15.217,1.5707
6512,15.927,4,0.1,0.00018168,1815.6,0.00018143,1808.3,-5.9238e-05,-0.006633,-6.1162e-05,-14.466,1.5424
6513,15.743,4,0.1,0.00018618,1860.6,0.00018595,1853.7,-6.0761e-05,-0.0064307,-6.2586e-05,-13.722,1.5143
6514,15.56,4,0.1,0.00019071,1905.7,0.00019048,1899.2,-6.229e-05,-0.0062077,-6.4016e-05,-12.982,1.4863
6515,15.376,4,0.1,0.00019525,1951.1,0.00019504,1945,-6.3825e-05,-0.0059921,-6.5453e-05,-12.239,1.4584
6516,15.193,4,0.1,0.00019981,1996.7,0.00019961,1990.9,-6.5367e-05,-0.0057835,-6.6896e-05,-11.491,1.4306
6517,15.009,4,0.1,0.00020439,2042.5,0.0002042,2037.1,-6.6917e-05,-0.005548,-6.8344e-05,-10.732,1.403
6518,14.826,4,0.1,0.00020899,2088.4,0.00020882,2083.4,-6.8473e-05,-0.0053203,-6.9797e-05,-9.9569,1.3755
6519,14.642,4,0.1,0.0002136,2134.6,0.00021345,2130,-7.0036e-05,-0.0050941,-7.1254e-05,-9.1618,1.3482
6520,14.459,4,0.1,0.00021824,2180.9,0.0002181,2176.7,-7.1606e-05,-0.0048656,-7.2716e-05,-8.3415,1.321
6521,14.276,4,0.1,0.00022289,2227.4,0.00022277,2223.6,-7.3184e-05,-0.0045812,-7.418e-05,-7.4908,1.294
6522,14.092,4,0.1,0.00022756,2274.1,0.00022745,2270.8,-7.4769e-05,-0.0042532,-7.5648e-05,-6.6044,1.2671
6523,13.909,4,0.1,0.00023225,2320.9,0.00023216,2318.1,-7.6362e-05,-0.0038978,-7.7117e-05,-5.677,1.2403
6524,13.725,4,0.1,0.00023696,2367.9,0.00023688,2365.6,-7.7963e-05,-0.0033922,-7.8589e-05,-4.7026,1.2137
6525,13.542,4,0.1,0.00024168,2415.1,0.00024162,2413.3,-7.9572e-05,-0.0026577,-8.0061e-05,-3.6754,1.1873
6526,13.358,4,0.1,0.00024642,2462.5,0.00024637,2461.2,-8.1189e-05,-0.0013688,-8.1534e-05,-2.5893,1.161
6527,13.175,4,0.1,0.00025117,2510,0.00025115,2509.3,-8.2815e-05,0.001971,-8.3007e-05,-1.4387,1.1349
6528,12.991,4,0.1,0.00025594,2557.6,0.00025594,2557.5,-8.4445e-05,0.037442,-8.4482e-05,-0.24685,1.109
6529,12.808,4,0.1,0.00026072,2605.4,0.00026074,2606,-8.5945e-05,1.1134,-8.6095e-05,-0.014198,1.0832
6530,12.624,4,0.1,0.00026552,2653.4,0.00026556,2654.6,-8.7412e-05,2.5065,-8.7747e-05,-0.0089588,1.0577
6531,12.441,4,0.1,0.00027033,2701.5,0.0002704,2703.5,-8.8875e-05,4.0013,-8.9409e-05,-0.0073104,1.0323
6532,12.257,4,0.1,0.00027516,2749.7,0.00027525,2752.5,-9.0333e-05,5.6046,-9.108e-05,-0.0064696,1.007
6533,12.074,4,0.1,0.00028,2798,0.00028012,2801.7,-9.1786e-05,7.3259,-9.2762e-05,-0.0059506,0.98199
6534,11.89,4,0.1,0.00028485,2846.5,0.000285,2851.1,-9.3232e-05,9.176,-9.4454e-05,-0.0055483,0.95714
6535,11.707,4,0.1,0.00028971,2895.1,0.0002899,2900.6,-9.467e-05,11.166,-9.6157e-05,-0.0052364,0.93248
6536,11.523,4,0.1,0.00029458,2943.8,0.0002948,2950.4,-9.6098e-05,13.309,-9.787e-05,-0.0049841,0.90802
6537,11.34,4,0.1,0.00029946,2992.6,0.00029973,3000.3,-9.7516e-05,15.619,-9.9596e-05,-0.0047254,0.88376
6538,11.156,4,0.1,0.00030436,3041.5,0.00030466,3050.5,-9.8923e-05,18.108,-0.00010133,-0.0045435,0.85969
6539,10.973,4,0.1,0.00030926,3090.4,0.0003096,3100.8,-0.00010032,20.793,-0.00010308,-0.0043787,0.83584
6540,10.789,4,0.1,0.00031416,3139.5,0.00031456,3151.3,-0.00010169,23.692,-0.00010485,-0.0041863,0.81219
6541,10.606,4,0.1,0.00031908,3188.6,0.00031953,3201.9,-0.00010305,26.82,-0.00010662,-0.0040304,0.78875
6542,10.422,4,0.1,0.000324,3237.8,0.00032451,3252.8,-0.00010439,30.198,-0.00010841,-0.003908,0.76553
6543,10.239,4,0.1,0.00032893,3287,0.00032949,3303.8,-0.00010571,33.846,-0.00011022,-0.0038211,0.74252
6544,10.055,4,0.1,0.00033386,3336.3,0.00033449,3355.1,-0.00010701,37.786,-0.00011204,-0.0037254,0.71974
6545,9.872,4,0.1,0.0003388,3385.7,0.0003395,3406.5,-0.00010828,42.042,-0.00011388,-0.0036547,0.69718
6546,9.6885,4,0.1,0.00034374,3435,0.00034451,3458.1,-0.00010953,46.638,-0.00011574,-0.0036325,0.67486
6547,9.505,4,0.1,0.00034869,3484.5,0.00034953,3510,-0.00011074,51.602,-0.00011761,-0.0036518,0.65276
6548,9.3215,4,0.1,0.00035363,3533.9,0.00035457,3562,-0.00011193,56.961,-0.00011951,-0.003735,0.6309
6549,9.1381,4,0.1,0.00035859,3583.4,0.00035961,3614.3,-0.00011308,62.746,-0.00012143,-0.003898,0.60927
6550,8.9546,4,0.1,0.00036354,3632.9,0.00036467,3666.9,-0.00011419,68.988,-0.00012337,-0.0041683,0.58789
6551,8.7711,4,0.1,0.00036851,3682.5,0.00036973,3719.8,-0.00011526,75.719,-0.00012534,-0.0045786,0.56676
6552,8.5876,4,0.1,0.00037348,3732.2,0.00037482,3773,-0.00011629,82.973,-0.00012733,-0.0051737,0.54587
6553,8.4041,4,0.1,0.00037846,3782,0.00037992,3826.6,-0.00011728,90.785,-0.00012936,-0.0060126,0.52524
6554,8.2206,4,0.1,0.00038346,3832,0.00038505,3880.6,-0.00011822,99.19,-0.00013142,-0.0071718,0.50486
6555,8.0372,4,0.1,0.00038849,3882.2,0.00039021,3935.1,-0.00011912,108.22,-0.00013352,-0.008755,0.48474
6556,7.8537,4,0.1,0.00039354,3932.7,0.00039542,3990.3,-0.00011997,117.91,-0.00013567,-0.010896,0.46489
6557,7.6702,4,0.1,0.00039865,3983.7,0.00040067,4046.3,-0.00012078,128.29,-0.00013786,-0.013775,0.4453
6558,7.4867,4,0.1,0.00040381,4035.4,0.000406,4103.2,-0.00012155,139.39,-0.00014011,-0.017629,0.42598
6559,7.3032,4,0.1,0.00040906,4087.8,0.00041143,4161.3,-0.00012228,151.23,-0.00014241,-0.022773,0.40693
6560,7.1198,4,0.1,0.00041443,4141.4,0.00041697,4220.9,-0.00012299,163.8,-0.0001448,-0.029627,0.38816
6561,6.9363,4,0.1,0.00041994,4196.5,0.00042267,4282.3,-0.00012369,177.12,-0.00014727,-0.03875,0.36967
6562,6.7528,4,0.1,0.00042565,4253.6,0.00042858,4345.9,-0.00012438,191.15,-0.00014983,-0.050892,0.35147
6563,6.5693,4,0.1,0.00043162,4313.2,0.00043475,4412.4,-0.00012511,205.84,-0.00015251,-0.067057,0.33355
6564,6.3858,4,0.1,0.00043792,4376.2,0.00044126,4482.5,-0.0001259,221.1,-0.00015534,-0.088594,0.31593
6565,6.2024,4,0.1,0.00044466,4443.6,0.00044822,4557.2,-0.00012679,236.78,-0.00015832,-0.11733,0.2986
6566,6.0189,4,0.1,0.00045197,4516.6,0.00045573,4637.5,-0.00012785,252.66,-0.0001615,-0.15577,0.28158
6567,5.8354,4,0.1,0.00046,4596.8,0.00046398,4725,-0.00012917,268.38,-0.00016492,-0.20736,0.26486
6568,5.6519,4,0.1,0.00046898,4686.6,0.00047316,4821.7,-0.00013086,283.43,-0.00016861,-0.27696,0.24846
6569,5.4684,4,0.1,0.0004792,4788.7,0.00048355,4930.1,-0.00013307,297.07,-0.00017265,-0.37181,0.23237
6570,5.285,4,0.1,0.00049102,4906.9,0.00049553,5053.4,-0.00013602,308.14,-0.0001771,-0.50245,0.21661
6571,5.1015,4,0.1,0.00050498,5046.3,0.00050959,5196.1,-0.00014005,314.94,-0.00018206,-0.68867,0.20119
6572,4.918,4,0.1,0.00052181,5214.5,0.00052643,5364.2,-0.0001456,314.84,-0.00018763,-0.95701,0.1861
6573,4.7345,4,0.1,0.00054255,5421.8,0.00054705,5566.5,-0.00015337,303.81,-0.000194,-1.4027,0.17137
6574,4.551,4,0.1,0.00056881,5684.2,0.00057296,5815.9,-0.0001644,275.64,-0.00020137,-2.093,0.15701
6575,4.3676,4,0.1,0.00060314,6027.2,0.00060651,6132.3,-0.00018031,220.46,-0.00021019,-3.9981,0.14302
6576,4.1841,4,0.1,0.00064963,6491.8,0.0006515,6548.9,-0.00020347,124.97,-0.00022126,-8.7171,0.12944
6577,4.0006,4,0.1,0.00071637,7158.8,0.00071519,7125.1,-0.00023077,17.513,-0.00024425,-83.757,0.11627
6578,3.8171,4,0.1,0.00081797,8174,0.00081121,7989.9,-0.00024897,24.096,-0.00030243,-377.64,0.10356
6579,3.6336,4,0.1,0.00099622,9955.3,0.00097491,9385.8,-0.00028759,-100.17,-0.00040475,-980.49,0.091336
6580,3.4501,4,0.1,0.0015003,14993,0.001434,13665,-0.00028238,768.11,-0.0007554,-2786,0.079674
6581,23.817,4.1818,0.1,1.8114e-05,181.01,9.1959e-06,39.723,3.8847e-06,-0.18272,-1.7108e-05,-157.91,2.8294
6582,23.633,4.1818,0.1,1.9862e-05,198.48,1.2699e-05,78.076,2.2651e-06,-0.31631,-1.7341e-05,-147.63,2.7986
6583,23.45,4.1818,0.1,2.2058e-05,220.43,1.6208e-05,116.45,6.91e-07,-0.1344,-1.7629e-05,-137.78,2.7678
6584,23.266,4.1818,0.1,2.4585e-05,245.68,1.973e-05,154.69,-8.7357e-07,-0.11764,-1.7972e-05,-128.59,2.7369
6585,23.083,4.1818,0.1,2.7357e-05,273.38,2.3264e-05,192.86,-2.4152e-06,-0.086855,-1.8373e-05,-119.98,2.7061
6586,22.899,4.1818,0.1,3.0317e-05,302.96,2.6818e-05,231.02,-3.9385e-06,-0.072162,-1.8832e-05,-111.97,2.6754
6587,22.716,4.1818,0.1,3.3424e-05,334.01,3.0395e-05,269.23,-5.4445e-06,-0.060243,-1.935e-05,-104.54,2.6446
6588,22.532,4.1818,0.1,3.6651e-05,366.25,3.3999e-05,307.52,-6.9357e-06,-0.051756,-1.9925e-05,-97.648,2.6138
6589,22.349,4.1818,0.1,3.9975e-05,399.47,3.7632e-05,345.92,-8.4138e-06,-0.045087,-2.0555e-05,-91.273,2.5831
6590,22.165,4.1818,0.1,4.3382e-05,433.52,4.1294e-05,384.47,-9.8807e-06,-0.039811,-2.1239e-05,-85.379,2.5524
6591,21.982,4.1818,0.1,4.6862e-05,468.29,4.4987e-05,423.17,-1.1338e-05,-0.035518,-2.1972e-05,-79.932,2.5217
6592,21.798,4.1818,0.1,5.0404e-05,503.69,4.871e-05,462.04,-1.2788e-05,-0.031966,-2.2752e-05,-74.898,2.4911
6593,21.615,4.1818,0.1,5.4002e-05,539.65,5.2463e-05,501.08,-1.423e-05,-0.028977,-2.3575e-05,-70.243,2.4605
6594,21.431,4.1818,0.1,5.7652e-05,576.12,5.6246e-05,540.3,-1.5667e-05,-0.026435,-2.444e-05,-65.938,2.4299
6595,21.248,4.1818,0.1,6.1348e-05,613.05,6.0058e-05,579.71,-1.71e-05,-0.024259,-2.5343e-05,-61.955,2.3994
6596,21.064,4.1818,0.1,6.5087e-05,650.42,6.3899e-05,619.32,-1.853e-05,-0.022364,-2.6282e-05,-58.268,2.3689
6597,20.881,4.1818,0.1,6.8866e-05,688.19,6.7768e-05,659.11,-1.9956e-05,-0.020708,-2.7254e-05,-54.854,2.3384
6598,20.697,4.1818,0.1,7.2683e-05,726.33,7.1666e-05,699.1,-2.1381e-05,-0.019252,-2.8258e-05,-51.689,2.308
6599,20.514,4.1818,0.1,7.6536e-05,764.83,7.559e-05,739.28,-2.2805e-05,-0.017953,-2.9291e-05,-48.756,2.2776
6600,20.33,4.1818,0.1,8.0423e-05,803.68,7.9541e-05,779.66,-2.4228e-05,-0.016796,-3.0353e-05,-46.035,2.2473
6601,20.147,4.1818,0.1,8.4343e-05,842.85,8.3518e-05,820.24,-2.5651e-05,-0.015763,-3.144e-05,-43.51,2.2171
6602,19.963,4.1818,0.1,8.8294e-05,882.33,8.7521e-05,861.02,-2.7075e-05,-0.01484,-3.2552e-05,-41.165,2.1868
6603,19.78,4.1818,0.1,9.2275e-05,922.12,9.155e-05,902,-2.85e-05,-0.013991,-3.3687e-05,-38.985,2.1567
6604,19.596,4.1818,0.1,9.6286e-05,962.19,9.5604e-05,943.18,-2.9927e-05,-0.013218,-3.4844e-05,-36.959,2.1266
6605,19.413,4.1818,0.1,0.00010033,1002.6,9.9682e-05,984.56,-3.1356e-05,-0.012529,-3.6022e-05,-35.074,2.0966
6606,19.229,4.1818,0.1,0.00010439,1043.2,0.00010378,1026.1,-3.2787e-05,-0.011886,-3.7219e-05,-33.317,2.0666
6607,19.046,4.1818,0.1,0.00010849,1084.1,0.00010791,1067.9,-3.422e-05,-0.011296,-3.8435e-05,-31.68,2.0368
6608,18.863,4.1818,0.1,0.00011261,1125.3,0.00011206,1109.9,-3.5657e-05,-0.010757,-3.9669e-05,-30.152,2.007
6609,18.679,4.1818,0.1,0.00011675,1166.7,0.00011624,1152.1,-3.7097e-05,-0.010248,-4.0919e-05,-28.723,1.9772
6610,18.496,4.1818,0.1,0.00012092,1208.4,0.00012043,1194.5,-3.8541e-05,-0.0097792,-4.2185e-05,-27.387,1.9476
6611,18.312,4.1818,0.1,0.00012512,1250.3,0.00012465,1237,-3.9989e-05,-0.0093514,-4.3465e-05,-26.133,1.918
6612,18.129,4.1818,0.1,0.00012934,1292.5,0.0001289,1279.8,-4.144e-05,-0.0089623,-4.4761e-05,-24.956,1.8885
6613,17.945,4.1818,0.1,0.00013358,1334.9,0.00013316,1322.8,-4.2896e-05,-0.0085796,-4.6069e-05,-23.848,1.8591
6614,17.762,4.1818,0.1,0.00013785,1377.5,0.00013745,1366,-4.4357e-05,-0.008222,-4.7391e-05,-22.803,1.8298
6615,17.578,4.1818,0.1,0.00014214,1420.4,0.00014176,1409.4,-4.5822e-05,-0.0079089,-4.8724e-05,-21.814,1.8005
6616,17.395,4.1818,0.1,0.00014645,1463.5,0.00014609,1453,-4.7292e-05,-0.0075959,-5.007e-05,-20.875,1.7714
6617,17.211,4.1818,0.1,0.00015079,1506.8,0.00015044,1496.8,-4.8768e-05,-0.0073033,-5.1426e-05,-19.981,1.7424
6618,17.028,4.1818,0.1,0.00015515,1550.4,0.00015481,1540.7,-5.0248e-05,-0.0070315,-5.2793e-05,-19.127,1.7135
6619,16.844,4.1818,0.1,0.00015953,1594.2,0.00015921,1584.9,-5.1735e-05,-0.0067563,-5.417e-05,-18.307,1.6846
6620,16.661,4.1818,0.1,0.00016393,1638.1,0.00016362,1629.3,-5.3226e-05,-0.006503,-5.5557e-05,-17.516,1.6559
6621,16.477,4.1818,0.1,0.00016835,1682.3,0.00016806,1673.9,-5.4724e-05,-0.0062699,-5.6952e-05,-16.751,1.6273
6622,16.294,4.1818,0.1,0.00017279,1726.7,0.00017251,1718.7,-5.6227e-05,-0.0060571,-5.8356e-05,-16.005,1.5988
6623,16.11,4.1818,0.1,0.00017725,1771.3,0.00017699,1763.6,-5.7736e-05,-0.005827,-5.9769e-05,-15.275,1.5704
6624,15.927,4.1818,0.1,0.00018174,1816.1,0.00018149,1808.8,-5.9252e-05,-0.0056032,-6.1188e-05,-14.557,1.5422
6625,15.743,4.1818,0.1,0.00018624,1861.1,0.000186,1854.2,-6.0774e-05,-0.0054154,-6.2616e-05,-13.846,1.514
6626,15.56,4.1818,0.1,0.00019077,1906.4,0.00019054,1899.8,-6.2302e-05,-0.0052036,-6.405e-05,-13.137,1.486
6627,15.376,4.1818,0.1,0.00019531,1951.8,0.0001951,1945.5,-6.3837e-05,-0.0050011,-6.549e-05,-12.426,1.4581
6628,15.193,4.1818,0.1,0.00019987,1997.4,0.00019967,1991.5,-6.5378e-05,-0.0048016,-6.6936e-05,-11.71,1.4304
6629,15.009,4.1818,0.1,0.00020446,2043.2,0.00020427,2037.6,-6.6926e-05,-0.004576,-6.8387e-05,-10.984,1.4027
6630,14.826,4.1818,0.1,0.00020906,2089.1,0.00020888,2084,-6.8481e-05,-0.0043562,-6.9844e-05,-10.243,1.3753
6631,14.642,4.1818,0.1,0.00021368,2135.3,0.00021351,2130.5,-7.0044e-05,-0.0041346,-7.1305e-05,-9.4828,1.3479
6632,14.459,4.1818,0.1,0.00021832,2181.6,0.00021817,2177.3,-7.1613e-05,-0.0039126,-7.277e-05,-8.6989,1.3207
6633,14.276,4.1818,0.1,0.00022297,2228.2,0.00022284,2224.2,-7.319e-05,-0.0036292,-7.4239e-05,-7.8865,1.2937
6634,14.092,4.1818,0.1,0.00022765,2274.9,0.00022752,2271.4,-7.4774e-05,-0.0033051,-7.5711e-05,-7.0404,1.2668
6635,13.909,4.1818,0.1,0.00023234,2321.8,0.00023223,2318.7,-7.6366e-05,-0.0029503,-7.7185e-05,-6.1558,1.24
6636,13.725,4.1818,0.1,0.00023704,2368.8,0.00023696,2366.2,-7.7966e-05,-0.0024552,-7.8661e-05,-5.227,1.2134
6637,13.542,4.1818,0.1,0.00024177,2416,0.0002417,2413.9,-7.9574e-05,-0.0017653,-8.0139e-05,-4.2485,1.187
6638,13.358,4.1818,0.1,0.00024651,2463.4,0.00024646,2461.8,-8.119e-05,-0.0006582,-8.1617e-05,-3.2145,1.1607
6639,13.175,4.1818,0.1,0.00025127,2511,0.00025123,2509.9,-8.2814e-05,0.0016282,-8.3096e-05,-2.1192,1.1346
6640,12.991,4.1818,0.1,0.00025604,2558.7,0.00025603,2558.2,-8.4446e-05,0.0093981,-8.4575e-05,-0.96055,1.1087
6641,12.808,4.1818,0.1,0.00026083,2606.5,0.00026084,2606.7,-8.6044e-05,0.33558,-8.6095e-05,-0.044033,1.0829
6642,12.624,4.1818,0.1,0.00026564,2654.5,0.00026566,2655.3,-8.7523e-05,1.6309,-8.7741e-05,-0.012666,1.0573
6643,12.441,4.1818,0.1,0.00027045,2702.7,0.0002705,2704.2,-8.8995e-05,3.0457,-8.9401e-05,-0.0087675,1.0319
6644,12.257,4.1818,0.1,0.00027528,2750.9,0.00027536,2753.2,-9.0462e-05,4.5635,-9.1071e-05,-0.0072294,1.0067
6645,12.074,4.1818,0.1,0.00028013,2799.4,0.00028023,2802.5,-9.1925e-05,6.1918,-9.275e-05,-0.0064012,0.98163
6646,11.89,4.1818,0.1,0.00028499,2847.9,0.00028512,2851.9,-9.3382e-05,7.9404,-9.444e-05,-0.0058389,0.95677
6647,11.707,4.1818,0.1,0.00028986,2896.6,0.00029002,2901.5,-9.4832e-05,9.8195,-9.614e-05,-0.0054405,0.93211
6648,11.523,4.1818,0.1,0.00029474,2945.4,0.00029494,2951.3,-9.6274e-05,11.84,-9.7851e-05,-0.0051438,0.90764
6649,11.34,4.1818,0.1,0.00029963,2994.3,0.00029987,3001.2,-9.7707e-05,14.015,-9.9573e-05,-0.0048677,0.88337
6650,11.156,4.1818,0.1,0.00030454,3043.3,0.00030481,3051.4,-9.9129e-05,16.356,-0.00010131,-0.0046866,0.8593
6651,10.973,4.1818,0.1,0.00030945,3092.4,0.00030977,3101.8,-0.00010054,18.878,-0.00010305,-0.0045384,0.83544
6652,10.789,4.1818,0.1,0.00031437,3141.6,0.00031473,3152.3,-0.00010194,21.595,-0.00010481,-0.004375,0.81179
6653,10.606,4.1818,0.1,0.0003193,3190.8,0.00031971,3203,-0.00010332,24.522,-0.00010658,-0.0042611,0.78834
6654,10.422,4.1818,0.1,0.00032424,3240.2,0.0003247,3253.9,-0.00010468,27.676,-0.00010837,-0.0041911,0.76512
6655,10.239,4.1818,0.1,0.00032919,3289.6,0.0003297,3305,-0.00010603,31.073,-0.00011017,-0.0041693,0.74211
6656,10.055,4.1818,0.1,0.00033414,3339.1,0.00033472,3356.3,-0.00010736,34.734,-0.00011198,-0.0041517,0.71932
6657,9.872,4.1818,0.1,0.0003391,3388.6,0.00033974,3407.8,-0.00010866,38.675,-0.00011381,-0.0041736,0.69676
6658,9.6885,4.1818,0.1,0.00034406,3438.2,0.00034477,3459.5,-0.00010995,42.918,-0.00011566,-0.0042613,0.67442
6659,9.505,4.1818,0.1,0.00034903,3487.9,0.00034981,3511.4,-0.0001112,47.483,-0.00011752,-0.0044084,0.65232
6660,9.3215,4.1818,0.1,0.000354,3537.6,0.00035487,3563.5,-0.00011243,52.391,-0.00011941,-0.0046429,0.63046
6661,9.1381,4.1818,0.1,0.00035898,3587.4,0.00035993,3615.8,-0.00011363,57.664,-0.00012131,-0.004984,0.60883
6662,8.9546,4.1818,0.1,0.00036397,3637.2,0.000365,3668.4,-0.0001148,63.323,-0.00012323,-0.0054642,0.58745
6663,8.7711,4.1818,0.1,0.00036896,3687.1,0.00037009,3721.3,-0.00011594,69.39,-0.00012518,-0.006122,0.56631
6664,8.5876,4.1818,0.1,0.00037397,3737.1,0.0003752,3774.4,-0.00011705,75.884,-0.00012715,-0.0070122,0.54542
6665,8.4041,4.1818,0.1,0.00037898,3787.2,0.00038032,3827.9,-0.00011812,82.826,-0.00012914,-0.008203,0.52478
6666,8.2206,4.1818,0.1,0.00038401,3837.5,0.00038547,3881.8,-0.00011916,90.231,-0.00013117,-0.0097868,0.5044
6667,8.0372,4.1818,0.1,0.00038907,3888,0.00039064,3936.1,-0.00012016,98.114,-0.00013322,-0.011883,0.48428
6668,7.8537,4.1818,0.1,0.00039415,3938.8,0.00039585,3990.9,-0.00012113,106.48,-0.00013531,-0.014651,0.46442
6669,7.6702,4.1818,0.1,0.00039927,3989.9,0.0004011,4046.3,-0.00012208,115.34,-0.00013743,-0.018303,0.44483
6670,7.4867,4.1818,0.1,0.00040444,4041.6,0.00040641,4102.5,-0.000123,124.69,-0.0001396,-0.023119,0.4255
6671,7.3032,4.1818,0.1,0.00040967,4093.9,0.0004118,4159.5,-0.0001239,134.51,-0.0001418,-0.029477,0.40646
6672,7.1198,4.1818,0.1,0.000415,4147.1,0.00041727,4217.6,-0.00012479,144.77,-0.00014406,-0.037883,0.38768
6673,6.9363,4.1818,0.1,0.00042043,4201.4,0.00042286,4277,-0.00012568,155.43,-0.00014638,-0.049017,0.36919
6674,6.7528,4.1818,0.1,0.00042602,4257.2,0.0004286,4338,-0.0001266,166.41,-0.00014875,-0.063804,0.35099
6675,6.5693,4.1818,0.1,0.00043179,4314.9,0.00043454,4400.9,-0.00012755,177.63,-0.00015121,-0.083506,0.33307
6676,6.3858,4.1818,0.1,0.0004378,4375,0.00044071,4466.4,-0.00012858,188.94,-0.00015374,-0.10986,0.31545
6677,6.2024,4.1818,0.1,0.00044413,4438.2,0.00044719,4534.8,-0.00012972,200.15,-0.00015638,-0.14527,0.29812
6678,6.0189,4.1818,0.1,0.00045085,4505.4,0.00045406,4607.1,-0.00013102,210.99,-0.00015912,-0.19314,0.2811
6679,5.8354,4.1818,0.1,0.00045808,4577.6,0.00046143,4684,-0.00013255,221.06,-0.000162,-0.25841,0.26438
6680,5.6519,4.1818,0.1,0.00046596,4656.4,0.00046944,4766.9,-0.00013441,229.82,-0.00016504,-0.34841,0.24797
6681,5.4684,4.1818,0.1,0.0004747,4743.7,0.00047827,4857.3,-0.00013672,236.44,-0.00016826,-0.47472,0.23187
6682,5.285,4.1818,0.1,0.00048455,4842.2,0.00048817,4957.2,-0.00013969,239.69,-0.00017168,-0.65648,0.2161
6683,5.1015,4.1818,0.1,0.0004959,4955.6,0.0004995,5069.7,-0.0001436,237.67,-0.00017536,-0.93038,0.20066
6684,4.918,4.1818,0.1,0.0005093,5089.5,0.00051276,5198.6,-0.00014887,227.4,-0.00017932,-1.3682,0.18555
6685,4.7345,4.1818,0.1,0.00052556,5252,0.00052869,5349.9,-0.00015617,204.16,-0.00018363,-2.173,0.17079
6686,4.551,4.1818,0.1,0.00054598,5456,0.00054845,5532.4,-0.0001665,160.54,-0.00018839,-3.9497,0.15637
6687,4.3676,4.1818,0.1,0.00057264,5722.5,0.00057387,5759.8,-0.00018115,86.859,-0.00019417,-10.908,0.14232
6688,4.1841,4.1818,0.1,0.00060904,6086.2,0.0006079,6053.9,-0.00019541,18.139,-0.00020867,-81.484,0.12865
6689,4.0006,4.1818,0.1,0.00066158,6611.3,0.00065573,6450.9,-0.00020185,7.3068,-0.00024491,-316.22,0.11536
6690,3.8171,4.1818,0.1,0.0007422,7416.8,0.00072657,7015.1,-0.00020564,10.915,-0.00030756,-754.93,0.10248
6691,3.6336,4.1818,0.1,0.00089155,8909.3,0.00084833,7891.5,-0.00020361,-12.419,-0.00043664,-1763.3,0.090009
6692,3.4501,4.1818,0.1,0.0012413,12404,0.0011095,9739.5,-0.00016029,199.07,-0.00075674,-4282.5,0.077957
6693,23.817,4.3636,0.1,1.7428e-05,174.16,8.9666e-06,39.752,3.6533e-06,-0.17008,-1.6407e-05,-150.9,2.8293
6694,23.633,4.3636,0.1,1.9194e-05,191.81,1.2451e-05,77.908,2.0408e-06,-0.30969,-1.6637e-05,-140.65,2.7985
6695,23.45,4.3636,0.1,2.1421e-05,214.06,1.5946e-05,116.1,4.7652e-07,-0.12967,-1.6931e-05,-130.93,2.7677
6696,23.266,4.3636,0.1,2.3982e-05,239.66,1.9458e-05,154.18,-1.0768e-06,-0.11346,-1.7288e-05,-121.92,2.7369
6697,23.083,4.3636,0.1,2.6792e-05,267.73,2.2989e-05,192.23,-2.6063e-06,-0.083071,-1.7708e-05,-113.55,2.7061
6698,22.899,4.3636,0.1,2.979e-05,297.69,2.6543e-05,230.3,-4.1172e-06,-0.068616,-1.8194e-05,-105.83,2.6753
6699,22.716,4.3636,0.1,3.2936e-05,329.13,3.0126e-05,268.46,-5.611e-06,-0.056871,-1.8742e-05,-98.721,2.6445
6700,22.532,4.3636,0.1,3.6201e-05,361.76,3.3741e-05,306.74,-7.0902e-06,-0.048513,-1.9352e-05,-92.178,2.6137
6701,22.349,4.3636,0.1,3.9563e-05,395.36,3.7387e-05,345.16,-8.557e-06,-0.041958,-2.0019e-05,-86.163,2.583
6702,22.165,4.3636,0.1,4.3008e-05,429.78,4.1065e-05,383.74,-1.0013e-05,-0.036783,-2.074e-05,-80.63,2.5523
6703,21.982,4.3636,0.1,4.6523e-05,464.91,4.4775e-05,422.5,-1.1461e-05,-0.032585,-2.151e-05,-75.538,2.5216
6704,21.798,4.3636,0.1,5.0099e-05,500.65,4.8516e-05,461.44,-1.2901e-05,-0.029127,-2.2327e-05,-70.848,2.491
6705,21.615,4.3636,0.1,5.373e-05,536.93,5.2288e-05,500.56,-1.4336e-05,-0.026233,-2.3186e-05,-66.523,2.4604
6706,21.431,4.3636,0.1,5.7409e-05,573.7,5.6089e-05,539.86,-1.5765e-05,-0.023782,-2.4084e-05,-62.531,2.4298
6707,21.248,4.3636,0.1,6.1133e-05,610.91,5.9919e-05,579.35,-1.7191e-05,-0.021694,-2.5019e-05,-58.842,2.3992
6708,21.064,4.3636,0.1,6.4898e-05,648.53,6.3777e-05,619.03,-1.8614e-05,-0.019889,-2.5988e-05,-55.429,2.3687
6709,20.881,4.3636,0.1,6.8701e-05,686.54,6.7663e-05,658.9,-2.0035e-05,-0.018317,-2.6989e-05,-52.27,2.3383
6710,20.697,4.3636,0.1,7.2541e-05,724.91,7.1575e-05,698.97,-2.1454e-05,-0.01694,-2.8019e-05,-49.343,2.3079
6711,20.514,4.3636,0.1,7.6414e-05,763.61,7.5513e-05,739.22,-2.2873e-05,-0.015719,-2.9077e-05,-46.629,2.2775
6712,20.33,4.3636,0.1,8.0319e-05,802.64,7.9478e-05,779.67,-2.4292e-05,-0.014637,-3.016e-05,-44.11,2.2472
6713,20.147,4.3636,0.1,8.4256e-05,841.98,8.3467e-05,820.31,-2.5711e-05,-0.013675,-3.1268e-05,-41.771,2.2169
6714,19.963,4.3636,0.1,8.8222e-05,881.61,8.7482e-05,861.14,-2.7131e-05,-0.012817,-3.2399e-05,-39.597,2.1867
6715,19.78,4.3636,0.1,9.2218e-05,921.54,9.1521e-05,902.17,-2.8553e-05,-0.012032,-3.3552e-05,-37.575,2.1565
6716,19.596,4.3636,0.1,9.6241e-05,961.75,9.5584e-05,943.4,-2.9976e-05,-0.011319,-3.4725e-05,-35.693,2.1265
6717,19.413,4.3636,0.1,0.00010029,1002.2,9.9671e-05,984.82,-3.1402e-05,-0.010686,-3.5917e-05,-33.94,2.0964
6718,19.229,4.3636,0.1,0.00010437,1043,0.00010378,1026.4,-3.283e-05,-0.010096,-3.7128e-05,-32.305,2.0665
6719,19.046,4.3636,0.1,0.00010847,1084,0.00010792,1068.3,-3.4261e-05,-0.0095599,-3.8356e-05,-30.778,2.0366
6720,18.863,4.3636,0.1,0.0001126,1125.2,0.00011207,1110.3,-3.5696e-05,-0.0090674,-3.9601e-05,-29.352,2.0068
6721,18.679,4.3636,0.1,0.00011676,1166.7,0.00011625,1152.5,-3.7134e-05,-0.0086006,-4.0862e-05,-28.018,1.977
6722,18.496,4.3636,0.1,0.00012093,1208.5,0.00012046,1194.9,-3.8575e-05,-0.0081771,-4.2137e-05,-26.767,1.9474
6723,18.312,4.3636,0.1,0.00012514,1250.5,0.00012468,1237.5,-4.0021e-05,-0.0077883,-4.3426e-05,-25.593,1.9178
6724,18.129,4.3636,0.1,0.00012936,1292.7,0.00012893,1280.3,-4.1471e-05,-0.0074376,-4.4729e-05,-24.489,1.8883
6725,17.945,4.3636,0.1,0.00013361,1335.2,0.0001332,1323.3,-4.2926e-05,-0.0070932,-4.6045e-05,-23.448,1.8589
6726,17.762,4.3636,0.1,0.00013788,1377.9,0.00013749,1366.5,-4.4385e-05,-0.006769,-4.7374e-05,-22.465,1.8296
6727,17.578,4.3636,0.1,0.00014218,1420.8,0.0001418,1409.9,-4.5849e-05,-0.0064882,-4.8714e-05,-21.534,1.8003
6728,17.395,4.3636,0.1,0.0001465,1463.9,0.00014613,1453.5,-4.7318e-05,-0.0062059,-5.0065e-05,-20.649,1.7712
6729,17.211,4.3636,0.1,0.00015083,1507.3,0.00015049,1497.3,-4.8792e-05,-0.0059453,-5.1427e-05,-19.805,1.7421
6730,17.028,4.3636,0.1,0.0001552,1550.9,0.00015486,1541.3,-5.0271e-05,-0.0057003,-5.2799e-05,-18.998,1.7132
6731,16.844,4.3636,0.1,0.00015958,1594.7,0.00015926,1585.5,-5.1756e-05,-0.0054531,-5.4181e-05,-18.223,1.6844
6732,16.661,4.3636,0.1,0.00016398,1638.7,0.00016368,1629.9,-5.3247e-05,-0.0052271,-5.5572e-05,-17.475,1.6557
6733,16.477,4.3636,0.1,0.00016841,1682.9,0.00016812,1674.5,-5.4743e-05,-0.0050154,-5.6972e-05,-16.749,1.627
6734,16.294,4.3636,0.1,0.00017285,1727.3,0.00017257,1719.3,-5.6245e-05,-0.0048279,-5.838e-05,-16.043,1.5985
6735,16.11,4.3636,0.1,0.00017732,1772,0.00017705,1764.2,-5.7754e-05,-0.0046207,-5.9796e-05,-15.351,1.5701
6736,15.927,4.3636,0.1,0.00018181,1816.8,0.00018155,1809.4,-5.9268e-05,-0.0044196,-6.122e-05,-14.669,1.5419
6737,15.743,4.3636,0.1,0.00018631,1861.8,0.00018607,1854.8,-6.0789e-05,-0.0042519,-6.2651e-05,-13.994,1.5137
6738,15.56,4.3636,0.1,0.00019084,1907.1,0.00019061,1900.4,-6.2316e-05,-0.004061,-6.4089e-05,-13.321,1.4857
6739,15.376,4.3636,0.1,0.00019538,1952.5,0.00019517,1946.1,-6.385e-05,-0.0038783,-6.5533e-05,-12.647,1.4578
6740,15.193,4.3636,0.1,0.00019995,1998.1,0.00019974,1992.1,-6.539e-05,-0.0036975,-6.6983e-05,-11.968,1.4301
6741,15.009,4.3636,0.1,0.00020454,2043.9,0.00020434,2038.3,-6.6938e-05,-0.0034903,-6.8438e-05,-11.279,1.4024
6742,14.826,4.3636,0.1,0.00020914,2089.9,0.00020896,2084.6,-6.8492e-05,-0.0032878,-6.9899e-05,-10.576,1.3749
6743,14.642,4.3636,0.1,0.00021376,2136.1,0.00021359,2131.2,-7.0053e-05,-0.0030851,-7.1364e-05,-9.856,1.3476
6744,14.459,4.3636,0.1,0.0002184,2182.5,0.00021825,2177.9,-7.1621e-05,-0.00288,-7.2834e-05,-9.1136,1.3204
6745,14.276,4.3636,0.1,0.00022306,2229.1,0.00022292,2224.9,-7.3197e-05,-0.0026164,-7.4307e-05,-8.3447,1.2933
6746,14.092,4.3636,0.1,0.00022774,2275.8,0.00022761,2272,-7.478e-05,-0.0023134,-7.5784e-05,-7.5446,1.2664
6747,13.909,4.3636,0.1,0.00023243,2322.7,0.00023232,2319.4,-7.6371e-05,-0.0019911,-7.7263e-05,-6.7087,1.2397
6748,13.725,4.3636,0.1,0.00023715,2369.8,0.00023705,2366.9,-7.7969e-05,-0.0015431,-7.8745e-05,-5.8317,1.2131
6749,13.542,4.3636,0.1,0.00024188,2417.1,0.00024179,2414.6,-7.9576e-05,-0.0009459,-8.0229e-05,-4.9087,1.1866
6750,13.358,4.3636,0.1,0.00024662,2464.5,0.00024655,2462.5,-8.119e-05,-6.0553e-05,-8.1714e-05,-3.9341,1.1603
6751,13.175,4.3636,0.1,0.00025138,2512.1,0.00025133,2510.7,-8.2813e-05,0.0015121,-8.3199e-05,-2.9024,1.1342
6752,12.991,4.3636,0.1,0.00025616,2559.9,0.00025613,2559,-8.4444e-05,0.0049762,-8.4685e-05,-1.8087,1.1083
6753,12.808,4.3636,0.1,0.00026096,2607.8,0.00026095,2607.5,-8.6082e-05,0.020994,-8.6172e-05,-0.65704,1.0825
6754,12.624,4.3636,0.1,0.00026577,2655.8,0.00026578,2656.1,-8.7648e-05,0.6387,-8.7737e-05,-0.02939,1.0569
6755,12.441,4.3636,0.1,0.00027059,2704,0.00027062,2705,-8.9132e-05,1.9518,-8.9393e-05,-0.012257,1.0315
6756,12.257,4.3636,0.1,0.00027543,2752.4,0.00027549,2754.1,-9.061e-05,3.3713,-9.106e-05,-0.0087024,1.0063
6757,12.074,4.3636,0.1,0.00028028,2800.9,0.00028037,2803.3,-9.2084e-05,4.8939,-9.2737e-05,-0.0071788,0.98121
6758,11.89,4.3636,0.1,0.00028515,2849.5,0.00028526,2852.8,-9.3554e-05,6.5274,-9.4424e-05,-0.0063003,0.95634
6759,11.707,4.3636,0.1,0.00029003,2898.3,0.00029017,2902.4,-9.5018e-05,8.2808,-9.6121e-05,-0.0057383,0.93167
6760,11.523,4.3636,0.1,0.00029492,2947.2,0.0002951,2952.3,-9.6475e-05,10.164,-9.7828e-05,-0.0053556,0.9072
6761,11.34,4.3636,0.1,0.00029983,2996.2,0.00030003,3002.3,-9.7924e-05,12.188,-9.9547e-05,-0.0050391,0.88292
6762,11.156,4.3636,0.1,0.00030474,3045.3,0.00030499,3052.5,-9.9364e-05,14.363,-0.00010128,-0.0048463,0.85885
6763,10.973,4.3636,0.1,0.00030967,3094.6,0.00030995,3102.9,-0.00010079,16.701,-0.00010302,-0.0047085,0.83498
6764,10.789,4.3636,0.1,0.00031461,3143.9,0.00031493,3153.5,-0.00010221,19.215,-0.00010477,-0.0045715,0.81132
6765,10.606,4.3636,0.1,0.00031956,3193.4,0.00031992,3204.3,-0.00010362,21.918,-0.00010654,-0.0044979,0.78787
6766,10.422,4.3636,0.1,0.00032451,3242.9,0.00032493,3255.2,-0.00010501,24.823,-0.00010832,-0.0044837,0.76463
6767,10.239,4.3636,0.1,0.00032948,3292.5,0.00032994,3306.4,-0.00010639,27.945,-0.00011011,-0.0045295,0.74162
6768,10.055,4.3636,0.1,0.00033445,3342.2,0.00033497,3357.7,-0.00010775,31.297,-0.00011192,-0.0045943,0.71883
6769,9.872,4.3636,0.1,0.00033943,3392,0.00034001,3409.3,-0.00010909,34.895,-0.00011374,-0.004713,0.69626
6770,9.6885,4.3636,0.1,0.00034442,3441.8,0.00034506,3461,-0.00011041,38.753,-0.00011557,-0.0049146,0.67392
6771,9.505,4.3636,0.1,0.00034941,3491.7,0.00035012,3513,-0.00011172,42.885,-0.00011742,-0.0051948,0.65181
6772,9.3215,4.3636,0.1,0.00035442,3541.7,0.0003552,3565.1,-0.000113,47.305,-0.00011929,-0.0055838,0.62994
6773,9.1381,4.3636,0.1,0.00035943,3591.8,0.00036028,3617.5,-0.00011425,52.028,-0.00012118,-0.0061047,0.60831
6774,8.9546,4.3636,0.1,0.00036444,3641.9,0.00036538,3670.1,-0.00011549,57.064,-0.00012308,-0.006795,0.58692
6775,8.7711,4.3636,0.1,0.00036947,3692.2,0.00037049,3723,-0.0001167,62.423,-0.00012501,-0.0076995,0.56578
6776,8.5876,4.3636,0.1,0.00037451,3742.5,0.00037562,3776.1,-0.00011788,68.113,-0.00012695,-0.0088797,0.54488
6777,8.4041,4.3636,0.1,0.00037956,3792.9,0.00038076,3829.5,-0.00011904,74.138,-0.00012891,-0.010415,0.52424
6778,8.2206,4.3636,0.1,0.00038462,3843.5,0.00038592,3883.1,-0.00012018,80.496,-0.00013089,-0.012409,0.50386
6779,8.0372,4.3636,0.1,0.0003897,3894.3,0.00039111,3937.1,-0.00012129,87.181,-0.0001329,-0.015,0.48373
6780,7.8537,4.3636,0.1,0.0003948,3945.3,0.00039632,3991.5,-0.00012239,94.179,-0.00013492,-0.018372,0.46387
6781,7.6702,4.3636,0.1,0.00039993,3996.6,0.00040156,4046.3,-0.00012347,101.47,-0.00013697,-0.02277,0.44428
6782,7.4867,4.3636,0.1,0.0004051,4048.2,0.00040685,4101.6,-0.00012454,109.01,-0.00013905,-0.028523,0.42495
6783,7.3032,4.3636,0.1,0.00041032,4100.4,0.00041218,4157.5,-0.00012561,116.76,-0.00014115,-0.036077,0.4059
6784,7.1198,4.3636,0.1,0.00041559,4153.1,0.00041757,4214,-0.00012668,124.66,-0.00014328,-0.046041,0.38713
6785,6.9363,4.3636,0.1,0.00042094,4206.5,0.00042304,4271.2,-0.00012777,132.61,-0.00014543,-0.059251,0.36863
6786,6.7528,4.3636,0.1,0.00042638,4260.8,0.00042859,4329.3,-0.0001289,140.51,-0.00014761,-0.076865,0.35043
6787,6.5693,4.3636,0.1,0.00043193,4316.3,0.00043426,4388.4,-0.00013008,148.22,-0.00014982,-0.10051,0.33251
6788,6.3858,4.3636,0.1,0.00043762,4373.2,0.00044006,4448.8,-0.00013134,155.56,-0.00015206,-0.13248,0.31488
6789,6.2024,4.3636,0.1,0.00044349,4431.9,0.00044603,4510.7,-0.00013271,162.28,-0.00015433,-0.17612,0.29755
6790,6.0189,4.3636,0.1,0.00044958,4492.7,0.0004522,4574.3,-0.00013423,168.08,-0.00015663,-0.23633,0.28052
6791,5.8354,4.3636,0.1,0.00045595,4556.3,0.00045863,4640,-0.00013595,172.53,-0.00015895,-0.32061,0.2638
6792,5.6519,4.3636,0.1,0.00046266,4623.4,0.00046538,4708.2,-0.00013795,175.04,-0.0001613,-0.44088,0.24738
6793,5.4684,4.3636,0.1,0.00046984,4695.1,0.00047255,4779.7,-0.00014033,174.76,-0.00016367,-0.61743,0.23128
6794,5.285,4.3636,0.1,0.00047761,4772.8,0.00048027,4855.3,-0.00014325,170.4,-0.00016605,-0.88771,0.2155
6795,5.1015,4.3636,0.1,0.00048622,4858.9,0.00048872,4936.2,-0.00014696,159.96,-0.00016842,-1.3315,0.20003
6796,4.918,4.3636,0.1,0.00049602,4956.8,0.00049822,5024.3,-0.0001518,140.33,-0.00017077,-2.1488,0.1849
6797,4.7345,4.3636,0.1,0.00050758,5072.3,0.00050923,5122.7,-0.00015835,106.76,-0.0001731,-4.0516,0.1701
6798,4.551,4.3636,0.1,0.00052182,5214.6,0.00052252,5235.9,-0.00016705,54.638,-0.00017586,-11.525,0.15564
6799,4.3676,4.3636,0.1,0.00054033,5399.6,0.00053932,5370.9,-0.00017369,13.537,-0.00018482,-70.035,0.14152
6800,4.1841,4.3636,0.1,0.00056568,5652.9,0.00056152,5538,-0.00017458,7.1721,-0.00020608,-229.47,0.12775
6801,4.0006,4.3636,0.1,0.00060273,6023.2,0.00059238,5751.4,-0.00017259,3.6617,-0.00024147,-513.86,0.11433
6802,3.8171,4.3636,0.1,0.00065811,6576.6,0.00063528,6021.6,-0.0001641,15.26,-0.00030001,-1005.9,0.10127
6803,3.6336,4.3636,0.1,0.00074862,7481,0.0006974,6336.1,-0.00014625,-2.7769,-0.00040084,-1915.7,0.088539
6804,3.4501,4.3636,0.1,0.00092244,9218,0.00079726,6707.5,-9.769e-05,-16.872,-0.00060124,-3800.3,0.07611
6805,23.817,4.5455,0.1,1.6623e-05,166.11,8.6959e-06,39.767,3.3827e-06,-0.15426,-1.5585e-05,-142.67,2.8292
6806,23.633,4.5455,0.1,1.8413e-05,184,1.2158e-05,77.677,1.7795e-06,-0.30112,-1.5812e-05,-132.48,2.7984
6807,23.45,4.5455,0.1,2.0678e-05,206.64,1.5637e-05,115.65,2.2773e-07,-0.12347,-1.6116e-05,-122.92,2.7676
6808,23.266,4.5455,0.1,2.3285e-05,232.69,1.9139e-05,153.54,-1.3113e-06,-0.10795,-1.6491e-05,-114.16,2.7368
6809,23.083,4.5455,0.1,2.6141e-05,261.23,2.2666e-05,191.46,-2.8257e-06,-0.078063,-1.6939e-05,-106.12,2.706
6810,22.899,4.5455,0.1,2.9188e-05,291.68,2.6225e-05,229.45,-4.3214e-06,-0.06392,-1.746e-05,-98.779,2.6752
6811,22.716,4.5455,0.1,3.2383e-05,323.61,2.9818e-05,267.57,-5.8004e-06,-0.052408,-1.8049e-05,-92.081,2.6444
6812,22.532,4.5455,0.1,3.5696e-05,356.71,3.3447e-05,305.85,-7.2655e-06,-0.044241,-1.8702e-05,-85.973,2.6136
6813,22.349,4.5455,0.1,3.9105e-05,390.78,3.7111e-05,344.31,-8.7191e-06,-0.037855,-1.9414e-05,-80.398,2.5829
6814,22.165,4.5455,0.1,4.2594e-05,425.65,4.081e-05,382.96,-1.0163e-05,-0.032838,-2.018e-05,-75.3,2.5522
6815,21.982,4.5455,0.1,4.6151e-05,461.19,4.4542e-05,421.79,-1.1599e-05,-0.028792,-2.0996e-05,-70.629,2.5215
6816,21.798,4.5455,0.1,4.9767e-05,497.33,4.8305e-05,460.82,-1.3029e-05,-0.025487,-2.1855e-05,-66.342,2.4909
6817,21.615,4.5455,0.1,5.3435e-05,533.98,5.2099e-05,500.03,-1.4454e-05,-0.022734,-2.2756e-05,-62.398,2.4602
6818,21.431,4.5455,0.1,5.7148e-05,571.09,5.5921e-05,539.43,-1.5875e-05,-0.020424,-2.3693e-05,-58.763,2.4296
6819,21.248,4.5455,0.1,6.0904e-05,608.62,5.9771e-05,579.01,-1.7293e-05,-0.018473,-2.4665e-05,-55.407,2.3991
6820,21.064,4.5455,0.1,6.4698e-05,646.53,6.3649e-05,618.78,-1.8708e-05,-0.016789,-2.5667e-05,-52.305,2.3686
6821,20.881,4.5455,0.1,6.8528e-05,684.8,6.7552e-05,658.74,-2.0123e-05,-0.015344,-2.67e-05,-49.433,2.3381
6822,20.697,4.5455,0.1,7.2391e-05,723.41,7.1482e-05,698.88,-2.1536e-05,-0.014082,-2.7759e-05,-46.771,2.3077
6823,20.514,4.5455,0.1,7.6286e-05,762.34,7.5436e-05,739.22,-2.2949e-05,-0.012968,-2.8844e-05,-44.3,2.2773
6824,20.33,4.5455,0.1,8.0212e-05,801.57,7.9415e-05,779.73,-2.4363e-05,-0.011989,-2.9952e-05,-42.005,2.247
6825,20.147,4.5455,0.1,8.4167e-05,841.09,8.3418e-05,820.44,-2.5778e-05,-0.011124,-3.1083e-05,-39.872,2.2167
6826,19.963,4.5455,0.1,8.8151e-05,880.9,8.7445e-05,861.34,-2.7194e-05,-0.01036,-3.2235e-05,-37.887,2.1865
6827,19.78,4.5455,0.1,9.2161e-05,920.98,9.1495e-05,902.42,-2.8611e-05,-0.0096608,-3.3406e-05,-36.038,2.1564
6828,19.596,4.5455,0.1,9.6199e-05,961.32,9.5569e-05,943.7,-3.0031e-05,-0.0090279,-3.4597e-05,-34.314,2.1263
6829,19.413,4.5455,0.1,0.00010026,1001.9,9.9665e-05,985.17,-3.1454e-05,-0.008472,-3.5806e-05,-32.706,2.0962
6830,19.229,4.5455,0.1,0.00010435,1042.8,0.00010378,1026.8,-3.2879e-05,-0.0079545,-3.7031e-05,-31.205,2.0663
6831,19.046,4.5455,0.1,0.00010846,1083.9,0.00010793,1068.7,-3.4308e-05,-0.0074824,-3.8273e-05,-29.801,2.0364
6832,18.863,4.5455,0.1,0.0001126,1125.2,0.00011209,1110.7,-3.5739e-05,-0.007056,-3.953e-05,-28.486,2.0066
6833,18.679,4.5455,0.1,0.00011676,1166.8,0.00011628,1153,-3.7175e-05,-0.0066502,-4.0801e-05,-27.255,1.9768
6834,18.496,4.5455,0.1,0.00012095,1208.7,0.00012049,1195.4,-3.8614e-05,-0.0062839,-4.2087e-05,-26.098,1.9471
6835,18.312,4.5455,0.1,0.00012516,1250.7,0.00012472,1238,-4.0058e-05,-0.0059501,-4.3386e-05,-25.011,1.9176
6836,18.129,4.5455,0.1,0.00012939,1293,0.00012897,1280.9,-4.1506e-05,-0.0056501,-4.4698e-05,-23.987,1.8881
6837,17.945,4.5455,0.1,0.00013365,1335.6,0.00013324,1323.9,-4.2959e-05,-0.005353,-4.6022e-05,-23.021,1.8586
6838,17.762,4.5455,0.1,0.00013792,1378.3,0.00013754,1367.1,-4.4416e-05,-0.0050752,-4.7358e-05,-22.106,1.8293
6839,17.578,4.5455,0.1,0.00014222,1421.3,0.00014185,1410.5,-4.5879e-05,-0.0048394,-4.8705e-05,-21.238,1.8001
6840,17.395,4.5455,0.1,0.00014655,1464.5,0.00014619,1454.1,-4.7346e-05,-0.0045994,-5.0062e-05,-20.412,1.7709
6841,17.211,4.5455,0.1,0.00015089,1507.9,0.00015055,1497.9,-4.8819e-05,-0.0043764,-5.143e-05,-19.624,1.7419
6842,17.028,4.5455,0.1,0.00015525,1551.5,0.00015492,1541.9,-5.0297e-05,-0.0041709,-5.2808e-05,-18.869,1.7129
6843,16.844,4.5455,0.1,0.00015964,1595.3,0.00015932,1586.2,-5.178e-05,-0.003959,-5.4195e-05,-18.142,1.6841
6844,16.661,4.5455,0.1,0.00016405,1639.3,0.00016374,1630.6,-5.327e-05,-0.0037667,-5.5591e-05,-17.441,1.6554
6845,16.477,4.5455,0.1,0.00016848,1683.6,0.00016818,1675.1,-5.4765e-05,-0.0035924,-5.6995e-05,-16.76,1.6267
6846,16.294,4.5455,0.1,0.00017292,1728,0.00017264,1719.9,-5.6266e-05,-0.0034355,-5.8408e-05,-16.096,1.5982
6847,16.11,4.5455,0.1,0.00017739,1772.7,0.00017713,1764.9,-5.7773e-05,-0.0032596,-5.9829e-05,-15.446,1.5698
6848,15.927,4.5455,0.1,0.00018188,1817.6,0.00018163,1810.1,-5.9287e-05,-0.0030899,-6.1257e-05,-14.805,1.5416
6849,15.743,4.5455,0.1,0.00018639,1862.6,0.00018615,1855.5,-6.0806e-05,-0.0029524,-6.2692e-05,-14.17,1.5134
6850,15.56,4.5455,0.1,0.00019092,1907.9,0.00019069,1901.1,-6.2332e-05,-0.0027912,-6.4134e-05,-13.537,1.4854
6851,15.376,4.5455,0.1,0.00019547,1953.4,0.00019525,1946.9,-6.3865e-05,-0.0026357,-6.5582e-05,-12.903,1.4575
6852,15.193,4.5455,0.1,0.00020004,1999,0.00019983,1992.8,-6.5404e-05,-0.0024854,-6.7036e-05,-12.265,1.4297
6853,15.009,4.5455,0.1,0.00020463,2044.8,0.00020443,2039,-6.6951e-05,-0.0023067,-6.8496e-05,-11.617,1.4021
6854,14.826,4.5455,0.1,0.00020923,2090.9,0.00020904,2085.4,-6.8504e-05,-0.0021341,-6.9962e-05,-10.957,1.3746
6855,14.642,4.5455,0.1,0.00021386,2137.1,0.00021368,2131.9,-7.0064e-05,-0.0019613,-7.1432e-05,-10.281,1.3472
6856,14.459,4.5455,0.1,0.0002185,2183.5,0.00021834,2178.7,-7.1631e-05,-0.0017897,-7.2906e-05,-9.5845,1.32
6857,14.276,4.5455,0.1,0.00022317,2230.1,0.00022301,2225.7,-7.3205e-05,-0.0015651,-7.4385e-05,-8.8639,1.2929
6858,14.092,4.5455,0.1,0.00022785,2276.9,0.00022771,2272.8,-7.4787e-05,-0.0013066,-7.5867e-05,-8.1149,1.266
6859,13.909,4.5455,0.1,0.00023254,2323.8,0.00023242,2320.2,-7.6376e-05,-0.0010383,-7.7352e-05,-7.3331,1.2393
6860,13.725,4.5455,0.1,0.00023726,2371,0.00023715,2367.7,-7.7973e-05,-0.00066994,-7.884e-05,-6.5139,1.2126
6861,13.542,4.5455,0.1,0.00024199,2418.3,0.0002419,2415.4,-7.9578e-05,-0.00019417,-8.033e-05,-5.6526,1.1862
6862,13.358,4.5455,0.1,0.00024675,2465.8,0.00024666,2463.4,-8.1191e-05,0.00046504,-8.1822e-05,-4.7441,1.1599
6863,13.175,4.5455,0.1,0.00025151,2513.4,0.00025145,2511.5,-8.2812e-05,0.0015229,-8.3316e-05,-3.7832,1.1338
6864,12.991,4.5455,0.1,0.0002563,2561.2,0.00025625,2559.8,-8.4441e-05,0.0033511,-8.481e-05,-2.765,1.1078
6865,12.808,4.5455,0.1,0.0002611,2609.2,0.00026107,2608.4,-8.6079e-05,0.0076945,-8.6304e-05,-1.685,1.0821
6866,12.624,4.5455,0.1,0.00026592,2657.3,0.00026591,2657.1,-8.7722e-05,0.030575,-8.78e-05,-0.5528,1.0564
6867,12.441,4.5455,0.1,0.00027075,2705.6,0.00027076,2706,-8.9284e-05,0.73838,-8.9386e-05,-0.028462,1.031
6868,12.257,4.5455,0.1,0.0002756,2754.1,0.00027563,2755.1,-9.0776e-05,2.0388,-9.1049e-05,-0.012461,1.0058
6869,12.074,4.5455,0.1,0.00028046,2802.6,0.00028052,2804.4,-9.2263e-05,3.4432,-9.2722e-05,-0.0087666,0.98072
6870,11.89,4.5455,0.1,0.00028533,2851.4,0.00028542,2853.8,-9.3746e-05,4.9493,-9.4406e-05,-0.0071236,0.95585
6871,11.707,4.5455,0.1,0.00029023,2900.2,0.00029034,2903.5,-9.5225e-05,6.5639,-9.61e-05,-0.0062171,0.93117
6872,11.523,4.5455,0.1,0.00029513,2949.3,0.00029527,2953.4,-9.6699e-05,8.2955,-9.7804e-05,-0.0056601,0.90669
6873,11.34,4.5455,0.1,0.00030005,2998.4,0.00030022,3003.5,-9.8166e-05,10.153,-9.9518e-05,-0.0052567,0.88241
6874,11.156,4.5455,0.1,0.00030498,3047.7,0.00030518,3053.7,-9.9626e-05,12.146,-0.00010124,-0.0050277,0.85833
6875,10.973,4.5455,0.1,0.00030992,3097,0.00031016,3104.2,-0.00010108,14.285,-0.00010298,-0.0048854,0.83445
6876,10.789,4.5455,0.1,0.00031487,3146.6,0.00031515,3154.8,-0.00010252,16.579,-0.00010473,-0.0047684,0.81078
6877,10.606,4.5455,0.1,0.00031984,3196.2,0.00032016,3205.6,-0.00010395,19.039,-0.00010649,-0.004734,0.78732
6878,10.422,4.5455,0.1,0.00032481,3245.9,0.00032518,3256.7,-0.00010537,21.677,-0.00010826,-0.0047742,0.76408
6879,10.239,4.5455,0.1,0.0003298,3295.7,0.00033021,3307.9,-0.00010678,24.501,-0.00011005,-0.00489,0.74106
6880,10.055,4.5455,0.1,0.00033479,3345.6,0.00033525,3359.3,-0.00010818,27.525,-0.00011184,-0.005039,0.71826
6881,9.872,4.5455,0.1,0.0003398,3395.7,0.00034031,3410.9,-0.00010956,30.757,-0.00011365,-0.0052567,0.69569
6882,9.6885,4.5455,0.1,0.00034481,3445.8,0.00034538,3462.7,-0.00011093,34.207,-0.00011548,-0.0055732,0.67334
6883,9.505,4.5455,0.1,0.00034984,3496,0.00035047,3514.7,-0.00011228,37.884,-0.00011732,-0.0059864,0.65123
6884,9.3215,4.5455,0.1,0.00035487,3546.2,0.00035556,3567,-0.00011361,41.795,-0.00011917,-0.0065277,0.62935
6885,9.1381,4.5455,0.1,0.00035991,3596.6,0.00036067,3619.4,-0.00011492,45.946,-0.00012104,-0.0072239,0.60771
6886,8.9546,4.5455,0.1,0.00036496,3647.1,0.00036579,3672,-0.00011622,50.339,-0.00012292,-0.0081143,0.58632
6887,8.7711,4.5455,0.1,0.00037002,3697.6,0.00037092,3724.8,-0.0001175,54.973,-0.00012482,-0.0092507,0.56517
6888,8.5876,4.5455,0.1,0.00037509,3748.3,0.00037607,3777.9,-0.00011877,59.843,-0.00012673,-0.0107,0.54427
6889,8.4041,4.5455,0.1,0.00038017,3799.1,0.00038123,3831.1,-0.00012002,64.94,-0.00012866,-0.012548,0.52363
6890,8.2206,4.5455,0.1,0.00038526,3850,0.00038641,3884.6,-0.00012125,70.245,-0.0001306,-0.014911,0.50324
6891,8.0372,4.5455,0.1,0.00039037,3901,0.0003916,3938.3,-0.00012247,75.733,-0.00013256,-0.017943,0.48311
6892,7.8537,4.5455,0.1,0.00039549,3952.2,0.00039681,3992.2,-0.00012369,81.37,-0.00013452,-0.02185,0.46324
6893,7.6702,4.5455,0.1,0.00040063,4003.6,0.00040204,4046.4,-0.00012491,87.106,-0.0001365,-0.026908,0.44364
6894,7.4867,4.5455,0.1,0.00040579,4055.1,0.00040729,4100.7,-0.00012612,92.882,-0.00013849,-0.033498,0.42431
6895,7.3032,4.5455,0.1,0.00041098,4106.9,0.00041257,4155.3,-0.00012735,98.619,-0.00014048,-0.042143,0.40526
6896,7.1198,4.5455,0.1,0.00041619,4159,0.00041786,4210.1,-0.0001286,104.22,-0.00014248,-0.053572,0.38649
6897,6.9363,4.5455,0.1,0.00042143,4211.4,0.00042319,4265.1,-0.00012988,109.56,-0.00014447,-0.068816,0.36799
6898,6.7528,4.5455,0.1,0.00042671,4264.1,0.00042854,4320.2,-0.0001312,114.5,-0.00014645,-0.089351,0.34978
6899,6.5693,4.5455,0.1,0.00043202,4317.2,0.00043391,4375.3,-0.00013259,118.86,-0.00014842,-0.11733,0.33186
6900,6.3858,4.5455,0.1,0.00043736,4370.6,0.00043931,4430.5,-0.00013405,122.42,-0.00015036,-0.15593,0.31423
6901,6.2024,4.5455,0.1,0.00044275,4424.4,0.00044474,4485.5,-0.00013562,124.91,-0.00015227,-0.21003,0.2969
6902,6.0189,4.5455,0.1,0.00044817,4478.6,0.00045018,4540.2,-0.00013731,126,-0.00015412,-0.28727,0.27987
6903,5.8354,4.5455,0.1,0.00045364,4533.2,0.00045563,4594.3,-0.00013917,125.24,-0.00015589,-0.40021,0.26313
6904,5.6519,4.5455,0.1,0.00045914,4588.2,0.00046108,4647.7,-0.00014125,122.06,-0.00015757,-0.57075,0.24671
6905,5.4684,4.5455,0.1,0.0004647,4643.7,0.00046654,4700,-0.00014361,115.63,-0.00015911,-0.84066,0.2306
6906,5.285,4.5455,0.1,0.00047033,4700.1,0.000472,4750.9,-0.00014636,104.75,-0.00016048,-1.3004,0.2148
6907,5.1015,4.5455,0.1,0.00047613,4758,0.00047752,4800.1,-0.00014967,87.674,-0.00016163,-2.1896,0.19932
6908,4.918,4.5455,0.1,0.00048222,4818.9,0.00048317,4847.4,-0.00015372,62.061,-0.00016256,-4.3918,0.18415
6909,4.7345,4.5455,0.1,0.00048891,4885.8,0.00048915,4893,-0.00015828,28.478,-0.0001639,-13.758,0.16931
6910,4.551,4.5455,0.1,0.00049675,4964,0.00049582,4937.6,-0.00016009,9.352,-0.00016952,-61.503,0.1548
6911,4.3676,4.5455,0.1,0.0005067,5063.5,0.0005038,4982.5,-0.00015861,5.3539,-0.00018104,-163.13,0.14061
6912,4.1841,4.5455,0.1,0.00052044,5200.8,0.00051407,5029.4,-0.00015471,4.4073,-0.00019936,-331.05,0.12674
6913,4.0006,4.5455,0.1,0.00054064,5402.7,0.00052787,5077.2,-0.00014728,4.4694,-0.00022824,-603.86,0.11319
6914,3.8171,4.5455,0.1,0.00057148,5710.9,0.00054655,5119.1,-0.0001341,4.9343,-0.00027361,-1043.3,0.099944
6915,3.6336,4.5455,0.1,0.00061622,6157.9,0.00056826,5108.6,-0.00011133,2.3835,-0.0003419,-1730,0.086971
6916,3.4501,4.5455,0.1,0.00070775,7072.6,0.00061241,5178.3,-7.2319e-05,33.506,-0.00046099,-2886.8,0.074212
6917,23.817,4.7273,0.1,1.5689e-05,156.78,8.3787e-06,39.756,3.0696e-06,-0.13442,-1.4629e-05,-133.12,2.8291
6918,23.633,4.7273,0.1,1.7511e-05,174.98,1.1813e-05,77.357,1.4788e-06,-0.28994,-1.4855e-05,-123.02,2.7983
6919,23.45,4.7273,0.1,1.9825e-05,198.12,1.5273e-05,115.07,-5.685e-08,-0.11529,-1.5174e-05,-113.7,2.7675
6920,23.266,4.7273,0.1,2.2489e-05,224.73,1.8766e-05,152.75,-1.5778e-06,-0.10062,-1.5576e-05,-105.28,2.7366
6921,23.083,4.7273,0.1,2.5406e-05,253.88,2.2294e-05,190.53,-3.0735e-06,-0.071393,-1.6064e-05,-97.673,2.7058
6922,22.899,4.7273,0.1,2.8515e-05,284.95,2.5862e-05,228.45,-4.5507e-06,-0.057662,-1.6631e-05,-90.823,2.675
6923,22.716,4.7273,0.1,3.1771e-05,317.49,2.9472e-05,266.57,-6.012e-06,-0.046486,-1.7272e-05,-84.651,2.6443
6924,22.532,4.7273,0.1,3.5142e-05,351.18,3.3122e-05,304.89,-7.4606e-06,-0.038607,-1.798e-05,-79.08,2.6135
6925,22.349,4.7273,0.1,3.8608e-05,385.81,3.6811e-05,343.41,-8.8989e-06,-0.032486,-1.8748e-05,-74.036,2.5828
6926,22.165,4.7273,0.1,4.2149e-05,421.2,4.0536e-05,382.15,-1.0329e-05,-0.027723,-1.9569e-05,-69.451,2.5521
6927,21.982,4.7273,0.1,4.5755e-05,457.23,4.4294e-05,421.08,-1.1752e-05,-0.023922,-2.0436e-05,-65.27,2.5214
6928,21.798,4.7273,0.1,4.9416e-05,493.82,4.8083e-05,460.21,-1.3171e-05,-0.020845,-2.1345e-05,-61.443,2.4907
6929,21.615,4.7273,0.1,5.3125e-05,530.88,5.1901e-05,499.53,-1.4585e-05,-0.018315,-2.2292e-05,-57.93,2.4601
6930,21.431,4.7273,0.1,5.6876e-05,568.37,5.5748e-05,539.04,-1.5996e-05,-0.016214,-2.3273e-05,-54.695,2.4295
6931,21.248,4.7273,0.1,6.0666e-05,606.25,5.9621e-05,578.73,-1.7405e-05,-0.014457,-2.4285e-05,-51.71,2.3989
6932,21.064,4.7273,0.1,6.4492e-05,644.47,6.3519e-05,618.6,-1.8813e-05,-0.012962,-2.5326e-05,-48.948,2.3684
6933,20.881,4.7273,0.1,6.8351e-05,683.03,6.7443e-05,658.65,-2.022e-05,-0.011686,-2.6392e-05,-46.39,2.338
6934,20.697,4.7273,0.1,7.224e-05,721.9,7.139e-05,698.88,-2.1627e-05,-0.010588,-2.7483e-05,-44.016,2.3075
6935,20.514,4.7273,0.1,7.6159e-05,761.07,7.5362e-05,739.3,-2.3034e-05,-0.0096281,-2.8597e-05,-41.811,2.2772
6936,20.33,4.7273,0.1,8.0107e-05,800.51,7.9356e-05,779.89,-2.4442e-05,-0.0087892,-2.9732e-05,-39.758,2.2468
6937,20.147,4.7273,0.1,8.4081e-05,840.23,8.3373e-05,820.67,-2.5852e-05,-0.008057,-3.0888e-05,-37.847,2.2166
6938,19.963,4.7273,0.1,8.8082e-05,880.22,8.7413e-05,861.63,-2.7263e-05,-0.0074164,-3.2062e-05,-36.066,2.1863
6939,19.78,4.7273,0.1,9.2109e-05,920.46,9.1476e-05,902.77,-2.8677e-05,-0.0068315,-3.3254e-05,-34.403,2.1562
6940,19.596,4.7273,0.1,9.6161e-05,960.95,9.556e-05,944.1,-3.0093e-05,-0.0063076,-3.4464e-05,-32.85,2.1261
6941,19.413,4.7273,0.1,0.00010024,1001.7,9.9667e-05,985.61,-3.1511e-05,-0.0058547,-3.569e-05,-31.399,2.096
6942,19.229,4.7273,0.1,0.00010434,1042.7,0.00010379,1027.3,-3.2933e-05,-0.0054323,-3.6931e-05,-30.04,2.0661
6943,19.046,4.7273,0.1,0.00010846,1083.9,0.00010794,1069.2,-3.4359e-05,-0.0050516,-3.8187e-05,-28.767,2.0362
6944,18.863,4.7273,0.1,0.00011261,1125.3,0.00011212,1111.3,-3.5788e-05,-0.0047084,-3.9457e-05,-27.573,2.0063
6945,18.679,4.7273,0.1,0.00011678,1167,0.00011631,1153.6,-3.7221e-05,-0.004382,-4.0741e-05,-26.451,1.9766
6946,18.496,4.7273,0.1,0.00012098,1208.9,0.00012052,1196,-3.8658e-05,-0.0040901,-4.2037e-05,-25.396,1.9469
6947,18.312,4.7273,0.1,0.00012519,1251.1,0.00012476,1238.7,-4.0099e-05,-0.0038267,-4.3347e-05,-24.402,1.9173
6948,18.129,4.7273,0.1,0.00012943,1293.4,0.00012902,1281.5,-4.1545e-05,-0.0035942,-4.4668e-05,-23.464,1.8878
6949,17.945,4.7273,0.1,0.00013369,1336,0.00013329,1324.6,-4.2996e-05,-0.0033587,-4.6e-05,-22.577,1.8584
6950,17.762,4.7273,0.1,0.00013798,1378.8,0.00013759,1367.8,-4.4451e-05,-0.0031434,-4.7344e-05,-21.736,1.829
6951,17.578,4.7273,0.1,0.00014228,1421.8,0.00014191,1411.2,-4.5912e-05,-0.0029619,-4.8698e-05,-20.936,1.7998
6952,17.395,4.7273,0.1,0.00014661,1465.1,0.00014625,1454.9,-4.7378e-05,-0.002776,-5.0062e-05,-20.174,1.7706
6953,17.211,4.7273,0.1,0.00015095,1508.5,0.00015061,1498.7,-4.8849e-05,-0.0026067,-5.1436e-05,-19.445,1.7416
6954,17.028,4.7273,0.1,0.00015532,1552.2,0.000155,1542.7,-5.0325e-05,-0.0024492,-5.282e-05,-18.745,1.7126
6955,16.844,4.7273,0.1,0.00015971,1596,0.0001594,1586.9,-5.1808e-05,-0.0022848,-5.4213e-05,-18.072,1.6838
6956,16.661,4.7273,0.1,0.00016412,1640.1,0.00016382,1631.3,-5.3296e-05,-0.0021381,-5.5614e-05,-17.42,1.655
6957,16.477,4.7273,0.1,0.00016855,1684.4,0.00016826,1675.9,-5.479e-05,-0.002006,-5.7024e-05,-16.787,1.6264
6958,16.294,4.7273,0.1,0.00017301,1728.9,0.00017273,1720.7,-5.6289e-05,-0.0018929,-5.8441e-05,-16.17,1.5979
6959,16.11,4.7273,0.1,0.00017748,1773.6,0.00017721,1765.7,-5.7795e-05,-0.0017594,-5.9867e-05,-15.564,1.5695
6960,15.927,4.7273,0.1,0.00018197,1818.5,0.00018171,1810.9,-5.9308e-05,-0.0016286,-6.1299e-05,-14.967,1.5412
6961,15.743,4.7273,0.1,0.00018648,1863.5,0.00018623,1856.3,-6.0826e-05,-0.0015302,-6.2739e-05,-14.376,1.513
6962,15.56,4.7273,0.1,0.00019101,1908.8,0.00019078,1901.9,-6.2351e-05,-0.0014086,-6.4186e-05,-13.786,1.485
6963,15.376,4.7273,0.1,0.00019557,1954.3,0.00019534,1947.7,-6.3882e-05,-0.0012945,-6.5638e-05,-13.196,1.4571
6964,15.193,4.7273,0.1,0.00020014,2000,0.00019992,1993.7,-6.542e-05,-0.0011821,-6.7097e-05,-12.601,1.4293
6965,15.009,4.7273,0.1,0.00020473,2045.9,0.00020452,2039.8,-6.6965e-05,-0.0010452,-6.8562e-05,-11.998,1.4017
6966,14.826,4.7273,0.1,0.00020934,2091.9,0.00020914,2086.2,-6.8517e-05,-0.00091602,-7.0032e-05,-11.385,1.3742
6967,14.642,4.7273,0.1,0.00021397,2138.2,0.00021378,2132.8,-7.0076e-05,-0.00078775,-7.1507e-05,-10.756,1.3468
6968,14.459,4.7273,0.1,0.00021861,2184.6,0.00021844,2179.6,-7.1642e-05,-0.00066526,-7.2987e-05,-10.11,1.3196
6969,14.276,4.7273,0.1,0.00022328,2231.3,0.00022312,2226.5,-7.3215e-05,-0.00049311,-7.4471e-05,-9.4424,1.2925
6970,14.092,4.7273,0.1,0.00022797,2278.1,0.00022782,2273.7,-7.4795e-05,-0.00029743,-7.5959e-05,-8.7491,1.2656
6971,13.909,4.7273,0.1,0.00023267,2325.1,0.00023253,2321.1,-7.6383e-05,-0.00010701,-7.7451e-05,-8.0264,1.2388
6972,13.725,4.7273,0.1,0.00023739,2372.3,0.00023727,2368.6,-7.7978e-05,0.00016292,-7.8946e-05,-7.2701,1.2122
6973,13.542,4.7273,0.1,0.00024213,2419.6,0.00024202,2416.4,-7.9581e-05,0.00049939,-8.0443e-05,-6.4761,1.1857
6974,13.358,4.7273,0.1,0.00024688,2467.1,0.00024679,2464.3,-8.1192e-05,0.00094219,-8.1943e-05,-5.6398,1.1594
6975,13.175,4.7273,0.1,0.00025166,2514.8,0.00025158,2512.5,-8.2811e-05,0.0016131,-8.3445e-05,-4.7564,1.1333
6976,12.991,4.7273,0.1,0.00025645,2562.7,0.00025638,2560.8,-8.4439e-05,0.0026033,-8.4948e-05,-3.8213,1.1073
6977,12.808,4.7273,0.1,0.00026126,2610.8,0.00026121,2609.4,-8.6074e-05,0.0043879,-8.6451e-05,-2.8296,1.0815
6978,12.624,4.7273,0.1,0.00026608,2659,0.00026605,2658.1,-8.7718e-05,0.0085385,-8.7956e-05,-1.777,1.0559
6979,12.441,4.7273,0.1,0.00027092,2707.3,0.00027091,2707,-8.9369e-05,0.027014,-8.9461e-05,-0.66998,1.0305
6980,12.257,4.7273,0.1,0.00027578,2755.9,0.00027579,2756.2,-9.0955e-05,0.59354,-9.1039e-05,-0.035883,1.0052
6981,12.074,4.7273,0.1,0.00028065,2804.6,0.00028068,2805.5,-9.2459e-05,1.8532,-9.2707e-05,-0.01343,0.98018
6982,11.89,4.7273,0.1,0.00028554,2853.4,0.00028559,2855,-9.3958e-05,3.2193,-9.4387e-05,-0.0089646,0.9553
6983,11.707,4.7273,0.1,0.00029044,2902.4,0.00029052,2904.7,-9.5453e-05,4.6835,-9.6077e-05,-0.0071195,0.93061
6984,11.523,4.7273,0.1,0.00029536,2951.5,0.00029546,2954.6,-9.6945e-05,6.2516,-9.7777e-05,-0.0061571,0.90612
6985,11.34,4.7273,0.1,0.00030029,3000.8,0.00030042,3004.8,-9.8431e-05,7.9308,-9.9488e-05,-0.0055589,0.88183
6986,11.156,4.7273,0.1,0.00030523,3050.2,0.0003054,3055.1,-9.9913e-05,9.7288,-0.00010121,-0.0052387,0.85774
6987,10.973,4.7273,0.1,0.00031019,3099.8,0.00031039,3105.6,-0.00010139,11.654,-0.00010294,-0.0050647,0.83385
6988,10.789,4.7273,0.1,0.00031516,3149.4,0.00031539,3156.3,-0.00010286,13.714,-0.00010468,-0.0049529,0.81018
6989,10.606,4.7273,0.1,0.00032014,3199.2,0.00032041,3207.2,-0.00010432,15.917,-0.00010644,-0.0049493,0.78671
6990,10.422,4.7273,0.1,0.00032514,3249.2,0.00032545,3258.3,-0.00010577,18.272,-0.0001082,-0.0050417,0.76346
6991,10.239,4.7273,0.1,0.00033015,3299.2,0.0003305,3309.6,-0.00010721,20.785,-0.00010998,-0.0052267,0.74043
6992,10.055,4.7273,0.1,0.00033517,3349.4,0.00033556,3361,-0.00010864,23.465,-0.00011177,-0.0054589,0.71763
6993,9.872,4.7273,0.1,0.0003402,3399.6,0.00034064,3412.7,-0.00011006,26.317,-0.00011357,-0.0057764,0.69504
6994,9.6885,4.7273,0.1,0.00034524,3450,0.00034573,3464.6,-0.00011147,29.348,-0.00011538,-0.0062071,0.67269
6995,9.505,4.7273,0.1,0.00035029,3500.5,0.00035084,3516.7,-0.00011287,32.559,-0.00011721,-0.0067491,0.65057
6996,9.3215,4.7273,0.1,0.00035535,3551.1,0.00035595,3568.9,-0.00011426,35.952,-0.00011904,-0.0074357,0.62869
6997,9.1381,4.7273,0.1,0.00036043,3601.8,0.00036108,3621.4,-0.00011563,39.526,-0.00012089,-0.0082952,0.60704
6998,8.9546,4.7273,0.1,0.00036551,3652.6,0.00036623,3674,-0.000117,43.276,-0.00012276,-0.0093691,0.58564
6999,8.7711,4.7273,0.1,0.0003706,3703.5,0.00037138,3726.8,-0.00011835,47.19,-0.00012463,-0.010711,0.56449
7000,8.5876,4.7273,0.1,0.0003757,3754.4,0.00037655,3779.8,-0.00011969,51.255,-0.00012651,-0.012391,0.54358
7001,8.4041,4.7273,0.1,0.00038081,3805.5,0.00038173,3832.9,-0.00012103,55.446,-0.00012841,-0.014503,0.52293
7002,8.2206,4.7273,0.1,0.00038593,3856.7,0.00038692,3886.2,-0.00012235,59.733,-0.00013031,-0.017168,0.50254
7003,8.0372,4.7273,0.1,0.00039106,3907.9,0.00039211,3939.6,-0.00012368,64.075,-0.00013221,-0.020552,0.4824
7004,7.8537,4.7273,0.1,0.0003962,3959.2,0.00039732,3993,-0.00012501,68.417,-0.00013412,-0.02488,0.46253
7005,7.6702,4.7273,0.1,0.00040134,4010.6,0.00040253,4046.5,-0.00012635,72.693,-0.00013603,-0.030457,0.44293
7006,7.4867,4.7273,0.1,0.00040648,4062,0.00040774,4099.9,-0.0001277,76.817,-0.00013793,-0.037713,0.4236
7007,7.3032,4.7273,0.1,0.00041163,4113.4,0.00041294,4153.2,-0.00012907,80.688,-0.00013982,-0.047255,0.40454
7008,7.1198,4.7273,0.1,0.00041677,4164.8,0.00041813,4206.2,-0.00013048,84.181,-0.00014169,-0.059953,0.38576
7009,6.9363,4.7273,0.1,0.00042189,4216,0.0004233,4258.8,-0.00013192,87.148,-0.00014352,-0.077089,0.36726
7010,6.7528,4.7273,0.1,0.00042699,4266.9,0.00042843,4310.9,-0.00013341,89.411,-0.00014532,-0.10059,0.34905
7011,6.5693,4.7273,0.1,0.00043204,4317.4,0.00043351,4362,-0.00013496,90.765,-0.00014706,-0.1334,0.33112
7012,6.3858,4.7273,0.1,0.00043702,4367.2,0.00043849,4411.9,-0.00013658,90.967,-0.00014871,-0.18025,0.31349
7013,6.2024,4.7273,0.1,0.0004419,4416,0.00044335,4460,-0.00013829,89.732,-0.00015027,-0.24888,0.29615
7014,6.0189,4.7273,0.1,0.00044664,4463.3,0.00044804,4505.8,-0.00014011,86.723,-0.00015169,-0.3528,0.27911
7015,5.8354,4.7273,0.1,0.00045118,4508.6,0.0004525,4548.6,-0.00014203,81.529,-0.00015295,-0.51717,0.26238
7016,5.6519,4.7273,0.1,0.00045545,4551.3,0.00045664,4587.3,-0.00014409,73.64,-0.000154,-0.79371,0.24594
7017,5.4684,4.7273,0.1,0.00045937,4590.5,0.00046038,4620.8,-0.0001463,62.411,-0.00015478,-1.3059,0.22982
7018,5.285,4.7273,0.1,0.00046286,4625.4,0.0004636,4647.5,-0.00014868,47.11,-0.00015527,-2.4275,0.214
7019,5.1015,4.7273,0.1,0.00046582,4655,0.00046619,4665.9,-0.00015111,27.721,-0.00015558,-5.8292,0.1985
7020,4.918,4.7273,0.1,0.0004682,4678.8,0.00046803,4673.8,-0.00015255,11.002,-0.0001568,-20.938,0.18331
7021,4.7345,4.7273,0.1,0.00047001,4696.9,0.00046904,4669,-0.00015163,5.4874,-0.00016043,-60.626,0.16843
7022,4.551,4.7273,0.1,0.0004714,4710.7,0.00046921,4649,-0.00014901,3.9357,-0.00016614,-124.75,0.15386
7023,4.3676,4.7273,0.1,0.00047278,4724.5,0.00046865,4611.2,-0.00014461,3.3794,-0.0001746,-221.97,0.13959
7024,4.1841,4.7273,0.1,0.000475,4746.8,0.00046766,4552.3,-0.00013778,3.2793,-0.00018747,-370.1,0.12563
7025,4.0006,4.7273,0.1,0.00047959,4792.6,0.00046668,4467.9,-0.0001275,3.4477,-0.00020734,-596.4,0.11195
7026,3.8171,4.7273,0.1,0.00048871,4883.7,0.00046601,4349.4,-0.00011228,4.4094,-0.00023745,-936.1,0.098533
7027,3.6336,4.7273,0.1,0.00050639,5060.4,0.00046643,4187.6,-9.0766e-05,1.0494,-0.000282,-1435.8,0.08534
7028,3.4501,4.7273,0.1,0.00055951,5591.3,0.00048636,4123.4,-6.1095e-05,10.068,-0.00036094,-2242.8,0.072309
7029,23.817,4.9091,0.1,1.4612e-05,146.02,8.0081e-06,39.7,2.71e-06,-0.10857,-1.3525e-05,-122.09,2.829
7030,23.633,4.9091,0.1,1.6475e-05,164.64,1.1409e-05,76.913,1.1357e-06,-0.27466,-1.3752e-05,-112.14,2.7982
7031,23.45,4.9091,0.1,1.8855e-05,188.42,1.4849e-05,114.31,-3.7871e-07,-0.10389,-1.4095e-05,-103.16,2.7674
7032,23.266,4.9091,0.1,2.1594e-05,215.79,1.8336e-05,151.78,-1.8765e-06,-0.090395,-1.4539e-05,-95.23,2.7365
7033,23.083,4.9091,0.1,2.459e-05,245.73,2.1872e-05,189.44,-3.3491e-06,-0.062075,-1.5081e-05,-88.208,2.7057
7034,22.899,4.9091,0.1,2.7778e-05,277.58,2.5458e-05,227.33,-4.8041e-06,-0.048967,-1.5711e-05,-82.002,2.6749
7035,22.716,4.9091,0.1,3.1109e-05,310.88,2.9094e-05,265.48,-6.2447e-06,-0.038329,-1.642e-05,-76.493,2.6441
7036,22.532,4.9091,0.1,3.4552e-05,345.28,3.2773e-05,303.87,-7.6742e-06,-0.030933,-1.7196e-05,-71.576,2.6134
7037,22.349,4.9091,0.1,3.8083e-05,380.57,3.6493e-05,342.51,-9.0952e-06,-0.025263,-1.803e-05,-67.161,2.5826
7038,22.165,4.9091,0.1,4.1685e-05,416.56,4.0249e-05,381.36,-1.051e-05,-0.020921,-1.8914e-05,-63.172,2.5519
7039,21.982,4.9091,0.1,4.5346e-05,453.14,4.4038e-05,420.42,-1.1919e-05,-0.017516,-1.9842e-05,-59.547,2.5212
7040,21.798,4.9091,0.1,4.9056e-05,490.22,4.7857e-05,459.68,-1.3324e-05,-0.014808,-2.0807e-05,-56.235,2.4906
7041,21.615,4.9091,0.1,5.281e-05,527.74,5.1704e-05,499.12,-1.4727e-05,-0.012622,-2.1805e-05,-53.197,2.4599
7042,21.431,4.9091,0.1,5.6603e-05,565.64,5.5576e-05,538.74,-1.6128e-05,-0.010836,-2.2834e-05,-50.399,2.4293
7043,21.248,4.9091,0.1,6.043e-05,603.88,5.9474e-05,578.55,-1.7527e-05,-0.0093745,-2.389e-05,-47.815,2.3988
7044,21.064,4.9091,0.1,6.4289e-05,642.44,6.3395e-05,618.52,-1.8926e-05,-0.0081516,-2.497e-05,-45.421,2.3683
7045,20.881,4.9091,0.1,6.8177e-05,681.3,6.734e-05,658.67,-2.0325e-05,-0.0071258,-2.6074e-05,-43.199,2.3378
7046,20.697,4.9091,0.1,7.2094e-05,720.45,7.1306e-05,699,-2.1725e-05,-0.0062602,-2.7199e-05,-41.132,2.3074
7047,20.514,4.9091,0.1,7.6038e-05,759.86,7.5295e-05,739.49,-2.3126e-05,-0.0055135,-2.8343e-05,-39.207,2.277
7048,20.33,4.9091,0.1,8.0008e-05,799.53,7.9306e-05,780.16,-2.4528e-05,-0.0048751,-2.9507e-05,-37.412,2.2466
7049,20.147,4.9091,0.1,8.4003e-05,839.45,8.3338e-05,821.01,-2.5932e-05,-0.004326,-3.0688e-05,-35.736,2.2163
7050,19.963,4.9091,0.1,8.8022e-05,879.62,8.7391e-05,862.03,-2.7339e-05,-0.0038565,-3.1886e-05,-34.169,2.1861
7051,19.78,4.9091,0.1,9.2066e-05,920.02,9.1466e-05,903.23,-2.8748e-05,-0.0034317,-3.31e-05,-32.703,2.1559
7052,19.596,4.9091,0.1,9.6133e-05,960.66,9.5561e-05,944.61,-3.0159e-05,-0.0030579,-3.4329e-05,-31.33,2.1258
7053,19.413,4.9091,0.1,0.00010022,1001.5,9.9678e-05,986.18,-3.1574e-05,-0.0027399,-3.5572e-05,-30.043,2.0958
7054,19.229,4.9091,0.1,0.00010434,1042.6,0.00010382,1027.9,-3.2993e-05,-0.0024468,-3.683e-05,-28.834,2.0658
7055,19.046,4.9091,0.1,0.00010847,1084,0.00010797,1069.8,-3.4415e-05,-0.0021855,-3.8101e-05,-27.699,2.0359
7056,18.863,4.9091,0.1,0.00011263,1125.5,0.00011215,1112,-3.5841e-05,-0.0019548,-3.9385e-05,-26.632,2.0061
7057,18.679,4.9091,0.1,0.00011681,1167.3,0.00011635,1154.3,-3.7271e-05,-0.0017347,-4.0681e-05,-25.626,1.9763
7058,18.496,4.9091,0.1,0.00012101,1209.3,0.00012057,1196.8,-3.8705e-05,-0.0015404,-4.199e-05,-24.677,1.9466
7059,18.312,4.9091,0.1,0.00012524,1251.5,0.00012481,1239.4,-4.0144e-05,-0.0013698,-4.3309e-05,-23.781,1.917
7060,18.129,4.9091,0.1,0.00012948,1293.9,0.00012908,1282.3,-4.1588e-05,-0.0012237,-4.464e-05,-22.934,1.8875
7061,17.945,4.9091,0.1,0.00013375,1336.6,0.00013336,1325.4,-4.3037e-05,-0.0010732,-4.5982e-05,-22.13,1.8581
7062,17.762,4.9091,0.1,0.00013804,1379.4,0.00013766,1368.6,-4.449e-05,-0.00093369,-4.7333e-05,-21.365,1.8287
7063,17.578,4.9091,0.1,0.00014235,1422.5,0.00014198,1412.1,-4.5949e-05,-0.00082734,-4.8695e-05,-20.637,1.7995
7064,17.395,4.9091,0.1,0.00014668,1465.8,0.00014633,1455.7,-4.7413e-05,-0.00071118,-5.0067e-05,-19.942,1.7703
7065,17.211,4.9091,0.1,0.00015103,1509.3,0.00015069,1499.5,-4.8882e-05,-0.00060732,-5.1447e-05,-19.276,1.7412
7066,17.028,4.9091,0.1,0.0001554,1553,0.00015508,1543.6,-5.0357e-05,-0.00051466,-5.2837e-05,-18.635,1.7123
7067,16.844,4.9091,0.1,0.0001598,1596.9,0.00015948,1587.8,-5.1838e-05,-0.00041102,-5.4236e-05,-18.017,1.6834
7068,16.661,4.9091,0.1,0.00016421,1641,0.00016391,1632.2,-5.3324e-05,-0.00032317,-5.5643e-05,-17.418,1.6547
7069,16.477,4.9091,0.1,0.00016864,1685.3,0.00016835,1676.8,-5.4817e-05,-0.00024731,-5.7058e-05,-16.836,1.626
7070,16.294,4.9091,0.1,0.0001731,1729.8,0.00017282,1721.6,-5.6315e-05,-0.00018906,-5.848e-05,-16.268,1.5975
7071,16.11,4.9091,0.1,0.00017757,1774.5,0.0001773,1766.6,-5.782e-05,-0.00010901,-5.9911e-05,-15.71,1.5691
7072,15.927,4.9091,0.1,0.00018207,1819.4,0.00018181,1811.8,-5.9331e-05,-3.0117e-05,-6.1348e-05,-15.159,1.5408
7073,15.743,4.9091,0.1,0.00018659,1864.6,0.00018633,1857.2,-6.0848e-05,1.4781e-05,-6.2793e-05,-14.614,1.5126
7074,15.56,4.9091,0.1,0.00019112,1909.9,0.00019088,1902.8,-6.2371e-05,8.5296e-05,-6.4244e-05,-14.07,1.4846
7075,15.376,4.9091,0.1,0.00019567,1955.4,0.00019544,1948.6,-6.3901e-05,0.00014856,-6.5702e-05,-13.526,1.4567
7076,15.193,4.9091,0.1,0.00020025,2001.1,0.00020003,1994.6,-6.5438e-05,0.00020775,-6.7166e-05,-12.978,1.4289
7077,15.009,4.9091,0.1,0.00020484,2047,0.00020463,2040.8,-6.6982e-05,0.00029123,-6.8635e-05,-12.423,1.4012
7078,14.826,4.9091,0.1,0.00020946,2093.1,0.00020925,2087.2,-6.8532e-05,0.00036497,-7.011e-05,-11.859,1.3737
7079,14.642,4.9091,0.1,0.00021409,2139.4,0.00021389,2133.7,-7.0089e-05,0.00043341,-7.1591e-05,-11.282,1.3463
7080,14.459,4.9091,0.1,0.00021874,2185.9,0.00021856,2180.5,-7.1654e-05,0.00049203,-7.3077e-05,-10.69,1.3191
7081,14.276,4.9091,0.1,0.00022341,2232.6,0.00022324,2227.5,-7.3225e-05,0.00059407,-7.4567e-05,-10.078,1.292
7082,14.092,4.9091,0.1,0.0002281,2279.4,0.00022794,2274.7,-7.4804e-05,0.00070906,-7.6061e-05,-9.4448,1.2651
7083,13.909,4.9091,0.1,0.00023281,2326.4,0.00023265,2322,-7.639e-05,0.00080711,-7.756e-05,-8.7856,1.2383
7084,13.725,4.9091,0.1,0.00023753,2373.7,0.00023739,2369.6,-7.7984e-05,0.00096322,-7.9062e-05,-8.0969,1.2117
7085,13.542,4.9091,0.1,0.00024228,2421.1,0.00024215,2417.4,-7.9585e-05,0.0011541,-8.0567e-05,-7.3751,1.1852
7086,13.358,4.9091,0.1,0.00024704,2468.7,0.00024692,2465.4,-8.1194e-05,0.0013971,-8.2075e-05,-6.6163,1.1589
7087,13.175,4.9091,0.1,0.00025182,2516.4,0.00025172,2513.5,-8.2811e-05,0.0017686,-8.3586e-05,-5.8163,1.1327
7088,12.991,4.9091,0.1,0.00025661,2564.4,0.00025653,2561.9,-8.4436e-05,0.0022525,-8.5098e-05,-4.9708,1.1068
7089,12.808,4.9091,0.1,0.00026143,2612.5,0.00026136,2610.5,-8.607e-05,0.0030168,-8.6612e-05,-4.0754,1.081
7090,12.624,4.9091,0.1,0.00026626,2660.8,0.00026621,2659.2,-8.7711e-05,0.0043927,-8.8128e-05,-3.1255,1.0554
7091,12.441,4.9091,0.1,0.00027111,2709.2,0.00027108,2708.2,-8.9361e-05,0.0072361,-8.9644e-05,-2.117,1.0299
7092,12.257,4.9091,0.1,0.00027598,2757.9,0.00027596,2757.3,-9.1019e-05,0.016364,-9.1161e-05,-1.0493,1.0046
7093,12.074,4.9091,0.1,0.00028086,2806.7,0.00028086,2806.7,-9.2661e-05,0.20796,-9.2702e-05,-0.093294,0.97957
7094,11.89,4.9091,0.1,0.00028576,2855.6,0.00028578,2856.3,-9.4186e-05,1.3554,-9.4368e-05,-0.016298,0.95468
7095,11.707,4.9091,0.1,0.00029067,2904.7,0.00029072,2906,-9.5699e-05,2.6558,-9.6054e-05,-0.009535,0.92999
7096,11.523,4.9091,0.1,0.0002956,2954,0.00029567,2956,-9.721e-05,4.0494,-9.775e-05,-0.007224,0.90549
7097,11.34,4.9091,0.1,0.00030055,3003.4,0.00030064,3006.2,-9.8717e-05,5.5396,-9.9455e-05,-0.0061005,0.88118
7098,11.156,4.9091,0.1,0.00030551,3053,0.00030563,3056.5,-0.00010022,7.1318,-0.00010117,-0.0055505,0.85708
7099,10.973,4.9091,0.1,0.00031048,3102.7,0.00031063,3107.1,-0.00010172,8.8322,-0.0001029,-0.0052825,0.83319
7100,10.789,4.9091,0.1,0.00031547,3152.5,0.00031565,3157.9,-0.00010322,10.647,-0.00010463,-0.0051475,0.80951
7101,10.606,4.9091,0.1,0.00032048,3202.5,0.00032069,3208.8,-0.0001047,12.583,-0.00010638,-0.0051662,0.78603
7102,10.422,4.9091,0.1,0.00032549,3252.7,0.00032574,3260,-0.00010619,14.644,-0.00010814,-0.0053098,0.76277
7103,10.239,4.9091,0.1,0.00033052,3303,0.00033081,3311.3,-0.00010766,16.837,-0.00010991,-0.0055672,0.73974
7104,10.055,4.9091,0.1,0.00033557,3353.4,0.00033589,3362.9,-0.00010913,19.166,-0.00011169,-0.0058909,0.71692
7105,9.872,4.9091,0.1,0.00034062,3403.9,0.00034099,3414.7,-0.0001106,21.632,-0.00011348,-0.0063136,0.69433
7106,9.6885,4.9091,0.1,0.00034569,3454.6,0.0003461,3466.6,-0.00011205,24.239,-0.00011528,-0.0068635,0.67197
7107,9.505,4.9091,0.1,0.00035077,3505.3,0.00035123,3518.7,-0.0001135,26.984,-0.00011709,-0.0075366,0.64984
7108,9.3215,4.9091,0.1,0.00035587,3556.2,0.00035637,3571,-0.00011494,29.863,-0.00011891,-0.0083674,0.62795
7109,9.1381,4.9091,0.1,0.00036097,3607.2,0.00036152,3623.5,-0.00011637,32.871,-0.00012075,-0.0093814,0.6063
7110,8.9546,4.9091,0.1,0.00036608,3658.3,0.00036668,3676.2,-0.0001178,35.994,-0.00012259,-0.010623,0.58489
7111,8.7711,4.9091,0.1,0.00037121,3709.5,0.00037186,3729,-0.00011922,39.217,-0.00012444,-0.012142,0.56372
7112,8.5876,4.9091,0.1,0.00037634,3760.8,0.00037704,3781.9,-0.00012063,42.514,-0.00012629,-0.014013,0.54281
7113,8.4041,4.9091,0.1,0.00038148,3812.1,0.00038224,3834.9,-0.00012205,45.854,-0.00012815,-0.016326,0.52215
7114,8.2206,4.9091,0.1,0.00038662,3863.5,0.00038743,3887.9,-0.00012347,49.195,-0.00013002,-0.019209,0.50175
7115,8.0372,4.9091,0.1,0.00039177,3915,0.00039263,3940.9,-0.00012489,52.483,-0.00013188,-0.022831,0.48161
7116,7.8537,4.9091,0.1,0.00039691,3966.4,0.00039783,3993.9,-0.00012632,55.653,-0.00013373,-0.027426,0.46174
7117,7.6702,4.9091,0.1,0.00040205,4017.7,0.00040301,4046.6,-0.00012776,58.621,-0.00013557,-0.033325,0.44213
7118,7.4867,4.9091,0.1,0.00040716,4068.8,0.00040817,4099.1,-0.00012923,61.286,-0.00013739,-0.040999,0.42279
7119,7.3032,4.9091,0.1,0.00041226,4119.7,0.0004133,4151.1,-0.00013072,63.529,-0.00013918,-0.05114,0.40373
7120,7.1198,4.9091,0.1,0.00041731,4170.2,0.00041838,4202.4,-0.00013225,65.206,-0.00014094,-0.064788,0.38495
7121,6.9363,4.9091,0.1,0.0004223,4220.1,0.00042339,4252.7,-0.00013382,66.148,-0.00014263,-0.083555,0.36644
7122,6.7528,4.9091,0.1,0.0004272,4269.1,0.00042829,4301.7,-0.00013543,66.162,-0.00014425,-0.11002,0.34823
7123,6.5693,4.9091,0.1,0.00043198,4316.8,0.00043305,4348.9,-0.0001371,65.024,-0.00014577,-0.14852,0.3303
7124,6.3858,4.9091,0.1,0.00043658,4362.8,0.00043761,4393.6,-0.00013883,62.484,-0.00014717,-0.20668,0.31266
7125,6.2024,4.9091,0.1,0.00044095,4406.4,0.00044191,4435.1,-0.00014062,58.259,-0.00014841,-0.29892,0.29532
7126,6.0189,4.9091,0.1,0.00044499,4446.8,0.00044585,4472.4,-0.00014247,52.042,-0.00014946,-0.45526,0.27827
7127,5.8354,4.9091,0.1,0.00044861,4483,0.00044932,4504.2,-0.00014436,43.511,-0.00015025,-0.74757,0.26153
7128,5.6519,4.9091,0.1,0.00045166,4513.4,0.00045217,4528.8,-0.00014627,32.405,-0.00015076,-1.3907,0.24508
7129,5.4684,4.9091,0.1,0.00045397,4536.6,0.00045424,4544.4,-0.00014805,19.049,-0.00015103,-3.308,0.22895
7130,5.285,4.9091,0.1,0.00045536,4550.4,0.00045529,4548.5,-0.00014905,7.6895,-0.00015161,-11.562,0.21311
7131,5.1015,4.9091,0.1,0.00045557,4552.6,0.00045507,4538,-0.00014839,3.8534,-0.00015327,-32.858,0.19758
7132,4.918,4.9091,0.1,0.00045436,4540.5,0.00045328,4509.4,-0.00014651,2.8341,-0.00015544,-64.301,0.18236
7133,4.7345,4.9091,0.1,0.00045147,4511.6,0.0004496,4458.5,-0.00014346,2.492,-0.00015799,-106.65,0.16744
7134,4.551,4.9091,0.1,0.0004467,4463.9,0.00044371,4380.7,-0.000139,2.4068,-0.00016117,-164.17,0.15282
7135,4.3676,4.9091,0.1,0.00044,4397,0.00043537,4270.9,-0.00013272,2.4576,-0.00016557,-244.38,0.13848
7136,4.1841,4.9091,0.1,0.00043171,4314.1,0.00042451,4124.5,-0.00012407,2.6752,-0.00017224,-359.21,0.12442
7137,4.0006,4.9091,0.1,0.00042286,4225.7,0.00041145,3938.8,-0.00011241,2.7447,-0.00018286,-526.63,0.11062
7138,3.8171,4.9091,0.1,0.00041562,4153.4,0.00039715,3715.9,-9.6904e-05,3.8088,-0.00019988,-769.9,0.097054
7139,3.6336,4.9091,0.1,0.00041477,4144.8,0.00038416,3469.2,-7.7491e-05,0.57263,-0.00022675,-1120.9,0.083671
7140,3.4501,4.9091,0.1,0.00044619,4458.8,0.00039137,3349.1,-5.2741e-05,12.191,-0.00028262,-1715,0.070419
7141,23.817,5.0909,0.1,1.3371e-05,133.62,7.5741e-06,39.564,2.2983e-06,-0.075567,-1.2251e-05,-109.39,2.8289
7142,23.633,5.0909,0.1,1.5293e-05,152.82,1.0934e-05,76.29,7.4695e-07,-0.25432,-1.2486e-05,-99.68,2.7981
7143,23.45,5.0909,0.1,1.7762e-05,177.5,1.4357e-05,113.34,-7.392e-07,-0.08857,-1.2868e-05,-91.22,2.7672
7144,23.266,5.0909,0.1,2.0603e-05,205.89,1.7847e-05,150.6,-2.2074e-06,-0.076546,-1.3376e-05,-83.991,2.7364
7145,23.083,5.0909,0.1,2.3704e-05,236.87,2.1403e-05,188.2,-3.6515e-06,-0.049533,-1.3996e-05,-77.773,2.7056
7146,22.899,5.0909,0.1,2.6991e-05,269.72,2.502e-05,226.12,-5.08e-06,-0.037384,-1.4711e-05,-72.402,2.6748
7147,22.716,5.0909,0.1,3.0415e-05,303.94,2.8692e-05,264.36,-6.4966e-06,-0.027606,-1.5505e-05,-67.716,2.644
7148,22.532,5.0909,0.1,3.3942e-05,339.18,3.241e-05,302.89,-7.9046e-06,-0.020991,-1.6364e-05,-63.582,2.6132
7149,22.349,5.0909,0.1,3.7548e-05,375.22,3.6168e-05,341.66,-9.3063e-06,-0.01604,-1.7276e-05,-59.896,2.5825
7150,22.165,5.0909,0.1,4.1217e-05,411.88,3.9962e-05,380.66,-1.0703e-05,-0.012358,-1.8232e-05,-56.579,2.5518
7151,21.982,5.0909,0.1,4.4937e-05,449.06,4.3786e-05,419.87,-1.2097e-05,-0.009553,-1.9226e-05,-53.569,2.5211
7152,21.798,5.0909,0.1,4.8701e-05,486.68,4.7637e-05,459.27,-1.3489e-05,-0.0073917,-2.0252e-05,-50.819,2.4904
7153,21.615,5.0909,0.1,5.2503e-05,524.67,5.1514e-05,498.85,-1.4879e-05,-0.0057021,-2.1306e-05,-48.293,2.4598
7154,21.431,5.0909,0.1,5.6338e-05,562.99,5.5415e-05,538.6,-1.6269e-05,-0.0043672,-2.2385e-05,-45.961,2.4292
7155,21.248,5.0909,0.1,6.0203e-05,601.62,5.9338e-05,578.52,-1.7658e-05,-0.0033156,-2.3487e-05,-43.8,2.3986
7156,21.064,5.0909,0.1,6.4096e-05,640.52,6.3283e-05,618.6,-1.9048e-05,-0.0024652,-2.461e-05,-41.792,2.3681
7157,20.881,5.0909,0.1,6.8016e-05,679.69,6.7249e-05,658.85,-2.0439e-05,-0.00178,-2.5752e-05,-39.922,2.3376
7158,20.697,5.0909,0.1,7.1961e-05,719.11,7.1235e-05,699.26,-2.1831e-05,-0.0012239,-2.6912e-05,-38.175,2.3071
7159,20.514,5.0909,0.1,7.593e-05,758.77,7.5242e-05,739.84,-2.3225e-05,-0.00076228,-2.8088e-05,-36.543,2.2768
7160,20.33,5.0909,0.1,7.9922e-05,798.67,7.9269e-05,780.58,-2.4621e-05,-0.00038318,-2.9281e-05,-35.014,2.2464
7161,20.147,5.0909,0.1,8.3937e-05,838.79,8.3315e-05,821.5,-2.6019e-05,-7.316e-05,-3.0489e-05,-33.581,2.2161
7162,19.963,5.0909,0.1,8.7975e-05,879.14,8.7382e-05,862.58,-2.742e-05,0.00017722,-3.1711e-05,-32.236,2.1859
7163,19.78,5.0909,0.1,9.2035e-05,919.71,9.1469e-05,903.84,-2.8824e-05,0.00039791,-3.2947e-05,-30.973,2.1557
7164,19.596,5.0909,0.1,9.6117e-05,960.5,9.5575e-05,945.27,-3.0232e-05,0.0005862,-3.4196e-05,-29.785,2.1256
7165,19.413,5.0909,0.1,0.00010022,1001.5,9.9702e-05,986.87,-3.1643e-05,0.00072951,-3.5458e-05,-28.668,2.0955
7166,19.229,5.0909,0.1,0.00010435,1042.7,0.00010385,1028.7,-3.3057e-05,0.00086291,-3.6732e-05,-27.614,2.0655
7167,19.046,5.0909,0.1,0.00010849,1084.2,0.00010801,1070.6,-3.4476e-05,0.00097475,-3.8019e-05,-26.621,2.0356
7168,18.863,5.0909,0.1,0.00011266,1125.8,0.0001122,1112.8,-3.5898e-05,0.0010653,-3.9317e-05,-25.684,2.0058
7169,18.679,5.0909,0.1,0.00011685,1167.7,0.00011641,1155.1,-3.7325e-05,0.0011577,-4.0626e-05,-24.798,1.976
7170,18.496,5.0909,0.1,0.00012106,1209.8,0.00012063,1197.6,-3.8757e-05,0.0012309,-4.1946e-05,-23.959,1.9463
7171,18.312,5.0909,0.1,0.00012529,1252.1,0.00012488,1240.3,-4.0193e-05,0.0012875,-4.3276e-05,-23.164,1.9167
7172,18.129,5.0909,0.1,0.00012954,1294.5,0.00012915,1283.2,-4.1635e-05,0.0013286,-4.4617e-05,-22.41,1.8872
7173,17.945,5.0909,0.1,0.00013382,1337.2,0.00013344,1326.3,-4.3081e-05,0.0013795,-4.5968e-05,-21.692,1.8577
7174,17.762,5.0909,0.1,0.00013811,1380.2,0.00013774,1369.5,-4.4532e-05,0.0014274,-4.7328e-05,-21.007,1.8284
7175,17.578,5.0909,0.1,0.00014243,1423.3,0.00014207,1413,-4.5989e-05,0.0014456,-4.8698e-05,-20.353,1.7991
7176,17.395,5.0909,0.1,0.00014676,1466.6,0.00014642,1456.6,-4.7451e-05,0.0014777,-5.0077e-05,-19.727,1.7699
7177,17.211,5.0909,0.1,0.00015112,1510.1,0.00015078,1500.5,-4.8918e-05,0.0015028,-5.1464e-05,-19.125,1.7409
7178,17.028,5.0909,0.1,0.00015549,1553.9,0.00015517,1544.5,-5.0392e-05,0.0015203,-5.286e-05,-18.546,1.7119
7179,16.844,5.0909,0.1,0.00015989,1597.8,0.00015958,1588.7,-5.1871e-05,0.0015524,-5.4265e-05,-17.985,1.683
7180,16.661,5.0909,0.1,0.00016431,1642,0.00016401,1633.2,-5.3356e-05,0.0015721,-5.5677e-05,-17.442,1.6543
7181,16.477,5.0909,0.1,0.00016875,1686.3,0.00016845,1677.8,-5.4847e-05,0.0015803,-5.7098e-05,-16.912,1.6256
7182,16.294,5.0909,0.1,0.0001732,1730.9,0.00017292,1722.6,-5.6343e-05,0.0015749,-5.8526e-05,-16.394,1.5971
7183,16.11,5.0909,0.1,0.00017768,1775.6,0.00017741,1767.6,-5.7847e-05,0.0015933,-5.9961e-05,-15.886,1.5687
7184,15.927,5.0909,0.1,0.00018218,1820.6,0.00018191,1812.8,-5.9356e-05,0.0016106,-6.1404e-05,-15.384,1.5404
7185,15.743,5.0909,0.1,0.0001867,1865.7,0.00018644,1858.2,-6.0872e-05,0.0015958,-6.2853e-05,-14.886,1.5122
7186,15.56,5.0909,0.1,0.00019124,1911.1,0.00019099,1903.8,-6.2394e-05,0.0016049,-6.4309e-05,-14.391,1.4841
7187,15.376,5.0909,0.1,0.00019579,1956.6,0.00019555,1949.6,-6.3923e-05,0.0016083,-6.5772e-05,-13.895,1.4562
7188,15.193,5.0909,0.1,0.00020037,2002.3,0.00020014,1995.6,-6.5458e-05,0.0016055,-6.7241e-05,-13.396,1.4284
7189,15.009,5.0909,0.1,0.00020497,2048.3,0.00020475,2041.8,-6.7e-05,0.0016262,-6.8716e-05,-12.892,1.4007
7190,14.826,5.0909,0.1,0.00020959,2094.4,0.00020937,2088.2,-6.8549e-05,0.0016344,-7.0197e-05,-12.38,1.3732
7191,14.642,5.0909,0.1,0.00021422,2140.7,0.00021402,2134.8,-7.0105e-05,0.0016352,-7.1683e-05,-11.858,1.3458
7192,14.459,5.0909,0.1,0.00021888,2187.3,0.00021868,2181.6,-7.1667e-05,0.0016203,-7.3174e-05,-11.322,1.3186
7193,14.276,5.0909,0.1,0.00022355,2234,0.00022337,2228.6,-7.3237e-05,0.0016426,-7.4671e-05,-10.77,1.2915
7194,14.092,5.0909,0.1,0.00022824,2280.9,0.00022807,2275.7,-7.4814e-05,0.0016702,-7.6172e-05,-10.2,1.2645
7195,13.909,5.0909,0.1,0.00023296,2327.9,0.00023279,2323.1,-7.6399e-05,0.0016692,-7.7678e-05,-9.6074,1.2377
7196,13.725,5.0909,0.1,0.00023769,2375.2,0.00023753,2370.7,-7.7991e-05,0.0017088,-7.9187e-05,-8.9903,1.2111
7197,13.542,5.0909,0.1,0.00024244,2422.7,0.00024229,2418.5,-7.959e-05,0.0017589,-8.0701e-05,-8.3451,1.1846
7198,13.358,5.0909,0.1,0.0002472,2470.3,0.00024707,2466.5,-8.1197e-05,0.0018262,-8.2218e-05,-7.6684,1.1583
7199,13.175,5.0909,0.1,0.00025199,2518.2,0.00025187,2514.7,-8.2812e-05,0.001963,-8.3738e-05,-6.9567,1.1321
7200,12.991,5.0909,0.1,0.00025679,2566.2,0.00025669,2563.1,-8.4434e-05,0.0021136,-8.5261e-05,-6.2064,1.1062
7201,12.808,5.0909,0.1,0.00026162,2614.4,0.00026152,2611.7,-8.6065e-05,0.0023561,-8.6786e-05,-5.4135,1.0804
7202,12.624,5.0909,0.1,0.00026646,2662.7,0.00026638,2660.5,-8.7704e-05,0.0027883,-8.8313e-05,-4.574,1.0547
7203,12.441,5.0909,0.1,0.00027132,2711.3,0.00027125,2709.4,-8.9351e-05,0.0034966,-8.9842e-05,-3.684,1.0293
7204,12.257,5.0909,0.1,0.00027619,2760,0.00027615,2758.6,-9.1007e-05,0.0048308,-9.1372e-05,-2.7392,1.004
7205,12.074,5.0909,0.1,0.00028108,2808.9,0.00028106,2808,-9.2671e-05,0.0080151,-9.2903e-05,-1.7364,0.9789
7206,11.89,5.0909,0.1,0.00028599,2858,0.00028598,2857.6,-9.4343e-05,0.022227,-9.4436e-05,-0.67984,0.95401
7207,11.707,5.0909,0.1,0.00029092,2907.2,0.00029093,2907.5,-9.596e-05,0.51537,-9.6033e-05,-0.032661,0.9293
7208,11.523,5.0909,0.1,0.00029587,2956.6,0.00029589,2957.5,-9.7492e-05,1.7088,-9.7721e-05,-0.011256,0.90479
7209,11.34,5.0909,0.1,0.00030083,3006.2,0.00030088,3007.7,-9.9022e-05,2.9995,-9.9422e-05,-0.0074528,0.88048
7210,11.156,5.0909,0.1,0.0003058,3055.9,0.00030588,3058.1,-0.00010055,4.377,-0.00010113,-0.0060805,0.85637
7211,10.973,5.0909,0.1,0.0003108,3105.8,0.00031089,3108.7,-0.00010207,5.8447,-0.00010285,-0.0055015,0.83246
7212,10.789,5.0909,0.1,0.0003158,3155.9,0.00031593,3159.6,-0.0001036,7.4069,-0.00010458,-0.0052561,0.80877
7213,10.606,5.0909,0.1,0.00032083,3206.1,0.00032098,3210.6,-0.00010512,9.0675,-0.00010632,-0.0052581,0.78528
7214,10.422,5.0909,0.1,0.00032587,3256.4,0.00032605,3261.8,-0.00010663,10.83,-0.00010807,-0.0054372,0.76201
7215,10.239,5.0909,0.1,0.00033092,3306.9,0.00033114,3313.3,-0.00010814,12.698,-0.00010983,-0.0057635,0.73897
7216,10.055,5.0909,0.1,0.00033599,3357.6,0.00033624,3364.9,-0.00010965,14.672,-0.0001116,-0.0061768,0.71614
7217,9.872,5.0909,0.1,0.00034107,3408.4,0.00034135,3416.7,-0.00011115,16.753,-0.00011338,-0.0067046,0.69354
7218,9.6885,5.0909,0.1,0.00034617,3459.3,0.00034649,3468.7,-0.00011265,18.939,-0.00011517,-0.0073716,0.67117
7219,9.505,5.0909,0.1,0.00035128,3510.4,0.00035164,3520.9,-0.00011415,21.227,-0.00011697,-0.0081719,0.64903
7220,9.3215,5.0909,0.1,0.0003564,3561.6,0.0003568,3573.3,-0.00011564,23.608,-0.00011878,-0.0091357,0.62713
7221,9.1381,5.0909,0.1,0.00036153,3612.9,0.00036197,3625.8,-0.00011713,26.072,-0.0001206,-0.010288,0.60547
7222,8.9546,5.0909,0.1,0.00036668,3664.3,0.00036716,3678.5,-0.00011861,28.602,-0.00012242,-0.01167,0.58405
7223,8.7711,5.0909,0.1,0.00037183,3715.7,0.00037235,3731.2,-0.0001201,31.177,-0.00012425,-0.01333,0.56288
7224,8.5876,5.0909,0.1,0.00037699,3767.3,0.00037755,3784.1,-0.00012158,33.767,-0.00012608,-0.015336,0.54196
7225,8.4041,5.0909,0.1,0.00038215,3818.9,0.00038276,3836.9,-0.00012307,36.336,-0.00012791,-0.017779,0.5213
7226,8.2206,5.0909,0.1,0.00038732,3870.5,0.00038796,3889.7,-0.00012456,38.834,-0.00012973,-0.020779,0.50089
7227,8.0372,5.0909,0.1,0.00039247,3922,0.00039316,3942.4,-0.00012607,41.201,-0.00013155,-0.024506,0.48074
7228,7.8537,5.0909,0.1,0.00039762,3973.4,0.00039834,3994.9,-0.00012758,43.363,-0.00013336,-0.029195,0.46086
7229,7.6702,5.0909,0.1,0.00040274,4024.6,0.00040349,4047,-0.00012912,45.23,-0.00013514,-0.035187,0.44125
7230,7.4867,5.0909,0.1,0.00040782,4075.4,0.0004086,4098.5,-0.00013067,46.692,-0.00013689,-0.04299,0.4219
7231,7.3032,5.0909,0.1,0.00041285,4125.7,0.00041364,4149.3,-0.00013225,47.62,-0.0001386,-0.05338,0.40283
7232,7.1198,5.0909,0.1,0.00041781,4175.2,0.0004186,4198.9,-0.00013387,47.861,-0.00014025,-0.067595,0.38405
7233,6.9363,5.0909,0.1,0.00042266,4223.6,0.00042344,4247,-0.00013552,47.24,-0.00014182,-0.087703,0.36554
7234,6.7528,5.0909,0.1,0.00042735,4270.6,0.00042811,4293.1,-0.00013721,45.555,-0.00014329,-0.11735,0.34732
7235,6.5693,5.0909,0.1,0.00043184,4315.5,0.00043255,4336.5,-0.00013894,42.582,-0.00014463,-0.16346,0.32938
7236,6.3858,5.0909,0.1,0.00043606,4357.6,0.00043669,4376.4,-0.0001407,38.079,-0.0001458,-0.24055,0.31174
7237,6.2024,5.0909,0.1,0.00043991,4396,0.00044043,4411.6,-0.00014249,31.797,-0.00014677,-0.3837,0.29439
7238,6.0189,5.0909,0.1,0.00044326,4429.6,0.00044364,4440.9,-0.00014427,23.533,-0.0001475,-0.69975,0.27733
7239,5.8354,5.0909,0.1,0.00044597,4456.6,0.00044617,4462.5,-0.00014596,13.444,-0.00014798,-1.6769,0.26058
7240,5.6519,5.0909,0.1,0.00044784,4475.3,0.00044781,4474.3,-0.00014707,4.6229,-0.00014858,-6.7721,0.24413
7241,5.4684,5.0909,0.1,0.00044863,4483.2,0.0004483,4473.5,-0.00014681,2.0625,-0.00014993,-21.379,0.22797
7242,5.285,5.0909,0.1,0.00044803,4477.2,0.00044733,4456.9,-0.00014565,1.5089,-0.0001514,-41.72,0.21212
7243,5.1015,5.0909,0.1,0.00044568,4453.7,0.00044452,4420.6,-0.00014364,1.3623,-0.00015271,-66.801,0.19657
7244,4.918,5.0909,0.1,0.00044115,4408.4,0.00043943,4359.7,-0.00014062,1.3695,-0.00015374,-97.239,0.18132
7245,4.7345,5.0909,0.1,0.00043397,4336.7,0.00043155,4268.6,-0.00013638,1.4678,-0.00015445,-134.33,0.16635
7246,4.551,5.0909,0.1,0.00042366,4233.6,0.00042032,4141.4,-0.00013064,1.6431,-0.00015486,-180.31,0.15168
7247,4.3676,5.0909,0.1,0.00040985,4095.7,0.00040528,3971.8,-0.00012307,1.8781,-0.00015515,-239.09,0.13728
7248,4.1841,5.0909,0.1,0.00039254,3922.7,0.0003862,3755.3,-0.00011331,2.2187,-0.00015585,-317.46,0.12313
7249,4.0006,5.0909,0.1,0.0003726,3723.4,0.00036351,3492.5,-0.00010098,2.4459,-0.00015815,-427.12,0.10922
7250,3.8171,5.0909,0.1,0.00035259,3523.4,0.00033893,3194.5,-8.5792e-05,3.2346,-0.00016431,-586.69,0.095521
7251,3.6336,5.0909,0.1,0.00033859,3383.6,0.00031675,2891.9,-6.7999e-05,1.0175,-0.00017855,-829.64,0.08198
7252,3.4501,5.0909,0.1,0.00035461,3543.7,0.00031492,2727.7,-4.6834e-05,9.6092,-0.00021851,-1280.3,0.068549
7253,23.817,5.2727,0.1,1.194e-05,119.32,7.0611e-06,39.298,1.8279e-06,-0.022955,-1.0775e-05,-94.72,2.8288
7254,23.633,5.2727,0.1,1.3948e-05,139.39,1.0375e-05,75.41,3.0941e-07,-0.21939,-1.1033e-05,-85.445,2.7979
7255,23.45,5.2727,0.1,1.6548e-05,165.36,1.3789e-05,112.09,-1.1383e-06,-0.061915,-1.1486e-05,-77.813,2.7671
7256,23.266,5.2727,0.1,1.9531e-05,195.17,1.7301e-05,149.24,-2.5685e-06,-0.052815,-1.2093e-05,-71.619,2.7363
7257,23.083,5.2727,0.1,2.2769e-05,227.53,2.0896e-05,186.86,-3.9777e-06,-0.02834,-1.2824e-05,-66.497,2.7054
7258,22.899,5.2727,0.1,2.618e-05,261.62,2.4562e-05,224.92,-5.3754e-06,-0.018254,-1.365e-05,-62.194,2.6746
7259,22.716,5.2727,0.1,2.9714e-05,296.93,2.8283e-05,263.32,-6.7649e-06,-0.010276,-1.455e-05,-58.502,2.6438
7260,22.532,5.2727,0.1,3.3336e-05,333.13,3.2049e-05,302.03,-8.1491e-06,-0.0052439,-1.5505e-05,-55.274,2.6131
7261,22.349,5.2727,0.1,3.7024e-05,369.99,3.5853e-05,340.99,-9.5299e-06,-0.0016882,-1.6505e-05,-52.406,2.5823
7262,22.165,5.2727,0.1,4.0765e-05,407.37,3.9688e-05,380.16,-1.0909e-05,0.00075989,-1.754e-05,-49.824,2.5516
7263,21.982,5.2727,0.1,4.4548e-05,445.17,4.355e-05,419.53,-1.2286e-05,0.0024749,-1.8605e-05,-47.475,2.5209
7264,21.798,5.2727,0.1,4.8367e-05,483.33,4.7436e-05,459.08,-1.3663e-05,0.0036723,-1.9695e-05,-45.318,2.4902
7265,21.615,5.2727,0.1,5.2216e-05,521.8,5.1344e-05,498.79,-1.504e-05,0.0045036,-2.0807e-05,-43.327,2.4596
7266,21.431,5.2727,0.1,5.6094e-05,560.56,5.5273e-05,538.67,-1.6418e-05,0.0050735,-2.1939e-05,-41.477,2.429
7267,21.248,5.2727,0.1,5.9998e-05,599.56,5.9222e-05,578.7,-1.7797e-05,0.0054425,-2.3088e-05,-39.753,2.3984
7268,21.064,5.2727,0.1,6.3925e-05,638.81,6.3191e-05,618.89,-1.9177e-05,0.005681,-2.4254e-05,-38.141,2.3679
7269,20.881,5.2727,0.1,6.7875e-05,678.28,6.7178e-05,659.23,-2.0559e-05,0.0058112,-2.5435e-05,-36.629,2.3374
7270,20.697,5.2727,0.1,7.1847e-05,717.97,7.1183e-05,699.72,-2.1944e-05,0.0058705,-2.663e-05,-35.209,2.3069
7271,20.514,5.2727,0.1,7.584e-05,757.88,7.5207e-05,740.38,-2.333e-05,0.0058803,-2.7839e-05,-33.873,2.2765
7272,20.33,5.2727,0.1,7.9855e-05,798,7.925e-05,781.19,-2.4719e-05,0.0058465,-2.9061e-05,-32.615,2.2462
7273,20.147,5.2727,0.1,8.389e-05,838.32,8.3311e-05,822.17,-2.6112e-05,0.0057829,-3.0295e-05,-31.428,2.2159
7274,19.963,5.2727,0.1,8.7945e-05,878.85,8.7391e-05,863.3,-2.7507e-05,0.0056922,-3.1542e-05,-30.308,2.1856
7275,19.78,5.2727,0.1,9.2021e-05,919.58,9.1489e-05,904.61,-2.8906e-05,0.0056023,-3.28e-05,-29.251,2.1554
7276,19.596,5.2727,0.1,9.6118e-05,960.52,9.5606e-05,946.08,-3.0309e-05,0.0055016,-3.4069e-05,-28.25,2.1253
7277,19.413,5.2727,0.1,0.00010023,1001.7,9.9742e-05,987.73,-3.1715e-05,0.0053807,-3.535e-05,-27.304,2.0953
7278,19.229,5.2727,0.1,0.00010437,1043,0.0001039,1029.5,-3.3126e-05,0.0052727,-3.6641e-05,-26.408,2.0653
7279,19.046,5.2727,0.1,0.00010853,1084.5,0.00010807,1071.5,-3.4541e-05,0.0051582,-3.7943e-05,-25.559,2.0353
7280,18.863,5.2727,0.1,0.00011271,1126.3,0.00011227,1113.7,-3.596e-05,0.005045,-3.9255e-05,-24.753,2.0055
7281,18.679,5.2727,0.1,0.0001169,1168.2,0.00011648,1156.1,-3.7384e-05,0.0049454,-4.0577e-05,-23.988,1.9757
7282,18.496,5.2727,0.1,0.00012112,1210.4,0.00012071,1198.6,-3.8812e-05,0.0048394,-4.1909e-05,-23.261,1.946
7283,18.312,5.2727,0.1,0.00012536,1252.7,0.00012496,1241.3,-4.0246e-05,0.0047325,-4.325e-05,-22.569,1.9164
7284,18.129,5.2727,0.1,0.00012962,1295.3,0.00012923,1284.2,-4.1685e-05,0.0046187,-4.4601e-05,-21.908,1.8868
7285,17.945,5.2727,0.1,0.0001339,1338.1,0.00013352,1327.3,-4.3128e-05,0.0045275,-4.5961e-05,-21.278,1.8574
7286,17.762,5.2727,0.1,0.0001382,1381,0.00013784,1370.6,-4.4577e-05,0.0044382,-4.733e-05,-20.674,1.828
7287,17.578,5.2727,0.1,0.00014252,1424.2,0.00014217,1414.1,-4.6032e-05,0.004331,-4.8707e-05,-20.096,1.7987
7288,17.395,5.2727,0.1,0.00014686,1467.6,0.00014652,1457.7,-4.7492e-05,0.0042442,-5.0093e-05,-19.539,1.7695
7289,17.211,5.2727,0.1,0.00015122,1511.1,0.00015089,1501.6,-4.8958e-05,0.0041572,-5.1487e-05,-19.004,1.7405
7290,17.028,5.2727,0.1,0.0001556,1554.9,0.00015528,1545.6,-5.0429e-05,0.0040692,-5.289e-05,-18.486,1.7115
7291,16.844,5.2727,0.1,0.00016,1598.9,0.00015969,1589.8,-5.1906e-05,0.0039975,-5.43e-05,-17.984,1.6826
7292,16.661,5.2727,0.1,0.00016442,1643.1,0.00016412,1634.3,-5.339e-05,0.0039213,-5.5719e-05,-17.497,1.6538
7293,16.477,5.2727,0.1,0.00016886,1687.5,0.00016857,1678.9,-5.4879e-05,0.0038359,-5.7145e-05,-17.021,1.6252
7294,16.294,5.2727,0.1,0.00017332,1732,0.00017304,1723.7,-5.6374e-05,0.0037396,-5.8578e-05,-16.555,1.5966
7295,16.11,5.2727,0.1,0.0001778,1776.8,0.00017752,1768.7,-5.7876e-05,0.0036711,-6.0019e-05,-16.097,1.5682
7296,15.927,5.2727,0.1,0.0001823,1821.8,0.00018203,1813.9,-5.9384e-05,0.003602,-6.1466e-05,-15.645,1.5399
7297,15.743,5.2727,0.1,0.00018683,1867,0.00018656,1859.3,-6.0898e-05,0.0035021,-6.2921e-05,-15.197,1.5117
7298,15.56,5.2727,0.1,0.00019137,1912.3,0.00019111,1904.9,-6.2419e-05,0.0034286,-6.4382e-05,-14.751,1.4836
7299,15.376,5.2727,0.1,0.00019593,1957.9,0.00019568,1950.7,-6.3946e-05,0.003347,-6.585e-05,-14.306,1.4557
7300,15.193,5.2727,0.1,0.00020051,2003.7,0.00020027,1996.7,-6.548e-05,0.0032601,-6.7324e-05,-13.858,1.4279
7301,15.009,5.2727,0.1,0.00020511,2049.7,0.00020488,2042.9,-6.702e-05,0.0031932,-6.8805e-05,-13.406,1.4002
7302,14.826,5.2727,0.1,0.00020973,2095.8,0.0002095,2089.3,-6.8567e-05,0.0031143,-7.0291e-05,-12.948,1.3726
7303,14.642,5.2727,0.1,0.00021437,2142.2,0.00021415,2135.9,-7.0122e-05,0.0030198,-7.1783e-05,-12.482,1.3452
7304,14.459,5.2727,0.1,0.00021903,2188.7,0.00021882,2182.7,-7.1683e-05,0.0029103,-7.3281e-05,-12.005,1.318
7305,14.276,5.2727,0.1,0.0002237,2235.5,0.00022351,2229.7,-7.3251e-05,0.0028288,-7.4784e-05,-11.516,1.2909
7306,14.092,5.2727,0.1,0.0002284,2282.4,0.00022821,2276.9,-7.4826e-05,0.0027458,-7.6292e-05,-11.011,1.2639
7307,13.909,5.2727,0.1,0.00023312,2329.6,0.00023294,2324.3,-7.6409e-05,0.0026227,-7.7805e-05,-10.489,1.2371
7308,13.725,5.2727,0.1,0.00023785,2376.9,0.00023768,2371.9,-7.7998e-05,0.0025282,-7.9323e-05,-9.9466,1.2105
7309,13.542,5.2727,0.1,0.00024261,2424.4,0.00024245,2419.7,-7.9596e-05,0.0024278,-8.0845e-05,-9.3815,1.184
7310,13.358,5.2727,0.1,0.00024738,2472.1,0.00024723,2467.7,-8.12e-05,0.0023184,-8.2371e-05,-8.7909,1.1576
7311,13.175,5.2727,0.1,0.00025218,2520,0.00025204,2515.9,-8.2813e-05,0.0022463,-8.3901e-05,-8.1717,1.1315
7312,12.991,5.2727,0.1,0.00025699,2568.1,0.00025686,2564.3,-8.4433e-05,0.0021389,-8.5434e-05,-7.521,1.1055
7313,12.808,5.2727,0.1,0.00026182,2616.4,0.0002617,2613,-8.6061e-05,0.0020445,-8.6971e-05,-6.8356,1.0797
7314,12.624,5.2727,0.1,0.00026667,2664.8,0.00026656,2661.8,-8.7697e-05,0.0020121,-8.8511e-05,-6.1122,1.054
7315,12.441,5.2727,0.1,0.00027154,2713.5,0.00027144,2710.8,-8.9342e-05,0.0020047,-9.0054e-05,-5.3474,1.0286
7316,12.257,5.2727,0.1,0.00027642,2762.3,0.00027634,2760,-9.0994e-05,0.0020625,-9.1598e-05,-4.5377,1.0033
7317,12.074,5.2727,0.1,0.00028133,2811.3,0.00028126,2809.5,-9.2655e-05,0.0022595,-9.3145e-05,-3.6795,0.97818
7318,11.89,5.2727,0.1,0.00028625,2860.5,0.0002862,2859.1,-9.4324e-05,0.0028406,-9.4693e-05,-2.7692,0.95327
7319,11.707,5.2727,0.1,0.00029119,2909.9,0.00029116,2909,-9.6003e-05,0.0044234,-9.6243e-05,-1.8035,0.92855
7320,11.523,5.2727,0.1,0.00029615,2959.4,0.00029613,2959,-9.7689e-05,0.011244,-9.7794e-05,-0.7831,0.90403
7321,11.34,5.2727,0.1,0.00030112,3009.1,0.00030113,3009.3,-9.934e-05,0.34963,-9.939e-05,-0.030119,0.8797
7322,11.156,5.2727,0.1,0.00030612,3059,0.00030614,3059.8,-0.00010089,1.4873,-0.00010109,-0.0089745,0.85558
7323,10.973,5.2727,0.1,0.00031113,3109.1,0.00031117,3110.5,-0.00010244,2.7149,-0.00010281,-0.0064603,0.83166
7324,10.789,5.2727,0.1,0.00031615,3159.4,0.00031622,3161.4,-0.00010399,4.0188,-0.00010453,-0.0057764,0.80796
7325,10.606,5.2727,0.1,0.0003212,3209.8,0.00032129,3212.5,-0.00010554,5.4002,-0.00010626,-0.0057213,0.78446
7326,10.422,5.2727,0.1,0.00032626,3260.4,0.00032638,3263.8,-0.00010709,6.8613,-0.00010801,-0.0059838,0.76118
7327,10.239,5.2727,0.1,0.00033134,3311.1,0.00033148,3315.3,-0.00010864,8.4028,-0.00010976,-0.0064582,0.73813
7328,10.055,5.2727,0.1,0.00033643,3362,0.0003366,3367,-0.00011018,10.025,-0.00011152,-0.0070531,0.71529
7329,9.872,5.2727,0.1,0.00034154,3413.1,0.00034174,3418.9,-0.00011173,11.726,-0.00011329,-0.0077845,0.69268
7330,9.6885,5.2727,0.1,0.00034666,3464.3,0.00034689,3471,-0.00011327,13.502,-0.00011507,-0.0086655,0.6703
7331,9.505,5.2727,0.1,0.0003518,3515.6,0.00035206,3523.2,-0.00011481,15.348,-0.00011686,-0.0096866,0.64815
7332,9.3215,5.2727,0.1,0.00035695,3567.1,0.00035724,3575.7,-0.00011635,17.253,-0.00011865,-0.010872,0.62624
7333,9.1381,5.2727,0.1,0.00036212,3618.7,0.00036244,3628.2,-0.00011789,19.206,-0.00012045,-0.012242,0.60457
7334,8.9546,5.2727,0.1,0.00036729,3670.3,0.00036764,3680.9,-0.00011943,21.188,-0.00012225,-0.013829,0.58314
7335,8.7711,5.2727,0.1,0.00037247,3722.1,0.00037286,3733.6,-0.00012098,23.175,-0.00012406,-0.015675,0.56196
7336,8.5876,5.2727,0.1,0.00037765,3773.9,0.00037807,3786.4,-0.00012252,25.136,-0.00012587,-0.017839,0.54104
7337,8.4041,5.2727,0.1,0.00038283,3825.7,0.00038329,3839.1,-0.00012407,27.032,-0.00012767,-0.020395,0.52036
7338,8.2206,5.2727,0.1,0.00038801,3877.4,0.00038849,3891.7,-0.00012563,28.814,-0.00012947,-0.023454,0.49994
7339,8.0372,5.2727,0.1,0.00039317,3929,0.00039368,3944.1,-0.0001272,30.419,-0.00013125,-0.027162,0.47979
7340,7.8537,5.2727,0.1,0.00039831,3980.4,0.00039884,3996.1,-0.00012878,31.774,-0.00013302,-0.031741,0.4599
7341,7.6702,5.2727,0.1,0.00040341,4031.3,0.00040396,4047.6,-0.00013038,32.788,-0.00013475,-0.037519,0.44028
7342,7.4867,5.2727,0.1,0.00040845,4081.7,0.00040901,4098.2,-0.000132,33.351,-0.00013644,-0.045011,0.42093
7343,7.3032,5.2727,0.1,0.00041341,4131.3,0.00041397,4147.8,-0.00013363,33.335,-0.00013808,-0.055061,0.40185
7344,7.1198,5.2727,0.1,0.00041826,4179.7,0.0004188,4195.9,-0.0001353,32.592,-0.00013964,-0.069125,0.38306
7345,6.9363,5.2727,0.1,0.00042295,4226.6,0.00042347,4241.9,-0.00013698,30.949,-0.00014111,-0.089913,0.36454
7346,6.7528,5.2727,0.1,0.00042743,4271.4,0.00042791,4285.4,-0.00013869,28.214,-0.00014246,-0.12295,0.34631
7347,6.5693,5.2727,0.1,0.00043164,4313.4,0.00043204,4325.3,-0.00014041,24.179,-0.00014365,-0.1811,0.32837
7348,6.3858,5.2727,0.1,0.00043546,4351.6,0.00043577,4360.8,-0.00014213,18.639,-0.00014465,-0.3014,0.31072
7349,6.2024,5.2727,0.1,0.0004388,4384.9,0.00043898,4390.3,-0.00014381,11.489,-0.00014542,-0.63968,0.29336
7350,6.0189,5.2727,0.1,0.00044148,4411.8,0.00044151,4412.4,-0.00014524,3.8321,-0.00014609,-2.5655,0.2763
7351,5.8354,5.2727,0.1,0.00044333,4430.3,0.00044315,4424.9,-0.00014562,1.1394,-0.00014734,-11.819,0.25954
7352,5.6519,5.2727,0.1,0.0004441,4437.9,0.00044366,4425.2,-0.0001452,0.72712,-0.00014876,-25.968,0.24307
7353,5.4684,5.2727,0.1,0.00044346,4431.6,0.00044272,4410.1,-0.00014414,0.62539,-0.00014998,-43.263,0.2269
7354,5.285,5.2727,0.1,0.00044106,4407.5,0.00043995,4375.6,-0.00014233,0.62047,-0.00015089,-63.664,0.21103
7355,5.1015,5.2727,0.1,0.00043641,4361.1,0.00043487,4317.1,-0.00013962,0.67106,-0.00015132,-87.24,0.19546
7356,4.918,5.2727,0.1,0.00042897,4286.7,0.00042693,4228.9,-0.00013581,0.76969,-0.00015109,-114.05,0.18017
7357,4.7345,5.2727,0.1,0.0004181,4178.2,0.00041548,4104.7,-0.00013069,0.92015,-0.00015,-144.16,0.16517
7358,4.551,5.2727,0.1,0.00040314,4028.7,0.00039984,3937.3,-0.00012403,1.1367,-0.00014786,-177.88,0.15045
7359,4.3676,5.2727,0.1,0.00038349,3832.3,0.00037938,3720.3,-0.00011557,1.4271,-0.00014454,-216.2,0.13598
7360,4.1841,5.2727,0.1,0.0003589,3586.5,0.00035375,3449.2,-0.00010507,1.8473,-0.00014017,-261.9,0.12176
7361,4.0006,5.2727,0.1,0.00033003,3298,0.00032339,3126.1,-9.2373e-05,2.2512,-0.00013554,-322.06,0.10776
7362,3.8171,5.2727,0.1,0.00029954,2993.4,0.00029041,2767.1,-7.7435e-05,3.2615,-0.00013275,-412.34,0.093945
7363,3.6336,5.2727,0.1,0.00027433,2741.4,0.00026019,2412.9,-6.0736e-05,1.5722,-0.00013666,-568.9,0.080276
7364,3.4501,5.2727,0.1,0.00027715,2769.6,0.00025011,2202.1,-4.1692e-05,9.633,-0.00016414,-910.4,0.066704
7365,23.817,5.4545,0.1,1.0277e-05,102.7,6.4442e-06,38.782,1.2868e-06,0.031973,-9.0524e-06,-77.653,2.8286
7366,23.633,5.4545,0.1,1.2431e-05,124.22,9.7143e-06,74.167,-1.8095e-07,-0.18206,-9.3719e-06,-69.239,2.7978
7367,23.45,5.4545,0.1,1.5232e-05,152.21,1.3148e-05,110.59,-1.5747e-06,-0.031523,-9.9554e-06,-63.001,2.7669
7368,23.266,5.4545,0.1,1.8416e-05,184.04,1.6716e-05,147.79,-2.9565e-06,-0.027939,-1.0718e-05,-58.341,2.7361
7369,23.083,5.4545,0.1,2.183e-05,218.15,2.038e-05,185.61,-4.3243e-06,-0.0071007,-1.1601e-05,-54.68,2.7053
7370,22.899,5.4545,0.1,2.5389e-05,253.72,2.4112e-05,223.9,-5.687e-06,0.00012386,-1.2566e-05,-51.684,2.6745
7371,22.716,5.4545,0.1,2.9045e-05,290.25,2.7895e-05,262.54,-7.0467e-06,0.0056244,-1.3587e-05,-49.139,2.6437
7372,22.532,5.4545,0.1,3.2768e-05,327.45,3.1717e-05,301.47,-8.4054e-06,0.0086108,-1.465e-05,-46.912,2.6129
7373,22.349,5.4545,0.1,3.6541e-05,365.16,3.5569e-05,340.63,-9.7641e-06,0.010441,-1.5744e-05,-44.919,2.5822
7374,22.165,5.4545,0.1,4.0354e-05,403.26,3.9448e-05,379.98,-1.1123e-05,0.011443,-1.6862e-05,-43.106,2.5514
7375,21.982,5.4545,0.1,4.4199e-05,441.68,4.3348e-05,419.51,-1.2484e-05,0.01194,-1.8e-05,-41.437,2.5207
7376,21.798,5.4545,0.1,4.8071e-05,480.38,4.7268e-05,459.2,-1.3846e-05,0.012098,-1.9156e-05,-39.885,2.49
7377,21.615,5.4545,0.1,5.1968e-05,519.32,5.1207e-05,499.04,-1.5209e-05,0.012048,-2.0326e-05,-38.433,2.4594
7378,21.431,5.4545,0.1,5.5887e-05,558.48,5.5164e-05,539.03,-1.6575e-05,0.01186,-2.151e-05,-37.068,2.4288
7379,21.248,5.4545,0.1,5.9826e-05,597.85,5.9138e-05,579.16,-1.7943e-05,0.011574,-2.2706e-05,-35.78,2.3982
7380,21.064,5.4545,0.1,6.3786e-05,637.42,6.3128e-05,619.44,-1.9313e-05,0.011242,-2.3915e-05,-34.561,2.3676
7381,20.881,5.4545,0.1,6.7765e-05,677.18,6.7135e-05,659.86,-2.0686e-05,0.010879,-2.5134e-05,-33.406,2.3371
7382,20.697,5.4545,0.1,7.1763e-05,717.13,7.1158e-05,700.43,-2.2062e-05,0.010501,-2.6364e-05,-32.31,2.3067
7383,20.514,5.4545,0.1,7.5779e-05,757.27,7.5199e-05,741.15,-2.3441e-05,0.010127,-2.7604e-05,-31.268,2.2763
7384,20.33,5.4545,0.1,7.9814e-05,797.59,7.9256e-05,782.02,-2.4824e-05,0.0097566,-2.8855e-05,-30.278,2.2459
7385,20.147,5.4545,0.1,8.3868e-05,838.1,8.333e-05,823.05,-2.621e-05,0.0093925,-3.0115e-05,-29.335,2.2156
7386,19.963,5.4545,0.1,8.794e-05,878.8,8.7422e-05,864.24,-2.7599e-05,0.0090315,-3.1386e-05,-28.438,2.1854
7387,19.78,5.4545,0.1,9.2031e-05,919.68,9.1531e-05,905.58,-2.8993e-05,0.0087026,-3.2665e-05,-27.584,2.1552
7388,19.596,5.4545,0.1,9.6141e-05,960.75,9.5658e-05,947.09,-3.0391e-05,0.0083876,-3.3955e-05,-26.769,2.125
7389,19.413,5.4545,0.1,0.00010027,1002,9.9803e-05,988.77,-3.1793e-05,0.0080765,-3.5253e-05,-25.993,2.0949
7390,19.229,5.4545,0.1,0.00010442,1043.5,0.00010397,1030.6,-3.3199e-05,0.0077917,-3.6561e-05,-25.253,2.0649
7391,19.046,5.4545,0.1,0.00010859,1085.1,0.00010815,1072.6,-3.461e-05,0.0075207,-3.7878e-05,-24.547,2.035
7392,18.863,5.4545,0.1,0.00011277,1126.9,0.00011235,1114.8,-3.6026e-05,0.0072651,-3.9204e-05,-23.872,2.0051
7393,18.679,5.4545,0.1,0.00011698,1169,0.00011657,1157.2,-3.7446e-05,0.0070344,-4.0538e-05,-23.227,1.9753
7394,18.496,5.4545,0.1,0.0001212,1211.2,0.0001208,1199.7,-3.8872e-05,0.0068129,-4.1882e-05,-22.611,1.9456
7395,18.312,5.4545,0.1,0.00012545,1253.6,0.00012506,1242.5,-4.0302e-05,0.0065974,-4.3234e-05,-22.02,1.916
7396,18.129,5.4545,0.1,0.00012971,1296.2,0.00012934,1285.4,-4.1738e-05,0.0063845,-4.4594e-05,-21.454,1.8864
7397,17.945,5.4545,0.1,0.000134,1339.1,0.00013363,1328.5,-4.3179e-05,0.0062025,-4.5963e-05,-20.91,1.857
7398,17.762,5.4545,0.1,0.0001383,1382.1,0.00013795,1371.8,-4.4626e-05,0.0060307,-4.734e-05,-20.387,1.8276
7399,17.578,5.4545,0.1,0.00014263,1425.3,0.00014228,1415.2,-4.6078e-05,0.0058459,-4.8725e-05,-19.883,1.7983
7400,17.395,5.4545,0.1,0.00014697,1468.7,0.00014663,1458.9,-4.7536e-05,0.0056875,-5.0118e-05,-19.397,1.7691
7401,17.211,5.4545,0.1,0.00015134,1512.3,0.000151,1502.8,-4.9e-05,0.0055327,-5.152e-05,-18.927,1.74
7402,17.028,5.4545,0.1,0.00015572,1556.1,0.0001554,1546.8,-5.0469e-05,0.0053824,-5.2928e-05,-18.471,1.711
7403,16.844,5.4545,0.1,0.00016012,1600.1,0.00015981,1591,-5.1945e-05,0.0052545,-5.4345e-05,-18.029,1.6821
7404,16.661,5.4545,0.1,0.00016455,1644.3,0.00016424,1635.5,-5.3426e-05,0.0051212,-5.5769e-05,-17.597,1.6534
7405,16.477,5.4545,0.1,0.00016899,1688.7,0.00016869,1680.1,-5.4914e-05,0.0049849,-5.72e-05,-17.175,1.6247
7406,16.294,5.4545,0.1,0.00017345,1733.3,0.00017316,1724.9,-5.6407e-05,0.0048389,-5.8639e-05,-16.762,1.5961
7407,16.11,5.4545,0.1,0.00017794,1778.2,0.00017765,1769.9,-5.7907e-05,0.0047211,-6.0085e-05,-16.355,1.5677
7408,15.927,5.4545,0.1,0.00018244,1823.2,0.00018217,1815.1,-5.9414e-05,0.0046065,-6.1537e-05,-15.953,1.5393
7409,15.743,5.4545,0.1,0.00018697,1868.4,0.0001867,1860.5,-6.0926e-05,0.004462,-6.2997e-05,-15.556,1.5111
7410,15.56,5.4545,0.1,0.00019151,1913.8,0.00019125,1906.1,-6.2445e-05,0.0043423,-6.4464e-05,-15.16,1.4831
7411,15.376,5.4545,0.1,0.00019607,1959.4,0.00019582,1952,-6.3971e-05,0.0042182,-6.5937e-05,-14.765,1.4551
7412,15.193,5.4545,0.1,0.00020066,2005.2,0.00020041,1998,-6.5503e-05,0.0040875,-6.7416e-05,-14.369,1.4273
7413,15.009,5.4545,0.1,0.00020526,2051.2,0.00020502,2044.2,-6.7042e-05,0.0039769,-6.8902e-05,-13.971,1.3996
7414,14.826,5.4545,0.1,0.00020988,2097.4,0.00020965,2090.6,-6.8588e-05,0.0038514,-7.0394e-05,-13.568,1.372
7415,14.642,5.4545,0.1,0.00021453,2143.8,0.0002143,2137.2,-7.014e-05,0.0037123,-7.1892e-05,-13.16,1.3446
7416,14.459,5.4545,0.1,0.00021919,2190.4,0.00021897,2184,-7.1699e-05,0.0035522,-7.3396e-05,-12.744,1.3174
7417,14.276,5.4545,0.1,0.00022387,2237.2,0.00022366,2231,-7.3266e-05,0.0034192,-7.4906e-05,-12.318,1.2902
7418,14.092,5.4545,0.1,0.00022857,2284.1,0.00022837,2278.2,-7.4839e-05,0.0032805,-7.6421e-05,-11.882,1.2633
7419,13.909,5.4545,0.1,0.00023329,2331.3,0.0002331,2325.6,-7.642e-05,0.0030976,-7.7942e-05,-11.432,1.2365
7420,13.725,5.4545,0.1,0.00023804,2378.7,0.00023785,2373.2,-7.8007e-05,0.0029369,-7.9467e-05,-10.967,1.2098
7421,13.542,5.4545,0.1,0.0002428,2426.3,0.00024262,2421,-7.9603e-05,0.0027604,-8.0998e-05,-10.485,1.1833
7422,13.358,5.4545,0.1,0.00024758,2474.1,0.00024741,2469,-8.1205e-05,0.002567,-8.2534e-05,-9.9831,1.1569
7423,13.175,5.4545,0.1,0.00025238,2522,0.00025221,2517.3,-8.2815e-05,0.0023973,-8.4074e-05,-9.4596,1.1308
7424,12.991,5.4545,0.1,0.0002572,2570.2,0.00025704,2565.7,-8.4433e-05,0.0021719,-8.5619e-05,-8.9121,1.1048
7425,12.808,5.4545,0.1,0.00026203,2618.5,0.00026189,2614.4,-8.6058e-05,0.0019358,-8.7168e-05,-8.3381,1.0789
7426,12.624,5.4545,0.1,0.00026689,2667.1,0.00026676,2663.2,-8.7691e-05,0.001723,-8.8721e-05,-7.7348,1.0533
7427,12.441,5.4545,0.1,0.00027177,2715.8,0.00027165,2712.3,-8.9332e-05,0.0014763,-9.0277e-05,-7.0999,1.0278
7428,12.257,5.4545,0.1,0.00027667,2764.8,0.00027656,2761.5,-9.0981e-05,0.0012021,-9.1837e-05,-6.4305,1.0025
7429,12.074,5.4545,0.1,0.00028158,2813.9,0.00028148,2811,-9.2638e-05,0.00089471,-9.34e-05,-5.7239,0.97739
7430,11.89,5.4545,0.1,0.00028652,2863.2,0.00028643,2860.7,-9.4304e-05,0.00060652,-9.4966e-05,-4.977,0.95246
7431,11.707,5.4545,0.1,0.00029147,2912.7,0.0002914,2910.6,-9.5978e-05,0.00030572,-9.6535e-05,-4.1873,0.92773
7432,11.523,5.4545,0.1,0.00029644,2962.4,0.00029639,2960.7,-9.766e-05,8.3371e-06,-9.8106e-05,-3.3519,0.9032
7433,11.34,5.4545,0.1,0.00030144,3012.3,0.00030139,3011,-9.9351e-05,-0.00018931,-9.968e-05,-2.4678,0.87886
7434,11.156,5.4545,0.1,0.00030645,3062.3,0.00030642,3061.6,-0.00010105,-0.00019346,-0.00010126,-1.533,0.85473
7435,10.973,5.4545,0.1,0.00031147,3112.6,0.00031147,3112.3,-0.00010276,0.0016408,-0.00010283,-0.54644,0.8308
7436,10.789,5.4545,0.1,0.00031652,3163,0.00031653,3163.3,-0.00010441,0.5059,-0.00010448,-0.0065548,0.80708
7437,10.606,5.4545,0.1,0.00032159,3213.7,0.00032161,3214.5,-0.00010599,1.605,-0.0001062,-0.0044765,0.78358
7438,10.422,5.4545,0.1,0.00032667,3264.5,0.00032672,3265.8,-0.00010757,2.7646,-0.00010794,-0.0046588,0.76028
7439,10.239,5.4545,0.1,0.00033177,3315.4,0.00033184,3317.4,-0.00010915,3.9826,-0.00010968,-0.0052295,0.73721
7440,10.055,5.4545,0.1,0.00033689,3366.6,0.00033698,3369.2,-0.00011073,5.2582,-0.00011143,-0.005948,0.71437
7441,9.872,5.4545,0.1,0.00034203,3417.9,0.00034214,3421.2,-0.00011232,6.5885,-0.0001132,-0.0067992,0.69174
7442,9.6885,5.4545,0.1,0.00034718,3469.4,0.00034731,3473.3,-0.0001139,7.9694,-0.00011496,-0.0077931,0.66935
7443,9.505,5.4545,0.1,0.00035234,3521,0.0003525,3525.7,-0.00011549,9.3943,-0.00011674,-0.0089145,0.64719
7444,9.3215,5.4545,0.1,0.00035752,3572.7,0.0003577,3578.1,-0.00011707,10.854,-0.00011852,-0.010189,0.62527
7445,9.1381,5.4545,0.1,0.00036271,3624.6,0.00036292,3630.7,-0.00011866,12.335,-0.00012031,-0.011634,0.60359
7446,8.9546,5.4545,0.1,0.00036791,3676.6,0.00036814,3683.4,-0.00012025,13.82,-0.0001221,-0.013279,0.58215
7447,8.7711,5.4545,0.1,0.00037311,3728.6,0.00037337,3736.2,-0.00012185,15.287,-0.00012389,-0.015163,0.56096
7448,8.5876,5.4545,0.1,0.00037832,3780.6,0.0003786,3788.9,-0.00012345,16.706,-0.00012567,-0.017336,0.54003
7449,8.4041,5.4545,0.1,0.00038352,3832.5,0.00038382,3841.5,-0.00012505,18.042,-0.00012746,-0.019868,0.51934
7450,8.2206,5.4545,0.1,0.0003887,3884.4,0.00038903,3893.9,-0.00012666,19.249,-0.00012923,-0.022854,0.49892
7451,8.0372,5.4545,0.1,0.00039387,3935.9,0.00039421,3946,-0.00012828,20.271,-0.00013098,-0.026433,0.47875
7452,7.8537,5.4545,0.1,0.00039899,3987.2,0.00039935,3997.6,-0.00012991,21.039,-0.00013271,-0.030809,0.45885
7453,7.6702,5.4545,0.1,0.00040406,4037.8,0.00040442,4048.5,-0.00013154,21.472,-0.00013441,-0.036303,0.43922
7454,7.4867,5.4545,0.1,0.00040905,4087.7,0.00040941,4098.4,-0.00013319,21.472,-0.00013605,-0.043441,0.41987
7455,7.3032,5.4545,0.1,0.00041394,4136.5,0.00041429,4146.9,-0.00013485,20.924,-0.00013764,-0.053149,0.40078
7456,7.1198,5.4545,0.1,0.00041867,4183.8,0.000419,4193.6,-0.00013651,19.693,-0.00013914,-0.067203,0.38198
7457,6.9363,5.4545,0.1,0.0004232,4229.1,0.00042349,4237.8,-0.00013818,17.628,-0.00014054,-0.089414,0.36346
7458,6.7528,5.4545,0.1,0.00042746,4271.7,0.0004277,4278.9,-0.00013984,14.562,-0.00014179,-0.12949,0.34522
7459,6.5693,5.4545,0.1,0.00043137,4310.7,0.00043154,4315.8,-0.00014148,10.331,-0.00014288,-0.22046,0.32727
7460,6.3858,5.4545,0.1,0.00043481,4345.1,0.00043489,4347.3,-0.00014305,4.9278,-0.00014378,-0.56728,0.30961
7461,6.2024,5.4545,0.1,0.00043765,4373.5,0.0004376,4372,-0.00014416,0.89287,-0.0001448,-3.9342,0.29225
7462,6.0189,5.4545,0.1,0.00043971,4394,0.00043949,4387.8,-0.00014444,0.35911,-0.00014618,-12.678,0.27517
7463,5.8354,5.4545,0.1,0.00044075,4404.4,0.00044034,4392.5,-0.00014424,0.2557,-0.00014746,-23.937,0.2584
7464,5.6519,5.4545,0.1,0.00044049,4401.9,0.00043985,4383.1,-0.00014348,0.22792,-0.00014851,-37.525,0.24192
7465,5.4684,5.4545,0.1,0.00043859,4382.9,0.00043766,4356,-0.00014206,0.23173,-0.00014921,-53.495,0.22574
7466,5.285,5.4545,0.1,0.0004346,4343,0.00043334,4306.8,-0.00013983,0.25805,-0.00014942,-71.815,0.20984
7467,5.1015,5.4545,0.1,0.000428,4277,0.00042636,4230.3,-0.00013662,0.30728,-0.00014894,-92.287,0.19425
7468,4.918,5.4545,0.1,0.00041815,4178.6,0.00041609,4120.3,-0.00013225,0.38538,-0.00014753,-114.48,0.17893
7469,4.7345,5.4545,0.1,0.00040432,4040.5,0.00040181,3970.1,-0.00012651,0.50347,-0.0001449,-137.7,0.16389
7470,4.551,5.4545,0.1,0.00038575,3854.9,0.00038277,3772.2,-0.00011918,0.68511,-0.0001407,-160.99,0.14912
7471,4.3676,5.4545,0.1,0.00036169,3614.4,0.00035823,3519.6,-0.00011008,0.96102,-0.00013462,-183.43,0.13461
7472,4.1841,5.4545,0.1,0.00033167,3314.4,0.00032772,3207.8,-9.9021e-05,1.4429,-0.00012648,-204.88,0.12032
7473,4.0006,5.4545,0.1,0.00029598,2957.7,0.00029146,2837.9,-8.5968e-05,2.1085,-0.00011663,-228.24,0.10624
7474,3.8171,5.4545,0.1,0.00025674,2565.6,0.00025126,2424.9,-7.0987e-05,3.6462,-0.00010663,-264.16,0.092333
7475,3.6336,5.4545,0.1,0.00022057,2204.2,0.00021263,2011.4,-5.4656e-05,3.119,-0.00010123,-346.85,0.078562
7476,3.4501,5.4545,0.1,0.00020949,2093.4,0.00019297,1736.6,-3.6707e-05,10.826,-0.00011696,-592.18,0.064881
7477,23.817,5.6364,0.1,8.3297e-06,83.239,5.6844e-06,37.929,6.742e-07,0.28485,-7.0142e-06,-57.482,2.8285
7478,23.633,5.6364,0.1,1.077e-05,107.62,8.9518e-06,72.616,-7.1313e-07,-0.0026754,-7.5043e-06,-51.029,2.7976
7479,23.45,5.6364,0.1,1.3902e-05,138.93,1.2481e-05,109.16,-2.0351e-06,0.09635,-8.3358e-06,-47.244,2.7668
7480,23.266,5.6364,0.1,1.736e-05,173.48,1.6159e-05,146.73,-3.3582e-06,0.083315,-9.329e-06,-44.779,2.736
7481,23.083,5.6364,0.1,2.0982e-05,209.67,1.9919e-05,184.91,-4.68e-06,0.087146,-1.0405e-05,-42.931,2.7051
7482,22.899,5.6364,0.1,2.4699e-05,246.82,2.3733e-05,223.52,-6.0053e-06,0.082134,-1.1529e-05,-41.421,2.6743
7483,22.716,5.6364,0.1,2.8478e-05,284.58,2.7583e-05,262.43,-7.3341e-06,0.077722,-1.2682e-05,-40.107,2.6435
7484,22.532,5.6364,0.1,3.23e-05,322.78,3.1462e-05,301.58,-8.6668e-06,0.07267,-1.3856e-05,-38.915,2.6127
7485,22.349,5.6364,0.1,3.6154e-05,361.29,3.5362e-05,340.93,-1.0003e-05,0.067835,-1.5044e-05,-37.806,2.582
7486,22.165,5.6364,0.1,4.0033e-05,400.06,3.9282e-05,380.44,-1.1343e-05,0.063227,-1.6244e-05,-36.758,2.5512
7487,21.982,5.6364,0.1,4.3935e-05,439.05,4.3218e-05,420.1,-1.2686e-05,0.058935,-1.7453e-05,-35.757,2.5205
7488,21.798,5.6364,0.1,4.7856e-05,478.23,4.717e-05,459.91,-1.4033e-05,0.054964,-1.8671e-05,-34.795,2.4898
7489,21.615,5.6364,0.1,5.1795e-05,517.6,5.1137e-05,499.85,-1.5383e-05,0.051312,-1.9897e-05,-33.869,2.4592
7490,21.431,5.6364,0.1,5.5751e-05,557.13,5.5118e-05,539.93,-1.6736e-05,0.047958,-2.1131e-05,-32.973,2.4286
7491,21.248,5.6364,0.1,5.9724e-05,596.82,5.9113e-05,580.14,-1.8093e-05,0.044875,-2.2372e-05,-32.107,2.398
7492,21.064,5.6364,0.1,6.3712e-05,636.68,6.3123e-05,620.49,-1.9454e-05,0.042048,-2.3621e-05,-31.269,2.3674
7493,20.881,5.6364,0.1,6.7717e-05,676.7,6.7148e-05,660.98,-2.0817e-05,0.039457,-2.4877e-05,-30.459,2.3369
7494,20.697,5.6364,0.1,7.1738e-05,716.88,7.1187e-05,701.6,-2.2185e-05,0.037073,-2.614e-05,-29.675,2.3064
7495,20.514,5.6364,0.1,7.5775e-05,757.22,7.5242e-05,742.37,-2.3557e-05,0.034895,-2.741e-05,-28.917,2.276
7496,20.33,5.6364,0.1,7.9828e-05,797.73,7.9312e-05,783.28,-2.4932e-05,0.032888,-2.8688e-05,-28.186,2.2456
7497,20.147,5.6364,0.1,8.3898e-05,838.4,8.3398e-05,824.34,-2.6312e-05,0.031038,-2.9973e-05,-27.479,2.2153
7498,19.963,5.6364,0.1,8.7986e-05,879.25,8.75e-05,865.56,-2.7695e-05,0.029328,-3.1266e-05,-26.797,2.1851
7499,19.78,5.6364,0.1,9.209e-05,920.27,9.1618e-05,906.93,-2.9083e-05,0.027767,-3.2566e-05,-26.139,2.1549
7500,19.596,5.6364,0.1,9.6212e-05,961.46,9.5753e-05,948.46,-3.0476e-05,0.026325,-3.3874e-05,-25.505,2.1247
7501,19.413,5.6364,0.1,0.00010035,1002.8,9.9906e-05,990.16,-3.1873e-05,0.024979,-3.519e-05,-24.893,2.0946
7502,19.229,5.6364,0.1,0.00010451,1044.4,0.00010408,1032,-3.3275e-05,0.023749,-3.6513e-05,-24.303,2.0646
7503,19.046,5.6364,0.1,0.00010869,1086.1,0.00010826,1074.1,-3.4682e-05,0.022608,-3.7844e-05,-23.734,2.0347
7504,18.863,5.6364,0.1,0.00011288,1128,0.00011247,1116.3,-3.6094e-05,0.021548,-3.9183e-05,-23.186,2.0048
7505,18.679,5.6364,0.1,0.00011709,1170.1,0.00011669,1158.6,-3.7511e-05,0.020576,-4.053e-05,-22.657,1.975
7506,18.496,5.6364,0.1,0.00012133,1212.4,0.00012093,1201.2,-3.8934e-05,0.019667,-4.1884e-05,-22.147,1.9452
7507,18.312,5.6364,0.1,0.00012558,1254.9,0.00012519,1243.9,-4.0361e-05,0.018817,-4.3246e-05,-21.654,1.9156
7508,18.129,5.6364,0.1,0.00012985,1297.6,0.00012947,1286.9,-4.1794e-05,0.018013,-4.4615e-05,-21.179,1.886
7509,17.945,5.6364,0.1,0.00013413,1340.4,0.00013377,1330,-4.3233e-05,0.01728,-4.5993e-05,-20.718,1.8566
7510,17.762,5.6364,0.1,0.00013844,1383.5,0.00013809,1373.2,-4.4677e-05,0.016593,-4.7377e-05,-20.273,1.8272
7511,17.578,5.6364,0.1,0.00014277,1426.7,0.00014242,1416.7,-4.6127e-05,0.015926,-4.877e-05,-19.841,1.7979
7512,17.395,5.6364,0.1,0.00014712,1470.2,0.00014678,1460.4,-4.7583e-05,0.015312,-5.017e-05,-19.423,1.7687
7513,17.211,5.6364,0.1,0.00015149,1513.8,0.00015115,1504.2,-4.9044e-05,0.014731,-5.1577e-05,-19.016,1.7396
7514,17.028,5.6364,0.1,0.00015587,1557.6,0.00015555,1548.3,-5.0512e-05,0.014174,-5.2992e-05,-18.62,1.7105
7515,16.844,5.6364,0.1,0.00016028,1601.7,0.00015996,1592.5,-5.1985e-05,0.013659,-5.4414e-05,-18.233,1.6816
7516,16.661,5.6364,0.1,0.00016471,1645.9,0.00016439,1636.9,-5.3465e-05,0.013157,-5.5843e-05,-17.856,1.6528
7517,16.477,5.6364,0.1,0.00016915,1690.3,0.00016885,1681.5,-5.4951e-05,0.012663,-5.7279e-05,-17.486,1.6242
7518,16.294,5.6364,0.1,0.00017362,1735,0.00017332,1726.4,-5.6443e-05,0.012175,-5.8723e-05,-17.123,1.5956
7519,16.11,5.6364,0.1,0.0001781,1779.8,0.00017781,1771.4,-5.7941e-05,0.011721,-6.0174e-05,-16.765,1.5671
7520,15.927,5.6364,0.1,0.00018261,1824.8,0.00018232,1816.6,-5.9445e-05,0.011279,-6.1631e-05,-16.413,1.5388
7521,15.743,5.6364,0.1,0.00018714,1870.1,0.00018686,1862,-6.0956e-05,0.010812,-6.3096e-05,-16.064,1.5106
7522,15.56,5.6364,0.1,0.00019168,1915.5,0.00019141,1907.6,-6.2474e-05,0.010374,-6.4567e-05,-15.717,1.4825
7523,15.376,5.6364,0.1,0.00019625,1961.1,0.00019598,1953.4,-6.3998e-05,0.0099281,-6.6045e-05,-15.372,1.4545
7524,15.193,5.6364,0.1,0.00020083,2006.9,0.00020057,1999.4,-6.5528e-05,0.0094765,-6.753e-05,-15.027,1.4267
7525,15.009,5.6364,0.1,0.00020544,2053,0.00020519,2045.6,-6.7066e-05,0.0090411,-6.9021e-05,-14.681,1.399
7526,14.826,5.6364,0.1,0.00021007,2099.2,0.00020982,2092,-6.861e-05,0.008585,-7.0518e-05,-14.334,1.3714
7527,14.642,5.6364,0.1,0.00021471,2145.6,0.00021447,2138.6,-7.016e-05,0.0081067,-7.2022e-05,-13.983,1.344
7528,14.459,5.6364,0.1,0.00021938,2192.3,0.00021914,2185.4,-7.1718e-05,0.0075979,-7.3532e-05,-13.627,1.3167
7529,14.276,5.6364,0.1,0.00022406,2239.1,0.00022383,2232.4,-7.3282e-05,0.0071038,-7.5049e-05,-13.266,1.2896
7530,14.092,5.6364,0.1,0.00022877,2286.1,0.00022855,2279.6,-7.4854e-05,0.0065896,-7.6571e-05,-12.897,1.2626
7531,13.909,5.6364,0.1,0.0002335,2333.3,0.00023328,2327.1,-7.6432e-05,0.0060137,-7.8099e-05,-12.52,1.2357
7532,13.725,5.6364,0.1,0.00023824,2380.8,0.00023803,2374.7,-7.8018e-05,0.0054414,-7.9633e-05,-12.133,1.2091
7533,13.542,5.6364,0.1,0.00024301,2428.4,0.00024281,2422.5,-7.961e-05,0.0048314,-8.1173e-05,-11.735,1.1825
7534,13.358,5.6364,0.1,0.0002478,2476.2,0.0002476,2470.6,-8.1211e-05,0.0041802,-8.2718e-05,-11.323,1.1562
7535,13.175,5.6364,0.1,0.0002526,2524.3,0.00025241,2518.8,-8.2818e-05,0.003524,-8.4269e-05,-10.896,1.13
7536,12.991,5.6364,0.1,0.00025743,2572.5,0.00025725,2567.3,-8.4433e-05,0.0027836,-8.5824e-05,-10.454,1.104
7537,12.808,5.6364,0.1,0.00026228,2620.9,0.0002621,2615.9,-8.6055e-05,0.0019988,-8.7385e-05,-9.9928,1.0781
7538,12.624,5.6364,0.1,0.00026714,2669.6,0.00026698,2664.8,-8.7685e-05,0.0011999,-8.8951e-05,-9.5117,1.0525
7539,12.441,5.6364,0.1,0.00027203,2718.4,0.00027187,2713.9,-8.9323e-05,0.0003314,-9.0522e-05,-9.0089,1.027
7540,12.257,5.6364,0.1,0.00027694,2767.5,0.00027679,2763.2,-9.0968e-05,-0.00061079,-9.2097e-05,-8.4823,1.0017
7541,12.074,5.6364,0.1,0.00028186,2816.7,0.00028173,2812.7,-9.2622e-05,-0.0016328,-9.3677e-05,-7.93,0.97654
7542,11.89,5.6364,0.1,0.00028681,2866.1,0.00028668,2862.4,-9.4283e-05,-0.0026892,-9.5261e-05,-7.35,0.9516
7543,11.707,5.6364,0.1,0.00029178,2915.8,0.00029166,2912.4,-9.5953e-05,-0.0038196,-9.685e-05,-6.7403,0.92686
7544,11.523,5.6364,0.1,0.00029677,2965.6,0.00029666,2962.5,-9.7631e-05,-0.0050259,-9.8442e-05,-6.0991,0.90231
7545,11.34,5.6364,0.1,0.00030177,3015.6,0.00030168,3012.9,-9.9317e-05,-0.0062564,-0.00010004,-5.4244,0.87796
7546,11.156,5.6364,0.1,0.0003068,3065.9,0.00030672,3063.5,-0.00010101,-0.0075922,-0.00010164,-4.7147,0.85381
7547,10.973,5.6364,0.1,0.00031185,3116.3,0.00031178,3114.3,-0.00010271,-0.0089583,-0.00010324,-3.9685,0.82987
7548,10.789,5.6364,0.1,0.00031691,3167,0.00031686,3165.4,-0.00010442,-0.010254,-0.00010485,-3.1845,0.80614
7549,10.606,5.6364,0.1,0.000322,3217.8,0.00032196,3216.6,-0.00010614,-0.011392,-0.00010646,-2.3623,0.78262
7550,10.422,5.6364,0.1,0.00032711,3268.8,0.00032708,3268.1,-0.00010787,-0.011823,-0.00010807,-1.5019,0.75931
7551,10.239,5.6364,0.1,0.00033223,3320,0.00033222,3319.7,-0.00010961,-0.0075687,-0.00010969,-0.60786,0.73623
7552,10.055,5.6364,0.1,0.00033737,3371.4,0.00033738,3371.6,-0.0001113,0.35694,-0.00011135,-0.036885,0.71337
7553,9.872,5.6364,0.1,0.00034253,3423,0.00034256,3423.6,-0.00011292,1.3175,-0.0001131,-0.027378,0.69074
7554,9.6885,5.6364,0.1,0.00034771,3474.7,0.00034775,3475.9,-0.00011455,2.3188,-0.00011486,-0.027906,0.66833
7555,9.505,5.6364,0.1,0.0003529,3526.6,0.00035296,3528.3,-0.00011618,3.3465,-0.00011663,-0.029747,0.64616
7556,9.3215,5.6364,0.1,0.00035811,3578.6,0.00035818,3580.8,-0.00011781,4.3918,-0.0001184,-0.032107,0.62423
7557,9.1381,5.6364,0.1,0.00036332,3630.7,0.00036342,3633.4,-0.00011944,5.4438,-0.00012017,-0.034767,0.60253
7558,8.9546,5.6364,0.1,0.00036855,3682.9,0.00036866,3686.2,-0.00012108,6.4883,-0.00012195,-0.037644,0.58109
7559,8.7711,5.6364,0.1,0.00037377,3735.2,0.0003739,3738.9,-0.00012272,7.5073,-0.00012372,-0.040692,0.55988
7560,8.5876,5.6364,0.1,0.000379,3787.4,0.00037914,3791.6,-0.00012436,8.4777,-0.00012549,-0.043882,0.53894
7561,8.4041,5.6364,0.1,0.00038421,3839.5,0.00038437,3844.1,-0.000126,9.3707,-0.00012726,-0.047194,0.51824
7562,8.2206,5.6364,0.1,0.0003894,3891.3,0.00038957,3896.4,-0.00012765,10.15,-0.00012901,-0.050619,0.4978
7563,8.0372,5.6364,0.1,0.00039456,3942.9,0.00039474,3948.3,-0.0001293,10.773,-0.00013074,-0.05417,0.47763
7564,7.8537,5.6364,0.1,0.00039967,3994,0.00039986,3999.5,-0.00013095,11.185,-0.00013245,-0.057906,0.45772
7565,7.6702,5.6364,0.1,0.00040471,4044.3,0.0004049,4049.9,-0.0001326,11.324,-0.00013412,-0.061982,0.43808
7566,7.4867,5.6364,0.1,0.00040964,4093.6,0.00040983,4099.1,-0.00013425,11.111,-0.00013574,-0.066769,0.41872
7567,7.3032,5.6364,0.1,0.00041444,4141.5,0.00041462,4146.7,-0.00013589,10.459,-0.00013729,-0.073146,0.39962
7568,7.1198,5.6364,0.1,0.00041905,4187.6,0.00041921,4192.2,-0.00013751,9.2634,-0.00013875,-0.083325,0.38081
7569,6.9363,5.6364,0.1,0.00042342,4231.3,0.00042354,4234.9,-0.0001391,7.4102,-0.0001401,-0.10387,0.36228
7570,6.7528,5.6364,0.1,0.00042746,4271.7,0.00042754,4274,-0.00014065,4.789,-0.00014131,-0.16234,0.34403
7571,6.5693,5.6364,0.1,0.00043108,4307.8,0.0004311,4308.3,-0.0001421,1.5313,-0.00014238,-0.54366,0.32608
7572,6.3858,5.6364,0.1,0.00043415,4338.5,0.00043409,4336.7,-0.00014305,0.24851,-0.00014362,-4.0263,0.30841
7573,6.2024,5.6364,0.1,0.00043652,4362.2,0.00043635,4357.3,-0.00014355,0.13899,-0.00014489,-9.9839,0.29103
7574,6.0189,5.6364,0.1,0.00043798,4376.8,0.00043768,4368,-0.00014365,0.12301,-0.000146,-17.512,0.27395
7575,5.8354,5.6364,0.1,0.00043828,4379.8,0.00043782,4366.5,-0.0001433,0.13215,-0.00014687,-26.704,0.25716
7576,5.6519,5.6364,0.1,0.00043712,4368.2,0.00043647,4349.3,-0.00014237,0.15446,-0.0001474,-37.67,0.24067
7577,5.4684,5.6364,0.1,0.00043411,4338.1,0.00043323,4312.7,-0.00014073,0.18647,-0.00014747,-50.461,0.22447
7578,5.285,5.6364,0.1,0.00042878,4284.8,0.00042764,4252.1,-0.00013825,0.22694,-0.00014693,-65.009,0.20856
7579,5.1015,5.6364,0.1,0.00042058,4202.9,0.00041914,4161.9,-0.00013473,0.27567,-0.00014556,-81.06,0.19294
7580,4.918,5.6364,0.1,0.00040884,4085.6,0.00040709,4035.8,-0.00013,0.33411,-0.0001431,-98.094,0.1776
7581,4.7345,5.6364,0.1,0.00039283,3925.6,0.00039075,3866.9,-0.00012385,0.40699,-0.00013924,-115.23,0.16253
7582,4.551,5.6364,0.1,0.00037172,3714.6,0.00036932,3647.6,-0.00011607,0.51232,-0.0001336,-131.18,0.14772
7583,4.3676,5.6364,0.1,0.00034473,3445,0.00034206,3370.9,-0.00010648,0.68679,-0.00012578,-144.29,0.13315
7584,4.1841,5.6364,0.1,0.00031124,3110.3,0.00030837,3031.5,-9.4952e-05,1.0798,-0.00011544,-152.87,0.11881
7585,4.0006,5.6364,0.1,0.0002711,2709.1,0.00026812,2628.3,-8.1445e-05,1.8445,-0.00010251,-156.43,0.10466
7586,3.8171,5.6364,0.1,0.00022532,2251.7,0.00022225,2170,-6.5999e-05,4.1688,-8.7681e-05,-158.74,0.090687
7587,3.6336,5.6364,0.1,0.0001784,1782.7,0.00017466,1687.4,-4.9151e-05,5.7304,-7.4085e-05,-181.61,0.076838
7588,3.4501,5.6364,0.1,0.00014962,1495.2,0.00014139,1310.1,-3.108e-05,14.216,-7.6339e-05,-325.84,0.063077
7589,23.817,5.8182,0.1,6.1634e-06,61.591,4.8064e-06,36.911,-3.8813e-08,0.50636,-4.6581e-06,-34.201,2.8283
7590,23.633,5.8182,0.1,9.3691e-06,93.626,8.3495e-06,72.511,-1.2864e-06,0.11106,-5.7225e-06,-33.22,2.7975
7591,23.45,5.8182,0.1,1.3033e-05,130.24,1.2133e-05,110.22,-2.5194e-06,0.12093,-7.0018e-06,-33.559,2.7666
7592,23.266,5.8182,0.1,1.682e-05,168.09,1.5985e-05,148.58,-3.7785e-06,0.081077,-8.3024e-06,-33.909,2.7358
7593,23.083,5.8182,0.1,2.0663e-05,206.49,1.987e-05,187.33,-5.0526e-06,0.065469,-9.6029e-06,-34.124,2.705
7594,22.899,5.8182,0.1,2.4538e-05,245.22,2.3777e-05,226.34,-6.34e-06,0.050198,-1.0898e-05,-34.199,2.6742
7595,22.716,5.8182,0.1,2.8436e-05,284.16,2.7701e-05,265.56,-7.6378e-06,0.039601,-1.2188e-05,-34.151,2.6433
7596,22.532,5.8182,0.1,3.235e-05,323.27,3.1637e-05,304.94,-8.9441e-06,0.031191,-1.3474e-05,-34.001,2.6126
7597,22.349,5.8182,0.1,3.6278e-05,362.53,3.5585e-05,344.47,-1.0258e-05,0.024699,-1.4755e-05,-33.77,2.5818
7598,22.165,5.8182,0.1,4.0218e-05,401.9,3.9544e-05,384.13,-1.1578e-05,0.019562,-1.6035e-05,-33.471,2.551
7599,21.982,5.8182,0.1,4.417e-05,441.4,4.3514e-05,423.91,-1.2903e-05,0.015481,-1.7313e-05,-33.119,2.5203
7600,21.798,5.8182,0.1,4.8134e-05,481,4.7494e-05,463.81,-1.4234e-05,0.012209,-1.8592e-05,-32.725,2.4896
7601,21.615,5.8182,0.1,5.2109e-05,520.73,5.1484e-05,503.83,-1.557e-05,0.0095781,-1.987e-05,-32.296,2.459
7602,21.431,5.8182,0.1,5.6095e-05,560.57,5.5486e-05,543.97,-1.6911e-05,0.0074568,-2.115e-05,-31.842,2.4283
7603,21.248,5.8182,0.1,6.0094e-05,600.52,5.9499e-05,584.23,-1.8256e-05,0.0057308,-2.2432e-05,-31.368,2.3977
7604,21.064,5.8182,0.1,6.4105e-05,640.6,6.3524e-05,624.61,-1.9606e-05,0.0043413,-2.3716e-05,-30.879,2.3672
7605,20.881,5.8182,0.1,6.8128e-05,680.81,6.7561e-05,665.12,-2.096e-05,0.0032117,-2.5004e-05,-30.38,2.3366
7606,20.697,5.8182,0.1,7.2166e-05,721.16,7.1611e-05,705.76,-2.2319e-05,0.0022988,-2.6296e-05,-29.875,2.3062
7607,20.514,5.8182,0.1,7.6217e-05,761.64,7.5675e-05,746.53,-2.3683e-05,0.0015704,-2.7591e-05,-29.366,2.2757
7608,20.33,5.8182,0.1,8.0282e-05,802.27,7.9752e-05,787.45,-2.5051e-05,0.00098198,-2.8892e-05,-28.858,2.2454
7609,20.147,5.8182,0.1,8.4362e-05,843.04,8.3844e-05,828.51,-2.6423e-05,0.00050926,-3.0197e-05,-28.351,2.215
7610,19.963,5.8182,0.1,8.8458e-05,883.97,8.7951e-05,869.71,-2.7801e-05,0.00013069,-3.1507e-05,-27.848,2.1848
7611,19.78,5.8182,0.1,9.2569e-05,925.05,9.2073e-05,911.07,-2.9183e-05,-0.00015678,-3.2823e-05,-27.35,2.1545
7612,19.596,5.8182,0.1,9.6697e-05,966.3,9.6212e-05,952.59,-3.057e-05,-0.00037501,-3.4145e-05,-26.858,2.1244
7613,19.413,5.8182,0.1,0.00010084,1007.7,0.00010037,994.26,-3.1963e-05,-0.0005522,-3.5473e-05,-26.374,2.0943
7614,19.229,5.8182,0.1,0.000105,1049.3,0.00010454,1036.1,-3.336e-05,-0.00067486,-3.6807e-05,-25.898,2.0642
7615,19.046,5.8182,0.1,0.00010918,1091,0.00010873,1078.1,-3.4762e-05,-0.00075773,-3.8147e-05,-25.43,2.0343
7616,18.863,5.8182,0.1,0.00011338,1133,0.00011293,1120.3,-3.617e-05,-0.00081634,-3.9494e-05,-24.972,2.0044
7617,18.679,5.8182,0.1,0.00011759,1175.1,0.00011715,1162.6,-3.7584e-05,-0.00083516,-4.0847e-05,-24.523,1.9746
7618,18.496,5.8182,0.1,0.00012182,1217.4,0.00012139,1205.2,-3.9002e-05,-0.00083998,-4.2208e-05,-24.084,1.9448
7619,18.312,5.8182,0.1,0.00012607,1259.9,0.00012565,1247.9,-4.0427e-05,-0.00083444,-4.3575e-05,-23.654,1.9152
7620,18.129,5.8182,0.1,0.00013034,1302.5,0.00012993,1290.7,-4.1857e-05,-0.00082322,-4.4949e-05,-23.234,1.8856
7621,17.945,5.8182,0.1,0.00013463,1345.4,0.00013423,1333.8,-4.3293e-05,-0.00078221,-4.633e-05,-22.823,1.8561
7622,17.762,5.8182,0.1,0.00013894,1388.4,0.00013854,1377.1,-4.4734e-05,-0.00073028,-4.7718e-05,-22.422,1.8267
7623,17.578,5.8182,0.1,0.00014326,1431.6,0.00014288,1420.5,-4.6181e-05,-0.0006939,-4.9113e-05,-22.029,1.7974
7624,17.395,5.8182,0.1,0.00014761,1475.1,0.00014723,1464.1,-4.7635e-05,-0.00063493,-5.0515e-05,-21.645,1.7682
7625,17.211,5.8182,0.1,0.00015197,1518.7,0.0001516,1507.9,-4.9094e-05,-0.00057155,-5.1925e-05,-21.269,1.739
7626,17.028,5.8182,0.1,0.00015636,1562.5,0.00015599,1551.9,-5.0559e-05,-0.00050805,-5.3341e-05,-20.901,1.71
7627,16.844,5.8182,0.1,0.00016076,1606.5,0.0001604,1596.1,-5.2031e-05,-0.00042514,-5.4764e-05,-20.54,1.6811
7628,16.661,5.8182,0.1,0.00016519,1650.7,0.00016483,1640.5,-5.3508e-05,-0.00034629,-5.6195e-05,-20.186,1.6523
7629,16.477,5.8182,0.1,0.00016963,1695.1,0.00016928,1685.1,-5.4992e-05,-0.00027372,-5.7632e-05,-19.838,1.6236
7630,16.294,5.8182,0.1,0.00017409,1739.7,0.00017375,1729.9,-5.6482e-05,-0.00020942,-5.9077e-05,-19.496,1.595
7631,16.11,5.8182,0.1,0.00017858,1784.5,0.00017824,1774.9,-5.7979e-05,-0.00011739,-6.0529e-05,-19.159,1.5665
7632,15.927,5.8182,0.1,0.00018308,1829.5,0.00018275,1820,-5.9481e-05,-2.2521e-05,-6.1987e-05,-18.827,1.5382
7633,15.743,5.8182,0.1,0.0001876,1874.7,0.00018728,1865.4,-6.0991e-05,4.7384e-05,-6.3453e-05,-18.499,1.51
7634,15.56,5.8182,0.1,0.00019215,1920.1,0.00019183,1911,-6.2506e-05,0.00014443,-6.4925e-05,-18.174,1.4818
7635,15.376,5.8182,0.1,0.00019671,1965.8,0.0001964,1956.8,-6.4028e-05,0.00024049,-6.6404e-05,-17.851,1.4539
7636,15.193,5.8182,0.1,0.0002013,2011.6,0.00020099,2002.7,-6.5557e-05,0.00033541,-6.789e-05,-17.531,1.426
7637,15.009,5.8182,0.1,0.0002059,2057.6,0.0002056,2048.9,-6.7093e-05,0.00046303,-6.9383e-05,-17.212,1.3983
7638,14.826,5.8182,0.1,0.00021052,2103.8,0.00021023,2095.3,-6.8635e-05,0.00057582,-7.0883e-05,-16.893,1.3707
7639,14.642,5.8182,0.1,0.00021517,2150.2,0.00021488,2141.9,-7.0183e-05,0.00068902,-7.2389e-05,-16.574,1.3433
7640,14.459,5.8182,0.1,0.00021984,2196.8,0.00021955,2188.7,-7.1739e-05,0.00079344,-7.3902e-05,-16.254,1.316
7641,14.276,5.8182,0.1,0.00022452,2243.7,0.00022425,2235.7,-7.3301e-05,0.00093976,-7.5422e-05,-15.932,1.2888
7642,14.092,5.8182,0.1,0.00022923,2290.7,0.00022896,2282.9,-7.4871e-05,0.0010961,-7.6948e-05,-15.607,1.2618
7643,13.909,5.8182,0.1,0.00023395,2337.9,0.00023369,2330.3,-7.6447e-05,0.0012288,-7.848e-05,-15.278,1.235
7644,13.725,5.8182,0.1,0.0002387,2385.4,0.00023844,2377.9,-7.803e-05,0.001404,-8.0019e-05,-14.945,1.2083
7645,13.542,5.8182,0.1,0.00024347,2433,0.00024322,2425.7,-7.962e-05,0.0015904,-8.1565e-05,-14.606,1.1818
7646,13.358,5.8182,0.1,0.00024826,2480.9,0.00024801,2473.7,-8.1218e-05,0.0017877,-8.3116e-05,-14.261,1.1554
7647,13.175,5.8182,0.1,0.00025307,2528.9,0.00025283,2522,-8.2822e-05,0.0020399,-8.4674e-05,-13.908,1.1292
7648,12.991,5.8182,0.1,0.0002579,2577.2,0.00025767,2570.4,-8.4434e-05,0.0022794,-8.6238e-05,-13.546,1.1032
7649,12.808,5.8182,0.1,0.00026275,2625.7,0.00026252,2619.1,-8.6054e-05,0.0025483,-8.7807e-05,-13.175,1.0773
7650,12.624,5.8182,0.1,0.00026762,2674.4,0.0002674,2667.9,-8.768e-05,0.0028942,-8.9383e-05,-12.793,1.0516
7651,12.441,5.8182,0.1,0.00027251,2723.3,0.0002723,2717,-8.9314e-05,0.0032644,-9.0965e-05,-12.398,1.0261
7652,12.257,5.8182,0.1,0.00027743,2772.4,0.00027722,2766.3,-9.0956e-05,0.0036745,-9.2552e-05,-11.991,1.0008
7653,12.074,5.8182,0.1,0.00028236,2821.7,0.00028216,2815.9,-9.2605e-05,0.0041326,-9.4146e-05,-11.569,0.97563
7654,11.89,5.8182,0.1,0.00028732,2871.2,0.00028713,2865.6,-9.4262e-05,0.0046978,-9.5744e-05,-11.131,0.95068
7655,11.707,5.8182,0.1,0.00029229,2920.9,0.00029211,2915.6,-9.5927e-05,0.0053545,-9.7349e-05,-10.677,0.92592
7656,11.523,5.8182,0.1,0.00029729,2970.9,0.00029712,2965.7,-9.76e-05,0.0061222,-9.8959e-05,-10.204,0.90135
7657,11.34,5.8182,0.1,0.00030231,3021,0.00030214,3016.2,-9.928e-05,0.0070798,-0.00010057,-9.7132,0.87699
7658,11.156,5.8182,0.1,0.00030735,3071.4,0.00030719,3066.8,-0.00010097,0.0081787,-0.00010219,-9.2022,0.85283
7659,10.973,5.8182,0.1,0.00031241,3122,0.00031226,3117.6,-0.00010267,0.0095223,-0.00010382,-8.6705,0.82887
7660,10.789,5.8182,0.1,0.00031749,3172.7,0.00031735,3168.7,-0.00010437,0.011225,-0.00010545,-8.1176,0.80512
7661,10.606,5.8182,0.1,0.0003226,3223.7,0.00032247,3220,-0.00010608,0.013324,-0.00010709,-7.5432,0.78159
7662,10.422,5.8182,0.1,0.00032772,3274.9,0.0003276,3271.5,-0.0001078,0.01596,-0.00010873,-6.9473,0.75827
7663,10.239,5.8182,0.1,0.00033286,3326.3,0.00033275,3323.2,-0.00010953,0.019341,-0.00011037,-6.3307,0.73517
7664,10.055,5.8182,0.1,0.00033802,3377.9,0.00033793,3375.1,-0.00011126,0.023816,-0.00011202,-5.6944,0.7123
7665,9.872,5.8182,0.1,0.0003432,3429.7,0.00034312,3427.2,-0.000113,0.029828,-0.00011368,-5.0406,0.68965
7666,9.6885,5.8182,0.1,0.0003484,3481.6,0.00034833,3479.4,-0.00011475,0.038123,-0.00011534,-4.3726,0.66723
7667,9.505,5.8182,0.1,0.00035361,3533.7,0.00035355,3531.9,-0.00011651,0.050024,-0.000117,-3.6952,0.64505
7668,9.3215,5.8182,0.1,0.00035884,3585.9,0.00035879,3584.4,-0.00011826,0.06792,-0.00011867,-3.0157,0.6231
7669,9.1381,5.8182,0.1,0.00036408,3638.2,0.00036404,3637.1,-0.00012002,0.096625,-0.00012035,-2.3455,0.6014
7670,8.9546,5.8182,0.1,0.00036932,3690.6,0.00036929,3689.8,-0.00012178,0.14682,-0.00012202,-1.7037,0.57994
7671,8.7711,5.8182,0.1,0.00037456,3743,0.00037454,3742.6,-0.00012353,0.24414,-0.00012371,-1.1267,0.55872
7672,8.5876,5.8182,0.1,0.00037979,3795.3,0.00037979,3795.2,-0.00012526,0.44169,-0.00012541,-0.68132,0.53776
7673,8.4041,5.8182,0.1,0.00038501,3847.5,0.00038502,3847.7,-0.00012697,0.77623,-0.00012713,-0.42123,0.51706
7674,8.2206,5.8182,0.1,0.0003902,3899.4,0.00039022,3899.8,-0.00012865,1.1791,-0.00012885,-0.29861,0.49661
7675,8.0372,5.8182,0.1,0.00039535,3950.8,0.00039537,3951.5,-0.00013032,1.5526,-0.00013056,-0.24136,0.47642
7676,7.8537,5.8182,0.1,0.00040044,4001.6,0.00040046,4002.4,-0.00013198,1.8311,-0.00013225,-0.21459,0.4565
7677,7.6702,5.8182,0.1,0.00040543,4051.5,0.00040546,4052.4,-0.00013362,1.9651,-0.00013391,-0.20571,0.43685
7678,7.4867,5.8182,0.1,0.00041031,4100.2,0.00041033,4101.1,-0.00013523,1.9085,-0.00013551,-0.21263,0.41748
7679,7.3032,5.8182,0.1,0.00041501,4147.3,0.00041504,4148,-0.00013681,1.6177,-0.00013705,-0.24387,0.39837
7680,7.1198,5.8182,0.1,0.0004195,4192.1,0.00041951,4192.5,-0.00013833,1.0746,-0.00013852,-0.34194,0.37955
7681,6.9363,5.8182,0.1,0.0004237,4234.1,0.0004237,4234,-0.00013975,0.43782,-0.00013991,-0.73613,0.36101
7682,6.7528,5.8182,0.1,0.00042753,4272.3,0.0004275,4271.4,-0.00014098,0.13335,-0.00014125,-1.9336,0.34276
7683,6.5693,5.8182,0.1,0.00043087,4305.7,0.00043081,4303.8,-0.00014199,0.044617,-0.00014252,-3.9101,0.32479
7684,6.3858,5.8182,0.1,0.00043359,4332.9,0.00043348,4329.6,-0.00014276,0.011071,-0.00014364,-6.6084,0.30711
7685,6.2024,5.8182,0.1,0.00043552,4352.2,0.00043534,4347.1,-0.00014322,-0.0046939,-0.00014456,-10.105,0.28972
7686,6.0189,5.8182,0.1,0.00043644,4361.3,0.00043619,4354.1,-0.00014331,-0.013752,-0.00014523,-14.51,0.27263
7687,5.8354,5.8182,0.1,0.00043608,4357.8,0.00043574,4347.8,-0.00014292,-0.021254,-0.00014557,-19.944,0.25583
7688,5.6519,5.8182,0.1,0.00043413,4338.3,0.00043367,4325,-0.00014195,-0.03098,-0.00014548,-26.524,0.23932
7689,5.4684,5.8182,0.1,0.00043019,4298.9,0.00042959,4281.6,-0.00014026,-0.046706,-0.00014483,-34.346,0.22311
7690,5.285,5.8182,0.1,0.00042379,4234.9,0.00042303,4213,-0.0001377,-0.072478,-0.00014347,-43.464,0.20718
7691,5.1015,5.8182,0.1,0.00041437,4140.9,0.00041343,4113.6,-0.00013408,-0.11202,-0.00014123,-53.85,0.19153
7692,4.918,5.8182,0.1,0.00040131,4010.4,0.00040016,3977.2,-0.0001292,-0.16627,-0.00013787,-65.346,0.17617
7693,4.7345,5.8182,0.1,0.0003839,3836.3,0.00038251,3796.8,-0.00012284,-0.22869,-0.00013314,-77.591,0.16107
7694,4.551,5.8182,0.1,0.00036138,3611.3,0.00035976,3565.3,-0.00011479,-0.27002,-0.00012673,-89.94,0.14622
7695,4.3676,5.8182,0.1,0.00033302,3327.9,0.00033118,3275.9,-0.00010485,-0.22511,-0.00011832,-101.39,0.13162
7696,4.1841,5.8182,0.1,0.00029819,2979.9,0.00029616,2923.1,-9.2868e-05,0.11332,-0.0001076,-110.55,0.11723
7697,4.0006,5.8182,0.1,0.00025651,2563.4,0.00025436,2503.9,-7.876e-05,1.0151,-9.4315e-05,-115.86,0.10304
7698,3.8171,5.8182,0.1,0.000208,2078.6,0.00020584,2020.1,-6.2479e-05,4.0291,-7.8434e-05,-115.85,0.089005
7699,3.6336,5.8182,0.1,0.00015386,1537.5,0.00015166,1480.3,-4.4174e-05,8.8432,-6.0762e-05,-115.79,0.075101
7700,3.4501,5.8182,0.1,0.00010239,1023.2,9.8914e-05,946.01,-2.3109e-05,29.177,-4.7996e-05,-157.81,0.061286
7701,0.18235,0.18182,0.1,0.00040615,4058.7,0.00039981,3895,-0.00011527,24.881,-0.00016238,-329.07,9.0126e-05
7702,0.18235,0.36364,0.1,0.00045796,4576.4,0.00044367,4504.3,-4.4162e-05,838.86,-0.00023898,-624.95,0.00013951
7703,0.18235,0.54545,0.1,0.00052483,5244.7,0.00050343,5199.7,-2.0029e-05,1266.6,-0.00028908,-754.89,0.00016822
7704,0.18235,0.72727,0.1,0.00057701,5766.1,0.00055128,5731.3,-1.0193e-05,1512.6,-0.00032318,-839.06,0.00018646
7705,0.18235,0.90909,0.1,0.00061615,6157.3,0.00058797,6131.8,-6.0155e-06,1668.8,-0.00034693,-892.75,0.00019897
7706,0.18235,1.0909,0.1,0.00064563,6451.9,0.00061586,6433.7,-3.8642e-06,1777.3,-0.00036431,-930.93,0.00020792
7707,0.18235,1.2727,0.1,0.00066804,6675.8,0.0006372,6664.1,-2.6511e-06,1856.5,-0.00037725,-958.09,0.00021447
7708,0.18235,1.4545,0.1,0.00068518,6847.1,0.0006536,6841.1,-1.8942e-06,1916,-0.00038702,-977.7,0.00021929
7709,0.18235,1.6364,0.1,0.0006983,6978.2,0.00066621,6977.5,-1.3867e-06,1961.4,-0.00039443,-991.74,0.00022283
7710,0.18235,1.8182,0.1,0.00070831,7078.2,0.00067586,7082.2,-1.0255e-06,1996.3,-0.00040003,-1001.6,0.00022541
7711,0.18235,2,0.1,0.00071587,7153.8,0.00068318,7161.9,-7.5847e-07,2023.1,-0.00040423,-1008.5,0.00022727
7712,0.18235,2.1818,0.1,0.0007215,7210,0.00068865,7221.7,-5.5841e-07,2043.3,-0.00040733,-1013,0.00022858
7713,0.18235,2.3636,0.1,0.00072558,7250.8,0.00069263,7265.5,-4.105e-07,2058.2,-0.00040956,-1016,0.00022947
7714,0.18235,2.5455,0.1,0.00072841,7279.1,0.0006954,7296,-3.0609e-07,2068.8,-0.0004111,-1017.8,0.00023006
7715,0.18235,2.7273,0.1,0.00073019,7296.8,0.00069714,7315.3,-2.3955e-07,2075.4,-0.00041206,-1018.8,0.00023041
7716,0.18235,2.9091,0.1,0.00073104,7305.4,0.00069798,7324.6,-2.0724e-07,2078.7,-0.00041252,-1019.3,0.00023057
7717,0.18235,3.0909,0.1,0.00073104,7305.4,0.00069798,7324.6,-2.0724e-07,2078.7,-0.00041252,-1019.3,0.00023057
7718,0.18235,3.2727,0.1,0.00073019,7296.8,0.00069714,7315.3,-2.3956e-07,2075.4,-0.00041206,-1018.8,0.00023041
7719,0.18235,3.4545,0.1,0.00072841,7279.1,0.0006954,7296,-3.0609e-07,2068.8,-0.0004111,-1017.8,0.00023006
7720,0.18235,3.6364,0.1,0.00072558,7250.8,0.00069263,7265.5,-4.1052e-07,2058.2,-0.00040956,-1016,0.00022947
7721,0.18235,3.8182,0.1,0.0007215,7210,0.00068865,7221.7,-5.5842e-07,2043.3,-0.00040733,-1013,0.00022858
7722,0.18235,4,0.1,0.00071587,7153.8,0.00068318,7161.9,-7.5848e-07,2023.1,-0.00040423,-1008.5,0.00022727
7723,0.18235,4.1818,0.1,0.00070831,7078.2,0.00067586,7082.2,-1.0255e-06,1996.3,-0.00040003,-1001.6,0.00022541
7724,0.18235,4.3636,0.1,0.0006983,6978.2,0.00066621,6977.5,-1.3867e-06,1961.4,-0.00039443,-991.74,0.00022283
7725,0.18235,4.5455,0.1,0.00068518,6847.1,0.0006536,6841.1,-1.8943e-06,1916,-0.00038702,-977.7,0.00021929
7726,0.18235,4.7273,0.1,0.00066804,6675.8,0.0006372,6664.1,-2.6511e-06,1856.5,-0.00037725,-958.09,0.00021447
7727,0.18235,4.9091,0.1,0.00064563,6451.9,0.00061586,6433.7,-3.8642e-06,1777.3,-0.00036431,-930.93,0.00020792
7728,0.18235,5.0909,0.1,0.00061615,6157.3,0.00058797,6131.8,-6.0155e-06,1668.8,-0.00034693,-892.75,0.00019897
7729,0.18235,5.2727,0.1,0.00057701,5766.1,0.00055128,5731.3,-1.0193e-05,1512.6,-0.00032318,-839.06,0.00018646
7730,0.18235,5.4545,0.1,0.00052483,5244.7,0.00050343,5199.7,-2.0029e-05,1266.6,-0.00028908,-754.89,0.00016822
7731,0.18235,5.6364,0.1,0.00045796,4576.4,0.00044367,4504.3,-4.4162e-05,838.86,-0.00023898,-624.95,0.00013951
7732,0.18235,5.8182,0.1,0.00040615,4058.7,0.00039981,3895,-0.00011527,24.881,-0.00016238,-329.07,9.0126e-05
7733,0.36471,0.18182,0.1,0.00049454,4942,0.00049438,4941.6,-0.00015147,88.975,-0.00017464,-85.099,0.0003916
7734,0.36471,0.36364,0.1,0.00047085,4705.3,0.00048236,5085.8,-0.00010621,663.57,-0.00017574,141.17,0.0005323
7735,0.36471,0.54545,0.1,0.00047798,4776.5,0.00049344,5393.5,-6.2685e-05,1215,-0.00019956,186.55,0.00062659
7736,0.36471,0.72727,0.1,0.0004985,4981.6,0.00051457,5733.9,-3.7765e-05,1583.9,-0.0002207,209.34,0.00069165
7737,0.36471,0.90909,0.1,0.00052136,5210,0.00053737,6048.2,-2.3885e-05,1831.2,-0.00023778,224.02,0.00073822
7738,0.36471,1.0909,0.1,0.00054253,5421.5,0.00055848,6319.3,-1.5952e-05,2003.2,-0.0002514,234.18,0.0007725
7739,0.36471,1.2727,0.1,0.00056088,5605,0.00057683,6546.4,-1.1147e-05,2128.6,-0.00026231,241.39,0.00079815
7740,0.36471,1.4545,0.1,0.00057636,5759.7,0.00059234,6734.3,-8.0622e-06,2223.1,-0.00027112,246.57,0.0008175
7741,0.36471,1.6364,0.1,0.00058923,5888.2,0.00060524,6888.5,-5.97e-06,2296.2,-0.00027826,250.29,0.0008321
7742,0.36471,1.8182,0.1,0.00059979,5993.8,0.00061584,7014.2,-4.4856e-06,2353.3,-0.00028403,252.92,0.00084306
7743,0.36471,2,0.1,0.00060835,6079.3,0.00062442,7115.4,-3.4e-06,2398.2,-0.00028867,254.74,0.00085119
7744,0.36471,2.1818,0.1,0.00061514,6147.2,0.00063124,7195.4,-2.5977e-06,2433,-0.00029234,255.96,0.00085714
7745,0.36471,2.3636,0.1,0.00062037,6199.4,0.00063648,7256.7,-2.0127e-06,2459.3,-0.00029516,256.76,0.00086137
7746,0.36471,2.5455,0.1,0.00062418,6237.4,0.00064029,7301.2,-1.6045e-06,2478.3,-0.0002972,257.25,0.00086425
7747,0.36471,2.7273,0.1,0.00062666,6262.3,0.00064278,7330.2,-1.3466e-06,2490.5,-0.00029854,257.53,0.00086604
7748,0.36471,2.9091,0.1,0.00062789,6274.6,0.00064401,7344.6,-1.2221e-06,2496.5,-0.0002992,257.66,0.00086689
7749,0.36471,3.0909,0.1,0.00062789,6274.6,0.00064401,7344.6,-1.2221e-06,2496.5,-0.0002992,257.66,0.00086689
7750,0.36471,3.2727,0.1,0.00062666,6262.3,0.00064278,7330.2,-1.3466e-06,2490.5,-0.00029854,257.53,0.00086604
7751,0.36471,3.4545,0.1,0.00062418,6237.4,0.00064029,7301.2,-1.6045e-06,2478.3,-0.0002972,257.25,0.00086425
7752,0.36471,3.6364,0.1,0.00062037,6199.4,0.00063648,7256.7,-2.0127e-06,2459.3,-0.00029516,256.76,0.00086137
7753,0.36471,3.8182,0.1,0.00061514,6147.2,0.00063124,7195.4,-2.5978e-06,2433,-0.00029234,255.96,0.00085714
7754,0.36471,4,0.1,0.00060835,6079.3,0.00062442,7115.4,-3.4e-06,2398.2,-0.00028867,254.74,0.00085119
7755,0.36471,4.1818,0.1,0.00059979,5993.8,0.00061584,7014.2,-4.4856e-06,2353.3,-0.00028403,252.92,0.00084306
7756,0.36471,4.3636,0.1,0.00058923,5888.2,0.00060524,6888.5,-5.97e-06,2296.2,-0.00027826,250.29,0.0008321
7757,0.36471,4.5455,0.1,0.00057636,5759.7,0.00059234,6734.3,-8.0622e-06,2223.1,-0.00027112,246.57,0.0008175
7758,0.36471,4.7273,0.1,0.00056088,5605,0.00057683,6546.4,-1.1147e-05,2128.6,-0.00026231,241.39,0.00079815
7759,0.36471,4.9091,0.1,0.00054253,5421.5,0.00055848,6319.3,-1.5953e-05,2003.2,-0.0002514,234.18,0.0007725
7760,0.36471,5.0909,0.1,0.00052136,5210,0.00053737,6048.2,-2.3885e-05,1831.2,-0.00023778,224.02,0.00073822
7761,0.36471,5.2727,0.1,0.0004985,4981.6,0.00051457,5733.9,-3.7765e-05,1583.9,-0.0002207,209.34,0.00069165
7762,0.36471,5.4545,0.1,0.00047798,4776.5,0.00049344,5393.5,-6.2685e-05,1215,-0.00019956,186.55,0.00062659
7763,0.36471,5.6364,0.1,0.00047085,4705.3,0.00048236,5085.8,-0.00010621,663.57,-0.00017574,141.17,0.0005323
7764,0.36471,5.8182,0.1,0.00049454,4942,0.00049438,4941.6,-0.00015147,88.975,-0.00017464,-85.099,0.0003916
7765,0.54706,0.18182,0.1,0.00054077,5404,0.00053868,5344.3,-0.00017267,-0.49495,-0.00018817,-116.95,0.00098006
7766,0.54706,0.36364,0.1,0.00052037,5200.1,0.00052492,5359.6,-0.00013682,387.51,-0.00019399,-42,0.0012251
7767,0.54706,0.54545,0.1,0.00051649,5161.3,0.00052408,5494.1,-9.6828e-05,828.85,-0.00021384,-50.306,0.0014045
7768,0.54706,0.72727,0.1,0.00052334,5229.8,0.00053141,5685,-6.6864e-05,1189.8,-0.00023251,-54.789,0.0015369
7769,0.54706,0.90909,0.1,0.00053642,5360.5,0.00054388,5898.8,-4.6465e-05,1463.1,-0.00024891,-57.928,0.001636
7770,0.54706,1.0909,0.1,0.00055184,5514.6,0.00055848,6111.3,-3.2993e-05,1667.1,-0.00026289,-60.193,0.0017113
7771,0.54706,1.2727,0.1,0.00056732,5669.3,0.00057327,6309.5,-2.4029e-05,1821.6,-0.0002747,-61.816,0.0017692
7772,0.54706,1.4545,0.1,0.00058177,5813.7,0.00058719,6487.7,-1.7905e-05,1941.2,-0.00028465,-62.982,0.0018139
7773,0.54706,1.6364,0.1,0.00059473,5943.2,0.00059976,6644.2,-1.3585e-05,2035.8,-0.00029302,-63.81,0.0018485
7774,0.54706,1.8182,0.1,0.00060603,6056.1,0.00061077,6779,-1.0449e-05,2111.4,-0.00030003,-64.388,0.001875
7775,0.54706,2,0.1,0.00061565,6152.2,0.00062018,6892.9,-8.1288e-06,2172.1,-0.00030583,-64.78,0.0018952
7776,0.54706,2.1818,0.1,0.00062361,6231.8,0.00062799,6986.7,-6.409e-06,2220.1,-0.00031054,-65.04,0.0019104
7777,0.54706,2.3636,0.1,0.00062994,6295,0.00063421,7061.1,-5.157e-06,2257.1,-0.00031424,-65.205,0.0019215
7778,0.54706,2.5455,0.1,0.00063467,6342.4,0.00063887,7116.5,-4.2874e-06,2284.1,-0.00031697,-65.305,0.0019292
7779,0.54706,2.7273,0.1,0.00063782,6373.8,0.00064198,7153.4,-3.7409e-06,2301.7,-0.00031877,-65.361,0.0019341
7780,0.54706,2.9091,0.1,0.0006394,6389.6,0.00064354,7171.7,-3.478e-06,2310.3,-0.00031967,-65.386,0.0019364
7781,0.54706,3.0909,0.1,0.0006394,6389.6,0.00064354,7171.7,-3.478e-06,2310.3,-0.00031967,-65.386,0.0019364
7782,0.54706,3.2727,0.1,0.00063782,6373.8,0.00064198,7153.4,-3.7409e-06,2301.7,-0.00031877,-65.361,0.0019341
7783,0.54706,3.4545,0.1,0.00063467,6342.4,0.00063887,7116.5,-4.2874e-06,2284.1,-0.00031697,-65.305,0.0019292
7784,0.54706,3.6364,0.1,0.00062994,6295,0.00063421,7061.1,-5.157e-06,2257.1,-0.00031424,-65.205,0.0019215
7785,0.54706,3.8182,0.1,0.00062361,6231.8,0.00062799,6986.7,-6.409e-06,2220.1,-0.00031054,-65.04,0.0019104
7786,0.54706,4,0.1,0.00061565,6152.2,0.00062018,6892.9,-8.1289e-06,2172.1,-0.00030583,-64.78,0.0018952
7787,0.54706,4.1818,0.1,0.00060603,6056.1,0.00061077,6779,-1.0449e-05,2111.4,-0.00030003,-64.388,0.001875
7788,0.54706,4.3636,0.1,0.00059473,5943.2,0.00059976,6644.2,-1.3585e-05,2035.8,-0.00029302,-63.81,0.0018485
7789,0.54706,4.5455,0.1,0.00058177,5813.7,0.00058719,6487.7,-1.7905e-05,1941.2,-0.00028465,-62.982,0.0018139
7790,0.54706,4.7273,0.1,0.00056732,5669.3,0.00057327,6309.5,-2.4029e-05,1821.6,-0.0002747,-61.816,0.0017692
7791,0.54706,4.9091,0.1,0.00055184,5514.6,0.00055848,6111.3,-3.2993e-05,1667.1,-0.00026289,-60.193,0.0017113
7792,0.54706,5.0909,0.1,0.00053642,5360.5,0.00054388,5898.8,-4.6465e-05,1463.1,-0.00024891,-57.928,0.001636
7793,0.54706,5.2727,0.1,0.00052334,5229.8,0.00053141,5685,-6.6864e-05,1189.8,-0.00023251,-54.789,0.0015369
7794,0.54706,5.4545,0.1,0.00051649,5161.3,0.00052408,5494.1,-9.6828e-05,828.85,-0.00021384,-50.306,0.0014045
7795,0.54706,5.6364,0.1,0.00052037,5200.1,0.00052492,5359.6,-0.00013682,387.51,-0.00019399,-42,0.0012251
7796,0.54706,5.8182,0.1,0.00054077,5404,0.00053868,5344.3,-0.00017267,-0.49498,-0.00018817,-116.95,0.00098006
7797,0.72941,0.18182,0.1,0.00055766,5572.8,0.00055609,5528.6,-0.00017758,16.041,-0.00019336,-102.54,0.0018911
7798,0.72941,0.36364,0.1,0.00053766,5372.9,0.00054207,5513.1,-0.00015355,286.54,-0.00019102,4.9755,0.0022406
7799,0.72941,0.54545,0.1,0.00052882,5284.5,0.0005371,5583.7,-0.00012015,645.33,-0.00020466,10.346,0.0025119
7800,0.72941,0.72727,0.1,0.00052775,5273.9,0.0005379,5700.6,-9.1247e-05,973.41,-0.00021917,12.278,0.0027224
7801,0.72941,0.90909,0.1,0.00053302,5326.5,0.00054363,5849.4,-6.857e-05,1249.5,-0.00023307,13.565,0.0028865
7802,0.72941,1.0909,0.1,0.00054242,5420.4,0.00055278,6014.9,-5.1694e-05,1473.1,-0.00024583,14.381,0.0030154
7803,0.72941,1.2727,0.1,0.00055393,5535.5,0.00056381,6184.4,-3.9378e-05,1652.3,-0.00025729,14.955,0.003117
7804,0.72941,1.4545,0.1,0.00056613,5657.4,0.0005755,6349,-3.0374e-05,1796.7,-0.00026746,15.366,0.0031973
7805,0.72941,1.6364,0.1,0.00057809,5776.9,0.00058701,6502.9,-2.371e-05,1914.2,-0.00027639,15.667,0.0032608
7806,0.72941,1.8182,0.1,0.00058925,5888.4,0.0005978,6642.5,-1.8713e-05,2010.3,-0.00028415,15.886,0.0033106
7807,0.72941,2,0.1,0.00059926,5988.4,0.00060751,6765.4,-1.4945e-05,2088.5,-0.00029078,16.044,0.0033494
7808,0.72941,2.1818,0.1,0.00060789,6074.7,0.00061592,6870.2,-1.2124e-05,2151.3,-0.0002963,16.153,0.0033791
7809,0.72941,2.3636,0.1,0.00061499,6145.7,0.00062285,6955.6,-1.0067e-05,2200.1,-0.00030072,16.226,0.0034013
7810,0.72941,2.5455,0.1,0.00062043,6200.1,0.00062818,7020.6,-8.6428e-06,2235.8,-0.00030404,16.272,0.003417
7811,0.72941,2.7273,0.1,0.00062412,6236.9,0.00063179,7064.5,-7.7523e-06,2259.2,-0.00030626,16.298,0.0034271
7812,0.72941,2.9091,0.1,0.00062598,6255.5,0.00063362,7086.6,-7.3258e-06,2270.7,-0.00030737,16.31,0.003432
7813,0.72941,3.0909,0.1,0.00062598,6255.5,0.00063362,7086.6,-7.3258e-06,2270.7,-0.00030737,16.31,0.003432
7814,0.72941,3.2727,0.1,0.00062412,6236.9,0.00063179,7064.5,-7.7523e-06,2259.2,-0.00030626,16.298,0.0034271
7815,0.72941,3.4545,0.1,0.00062043,6200.1,0.00062818,7020.6,-8.6428e-06,2235.8,-0.00030404,16.272,0.003417
7816,0.72941,3.6364,0.1,0.00061499,6145.7,0.00062285,6955.6,-1.0067e-05,2200.1,-0.00030072,16.226,0.0034013
7817,0.72941,3.8182,0.1,0.00060789,6074.7,0.00061592,6870.2,-1.2124e-05,2151.3,-0.0002963,16.153,0.0033791
7818,0.72941,4,0.1,0.00059926,5988.4,0.00060751,6765.4,-1.4945e-05,2088.5,-0.00029078,16.044,0.0033494
7819,0.72941,4.1818,0.1,0.00058925,5888.4,0.0005978,6642.5,-1.8713e-05,2010.3,-0.00028415,15.886,0.0033106
7820,0.72941,4.3636,0.1,0.00057809,5776.9,0.00058701,6502.9,-2.371e-05,1914.2,-0.00027639,15.667,0.0032608
7821,0.72941,4.5455,0.1,0.00056613,5657.4,0.0005755,6349,-3.0374e-05,1796.7,-0.00026746,15.366,0.0031973
7822,0.72941,4.7273,0.1,0.00055393,5535.5,0.00056381,6184.4,-3.9378e-05,1652.3,-0.00025729,14.955,0.003117
7823,0.72941,4.9091,0.1,0.00054242,5420.4,0.00055278,6014.9,-5.1694e-05,1473.1,-0.00024583,14.381,0.0030154
7824,0.72941,5.0909,0.1,0.00053302,5326.5,0.00054363,5849.4,-6.857e-05,1249.5,-0.00023307,13.565,0.0028865
7825,0.72941,5.2727,0.1,0.00052775,5273.9,0.0005379,5700.6,-9.1247e-05,973.41,-0.00021917,12.278,0.0027224
7826,0.72941,5.4545,0.1,0.00052882,5284.5,0.0005371,5583.7,-0.00012015,645.33,-0.00020466,10.346,0.0025119
7827,0.72941,5.6364,0.1,0.00053766,5372.9,0.00054207,5513.1,-0.00015355,286.54,-0.00019102,4.9755,0.0022406
7828,0.72941,5.8182,0.1,0.00055766,5572.8,0.00055609,5528.6,-0.00017758,16.041,-0.00019336,-102.54,0.0018911
7829,0.91176,0.18182,0.1,0.00056178,5613.9,0.00056012,5566.8,-0.00017967,8.2226,-0.0001942,-100.92,0.0031426
7830,0.91176,0.36364,0.1,0.00054534,5449.7,0.00054842,5546,-0.00016239,205.26,-0.00019057,-6.4637,0.003593
7831,0.91176,0.54545,0.1,0.00053694,5365.7,0.00054353,5593,-0.00013511,493.94,-0.00020148,-4.6853,0.0039576
7832,0.91176,0.72727,0.1,0.00053378,5334.1,0.00054261,5677.5,-0.00010952,777.6,-0.00021362,-4.5153,0.0042516
7833,0.91176,0.90909,0.1,0.0005357,5353.3,0.00054561,5792.8,-8.7458e-05,1036.2,-0.00022595,-4.4157,0.0044887
7834,0.91176,1.0909,0.1,0.00054178,5414.1,0.00055194,5930.4,-6.9483e-05,1261.2,-0.00023793,-4.408,0.0046803
7835,0.91176,1.2727,0.1,0.00055072,5503.4,0.00056068,6080.9,-5.5288e-05,1452.8,-0.00024922,-4.4129,0.0048354
7836,0.91176,1.4545,0.1,0.00056128,5609,0.00057086,6236,-4.4216e-05,1614.6,-0.00025969,-4.4193,0.0049608
7837,0.91176,1.6364,0.1,0.00057248,5720.9,0.00058161,6388.5,-3.5598e-05,1751,-0.00026923,-4.4189,0.0050619
7838,0.91176,1.8182,0.1,0.00058356,5831.5,0.00059226,6532.7,-2.8892e-05,1865.6,-0.00027778,-4.4124,0.005143
7839,0.91176,2,0.1,0.00059395,5935.4,0.00060229,6664.4,-2.3709e-05,1960.9,-0.00028527,-4.4028,0.0052074
7840,0.91176,2.1818,0.1,0.00060325,6028.3,0.00061129,6779.9,-1.9778e-05,2038.3,-0.00029164,-4.3937,0.0052576
7841,0.91176,2.3636,0.1,0.00061111,6106.9,0.00061893,6876.1,-1.69e-05,2098.8,-0.00029682,-4.3875,0.0052957
7842,0.91176,2.5455,0.1,0.00061727,6168.4,0.00062492,6950.8,-1.4914e-05,2143.3,-0.00030075,-4.3848,0.0053231
7843,0.91176,2.7273,0.1,0.0006215,6210.7,0.00062906,7001.7,-1.3682e-05,2172.4,-0.00030339,-4.3846,0.0053409
7844,0.91176,2.9091,0.1,0.00062366,6232.3,0.00063117,7027.6,-1.3095e-05,2186.8,-0.00030472,-4.3852,0.0053496
7845,0.91176,3.0909,0.1,0.00062366,6232.3,0.00063117,7027.6,-1.3095e-05,2186.8,-0.00030472,-4.3852,0.0053496
7846,0.91176,3.2727,0.1,0.0006215,6210.7,0.00062906,7001.7,-1.3682e-05,2172.4,-0.00030339,-4.3846,0.0053409
7847,0.91176,3.4545,0.1,0.00061727,6168.4,0.00062492,6950.8,-1.4914e-05,2143.3,-0.00030075,-4.3848,0.0053231
7848,0.91176,3.6364,0.1,0.00061111,6106.9,0.00061893,6876.1,-1.6901e-05,2098.8,-0.00029682,-4.3875,0.0052957
7849,0.91176,3.8182,0.1,0.00060325,6028.3,0.00061129,6779.9,-1.9778e-05,2038.3,-0.00029164,-4.3937,0.0052576
7850,0.91176,4,0.1,0.00059395,5935.4,0.00060229,6664.4,-2.3709e-05,1960.9,-0.00028527,-4.4028,0.0052074
7851,0.91176,4.1818,0.1,0.00058356,5831.5,0.00059226,6532.7,-2.8892e-05,1865.6,-0.00027778,-4.4124,0.005143
7852,0.91176,4.3636,0.1,0.00057248,5720.9,0.00058161,6388.5,-3.5598e-05,1751,-0.00026923,-4.4189,0.0050619
7853,0.91176,4.5455,0.1,0.00056128,5609,0.00057086,6236,-4.4216e-05,1614.6,-0.00025969,-4.4193,0.0049608
7854,0.91176,4.7273,0.1,0.00055072,5503.4,0.00056068,6080.9,-5.5288e-05,1452.8,-0.00024922,-4.4129,0.0048354
7855,0.91176,4.9091,0.1,0.00054178,5414.1,0.00055194,5930.4,-6.9483e-05,1261.2,-0.00023793,-4.408,0.0046803
7856,0.91176,5.0909,0.1,0.0005357,5353.3,0.00054561,5792.8,-8.7458e-05,1036.2,-0.00022595,-4.4157,0.0044887
7857,0.91176,5.2727,0.1,0.00053378,5334.1,0.00054261,5677.5,-0.00010952,777.6,-0.00021362,-4.5153,0.0042516
7858,0.91176,5.4545,0.1,0.00053694,5365.7,0.00054353,5593,-0.00013511,493.94,-0.00020148,-4.6853,0.0039576
7859,0.91176,5.6364,0.1,0.00054534,5449.7,0.00054842,5546,-0.00016239,205.26,-0.00019057,-6.4637,0.003593
7860,0.91176,5.8182,0.1,0.00056178,5613.9,0.00056012,5566.8,-0.00017967,8.2226,-0.0001942,-100.92,0.0031426
7861,1.0941,0.18182,0.1,0.00055626,5558.8,0.00055459,5511.3,-0.00017789,7.6615,-0.00019237,-101.13,0.004741
7862,1.0941,0.36364,0.1,0.00054311,5427.3,0.00054539,5497.4,-0.00016667,147.32,-0.00018681,-4.0175,0.0052882
7863,1.0941,0.54545,0.1,0.00053646,5360.9,0.00054192,5541.6,-0.00014464,383,-0.00019575,-1.0139,0.0057453
7864,1.0941,0.72727,0.1,0.00053367,5333,0.00054155,5618.2,-0.00012288,625.94,-0.00020623,-0.32785,0.0061254
7865,1.0941,0.90909,0.1,0.00053489,5345.2,0.00054431,5723.4,-0.00010289,860.58,-0.00021741,0.082393,0.0064409
7866,1.0941,1.0909,0.1,0.00053981,5394.4,0.00055001,5851.9,-8.5464e-05,1077.2,-0.00022879,0.30956,0.0067026
7867,1.0941,1.2727,0.1,0.00054768,5473,0.00055813,5997.3,-7.0786e-05,1271.9,-0.00024,0.45903,0.0069194
7868,1.0941,1.4545,0.1,0.00055757,5571.9,0.00056793,6152.2,-5.8651e-05,1444.3,-0.0002508,0.56191,0.0070987
7869,1.0941,1.6364,0.1,0.0005686,5682.1,0.0005787,6309.7,-4.8727e-05,1595.5,-0.00026099,0.63958,0.0072462
7870,1.0941,1.8182,0.1,0.00057996,5795.6,0.00058973,6463.2,-4.0702e-05,1726.3,-0.00027037,0.70048,0.0073668
7871,1.0941,2,0.1,0.000591,5906,0.00060044,6606.8,-3.4331e-05,1837.4,-0.00027878,0.74731,0.0074643
7872,1.0941,2.1818,0.1,0.00060116,6007.4,0.0006103,6735.5,-2.9431e-05,1928.9,-0.00028605,0.77989,0.0075417
7873,1.0941,2.3636,0.1,0.00060995,6095.3,0.00061885,6844.8,-2.5837e-05,2000.9,-0.00029203,0.79864,0.0076013
7874,1.0941,2.5455,0.1,0.00061695,6165.3,0.00062569,6930.6,-2.3375e-05,2053.8,-0.00029661,0.80626,0.0076448
7875,1.0941,2.7273,0.1,0.00062183,6214,0.00063047,6989.8,-2.1867e-05,2088.4,-0.00029971,0.80719,0.0076732
7876,1.0941,2.9091,0.1,0.00062434,6239.1,0.00063293,7020,-2.1159e-05,2105.4,-0.00030127,0.80613,0.0076873
7877,1.0941,3.0909,0.1,0.00062434,6239.1,0.00063293,7020,-2.1159e-05,2105.4,-0.00030127,0.80613,0.0076873
7878,1.0941,3.2727,0.1,0.00062183,6214,0.00063047,6989.8,-2.1867e-05,2088.4,-0.00029971,0.80719,0.0076732
7879,1.0941,3.4545,0.1,0.00061695,6165.3,0.00062569,6930.6,-2.3375e-05,2053.8,-0.00029661,0.80626,0.0076448
7880,1.0941,3.6364,0.1,0.00060995,6095.3,0.00061885,6844.8,-2.5837e-05,2000.9,-0.00029203,0.79864,0.0076013
7881,1.0941,3.8182,0.1,0.00060116,6007.4,0.0006103,6735.5,-2.9431e-05,1928.9,-0.00028605,0.77989,0.0075417
7882,1.0941,4,0.1,0.000591,5906,0.00060044,6606.8,-3.4331e-05,1837.4,-0.00027878,0.74731,0.0074643
7883,1.0941,4.1818,0.1,0.00057996,5795.6,0.00058973,6463.2,-4.0702e-05,1726.3,-0.00027037,0.70048,0.0073668
7884,1.0941,4.3636,0.1,0.0005686,5682.1,0.0005787,6309.7,-4.8727e-05,1595.5,-0.00026099,0.63958,0.0072462
7885,1.0941,4.5455,0.1,0.00055757,5571.9,0.00056794,6152.2,-5.8651e-05,1444.3,-0.0002508,0.56191,0.0070987
7886,1.0941,4.7273,0.1,0.00054768,5473,0.00055813,5997.3,-7.0786e-05,1271.9,-0.00024,0.45903,0.0069194
7887,1.0941,4.9091,0.1,0.00053981,5394.4,0.00055001,5851.9,-8.5464e-05,1077.2,-0.00022879,0.30956,0.0067026
7888,1.0941,5.0909,0.1,0.00053489,5345.2,0.00054431,5723.4,-0.00010289,860.58,-0.00021741,0.082393,0.0064409
7889,1.0941,5.2727,0.1,0.00053367,5333,0.00054155,5618.2,-0.00012288,625.94,-0.00020623,-0.32785,0.0061254
7890,1.0941,5.4545,0.1,0.00053646,5360.9,0.00054192,5541.6,-0.00014464,383,-0.00019575,-1.0139,0.0057453
7891,1.0941,5.6364,0.1,0.00054311,5427.3,0.00054539,5497.4,-0.00016667,147.32,-0.00018681,-4.0175,0.0052882
7892,1.0941,5.8182,0.1,0.00055626,5558.8,0.00055459,5511.3,-0.00017789,7.6615,-0.00019237,-101.13,0.004741
7893,1.2765,0.18182,0.1,0.00054357,5432,0.00054177,5380.8,-0.00017359,5.8308,-0.00018853,-106.43,0.0066855
7894,1.2765,0.36364,0.1,0.00053378,5334.1,0.00053526,5379.2,-0.00016765,97.861,-0.00018147,-6.0034,0.0073258
7895,1.2765,0.54545,0.1,0.00052975,5293.9,0.00053404,5431.7,-0.00015026,290.15,-0.00018919,-2.3389,0.0078743
7896,1.2765,0.72727,0.1,0.00052892,5285.6,0.00053557,5515.3,-0.0001324,496.46,-0.00019869,-1.6197,0.0083422
7897,1.2765,0.90909,0.1,0.00053142,5310.5,0.00053985,5627,-0.00011524,704.85,-0.00020922,-1.2288,0.0087405
7898,1.2765,1.0909,0.1,0.00053714,5367.7,0.00054676,5762.7,-9.9516e-05,906.88,-0.00022035,-1.0155,0.0090787
7899,1.2765,1.2727,0.1,0.00054562,5452.5,0.00055591,5917.2,-8.5532e-05,1097.7,-0.00023174,-0.87725,0.0093653
7900,1.2765,1.4545,0.1,0.00055618,5558,0.00056676,6084.1,-7.3335e-05,1274.6,-0.00024308,-0.78287,0.0096071
7901,1.2765,1.6364,0.1,0.00056805,5676.6,0.00057866,6256.3,-6.286e-05,1436.2,-0.0002541,-0.71086,0.0098102
7902,1.2765,1.8182,0.1,0.00058048,5800.8,0.00059095,6426.8,-5.4039e-05,1580.6,-0.00026449,-0.65286,0.0099792
7903,1.2765,2,0.1,0.00059277,5923.6,0.00060304,6589,-4.6842e-05,1706.1,-0.00027399,-0.60801,0.010118
7904,1.2765,2.1818,0.1,0.00060428,6038.6,0.00061432,6736.4,-4.1239e-05,1810.7,-0.00028231,-0.57825,0.01023
7905,1.2765,2.3636,0.1,0.00061439,6139.6,0.00062426,6862.9,-3.7146e-05,1893.4,-0.00028921,-0.56474,0.010318
7906,1.2765,2.5455,0.1,0.00062255,6221.2,0.0006323,6963.2,-3.4394e-05,1954,-0.00029453,-0.56523,0.010382
7907,1.2765,2.7273,0.1,0.00062829,6278.6,0.00063796,7032.9,-3.2754e-05,1993.3,-0.00029813,-0.57255,0.010425
7908,1.2765,2.9091,0.1,0.00063126,6308.2,0.0006409,7068.5,-3.2002e-05,2012.6,-0.00029994,-0.57868,0.010446
7909,1.2765,3.0909,0.1,0.00063126,6308.2,0.0006409,7068.5,-3.2002e-05,2012.6,-0.00029994,-0.57868,0.010446
7910,1.2765,3.2727,0.1,0.00062829,6278.6,0.00063796,7032.9,-3.2754e-05,1993.3,-0.00029813,-0.57255,0.010425
7911,1.2765,3.4545,0.1,0.00062255,6221.2,0.0006323,6963.2,-3.4394e-05,1954,-0.00029453,-0.56523,0.010382
7912,1.2765,3.6364,0.1,0.00061439,6139.6,0.00062426,6862.9,-3.7146e-05,1893.4,-0.00028921,-0.56474,0.010318
7913,1.2765,3.8182,0.1,0.00060428,6038.6,0.00061432,6736.4,-4.1239e-05,1810.7,-0.00028231,-0.57825,0.01023
7914,1.2765,4,0.1,0.00059277,5923.6,0.00060304,6589,-4.6842e-05,1706.1,-0.00027399,-0.60801,0.010118
7915,1.2765,4.1818,0.1,0.00058048,5800.8,0.00059095,6426.8,-5.4039e-05,1580.6,-0.00026449,-0.65286,0.0099792
7916,1.2765,4.3636,0.1,0.00056805,5676.6,0.00057866,6256.3,-6.286e-05,1436.2,-0.0002541,-0.71086,0.0098102
7917,1.2765,4.5455,0.1,0.00055618,5558,0.00056676,6084.1,-7.3335e-05,1274.6,-0.00024308,-0.78287,0.0096071
7918,1.2765,4.7273,0.1,0.00054562,5452.5,0.00055591,5917.2,-8.5532e-05,1097.7,-0.00023174,-0.87725,0.0093653
7919,1.2765,4.9091,0.1,0.00053714,5367.7,0.00054676,5762.7,-9.9516e-05,906.88,-0.00022035,-1.0155,0.0090787
7920,1.2765,5.0909,0.1,0.00053142,5310.5,0.00053985,5627,-0.00011524,704.85,-0.00020922,-1.2288,0.0087405
7921,1.2765,5.2727,0.1,0.00052892,5285.6,0.00053557,5515.3,-0.0001324,496.46,-0.00019869,-1.6197,0.0083422
7922,1.2765,5.4545,0.1,0.00052975,5293.9,0.00053404,5431.7,-0.00015026,290.15,-0.00018919,-2.3389,0.0078743
7923,1.2765,5.6364,0.1,0.00053378,5334.1,0.00053526,5379.2,-0.00016765,97.86,-0.00018147,-6.0034,0.0073258
7924,1.2765,5.8182,0.1,0.00054357,5432,0.00054177,5380.8,-0.00017359,5.8308,-0.00018853,-106.44,0.0066855
7925,1.4588,0.18182,0.1,0.00052445,5240.8,0.00052246,5184.6,-0.00016692,4.8494,-0.00018291,-115.33,0.0089693
7926,1.4588,0.36364,0.1,0.0005179,5175.4,0.00051867,5198.5,-0.00016574,56.213,-0.00017446,-9.3664,0.0096997
7927,1.4588,0.54545,0.1,0.000517,5166.4,0.0005202,5266.8,-0.00015279,210.21,-0.00018115,-2.8782,0.010339
7928,1.4588,0.72727,0.1,0.00051918,5188.3,0.0005246,5368.2,-0.00013888,383.06,-0.0001901,-1.7789,0.010897
7929,1.4588,0.90909,0.1,0.00052445,5240.9,0.00053173,5499.4,-0.00012511,564.16,-0.00020036,-1.2419,0.011382
7930,1.4588,1.0909,0.1,0.00053267,5323,0.0005414,5656.6,-0.00011198,747.39,-0.00021157,-0.94136,0.011804
7931,1.4588,1.2727,0.1,0.00054343,5430.6,0.00055322,5834.6,-9.971e-05,928.75,-0.00022342,-0.74573,0.012169
7932,1.4588,1.4545,0.1,0.00055615,5557.7,0.00056662,6026.9,-8.8407e-05,1105.2,-0.00023558,-0.61041,0.012483
7933,1.4588,1.6364,0.1,0.00057015,5697.5,0.00058101,6226.2,-7.8153e-05,1273.5,-0.00024771,-0.50651,0.012751
7934,1.4588,1.8182,0.1,0.00058471,5843,0.00059574,6424.8,-6.9112e-05,1429.4,-0.00025941,-0.4222,0.012979
7935,1.4588,2,0.1,0.00059914,5987.3,0.00061019,6615,-6.1513e-05,1568.1,-0.00027027,-0.35579,0.013169
7936,1.4588,2.1818,0.1,0.00061274,6123.2,0.00062374,6789.1,-5.5554e-05,1685.1,-0.00027987,-0.31558,0.013325
7937,1.4588,2.3636,0.1,0.00062479,6243.6,0.00063573,6939.4,-5.1279e-05,1777.5,-0.00028789,-0.30451,0.013448
7938,1.4588,2.5455,0.1,0.0006346,6341.6,0.0006455,7059.1,-4.8525e-05,1844.5,-0.00029405,-0.31315,0.01354
7939,1.4588,2.7273,0.1,0.00064153,6410.9,0.00065242,7142.5,-4.6979e-05,1887.4,-0.00029823,-0.32985,0.013601
7940,1.4588,2.9091,0.1,0.00064512,6446.8,0.00065601,7185.2,-4.631e-05,1908.2,-0.00030033,-0.34228,0.013632
7941,1.4588,3.0909,0.1,0.00064512,6446.8,0.00065601,7185.2,-4.631e-05,1908.2,-0.00030033,-0.34228,0.013632
7942,1.4588,3.2727,0.1,0.00064153,6410.9,0.00065242,7142.5,-4.6979e-05,1887.4,-0.00029823,-0.32985,0.013601
7943,1.4588,3.4545,0.1,0.0006346,6341.6,0.0006455,7059.1,-4.8526e-05,1844.5,-0.00029405,-0.31315,0.01354
7944,1.4588,3.6364,0.1,0.00062479,6243.6,0.00063573,6939.4,-5.1279e-05,1777.5,-0.00028789,-0.30451,0.013448
7945,1.4588,3.8182,0.1,0.00061274,6123.2,0.00062374,6789.1,-5.5554e-05,1685.1,-0.00027987,-0.31558,0.013325
7946,1.4588,4,0.1,0.00059914,5987.3,0.00061019,6615,-6.1513e-05,1568.1,-0.00027027,-0.35579,0.013169
7947,1.4588,4.1818,0.1,0.00058471,5843,0.00059574,6424.8,-6.9112e-05,1429.4,-0.00025941,-0.4222,0.012979
7948,1.4588,4.3636,0.1,0.00057015,5697.5,0.00058101,6226.2,-7.8154e-05,1273.5,-0.00024771,-0.50651,0.012751
7949,1.4588,4.5455,0.1,0.00055615,5557.7,0.00056663,6026.9,-8.8407e-05,1105.2,-0.00023558,-0.61041,0.012483
7950,1.4588,4.7273,0.1,0.00054343,5430.6,0.00055322,5834.6,-9.971e-05,928.75,-0.00022342,-0.74573,0.012169
7951,1.4588,4.9091,0.1,0.00053267,5323,0.0005414,5656.6,-0.00011198,747.39,-0.00021157,-0.94136,0.011804
7952,1.4588,5.0909,0.1,0.00052445,5240.9,0.00053173,5499.4,-0.00012511,564.16,-0.00020036,-1.2419,0.011382
7953,1.4588,5.2727,0.1,0.00051918,5188.3,0.0005246,5368.2,-0.00013888,383.06,-0.0001901,-1.7789,0.010897
7954,1.4588,5.4545,0.1,0.000517,5166.4,0.0005202,5266.8,-0.00015279,210.21,-0.00018115,-2.8782,0.010339
7955,1.4588,5.6364,0.1,0.0005179,5175.4,0.00051867,5198.5,-0.00016574,56.213,-0.00017446,-9.3664,0.0096997
7956,1.4588,5.8182,0.1,0.00052445,5240.8,0.00052246,5184.6,-0.00016692,4.8494,-0.00018291,-115.33,0.0089693
7957,1.6412,0.18182,0.1,0.00049907,4987.3,0.00049686,4924.6,-0.00015802,4.1645,-0.00017546,-126.94,0.011581
7958,1.6412,0.36364,0.1,0.0004957,4953.6,0.00049578,4956.2,-0.0001604,25.982,-0.00016657,-20.383,0.012399
7959,1.6412,0.54545,0.1,0.00049838,4980.4,0.00050052,5046.2,-0.00015253,139.44,-0.00017171,-4.6924,0.01313
7960,1.6412,0.72727,0.1,0.00050451,5041.7,0.00050863,5174.1,-0.0001428,279.57,-0.00018037,-2.7238,0.01378
7961,1.6412,0.90909,0.1,0.00051391,5135.5,0.00051984,5336.5,-0.00013301,431.19,-0.00019065,-1.9008,0.014359
7962,1.6412,1.0909,0.1,0.00052626,5259,0.00053378,5528.7,-0.00012338,591.02,-0.00020224,-1.4485,0.014871
7963,1.6412,1.2727,0.1,0.00054106,5406.8,0.00054991,5744.9,-0.00011388,757.45,-0.00021484,-1.1589,0.015324
7964,1.6412,1.4545,0.1,0.00055764,5572.5,0.00056757,5977.9,-0.00010445,928.59,-0.00022817,-0.95989,0.015722
7965,1.6412,1.6364,0.1,0.0005753,5749,0.00058603,6219.2,-9.5209e-05,1100.6,-0.0002418,-0.80975,0.016068
7966,1.6412,1.8182,0.1,0.00059335,5929.4,0.00060463,6460,-8.6519e-05,1267,-0.00025524,-0.68607,0.016367
7967,1.6412,2,0.1,0.00061111,6106.8,0.00062272,6691,-7.8946e-05,1418.9,-0.00026787,-0.59511,0.01662
7968,1.6412,2.1818,0.1,0.00062782,6273.9,0.00063964,6902.6,-7.3017e-05,1548,-0.00027912,-0.53479,0.01683
7969,1.6412,2.3636,0.1,0.00064266,6422.2,0.00065461,7085.5,-6.896e-05,1648.9,-0.00028849,-0.50812,0.016999
7970,1.6412,2.5455,0.1,0.00065475,6543,0.0006668,7231,-6.6599e-05,1720.5,-0.00029566,-0.5226,0.017126
7971,1.6412,2.7273,0.1,0.0006633,6628.5,0.00067543,7332,-6.5468e-05,1765.1,-0.00030047,-0.55273,0.017212
7972,1.6412,2.9091,0.1,0.00066773,6672.7,0.0006799,7383.6,-6.5062e-05,1786.2,-0.00030287,-0.57335,0.017255
7973,1.6412,3.0909,0.1,0.00066773,6672.7,0.0006799,7383.6,-6.5062e-05,1786.2,-0.00030287,-0.57335,0.017255
7974,1.6412,3.2727,0.1,0.0006633,6628.5,0.00067543,7332,-6.5468e-05,1765.1,-0.00030047,-0.55273,0.017212
7975,1.6412,3.4545,0.1,0.00065475,6543,0.0006668,7231,-6.6599e-05,1720.5,-0.00029566,-0.5226,0.017126
7976,1.6412,3.6364,0.1,0.00064266,6422.2,0.00065461,7085.5,-6.896e-05,1648.9,-0.00028849,-0.50812,0.016999
7977,1.6412,3.8182,0.1,0.00062782,6273.9,0.00063964,6902.6,-7.3017e-05,1548,-0.00027912,-0.53479,0.01683
7978,1.6412,4,0.1,0.00061111,6106.8,0.00062272,6691,-7.8946e-05,1418.9,-0.00026787,-0.59511,0.01662
7979,1.6412,4.1818,0.1,0.00059335,5929.4,0.00060463,6460,-8.652e-05,1267,-0.00025524,-0.68607,0.016367
7980,1.6412,4.3636,0.1,0.0005753,5749,0.00058603,6219.2,-9.5209e-05,1100.6,-0.0002418,-0.80975,0.016068
7981,1.6412,4.5455,0.1,0.00055764,5572.5,0.00056757,5977.9,-0.00010445,928.59,-0.00022817,-0.95989,0.015722
7982,1.6412,4.7273,0.1,0.00054106,5406.8,0.00054991,5744.9,-0.00011388,757.45,-0.00021484,-1.1589,0.015324
7983,1.6412,4.9091,0.1,0.00052626,5259,0.00053378,5528.7,-0.00012338,591.02,-0.00020224,-1.4485,0.014871
7984,1.6412,5.0909,0.1,0.00051391,5135.5,0.00051984,5336.5,-0.00013301,431.19,-0.00019065,-1.9008,0.014359
7985,1.6412,5.2727,0.1,0.00050451,5041.7,0.00050863,5174.1,-0.0001428,279.57,-0.00018037,-2.7238,0.01378
7986,1.6412,5.4545,0.1,0.00049838,4980.4,0.00050052,5046.2,-0.00015253,139.44,-0.00017171,-4.6924,0.01313
7987,1.6412,5.6364,0.1,0.0004957,4953.6,0.00049578,4956.2,-0.0001604,25.982,-0.00016657,-20.383,0.012399
7988,1.6412,5.8182,0.1,0.00049907,4987.3,0.00049686,4924.6,-0.00015802,4.1645,-0.00017546,-126.94,0.011581
7989,1.8235,0.18182,0.1,0.00046723,4669,0.00046475,4599.5,-0.00014688,3.9281,-0.000166,-139.69,0.014503
7990,1.8235,0.36364,0.1,0.00046695,4666.3,0.0004664,4650.5,-0.0001508,13.14,-0.00015843,-44.218,0.015408
7991,1.8235,0.54545,0.1,0.00047367,4733.5,0.00047479,4767.3,-0.00014927,78.383,-0.00016097,-9.4875,0.016231
7992,1.8235,0.72727,0.1,0.00048472,4843.9,0.00048748,4930.1,-0.00014436,182.73,-0.00016932,-4.7799,0.016979
7993,1.8235,0.90909,0.1,0.00049966,4993.2,0.00050402,5134.7,-0.00013943,300.01,-0.00017979,-3.1847,0.017657
7994,1.8235,1.0909,0.1,0.00051792,5175.7,0.00052384,5375.7,-0.00013446,429.57,-0.00019194,-2.3491,0.018271
7995,1.8235,1.2727,0.1,0.00053871,5383.4,0.00054613,5646.2,-0.00012898,573.78,-0.00020558,-1.8191,0.018825
7996,1.8235,1.4545,0.1,0.00056113,5607.5,0.00056996,5937.4,-0.00012258,733.97,-0.00022045,-1.4495,0.01932
7997,1.8235,1.6364,0.1,0.00058434,5839.3,0.00059442,6239.1,-0.00011521,907.27,-0.00023611,-1.1653,0.01976
7998,1.8235,1.8182,0.1,0.00060757,6071.5,0.00061868,6540.1,-0.00010741,1084.6,-0.00025188,-0.94509,0.020144
7999,1.8235,2,0.1,0.00063015,6297.1,0.00064201,6828.5,-0.00010022,1251.6,-0.0002669,-0.744,0.020476
8000,1.8235,2.1818,0.1,0.00065128,6508.3,0.00066367,7092,-9.4685e-05,1393.9,-0.00028029,-0.63829,0.020755
8001,1.8235,2.3636,0.1,0.00066998,6695.1,0.00068274,7318.2,-9.1308e-05,1502.4,-0.00029135,-0.65589,0.020981
8002,1.8235,2.5455,0.1,0.00068512,6846.5,0.00069815,7496.5,-8.9842e-05,1575.8,-0.00029966,-0.69209,0.021154
8003,1.8235,2.7273,0.1,0.00069575,6952.7,0.00070897,7618.9,-8.9543e-05,1619.2,-0.00030514,-0.72733,0.021271
8004,1.8235,2.9091,0.1,0.00070121,7007.3,0.00071453,7680.9,-8.9628e-05,1638.8,-0.00030784,-0.7535,0.02133
8005,1.8235,3.0909,0.1,0.00070121,7007.3,0.00071453,7680.9,-8.9628e-05,1638.8,-0.00030784,-0.7535,0.02133
8006,1.8235,3.2727,0.1,0.00069575,6952.7,0.00070897,7618.9,-8.9543e-05,1619.2,-0.00030514,-0.72733,0.021271
8007,1.8235,3.4545,0.1,0.00068512,6846.5,0.00069815,7496.5,-8.9842e-05,1575.8,-0.00029966,-0.69209,0.021154
8008,1.8235,3.6364,0.1,0.00066998,6695.2,0.00068274,7318.3,-9.1308e-05,1502.4,-0.00029135,-0.65589,0.020981
8009,1.8235,3.8182,0.1,0.00065128,6508.3,0.00066367,7092,-9.4685e-05,1393.9,-0.00028029,-0.63829,0.020755
8010,1.8235,4,0.1,0.00063015,6297.1,0.00064201,6828.5,-0.00010022,1251.6,-0.0002669,-0.744,0.020476
8011,1.8235,4.1818,0.1,0.00060757,6071.5,0.00061868,6540.1,-0.00010741,1084.6,-0.00025188,-0.94509,0.020144
8012,1.8235,4.3636,0.1,0.00058434,5839.3,0.00059442,6239.1,-0.00011521,907.27,-0.00023611,-1.1653,0.01976
8013,1.8235,4.5455,0.1,0.00056113,5607.5,0.00056996,5937.4,-0.00012258,733.97,-0.00022045,-1.4495,0.01932
8014,1.8235,4.7273,0.1,0.00053871,5383.4,0.00054613,5646.2,-0.00012898,573.78,-0.00020558,-1.8191,0.018825
8015,1.8235,4.9091,0.1,0.00051792,5175.7,0.00052384,5375.7,-0.00013446,429.57,-0.00019194,-2.3491,0.018271
8016,1.8235,5.0909,0.1,0.00049966,4993.2,0.00050402,5134.7,-0.00013943,300.01,-0.00017979,-3.1847,0.017657
8017,1.8235,5.2727,0.1,0.00048472,4843.9,0.00048748,4930.1,-0.00014436,182.73,-0.00016932,-4.7799,0.016979
8018,1.8235,5.4545,0.1,0.00047367,4733.5,0.00047479,4767.3,-0.00014927,78.383,-0.00016097,-9.4875,0.016231
8019,1.8235,5.6364,0.1,0.00046695,4666.3,0.0004664,4650.5,-0.0001508,13.14,-0.00015843,-44.218,0.015408
8020,1.8235,5.8182,0.1,0.00046723,4669,0.00046475,4599.5,-0.00014688,3.9281,-0.000166,-139.69,0.014503
8021,2.0059,0.18182,0.1,0.00042847,4281.8,0.00042575,4205.9,-0.00013347,4.1657,-0.0001542,-151.65,0.017714
8022,2.0059,0.36364,0.1,0.00043124,4309.5,0.00043013,4277.9,-0.00013793,9.7298,-0.00014876,-71.599,0.018706
8023,2.0059,0.54545,0.1,0.00044259,4422.9,0.00044271,4427,-0.00014183,34.979,-0.00014995,-26.03,0.019624
8024,2.0059,0.72727,0.1,0.00045969,4593.7,0.00046097,4633.1,-0.00014337,92.315,-0.00015722,-11.696,0.020474
8025,2.0059,0.90909,0.1,0.0004818,4814.7,0.00048425,4891.3,-0.00014476,165.13,-0.00016771,-7.2858,0.021262
8026,2.0059,1.0909,0.1,0.000508,5076.5,0.00051173,5195.5,-0.00014609,252.89,-0.00018043,-5.104,0.021991
8027,2.0059,1.2727,0.1,0.00053712,5367.5,0.00054229,5537.9,-0.00014639,363.37,-0.00019525,-3.7164,0.022661
8028,2.0059,1.4545,0.1,0.00056786,5674.6,0.00057468,5908.2,-0.00014458,503.97,-0.00021203,-2.7959,0.023273
8029,2.0059,1.6364,0.1,0.00059899,5985.8,0.00060756,6293.6,-0.00014016,675.5,-0.00023036,-2.1882,0.023825
8030,2.0059,1.8182,0.1,0.00062957,6291.4,0.00063977,6678.8,-0.00013376,866.81,-0.00024934,-1.6687,0.024316
8031,2.0059,2,0.1,0.00065889,6584.4,0.00067042,7047.2,-0.00012713,1054.7,-0.00026769,-1.4454,0.024745
8032,2.0059,2.1818,0.1,0.00068607,6856,0.00069857,7381.1,-0.00012223,1213.9,-0.00028395,-1.258,0.025111
8033,2.0059,2.3636,0.1,0.00070982,7093.3,0.00072299,7663.2,-0.00012002,1329.2,-0.00029705,-0.97329,0.025412
8034,2.0059,2.5455,0.1,0.00072873,7282.3,0.00074235,7880.3,-0.00012003,1400.7,-0.00030658,-0.94532,0.025643
8035,2.0059,2.7273,0.1,0.00074171,7412,0.0007556,8025.2,-0.00012102,1438.7,-0.00031262,-0.99617,0.025801
8036,2.0059,2.9091,0.1,0.00074827,7477.5,0.00076228,8097.2,-0.00012182,1454.3,-0.00031552,-1.0034,0.025882
8037,2.0059,3.0909,0.1,0.00074827,7477.5,0.00076228,8097.2,-0.00012182,1454.3,-0.00031552,-1.0034,0.025882
8038,2.0059,3.2727,0.1,0.00074171,7412,0.0007556,8025.2,-0.00012102,1438.7,-0.00031262,-0.99617,0.025801
8039,2.0059,3.4545,0.1,0.00072873,7282.3,0.00074235,7880.3,-0.00012003,1400.7,-0.00030658,-0.94532,0.025643
8040,2.0059,3.6364,0.1,0.00070982,7093.3,0.00072299,7663.2,-0.00012002,1329.2,-0.00029705,-0.97329,0.025412
8041,2.0059,3.8182,0.1,0.00068607,6856,0.00069857,7381.1,-0.00012223,1213.9,-0.00028395,-1.258,0.025111
8042,2.0059,4,0.1,0.00065889,6584.4,0.00067042,7047.2,-0.00012713,1054.7,-0.00026769,-1.4454,0.024745
8043,2.0059,4.1818,0.1,0.00062957,6291.4,0.00063977,6678.8,-0.00013376,866.81,-0.00024934,-1.6687,0.024316
8044,2.0059,4.3636,0.1,0.00059899,5985.8,0.00060756,6293.6,-0.00014016,675.5,-0.00023036,-2.1882,0.023825
8045,2.0059,4.5455,0.1,0.00056786,5674.6,0.00057468,5908.2,-0.00014458,503.97,-0.00021203,-2.7959,0.023273
8046,2.0059,4.7273,0.1,0.00053712,5367.5,0.00054229,5537.9,-0.00014639,363.37,-0.00019525,-3.7164,0.022661
8047,2.0059,4.9091,0.1,0.000508,5076.5,0.00051173,5195.5,-0.00014609,252.89,-0.00018043,-5.104,0.021991
8048,2.0059,5.0909,0.1,0.0004818,4814.7,0.00048425,4891.3,-0.00014476,165.13,-0.00016771,-7.2858,0.021262
8049,2.0059,5.2727,0.1,0.00045969,4593.7,0.00046097,4633.1,-0.00014337,92.315,-0.00015722,-11.697,0.020474
8050,2.0059,5.4545,0.1,0.00044259,4422.9,0.00044271,4427,-0.00014183,34.979,-0.00014995,-26.03,0.019624
8051,2.0059,5.6364,0.1,0.00043124,4309.5,0.00043013,4277.9,-0.00013793,9.7298,-0.00014876,-71.599,0.018706
8052,2.0059,5.8182,0.1,0.00042847,4281.8,0.00042575,4205.9,-0.00013347,4.1657,-0.0001542,-151.65,0.017714
8053,2.1882,0.18182,0.1,0.00038233,3820.6,0.00037942,3740.3,-0.00011771,5.1434,-0.00013973,-160.35,0.021187
8054,2.1882,0.36364,0.1,0.00038822,3879.5,0.00038667,3836,-0.00012259,9.6577,-0.00013646,-94.603,0.022265
8055,2.1882,0.54545,0.1,0.00040505,4047.7,0.0004042,4024,-0.0001289,18.464,-0.00013996,-64.645,0.023281
8056,2.1882,0.72727,0.1,0.00042964,4293.5,0.00042924,4282.7,-0.00013692,28.797,-0.00014731,-49.263,0.024242
8057,2.1882,0.90909,0.1,0.00046085,4605.3,0.00046083,4605.8,-0.00014668,41.216,-0.00015737,-39.063,0.025151
8058,2.1882,1.0909,0.1,0.00049737,4970.3,0.00049791,4987.4,-0.00015743,63.407,-0.00016959,-27.928,0.02601
8059,2.1882,1.2727,0.1,0.00053768,5373.1,0.00053921,5420.4,-0.00016706,113.75,-0.00018443,-16.737,0.026818
8060,2.1882,1.4545,0.1,0.00057997,5795.7,0.00058314,5895.1,-0.0001729,214.53,-0.00020268,-9.1743,0.02757
8061,2.1882,1.6364,0.1,0.00062224,6218.1,0.00062769,6395.3,-0.00017331,376.94,-0.00022412,-4.8212,0.028261
8062,2.1882,1.8182,0.1,0.00066313,6626.7,0.0006711,6899.4,-0.00016889,588.07,-0.00024756,-3.0236,0.028886
8063,2.1882,2,0.1,0.00070166,7011.7,0.00071188,7380.8,-0.00016264,809.99,-0.00027061,-1.3186,0.029439
8064,2.1882,2.1818,0.1,0.00073691,7364,0.00074875,7810.5,-0.00015833,995.04,-0.00029085,-0.65303,0.029916
8065,2.1882,2.3636,0.1,0.000767,7664.7,0.00077983,8161,-0.00015768,1116.9,-0.00030653,-1.4548,0.030313
8066,2.1882,2.5455,0.1,0.00078984,7893,0.00080323,8416.1,-0.00015967,1181.3,-0.00031708,-1.421,0.030622
8067,2.1882,2.7273,0.1,0.00080468,8041.2,0.00081836,8576.4,-0.00016221,1208.8,-0.00032326,-1.2613,0.030833
8068,2.1882,2.9091,0.1,0.00081183,8112.7,0.00082563,8652.1,-0.00016379,1218,-0.00032606,-1.2346,0.030941
8069,2.1882,3.0909,0.1,0.00081183,8112.7,0.00082563,8652.1,-0.00016379,1218,-0.00032606,-1.2346,0.030941
8070,2.1882,3.2727,0.1,0.00080468,8041.2,0.00081836,8576.4,-0.00016221,1208.8,-0.00032326,-1.2613,0.030833
8071,2.1882,3.4545,0.1,0.00078984,7893,0.00080323,8416.1,-0.00015967,1181.3,-0.00031708,-1.421,0.030622
8072,2.1882,3.6364,0.1,0.000767,7664.7,0.00077983,8161,-0.00015768,1116.9,-0.00030653,-1.4548,0.030313
8073,2.1882,3.8182,0.1,0.00073691,7364,0.00074875,7810.5,-0.00015833,995.04,-0.00029085,-0.65303,0.029916
8074,2.1882,4,0.1,0.00070166,7011.7,0.00071188,7380.8,-0.00016264,809.99,-0.00027061,-1.3186,0.029439
8075,2.1882,4.1818,0.1,0.00066313,6626.7,0.0006711,6899.4,-0.00016889,588.07,-0.00024756,-3.0236,0.028886
8076,2.1882,4.3636,0.1,0.00062224,6218.1,0.00062769,6395.3,-0.00017331,376.94,-0.00022412,-4.8212,0.028261
8077,2.1882,4.5455,0.1,0.00057997,5795.7,0.00058314,5895.1,-0.0001729,214.53,-0.00020268,-9.1743,0.02757
8078,2.1882,4.7273,0.1,0.00053768,5373.1,0.00053921,5420.4,-0.00016706,113.75,-0.00018443,-16.737,0.026818
8079,2.1882,4.9091,0.1,0.00049737,4970.3,0.00049791,4987.4,-0.00015743,63.407,-0.00016959,-27.928,0.02601
8080,2.1882,5.0909,0.1,0.00046085,4605.3,0.00046083,4605.9,-0.00014668,41.216,-0.00015737,-39.063,0.025151
8081,2.1882,5.2727,0.1,0.00042964,4293.5,0.00042924,4282.7,-0.00013692,28.797,-0.00014731,-49.263,0.024242
8082,2.1882,5.4545,0.1,0.00040505,4047.7,0.0004042,4024,-0.0001289,18.464,-0.00013996,-64.645,0.023281
8083,2.1882,5.6364,0.1,0.00038822,3879.5,0.00038667,3836,-0.00012259,9.6577,-0.00013646,-94.603,0.022265
8084,2.1882,5.8182,0.1,0.00038233,3820.6,0.00037942,3740.3,-0.00011771,5.1434,-0.00013973,-160.35,0.021187
8085,2.3706,0.18182,0.1,0.00032844,3282.1,0.00032545,3200.8,-9.9583e-05,7.2435,-0.00012227,-163.24,0.02489
8086,2.3706,0.36364,0.1,0.000338,3377.7,0.00033613,3326,-0.00010499,11.562,-0.00012138,-111.53,0.026054
8087,2.3706,0.54545,0.1,0.00036184,3615.9,0.00035994,3563.5,-0.00011243,14.292,-0.00012972,-115.67,0.027172
8088,2.3706,0.72727,0.1,0.00039589,3956.2,0.00039333,3885.8,-0.00012209,13.089,-0.00014365,-148.88,0.028251
8089,2.3706,0.90909,0.1,0.00043838,4380.8,0.00043484,4284,-0.0001338,11.428,-0.00016161,-197.49,0.029295
8090,2.3706,1.0909,0.1,0.00048783,4874.9,0.00048338,4753.9,-0.0001479,10.649,-0.00018163,-242.79,0.030305
8091,2.3706,1.2727,0.1,0.00054271,5423.3,0.00053798,5294.4,-0.00016513,11.482,-0.00020116,-259.24,0.031276
8092,2.3706,1.4545,0.1,0.00060095,6005.4,0.00059721,5902,-0.00018623,15.501,-0.00021699,-215.68,0.032201
8093,2.3706,1.6364,0.1,0.00065972,6592.6,0.00065864,6562.7,-0.00021013,35.178,-0.0002272,-93.084,0.033067
8094,2.3706,1.8182,0.1,0.00071531,7148.1,0.00071832,7241.6,-0.00021794,206.86,-0.00024746,-14.877,0.033861
8095,2.3706,2,0.1,0.00076701,7664.8,0.00077391,7890.8,-0.0002118,484.5,-0.00027745,-8.7921,0.034574
8096,2.3706,2.1818,0.1,0.0008128,8122.4,0.00082243,8452.3,-0.00020732,715.2,-0.00030344,-7.0423,0.035197
8097,2.3706,2.3636,0.1,0.00084921,8486.3,0.00086041,8877.1,-0.00020831,847.21,-0.00032129,-1.6841,0.035719
8098,2.3706,2.5455,0.1,0.00087419,8735.9,0.00088596,9149.3,-0.00021216,898.47,-0.000332,-1.9013,0.036127
8099,2.3706,2.7273,0.1,0.00088817,8875.6,0.00090013,9295.6,-0.00021564,912.14,-0.00033724,-1.5417,0.036408
8100,2.3706,2.9091,0.1,0.00089412,8935,0.00090612,9356.3,-0.00021742,914.41,-0.00033929,-1.2724,0.03655
8101,2.3706,3.0909,0.1,0.00089412,8935,0.00090612,9356.3,-0.00021742,914.41,-0.00033929,-1.2724,0.03655
8102,2.3706,3.2727,0.1,0.00088817,8875.6,0.00090013,9295.6,-0.00021564,912.14,-0.00033724,-1.5417,0.036408
8103,2.3706,3.4545,0.1,0.00087419,8735.9,0.00088596,9149.3,-0.00021216,898.47,-0.000332,-1.9013,0.036127
8104,2.3706,3.6364,0.1,0.00084922,8486.3,0.00086041,8877.1,-0.00020831,847.21,-0.00032129,-1.6841,0.035719
8105,2.3706,3.8182,0.1,0.0008128,8122.4,0.00082243,8452.4,-0.00020732,715.2,-0.00030344,-7.0423,0.035197
8106,2.3706,4,0.1,0.00076701,7664.8,0.00077391,7890.8,-0.0002118,484.5,-0.00027745,-8.7921,0.034574
8107,2.3706,4.1818,0.1,0.00071531,7148.1,0.00071832,7241.6,-0.00021794,206.86,-0.00024746,-14.877,0.033861
8108,2.3706,4.3636,0.1,0.00065972,6592.6,0.00065864,6562.7,-0.00021013,35.178,-0.0002272,-93.084,0.033067
8109,2.3706,4.5455,0.1,0.00060095,6005.4,0.00059722,5902,-0.00018623,15.501,-0.00021699,-215.68,0.032201
8110,2.3706,4.7273,0.1,0.00054271,5423.3,0.00053798,5294.4,-0.00016513,11.482,-0.00020116,-259.24,0.031276
8111,2.3706,4.9091,0.1,0.00048783,4874.9,0.00048338,4753.9,-0.0001479,10.649,-0.00018163,-242.79,0.030305
8112,2.3706,5.0909,0.1,0.00043838,4380.8,0.00043484,4284,-0.0001338,11.428,-0.00016161,-197.49,0.029295
8113,2.3706,5.2727,0.1,0.00039589,3956.2,0.00039333,3885.8,-0.00012209,13.089,-0.00014365,-148.88,0.028251
8114,2.3706,5.4545,0.1,0.00036184,3615.9,0.00035994,3563.5,-0.00011243,14.292,-0.00012972,-115.67,0.027172
8115,2.3706,5.6364,0.1,0.000338,3377.7,0.00033613,3326,-0.00010499,11.562,-0.00012138,-111.53,0.026054
8116,2.3706,5.8182,0.1,0.00032844,3282.1,0.00032545,3200.8,-9.9583e-05,7.2435,-0.00012227,-163.24,0.02489
8117,2.5529,0.18182,0.1,0.00026677,2665.9,0.00026388,2589,-7.9025e-05,12.48,-0.00010173,-158.1,0.028783
8118,2.5529,0.36364,0.1,0.00028203,2818.4,0.00027987,2760.1,-8.5338e-05,16.086,-0.0001044,-127.16,0.030032
8119,2.5529,0.54545,0.1,0.00031587,3156.6,0.00031251,3066.6,-9.383e-05,13.55,-0.00012014,-184.16,0.031254
8120,2.5529,0.72727,0.1,0.00036202,3617.7,0.0003562,3465.5,-0.00010371,9.8827,-0.00014428,-294.93,0.03246
8121,2.5529,0.90909,0.1,0.00041787,4175.8,0.00040879,3943.5,-0.000115,7.9596,-0.00017421,-436.9,0.033655
8122,2.5529,1.0909,0.1,0.00048244,4821,0.00046978,4502.9,-0.00012852,7.499,-0.00020783,-588.41,0.034838
8123,2.5529,1.2727,0.1,0.0005554,5550.2,0.00053966,5157.5,-0.00014573,7.6598,-0.00024273,-721.12,0.036005
8124,2.5529,1.4545,0.1,0.00063626,6358.2,0.00061916,5928.9,-0.00016887,7.9679,-0.00027521,-790.98,0.037143
8125,2.5529,1.6364,0.1,0.00071939,7188.9,0.00070479,6814.3,-0.00019959,19.119,-0.00029695,-712.46,0.038233
8126,2.5529,1.8182,0.1,0.00079902,7984.7,0.0007913,7775.1,-0.00024115,17.659,-0.00029927,-419.06,0.039251
8127,2.5529,2,0.1,0.00087035,8697.5,0.00087076,8710.4,-0.00027959,67.133,-0.0002939,-40.401,0.040175
8128,2.5529,2.1818,0.1,0.00092857,9279.3,0.00093419,9453.7,-0.00027741,350.16,-0.00032294,8.0949,0.040989
8129,2.5529,2.3636,0.1,0.00097014,9694.7,0.00097739,9926.6,-0.00027825,492.26,-0.00034495,-8.8775,0.041675
8130,2.5529,2.5455,0.1,0.00098849,9878,0.00099638,10131,-0.00028161,528.43,-0.00035217,-1.7573,0.04221
8131,2.5529,2.7273,0.1,0.00099366,9929.7,0.0010017,10186,-0.00028267,536.1,-0.00035423,-1.585,0.042577
8132,2.5529,2.9091,0.1,0.00099406,9933.7,0.0010021,10191,-0.00028274,537.3,-0.00035437,-0.92516,0.042763
8133,2.5529,3.0909,0.1,0.00099406,9933.7,0.0010021,10191,-0.00028274,537.3,-0.00035437,-0.92516,0.042763
8134,2.5529,3.2727,0.1,0.00099366,9929.7,0.0010017,10186,-0.00028267,536.1,-0.00035423,-1.585,0.042577
8135,2.5529,3.4545,0.1,0.00098849,9878,0.00099638,10131,-0.00028161,528.43,-0.00035217,-1.7573,0.04221
8136,2.5529,3.6364,0.1,0.00097014,9694.7,0.00097739,9926.6,-0.00027825,492.26,-0.00034495,-8.8775,0.041675
8137,2.5529,3.8182,0.1,0.00092857,9279.3,0.00093419,9453.7,-0.00027741,350.16,-0.00032294,8.0949,0.040989
8138,2.5529,4,0.1,0.00087035,8697.5,0.00087076,8710.4,-0.00027959,67.133,-0.0002939,-40.401,0.040175
8139,2.5529,4.1818,0.1,0.00079902,7984.7,0.0007913,7775.1,-0.00024115,17.659,-0.00029927,-419.06,0.039251
8140,2.5529,4.3636,0.1,0.00071939,7188.9,0.00070479,6814.3,-0.00019959,19.119,-0.00029695,-712.46,0.038233
8141,2.5529,4.5455,0.1,0.00063626,6358.2,0.00061916,5928.9,-0.00016887,7.968,-0.00027521,-790.98,0.037143
8142,2.5529,4.7273,0.1,0.0005554,5550.2,0.00053966,5157.5,-0.00014573,7.6599,-0.00024273,-721.12,0.036005
8143,2.5529,4.9091,0.1,0.00048244,4821,0.00046978,4502.9,-0.00012852,7.499,-0.00020783,-588.41,0.034838
8144,2.5529,5.0909,0.1,0.00041787,4175.8,0.00040879,3943.5,-0.000115,7.9596,-0.00017421,-436.9,0.033655
8145,2.5529,5.2727,0.1,0.00036202,3617.7,0.0003562,3465.5,-0.00010371,9.8827,-0.00014428,-294.93,0.03246
8146,2.5529,5.4545,0.1,0.00031587,3156.6,0.00031251,3066.6,-9.383e-05,13.55,-0.00012014,-184.16,0.031254
8147,2.5529,5.6364,0.1,0.00028203,2818.4,0.00027987,2760.1,-8.5338e-05,16.086,-0.0001044,-127.16,0.030032
8148,2.5529,5.8182,0.1,0.00026677,2665.9,0.00026388,2589,-7.9025e-05,12.48,-0.00010173,-158.1,0.028783
8149,2.7353,0.18182,0.1,0.00019865,1985.1,0.00019585,1913.9,-5.6116e-05,20.681,-7.9083e-05,-151.89,0.032824
8150,2.7353,0.36364,0.1,0.00022606,2259,0.00022292,2178.1,-6.4562e-05,18,-8.9373e-05,-168.42,0.034154
8151,2.7353,0.54545,0.1,0.0002754,2752.1,0.00026887,2587.6,-7.4155e-05,10.228,-0.00011691,-311.03,0.035482
8152,2.7353,0.72727,0.1,0.00033632,3360.9,0.00032443,3072,-8.3656e-05,5.7653,-0.0001538,-521.24,0.036821
8153,2.7353,0.90909,0.1,0.0004065,4062.2,0.00038782,3621.9,-9.3697e-05,3.9326,-0.00019705,-772.59,0.03818
8154,2.7353,1.0909,0.1,0.00048695,4866.1,0.00046037,4253.5,-0.00010536,2.8487,-0.00024606,-1054.3,0.03956
8155,2.7353,1.2727,0.1,0.00058091,5805.1,0.00054575,5006.4,-0.00012018,2.9073,-0.00030136,-1358.4,0.040958
8156,2.7353,1.4545,0.1,0.00069099,6905.1,0.00064834,5939.4,-0.00014156,4.4577,-0.00036032,-1639.2,0.04236
8157,2.7353,1.6364,0.1,0.00082022,8196.6,0.0007747,7148,-0.00017678,-1.051,-0.00041593,-1798,0.043741
8158,2.7353,1.8182,0.1,0.00095925,9585.9,0.00092138,8669.8,-0.00023397,-11.049,-0.00044785,-1618,0.045064
8159,2.7353,2,0.1,0.0010548,10541,0.0010384,10088,-0.00031755,-99.656,-0.0004073,-773.94,0.04628
8160,2.7353,2.1818,0.1,0.0011323,11315,0.001128,11192,-0.00036816,-49.803,-0.00038738,-194.17,0.047351
8161,2.7353,2.3636,0.1,0.0011494,11486,0.0011496,11494,-0.00037324,51.39,-0.00038479,-35.447,0.04825
8162,2.7353,2.5455,0.1,0.0011358,11351,0.0011367,11377,-0.00036809,70.235,-0.00037975,-17.372,0.048942
8163,2.7353,2.7273,0.1,0.001115,11143,0.0011166,11188,-0.00035981,95.389,-0.00037297,-3.5094,0.049408
8164,2.7353,2.9091,0.1,0.0011028,11020,0.0011046,11074,-0.00035482,108.79,-0.00036929,0.014232,0.049642
8165,2.7353,3.0909,0.1,0.0011028,11020,0.0011046,11074,-0.00035482,108.79,-0.00036929,0.014232,0.049642
8166,2.7353,3.2727,0.1,0.001115,11143,0.0011166,11188,-0.00035981,95.389,-0.00037297,-3.5094,0.049408
8167,2.7353,3.4545,0.1,0.0011358,11351,0.0011367,11377,-0.00036809,70.236,-0.00037975,-17.372,0.048942
8168,2.7353,3.6364,0.1,0.0011494,11486,0.0011496,11494,-0.00037324,51.391,-0.00038479,-35.446,0.04825
8169,2.7353,3.8182,0.1,0.0011323,11315,0.001128,11192,-0.00036816,-49.803,-0.00038738,-194.17,0.047351
8170,2.7353,4,0.1,0.0010548,10541,0.0010384,10088,-0.00031755,-99.656,-0.0004073,-773.94,0.04628
8171,2.7353,4.1818,0.1,0.00095926,9585.9,0.00092138,8669.8,-0.00023397,-11.049,-0.00044785,-1618,0.045064
8172,2.7353,4.3636,0.1,0.00082022,8196.6,0.0007747,7148,-0.00017678,-1.051,-0.00041593,-1798,0.043741
8173,2.7353,4.5455,0.1,0.00069099,6905.1,0.00064834,5939.4,-0.00014156,4.4577,-0.00036032,-1639.2,0.04236
8174,2.7353,4.7273,0.1,0.00058091,5805.1,0.00054575,5006.4,-0.00012018,2.9073,-0.00030136,-1358.4,0.040958
8175,2.7353,4.9091,0.1,0.00048695,4866.1,0.00046037,4253.5,-0.00010536,2.8487,-0.00024606,-1054.3,0.03956
8176,2.7353,5.0909,0.1,0.0004065,4062.2,0.00038782,3621.9,-9.3697e-05,3.9326,-0.00019705,-772.59,0.03818
8177,2.7353,5.2727,0.1,0.00033632,3360.9,0.00032443,3072,-8.3656e-05,5.7653,-0.0001538,-521.24,0.036821
8178,2.7353,5.4545,0.1,0.0002754,2752.1,0.00026887,2587.6,-7.4155e-05,10.228,-0.00011691,-311.03,0.035482
8179,2.7353,5.6364,0.1,0.00022606,2259,0.00022292,2178.1,-6.4562e-05,18,-8.9373e-05,-168.42,0.034154
8180,2.7353,5.8182,0.1,0.00019865,1985.1,0.00019585,1913.9,-5.6116e-05,20.681,-7.9083e-05,-151.89,0.032824
8181,2.9176,0.18182,0.1,0.0001347,1346,0.00013039,1252.2,-3.0173e-05,45.78,-6.2847e-05,-199.72,0.036962
8182,2.9176,0.36364,0.1,0.00019404,1939,0.00018542,1741.5,-4.3331e-05,22.694,-9.4338e-05,-360.56,0.038366
8183,2.9176,0.54545,0.1,0.00026651,2663.3,0.0002499,2292.7,-5.3086e-05,16.193,-0.0001399,-636.1,0.039799
8184,2.9176,0.72727,0.1,0.00034506,3448.2,0.00031829,2866.7,-6.1457e-05,13.394,-0.00019168,-965.05,0.041277
8185,2.9176,0.90909,0.1,0.00043163,4313.3,0.00039259,3483.3,-6.9325e-05,12.642,-0.00025011,-1345.7,0.04281
8186,2.9176,1.0909,0.1,0.00053066,5302.9,0.00047678,4177.9,-7.729e-05,14.819,-0.00031782,-1792.4,0.044406
8187,2.9176,1.2727,0.1,0.00065,6495.6,0.00057778,5007,-8.6948e-05,12.466,-0.00039954,-2336.2,0.046065
8188,2.9176,1.4545,0.1,0.00080262,8020.6,0.00070785,6095.7,-9.8615e-05,36.186,-0.00050267,-2999.8,0.047783
8189,2.9176,1.6364,0.1,0.0010218,10211,0.0008958,7643.4,-0.00012352,-15.389,-0.00064714,-3949.7,0.049542
8190,2.9176,1.8182,0.1,0.0013389,13379,0.0012055,10657,-0.00018477,210.59,-0.00080153,-4423.5,0.051294
8191,2.9176,2,0.1,0.0015862,15851,0.0015202,14515,-0.00030774,780.66,-0.00078833,-2830.3,0.05295
8192,2.9176,2.1818,0.1,0.0015113,15102,0.0014923,14592,-0.00044759,17.128,-0.00058117,-986.54,0.054393
8193,2.9176,2.3636,0.1,0.0014055,14046,0.0013929,13702,-0.00042696,28.275,-0.00052221,-687.43,0.055553
8194,2.9176,2.5455,0.1,0.0012943,12934,0.0012858,12696,-0.00040426,-2.3765,-0.00046535,-461.39,0.056412
8195,2.9176,2.7273,0.1,0.0012299,12290,0.0012235,12112,-0.00038774,5.4467,-0.00043556,-353.85,0.056976
8196,2.9176,2.9091,0.1,0.0011995,11987,0.0011942,11834,-0.00038075,1.2037,-0.00042094,-300.72,0.057255
8197,2.9176,3.0909,0.1,0.0011995,11987,0.0011942,11834,-0.00038075,1.2037,-0.00042094,-300.72,0.057255
8198,2.9176,3.2727,0.1,0.0012299,12290,0.0012235,12112,-0.00038774,5.4467,-0.00043556,-353.85,0.056976
8199,2.9176,3.4545,0.1,0.0012943,12934,0.0012858,12696,-0.00040426,-2.3765,-0.00046535,-461.39,0.056412
8200,2.9176,3.6364,0.1,0.0014055,14046,0.0013929,13702,-0.00042696,28.275,-0.00052221,-687.43,0.055553
8201,2.9176,3.8182,0.1,0.0015113,15102,0.0014923,14592,-0.00044759,17.128,-0.00058117,-986.54,0.054393
8202,2.9176,4,0.1,0.0015862,15851,0.0015202,14515,-0.00030774,780.66,-0.00078833,-2830.3,0.05295
8203,2.9176,4.1818,0.1,0.0013389,13379,0.0012055,10657,-0.00018477,210.59,-0.00080153,-4423.5,0.051294
8204,2.9176,4.3636,0.1,0.0010218,10211,0.0008958,7643.4,-0.00012352,-15.389,-0.00064714,-3949.7,0.049542
8205,2.9176,4.5455,0.1,0.00080262,8020.6,0.00070785,6095.7,-9.8615e-05,36.186,-0.00050267,-2999.7,0.047783
8206,2.9176,4.7273,0.1,0.00065,6495.6,0.00057778,5007,-8.6948e-05,12.466,-0.00039954,-2336.2,0.046065
8207,2.9176,4.9091,0.1,0.00053066,5302.9,0.00047678,4177.9,-7.729e-05,14.819,-0.00031782,-1792.4,0.044406
8208,2.9176,5.0909,0.1,0.00043163,4313.3,0.00039259,3483.3,-6.9325e-05,12.642,-0.00025011,-1345.7,0.04281
8209,2.9176,5.2727,0.1,0.00034506,3448.2,0.00031829,2866.7,-6.1457e-05,13.394,-0.00019168,-965.05,0.041277
8210,2.9176,5.4545,0.1,0.00026651,2663.3,0.0002499,2292.7,-5.3086e-05,16.193,-0.0001399,-636.1,0.039799
8211,2.9176,5.6364,0.1,0.00019404,1939,0.00018542,1741.5,-4.3331e-05,22.694,-9.4338e-05,-360.56,0.038366
8212,2.9176,5.8182,0.1,0.0001347,1346,0.00013039,1252.2,-3.0173e-05,45.78,-6.2847e-05,-199.72,0.036962
8213,3.2667,3.8182,0.1,0.0020072,20058,0.0019738,19152,-0.00059522,-150.59,-0.00078599,-1584,0.070726
8214,3.2667,3.6364,0.1,0.0015875,15864,0.0015641,15249,-0.00045842,52.532,-0.00062612,-1207.5,0.072127
8215,3.2667,3.4545,0.1,0.0013948,13939,0.0013775,13470,-0.00041532,-0.60239,-0.00053432,-894.66,0.073118
8216,3.2667,3.2727,0.1,0.0012948,12939,0.001281,12564,-0.00039036,5.7965,-0.00048763,-725.03,0.073751
8217,3.2667,3.0909,0.1,0.001252,12511,0.0012397,12176,-0.00038045,2.8886,-0.00046691,-646.72,0.074061
8218,3.2667,2.9091,0.1,0.001252,12511,0.0012397,12176,-0.00038045,2.8886,-0.00046691,-646.72,0.074061
8219,3.2667,2.7273,0.1,0.0012948,12939,0.001281,12564,-0.00039036,5.7964,-0.00048763,-725.03,0.073751
8220,3.2667,2.5455,0.1,0.0013948,13939,0.0013775,13470,-0.00041532,-0.60237,-0.00053432,-894.67,0.073118
8221,3.2667,2.3636,0.1,0.0015875,15864,0.0015641,15249,-0.00045842,52.532,-0.00062612,-1207.5,0.072127
8222,3.2667,2.1818,0.1,0.0020072,20058,0.0019738,19152,-0.00059522,-150.59,-0.00078599,-1584,0.070726
8223,3.1,3.8182,0.1,0.002027,20256,0.0019941,19363,-0.00060103,-135.71,-0.0007924,-1573.6,0.062348
8224,3.1,3.6364,0.1,0.0015983,15972,0.0015758,15379,-0.00046423,50.629,-0.00062634,-1167.3,0.063741
8225,3.1,3.4545,0.1,0.0014007,13998,0.0013846,13561,-0.00042014,0.39442,-0.00053157,-836.83,0.064724
8226,3.1,3.2727,0.1,0.0012988,12979,0.0012864,12639,-0.00039499,5.9564,-0.00048365,-660.21,0.065352
8227,3.1,3.0909,0.1,0.0012553,12544,0.0012445,12246,-0.00038498,3.0766,-0.00046243,-578.83,0.065659
8228,3.1,2.9091,0.1,0.0012553,12544,0.0012445,12246,-0.00038498,3.0766,-0.00046243,-578.83,0.065659
8229,3.1,2.7273,0.1,0.0012988,12979,0.0012864,12639,-0.00039499,5.9564,-0.00048365,-660.21,0.065352
8230,3.1,2.5455,0.1,0.0014007,13998,0.0013846,13561,-0.00042014,0.39444,-0.00053157,-836.83,0.064724
8231,3.1,2.3636,0.1,0.0015983,15972,0.0015758,15379,-0.00046423,50.629,-0.00062634,-1167.3,0.063741
8232,3.1,2.1818,0.1,0.002027,20256,0.0019941,19363,-0.00060103,-135.71,-0.0007924,-1573.6,0.062348
8233,3.2667,5.8182,0.1,5.6108e-05,560.69,5.3636e-05,497.89,-1.453e-05,-14.286,-2.6095e-05,-101.18,0.04752
8234,3.2667,5.6364,0.1,0.00010289,1028.2,9.6171e-05,870.18,-2.2341e-05,-20.279,-5.3592e-05,-255.08,0.04936
8235,3.2667,5.4545,0.1,0.00014732,1472.2,0.00013496,1197,-2.7091e-05,-20.666,-8.2797e-05,-439.22,0.051243
8236,3.2667,5.2727,0.1,0.00019449,1943.6,0.00017501,1524.5,-3.095e-05,-22.996,-0.00011532,-656.92,0.053176
8237,3.2667,5.0909,0.1,0.00024745,2472.8,0.00021906,1877.7,-3.4411e-05,-26.815,-0.00015287,-916.9,0.055169
8238,3.2667,4.9091,0.1,0.00031009,3098.8,0.00027041,2284.4,-3.7633e-05,-30.097,-0.00019813,-1236,0.057226
8239,3.2667,4.7273,0.1,0.00038857,3883,0.00033418,2781.8,-4.1948e-05,-44.309,-0.00025509,-1645.8,0.059356
8240,3.2667,4.5455,0.1,0.00049786,4975.1,0.0004213,3459.2,-4.4317e-05,-39.273,-0.00033671,-2236.2,0.061563
8241,3.2667,4.3636,0.1,0.00063553,6350.9,0.00053884,4387.4,-6.5303e-05,-151.92,-0.00042709,-2870.2,0.063857
8242,3.2667,4.1818,0.1,0.0011165,11157,0.0008704,6649,-1.1442e-05,23.228,-0.00084398,-6232.1,0.066236
8243,3.2667,4,0.1,0.0029267,29247,0.0028327,27316,-0.00061926,1379.5,-0.0013863,-4383.5,0.068789
8244,3.1,4,0.1,0.0030168,30148,0.0029223,28241,-0.00063187,1536.1,-0.0014288,-4451.4,0.060412
8245,3.1,4.1818,0.1,0.0012068,12059,0.0009584,7449.7,-3.0861e-05,16.738,-0.00089345,-6464.4,0.057839
8246,3.1,4.3636,0.1,0.00071554,7150.4,0.00062052,5175.3,-8.929e-05,-157.87,-0.00046088,-2949.9,0.055501
8247,3.1,4.5455,0.1,0.00057626,5758.6,0.00050244,4249.3,-6.8892e-05,-43.53,-0.00036854,-2295,0.053298
8248,3.1,4.7273,0.1,0.00046353,4632.1,0.00041191,3545.2,-6.6301e-05,-47.923,-0.00028387,-1682.7,0.051232
8249,3.1,4.9091,0.1,0.00038058,3803.2,0.00034327,3002.3,-6.077e-05,-33.56,-0.00022449,-1263.7,0.049294
8250,3.1,5.0909,0.1,0.00031204,3118.3,0.00028537,2531.2,-5.5541e-05,-30.247,-0.00017675,-941,0.047474
8251,3.1,5.2727,0.1,0.00025148,2513.1,0.000233,2095.2,-4.9387e-05,-26.524,-0.00013637,-680.06,0.045762
8252,3.1,5.4545,0.1,0.00019472,1945.8,0.00018274,1665.9,-4.2202e-05,-24.246,-0.00010038,-461.35,0.044146
8253,3.1,5.6364,0.1,0.00013831,1382.1,0.00013153,1215.8,-3.3555e-05,-24.566,-6.6767e-05,-274.1,0.042611
8254,3.1,5.8182,0.1,7.593e-05,758.78,7.3249e-05,689.2,-2.0593e-05,-15.897,-3.3618e-05,-113.76,0.041141
8255,3.2667,0.18182,0.1,5.6108e-05,560.69,5.3636e-05,497.89,-1.453e-05,-14.286,-2.6095e-05,-101.18,0.04752
8256,3.2667,0.36364,0.1,0.00010289,1028.2,9.6171e-05,870.18,-2.2341e-05,-20.279,-5.3592e-05,-255.08,0.04936
8257,3.2667,0.54545,0.1,0.00014732,1472.2,0.00013496,1197,-2.7091e-05,-20.666,-8.2797e-05,-439.22,0.051243
8258,3.2667,0.72727,0.1,0.00019449,1943.6,0.00017501,1524.5,-3.095e-05,-22.996,-0.00011532,-656.92,0.053176
8259,3.2667,0.90909,0.1,0.00024745,2472.8,0.00021906,1877.7,-3.4411e-05,-26.815,-0.00015287,-916.9,0.055169
8260,3.2667,1.0909,0.1,0.00031009,3098.8,0.00027041,2284.4,-3.7633e-05,-30.097,-0.00019813,-1236,0.057226
8261,3.2667,1.2727,0.1,0.00038857,3883,0.00033418,2781.8,-4.1948e-05,-44.309,-0.00025509,-1645.8,0.059356
8262,3.2667,1.4545,0.1,0.00049786,4975.1,0.0004213,3459.2,-4.4317e-05,-39.273,-0.00033671,-2236.2,0.061563
8263,3.2667,1.6364,0.1,0.00063553,6350.9,0.00053884,4387.4,-6.5304e-05,-151.92,-0.00042709,-2870.2,0.063857
8264,3.2667,1.8182,0.1,0.0011165,11157,0.0008704,6649,-1.1442e-05,23.228,-0.00084398,-6232.1,0.066236
8265,3.2667,2,0.1,0.0029267,29247,0.0028327,27316,-0.00061926,1379.5,-0.0013863,-4383.5,0.068789
8266,3.1,2,0.1,0.0030168,30148,0.0029223,28241,-0.00063187,1536.1,-0.0014288,-4451.4,0.060412
8267,3.1,1.8182,0.1,0.0012068,12059,0.0009584,7449.7,-3.0861e-05,16.739,-0.00089345,-6464.4,0.057839
8268,3.1,1.6364,0.1,0.00071554,7150.4,0.00062052,5175.3,-8.9289e-05,-157.87,-0.00046088,-2949.9,0.055501
8269,3.1,1.4545,0.1,0.00057626,5758.6,0.00050244,4249.2,-6.8892e-05,-43.53,-0.00036854,-2295,0.053298
8270,3.1,1.2727,0.1,0.00046353,4632.1,0.00041191,3545.2,-6.6301e-05,-47.923,-0.00028387,-1682.7,0.051232
8271,3.1,1.0909,0.1,0.00038058,3803.2,0.00034327,3002.3,-6.077e-05,-33.56,-0.00022449,-1263.7,0.049294
8272,3.1,0.90909,0.1,0.00031204,3118.3,0.00028537,2531.2,-5.5541e-05,-30.247,-0.00017675,-941,0.047474
8273,3.1,0.72727,0.1,0.00025148,2513.1,0.000233,2095.2,-4.9387e-05,-26.524,-0.00013637,-680.06,0.045762
8274,3.1,0.54545,0.1,0.00019472,1945.8,0.00018274,1665.9,-4.2202e-05,-24.246,-0.00010038,-461.35,0.044146
8275,3.1,0.36364,0.1,0.00013831,1382.1,0.00013153,1215.8,-3.3555e-05,-24.566,-6.6767e-05,-274.1,0.042611
8276,3.1,0.18182,0.1,7.593e-05,758.78,7.3249e-05,689.2,-2.0593e-05,-15.897,-3.3618e-05,-113.76,0.041141
8277,3.2667,6,0.1,7.0967e-06,70.918,5.4715e-06,64.168,2.7259e-06,43.538,-5.0356e-06,-14.778,0.045707
8278,3.4501,6,0.1,6.791e-05,678.63,6.7555e-05,669.05,-2.0832e-05,4.9438,-2.4582e-05,-23.228,0.059496
8279,3.6336,6,0.1,0.0001329,1328.1,0.00013237,1312.9,-4.2819e-05,-3.454,-4.5913e-05,-26.703,0.073344
8280,3.8171,6,0.1,0.00019007,1899.4,0.00018955,1884.5,-6.1342e-05,-0.576,-6.5089e-05,-28.729,0.087286
8281,4.0006,6,0.1,0.00024056,2404,0.00024008,2389.9,-7.7988e-05,0.10608,-8.1723e-05,-27.957,0.10136
8282,4.1841,6,0.1,0.00028414,2839.4,0.00028371,2827.1,-9.2425e-05,0.97431,-9.5927e-05,-25.34,0.11559
8283,4.3676,6,0.1,0.00032085,3206.3,0.00032049,3195.9,-0.00010467,1.398,-0.00010779,-22.08,0.13001
8284,4.551,6,0.1,0.00035104,3508,0.00035074,3499.4,-0.00011478,1.5915,-0.00011748,-18.715,0.14465
8285,4.7345,6,0.1,0.00037527,3750.1,0.00037502,3743,-0.00012293,1.5917,-0.00012522,-15.574,0.15953
8286,4.918,6,0.1,0.00039422,3939.5,0.00039403,3933.8,-0.00012933,1.4752,-0.00013123,-12.794,0.17465
8287,5.1015,6,0.1,0.00040863,4083.5,0.00040847,4078.9,-0.00013422,1.2926,-0.00013578,-10.421,0.19004
8288,5.285,6,0.1,0.0004192,4189.1,0.00041908,4185.5,-0.00013783,1.0823,-0.0001391,-8.4399,0.2057
8289,5.4684,6,0.1,0.00042659,4262.9,0.00042648,4259.9,-0.00014036,0.86895,-0.00014139,-6.8157,0.22165
8290,5.6519,6,0.1,0.00043135,4310.5,0.00043126,4308.1,-0.00014202,0.66778,-0.00014284,-5.5023,0.23788
8291,5.8354,6,0.1,0.00043397,4336.7,0.0004339,4334.7,-0.00014295,0.48695,-0.00014361,-4.4547,0.2544
8292,6.0189,6,0.1,0.00043488,4345.8,0.00043482,4344.1,-0.0001433,0.33002,-0.00014383,-3.6313,0.27121
8293,6.2024,6,0.1,0.0004344,4341,0.00043435,4339.6,-0.00014319,0.19759,-0.00014361,-2.9965,0.28832
8294,6.3858,6,0.1,0.00043283,4325.3,0.00043278,4324.1,-0.0001427,0.088521,-0.00014305,-2.5195,0.30572
8295,6.5693,6,0.1,0.00043038,4300.8,0.00043034,4299.7,-0.00014192,0.00074143,-0.00014221,-2.1746,0.32341
8296,6.7528,6,0.1,0.00042725,4269.5,0.00042721,4268.5,-0.0001409,-0.06824,-0.00014115,-1.94,0.34139
8297,6.9363,6,0.1,0.00042358,4232.8,0.00042354,4231.9,-0.0001397,-0.12099,-0.00013992,-1.7973,0.35965
8298,7.1198,6,0.1,0.00041949,4192,0.00041945,4191,-0.00013836,-0.15998,-0.00013857,-1.7309,0.3782
8299,7.3032,6,0.1,0.00041507,4147.9,0.00041504,4146.9,-0.0001369,-0.18748,-0.00013711,-1.7275,0.39704
8300,7.4867,6,0.1,0.00041041,4101.3,0.00041038,4100.3,-0.00013536,-0.20554,-0.00013557,-1.7757,0.41615
8301,7.6702,6,0.1,0.00040556,4052.8,0.00040552,4051.7,-0.00013376,-0.21598,-0.00013398,-1.8658,0.43554
8302,7.8537,6,0.1,0.00040057,4002.9,0.00040053,4001.8,-0.00013211,-0.22035,-0.00013234,-1.9892,0.4552
8303,8.0372,6,0.1,0.00039547,3951.9,0.00039543,3950.8,-0.00013042,-0.21998,-0.00013067,-2.139,0.47513
8304,8.2206,6,0.1,0.00039029,3900.3,0.00039025,3899,-0.0001287,-0.21597,-0.00012898,-2.309,0.49533
8305,8.4041,6,0.1,0.00038507,3848,0.00038502,3846.7,-0.00012697,-0.20924,-0.00012727,-2.4942,0.51579
8306,8.5876,6,0.1,0.00037981,3795.5,0.00037976,3794,-0.00012522,-0.20052,-0.00012555,-2.6901,0.53651
8307,8.7711,6,0.1,0.00037453,3742.7,0.00037448,3741.2,-0.00012347,-0.1904,-0.00012383,-2.8934,0.55748
8308,8.9546,6,0.1,0.00036924,3689.8,0.00036918,3688.2,-0.00012171,-0.17937,-0.0001221,-3.1011,0.57871
8309,9.1381,6,0.1,0.00036394,3636.9,0.00036389,3635.2,-0.00011995,-0.16779,-0.00012037,-3.3108,0.60018
8310,9.3215,6,0.1,0.00035866,3584.1,0.00035859,3582.3,-0.0001182,-0.15597,-0.00011864,-3.5205,0.6219
8311,9.505,6,0.1,0.00035338,3531.4,0.00035331,3529.4,-0.00011644,-0.14412,-0.00011692,-3.7289,0.64386
8312,9.6885,6,0.1,0.00034811,3478.7,0.00034805,3476.7,-0.00011469,-0.13243,-0.0001152,-3.9347,0.66606
8313,9.872,6,0.1,0.00034287,3426.3,0.00034279,3424.2,-0.00011295,-0.12101,-0.00011349,-4.137,0.68849
8314,10.055,6,0.1,0.00033764,3374,0.00033756,3371.8,-0.00011121,-0.10997,-0.00011178,-4.3353,0.71116
8315,10.239,6,0.1,0.00033242,3321.9,0.00033235,3319.6,-0.00010948,-0.099365,-0.00011007,-4.5291,0.73405
8316,10.422,6,0.1,0.00032723,3270.1,0.00032715,3267.7,-0.00010776,-0.089208,-0.00010838,-4.718,0.75716
8317,10.606,6,0.1,0.00032207,3218.4,0.00032198,3215.9,-0.00010605,-0.07957,-0.00010669,-4.9021,0.78049
8318,10.789,6,0.1,0.00031692,3167,0.00031683,3164.4,-0.00010434,-0.070454,-0.000105,-5.0811,0.80404
8319,10.973,6,0.1,0.00031179,3115.8,0.0003117,3113.1,-0.00010264,-0.061868,-0.00010333,-5.2554,0.8278
8320,11.156,6,0.1,0.00030669,3064.8,0.0003066,3062.1,-0.00010094,-0.053747,-0.00010166,-5.4249,0.85178
8321,11.34,6,0.1,0.00030161,3014,0.00030152,3011.2,-9.9259e-05,-0.046111,-9.9997e-05,-5.5897,0.87595
8322,11.523,6,0.1,0.00029656,2963.5,0.00029646,2960.6,-9.7582e-05,-0.03899,-9.8342e-05,-5.7504,0.90033
8323,11.707,6,0.1,0.00029152,2913.2,0.00029142,2910.2,-9.5912e-05,-0.032283,-9.6694e-05,-5.9069,0.92491
8324,11.89,6,0.1,0.00028651,2863.1,0.00028641,2860.1,-9.425e-05,-0.026007,-9.5053e-05,-6.0596,0.94969
8325,12.074,6,0.1,0.00028152,2813.3,0.00028141,2810.2,-9.2596e-05,-0.02014,-9.342e-05,-6.2088,0.97466
8326,12.257,6,0.1,0.00027655,2763.6,0.00027645,2760.4,-9.0949e-05,-0.014622,-9.1793e-05,-6.3548,0.99981
8327,12.441,6,0.1,0.00027161,2714.2,0.0002715,2711,-8.931e-05,-0.0094722,-9.0174e-05,-6.4979,1.0252
8328,12.624,6,0.1,0.00026669,2665,0.00026657,2661.7,-8.7678e-05,-0.0046588,-8.8561e-05,-6.6385,1.0507
8329,12.808,6,0.1,0.00026179,2616.1,0.00026167,2612.7,-8.6054e-05,-0.00016332,-8.6955e-05,-6.7769,1.0764
8330,12.991,6,0.1,0.00025691,2567.3,0.00025679,2563.8,-8.4436e-05,0.0040857,-8.5357e-05,-6.9132,1.1023
8331,13.175,6,0.1,0.00025205,2518.8,0.00025193,2515.2,-8.2826e-05,0.0080804,-8.3765e-05,-7.0479,1.1283
8332,13.358,6,0.1,0.00024721,2470.4,0.00024709,2466.8,-8.1223e-05,0.011807,-8.2181e-05,-7.1814,1.1545
8333,13.542,6,0.1,0.0002424,2422.3,0.00024227,2418.7,-7.9628e-05,0.015351,-8.0603e-05,-7.3137,1.1809
8334,13.725,6,0.1,0.0002376,2374.4,0.00023748,2370.7,-7.8039e-05,0.018698,-7.9032e-05,-7.4454,1.2075
8335,13.909,6,0.1,0.00023283,2326.7,0.0002327,2322.9,-7.6457e-05,0.021867,-7.7468e-05,-7.5765,1.2342
8336,14.092,6,0.1,0.00022808,2279.2,0.00022795,2275.4,-7.4882e-05,0.024912,-7.5911e-05,-7.7074,1.261
8337,14.276,6,0.1,0.00022335,2232,0.00022322,2228,-7.3314e-05,0.027789,-7.4361e-05,-7.8384,1.288
8338,14.459,6,0.1,0.00021864,2184.9,0.0002185,2180.9,-7.1753e-05,0.030551,-7.2818e-05,-7.9697,1.3152
8339,14.642,6,0.1,0.00021395,2138,0.00021381,2134,-7.0199e-05,0.033242,-7.1282e-05,-8.1016,1.3425
8340,14.826,6,0.1,0.00020928,2091.4,0.00020914,2087.3,-6.8651e-05,0.035837,-6.9752e-05,-8.2342,1.37
8341,15.009,6,0.1,0.00020463,2044.9,0.00020449,2040.7,-6.711e-05,0.038357,-6.8229e-05,-8.3679,1.3976
8342,15.193,6,0.1,0.0002,1998.7,0.00019986,1994.4,-6.5576e-05,0.040815,-6.6713e-05,-8.503,1.4253
8343,15.376,6,0.1,0.0001954,1952.6,0.00019525,1948.3,-6.4049e-05,0.043256,-6.5204e-05,-8.6394,1.4532
8344,15.56,6,0.1,0.00019081,1906.8,0.00019066,1902.4,-6.2528e-05,0.045676,-6.3702e-05,-8.7776,1.4812
8345,15.743,6,0.1,0.00018624,1861.1,0.00018609,1856.7,-6.1013e-05,0.048086,-6.2206e-05,-8.9177,1.5093
8346,15.927,6,0.1,0.00018169,1815.7,0.00018154,1811.1,-5.9505e-05,0.050526,-6.0717e-05,-9.0599,1.5375
8347,16.11,6,0.1,0.00017716,1770.4,0.00017701,1765.8,-5.8003e-05,0.052969,-5.9235e-05,-9.2044,1.5659
8348,16.294,6,0.1,0.00017266,1725.4,0.0001725,1720.7,-5.6508e-05,0.055454,-5.776e-05,-9.3514,1.5944
8349,16.477,6,0.1,0.00016817,1680.5,0.000168,1675.8,-5.5019e-05,0.058018,-5.6291e-05,-9.5011,1.623
8350,16.661,6,0.1,0.0001637,1635.9,0.00016353,1631,-5.3537e-05,0.060645,-5.4829e-05,-9.6535,1.6517
8351,16.844,6,0.1,0.00015925,1591.4,0.00015908,1586.5,-5.206e-05,0.063355,-5.3374e-05,-9.809,1.6805
8352,17.028,6,0.1,0.00015482,1547.1,0.00015465,1542.1,-5.059e-05,0.066168,-5.1926e-05,-9.9675,1.7095
8353,17.211,6,0.1,0.00015041,1503,0.00015023,1498,-4.9126e-05,0.069117,-5.0484e-05,-10.129,1.7385
8354,17.395,6,0.1,0.00014602,1459.2,0.00014584,1454,-4.7668e-05,0.072211,-4.9048e-05,-10.294,1.7676
8355,17.578,6,0.1,0.00014164,1415.5,0.00014146,1410.2,-4.6217e-05,0.075462,-4.7619e-05,-10.463,1.7969
8356,17.762,6,0.1,0.00013729,1371.9,0.00013711,1366.6,-4.4771e-05,0.078915,-4.6197e-05,-10.635,1.8262
8357,17.945,6,0.1,0.00013295,1328.6,0.00013277,1323.2,-4.3331e-05,0.082556,-4.4781e-05,-10.811,1.8556
8358,18.129,6,0.1,0.00012864,1285.5,0.00012845,1280,-4.1897e-05,0.086425,-4.3371e-05,-10.99,1.8851
8359,18.312,6,0.1,0.00012434,1242.5,0.00012415,1236.9,-4.0469e-05,0.090565,-4.1968e-05,-11.173,1.9147
8360,18.496,6,0.1,0.00012006,1199.7,0.00011986,1194.1,-3.9047e-05,0.094977,-4.0571e-05,-11.36,1.9444
8361,18.679,6,0.1,0.00011579,1157.1,0.0001156,1151.4,-3.763e-05,0.099694,-3.9181e-05,-11.55,1.9742
8362,18.863,6,0.1,0.00011155,1114.7,0.00011135,1108.9,-3.6219e-05,0.10474,-3.7796e-05,-11.744,2.004
8363,19.046,6,0.1,0.00010732,1072.5,0.00010712,1066.5,-3.4814e-05,0.11017,-3.6418e-05,-11.94,2.0339
8364,19.229,6,0.1,0.00010311,1030.4,0.0001029,1024.3,-3.3414e-05,0.11601,-3.5045e-05,-12.14,2.0639
8365,19.413,6,0.1,9.8919e-05,988.51,9.8705e-05,982.34,-3.202e-05,0.12228,-3.3679e-05,-12.343,2.0939
8366,19.596,6,0.1,9.4743e-05,946.78,9.4525e-05,940.5,-3.0631e-05,0.12906,-3.2318e-05,-12.548,2.124
8367,19.78,6,0.1,9.0583e-05,905.21,9.0362e-05,898.83,-2.9247e-05,0.13635,-3.0963e-05,-12.755,2.1542
8368,19.963,6,0.1,8.644e-05,863.8,8.6214e-05,857.32,-2.7868e-05,0.14422,-2.9613e-05,-12.964,2.1844
8369,20.147,6,0.1,8.2312e-05,822.56,8.2083e-05,815.97,-2.6495e-05,0.15274,-2.8269e-05,-13.173,2.2147
8370,20.33,6,0.1,7.8201e-05,781.47,7.7967e-05,774.77,-2.5127e-05,0.16195,-2.693e-05,-13.383,2.245
8371,20.514,6,0.1,7.4105e-05,740.54,7.3867e-05,733.73,-2.3764e-05,0.17194,-2.5596e-05,-13.592,2.2754
8372,20.697,6,0.1,7.0024e-05,699.76,6.9782e-05,692.84,-2.2406e-05,0.18276,-2.4266e-05,-13.799,2.3059
8373,20.881,6,0.1,6.5958e-05,659.13,6.5712e-05,652.11,-2.1053e-05,0.19453,-2.2942e-05,-14.003,2.3364
8374,21.064,6,0.1,6.1907e-05,618.65,6.1657e-05,611.52,-1.9704e-05,0.20734,-2.1622e-05,-14.202,2.3669
8375,21.248,6,0.1,5.7872e-05,578.32,5.7617e-05,571.09,-1.8362e-05,0.22131,-2.0307e-05,-14.395,2.3975
8376,21.431,6,0.1,5.3851e-05,538.14,5.3592e-05,530.82,-1.7024e-05,0.2366,-1.8996e-05,-14.58,2.4281
8377,21.615,6,0.1,4.9846e-05,498.11,4.9582e-05,490.69,-1.5692e-05,0.25337,-1.7689e-05,-14.754,2.4587
8378,21.798,6,0.1,4.5856e-05,458.25,4.5588e-05,450.74,-1.4365e-05,0.27184,-1.6386e-05,-14.913,2.4894
8379,21.982,6,0.1,4.1883e-05,418.54,4.1611e-05,410.95,-1.3044e-05,0.2923,-1.5087e-05,-15.055,2.5201
8380,22.165,6,0.1,3.7927e-05,379.01,3.7651e-05,371.35,-1.173e-05,0.31508,-1.3792e-05,-15.175,2.5508
8381,22.349,6,0.1,3.3991e-05,339.68,3.371e-05,331.94,-1.0423e-05,0.34066,-1.2501e-05,-15.267,2.5816
8382,22.532,6,0.1,3.0076e-05,300.56,2.9791e-05,292.77,-9.1252e-06,0.36962,-1.1214e-05,-15.323,2.6124
8383,22.716,6,0.1,2.6187e-05,261.69,2.5897e-05,253.87,-7.8368e-06,0.40289,-9.931e-06,-15.333,2.6432
8384,22.899,6,0.1,2.2328e-05,223.12,2.2034e-05,215.29,-6.5605e-06,0.44149,-8.6533e-06,-15.283,2.674
8385,23.083,6,0.1,1.8507e-05,184.94,1.8208e-05,177.11,-5.2996e-06,0.48821,-7.381e-06,-15.15,2.7048
8386,23.266,6,0.1,1.4737e-05,147.27,1.4431e-05,139.48,-4.0595e-06,0.54211,-6.1152e-06,-14.903,2.7356
8387,23.45,6,0.1,1.1036e-05,110.28,1.0723e-05,102.59,-2.8479e-06,0.6266,-4.8549e-06,-14.454,2.7665
8388,23.633,6,0.1,7.4521e-06,74.47,7.1229e-06,66.862,-1.6823e-06,0.70235,-3.6109e-06,-13.788,2.7973
8389,23.817,6,0.1,3.996e-06,39.932,3.6676e-06,33.208,-6.1096e-07,1.0608,-2.2817e-06,-11.492,2.8282
8390,24,6,0.1,9.4532e-07,9.4467,7.3908e-07,5.1485,-8.6667e-08,-1.0558,-7.0789e-07,-5.7234,2.859
8391,24,5.8182,0.1,3.9723e-06,39.695,1.9528e-06,6.7055,7.7465e-07,-2.1467,-3.8199e-06,-36.669,2.8592
8392,24,5.6364,0.1,6.7098e-06,67.051,2.8984e-06,7.0861,1.6651e-06,-2.1807,-6.5781e-06,-64.117,2.8593
8393,24,5.4545,0.1,8.8185e-06,88.124,3.6176e-06,7.2079,2.3408e-06,-2.3857,-8.6972e-06,-85.32,2.8595
8394,24,5.2727,0.1,1.0576e-05,105.69,4.2044e-06,7.2463,2.918e-06,-2.419,-1.0461e-05,-102.94,2.8596
8395,24,5.0909,0.1,1.2074e-05,120.65,4.7001e-06,7.2248,3.4115e-06,-2.4568,-1.1963e-05,-117.98,2.8598
8396,24,4.9091,0.1,1.3366e-05,133.57,5.1253e-06,7.1844,3.8392e-06,-2.4789,-1.326e-05,-130.96,2.8599
8397,24,4.7273,0.1,1.4486e-05,144.76,5.4923e-06,7.1339,4.2105e-06,-2.4965,-1.4383e-05,-142.2,2.86
8398,24,4.5455,0.1,1.5456e-05,154.45,5.809e-06,7.0812,4.5325e-06,-2.5096,-1.5355e-05,-151.94,2.8601
8399,24,4.3636,0.1,1.629e-05,162.79,6.081e-06,7.0299,4.81e-06,-2.52,-1.6192e-05,-160.32,2.8602
8400,24,4.1818,0.1,1.7001e-05,169.9,6.3125e-06,6.9823,5.0467e-06,-2.528,-1.6906e-05,-167.47,2.8603
8401,24,4,0.1,1.7598e-05,175.86,6.5065e-06,6.94,5.2455e-06,-2.5344,-1.7504e-05,-173.46,2.8603
8402,24,3.8182,0.1,1.8087e-05,180.74,6.6652e-06,6.9038,5.4084e-06,-2.5393,-1.7994e-05,-178.38,2.8604
8403,24,3.6364,0.1,1.8472e-05,184.6,6.7903e-06,6.8743,5.537e-06,-2.543,-1.8381e-05,-182.25,2.8605
8404,24,3.4545,0.1,1.8759e-05,187.46,6.8832e-06,6.8519,5.6324e-06,-2.5457,-1.8668e-05,-185.13,2.8605
8405,24,3.2727,0.1,1.8948e-05,189.35,6.9446e-06,6.8368,5.6957e-06,-2.5474,-1.8858e-05,-187.03,2.8605
8406,24,3.0909,0.1,1.9043e-05,190.29,6.9752e-06,6.8293,5.7271e-06,-2.5483,-1.8952e-05,-187.98,2.8605
8407,24,2.9091,0.1,1.9043e-05,190.29,6.9752e-06,6.8293,5.7271e-06,-2.5483,-1.8952e-05,-187.98,2.8605
8408,24,2.7273,0.1,1.8948e-05,189.35,6.9446e-06,6.8368,5.6956e-06,-2.5474,-1.8858e-05,-187.03,2.8605
8409,24,2.5455,0.1,1.8759e-05,187.46,6.8832e-06,6.8519,5.6324e-06,-2.5457,-1.8668e-05,-185.13,2.8605
8410,24,2.3636,0.1,1.8472e-05,184.6,6.7903e-06,6.8743,5.537e-06,-2.543,-1.8381e-05,-182.25,2.8605
8411,24,2.1818,0.1,1.8087e-05,180.74,6.6652e-06,6.9038,5.4084e-06,-2.5393,-1.7994e-05,-178.38,2.8604
8412,24,2,0.1,1.7598e-05,175.86,6.5065e-06,6.94,5.2455e-06,-2.5344,-1.7504e-05,-173.46,2.8603
8413,24,1.8182,0.1,1.7001e-05,169.9,6.3125e-06,6.9823,5.0467e-06,-2.528,-1.6906e-05,-167.47,2.8603
8414,24,1.6364,0.1,1.629e-05,162.79,6.081e-06,7.0299,4.81e-06,-2.52,-1.6192e-05,-160.32,2.8602
8415,24,1.4545,0.1,1.5456e-05,154.45,5.809e-06,7.0812,4.5325e-06,-2.5096,-1.5355e-05,-151.94,2.8601
8416,24,1.2727,0.1,1.4486e-05,144.76,5.4923e-06,7.134,4.2105e-06,-2.4965,-1.4383e-05,-142.2,2.86
8417,24,1.0909,0.1,1.3366e-05,133.57,5.1253e-06,7.1844,3.8392e-06,-2.4789,-1.326e-05,-130.96,2.8599
8418,24,0.90909,0.1,1.2074e-05,120.65,4.7001e-06,7.2248,3.4115e-06,-2.4568,-1.1963e-05,-117.98,2.8598
8419,24,0.72727,0.1,1.0576e-05,105.69,4.2044e-06,7.2463,2.918e-06,-2.419,-1.0461e-05,-102.94,2.8596
8420,24,0.54545,0.1,8.8185e-06,88.124,3.6176e-06,7.2079,2.3408e-06,-2.3857,-8.6972e-06,-85.321,2.8595
8421,24,0.36364,0.1,6.7098e-06,67.051,2.8984e-06,7.0861,1.6651e-06,-2.1807,-6.5781e-06,-64.117,2.8593
8422,24,0.18182,0.1,3.9723e-06,39.695,1.9528e-06,6.7055,7.7465e-07,-2.1467,-3.8199e-06,-36.669,2.8592
8423,1.5894e-15,0.18182,0.1,0.00014315,1430.5,0.00018337,2622.2,2.6888e-06,1264.6,-1.5424e-05,1128.5,0
8424,3.1789e-15,0.36364,0.1,0.00024154,2413.7,0.00032055,4737.3,3.7283e-06,2356.8,-4.9385e-06,2291.7,0
8425,4.7683e-15,0.54545,0.1,0.00029264,2924.4,0.00038943,5769.5,2.8168e-06,2864.7,-2.3345e-06,2826,0
8426,6.3578e-15,0.72727,0.1,0.00032505,3248.3,0.00043248,6405.8,1.7428e-06,3169.4,-1.4077e-06,3145.8,0
8427,7.9472e-15,0.90909,0.1,0.00034661,3463.7,0.00046111,6828.9,1.1651e-06,3373.1,-9.3543e-07,3357.3,0
8428,9.5366e-15,1.0909,0.1,0.00036179,3615.4,0.00048126,7126.8,8.1889e-07,3517,-6.5029e-07,3506,0
8429,1.1126e-14,1.2727,0.1,0.0003727,3724.5,0.00049576,7341.2,5.8615e-07,3620.7,-4.5964e-07,3612.9,0
8430,1.2716e-14,1.4545,0.1,0.00038062,3803.6,0.00050627,7496.7,4.2328e-07,3695.9,-3.2446e-07,3690.3,0
8431,1.4305e-14,1.6364,0.1,0.00038633,3860.6,0.00051386,7608.9,3.0503e-07,3750.3,-2.259e-07,3746.3,0
8432,1.5894e-14,1.8182,0.1,0.0003904,3901.3,0.00051927,7688.9,2.178e-07,3788.9,-1.5358e-07,3786.1,0
8433,1.7484e-14,2,0.1,0.00039325,3929.8,0.00052305,7744.7,1.5339e-07,3815.9,-1.0098e-07,3814,0
8434,1.9073e-14,2.1818,0.1,0.00039519,3949.1,0.00052562,7782.8,1.0636e-07,3834.3,-6.3466e-08,3833,0
8435,2.0663e-14,2.3636,0.1,0.00039647,3961.9,0.00052732,7807.8,7.2721e-08,3846.3,-3.7371e-08,3845.5,0
8436,2.2252e-14,2.5455,0.1,0.00039727,3970,0.00052838,7823.6,4.9328e-08,3853.9,-1.9641e-08,3853.4,0
8437,2.3842e-14,2.7273,0.1,0.00039774,3974.6,0.000529,7832.7,3.3767e-08,3858.2,-7.8683e-09,3857.9,0
8438,2.5431e-14,2.9091,0.1,0.00039795,3976.7,0.00052928,7836.8,2.5039e-08,3860.2,-1.0392e-09,3860,0
8439,2.702e-14,3.0909,0.1,0.00039795,3976.7,0.00052928,7836.8,2.504e-08,3860.2,-1.0395e-09,3860,0
8440,2.861e-14,3.2727,0.1,0.00039774,3974.6,0.000529,7832.7,3.3768e-08,3858.2,-7.869e-09,3857.9,0
8441,3.0199e-14,3.4545,0.1,0.00039727,3970,0.00052838,7823.6,4.9329e-08,3853.9,-1.9642e-08,3853.4,0
8442,3.1789e-14,3.6364,0.1,0.00039647,3961.9,0.00052732,7807.8,7.2722e-08,3846.3,-3.7371e-08,3845.5,0
8443,3.3378e-14,3.8182,0.1,0.00039519,3949.1,0.00052562,7782.8,1.0636e-07,3834.3,-6.3467e-08,3833,0
8444,3.4968e-14,4,0.1,0.00039325,3929.8,0.00052305,7744.7,1.5339e-07,3815.9,-1.0098e-07,3814,0
8445,3.6557e-14,4.1818,0.1,0.0003904,3901.3,0.00051927,7688.9,2.178e-07,3788.9,-1.5358e-07,3786.1,0
8446,3.8147e-14,4.3636,0.1,0.00038633,3860.6,0.00051386,7608.9,3.0503e-07,3750.3,-2.259e-07,3746.3,0
8447,3.9736e-14,4.5455,0.1,0.00038062,3803.6,0.00050627,7496.7,4.2328e-07,3695.9,-3.2446e-07,3690.3,0
8448,4.1325e-14,4.7273,0.1,0.0003727,3724.5,0.00049576,7341.2,5.8615e-07,3620.7,-4.5964e-07,3612.8,0
8449,4.2915e-14,4.9091,0.1,0.00036179,3615.4,0.00048126,7126.8,8.1889e-07,3517,-6.503e-07,3506,0
8450,4.4504e-14,5.0909,0.1,0.00034661,3463.7,0.00046111,6828.9,1.1651e-06,3373.1,-9.3544e-07,3357.3,0
8451,4.6094e-14,5.2727,0.1,0.00032505,3248.3,0.00043248,6405.8,1.7428e-06,3169.4,-1.4077e-06,3145.8,0
8452,4.7683e-14,5.4545,0.1,0.00029264,2924.4,0.00038943,5769.5,2.8168e-06,2864.7,-2.3345e-06,2826,0
8453,4.9273e-14,5.6364,0.1,0.00024154,2413.7,0.00032055,4737.3,3.7283e-06,2356.8,-4.9385e-06,2291.7,0
8454,5.0862e-14,5.8182,0.1,0.00014315,1430.5,0.00018337,2622.2,2.6888e-06,1264.6,-1.5424e-05,1128.5,0
8455,24,0,0.1,9.4532e-07,9.4467,7.3907e-07,5.1485,-8.6666e-08,-1.0558,-7.0789e-07,-5.7234,2.859
8456,23.817,0,0.1,3.996e-06,39.932,3.6676e-06,33.208,-6.1096e-07,1.0608,-2.2817e-06,-11.492,2.8282
8457,23.633,0,0.1,7.4521e-06,74.47,7.1229e-06,66.862,-1.6823e-06,0.70236,-3.6109e-06,-13.788,2.7973
8458,23.45,0,0.1,1.1036e-05,110.28,1.0723e-05,102.59,-2.8479e-06,0.6266,-4.8549e-06,-14.454,2.7665
8459,23.266,0,0.1,1.4737e-05,147.27,1.4431e-05,139.48,-4.0595e-06,0.54212,-6.1152e-06,-14.903,2.7356
8460,23.083,0,0.1,1.8507e-05,184.94,1.8208e-05,177.11,-5.2996e-06,0.48821,-7.381e-06,-15.15,2.7048
8461,22.899,0,0.1,2.2328e-05,223.12,2.2034e-05,215.29,-6.5605e-06,0.44149,-8.6533e-06,-15.283,2.674
8462,22.716,0,0.1,2.6187e-05,261.69,2.5897e-05,253.87,-7.8368e-06,0.40289,-9.931e-06,-15.333,2.6432
8463,22.532,0,0.1,3.0076e-05,300.56,2.9791e-05,292.77,-9.1252e-06,0.36962,-1.1214e-05,-15.323,2.6124
8464,22.349,0,0.1,3.3991e-05,339.68,3.371e-05,331.94,-1.0423e-05,0.34065,-1.2501e-05,-15.267,2.5816
8465,22.165,0,0.1,3.7927e-05,379.01,3.7651e-05,371.34,-1.173e-05,0.31509,-1.3792e-05,-15.175,2.5508
8466,21.982,0,0.1,4.1883e-05,418.54,4.1611e-05,410.95,-1.3044e-05,0.2923,-1.5087e-05,-15.055,2.5201
8467,21.798,0,0.1,4.5856e-05,458.25,4.5588e-05,450.74,-1.4365e-05,0.27185,-1.6386e-05,-14.913,2.4894
8468,21.615,0,0.1,4.9846e-05,498.11,4.9582e-05,490.69,-1.5692e-05,0.25337,-1.7689e-05,-14.754,2.4587
8469,21.431,0,0.1,5.3851e-05,538.14,5.3592e-05,530.82,-1.7024e-05,0.2366,-1.8996e-05,-14.58,2.4281
8470,21.248,0,0.1,5.7872e-05,578.32,5.7617e-05,571.09,-1.8362e-05,0.22131,-2.0307e-05,-14.395,2.3975
8471,21.064,0,0.1,6.1907e-05,618.65,6.1657e-05,611.52,-1.9704e-05,0.20734,-2.1622e-05,-14.202,2.3669
8472,20.881,0,0.1,6.5958e-05,659.13,6.5712e-05,652.11,-2.1053e-05,0.19453,-2.2942e-05,-14.003,2.3364
8473,20.697,0,0.1,7.0024e-05,699.75,6.9782e-05,692.84,-2.2406e-05,0.18276,-2.4266e-05,-13.799,2.3059
8474,20.514,0,0.1,7.4105e-05,740.54,7.3867e-05,733.73,-2.3764e-05,0.17194,-2.5596e-05,-13.592,2.2754
8475,20.33,0,0.1,7.8201e-05,781.47,7.7967e-05,774.77,-2.5127e-05,0.16196,-2.693e-05,-13.383,2.2451
8476,20.147,0,0.1,8.2312e-05,822.56,8.2083e-05,815.96,-2.6495e-05,0.15275,-2.8269e-05,-13.173,2.2147
8477,19.963,0,0.1,8.644e-05,863.8,8.6214e-05,857.32,-2.7868e-05,0.14422,-2.9613e-05,-12.964,2.1844
8478,19.78,0,0.1,9.0583e-05,905.21,9.0362e-05,898.83,-2.9247e-05,0.13635,-3.0963e-05,-12.755,2.1542
8479,19.596,0,0.1,9.4743e-05,946.78,9.4525e-05,940.5,-3.0631e-05,0.12906,-3.2318e-05,-12.548,2.124
8480,19.413,0,0.1,9.8919e-05,988.51,9.8705e-05,982.34,-3.202e-05,0.12229,-3.3679e-05,-12.343,2.0939
8481,19.229,0,0.1,0.00010311,1030.4,0.0001029,1024.3,-3.3414e-05,0.11601,-3.5045e-05,-12.14,2.0639
8482,19.046,0,0.1,0.00010732,1072.5,0.00010712,1066.5,-3.4814e-05,0.11017,-3.6418e-05,-11.94,2.0339
8483,18.863,0,0.1,0.00011155,1114.7,0.00011135,1108.9,-3.6219e-05,0.10474,-3.7796e-05,-11.744,2.004
8484,18.679,0,0.1,0.00011579,1157.1,0.0001156,1151.4,-3.763e-05,0.099694,-3.9181e-05,-11.55,1.9742
8485,18.496,0,0.1,0.00012006,1199.7,0.00011986,1194.1,-3.9047e-05,0.094977,-4.0571e-05,-11.36,1.9444
8486,18.312,0,0.1,0.00012434,1242.5,0.00012415,1236.9,-4.0469e-05,0.090568,-4.1968e-05,-11.173,1.9147
8487,18.129,0,0.1,0.00012864,1285.5,0.00012845,1280,-4.1897e-05,0.086426,-4.3371e-05,-10.99,1.8851
8488,17.945,0,0.1,0.00013295,1328.6,0.00013277,1323.2,-4.3331e-05,0.082557,-4.4781e-05,-10.811,1.8556
8489,17.762,0,0.1,0.00013729,1371.9,0.00013711,1366.6,-4.4771e-05,0.078917,-4.6197e-05,-10.635,1.8262
8490,17.578,0,0.1,0.00014164,1415.5,0.00014146,1410.2,-4.6217e-05,0.075467,-4.7619e-05,-10.463,1.7969
8491,17.395,0,0.1,0.00014602,1459.2,0.00014584,1454,-4.7668e-05,0.072211,-4.9048e-05,-10.295,1.7676
8492,17.211,0,0.1,0.00015041,1503,0.00015023,1498,-4.9126e-05,0.069123,-5.0483e-05,-10.129,1.7385
8493,17.028,0,0.1,0.00015482,1547.1,0.00015465,1542.1,-5.059e-05,0.066168,-5.1926e-05,-9.9676,1.7095
8494,16.844,0,0.1,0.00015925,1591.4,0.00015908,1586.5,-5.206e-05,0.063354,-5.3374e-05,-9.809,1.6805
8495,16.661,0,0.1,0.0001637,1635.9,0.00016353,1631,-5.3537e-05,0.060647,-5.4829e-05,-9.6536,1.6517
8496,16.477,0,0.1,0.00016817,1680.5,0.000168,1675.8,-5.5019e-05,0.058018,-5.6291e-05,-9.5011,1.623
8497,16.294,0,0.1,0.00017266,1725.4,0.0001725,1720.7,-5.6508e-05,0.055455,-5.776e-05,-9.3515,1.5944
8498,16.11,0,0.1,0.00017716,1770.4,0.00017701,1765.8,-5.8003e-05,0.05297,-5.9235e-05,-9.2045,1.5659
8499,15.927,0,0.1,0.00018169,1815.7,0.00018154,1811.1,-5.9505e-05,0.050528,-6.0717e-05,-9.06,1.5375
8500,15.743,0,0.1,0.00018624,1861.1,0.00018609,1856.7,-6.1013e-05,0.048087,-6.2206e-05,-8.9178,1.5093
8501,15.56,0,0.1,0.00019081,1906.8,0.00019066,1902.4,-6.2527e-05,0.045677,-6.3702e-05,-8.7777,1.4812
8502,15.376,0,0.1,0.0001954,1952.6,0.00019525,1948.3,-6.4049e-05,0.043257,-6.5204e-05,-8.6395,1.4532
8503,15.193,0,0.1,0.0002,1998.7,0.00019986,1994.4,-6.5576e-05,0.040815,-6.6713e-05,-8.503,1.4253
8504,15.009,0,0.1,0.00020463,2044.9,0.00020449,2040.7,-6.711e-05,0.038357,-6.8229e-05,-8.368,1.3976
8505,14.826,0,0.1,0.00020928,2091.4,0.00020914,2087.3,-6.8651e-05,0.035836,-6.9752e-05,-8.2343,1.37
8506,14.642,0,0.1,0.00021395,2138,0.00021381,2134,-7.0199e-05,0.033243,-7.1282e-05,-8.1016,1.3425
8507,14.459,0,0.1,0.00021864,2184.9,0.0002185,2180.9,-7.1753e-05,0.030552,-7.2818e-05,-7.9698,1.3152
8508,14.276,0,0.1,0.00022335,2232,0.00022322,2228,-7.3314e-05,0.02779,-7.4361e-05,-7.8385,1.288
8509,14.092,0,0.1,0.00022808,2279.2,0.00022795,2275.4,-7.4882e-05,0.024911,-7.5911e-05,-7.7075,1.261
8510,13.909,0,0.1,0.00023283,2326.7,0.0002327,2322.9,-7.6457e-05,0.021868,-7.7468e-05,-7.5766,1.2342
8511,13.725,0,0.1,0.0002376,2374.4,0.00023748,2370.7,-7.8039e-05,0.018698,-7.9032e-05,-7.4454,1.2075
8512,13.542,0,0.1,0.0002424,2422.3,0.00024227,2418.7,-7.9628e-05,0.015351,-8.0603e-05,-7.3138,1.1809
8513,13.358,0,0.1,0.00024721,2470.4,0.00024709,2466.8,-8.1223e-05,0.011808,-8.2181e-05,-7.1814,1.1545
8514,13.175,0,0.1,0.00025205,2518.8,0.00025193,2515.2,-8.2826e-05,0.0080804,-8.3765e-05,-7.048,1.1283
8515,12.991,0,0.1,0.00025691,2567.3,0.00025679,2563.8,-8.4436e-05,0.0040861,-8.5357e-05,-6.9133,1.1023
8516,12.808,0,0.1,0.00026179,2616.1,0.00026167,2612.7,-8.6054e-05,-0.00016327,-8.6955e-05,-6.7769,1.0764
8517,12.624,0,0.1,0.00026669,2665,0.00026657,2661.7,-8.7678e-05,-0.0046578,-8.8561e-05,-6.6385,1.0507
8518,12.441,0,0.1,0.00027161,2714.2,0.0002715,2711,-8.931e-05,-0.0094722,-9.0174e-05,-6.498,1.0252
8519,12.257,0,0.1,0.00027655,2763.6,0.00027645,2760.4,-9.0949e-05,-0.014623,-9.1793e-05,-6.3548,0.99981
8520,12.074,0,0.1,0.00028152,2813.3,0.00028141,2810.2,-9.2596e-05,-0.02014,-9.342e-05,-6.2088,0.97466
8521,11.89,0,0.1,0.00028651,2863.1,0.00028641,2860.1,-9.425e-05,-0.026007,-9.5053e-05,-6.0596,0.94969
8522,11.707,0,0.1,0.00029152,2913.2,0.00029142,2910.2,-9.5912e-05,-0.032282,-9.6694e-05,-5.9069,0.92491
8523,11.523,0,0.1,0.00029656,2963.5,0.00029646,2960.6,-9.7582e-05,-0.038989,-9.8342e-05,-5.7504,0.90033
8524,11.34,0,0.1,0.00030161,3014,0.00030152,3011.2,-9.9259e-05,-0.046111,-9.9997e-05,-5.5898,0.87595
8525,11.156,0,0.1,0.00030669,3064.8,0.0003066,3062.1,-0.00010094,-0.053746,-0.00010166,-5.4249,0.85178
8526,10.973,0,0.1,0.00031179,3115.8,0.0003117,3113.1,-0.00010264,-0.061868,-0.00010333,-5.2555,0.8278
8527,10.789,0,0.1,0.00031692,3167,0.00031683,3164.4,-0.00010434,-0.070453,-0.000105,-5.0812,0.80404
8528,10.606,0,0.1,0.00032207,3218.4,0.00032198,3215.9,-0.00010605,-0.07957,-0.00010669,-4.9021,0.78049
8529,10.422,0,0.1,0.00032723,3270.1,0.00032715,3267.7,-0.00010776,-0.089209,-0.00010838,-4.718,0.75716
8530,10.239,0,0.1,0.00033242,3321.9,0.00033235,3319.6,-0.00010948,-0.099365,-0.00011007,-4.5291,0.73405
8531,10.055,0,0.1,0.00033764,3374,0.00033756,3371.8,-0.00011121,-0.10997,-0.00011178,-4.3354,0.71116
8532,9.872,0,0.1,0.00034287,3426.3,0.00034279,3424.2,-0.00011295,-0.12101,-0.00011349,-4.1371,0.6885
8533,9.6885,0,0.1,0.00034811,3478.7,0.00034804,3476.7,-0.00011469,-0.13243,-0.0001152,-3.9347,0.66606
8534,9.505,0,0.1,0.00035338,3531.4,0.00035331,3529.4,-0.00011644,-0.14412,-0.00011692,-3.7289,0.64386
8535,9.3215,0,0.1,0.00035866,3584.1,0.00035859,3582.3,-0.0001182,-0.15597,-0.00011864,-3.5206,0.6219
8536,9.1381,0,0.1,0.00036394,3636.9,0.00036389,3635.2,-0.00011995,-0.16779,-0.00012037,-3.3108,0.60018
8537,8.9546,0,0.1,0.00036924,3689.8,0.00036918,3688.2,-0.00012171,-0.17937,-0.0001221,-3.1011,0.57871
8538,8.7711,0,0.1,0.00037453,3742.7,0.00037448,3741.2,-0.00012347,-0.1904,-0.00012383,-2.8935,0.55748
8539,8.5876,0,0.1,0.00037981,3795.5,0.00037976,3794,-0.00012522,-0.20052,-0.00012555,-2.6902,0.53651
8540,8.4041,0,0.1,0.00038507,3848,0.00038502,3846.7,-0.00012697,-0.20924,-0.00012727,-2.4942,0.51579
8541,8.2206,0,0.1,0.00039029,3900.2,0.00039025,3899,-0.0001287,-0.21597,-0.00012898,-2.309,0.49533
8542,8.0372,0,0.1,0.00039547,3951.9,0.00039543,3950.8,-0.00013042,-0.21998,-0.00013067,-2.139,0.47513
8543,7.8537,0,0.1,0.00040057,4002.9,0.00040053,4001.8,-0.00013211,-0.22035,-0.00013234,-1.9893,0.4552
8544,7.6702,0,0.1,0.00040556,4052.8,0.00040552,4051.7,-0.00013376,-0.21598,-0.00013398,-1.8658,0.43554
8545,7.4867,0,0.1,0.00041041,4101.3,0.00041038,4100.3,-0.00013536,-0.20554,-0.00013557,-1.7758,0.41615
8546,7.3032,0,0.1,0.00041507,4147.9,0.00041504,4146.9,-0.0001369,-0.18748,-0.00013711,-1.7276,0.39704
8547,7.1198,0,0.1,0.00041949,4192,0.00041945,4191,-0.00013836,-0.15998,-0.00013857,-1.7309,0.3782
8548,6.9363,0,0.1,0.00042358,4232.8,0.00042354,4231.9,-0.0001397,-0.12099,-0.00013992,-1.7973,0.35965
8549,6.7528,0,0.1,0.00042725,4269.5,0.00042721,4268.5,-0.0001409,-0.068241,-0.00014115,-1.94,0.34139
8550,6.5693,0,0.1,0.00043038,4300.8,0.00043034,4299.7,-0.00014192,0.00073984,-0.00014221,-2.1746,0.32341
8551,6.3858,0,0.1,0.00043283,4325.3,0.00043278,4324.1,-0.0001427,0.088519,-0.00014305,-2.5195,0.30572
8552,6.2024,0,0.1,0.0004344,4341,0.00043435,4339.6,-0.00014319,0.19758,-0.00014361,-2.9965,0.28832
8553,6.0189,0,0.1,0.00043488,4345.8,0.00043482,4344.1,-0.0001433,0.33001,-0.00014383,-3.6314,0.27121
8554,5.8354,0,0.1,0.00043397,4336.7,0.0004339,4334.7,-0.00014295,0.48695,-0.00014361,-4.4547,0.2544
8555,5.6519,0,0.1,0.00043135,4310.5,0.00043126,4308.1,-0.00014202,0.66778,-0.00014284,-5.5024,0.23788
8556,5.4684,0,0.1,0.00042659,4262.9,0.00042648,4259.9,-0.00014036,0.86895,-0.00014139,-6.8157,0.22165
8557,5.285,0,0.1,0.0004192,4189.1,0.00041908,4185.5,-0.00013783,1.0823,-0.0001391,-8.44,0.2057
8558,5.1015,0,0.1,0.00040863,4083.5,0.00040847,4078.9,-0.00013422,1.2926,-0.00013578,-10.421,0.19004
8559,4.918,0,0.1,0.00039422,3939.5,0.00039403,3933.8,-0.00012933,1.4752,-0.00013123,-12.795,0.17465
8560,4.7345,0,0.1,0.00037527,3750.1,0.00037502,3743,-0.00012293,1.5917,-0.00012522,-15.574,0.15953
8561,4.551,0,0.1,0.00035104,3508,0.00035074,3499.4,-0.00011478,1.5915,-0.00011748,-18.715,0.14465
8562,4.3676,0,0.1,0.00032085,3206.3,0.00032049,3195.9,-0.00010467,1.398,-0.00010779,-22.08,0.13001
8563,4.1841,0,0.1,0.00028414,2839.4,0.00028371,2827.1,-9.2425e-05,0.9743,-9.5927e-05,-25.34,0.11559
8564,4.0006,0,0.1,0.00024056,2404,0.00024008,2389.9,-7.7988e-05,0.10608,-8.1723e-05,-27.957,0.10136
8565,3.8171,0,0.1,0.00019007,1899.4,0.00018955,1884.5,-6.1342e-05,-0.57601,-6.5089e-05,-28.729,0.087286
8566,3.6336,0,0.1,0.0001329,1328.1,0.00013237,1312.9,-4.2819e-05,-3.454,-4.5913e-05,-26.704,0.073344
8567,3.4501,0,0.1,6.791e-05,678.63,6.7555e-05,669.05,-2.0832e-05,4.9438,-2.4582e-05,-23.228,0.059496
8568,3.2667,0,0.1,7.0967e-06,70.918,5.4715e-06,64.168,2.7259e-06,43.538,-5.0356e-06,-14.778,0.045707
8569,3.1,0,0.1,9.3777e-06,93.712,7.1538e-06,84.199,3.7021e-06,58.264,-6.6808e-06,-19.749,0.039712
8570,2.9176,-6.28e-31,0.1,8.7733e-05,876.72,8.71e-05,859.61,-2.6658e-05,4.8785,-3.2307e-05,-37.562,0.035566
8571,2.7353,-5.8875e-31,0.1,0.00016946,1693.4,0.00016844,1664.4,-5.4018e-05,-7.108,-5.9745e-05,-50.144,0.031478
8572,2.5529,-5.495e-31,0.1,0.00024096,2407.9,0.00023982,2375.5,-7.6847e-05,-3.8425,-8.4329e-05,-60.061,0.027497
8573,2.3706,-5.1025e-31,0.1,0.00030465,3044.4,0.00030343,3009.6,-9.7563e-05,-3.3556,-0.00010581,-65.301,0.02367
8574,2.1882,-4.71e-31,0.1,0.00036053,3602.8,0.00035929,3567.3,-0.00011584,-2.6106,-0.00012446,-67.406,0.020039
8575,2.0059,-4.3175e-31,0.1,0.00040875,4084.7,0.00040751,4048.9,-0.00013169,-2.4068,-0.00014047,-68.393,0.016641
8576,1.8235,-3.925e-31,0.1,0.00044956,4492.5,0.0004483,4456.2,-0.00014511,-2.4966,-0.00015402,-69.445,0.013508
8577,1.6412,-3.5325e-31,0.1,0.00048329,4829.6,0.00048199,4792,-0.00015617,-2.8631,-0.00016531,-71.53,0.010666
8578,1.4588,-3.14e-31,0.1,0.00051025,5099,0.00050887,5059.2,-0.00016492,-3.4213,-0.00017451,-75.452,0.0081389
8579,1.2765,-2.7475e-31,0.1,0.00053056,5301.9,0.00052905,5258.4,-0.00017135,-4.1892,-0.00018172,-82.098,0.005943
8580,1.0941,-2.355e-31,0.1,0.00054397,5435.9,0.00054226,5386.7,-0.00017533,-4.9647,-0.00018697,-92.442,0.0040915
8581,0.91176,-1.9625e-31,0.1,0.00054958,5492,0.00054755,5433.8,-0.00017649,-6.3734,-0.00019009,-108.56,0.0025924
8582,0.72941,-1.57e-31,0.1,0.00054521,5448.4,0.00054274,5377.9,-0.00017387,-6.5004,-0.00019062,-132.3,0.0014479
8583,0.54706,-1.1775e-31,0.1,0.00052608,5257.2,0.00052276,5163.2,-0.00016585,-10.715,-0.00018751,-173.45,0.00065311
8584,0.36471,-7.85e-32,0.1,0.00048235,4820.1,0.00047761,4688.9,-0.0001481,-12.49,-0.00017863,-241.9,0.00019424
8585,0.18235,-3.925e-32,0.1,0.00037891,3786.5,0.00037001,3567.1,-9.9965e-05,35.888,-0.00016213,-431.22,4.7843e-05
8586,0,0,0.1,0.00022205,2219,0.00015205,868.1,-1.2513e-06,-283.72,-0.00018841,-1690,0
8587,3.937e-14,6,0.1,0.00022205,2219,0.00015205,868.1,-1.2513e-06,-283.72,-0.00018841,-1690,0
8588,0.18235,6,0.1,0.00037891,3786.5,0.00037001,3567.1,-9.9965e-05,35.888,-0.00016213,-431.22,4.7843e-05
8589,0.36471,6,0.1,0.00048235,4820.1,0.00047761,4688.9,-0.0001481,-12.49,-0.00017863,-241.9,0.00019424
8590,0.54706,6,0.1,0.00052608,5257.2,0.00052276,5163.2,-0.00016585,-10.715,-0.00018751,-173.45,0.0006531
8591,0.72941,6,0.1,0.00054521,5448.4,0.00054274,5377.9,-0.00017387,-6.5004,-0.00019062,-132.3,0.0014479
8592,0.91176,6,0.1,0.00054958,5492,0.00054755,5433.8,-0.00017649,-6.3734,-0.00019009,-108.56,0.0025924
8593,1.0941,6,0.1,0.00054397,5435.9,0.00054226,5386.7,-0.00017533,-4.9647,-0.00018697,-92.442,0.0040915
8594,1.2765,6,0.1,0.00053056,5301.9,0.00052905,5258.4,-0.00017135,-4.1892,-0.00018172,-82.098,0.005943
8595,1.4588,6,0.1,0.00051025,5099,0.00050887,5059.2,-0.00016492,-3.4213,-0.00017451,-75.452,0.0081389
8596,1.6412,6,0.1,0.00048329,4829.6,0.00048199,4792,-0.00015617,-2.8631,-0.00016531,-71.53,0.010666
8597,1.8235,6,0.1,0.00044956,4492.5,0.0004483,4456.2,-0.00014511,-2.4966,-0.00015402,-69.445,0.013508
8598,2.0059,6,0.1,0.00040875,4084.7,0.00040751,4048.9,-0.00013169,-2.4068,-0.00014047,-68.393,0.016641
8599,2.1882,6,0.1,0.00036053,3602.8,0.00035929,3567.3,-0.00011584,-2.6106,-0.00012446,-67.406,0.020039
8600,2.3706,6,0.1,0.00030465,3044.4,0.00030343,3009.6,-9.7563e-05,-3.3556,-0.00010581,-65.301,0.02367
8601,2.5529,6,0.1,0.00024096,2407.9,0.00023982,2375.5,-7.6847e-05,-3.8425,-8.4329e-05,-60.061,0.027497
8602,2.7353,6,0.1,0.00016946,1693.4,0.00016844,1664.4,-5.4018e-05,-7.108,-5.9745e-05,-50.144,0.031478
8603,2.9176,6,0.1,8.7733e-05,876.72,8.71e-05,859.61,-2.6658e-05,4.8785,-3.2307e-05,-37.562,0.035566
8604,3.1,6,0.1,9.3777e-06,93.712,7.1538e-06,84.199,3.7021e-06,58.264,-6.6808e-06,-19.749,0.039712
8605,2.9176,6,0,8.7733e-05,876.72,3.2307e-05,37.562,2.6658e-05,-4.8785,-8.71e-05,-859.61,0.035566
8606,2.7353,6,0,0.00016946,1693.4,5.9745e-05,50.144,5.4018e-05,7.108,-0.00016844,-1664.4,0.031478
8607,2.5529,6,0,0.00024096,2407.9,8.4329e-05,60.061,7.6847e-05,3.8425,-0.00023982,-2375.5,0.027497
8608,2.3706,6,0,0.00030465,3044.4,0.00010581,65.301,9.7563e-05,3.3556,-0.00030343,-3009.6,0.02367
8609,2.1882,6,0,0.00036053,3602.8,0.00012446,67.406,0.00011584,2.6106,-0.00035929,-3567.3,0.020039
8610,2.0059,6,0,0.00040875,4084.7,0.00014047,68.393,0.00013169,2.4068,-0.00040751,-4048.9,0.016641
8611,1.8235,6,0,0.00044956,4492.5,0.00015402,69.445,0.00014511,2.4966,-0.0004483,-4456.2,0.013508
8612,1.6412,6,0,0.00048329,4829.6,0.00016531,71.53,0.00015617,2.8631,-0.00048199,-4792,0.010666
8613,1.4588,6,0,0.00051025,5099,0.0001745,75.452,0.00016492,3.4213,-0.00050887,-5059.2,0.0081389
8614,1.2765,6,0,0.00053056,5301.9,0.00018172,82.098,0.00017135,4.1892,-0.00052905,-5258.4,0.005943
8615,1.0941,6,0,0.00054397,5435.9,0.00018697,92.442,0.00017533,4.9647,-0.00054226,-5386.7,0.0040915
8616,0.91176,6,0,0.00054958,5492,0.00019009,108.56,0.00017649,6.3734,-0.00054755,-5433.8,0.0025924
8617,0.72941,6,0,0.00054521,5448.4,0.00019062,132.3,0.00017387,6.5004,-0.00054274,-5377.9,0.0014479
8618,0.54706,6,0,0.00052608,5257.2,0.00018751,173.45,0.00016585,10.715,-0.00052276,-5163.2,0.0006531
8619,0.36471,6,0,0.00048235,4820.1,0.00017863,241.9,0.0001481,12.49,-0.00047761,-4688.9,0.00019424
8620,0.18235,6,0,0.00037891,3786.5,0.00016213,431.22,9.9965e-05,-35.888,-0.00037001,-3567.1,4.7843e-05
8621,3.1,6,0,9.3777e-06,93.712,6.6808e-06,19.749,-3.7021e-06,-58.264,-7.1538e-06,-84.199,0.039712
8622,3.937e-14,6,0,0.00022205,2219,0.00018841,1690,1.2513e-06,283.72,-0.00015205,-868.1,0
8623,0.18235,-3.925e-32,0,0.00037891,3786.5,0.00016213,431.22,9.9965e-05,-35.888,-0.00037001,-3567.1,4.7843e-05
8624,0.36471,-7.85e-32,0,0.00048235,4820.1,0.00017863,241.9,0.0001481,12.49,-0.00047761,-4688.9,0.00019424
8625,0.54706,-1.1775e-31,0,0.00052608,5257.2,0.00018751,173.45,0.00016585,10.715,-0.00052276,-5163.2,0.00065311
8626,0.72941,-1.57e-31,0,0.00054521,5448.4,0.00019062,132.3,0.00017387,6.5004,-0.00054274,-5377.9,0.0014479
8627,0.91176,-1.9625e-31,0,0.00054958,5492,0.00019009,108.56,0.00017649,6.3734,-0.00054755,-5433.8,0.0025924
8628,1.0941,-2.355e-31,0,0.00054397,5435.9,0.00018697,92.442,0.00017533,4.9647,-0.00054226,-5386.7,0.0040915
8629,1.2765,-2.7475e-31,0,0.00053056,5301.9,0.00018172,82.098,0.00017135,4.1892,-0.00052905,-5258.4,0.005943
8630,1.4588,-3.14e-31,0,0.00051025,5099,0.00017451,75.452,0.00016492,3.4213,-0.00050887,-5059.2,0.0081389
8631,1.6412,-3.5325e-31,0,0.00048329,4829.6,0.00016531,71.53,0.00015617,2.8631,-0.00048199,-4792,0.010666
8632,1.8235,-3.925e-31,0,0.00044956,4492.5,0.00015402,69.445,0.00014511,2.4966,-0.0004483,-4456.2,0.013508
8633,2.0059,-4.3175e-31,0,0.00040875,4084.7,0.00014047,68.393,0.00013169,2.4068,-0.00040751,-4048.9,0.016641
8634,2.1882,-4.71e-31,0,0.00036053,3602.8,0.00012446,67.406,0.00011584,2.6106,-0.00035929,-3567.3,0.020039
8635,2.3706,-5.1025e-31,0,0.00030465,3044.4,0.00010581,65.301,9.7563e-05,3.3556,-0.00030343,-3009.6,0.02367
8636,2.5529,-5.495e-31,0,0.00024096,2407.9,8.4329e-05,60.061,7.6847e-05,3.8425,-0.00023982,-2375.5,0.027497
8637,2.7353,-5.8875e-31,0,0.00016946,1693.4,5.9745e-05,50.144,5.4018e-05,7.108,-0.00016844,-1664.4,0.031478
8638,2.9176,-6.28e-31,0,8.7733e-05,876.72,3.2307e-05,37.562,2.6658e-05,-4.8785,-8.71e-05,-859.61,0.035566
8639,3.1,0,0,9.3777e-06,93.712,6.6808e-06,19.749,-3.7021e-06,-58.264,-7.1538e-06,-84.199,0.039712
8640,0,0,0,0.00022205,2219,0.00018841,1690,1.2513e-06,283.72,-0.00015205,-868.1,0
8641,3.4501,0,0,6.791e-05,678.63,2.4582e-05,23.228,2.0832e-05,-4.9438,-6.7555e-05,-669.05,0.059496
8642,3.6336,0,0,0.0001329,1328.1,4.5913e-05,26.704,4.2819e-05,3.454,-0.00013237,-1312.9,0.073344
8643,3.8171,0,0,0.00019007,1899.4,6.5089e-05,28.729,6.1342e-05,0.57601,-0.00018955,-1884.5,0.087286
8644,4.0006,0,0,0.00024056,2404,8.1723e-05,27.957,7.7988e-05,-0.10608,-0.00024008,-2389.9,0.10136
8645,4.1841,0,0,0.00028414,2839.4,9.5927e-05,25.34,9.2425e-05,-0.9743,-0.00028371,-2827.1,0.11559
8646,4.3676,0,0,0.00032085,3206.3,0.00010779,22.08,0.00010467,-1.398,-0.00032049,-3195.9,0.13001
8647,4.551,0,0,0.00035104,3508,0.00011748,18.715,0.00011478,-1.5915,-0.00035074,-3499.4,0.14465
8648,4.7345,0,0,0.00037527,3750.1,0.00012522,15.574,0.00012293,-1.5917,-0.00037502,-3743,0.15953
8649,4.918,0,0,0.00039422,3939.5,0.00013123,12.795,0.00012933,-1.4752,-0.00039403,-3933.8,0.17465
8650,5.1015,0,0,0.00040863,4083.5,0.00013578,10.421,0.00013422,-1.2926,-0.00040847,-4078.9,0.19004
8651,5.285,0,0,0.0004192,4189.1,0.0001391,8.44,0.00013783,-1.0823,-0.00041908,-4185.5,0.2057
8652,5.4684,0,0,0.00042659,4262.9,0.00014139,6.8157,0.00014036,-0.86895,-0.00042648,-4259.9,0.22165
8653,5.6519,0,0,0.00043135,4310.5,0.00014284,5.5024,0.00014202,-0.66778,-0.00043126,-4308.1,0.23788
8654,5.8354,0,0,0.00043397,4336.7,0.00014361,4.4547,0.00014295,-0.48695,-0.0004339,-4334.7,0.2544
8655,6.0189,0,0,0.00043488,4345.8,0.00014383,3.6314,0.0001433,-0.33001,-0.00043482,-4344.1,0.27121
8656,6.2024,0,0,0.0004344,4341,0.00014361,2.9965,0.00014319,-0.19758,-0.00043435,-4339.6,0.28832
8657,6.3858,0,0,0.00043283,4325.3,0.00014305,2.5195,0.0001427,-0.088519,-0.00043278,-4324.1,0.30572
8658,6.5693,0,0,0.00043038,4300.8,0.00014221,2.1746,0.00014192,-0.00073965,-0.00043034,-4299.7,0.32341
8659,6.7528,0,0,0.00042725,4269.5,0.00014115,1.94,0.0001409,0.068241,-0.00042721,-4268.5,0.34139
8660,6.9363,0,0,0.00042358,4232.8,0.00013992,1.7973,0.0001397,0.12099,-0.00042354,-4231.9,0.35965
8661,7.1198,0,0,0.00041949,4192,0.00013857,1.731,0.00013836,0.15998,-0.00041945,-4191,0.3782
8662,7.3032,0,0,0.00041507,4147.9,0.00013711,1.7276,0.0001369,0.18748,-0.00041504,-4146.9,0.39704
8663,7.4867,0,0,0.00041041,4101.3,0.00013557,1.7758,0.00013536,0.20554,-0.00041038,-4100.3,0.41615
8664,7.6702,0,0,0.00040556,4052.8,0.00013398,1.8658,0.00013376,0.21598,-0.00040552,-4051.7,0.43554
8665,7.8537,0,0,0.00040057,4002.9,0.00013234,1.9893,0.00013211,0.22035,-0.00040053,-4001.8,0.4552
8666,8.0372,0,0,0.00039547,3951.9,0.00013067,2.139,0.00013042,0.21998,-0.00039543,-3950.8,0.47513
8667,8.2206,0,0,0.00039029,3900.3,0.00012898,2.3091,0.0001287,0.21597,-0.00039025,-3899,0.49533
8668,8.4041,0,0,0.00038507,3848,0.00012727,2.4942,0.00012697,0.20924,-0.00038502,-3846.7,0.51579
8669,8.5876,0,0,0.00037981,3795.5,0.00012555,2.6902,0.00012522,0.20052,-0.00037976,-3794,0.53651
8670,8.7711,0,0,0.00037453,3742.7,0.00012383,2.8935,0.00012347,0.1904,-0.00037448,-3741.2,0.55748
8671,8.9546,0,0,0.00036924,3689.8,0.0001221,3.1011,0.00012171,0.17937,-0.00036918,-3688.2,0.57871
8672,9.1381,0,0,0.00036394,3636.9,0.00012037,3.3108,0.00011995,0.16779,-0.00036389,-3635.2,0.60018
8673,9.3215,0,0,0.00035866,3584.1,0.00011864,3.5206,0.0001182,0.15597,-0.00035859,-3582.3,0.6219
8674,9.505,0,0,0.00035338,3531.4,0.00011692,3.7289,0.00011644,0.14412,-0.00035331,-3529.4,0.64386
8675,9.6885,0,0,0.00034811,3478.7,0.0001152,3.9347,0.00011469,0.13243,-0.00034805,-3476.7,0.66606
8676,9.872,0,0,0.00034287,3426.3,0.00011349,4.1371,0.00011295,0.12101,-0.00034279,-3424.2,0.6885
8677,10.055,0,0,0.00033764,3374,0.00011178,4.3354,0.00011121,0.10997,-0.00033756,-3371.8,0.71116
8678,10.239,0,0,0.00033242,3321.9,0.00011007,4.5291,0.00010948,0.099365,-0.00033235,-3319.6,0.73405
8679,10.422,0,0,0.00032723,3270.1,0.00010838,4.718,0.00010776,0.089209,-0.00032715,-3267.7,0.75716
8680,10.606,0,0,0.00032207,3218.4,0.00010669,4.9021,0.00010605,0.079571,-0.00032198,-3215.9,0.78049
8681,10.789,0,0,0.00031692,3167,0.000105,5.0812,0.00010434,0.070454,-0.00031683,-3164.4,0.80404
8682,10.973,0,0,0.00031179,3115.8,0.00010333,5.2555,0.00010264,0.061868,-0.0003117,-3113.1,0.8278
8683,11.156,0,0,0.00030669,3064.8,0.00010166,5.4249,0.00010094,0.053746,-0.0003066,-3062.1,0.85178
8684,11.34,0,0,0.00030161,3014,9.9997e-05,5.5898,9.9259e-05,0.046112,-0.00030152,-3011.2,0.87595
8685,11.523,0,0,0.00029656,2963.5,9.8342e-05,5.7504,9.7582e-05,0.03899,-0.00029646,-2960.6,0.90033
8686,11.707,0,0,0.00029152,2913.2,9.6694e-05,5.9069,9.5912e-05,0.032282,-0.00029142,-2910.2,0.92491
8687,11.89,0,0,0.00028651,2863.1,9.5053e-05,6.0596,9.425e-05,0.026008,-0.00028641,-2860.1,0.94969
8688,12.074,0,0,0.00028152,2813.3,9.342e-05,6.2089,9.2596e-05,0.020141,-0.00028141,-2810.2,0.97466
8689,12.257,0,0,0.00027655,2763.6,9.1793e-05,6.3548,9.0949e-05,0.014622,-0.00027645,-2760.4,0.99981
8690,12.441,0,0,0.00027161,2714.2,9.0174e-05,6.498,8.931e-05,0.0094738,-0.0002715,-2711,1.0252
8691,12.624,0,0,0.00026669,2665,8.8561e-05,6.6386,8.7678e-05,0.0046593,-0.00026657,-2661.7,1.0507
8692,12.808,0,0,0.00026179,2616.1,8.6955e-05,6.7769,8.6054e-05,0.00016362,-0.00026167,-2612.7,1.0764
8693,12.991,0,0,0.00025691,2567.3,8.5357e-05,6.9133,8.4436e-05,-0.0040861,-0.00025679,-2563.8,1.1023
8694,13.175,0,0,0.00025205,2518.8,8.3765e-05,7.048,8.2826e-05,-0.0080806,-0.00025193,-2515.2,1.1283
8695,13.358,0,0,0.00024721,2470.4,8.2181e-05,7.1815,8.1223e-05,-0.011807,-0.00024709,-2466.8,1.1545
8696,13.542,0,0,0.0002424,2422.3,8.0603e-05,7.3138,7.9628e-05,-0.01535,-0.00024227,-2418.7,1.1809
8697,13.725,0,0,0.0002376,2374.4,7.9032e-05,7.4454,7.8039e-05,-0.018698,-0.00023748,-2370.7,1.2075
8698,13.909,0,0,0.00023283,2326.7,7.7468e-05,7.5766,7.6457e-05,-0.021867,-0.0002327,-2322.9,1.2342
8699,14.092,0,0,0.00022808,2279.2,7.5911e-05,7.7075,7.4882e-05,-0.02491,-0.00022795,-2275.4,1.261
8700,14.276,0,0,0.00022335,2232,7.4361e-05,7.8385,7.3314e-05,-0.027789,-0.00022322,-2228,1.288
8701,14.459,0,0,0.00021864,2184.9,7.2818e-05,7.9698,7.1753e-05,-0.030552,-0.0002185,-2180.9,1.3152
8702,14.642,0,0,0.00021395,2138,7.1282e-05,8.1016,7.0199e-05,-0.033243,-0.00021381,-2134,1.3425
8703,14.826,0,0,0.00020928,2091.4,6.9752e-05,8.2343,6.8651e-05,-0.035835,-0.00020914,-2087.3,1.37
8704,15.009,0,0,0.00020463,2044.9,6.8229e-05,8.368,6.711e-05,-0.038356,-0.00020449,-2040.7,1.3976
8705,15.193,0,0,0.0002,1998.7,6.6713e-05,8.503,6.5576e-05,-0.040814,-0.00019986,-1994.4,1.4253
8706,15.376,0,0,0.0001954,1952.6,6.5204e-05,8.6395,6.4049e-05,-0.043254,-0.00019525,-1948.3,1.4532
8707,15.56,0,0,0.00019081,1906.8,6.3702e-05,8.7777,6.2528e-05,-0.045675,-0.00019066,-1902.4,1.4812
8708,15.743,0,0,0.00018624,1861.1,6.2206e-05,8.9178,6.1013e-05,-0.048087,-0.00018609,-1856.7,1.5093
8709,15.927,0,0,0.00018169,1815.7,6.0717e-05,9.06,5.9505e-05,-0.050529,-0.00018154,-1811.1,1.5375
8710,16.11,0,0,0.00017716,1770.4,5.9235e-05,9.2045,5.8003e-05,-0.052969,-0.00017701,-1765.8,1.5659
8711,16.294,0,0,0.00017266,1725.4,5.776e-05,9.3515,5.6508e-05,-0.055453,-0.0001725,-1720.7,1.5944
8712,16.477,0,0,0.00016817,1680.5,5.6291e-05,9.5011,5.5019e-05,-0.058019,-0.000168,-1675.8,1.623
8713,16.661,0,0,0.0001637,1635.9,5.4829e-05,9.6536,5.3537e-05,-0.060647,-0.00016353,-1631,1.6517
8714,16.844,0,0,0.00015925,1591.4,5.3374e-05,9.8091,5.206e-05,-0.063353,-0.00015908,-1586.5,1.6805
8715,17.028,0,0,0.00015482,1547.1,5.1926e-05,9.9676,5.059e-05,-0.066171,-0.00015465,-1542.1,1.7095
8716,17.211,0,0,0.00015041,1503,5.0484e-05,10.129,4.9126e-05,-0.06912,-0.00015023,-1498,1.7385
8717,17.395,0,0,0.00014602,1459.2,4.9048e-05,10.295,4.7668e-05,-0.07221,-0.00014584,-1454,1.7676
8718,17.578,0,0,0.00014164,1415.5,4.7619e-05,10.463,4.6217e-05,-0.075463,-0.00014146,-1410.2,1.7969
8719,17.762,0,0,0.00013729,1371.9,4.6197e-05,10.635,4.4771e-05,-0.078917,-0.00013711,-1366.6,1.8262
8720,17.945,0,0,0.00013295,1328.6,4.4781e-05,10.811,4.3331e-05,-0.082554,-0.00013277,-1323.2,1.8556
8721,18.129,0,0,0.00012864,1285.5,4.3371e-05,10.99,4.1897e-05,-0.086424,-0.00012845,-1280,1.8851
8722,18.312,0,0,0.00012434,1242.5,4.1968e-05,11.173,4.0469e-05,-0.090564,-0.00012415,-1236.9,1.9147
8723,18.496,0,0,0.00012006,1199.7,4.0571e-05,11.36,3.9047e-05,-0.094977,-0.00011986,-1194.1,1.9444
8724,18.679,0,0,0.00011579,1157.1,3.9181e-05,11.55,3.763e-05,-0.099693,-0.0001156,-1151.4,1.9742
8725,18.863,0,0,0.00011155,1114.7,3.7796e-05,11.744,3.6219e-05,-0.10474,-0.00011135,-1108.9,2.004
8726,19.046,0,0,0.00010732,1072.5,3.6418e-05,11.94,3.4814e-05,-0.11017,-0.00010712,-1066.5,2.0339
8727,19.229,0,0,0.00010311,1030.4,3.5045e-05,12.14,3.3414e-05,-0.11601,-0.0001029,-1024.3,2.0639
8728,19.413,0,0,9.8919e-05,988.51,3.3679e-05,12.343,3.202e-05,-0.12228,-9.8705e-05,-982.34,2.0939
8729,19.596,0,0,9.4743e-05,946.78,3.2318e-05,12.548,3.0631e-05,-0.12905,-9.4525e-05,-940.5,2.124
8730,19.78,0,0,9.0583e-05,905.21,3.0963e-05,12.755,2.9247e-05,-0.13634,-9.0362e-05,-898.83,2.1542
8731,19.963,0,0,8.644e-05,863.8,2.9613e-05,12.964,2.7868e-05,-0.14422,-8.6214e-05,-857.32,2.1844
8732,20.147,0,0,8.2312e-05,822.56,2.8269e-05,13.173,2.6495e-05,-0.15274,-8.2083e-05,-815.97,2.2147
8733,20.33,0,0,7.8201e-05,781.47,2.693e-05,13.383,2.5127e-05,-0.16196,-7.7967e-05,-774.77,2.2451
8734,20.514,0,0,7.4105e-05,740.54,2.5596e-05,13.592,2.3764e-05,-0.17194,-7.3867e-05,-733.73,2.2754
8735,20.697,0,0,7.0024e-05,699.75,2.4266e-05,13.799,2.2406e-05,-0.18276,-6.9782e-05,-692.84,2.3059
8736,20.881,0,0,6.5958e-05,659.13,2.2942e-05,14.003,2.1053e-05,-0.19453,-6.5712e-05,-652.11,2.3364
8737,21.064,0,0,6.1907e-05,618.65,2.1622e-05,14.202,1.9704e-05,-0.20734,-6.1657e-05,-611.52,2.3669
8738,21.248,0,0,5.7872e-05,578.32,2.0307e-05,14.395,1.8362e-05,-0.22131,-5.7617e-05,-571.09,2.3975
8739,21.431,0,0,5.3851e-05,538.14,1.8996e-05,14.58,1.7024e-05,-0.2366,-5.3592e-05,-530.82,2.4281
8740,21.615,0,0,4.9846e-05,498.11,1.7689e-05,14.754,1.5692e-05,-0.25337,-4.9582e-05,-490.69,2.4587
8741,21.798,0,0,4.5856e-05,458.25,1.6386e-05,14.913,1.4365e-05,-0.27185,-4.5588e-05,-450.74,2.4894
8742,21.982,0,0,4.1883e-05,418.54,1.5087e-05,15.055,1.3044e-05,-0.2923,-4.1611e-05,-410.95,2.5201
8743,22.165,0,0,3.7927e-05,379.01,1.3792e-05,15.175,1.173e-05,-0.31508,-3.7651e-05,-371.34,2.5508
8744,22.349,0,0,3.3991e-05,339.68,1.2501e-05,15.267,1.0423e-05,-0.34065,-3.371e-05,-331.94,2.5816
8745,22.532,0,0,3.0076e-05,300.56,1.1214e-05,15.323,9.1252e-06,-0.36961,-2.9791e-05,-292.77,2.6124
8746,22.716,0,0,2.6187e-05,261.69,9.931e-06,15.333,7.8368e-06,-0.40289,-2.5897e-05,-253.87,2.6432
8747,22.899,0,0,2.2328e-05,223.12,8.6533e-06,15.283,6.5605e-06,-0.44148,-2.2034e-05,-215.29,2.674
8748,23.083,0,0,1.8507e-05,184.94,7.381e-06,15.15,5.2996e-06,-0.4882,-1.8208e-05,-177.11,2.7048
8749,23.266,0,0,1.4737e-05,147.27,6.1152e-06,14.903,4.0595e-06,-0.54211,-1.4431e-05,-139.48,2.7356
8750,23.45,0,0,1.1036e-05,110.28,4.8549e-06,14.454,2.8479e-06,-0.6266,-1.0723e-05,-102.59,2.7665
8751,23.633,0,0,7.4521e-06,74.47,3.6109e-06,13.788,1.6823e-06,-0.70235,-7.1229e-06,-66.862,2.7973
8752,23.817,0,0,3.996e-06,39.932,2.2817e-06,11.492,6.1096e-07,-1.0608,-3.6676e-06,-33.208,2.8282
8753,3.2667,0,0,7.0967e-06,70.918,5.0356e-06,14.778,-2.7259e-06,-43.538,-5.4715e-06,-64.168,0.045707
8754,24,0,0,9.4532e-07,9.4467,7.0789e-07,5.7234,8.6669e-08,1.0558,-7.3908e-07,-5.1485,2.859
8755,5.0862e-14,5.8182,0,0.00014315,1430.5,1.5424e-05,-1128.5,-2.6888e-06,-1264.6,-0.00018337,-2622.2,0
8756,4.9273e-14,5.6364,0,0.00024154,2413.7,4.9385e-06,-2291.7,-3.7283e-06,-2356.8,-0.00032055,-4737.3,0
8757,4.7683e-14,5.4545,0,0.00029264,2924.4,2.3345e-06,-2826,-2.8168e-06,-2864.7,-0.00038943,-5769.5,0
8758,4.6094e-14,5.2727,0,0.00032505,3248.3,1.4077e-06,-3145.8,-1.7428e-06,-3169.4,-0.00043248,-6405.8,0
8759,4.4504e-14,5.0909,0,0.00034661,3463.7,9.3543e-07,-3357.3,-1.1651e-06,-3373.1,-0.00046111,-6828.9,0
8760,4.2915e-14,4.9091,0,0.00036179,3615.4,6.503e-07,-3506,-8.1889e-07,-3517,-0.00048126,-7126.8,0
8761,4.1325e-14,4.7273,0,0.0003727,3724.5,4.5964e-07,-3612.8,-5.8615e-07,-3620.7,-0.00049576,-7341.2,0
8762,3.9736e-14,4.5455,0,0.00038062,3803.6,3.2446e-07,-3690.3,-4.2328e-07,-3695.9,-0.00050627,-7496.7,0
8763,3.8147e-14,4.3636,0,0.00038633,3860.6,2.259e-07,-3746.3,-3.0503e-07,-3750.3,-0.00051386,-7608.9,0
8764,3.6557e-14,4.1818,0,0.0003904,3901.3,1.5358e-07,-3786.1,-2.178e-07,-3788.9,-0.00051927,-7688.9,0
8765,3.4968e-14,4,0,0.00039325,3929.8,1.0098e-07,-3814,-1.5339e-07,-3815.9,-0.00052305,-7744.7,0
8766,3.3378e-14,3.8182,0,0.00039519,3949.1,6.3467e-08,-3833,-1.0636e-07,-3834.3,-0.00052562,-7782.8,0
8767,3.1789e-14,3.6364,0,0.00039647,3961.9,3.7371e-08,-3845.5,-7.2722e-08,-3846.3,-0.00052732,-7807.8,0
8768,3.0199e-14,3.4545,0,0.00039727,3970,1.9642e-08,-3853.4,-4.9329e-08,-3853.9,-0.00052838,-7823.6,0
8769,2.861e-14,3.2727,0,0.00039774,3974.6,7.8688e-09,-3857.9,-3.3768e-08,-3858.2,-0.000529,-7832.7,0
8770,2.702e-14,3.0909,0,0.00039795,3976.7,1.0394e-09,-3860,-2.504e-08,-3860.2,-0.00052928,-7836.8,0
8771,2.5431e-14,2.9091,0,0.00039795,3976.7,1.0393e-09,-3860,-2.504e-08,-3860.2,-0.00052928,-7836.8,0
8772,2.3842e-14,2.7273,0,0.00039774,3974.6,7.8685e-09,-3857.9,-3.3768e-08,-3858.2,-0.000529,-7832.7,0
8773,2.2252e-14,2.5455,0,0.00039727,3970,1.9641e-08,-3853.4,-4.9328e-08,-3853.9,-0.00052838,-7823.6,0
8774,2.0663e-14,2.3636,0,0.00039647,3961.9,3.7371e-08,-3845.5,-7.2721e-08,-3846.3,-0.00052732,-7807.8,0
8775,1.9073e-14,2.1818,0,0.00039519,3949.1,6.3466e-08,-3833,-1.0636e-07,-3834.3,-0.00052562,-7782.8,0
8776,1.7484e-14,2,0,0.00039325,3929.8,1.0098e-07,-3814,-1.5339e-07,-3815.9,-0.00052305,-7744.7,0
8777,1.5894e-14,1.8182,0,0.0003904,3901.3,1.5358e-07,-3786.1,-2.178e-07,-3788.9,-0.00051927,-7688.9,0
8778,1.4305e-14,1.6364,0,0.00038633,3860.6,2.259e-07,-3746.3,-3.0503e-07,-3750.3,-0.00051386,-7608.9,0
8779,1.2716e-14,1.4545,0,0.00038062,3803.6,3.2446e-07,-3690.3,-4.2328e-07,-3696,-0.00050627,-7496.7,0
8780,1.1126e-14,1.2727,0,0.0003727,3724.5,4.5964e-07,-3612.9,-5.8615e-07,-3620.7,-0.00049576,-7341.2,0
8781,9.5366e-15,1.0909,0,0.00036179,3615.4,6.503e-07,-3506,-8.1889e-07,-3517,-0.00048126,-7126.8,0
8782,7.9472e-15,0.90909,0,0.00034661,3463.7,9.3544e-07,-3357.3,-1.1651e-06,-3373.1,-0.00046111,-6828.9,0
8783,6.3578e-15,0.72727,0,0.00032505,3248.3,1.4077e-06,-3145.8,-1.7428e-06,-3169.4,-0.00043248,-6405.8,0
8784,4.7683e-15,0.54545,0,0.00029264,2924.4,2.3345e-06,-2826,-2.8168e-06,-2864.7,-0.00038943,-5769.5,0
8785,3.1789e-15,0.36364,0,0.00024154,2413.7,4.9385e-06,-2291.7,-3.7283e-06,-2356.8,-0.00032055,-4737.3,0
8786,1.5894e-15,0.18182,0,0.00014315,1430.5,1.5424e-05,-1128.5,-2.6888e-06,-1264.6,-0.00018337,-2622.2,0
8787,24,0.18182,0,3.9723e-06,39.695,3.8199e-06,36.669,-7.7465e-07,2.1467,-1.9528e-06,-6.7055,2.8592
8788,24,0.36364,0,6.7098e-06,67.051,6.5781e-06,64.117,-1.6651e-06,2.1807,-2.8984e-06,-7.0861,2.8593
8789,24,0.54545,0,8.8185e-06,88.124,8.6972e-06,85.321,-2.3408e-06,2.3857,-3.6176e-06,-7.2079,2.8595
8790,24,0.72727,0,1.0576e-05,105.69,1.0461e-05,102.94,-2.918e-06,2.419,-4.2044e-06,-7.2463,2.8596
8791,24,0.90909,0,1.2074e-05,120.65,1.1963e-05,117.98,-3.4115e-06,2.4568,-4.7001e-06,-7.2248,2.8598
8792,24,1.0909,0,1.3366e-05,133.57,1.326e-05,130.96,-3.8392e-06,2.4789,-5.1253e-06,-7.1844,2.8599
8793,24,1.2727,0,1.4486e-05,144.76,1.4383e-05,142.2,-4.2105e-06,2.4965,-5.4923e-06,-7.1339,2.86
8794,24,1.4545,0,1.5456e-05,154.45,1.5355e-05,151.94,-4.5325e-06,2.5096,-5.809e-06,-7.0812,2.8601
8795,24,1.6364,0,1.629e-05,162.79,1.6192e-05,160.32,-4.81e-06,2.52,-6.081e-06,-7.0299,2.8602
8796,24,1.8182,0,1.7001e-05,169.9,1.6906e-05,167.47,-5.0467e-06,2.528,-6.3125e-06,-6.9823,2.8603
8797,24,2,0,1.7598e-05,175.86,1.7504e-05,173.46,-5.2455e-06,2.5344,-6.5065e-06,-6.94,2.8603
8798,24,2.1818,0,1.8087e-05,180.74,1.7994e-05,178.38,-5.4084e-06,2.5393,-6.6652e-06,-6.9038,2.8604
8799,24,2.3636,0,1.8472e-05,184.6,1.8381e-05,182.25,-5.537e-06,2.543,-6.7903e-06,-6.8743,2.8605
8800,24,2.5455,0,1.8759e-05,187.46,1.8668e-05,185.13,-5.6324e-06,2.5457,-6.8832e-06,-6.8519,2.8605
8801,24,2.7273,0,1.8948e-05,189.35,1.8858e-05,187.03,-5.6957e-06,2.5474,-6.9446e-06,-6.8368,2.8605
8802,24,2.9091,0,1.9043e-05,190.29,1.8952e-05,187.98,-5.7271e-06,2.5483,-6.9752e-06,-6.8293,2.8605
8803,24,3.0909,0,1.9043e-05,190.29,1.8952e-05,187.98,-5.7271e-06,2.5483,-6.9752e-06,-6.8293,2.8605
8804,24,3.2727,0,1.8948e-05,189.35,1.8858e-05,187.03,-5.6957e-06,2.5474,-6.9446e-06,-6.8368,2.8605
8805,24,3.4545,0,1.8759e-05,187.46,1.8668e-05,185.13,-5.6324e-06,2.5457,-6.8832e-06,-6.8519,2.8605
8806,24,3.6364,0,1.8472e-05,184.6,1.8381e-05,182.25,-5.537e-06,2.543,-6.7903e-06,-6.8743,2.8605
8807,24,3.8182,0,1.8087e-05,180.74,1.7994e-05,178.38,-5.4084e-06,2.5393,-6.6652e-06,-6.9037,2.8604
8808,24,4,0,1.7598e-05,175.86,1.7504e-05,173.46,-5.2455e-06,2.5344,-6.5065e-06,-6.94,2.8603
8809,24,4.1818,0,1.7001e-05,169.9,1.6906e-05,167.47,-5.0467e-06,2.528,-6.3125e-06,-6.9823,2.8603
8810,24,4.3636,0,1.629e-05,162.79,1.6192e-05,160.32,-4.81e-06,2.52,-6.081e-06,-7.0299,2.8602
8811,24,4.5455,0,1.5456e-05,154.45,1.5355e-05,151.94,-4.5325e-06,2.5096,-5.809e-06,-7.0812,2.8601
8812,24,4.7273,0,1.4486e-05,144.76,1.4383e-05,142.2,-4.2105e-06,2.4965,-5.4923e-06,-7.1339,2.86
8813,24,4.9091,0,1.3366e-05,133.57,1.326e-05,130.96,-3.8392e-06,2.4789,-5.1253e-06,-7.1844,2.8599
8814,24,5.0909,0,1.2074e-05,120.65,1.1963e-05,117.98,-3.4115e-06,2.4568,-4.7001e-06,-7.2248,2.8598
8815,24,5.2727,0,1.0576e-05,105.69,1.0461e-05,102.94,-2.918e-06,2.419,-4.2044e-06,-7.2463,2.8596
8816,24,5.4545,0,8.8185e-06,88.124,8.6972e-06,85.32,-2.3408e-06,2.3857,-3.6176e-06,-7.2079,2.8595
8817,24,5.6364,0,6.7098e-06,67.051,6.5781e-06,64.117,-1.6651e-06,2.1807,-2.8984e-06,-7.0861,2.8593
8818,24,5.8182,0,3.9723e-06,39.695,3.8199e-06,36.669,-7.7465e-07,2.1467,-1.9528e-06,-6.7055,2.8592
8819,24,6,0,9.4532e-07,9.4467,7.0789e-07,5.7234,8.667e-08,1.0558,-7.3907e-07,-5.1485,2.859
8820,23.817,6,0,3.996e-06,39.932,2.2817e-06,11.492,6.1096e-07,-1.0608,-3.6676e-06,-33.208,2.8282
8821,23.633,6,0,7.4521e-06,74.47,3.6109e-06,13.788,1.6823e-06,-0.70235,-7.1229e-06,-66.862,2.7973
8822,23.45,6,0,1.1036e-05,110.28,4.8549e-06,14.454,2.8479e-06,-0.6266,-1.0723e-05,-102.59,2.7665
8823,23.266,6,0,1.4737e-05,147.27,6.1152e-06,14.903,4.0595e-06,-0.54211,-1.4431e-05,-139.48,2.7356
8824,23.083,6,0,1.8507e-05,184.94,7.381e-06,15.15,5.2996e-06,-0.4882,-1.8208e-05,-177.11,2.7048
8825,22.899,6,0,2.2328e-05,223.12,8.6533e-06,15.283,6.5605e-06,-0.44149,-2.2034e-05,-215.29,2.674
8826,22.716,6,0,2.6187e-05,261.69,9.931e-06,15.333,7.8368e-06,-0.40289,-2.5897e-05,-253.87,2.6432
8827,22.532,6,0,3.0076e-05,300.56,1.1214e-05,15.323,9.1252e-06,-0.36962,-2.9791e-05,-292.77,2.6124
8828,22.349,6,0,3.3991e-05,339.68,1.2501e-05,15.267,1.0423e-05,-0.34065,-3.371e-05,-331.94,2.5816
8829,22.165,6,0,3.7927e-05,379.01,1.3792e-05,15.175,1.173e-05,-0.31509,-3.7651e-05,-371.35,2.5508
8830,21.982,6,0,4.1883e-05,418.54,1.5087e-05,15.055,1.3044e-05,-0.2923,-4.1611e-05,-410.95,2.5201
8831,21.798,6,0,4.5856e-05,458.25,1.6386e-05,14.913,1.4365e-05,-0.27184,-4.5588e-05,-450.74,2.4894
8832,21.615,6,0,4.9846e-05,498.11,1.7689e-05,14.754,1.5692e-05,-0.25337,-4.9582e-05,-490.69,2.4587
8833,21.431,6,0,5.3851e-05,538.14,1.8996e-05,14.58,1.7024e-05,-0.2366,-5.3592e-05,-530.82,2.4281
8834,21.248,6,0,5.7872e-05,578.32,2.0307e-05,14.395,1.8362e-05,-0.22131,-5.7617e-05,-571.09,2.3975
8835,21.064,6,0,6.1907e-05,618.65,2.1622e-05,14.202,1.9704e-05,-0.20733,-6.1657e-05,-611.52,2.3669
8836,20.881,6,0,6.5958e-05,659.13,2.2942e-05,14.003,2.1053e-05,-0.19453,-6.5712e-05,-652.11,2.3364
8837,20.697,6,0,7.0024e-05,699.76,2.4266e-05,13.799,2.2406e-05,-0.18276,-6.9782e-05,-692.84,2.3059
8838,20.514,6,0,7.4105e-05,740.54,2.5596e-05,13.592,2.3764e-05,-0.17194,-7.3867e-05,-733.73,2.2754
8839,20.33,6,0,7.8201e-05,781.47,2.693e-05,13.383,2.5127e-05,-0.16195,-7.7967e-05,-774.77,2.245
8840,20.147,6,0,8.2312e-05,822.56,2.8269e-05,13.173,2.6495e-05,-0.15274,-8.2083e-05,-815.97,2.2147
8841,19.963,6,0,8.644e-05,863.8,2.9613e-05,12.964,2.7868e-05,-0.14422,-8.6214e-05,-857.32,2.1844
8842,19.78,6,0,9.0583e-05,905.21,3.0963e-05,12.755,2.9247e-05,-0.13635,-9.0362e-05,-898.83,2.1542
8843,19.596,6,0,9.4743e-05,946.78,3.2318e-05,12.548,3.0631e-05,-0.12905,-9.4525e-05,-940.5,2.124
8844,19.413,6,0,9.8919e-05,988.51,3.3679e-05,12.343,3.202e-05,-0.12228,-9.8705e-05,-982.34,2.0939
8845,19.229,6,0,0.00010311,1030.4,3.5045e-05,12.14,3.3414e-05,-0.116,-0.0001029,-1024.3,2.0639
8846,19.046,6,0,0.00010732,1072.5,3.6418e-05,11.94,3.4814e-05,-0.11017,-0.00010712,-1066.5,2.0339
8847,18.863,6,0,0.00011155,1114.7,3.7796e-05,11.744,3.6219e-05,-0.10474,-0.00011135,-1108.9,2.004
8848,18.679,6,0,0.00011579,1157.1,3.9181e-05,11.55,3.763e-05,-0.099691,-0.0001156,-1151.4,1.9742
8849,18.496,6,0,0.00012006,1199.7,4.0571e-05,11.36,3.9047e-05,-0.094977,-0.00011986,-1194.1,1.9444
8850,18.312,6,0,0.00012434,1242.5,4.1968e-05,11.173,4.0469e-05,-0.090564,-0.00012415,-1236.9,1.9147
8851,18.129,6,0,0.00012864,1285.5,4.3371e-05,10.99,4.1897e-05,-0.086425,-0.00012845,-1280,1.8851
8852,17.945,6,0,0.00013295,1328.6,4.4781e-05,10.811,4.3331e-05,-0.082555,-0.00013277,-1323.2,1.8556
8853,17.762,6,0,0.00013729,1371.9,4.6197e-05,10.635,4.4771e-05,-0.078913,-0.00013711,-1366.6,1.8262
8854,17.578,6,0,0.00014164,1415.5,4.7619e-05,10.463,4.6217e-05,-0.075461,-0.00014146,-1410.2,1.7969
8855,17.395,6,0,0.00014602,1459.2,4.9048e-05,10.295,4.7668e-05,-0.07221,-0.00014584,-1454,1.7676
8856,17.211,6,0,0.00015041,1503,5.0483e-05,10.129,4.9126e-05,-0.069117,-0.00015023,-1498,1.7385
8857,17.028,6,0,0.00015482,1547.1,5.1926e-05,9.9676,5.059e-05,-0.066166,-0.00015465,-1542.1,1.7095
8858,16.844,6,0,0.00015925,1591.4,5.3374e-05,9.809,5.206e-05,-0.063357,-0.00015908,-1586.5,1.6805
8859,16.661,6,0,0.0001637,1635.9,5.4829e-05,9.6535,5.3537e-05,-0.060644,-0.00016353,-1631,1.6517
8860,16.477,6,0,0.00016817,1680.5,5.6291e-05,9.5011,5.5019e-05,-0.058018,-0.000168,-1675.8,1.623
8861,16.294,6,0,0.00017266,1725.4,5.776e-05,9.3515,5.6508e-05,-0.055454,-0.0001725,-1720.7,1.5944
8862,16.11,6,0,0.00017716,1770.4,5.9235e-05,9.2044,5.8003e-05,-0.05297,-0.00017701,-1765.8,1.5659
8863,15.927,6,0,0.00018169,1815.7,6.0717e-05,9.0599,5.9505e-05,-0.050525,-0.00018154,-1811.1,1.5375
8864,15.743,6,0,0.00018624,1861.1,6.2206e-05,8.9177,6.1013e-05,-0.048085,-0.00018609,-1856.7,1.5093
8865,15.56,6,0,0.00019081,1906.8,6.3702e-05,8.7776,6.2528e-05,-0.045675,-0.00019066,-1902.4,1.4812
8866,15.376,6,0,0.0001954,1952.6,6.5204e-05,8.6395,6.4049e-05,-0.043256,-0.00019525,-1948.3,1.4532
8867,15.193,6,0,0.0002,1998.7,6.6713e-05,8.503,6.5576e-05,-0.040814,-0.00019986,-1994.4,1.4253
8868,15.009,6,0,0.00020463,2044.9,6.8229e-05,8.368,6.711e-05,-0.038355,-0.00020449,-2040.7,1.3976
8869,14.826,6,0,0.00020928,2091.4,6.9752e-05,8.2342,6.8651e-05,-0.035835,-0.00020914,-2087.3,1.37
8870,14.642,6,0,0.00021395,2138,7.1282e-05,8.1016,7.0199e-05,-0.033242,-0.00021381,-2134,1.3425
8871,14.459,6,0,0.00021864,2184.9,7.2818e-05,7.9697,7.1753e-05,-0.030551,-0.0002185,-2180.9,1.3152
8872,14.276,6,0,0.00022335,2232,7.4361e-05,7.8384,7.3314e-05,-0.027789,-0.00022322,-2228,1.288
8873,14.092,6,0,0.00022808,2279.2,7.5911e-05,7.7074,7.4882e-05,-0.024911,-0.00022795,-2275.4,1.261
8874,13.909,6,0,0.00023283,2326.7,7.7468e-05,7.5765,7.6457e-05,-0.021866,-0.0002327,-2322.9,1.2342
8875,13.725,6,0,0.0002376,2374.4,7.9032e-05,7.4454,7.8039e-05,-0.018697,-0.00023748,-2370.7,1.2075
8876,13.542,6,0,0.0002424,2422.3,8.0603e-05,7.3138,7.9628e-05,-0.01535,-0.00024227,-2418.7,1.1809
8877,13.358,6,0,0.00024721,2470.4,8.2181e-05,7.1814,8.1223e-05,-0.011807,-0.00024709,-2466.8,1.1545
8878,13.175,6,0,0.00025205,2518.8,8.3765e-05,7.048,8.2826e-05,-0.0080806,-0.00025193,-2515.2,1.1283
8879,12.991,6,0,0.00025691,2567.3,8.5357e-05,6.9132,8.4436e-05,-0.0040853,-0.00025679,-2563.8,1.1023
8880,12.808,6,0,0.00026179,2616.1,8.6955e-05,6.7769,8.6054e-05,0.00016343,-0.00026167,-2612.7,1.0764
8881,12.624,6,0,0.00026669,2665,8.8561e-05,6.6385,8.7678e-05,0.0046596,-0.00026657,-2661.7,1.0507
8882,12.441,6,0,0.00027161,2714.2,9.0174e-05,6.4979,8.931e-05,0.009473,-0.0002715,-2711,1.0252
8883,12.257,6,0,0.00027655,2763.6,9.1793e-05,6.3548,9.0949e-05,0.014622,-0.00027645,-2760.4,0.99981
8884,12.074,6,0,0.00028152,2813.3,9.342e-05,6.2088,9.2596e-05,0.020141,-0.00028141,-2810.2,0.97466
8885,11.89,6,0,0.00028651,2863.1,9.5053e-05,6.0596,9.425e-05,0.026008,-0.00028641,-2860.1,0.94969
8886,11.707,6,0,0.00029152,2913.2,9.6694e-05,5.9069,9.5912e-05,0.032283,-0.00029142,-2910.2,0.92491
8887,11.523,6,0,0.00029656,2963.5,9.8342e-05,5.7504,9.7582e-05,0.03899,-0.00029646,-2960.6,0.90033
8888,11.34,6,0,0.00030161,3014,9.9997e-05,5.5898,9.9259e-05,0.046112,-0.00030152,-3011.2,0.87595
8889,11.156,6,0,0.00030669,3064.8,0.00010166,5.4249,0.00010094,0.053746,-0.0003066,-3062.1,0.85178
8890,10.973,6,0,0.00031179,3115.8,0.00010333,5.2554,0.00010264,0.061868,-0.0003117,-3113.1,0.8278
8891,10.789,6,0,0.00031692,3167,0.000105,5.0811,0.00010434,0.070454,-0.00031683,-3164.4,0.80404
8892,10.606,6,0,0.00032207,3218.4,0.00010669,4.9021,0.00010605,0.079571,-0.00032198,-3215.9,0.78049
8893,10.422,6,0,0.00032723,3270.1,0.00010838,4.718,0.00010776,0.089209,-0.00032715,-3267.7,0.75716
8894,10.239,6,0,0.00033242,3321.9,0.00011007,4.5291,0.00010948,0.099365,-0.00033235,-3319.6,0.73405
8895,10.055,6,0,0.00033764,3374,0.00011178,4.3353,0.00011121,0.10997,-0.00033756,-3371.8,0.71116
8896,9.872,6,0,0.00034287,3426.3,0.00011349,4.137,0.00011295,0.12101,-0.00034279,-3424.2,0.68849
8897,9.6885,6,0,0.00034811,3478.7,0.0001152,3.9347,0.00011469,0.13243,-0.00034804,-3476.7,0.66606
8898,9.505,6,0,0.00035338,3531.4,0.00011692,3.7289,0.00011644,0.14412,-0.00035331,-3529.4,0.64386
8899,9.3215,6,0,0.00035866,3584.1,0.00011864,3.5205,0.0001182,0.15597,-0.00035859,-3582.3,0.6219
8900,9.1381,6,0,0.00036394,3636.9,0.00012037,3.3108,0.00011995,0.16779,-0.00036389,-3635.2,0.60018
8901,8.9546,6,0,0.00036924,3689.8,0.0001221,3.1011,0.00012171,0.17937,-0.00036918,-3688.2,0.57871
8902,8.7711,6,0,0.00037453,3742.7,0.00012383,2.8934,0.00012347,0.1904,-0.00037448,-3741.2,0.55748
8903,8.5876,6,0,0.00037981,3795.5,0.00012555,2.6901,0.00012522,0.20052,-0.00037976,-3794,0.53651
8904,8.4041,6,0,0.00038507,3848,0.00012727,2.4942,0.00012697,0.20924,-0.00038502,-3846.7,0.51579
8905,8.2206,6,0,0.00039029,3900.3,0.00012898,2.309,0.0001287,0.21597,-0.00039025,-3899,0.49533
8906,8.0372,6,0,0.00039547,3951.9,0.00013067,2.139,0.00013042,0.21998,-0.00039543,-3950.8,0.47513
8907,7.8537,6,0,0.00040057,4002.9,0.00013234,1.9892,0.00013211,0.22035,-0.00040053,-4001.8,0.4552
8908,7.6702,6,0,0.00040556,4052.8,0.00013398,1.8658,0.00013376,0.21598,-0.00040552,-4051.7,0.43554
8909,7.4867,6,0,0.00041041,4101.3,0.00013557,1.7758,0.00013536,0.20554,-0.00041038,-4100.3,0.41615
8910,7.3032,6,0,0.00041507,4147.9,0.00013711,1.7275,0.0001369,0.18748,-0.00041504,-4146.9,0.39704
8911,7.1198,6,0,0.00041949,4192,0.00013857,1.7309,0.00013836,0.15998,-0.00041945,-4191,0.3782
8912,6.9363,6,0,0.00042358,4232.8,0.00013992,1.7973,0.0001397,0.12099,-0.00042354,-4231.9,0.35965
8913,6.7528,6,0,0.00042725,4269.5,0.00014115,1.94,0.0001409,0.06824,-0.00042721,-4268.5,0.34139
8914,6.5693,6,0,0.00043038,4300.8,0.00014221,2.1746,0.00014192,-0.00074129,-0.00043034,-4299.7,0.32341
8915,6.3858,6,0,0.00043283,4325.3,0.00014305,2.5195,0.0001427,-0.08852,-0.00043278,-4324.1,0.30572
8916,6.2024,6,0,0.0004344,4341,0.00014361,2.9965,0.00014319,-0.19759,-0.00043435,-4339.6,0.28832
8917,6.0189,6,0,0.00043488,4345.8,0.00014383,3.6313,0.0001433,-0.33001,-0.00043482,-4344.1,0.27121
8918,5.8354,6,0,0.00043397,4336.7,0.00014361,4.4547,0.00014295,-0.48695,-0.0004339,-4334.7,0.2544
8919,5.6519,6,0,0.00043135,4310.5,0.00014284,5.5023,0.00014202,-0.66778,-0.00043126,-4308.1,0.23788
8920,5.4684,6,0,0.00042659,4262.9,0.00014139,6.8157,0.00014036,-0.86895,-0.00042648,-4259.9,0.22165
8921,5.285,6,0,0.0004192,4189.1,0.0001391,8.4399,0.00013783,-1.0823,-0.00041908,-4185.5,0.2057
8922,5.1015,6,0,0.00040863,4083.5,0.00013578,10.421,0.00013422,-1.2926,-0.00040847,-4078.9,0.19004
8923,4.918,6,0,0.00039422,3939.5,0.00013123,12.795,0.00012933,-1.4752,-0.00039403,-3933.8,0.17465
8924,4.7345,6,0,0.00037527,3750.1,0.00012522,15.574,0.00012293,-1.5917,-0.00037502,-3743,0.15953
8925,4.551,6,0,0.00035104,3508,0.00011748,18.715,0.00011478,-1.5915,-0.00035074,-3499.4,0.14465
8926,4.3676,6,0,0.00032085,3206.3,0.00010779,22.08,0.00010467,-1.398,-0.00032049,-3195.9,0.13001
8927,4.1841,6,0,0.00028414,2839.4,9.5927e-05,25.34,9.2425e-05,-0.97431,-0.00028371,-2827.1,0.11559
8928,4.0006,6,0,0.00024056,2404,8.1723e-05,27.957,7.7988e-05,-0.10608,-0.00024008,-2389.9,0.10136
8929,3.8171,6,0,0.00019007,1899.4,6.5089e-05,28.729,6.1342e-05,0.576,-0.00018955,-1884.5,0.087286
8930,3.6336,6,0,0.0001329,1328.1,4.5913e-05,26.703,4.2819e-05,3.454,-0.00013237,-1312.9,0.073344
8931,3.4501,6,0,6.791e-05,678.63,2.4582e-05,23.228,2.0832e-05,-4.9438,-6.7555e-05,-669.05,0.059496
8932,3.2667,6,0,7.0967e-06,70.918,5.0356e-06,14.778,-2.7258e-06,-43.538,-5.4715e-06,-64.168,0.045707
8933,3.1,1.8182,0,0.0012068,12059,0.00089345,6464.4,3.0861e-05,-16.738,-0.0009584,-7449.7,0.057839
8934,3.1,1.6364,0,0.00071554,7150.4,0.00046088,2949.9,8.9289e-05,157.87,-0.00062052,-5175.3,0.055501
8935,3.1,1.4545,0,0.00057626,5758.6,0.00036854,2295,6.8892e-05,43.53,-0.00050244,-4249.2,0.053298
8936,3.1,1.2727,0,0.00046353,4632.1,0.00028387,1682.7,6.6301e-05,47.923,-0.00041191,-3545.2,0.051232
8937,3.1,1.0909,0,0.00038058,3803.2,0.00022449,1263.7,6.077e-05,33.56,-0.00034327,-3002.3,0.049294
8938,3.1,0.90909,0,0.00031204,3118.3,0.00017675,941,5.5541e-05,30.247,-0.00028537,-2531.2,0.047474
8939,3.1,0.72727,0,0.00025148,2513.1,0.00013637,680.06,4.9387e-05,26.524,-0.000233,-2095.2,0.045762
8940,3.1,0.54545,0,0.00019472,1945.8,0.00010038,461.35,4.2202e-05,24.246,-0.00018274,-1665.9,0.044146
8941,3.1,0.36364,0,0.00013831,1382.1,6.6767e-05,274.1,3.3555e-05,24.566,-0.00013153,-1215.8,0.042611
8942,3.1,0.18182,0,7.593e-05,758.78,3.3618e-05,113.76,2.0593e-05,15.897,-7.3249e-05,-689.2,0.041141
8943,3.1,2,0,0.0030168,30148,0.0014288,4451.4,0.00063187,-1536.1,-0.0029223,-28241,0.060412
8944,3.2667,0.18182,0,5.6108e-05,560.69,2.6095e-05,101.18,1.453e-05,14.286,-5.3636e-05,-497.89,0.04752
8945,3.2667,0.36364,0,0.00010289,1028.2,5.3592e-05,255.08,2.2341e-05,20.279,-9.6171e-05,-870.18,0.04936
8946,3.2667,0.54545,0,0.00014732,1472.2,8.2797e-05,439.22,2.7091e-05,20.666,-0.00013496,-1197,0.051243
8947,3.2667,0.72727,0,0.00019449,1943.6,0.00011532,656.92,3.095e-05,22.996,-0.00017501,-1524.5,0.053176
8948,3.2667,0.90909,0,0.00024745,2472.8,0.00015287,916.9,3.4411e-05,26.815,-0.00021906,-1877.7,0.055169
8949,3.2667,1.0909,0,0.00031009,3098.8,0.00019813,1236,3.7633e-05,30.097,-0.00027041,-2284.4,0.057226
8950,3.2667,1.2727,0,0.00038857,3883,0.00025509,1645.8,4.1948e-05,44.309,-0.00033418,-2781.8,0.059356
8951,3.2667,1.4545,0,0.00049786,4975.1,0.00033671,2236.2,4.4317e-05,39.273,-0.0004213,-3459.2,0.061563
8952,3.2667,1.6364,0,0.00063553,6350.9,0.00042709,2870.2,6.5304e-05,151.92,-0.00053884,-4387.4,0.063857
8953,3.2667,1.8182,0,0.0011165,11157,0.00084398,6232.1,1.1442e-05,-23.228,-0.0008704,-6649,0.066236
8954,3.2667,2,0,0.0029267,29247,0.0013863,4383.5,0.00061926,-1379.5,-0.0028327,-27316,0.068789
8955,3.1,4.1818,0,0.0012068,12059,0.00089345,6464.4,3.0861e-05,-16.739,-0.0009584,-7449.7,0.057839
8956,3.1,4.3636,0,0.00071554,7150.4,0.00046088,2949.9,8.929e-05,157.87,-0.00062052,-5175.3,0.055501
8957,3.1,4.5455,0,0.00057626,5758.6,0.00036854,2295,6.8892e-05,43.53,-0.00050244,-4249.3,0.053298
8958,3.1,4.7273,0,0.00046353,4632.2,0.00028387,1682.7,6.6301e-05,47.923,-0.00041191,-3545.2,0.051232
8959,3.1,4.9091,0,0.00038058,3803.2,0.00022449,1263.7,6.077e-05,33.56,-0.00034327,-3002.3,0.049294
8960,3.1,5.0909,0,0.00031204,3118.3,0.00017675,941,5.5541e-05,30.247,-0.00028537,-2531.2,0.047474
8961,3.1,5.2727,0,0.00025148,2513.1,0.00013637,680.06,4.9387e-05,26.524,-0.000233,-2095.2,0.045762
8962,3.1,5.4545,0,0.00019472,1945.8,0.00010038,461.35,4.2202e-05,24.246,-0.00018274,-1665.9,0.044146
8963,3.1,5.6364,0,0.00013831,1382.1,6.6767e-05,274.1,3.3555e-05,24.566,-0.00013153,-1215.8,0.042611
8964,3.1,5.8182,0,7.593e-05,758.78,3.3618e-05,113.76,2.0593e-05,15.897,-7.3249e-05,-689.2,0.041141
8965,3.1,4,0,0.0030168,30148,0.0014288,4451.4,0.00063187,-1536.1,-0.0029223,-28241,0.060412
8966,3.2667,5.8182,0,5.6108e-05,560.69,2.6095e-05,101.18,1.453e-05,14.286,-5.3636e-05,-497.89,0.04752
8967,3.2667,5.6364,0,0.00010289,1028.2,5.3592e-05,255.08,2.2341e-05,20.279,-9.6171e-05,-870.18,0.04936
8968,3.2667,5.4545,0,0.00014732,1472.2,8.2797e-05,439.22,2.7091e-05,20.666,-0.00013496,-1197,0.051243
8969,3.2667,5.2727,0,0.00019449,1943.6,0.00011532,656.92,3.095e-05,22.996,-0.00017501,-1524.5,0.053176
8970,3.2667,5.0909,0,0.00024745,2472.8,0.00015287,916.9,3.4411e-05,26.815,-0.00021906,-1877.7,0.055169
8971,3.2667,4.9091,0,0.00031009,3098.8,0.00019813,1236,3.7633e-05,30.097,-0.00027041,-2284.4,0.057226
8972,3.2667,4.7273,0,0.00038857,3883,0.00025509,1645.8,4.1948e-05,44.309,-0.00033418,-2781.8,0.059356
8973,3.2667,4.5455,0,0.00049786,4975.1,0.00033671,2236.2,4.4317e-05,39.273,-0.0004213,-3459.2,0.061563
8974,3.2667,4.3636,0,0.00063553,6350.9,0.00042709,2870.2,6.5303e-05,151.92,-0.00053884,-4387.4,0.063857
8975,3.2667,4.1818,0,0.0011165,11157,0.00084398,6232.1,1.1442e-05,-23.228,-0.0008704,-6649,0.066236
8976,3.2667,4,0,0.0029267,29247,0.0013863,4383.5,0.00061926,-1379.5,-0.0028327,-27316,0.068789
8977,3.1,2.2727,0,0.0018115,18102,0.00070829,1362.4,0.0005327,43.033,-0.0017839,-17363,0.063103
8978,3.1833,2.1818,0,0.0019874,19860,0.00076426,1391.4,0.0005975,138.42,-0.0019584,-19065,0.066393
8979,3.0088,2.1818,0,0.0017482,17470,0.00066935,1149,0.00052373,54.961,-0.0017252,-16842,0.05823
8980,3.1,2.1818,0.05,0.00010872,1086.4,8.3482e-05,627.25,-1.1418e-10,-0.0025247,-8.3482e-05,-627.26,0.062287
8981,3.1,2.0909,0,0.0024624,24607,0.0010766,2757.4,0.00060199,-808.85,-0.0024098,-23438,0.061461
8982,3.1,2.4545,0,0.001499,14980,0.00057849,998.61,0.00044225,-25.025,-0.0014798,-14467,0.06428
8983,3.1833,2.3636,0,0.0015837,15826,0.00061841,1128.6,0.00046132,-51.604,-0.0015621,-15255,0.067825
8984,3.0088,2.3636,0,0.0014957,14947,0.00056899,887.67,0.00044563,-39.2,-0.0014791,-14501,0.059525
8985,3.1,2.3636,0.05,1.9848e-05,198.34,1.524e-05,114.51,-1.291e-10,-0.001857,-1.524e-05,-114.51,0.063684
8986,3.1,2.6364,0,0.0013496,13487,0.00050746,747.42,0.00040757,-3.1458,-0.0013354,-13099,0.06508
8987,3.1833,2.5455,0,0.0013954,13944,0.00053085,850.06,0.00041772,0.045337,-0.001379,-13499,0.068824
8988,3.0088,2.5455,0,0.0013454,13444,0.00049655,634.8,0.0004123,1.7207,-0.0013334,-13115,0.060457
8989,3.1,2.5455,0.05,8.5264e-06,85.205,6.5472e-06,49.193,-7.0532e-11,-0.0010641,-6.5473e-06,-49.194,0.064668
8990,3.1,2.8182,0,0.0012769,12761,0.00047294,618.74,0.00038999,-4.455,-0.0012654,-12442,0.065545
8991,3.1833,2.7273,0,0.0012962,12953,0.00048509,688.49,0.00039267,-5.902,-0.0012831,-12597,0.069462
8992,3.0088,2.7273,0,0.0012637,12629,0.00045911,503.32,0.00039137,-5.6375,-0.0012545,-12372,0.06106
8993,3.1,2.7273,0.05,4.0518e-06,40.49,3.1113e-06,23.377,-2.8768e-11,-0.00075634,-3.1113e-06,-23.378,0.065297
8994,3.1,3,0,0.0012552,12543,0.00046234,578.17,0.00038498,-3.025,-0.0012444,-12245,0.065697
8995,3.1833,2.9091,0,0.0012535,12527,0.00046462,612.39,0.00038271,-3.0095,-0.001242,-12211,0.069774
8996,3.0088,2.9091,0,0.0012273,12264,0.00044163,439.41,0.00038286,-2.1514,-0.0012193,-12040,0.061355
8997,3.1,2.9091,0.05,1.6052e-06,16.041,1.2326e-06,9.2611,-1.1585e-11,-8.942e-05,-1.2326e-06,-9.2613,0.065605
8998,3.1,3.1818,0,0.0012769,12761,0.00047294,618.74,0.00038999,-4.455,-0.0012653,-12442,0.065545
8999,3.1833,3.0909,0,0.0012535,12527,0.00046462,612.39,0.00038271,-3.0095,-0.001242,-12211,0.069774
9000,3.0088,3.0909,0,0.0012273,12264,0.00044163,439.41,0.00038286,-2.1514,-0.0012193,-12040,0.061355
9001,3.1,3.0909,0.05,1.6052e-06,16.041,1.2326e-06,9.2613,1.1585e-11,6.4363e-05,-1.2326e-06,-9.2611,0.065605
9002,3.1,3.3636,0,0.0013496,13487,0.00050746,747.42,0.00040757,-3.1458,-0.0013354,-13099,0.06508
9003,3.1833,3.2727,0,0.0012962,12953,0.00048509,688.49,0.00039267,-5.9019,-0.0012831,-12597,0.069462
9004,3.0088,3.2727,0,0.0012637,12629,0.00045911,503.32,0.00039137,-5.6375,-0.0012545,-12372,0.06106
9005,3.1,3.2727,0.05,4.0518e-06,40.49,3.1113e-06,23.377,1.4966e-11,0.0006614,-3.1113e-06,-23.377,0.065297
9006,3.1,3.5455,0,0.001499,14980,0.00057849,998.61,0.00044225,-25.025,-0.0014798,-14467,0.06428
9007,3.1833,3.4545,0,0.0013954,13944,0.00053085,850.06,0.00041772,0.045315,-0.001379,-13499,0.068824
9008,3.0088,3.4545,0,0.0013454,13444,0.00049655,634.8,0.0004123,1.7207,-0.0013334,-13115,0.060457
9009,3.1,3.4545,0.05,8.5264e-06,85.205,6.5472e-06,49.194,4.8987e-11,0.0010556,-6.5472e-06,-49.193,0.064668
9010,3.1,3.7273,0,0.0018115,18102,0.00070829,1362.4,0.0005327,43.033,-0.0017839,-17363,0.063103
9011,3.1833,3.6364,0,0.0015837,15826,0.00061841,1128.6,0.00046132,-51.604,-0.0015621,-15255,0.067825
9012,3.0088,3.6364,0,0.0014957,14947,0.00056899,887.67,0.00044563,-39.2,-0.0014791,-14501,0.059525
9013,3.1,3.6364,0.05,1.9848e-05,198.34,1.524e-05,114.51,8.9883e-11,0.0019619,-1.524e-05,-114.51,0.063684
9014,3.1833,3.8182,0,0.0019874,19860,0.00076426,1391.4,0.0005975,138.42,-0.0019584,-19065,0.066393
9015,3.0088,3.8182,0,0.0017482,17470,0.00066935,1149,0.00052373,54.961,-0.0017252,-16842,0.05823
9016,3.1,3.8182,0.05,0.00010872,1086.4,8.3482e-05,627.26,1.2288e-10,0.002454,-8.3482e-05,-627.25,0.062287
9017,3.1,3.9091,0,0.0024624,24607,0.0010766,2757.4,0.00060199,-808.84,-0.0024098,-23438,0.061461
9018,3.2667,2.2727,0,0.0017961,17948,0.00070498,1387.6,0.00052685,49.246,-0.0017679,-17193,0.071485
9019,3.3584,2.1818,0,0.0017151,17139,0.00066205,1202.6,0.00051138,70.495,-0.0016906,-16475,0.075803
9020,3.2667,2.1818,0.05,0.00011503,1149.5,8.8329e-05,663.67,-9.6588e-11,-0.0022603,-8.8329e-05,-663.67,0.070659
9021,3.2667,2.0909,0,0.002407,24054,0.0010515,2723.2,0.00059305,-721.12,-0.0023544,-22867,0.069836
9022,3.2667,2.4545,0,0.0014907,14897,0.00057982,1048.1,0.00043694,-25.43,-0.0014704,-14357,0.072671
9023,3.3584,2.3636,0,0.0014765,14755,0.00057036,982.33,0.0004345,-38.44,-0.0014578,-14256,0.077117
9024,3.2667,2.3636,0.05,2.2398e-05,223.83,1.7199e-05,129.23,-7.1218e-11,-0.0015105,-1.7199e-05,-129.23,0.072067
9025,3.2667,2.6364,0,0.0013447,13438,0.00051089,809.21,0.00040285,-2.5684,-0.0013291,-13016,0.073477
9026,3.3584,2.5455,0,0.0013337,13327,0.00050264,756.54,0.00040237,3.1648,-0.0013191,-12932,0.078065
9027,3.2667,2.5455,0.05,1.1901e-05,118.93,9.1388e-06,68.665,-4.056e-11,-0.00086034,-9.1389e-06,-68.667,0.07306
9028,3.2667,2.8182,0,0.0012733,12724,0.00047722,685.53,0.00038541,-4.2854,-0.0012603,-12370,0.073946
9029,3.3584,2.7273,0,0.0012554,12546,0.00046749,638.53,0.00038182,-5.14,-0.0012434,-12216,0.078679
9030,3.2667,2.7273,0.05,7.1004e-06,70.955,5.4522e-06,40.966,-1.3543e-11,-0.00039636,-5.4523e-06,-40.967,0.073695
9031,3.2667,3,0,0.0012519,12511,0.00046688,646.47,0.00038046,-2.8424,-0.0012397,-12176,0.0741
9032,3.3584,2.9091,0,0.0012204,12195,0.00045098,580.51,0.00037348,-1.781,-0.0012095,-11896,0.078981
9033,3.2667,2.9091,0.05,5.2804e-06,52.767,4.0547e-06,30.465,-1.0441e-12,-0.00012786,-4.0547e-06,-30.466,0.074005
9034,3.2667,3.1818,0,0.0012733,12724,0.00047722,685.53,0.00038541,-4.2853,-0.0012603,-12370,0.073946
9035,3.3584,3.0909,0,0.0012204,12195,0.00045098,580.51,0.00037348,-1.781,-0.0012095,-11896,0.078981
9036,3.2667,3.0909,0.05,5.2804e-06,52.767,4.0547e-06,30.466,1.0638e-12,9.0887e-05,-4.0547e-06,-30.465,0.074005
9037,3.2667,3.3636,0,0.0013447,13438,0.00051089,809.22,0.00040285,-2.5684,-0.0013291,-13016,0.073477
9038,3.3584,3.2727,0,0.0012554,12546,0.00046749,638.53,0.00038182,-5.14,-0.0012434,-12216,0.078679
9039,3.2667,3.2727,0.05,7.1004e-06,70.955,5.4523e-06,40.967,1.3543e-11,0.00040773,-5.4522e-06,-40.966,0.073695
9040,3.2667,3.5455,0,0.0014907,14897,0.00057982,1048.1,0.00043694,-25.43,-0.0014704,-14357,0.072671
9041,3.3584,3.4545,0,0.0013337,13327,0.00050264,756.54,0.00040237,3.1648,-0.0013191,-12932,0.078065
9042,3.2667,3.4545,0.05,1.1901e-05,118.93,9.1389e-06,68.667,3.6318e-11,0.00077055,-9.1388e-06,-68.665,0.07306
9043,3.2667,3.7273,0,0.0017961,17948,0.00070498,1387.6,0.00052685,49.246,-0.0017679,-17193,0.071485
9044,3.3584,3.6364,0,0.0014765,14755,0.00057036,982.33,0.0004345,-38.44,-0.0014578,-14256,0.077117
9045,3.2667,3.6364,0.05,2.2398e-05,223.83,1.7199e-05,129.23,5.8515e-11,0.0015725,-1.7199e-05,-129.23,0.072067
9046,3.3584,3.8182,0,0.0017151,17139,0.00066205,1202.6,0.00051138,70.496,-0.0016906,-16475,0.075803
9047,3.2667,3.8182,0.05,0.00011503,1149.5,8.8329e-05,663.67,8.4963e-11,0.0022303,-8.8329e-05,-663.67,0.070659
9048,3.2667,3.9091,0,0.002407,24054,0.0010515,2723.2,0.00059304,-721.12,-0.0023544,-22867,0.069836
9049,2.9176,5.7273,0,0.00016315,1630.3,7.7456e-05,271.59,3.6923e-05,-32.953,-0.00015694,-1489.6,0.037662
9050,2.8265,5.8182,0,0.00016356,1634.5,6.8823e-05,159.71,4.2746e-05,-36.224,-0.00016058,-1563.9,0.034885
9051,2.9176,5.8182,0.05,1.7666e-05,176.54,1.3565e-05,101.93,-9.1081e-13,-2.2561e-05,-1.3565e-05,-101.93,0.036942
9052,2.9176,5.9091,0,0.00010389,1038.2,4.1624e-05,73.909,2.8343e-05,-25.878,-0.00010272,-1010.6,0.036265
9053,3.0088,5.8182,0,9.5013e-05,949.48,3.8285e-05,81.995,2.6903e-05,-3.5258,-9.3389e-05,-907.35,0.039051
9054,2.9176,5.5455,0,0.00023004,2298.8,0.00011686,496.4,4.8345e-05,-18.421,-0.00021754,-2016.2,0.039078
9055,2.8265,5.6364,0,0.00020533,2051.9,8.839e-05,238.45,5.3644e-05,-22.619,-0.00020041,-1931.4,0.036252
9056,2.9176,5.6364,0.05,1.5683e-05,156.72,1.2043e-05,90.484,-7.5489e-13,-2.8808e-05,-1.2043e-05,-90.484,0.038345
9057,3.0088,5.6364,0,0.00015494,1548.4,7.0753e-05,243.7,3.9089e-05,5.7866,-0.00014932,-1409.8,0.040488
9058,2.9176,5.3636,0,0.00030572,3055.1,0.00016574,800.21,5.7312e-05,-14.489,-0.00028409,-2579.6,0.040532
9059,2.8265,5.4545,0,0.00026633,2661.5,0.00012506,448.39,6.3493e-05,-14.167,-0.00025591,-2414,0.037633
9060,2.9176,5.4545,0.05,1.6379e-05,163.68,1.2577e-05,94.498,-3.0128e-12,-1.9543e-05,-1.2577e-05,-94.498,0.039778
9061,3.0088,5.4545,0,0.00021768,2175.3,0.0001097,470.29,4.7594e-05,3.6496,-0.00020583,-1900.5,0.041973
9062,2.9176,5.1818,0,0.0003883,3880.3,0.00022087,1155.2,6.5406e-05,-12.907,-0.00035544,-3175,0.042036
9063,2.8265,5.2727,0,0.00033622,3359.9,0.00016961,719.67,7.2468e-05,-10.245,-0.00031815,-2945.2,0.039041
9064,2.9176,5.2727,0.05,1.7951e-05,179.38,1.3784e-05,103.57,9.0949e-13,1.8161e-05,-1.3784e-05,-103.57,0.041255
9065,3.0088,5.2727,0,0.00028292,2827.2,0.00015203,732.43,5.5026e-05,3.5948,-0.00026326,-2387.8,0.04352
9066,2.9176,5,0,0.00048107,4807.3,0.00028392,1568.8,7.3314e-05,-13.687,-0.00043465,-3830.3,0.0436
9067,2.8265,5.0909,0,0.00041446,4141.7,0.00022043,1035.5,8.1439e-05,-8.8317,-0.00038699,-3528.4,0.040487
9068,2.9176,5.0909,0.05,2.0334e-05,203.2,1.5614e-05,117.31,5.2809e-12,5.4166e-05,-1.5614e-05,-117.31,0.042787
9069,3.0088,5.0909,0,0.00035341,3531.6,0.00019927,1036.9,6.1789e-05,3.9603,-0.00032417,-2896,0.045143
9070,2.9176,4.8182,0,0.00059018,5897.7,0.00035858,2063.6,8.212e-05,-13.639,-0.00052718,-4591.7,0.045228
9071,2.8265,4.9091,0,0.00050364,5032.9,0.00027848,1397.4,9.1262e-05,-9.3113,-0.00046505,-4189.2,0.041973
9072,2.9176,4.9091,0.05,2.372e-05,237.03,1.8214e-05,136.85,7.955e-12,0.00013945,-1.8214e-05,-136.85,0.044382
9073,3.0088,4.9091,0,0.0004333,4330,0.00025425,1401,6.8037e-05,1.9094,-0.00039212,-3455.6,0.04685
9074,2.9176,4.6364,0,0.00072593,7254.2,0.00045082,2665.9,9.2779e-05,-24.344,-0.00064253,-5549.2,0.046918
9075,2.8265,4.7273,0,0.00060905,6086.3,0.00034619,1815.3,0.00010351,-8.099,-0.00055745,-4974.3,0.043498
9076,2.9176,4.7273,0.05,2.896e-05,289.4,2.2238e-05,167.09,1.7533e-11,0.00024828,-2.2238e-05,-167.09,0.046039
9077,3.0088,4.7273,0,0.00052935,5289.8,0.00032094,1853.5,7.5494e-05,9.2297,-0.00047295,-4111.6,0.048648
9078,2.9176,4.4545,0,0.00091152,9108.9,0.00057436,3470.6,0.00011107,-10.354,-0.00080129,-6865.5,0.048659
9079,2.8265,4.5455,0,0.00073824,7377.3,0.00042592,2277.6,0.00012003,-20.748,-0.00067247,-5975.3,0.045052
9080,2.9176,4.5455,0.05,3.5699e-05,356.75,2.7413e-05,205.97,4.9514e-11,0.00047495,-2.7413e-05,-205.97,0.047754
9081,3.0088,4.5455,0,0.00065465,6542,0.00041065,2459.8,8.0402e-05,-21.504,-0.00057684,-4959.8,0.050538
9082,2.9176,4.2727,0,0.0011732,11724,0.00071894,4146.1,0.00015404,-98.389,-0.0010452,-9108.8,0.050424
9083,2.8265,4.3636,0,0.00090674,9061.1,0.00052224,2803.9,0.00015012,8.0292,-0.00082593,-7325.6,0.046611
9084,2.9176,4.3636,0.05,5.2689e-05,526.53,4.0459e-05,303.99,1.0037e-10,0.00088364,-4.0459e-05,-303.99,0.04951
9085,3.0088,4.3636,0,0.0008217,8211.3,0.00051655,3168.3,0.00010753,95.101,-0.00072183,-6136.4,0.052514
9086,2.9176,4.0909,0,0.001441,14400,0.00078012,3515.6,0.00024521,-503.48,-0.001347,-12467,0.05215
9087,2.8265,4.1818,0,0.0011364,11356,0.00061744,2966.3,0.00020932,-100.2,-0.0010562,-9608.4,0.048129
9088,2.9176,4.1818,0.05,9.6534e-05,964.67,7.4126e-05,556.95,2.6177e-10,0.0026643,-7.4126e-05,-556.95,0.051256
9089,3.0088,4.1818,0,0.0011559,11551,0.00078569,4979.6,6.7019e-05,-420.2,-0.00097938,-8282.5,0.054557
9090,2.9176,3.9091,0,0.0015236,15225,0.00066038,1725.3,0.00038528,-341.69,-0.0014895,-14428,0.053698
9091,2.8265,4,0,0.0013138,13129,0.00059572,1786.4,0.00031167,-347.87,-0.0012762,-12278,0.049538
9092,2.9176,4,0.05,0.00016889,1687.7,0.00012968,974.39,9.8211e-11,0.0016917,-0.00012968,-974.39,0.052905
9093,3.0088,4,0,0.002266,22644,0.0010205,2979.1,0.00054092,-624.03,-0.0022043,-21250,0.056547
9094,2.9176,3.7273,0,0.0014518,14508,0.00054557,791.01,0.00043779,-18.849,-0.001437,-14105,0.05501
9095,2.8265,3.8182,0,0.0013212,13203,0.00048385,587.2,0.00040811,18.094,-0.00131,-12891,0.050776
9096,2.9176,3.8182,0.05,8.3106e-05,830.49,6.3816e-05,479.49,-5.5533e-11,0.00065796,-6.3815e-05,-479.48,0.054342
9097,2.9176,3.5455,0,0.0013476,13466,0.00049178,559.33,0.00041561,-12.954,-0.0013374,-13184,0.05602
9098,2.8265,3.6364,0,0.0012764,12755,0.00045082,341.25,0.00040214,-24.506,-0.0012706,-12593,0.051801
9099,2.9176,3.6364,0.05,3.3716e-05,336.93,2.589e-05,194.53,-7.7859e-12,0.00066139,-2.589e-05,-194.52,0.055501
9100,2.9176,3.3636,0,0.001261,12601,0.00044948,400.27,0.00039604,-1.2108,-0.0012537,-12397,0.056731
9101,2.8265,3.4545,0,0.0012144,12135,0.00041801,205.24,0.00039028,-3.1156,-0.0012108,-12033,0.052578
9102,2.9176,3.4545,0.05,1.7871e-05,178.58,1.3722e-05,103.11,-1.5529e-11,0.00041277,-1.3722e-05,-103.1,0.05636
9103,2.9176,3.1818,0,0.001214,12132,0.00042765,322.81,0.00038426,-3.2244,-0.0012083,-11969,0.057151
9104,2.8265,3.2727,0,0.0011721,11713,0.00039802,131.76,0.00037985,-4.7702,-0.0011699,-11649,0.053095
9105,2.9176,3.2727,0.05,1.0014e-05,100.07,7.6897e-06,57.778,-1.249e-11,0.00018051,-7.6897e-06,-57.777,0.056924
9106,2.9176,3,0,0.001199,11981,0.00042043,296.86,0.00038077,-1.0801,-0.0011937,-11831,0.05729
9107,2.8265,3.0909,0,0.001151,11502,0.00038791,96.232,0.00037497,-1.0255,-0.0011494,-11454,0.053353
9108,2.9176,3.0909,0.05,7.2585e-06,72.535,5.5736e-06,41.878,-1.2238e-11,2.0199e-05,-5.5736e-06,-41.878,0.057203
9109,2.9176,2.8182,0,0.001214,12132,0.00042765,322.81,0.00038426,-3.2244,-0.0012083,-11969,0.057151
9110,2.8265,2.9091,0,0.001151,11502,0.00038791,96.231,0.00037497,-1.0255,-0.0011494,-11454,0.053353
9111,2.9176,2.9091,0.05,7.2585e-06,72.535,5.5736e-06,41.878,8.6599e-12,-5.5971e-05,-5.5736e-06,-41.878,0.057203
9112,2.9176,2.6364,0,0.001261,12601,0.00044948,400.27,0.00039604,-1.2108,-0.0012537,-12397,0.056731
9113,2.8265,2.7273,0,0.0011721,11713,0.00039802,131.76,0.00037985,-4.7702,-0.0011699,-11649,0.053095
9114,2.9176,2.7273,0.05,1.0014e-05,100.07,7.6897e-06,57.777,9.1584e-12,-0.00021874,-7.6897e-06,-57.778,0.056924
9115,2.9176,2.4545,0,0.0013476,13466,0.00049178,559.33,0.00041561,-12.954,-0.0013374,-13184,0.05602
9116,2.8265,2.5455,0,0.0012144,12135,0.00041801,205.23,0.00039028,-3.1156,-0.0012108,-12033,0.052578
9117,2.9176,2.5455,0.05,1.7871e-05,178.58,1.3722e-05,103.1,1.1798e-11,-0.00044466,-1.3722e-05,-103.11,0.05636
9118,2.9176,2.2727,0,0.0014518,14508,0.00054557,791.01,0.00043779,-18.849,-0.001437,-14105,0.05501
9119,2.8265,2.3636,0,0.0012764,12755,0.00045082,341.25,0.00040214,-24.506,-0.0012706,-12593,0.051801
9120,2.9176,2.3636,0.05,3.3716e-05,336.93,2.589e-05,194.52,1.1901e-11,-0.00073865,-2.589e-05,-194.53,0.055501
9121,2.9176,2.0909,0,0.0015236,15225,0.00066038,1725.3,0.00038528,-341.69,-0.0014895,-14428,0.053698
9122,2.8265,2.1818,0,0.0013212,13203,0.00048385,587.2,0.00040811,18.094,-0.00131,-12891,0.050776
9123,2.9176,2.1818,0.05,8.3106e-05,830.49,6.3815e-05,479.48,5.6385e-11,-0.00065832,-6.3816e-05,-479.49,0.054342
9124,2.9176,1.9091,0,0.001441,14400,0.00078012,3515.6,0.00024521,-503.48,-0.001347,-12467,0.05215
9125,2.8265,2,0,0.0013138,13129,0.00059572,1786.4,0.00031167,-347.87,-0.0012762,-12278,0.049538
9126,2.9176,2,0.05,0.00016889,1687.7,0.00012968,974.39,-9.7368e-11,-0.0018837,-0.00012968,-974.39,0.052905
9127,3.0088,2,0,0.002266,22644,0.0010205,2979.1,0.00054092,-624.03,-0.0022043,-21250,0.056547
9128,2.9176,1.7273,0,0.0011732,11724,0.00071894,4146.1,0.00015404,-98.389,-0.0010452,-9108.8,0.050424
9129,2.8265,1.8182,0,0.0011364,11356,0.00061744,2966.3,0.00020932,-100.2,-0.0010562,-9608.4,0.048129
9130,2.9176,1.8182,0.05,9.6534e-05,964.67,7.4126e-05,556.95,-2.6143e-10,-0.0026023,-7.4126e-05,-556.95,0.051256
9131,3.0088,1.8182,0,0.0011559,11551,0.00078569,4979.6,6.7019e-05,-420.2,-0.00097938,-8282.5,0.054557
9132,2.9176,1.5455,0,0.00091152,9108.9,0.00057436,3470.6,0.00011107,-10.353,-0.00080129,-6865.5,0.048659
9133,2.8265,1.6364,0,0.00090674,9061.1,0.00052224,2804,0.00015012,8.0292,-0.00082593,-7325.6,0.046611
9134,2.9176,1.6364,0.05,5.2689e-05,526.53,4.0459e-05,303.99,-9.8674e-11,-0.00090135,-4.0459e-05,-303.99,0.04951
9135,3.0088,1.6364,0,0.0008217,8211.3,0.00051655,3168.3,0.00010753,95.101,-0.00072183,-6136.4,0.052514
9136,2.9176,1.3636,0,0.00072593,7254.2,0.00045082,2665.9,9.2779e-05,-24.344,-0.00064253,-5549.2,0.046918
9137,2.8265,1.4545,0,0.00073824,7377.3,0.00042592,2277.6,0.00012003,-20.748,-0.00067247,-5975.3,0.045052
9138,2.9176,1.4545,0.05,3.5699e-05,356.75,2.7413e-05,205.97,-4.7137e-11,-0.00046905,-2.7413e-05,-205.97,0.047754
9139,3.0088,1.4545,0,0.00065465,6542,0.00041065,2459.8,8.0402e-05,-21.504,-0.00057684,-4959.8,0.050538
9140,2.9176,1.1818,0,0.00059018,5897.7,0.00035858,2063.6,8.212e-05,-13.639,-0.00052718,-4591.7,0.045228
9141,2.8265,1.2727,0,0.00060905,6086.3,0.00034619,1815.3,0.00010351,-8.099,-0.00055745,-4974.3,0.043498
9142,2.9176,1.2727,0.05,2.896e-05,289.4,2.2238e-05,167.09,-1.2887e-11,-0.00016633,-2.2238e-05,-167.09,0.046039
9143,3.0088,1.2727,0,0.00052935,5289.8,0.00032094,1853.5,7.5494e-05,9.2297,-0.00047295,-4111.6,0.048648
9144,2.9176,1,0,0.00048107,4807.3,0.00028392,1568.8,7.3314e-05,-13.687,-0.00043465,-3830.3,0.0436
9145,2.8265,1.0909,0,0.00050364,5032.9,0.00027848,1397.4,9.1262e-05,-9.3113,-0.00046505,-4189.2,0.041973
9146,2.9176,1.0909,0.05,2.372e-05,237.03,1.8214e-05,136.85,-8.1528e-12,-0.00011225,-1.8214e-05,-136.85,0.044382
9147,3.0088,1.0909,0,0.0004333,4330,0.00025425,1401,6.8037e-05,1.9094,-0.00039212,-3455.6,0.04685
9148,2.9176,0.81818,0,0.0003883,3880.3,0.00022087,1155.2,6.5406e-05,-12.907,-0.00035544,-3175,0.042036
9149,2.8265,0.90909,0,0.00041446,4141.7,0.00022043,1035.5,8.1439e-05,-8.8317,-0.00038699,-3528.4,0.040487
9150,2.9176,0.90909,0.05,2.0334e-05,203.2,1.5614e-05,117.31,-5.2809e-12,-3.0518e-05,-1.5614e-05,-117.31,0.042787
9151,3.0088,0.90909,0,0.00035341,3531.6,0.00019927,1036.9,6.1789e-05,3.9603,-0.00032417,-2896,0.045143
9152,2.9176,0.63636,0,0.00030572,3055.1,0.00016574,800.21,5.7312e-05,-14.488,-0.00028409,-2579.6,0.040532
9153,2.8265,0.72727,0,0.00033622,3359.9,0.00016961,719.67,7.2468e-05,-10.245,-0.00031815,-2945.2,0.039041
9154,2.9176,0.72727,0.05,1.7951e-05,179.38,1.3784e-05,103.57,-1.8724e-13,-2.1968e-14,-1.3784e-05,-103.57,0.041255
9155,3.0088,0.72727,0,0.00028292,2827.2,0.00015203,732.43,5.5026e-05,3.5948,-0.00026326,-2387.8,0.04352
9156,2.9176,0.45455,0,0.00023004,2298.8,0.00011686,496.4,4.8345e-05,-18.421,-0.00021754,-2016.2,0.039078
9157,2.8265,0.54545,0,0.00026633,2661.5,0.00012506,448.39,6.3493e-05,-14.167,-0.00025591,-2414,0.037633
9158,2.9176,0.54545,0.05,1.6379e-05,163.68,1.2577e-05,94.498,2.1573e-12,1.9543e-05,-1.2577e-05,-94.498,0.039778
9159,3.0088,0.54545,0,0.00021768,2175.3,0.0001097,470.29,4.7594e-05,3.6496,-0.00020583,-1900.5,0.041973
9160,2.9176,0.27273,0,0.00016315,1630.3,7.7456e-05,271.59,3.6923e-05,-32.953,-0.00015694,-1489.6,0.037662
9161,2.8265,0.36364,0,0.00020533,2051.9,8.839e-05,238.45,5.3644e-05,-22.619,-0.00020041,-1931.4,0.036252
9162,2.9176,0.36364,0.05,1.5683e-05,156.72,1.2043e-05,90.484,2.472e-12,2.668e-05,-1.2043e-05,-90.484,0.038345
9163,3.0088,0.36364,0,0.00015494,1548.4,7.0753e-05,243.7,3.9089e-05,5.7866,-0.00014932,-1409.8,0.040488
9164,2.8265,0.18182,0,0.00016356,1634.5,6.8823e-05,159.71,4.2746e-05,-36.224,-0.00016058,-1563.9,0.034885
9165,2.9176,0.18182,0.05,1.7666e-05,176.54,1.3565e-05,101.93,3.4286e-12,1.9735e-05,-1.3565e-05,-101.93,0.036942
9166,2.9176,0.090909,0,0.00010389,1038.2,4.1624e-05,73.909,2.8343e-05,-25.878,-0.00010272,-1010.6,0.036265
9167,3.0088,0.18182,0,9.5013e-05,949.48,3.8285e-05,81.995,2.6903e-05,-3.5258,-9.3389e-05,-907.35,0.039051
9168,2.7353,5.7273,0,0.00021118,2110.4,8.3412e-05,154.02,6.014e-05,-20.837,-0.00020837,-2038.3,0.03349
9169,2.6441,5.8182,0,0.00023193,2317.7,8.9729e-05,149.91,6.7594e-05,-16.408,-0.00022921,-2246.5,0.030789
9170,2.7353,5.8182,0.05,1.5624e-05,156.14,1.1998e-05,90.145,-5.4426e-13,-2.0579e-06,-1.1998e-05,-90.145,0.032802
9171,2.7353,5.9091,0,0.00017879,1786.6,6.431e-05,62.667,5.569e-05,-2.1014,-0.00017767,-1755.5,0.032154
9172,2.7353,5.5455,0,0.0002501,2499.3,0.00010252,235.07,6.9482e-05,-13.19,-0.0002454,-2379.1,0.034817
9173,2.6441,5.6364,0,0.00025222,2520.4,9.5486e-05,137.26,7.4788e-05,-18.259,-0.00024983,-2457.3,0.032078
9174,2.7353,5.6364,0.05,1.3085e-05,130.76,1.0048e-05,75.494,1.1959e-12,3.689e-06,-1.0048e-05,-75.494,0.034131
9175,2.7353,5.3636,0,0.00030563,3054.2,0.00013515,414.58,7.897e-05,-7.5125,-0.00029651,-2828.7,0.03615
9176,2.6441,5.4545,0,0.00029308,2928.8,0.00011647,232.17,8.3929e-05,-12.364,-0.00028857,-2811.2,0.033353
9177,2.7353,5.4545,0.05,1.2965e-05,129.56,9.9556e-06,74.803,4.3689e-12,4.4123e-05,-9.9556e-06,-74.802,0.035459
9178,2.7353,5.1818,0,0.00037134,3710.9,0.00017538,646.61,8.8701e-05,-4.6674,-0.00035611,-3346.8,0.037498
9179,2.6441,5.2727,0,0.00034622,3459.8,0.00014671,390.58,9.3675e-05,-7.895,-0.00033798,-3251.2,0.034625
9180,2.7353,5.2727,0.05,1.3424e-05,134.15,1.0308e-05,77.45,8.3035e-12,0.00010419,-1.0308e-05,-77.45,0.036798
9181,2.7353,5,0,0.00044669,4463.8,0.00022154,913.34,9.9538e-05,-3.3218,-0.00042409,-3937.6,0.038868
9182,2.6441,5.0909,0,0.00040893,4086.5,0.00018315,586.11,0.00010435,-5.918,-0.00039583,-3764.1,0.0359
9183,2.7353,5.0909,0.05,1.4403e-05,143.93,1.106e-05,83.099,1.5258e-11,0.00019789,-1.106e-05,-83.099,0.038155
9184,2.7353,4.8182,0,0.0005338,5334.4,0.00027361,1205.7,0.00011277,-2.8495,-0.00050297,-4629.3,0.040258
9185,2.6441,4.9091,0,0.00048106,4807.3,0.00022428,801.32,0.00011695,-5.1145,-0.00046241,-4358.2,0.037179
9186,2.7353,4.9091,0.05,1.5977e-05,159.66,1.2269e-05,92.182,2.9154e-11,0.00031459,-1.2269e-05,-92.183,0.039534
9187,2.7353,4.6364,0,0.00063555,6351.1,0.00033051,1496.4,0.00013087,-3.6912,-0.00059672,-5470.5,0.04166
9188,2.6441,4.7273,0,0.00056403,5636.4,0.00026911,1017.8,0.00013297,-5.1598,-0.00053979,-5060.1,0.038457
9189,2.7353,4.7273,0.05,1.801e-05,179.97,1.3829e-05,103.91,4.4099e-11,0.00042754,-1.3829e-05,-103.91,0.040929
9190,2.7353,4.4545,0,0.00075421,7536.9,0.00038702,1710.3,0.00015917,-1.7117,-0.00071041,-6535.4,0.043056
9191,2.6441,4.5455,0,0.00065894,6584.9,0.00031456,1191.1,0.00015524,-6.0612,-0.00063057,-5910.3,0.039721
9192,2.7353,4.5455,0.05,2.1988e-05,219.73,1.6884e-05,126.86,7.0556e-11,0.00073593,-1.6884e-05,-126.86,0.042329
9193,2.7353,4.2727,0,0.00088717,8865.6,0.00042989,1692.9,0.00020548,6.859,-0.00084614,-7894.6,0.044413
9194,2.6441,4.3636,0,0.00076544,7649.1,0.00035362,1234,0.00018823,-8.6697,-0.00073698,-6960.3,0.040947
9195,2.7353,4.3636,0.05,2.1632e-05,216.17,1.6611e-05,124.81,1.3331e-10,0.0013064,-1.6611e-05,-124.81,0.043708
9196,2.7353,4.0909,0,0.0010021,10014,0.00042423,1170.9,0.00027577,55.417,-0.00097654,-9354,0.045687
9197,2.6441,4.1818,0,0.00087554,8749.4,0.00037137,1002.1,0.00023762,-2.8468,-0.0008542,-8206.4,0.042104
9198,2.7353,4.1818,0.05,3.1044e-05,310.22,2.3838e-05,179.11,1.879e-10,0.0019045,-2.3838e-05,-179.11,0.045027
9199,2.7353,3.9091,0,0.0010904,10897,0.00039465,463.88,0.00034305,76.157,-0.0010807,-10621,0.046835
9200,2.6441,4,0,0.00096145,9607.9,0.00034745,383.51,0.00030102,34.682,-0.00095386,-9394,0.043161
9201,2.7353,4,0.05,2.6676e-05,266.58,2.0484e-05,153.91,-7.393e-12,0.00062405,-2.0484e-05,-153.91,0.046238
9202,2.7353,3.7273,0,0.0011377,11369,0.00038174,82.125,0.00037229,11.143,-0.0011361,-11322,0.047824
9203,2.6441,3.8182,0,0.0010299,10292,0.00034554,20.738,0.00033219,-79.574,-0.0010309,-10321,0.044094
9204,2.7353,3.8182,0.05,3.7908e-05,378.82,2.9109e-05,218.71,-6.2536e-11,0.00024394,-2.9109e-05,-218.71,0.047306
9205,2.7353,3.5455,0,0.0011404,11396,0.00038125,18.728,0.00036971,-67.958,-0.0011412,-11420,0.048623
9206,2.6441,3.6364,0,0.0010595,10588,0.00036234,3.1615,0.00032827,-252.85,-0.0010635,-10710,0.044879
9207,2.7353,3.6364,0.05,2.6242e-05,262.24,2.0151e-05,151.41,-5.3849e-11,0.00015607,-2.0151e-05,-151.4,0.048203
9208,2.7353,3.3636,0,0.001124,11232,0.00037607,8.2135,0.00036294,-90.374,-0.0011253,-11273,0.049204
9209,2.6441,3.4545,0,0.0010619,10612,0.00036522,3.9705,0.00032558,-293.86,-0.0010665,-10754,0.04549
9210,2.7353,3.4545,0.05,1.901e-05,189.97,1.4597e-05,109.68,-4.4903e-11,9.3071e-05,-1.4597e-05,-109.68,0.048894
9211,2.7353,3.1818,0,0.0011078,11071,0.00037105,1.1368,0.00035642,-108.8,-0.0011096,-11124,0.049554
9212,2.6441,3.2727,0,0.0010541,10534,0.00036345,1.3668,0.00032138,-314.68,-0.0010591,-10687,0.045905
9213,2.7353,3.2727,0.05,1.3137e-05,131.28,1.0088e-05,75.797,-3.5554e-11,-2.6075e-06,-1.0088e-05,-75.796,0.049359
9214,2.7353,3,0,0.0011018,11010,0.00036926,-0.27837,0.00035398,-115.09,-0.0011037,-11068,0.049672
9215,2.6441,3.0909,0,0.0010482,10475,0.00036182,0.36952,0.00031879,-322.98,-0.0010533,-10633,0.046115
9216,2.7353,3.0909,0.05,1.0619e-05,106.12,8.1542e-06,61.267,-1.1818e-11,-2.067e-05,-8.1542e-06,-61.267,0.049593
9217,2.7353,2.8182,0,0.0011078,11071,0.00037105,1.1368,0.00035642,-108.8,-0.0011096,-11124,0.049554
9218,2.6441,2.9091,0,0.0010482,10475,0.00036182,0.36952,0.00031879,-322.98,-0.0010533,-10633,0.046115
9219,2.7353,2.9091,0.05,1.0619e-05,106.12,8.1542e-06,61.267,1.176e-11,-4.9768e-06,-8.1542e-06,-61.267,0.049593
9220,2.7353,2.6364,0,0.001124,11232,0.00037607,8.2135,0.00036294,-90.375,-0.0011253,-11273,0.049204
9221,2.6441,2.7273,0,0.0010541,10534,0.00036345,1.3668,0.00032138,-314.68,-0.0010591,-10687,0.045905
9222,2.7353,2.7273,0.05,1.3137e-05,131.28,1.0088e-05,75.796,3.2013e-11,-2.1525e-05,-1.0088e-05,-75.797,0.049359
9223,2.7353,2.4545,0,0.0011404,11396,0.00038125,18.728,0.00036971,-67.959,-0.0011412,-11420,0.048623
9224,2.6441,2.5455,0,0.0010619,10612,0.00036522,3.9704,0.00032558,-293.86,-0.0010665,-10754,0.04549
9225,2.7353,2.5455,0.05,1.901e-05,189.97,1.4597e-05,109.68,4.8046e-11,-0.0001288,-1.4597e-05,-109.68,0.048894
9226,2.7353,2.2727,0,0.0011377,11369,0.00038174,82.125,0.00037229,11.143,-0.0011361,-11322,0.047824
9227,2.6441,2.3636,0,0.0010595,10588,0.00036234,3.1614,0.00032827,-252.85,-0.0010635,-10710,0.044879
9228,2.7353,2.3636,0.05,2.6242e-05,262.24,2.0151e-05,151.4,5.4256e-11,-0.00019276,-2.0151e-05,-151.41,0.048203
9229,2.7353,2.0909,0,0.0010904,10897,0.00039465,463.88,0.00034305,76.157,-0.0010807,-10621,0.046835
9230,2.6441,2.1818,0,0.0010299,10292,0.00034554,20.738,0.00033219,-79.574,-0.0010309,-10321,0.044094
9231,2.7353,2.1818,0.05,3.7908e-05,378.82,2.9109e-05,218.71,5.8128e-11,-0.0002511,-2.9109e-05,-218.71,0.047306
9232,2.7353,1.9091,0,0.0010021,10014,0.00042423,1170.9,0.00027577,55.417,-0.00097654,-9354,0.045687
9233,2.6441,2,0,0.00096145,9607.9,0.00034745,383.52,0.00030102,34.682,-0.00095386,-9394,0.043161
9234,2.7353,2,0.05,2.6676e-05,266.58,2.0484e-05,153.91,8.2975e-12,-0.00059733,-2.0484e-05,-153.91,0.046238
9235,2.7353,1.7273,0,0.00088717,8865.6,0.00042989,1692.9,0.00020548,6.859,-0.00084614,-7894.6,0.044413
9236,2.6441,1.8182,0,0.00087554,8749.4,0.00037137,1002.1,0.00023762,-2.8468,-0.0008542,-8206.4,0.042104
9237,2.7353,1.8182,0.05,3.1044e-05,310.22,2.3838e-05,179.11,-1.8067e-10,-0.001962,-2.3838e-05,-179.11,0.045027
9238,2.7353,1.5455,0,0.00075421,7536.9,0.00038702,1710.3,0.00015917,-1.7117,-0.00071041,-6535.4,0.043056
9239,2.6441,1.6364,0,0.00076544,7649.1,0.00035362,1234,0.00018823,-8.6697,-0.00073698,-6960.3,0.040947
9240,2.7353,1.6364,0.05,2.1632e-05,216.17,1.6611e-05,124.81,-1.3275e-10,-0.001285,-1.6611e-05,-124.81,0.043708
9241,2.7353,1.3636,0,0.00063555,6351.1,0.00033051,1496.4,0.00013087,-3.6912,-0.00059672,-5470.5,0.04166
9242,2.6441,1.4545,0,0.00065894,6584.9,0.00031456,1191.1,0.00015524,-6.0612,-0.00063057,-5910.3,0.039721
9243,2.7353,1.4545,0.05,2.1988e-05,219.73,1.6884e-05,126.86,-7.3577e-11,-0.00069894,-1.6884e-05,-126.86,0.042329
9244,2.7353,1.1818,0,0.0005338,5334.4,0.00027361,1205.7,0.00011277,-2.8495,-0.00050297,-4629.3,0.040258
9245,2.6441,1.2727,0,0.00056403,5636.4,0.00026911,1017.8,0.00013297,-5.1598,-0.00053979,-5060.1,0.038457
9246,2.7353,1.2727,0.05,1.801e-05,179.97,1.3829e-05,103.91,-4.4604e-11,-0.00045574,-1.3829e-05,-103.91,0.040929
9247,2.7353,1,0,0.00044669,4463.8,0.00022154,913.34,9.9538e-05,-3.3218,-0.00042409,-3937.6,0.038868
9248,2.6441,1.0909,0,0.00048106,4807.3,0.00022428,801.32,0.00011695,-5.1145,-0.00046241,-4358.2,0.037179
9249,2.7353,1.0909,0.05,1.5978e-05,159.66,1.2269e-05,92.183,-3.1068e-11,-0.00031265,-1.2269e-05,-92.182,0.039534
9250,2.7353,0.81818,0,0.00037134,3710.9,0.00017538,646.61,8.8701e-05,-4.6674,-0.00035611,-3346.8,0.037498
9251,2.6441,0.90909,0,0.00040893,4086.5,0.00018315,586.11,0.00010435,-5.918,-0.00039583,-3764.1,0.0359
9252,2.7353,0.90909,0.05,1.4403e-05,143.93,1.106e-05,83.099,-1.5258e-11,-0.00017419,-1.106e-05,-83.099,0.038155
9253,2.7353,0.63636,0,0.00030563,3054.2,0.00013515,414.58,7.897e-05,-7.5125,-0.00029651,-2828.7,0.03615
9254,2.6441,0.72727,0,0.00034622,3459.8,0.00014671,390.58,9.3675e-05,-7.8949,-0.00033798,-3251.2,0.034625
9255,2.7353,0.72727,0.05,1.3424e-05,134.15,1.0308e-05,77.45,-9.1593e-12,-8.8369e-05,-1.0308e-05,-77.45,0.036798
9256,2.7353,0.45455,0,0.0002501,2499.3,0.00010252,235.07,6.9482e-05,-13.19,-0.0002454,-2379.1,0.034817
9257,2.6441,0.54545,0,0.00029308,2928.8,0.00011647,232.17,8.3929e-05,-12.364,-0.00028857,-2811.2,0.033353
9258,2.7353,0.54545,0.05,1.2965e-05,129.56,9.9556e-06,74.802,-2.8383e-12,-4.0003e-05,-9.9556e-06,-74.803,0.035459
9259,2.7353,0.27273,0,0.00021118,2110.4,8.3412e-05,154.02,6.014e-05,-20.837,-0.00020837,-2038.3,0.03349
9260,2.6441,0.36364,0,0.00025222,2520.4,9.5486e-05,137.26,7.4788e-05,-18.259,-0.00024983,-2457.3,0.032078
9261,2.7353,0.36364,0.05,1.3085e-05,130.76,1.0048e-05,75.494,2.3091e-12,-1.8815e-05,-1.0048e-05,-75.494,0.034131
9262,2.6441,0.18182,0,0.00023193,2317.7,8.9729e-05,149.91,6.7594e-05,-16.408,-0.00022921,-2246.5,0.030789
9263,2.7353,0.18182,0.05,1.5624e-05,156.14,1.1998e-05,90.145,8.9685e-13,7.6235e-07,-1.1998e-05,-90.145,0.032802
9264,2.7353,0.090909,0,0.00017879,1786.6,6.431e-05,62.667,5.569e-05,-2.1014,-0.00017767,-1755.5,0.032154
9265,2.5529,5.7273,0,0.0002738,2736.1,0.00010261,139.24,8.2116e-05,-14.777,-0.00027136,-2670.7,0.029412
9266,2.4618,5.8182,0,0.00029727,2970.6,0.0001117,158.41,8.932e-05,-9.7399,-0.00029438,-2892.7,0.026815
9267,2.5529,5.8182,0.05,1.4747e-05,147.37,1.1324e-05,85.084,6.8574e-14,3.9104e-06,-1.1324e-05,-85.084,0.028759
9268,2.5529,5.9091,0,0.00024953,2493.6,8.8835e-05,77.571,7.841e-05,-0.75954,-0.00024813,-2454.3,0.028146
9269,2.5529,5.5455,0,0.00029842,2982.2,0.00011183,152.33,8.9573e-05,-14.899,-0.00029573,-2909.9,0.030646
9270,2.4618,5.6364,0,0.00030923,3090.1,0.00011226,114.6,9.5115e-05,-14.209,-0.00030732,-3037.9,0.028022
9271,2.5529,5.6364,0.05,1.2054e-05,120.46,9.2563e-06,69.548,2.0734e-12,3.6479e-05,-9.2563e-06,-69.548,0.030007
9272,2.5529,5.3636,0,0.00033868,3384.5,0.00013196,237.63,9.8817e-05,-11.377,-0.00033415,-3264.5,0.031859
9273,2.4618,5.4545,0,0.00033756,3373.2,0.00012387,141.92,0.00010308,-14.275,-0.00033511,-3306.7,0.029192
9274,2.5529,5.4545,0.05,1.1958e-05,119.5,9.1825e-06,68.994,6.4143e-12,8.7752e-05,-9.1825e-06,-68.994,0.031229
9275,2.5529,5.1818,0,0.00038986,3895.9,0.00015917,365.33,0.00010938,-8.7206,-0.00038244,-3704.1,0.033059
9276,2.4618,5.2727,0,0.00037723,3769.7,0.00014251,210.96,0.00011294,-11.247,-0.00037334,-3665,0.030333
9277,2.5529,5.2727,0.05,1.2227e-05,122.18,9.3887e-06,70.543,1.5131e-11,0.00014451,-9.3887e-06,-70.543,0.032434
9278,2.5529,5,0,0.00045014,4498.3,0.00019101,512.57,0.00012177,-7.644,-0.00043929,-4223.2,0.034248
9279,2.4618,5.0909,0,0.00042608,4257.8,0.00016621,304.42,0.00012447,-9.1556,-0.00042019,-4101.5,0.031451
9280,2.5529,5.0909,0.05,1.2727e-05,127.18,9.7729e-06,73.43,2.2422e-11,0.00024311,-9.7729e-06,-73.43,0.033628
9281,2.5529,4.8182,0,0.00051885,5184.9,0.00022522,654.34,0.00013713,-7.5596,-0.00050467,-4829.8,0.035424
9282,2.4618,4.9091,0,0.00048283,4824.9,0.00019288,401.66,0.00013831,-8.3412,-0.00047482,-4615.2,0.032544
9283,2.5529,4.9091,0.05,1.3403e-05,133.94,1.0292e-05,77.331,3.6748e-11,0.00036123,-1.0292e-05,-77.331,0.03481
9284,2.5529,4.6364,0,0.00059554,5951.3,0.00025873,754.25,0.0001573,-7.8138,-0.00057917,-5541.4,0.036579
9285,2.4618,4.7273,0,0.00054657,5461.9,0.00021999,475.52,0.00015557,-8.5239,-0.00053701,-5212.3,0.033609
9286,2.5529,4.7273,0.05,1.4086e-05,140.77,1.0817e-05,81.272,5.1714e-11,0.00053127,-1.0817e-05,-81.272,0.035975
9287,2.5529,4.4545,0,0.00067712,6766.5,0.00028551,747.45,0.00018424,-13.486,-0.00066141,-6367.4,0.037696
9288,2.4618,4.5455,0,0.00061612,6157,0.00024408,488.16,0.00017785,-9.4893,-0.00060647,-5902.5,0.034635
9289,2.5529,4.5455,0.05,1.4093e-05,140.83,1.0822e-05,81.31,8.2478e-11,0.00085614,-1.0822e-05,-81.31,0.037111
9290,2.5529,4.2727,0,0.00075794,7574.2,0.00029709,558.08,0.00022045,-17.766,-0.00074711,-7287.6,0.038753
9291,2.4618,4.3636,0,0.00068736,6868.8,0.00025923,381.36,0.00020628,-16.482,-0.00068029,-6677.8,0.035606
9292,2.5529,4.3636,0.05,1.4043e-05,140.34,1.0783e-05,81.023,1.2473e-10,0.0012491,-1.0784e-05,-81.023,0.038199
9293,2.5529,4.0909,0,0.00083334,8327.7,0.00029376,208.48,0.0002622,-28.633,-0.00083003,-8235.2,0.039726
9294,2.4618,4.1818,0,0.00075566,7551.3,0.00026188,130.7,0.00024008,-33.097,-0.00075386,-7501.2,0.036504
9295,2.5529,4.1818,0.05,1.3835e-05,138.26,1.0624e-05,79.822,1.2619e-10,0.0012997,-1.0624e-05,-79.822,0.039214
9296,2.5529,3.9091,0,0.00089815,8975.3,0.00030564,-4.7424,0.00028022,-195.76,-0.00090141,-9074,0.040597
9297,2.4618,4,0,0.00081773,8171.6,0.00028291,3.8306,0.00024788,-259.4,-0.00082176,-8296.2,0.037315
9298,2.5529,4,0.05,1.6712e-05,167,1.2833e-05,96.42,3.3637e-11,0.00064854,-1.2833e-05,-96.419,0.040136
9299,2.5529,3.7273,0,0.000948,9473.4,0.00033384,-0.40299,0.00027673,-429.51,-0.00095458,-9681.1,0.041349
9300,2.4618,3.8182,0,0.00087013,8695.3,0.00031317,-0.69814,0.00024209,-534.77,-0.00087801,-8950.8,0.038026
9301,2.5529,3.8182,0.05,1.8026e-05,180.14,1.3842e-05,104,-1.5768e-11,0.00043576,-1.3842e-05,-104,0.040947
9302,2.5529,3.5455,0,0.00097793,9772.5,0.00034855,5.2802,0.00027867,-519.77,-0.00098562,-10019,0.041962
9303,2.4618,3.6364,0,0.00090936,9087.3,0.0003331,5.1468,0.00024319,-670.42,-0.00091879,-9401.1,0.038624
9304,2.5529,3.6364,0.05,1.8212e-05,182,1.3985e-05,105.08,-5.0574e-11,3.916e-05,-1.3985e-05,-105.08,0.041631
9305,2.5529,3.3636,0,0.00098984,9891.6,0.0003532,1.6468,0.00028102,-540.68,-0.00099789,-10150,0.042416
9306,2.4618,3.4545,0,0.0009311,9304.6,0.00034207,1.7243,0.00024688,-713.52,-0.00094114,-9639.8,0.039092
9307,2.5529,3.4545,0.05,1.5219e-05,152.09,1.1687e-05,87.809,-4.5982e-11,-1.7521e-05,-1.1686e-05,-87.807,0.042165
9308,2.5529,3.1818,0,0.00099277,9920.9,0.0003543,1.2323,0.00028171,-544.14,-0.0010009,-10181,0.042693
9309,2.4618,3.2727,0,0.0009407,9400.5,0.00034573,1.5237,0.00024916,-724.1,-0.00095089,-9740.8,0.039414
9310,2.5529,3.2727,0.05,1.2775e-05,127.66,9.8096e-06,73.706,-3.1965e-11,-4.7152e-05,-9.8095e-06,-73.705,0.042531
9311,2.5529,3,0,0.00099302,9923.4,0.00035437,0.90394,0.00028179,-544.38,-0.0010011,-10184,0.042786
9312,2.4618,3.0909,0,0.00094388,9432.3,0.00034683,1.0944,0.00025008,-725.85,-0.0009541,-9773.6,0.039578
9313,2.5529,3.0909,0.05,1.1344e-05,113.37,8.7111e-06,65.452,-1.2812e-11,-3.0174e-05,-8.711e-06,-65.451,0.042717
9314,2.5529,2.8182,0,0.00099277,9920.9,0.0003543,1.2323,0.00028171,-544.14,-0.0010009,-10181,0.042693
9315,2.4618,2.9091,0,0.00094388,9432.3,0.00034683,1.0944,0.00025008,-725.85,-0.0009541,-9773.6,0.039578
9316,2.5529,2.9091,0.05,1.1344e-05,113.37,8.711e-06,65.451,5.5307e-12,1.0915e-05,-8.7111e-06,-65.452,0.042717
9317,2.5529,2.6364,0,0.00098984,9891.6,0.0003532,1.6468,0.00028102,-540.68,-0.00099789,-10150,0.042416
9318,2.4618,2.7273,0,0.0009407,9400.5,0.00034573,1.5237,0.00024916,-724.1,-0.00095089,-9740.8,0.039414
9319,2.5529,2.7273,0.05,1.2775e-05,127.66,9.8095e-06,73.705,3.1852e-11,2.3089e-05,-9.8096e-06,-73.706,0.042531
9320,2.5529,2.4545,0,0.00097793,9772.5,0.00034855,5.2802,0.00027867,-519.77,-0.00098562,-10019,0.041962
9321,2.4618,2.5455,0,0.0009311,9304.6,0.00034207,1.7243,0.00024688,-713.52,-0.00094114,-9639.8,0.039092
9322,2.5529,2.5455,0.05,1.5219e-05,152.09,1.1686e-05,87.807,4.603e-11,9.8924e-06,-1.1687e-05,-87.809,0.042165
9323,2.5529,2.2727,0,0.000948,9473.4,0.00033384,-0.40299,0.00027673,-429.51,-0.00095458,-9681.1,0.041349
9324,2.4618,2.3636,0,0.00090936,9087.3,0.0003331,5.1468,0.00024319,-670.41,-0.00091879,-9401.1,0.038624
9325,2.5529,2.3636,0.05,1.8212e-05,182,1.3985e-05,105.08,5.3028e-11,-4.4888e-05,-1.3985e-05,-105.08,0.041631
9326,2.5529,2.0909,0,0.00089815,8975.3,0.00030564,-4.7424,0.00028022,-195.76,-0.00090141,-9074,0.040597
9327,2.4618,2.1818,0,0.00087013,8695.3,0.00031317,-0.69813,0.00024209,-534.77,-0.00087801,-8950.8,0.038026
9328,2.5529,2.1818,0.05,1.8026e-05,180.14,1.3842e-05,104,1.411e-11,-0.000347,-1.3842e-05,-104,0.040947
9329,2.5529,1.9091,0,0.00083334,8327.7,0.00029376,208.48,0.0002622,-28.633,-0.00083003,-8235.2,0.039726
9330,2.4618,2,0,0.00081773,8171.6,0.00028291,3.8306,0.00024788,-259.4,-0.00082176,-8296.2,0.037315
9331,2.5529,2,0.05,1.6712e-05,167,1.2833e-05,96.419,-3.7561e-11,-0.00073406,-1.2833e-05,-96.42,0.040136
9332,2.5529,1.7273,0,0.00075794,7574.2,0.00029709,558.08,0.00022045,-17.766,-0.00074711,-7287.6,0.038753
9333,2.4618,1.8182,0,0.00075566,7551.3,0.00026188,130.7,0.00024008,-33.097,-0.00075386,-7501.2,0.036504
9334,2.5529,1.8182,0.05,1.3835e-05,138.26,1.0624e-05,79.822,-1.4801e-10,-0.0014217,-1.0624e-05,-79.822,0.039214
9335,2.5529,1.5455,0,0.00067712,6766.5,0.00028551,747.45,0.00018424,-13.486,-0.00066141,-6367.4,0.037696
9336,2.4618,1.6364,0,0.00068736,6868.9,0.00025923,381.36,0.00020628,-16.482,-0.00068029,-6677.8,0.035606
9337,2.5529,1.6364,0.05,1.4043e-05,140.34,1.0784e-05,81.023,-1.408e-10,-0.0013174,-1.0783e-05,-81.023,0.038199
9338,2.5529,1.3636,0,0.00059554,5951.3,0.00025873,754.25,0.0001573,-7.8138,-0.00057917,-5541.4,0.036579
9339,2.4618,1.4545,0,0.00061612,6157,0.00024408,488.16,0.00017785,-9.4893,-0.00060647,-5902.5,0.034635
9340,2.5529,1.4545,0.05,1.4093e-05,140.83,1.0822e-05,81.31,-8.2854e-11,-0.00085614,-1.0822e-05,-81.31,0.037111
9341,2.5529,1.1818,0,0.00051885,5184.9,0.00022522,654.34,0.00013713,-7.5596,-0.00050467,-4829.8,0.035424
9342,2.4618,1.2727,0,0.00054657,5461.9,0.00021999,475.53,0.00015557,-8.5239,-0.00053701,-5212.3,0.033609
9343,2.5529,1.2727,0.05,1.4086e-05,140.77,1.0817e-05,81.272,-5.7973e-11,-0.00056351,-1.0817e-05,-81.272,0.035975
9344,2.5529,1,0,0.00045014,4498.3,0.00019101,512.57,0.00012177,-7.644,-0.00043929,-4223.2,0.034248
9345,2.4618,1.0909,0,0.00048283,4824.9,0.00019288,401.66,0.00013831,-8.3412,-0.00047482,-4615.2,0.032544
9346,2.5529,1.0909,0.05,1.3403e-05,133.94,1.0292e-05,77.331,-3.6791e-11,-0.00035587,-1.0292e-05,-77.332,0.03481
9347,2.5529,0.81818,0,0.00038986,3895.9,0.00015917,365.33,0.00010938,-8.7206,-0.00038244,-3704.1,0.033059
9348,2.4618,0.90909,0,0.00042608,4257.8,0.00016621,304.42,0.00012447,-9.1556,-0.00042019,-4101.5,0.031451
9349,2.5529,0.90909,0.05,1.2727e-05,127.18,9.7729e-06,73.43,-2.4863e-11,-0.00025514,-9.7729e-06,-73.43,0.033628
9350,2.5529,0.63636,0,0.00033868,3384.5,0.00013196,237.63,9.8817e-05,-11.377,-0.00033415,-3264.5,0.031859
9351,2.4618,0.72727,0,0.00037723,3769.7,0.00014251,210.96,0.00011294,-11.247,-0.00037334,-3665,0.030333
9352,2.5529,0.72727,0.05,1.2227e-05,122.18,9.3887e-06,70.543,-1.5299e-11,-0.00015234,-9.3887e-06,-70.543,0.032434
9353,2.5529,0.45455,0,0.00029842,2982.2,0.00011183,152.33,8.9573e-05,-14.899,-0.00029573,-2909.9,0.030646
9354,2.4618,0.54545,0,0.00033756,3373.2,0.00012387,141.92,0.00010308,-14.275,-0.00033511,-3306.7,0.029192
9355,2.5529,0.54545,0.05,1.1958e-05,119.5,9.1825e-06,68.994,-8.2298e-12,-9.3488e-05,-9.1825e-06,-68.994,0.031229
9356,2.5529,0.27273,0,0.0002738,2736.1,0.00010261,139.24,8.2116e-05,-14.777,-0.00027136,-2670.7,0.029412
9357,2.4618,0.36364,0,0.00030923,3090.1,0.00011226,114.6,9.5115e-05,-14.209,-0.00030732,-3037.9,0.028022
9358,2.5529,0.36364,0.05,1.2054e-05,120.46,9.2563e-06,69.548,-2.2337e-12,-3.9168e-05,-9.2563e-06,-69.548,0.030007
9359,2.4618,0.18182,0,0.00029727,2970.6,0.0001117,158.41,8.932e-05,-9.7399,-0.00029438,-2892.7,0.026815
9360,2.5529,0.18182,0.05,1.4747e-05,147.37,1.1324e-05,85.084,-6.8574e-14,-6.3399e-06,-1.1324e-05,-85.084,0.028759
9361,2.5529,0.090909,0,0.00024953,2493.6,8.8835e-05,77.571,7.841e-05,-0.75954,-0.00024813,-2454.3,0.028146
9362,2.3706,5.7273,0,0.00033293,3327,0.00012157,135.49,0.0001023,-9.3466,-0.00033055,-3261.6,0.025478
9363,2.2794,5.8182,0,0.00035521,3549.6,0.00013085,160.65,0.00010865,-6.1511,-0.00035229,-3469.4,0.023012
9364,2.3706,5.8182,0.05,1.3759e-05,137.5,1.0565e-05,79.383,1.3594e-12,1.3055e-05,-1.0565e-05,-79.383,0.024863
9365,2.3706,5.9091,0,0.0003128,3125.9,0.00011049,87.592,9.8896e-05,0.48381,-0.00031121,-3080.9,0.024287
9366,2.3706,5.5455,0,0.00034959,3493.5,0.0001253,111.7,0.00010867,-13.196,-0.00034775,-3442.6,0.026618
9367,2.2794,5.6364,0,0.00036273,3624.8,0.00012861,100.74,0.00011377,-10.765,-0.00036107,-3578.5,0.024133
9368,2.3706,5.6364,0.05,1.0832e-05,108.24,8.3173e-06,62.493,5.1097e-12,5.5744e-05,-8.3173e-06,-62.493,0.026027
9369,2.3706,5.3636,0,0.00037868,3784.1,0.00013653,131.08,0.00011725,-13.741,-0.00037647,-3723.4,0.027716
9370,2.2794,5.4545,0,0.00038279,3825.2,0.00013427,85.832,0.00012067,-16.344,-0.0003815,-3789.5,0.0252
9371,2.3706,5.4545,0.05,1.0737e-05,107.3,8.2447e-06,61.948,1.0305e-11,0.00011741,-8.2447e-06,-61.948,0.027145
9372,2.3706,5.1818,0,0.00041707,4167.8,0.00015256,172.69,0.00012796,-12.164,-0.00041403,-4084.5,0.028777
9373,2.2794,5.2727,0,0.00041183,4115.4,0.00014434,90.505,0.00012985,-18.363,-0.00041049,-4078.3,0.026219
9374,2.3706,5.2727,0.05,1.0858e-05,108.51,8.3377e-06,62.646,1.5927e-11,0.00019437,-8.3377e-06,-62.646,0.028223
9375,2.3706,5,0,0.0004631,4627.8,0.00017161,220.08,0.00014086,-10.988,-0.00045911,-4518.9,0.029804
9376,2.2794,5.0909,0,0.00044844,4481.3,0.00015748,103.18,0.00014129,-18.483,-0.00044687,-4437.7,0.027194
9377,2.3706,5.0909,0.05,1.1013e-05,110.05,8.4565e-06,63.539,2.8687e-11,0.00028087,-8.4565e-06,-63.539,0.029267
9378,2.3706,4.8182,0,0.00051523,5148.8,0.00019137,250.81,0.00015651,-11.066,-0.00051066,-5023.9,0.030796
9379,2.2794,4.9091,0,0.00049125,4909.1,0.00017222,109.88,0.000155,-19.524,-0.00048959,-4862.7,0.028125
9380,2.3706,4.9091,0.05,1.1111e-05,111.03,8.5319e-06,64.106,3.9953e-11,0.00039806,-8.532e-06,-64.106,0.030276
9381,2.3706,4.6364,0,0.00057167,5712.8,0.00020892,236.31,0.0001757,-13.332,-0.00056747,-5597.2,0.031745
9382,2.2794,4.7273,0,0.00053877,5384,0.00018679,92.87,0.00017103,-25.542,-0.00053753,-5349.4,0.029011
9383,2.3706,4.7273,0.05,1.099e-05,109.83,8.4392e-06,63.409,5.8279e-11,0.00061698,-8.4393e-06,-63.409,0.031246
9384,2.3706,4.4545,0,0.00062997,6295.3,0.0002213,148.41,0.00019868,-21.538,-0.00062764,-6230.2,0.032642
9385,2.2794,4.5455,0,0.00058909,5886.8,0.00020096,45.779,0.00018745,-55.759,-0.00058919,-5891.1,0.029845
9386,2.3706,4.5455,0.05,1.0601e-05,105.94,8.1402e-06,61.163,8.6954e-11,0.00085064,-8.1403e-06,-61.163,0.032168
9387,2.3706,4.2727,0,0.00068696,6864.9,0.00023431,31.284,0.00021664,-101.46,-0.00068806,-6899,0.033474
9388,2.2794,4.3636,0,0.00063981,6393.6,0.00022118,15.292,0.0001954,-178.43,-0.00064236,-6473,0.030618
9389,2.3706,4.3636,0.05,1.0065e-05,100.58,7.7289e-06,58.072,1.2747e-10,0.0011713,-7.729e-06,-58.072,0.033032
9390,2.3706,4.0909,0,0.00074054,7400.3,0.00026215,9.5309,0.0002147,-346.99,-0.00074563,-7562.6,0.034229
9391,2.2794,4.1818,0,0.00068833,6878.5,0.00024715,6.239,0.00019319,-399.2,-0.00069412,-7066,0.031322
9392,2.3706,4.1818,0.05,9.9836e-06,99.767,7.6661e-06,57.601,1.2786e-10,0.0012571,-7.6662e-06,-57.601,0.033825
9393,2.3706,3.9091,0,0.00078927,7887.3,0.00029038,7.4376,0.00020909,-603.41,-0.00079763,-8167.5,0.034897
9394,2.2794,4,0,0.00073371,7332,0.000274,4.7623,0.00018685,-650.02,-0.00074249,-7632.7,0.03195
9395,2.3706,4,0.05,1.0752e-05,107.45,8.2562e-06,62.034,7.0065e-11,0.00077667,-8.2562e-06,-62.034,0.034536
9396,2.3706,3.7273,0,0.00083032,8297.5,0.00031235,4.2518,0.0002072,-785.85,-0.00084079,-8660,0.035471
9397,2.2794,3.8182,0,0.00077442,7738.9,0.00029714,3.8307,0.00018257,-857.07,-0.00078533,-8129.5,0.032495
9398,2.3706,3.8182,0.05,1.1581e-05,115.73,8.8931e-06,66.82,2.2228e-12,0.00039172,-8.8931e-06,-66.819,0.035156
9399,2.3706,3.5455,0,0.00086091,8603.1,0.00032664,1.7658,0.00020949,-878.43,-0.00087243,-9007.6,0.035938
9400,2.2794,3.6364,0,0.00080779,8072.3,0.00031391,1.5613,0.00018285,-983.15,-0.00081997,-8518,0.03295
9401,2.3706,3.6364,0.05,1.1974e-05,119.65,9.1943e-06,69.082,-2.4622e-11,0.00013435,-9.1942e-06,-69.081,0.035677
9402,2.3706,3.3636,0,0.00088034,8797.3,0.00033462,1.719,0.00021311,-911.27,-0.00089225,-9216.5,0.036284
9403,2.2794,3.4545,0,0.00083178,8312.1,0.00032453,1.6475,0.00018586,-1040.3,-0.00084453,-8782.3,0.033306
9404,2.3706,3.4545,0.05,1.1587e-05,115.79,8.8974e-06,66.852,-2.9469e-11,5.3424e-06,-8.8973e-06,-66.851,0.036084
9405,2.3706,3.1818,0,0.0008903,8896.9,0.00033827,1.4061,0.00021574,-919.23,-0.00090233,-9320,0.036497
9406,2.2794,3.2727,0,0.00084623,8456.4,0.00033025,1.3939,0.00018891,-1060.6,-0.00085922,-8935.8,0.03355
9407,2.3706,3.2727,0.05,1.0831e-05,108.24,8.3172e-06,62.492,-2.3914e-11,-3.1304e-05,-8.3171e-06,-62.492,0.036364
9408,2.3706,3,0,0.00089328,8926.6,0.00033929,1.2711,0.00021664,-920.32,-0.00090533,-9350.4,0.036568
9409,2.2794,3.0909,0,0.00085279,8522,0.00033268,1.2517,0.00019061,-1066.2,-0.00086587,-9004.2,0.033674
9410,2.3706,3.0909,0.05,1.03e-05,102.93,7.9093e-06,59.427,-6.1266e-12,-1.4273e-05,-7.9092e-06,-59.427,0.036506
9411,2.3706,2.8182,0,0.0008903,8896.9,0.00033827,1.4061,0.00021574,-919.23,-0.00090233,-9320,0.036497
9412,2.2794,2.9091,0,0.00085279,8522,0.00033268,1.2517,0.00019061,-1066.2,-0.00086587,-9004.2,0.033674
9413,2.3706,2.9091,0.05,1.03e-05,102.93,7.9092e-06,59.427,1.34e-11,1.4248e-05,-7.9092e-06,-59.427,0.036506
9414,2.3706,2.6364,0,0.00088034,8797.3,0.00033462,1.719,0.00021311,-911.27,-0.00089225,-9216.5,0.036284
9415,2.2794,2.7273,0,0.00084623,8456.4,0.00033025,1.3939,0.00018891,-1060.6,-0.00085922,-8935.8,0.03355
9416,2.3706,2.7273,0.05,1.0831e-05,108.24,8.3171e-06,62.492,2.3968e-11,3.1003e-05,-8.3172e-06,-62.492,0.036364
9417,2.3706,2.4545,0,0.00086091,8603.1,0.00032664,1.7658,0.00020949,-878.43,-0.00087243,-9007.6,0.035938
9418,2.2794,2.5455,0,0.00083178,8312.1,0.00032453,1.6475,0.00018586,-1040.3,-0.00084453,-8782.3,0.033306
9419,2.3706,2.5455,0.05,1.1587e-05,115.79,8.8973e-06,66.851,3.159e-11,2.5527e-06,-8.8974e-06,-66.852,0.036084
9420,2.3706,2.2727,0,0.00083032,8297.5,0.00031235,4.2518,0.0002072,-785.85,-0.00084079,-8660,0.035471
9421,2.2794,2.3636,0,0.00080779,8072.3,0.00031391,1.5613,0.00018285,-983.15,-0.00081997,-8518,0.03295
9422,2.3706,2.3636,0.05,1.1974e-05,119.65,9.1942e-06,69.081,2.6888e-11,-0.00012047,-9.1943e-06,-69.082,0.035677
9423,2.3706,2.0909,0,0.00078927,7887.3,0.00029038,7.4376,0.00020909,-603.41,-0.00079764,-8167.5,0.034897
9424,2.2794,2.1818,0,0.00077442,7738.9,0.00029714,3.8307,0.00018257,-857.07,-0.00078533,-8129.5,0.032495
9425,2.3706,2.1818,0.05,1.1581e-05,115.73,8.8931e-06,66.819,-2.2229e-12,-0.0003671,-8.8931e-06,-66.82,0.035156
9426,2.3706,1.9091,0,0.00074054,7400.3,0.00026215,9.531,0.0002147,-346.99,-0.00074563,-7562.6,0.034229
9427,2.2794,2,0,0.00073371,7332,0.000274,4.7623,0.00018685,-650.02,-0.00074249,-7632.7,0.03195
9428,2.3706,2,0.05,1.0752e-05,107.45,8.2562e-06,62.034,-6.9608e-11,-0.00084159,-8.2562e-06,-62.034,0.034536
9429,2.3706,1.7273,0,0.00068696,6864.9,0.00023431,31.284,0.00021664,-101.46,-0.00068806,-6899,0.033474
9430,2.2794,1.8182,0,0.00068833,6878.5,0.00024715,6.239,0.00019319,-399.19,-0.00069412,-7066.1,0.031322
9431,2.3706,1.8182,0.05,9.9836e-06,99.767,7.6662e-06,57.601,-1.277e-10,-0.0013778,-7.6661e-06,-57.601,0.033825
9432,2.3706,1.5455,0,0.00062997,6295.3,0.0002213,148.41,0.00019868,-21.538,-0.00062764,-6230.2,0.032642
9433,2.2794,1.6364,0,0.00063981,6393.6,0.00022118,15.292,0.0001954,-178.43,-0.00064236,-6473,0.030618
9434,2.3706,1.6364,0.05,1.0065e-05,100.58,7.729e-06,58.072,-1.3089e-10,-0.0012476,-7.7289e-06,-58.072,0.033032
9435,2.3706,1.3636,0,0.00057167,5712.8,0.00020892,236.31,0.0001757,-13.332,-0.00056747,-5597.2,0.031745
9436,2.2794,1.4545,0,0.00058909,5886.8,0.00020096,45.779,0.00018745,-55.759,-0.00058919,-5891.1,0.029845
9437,2.3706,1.4545,0.05,1.0601e-05,105.94,8.1403e-06,61.163,-9.1369e-11,-0.00082316,-8.1402e-06,-61.163,0.032168
9438,2.3706,1.1818,0,0.00051523,5148.8,0.00019137,250.81,0.00015651,-11.066,-0.00051066,-5023.9,0.030796
9439,2.2794,1.2727,0,0.00053877,5384,0.00018679,92.871,0.00017103,-25.541,-0.00053753,-5349.4,0.029011
9440,2.3706,1.2727,0.05,1.099e-05,109.83,8.4393e-06,63.409,-5.9625e-11,-0.00060678,-8.4392e-06,-63.409,0.031246
9441,2.3706,1,0,0.0004631,4627.8,0.00017161,220.08,0.00014086,-10.988,-0.00045911,-4518.9,0.029804
9442,2.2794,1.0909,0,0.00049125,4909.1,0.00017222,109.88,0.000155,-19.524,-0.00048959,-4862.7,0.028125
9443,2.3706,1.0909,0.05,1.1111e-05,111.03,8.532e-06,64.106,-3.9953e-11,-0.00043298,-8.5319e-06,-64.106,0.030276
9444,2.3706,0.81818,0,0.00041707,4167.8,0.00015256,172.69,0.00012796,-12.164,-0.00041403,-4084.5,0.028777
9445,2.2794,0.90909,0,0.00044844,4481.3,0.00015748,103.18,0.00014129,-18.483,-0.00044687,-4437.7,0.027194
9446,2.3706,0.90909,0.05,1.1013e-05,110.05,8.4565e-06,63.539,-2.8184e-11,-0.00027665,-8.4565e-06,-63.539,0.029267
9447,2.3706,0.63636,0,0.00037868,3784.1,0.00013653,131.08,0.00011725,-13.741,-0.00037647,-3723.4,0.027716
9448,2.2794,0.72727,0,0.00041183,4115.4,0.00014434,90.505,0.00012985,-18.363,-0.00041049,-4078.3,0.026219
9449,2.3706,0.72727,0.05,1.0858e-05,108.51,8.3377e-06,62.646,-1.6296e-11,-0.00020741,-8.3377e-06,-62.646,0.028223
9450,2.3706,0.45455,0,0.00034959,3493.5,0.0001253,111.7,0.00010867,-13.196,-0.00034775,-3442.6,0.026618
9451,2.2794,0.54545,0,0.00038279,3825.2,0.00013427,85.832,0.00012067,-16.344,-0.0003815,-3789.5,0.0252
9452,2.3706,0.54545,0.05,1.0737e-05,107.3,8.2447e-06,61.948,-1.1062e-11,-0.00012083,-8.2447e-06,-61.948,0.027145
9453,2.3706,0.27273,0,0.00033293,3327,0.00012157,135.49,0.0001023,-9.3466,-0.00033055,-3261.6,0.025478
9454,2.2794,0.36364,0,0.00036273,3624.8,0.00012861,100.74,0.00011377,-10.765,-0.00036107,-3578.5,0.024133
9455,2.3706,0.36364,0.05,1.0832e-05,108.24,8.3173e-06,62.493,-4.5766e-12,-5.8466e-05,-8.3173e-06,-62.493,0.026027
9456,2.2794,0.18182,0,0.00035521,3549.6,0.00013085,160.65,0.00010865,-6.1511,-0.00035229,-3469.4,0.023012
9457,2.3706,0.18182,0.05,1.3759e-05,137.5,1.0565e-05,79.383,-8.7655e-13,-1.5906e-05,-1.0565e-05,-79.383,0.024863
9458,2.3706,0.090909,0,0.0003128,3125.9,0.00011049,87.592,9.8896e-05,0.48381,-0.00031121,-3080.9,0.024287
9459,2.1882,5.7273,0,0.00038513,3848.7,0.00013794,126.28,0.00012019,-7.0515,-0.00038293,-3787.3,0.021734
9460,2.0971,5.8182,0,0.00040531,4050.3,0.00014689,155.41,0.00012559,-4.646,-0.00040251,-3972.5,0.019419
9461,2.1882,5.8182,0.05,1.2672e-05,126.64,9.7309e-06,73.114,5.952e-13,1.9619e-05,-9.7309e-06,-73.114,0.021159
9462,2.1882,5.9091,0,0.00036811,3678.5,0.00012897,90.411,0.00011702,0.58502,-0.00036648,-3632.2,0.020622
9463,2.1882,5.5455,0,0.00039645,3961.8,0.00013799,77.923,0.00012581,-13.57,-0.00039528,-3928.8,0.022781
9464,2.0971,5.6364,0,0.00040954,4092.6,0.00014245,81.898,0.00013025,-9.7329,-0.00040824,-4055.7,0.020455
9465,2.1882,5.6364,0.05,9.561e-06,95.544,7.3417e-06,55.162,6.8668e-12,7.8671e-05,-7.3417e-06,-55.162,0.022237
9466,2.1882,5.3636,0,0.00041723,4169.5,0.0001435,55.93,0.00013295,-23.356,-0.00041662,-4152.6,0.023768
9467,2.0971,5.4545,0,0.00042349,4231.9,0.00014445,41.498,0.00013559,-25.069,-0.00042317,-4223.3,0.021421
9468,2.1882,5.4545,0.05,9.4531e-06,94.466,7.2588e-06,54.54,1.3499e-11,0.00014645,-7.2588e-06,-54.54,0.023253
9469,2.1882,5.1818,0,0.0004452,4449,0.00015227,43.625,0.00014184,-34.729,-0.000445,-4444,0.024703
9470,2.0971,5.2727,0,0.00044417,4438.6,0.00015116,22.235,0.00014082,-55.499,-0.00044468,-4454.7,0.022326
9471,2.1882,5.2727,0.05,9.4906e-06,94.84,7.2876e-06,54.756,2.0386e-11,0.0002304,-7.2876e-06,-54.756,0.024214
9472,2.1882,5,0,0.00047911,4787.7,0.00016338,32.767,0.00015215,-51.594,-0.00047937,-4796.6,0.025587
9473,2.0971,5.0909,0,0.00047068,4703.5,0.00016133,14.119,0.00014639,-98.135,-0.00047201,-4744.6,0.023173
9474,2.1882,5.0909,0.05,9.4677e-06,94.612,7.27e-06,54.624,3.0596e-11,0.00032987,-7.27e-06,-54.624,0.025122
9475,2.1882,4.8182,0,0.0005175,5171.5,0.00017683,20.999,0.00016241,-87.36,-0.00051855,-5203.8,0.026421
9476,2.0971,4.9091,0,0.00050193,5015.9,0.00017409,9.6375,0.00015208,-155.8,-0.00050422,-5086.9,0.023964
9477,2.1882,4.9091,0.05,9.3171e-06,93.107,7.1544e-06,53.755,4.6179e-11,0.00045773,-7.1544e-06,-53.755,0.02598
9478,2.1882,4.6364,0,0.00055873,5583.4,0.0001934,11.793,0.00017006,-163.53,-0.0005611,-5657.2,0.027202
9479,2.0971,4.7273,0,0.0005366,5362.3,0.00018936,6.6439,0.00015659,-239.59,-0.00054014,-5474.6,0.024701
9480,2.1882,4.7273,0.05,8.9895e-06,89.833,6.9028e-06,51.865,6.4404e-11,0.00063635,-6.9028e-06,-51.865,0.026787
9481,2.1882,4.4545,0,0.0006009,6004.9,0.00021331,6.364,0.00017304,-296.25,-0.00060526,-6144.1,0.027924
9482,2.0971,4.5455,0,0.00057314,5727.4,0.00020716,4.5375,0.00015837,-362.07,-0.00057834,-5897.4,0.025379
9483,2.1882,4.5455,0.05,8.4877e-06,84.818,6.5174e-06,48.97,1.0113e-10,0.00082595,-6.5175e-06,-48.97,0.027537
9484,2.1882,4.2727,0,0.0006424,6419.5,0.0002358,3.6,0.00017093,-483.82,-0.00064917,-6645.7,0.028582
9485,2.0971,4.3636,0,0.00060994,6095.2,0.00022717,2.9752,0.00015633,-529.3,-0.00061714,-6340.9,0.025997
9486,2.1882,4.3636,0.05,8.0068e-06,80.013,6.1482e-06,46.196,1.1138e-10,0.0010301,-6.1483e-06,-46.196,0.028227
9487,2.1882,4.0909,0,0.00068207,6816,0.00025906,1.9969,0.00016552,-700.83,-0.00069123,-7138.1,0.029171
9488,2.0971,4.1818,0,0.0006458,6453.5,0.00024843,2.1666,0.00015097,-730.11,-0.00065506,-6786.3,0.02655
9489,2.1882,4.1818,0.05,7.815e-06,78.096,6.0009e-06,45.089,1.1441e-10,0.0010226,-6.001e-06,-45.089,0.028849
9490,2.1882,3.9091,0,0.00071893,7184.4,0.00028072,0.89225,0.00016019,-904.72,-0.00073001,-7593.4,0.029687
9491,2.0971,4,0,0.00067985,6793.8,0.00026915,1.3313,0.0001446,-934.46,-0.00069087,-7211.8,0.027038
9492,2.1882,4,0.05,7.8908e-06,78.854,6.0591e-06,45.526,8.2083e-11,0.00084251,-6.0592e-06,-45.526,0.029401
9493,2.1882,3.7273,0,0.00075155,7510.3,0.00029868,1.0073,0.00015764,-1058.8,-0.00076391,-7982.9,0.030125
9494,2.0971,3.8182,0,0.00071116,7106.7,0.0002874,0.94478,0.00014008,-1106,-0.00072346,-7594.2,0.027456
9495,2.1882,3.8182,0.05,8.1329e-06,81.273,6.245e-06,46.923,3.7925e-11,0.00051454,-6.245e-06,-46.923,0.029877
9496,2.1882,3.5455,0,0.00077795,7774.1,0.0003118,1.4206,0.00015822,-1152.5,-0.00079107,-8285.1,0.030479
9497,2.0971,3.6364,0,0.00073815,7376.4,0.00030179,1.2106,0.00013872,-1224,-0.00075128,-7911.1,0.027802
9498,2.1882,3.6364,0.05,8.4338e-06,84.279,6.4761e-06,48.659,2.479e-12,0.00024143,-6.4761e-06,-48.658,0.030273
9499,2.1882,3.3636,0,0.00079672,7961.7,0.00032017,1.3368,0.00016042,-1198.9,-0.00081027,-8492.3,0.03074
9500,2.0971,3.4545,0,0.00075909,7585.6,0.00031183,1.1791,0.00013978,-1291.5,-0.00077272,-8147.7,0.028069
9501,2.1882,3.4545,0.05,8.6037e-06,85.978,6.6066e-06,49.64,-1.3551e-11,8.8189e-05,-6.6066e-06,-49.639,0.03058
9502,2.1882,3.1818,0,0.00080768,8071.2,0.00032466,1.2472,0.00016245,-1217.6,-0.00082143,-8610.1,0.0309
9503,2.0971,3.2727,0,0.00077303,7725,0.00031794,1.1253,0.00014159,-1323.9,-0.00078696,-8300.6,0.028252
9504,2.1882,3.2727,0.05,8.5661e-06,85.602,6.5778e-06,49.423,-1.0411e-11,1.39e-05,-6.5777e-06,-49.422,0.030791
9505,2.1882,3,0,0.00081125,8106.9,0.00032606,1.2344,0.00016323,-1222.2,-0.00082506,-8647.8,0.030955
9506,2.0971,3.0909,0,0.0007799,7793.6,0.00032079,1.1167,0.00014281,-1336.2,-0.00079395,-8374.6,0.028345
9507,2.1882,3.0909,0.05,8.4821e-06,84.762,6.5132e-06,48.937,-2.9942e-12,4.0207e-08,-6.5132e-06,-48.937,0.030898
9508,2.1882,2.8182,0,0.00080768,8071.2,0.00032466,1.2472,0.00016245,-1217.6,-0.00082143,-8610.1,0.0309
9509,2.0971,2.9091,0,0.0007799,7793.6,0.00032079,1.1167,0.00014281,-1336.2,-0.00079395,-8374.6,0.028345
9510,2.1882,2.9091,0.05,8.4821e-06,84.762,6.5132e-06,48.937,6.5996e-12,-1.5409e-05,-6.5132e-06,-48.938,0.030898
9511,2.1882,2.6364,0,0.00079672,7961.7,0.00032017,1.3368,0.00016042,-1198.9,-0.00081027,-8492.4,0.03074
9512,2.0971,2.7273,0,0.00077303,7725,0.00031794,1.1253,0.00014159,-1323.9,-0.00078696,-8300.6,0.028252
9513,2.1882,2.7273,0.05,8.5661e-06,85.602,6.5777e-06,49.422,1.2117e-11,-2.0125e-05,-6.5778e-06,-49.423,0.030791
9514,2.1882,2.4545,0,0.00077795,7774.1,0.0003118,1.4206,0.00015822,-1152.5,-0.00079107,-8285.1,0.030479
9515,2.0971,2.5455,0,0.00075909,7585.6,0.00031183,1.1791,0.00013978,-1291.5,-0.00077272,-8147.7,0.028069
9516,2.1882,2.5455,0.05,8.6037e-06,85.978,6.6066e-06,49.639,1.3973e-11,-0.00011652,-6.6066e-06,-49.64,0.03058
9517,2.1882,2.2727,0,0.00075155,7510.3,0.00029868,1.0073,0.00015764,-1058.8,-0.00076391,-7982.9,0.030125
9518,2.0971,2.3636,0,0.00073815,7376.4,0.00030179,1.2106,0.00013872,-1224,-0.00075128,-7911.1,0.027802
9519,2.1882,2.3636,0.05,8.4338e-06,84.279,6.4761e-06,48.658,5.2562e-13,-0.00025375,-6.4761e-06,-48.659,0.030273
9520,2.1882,2.0909,0,0.00071893,7184.4,0.00028072,0.89226,0.00016019,-904.72,-0.00073001,-7593.4,0.029687
9521,2.0971,2.1818,0,0.00071116,7106.7,0.0002874,0.94478,0.00014008,-1106,-0.00072346,-7594.2,0.027456
9522,2.1882,2.1818,0.05,8.1329e-06,81.273,6.2451e-06,46.923,-3.5158e-11,-0.00047677,-6.245e-06,-46.923,0.029877
9523,2.1882,1.9091,0,0.00068207,6816,0.00025906,1.9969,0.00016552,-700.82,-0.00069123,-7138.1,0.029171
9524,2.0971,2,0,0.00067985,6793.8,0.00026915,1.3313,0.0001446,-934.45,-0.00069087,-7211.8,0.027038
9525,2.1882,2,0.05,7.8908e-06,78.854,6.0592e-06,45.526,-8.6554e-11,-0.00088135,-6.0591e-06,-45.526,0.029401
9526,2.1882,1.7273,0,0.0006424,6419.5,0.0002358,3.6,0.00017093,-483.82,-0.00064917,-6645.7,0.028582
9527,2.0971,1.8182,0,0.0006458,6453.5,0.00024843,2.1666,0.00015097,-730.11,-0.00065506,-6786.3,0.02655
9528,2.1882,1.8182,0.05,7.815e-06,78.096,6.001e-06,45.089,-1.1434e-10,-0.0011441,-6.0009e-06,-45.089,0.028849
9529,2.1882,1.5455,0,0.0006009,6004.9,0.00021331,6.3641,0.00017304,-296.24,-0.00060526,-6144.1,0.027924
9530,2.0971,1.6364,0,0.00060994,6095.2,0.00022717,2.9752,0.00015633,-529.29,-0.00061714,-6340.9,0.025997
9531,2.1882,1.6364,0.05,8.0068e-06,80.013,6.1483e-06,46.196,-1.1991e-10,-0.001168,-6.1482e-06,-46.196,0.028227
9532,2.1882,1.3636,0,0.00055873,5583.4,0.0001934,11.793,0.00017006,-163.53,-0.0005611,-5657.2,0.027202
9533,2.0971,1.4545,0,0.00057314,5727.4,0.00020716,4.5375,0.00015837,-362.07,-0.00057834,-5897.4,0.025379
9534,2.1882,1.4545,0.05,8.4877e-06,84.818,6.5175e-06,48.97,-9.6425e-11,-0.00086236,-6.5174e-06,-48.97,0.027537
9535,2.1882,1.1818,0,0.0005175,5171.5,0.00017683,20.999,0.00016241,-87.359,-0.00051855,-5203.8,0.026421
9536,2.0971,1.2727,0,0.0005366,5362.3,0.00018936,6.6439,0.00015659,-239.59,-0.00054014,-5474.6,0.024701
9537,2.1882,1.2727,0.05,8.9895e-06,89.833,6.9028e-06,51.865,-6.4404e-11,-0.00063635,-6.9028e-06,-51.865,0.026787
9538,2.1882,1,0,0.00047911,4787.8,0.00016338,32.767,0.00015215,-51.594,-0.00047937,-4796.6,0.025587
9539,2.0971,1.0909,0,0.00050193,5015.9,0.00017409,9.6376,0.00015208,-155.79,-0.00050422,-5086.9,0.023965
9540,2.1882,1.0909,0.05,9.3171e-06,93.107,7.1544e-06,53.755,-4.4847e-11,-0.00043856,-7.1544e-06,-53.755,0.02598
9541,2.1882,0.81818,0,0.0004452,4449,0.00015227,43.625,0.00014184,-34.729,-0.000445,-4444,0.024703
9542,2.0971,0.90909,0,0.00047068,4703.5,0.00016133,14.119,0.00014639,-98.135,-0.00047201,-4744.6,0.023173
9543,2.1882,0.90909,0.05,9.4677e-06,94.612,7.27e-06,54.624,-3.132e-11,-0.00034209,-7.27e-06,-54.624,0.025122
9544,2.1882,0.63636,0,0.00041723,4169.5,0.0001435,55.93,0.00013295,-23.356,-0.00041662,-4152.6,0.023768
9545,2.0971,0.72727,0,0.00044417,4438.6,0.00015116,22.235,0.00014082,-55.499,-0.00044468,-4454.7,0.022326
9546,2.1882,0.72727,0.05,9.4906e-06,94.84,7.2876e-06,54.756,-2.0572e-11,-0.00022409,-7.2876e-06,-54.756,0.024214
9547,2.1882,0.45455,0,0.00039645,3961.8,0.00013799,77.923,0.00012581,-13.57,-0.00039528,-3928.8,0.022781
9548,2.0971,0.54545,0,0.00042349,4231.9,0.00014445,41.498,0.00013559,-25.069,-0.00042317,-4223.3,0.021421
9549,2.1882,0.54545,0.05,9.4531e-06,94.466,7.2588e-06,54.54,-1.2292e-11,-0.00014645,-7.2588e-06,-54.54,0.023253
9550,2.1882,0.27273,0,0.00038513,3848.7,0.00013794,126.28,0.00012019,-7.0515,-0.00038293,-3787.3,0.021734
9551,2.0971,0.36364,0,0.00040954,4092.6,0.00014245,81.898,0.00013025,-9.7329,-0.00040824,-4055.7,0.020455
9552,2.1882,0.36364,0.05,9.561e-06,95.544,7.3417e-06,55.162,-8.2274e-12,-8.2146e-05,-7.3417e-06,-55.162,0.022237
9553,2.0971,0.18182,0,0.00040531,4050.3,0.00014689,155.41,0.00012559,-4.6459,-0.00040251,-3972.5,0.019419
9554,2.1882,0.18182,0.05,1.2672e-05,126.64,9.7309e-06,73.114,-2.1038e-12,-1.7462e-05,-9.7309e-06,-73.114,0.021159
9555,2.1882,0.090909,0,0.00036811,3678.5,0.00012897,90.411,0.00011702,0.58502,-0.00036648,-3632.2,0.020622
9556,2.0059,5.7273,0,0.00042978,4294.9,0.00015132,110.46,0.0001358,-6.1574,-0.00042789,-4241.5,0.018219
9557,1.9147,5.8182,0,0.0004478,4475,0.00016006,145.39,0.00014017,-4.0468,-0.00044521,-4402.4,0.016074
9558,2.0059,5.8182,0.05,1.1565e-05,115.57,8.8802e-06,66.722,-2.0349e-13,2.3359e-05,-8.8802e-06,-66.722,0.017684
9559,2.0059,5.9091,0,0.00041559,4153,0.00014449,88.651,0.00013279,0.7267,-0.000414,-4107.6,0.017188
9560,2.0059,5.5455,0,0.00043681,4365.1,0.00014873,44.139,0.00014042,-18.312,-0.00043634,-4351.9,0.019174
9561,1.9147,5.6364,0,0.000449,4486.9,0.00015348,57.022,0.0001444,-11.146,-0.00044819,-4463.6,0.017022
9562,2.0059,5.6364,0.05,8.3257e-06,83.2,6.3931e-06,48.035,6.6753e-12,8.5521e-05,-6.3931e-06,-48.035,0.018677
9563,2.0059,5.3636,0,0.00045107,4507.6,0.00015323,16.211,0.00014291,-61.379,-0.00045179,-4529.7,0.020057
9564,1.9147,5.4545,0,0.00045797,4576.5,0.00015509,14.953,0.00014578,-54.953,-0.00045861,-4596.1,0.017893
9565,2.0059,5.4545,0.05,8.2311e-06,82.254,6.3204e-06,47.489,1.4133e-11,0.0001778,-6.3205e-06,-47.489,0.019595
9566,2.0059,5.1818,0,0.00047072,4703.9,0.00016238,8.9062,0.00014413,-128.26,-0.0004726,-4762.1,0.020876
9567,1.9147,5.2727,0,0.00047195,4716.2,0.00016311,7.0242,0.00014381,-137.94,-0.00047401,-4780,0.018691
9568,2.0059,5.2727,0.05,8.2581e-06,82.524,6.3412e-06,47.645,2.569e-11,0.00024145,-6.3412e-06,-47.645,0.020445
9569,2.0059,5,0,0.00049489,4945.5,0.00017404,5.9706,0.00014546,-208.79,-0.00049799,-5043.4,0.021634
9570,1.9147,5.0909,0,0.00049039,4900.5,0.00017366,4.5668,0.0001419,-234.03,-0.00049386,-5010.9,0.019423
9571,2.0059,5.0909,0.05,8.1926e-06,81.869,6.2909e-06,47.267,3.1671e-11,0.00034626,-6.2909e-06,-47.267,0.021232
9572,2.0059,4.8182,0,0.00052253,5221.7,0.00018782,4.2769,0.00014625,-308.08,-0.000527,-5366.6,0.022333
9573,1.9147,4.9091,0,0.00051255,5122,0.00018613,3.3103,0.00014,-343.29,-0.00051745,-5283.2,0.020092
9574,2.0059,4.9091,0.05,7.9966e-06,79.911,6.1404e-06,46.136,4.6986e-11,0.00050897,-6.1404e-06,-46.136,0.02196
9575,2.0059,4.6364,0,0.00055241,5520.3,0.00020363,3.1582,0.00014545,-433.92,-0.00055844,-5722.7,0.022974
9576,1.9147,4.7273,0,0.00053746,5370.9,0.00020038,2.5085,0.00013737,-470.91,-0.00054386,-5589.5,0.020702
9577,2.0059,4.7273,0.05,7.6603e-06,76.55,5.8821e-06,44.196,5.9648e-11,0.00066784,-5.8822e-06,-44.196,0.022629
9578,2.0059,4.4545,0,0.00058329,5828.9,0.00022118,2.4144,0.00014229,-590.34,-0.00059103,-6100.2,0.023556
9579,1.9147,4.5455,0,0.00056405,5636.6,0.00021622,1.9693,0.00013327,-621.3,-0.00057199,-5920.3,0.021253
9580,2.0059,4.5455,0.05,7.2249e-06,72.199,5.5478e-06,41.684,8.951e-11,0.00079391,-5.5479e-06,-41.684,0.023239
9581,2.0059,4.2727,0,0.00061411,6136.8,0.00023984,1.8672,0.00013684,-772.07,-0.00062354,-6485.2,0.024078
9582,1.9147,4.3636,0,0.00059126,5908.5,0.00023322,1.5936,0.0001274,-793.5,-0.0006007,-6264.2,0.021745
9583,2.0059,4.3636,0.05,6.7759e-06,67.712,5.203e-06,39.094,1.0548e-10,0.00096807,-5.2031e-06,-39.094,0.02379
9584,2.0059,4.0909,0,0.00064403,6435.9,0.00025851,1.5102,0.00013029,-961.92,-0.00065494,-6861.8,0.024538
9585,1.9147,4.1818,0,0.00061822,6177.9,0.00025061,1.2667,0.00012034,-977.49,-0.00062898,-6607.6,0.02218
9586,2.0059,4.1818,0.05,6.404e-06,63.996,4.9174e-06,36.948,1.1137e-10,0.00099243,-4.9175e-06,-36.948,0.024279
9587,2.0059,3.9091,0,0.00067227,6718,0.00027582,1.3182,0.00012449,-1135.7,-0.0006843,-7212.7,0.024936
9588,1.9147,4,0,0.00064423,6437.9,0.0002673,1.0783,0.00011348,-1154.6,-0.00065602,-6936.4,0.022558
9589,2.0059,4,0.05,6.1463e-06,61.421,4.7196e-06,35.461,9.1471e-11,0.0010136,-4.7197e-06,-35.461,0.024707
9590,2.0059,3.7273,0,0.0006977,6972.2,0.0002905,1.0946,0.00012089,-1273.3,-0.00071055,-7520.4,0.02527
9591,1.9147,3.8182,0,0.00066844,6679.8,0.00028212,0.94229,0.00010831,-1305,-0.00068097,-7235.4,0.022878
9592,2.0059,3.8182,0.05,6.0487e-06,60.445,4.6446e-06,34.898,5.7356e-11,0.00064226,-4.6447e-06,-34.898,0.025072
9593,2.0059,3.5455,0,0.00071898,7184.9,0.00030181,0.94827,0.00011974,-1367.1,-0.00073238,-7769.6,0.025536
9594,1.9147,3.6364,0,0.00068971,6892.3,0.0002942,0.81181,0.00010556,-1416.5,-0.00070277,-7490,0.023139
9595,2.0059,3.6364,0.05,6.1324e-06,61.282,4.7089e-06,35.381,2.5561e-11,0.00039585,-4.7089e-06,-35.381,0.025372
9596,2.0059,3.3636,0,0.00073489,7343.8,0.0003096,0.9658,0.00012019,-1422.2,-0.00074864,-7950.2,0.025732
9597,1.9147,3.4545,0,0.00070677,7062.8,0.00030312,0.81611,0.00010488,-1488.7,-0.0007202,-7688,0.023339
9598,2.0059,3.4545,0.05,6.3085e-06,63.042,4.8442e-06,36.397,6.9651e-12,0.00019613,-4.8441e-06,-36.397,0.025603
9599,2.0059,3.1818,0,0.00074462,7441.1,0.00031407,0.99755,0.00012105,-1449.3,-0.00075857,-8058.4,0.025851
9600,1.9147,3.2727,0,0.0007186,7181.1,0.00030888,0.85911,0.00010526,-1529.1,-0.00073226,-7821.9,0.023476
9601,2.0059,3.2727,0.05,6.4486e-06,64.442,4.9518e-06,37.206,8.3479e-13,7.538e-05,-4.9518e-06,-37.205,0.02576
9602,2.0059,3,0,0.00074789,7473.7,0.00031552,1.0018,0.00012145,-1457.2,-0.0007619,-8094.3,0.025892
9603,1.9147,3.0909,0,0.00072463,7241.3,0.00031168,0.87592,0.00010572,-1546.6,-0.0007384,-7889,0.023545
9604,2.0059,3.0909,0.05,6.5128e-06,65.083,5.001e-06,37.576,3.4107e-13,1.011e-05,-5.001e-06,-37.576,0.02584
9605,2.0059,2.8182,0,0.00074462,7441.1,0.00031407,0.99755,0.00012105,-1449.3,-0.00075857,-8058.4,0.025851
9606,1.9147,2.9091,0,0.00072463,7241.3,0.00031168,0.87592,0.00010572,-1546.6,-0.0007384,-7889,0.023545
9607,2.0059,2.9091,0.05,6.5128e-06,65.083,5.001e-06,37.576,1.4487e-12,-5.57e-05,-5.001e-06,-37.576,0.02584
9608,2.0059,2.6364,0,0.00073489,7343.8,0.0003096,0.96581,0.00012019,-1422.2,-0.00074864,-7950.2,0.025732
9609,1.9147,2.7273,0,0.0007186,7181.1,0.00030888,0.85911,0.00010526,-1529.1,-0.00073226,-7821.9,0.023476
9610,2.0059,2.7273,0.05,6.4486e-06,64.442,4.9517e-06,37.205,2.5965e-12,-8.7352e-05,-4.9518e-06,-37.206,0.02576
9611,2.0059,2.4545,0,0.00071899,7184.9,0.00030181,0.94827,0.00011974,-1367.1,-0.00073238,-7769.6,0.025536
9612,1.9147,2.5455,0,0.00070677,7062.8,0.00030312,0.81612,0.00010488,-1488.7,-0.0007202,-7688,0.023339
9613,2.0059,2.5455,0.05,6.3085e-06,63.042,4.8441e-06,36.397,-7.7829e-12,-0.00017197,-4.8442e-06,-36.397,0.025603
9614,2.0059,2.2727,0,0.0006977,6972.2,0.0002905,1.0946,0.00012089,-1273.3,-0.00071055,-7520.4,0.02527
9615,1.9147,2.3636,0,0.00068971,6892.3,0.0002942,0.81181,0.00010556,-1416.5,-0.00070277,-7490,0.023139
9616,2.0059,2.3636,0.05,6.1324e-06,61.282,4.7089e-06,35.381,-2.4358e-11,-0.00036804,-4.7089e-06,-35.381,0.025372
9617,2.0059,2.0909,0,0.00067227,6718,0.00027582,1.3182,0.00012449,-1135.7,-0.0006843,-7212.7,0.024936
9618,1.9147,2.1818,0,0.00066844,6679.8,0.00028212,0.94229,0.00010831,-1305,-0.00068097,-7235.4,0.022878
9619,2.0059,2.1818,0.05,6.0487e-06,60.445,4.6447e-06,34.898,-5.9161e-11,-0.00071337,-4.6446e-06,-34.898,0.025072
9620,2.0059,1.9091,0,0.00064403,6435.9,0.00025851,1.5102,0.00013029,-961.92,-0.00065494,-6861.8,0.024538
9621,1.9147,2,0,0.00064423,6437.9,0.0002673,1.0783,0.00011348,-1154.6,-0.00065602,-6936.4,0.022558
9622,2.0059,2,0.05,6.1463e-06,61.421,4.7197e-06,35.461,-8.8313e-11,-0.00090275,-4.7196e-06,-35.461,0.024707
9623,2.0059,1.7273,0,0.00061411,6136.8,0.00023984,1.8672,0.00013684,-772.07,-0.00062354,-6485.2,0.024078
9624,1.9147,1.8182,0,0.00061822,6177.9,0.00025061,1.2667,0.00012034,-977.49,-0.00062898,-6607.6,0.02218
9625,2.0059,1.8182,0.05,6.404e-06,63.996,4.9175e-06,36.948,-1.1137e-10,-0.00099545,-4.9174e-06,-36.948,0.024279
9626,2.0059,1.5455,0,0.00058329,5828.9,0.00022118,2.4145,0.00014229,-590.34,-0.00059103,-6100.2,0.023556
9627,1.9147,1.6364,0,0.00059126,5908.5,0.00023322,1.5936,0.0001274,-793.5,-0.0006007,-6264.2,0.021745
9628,2.0059,1.6364,0.05,6.7759e-06,67.712,5.2031e-06,39.094,-1.1183e-10,-0.0010353,-5.203e-06,-39.094,0.02379
9629,2.0059,1.3636,0,0.00055241,5520.3,0.00020363,3.1582,0.00014545,-433.92,-0.00055844,-5722.7,0.022974
9630,1.9147,1.4545,0,0.00056405,5636.6,0.00021622,1.9693,0.00013327,-621.3,-0.00057199,-5920.3,0.021253
9631,2.0059,1.4545,0.05,7.2249e-06,72.199,5.5479e-06,41.684,-9.1205e-11,-0.00085215,-5.5478e-06,-41.684,0.023239
9632,2.0059,1.1818,0,0.00052253,5221.7,0.00018782,4.2769,0.00014625,-308.08,-0.000527,-5366.6,0.022333
9633,1.9147,1.2727,0,0.00053746,5370.9,0.00020038,2.5086,0.00013737,-470.91,-0.00054387,-5589.5,0.020702
9634,2.0059,1.2727,0.05,7.6603e-06,76.55,5.8822e-06,44.196,-6.4228e-11,-0.0006717,-5.8821e-06,-44.196,0.022629
9635,2.0059,1,0,0.00049489,4945.5,0.00017404,5.9706,0.00014546,-208.79,-0.00049799,-5043.4,0.021634
9636,1.9147,1.0909,0,0.00051255,5122,0.00018613,3.3103,0.00014,-343.29,-0.00051745,-5283.2,0.020092
9637,2.0059,1.0909,0.05,7.9966e-06,79.911,6.1404e-06,46.136,-5.3115e-11,-0.00054317,-6.1404e-06,-46.136,0.02196
9638,2.0059,0.81818,0,0.00047072,4703.9,0.00016238,8.9062,0.00014413,-128.26,-0.0004726,-4762.1,0.020876
9639,1.9147,0.90909,0,0.00049039,4900.5,0.00017366,4.5668,0.0001419,-234.03,-0.00049386,-5010.9,0.019423
9640,2.0059,0.90909,0.05,8.1926e-06,81.869,6.2909e-06,47.267,-3.4614e-11,-0.00035733,-6.2909e-06,-47.267,0.021232
9641,2.0059,0.63636,0,0.00045107,4507.6,0.00015323,16.211,0.00014291,-61.379,-0.00045179,-4529.7,0.020057
9642,1.9147,0.72727,0,0.00047195,4716.2,0.00016311,7.0242,0.00014381,-137.94,-0.00047401,-4780,0.018691
9643,2.0059,0.72727,0.05,8.2581e-06,82.524,6.3412e-06,47.645,-2.4198e-11,-0.00027548,-6.3412e-06,-47.645,0.020445
9644,2.0059,0.45455,0,0.00043681,4365.1,0.00014873,44.139,0.00014042,-18.312,-0.00043634,-4351.9,0.019174
9645,1.9147,0.54545,0,0.00045797,4576.5,0.00015509,14.953,0.00014578,-54.953,-0.00045861,-4596.1,0.017893
9646,2.0059,0.54545,0.05,8.2311e-06,82.254,6.3205e-06,47.489,-1.43e-11,-0.00017011,-6.3204e-06,-47.489,0.019595
9647,2.0059,0.27273,0,0.00042979,4294.9,0.00015132,110.46,0.0001358,-6.1574,-0.00042789,-4241.5,0.018219
9648,1.9147,0.36364,0,0.000449,4486.9,0.00015348,57.022,0.0001444,-11.146,-0.00044819,-4463.6,0.017022
9649,2.0059,0.36364,0.05,8.3257e-06,83.2,6.3931e-06,48.035,-5.9385e-12,-0.00010012,-6.3931e-06,-48.035,0.018677
9650,1.9147,0.18182,0,0.0004478,4475,0.00016006,145.39,0.00014017,-4.0468,-0.00044521,-4402.4,0.016074
9651,2.0059,0.18182,0.05,1.1565e-05,115.57,8.8802e-06,66.722,-1.8749e-12,-2.1946e-05,-8.8802e-06,-66.722,0.017684
9652,2.0059,0.090909,0,0.00041559,4153,0.00014449,88.651,0.00013279,0.7267,-0.000414,-4107.6,0.017188
9653,1.8235,5.7273,0,0.00046704,4667.2,0.00016191,89.698,0.00014912,-6.4251,-0.00046555,-4624.8,0.014966
9654,1.7324,5.8182,0,0.00048313,4828,0.00017072,133.21,0.00015245,-4.0433,-0.00048079,-4762,0.013004
9655,1.8235,5.8182,0.05,1.0502e-05,104.94,8.0639e-06,60.589,1.5733e-12,3.248e-05,-8.0639e-06,-60.589,0.014472
9656,1.8235,5.9091,0,0.00045556,4552.4,0.00015733,84.431,0.0001462,0.82267,-0.00045405,-4509.2,0.014017
9657,1.8235,5.5455,0,0.00047025,4699.2,0.00015852,17.969,0.00015118,-37.188,-0.00047055,-4708.6,0.01583
9658,1.7324,5.6364,0,0.00048129,4809.5,0.00016227,30.59,0.00015579,-18.103,-0.00048106,-4803.1,0.013866
9659,1.8235,5.6364,0.05,7.1893e-06,71.843,5.5205e-06,41.479,8.3557e-12,9.8319e-05,-5.5205e-06,-41.479,0.015378
9660,1.8235,5.3636,0,0.00047915,4788.2,0.00016502,6.2214,0.00014692,-129.81,-0.00048111,-4848.6,0.016614
9661,1.7324,5.4545,0,0.00048595,4856.1,0.00016625,6.4032,0.00015093,-108.71,-0.00048759,-4906.3,0.014643
9662,1.8235,5.4545,0.05,7.1518e-06,71.468,5.4917e-06,41.262,1.8868e-11,0.00017361,-5.4917e-06,-41.262,0.016201
9663,1.8235,5.1818,0,0.00049216,4918.2,0.00017453,3.7921,0.00014192,-241.22,-0.00049574,-5032.4,0.017326
9664,1.7324,5.2727,0,0.00049449,4941.5,0.00017481,3.5078,0.00014351,-231.69,-0.00049795,-5051.4,0.015341
9665,1.8235,5.2727,0.05,7.2289e-06,72.239,5.5509e-06,41.707,2.459e-11,0.00028633,-5.5509e-06,-41.707,0.016949
9666,1.8235,5,0,0.00050877,5084.2,0.00018586,2.6895,0.00013696,-364.72,-0.00051393,-5255.2,0.017972
9667,1.7324,5.0909,0,0.0005066,5062.5,0.0001852,2.4032,0.0001361,-366.55,-0.00051179,-5234.5,0.015968
9668,1.8235,5.0909,0.05,7.2033e-06,71.984,5.5313e-06,41.56,3.6331e-11,0.00036345,-5.5313e-06,-41.56,0.017626
9669,1.8235,4.8182,0,0.00052828,5279.1,0.00019876,2.0387,0.00013171,-501.72,-0.00053497,-5510.9,0.018556
9670,1.7324,4.9091,0,0.00052186,5215,0.00019708,1.8072,0.00012876,-511.53,-0.00052863,-5450.9,0.016531
9671,1.8235,4.9091,0.05,7.0493e-06,70.444,5.413e-06,40.671,4.7824e-11,0.00049999,-5.413e-06,-40.671,0.01824
9672,1.8235,4.6364,0,0.00054985,5494.7,0.00021301,1.6011,0.00012574,-654.11,-0.00055801,-5791.6,0.01908
9673,1.7324,4.7273,0,0.00053962,5392.5,0.00021021,1.4273,0.00012124,-667.01,-0.00054783,-5694.1,0.017032
9674,1.8235,4.7273,0.05,6.7686e-06,67.639,5.1974e-06,39.052,6.6006e-11,0.0006206,-5.1975e-06,-39.052,0.018792
9675,1.8235,4.4545,0,0.00057263,5722.4,0.00022828,1.2802,0.00011883,-821.07,-0.00058213,-6087.8,0.019547
9676,1.7324,4.5455,0,0.00055911,5587.3,0.0002243,1.1642,0.00011332,-832.71,-0.00056857,-5956.2,0.017477
9677,1.8235,4.5455,0.05,6.3844e-06,63.8,4.9024e-06,36.835,8.1639e-11,0.00074097,-4.9024e-06,-36.835,0.019287
9678,1.8235,4.2727,0,0.00059583,5954.2,0.00024399,1.0321,0.00011122,-996.56,-0.00060646,-6389,0.019959
9679,1.7324,4.3636,0,0.00057956,5791.6,0.00023895,0.9624,0.00010503,-1005.3,-0.00059004,-6227.8,0.017867
9680,1.8235,4.3636,0.05,5.9377e-06,59.336,4.5594e-06,34.257,9.6845e-11,0.0008701,-4.5594e-06,-34.258,0.019725
9681,1.8235,4.0909,0,0.00061873,6183,0.00025939,0.82514,0.00010371,-1168.9,-0.00063024,-6683.5,0.020317
9682,1.7324,4.1818,0,0.00060023,5998.1,0.00025356,0.80127,9.6806e-05,-1177,-0.00061149,-6498.9,0.018206
9683,1.8235,4.1818,0.05,5.4675e-06,54.637,4.1983e-06,31.545,9.8412e-11,0.00082182,-4.1984e-06,-31.545,0.020108
9684,1.8235,3.9091,0,0.00064057,6401.3,0.0002736,0.67572,9.7325e-05,-1323.7,-0.00065271,-6959.2,0.020622
9685,1.7324,4,0,0.00062043,6200,0.00026739,0.66216,8.945e-05,-1336.3,-0.00063223,-6758.7,0.018497
9686,1.8235,4,0.05,5.0209e-06,50.175,3.8554e-06,28.968,1.0847e-10,0.00091344,-3.8555e-06,-28.969,0.020439
9687,1.8235,3.7273,0,0.00066047,6600.1,0.00028582,0.63592,9.2843e-05,-1449.3,-0.00067305,-7203.9,0.020875
9688,1.7324,3.8182,0,0.00063938,6389.4,0.0002797,0.58282,8.3747e-05,-1471.8,-0.00065155,-6996.5,0.018739
9689,1.8235,3.8182,0.05,4.6777e-06,46.745,3.5919e-06,26.988,7.0949e-11,0.00067298,-3.5919e-06,-26.988,0.020717
9690,1.8235,3.5455,0,0.00067736,6769,0.0002955,0.66674,9.0391e-05,-1540.5,-0.00069026,-7406,0.021074
9691,1.7324,3.6364,0,0.00065618,6557.3,0.00028992,0.57965,8.0062e-05,-1576.2,-0.0006686,-7201.3,0.018935
9692,1.8235,3.6364,0.05,4.5186e-06,45.155,3.4697e-06,26.07,4.5153e-11,0.00050979,-3.4697e-06,-26.07,0.020942
9693,1.8235,3.3636,0,0.00069022,6897.5,0.0003024,0.70536,8.9479e-05,-1599.1,-0.00070335,-7556.1,0.02122
9694,1.7324,3.4545,0,0.00066983,6693.6,0.00029766,0.60519,7.8179e-05,-1648.5,-0.00068243,-7363.4,0.019084
9695,1.8235,3.4545,0.05,4.5307e-06,45.275,3.479e-06,26.14,2.3835e-11,0.00029016,-3.479e-06,-26.14,0.021114
9696,1.8235,3.1818,0,0.00069825,6977.7,0.00030649,0.73767,8.935e-05,-1630.8,-0.00071151,-7648.1,0.021308
9697,1.7324,3.2727,0,0.00067943,6789.7,0.0003028,0.63777,7.749e-05,-1692.3,-0.00069218,-7475.3,0.019184
9698,1.8235,3.2727,0.05,4.6159e-06,46.127,3.5445e-06,26.632,1.2704e-11,0.00016653,-3.5445e-06,-26.632,0.021231
9699,1.8235,3,0,0.00070098,7004.9,0.00030784,0.75125,8.9385e-05,-1640.6,-0.00071429,-7679.1,0.021338
9700,1.7324,3.0909,0,0.00068439,6839.2,0.00030535,0.6611,7.7343e-05,-1712.5,-0.00069722,-7532.3,0.019235
9701,1.8235,3.0909,0.05,4.6799e-06,46.767,3.5936e-06,27.001,2.9556e-12,4.4009e-05,-3.5936e-06,-27.001,0.02129
9702,1.8235,2.8182,0,0.00069825,6977.7,0.00030649,0.73768,8.935e-05,-1630.8,-0.00071151,-7648.1,0.021308
9703,1.7324,2.9091,0,0.00068439,6839.2,0.00030535,0.6611,7.7343e-05,-1712.5,-0.00069722,-7532.3,0.019235
9704,1.8235,2.9091,0.05,4.6799e-06,46.767,3.5936e-06,27.001,-2.0142e-12,-4.4888e-05,-3.5936e-06,-27.001,0.02129
9705,1.8235,2.6364,0,0.00069022,6897.5,0.0003024,0.70536,8.9479e-05,-1599.1,-0.00070335,-7556.1,0.02122
9706,1.7324,2.7273,0,0.00067943,6789.7,0.0003028,0.63777,7.749e-05,-1692.3,-0.00069218,-7475.3,0.019184
9707,1.8235,2.7273,0.05,4.6159e-06,46.127,3.5444e-06,26.632,-1.022e-11,-0.00016023,-3.5445e-06,-26.632,0.021231
9708,1.8235,2.4545,0,0.00067736,6769,0.0002955,0.66674,9.0391e-05,-1540.5,-0.00069026,-7406,0.021074
9709,1.7324,2.5455,0,0.00066983,6693.6,0.00029766,0.60519,7.8179e-05,-1648.5,-0.00068243,-7363.4,0.019084
9710,1.8235,2.5455,0.05,4.5307e-06,45.275,3.479e-06,26.14,-2.5677e-11,-0.00027405,-3.479e-06,-26.14,0.021114
9711,1.8235,2.2727,0,0.00066047,6600.2,0.00028582,0.63592,9.2843e-05,-1449.3,-0.00067305,-7203.9,0.020875
9712,1.7324,2.3636,0,0.00065618,6557.3,0.00028992,0.57965,8.0062e-05,-1576.2,-0.0006686,-7201.3,0.018935
9713,1.8235,2.3636,0.05,4.5186e-06,45.155,3.4697e-06,26.07,-4.5153e-11,-0.00053202,-3.4697e-06,-26.07,0.020942
9714,1.8235,2.0909,0,0.00064057,6401.3,0.0002736,0.67572,9.7325e-05,-1323.7,-0.00065271,-6959.2,0.020622
9715,1.7324,2.1818,0,0.00063938,6389.4,0.0002797,0.58282,8.3747e-05,-1471.8,-0.00065155,-6996.5,0.018739
9716,1.8235,2.1818,0.05,4.6777e-06,46.745,3.5919e-06,26.988,-7.9775e-11,-0.00075978,-3.5919e-06,-26.988,0.020717
9717,1.8235,1.9091,0,0.00061873,6183,0.00025939,0.82515,0.00010371,-1168.9,-0.00063024,-6683.5,0.020317
9718,1.7324,2,0,0.00062043,6200,0.00026739,0.66216,8.945e-05,-1336.3,-0.00063223,-6758.7,0.018497
9719,1.8235,2,0.05,5.0209e-06,50.175,3.8555e-06,28.969,-1.066e-10,-0.00091133,-3.8554e-06,-28.968,0.020439
9720,1.8235,1.7273,0,0.00059583,5954.2,0.00024399,1.0321,0.00011122,-996.56,-0.00060646,-6389,0.019959
9721,1.7324,1.8182,0,0.00060023,5998.1,0.00025356,0.80127,9.6806e-05,-1177,-0.00061149,-6498.9,0.018206
9722,1.8235,1.8182,0.05,5.4675e-06,54.637,4.1984e-06,31.545,-9.9215e-11,-0.00094575,-4.1983e-06,-31.545,0.020108
9723,1.8235,1.5455,0,0.00057264,5722.4,0.00022828,1.2802,0.00011883,-821.07,-0.00058213,-6087.8,0.019547
9724,1.7324,1.6364,0,0.00057956,5791.6,0.00023895,0.9624,0.00010503,-1005.3,-0.00059004,-6227.8,0.017867
9725,1.8235,1.6364,0.05,5.9377e-06,59.336,4.5594e-06,34.258,-9.6736e-11,-0.00085834,-4.5594e-06,-34.257,0.019725
9726,1.8235,1.3636,0,0.00054985,5494.7,0.00021301,1.6011,0.00012574,-654.11,-0.00055801,-5791.6,0.01908
9727,1.7324,1.4545,0,0.00055911,5587.3,0.0002243,1.1642,0.00011332,-832.71,-0.00056857,-5956.2,0.017477
9728,1.8235,1.4545,0.05,6.3844e-06,63.8,4.9025e-06,36.835,-7.8275e-11,-0.00077988,-4.9024e-06,-36.835,0.019287
9729,1.8235,1.1818,0,0.00052828,5279.1,0.00019876,2.0387,0.00013171,-501.72,-0.00053497,-5510.9,0.018556
9730,1.7324,1.2727,0,0.00053962,5392.5,0.00021021,1.4273,0.00012124,-667.01,-0.00054783,-5694.1,0.017032
9731,1.8235,1.2727,0.05,6.7686e-06,67.639,5.1975e-06,39.052,-6.7025e-11,-0.00067378,-5.1974e-06,-39.052,0.018792
9732,1.8235,1,0,0.00050877,5084.2,0.00018586,2.6895,0.00013696,-364.72,-0.00051393,-5255.2,0.017972
9733,1.7324,1.0909,0,0.00052186,5215,0.00019708,1.8072,0.00012876,-511.53,-0.00052863,-5450.9,0.016531
9734,1.8235,1.0909,0.05,7.0493e-06,70.444,5.413e-06,40.671,-5.5217e-11,-0.00049321,-5.413e-06,-40.671,0.01824
9735,1.8235,0.81818,0,0.00049216,4918.2,0.00017453,3.7921,0.00014192,-241.22,-0.00049575,-5032.4,0.017326
9736,1.7324,0.90909,0,0.0005066,5062.5,0.0001852,2.4032,0.0001361,-366.55,-0.00051179,-5234.5,0.015968
9737,1.8235,0.90909,0.05,7.2033e-06,71.984,5.5313e-06,41.56,-3.7638e-11,-0.00036345,-5.5313e-06,-41.56,0.017626
9738,1.8235,0.63636,0,0.00047915,4788.2,0.00016502,6.2214,0.00014692,-129.81,-0.00048111,-4848.6,0.016614
9739,1.7324,0.72727,0,0.00049449,4941.5,0.00017481,3.5078,0.00014351,-231.69,-0.00049795,-5051.4,0.015341
9740,1.8235,0.72727,0.05,7.2289e-06,72.239,5.5509e-06,41.707,-2.459e-11,-0.00030286,-5.5509e-06,-41.707,0.016949
9741,1.8235,0.45455,0,0.00047025,4699.2,0.00015852,17.969,0.00015118,-37.188,-0.00047055,-4708.6,0.01583
9742,1.7324,0.54545,0,0.00048595,4856.1,0.00016625,6.4032,0.00015093,-108.71,-0.00048759,-4906.3,0.014643
9743,1.8235,0.54545,0.05,7.1518e-06,71.468,5.4917e-06,41.262,-1.9674e-11,-0.00022437,-5.4917e-06,-41.262,0.016201
9744,1.8235,0.27273,0,0.00046704,4667.2,0.00016191,89.698,0.00014912,-6.4251,-0.00046555,-4624.8,0.014966
9745,1.7324,0.36364,0,0.00048129,4809.5,0.00016227,30.59,0.00015579,-18.103,-0.00048106,-4803.1,0.013866
9746,1.8235,0.36364,0.05,7.1893e-06,71.843,5.5205e-06,41.479,-8.3557e-12,-9.9945e-05,-5.5205e-06,-41.479,0.015378
9747,1.7324,0.18182,0,0.00048313,4828,0.00017072,133.21,0.00015245,-4.0433,-0.00048079,-4762,0.013004
9748,1.8235,0.18182,0.05,1.0502e-05,104.94,8.0639e-06,60.589,1.7696e-13,-3.248e-05,-8.0639e-06,-60.589,0.014472
9749,1.8235,0.090909,0,0.00045556,4552.4,0.00015733,84.431,0.0001462,0.82268,-0.00045405,-4509.2,0.014017
9750,1.6412,5.7273,0,0.00049735,4970.1,0.00017007,66.571,0.00016014,-8.0379,-0.00049631,-4940.4,0.012001
9751,1.55,5.8182,0,0.00051176,5114,0.00017918,121.1,0.00016247,-4.4965,-0.00050966,-5054.6,0.010235
9752,1.6412,5.8182,0.05,9.5278e-06,95.212,7.3162e-06,54.971,-2.5054e-12,3.7721e-05,-7.3162e-06,-54.971,0.011549
9753,1.6412,5.9091,0,0.00048843,4881,0.00016777,79.554,0.00015731,0.94684,-0.00048702,-4840.3,0.011136
9754,1.6412,5.5455,0,0.00049699,4966.5,0.00016849,7.6903,0.00015709,-78,-0.00049813,-5001.1,0.012775
9755,1.55,5.6364,0,0.00050679,5064.4,0.00017031,13.322,0.00016326,-39.622,-0.00050721,-5077.3,0.01101
9756,1.6412,5.6364,0.05,6.1976e-06,61.933,4.759e-06,35.757,1.1126e-11,0.00014955,-4.759e-06,-35.757,0.012368
9757,1.6412,5.3636,0,0.0005014,5010.6,0.000176,3.3736,0.0001477,-209.22,-0.00050457,-5110.1,0.013464
9758,1.55,5.4545,0,0.00050765,5073,0.00017641,3.602,0.00015266,-174.83,-0.00051033,-5156.3,0.011694
9759,1.6412,5.4545,0.05,6.2627e-06,62.584,4.809e-06,36.133,2.437e-11,0.00022589,-4.809e-06,-36.133,0.013099
9760,1.6412,5.1818,0,0.00050917,5088.2,0.0001855,2.2239,0.00013792,-355.29,-0.00051423,-5255.3,0.014078
9761,1.55,5.2727,0,0.00051178,5114.3,0.00018522,2.1746,0.0001408,-331.58,-0.00051657,-5270.8,0.012298
9762,1.6412,5.2727,0.05,6.43e-06,64.255,4.9374e-06,37.098,2.9162e-11,0.00033303,-4.9374e-06,-37.098,0.013749
9763,1.6412,5,0,0.00052004,5196.8,0.00019644,1.6353,0.0001282,-511.09,-0.00052681,-5432.6,0.014623
9764,1.55,5.0909,0,0.00051907,5187.2,0.0001955,1.5246,0.000129,-498.16,-0.00052571,-5417.4,0.012829
9765,1.6412,5.0909,0.05,6.48e-06,64.755,4.9758e-06,37.386,3.7346e-11,0.00042697,-4.9758e-06,-37.386,0.014327
9766,1.6412,4.8182,0,0.0005336,5332.4,0.00020854,1.2803,0.00011862,-674.33,-0.00054183,-5636.7,0.015105
9767,1.55,4.9091,0,0.00052933,5289.6,0.0002069,1.163,0.00011759,-669.89,-0.0005375,-5591.9,0.013295
9768,1.6412,4.9091,0.05,6.3906e-06,63.861,4.9071e-06,36.87,5.2324e-11,0.00050196,-4.9072e-06,-36.87,0.014839
9769,1.6412,4.6364,0,0.00054927,5489,0.0002215,1.0425,0.00010913,-843.26,-0.00055871,-5861.1,0.01553
9770,1.55,4.7273,0,0.00054208,5417.1,0.00021913,0.92988,0.00010669,-843.92,-0.00055145,-5788.9,0.013703
9771,1.6412,4.7273,0.05,6.1641e-06,61.599,4.7333e-06,35.564,6.2128e-11,0.00062231,-4.7333e-06,-35.564,0.015291
9772,1.6412,4.4545,0,0.00056638,5659.9,0.00023498,0.87122,9.9779e-05,-1015,-0.00057675,-6098.2,0.015901
9773,1.55,4.5455,0,0.00055672,5563.3,0.00023187,0.76958,9.6311e-05,-1017.8,-0.00056698,-6001.5,0.014057
9774,1.6412,4.5455,0.05,5.8147e-06,58.107,4.4649e-06,33.548,7.6763e-11,0.00068625,-4.465e-06,-33.548,0.015688
9775,1.6412,4.2727,0,0.00058423,5838.2,0.00024852,0.73629,9.0798e-05,-1184.3,-0.00059526,-6339.1,0.016223
9776,1.55,4.3636,0,0.00057255,5721.5,0.00024476,0.6477,8.6564e-05,-1187.9,-0.0005834,-6221.8,0.014363
9777,1.6412,4.3636,0.05,5.3629e-06,53.592,4.118e-06,30.942,8.2979e-11,0.00075887,-4.1181e-06,-30.942,0.016033
9778,1.6412,4.0909,0,0.00060213,6017.1,0.00026155,0.63059,8.2654e-05,-1343.5,-0.0006136,-6574.9,0.016499
9779,1.55,4.1818,0,0.00058887,5884.6,0.00025732,0.54748,7.7707e-05,-1349,-0.00060008,-6441.6,0.014624
9780,1.6412,4.1818,0.05,4.8357e-06,48.324,3.7132e-06,27.9,8.8828e-11,0.00074699,-3.7133e-06,-27.9,0.016331
9781,1.6412,3.9091,0,0.00061936,6189.3,0.00027349,0.5566,7.589e-05,-1484.2,-0.00063109,-6796.1,0.01673
9782,1.55,4,0,0.00060498,6045.6,0.00026907,0.47137,7.0136e-05,-1494.2,-0.00061636,-6652.3,0.014844
9783,1.6412,4,0.05,4.2757e-06,42.727,3.2831e-06,24.668,8.7247e-11,0.00097602,-3.2832e-06,-24.669,0.016583
9784,1.6412,3.7273,0,0.00063513,6347,0.0002838,0.51486,7.0883e-05,-1599.3,-0.00064701,-6993.3,0.01692
9785,1.55,3.8182,0,0.00062016,6197.3,0.00027949,0.42261,6.4211e-05,-1617.1,-0.00063161,-6845.3,0.015026
9786,1.6412,3.8182,0.05,3.7555e-06,37.529,2.8837e-06,21.667,8.3107e-11,0.00081625,-2.8838e-06,-21.667,0.016792
9787,1.6412,3.5455,0,0.00064859,6481.4,0.00029207,0.51049,6.7658e-05,-1685.6,-0.00066058,-7157.3,0.017068
9788,1.55,3.6364,0,0.00063363,6331.9,0.00028819,0.40438,6.0068e-05,-1713.6,-0.00064512,-7012.1,0.01517
9789,1.6412,3.6364,0.05,3.3647e-06,33.624,2.5837e-06,19.413,5.772e-11,0.00064233,-2.5837e-06,-19.413,0.01696
9790,1.6412,3.3636,0,0.0006589,6584.4,0.00029806,0.53419,6.5897e-05,-1743.9,-0.00067098,-7280.4,0.017174
9791,1.55,3.4545,0,0.0006446,6441.5,0.00029485,0.41607,5.7532e-05,-1782.7,-0.00065612,-7144.8,0.015279
9792,1.6412,3.4545,0.05,3.1528e-06,31.506,2.4209e-06,18.19,4.2586e-11,0.00042116,-2.4209e-06,-18.19,0.017087
9793,1.6412,3.1818,0,0.00066538,6649.2,0.00030167,0.56043,6.5117e-05,-1776.8,-0.00067752,-7356.7,0.017239
9794,1.55,3.2727,0,0.00065235,6519,0.00029935,0.43941,5.6212e-05,-1826.4,-0.00066391,-7237.1,0.015351
9795,1.6412,3.2727,0.05,3.0844e-06,30.822,2.3684e-06,17.795,2.1942e-11,0.00023575,-2.3684e-06,-17.795,0.017172
9796,1.6412,3,0,0.00066759,6671.2,0.00030287,0.57103,6.4909e-05,-1787.4,-0.00067975,-7382.5,0.01726
9797,1.55,3.0909,0,0.00065637,6559.2,0.0003016,0.45586,5.5684e-05,-1847.2,-0.00066796,-7284.4,0.015388
9798,1.6412,3.0909,0.05,3.0787e-06,30.766,2.3641e-06,17.763,7.5594e-12,6.3926e-05,-2.3641e-06,-17.763,0.017215
9799,1.6412,2.8182,0,0.00066538,6649.2,0.00030167,0.56043,6.5117e-05,-1776.8,-0.00067752,-7356.7,0.017239
9800,1.55,2.9091,0,0.00065637,6559.2,0.0003016,0.45586,5.5684e-05,-1847.2,-0.00066796,-7284.4,0.015388
9801,1.6412,2.9091,0.05,3.0787e-06,30.766,2.3641e-06,17.763,-4.8173e-12,-4.9631e-05,-2.3641e-06,-17.763,0.017215
9802,1.6412,2.6364,0,0.0006589,6584.4,0.00029806,0.53419,6.5897e-05,-1743.9,-0.00067098,-7280.4,0.017174
9803,1.55,2.7273,0,0.00065235,6519,0.00029935,0.43941,5.6212e-05,-1826.4,-0.00066391,-7237.1,0.015351
9804,1.6412,2.7273,0.05,3.0844e-06,30.822,2.3684e-06,17.795,-2.3234e-11,-0.00023306,-2.3684e-06,-17.795,0.017172
9805,1.6412,2.4545,0,0.00064859,6481.4,0.00029207,0.51049,6.7658e-05,-1685.6,-0.00066058,-7157.3,0.017068
9806,1.55,2.5455,0,0.0006446,6441.5,0.00029485,0.41607,5.7532e-05,-1782.7,-0.00065612,-7144.8,0.015279
9807,1.6412,2.5455,0.05,3.1528e-06,31.506,2.4209e-06,18.19,-4.2882e-11,-0.00039293,-2.4209e-06,-18.19,0.017087
9808,1.6412,2.2727,0,0.00063513,6347,0.0002838,0.51486,7.0883e-05,-1599.3,-0.00064701,-6993.3,0.01692
9809,1.55,2.3636,0,0.00063363,6331.9,0.00028819,0.40438,6.0068e-05,-1713.6,-0.00064512,-7012.1,0.01517
9810,1.6412,2.3636,0.05,3.3647e-06,33.624,2.5837e-06,19.413,-6.5856e-11,-0.00062847,-2.5837e-06,-19.413,0.01696
9811,1.6412,2.0909,0,0.00061936,6189.3,0.00027349,0.5566,7.589e-05,-1484.2,-0.00063109,-6796.1,0.01673
9812,1.55,2.1818,0,0.00062016,6197.3,0.00027949,0.42261,6.4212e-05,-1617.1,-0.00063161,-6845.3,0.015026
9813,1.6412,2.1818,0.05,3.7555e-06,37.529,2.8838e-06,21.667,-8.8877e-11,-0.00075951,-2.8837e-06,-21.667,0.016792
9814,1.6412,1.9091,0,0.00060213,6017.1,0.00026155,0.63059,8.2654e-05,-1343.5,-0.0006136,-6574.9,0.016499
9815,1.55,2,0,0.00060498,6045.6,0.00026907,0.47138,7.0136e-05,-1494.2,-0.00061636,-6652.3,0.014844
9816,1.6412,2,0.05,4.2757e-06,42.727,3.2832e-06,24.669,-8.7212e-11,-0.00097572,-3.2831e-06,-24.668,0.016583
9817,1.6412,1.7273,0,0.00058423,5838.2,0.00024852,0.73629,9.0798e-05,-1184.3,-0.00059526,-6339.1,0.016223
9818,1.55,1.8182,0,0.00058887,5884.6,0.00025732,0.54748,7.7708e-05,-1349,-0.00060008,-6441.6,0.014624
9819,1.6412,1.8182,0.05,4.8357e-06,48.324,3.7133e-06,27.9,-8.9203e-11,-0.00081474,-3.7132e-06,-27.9,0.016331
9820,1.6412,1.5455,0,0.00056638,5659.9,0.00023498,0.87122,9.9779e-05,-1015,-0.00057675,-6098.2,0.015901
9821,1.55,1.6364,0,0.00057255,5721.5,0.00024476,0.64771,8.6564e-05,-1187.9,-0.0005834,-6221.8,0.014363
9822,1.6412,1.6364,0.05,5.3629e-06,53.592,4.1181e-06,30.942,-8.4268e-11,-0.00075663,-4.118e-06,-30.942,0.016033
9823,1.6412,1.3636,0,0.00054927,5489,0.0002215,1.0425,0.00010913,-843.26,-0.00055871,-5861.1,0.01553
9824,1.55,1.4545,0,0.00055672,5563.3,0.00023187,0.76958,9.6311e-05,-1017.8,-0.00056698,-6001.5,0.014057
9825,1.6412,1.4545,0.05,5.8147e-06,58.107,4.465e-06,33.548,-8.2337e-11,-0.00070242,-4.4649e-06,-33.548,0.015688
9826,1.6412,1.1818,0,0.0005336,5332.4,0.00020854,1.2803,0.00011862,-674.33,-0.00054183,-5636.7,0.015105
9827,1.55,1.2727,0,0.00054208,5417.1,0.00021913,0.92988,0.00010669,-843.92,-0.00055145,-5788.9,0.013703
9828,1.6412,1.2727,0.05,6.1641e-06,61.599,4.7333e-06,35.564,-6.1783e-11,-0.00064,-4.7333e-06,-35.564,0.015291
9829,1.6412,1,0,0.00052004,5196.8,0.00019644,1.6353,0.0001282,-511.09,-0.00052681,-5432.6,0.014623
9830,1.55,1.0909,0,0.00052933,5289.6,0.0002069,1.163,0.00011759,-669.89,-0.0005375,-5591.9,0.013295
9831,1.6412,1.0909,0.05,6.3906e-06,63.861,4.9072e-06,36.87,-4.69e-11,-0.00053604,-4.9071e-06,-36.87,0.014839
9832,1.6412,0.81818,0,0.00050917,5088.2,0.0001855,2.2239,0.00013792,-355.29,-0.00051423,-5255.3,0.014078
9833,1.55,0.90909,0,0.00051908,5187.2,0.0001955,1.5246,0.000129,-498.16,-0.00052571,-5417.4,0.012829
9834,1.6412,0.90909,0.05,6.48e-06,64.755,4.9758e-06,37.386,-4.4243e-11,-0.00043116,-4.9758e-06,-37.386,0.014327
9835,1.6412,0.63636,0,0.0005014,5010.6,0.000176,3.3736,0.0001477,-209.22,-0.00050457,-5110.1,0.013464
9836,1.55,0.72727,0,0.00051178,5114.3,0.00018522,2.1746,0.0001408,-331.58,-0.00051657,-5270.8,0.012298
9837,1.6412,0.72727,0.05,6.43e-06,64.255,4.9374e-06,37.098,-3.5108e-11,-0.0003019,-4.9374e-06,-37.098,0.013749
9838,1.6412,0.45455,0,0.00049699,4966.5,0.00016849,7.6903,0.00015709,-78,-0.00049813,-5001.1,0.012775
9839,1.55,0.54545,0,0.00050765,5073,0.00017641,3.602,0.00015266,-174.83,-0.00051033,-5156.3,0.011694
9840,1.6412,0.54545,0.05,6.2627e-06,62.584,4.809e-06,36.133,-2.1872e-11,-0.00029217,-4.809e-06,-36.133,0.013099
9841,1.6412,0.27273,0,0.00049735,4970.1,0.00017007,66.571,0.00016014,-8.0379,-0.00049631,-4940.4,0.012001
9842,1.55,0.36364,0,0.00050679,5064.4,0.00017031,13.322,0.00016326,-39.622,-0.00050721,-5077.3,0.01101
9843,1.6412,0.36364,0.05,6.1976e-06,61.933,4.759e-06,35.757,-1.1126e-11,-0.00013991,-4.759e-06,-35.757,0.012368
9844,1.55,0.18182,0,0.00051176,5114,0.00017918,121.1,0.00016247,-4.4965,-0.00050966,-5054.6,0.010235
9845,1.6412,0.18182,0.05,9.5278e-06,95.212,7.3162e-06,54.971,1.1634e-12,-3.0415e-05,-7.3162e-06,-54.971,0.011549
9846,1.6412,0.090909,0,0.00048843,4881,0.00016777,79.554,0.00015731,0.94684,-0.00048702,-4840.3,0.011136
9847,1.4588,5.7273,0,0.00052112,5207.7,0.00017626,44.096,0.00016875,-12.305,-0.00052056,-5191.5,0.0093465
9848,1.3676,5.8182,0,0.00053401,5336.4,0.00018572,110.86,0.00017026,-5.3235,-0.00053212,-5282.7,0.0077856
9849,1.4588,5.8182,0.05,8.6614e-06,86.555,6.6509e-06,49.972,-2.3495e-14,5.169e-05,-6.6509e-06,-49.972,0.0089373
9850,1.4588,5.9091,0,0.00051459,5142.3,0.00017605,75.432,0.00016615,1.0589,-0.00051325,-5103.7,0.0085669
9851,1.4588,5.5455,0,0.0005174,5170.4,0.00017758,4.3926,0.00015949,-131.53,-0.00051943,-5232.6,0.01003
9852,1.3676,5.6364,0,0.00052583,5254.7,0.00017791,7.2369,0.00016675,-76.597,-0.00052696,-5288.9,0.0084713
9853,1.4588,5.6364,0.05,5.3947e-06,53.91,4.1424e-06,31.125,1.6609e-11,0.00019575,-4.1424e-06,-31.125,0.0096685
9854,1.4588,5.3636,0,0.00051804,5176.8,0.0001856,2.1595,0.00014586,-296.47,-0.0005224,-5317.5,0.010628
9855,1.3676,5.4545,0,0.00052336,5230,0.00018516,2.5448,0.00015153,-250.17,-0.00052711,-5349.2,0.0090652
9856,1.4588,5.4545,0.05,5.6042e-06,56.004,4.3033e-06,32.334,3.0063e-11,0.00025631,-4.3033e-06,-32.334,0.010308
9857,1.4588,5.1818,0,0.00052176,5214,0.00019522,1.4576,0.000132,-473.57,-0.00052816,-5433.8,0.011148
9858,1.3676,5.2727,0,0.00052401,5236.5,0.00019439,1.6685,0.00013563,-439.87,-0.00053007,-5441.6,0.0095778
9859,1.4588,5.2727,0.05,5.8764e-06,58.723,4.5123e-06,33.904,3.82e-11,0.00039292,-4.5123e-06,-33.904,0.010866
9860,1.4588,5,0,0.00052849,5281.3,0.00020596,1.0667,0.00011854,-655.82,-0.00053656,-5577.9,0.011601
9861,1.3676,5.0909,0,0.00052786,5275,0.00020479,1.2154,0.00012014,-634.75,-0.00053576,-5562.9,0.010019
9862,1.4588,5.0909,0.05,6.0009e-06,59.968,4.608e-06,34.623,4.1744e-11,0.00047571,-4.608e-06,-34.623,0.011351
9863,1.4588,4.8182,0,0.00053798,5376.1,0.00021749,0.82867,0.00010582,-838.23,-0.00054729,-5745.4,0.011993
9864,1.3676,4.9091,0,0.0005348,5344.4,0.00021596,0.96435,0.00010569,-827.53,-0.00054402,-5709.3,0.010398
9865,1.4588,4.9091,0.05,5.9628e-06,59.587,4.5787e-06,34.402,5.4508e-11,0.0004952,-4.5787e-06,-34.403,0.011771
9866,1.4588,4.6364,0,0.00054971,5493.3,0.0002295,0.66765,9.4023e-05,-1017.2,-0.00055988,-5930.4,0.012332
9867,1.3676,4.7273,0,0.00054441,5440.3,0.00022758,0.80126,9.2552e-05,-1013.7,-0.00055449,-5875.4,0.010723
9868,1.4588,4.7273,0.05,5.7695e-06,57.655,4.4302e-06,33.287,5.8099e-11,0.00053799,-4.4302e-06,-33.287,0.012135
9869,1.4588,4.4545,0,0.00056307,5626.8,0.00024164,0.55028,8.3232e-05,-1189.7,-0.00057377,-6126.1,0.012622
9870,1.3676,4.5455,0,0.00055604,5556.5,0.00023933,0.6892,8.0792e-05,-1190.5,-0.00056661,-6054.8,0.010999
9871,1.4588,4.5455,0.05,5.4356e-06,54.319,4.1739e-06,31.361,6.3453e-11,0.00059825,-4.1739e-06,-31.361,0.012448
9872,1.4588,4.2727,0,0.00057735,5769.5,0.00025356,0.45749,7.3576e-05,-1351.9,-0.00058832,-6325.1,0.01287
9873,1.3676,4.3636,0,0.00056897,5685.8,0.0002509,0.60335,7.0424e-05,-1355.4,-0.00057975,-6240.6,0.011234
9874,1.4588,4.3636,0.05,4.9801e-06,49.767,3.8241e-06,28.733,6.2459e-11,0.00060717,-3.8241e-06,-28.733,0.012716
9875,1.4588,4.0909,0,0.00059185,5914.4,0.00026484,0.38309,6.5249e-05,-1499.2,-0.0006029,-6519.5,0.013079
9876,1.3676,4.1818,0,0.00058248,5820.7,0.00026195,0.53378,6.1497e-05,-1505.6,-0.00059327,-6425.2,0.011431
9877,1.4588,4.1818,0.05,4.4266e-06,44.236,3.3991e-06,25.539,8.2516e-11,0.00069906,-3.3991e-06,-25.54,0.012943
9878,1.4588,3.9091,0,0.00060586,6054.5,0.00027507,0.33064,5.8465e-05,-1627.1,-0.00061689,-6701.5,0.013251
9879,1.3676,4,0,0.00059585,5954.4,0.00027213,0.47928,5.4109e-05,-1637.6,-0.00060654,-6601.5,0.011594
9880,1.4588,4,0.05,3.8091e-06,38.065,2.9249e-06,21.977,7.7315e-11,0.00064796,-2.925e-06,-21.977,0.013132
9881,1.4588,3.7273,0,0.00061869,6182.6,0.00028388,0.30586,5.3343e-05,-1731.8,-0.00062966,-6863.7,0.01339
9882,1.3676,3.8182,0,0.00060842,6080,0.00028109,0.445,4.8342e-05,-1748.3,-0.00061898,-6762.3,0.011727
9883,1.4588,3.8182,0.05,3.1784e-06,31.762,2.4406e-06,18.338,7.3026e-11,0.00067314,-2.4406e-06,-18.338,0.013287
9884,1.4588,3.5455,0,0.00062962,6291.8,0.00029097,0.30548,4.9822e-05,-1811.6,-0.00064054,-6998.7,0.013498
9885,1.3676,3.6364,0,0.00061952,6190.9,0.00028855,0.43306,4.4175e-05,-1835.7,-0.00062996,-6900.9,0.011831
9886,1.4588,3.6364,0.05,2.6014e-06,25.996,1.9976e-06,15.009,7.6842e-11,0.0006431,-1.9976e-06,-15.009,0.01341
9887,1.4588,3.3636,0,0.00063798,6375.4,0.00029614,0.31884,4.7665e-05,-1866.6,-0.00064887,-7100.2,0.013575
9888,1.3676,3.4545,0,0.00062852,6280.9,0.00029429,0.43772,4.1438e-05,-1899.4,-0.00063888,-7011,0.011908
9889,1.4588,3.4545,0.05,2.1461e-06,21.447,1.6479e-06,12.382,5.3106e-11,0.00048317,-1.648e-06,-12.382,0.013501
9890,1.4588,3.1818,0,0.00064324,6428,0.00029928,0.33386,4.6552e-05,-1898.5,-0.00065413,-7163.1,0.013621
9891,1.3676,3.2727,0,0.00063487,6344.3,0.00029818,0.4497,3.9858e-05,-1940.5,-0.00064518,-7087.6,0.01196
9892,1.4588,3.2727,0.05,1.8533e-06,18.52,1.4231e-06,10.692,4.0324e-11,0.00030589,-1.4231e-06,-10.693,0.013562
9893,1.4588,3,0,0.00064503,6445.9,0.00030032,0.34023,4.6216e-05,-1908.9,-0.00065592,-7184.5,0.013636
9894,1.3676,3.0909,0,0.00063815,6377.1,0.00030013,0.45895,3.9155e-05,-1960.4,-0.00064845,-7126.9,0.011985
9895,1.4588,3.0909,0.05,1.719e-06,17.178,1.32e-06,9.9177,1.3167e-11,0.0001191,-1.32e-06,-9.9178,0.013593
9896,1.4588,2.8182,0,0.00064324,6428,0.00029928,0.33386,4.6552e-05,-1898.5,-0.00065413,-7163.2,0.013621
9897,1.3676,2.9091,0,0.00063815,6377.1,0.00030013,0.45895,3.9155e-05,-1960.4,-0.00064845,-7126.9,0.011985
9898,1.4588,2.9091,0.05,1.719e-06,17.178,1.32e-06,9.9178,-1.1786e-11,-0.00010597,-1.32e-06,-9.9177,0.013593
9899,1.4588,2.6364,0,0.00063798,6375.4,0.00029614,0.31884,4.7665e-05,-1866.6,-0.00064887,-7100.2,0.013575
9900,1.3676,2.7273,0,0.00063487,6344.3,0.00029818,0.4497,3.9858e-05,-1940.5,-0.00064518,-7087.6,0.01196
9901,1.4588,2.7273,0.05,1.8533e-06,18.52,1.4231e-06,10.693,-3.6024e-11,-0.00038778,-1.4231e-06,-10.693,0.013562
9902,1.4588,2.4545,0,0.00062962,6291.8,0.00029097,0.30548,4.9822e-05,-1811.6,-0.00064054,-6998.7,0.013498
9903,1.3676,2.5455,0,0.00062852,6280.9,0.00029429,0.43772,4.1438e-05,-1899.4,-0.00063888,-7011,0.011908
9904,1.4588,2.5455,0.05,2.1461e-06,21.447,1.648e-06,12.382,-6.2252e-11,-0.00052262,-1.6479e-06,-12.382,0.013501
9905,1.4588,2.2727,0,0.00061869,6182.6,0.00028388,0.30586,5.3343e-05,-1731.8,-0.00062966,-6863.7,0.01339
9906,1.3676,2.3636,0,0.00061952,6190.9,0.00028855,0.43306,4.4175e-05,-1835.7,-0.00062996,-6900.9,0.011831
9907,1.4588,2.3636,0.05,2.6014e-06,25.996,1.9976e-06,15.009,-6.2489e-11,-0.00063332,-1.9976e-06,-15.009,0.01341
9908,1.4588,2.0909,0,0.00060586,6054.5,0.00027507,0.33064,5.8466e-05,-1627.1,-0.00061689,-6701.5,0.013251
9909,1.3676,2.1818,0,0.00060842,6080,0.00028109,0.445,4.8342e-05,-1748.3,-0.00061898,-6762.3,0.011727
9910,1.4588,2.1818,0.05,3.1784e-06,31.762,2.4406e-06,18.338,-7.3002e-11,-0.00061191,-2.4406e-06,-18.338,0.013287
9911,1.4588,1.9091,0,0.00059185,5914.4,0.00026484,0.38309,6.525e-05,-1499.2,-0.0006029,-6519.5,0.013079
9912,1.3676,2,0,0.00059585,5954.4,0.00027213,0.47928,5.4109e-05,-1637.6,-0.00060654,-6601.5,0.011594
9913,1.4588,2,0.05,3.8091e-06,38.065,2.9249e-06,21.977,-7.7577e-11,-0.00071558,-2.9249e-06,-21.977,0.013132
9914,1.4588,1.7273,0,0.00057735,5769.5,0.00025356,0.45749,7.3576e-05,-1351.9,-0.00058832,-6325.1,0.01287
9915,1.3676,1.8182,0,0.00058248,5820.7,0.00026195,0.53378,6.1497e-05,-1505.6,-0.00059327,-6425.2,0.011431
9916,1.4588,1.8182,0.05,4.4266e-06,44.236,3.3991e-06,25.54,-8.3862e-11,-0.00075992,-3.3991e-06,-25.539,0.012943
9917,1.4588,1.5455,0,0.00056307,5626.8,0.00024164,0.55028,8.3232e-05,-1189.7,-0.00057377,-6126.1,0.012622
9918,1.3676,1.6364,0,0.00056897,5685.8,0.0002509,0.60335,7.0424e-05,-1355.4,-0.00057975,-6240.6,0.011234
9919,1.4588,1.6364,0.05,4.9801e-06,49.767,3.8241e-06,28.733,-7.0657e-11,-0.00065637,-3.8241e-06,-28.733,0.012716
9920,1.4588,1.3636,0,0.00054971,5493.3,0.0002295,0.66765,9.4023e-05,-1017.2,-0.00055988,-5930.4,0.012332
9921,1.3676,1.4545,0,0.00055604,5556.5,0.00023933,0.6892,8.0792e-05,-1190.5,-0.00056661,-6054.8,0.010999
9922,1.4588,1.4545,0.05,5.4356e-06,54.319,4.1739e-06,31.361,-5.9014e-11,-0.00061876,-4.1738e-06,-31.361,0.012448
9923,1.4588,1.1818,0,0.00053798,5376.1,0.00021749,0.82867,0.00010582,-838.23,-0.00054729,-5745.4,0.011993
9924,1.3676,1.2727,0,0.00054441,5440.3,0.00022758,0.80126,9.2552e-05,-1013.7,-0.00055449,-5875.4,0.010723
9925,1.4588,1.2727,0.05,5.7695e-06,57.655,4.4302e-06,33.287,-5.9516e-11,-0.00056323,-4.4302e-06,-33.287,0.012135
9926,1.4588,1,0,0.00052849,5281.3,0.00020596,1.0667,0.00011854,-655.82,-0.00053656,-5577.9,0.011601
9927,1.3676,1.0909,0,0.0005348,5344.4,0.00021596,0.96435,0.00010569,-827.53,-0.00054402,-5709.3,0.010398
9928,1.4588,1.0909,0.05,5.9628e-06,59.587,4.5787e-06,34.403,-4.9103e-11,-0.00051332,-4.5787e-06,-34.402,0.011771
9929,1.4588,0.81818,0,0.00052176,5214,0.00019522,1.4576,0.000132,-473.57,-0.00052816,-5433.8,0.011148
9930,1.3676,0.90909,0,0.00052786,5275,0.00020479,1.2154,0.00012014,-634.75,-0.00053576,-5562.9,0.010019
9931,1.4588,0.90909,0.05,6.0009e-06,59.968,4.608e-06,34.623,-4.446e-11,-0.00048743,-4.608e-06,-34.623,0.011351
9932,1.4588,0.63636,0,0.00051804,5176.8,0.0001856,2.1595,0.00014586,-296.47,-0.0005224,-5317.5,0.010628
9933,1.3676,0.72727,0,0.00052401,5236.5,0.00019439,1.6685,0.00013563,-439.87,-0.00053007,-5441.6,0.0095778
9934,1.4588,0.72727,0.05,5.8764e-06,58.723,4.5123e-06,33.904,-3.8654e-11,-0.00033188,-4.5123e-06,-33.904,0.010866
9935,1.4588,0.45455,0,0.0005174,5170.4,0.00017758,4.3926,0.00015949,-131.53,-0.00051943,-5232.6,0.01003
9936,1.3676,0.54545,0,0.00052336,5230,0.00018516,2.5448,0.00015153,-250.17,-0.00052711,-5349.2,0.0090652
9937,1.4588,0.54545,0.05,5.6042e-06,56.004,4.3034e-06,32.334,-2.8627e-11,-0.00032802,-4.3033e-06,-32.334,0.010308
9938,1.4588,0.27273,0,0.00052112,5207.7,0.00017626,44.096,0.00016875,-12.305,-0.00052056,-5191.5,0.0093465
9939,1.3676,0.36364,0,0.00052583,5254.7,0.00017791,7.2369,0.00016675,-76.597,-0.00052696,-5288.9,0.0084713
9940,1.4588,0.36364,0.05,5.3947e-06,53.91,4.1424e-06,31.125,-1.6609e-11,-0.00018378,-4.1424e-06,-31.125,0.0096685
9941,1.3676,0.18182,0,0.00053401,5336.4,0.00018572,110.86,0.00017026,-5.3235,-0.00053212,-5282.7,0.0077856
9942,1.4588,0.18182,0.05,8.6614e-06,86.555,6.6509e-06,49.972,2.6832e-12,-5.169e-05,-6.6509e-06,-49.972,0.0089373
9943,1.4588,0.090909,0,0.00051459,5142.3,0.00017605,75.432,0.00016615,1.0589,-0.00051325,-5103.7,0.0085669
9944,1.2765,5.7273,0,0.0005386,5382.3,0.00018105,26.543,0.00017456,-22.207,-0.00053851,-5380,0.0070178
9945,1.1853,5.8182,0,0.00054991,5495.3,0.00019044,103.72,0.00017574,-6.733,-0.00054818,-5446,0.0056703
9946,1.2765,5.8182,0.05,7.898e-06,78.926,6.0647e-06,45.568,6.9102e-13,7.0614e-05,-6.0647e-06,-45.568,0.0066531
9947,1.2765,5.9091,0,0.0005342,5338.3,0.00018234,73.285,0.00017275,1.2513,-0.00053289,-5300.7,0.0063274
9948,1.2765,5.5455,0,0.00053169,5313.3,0.00018522,3.3517,0.00015906,-193.19,-0.00053465,-5405.5,0.0076108
9949,1.1853,5.6364,0,0.00053844,5380.7,0.00018412,4.8824,0.00016717,-122.47,-0.00054032,-5438.3,0.0062645
9950,1.2765,5.6364,0.05,4.8475e-06,48.442,3.7223e-06,27.968,2.7229e-11,0.0002502,-3.7223e-06,-27.968,0.0072944
9951,1.2765,5.3636,0,0.00052926,5288.9,0.00019392,1.8697,0.00014134,-393.2,-0.00053481,-5473.5,0.0081176
9952,1.1853,5.4545,0,0.00053309,5327.2,0.00019246,1.6506,0.00014745,-336.55,-0.00053798,-5486.6,0.0067674
9953,1.2765,5.4545,0.05,5.2286e-06,52.25,4.0149e-06,30.166,3.7408e-11,0.00032654,-4.0149e-06,-30.166,0.0078431
9954,1.2765,5.1818,0,0.00053008,5297.2,0.00020395,1.3864,0.00012382,-600.68,-0.0005377,-5571.1,0.0085494
9955,1.1853,5.2727,0,0.00053126,5309,0.00020246,0.95982,0.00012763,-561.24,-0.00053855,-5566.7,0.0071912
9956,1.2765,5.2727,0.05,5.5864e-06,55.825,4.2896e-06,32.231,4.6392e-11,0.00043766,-4.2896e-06,-32.231,0.0083107
9957,1.2765,5,0,0.00053419,5338.2,0.00021478,1.1036,0.00010736,-806.01,-0.00054328,-5694.7,0.0089165
9958,1.1853,5.0909,0,0.00053309,5327.3,0.00021331,0.56362,0.00010905,-782.85,-0.00054206,-5675,0.0075475
9959,1.2765,5.0909,0.05,5.7526e-06,57.487,4.4173e-06,33.19,4.9025e-11,0.0004579,-4.4173e-06,-33.19,0.0087083
9960,1.2765,4.8182,0,0.00054129,5409.2,0.00022604,0.93546,9.2492e-05,-1002.5,-0.0005513,-5839.7,0.009228
9961,1.1853,4.9091,0,0.00053839,5380.2,0.00022457,0.34589,9.2454e-05,-992.3,-0.00054835,-5807,0.0078467
9962,1.2765,4.9091,0.05,5.7314e-06,57.275,4.401e-06,33.068,4.4216e-11,0.00049573,-4.401e-06,-33.068,0.0090458
9963,1.2765,4.6364,0,0.00055082,5504.4,0.00023741,0.82268,7.9391e-05,-1186.5,-0.00056129,-6000.3,0.0094914
9964,1.1853,4.7273,0,0.00054655,5461.7,0.00023587,0.20373,7.8107e-05,-1185.2,-0.00055697,-5956.9,0.0080974
9965,1.2765,4.7273,0.05,5.543e-06,55.392,4.2563e-06,31.981,5.576e-11,0.00053834,-4.2564e-06,-31.981,0.0093315
9966,1.2765,4.4545,0,0.00056204,5616.5,0.00024859,0.74129,6.8049e-05,-1355.8,-0.00057266,-6169.8,0.0097132
9967,1.1853,4.5455,0,0.00055677,5563.9,0.00024694,0.10634,6.593e-05,-1359.9,-0.00056728,-6117.7,0.0083068
9968,1.2765,4.5455,0.05,5.2092e-06,52.056,4e-06,30.055,5.5738e-11,0.00059553,-4.0001e-06,-30.055,0.0095725
9969,1.2765,4.2727,0,0.0005742,5738,0.00025929,0.67732,5.8398e-05,-1508.8,-0.00058475,-6341.2,0.0098987
9970,1.1853,4.3636,0,0.00056822,5678.3,0.00025754,0.032445,5.5728e-05,-1516.3,-0.00057861,-6282.5,0.0084809
9971,1.2765,4.3636,0.05,4.7523e-06,47.49,3.6491e-06,27.418,4.9754e-11,0.00049,-3.6492e-06,-27.418,0.0097746
9972,1.2765,4.0909,0,0.00058656,5861.6,0.00026924,0.62658,5.0389e-05,-1643.7,-0.00059694,-6507.5,0.010052
9973,1.1853,4.1818,0,0.00058013,5797.3,0.00026743,-0.026259,4.7308e-05,-1654,-0.00059028,-6444.5,0.0086246
9974,1.2765,4.1818,0.05,4.1962e-06,41.933,3.2222e-06,24.21,5.3095e-11,0.00047346,-3.2222e-06,-24.21,0.0099428
9975,1.2765,3.9091,0,0.00059847,5980.5,0.00027815,0.58983,4.3989e-05,-1758.8,-0.00060863,-6662.3,0.010177
9976,1.1853,4,0,0.00059181,5914,0.00027638,-0.071536,4.0533e-05,-1772.2,-0.00060168,-6597.5,0.0087417
9977,1.2765,4,0.05,3.5687e-06,35.662,2.7403e-06,20.59,5.1507e-11,0.00055574,-2.7403e-06,-20.59,0.010081
9978,1.2765,3.7273,0,0.00060928,6088.6,0.00028576,0.56868,3.9141e-05,-1852.4,-0.00061924,-6799.2,0.010277
9979,1.1853,3.8182,0,0.00060265,6022.4,0.00028418,-0.10232,3.5293e-05,-1870.1,-0.00061227,-6735.6,0.0088354
9980,1.2765,3.8182,0.05,2.9026e-06,29.006,2.2288e-06,16.747,5.3474e-11,0.00046337,-2.2289e-06,-16.747,0.010192
9981,1.2765,3.5455,0,0.00061842,6179.9,0.00029187,0.56263,3.5717e-05,-1924.1,-0.00062822,-6912.6,0.010353
9982,1.1853,3.6364,0,0.00061212,6116.9,0.00029062,-0.11823,3.1462e-05,-1947.3,-0.00062152,-6853.6,0.0089081
9983,1.2765,3.6364,0.05,2.2343e-06,22.327,1.7156e-06,12.891,4.4497e-11,0.00043701,-1.7157e-06,-12.891,0.010279
9984,1.2765,3.3636,0,0.00062537,6249.4,0.00029633,0.5669,3.352e-05,-1974.1,-0.00063507,-6997.6,0.010406
9985,1.1853,3.4545,0,0.00061971,6192.9,0.00029557,-0.12169,2.8868e-05,-2004,-0.00062898,-6946.8,0.0089614
9986,1.2765,3.4545,0.05,1.5991e-06,15.98,1.2279e-06,9.2257,4.6973e-11,0.00045203,-1.2279e-06,-9.2259,0.010344
9987,1.2765,3.1818,0,0.00062972,6292.9,0.00029903,0.57387,3.2322e-05,-2003.4,-0.00063937,-7050.3,0.010438
9988,1.1853,3.2727,0,0.00062503,6246,0.00029892,-0.11848,2.7304e-05,-2040.9,-0.00063421,-7011.3,0.0089965
9989,1.2765,3.2727,0.05,1.0313e-06,10.306,7.9192e-07,5.9502,4.6859e-11,0.00037713,-7.9196e-07,-5.9504,0.010386
9990,1.2765,3,0,0.00063121,6307.7,0.00029994,0.57703,3.1945e-05,-2013.1,-0.00064084,-7068.1,0.010449
9991,1.1853,3.0909,0,0.00062778,6273.4,0.0003006,-0.11488,2.6579e-05,-2059,-0.00063691,-7044.3,0.0090139
9992,1.2765,3.0909,0.05,6.0938e-07,6.0896,4.6791e-07,3.5157,3.2398e-11,0.00024194,-4.6794e-07,-3.5159,0.010407
9993,1.2765,2.8182,0,0.00062972,6292.9,0.00029903,0.57387,3.2322e-05,-2003.4,-0.00063937,-7050.3,0.010438
9994,1.1853,2.9091,0,0.00062778,6273.4,0.0003006,-0.11488,2.658e-05,-2059,-0.00063691,-7044.3,0.0090139
9995,1.2765,2.9091,0.05,6.0938e-07,6.0896,4.6795e-07,3.5159,-3.3366e-11,-0.00025792,-4.6791e-07,-3.5157,0.010407
9996,1.2765,2.6364,0,0.00062537,6249.4,0.00029633,0.5669,3.352e-05,-1974.1,-0.00063507,-6997.6,0.010406
9997,1.1853,2.7273,0,0.00062503,6246,0.00029892,-0.11848,2.7304e-05,-2040.9,-0.00063421,-7011.3,0.0089965
9998,1.2765,2.7273,0.05,1.0313e-06,10.306,7.9196e-07,5.9504,-4.6306e-11,-0.00042796,-7.9192e-07,-5.9502,0.010386
9999,1.2765,2.4545,0,0.00061842,6179.9,0.00029187,0.56263,3.5717e-05,-1924.1,-0.00062822,-6912.6,0.010353
10000,1.1853,2.5455,0,0.00061971,6192.9,0.00029557,-0.12169,2.8868e-05,-2004,-0.00062898,-6946.8,0.0089614
10001,1.2765,2.5455,0.05,1.5991e-06,15.98,1.2279e-06,9.2258,-4.688e-11,-0.00045137,-1.2279e-06,-9.2257,0.010344
10002,1.2765,2.2727,0,0.00060928,6088.6,0.00028576,0.56869,3.9141e-05,-1852.4,-0.00061924,-6799.2,0.010277
10003,1.1853,2.3636,0,0.00061212,6116.9,0.00029062,-0.11823,3.1462e-05,-1947.3,-0.00062152,-6853.6,0.0089081
10004,1.2765,2.3636,0.05,2.2343e-06,22.327,1.7157e-06,12.891,-5.1853e-11,-0.00044125,-1.7156e-06,-12.891,0.010279
10005,1.2765,2.0909,0,0.00059847,5980.5,0.00027815,0.58983,4.3989e-05,-1758.8,-0.00060863,-6662.3,0.010177
10006,1.1853,2.1818,0,0.00060265,6022.4,0.00028418,-0.10232,3.5293e-05,-1870.1,-0.00061227,-6735.6,0.0088354
10007,1.2765,2.1818,0.05,2.9026e-06,29.006,2.2289e-06,16.747,-4.7066e-11,-0.00057769,-2.2288e-06,-16.747,0.010192
10008,1.2765,1.9091,0,0.00058656,5861.6,0.00026924,0.62658,5.0389e-05,-1643.7,-0.00059694,-6507.5,0.010052
10009,1.1853,2,0,0.00059181,5914,0.00027638,-0.071536,4.0533e-05,-1772.2,-0.00060168,-6597.5,0.0087417
10010,1.2765,2,0.05,3.5687e-06,35.662,2.7403e-06,20.59,-5.947e-11,-0.00056365,-2.7403e-06,-20.59,0.010081
10011,1.2765,1.7273,0,0.0005742,5738,0.00025929,0.67732,5.8398e-05,-1508.8,-0.00058475,-6341.2,0.0098987
10012,1.1853,1.8182,0,0.00058013,5797.3,0.00026743,-0.026258,4.7308e-05,-1654,-0.00059028,-6444.5,0.0086246
10013,1.2765,1.8182,0.05,4.1962e-06,41.933,3.2222e-06,24.21,-5.4283e-11,-0.0005737,-3.2222e-06,-24.21,0.0099428
10014,1.2765,1.5455,0,0.00056204,5616.5,0.00024859,0.74129,6.8049e-05,-1355.8,-0.00057266,-6169.8,0.0097132
10015,1.1853,1.6364,0,0.00056822,5678.3,0.00025754,0.032445,5.5728e-05,-1516.3,-0.00057861,-6282.5,0.0084809
10016,1.2765,1.6364,0.05,4.7523e-06,47.49,3.6492e-06,27.418,-5.7164e-11,-0.00063449,-3.6491e-06,-27.418,0.0097746
10017,1.2765,1.3636,0,0.00055082,5504.4,0.00023741,0.82268,7.9391e-05,-1186.5,-0.00056129,-6000.3,0.0094914
10018,1.1853,1.4545,0,0.00055677,5563.9,0.00024694,0.10634,6.5931e-05,-1359.9,-0.00056728,-6117.7,0.0083068
10019,1.2765,1.4545,0.05,5.2092e-06,52.056,4.0001e-06,30.055,-5.3231e-11,-0.00052526,-4e-06,-30.055,0.0095725
10020,1.2765,1.1818,0,0.00054129,5409.2,0.00022604,0.93546,9.2492e-05,-1002.5,-0.0005513,-5839.7,0.009228
10021,1.1853,1.2727,0,0.00054655,5461.7,0.00023587,0.20373,7.8107e-05,-1185.2,-0.00055697,-5956.9,0.0080974
10022,1.2765,1.2727,0.05,5.543e-06,55.392,4.2564e-06,31.981,-5.576e-11,-0.00049293,-4.2563e-06,-31.981,0.0093315
10023,1.2765,1,0,0.00053419,5338.2,0.00021478,1.1036,0.00010736,-806.01,-0.00054328,-5694.7,0.0089166
10024,1.1853,1.0909,0,0.00053839,5380.2,0.00022457,0.34589,9.2454e-05,-992.3,-0.00054835,-5807,0.0078467
10025,1.2765,1.0909,0.05,5.7314e-06,57.275,4.401e-06,33.068,-5.7353e-11,-0.00049573,-4.401e-06,-33.068,0.0090458
10026,1.2765,0.81818,0,0.00053008,5297.2,0.00020395,1.3864,0.00012382,-600.68,-0.0005377,-5571.1,0.0085494
10027,1.1853,0.90909,0,0.00053309,5327.3,0.00021331,0.56362,0.00010905,-782.85,-0.00054206,-5675,0.0075475
10028,1.2765,0.90909,0.05,5.7526e-06,57.487,4.4173e-06,33.19,-4.6271e-11,-0.00049655,-4.4173e-06,-33.19,0.0087084
10029,1.2765,0.63636,0,0.00052926,5288.9,0.00019392,1.8697,0.00014134,-393.2,-0.00053481,-5473.5,0.0081176
10030,1.1853,0.72727,0,0.00053126,5309,0.00020246,0.95982,0.00012763,-561.24,-0.00053855,-5566.7,0.0071912
10031,1.2765,0.72727,0.05,5.5864e-06,55.825,4.2896e-06,32.231,-4.6728e-11,-0.00043766,-4.2896e-06,-32.231,0.0083107
10032,1.2765,0.45455,0,0.00053169,5313.3,0.00018522,3.3517,0.00015906,-193.19,-0.00053465,-5405.5,0.0076108
10033,1.1853,0.54545,0,0.00053309,5327.2,0.00019246,1.6506,0.00014745,-336.55,-0.00053798,-5486.6,0.0067674
10034,1.2765,0.54545,0.05,5.2286e-06,52.25,4.0149e-06,30.166,-3.8133e-11,-0.00040938,-4.0149e-06,-30.166,0.0078431
10035,1.2765,0.27273,0,0.0005386,5382.3,0.00018105,26.543,0.00017456,-22.207,-0.00053851,-5380,0.0070178
10036,1.1853,0.36364,0,0.00053844,5380.7,0.00018412,4.8824,0.00016717,-122.47,-0.00054032,-5438.3,0.0062645
10037,1.2765,0.36364,0.05,4.8475e-06,48.442,3.7223e-06,27.968,-2.8202e-11,-0.00026894,-3.7223e-06,-27.968,0.0072944
10038,1.1853,0.18182,0,0.00054991,5495.3,0.00019044,103.72,0.00017574,-6.733,-0.00054818,-5446,0.0056703
10039,1.2765,0.18182,0.05,7.898e-06,78.926,6.0647e-06,45.568,8.9397e-13,-7.9297e-05,-6.0647e-06,-45.568,0.0066531
10040,1.2765,0.090909,0,0.0005342,5338.3,0.00018234,73.285,0.00017275,1.2513,-0.00053289,-5300.7,0.0063274
10041,1.0941,5.7273,0,0.00054958,5492,0.00018477,16.339,0.00017709,-41.334,-0.00054998,-5504.3,0.0050267
10042,1.0029,5.8182,0,0.00055899,5586.1,0.00019326,100.86,0.00017878,-7.9426,-0.00055733,-5538.8,0.0038984
10043,1.0941,5.8182,0.05,7.2234e-06,72.184,5.5467e-06,41.675,2.3193e-12,0.00011337,-5.5467e-06,-41.675,0.0047087
10044,1.0941,5.9091,0,0.00054704,5466.6,0.00018664,74.023,0.00017694,1.138,-0.00054573,-5428.7,0.0044295
10045,1.0941,5.5455,0,0.00053968,5393.1,0.00019121,1.9831,0.00015572,-264.63,-0.00054366,-5519.5,0.0055272
10046,1.0029,5.6364,0,0.00054421,5438.4,0.00018868,5.1876,0.00016453,-176.3,-0.00054689,-5521.6,0.0043977
10047,1.0941,5.6364,0.05,4.6811e-06,46.778,3.5945e-06,27.007,3.1601e-11,0.00031423,-3.5945e-06,-27.007,0.0052569
10048,1.0941,5.3636,0,0.00053495,5345.8,0.00020098,0.58404,0.00013376,-504.45,-0.00054173,-5579.8,0.0059442
10049,1.0029,5.4545,0,0.00053668,5363.1,0.00019861,2.8365,0.00013988,-438.46,-0.00054272,-5567.2,0.0048086
10050,1.0941,5.4545,0.05,5.2135e-06,52.099,4.0033e-06,30.079,3.9208e-11,0.00049806,-4.0033e-06,-30.079,0.0057141
10051,1.0941,5.1818,0,0.00053416,5337.9,0.00021182,0.09078,0.00011286,-743.4,-0.0005429,-5670.6,0.0062905
10052,1.0029,5.2727,0,0.00053368,5333.1,0.00020992,2.414,0.0001162,-701.79,-0.00054208,-5647.8,0.0051454
10053,1.0941,5.2727,0.05,5.5877e-06,55.838,4.2906e-06,32.238,4.1954e-11,0.00041019,-4.2907e-06,-32.238,0.0060938
10054,1.0941,5,0,0.00053723,5368.6,0.0002231,-0.21169,9.4139e-05,-969.16,-0.00054712,-5787.3,0.0065779
10055,1.0029,5.0909,0,0.00053522,5348.5,0.00022168,2.1612,9.5156e-05,-948.51,-0.00054494,-5758,0.0054212
10056,1.0941,5.0909,0.05,5.7313e-06,57.274,4.4009e-06,33.067,5.2693e-11,0.00044791,-4.401e-06,-33.067,0.0064086
10057,1.0941,4.8182,0,0.00054364,5432.7,0.00023439,-0.39334,7.8077e-05,-1174.9,-0.00055402,-5924.2,0.0068161
10058,1.0029,4.9091,0,0.0005407,5403.3,0.00023336,2.0449,7.7438e-05,-1169.5,-0.00055094,-5890.9,0.005647
10059,1.0941,4.9091,0.05,5.6799e-06,56.76,4.3614e-06,32.77,5.3847e-11,0.00048304,-4.3615e-06,-32.77,0.0066694
10060,1.0941,4.6364,0,0.00055254,5521.6,0.0002454,-0.51633,6.4667e-05,-1358.5,-0.00056298,-6074.4,0.0070134
10061,1.0029,4.7273,0,0.00054909,5487.1,0.00024461,1.9735,6.2986e-05,-1362.7,-0.00055935,-6038.7,0.0058319
10062,1.0941,4.7273,0.05,5.4676e-06,54.638,4.1984e-06,31.545,4.1677e-11,0.00049262,-4.1984e-06,-31.545,0.0068853
10063,1.0941,4.4545,0,0.00056301,5626.2,0.00025589,-0.60496,5.3638e-05,-1520.3,-0.00057327,-6230.6,0.0071761
10064,1.0029,4.5455,0,0.00055932,5589.4,0.00025525,1.9259,5.1373e-05,-1529.9,-0.00056934,-6193.7,0.0059832
10065,1.0941,4.5455,0.05,5.1214e-06,51.178,3.9326e-06,29.548,5.0549e-11,0.00045784,-3.9326e-06,-29.548,0.0070636
10066,1.0941,4.2727,0,0.00057422,5738.2,0.00026568,-0.67332,4.4667e-05,-1661.3,-0.00058417,-6386.1,0.0073096
10067,1.0029,4.3636,0,0.00057044,5700.5,0.00026511,1.8873,4.2102e-05,-1673.7,-0.00058009,-6348.6,0.0061064
10068,1.0941,4.3636,0.05,4.6655e-06,46.623,3.5825e-06,26.918,4.2076e-11,0.00046719,-3.5825e-06,-26.918,0.0072103
10069,1.0941,4.0909,0,0.00058543,5850.3,0.00027457,-0.72661,3.7474e-05,-1782.2,-0.00059504,-6534.7,0.0074183
10070,1.0029,4.1818,0,0.00058168,5812.8,0.00027407,1.8541,3.4741e-05,-1796.4,-0.00059094,-6497.5,0.0062062
10071,1.0941,4.1818,0.05,4.1242e-06,41.214,3.1669e-06,23.795,3.9983e-11,0.00042096,-3.1669e-06,-23.795,0.0073301
10072,1.0941,3.9091,0,0.00059604,5956.3,0.00028241,-0.7659,3.1843e-05,-1883.4,-0.00060533,-6670.9,0.0075054
10073,1.0029,4,0,0.00059241,5920,0.00028202,1.8262,2.8974e-05,-1899.5,-0.00060132,-6635.3,0.0062861
10074,1.0941,4,0.05,3.5228e-06,35.203,2.705e-06,20.325,3.0119e-11,0.00033191,-2.7051e-06,-20.325,0.0074269
10075,1.0941,3.7273,0,0.00060552,6051,0.00028904,-0.79123,2.7598e-05,-1965.1,-0.00061454,-6789.9,0.0075736
10076,1.0029,3.8182,0,0.00060215,6017.4,0.00028884,1.8056,2.457e-05,-1983.8,-0.00061076,-6757.4,0.0063491
10077,1.0941,3.8182,0.05,2.8873e-06,28.853,2.2171e-06,16.658,1.5419e-11,0.00025483,-2.2171e-06,-16.658,0.0075037
10078,1.0941,3.5455,0,0.00061342,6129.9,0.00029432,-0.80413,2.4572e-05,-2027.6,-0.00062224,-6887.5,0.007625
10079,1.0029,3.6364,0,0.00061049,6100.7,0.00029442,1.7934,2.1345e-05,-2050,-0.00061887,-6860.3,0.0063972
10080,1.0941,3.6364,0.05,2.2434e-06,22.419,1.7227e-06,12.944,2.2209e-11,0.00017051,-1.7227e-06,-12.944,0.0075628
10081,1.0941,3.3636,0,0.00061936,6189.3,0.00029816,-0.80818,2.2588e-05,-2071.3,-0.00062805,-6960,0.0076608
10082,1.0029,3.4545,0,0.00061708,6166.6,0.00029868,1.7884,1.9132e-05,-2098.6,-0.0006253,-6940.6,0.006432
10083,1.0941,3.4545,0.05,1.6145e-06,16.134,1.2398e-06,9.3152,1.5208e-12,9.3016e-05,-1.2398e-06,-9.315,0.0076058
10084,1.0941,3.1818,0,0.00062305,6226.3,0.00030049,-0.80798,2.148e-05,-2097.2,-0.00063167,-7004.7,0.007682
10085,1.0029,3.2727,0,0.00062165,6212.2,0.00030155,1.7879,1.777e-05,-2130.4,-0.00062976,-6995.7,0.0064547
10086,1.0941,3.2727,0.05,1.0248e-06,10.241,7.8691e-07,5.9125,-1.1573e-11,-0.00014751,-7.8688e-07,-5.9123,0.007634
10087,1.0941,3,0,0.00062431,6238.8,0.00030127,-0.8074,2.1126e-05,-2105.7,-0.0006329,-7019.8,0.007689
10088,1.0029,3.0909,0,0.00062398,6235.5,0.00030299,1.7887,1.7126e-05,-2146.1,-0.00063205,-7023.8,0.0064659
10089,1.0941,3.0909,0.05,5.4677e-07,5.464,4.1987e-07,3.1547,-2.8336e-11,-0.00022744,-4.1984e-07,-3.1545,0.0076479
10090,1.0941,2.8182,0,0.00062305,6226.3,0.00030049,-0.80797,2.148e-05,-2097.2,-0.00063167,-7004.7,0.007682
10091,1.0029,2.9091,0,0.00062398,6235.5,0.00030299,1.7887,1.7126e-05,-2146.1,-0.00063205,-7023.8,0.0064659
10092,1.0941,2.9091,0.05,5.4677e-07,5.464,4.1984e-07,3.1545,2.7711e-11,0.0001784,-4.1987e-07,-3.1548,0.0076479
10093,1.0941,2.6364,0,0.00061936,6189.3,0.00029816,-0.80818,2.2588e-05,-2071.3,-0.00062805,-6960,0.0076608
10094,1.0029,2.7273,0,0.00062165,6212.2,0.00030155,1.7879,1.777e-05,-2130.4,-0.00062976,-6995.7,0.0064547
10095,1.0941,2.7273,0.05,1.0248e-06,10.241,7.8688e-07,5.9123,1.1742e-11,6.2729e-05,-7.869e-07,-5.9125,0.007634
10096,1.0941,2.4545,0,0.00061342,6129.9,0.00029432,-0.80413,2.4572e-05,-2027.6,-0.00062224,-6887.5,0.007625
10097,1.0029,2.5455,0,0.00061708,6166.6,0.00029868,1.7884,1.9132e-05,-2098.6,-0.0006253,-6940.6,0.006432
10098,1.0941,2.5455,0.05,1.6145e-06,16.134,1.2398e-06,9.315,4.0582e-12,-9.4675e-05,-1.2398e-06,-9.3152,0.0076058
10099,1.0941,2.2727,0,0.00060552,6051,0.00028904,-0.79123,2.7598e-05,-1965.1,-0.00061454,-6789.9,0.0075736
10100,1.0029,2.3636,0,0.00061049,6100.7,0.00029442,1.7934,2.1346e-05,-2050,-0.00061887,-6860.3,0.0063972
10101,1.0941,2.3636,0.05,2.2434e-06,22.419,1.7227e-06,12.944,-2.2257e-11,-0.00018719,-1.7227e-06,-12.944,0.0075628
10102,1.0941,2.0909,0,0.00059604,5956.3,0.00028241,-0.7659,3.1843e-05,-1883.4,-0.00060533,-6670.9,0.0075054
10103,1.0029,2.1818,0,0.00060215,6017.4,0.00028884,1.8056,2.457e-05,-1983.8,-0.00061076,-6757.4,0.0063491
10104,1.0941,2.1818,0.05,2.8873e-06,28.853,2.2171e-06,16.658,-2.6411e-11,-0.00029801,-2.2171e-06,-16.658,0.0075037
10105,1.0941,1.9091,0,0.00058543,5850.3,0.00027457,-0.72661,3.7474e-05,-1782.2,-0.00059504,-6534.7,0.0074183
10106,1.0029,2,0,0.00059241,5920,0.00028202,1.8262,2.8974e-05,-1899.5,-0.00060132,-6635.3,0.0062861
10107,1.0941,2,0.05,3.5228e-06,35.203,2.7051e-06,20.325,-4.0958e-11,-0.00042812,-2.705e-06,-20.325,0.0074269
10108,1.0941,1.7273,0,0.00057422,5738.2,0.00026568,-0.67332,4.4668e-05,-1661.3,-0.00058417,-6386.1,0.0073096
10109,1.0029,1.8182,0,0.00058168,5812.8,0.00027407,1.8541,3.4742e-05,-1796.4,-0.00059094,-6497.5,0.0062062
10110,1.0941,1.8182,0.05,4.1242e-06,41.214,3.1669e-06,23.795,-4.109e-11,-0.00042456,-3.1669e-06,-23.795,0.0073301
10111,1.0941,1.5455,0,0.00056301,5626.2,0.00025589,-0.60496,5.3639e-05,-1520.3,-0.00057327,-6230.6,0.0071761
10112,1.0029,1.6364,0,0.00057044,5700.5,0.00026511,1.8873,4.2102e-05,-1673.7,-0.00058009,-6348.6,0.0061064
10113,1.0941,1.6364,0.05,4.6655e-06,46.623,3.5825e-06,26.918,-5.0108e-11,-0.00046719,-3.5825e-06,-26.918,0.0072103
10114,1.0941,1.3636,0,0.00055254,5521.6,0.0002454,-0.51633,6.4667e-05,-1358.5,-0.00056298,-6074.4,0.0070134
10115,1.0029,1.4545,0,0.00055932,5589.4,0.00025525,1.9259,5.1374e-05,-1529.9,-0.00056934,-6193.7,0.0059832
10116,1.0941,1.4545,0.05,5.1214e-06,51.178,3.9326e-06,29.548,-5.6767e-11,-0.00046338,-3.9326e-06,-29.548,0.0070636
10117,1.0941,1.1818,0,0.00054364,5432.7,0.00023439,-0.39334,7.8077e-05,-1174.9,-0.00055402,-5924.2,0.0068161
10118,1.0029,1.2727,0,0.00054909,5487.1,0.00024461,1.9735,6.2986e-05,-1362.7,-0.00055935,-6038.7,0.0058319
10119,1.0941,1.2727,0.05,5.4676e-06,54.638,4.1984e-06,31.545,-5.1591e-11,-0.00046794,-4.1984e-06,-31.545,0.0068853
10120,1.0941,1,0,0.00053723,5368.6,0.0002231,-0.21169,9.4139e-05,-969.16,-0.00054712,-5787.3,0.0065779
10121,1.0029,1.0909,0,0.0005407,5403.3,0.00023336,2.0449,7.7438e-05,-1169.5,-0.00055094,-5890.9,0.005647
10122,1.0941,1.0909,0.05,5.6799e-06,56.76,4.3615e-06,32.77,-5.5561e-11,-0.00049023,-4.3614e-06,-32.77,0.0066694
10123,1.0941,0.81818,0,0.00053416,5337.9,0.00021182,0.09078,0.00011286,-743.4,-0.0005429,-5670.6,0.0062905
10124,1.0029,0.90909,0,0.00053522,5348.5,0.00022168,2.1612,9.5156e-05,-948.51,-0.00054494,-5758,0.0054212
10125,1.0941,0.90909,0.05,5.7313e-06,57.274,4.401e-06,33.067,-4.7292e-11,-0.00049792,-4.4009e-06,-33.067,0.0064086
10126,1.0941,0.63636,0,0.00053495,5345.8,0.00020098,0.58404,0.00013376,-504.45,-0.00054173,-5579.8,0.0059442
10127,1.0029,0.72727,0,0.00053368,5333.1,0.00020992,2.414,0.0001162,-701.79,-0.00054208,-5647.8,0.0051454
10128,1.0941,0.72727,0.05,5.5877e-06,55.838,4.2907e-06,32.238,-4.7882e-11,-0.00046273,-4.2906e-06,-32.238,0.0060938
10129,1.0941,0.45455,0,0.00053968,5393.1,0.00019121,1.9831,0.00015572,-264.63,-0.00054366,-5519.5,0.0055272
10130,1.0029,0.54545,0,0.00053668,5363.1,0.00019861,2.8365,0.00013988,-438.46,-0.00054272,-5567.2,0.0048086
10131,1.0941,0.54545,0.05,5.2135e-06,52.099,4.0033e-06,30.079,-4.7933e-11,-0.00049651,-4.0033e-06,-30.079,0.0057141
10132,1.0941,0.27273,0,0.00054958,5492,0.00018477,16.339,0.00017709,-41.334,-0.00054998,-5504.3,0.0050267
10133,1.0029,0.36364,0,0.00054421,5438.4,0.00018868,5.1876,0.00016453,-176.3,-0.00054689,-5521.6,0.0043977
10134,1.0941,0.36364,0.05,4.6811e-06,46.778,3.5945e-06,27.007,-3.7686e-11,-0.00043488,-3.5945e-06,-27.007,0.0052569
10135,1.0029,0.18182,0,0.000559,5586.1,0.00019326,100.86,0.00017878,-7.9426,-0.00055733,-5538.8,0.0038984
10136,1.0941,0.18182,0.05,7.2234e-06,72.184,5.5467e-06,41.675,-8.9419e-13,-0.00014279,-5.5467e-06,-41.676,0.0047087
10137,1.0941,0.090909,0,0.00054704,5466.6,0.00018664,74.023,0.00017694,1.138,-0.00054573,-5428.7,0.0044295
10138,0.91176,5.7273,0,0.00055338,5530,0.0001871,14,0.00017629,-67.226,-0.00055425,-5556.2,0.0033795
10139,0.82059,5.8182,0,0.00055966,5592.7,0.00019374,101.4,0.00017862,-12.185,-0.00055806,-5547.3,0.0024738
10140,0.91176,5.8182,0.05,6.6294e-06,66.248,5.0905e-06,38.248,1.1329e-11,0.00019699,-5.0905e-06,-38.248,0.0031106
10141,0.91176,5.9091,0,0.00055229,5519.1,0.00018877,79.363,0.00017849,2.1263,-0.00055087,-5478,0.0028804
10142,0.91176,5.5455,0,0.00054098,5406.1,0.00019597,5.1567,0.0001488,-349.25,-0.00054596,-5569.4,0.0037851
10143,0.82059,5.6364,0,0.00054147,5411,0.00019079,0.73068,0.00015795,-246.05,-0.00054522,-5529.4,0.0028742
10144,0.91176,5.6364,0.05,5.0867e-06,50.832,3.906e-06,29.348,5.3319e-11,0.00050482,-3.906e-06,-29.348,0.0035622
10145,0.91176,5.3636,0,0.00053518,5348.2,0.00020754,4.5211,0.0001223,-635.91,-0.00054304,-5635,0.0041125
10146,0.82059,5.4545,0,0.00053284,5324.7,0.00020307,-2.8348,0.00012763,-569.64,-0.00054031,-5588.3,0.0031922
10147,0.91176,5.4545,0.05,5.6494e-06,56.455,4.338e-06,32.594,6.2378e-11,0.0004596,-4.3381e-06,-32.594,0.0039266
10148,0.91176,5.1818,0,0.00053457,5342,0.00021978,4.435,9.8443e-05,-907.26,-0.00054406,-5734.8,0.0043765
10149,0.82059,5.2727,0,0.0005307,5303.3,0.00021639,-3.8845,0.00010038,-875.54,-0.00054025,-5689,0.003444
10150,0.91176,5.2727,0.05,5.9033e-06,58.992,4.533e-06,34.059,6.1245e-11,0.00047018,-4.533e-06,-34.059,0.00422
10151,0.91176,5,0,0.0005386,5382.2,0.00023194,4.397,7.8407e-05,-1149.2,-0.00054871,-5861.1,0.0045896
10152,0.82059,5.0909,0,0.00053426,5338.9,0.00022951,-4.5774,7.7988e-05,-1143.1,-0.00054459,-5820.9,0.0036438
10153,0.91176,5.0909,0.05,5.9307e-06,59.266,4.554e-06,34.217,4.7059e-11,0.00049698,-4.5541e-06,-34.218,0.0044562
10154,0.91176,4.8182,0,0.00054613,5457.6,0.00024357,4.4022,6.232e-05,-1357.5,-0.00055625,-6005.1,0.0047619
10155,0.82059,4.9091,0,0.00054198,5416.1,0.00024188,-4.9891,6.0539e-05,-1367.5,-0.00055231,-5972.3,0.003803
10156,0.91176,4.9091,0.05,5.7975e-06,57.935,4.4517e-06,33.449,4.2909e-11,0.00045528,-4.4518e-06,-33.449,0.0046468
10157,0.91176,4.6364,0,0.00055591,5555.3,0.00025446,4.4111,4.9693e-05,-1534.1,-0.00056571,-6158,0.0049014
10158,0.82059,4.7273,0,0.00055221,5518.3,0.00025326,-5.2734,4.7269e-05,-1553,-0.00056218,-6132.2,0.0039302
10159,0.91176,4.7273,0.05,5.5361e-06,55.323,4.2511e-06,31.941,4.5293e-11,0.00045361,-4.2511e-06,-31.941,0.0048008
10160,0.91176,4.4545,0,0.00056682,5664.3,0.00026446,4.4157,3.9856e-05,-1683.2,-0.00057618,-6311.8,0.0050141
10161,0.82059,4.5455,0,0.0005636,5632.2,0.00026357,-5.4753,3.7228e-05,-1706.1,-0.00057311,-6292,0.0040319
10162,0.91176,4.5455,0.05,5.1676e-06,51.641,3.9681e-06,29.815,3.745e-11,0.00040054,-3.9681e-06,-29.815,0.0049252
10163,0.91176,4.2727,0,0.00057797,5775.7,0.0002735,4.4131,3.2204e-05,-1808.6,-0.0005869,-6460.3,0.0051047
10164,0.82059,4.3636,0,0.0005752,5748,0.00027281,-5.6258,2.9592e-05,-1833.1,-0.00058425,-6445.2,0.0041131
10165,0.91176,4.3636,0.05,4.7125e-06,47.093,3.6186e-06,27.189,2.9613e-11,0.00037271,-3.6186e-06,-27.189,0.0050255
10166,0.91176,4.0909,0,0.00058872,5883.1,0.00028153,4.4056,2.6267e-05,-1913.5,-0.00059724,-6598.3,0.0051771
10167,0.82059,4.1818,0,0.00058633,5859.3,0.00028096,-5.7385,2.375e-05,-1938.3,-0.00059498,-6587.2,0.0041776
10168,0.91176,4.1818,0.05,4.1936e-06,41.907,3.2202e-06,24.195,2.1806e-11,0.00027354,-3.2202e-06,-24.195,0.0051058
10169,0.91176,3.9091,0,0.00059857,5981.6,0.00028845,4.3966,2.1716e-05,-1999.8,-0.00060676,-6721.9,0.0052341
10170,0.82059,4,0,0.00059655,5961.4,0.00028802,-5.8218,1.9286e-05,-2025,-0.00060486,-6714.6,0.0042283
10171,0.91176,4,0.05,3.6355e-06,36.33,2.7916e-06,20.975,1.4332e-11,0.00017336,-2.7916e-06,-20.975,0.0051695
10172,0.91176,3.7273,0,0.00060716,6067.4,0.00029423,4.3892,1.8316e-05,-2068.7,-0.00061508,-6827.8,0.005278
10173,0.82059,3.8182,0,0.00060553,6051.2,0.00029397,-5.881,1.5922e-05,-2095,-0.00061357,-6824.8,0.0042675
10174,0.91176,3.8182,0.05,3.064e-06,30.619,2.3528e-06,17.678,3.2582e-12,9.0129e-05,-2.3528e-06,-17.678,0.0052192
10175,0.91176,3.5455,0,0.00061417,6137.4,0.00029878,4.3849,1.5887e-05,-2121.2,-0.0006219,-6913.3,0.0053107
10176,0.82059,3.6364,0,0.00061303,6126,0.00029877,-5.9204,1.3465e-05,-2149.6,-0.00062087,-6915.7,0.0042969
10177,0.91176,3.6364,0.05,2.5066e-06,25.048,1.9247e-06,14.462,-3.4363e-12,-1.4087e-05,-1.9247e-06,-14.462,0.0052569
10178,0.91176,3.3636,0,0.00061937,6189.4,0.00030207,4.3837,1.4279e-05,-2158,-0.00062697,-6976.1,0.0053332
10179,0.82059,3.4545,0,0.00061884,6184.1,0.0003024,-5.9444,1.1769e-05,-2189.6,-0.00062654,-6985.6,0.004318
10180,0.91176,3.4545,0.05,1.9948e-06,19.934,1.5318e-06,11.509,-1.9471e-11,-0.00010783,-1.5317e-06,-11.509,0.005284
10181,0.91176,3.1818,0,0.00062256,6221.3,0.00030406,4.384,1.337e-05,-2179.7,-0.0006301,-7014.5,0.0053464
10182,0.82059,3.2727,0,0.0006228,6223.7,0.00030483,-5.9574,1.0713e-05,-2215.8,-0.00063042,-7033.1,0.0043316
10183,0.91176,3.2727,0.05,1.5742e-06,15.731,1.2088e-06,9.0826,-2.4355e-11,-0.00019931,-1.2088e-06,-9.0824,0.0053015
10184,0.91176,3,0,0.00062364,6232.1,0.00030472,4.3843,1.3077e-05,-2186.9,-0.00063115,-7027.4,0.0053507
10185,0.82059,3.0909,0,0.00062482,6243.8,0.00030605,-5.9628,1.021e-05,-2228.8,-0.0006324,-7057.1,0.0043383
10186,0.91176,3.0909,0.05,1.3204e-06,13.195,1.0139e-06,7.618,-1.1983e-11,-6.7113e-05,-1.0139e-06,-7.6179,0.0053101
10187,0.91176,2.8182,0,0.00062256,6221.3,0.00030406,4.384,1.337e-05,-2179.7,-0.0006301,-7014.5,0.0053464
10188,0.82059,2.9091,0,0.00062482,6243.8,0.00030605,-5.9628,1.021e-05,-2228.8,-0.0006324,-7057.1,0.0043383
10189,0.91176,2.9091,0.05,1.3204e-06,13.195,1.0139e-06,7.6179,1.3381e-11,6.4661e-05,-1.0139e-06,-7.618,0.0053101
10190,0.91176,2.6364,0,0.00061937,6189.4,0.00030207,4.3837,1.4279e-05,-2158,-0.00062697,-6976.1,0.0053332
10191,0.82059,2.7273,0,0.0006228,6223.7,0.00030483,-5.9574,1.0713e-05,-2215.8,-0.00063042,-7033.1,0.0043316
10192,0.91176,2.7273,0.05,1.5742e-06,15.731,1.2088e-06,9.0824,2.2473e-11,0.00017295,-1.2088e-06,-9.0826,0.0053015
10193,0.91176,2.4545,0,0.00061417,6137.4,0.00029878,4.3849,1.5887e-05,-2121.2,-0.0006219,-6913.3,0.0053107
10194,0.82059,2.5455,0,0.00061884,6184.1,0.0003024,-5.9444,1.1769e-05,-2189.6,-0.00062654,-6985.6,0.004318
10195,0.91176,2.5455,0.05,1.9948e-06,19.934,1.5317e-06,11.509,1.9542e-11,5.8291e-05,-1.5318e-06,-11.509,0.005284
10196,0.91176,2.2727,0,0.00060716,6067.4,0.00029423,4.3892,1.8316e-05,-2068.7,-0.00061508,-6827.8,0.005278
10197,0.82059,2.3636,0,0.00061303,6126,0.00029877,-5.9204,1.3465e-05,-2149.6,-0.00062087,-6915.7,0.0042969
10198,0.91176,2.3636,0.05,2.5066e-06,25.048,1.9247e-06,14.462,1.0552e-11,-5.5859e-05,-1.9247e-06,-14.462,0.0052569
10199,0.91176,2.0909,0,0.00059857,5981.6,0.00028845,4.3966,2.1716e-05,-1999.8,-0.00060676,-6721.9,0.0052341
10200,0.82059,2.1818,0,0.00060553,6051.2,0.00029397,-5.881,1.5922e-05,-2095,-0.00061357,-6824.8,0.0042675
10201,0.91176,2.1818,0.05,3.064e-06,30.619,2.3528e-06,17.678,-7.8891e-12,-0.00013298,-2.3528e-06,-17.678,0.0052192
10202,0.91176,1.9091,0,0.00058872,5883.1,0.00028153,4.4056,2.6267e-05,-1913.5,-0.00059724,-6598.3,0.0051771
10203,0.82059,2,0,0.00059655,5961.4,0.00028802,-5.8218,1.9286e-05,-2025,-0.00060486,-6714.6,0.0042283
10204,0.91176,2,0.05,3.6355e-06,36.33,2.7916e-06,20.975,-1.5696e-11,-0.00019236,-2.7916e-06,-20.975,0.0051695
10205,0.91176,1.7273,0,0.00057797,5775.7,0.0002735,4.4131,3.2204e-05,-1808.6,-0.0005869,-6460.3,0.0051047
10206,0.82059,1.8182,0,0.00058633,5859.3,0.00028096,-5.7385,2.375e-05,-1938.3,-0.00059498,-6587.2,0.0041776
10207,0.91176,1.8182,0.05,4.1936e-06,41.907,3.2202e-06,24.195,-2.3638e-11,-0.00032359,-3.2202e-06,-24.195,0.0051058
10208,0.91176,1.5455,0,0.00056682,5664.3,0.00026446,4.4157,3.9857e-05,-1683.2,-0.00057618,-6311.8,0.0050141
10209,0.82059,1.6364,0,0.0005752,5748,0.00027281,-5.6258,2.9592e-05,-1833.1,-0.00058425,-6445.2,0.0041131
10210,0.91176,1.6364,0.05,4.7125e-06,47.093,3.6186e-06,27.189,-3.0655e-11,-0.00034409,-3.6186e-06,-27.189,0.0050255
10211,0.91176,1.3636,0,0.00055591,5555.3,0.00025446,4.4111,4.9693e-05,-1534.1,-0.00056571,-6158,0.0049014
10212,0.82059,1.4545,0,0.0005636,5632.2,0.00026357,-5.4753,3.7228e-05,-1706.1,-0.00057311,-6292,0.0040319
10213,0.91176,1.4545,0.05,5.1676e-06,51.641,3.9681e-06,29.815,-3.8452e-11,-0.00044973,-3.9681e-06,-29.815,0.0049252
10214,0.91176,1.1818,0,0.00054613,5457.6,0.00024357,4.4022,6.232e-05,-1357.5,-0.00055625,-6005.2,0.004762
10215,0.82059,1.2727,0,0.00055221,5518.3,0.00025326,-5.2734,4.7269e-05,-1553,-0.00056218,-6132.2,0.0039302
10216,0.91176,1.2727,0.05,5.5361e-06,55.323,4.2511e-06,31.941,-4.1814e-11,-0.00046993,-4.2511e-06,-31.941,0.0048008
10217,0.91176,1,0,0.0005386,5382.2,0.00023194,4.397,7.8407e-05,-1149.2,-0.00054871,-5861.1,0.0045896
10218,0.82059,1.0909,0,0.00054198,5416.1,0.00024188,-4.9891,6.0539e-05,-1367.5,-0.00055231,-5972.3,0.003803
10219,0.91176,1.0909,0.05,5.7975e-06,57.935,4.4518e-06,33.449,-4.8145e-11,-0.00049017,-4.4517e-06,-33.449,0.0046468
10220,0.91176,0.81818,0,0.00053457,5342,0.00021978,4.435,9.8443e-05,-907.26,-0.00054406,-5734.8,0.0043765
10221,0.82059,0.90909,0,0.00053426,5338.9,0.00022951,-4.5774,7.7988e-05,-1143.1,-0.00054459,-5820.9,0.0036438
10222,0.91176,0.90909,0.05,5.9307e-06,59.266,4.5541e-06,34.218,-5.9536e-11,-0.00052066,-4.5541e-06,-34.217,0.0044562
10223,0.91176,0.63636,0,0.00053519,5348.2,0.00020754,4.5211,0.0001223,-635.91,-0.00054304,-5635,0.0041125
10224,0.82059,0.72727,0,0.0005307,5303.3,0.00021639,-3.8845,0.00010038,-875.54,-0.00054025,-5689,0.003444
10225,0.91176,0.72727,0.05,5.9033e-06,58.992,4.533e-06,34.059,-5.5102e-11,-0.00054503,-4.533e-06,-34.059,0.00422
10226,0.91176,0.45455,0,0.00054098,5406.1,0.00019597,5.1567,0.0001488,-349.25,-0.00054596,-5569.4,0.0037851
10227,0.82059,0.54545,0,0.00053284,5324.7,0.00020307,-2.8348,0.00012763,-569.64,-0.00054031,-5588.3,0.0031922
10228,0.91176,0.54545,0.05,5.6494e-06,56.455,4.3381e-06,32.594,-5.6561e-11,-0.00046353,-4.338e-06,-32.594,0.0039266
10229,0.91176,0.27273,0,0.00055338,5530,0.0001871,14,0.00017629,-67.227,-0.00055425,-5556.2,0.0033795
10230,0.82059,0.36364,0,0.00054147,5411,0.00019079,0.73068,0.00015795,-246.05,-0.00054522,-5529.4,0.0028742
10231,0.91176,0.36364,0.05,5.0867e-06,50.832,3.906e-06,29.348,-4.7045e-11,-0.00045165,-3.906e-06,-29.348,0.0035622
10232,0.82059,0.18182,0,0.00055966,5592.7,0.00019374,101.4,0.00017862,-12.185,-0.00055806,-5547.3,0.0024738
10233,0.91176,0.18182,0.05,6.6294e-06,66.248,5.0905e-06,38.248,-1.2961e-11,-0.00022132,-5.0905e-06,-38.248,0.0031106
10234,0.91176,0.090909,0,0.00055229,5519.1,0.00018877,79.363,0.00017849,2.1263,-0.00055087,-5478,0.0028804
10235,0.72941,5.7273,0,0.00054737,5469.9,0.00018629,4.4068,0.00017142,-107.29,-0.00054903,-5520.5,0.0020768
10236,0.63824,5.8182,0,0.00054911,5487.3,0.00019067,109.05,0.00017512,-7.7865,-0.00054729,-5435.7,0.0013939
10237,0.72941,5.8182,0.05,6.3039e-06,62.995,4.8406e-06,36.37,2.9776e-11,0.00033136,-4.8406e-06,-36.37,0.0018601
10238,0.72941,5.9091,0,0.00054762,5472.4,0.00018813,88.445,0.00017624,-0.9334,-0.00054607,-5428.1,0.0016816
10239,0.72941,5.5455,0,0.00053296,5326,0.00019779,-8.0771,0.00013687,-465.79,-0.00053955,-5548.1,0.0023849
10240,0.63824,5.6364,0,0.00052894,5285.8,0.0001925,18.473,0.00014517,-337.18,-0.00053347,-5436.2,0.0016914
10241,0.72941,5.6364,0.05,6.3365e-06,63.321,4.8656e-06,36.559,4.1566e-11,0.00041006,-4.8657e-06,-36.559,0.0022106
10242,0.72941,5.3636,0,0.00052801,5276.4,0.0002119,-11.399,0.00010563,-809.86,-0.00053742,-5641.5,0.0026238
10243,0.63824,5.4545,0,0.00052253,5221.7,0.00020925,19.971,0.00010849,-737.08,-0.00053059,-5538.9,0.0019164
10244,0.72941,5.4545,0.05,6.6401e-06,66.355,5.0987e-06,38.31,4.0544e-11,0.00051462,-5.0988e-06,-38.31,0.0024815
10245,0.72941,5.1818,0,0.00053016,5297.9,0.00022611,-12.955,7.9813e-05,-1112.2,-0.00054067,-5774.2,0.0028095
10246,0.63824,5.2727,0,0.00052536,5249.9,0.00022584,21.25,7.9025e-05,-1081.8,-0.00053463,-5692.6,0.0020868
10247,0.72941,5.2727,0.05,6.565e-06,65.605,5.0411e-06,37.877,6.2018e-11,0.00041171,-5.0411e-06,-37.877,0.0026909
10248,0.72941,5,0,0.00053755,5371.8,0.00023945,-13.989,6.0037e-05,-1362,-0.00054811,-5931.4,0.0029548
10249,0.63824,5.0909,0,0.00053451,5341.4,0.00024099,22.176,5.7445e-05,-1356.9,-0.00054368,-5873.5,0.0022172
10250,0.72941,5.0909,0.05,6.3785e-06,63.741,4.8978e-06,36.801,5.2328e-11,0.00044451,-4.8979e-06,-36.801,0.0028538
10251,0.72941,4.8182,0,0.00054806,5476.8,0.00025156,-14.676,4.5456e-05,-1563.3,-0.00055822,-6099,0.0030692
10252,0.63824,4.9091,0,0.00054693,5465.5,0.00025436,22.902,4.2248e-05,-1570.8,-0.00055554,-6062.4,0.0023179
10253,0.72941,4.9091,0.05,6.1255e-06,61.213,4.7036e-06,35.341,3.9699e-11,0.00042091,-4.7036e-06,-35.341,0.0029815
10254,0.72941,4.6364,0,0.00055995,5595.6,0.00026237,-15.165,3.4815e-05,-1725,-0.00056959,-6266.2,0.0031595
10255,0.63824,4.7273,0,0.00056046,5600.7,0.00026599,23.427,3.1607e-05,-1737.7,-0.00056844,-6246.2,0.0023964
10256,0.72941,4.7273,0.05,5.7986e-06,57.946,4.4526e-06,33.455,3.7733e-11,0.00035992,-4.4526e-06,-33.455,0.003082
10257,0.72941,4.4545,0,0.00057205,5716.6,0.00027192,-15.519,2.6997e-05,-1855.8,-0.00058121,-6425.6,0.0032309
10258,0.63824,4.5455,0,0.00057382,5734.2,0.00027605,23.805,2.4054e-05,-1869.6,-0.00058126,-6417.7,0.0024577
10259,0.72941,4.5455,0.05,5.3971e-06,53.934,4.1443e-06,31.139,2.804e-11,0.00028364,-4.1443e-06,-31.139,0.0031613
10260,0.72941,4.2727,0,0.00058363,5832.3,0.00028027,-15.779,2.1179e-05,-1962.5,-0.00059237,-6572.4,0.0032872
10261,0.63824,4.3636,0,0.00058631,5859.1,0.0002847,24.069,1.8579e-05,-1975.5,-0.00059331,-6573,0.0025055
10262,0.72941,4.3636,0.05,4.9337e-06,49.303,3.7885e-06,28.465,1.8916e-11,0.00022347,-3.7885e-06,-28.465,0.0032239
10263,0.72941,4.0909,0,0.00059423,5938.2,0.00028746,-15.967,1.6805e-05,-2049.6,-0.00060263,-6703.8,0.0033312
10264,0.63824,4.1818,0,0.00059757,5971.5,0.00029209,24.249,1.4529e-05,-2061.2,-0.00060423,-6710.4,0.0025427
10265,0.72941,4.1818,0.05,4.4294e-06,44.264,3.4012e-06,25.556,7.6268e-12,0.00014085,-3.4012e-06,-25.555,0.003273
10266,0.72941,3.9091,0,0.00060356,6031.4,0.00029354,-16.1,1.3517e-05,-2120.1,-0.0006117,-6817.7,0.0033653
10267,0.63824,4,0,0.0006074,6069.8,0.00029831,24.367,1.15e-05,-2130.6,-0.00061381,-6828.9,0.0025714
10268,0.72941,4,0.05,3.9086e-06,39.059,3.0013e-06,22.551,-2.8418e-13,7.3972e-05,-3.0013e-06,-22.55,0.0033111
10269,0.72941,3.7273,0,0.00061143,6110.1,0.00029851,-16.191,1.1082e-05,-2175.8,-0.00061937,-6912.8,0.003391
10270,0.63824,3.8182,0,0.00061571,6152.9,0.00030342,24.442,9.2419e-06,-2185.9,-0.00062193,-6928.3,0.0025931
10271,0.72941,3.8182,0.05,3.3971e-06,33.948,2.6086e-06,19.6,-8.9398e-12,5.6335e-05,-2.6085e-06,-19.599,0.0033404
10272,0.72941,3.5455,0,0.0006177,6172.8,0.00030238,-16.25,9.3439e-06,-2218,-0.0006255,-6988,0.0034099
10273,0.63824,3.6364,0,0.00062244,6220.1,0.00030748,24.488,7.5972e-06,-2228.7,-0.00062852,-7008.2,0.0026092
10274,0.72941,3.6364,0.05,2.9222e-06,29.202,2.2439e-06,16.86,-1.5717e-11,-9.3768e-05,-2.2439e-06,-16.86,0.0033621
10275,0.72941,3.3636,0,0.00062227,6218.4,0.00030515,-16.286,8.1879e-06,-2247.6,-0.00062997,-7042.5,0.0034227
10276,0.63824,3.4545,0,0.00062754,6271,0.00031051,24.516,6.4574e-06,-2260,-0.00063352,-7068.5,0.0026204
10277,0.72941,3.4545,0.05,2.514e-06,25.122,1.9304e-06,14.505,-1.8998e-11,-0.0001503,-1.9304e-06,-14.504,0.0033775
10278,0.72941,3.1818,0,0.00062505,6246.1,0.00030682,-16.304,7.5302e-06,-2265,-0.0006327,-7075.5,0.0034301
10279,0.63824,3.2727,0,0.00063096,6305.3,0.00031252,24.531,5.7439e-06,-2280.4,-0.00063688,-7108.9,0.0026276
10280,0.72941,3.2727,0.05,2.2072e-06,22.056,1.6948e-06,12.734,-1.7147e-11,-9.2654e-05,-1.6948e-06,-12.734,0.0033874
10281,0.72941,3,0,0.00062598,6255.4,0.00030737,-16.31,7.3172e-06,-2270.8,-0.00063361,-7086.5,0.0034326
10282,0.63824,3.0909,0,0.00063268,6322.5,0.00031352,24.538,5.4016e-06,-2290.5,-0.00063858,-7129.2,0.0026311
10283,0.72941,3.0909,0.05,2.0397e-06,20.383,1.5662e-06,11.768,-6.496e-12,-2.93e-05,-1.5662e-06,-11.768,0.0033922
10284,0.72941,2.8182,0,0.00062505,6246.1,0.00030682,-16.304,7.5302e-06,-2265,-0.0006327,-7075.5,0.0034301
10285,0.63824,2.9091,0,0.00063268,6322.5,0.00031352,24.538,5.4016e-06,-2290.5,-0.00063858,-7129.2,0.0026311
10286,0.72941,2.9091,0.05,2.0397e-06,20.383,1.5662e-06,11.768,7.822e-12,2.916e-05,-1.5662e-06,-11.768,0.0033922
10287,0.72941,2.6364,0,0.00062227,6218.4,0.00030515,-16.286,8.1879e-06,-2247.6,-0.00062997,-7042.5,0.0034227
10288,0.63824,2.7273,0,0.00063096,6305.3,0.00031252,24.531,5.7439e-06,-2280.4,-0.00063688,-7108.9,0.0026276
10289,0.72941,2.7273,0.05,2.2072e-06,22.056,1.6948e-06,12.734,1.8202e-11,9.1655e-05,-1.6948e-06,-12.734,0.0033874
10290,0.72941,2.4545,0,0.0006177,6172.8,0.00030238,-16.25,9.344e-06,-2218,-0.0006255,-6988,0.0034099
10291,0.63824,2.5455,0,0.00062754,6271,0.00031051,24.516,6.4575e-06,-2260,-0.00063352,-7068.5,0.0026204
10292,0.72941,2.5455,0.05,2.514e-06,25.122,1.9304e-06,14.504,1.9729e-11,7.6054e-05,-1.9304e-06,-14.505,0.0033775
10293,0.72941,2.2727,0,0.00061143,6110.1,0.00029851,-16.191,1.1082e-05,-2175.8,-0.00061937,-6912.8,0.003391
10294,0.63824,2.3636,0,0.00062244,6220.1,0.00030748,24.488,7.5973e-06,-2228.7,-0.00062852,-7008.2,0.0026092
10295,0.72941,2.3636,0.05,2.9222e-06,29.202,2.2439e-06,16.86,1.779e-11,4.3678e-05,-2.2439e-06,-16.86,0.0033621
10296,0.72941,2.0909,0,0.00060356,6031.4,0.00029354,-16.1,1.3517e-05,-2120.1,-0.0006117,-6817.7,0.0033653
10297,0.63824,2.1818,0,0.00061571,6152.9,0.00030342,24.442,9.242e-06,-2185.9,-0.00062193,-6928.3,0.0025931
10298,0.72941,2.1818,0.05,3.3971e-06,33.948,2.6085e-06,19.599,9.0542e-12,-1.7916e-05,-2.6086e-06,-19.6,0.0033404
10299,0.72941,1.9091,0,0.00059423,5938.2,0.00028746,-15.967,1.6805e-05,-2049.6,-0.00060263,-6703.8,0.0033312
10300,0.63824,2,0,0.0006074,6069.8,0.00029831,24.367,1.15e-05,-2130.6,-0.00061381,-6828.9,0.0025714
10301,0.72941,2,0.05,3.9086e-06,39.059,3.0013e-06,22.55,-1.6849e-13,-8.2236e-05,-3.0013e-06,-22.551,0.0033111
10302,0.72941,1.7273,0,0.00058363,5832.3,0.00028027,-15.779,2.1179e-05,-1962.5,-0.00059237,-6572.4,0.0032872
10303,0.63824,1.8182,0,0.00059757,5971.5,0.00029209,24.249,1.4529e-05,-2061.2,-0.00060423,-6710.4,0.0025427
10304,0.72941,1.8182,0.05,4.4294e-06,44.264,3.4012e-06,25.555,-8.0643e-12,-0.0001811,-3.4012e-06,-25.556,0.003273
10305,0.72941,1.5455,0,0.00057205,5716.6,0.00027192,-15.519,2.6997e-05,-1855.8,-0.00058121,-6425.6,0.0032309
10306,0.63824,1.6364,0,0.00058631,5859.1,0.0002847,24.069,1.8579e-05,-1975.5,-0.00059331,-6573,0.0025055
10307,0.72941,1.6364,0.05,4.9337e-06,49.303,3.7885e-06,28.465,-1.9396e-11,-0.00024385,-3.7885e-06,-28.465,0.0032239
10308,0.72941,1.3636,0,0.00055995,5595.6,0.00026237,-15.165,3.4815e-05,-1725,-0.00056959,-6266.2,0.0031595
10309,0.63824,1.4545,0,0.00057382,5734.2,0.00027605,23.805,2.4054e-05,-1869.6,-0.00058126,-6417.7,0.0024577
10310,0.72941,1.4545,0.05,5.3971e-06,53.934,4.1443e-06,31.139,-2.8568e-11,-0.00029882,-4.1443e-06,-31.139,0.0031613
10311,0.72941,1.1818,0,0.00054806,5476.8,0.00025156,-14.676,4.5456e-05,-1563.3,-0.00055822,-6099,0.0030692
10312,0.63824,1.2727,0,0.00056046,5600.7,0.00026599,23.427,3.1607e-05,-1737.7,-0.00056844,-6246.2,0.0023964
10313,0.72941,1.2727,0.05,5.7986e-06,57.946,4.4526e-06,33.455,-3.4877e-11,-0.00041412,-4.4526e-06,-33.455,0.003082
10314,0.72941,1,0,0.00053755,5371.8,0.00023945,-13.989,6.0037e-05,-1362,-0.00054811,-5931.4,0.0029548
10315,0.63824,1.0909,0,0.00054693,5465.5,0.00025436,22.902,4.2248e-05,-1570.8,-0.00055554,-6062.4,0.0023179
10316,0.72941,1.0909,0.05,6.1255e-06,61.213,4.7037e-06,35.341,-3.9524e-11,-0.00044318,-4.7036e-06,-35.341,0.0029815
10317,0.72941,0.81818,0,0.00053016,5297.9,0.00022611,-12.955,7.9813e-05,-1112.2,-0.00054067,-5774.2,0.0028095
10318,0.63824,0.90909,0,0.00053451,5341.4,0.00024099,22.176,5.7445e-05,-1356.9,-0.00054368,-5873.5,0.0022172
10319,0.72941,0.90909,0.05,6.3785e-06,63.741,4.8979e-06,36.801,-5.8306e-11,-0.00050326,-4.8978e-06,-36.801,0.0028538
10320,0.72941,0.63636,0,0.00052801,5276.4,0.0002119,-11.399,0.00010563,-809.86,-0.00053742,-5641.6,0.0026238
10321,0.63824,0.72727,0,0.00052536,5249.9,0.00022584,21.25,7.9025e-05,-1081.8,-0.00053463,-5692.6,0.0020868
10322,0.72941,0.72727,0.05,6.565e-06,65.605,5.0411e-06,37.877,-5.6743e-11,-0.00053121,-5.0411e-06,-37.877,0.0026909
10323,0.72941,0.45455,0,0.00053296,5326,0.00019779,-8.0771,0.00013687,-465.79,-0.00053955,-5548.1,0.0023849
10324,0.63824,0.54545,0,0.00052253,5221.7,0.00020925,19.971,0.00010849,-737.08,-0.00053059,-5538.9,0.0019164
10325,0.72941,0.54545,0.05,6.6401e-06,66.355,5.0988e-06,38.31,-4.053e-11,-0.00051097,-5.0988e-06,-38.31,0.0024815
10326,0.72941,0.27273,0,0.00054737,5469.9,0.00018629,4.4068,0.00017142,-107.29,-0.00054903,-5520.5,0.0020768
10327,0.63824,0.36364,0,0.00052894,5285.8,0.0001925,18.473,0.00014517,-337.18,-0.00053347,-5436.2,0.0016914
10328,0.72941,0.36364,0.05,6.3365e-06,63.321,4.8657e-06,36.559,-4.8549e-11,-0.00047083,-4.8656e-06,-36.559,0.0022106
10329,0.63824,0.18182,0,0.00054911,5487.3,0.00019067,109.05,0.00017512,-7.7865,-0.00054729,-5435.7,0.0013939
10330,0.72941,0.18182,0.05,6.3039e-06,62.995,4.8406e-06,36.37,-3.9795e-11,-0.00038616,-4.8406e-06,-36.37,0.0018601
10331,0.72941,0.090909,0,0.00054762,5472.4,0.00018813,88.445,0.00017624,-0.93341,-0.00054607,-5428.1,0.0016816
10332,0.54706,5.7273,0,0.00052997,5296,0.00018536,36.521,0.00016034,-151.48,-0.00053167,-5351,0.0011121
10333,0.45588,5.8182,0,0.00051738,5170.2,0.00018122,99.614,0.00016202,-44.613,-0.00051629,-5141.2,0.00064736
10334,0.54706,5.8182,0.05,6.9177e-06,69.129,5.3119e-06,39.912,4.5009e-11,0.00049587,-5.3119e-06,-39.912,0.00095083
10335,0.54706,5.9091,0,0.00052908,5287.2,0.00018335,111.44,0.00016996,10.895,-0.00052693,-5225.3,0.00082664
10336,0.54706,5.5455,0,0.00051791,5175.5,0.00020386,45.77,0.00011675,-608.77,-0.00052437,-5425.9,0.0013219
10337,0.45588,5.6364,0,0.00049555,4952.1,0.00018485,-49.66,0.0001215,-525.64,-0.00050362,-5222.5,0.00083985
10338,0.54706,5.6364,0.05,8.7684e-06,87.624,6.733e-06,50.59,4.3075e-11,0.0003987,-6.7331e-06,-50.589,0.0011966
10339,0.54706,5.3636,0,0.0005195,5191.4,0.00022316,52.452,8.1678e-05,-1010.6,-0.00052757,-5588.2,0.0014756
10340,0.45588,5.4545,0,0.0004971,4967.6,0.0002067,-68.128,7.9726e-05,-1022.1,-0.00050873,-5443.6,0.00097525
10341,0.54706,5.4545,0.05,8.1996e-06,81.939,6.2962e-06,47.308,5.2886e-11,0.00050307,-6.2963e-06,-47.308,0.0013748
10342,0.54706,5.1818,0,0.00052961,5292.5,0.0002407,56.322,5.6504e-05,-1327.7,-0.00053748,-5790.6,0.0015899
10343,0.45588,5.2727,0,0.00051073,5103.7,0.00022661,-77.278,5.2187e-05,-1387.8,-0.00052286,-5708.5,0.001072
10344,0.54706,5.2727,0.05,7.5102e-06,75.051,5.7669e-06,43.33,4.8773e-11,0.00052211,-5.7669e-06,-43.33,0.0015054
10345,0.54706,5,0,0.00054397,5435.9,0.0002559,59.044,3.961e-05,-1566,-0.00055106,-6004.1,0.0016762
10346,0.45588,5.0909,0,0.0005287,5283.4,0.00024334,-83.05,3.5009e-05,-1648.4,-0.00054046,-5972.2,0.001143
10347,0.54706,5.0909,0.05,7.0264e-06,70.216,5.3954e-06,40.539,4.2925e-11,0.00046802,-5.3954e-06,-40.539,0.0016029
10348,0.54706,4.8182,0,0.00055949,5591,0.00026879,60.997,2.8432e-05,-1745,-0.0005658,-6209.8,0.0017422
10349,0.45588,4.9091,0,0.00054703,5466.6,0.00025714,-86.995,2.4321e-05,-1836.3,-0.00055833,-6214.1,0.001196
10350,0.54706,4.9091,0.05,6.6099e-06,66.054,5.0756e-06,38.136,4.0592e-11,0.00039039,-5.0756e-06,-38.136,0.0016768
10351,0.54706,4.6364,0,0.00057449,5740.9,0.00027967,62.395,2.0916e-05,-1881.8,-0.00058018,-6398.2,0.001793
10352,0.45588,4.7273,0,0.00056399,5636,0.00026851,-89.787,1.7467e-05,-1976,-0.00057493,-6427,0.0012362
10353,0.54706,4.7273,0.05,6.1802e-06,61.76,4.7456e-06,35.657,2.9508e-11,0.00030706,-4.7456e-06,-35.657,0.0017335
10354,0.54706,4.4545,0,0.00058822,5878.1,0.00028883,63.393,1.5712e-05,-1988.7,-0.00059344,-6565.7,0.0018323
10355,0.45588,4.5455,0,0.00057899,5785.9,0.00027789,-91.797,1.2894e-05,-2082.8,-0.00058967,-6610.3,0.0012669
10356,0.54706,4.5455,0.05,5.7088e-06,57.048,4.3836e-06,32.937,1.4271e-11,0.00023307,-4.3836e-06,-32.937,0.0017772
10357,0.54706,4.2727,0,0.00060036,5999.4,0.00029653,64.097,1.1995e-05,-2073.8,-0.00060524,-6711.4,0.0018626
10358,0.45588,4.3636,0,0.00059192,5915.1,0.00028564,-93.241,9.7146e-06,-2166.4,-0.00060244,-6765.9,0.0012904
10359,0.54706,4.3636,0.05,5.2022e-06,51.986,3.9947e-06,30.014,9.9052e-12,0.00017771,-3.9947e-06,-30.014,0.0018109
10360,0.54706,4.0909,0,0.00061083,6104,0.00030293,64.583,9.2746e-06,-2141.8,-0.00061546,-6835.9,0.0018858
10361,0.45588,4.1818,0,0.00060287,6024.5,0.00029203,-94.266,7.4242e-06,-2232.7,-0.00061326,-6896.3,0.0013082
10362,0.54706,4.1818,0.05,4.6797e-06,46.765,3.5935e-06,27,-1.2484e-12,0.00014117,-3.5934e-06,-27,0.0018367
10363,0.54706,3.9091,0,0.00061962,6191.9,0.00030819,64.909,7.2593e-06,-2196.2,-0.00062407,-6939.8,0.0019033
10364,0.45588,4,0,0.00061197,6115.4,0.00029725,-94.979,5.7362e-06,-2285.3,-0.00062227,-7004,0.0013216
10365,0.54706,4,0.05,4.1642e-06,41.613,3.1976e-06,24.025,-8.6003e-12,1.9327e-05,-3.1975e-06,-24.025,0.0018563
10366,0.54706,3.7273,0,0.00062677,6263.3,0.00031239,65.121,5.7762e-06,-2238.7,-0.00063109,-7023.8,0.0019164
10367,0.45588,3.8182,0,0.00061935,6189.2,0.00030144,-95.463,4.4857e-06,-2326.7,-0.0006296,-7090.9,0.0013315
10368,0.54706,3.8182,0.05,3.679e-06,36.765,2.825e-06,21.226,-1.3907e-11,4.9514e-05,-2.825e-06,-21.226,0.0018711
10369,0.54706,3.5455,0,0.0006323,6318.7,0.0003156,65.254,4.7172e-06,-2270.6,-0.00063654,-7088.8,0.0019257
10370,0.45588,3.6364,0,0.00062513,6247,0.0003047,-95.779,3.5748e-06,-2358.3,-0.00063534,-7158.8,0.0013387
10371,0.54706,3.6364,0.05,3.2476e-06,32.454,2.4938e-06,18.738,-1.5164e-11,-2.2258e-05,-2.4938e-06,-18.737,0.0018818
10372,0.54706,3.3636,0,0.00063624,6358.1,0.00031787,65.332,4.0101e-06,-2292.9,-0.00064042,-7134.9,0.0019319
10373,0.45588,3.4545,0,0.00062941,6289.7,0.00030709,-95.976,2.941e-06,-2381.2,-0.00063958,-7208.8,0.0013436
10374,0.54706,3.4545,0.05,2.8934e-06,28.914,2.2218e-06,16.694,-1.5571e-11,-0.0001196,-2.2217e-06,-16.693,0.0018892
10375,0.54706,3.1818,0,0.00063861,6381.7,0.00031922,65.373,3.6059e-06,-2306,-0.00064275,-7162.5,0.0019355
10376,0.45588,3.2727,0,0.00063223,6317.9,0.00030865,-96.088,2.542e-06,-2396.1,-0.00064238,-7241.8,0.0013467
10377,0.54706,3.2727,0.05,2.6392e-06,26.374,2.0266e-06,15.227,-1.2038e-11,-6.8211e-05,-2.0266e-06,-15.227,0.001894
10378,0.54706,3,0,0.0006394,6389.5,0.00031967,65.385,3.4746e-06,-2310.4,-0.00064353,-7171.7,0.0019367
10379,0.45588,3.0909,0,0.00063363,6331.9,0.00030943,-96.138,2.3498e-06,-2403.4,-0.00064377,-7258.1,0.0013482
10380,0.54706,3.0909,0.05,2.5057e-06,25.04,1.9241e-06,14.457,-4.2192e-12,-1.6379e-05,-1.9241e-06,-14.457,0.0018962
10381,0.54706,2.8182,0,0.00063861,6381.7,0.00031922,65.373,3.606e-06,-2306,-0.00064275,-7162.5,0.0019355
10382,0.45588,2.9091,0,0.00063363,6331.9,0.00030943,-96.138,2.3498e-06,-2403.4,-0.00064377,-7258.1,0.0013482
10383,0.54706,2.9091,0.05,2.5057e-06,25.04,1.9241e-06,14.457,5.135e-12,4.6668e-05,-1.9241e-06,-14.457,0.0018962
10384,0.54706,2.6364,0,0.00063624,6358.1,0.00031787,65.332,4.0101e-06,-2292.9,-0.00064042,-7134.9,0.0019319
10385,0.45588,2.7273,0,0.00063223,6317.9,0.00030865,-96.088,2.542e-06,-2396.1,-0.00064238,-7241.8,0.0013467
10386,0.54706,2.7273,0.05,2.6392e-06,26.374,2.0266e-06,15.227,1.2934e-11,3.5837e-05,-2.0266e-06,-15.227,0.001894
10387,0.54706,2.4545,0,0.0006323,6318.7,0.0003156,65.254,4.7172e-06,-2270.6,-0.00063654,-7088.8,0.0019257
10388,0.45588,2.5455,0,0.00062941,6289.7,0.00030709,-95.976,2.941e-06,-2381.2,-0.00063958,-7208.8,0.0013436
10389,0.54706,2.5455,0.05,2.8934e-06,28.914,2.2217e-06,16.693,1.6151e-11,6.0994e-05,-2.2218e-06,-16.694,0.0018892
10390,0.54706,2.2727,0,0.00062677,6263.3,0.00031239,65.121,5.7763e-06,-2238.7,-0.00063109,-7023.8,0.0019164
10391,0.45588,2.3636,0,0.00062513,6247,0.0003047,-95.779,3.5748e-06,-2358.3,-0.00063534,-7158.8,0.0013387
10392,0.54706,2.3636,0.05,3.2476e-06,32.454,2.4938e-06,18.737,1.4587e-11,7.3234e-05,-2.4938e-06,-18.738,0.0018818
10393,0.54706,2.0909,0,0.00061962,6191.9,0.00030819,64.909,7.2593e-06,-2196.2,-0.00062408,-6939.8,0.0019033
10394,0.45588,2.1818,0,0.00061935,6189.2,0.00030144,-95.463,4.4858e-06,-2326.7,-0.0006296,-7090.9,0.0013315
10395,0.54706,2.1818,0.05,3.679e-06,36.765,2.825e-06,21.226,1.3031e-11,1.8065e-05,-2.825e-06,-21.226,0.0018711
10396,0.54706,1.9091,0,0.00061083,6104,0.00030293,64.583,9.2746e-06,-2141.8,-0.00061546,-6835.9,0.0018858
10397,0.45588,2,0,0.00061197,6115.4,0.00029725,-94.979,5.7362e-06,-2285.3,-0.00062227,-7004,0.0013216
10398,0.54706,2,0.05,4.1642e-06,41.613,3.1975e-06,24.025,6.8937e-12,-5.017e-05,-3.1976e-06,-24.025,0.0018563
10399,0.54706,1.7273,0,0.00060036,5999.4,0.00029653,64.097,1.1995e-05,-2073.8,-0.00060524,-6711.5,0.0018626
10400,0.45588,1.8182,0,0.00060287,6024.5,0.00029203,-94.266,7.4242e-06,-2232.7,-0.00061326,-6896.3,0.0013082
10401,0.54706,1.8182,0.05,4.6797e-06,46.765,3.5934e-06,27,9.0508e-13,-0.00014605,-3.5935e-06,-27,0.0018367
10402,0.54706,1.5455,0,0.00058822,5878.1,0.00028883,63.393,1.5712e-05,-1988.7,-0.00059344,-6565.7,0.0018323
10403,0.45588,1.6364,0,0.00059192,5915.1,0.00028564,-93.241,9.7147e-06,-2166.4,-0.00060244,-6765.9,0.0012904
10404,0.54706,1.6364,0.05,5.2022e-06,51.986,3.9947e-06,30.014,-8.2692e-12,-0.00019246,-3.9947e-06,-30.014,0.0018109
10405,0.54706,1.3636,0,0.00057449,5740.9,0.00027967,62.395,2.0916e-05,-1881.8,-0.00058018,-6398.2,0.001793
10406,0.45588,1.4545,0,0.00057899,5785.9,0.00027789,-91.797,1.2894e-05,-2082.8,-0.00058967,-6610.3,0.0012669
10407,0.54706,1.4545,0.05,5.7088e-06,57.048,4.3836e-06,32.937,-1.2611e-11,-0.00024388,-4.3836e-06,-32.937,0.0017772
10408,0.54706,1.1818,0,0.00055949,5591,0.00026879,60.997,2.8432e-05,-1745,-0.0005658,-6209.8,0.0017422
10409,0.45588,1.2727,0,0.00056399,5636,0.00026851,-89.787,1.7467e-05,-1976,-0.00057493,-6427,0.0012362
10410,0.54706,1.2727,0.05,6.1802e-06,61.76,4.7457e-06,35.657,-3.0271e-11,-0.00031082,-4.7456e-06,-35.657,0.0017335
10411,0.54706,1,0,0.00054397,5436,0.0002559,59.044,3.961e-05,-1566,-0.00055106,-6004.1,0.0016762
10412,0.45588,1.0909,0,0.00054704,5466.6,0.00025714,-86.995,2.4321e-05,-1836.3,-0.00055833,-6214.1,0.001196
10413,0.54706,1.0909,0.05,6.6099e-06,66.054,5.0756e-06,38.136,-3.8571e-11,-0.00040903,-5.0756e-06,-38.136,0.0016768
10414,0.54706,0.81818,0,0.00052961,5292.5,0.0002407,56.322,5.6504e-05,-1327.7,-0.00053748,-5790.6,0.0015899
10415,0.45588,0.90909,0,0.0005287,5283.4,0.00024334,-83.05,3.5009e-05,-1648.4,-0.00054046,-5972.2,0.001143
10416,0.54706,0.90909,0.05,7.0264e-06,70.216,5.3954e-06,40.539,-5.046e-11,-0.00048215,-5.3954e-06,-40.539,0.0016029
10417,0.54706,0.63636,0,0.0005195,5191.4,0.00022316,52.452,8.1678e-05,-1010.6,-0.00052757,-5588.2,0.0014756
10418,0.45588,0.72727,0,0.00051073,5103.7,0.00022661,-77.278,5.2187e-05,-1387.8,-0.00052286,-5708.5,0.001072
10419,0.54706,0.72727,0.05,7.5102e-06,75.051,5.7669e-06,43.33,-5.6946e-11,-0.00053592,-5.7669e-06,-43.33,0.0015054
10420,0.54706,0.45455,0,0.00051791,5175.5,0.00020386,45.77,0.00011675,-608.77,-0.00052437,-5425.9,0.0013219
10421,0.45588,0.54545,0,0.0004971,4967.6,0.0002067,-68.128,7.9726e-05,-1022.1,-0.00050873,-5443.6,0.00097525
10422,0.54706,0.54545,0.05,8.1996e-06,81.939,6.2963e-06,47.307,-4.5409e-11,-0.00050312,-6.2962e-06,-47.308,0.0013748
10423,0.54706,0.27273,0,0.00052997,5296,0.00018536,36.521,0.00016034,-151.49,-0.00053167,-5351,0.0011121
10424,0.45588,0.36364,0,0.00049555,4952.1,0.00018485,-49.66,0.0001215,-525.64,-0.00050362,-5222.5,0.00083985
10425,0.54706,0.36364,0.05,8.7684e-06,87.624,6.7331e-06,50.589,-3.2919e-11,-0.00041413,-6.733e-06,-50.59,0.0011966
10426,0.45588,0.18182,0,0.00051738,5170.2,0.00018122,99.614,0.00016202,-44.613,-0.00051629,-5141.2,0.00064736
10427,0.54706,0.18182,0.05,6.9177e-06,69.129,5.3119e-06,39.912,-5.1649e-11,-0.00049594,-5.3119e-06,-39.912,0.00095083
10428,0.54706,0.090909,0,0.00052908,5287.2,0.00018335,111.44,0.00016996,10.895,-0.00052693,-5225.3,0.00082664
10429,0.36471,5.7273,0,0.00048141,4810.8,0.00016648,-93.454,0.00013714,-313.89,-0.00048796,-5010.7,0.00046921
10430,0.27353,5.8182,0,0.00044983,4495.2,0.00016303,165.89,0.00013876,-16.417,-0.00044701,-4417.6,0.00020855
10431,0.36471,5.8182,0.05,1.1531e-05,115.23,8.8545e-06,66.529,3.9248e-11,0.00046597,-8.8545e-06,-66.529,0.00036587
10432,0.36471,5.9091,0,0.00048339,4830.5,0.00017093,120.63,0.00015114,-28.084,-0.00048164,-4782.5,0.00029757
10433,0.36471,5.5455,0,0.00047345,4731.3,0.00018753,-164.73,8.4128e-05,-941.67,-0.00048746,-5236.4,0.00058408
10434,0.27353,5.6364,0,0.00046196,4616.4,0.00020727,241.23,7.4816e-05,-753.99,-0.00046256,-4791.6,0.00030019
10435,0.36471,5.6364,0.05,1.3033e-05,130.24,1.0008e-05,75.194,3.9859e-11,0.00041336,-1.0008e-05,-75.193,0.00050619
10436,0.36471,5.3636,0,0.00048773,4873.9,0.00021011,-198.11,4.9905e-05,-1401.8,-0.00050366,-5561.1,0.00066196
10437,0.27353,5.4545,0,0.00049911,4987.6,0.0002443,283.99,4.0477e-05,-1247.4,-0.00049753,-5289.8,0.00035787
10438,0.36471,5.4545,0.05,1.0517e-05,105.09,8.0755e-06,60.676,4.8793e-11,0.00052952,-8.0756e-06,-60.676,0.00059804
10439,0.36471,5.1818,0,0.00050969,5093.4,0.00022924,-216.73,3.0636e-05,-1708.9,-0.00052577,-5889.6,0.00071675
10440,0.27353,5.2727,0,0.00053614,5357.7,0.00027193,314.77,2.3249e-05,-1553.7,-0.00053218,-5727,0.00039616
10441,0.36471,5.2727,0.05,9.1997e-06,91.934,7.0642e-06,53.078,4.0687e-11,0.00045195,-7.0643e-06,-53.078,0.00066071
10442,0.36471,5,0,0.00053183,5314.6,0.00024459,-229.12,1.9818e-05,-1917.9,-0.00054782,-6183,0.0007566
10443,0.27353,5.0909,0,0.00056765,5672.6,0.00029235,334.32,1.4468e-05,-1753.6,-0.00056219,-6086.3,0.00042299
10444,0.36471,5.0909,0.05,8.4234e-06,84.176,6.4681e-06,48.599,2.7544e-11,0.00034926,-6.4681e-06,-48.599,0.0007053
10445,0.36471,4.8182,0,0.00055165,5512.7,0.00025685,-237.79,1.3496e-05,-2066.3,-0.0005676,-6432.4,0.00078621
10446,0.27353,4.9091,0,0.00059328,5928.7,0.00030785,348.35,9.6088e-06,-1892.5,-0.00058687,-6374.2,0.00044245
10447,0.36471,4.9091,0.05,7.8373e-06,78.319,6.0181e-06,45.218,2.0404e-11,0.00028836,-6.0181e-06,-45.217,0.00073799
10448,0.36471,4.6364,0,0.00056859,5682,0.00026672,-243.98,9.5747e-06,-2176.1,-0.00058455,-6640.1,0.00080848
10449,0.27353,4.7273,0,0.00061384,6134.2,0.00031978,358.34,6.7157e-06,-1993.9,-0.00060683,-6603.8,0.00045684
10450,0.36471,4.7273,0.05,7.2671e-06,72.621,5.5802e-06,41.928,1.5924e-11,0.00027342,-5.5802e-06,-41.927,0.00076238
10451,0.36471,4.4545,0,0.00058278,5823.8,0.00027469,-248.43,6.9989e-06,-2259.8,-0.00059877,-6811.3,0.0008253
10452,0.27353,4.5455,0,0.00063026,6298.2,0.00032907,365.55,4.8664e-06,-2070.4,-0.00062285,-6786.8,0.00046757
10453,0.36471,4.5455,0.05,6.685e-06,66.804,5.1332e-06,38.569,6.0929e-12,0.00014876,-5.1332e-06,-38.569,0.00078072
10454,0.36471,4.2727,0,0.0005945,5940.9,0.00028115,-251.6,5.2176e-06,-2324.8,-0.00061053,-6951.3,0.00083796
10455,0.27353,4.3636,0,0.00064332,6428.7,0.00033634,370.71,3.6106e-06,-2129.3,-0.00063565,-6932.5,0.00047557
10456,0.36471,4.3636,0.05,6.0981e-06,60.939,4.6826e-06,35.183,-6.6645e-13,9.6653e-05,-4.6826e-06,-35.183,0.00079452
10457,0.36471,4.0909,0,0.00060406,6036.5,0.00028635,-253.83,3.9366e-06,-2375.8,-0.00062013,-7064.7,0.00084742
10458,0.27353,4.1818,0,0.00065365,6532,0.00034203,374.35,2.7149e-06,-2175.1,-0.00064581,-7047.9,0.0004815
10459,0.36471,4.1818,0.05,5.5238e-06,55.2,4.2416e-06,31.87,-4.8666e-12,5.2688e-05,-4.2416e-06,-31.869,0.00080485
10460,0.36471,3.9091,0,0.00061174,6113.2,0.00029051,-255.35,2.995e-06,-2415.6,-0.00062783,-7155.4,0.00085439
10461,0.27353,4,0,0.00066173,6612.8,0.00034645,376.85,2.0554e-06,-2210.8,-0.00065378,-7138.5,0.00048583
10462,0.36471,4,0.05,4.9816e-06,49.782,3.8253e-06,28.742,-9.4102e-12,3.0462e-05,-3.8253e-06,-28.741,0.00081248
10463,0.36471,3.7273,0,0.00061775,6173.3,0.00029375,-256.36,2.3028e-06,-2446.2,-0.00063386,-7226,0.00085943
10464,0.27353,3.8182,0,0.00066797,6675.1,0.00034984,378.53,1.5646e-06,-2238.2,-0.00065993,-7208.5,0.00048895
10465,0.36471,3.8182,0.05,4.4913e-06,44.882,3.4488e-06,25.913,-1.2672e-11,-1.473e-06,-3.4488e-06,-25.913,0.00081805
10466,0.36471,3.5455,0,0.00062227,6218.4,0.00029618,-257.01,1.8069e-06,-2468.8,-0.00063838,-7279,0.00086295
10467,0.27353,3.6364,0,0.00067264,6721.7,0.00035236,379.6,1.2045e-06,-2258.8,-0.00066455,-7261,0.00049113
10468,0.36471,3.6364,0.05,4.0715e-06,40.687,3.1264e-06,23.491,-1.3164e-11,-3.9104e-05,-3.1264e-06,-23.49,0.00082199
10469,0.36471,3.3636,0,0.00062542,6249.9,0.00029787,-257.39,1.4744e-06,-2484.4,-0.00064154,-7315.7,0.00086526
10470,0.27353,3.4545,0,0.00067596,6754.9,0.00035415,380.26,9.5202e-07,-2273.5,-0.00066784,-7298.6,0.00049259
10471,0.36471,3.4545,0.05,3.739e-06,37.365,2.8711e-06,21.573,-1.1702e-11,-2.344e-05,-2.8711e-06,-21.572,0.00082467
10472,0.36471,3.1818,0,0.00062727,6268.4,0.00029887,-257.6,1.2834e-06,-2493.5,-0.0006434,-7337.4,0.00086657
10473,0.27353,3.2727,0,0.0006781,6776.3,0.0003553,380.64,7.92e-07,-2283,-0.00066996,-7322.8,0.00049348
10474,0.36471,3.2727,0.05,3.5083e-06,35.059,2.694e-06,20.241,-7.7091e-12,-2.1289e-05,-2.6939e-06,-20.241,0.00082632
10475,0.36471,3,0,0.00062789,6274.5,0.0002992,-257.66,1.2212e-06,-2496.5,-0.00064401,-7344.5,0.00086699
10476,0.27353,3.0909,0,0.00067914,6786.7,0.00035586,380.8,7.1454e-07,-2287.6,-0.000671,-7334.6,0.00049391
10477,0.36471,3.0909,0.05,3.39e-06,33.877,2.6031e-06,19.559,-2.5117e-12,-8.0615e-06,-2.6031e-06,-19.559,0.00082711
10478,0.36471,2.8182,0,0.00062727,6268.4,0.00029887,-257.6,1.2834e-06,-2493.5,-0.0006434,-7337.4,0.00086657
10479,0.27353,2.9091,0,0.00067914,6786.7,0.00035586,380.8,7.1454e-07,-2287.6,-0.000671,-7334.6,0.00049391
10480,0.36471,2.9091,0.05,3.39e-06,33.877,2.6031e-06,19.559,3.2794e-12,7.9315e-06,-2.6031e-06,-19.559,0.00082711
10481,0.36471,2.6364,0,0.00062542,6249.9,0.00029787,-257.39,1.4744e-06,-2484.4,-0.00064154,-7315.7,0.00086526
10482,0.27353,2.7273,0,0.0006781,6776.3,0.0003553,380.64,7.9201e-07,-2283,-0.00066996,-7322.8,0.00049348
10483,0.36471,2.7273,0.05,3.5083e-06,35.059,2.6939e-06,20.241,8.3918e-12,1.9569e-05,-2.694e-06,-20.241,0.00082632
10484,0.36471,2.4545,0,0.00062227,6218.4,0.00029618,-257.01,1.807e-06,-2468.8,-0.00063838,-7279,0.00086295
10485,0.27353,2.5455,0,0.00067596,6755,0.00035415,380.26,9.5204e-07,-2273.5,-0.00066784,-7298.6,0.00049259
10486,0.36471,2.5455,0.05,3.739e-06,37.365,2.8711e-06,21.572,1.1648e-11,5.1956e-05,-2.8711e-06,-21.573,0.00082467
10487,0.36471,2.2727,0,0.00061775,6173.3,0.00029375,-256.36,2.3028e-06,-2446.2,-0.00063386,-7226,0.00085943
10488,0.27353,2.3636,0,0.00067264,6721.7,0.00035236,379.6,1.2045e-06,-2258.8,-0.00066455,-7261,0.00049113
10489,0.36471,2.3636,0.05,4.0715e-06,40.687,3.1264e-06,23.49,1.3186e-11,1.6715e-05,-3.1264e-06,-23.491,0.00082199
10490,0.36471,2.0909,0,0.00061174,6113.2,0.00029051,-255.35,2.9951e-06,-2415.6,-0.00062783,-7155.4,0.00085439
10491,0.27353,2.1818,0,0.00066797,6675.1,0.00034984,378.53,1.5646e-06,-2238.2,-0.00065993,-7208.5,0.00048895
10492,0.36471,2.1818,0.05,4.4913e-06,44.882,3.4488e-06,25.913,1.2804e-11,-1.3904e-06,-3.4488e-06,-25.913,0.00081805
10493,0.36471,1.9091,0,0.00060406,6036.5,0.00028635,-253.83,3.9366e-06,-2375.8,-0.00062013,-7064.8,0.00084742
10494,0.27353,2,0,0.00066174,6612.8,0.00034645,376.85,2.0554e-06,-2210.8,-0.00065378,-7138.5,0.00048583
10495,0.36471,2,0.05,4.9816e-06,49.782,3.8253e-06,28.741,9.4582e-12,-4.0364e-05,-3.8253e-06,-28.742,0.00081249
10496,0.36471,1.7273,0,0.0005945,5940.9,0.00028115,-251.6,5.2176e-06,-2324.8,-0.00061053,-6951.3,0.00083796
10497,0.27353,1.8182,0,0.00065365,6532,0.00034203,374.35,2.7149e-06,-2175.1,-0.00064581,-7047.9,0.0004815
10498,0.36471,1.8182,0.05,5.5238e-06,55.2,4.2416e-06,31.869,5.4348e-12,-6.474e-05,-4.2416e-06,-31.87,0.00080485
10499,0.36471,1.5455,0,0.00058278,5823.8,0.00027469,-248.43,6.9989e-06,-2259.8,-0.00059877,-6811.3,0.0008253
10500,0.27353,1.6364,0,0.00064332,6428.7,0.00033634,370.71,3.6106e-06,-2129.3,-0.00063565,-6932.5,0.00047557
10501,0.36471,1.6364,0.05,6.0981e-06,60.939,4.6826e-06,35.183,9.102e-13,-0.00013719,-4.6826e-06,-35.183,0.00079452
10502,0.36471,1.3636,0,0.00056859,5682,0.00026672,-243.98,9.5747e-06,-2176.1,-0.00058455,-6640.1,0.00080848
10503,0.27353,1.4545,0,0.00063026,6298.2,0.00032907,365.55,4.8664e-06,-2070.4,-0.00062285,-6786.8,0.00046757
10504,0.36471,1.4545,0.05,6.685e-06,66.804,5.1332e-06,38.569,-6.5823e-12,-0.00020702,-5.1332e-06,-38.569,0.00078072
10505,0.36471,1.1818,0,0.00055165,5512.7,0.00025686,-237.79,1.3496e-05,-2066.3,-0.0005676,-6432.4,0.00078621
10506,0.27353,1.2727,0,0.00061384,6134.2,0.00031978,358.34,6.7157e-06,-1993.9,-0.00060683,-6603.8,0.00045684
10507,0.36471,1.2727,0.05,7.2671e-06,72.621,5.5802e-06,41.927,-1.6406e-11,-0.00028675,-5.5802e-06,-41.928,0.00076238
10508,0.36471,1,0,0.00053183,5314.6,0.00024459,-229.12,1.9818e-05,-1917.9,-0.00054782,-6183,0.0007566
10509,0.27353,1.0909,0,0.00059328,5928.7,0.00030785,348.35,9.6088e-06,-1892.5,-0.00058687,-6374.2,0.00044245
10510,0.36471,1.0909,0.05,7.8373e-06,78.319,6.0181e-06,45.217,-2.4939e-11,-0.00032091,-6.0181e-06,-45.218,0.00073799
10511,0.36471,0.81818,0,0.00050969,5093.4,0.00022924,-216.73,3.0636e-05,-1708.9,-0.00052577,-5889.6,0.00071675
10512,0.27353,0.90909,0,0.00056765,5672.6,0.00029235,334.32,1.4468e-05,-1753.6,-0.00056219,-6086.3,0.00042299
10513,0.36471,0.90909,0.05,8.4234e-06,84.176,6.4681e-06,48.599,-4.3327e-11,-0.00042248,-6.4681e-06,-48.599,0.0007053
10514,0.36471,0.63636,0,0.00048773,4873.9,0.00021011,-198.11,4.9905e-05,-1401.8,-0.00050366,-5561.1,0.00066196
10515,0.27353,0.72727,0,0.00053614,5357.7,0.00027193,314.77,2.3249e-05,-1553.7,-0.00053218,-5727,0.00039616
10516,0.36471,0.72727,0.05,9.1997e-06,91.934,7.0643e-06,53.078,-5.9185e-11,-0.0005144,-7.0642e-06,-53.078,0.00066071
10517,0.36471,0.45455,0,0.00047345,4731.3,0.00018753,-164.73,8.4128e-05,-941.67,-0.00048746,-5236.4,0.00058408
10518,0.27353,0.54545,0,0.00049911,4987.6,0.0002443,283.99,4.0477e-05,-1247.4,-0.00049753,-5289.8,0.00035787
10519,0.36471,0.54545,0.05,1.0517e-05,105.09,8.0756e-06,60.676,-4.9451e-11,-0.000529,-8.0755e-06,-60.676,0.00059804
10520,0.36471,0.27273,0,0.00048141,4810.8,0.00016648,-93.454,0.00013714,-313.89,-0.00048797,-5010.7,0.00046921
10521,0.27353,0.36364,0,0.00046196,4616.4,0.00020727,241.23,7.4816e-05,-753.99,-0.00046256,-4791.6,0.00030019
10522,0.36471,0.36364,0.05,1.3033e-05,130.24,1.0008e-05,75.193,-3.9859e-11,-0.00046465,-1.0008e-05,-75.194,0.00050619
10523,0.27353,0.18182,0,0.00044983,4495.2,0.00016303,165.89,0.00013876,-16.417,-0.00044701,-4417.6,0.00020855
10524,0.36471,0.18182,0.05,1.1531e-05,115.23,8.8545e-06,66.529,-3.7873e-11,-0.00035012,-8.8545e-06,-66.529,0.00036587
10525,0.36471,0.090909,0,0.00048339,4830.5,0.00017093,120.63,0.00015114,-28.084,-0.00048164,-4782.5,0.00029757
10526,0.18235,5.7273,0,0.00042737,4270.8,0.00019899,464.33,7.9362e-05,-434.52,-0.0004197,-4184.3,0.00011811
10527,0.18235,5.8182,0.05,2.8849e-05,288.29,2.2152e-05,166.44,2.8778e-11,0.00042004,-2.2152e-05,-166.44,7.0582e-05
10528,0.18235,5.9091,0,0.00038507,3848,0.00013992,212.37,0.00012469,97.914,-0.00037966,-3691.6,5.4683e-05
10529,0.091176,5.8182,0,0.00027406,2738.8,8.5179e-05,-427.68,5.9779e-05,-618.52,-0.00029136,-3256.9,2.7065e-05
10530,0.18235,5.5455,0,0.00049047,4901.3,0.00026396,689.35,3.1394e-05,-1058,-0.00047278,-4846.2,0.00015544
10531,0.18235,5.6364,0.05,1.8514e-05,185.02,1.4217e-05,106.82,5.3888e-11,0.00048309,-1.4217e-05,-106.82,0.00011598
10532,0.091176,5.6364,0,0.00034463,3444,0.0001199,-848.9,2.0262e-05,-1597.5,-0.00038009,-4605.6,4.3868e-05
10533,0.18235,5.3636,0,0.0005507,5503.2,0.00030611,796.86,1.4903e-05,-1391.2,-0.00052713,-5463.8,0.00017812
10534,0.18235,5.4545,0.05,1.3214e-05,132.05,1.0147e-05,76.239,5.5886e-11,0.00053441,-1.0147e-05,-76.239,0.00014049
10535,0.091176,5.4545,0,0.00040247,4021.9,0.00014468,-1043.2,8.6775e-06,-2065.1,-0.00044548,-5477.5,5.3083e-05
10536,0.18235,5.1818,0,0.00059651,5961,0.00033505,865.88,8.0344e-06,-1591.2,-0.00056955,-5931,0.00019317
10537,0.18235,5.2727,0.05,1.0537e-05,105.29,8.0908e-06,60.791,4.6234e-11,0.00046412,-8.0909e-06,-60.791,0.0001557
10538,0.091176,5.2727,0,0.00044391,4436,0.00016166,-1158.1,4.4217e-06,-2339.5,-0.00049144,-6065.3,5.887e-05
10539,0.18235,5,0,0.00063087,6304.3,0.00035562,911.83,4.912e-06,-1723.2,-0.00060189,-6282.5,0.00020375
10540,0.18235,5.0909,0.05,9.0331e-06,90.268,6.9363e-06,52.117,3.1183e-11,0.00038354,-6.9363e-06,-52.116,0.00016604
10541,0.091176,5.0909,0,0.0004737,4733.7,0.00017351,-1235.5,2.6344e-06,-2519.4,-0.00052432,-6478.7,6.2765e-05
10542,0.18235,4.8182,0,0.00065682,6563.7,0.00037078,944.51,3.245e-06,-1817,-0.00062652,-6548.8,0.0002114
10543,0.18235,4.9091,0.05,7.8615e-06,78.561,6.0367e-06,45.357,2.6628e-11,0.00030552,-6.0367e-06,-45.357,0.00017338
10544,0.091176,4.9091,0,0.00049563,4952.9,0.00018218,-1289.8,1.7081e-06,-2645.8,-0.00054845,-6779.4,6.5519e-05
10545,0.18235,4.6364,0,0.0006766,6761.4,0.00038213,967.9,2.2664e-06,-1886.3,-0.00064539,-6752.5,0.00021703
10546,0.18235,4.7273,0.05,6.8669e-06,68.622,5.2729e-06,39.619,1.2927e-11,0.00022579,-5.2729e-06,-39.619,0.00017871
10547,0.091176,4.7273,0,0.000512,5116.5,0.00018864,-1329,1.1839e-06,-2737.5,-0.00056642,-7002.2,6.7511e-05
10548,0.18235,4.4545,0,0.00069174,6912.6,0.00039073,984.72,1.6371e-06,-1938.7,-0.0006599,-6909.3,0.00022117
10549,0.18235,4.5455,0.05,5.9799e-06,59.758,4.5918e-06,34.501,5.5086e-12,0.00018275,-4.5918e-06,-34.501,0.00018262
10550,0.091176,4.5455,0,0.00052432,5239.6,0.00019352,-1357.5,8.5311e-07,-2805.1,-0.0005799,-7168.7,6.8962e-05
10551,0.18235,4.2727,0,0.0007033,7028.2,0.00039723,996.68,1.2042e-06,-1978.9,-0.00067103,-7029.8,0.00022421
10552,0.18235,4.3636,0.05,5.1744e-06,51.708,3.9733e-06,29.854,2.8086e-12,0.00014679,-3.9733e-06,-29.854,0.00018547
10553,0.091176,4.3636,0,0.00053358,5332.1,0.00019722,-1378.1,6.2857e-07,-2855.2,-0.00059001,-7293,7.0015e-05
10554,0.18235,4.0909,0,0.00071209,7116,0.00040213,1005,8.9092e-07,-2009.7,-0.00067952,-7122,0.0002264
10555,0.18235,4.1818,0.05,4.4432e-06,44.402,3.4119e-06,25.636,-2.3714e-12,8.2663e-05,-3.4119e-06,-25.635,0.00018753
10556,0.091176,4.1818,0,0.00054051,5401.4,0.00020002,-1392.8,4.667e-07,-2892.2,-0.00059755,-7385.4,7.0771e-05
10557,0.18235,3.9091,0,0.00071868,7181.9,0.00040578,1010.7,6.5784e-07,-2033.2,-0.00068591,-7191.8,0.00022797
10558,0.18235,4,0.05,3.7894e-06,37.868,2.9098e-06,21.863,-4.8492e-12,6.4308e-05,-2.9098e-06,-21.863,0.00018899
10559,0.091176,4,0,0.00054563,5452.5,0.00020212,-1403.1,3.4567e-07,-2919.2,-0.00060311,-7453.3,7.1303e-05
10560,0.18235,3.7273,0,0.00072354,7230.4,0.00040845,1014.5,4.8412e-07,-2050.8,-0.00069064,-7243.6,0.00022906
10561,0.18235,3.8182,0.05,3.2211e-06,32.189,2.4734e-06,18.584,-7.8703e-12,5.129e-05,-2.4734e-06,-18.584,0.00019001
10562,0.091176,3.8182,0,0.00054936,5489.8,0.00020367,-1410.2,2.5411e-07,-2938.6,-0.00060713,-7502.2,7.1669e-05
10563,0.18235,3.5455,0,0.000727,7265,0.00041033,1016.9,3.5809e-07,-2063.5,-0.00069402,-7280.7,0.00022979
10564,0.18235,3.6364,0.05,2.7485e-06,27.466,2.1105e-06,15.857,-8.807e-12,2.3107e-05,-2.1105e-06,-15.857,0.00019069
10565,0.091176,3.6364,0,0.000552,5516.2,0.00020478,-1414.9,1.8593e-07,-2952.2,-0.00060997,-7536.6,7.1913e-05
10566,0.18235,3.3636,0,0.0007293,7288,0.00041158,1018.3,2.7269e-07,-2072.1,-0.00069627,-7305.6,0.00023025
10567,0.18235,3.4545,0.05,2.382e-06,23.804,1.8291e-06,13.743,-7.8781e-12,-1.2932e-05,-1.8291e-06,-13.743,0.00019113
10568,0.091176,3.4545,0,0.00055379,5534.1,0.00020555,-1417.9,1.3756e-07,-2961.3,-0.00061189,-7559.8,7.2069e-05
10569,0.18235,3.1818,0,0.00073062,7301.1,0.00041229,1019,2.2331e-07,-2077.1,-0.00069756,-7320,0.0002305
10570,0.18235,3.2727,0.05,2.1313e-06,21.298,1.6366e-06,12.297,-5.6016e-12,-2.23e-05,-1.6366e-06,-12.296,0.0001914
10571,0.091176,3.2727,0,0.00055489,5545.1,0.00020603,-1419.6,1.0663e-07,-2966.8,-0.00061307,-7574,7.2159e-05
10572,0.18235,3,0,0.00073104,7305.4,0.00041252,1019.3,2.0716e-07,-2078.7,-0.00069798,-7324.6,0.00023058
10573,0.18235,3.0909,0.05,2.0038e-06,20.024,1.5386e-06,11.561,-1.9232e-12,-8.4114e-06,-1.5386e-06,-11.561,0.00019152
10574,0.091176,3.0909,0,0.00055542,5550.4,0.00020626,-1420.4,9.1588e-08,-2969.5,-0.00061363,-7580.7,7.2201e-05
10575,0.18235,2.8182,0,0.00073062,7301.1,0.00041229,1019,2.2331e-07,-2077.1,-0.00069756,-7320,0.0002305
10576,0.18235,2.9091,0.05,2.0038e-06,20.024,1.5386e-06,11.561,2.3207e-12,8.4346e-06,-1.5386e-06,-11.561,0.00019152
10577,0.091176,2.9091,0,0.00055542,5550.4,0.00020626,-1420.4,9.1589e-08,-2969.5,-0.00061363,-7580.7,7.2201e-05
10578,0.18235,2.6364,0,0.0007293,7288,0.00041158,1018.3,2.727e-07,-2072.1,-0.00069627,-7305.6,0.00023025
10579,0.18235,2.7273,0.05,2.1313e-06,21.298,1.6366e-06,12.296,6.0237e-12,2.1131e-05,-1.6366e-06,-12.297,0.0001914
10580,0.091176,2.7273,0,0.00055489,5545.1,0.00020603,-1419.6,1.0664e-07,-2966.8,-0.00061307,-7574,7.2159e-05
10581,0.18235,2.4545,0,0.000727,7265,0.00041033,1016.9,3.5811e-07,-2063.5,-0.00069402,-7280.7,0.00022979
10582,0.18235,2.5455,0.05,2.382e-06,23.804,1.8291e-06,13.743,8.0979e-12,-3.6161e-05,-1.8291e-06,-13.743,0.00019113
10583,0.091176,2.5455,0,0.00055379,5534.1,0.00020555,-1417.9,1.3756e-07,-2961.3,-0.00061189,-7559.8,7.2069e-05
10584,0.18235,2.2727,0,0.00072354,7230.4,0.00040845,1014.5,4.8413e-07,-2050.8,-0.00069064,-7243.6,0.00022906
10585,0.18235,2.3636,0.05,2.7485e-06,27.466,2.1105e-06,15.857,8.5494e-12,1.138e-06,-2.1105e-06,-15.858,0.00019069
10586,0.091176,2.3636,0,0.000552,5516.2,0.00020478,-1414.9,1.8594e-07,-2952.2,-0.00060997,-7536.7,7.1913e-05
10587,0.18235,2.0909,0,0.00071868,7181.9,0.00040578,1010.7,6.5786e-07,-2033.2,-0.00068591,-7191.8,0.00022797
10588,0.18235,2.1818,0.05,3.2211e-06,32.189,2.4734e-06,18.584,7.3217e-12,-5.4424e-05,-2.4734e-06,-18.584,0.00019001
10589,0.091176,2.1818,0,0.00054936,5489.8,0.00020367,-1410.2,2.5412e-07,-2938.6,-0.00060713,-7502.2,7.1669e-05
10590,0.18235,1.9091,0,0.00071209,7116,0.00040213,1005,8.9093e-07,-2009.7,-0.00067952,-7122,0.0002264
10591,0.18235,2,0.05,3.7894e-06,37.868,2.9098e-06,21.863,5.8152e-12,-0.00011048,-2.9098e-06,-21.863,0.00018899
10592,0.091176,2,0,0.00054563,5452.6,0.00020212,-1403.1,3.4568e-07,-2919.2,-0.00060311,-7453.3,7.1303e-05
10593,0.18235,1.7273,0,0.0007033,7028.2,0.00039723,996.68,1.2042e-06,-1978.9,-0.00067103,-7029.8,0.00022421
10594,0.18235,1.8182,0.05,4.4432e-06,44.402,3.4119e-06,25.635,1.047e-12,-0.00011552,-3.4119e-06,-25.636,0.00018753
10595,0.091176,1.8182,0,0.00054051,5401.4,0.00020002,-1392.8,4.6671e-07,-2892.2,-0.00059755,-7385.4,7.0771e-05
10596,0.18235,1.5455,0,0.00069174,6912.6,0.00039073,984.72,1.6371e-06,-1938.7,-0.0006599,-6909.3,0.00022117
10597,0.18235,1.6364,0.05,5.1744e-06,51.708,3.9733e-06,29.854,-2.35e-12,-0.00016095,-3.9733e-06,-29.854,0.00018547
10598,0.091176,1.6364,0,0.00053358,5332.1,0.00019722,-1378.1,6.2858e-07,-2855.2,-0.00059001,-7293,7.0015e-05
10599,0.18235,1.3636,0,0.0006766,6761.4,0.00038213,967.9,2.2664e-06,-1886.3,-0.00064539,-6752.6,0.00021703
10600,0.18235,1.4545,0.05,5.9799e-06,59.758,4.5918e-06,34.501,-1.149e-11,-0.00021318,-4.5918e-06,-34.501,0.00018262
10601,0.091176,1.4545,0,0.00052432,5239.6,0.00019352,-1357.5,8.5312e-07,-2805.1,-0.0005799,-7168.7,6.8962e-05
10602,0.18235,1.1818,0,0.00065683,6563.7,0.00037078,944.51,3.245e-06,-1817,-0.00062652,-6548.8,0.0002114
10603,0.18235,1.2727,0.05,6.8669e-06,68.622,5.2729e-06,39.619,-1.7246e-11,-0.00025659,-5.2729e-06,-39.619,0.00017871
10604,0.091176,1.2727,0,0.000512,5116.5,0.00018864,-1329,1.1839e-06,-2737.5,-0.00056642,-7002.2,6.7511e-05
10605,0.18235,1,0,0.00063087,6304.3,0.00035562,911.83,4.9121e-06,-1723.2,-0.00060189,-6282.5,0.00020375
10606,0.18235,1.0909,0.05,7.8615e-06,78.561,6.0367e-06,45.357,-2.3249e-11,-0.00032668,-6.0367e-06,-45.357,0.00017338
10607,0.091176,1.0909,0,0.00049563,4952.9,0.00018218,-1289.8,1.7081e-06,-2645.8,-0.00054845,-6779.4,6.5519e-05
10608,0.18235,0.81818,0,0.00059651,5961,0.00033505,865.88,8.0344e-06,-1591.2,-0.00056955,-5931,0.00019317
10609,0.18235,0.90909,0.05,9.0331e-06,90.268,6.9363e-06,52.116,-3.5481e-11,-0.00037653,-6.9363e-06,-52.117,0.00016604
10610,0.091176,0.90909,0,0.0004737,4733.7,0.00017351,-1235.5,2.6344e-06,-2519.4,-0.00052432,-6478.7,6.2765e-05
10611,0.18235,0.63636,0,0.0005507,5503.2,0.00030611,796.86,1.4903e-05,-1391.2,-0.00052713,-5463.8,0.00017812
10612,0.18235,0.72727,0.05,1.0537e-05,105.29,8.0908e-06,60.791,-4.7579e-11,-0.0004754,-8.0908e-06,-60.791,0.0001557
10613,0.091176,0.72727,0,0.00044391,4436,0.00016166,-1158.1,4.4217e-06,-2339.5,-0.00049144,-6065.3,5.887e-05
10614,0.18235,0.45455,0,0.00049047,4901.3,0.00026396,689.35,3.1394e-05,-1058,-0.00047278,-4846.2,0.00015544
10615,0.18235,0.54545,0.05,1.3214e-05,132.05,1.0147e-05,76.239,-5.6942e-11,-0.0005431,-1.0147e-05,-76.239,0.00014049
10616,0.091176,0.54545,0,0.00040247,4021.9,0.00014468,-1043.2,8.6775e-06,-2065.1,-0.00044548,-5477.5,5.3083e-05
10617,0.18235,0.27273,0,0.00042737,4270.8,0.00019899,464.33,7.9362e-05,-434.52,-0.0004197,-4184.3,0.00011811
10618,0.18235,0.36364,0.05,1.8514e-05,185.02,1.4217e-05,106.82,-5.3859e-11,-0.00054411,-1.4217e-05,-106.82,0.00011598
10619,0.091176,0.36364,0,0.00034463,3444,0.0001199,-848.91,2.0262e-05,-1597.5,-0.00038009,-4605.6,4.3868e-05
10620,0.18235,0.18182,0.05,2.8849e-05,288.29,2.2152e-05,166.44,-3.7549e-11,-0.0004151,-2.2152e-05,-166.44,7.0582e-05
10621,0.18235,0.090909,0,0.00038507,3848,0.00013993,212.37,0.00012469,97.914,-0.00037966,-3691.6,5.4683e-05
10622,0.091176,0.18182,0,0.00027407,2738.8,8.5179e-05,-427.68,5.9779e-05,-618.53,-0.00029136,-3256.9,2.7065e-05
10623,3.5419,5.8182,0,0.00012545,1253.6,5.2421e-05,122.09,3.3424e-05,-20.646,-0.00012311,-1196.8,0.068185
10624,3.4501,5.7273,0,0.00012515,1250.7,6.1338e-05,235.6,2.728e-05,-20.301,-0.00011951,-1123.2,0.062181
10625,3.4501,5.8182,0.05,1.3482e-05,134.73,1.0353e-05,77.786,-3.0048e-12,-8.9356e-06,-1.0353e-05,-77.786,0.061168
10626,3.4501,5.9091,0,8.0035e-05,799.8,3.219e-05,59.723,2.1874e-05,-17.785,-7.9039e-05,-776.01,0.060392
10627,3.3584,5.8182,0,7.1191e-05,711.42,2.9377e-05,71.879,1.9902e-05,0.68746,-6.9689e-05,-672.46,0.0544
10628,3.7254,5.8182,0,0.00018021,1800.8,6.8947e-05,110.93,5.3366e-05,-6.1375,-0.00017814,-1745.6,0.08204
10629,3.6336,5.7273,0,0.00016535,1652.4,6.68e-05,144.01,4.6632e-05,-7.5157,-0.00016251,-1578.9,0.075972
10630,3.6336,5.8182,0.05,1.1988e-05,119.8,9.2054e-06,69.166,-6.3167e-13,-6.5022e-06,-9.2054e-06,-69.166,0.075003
10631,3.6336,5.9091,0,0.00014012,1400.2,5.0345e-05,48.76,4.371e-05,-1.0952,-0.00013924,-1375.7,0.074226
10632,3.9088,5.8182,0,0.0002319,2317.4,8.6052e-05,113.43,7.064e-05,-2.3626,-0.0002298,-2259.7,0.096003
10633,3.8171,5.7273,0,0.00021628,2161.3,8.2749e-05,134.98,6.4219e-05,-4.2473,-0.00021372,-2092.5,0.08985
10634,3.8171,5.8182,0.05,1.1074e-05,110.66,8.5033e-06,63.891,-2.0293e-13,6.7524e-06,-8.5033e-06,-63.891,0.088921
10635,3.8171,5.9091,0,0.00019668,1965.5,6.9607e-05,56.101,6.2047e-05,-0.69856,-0.00019568,-1937.1,0.088151
10636,4.0923,5.8182,0,0.00027714,2769.5,0.00010077,111.78,8.5823e-05,-0.49418,-0.00027508,-2712.2,0.11011
10637,4.0006,5.7273,0,0.00026362,2634.4,9.8265e-05,135.04,8.0094e-05,-1.491,-0.00026108,-2565,0.10386
10638,4.0006,5.8182,0.05,9.9537e-06,99.468,7.6432e-06,57.428,1.9206e-12,8.0334e-06,-7.6432e-06,-57.428,0.10296
10639,4.0006,5.9091,0,0.00024681,2466.4,8.645e-05,60.116,7.846e-05,0.083126,-0.00024574,-2435.8,0.1022
10640,4.2758,5.8182,0,0.00031547,3152.5,0.00011284,105.07,9.8865e-05,0.084308,-0.00031355,-3098.7,0.1244
10641,4.1841,5.7273,0,0.00030463,3044.2,0.00011145,131.2,9.3906e-05,-0.62597,-0.00030219,-2976.8,0.11803
10642,4.1841,5.8182,0.05,8.7042e-06,86.982,6.6838e-06,50.219,1.3535e-13,7.6405e-06,-6.6838e-06,-50.219,0.11716
10643,4.1841,5.9091,0,0.00028991,2897.1,0.0001006,59.243,9.2723e-05,0.02866,-0.00028885,-2867,0.11642
10644,4.4593,5.8182,0,0.00034711,3468.7,0.00012245,95.075,0.00010983,0.25804,-0.00034539,-3420.1,0.13889
10645,4.3676,5.7273,0,0.00033884,3386,0.00012202,122.61,0.00010567,-0.24409,-0.00033659,-3323.2,0.13239
10646,4.3676,5.8182,0.05,7.4242e-06,74.191,5.7009e-06,42.834,-1.9726e-12,3.0061e-06,-5.7009e-06,-42.834,0.13156
10647,4.3676,5.9091,0,0.00032603,3258.1,0.0001122,55.269,0.00010484,0.026994,-0.00032506,-3230.1,0.13083
10648,4.6428,5.8182,0,0.00037258,3723.2,0.00012988,83.379,0.00011882,0.25218,-0.00037108,-3680.7,0.15362
10649,4.551,5.7273,0,0.00036653,3662.8,0.00013015,110.46,0.00011543,-0.12256,-0.00036453,-3606.3,0.14698
10650,4.551,5.8182,0.05,6.1923e-06,61.881,4.755e-06,35.727,-3.2195e-12,-4.9674e-07,-4.755e-06,-35.727,0.14617
10651,4.551,5.9091,0,0.00035556,3553.2,0.00012146,49.503,0.00011487,-0.0054038,-0.0003547,-3528.2,0.14545
10652,4.8263,5.8182,0,0.00039257,3922.9,0.00013547,71.219,0.00012602,0.19731,-0.0003913,-3886.8,0.16859
10653,4.7345,5.7273,0,0.00038835,3880.8,0.00013618,96.364,0.00012335,-0.081454,-0.00038662,-3831.8,0.16181
10654,4.7345,5.8182,0.05,5.0619e-06,50.584,3.8869e-06,29.205,-7.9738e-12,-4.3137e-06,-3.8869e-06,-29.205,0.16101
10655,4.7345,5.9091,0,0.00037912,3788.6,0.0001287,42.967,0.00012298,-0.018217,-0.00037838,-3767,0.16031
10656,5.0097,5.8182,0,0.00040782,4075.4,0.00013953,59.439,0.00013164,0.13803,-0.00040677,-4045.3,0.18382
10657,4.918,5.7273,0,0.00040507,4047.9,0.00014048,81.693,0.0001296,-0.070071,-0.00040362,-4006.5,0.17689
10658,4.918,5.8182,0.05,4.0609e-06,40.581,3.1183e-06,23.43,-6.2091e-12,-5.8096e-06,-3.1183e-06,-23.43,0.17612
10659,4.918,5.9091,0,0.00039744,3971.7,0.00013419,36.346,0.00012935,-0.021051,-0.00039681,-3953.4,0.17542
10660,5.1932,5.8182,0,0.00041906,4187.8,0.00014234,48.558,0.00013589,0.091051,-0.00041822,-4163.2,0.19932
10661,5.1015,5.7273,0,0.00041747,4171.9,0.00014339,67.435,0.00013441,-0.064685,-0.00041629,-4137.8,0.19225
10662,5.1015,5.8182,0.05,3.1986e-06,31.964,2.4562e-06,18.455,-8.0993e-12,-7.6523e-06,-2.4562e-06,-18.455,0.19148
10663,5.1015,5.9091,0,0.00041127,4109.9,0.00013823,30.069,0.00013423,-0.015127,-0.00041075,-4094.8,0.1908
10664,5.3767,5.8182,0,0.00042698,4266.8,0.00014414,38.845,0.00013898,0.058626,-0.0004263,-4247.2,0.21511
10665,5.285,5.7273,0,0.00042628,4259.9,0.0001452,54.216,0.00013797,-0.059135,-0.00042534,-4232.5,0.20788
10666,5.285,5.8182,0.05,2.4717e-06,24.7,1.898e-06,14.261,-7.9886e-12,-7.2347e-06,-1.898e-06,-14.261,0.20713
10667,5.285,5.9091,0,0.00042133,4210.4,0.00014107,24.372,0.00013783,-0.0044153,-0.00042091,-4198.2,0.20645
10668,5.5602,5.8182,0,0.00043215,4318.5,0.00014515,30.4,0.0001411,0.038199,-0.00043163,-4303.2,0.23118
10669,5.4684,5.7273,0,0.00043215,4318.5,0.00014615,42.383,0.0001405,-0.052418,-0.00043141,-4297.2,0.2238
10670,5.4684,5.8182,0.05,1.8696e-06,18.683,1.4357e-06,10.787,-1.1463e-11,-5.8075e-06,-1.4356e-06,-10.787,0.22306
10671,5.4684,5.9091,0,0.00042826,4279.7,0.00014294,19.361,0.00014037,0.0086476,-0.00042793,-4270,0.22239
10672,5.7437,5.8182,0,0.0004351,4348,0.00014552,23.215,0.00014243,0.025815,-0.0004347,-4336.3,0.24754
10673,5.6519,5.7273,0,0.00043562,4353.2,0.00014643,32.075,0.00014216,-0.045717,-0.00043507,-4337.1,0.24001
10674,5.6519,5.8182,0.05,1.3783e-06,13.774,1.0584e-06,7.9525,-9.4383e-12,-4.985e-06,-1.0584e-06,-7.9523,0.23928
10675,5.6519,5.9091,0,0.00043264,4323.5,0.00014403,15.061,0.00014203,0.022269,-0.00043239,-4315.9,0.23861
10676,5.9271,5.8182,0,0.00043626,4359.5,0.0001454,17.217,0.00014311,0.017583,-0.00043596,-4350.9,0.26419
10677,5.8354,5.7273,0,0.00043718,4368.8,0.00014622,23.3,0.00014311,-0.040872,-0.00043678,-4357.1,0.25651
10678,5.8354,5.8182,0.05,9.8291e-07,9.8223,7.5477e-07,5.6711,-9.4075e-12,-3.2163e-06,-7.5474e-07,-5.6707,0.25579
10679,5.8354,5.9091,0,0.00043495,4346.5,0.00014449,11.446,0.00014297,0.03534,-0.00043476,-4340.8,0.25513
10680,6.1106,5.8182,0,0.00043598,4356.7,0.0001449,12.302,0.00014326,0.0098393,-0.00043576,-4350.6,0.28114
10681,6.0189,5.7273,0,0.00043721,4369,0.00014561,15.985,0.00014348,-0.040451,-0.00043693,-4361,0.2733
10682,6.0189,5.8182,0.05,6.6895e-07,6.6849,5.1368e-07,3.8598,-1.1062e-11,-1.9122e-06,-5.1367e-07,-3.8593,0.27259
10683,6.0189,5.9091,0,0.0004356,4352.9,0.00014445,8.4632,0.00014333,0.047174,-0.00043545,-4348.7,0.27193
10684,6.2941,5.8182,0,0.00043455,4342.5,0.0001441,8.353,0.00014299,-0.0015403,-0.00043441,-4338.4,0.29838
10685,6.2024,5.7273,0,0.00043602,4357.2,0.00014472,10.012,0.00014339,-0.049451,-0.00043585,-4352.2,0.29039
10686,6.2024,5.8182,0.05,4.2374e-07,4.2345,3.2539e-07,2.445,-1.2645e-11,-3.2827e-07,-3.2537e-07,-2.4446,0.28968
10687,6.2024,5.9091,0,0.00043491,4346.1,0.00014402,6.0484,0.00014322,0.057314,-0.0004348,-4343,0.28903
10688,6.4776,5.8182,0,0.00043223,4319.3,0.00014308,5.2543,0.00014237,-0.023452,-0.00043214,-4316.7,0.31591
10689,6.3858,5.7273,0,0.00043387,4335.7,0.00014362,5.2551,0.00014291,-0.084239,-0.00043378,-4333.1,0.30777
10690,6.3858,5.8182,0.05,2.3762e-07,2.3745,1.8247e-07,1.3711,-1.2787e-11,1.4263e-05,-1.8245e-07,-1.3707,0.30707
10691,6.3858,5.9091,0,0.00043316,4328.6,0.00014329,4.1334,0.00014274,0.065287,-0.00043309,-4326.5,0.30643
10692,6.6611,5.8182,0,0.0004292,4289,0.00014188,2.907,0.00014149,-0.074191,-0.00042915,-4287.6,0.33374
10693,6.5693,5.7273,0,0.00043097,4306.8,0.00014237,1.684,0.00014212,-0.26361,-0.00043095,-4306,0.32544
10694,6.5693,5.8182,0.05,1.1118e-07,1.1111,8.5379e-08,0.64162,5.418e-12,0.00015583,-8.5373e-08,-0.64135,0.32475
10695,6.5693,5.9091,0,0.00043058,4302.8,0.00014231,2.6522,0.00014197,0.070113,-0.00043053,-4301.5,0.32411
10696,6.8445,5.8182,0,0.00042562,4253.2,0.00014057,1.2763,0.00014037,-0.22709,-0.0004256,-4252.7,0.35185
10697,6.7528,5.7273,0,0.00042749,4272,0.00014118,0.27325,0.00014092,-1.7067,-0.00042752,-4272.7,0.34341
10698,6.7528,5.8182,0.05,8.8005e-08,0.87944,6.7564e-08,0.50776,3.3859e-11,0.00040539,-6.7589e-08,-0.50773,0.34272
10699,6.7528,5.9091,0,0.00042734,4270.5,0.00014115,1.5454,0.00014095,0.068728,-0.00042732,-4269.7,0.34208
10700,7.028,5.8182,0,0.0004216,4213.1,0.0001392,0.48845,0.00013905,-0.70597,-0.00042161,-4213.2,0.37025
10701,6.9363,5.7273,0,0.00042356,4232.6,0.00013997,0.1338,0.00013946,-3.6595,-0.00042362,-4234.4,0.36166
10702,6.9363,5.8182,0.05,1.4113e-07,1.4103,1.0837e-07,0.81434,1.6035e-11,0.00021719,-1.0837e-07,-0.81413,0.36097
10703,6.9363,5.9091,0,0.0004236,4233,0.00013985,0.76893,0.00013975,0.048212,-0.00042358,-4232.6,0.36034
10704,7.2115,5.8182,0,0.00041726,4169.7,0.00013778,0.28465,0.00013757,-1.3386,-0.00041727,-4170.2,0.38893
10705,7.1198,5.7273,0,0.00041927,4189.8,0.00013862,0.09903,0.00013793,-5.0784,-0.00041936,-4192.3,0.38019
10706,7.1198,5.8182,0.05,1.9132e-07,1.9118,1.4691e-07,1.104,7.4946e-12,0.00016522,-1.469e-07,-1.1036,0.37951
10707,7.1198,5.9091,0,0.00041945,4191.6,0.00013845,0.33583,0.0001384,-0.055358,-0.00041944,-4191.5,0.37889
10708,7.395,5.8182,0,0.00041266,4123.7,0.00013628,0.22702,0.00013602,-1.7629,-0.00041268,-4124.5,0.40789
10709,7.3032,5.7273,0,0.00041472,4144.4,0.00013716,0.083841,0.00013635,-5.9878,-0.00041482,-4147.3,0.39901
10710,7.3032,5.8182,0.05,2.275e-07,2.2734,1.747e-07,1.3127,2.3277e-13,0.00011482,-1.7469e-07,-1.3124,0.39834
10711,7.3032,5.9091,0,0.000415,4147.1,0.00013698,0.22607,0.00013692,-0.26673,-0.000415,-4147.1,0.39772
10712,7.5785,5.8182,0,0.00040787,4075.9,0.00013471,0.209,0.00013442,-1.938,-0.0004079,-4076.7,0.42713
10713,7.4867,5.7273,0,0.00040997,4096.9,0.00013562,0.07524,0.00013475,-6.4708,-0.00041008,-4100.1,0.41811
10714,7.4867,5.8182,0.05,2.5082e-07,2.5065,1.9261e-07,1.4472,3.7687e-13,8.9049e-05,-1.9259e-07,-1.447,0.41744
10715,7.4867,5.9091,0,0.00041031,4100.3,0.00013544,0.21983,0.00013536,-0.40506,-0.00041031,-4100.3,0.41682
10716,7.7619,5.8182,0,0.00040293,4026.6,0.00013308,0.20983,0.0001328,-1.8994,-0.00040296,-4027.4,0.44665
10717,7.6702,5.7273,0,0.00040507,4047.9,0.000134,0.069565,0.00013312,-6.6066,-0.00040518,-4051.1,0.43748
10718,7.6702,5.8182,0.05,2.6368e-07,2.635,2.0248e-07,1.5214,-3.7006e-12,8.1968e-05,-2.0247e-07,-1.5212,0.43682
10719,7.6702,5.9091,0,0.00040544,4051.6,0.00013384,0.24619,0.00013375,-0.43302,-0.00040545,-4051.7,0.43621
10720,7.9454,5.8182,0,0.00039789,3976.2,0.00013141,0.22674,0.00013115,-1.6924,-0.00039792,-3976.9,0.46643
10721,7.8537,5.7273,0,0.00040005,3997.7,0.00013234,0.065477,0.00013147,-6.4653,-0.00040016,-4000.9,0.45712
10722,7.8537,5.8182,0.05,2.6836e-07,2.6818,2.0608e-07,1.5485,-1.7422e-12,7.6322e-05,-2.0606e-07,-1.5482,0.45647
10723,7.8537,5.9091,0,0.00040045,4001.7,0.00013219,0.30411,0.0001321,-0.37831,-0.00040045,-4001.7,0.45586
10724,8.1289,5.8182,0,0.00039278,3925.1,0.00012971,0.2663,0.00012949,-1.3641,-0.0003928,-3925.6,0.48648
10725,8.0372,5.7273,0,0.00039495,3946.8,0.00013064,0.062448,0.00012982,-6.1064,-0.00039506,-3949.8,0.47704
10726,8.0372,5.8182,0.05,2.6682e-07,2.6663,2.0489e-07,1.5395,-1.945e-12,7.5245e-05,-2.0487e-07,-1.5393,0.47639
10727,8.0372,5.9091,0,0.00039535,3950.8,0.00013051,0.41137,0.00013042,-0.28308,-0.00039535,-3950.7,0.47579
10728,8.3124,5.8182,0,0.00038761,3873.4,0.00012799,0.34995,0.00012781,-0.96966,-0.00038762,-3873.7,0.5068
10729,8.2206,5.7273,0,0.0003898,3895.3,0.00012892,0.060306,0.00012816,-5.5803,-0.00038989,-3898.1,0.49722
10730,8.2206,5.8182,0.05,2.6062e-07,2.6044,2.0013e-07,1.5038,-5.037e-12,7.3516e-05,-2.0012e-07,-1.5035,0.49657
10731,8.2206,5.9091,0,0.00039019,3899.2,0.00012882,0.5909,0.00012872,-0.19073,-0.00039018,-3899,0.49598
10732,8.4959,5.8182,0,0.0003824,3821.4,0.00012627,0.53106,0.00012612,-0.59077,-0.0003824,-3821.4,0.52738
10733,8.4041,5.7273,0,0.00038461,3843.4,0.00012717,0.059106,0.00012651,-4.9293,-0.00038469,-3845.9,0.51766
10734,8.4041,5.8182,0.05,2.5104e-07,2.5087,1.9278e-07,1.4485,-6.6548e-13,7.5726e-05,-1.9276e-07,-1.4483,0.51702
10735,8.4041,5.9091,0,0.00038497,3847.1,0.00012712,0.84859,0.00012699,-0.12425,-0.00038496,-3846.7,0.51643
10736,8.6794,5.8182,0,0.00037718,3769.2,0.00012456,0.88444,0.0001244,-0.32537,-0.00037717,-3768.9,0.54821
10737,8.5876,5.7273,0,0.00037939,3791.3,0.00012541,0.05913,0.00012485,-4.1882,-0.00037946,-3793.4,0.53836
10738,8.5876,5.8182,0.05,2.391e-07,2.3894,1.8361e-07,1.3796,-4.3731e-12,7.4032e-05,-1.8359e-07,-1.3794,0.53773
10739,8.5876,5.9091,0,0.00037973,3794.7,0.00012541,1.1688,0.00012525,-0.082134,-0.00037971,-3794.1,0.53715
10740,8.8628,5.8182,0,0.00037194,3716.8,0.00012287,1.4045,0.00012265,-0.18681,-0.00037192,-3716.2,0.5693
10741,8.7711,5.7273,0,0.00037416,3739,0.00012365,0.061053,0.00012319,-3.3861,-0.00037422,-3740.7,0.55931
10742,8.7711,5.8182,0.05,2.2559e-07,2.2543,1.7323e-07,1.3017,-2.107e-12,7.5504e-05,-1.7322e-07,-1.3014,0.55869
10743,8.7711,5.9091,0,0.00037447,3742.1,0.0001237,1.5313,0.00012349,-0.055787,-0.00037444,-3741.3,0.55811
10744,9.0463,5.8182,0,0.0003667,3664.4,0.00012118,2.0189,0.0001209,-0.11797,-0.00036666,-3663.5,0.59064
10745,8.9546,5.7273,0,0.00036893,3686.7,0.00012188,0.066511,0.00012153,-2.5475,-0.00036897,-3688,0.58052
10746,8.9546,5.8182,0.05,2.1112e-07,2.1097,1.6212e-07,1.2182,-2.8353e-12,7.5509e-05,-1.6211e-07,-1.2179,0.57991
10747,8.9546,5.9091,0,0.0003692,3689.4,0.000122,1.9202,0.00012174,-0.038808,-0.00036916,-3688.5,0.57933
10748,9.2298,5.8182,0,0.00036146,3612.1,0.00011951,2.6769,0.00011914,-0.080511,-0.00036141,-3610.8,0.61222
10749,9.1381,5.7273,0,0.00036369,3634.4,0.00012011,0.08034,0.00011987,-1.6955,-0.00036372,-3635.2,0.60198
10750,9.1381,5.8182,0.05,1.9616e-07,1.9603,1.5064e-07,1.1319,-7.0001e-13,7.3002e-05,-1.5062e-07,-1.1316,0.60137
10751,9.1381,5.9091,0,0.00036392,3636.7,0.00012029,2.3243,0.00011998,-0.027475,-0.00036389,-3635.6,0.6008
10752,9.4133,5.8182,0,0.00035623,3559.8,0.00011784,3.3527,0.00011738,-0.058058,-0.00035617,-3558.2,0.63405
10753,9.3215,5.7273,0,0.00035847,3582.2,0.00011835,0.12385,0.00011822,-0.86586,-0.00035848,-3582.6,0.62368
10754,9.3215,5.8182,0.05,1.8109e-07,1.8096,1.3906e-07,1.0449,-1.3722e-12,7.6494e-05,-1.3904e-07,-1.0446,0.62307
10755,9.3215,5.9091,0,0.00035866,3584.1,0.00011859,2.7354,0.00011822,-0.019682,-0.00035861,-3582.8,0.62251
10756,9.5968,5.8182,0,0.00035101,3507.6,0.00011617,4.0316,0.00011563,-0.043557,-0.00035094,-3505.7,0.65611
10757,9.505,5.7273,0,0.00035325,3530.1,0.00011661,0.35768,0.00011654,-0.23054,-0.00035325,-3530,0.64562
10758,9.505,5.8182,0.05,1.6616e-07,1.6605,1.276e-07,0.9588,-5.465e-13,6.7898e-05,-1.2758e-07,-0.95853,0.64502
10759,9.505,5.9091,0,0.0003534,3531.6,0.00011689,3.1476,0.00011647,-0.014205,-0.00035335,-3530,0.64447
10760,9.7802,5.8182,0,0.0003458,3455.6,0.00011451,4.7046,0.00011388,-0.033664,-0.00034572,-3453.3,0.67841
10761,9.6885,5.7273,0,0.00034805,3478.1,0.00011495,1.0429,0.0001148,-0.059144,-0.00034803,-3477.6,0.66779
10762,9.6885,5.8182,0.05,1.5158e-07,1.5148,1.164e-07,0.87468,-2.5697e-12,7.2049e-05,-1.1639e-07,-0.87442,0.6672
10763,9.6885,5.9091,0,0.00034816,3479.2,0.00011519,3.5565,0.00011472,-0.010292,-0.0003481,-3477.4,0.66666
10764,9.9637,5.8182,0,0.00034061,3403.8,0.00011285,5.3657,0.00011213,-0.026624,-0.00034052,-3401.1,0.70095
10765,9.872,5.7273,0,0.00034286,3426.3,0.0001133,1.8455,0.00011305,-0.024181,-0.00034283,-3425.4,0.6902
10766,9.872,5.8182,0.05,1.3749e-07,1.374,1.0558e-07,0.79339,-2.613e-12,7.2926e-05,-1.0557e-07,-0.79312,0.68962
10767,9.872,5.9091,0,0.00034293,3427,0.0001135,3.9589,0.00011297,-0.0074782,-0.00034286,-3425,0.68908
10768,10.147,5.8182,0,0.00033544,3352.1,0.0001112,6.0109,0.0001104,-0.021448,-0.00033534,-3349.1,0.72371
10769,10.055,5.7273,0,0.00033769,3374.6,0.00011166,2.647,0.00011131,-0.011681,-0.00033765,-3373.3,0.71284
10770,10.055,5.8182,0.05,1.2399e-07,1.239,9.5213e-08,0.71547,-3.2423e-13,7.3985e-05,-9.5199e-08,-0.71521,0.71227
10771,10.055,5.9091,0,0.00033772,3374.9,0.00011181,4.3525,0.00011123,-0.0054331,-0.00033765,-3372.7,0.71174
10772,10.331,5.8182,0,0.00033029,3300.6,0.00010955,6.6374,0.00010867,-0.017562,-0.00033018,-3297.3,0.7467
10773,10.239,5.7273,0,0.00033254,3323.1,0.00011002,3.4284,0.00010957,-0.0058989,-0.00033248,-3321.4,0.73571
10774,10.239,5.8182,0.05,1.1114e-07,1.1106,8.5344e-08,0.64132,-1.4646e-12,6.7475e-05,-8.5334e-08,-0.64108,0.73515
10775,10.239,5.9091,0,0.00033253,3323,0.00011013,4.7356,0.0001095,-0.0039568,-0.00033245,-3320.7,0.73462
10776,10.514,5.8182,0,0.00032516,3249.3,0.00010791,7.2437,0.00010694,-0.01458,-0.00032503,-3245.7,0.7699
10777,10.422,5.7273,0,0.00032741,3271.8,0.00010839,4.1837,0.00010784,-0.002939,-0.00032733,-3269.7,0.7588
10778,10.422,5.8182,0.05,9.897e-08,0.98901,7.6001e-08,0.57113,-2.0467e-12,7.0522e-05,-7.5992e-08,-0.57089,0.75824
10779,10.422,5.9091,0,0.00032736,3271.4,0.00010846,5.1072,0.00010778,-0.0029293,-0.00032727,-3268.8,0.75773
10780,10.698,5.8182,0,0.00032004,3198.2,0.00010627,7.8289,0.00010523,-0.01223,-0.00031991,-3194.3,0.79333
10781,10.606,5.7273,0,0.00032229,3220.7,0.00010677,4.9104,0.00010611,-0.0013496,-0.00032221,-3218.2,0.78211
10782,10.606,5.8182,0.05,8.75e-08,0.8744,6.7197e-08,0.50498,-4.0481e-13,8.2955e-05,-6.7181e-08,-0.50469,0.78156
10783,10.606,5.9091,0,0.00032221,3219.9,0.00010679,5.4669,0.00010606,-0.0021944,-0.00032212,-3217.2,0.78105
10784,10.881,5.8182,0,0.00031495,3147.3,0.00010464,8.3927,0.00010352,-0.010342,-0.00031481,-3143.1,0.81697
10785,10.789,5.7273,0,0.0003172,3169.8,0.00010514,5.6075,0.0001044,-0.00050811,-0.0003171,-3167,0.80564
10786,10.789,5.8182,0.05,7.6738e-08,0.76685,5.8933e-08,0.44285,-3.8737e-13,6.3868e-05,-5.8917e-08,-0.44263,0.8051
10787,10.789,5.9091,0,0.00031708,3168.6,0.00010512,5.8141,0.00010435,-0.0016791,-0.00031698,-3165.7,0.80459
10788,11.065,5.8182,0,0.00030988,3096.7,0.00010301,8.935,0.00010182,-0.0088266,-0.00030973,-3092.2,0.84082
10789,10.973,5.7273,0,0.00031212,3119.1,0.00010352,6.2749,0.00010269,-9.5261e-05,-0.00031202,-3115.9,0.82938
10790,10.973,5.8182,0.05,6.6677e-08,0.66631,5.1208e-08,0.38481,-7.7708e-14,7.4924e-05,-5.1191e-08,-0.38458,0.82884
10791,10.973,5.9091,0,0.00031198,3117.6,0.00010347,6.1491,0.00010265,-0.0013174,-0.00031187,-3114.5,0.82835
10792,11.248,5.8182,0,0.00030483,3046.2,0.00010138,9.4564,0.00010012,-0.007611,-0.00030467,-3041.5,0.86488
10793,11.156,5.7273,0,0.00030707,3068.6,0.00010191,6.9129,0.00010099,-3.266e-06,-0.00030695,-3065.1,0.85333
10794,11.156,5.8182,0.05,5.7301e-08,0.57262,4.4007e-08,0.33072,-1.4061e-12,7.7242e-05,-4.3994e-08,-0.33049,0.8528
10795,11.156,5.9091,0,0.00030689,3066.8,0.00010181,6.4718,0.00010095,-0.001131,-0.00030678,-3063.6,0.85231
10796,11.432,5.8182,0,0.0002998,2995.9,9.9766e-05,9.9575,9.844e-05,-0.0065872,-0.00029963,-2990.9,0.88915
10797,11.34,5.7273,0,0.00030203,3018.3,0.0001003,7.5223,9.9298e-05,-8.5596e-05,-0.00030191,-3014.5,0.87748
10798,11.34,5.8182,0.05,4.8572e-08,0.48538,3.7301e-08,0.28035,-2.1059e-13,7.626e-05,-3.7293e-08,-0.28012,0.87696
10799,11.34,5.9091,0,0.00030183,3016.2,0.00010017,6.7827,9.9267e-05,-0.0010466,-0.00030171,-3012.8,0.87648
10800,11.615,5.8182,0,0.00029479,2945.9,9.8154e-05,10.439,9.6763e-05,-0.0057277,-0.00029461,-2940.7,0.91361
10801,11.523,5.7273,0,0.00029702,2968.2,9.8694e-05,8.1044,9.7615e-05,-0.00022837,-0.00029688,-2964.1,0.90184
10802,11.523,5.8182,0.05,4.0477e-08,0.40449,3.1087e-08,0.23364,1.5368e-12,7.329e-05,-3.1075e-08,-0.23343,0.90133
10803,11.523,5.9091,0,0.00029679,2965.8,9.8531e-05,7.0824,9.7588e-05,-0.0009885,-0.00029667,-2962.3,0.90085
10804,11.799,5.8182,0,0.00028981,2896.1,9.6546e-05,10.903,9.5095e-05,-0.0050177,-0.00028962,-2890.6,0.93827
10805,11.707,5.7273,0,0.00029203,2918.3,9.7093e-05,8.6604,9.594e-05,-0.00047833,-0.00029188,-2913.9,0.92639
10806,11.707,5.8182,0.05,3.2989e-08,0.32966,2.5334e-08,0.19044,-1.2145e-12,8.5131e-05,-2.5329e-08,-0.19022,0.92589
10807,11.707,5.9091,0,0.00029177,2915.7,9.6899e-05,7.3712,9.5918e-05,-0.0010255,-0.00029164,-2912,0.92542
10808,11.982,5.8182,0,0.00028484,2846.4,9.4945e-05,11.349,9.3434e-05,-0.0044086,-0.00028464,-2840.7,0.96313
10809,11.89,5.7273,0,0.00028706,2868.6,9.5496e-05,9.1916,9.4273e-05,-0.00076102,-0.0002869,-2864,0.95115
10810,11.89,5.8182,0.05,2.6068e-08,0.2605,2.0023e-08,0.1505,3.2334e-12,8.2476e-05,-2.0012e-08,-0.1503,0.95065
10811,11.89,5.9091,0,0.00028677,2865.7,9.5273e-05,7.65,9.4255e-05,-0.0010965,-0.00028664,-2861.9,0.95019
10812,12.165,5.8182,0,0.00027989,2797,9.3349e-05,11.779,9.1781e-05,-0.0038988,-0.00027969,-2791.1,0.98817
10813,12.074,5.7273,0,0.0002821,2819.1,9.3905e-05,9.6997,9.2614e-05,-0.0010606,-0.00028194,-2814.2,0.97609
10814,12.074,5.8182,0.05,1.9696e-08,0.19682,1.5128e-08,0.11374,2.3644e-12,9.5789e-05,-1.512e-08,-0.11353,0.9756
10815,12.074,5.9091,0,0.00028179,2816,9.3654e-05,7.9192,9.2599e-05,-0.0011908,-0.00028166,-2812,0.97515
10816,12.349,5.8182,0,0.00027497,2747.8,9.1758e-05,12.193,9.0135e-05,-0.0034659,-0.00027476,-2741.7,1.0134
10817,12.257,5.7273,0,0.00027717,2769.8,9.2318e-05,10.186,9.0962e-05,-0.0014015,-0.000277,-2764.7,1.0012
10818,12.257,5.8182,0.05,1.3838e-08,0.13828,1.0629e-08,0.079916,4.2443e-12,8.7199e-05,-1.0622e-08,-0.079756,1.0007
10819,12.257,5.9091,0,0.00027684,2766.5,9.2041e-05,8.1796,9.0952e-05,-0.0013366,-0.0002767,-2762.4,1.0003
10820,12.532,5.8182,0,0.00027007,2698.8,9.0174e-05,12.594,8.8497e-05,-0.003076,-0.00026985,-2692.5,1.0388
10821,12.441,5.7273,0,0.00027226,2720.8,9.0737e-05,10.652,8.9319e-05,-0.0017268,-0.00027208,-2715.4,1.0265
10822,12.441,5.8182,0.05,8.4838e-09,0.08478,6.5137e-09,0.049028,5.3288e-12,0.00011901,-6.5153e-09,-0.048867,1.0261
10823,12.441,5.9091,0,0.00027191,2717.2,9.0434e-05,8.4319,8.9312e-05,-0.0014786,-0.00027176,-2713,1.0256
10824,12.716,5.8182,0,0.00026518,2650,8.8595e-05,12.983,8.6867e-05,-0.0027195,-0.00026496,-2643.5,1.0644
10825,12.624,5.7273,0,0.00026737,2671.9,8.916e-05,11.1,8.7683e-05,-0.0020357,-0.00026718,-2666.3,1.052
10826,12.624,5.8182,0.05,3.7277e-09,0.037252,2.8587e-09,0.021547,9.3194e-12,0.0001695,-2.8662e-09,-0.021468,1.0516
10827,12.624,5.9091,0,0.000267,2668.1,8.8834e-05,8.6768,8.7679e-05,-0.001619,-0.00026685,-2663.8,1.0511
10828,12.899,5.8182,0,0.00026032,2601.4,8.7022e-05,13.36,8.5244e-05,-0.0024128,-0.00026009,-2594.7,1.0902
10829,12.808,5.7273,0,0.0002625,2623.2,8.7589e-05,11.531,8.6054e-05,-0.0023207,-0.00026231,-2617.4,1.0777
10830,12.808,5.8182,0.05,1.9798e-09,0.019785,1.5254e-09,0.011526,-2.9819e-12,4.0594e-05,-1.5151e-09,-0.011319,1.0773
10831,12.808,5.9091,0,0.00026211,2619.3,8.724e-05,8.9151,8.6053e-05,-0.0017481,-0.00026196,-2614.8,1.0768
10832,13.083,5.8182,0,0.00025548,2553.1,8.5456e-05,13.726,8.3628e-05,-0.0021586,-0.00025525,-2546.2,1.1161
10833,12.991,5.7273,0,0.00025766,2574.8,8.6024e-05,11.947,8.4434e-05,-0.0026348,-0.00025745,-2568.8,1.1036
10834,12.991,5.8182,0.05,5.5448e-09,0.05541,4.2644e-09,0.032091,-5.2074e-12,1.7108e-05,-4.251e-09,-0.031891,1.1031
10835,12.991,5.9091,0,0.00025724,2570.6,8.5653e-05,9.1472,8.4435e-05,-0.0019158,-0.00025708,-2566,1.1027
10836,13.266,5.8182,0,0.00025066,2504.9,8.3895e-05,14.083,8.202e-05,-0.0019131,-0.00025042,-2497.8,1.1423
10837,13.175,5.7273,0,0.00025283,2526.5,8.4464e-05,12.348,8.282e-05,-0.002939,-0.00025261,-2520.3,1.1296
10838,13.175,5.8182,0.05,9.2295e-09,0.092232,7.0923e-09,0.053356,-3.1925e-12,3.5001e-05,-7.0819e-09,-0.053144,1.1292
10839,13.175,5.9091,0,0.00025239,2522.2,8.4073e-05,9.3739,8.2825e-05,-0.002085,-0.00025223,-2517.5,1.1288
10840,13.45,5.8182,0,0.00024586,2456.9,8.234e-05,14.433,8.0419e-05,-0.0016887,-0.00024562,-2449.7,1.1686
10841,13.358,5.7273,0,0.00024802,2478.5,8.291e-05,12.737,8.1214e-05,-0.0031923,-0.0002478,-2472.1,1.1558
10842,13.358,5.8182,0.05,1.2622e-08,0.12613,9.698e-09,0.07292,-1.5809e-12,4.796e-05,-9.6855e-09,-0.07272,1.1554
10843,13.358,5.9091,0,0.00024757,2474,8.2499e-05,9.596,8.1221e-05,-0.0022138,-0.0002474,-2469.2,1.155
10844,13.633,5.8182,0,0.00024109,2409.2,8.0792e-05,14.775,7.8825e-05,-0.0014966,-0.00024083,-2401.8,1.195
10845,13.542,5.7273,0,0.00024323,2430.6,8.1361e-05,13.115,7.9615e-05,-0.0034694,-0.00024301,-2424,1.1822
10846,13.542,5.8182,0.05,1.5703e-08,0.15692,1.2063e-08,0.090698,-6.1801e-13,5.3811e-05,-1.2054e-08,-0.090503,1.1817
10847,13.542,5.9091,0,0.00024276,2426,8.0931e-05,9.814,7.9625e-05,-0.0023735,-0.00024259,-2421,1.1813
10848,13.817,5.8182,0,0.00023633,2361.7,7.925e-05,15.11,7.7239e-05,-0.0013155,-0.00023607,-2354.1,1.2216
10849,13.725,5.7273,0,0.00023846,2383,7.9819e-05,13.483,7.8024e-05,-0.0037278,-0.00023823,-2376.2,1.2087
10850,13.725,5.8182,0.05,1.8494e-08,0.18482,1.4205e-08,0.10679,-1.2703e-14,5.3303e-05,-1.4197e-08,-0.10662,1.2083
10851,13.725,5.9091,0,0.00023798,2378.1,7.9371e-05,10.029,7.8035e-05,-0.0025223,-0.00023781,-2373.1,1.2079
10852,14,5.8182,0,0.00023159,2314.3,7.7714e-05,15.441,7.5659e-05,-0.0011623,-0.00023132,-2306.6,1.2484
10853,13.909,5.7273,0,0.00023372,2335.6,7.8282e-05,13.842,7.6439e-05,-0.003972,-0.00023348,-2328.6,1.2354
10854,13.909,5.8182,0.05,2.1002e-08,0.20988,1.6131e-08,0.12125,2.0121e-15,5.2555e-05,-1.6123e-08,-0.12109,1.235
10855,13.909,5.9091,0,0.00023322,2330.5,7.7816e-05,10.24,7.6453e-05,-0.0026636,-0.00023304,-2325.4,1.2346
10856,14.184,5.8182,0,0.00022687,2267.2,7.6185e-05,15.768,7.4086e-05,-0.0010177,-0.0002266,-2259.3,1.2753
10857,14.092,5.7273,0,0.00022899,2288.3,7.6752e-05,14.194,7.4862e-05,-0.0042364,-0.00022875,-2281.2,1.2622
10858,14.092,5.8182,0.05,2.3251e-08,0.23235,1.7859e-08,0.1342,1.0138e-12,4.5083e-05,-1.7848e-08,-0.13409,1.2618
10859,14.092,5.9091,0,0.00022847,2283.2,7.6269e-05,10.449,7.4878e-05,-0.00283,-0.00022829,-2277.9,1.2614
10860,14.367,5.8182,0,0.00022218,2220.2,7.4662e-05,16.091,7.252e-05,-0.00086672,-0.0002219,-2212.2,1.3024
10861,14.276,5.7273,0,0.00022428,2241.3,7.5227e-05,14.54,7.3292e-05,-0.0044562,-0.00022403,-2234,1.2892
10862,14.276,5.8182,0.05,2.5256e-08,0.25239,1.9396e-08,0.14581,1.2313e-12,7.0148e-05,-1.9391e-08,-0.14563,1.2888
10863,14.276,5.9091,0,0.00022375,2236,7.4728e-05,10.657,7.3309e-05,-0.0029567,-0.00022357,-2230.6,1.2884
10864,14.551,5.8182,0,0.0002175,2173.5,7.3146e-05,16.413,7.0961e-05,-0.00074145,-0.00021722,-2165.3,1.3296
10865,14.459,5.7273,0,0.0002196,2194.5,7.3709e-05,14.881,7.1728e-05,-0.0046711,-0.00021934,-2187,1.3163
10866,14.459,5.8182,0.05,2.7023e-08,0.27005,2.0754e-08,0.15597,2.8675e-12,5.8375e-05,-2.0747e-08,-0.15585,1.316
10867,14.459,5.9091,0,0.00021905,2189,7.3194e-05,10.864,7.1748e-05,-0.0030816,-0.00021886,-2183.5,1.3156
10868,14.734,5.8182,0,0.00021285,2127,7.1636e-05,16.732,6.9409e-05,-0.00063147,-0.00021256,-2118.6,1.357
10869,14.642,5.7273,0,0.00021493,2147.8,7.2198e-05,15.218,7.0172e-05,-0.0049112,-0.00021467,-2140.2,1.3436
10870,14.642,5.8182,0.05,2.8577e-08,0.28557,2.1947e-08,0.16495,3.1747e-12,7.036e-05,-2.1941e-08,-0.1648,1.3433
10871,14.642,5.9091,0,0.00021437,2142.2,7.1667e-05,11.069,7.0193e-05,-0.003234,-0.00021418,-2136.7,1.3429
10872,14.918,5.8182,0,0.00020821,2080.7,7.0133e-05,17.051,6.7864e-05,-0.00051631,-0.00020792,-2072.1,1.3845
10873,14.826,5.7273,0,0.00021029,2101.4,7.0693e-05,15.552,6.8622e-05,-0.0051316,-0.00021002,-2093.6,1.3711
10874,14.826,5.8182,0.05,2.9933e-08,0.29912,2.2987e-08,0.17277,3.3597e-12,7.5783e-05,-2.2983e-08,-0.17263,1.3707
10875,14.826,5.9091,0,0.00020971,2095.7,7.0146e-05,11.275,6.8645e-05,-0.0033668,-0.00020952,-2090,1.3704
10876,15.101,5.8182,0,0.0002036,2034.6,6.8637e-05,17.37,6.6325e-05,-0.00039722,-0.0002033,-2025.8,1.4121
10877,15.009,5.7273,0,0.00020566,2055.2,6.9194e-05,15.884,6.7079e-05,-0.0053383,-0.00020539,-2047.2,1.3986
10878,15.009,5.8182,0.05,3.1099e-08,0.31078,2.3881e-08,0.17949,2.2659e-12,7.0335e-05,-2.388e-08,-0.17937,1.3983
10879,15.009,5.9091,0,0.00020507,2049.3,6.8632e-05,11.481,6.7104e-05,-0.0034888,-0.00020487,-2043.5,1.3979
10880,15.285,5.8182,0,0.000199,1988.7,6.7147e-05,17.69,6.4793e-05,-0.00028819,-0.0001987,-1979.8,1.4399
10881,15.193,5.7273,0,0.00020105,2009.2,6.7702e-05,16.216,6.5543e-05,-0.0055316,-0.00020077,-2001,1.4263
10882,15.193,5.8182,0.05,3.2088e-08,0.32066,2.464e-08,0.18519,3.52e-12,7.5974e-05,-2.464e-08,-0.18508,1.426
10883,15.193,5.9091,0,0.00020045,2003.1,6.7125e-05,11.687,6.5569e-05,-0.0035968,-0.00020025,-1997.3,1.4257
10884,15.468,5.8182,0,0.00019443,1942.9,6.5664e-05,18.011,6.3267e-05,-0.00019206,-0.00019412,-1933.9,1.4678
10885,15.376,5.7273,0,0.00019647,1963.3,6.6216e-05,16.548,6.4013e-05,-0.0057456,-0.00019618,-1955,1.4542
10886,15.376,5.8182,0.05,3.2913e-08,0.3289,2.5275e-08,0.18995,3.013e-12,7.6191e-05,-2.5271e-08,-0.18983,1.4538
10887,15.376,5.9091,0,0.00019585,1957.2,6.5625e-05,11.895,6.4041e-05,-0.0037243,-0.00019565,-1951.2,1.4535
10888,15.652,5.8182,0,0.00018988,1897.4,6.4189e-05,18.335,6.1748e-05,-9.565e-05,-0.00018956,-1888.2,1.4959
10889,15.56,5.7273,0,0.0001919,1917.7,6.4737e-05,16.881,6.249e-05,-0.0059565,-0.00019161,-1909.2,1.4822
10890,15.56,5.8182,0.05,3.3594e-08,0.33571,2.5796e-08,0.19387,4.7384e-12,7.8483e-05,-2.5796e-08,-0.19377,1.4818
10891,15.56,5.9091,0,0.00019127,1911.4,6.4131e-05,12.105,6.2519e-05,-0.0038461,-0.00019106,-1905.3,1.4815
10892,15.835,5.8182,0,0.00018534,1852.1,6.272e-05,18.661,6.0236e-05,-1.2357e-05,-0.00018502,-1842.7,1.5241
10893,15.743,5.7273,0,0.00018736,1872.3,6.3265e-05,17.215,6.0973e-05,-0.0061637,-0.00018706,-1863.6,1.5103
10894,15.743,5.8182,0.05,3.4141e-08,0.34117,2.6216e-08,0.19702,3.923e-12,7.4721e-05,-2.6216e-08,-0.19693,1.5099
10895,15.743,5.9091,0,0.00018671,1865.9,6.2644e-05,12.317,6.1004e-05,-0.0039627,-0.0001865,-1859.7,1.5096
10896,16.019,5.8182,0,0.00018083,1807,6.1258e-05,18.991,5.873e-05,7.0113e-05,-0.0001805,-1797.5,1.5523
10897,15.927,5.7273,0,0.00018283,1827.1,6.18e-05,17.553,5.9463e-05,-0.0063992,-0.00018253,-1818.2,1.5385
10898,15.927,5.8182,0.05,3.4575e-08,0.34552,2.655e-08,0.19952,6.1455e-12,7.0215e-05,-2.6549e-08,-0.19945,1.5382
10899,15.927,5.9091,0,0.00018218,1820.5,6.1164e-05,12.531,5.9496e-05,-0.004101,-0.00018196,-1814.2,1.5379
10900,16.202,5.8182,0,0.00017633,1762.1,5.9802e-05,19.326,5.723e-05,0.00016349,-0.000176,-1752.4,1.5808
10901,16.11,5.7273,0,0.00017833,1782.1,6.0342e-05,17.895,5.796e-05,-0.00661,-0.00017802,-1773.1,1.5668
10902,16.11,5.8182,0.05,3.4916e-08,0.34891,2.681e-08,0.20148,6.0091e-12,8.492e-05,-2.6811e-08,-0.20141,1.5665
10903,16.11,5.9091,0,0.00017766,1775.3,5.9691e-05,12.748,5.7994e-05,-0.0042137,-0.00017744,-1768.9,1.5662
10904,16.386,5.8182,0,0.00017186,1717.4,5.8354e-05,19.665,5.5737e-05,0.00024113,-0.00017152,-1707.5,1.6093
10905,16.294,5.7273,0,0.00017384,1737.2,5.8891e-05,18.241,5.6462e-05,-0.0068291,-0.00017353,-1728.1,1.5953
10906,16.294,5.8182,0.05,3.5175e-08,0.3515,2.7009e-08,0.20298,7.0591e-12,8.9946e-05,-2.7011e-08,-0.20291,1.595
10907,16.294,5.9091,0,0.00017316,1730.4,5.8225e-05,12.969,5.6498e-05,-0.0043267,-0.00017293,-1723.9,1.5947
10908,16.569,5.8182,0,0.00016741,1672.9,5.6913e-05,20.01,5.425e-05,0.00030987,-0.00016706,-1662.8,1.6379
10909,16.477,5.7273,0,0.00016938,1692.6,5.7447e-05,18.592,5.4971e-05,-0.0070819,-0.00016906,-1683.3,1.6239
10910,16.477,5.8182,0.05,3.5384e-08,0.3536,2.7169e-08,0.20418,7.3191e-12,8.9099e-05,-2.7172e-08,-0.20412,1.6236
10911,16.477,5.9091,0,0.00016868,1685.6,5.6765e-05,13.193,5.5009e-05,-0.0044658,-0.00016845,-1679,1.6233
10912,16.753,5.8182,0,0.00016297,1628.6,5.5479e-05,20.361,5.277e-05,0.00038562,-0.00016262,-1618.3,1.6667
10913,16.661,5.7273,0,0.00016493,1648.2,5.6009e-05,18.95,5.3486e-05,-0.0073322,-0.0001646,-1638.7,1.6526
10914,16.661,5.8182,0.05,3.5572e-08,0.35547,2.7313e-08,0.20526,8.8247e-12,8.4564e-05,-2.7317e-08,-0.20521,1.6523
10915,16.661,5.9091,0,0.00016422,1641.1,5.5313e-05,13.421,5.3526e-05,-0.0045944,-0.00016399,-1634.3,1.652
10916,16.936,5.8182,0,0.00015856,1584.5,5.4052e-05,20.718,5.1295e-05,0.00046699,-0.0001582,-1574,1.6956
10917,16.844,5.7273,0,0.00016051,1604,5.4579e-05,19.314,5.2008e-05,-0.007587,-0.00016017,-1594.2,1.6814
10918,16.844,5.8182,0.05,3.5769e-08,0.35745,2.7464e-08,0.20639,9.9312e-12,0.00011376,-2.7469e-08,-0.20635,1.6811
10919,16.844,5.9091,0,0.00015978,1596.7,5.3867e-05,13.654,5.2049e-05,-0.0047189,-0.00015954,-1589.8,1.6808
10920,17.119,5.8182,0,0.00015417,1540.6,5.2632e-05,21.083,4.9827e-05,0.00054069,-0.0001538,-1529.9,1.7245
10921,17.028,5.7273,0,0.0001561,1560,5.3157e-05,19.687,5.0535e-05,-0.0078471,-0.00015576,-1550,1.7103
10922,17.028,5.8182,0.05,3.6013e-08,0.35988,2.7651e-08,0.2078,9.2127e-12,0.00011001,-2.7657e-08,-0.20776,1.71
10923,17.028,5.9091,0,0.00015536,1552.5,5.2428e-05,13.891,5.0578e-05,-0.0048377,-0.00015512,-1545.5,1.7098
10924,17.303,5.8182,0,0.00014979,1496.9,5.122e-05,21.455,4.8364e-05,0.00060356,-0.00014941,-1486,1.7536
10925,17.211,5.7273,0,0.00015172,1516.1,5.1741e-05,20.068,4.9069e-05,-0.0081422,-0.00015137,-1506,1.7393
10926,17.211,5.8182,0.05,3.635e-08,0.36325,2.7909e-08,0.20974,8.5271e-12,0.00011863,-2.7916e-08,-0.20971,1.739
10927,17.211,5.9091,0,0.00015096,1508.5,5.0996e-05,14.133,4.9114e-05,-0.0049772,-0.00015071,-1501.4,1.7388
10928,17.486,5.8182,0,0.00014544,1453.3,4.9814e-05,21.835,4.6908e-05,0.00066474,-0.00014505,-1442.3,1.7828
10929,17.395,5.7273,0,0.00014735,1472.5,5.0332e-05,20.458,4.7608e-05,-0.0084527,-0.00014699,-1462.2,1.7684
10930,17.395,5.8182,0.05,3.6835e-08,0.36809,2.8282e-08,0.21253,1.0972e-11,0.00011143,-2.8288e-08,-0.21251,1.7681
10931,17.395,5.9091,0,0.00014658,1464.7,4.957e-05,14.381,4.7656e-05,-0.0051173,-0.00014633,-1457.5,1.7679
10932,17.67,5.8182,0,0.0001411,1410,4.8415e-05,22.223,4.5458e-05,0.00071223,-0.00014071,-1398.8,1.812
10933,17.578,5.7273,0,0.00014301,1429.1,4.8931e-05,20.858,4.6154e-05,-0.0087817,-0.00014264,-1418.5,1.7976
10934,17.578,5.8182,0.05,3.7523e-08,0.37497,2.881e-08,0.2165,1.0101e-11,0.00011543,-2.8816e-08,-0.21648,1.7974
10935,17.578,5.9091,0,0.00014221,1421.2,4.8152e-05,14.634,4.6203e-05,-0.0052599,-0.00014196,-1413.8,1.7971
10936,17.853,5.8182,0,0.00013678,1366.9,4.7024e-05,22.62,4.4013e-05,0.00075649,-0.00013638,-1355.4,1.8414
10937,17.762,5.7273,0,0.00013868,1385.8,4.7537e-05,21.269,4.4705e-05,-0.0091547,-0.0001383,-1375.1,1.8269
10938,17.762,5.8182,0.05,3.8479e-08,0.38452,2.9544e-08,0.22201,1.0743e-11,0.00012007,-2.955e-08,-0.222,1.8267
10939,17.762,5.9091,0,0.00013787,1377.7,4.674e-05,14.893,4.4757e-05,-0.0054246,-0.00013761,-1370.2,1.8265
10940,18.037,5.8182,0,0.00013249,1323.9,4.5639e-05,23.026,4.2575e-05,0.00080326,-0.00013208,-1312.3,1.8708
10941,17.945,5.7273,0,0.00013437,1342.8,4.6151e-05,21.691,4.3263e-05,-0.0095337,-0.00013399,-1331.8,1.8563
10942,17.945,5.8182,0.05,3.9767e-08,0.3974,3.0533e-08,0.22944,1.0862e-11,0.00010653,-3.0539e-08,-0.22943,1.8561
10943,17.945,5.9091,0,0.00013355,1334.5,4.5335e-05,15.159,4.3316e-05,-0.0055747,-0.00013328,-1326.9,1.8559
10944,18.22,5.8182,0,0.00012821,1281.2,4.4262e-05,23.441,4.1142e-05,0.00082904,-0.00012779,-1269.3,1.9004
10945,18.129,5.7273,0,0.00013008,1299.9,4.4771e-05,22.125,4.1825e-05,-0.0099451,-0.00012969,-1288.7,1.8858
10946,18.129,5.8182,0.05,4.1451e-08,0.41422,3.1826e-08,0.23916,1.0923e-11,0.00012215,-3.1833e-08,-0.23915,1.8856
10947,18.129,5.9091,0,0.00012924,1291.5,4.3936e-05,15.43,4.1882e-05,-0.0057309,-0.00012897,-1283.7,1.8854
10948,18.404,5.8182,0,0.00012395,1238.6,4.2891e-05,23.866,3.9715e-05,0.00083785,-0.00012352,-1226.5,1.93
10949,18.312,5.7273,0,0.00012581,1257.2,4.3399e-05,22.571,4.0394e-05,-0.010413,-0.00012541,-1245.8,1.9154
10950,18.312,5.8182,0.05,4.3593e-08,0.43563,3.347e-08,0.25151,1.2566e-11,9.0171e-05,-3.3478e-08,-0.25151,1.9152
10951,18.312,5.9091,0,0.00012495,1248.7,4.2545e-05,15.708,4.0453e-05,-0.0059141,-0.00012468,-1240.7,1.915
10952,18.587,5.8182,0,0.00011971,1196.2,4.1527e-05,24.3,3.8293e-05,0.00083931,-0.00011927,-1183.9,1.9597
10953,18.496,5.7273,0,0.00012156,1214.8,4.2035e-05,23.031,3.8968e-05,-0.010911,-0.00012115,-1203.1,1.945
10954,18.496,5.8182,0.05,4.6249e-08,0.46217,3.5511e-08,0.26684,7.6062e-12,7.1929e-05,-3.5516e-08,-0.26683,1.9448
10955,18.496,5.9091,0,0.00012068,1206,4.1159e-05,15.993,3.903e-05,-0.006095,-0.0001204,-1197.9,1.9446
10956,18.771,5.8182,0,0.00011548,1154,4.017e-05,24.744,3.6877e-05,0.00082677,-0.00011504,-1141.5,1.9895
10957,18.679,5.7273,0,0.00011733,1172.5,4.0677e-05,23.504,3.7547e-05,-0.01145,-0.00011691,-1160.6,1.9748
10958,18.679,5.8182,0.05,4.9467e-08,0.49433,3.7982e-08,0.28541,7.3515e-12,5.6967e-05,-3.7987e-08,-0.28539,1.9746
10959,18.679,5.9091,0,0.00011643,1163.5,3.9781e-05,16.284,3.7613e-05,-0.0062768,-0.00011615,-1155.3,1.9744
10960,18.954,5.8182,0,0.00011128,1112,3.882e-05,25.197,3.5466e-05,0.00078835,-0.00011083,-1099.2,2.0193
10961,18.863,5.7273,0,0.00011311,1130.4,3.9327e-05,23.991,3.6132e-05,-0.012035,-0.00011269,-1118.2,2.0046
10962,18.863,5.8182,0.05,5.3291e-08,0.53254,4.0919e-08,0.30747,7.5199e-12,7.9103e-05,-4.0923e-08,-0.30746,2.0044
10963,18.863,5.9091,0,0.0001122,1121.2,3.8409e-05,16.581,3.6201e-05,-0.0064622,-0.00011191,-1112.8,2.0042
10964,19.138,5.8182,0,0.00010709,1070.2,3.7476e-05,25.66,3.4061e-05,0.00071788,-0.00010663,-1057.1,2.0493
10965,19.046,5.7273,0,0.00010892,1088.4,3.7984e-05,24.492,3.4722e-05,-0.012692,-0.00010848,-1076,2.0345
10966,19.046,5.8182,0.05,5.7758e-08,0.57718,4.4349e-08,0.33324,5.7806e-12,6.3667e-05,-4.4353e-08,-0.33323,2.0343
10967,19.046,5.9091,0,0.00010798,1079.1,3.7043e-05,16.885,3.4795e-05,-0.0066663,-0.00010769,-1070.6,2.0341
10968,19.321,5.8182,0,0.00010292,1028.5,3.6139e-05,26.132,3.2661e-05,0.00061549,-0.00010245,-1015.2,2.0793
10969,19.229,5.7273,0,0.00010474,1046.7,3.6648e-05,25.009,3.3317e-05,-0.01341,-0.00010429,-1034,2.0644
10970,19.229,5.8182,0.05,6.2899e-08,0.62855,4.8297e-08,0.36291,5.3632e-12,6.6214e-05,-4.8299e-08,-0.36288,2.0642
10971,19.229,5.9091,0,0.00010379,1037.2,3.5683e-05,17.196,3.3394e-05,-0.0068732,-0.00010348,-1028.5,2.0641
10972,19.505,5.8182,0,9.8768e-05,987,3.4808e-05,26.612,3.1266e-05,0.00046622,-9.8288e-05,-973.42,2.1093
10973,19.413,5.7273,0,0.00010058,1005.1,3.5319e-05,25.539,3.1918e-05,-0.014202,-0.00010012,-992.12,2.0945
10974,19.413,5.8182,0.05,6.8746e-08,0.68699,5.2787e-08,0.39665,4.3905e-12,6.2547e-05,-5.279e-08,-0.39662,2.0943
10975,19.413,5.9091,0,9.9607e-05,995.38,3.433e-05,17.513,3.1998e-05,-0.0070857,-9.9297e-05,-986.51,2.0941
10976,19.688,5.8182,0,9.4632e-05,945.67,3.3483e-05,27.099,2.9877e-05,0.00026868,-9.4142e-05,-931.83,2.1394
10977,19.596,5.7273,0,9.6439e-05,963.73,3.3997e-05,26.085,3.0523e-05,-0.015089,-9.5969e-05,-950.43,2.1245
10978,19.596,5.8182,0.05,7.5329e-08,0.75277,5.7843e-08,0.43463,3.4958e-12,3.9143e-05,-5.7844e-08,-0.4346,2.1244
10979,19.596,5.9091,0,9.5443e-05,953.77,3.2983e-05,17.836,3.0608e-05,-0.0073167,-9.5128e-05,-944.74,2.1242
10980,19.872,5.8182,0,9.0513e-05,904.5,3.2164e-05,27.594,2.8492e-05,1.7584e-05,-9.0012e-05,-890.39,2.1696
10981,19.78,5.7273,0,9.2314e-05,922.51,3.2681e-05,26.646,2.9133e-05,-0.016055,-9.1832e-05,-908.9,2.1547
10982,19.78,5.8182,0.05,8.2681e-08,0.82624,6.3488e-08,0.47704,2.6066e-12,3.4909e-05,-6.3489e-08,-0.47702,2.1545
10983,19.78,5.9091,0,9.1297e-05,912.34,3.1642e-05,18.164,2.9223e-05,-0.0075343,-9.0974e-05,-903.12,2.1544
10984,20.055,5.8182,0,8.6409e-05,863.49,3.0851e-05,28.094,2.7112e-05,-0.00031405,-8.5897e-05,-849.11,2.1999
10985,19.963,5.7273,0,8.8206e-05,881.45,3.1373e-05,27.221,2.7748e-05,-0.017129,-8.7712e-05,-867.53,2.1849
10986,19.963,5.8182,0.05,9.0841e-08,0.90778,6.9754e-08,0.52412,1.7309e-12,3.3265e-05,-6.9755e-08,-0.52409,2.1847
10987,19.963,5.9091,0,8.7167e-05,871.06,3.0306e-05,18.497,2.7843e-05,-0.0077555,-8.6837e-05,-861.67,2.1846
10988,20.239,5.8182,0,8.2321e-05,822.64,2.9543e-05,28.599,2.5737e-05,-0.00073869,-8.1797e-05,-807.97,2.2302
10989,20.147,5.7273,0,8.4114e-05,840.56,3.0071e-05,27.811,2.6367e-05,-0.018338,-8.3607e-05,-826.32,2.2152
10990,20.147,5.8182,0.05,9.9846e-08,0.99777,7.6669e-08,0.57608,1.3984e-12,2.9232e-05,-7.6669e-08,-0.57605,2.215
10991,20.147,5.9091,0,8.3052e-05,829.95,2.8976e-05,18.835,2.6468e-05,-0.0079853,-8.2716e-05,-820.38,2.2149
10992,20.422,5.8182,0,7.8248e-05,781.94,2.8241e-05,29.106,2.4367e-05,-0.0012681,-7.7713e-05,-766.98,2.2605
10993,20.33,5.7273,0,8.0038e-05,799.83,2.8775e-05,28.415,2.4991e-05,-0.019679,-7.9517e-05,-785.25,2.2455
10994,20.33,5.8182,0.05,1.0974e-07,1.0967,8.4268e-08,0.63317,1.8701e-12,3.3943e-05,-8.4268e-08,-0.63314,2.2453
10995,20.33,5.9091,0,7.8954e-05,789,2.7652e-05,19.176,2.5099e-05,-0.0082052,-7.861e-05,-779.24,2.2452
10996,20.606,5.8182,0,7.419e-05,741.39,2.6943e-05,29.615,2.3001e-05,-0.0019248,-7.3642e-05,-726.14,2.2909
10997,20.514,5.7273,0,7.5978e-05,759.26,2.7486e-05,29.032,2.3619e-05,-0.021175,-7.5443e-05,-744.34,2.2759
10998,20.514,5.8182,0.05,1.2058e-07,1.205,9.259e-08,0.6957,5.2171e-13,1.6394e-05,-9.2591e-08,-0.69568,2.2757
10999,20.514,5.9091,0,7.4871e-05,748.2,2.6333e-05,19.519,2.3734e-05,-0.008408,-7.452e-05,-738.25,2.2756
11000,20.789,5.8182,0,7.0146e-05,700.98,2.5649e-05,30.121,2.164e-05,-0.0027442,-6.9585e-05,-685.43,2.3214
11001,20.697,5.7273,0,7.1934e-05,718.84,2.6203e-05,29.661,2.2252e-05,-0.022844,-7.1384e-05,-703.56,2.3063
11002,20.697,5.8182,0.05,1.3242e-07,1.3233,1.0168e-07,0.764,-3.2667e-13,7.3394e-06,-1.0168e-07,-0.76399,2.3062
11003,20.697,5.9091,0,7.0804e-05,707.55,2.5018e-05,19.863,2.2374e-05,-0.0085854,-7.0445e-05,-697.41,2.306
11004,20.973,5.8182,0,6.6115e-05,660.7,2.4359e-05,30.623,2.0283e-05,-0.0037629,-6.5541e-05,-644.86,2.3519
11005,20.881,5.7273,0,6.7904e-05,678.57,2.4925e-05,30.302,2.0889e-05,-0.024732,-6.7338e-05,-662.93,2.3368
11006,20.881,5.8182,0.05,1.4532e-07,1.4522,1.1159e-07,0.83846,-6.3539e-13,1.232e-05,-1.1159e-07,-0.83844,2.3366
11007,20.881,5.9091,0,6.6751e-05,667.05,2.3709e-05,20.207,2.1019e-05,-0.0087391,-6.6384e-05,-656.72,2.3365
11008,21.156,5.8182,0,6.2098e-05,620.55,2.3073e-05,31.116,1.8931e-05,-0.0050187,-6.151e-05,-604.41,2.3824
11009,21.064,5.7273,0,6.3889e-05,638.45,2.3652e-05,30.952,1.9529e-05,-0.026853,-6.3307e-05,-622.42,2.3673
11010,21.064,5.8182,0.05,1.5936e-07,1.5925,1.2237e-07,0.91945,1.4972e-13,1.2279e-05,-1.2237e-07,-0.91943,2.3672
11011,21.064,5.9091,0,6.2713e-05,626.69,2.2404e-05,20.549,1.9668e-05,-0.0088443,-6.2338e-05,-616.17,2.367
11012,21.34,5.8182,0,5.8093e-05,580.53,2.179e-05,31.597,1.7584e-05,-0.0065724,-5.7491e-05,-564.09,2.413
11013,21.248,5.7273,0,5.9889e-05,598.47,2.2385e-05,31.611,1.8174e-05,-0.029249,-5.9289e-05,-582.06,2.3978
11014,21.248,5.8182,0.05,1.7462e-07,1.7449,1.3408e-07,1.0075,-8.1941e-14,3.3179e-06,-1.3408e-07,-1.0074,2.3977
11015,21.248,5.9091,0,5.8689e-05,586.49,2.1104e-05,20.886,1.8323e-05,-0.0088821,-5.8306e-05,-575.77,2.3976
11016,21.523,5.8182,0,5.4101e-05,540.63,2.0509e-05,32.061,1.6241e-05,-0.0084898,-5.3484e-05,-523.89,2.4436
11017,21.431,5.7273,0,5.5902e-05,558.64,2.1123e-05,32.276,1.6823e-05,-0.031973,-5.5284e-05,-541.81,2.4284
11018,21.431,5.8182,0.05,1.9117e-07,1.9104,1.468e-07,1.103,3.6544e-13,2.5642e-06,-1.468e-07,-1.103,2.4283
11019,21.431,5.9091,0,5.468e-05,546.42,1.9807e-05,21.215,1.6983e-05,-0.0088311,-5.4288e-05,-535.51,2.4282
11020,21.706,5.8182,0,5.012e-05,500.85,1.923e-05,32.502,1.4902e-05,-0.010857,-4.9488e-05,-483.81,2.4743
11021,21.615,5.7273,0,5.193e-05,518.94,1.9865e-05,32.945,1.5476e-05,-0.035061,-5.1291e-05,-501.7,2.4591
11022,21.615,5.8182,0.05,2.0914e-07,2.0899,1.6059e-07,1.2066,3.2599e-13,6.0208e-06,-1.6059e-07,-1.2066,2.4589
11023,21.615,5.9091,0,5.0685e-05,506.5,1.8515e-05,21.535,1.5647e-05,-0.0086398,-5.0285e-05,-495.4,2.4588
11024,21.89,5.8182,0,4.615e-05,461.18,1.7951e-05,32.913,1.3569e-05,-0.013799,-4.5502e-05,-443.85,2.505
11025,21.798,5.7273,0,4.7972e-05,479.39,1.8612e-05,33.615,1.4133e-05,-0.038584,-4.7312e-05,-461.71,2.4897
11026,21.798,5.8182,0.05,2.2862e-07,2.2846,1.7555e-07,1.319,2.6039e-13,8.4206e-06,-1.7555e-07,-1.319,2.4896
11027,21.798,5.9091,0,4.6705e-05,466.73,1.7225e-05,21.84,1.4317e-05,-0.0082585,-4.6295e-05,-455.43,2.4895
11028,22.073,5.8182,0,4.2192e-05,421.63,1.6673e-05,33.286,1.2241e-05,-0.017464,-4.1528e-05,-404.01,2.5357
11029,21.982,5.7273,0,4.4028e-05,439.98,1.7363e-05,34.285,1.2794e-05,-0.042633,-4.3345e-05,-421.85,2.5204
11030,21.982,5.8182,0.05,2.4976e-07,2.4959,1.9178e-07,1.441,4.429e-13,4.5864e-06,-1.9178e-07,-1.441,2.5203
11031,21.982,5.9091,0,4.274e-05,427.1,1.5939e-05,22.126,1.2993e-05,-0.0076238,-4.2321e-05,-415.61,2.5202
11032,22.257,5.8182,0,3.8246e-05,382.19,1.5394e-05,33.61,1.0918e-05,-0.022055,-3.7563e-05,-364.29,2.5664
11033,22.165,5.7273,0,4.0099e-05,400.72,1.6118e-05,34.952,1.146e-05,-0.04728,-3.9391e-05,-382.12,2.5511
11034,22.165,5.8182,0.05,2.7271e-07,2.7252,2.094e-07,1.5734,2.1287e-13,2.7997e-06,-2.0941e-07,-1.5734,2.551
11035,22.165,5.9091,0,3.8791e-05,387.64,1.4656e-05,22.388,1.1675e-05,-0.0066014,-3.8361e-05,-375.96,2.5509
11036,22.44,5.8182,0,3.4311e-05,342.88,1.4113e-05,33.874,9.6009e-06,-0.027843,-3.361e-05,-324.69,2.5972
11037,22.349,5.7273,0,3.6187e-05,361.62,1.4876e-05,35.614,1.013e-05,-0.052649,-3.545e-05,-342.52,2.5819
11038,22.349,5.8182,0.05,2.9765e-07,2.9745,2.2856e-07,1.7173,3.6188e-13,5.7187e-06,-2.2856e-07,-1.7173,2.5818
11039,22.349,5.9091,0,3.4858e-05,348.34,1.3375e-05,22.618,1.0364e-05,-0.0050346,-3.4418e-05,-336.48,2.5817
11040,22.624,5.8182,0,3.039e-05,303.69,1.2829e-05,34.064,8.2909e-06,-0.035258,-2.9667e-05,-285.24,2.628
11041,22.532,5.7273,0,3.2293e-05,322.71,1.364e-05,36.269,8.8045e-06,-0.058838,-3.1523e-05,-303.07,2.6127
11042,22.532,5.8182,0.05,3.2482e-07,3.246,2.4942e-07,1.8741,9.9945e-13,9.7996e-06,-2.4942e-07,-1.8741,2.6125
11043,22.532,5.9091,0,3.0945e-05,309.24,1.2097e-05,22.808,9.061e-06,-0.0026334,-3.0494e-05,-297.2,2.6125
11044,22.807,5.8182,0,2.6484e-05,264.66,1.1542e-05,34.162,6.9889e-06,-0.044709,-2.5737e-05,-245.94,2.6587
11045,22.716,5.7273,0,2.8422e-05,284.02,1.2408e-05,36.922,7.4849e-06,-0.066097,-2.7614e-05,-263.78,2.6434
11046,22.716,5.8182,0.05,3.5452e-07,3.5427,2.7223e-07,2.0454,3.4674e-13,2.4903e-06,-2.7223e-07,-2.0454,2.6433
11047,22.716,5.9091,0,2.7053e-05,270.34,1.0821e-05,22.946,7.7668e-06,0.00095147,-2.659e-05,-258.14,2.6433
11048,22.991,5.8182,0,2.2597e-05,225.82,1.0249e-05,34.149,5.6964e-06,-0.057567,-2.1822e-05,-206.82,2.6896
11049,22.899,5.7273,0,2.4579e-05,245.62,1.1183e-05,37.581,6.1716e-06,-0.074076,-2.3724e-05,-224.69,2.6742
11050,22.899,5.8182,0.05,3.8713e-07,3.8687,2.9727e-07,2.2336,1.704e-13,3.8571e-06,-2.9727e-07,-2.2336,2.6741
11051,22.899,5.9091,0,2.3187e-05,231.71,9.5464e-06,23.018,6.4839e-06,0.0068172,-2.271e-05,-219.34,2.6741
11052,23.174,5.8182,0,1.8738e-05,187.25,8.9511e-06,34.005,4.4156e-06,-0.072899,-1.7926e-05,-167.94,2.7204
11053,23.083,5.7273,0,2.0776e-05,207.62,9.9697e-06,38.269,4.8652e-06,-0.084498,-1.9859e-05,-185.85,2.7051
11054,23.083,5.8182,0.05,4.2323e-07,4.2293,3.2498e-07,2.4418,1.4212e-12,1.3622e-05,-3.2499e-07,-2.4418,2.705
11055,23.083,5.9091,0,1.9354e-05,193.41,8.2742e-06,23,5.215e-06,0.015006,-1.886e-05,-180.88,2.7049
11056,23.358,5.8182,0,1.4921e-05,149.11,7.6509e-06,33.725,3.149e-06,-0.10054,-1.4058e-05,-129.39,2.7512
11057,23.266,5.7273,0,1.7035e-05,170.23,8.7762e-06,39.048,3.5673e-06,-0.090139,-1.6031e-05,-147.35,2.7359
11058,23.266,5.8182,0.05,4.6377e-07,4.6345,3.5612e-07,2.6757,1.109e-12,1.264e-05,-3.5612e-07,-2.6757,2.7358
11059,23.266,5.9091,0,1.5566e-05,155.55,7.0041e-06,22.869,3.965e-06,0.03369,-1.505e-05,-142.83,2.7357
11060,23.541,5.8182,0,1.119e-05,111.83,6.3617e-06,33.386,1.9029e-06,-0.11576,-1.0241e-05,-91.361,2.7821
11061,23.45,5.7273,0,1.3401e-05,133.91,7.6234e-06,40.06,2.2764e-06,-0.11502,-1.2261e-05,-109.34,2.7667
11062,23.45,5.8182,0.05,5.1009e-07,5.0974,3.9169e-07,2.943,1.1191e-12,9.045e-06,-3.9169e-07,-2.943,2.7666
11063,23.45,5.9091,0,1.184e-05,118.32,5.7373e-06,22.57,2.7397e-06,0.047494,-1.1293e-05,-105.39,2.7666
11064,23.725,5.8182,0,7.7289e-06,77.236,5.1892e-06,33.703,6.6249e-07,-0.30957,-6.5767e-06,-54.702,2.8129
11065,23.633,5.7273,0,9.9906e-06,99.837,6.564e-06,41.753,9.9959e-07,-0.055508,-8.6011e-06,-72.191,2.7976
11066,23.633,5.8182,0.05,5.6832e-07,5.6792,4.364e-07,3.2789,1.5336e-12,1.4755e-05,-4.364e-07,-3.2789,2.7975
11067,23.633,5.9091,0,8.2294e-06,82.238,4.4843e-06,22.134,1.5573e-06,0.14162,-7.6268e-06,-68.864,2.7974
11068,23.817,5.7273,0,7.1808e-06,71.758,5.7972e-06,45.549,-3.1605e-07,-0.38323,-5.2081e-06,-37.14,2.8284
11069,23.817,5.8182,0.05,6.9291e-07,6.9244,5.3207e-07,3.9978,1.842e-12,2.1649e-05,-5.3207e-07,-3.9978,2.8283
11070,23.908,5.8182,0,4.8565e-06,48.531,4.1734e-06,34.942,-4.811e-07,-0.030286,-3.2008e-06,-20.465,2.8438
11071,23.817,5.9091,0,4.8816e-06,48.782,3.2853e-06,21.46,4.1952e-07,-0.072563,-4.147e-06,-34.384,2.8283
11072,3.5419,5.6364,0,0.00015979,1596.8,7.2062e-05,230.06,3.9933e-05,-11.346,-0.00015469,-1473.7,0.06995
11073,3.4501,5.5455,0,0.00017936,1792.4,9.6486e-05,457.78,3.3975e-05,-11.909,-0.0001671,-1522.7,0.063977
11074,3.4501,5.6364,0.05,1.2201e-05,121.93,9.3688e-06,70.394,-1.358e-12,-3.1964e-05,-9.3688e-06,-70.394,0.062963
11075,3.3584,5.6364,0,0.00011725,1171.7,5.7511e-05,234.45,2.6863e-05,4.1769,-0.00011148,-1035.3,0.056216
11076,3.7254,5.6364,0,0.00020025,2001.1,7.954e-05,160.09,5.7558e-05,-5.0789,-0.0001971,-1918.5,0.083749
11077,3.6336,5.5455,0,0.00019901,1988.7,8.7261e-05,261.23,5.1955e-05,-4.0413,-0.0001933,-1846.8,0.077701
11078,3.6336,5.6364,0.05,1.0369e-05,103.62,7.962e-06,59.823,-3.4839e-13,-1.1142e-06,-7.962e-06,-59.823,0.076743
11079,3.9088,5.6364,0,0.00024747,2472.9,9.4449e-05,152.73,7.3732e-05,-2.9324,-0.00024455,-2394.4,0.097657
11080,3.8171,5.5455,0,0.00024065,2404.8,9.6844e-05,209.11,6.85e-05,-3.8538,-0.00023645,-2295.1,0.091514
11081,3.8171,5.6364,0.05,9.4404e-06,94.339,7.249e-06,54.466,2.5657e-12,2.6153e-05,-7.249e-06,-54.466,0.090604
11082,4.0923,5.6364,0,0.00029077,2905.7,0.00010862,152.01,8.8205e-05,-1.4146,-0.0002879,-2827.3,0.11171
11083,4.0006,5.5455,0,0.00028331,2831.1,0.00010938,190.95,8.3704e-05,-1.9911,-0.0002796,-2731.7,0.10546
11084,4.0006,5.6364,0.05,8.2757e-06,82.7,6.3547e-06,47.747,2.935e-12,3.5855e-05,-6.3547e-06,-47.747,0.10459
11085,4.2758,5.6364,0,0.00032775,3275.3,0.0001204,147.04,0.00010072,-0.86315,-0.00032502,-3199.7,0.12595
11086,4.1841,5.5455,0,0.00032133,3211.1,0.00012086,178.14,9.6985e-05,-1.2732,-0.00031795,-3118.9,0.11957
11087,4.1841,5.6364,0.05,7.0438e-06,70.389,5.4088e-06,40.639,2.8279e-12,3.779e-05,-5.4088e-06,-40.639,0.11874
11088,4.4593,5.6364,0,0.00035808,3578.4,0.00012956,136.8,0.00011128,-0.59212,-0.00035557,-3508.3,0.1404
11089,4.3676,5.5455,0,0.00035315,3529.1,0.00013015,163.49,0.00010828,-0.82623,-0.0003501,-3444.9,0.13389
11090,4.3676,5.6364,0.05,5.8381e-06,58.341,4.4829e-06,33.683,2.214e-13,3.5653e-05,-4.4829e-06,-33.683,0.13309
11091,4.6428,5.6364,0,0.00038219,3819.2,0.00013634,122.63,0.00011996,-0.45738,-0.00037996,-3756.6,0.15509
11092,4.551,5.5455,0,0.00037871,3784.5,0.00013712,145.91,0.00011763,-0.59401,-0.00037602,-3709.7,0.14843
11093,4.551,5.6364,0.05,4.722e-06,47.188,3.6259e-06,27.244,4.1933e-13,2.6368e-05,-3.6259e-06,-27.244,0.14766
11094,4.8263,5.6364,0,0.00040078,4005,0.00014112,106.31,0.00012693,-0.37019,-0.00039887,-3951,0.17003
11095,4.7345,5.5455,0,0.00039856,3982.9,0.00014206,126.38,0.00012518,-0.44618,-0.00039627,-3918.4,0.16322
11096,4.7345,5.6364,0.05,3.7292e-06,37.267,2.8636e-06,21.516,-4.831e-12,2.0768e-05,-2.8636e-06,-21.516,0.16247
11097,5.0097,5.6364,0,0.00041468,4143.9,0.0001443,89.357,0.00013237,-0.30515,-0.00041309,-4098.6,0.18523
11098,4.918,5.5455,0,0.00041349,4132,0.00014531,106.25,0.00013113,-0.34823,-0.00041158,-4078.1,0.17828
11099,4.918,5.6364,0.05,2.8714e-06,28.694,2.2049e-06,16.567,-4.8162e-12,1.4893e-05,-2.2049e-06,-16.567,0.17754
11100,5.1932,5.6364,0,0.00042466,4243.7,0.00014623,72.901,0.00013649,-0.25165,-0.00042338,-4206.9,0.20071
11101,5.1015,5.5455,0,0.00042429,4239.9,0.00014725,86.653,0.00013568,-0.27861,-0.00042275,-4196.1,0.1936
11102,5.1015,5.6364,0.05,2.1461e-06,21.447,1.648e-06,12.382,-8.3176e-12,1.3701e-05,-1.648e-06,-12.382,0.19289
11103,5.3767,5.6364,0,0.00043143,4311.3,0.00014719,57.655,0.00013949,-0.20691,-0.00043043,-4282.3,0.21648
11104,5.285,5.5455,0,0.00043169,4313.9,0.00014817,68.397,0.00013904,-0.22875,-0.00043049,-4279.4,0.20921
11105,5.285,5.6364,0.05,1.5433e-06,15.422,1.1851e-06,8.9043,-7.8137e-12,1.4571e-05,-1.1851e-06,-8.904,0.20851
11106,5.5602,5.6364,0,0.00043561,4353.1,0.00014743,44.019,0.00014155,-0.1704,-0.00043484,-4331,0.23253
11107,5.4684,5.5455,0,0.00043635,4360.5,0.00014834,51.963,0.0001414,-0.19432,-0.00043545,-4334.4,0.22511
11108,5.4684,5.6364,0.05,1.0497e-06,10.49,8.0604e-07,6.0564,-6.7208e-12,2.1061e-05,-8.0602e-07,-6.0561,0.22442
11109,5.7437,5.6364,0,0.0004377,4374,0.00014713,32.161,0.00014283,-0.14277,-0.00043714,-4357.9,0.24888
11110,5.6519,5.5455,0,0.00043881,4385,0.00014795,37.58,0.00014293,-0.17426,-0.00043816,-4366.2,0.24131
11111,5.6519,5.6364,0.05,6.5271e-07,6.5226,5.0121e-07,3.7659,-4.0842e-12,3.5073e-05,-5.012e-07,-3.7657,0.24062
11112,5.9271,5.6364,0,0.00043813,4378.3,0.00014643,22.093,0.00014348,-0.12599,-0.00043775,-4367.2,0.26552
11113,5.8354,5.5455,0,0.00043951,4392.1,0.00014716,25.295,0.00014377,-0.1713,-0.00043908,-4379.5,0.25779
11114,5.8354,5.6364,0.05,3.4731e-07,3.4707,2.6669e-07,2.0039,9.955e-13,0.00010553,-2.6669e-07,-2.0037,0.25712
11115,6.1106,5.6364,0,0.00043725,4369.5,0.00014545,13.736,0.0001436,-0.12605,-0.00043702,-4362.6,0.28246
11116,6.0189,5.5455,0,0.00043884,4385.4,0.00014608,15.048,0.00014406,-0.19833,-0.00043859,-4377.9,0.27457
11117,6.0189,5.6364,0.05,1.7657e-07,1.7645,1.3558e-07,1.0187,3.9453e-11,0.000305,-1.3559e-07,-1.0187,0.27391
11118,6.2941,5.6364,0,0.00043534,4350.4,0.00014425,6.976,0.0001433,-0.16748,-0.00043522,-4346.9,0.29968
11119,6.2024,5.5455,0,0.00043708,4367.8,0.00014482,6.7597,0.00014388,-0.3229,-0.00043697,-4364.6,0.29165
11120,6.2024,5.6364,0.05,2.4322e-07,2.4305,1.8676e-07,1.4034,9.935e-12,0.00021556,-1.8675e-07,-1.4031,0.29099
11121,6.4776,5.6364,0,0.00043262,4323.2,0.00014294,1.8744,0.00014263,-0.4803,-0.00043259,-4322.5,0.31721
11122,6.3858,5.5455,0,0.00043448,4341.8,0.00014355,1.1678,0.0001432,-1.4666,-0.00043449,-4342,0.30902
11123,6.3858,5.6364,0.05,3.793e-07,3.7904,2.9127e-07,2.1886,-5.9681e-12,6.9249e-05,-2.9125e-07,-2.1882,0.30837
11124,6.6611,5.6364,0,0.00042927,4289.7,0.00014183,0.25929,0.00014139,-3.0666,-0.00042932,-4291.1,0.33502
11125,6.5693,5.5455,0,0.00043122,4309.3,0.00014261,0.24722,0.00014181,-5.8046,-0.00043132,-4312,0.32669
11126,6.5693,5.6364,0.05,4.9947e-07,4.9913,3.8354e-07,2.8819,-9.6495e-12,4.588e-05,-3.8352e-07,-2.8815,0.32604
11127,6.8445,5.6364,0,0.00042544,4251.5,0.00014071,0.12604,0.00013988,-6.0926,-0.00042554,-4254.4,0.35312
11128,6.7528,5.5455,0,0.00042746,4271.6,0.00014155,0.13052,0.00014025,-9.6689,-0.00042762,-4276.4,0.34464
11129,6.7528,5.6364,0.05,5.9659e-07,5.9618,4.5812e-07,3.4422,-1.0641e-11,1.747e-05,-4.5809e-07,-3.4419,0.344
11130,7.028,5.6364,0,0.00042123,4209.4,0.00013943,0.092093,0.00013831,-8.3354,-0.00042137,-4213.6,0.37151
11131,6.9363,5.5455,0,0.00042331,4230.1,0.00014032,0.091138,0.00013864,-12.523,-0.00042352,-4236.3,0.36288
11132,6.9363,5.6364,0.05,6.7302e-07,6.7255,5.168e-07,3.8831,-1.16e-11,1.5573e-05,-5.1678e-07,-3.8828,0.36224
11133,7.2115,5.6364,0,0.00041675,4164.6,0.00013802,0.077754,0.0001367,-9.861,-0.00041691,-4169.5,0.39018
11134,7.1198,5.5455,0,0.00041886,4185.7,0.00013895,0.072053,0.00013701,-14.485,-0.0004191,-4192.9,0.38141
11135,7.1198,5.6364,0.05,7.3222e-07,7.3172,5.6227e-07,4.2248,-1.0091e-11,2.2749e-05,-5.6224e-07,-4.2243,0.38077
11136,7.395,5.6364,0,0.00041204,4117.6,0.00013651,0.06977,0.00013507,-10.785,-0.00041222,-4122.9,0.40913
11137,7.3032,5.5455,0,0.00041419,4139,0.00013746,0.060764,0.00013537,-15.699,-0.00041445,-4146.8,0.40021
11138,7.3032,5.6364,0.05,7.7745e-07,7.7692,5.97e-07,4.4857,-1.0441e-11,1.3076e-05,-5.9698e-07,-4.4854,0.39959
11139,7.5785,5.6364,0,0.00040717,4068.9,0.00013493,0.064294,0.00013343,-11.218,-0.00040736,-4074.5,0.42836
11140,7.4867,5.5455,0,0.00040935,4090.6,0.0001359,0.0531,0.00013372,-16.3,-0.00040962,-4098.7,0.4193
11141,7.4867,5.6364,0.05,8.1148e-07,8.1092,6.2313e-07,4.682,-8.9784e-12,1.5061e-05,-6.231e-07,-4.6817,0.41868
11142,7.7619,5.6364,0,0.00040219,4019.1,0.00013328,0.059906,0.00013178,-11.256,-0.00040238,-4024.7,0.44787
11143,7.6702,5.5455,0,0.00040438,4041,0.00013426,0.047339,0.00013207,-16.406,-0.00040466,-4049.2,0.43866
11144,7.6702,5.6364,0.05,8.3661e-07,8.3603,6.4242e-07,4.827,-1.0953e-11,1.3466e-05,-6.424e-07,-4.8267,0.43805
11145,7.9454,5.6364,0,0.00039712,3968.4,0.0001316,0.05602,0.00013013,-10.981,-0.0003973,-3973.9,0.46764
11146,7.8537,5.5455,0,0.00039933,3990.5,0.00013258,0.042674,0.00013043,-16.121,-0.0003996,-3998.6,0.4583
11147,7.8537,5.6364,0.05,8.5471e-07,8.5412,6.5632e-07,4.9314,-1.2941e-11,1.2161e-05,-6.563e-07,-4.9311,0.45769
11148,8.1289,5.6364,0,0.00039198,3917.1,0.00012988,0.052386,0.00012848,-10.463,-0.00039216,-3922.3,0.48768
11149,8.0372,5.5455,0,0.00039421,3939.4,0.00013086,0.038695,0.00012879,-15.531,-0.00039447,-3947.1,0.4782
11150,8.0372,5.6364,0.05,8.6729e-07,8.6669,6.6598e-07,5.004,-7.7307e-12,1.2148e-05,-6.6596e-07,-5.0037,0.4776
11151,8.3124,5.6364,0,0.00038681,3865.4,0.00012813,0.048903,0.00012683,-9.7622,-0.00038697,-3870.2,0.50799
11152,8.2206,5.5455,0,0.00038905,3887.8,0.00012912,0.035181,0.00012716,-14.708,-0.0003893,-3895.1,0.49837
11153,8.2206,5.6364,0.05,8.7556e-07,8.7496,6.7234e-07,5.0518,-9.5976e-12,1.0778e-05,-6.7231e-07,-5.0514,0.49777
11154,8.4959,5.6364,0,0.0003816,3813.4,0.00012638,0.045536,0.00012518,-8.9259,-0.00038175,-3817.8,0.52856
11155,8.4041,5.5455,0,0.00038386,3836,0.00012736,0.032009,0.00012553,-13.715,-0.00038409,-3842.8,0.5188
11156,8.4041,5.6364,0.05,8.805e-07,8.7989,6.7612e-07,5.0802,-1.1544e-11,1.0016e-05,-6.761e-07,-5.0799,0.51821
11157,8.6794,5.6364,0,0.00037639,3761.3,0.00012461,0.042285,0.00012354,-7.9942,-0.00037652,-3765.2,0.54938
11158,8.5876,5.5455,0,0.00037866,3783.9,0.00012558,0.029103,0.0001239,-12.601,-0.00037887,-3790.2,0.53949
11159,8.5876,5.6364,0.05,8.8286e-07,8.8225,6.7794e-07,5.0938,-8.0377e-12,9.1569e-06,-6.7791e-07,-5.0935,0.5389
11160,8.8628,5.6364,0,0.00037116,3709,0.00012283,0.039165,0.0001219,-6.9995,-0.00037128,-3712.5,0.57045
11161,8.7711,5.5455,0,0.00037344,3731.8,0.0001238,0.026421,0.00012228,-11.406,-0.00037363,-3737.5,0.56043
11162,8.7711,5.6364,0.05,8.8325e-07,8.8264,6.7824e-07,5.0961,-8.1593e-12,9.692e-06,-6.7821e-07,-5.0957,0.55985
11163,9.0463,5.6364,0,0.00036594,3656.8,0.00012106,0.036199,0.00012026,-5.9676,-0.00036604,-3659.8,0.59178
11164,8.9546,5.5455,0,0.00036823,3679.7,0.00012202,0.023932,0.00012066,-10.163,-0.0003684,-3684.8,0.58163
11165,8.9546,5.6364,0.05,8.8215e-07,8.8155,6.7739e-07,5.0898,-1.0141e-11,7.9923e-06,-6.7738e-07,-5.0895,0.58105
11166,9.2298,5.6364,0,0.00036072,3604.7,0.00011928,0.033424,0.00011862,-4.9193,-0.0003608,-3607.1,0.61335
11167,9.1381,5.5455,0,0.00036302,3627.7,0.00012024,0.021618,0.00011905,-8.8986,-0.00036317,-3632.1,0.60307
11168,9.1381,5.6364,0.05,8.7994e-07,8.7934,6.757e-07,5.077,-1.0228e-11,8.0899e-06,-6.7568e-07,-5.0767,0.6025
11169,9.4133,5.6364,0,0.00035551,3552.6,0.00011751,0.0309,0.00011699,-3.8706,-0.00035557,-3554.5,0.63516
11170,9.3215,5.5455,0,0.00035781,3575.7,0.00011846,0.019463,0.00011744,-7.6322,-0.00035794,-3579.5,0.62476
11171,9.3215,5.6364,0.05,8.7691e-07,8.7631,6.7337e-07,5.0595,-9.4285e-12,7.4484e-06,-6.7335e-07,-5.0592,0.6242
11172,9.5968,5.6364,0,0.00035031,3500.7,0.00011574,0.028756,0.00011536,-2.834,-0.00035035,-3502.1,0.65722
11173,9.505,5.5455,0,0.00035262,3523.8,0.00011668,0.017455,0.00011583,-6.3798,-0.00035273,-3527,0.64669
11174,9.505,5.6364,0.05,8.7328e-07,8.7268,6.7058e-07,5.0386,-1.0342e-11,6.6124e-06,-6.7056e-07,-5.0383,0.64613
11175,9.7802,5.6364,0,0.00034512,3448.8,0.00011398,0.027373,0.00011374,-1.8193,-0.00034515,-3449.7,0.6795
11176,9.6885,5.5455,0,0.00034744,3472,0.00011491,0.015589,0.00011422,-5.1533,-0.00034753,-3474.6,0.66885
11177,9.6885,5.6364,0.05,8.6923e-07,8.6863,6.6747e-07,5.0152,-1.0424e-11,6.0886e-06,-6.6745e-07,-5.0149,0.6683
11178,9.9637,5.6364,0,0.00033995,3397.2,0.00011223,0.02883,0.00011211,-0.83525,-0.00033997,-3397.6,0.70202
11179,9.872,5.5455,0,0.00034228,3420.4,0.00011315,0.013847,0.00011262,-3.9614,-0.00034235,-3422.4,0.69125
11180,9.872,5.6364,0.05,8.649e-07,8.643,6.6415e-07,4.9902,-9.6289e-12,6.5605e-06,-6.6413e-07,-4.9899,0.69071
11181,10.147,5.6364,0,0.0003348,3345.7,0.0001105,0.16887,0.00011047,-0.022457,-0.0003348,-3345.6,0.72477
11182,10.055,5.5455,0,0.00033713,3369,0.00011139,0.01224,0.00011102,-2.8102,-0.00033718,-3370.4,0.71388
11183,10.055,5.6364,0.05,8.6038e-07,8.5979,6.6068e-07,4.9641,-9.6632e-12,5.2875e-06,-6.6065e-07,-4.9638,0.71334
11184,10.331,5.6364,0,0.00032967,3294.4,0.00010888,1.0523,0.00010874,0.011051,-0.00032965,-3293.9,0.74774
11185,10.239,5.5455,0,0.000332,3317.7,0.00010965,0.010748,0.00010942,-1.7037,-0.00033203,-3318.6,0.73673
11186,10.239,5.6364,0.05,8.5576e-07,8.5517,6.5713e-07,4.9375,-9.7093e-12,5.3217e-06,-6.5711e-07,-4.9372,0.7362
11187,10.514,5.6364,0,0.00032455,3243.3,0.00010726,1.9307,0.00010701,0.011776,-0.00032452,-3242.3,0.77094
11188,10.422,5.5455,0,0.00032689,3266.6,0.00010791,0.0093615,0.00010782,-0.64466,-0.0003269,-3266.9,0.75981
11189,10.422,5.6364,0.05,8.5108e-07,8.505,6.5354e-07,4.9105,-1.062e-11,5.5567e-06,-6.5352e-07,-4.9102,0.75929
11190,10.698,5.6364,0,0.00031946,3192.4,0.00010565,2.7722,0.00010528,0.010872,-0.00031941,-3191,0.79435
11191,10.606,5.5455,0,0.00032179,3215.7,0.00010622,0.36633,0.00010617,0.0078757,-0.00032179,-3215.5,0.78311
11192,10.606,5.6364,0.05,8.4639e-07,8.4581,6.4994e-07,4.8834,-8.8869e-12,5.8361e-06,-6.4992e-07,-4.8832,0.78259
11193,10.881,5.6364,0,0.00031438,3141.6,0.00010404,3.5754,0.00010357,0.0096257,-0.00031432,-3139.8,0.81798
11194,10.789,5.5455,0,0.00031672,3165,0.00010463,1.3284,0.00010445,0.0067582,-0.00031669,-3164.3,0.80662
11195,10.789,5.6364,0.05,8.4173e-07,8.4115,6.4635e-07,4.8565,-7.9717e-12,5.0567e-06,-6.4633e-07,-4.8563,0.80611
11196,11.065,5.6364,0,0.00030932,3091.1,0.00010244,4.3406,0.00010186,0.0082847,-0.00030925,-3088.9,0.84181
11197,10.973,5.5455,0,0.00031166,3114.4,0.00010303,2.2427,0.00010274,0.0056784,-0.00031162,-3113.3,0.83034
11198,10.973,5.6364,0.05,8.3711e-07,8.3654,6.4281e-07,4.8299,-9.8571e-12,4.8418e-06,-6.4279e-07,-4.8296,0.82984
11199,11.248,5.6364,0,0.00030429,3040.8,0.00010084,5.0685,0.00010016,0.0069295,-0.0003042,-3038.2,0.86586
11200,11.156,5.5455,0,0.00030662,3064.1,0.00010144,3.1102,0.00010103,0.0046255,-0.00030657,-3062.5,0.85428
11201,11.156,5.6364,0.05,8.3257e-07,8.3199,6.3932e-07,4.8036,-7.1214e-12,5.1581e-06,-6.393e-07,-4.8034,0.85378
11202,11.432,5.6364,0,0.00029927,2990.6,9.924e-05,5.7608,9.8474e-05,0.0056441,-0.00029917,-2987.7,0.89011
11203,11.34,5.5455,0,0.0003016,3013.9,9.9857e-05,3.9326,9.9334e-05,0.0036444,-0.00030153,-3012,0.87842
11204,11.34,5.6364,0.05,8.2808e-07,8.275,6.3587e-07,4.7777,-8.0701e-12,5.3377e-06,-6.3585e-07,-4.7775,0.87793
11205,11.615,5.6364,0,0.00029427,2940.7,9.7645e-05,6.4187,9.6792e-05,0.0044243,-0.00029416,-2937.5,0.91456
11206,11.523,5.5455,0,0.0002966,2964,9.8272e-05,4.7119,9.7645e-05,0.0027803,-0.00029652,-2961.6,0.90276
11207,11.523,5.6364,0.05,8.2367e-07,8.231,6.3248e-07,4.7523,-7.1696e-12,4.5891e-06,-6.3247e-07,-4.752,0.90228
11208,11.799,5.6364,0,0.00028929,2890.9,9.6055e-05,7.0442,9.5118e-05,0.0032557,-0.00028917,-2887.4,0.93921
11209,11.707,5.5455,0,0.00029162,2914.2,9.669e-05,5.4501,9.5965e-05,0.0019395,-0.00029153,-2911.5,0.9273
11210,11.707,5.6364,0.05,8.1934e-07,8.1877,6.2916e-07,4.7273,-7.1885e-12,4.0579e-06,-6.2914e-07,-4.7271,0.92683
11211,11.982,5.6364,0,0.00028434,2841.4,9.4469e-05,7.6391,9.3453e-05,0.0021623,-0.00028421,-2837.6,0.96405
11212,11.89,5.5455,0,0.00028666,2864.6,9.5112e-05,6.1497,9.4294e-05,0.0011656,-0.00028656,-2861.6,0.95204
11213,11.89,5.6364,0.05,8.1509e-07,8.1452,6.259e-07,4.7028,-9.0459e-12,4.5998e-06,-6.2587e-07,-4.7025,0.95157
11214,12.165,5.6364,0,0.0002794,2792.1,9.2887e-05,8.2052,9.1795e-05,0.0011229,-0.00027926,-2788,0.98908
11215,12.074,5.5455,0,0.00028172,2815.3,9.3537e-05,6.813,9.263e-05,0.00045224,-0.0002816,-2811.8,0.97697
11216,12.074,5.6364,0.05,8.1092e-07,8.1036,6.2269e-07,4.6787,-9.0394e-12,4.3239e-06,-6.2268e-07,-4.6785,0.97651
11217,12.349,5.6364,0,0.00027448,2742.9,9.131e-05,8.7447,9.0146e-05,0.00014055,-0.00027433,-2738.5,1.0143
11218,12.257,5.5455,0,0.0002768,2766.1,9.1965e-05,7.4423,9.0975e-05,-0.00024181,-0.00027667,-2762.4,1.0021
11219,12.257,5.6364,0.05,8.0682e-07,8.0626,6.1955e-07,4.6551,-7.2393e-12,4.7645e-06,-6.1953e-07,-4.6548,1.0016
11220,12.532,5.6364,0,0.00026959,2694,8.9737e-05,9.2594,8.8504e-05,-0.00076535,-0.00026943,-2689.4,1.0397
11221,12.441,5.5455,0,0.0002719,2717.1,9.0398e-05,8.0401,8.9327e-05,-0.00087202,-0.00027176,-2713.1,1.0274
11222,12.441,5.6364,0.05,8.0279e-07,8.0223,6.1645e-07,4.6318,-7.2473e-12,5.6397e-06,-6.1644e-07,-4.6316,1.0269
11223,12.716,5.6364,0,0.00026471,2645.3,8.8168e-05,9.7513,8.687e-05,-0.001599,-0.00026454,-2640.4,1.0653
11224,12.624,5.5455,0,0.00026701,2668.3,8.8834e-05,8.6088,8.7688e-05,-0.0014469,-0.00026687,-2664,1.0529
11225,12.624,5.6364,0.05,7.9883e-07,7.9828,6.1341e-07,4.609,-7.2647e-12,4.9115e-06,-6.1339e-07,-4.6087,1.0524
11226,12.899,5.6364,0,0.00025985,2596.7,8.6605e-05,10.222,8.5244e-05,-0.0023909,-0.00025968,-2591.6,1.091
11227,12.808,5.5455,0,0.00026215,2619.7,8.7275e-05,9.1507,8.6056e-05,-0.001965,-0.000262,-2615.1,1.0785
11228,12.808,5.6364,0.05,7.9494e-07,7.9439,6.1042e-07,4.5865,-6.3606e-12,4.3565e-06,-6.1041e-07,-4.5863,1.0781
11229,13.083,5.6364,0,0.00025501,2548.4,8.5046e-05,10.674,8.3625e-05,-0.0031538,-0.00025483,-2543,1.117
11230,12.991,5.5455,0,0.00025731,2571.3,8.572e-05,9.668,8.4433e-05,-0.0024869,-0.00025714,-2566.5,1.1044
11231,12.991,5.6364,0.05,7.9112e-07,7.9058,6.0749e-07,4.5645,-7.277e-12,4.0774e-06,-6.0748e-07,-4.5643,1.104
11232,13.266,5.6364,0,0.0002502,2500.3,8.3493e-05,11.109,8.2014e-05,-0.0038514,-0.00025001,-2494.7,1.1431
11233,13.175,5.5455,0,0.00025249,2523.1,8.4169e-05,10.163,8.2816e-05,-0.0029766,-0.00025231,-2518,1.1304
11234,13.175,5.6364,0.05,7.8736e-07,7.8681,6.046e-07,4.5428,-5.4666e-12,4.4293e-06,-6.0458e-07,-4.5426,1.13
11235,13.45,5.6364,0,0.0002454,2452.3,8.1945e-05,11.528,8.041e-05,-0.0045053,-0.0002452,-2446.5,1.1694
11236,13.358,5.5455,0,0.00024768,2475.1,8.2624e-05,10.638,8.1208e-05,-0.0033969,-0.0002475,-2469.8,1.1566
11237,13.358,5.6364,0.05,7.8365e-07,7.8311,6.0175e-07,4.5214,-5.4698e-12,4.9922e-06,-6.0174e-07,-4.5212,1.1562
11238,13.633,5.6364,0,0.00024063,2404.6,8.0403e-05,11.933,7.8814e-05,-0.0051365,-0.00024042,-2398.6,1.1958
11239,13.542,5.5455,0,0.0002429,2427.3,8.1084e-05,11.094,7.9606e-05,-0.0038238,-0.00024271,-2421.8,1.1829
11240,13.542,5.6364,0.05,7.8001e-07,7.7947,5.9896e-07,4.5004,-7.3002e-12,5.4622e-06,-5.9894e-07,-4.5002,1.1825
11241,13.817,5.6364,0,0.00023587,2357.1,7.8866e-05,12.326,7.7225e-05,-0.0057281,-0.00023566,-2350.9,1.2224
11242,13.725,5.5455,0,0.00023814,2379.7,7.9548e-05,11.534,7.8013e-05,-0.0042223,-0.00023794,-2373.9,1.2094
11243,13.725,5.6364,0.05,7.7641e-07,7.7588,5.9619e-07,4.4796,-4.5744e-12,5.1736e-06,-5.9618e-07,-4.4794,1.209
11244,14,5.6364,0,0.00023113,2309.7,7.7335e-05,12.708,7.5643e-05,-0.0063017,-0.00023091,-2303.4,1.2491
11245,13.909,5.5455,0,0.00023339,2332.3,7.8018e-05,11.96,7.6426e-05,-0.0045926,-0.00023319,-2326.3,1.2361
11246,13.909,5.6364,0.05,7.7287e-07,7.7234,5.9347e-07,4.4592,-5.4837e-12,4.6644e-06,-5.9346e-07,-4.459,1.2357
11247,14.184,5.6364,0,0.00022642,2262.6,7.581e-05,13.081,7.4068e-05,-0.0068459,-0.00022619,-2256,1.276
11248,14.092,5.5455,0,0.00022867,2285.1,7.6494e-05,12.373,7.4846e-05,-0.0049748,-0.00022846,-2278.9,1.2629
11249,14.092,5.6364,0.05,7.6937e-07,7.6884,5.9079e-07,4.439,-6.3914e-12,4.8398e-06,-5.9077e-07,-4.4388,1.2626
11250,14.367,5.6364,0,0.00022172,2215.7,7.429e-05,13.445,7.25e-05,-0.00735,-0.00022149,-2208.9,1.3031
11251,14.276,5.5455,0,0.00022396,2238.1,7.4975e-05,12.776,7.3274e-05,-0.0053032,-0.00022374,-2231.7,1.2899
11252,14.276,5.6364,0.05,7.6591e-07,7.6538,5.8813e-07,4.419,-6.4012e-12,4.7762e-06,-5.8812e-07,-4.4188,1.2895
11253,14.551,5.6364,0,0.00021704,2168.9,7.2777e-05,13.804,7.0939e-05,-0.0078514,-0.00021681,-2162,1.3303
11254,14.459,5.5455,0,0.00021928,2191.3,7.3462e-05,13.169,7.1709e-05,-0.0056193,-0.00021905,-2184.7,1.317
11255,14.459,5.6364,0.05,7.625e-07,7.6198,5.8551e-07,4.3994,-6.3982e-12,5.0947e-06,-5.855e-07,-4.3992,1.3167
11256,14.734,5.6364,0,0.00021239,2122.4,7.127e-05,14.157,6.9385e-05,-0.0083453,-0.00021214,-2115.3,1.3577
11257,14.642,5.5455,0,0.00021462,2144.7,7.1955e-05,13.554,7.015e-05,-0.0059553,-0.00021438,-2137.9,1.3443
11258,14.642,5.6364,0.05,7.5913e-07,7.5861,5.8293e-07,4.3799,-7.3176e-12,5.0767e-06,-5.8292e-07,-4.3797,1.344
11259,14.918,5.6364,0,0.00020775,2076.1,6.9769e-05,14.506,6.7838e-05,-0.0088128,-0.0002075,-2068.8,1.3852
11260,14.826,5.5455,0,0.00020997,2098.3,7.0454e-05,13.934,6.8599e-05,-0.0062667,-0.00020973,-2091.3,1.3717
11261,14.826,5.6364,0.05,7.558e-07,7.5528,5.8037e-07,4.3607,-3.6751e-12,6.1494e-06,-5.8036e-07,-4.3605,1.3714
11262,15.101,5.6364,0,0.00020314,2030,6.8275e-05,14.853,6.6297e-05,-0.0092583,-0.00020288,-2022.5,1.4128
11263,15.009,5.5455,0,0.00020535,2052,6.8959e-05,14.309,6.7054e-05,-0.0065592,-0.0002051,-2044.9,1.3993
11264,15.009,5.6364,0.05,7.5251e-07,7.5199,5.7784e-07,4.3417,-5.5054e-12,6.2146e-06,-5.7783e-07,-4.3415,1.3989
11265,15.285,5.6364,0,0.00019854,1984,6.6787e-05,15.198,6.4763e-05,-0.0097019,-0.00019828,-1976.4,1.4406
11266,15.193,5.5455,0,0.00020074,2006,6.747e-05,14.681,6.5516e-05,-0.0068335,-0.00020049,-1998.7,1.427
11267,15.193,5.6364,0.05,7.4926e-07,7.4874,5.7534e-07,4.3229,-4.6002e-12,5.9747e-06,-5.7533e-07,-4.3228,1.4266
11268,15.468,5.6364,0,0.00019396,1938.3,6.5306e-05,15.543,6.3236e-05,-0.010151,-0.0001937,-1930.5,1.4685
11269,15.376,5.5455,0,0.00019616,1960.2,6.5988e-05,15.051,6.3984e-05,-0.0071259,-0.0001959,-1952.7,1.4548
11270,15.376,5.6364,0.05,7.4605e-07,7.4554,5.7288e-07,4.3044,-4.5785e-12,7.3582e-06,-5.7287e-07,-4.3043,1.4545
11271,15.652,5.6364,0,0.00018941,1892.8,6.3831e-05,15.889,6.1715e-05,-0.010593,-0.00018913,-1884.8,1.4965
11272,15.56,5.5455,0,0.00019159,1914.6,6.4513e-05,15.42,6.246e-05,-0.0074125,-0.00019133,-1906.8,1.4828
11273,15.56,5.6364,0.05,7.4288e-07,7.4237,5.7044e-07,4.2861,-6.4117e-12,6.9789e-06,-5.7043e-07,-4.286,1.4825
11274,15.835,5.6364,0,0.00018487,1847.4,6.2363e-05,16.237,6.0201e-05,-0.011046,-0.00018459,-1839.3,1.5247
11275,15.743,5.5455,0,0.00018705,1869.2,6.3044e-05,15.791,6.0941e-05,-0.0076928,-0.00018677,-1861.2,1.5109
11276,15.743,5.6364,0.05,7.3975e-07,7.3924,5.6804e-07,4.2681,-3.6872e-12,5.8002e-06,-5.6803e-07,-4.2679,1.5105
11277,16.019,5.6364,0,0.00018036,1802.3,6.0902e-05,16.588,5.8693e-05,-0.0115,-0.00018007,-1794,1.5529
11278,15.927,5.5455,0,0.00018252,1824,6.1582e-05,16.164,5.9429e-05,-0.0079992,-0.00018224,-1815.8,1.5391
11279,15.927,5.6364,0.05,7.3665e-07,7.3614,5.6566e-07,4.2502,-3.6758e-12,5.9391e-06,-5.6565e-07,-4.25,1.5388
11280,16.202,5.6364,0,0.00017586,1757.4,5.9448e-05,16.943,5.7192e-05,-0.011948,-0.00017557,-1748.9,1.5813
11281,16.11,5.5455,0,0.00017802,1779,6.0127e-05,16.541,5.7924e-05,-0.0082787,-0.00017773,-1770.6,1.5674
11282,16.11,5.6364,0.05,7.3359e-07,7.3308,5.6331e-07,4.2325,-3.6929e-12,6.305e-06,-5.633e-07,-4.2324,1.5671
11283,16.386,5.6364,0,0.00017138,1712.7,5.8001e-05,17.303,5.5697e-05,-0.012419,-0.00017108,-1703.9,1.6099
11284,16.294,5.5455,0,0.00017353,1734.1,5.8678e-05,16.923,5.6425e-05,-0.0085653,-0.00017324,-1725.6,1.5959
11285,16.294,5.6364,0.05,7.3057e-07,7.3007,5.6099e-07,4.2151,-3.695e-12,7.1996e-06,-5.6098e-07,-4.215,1.5956
11286,16.569,5.6364,0,0.00016693,1668.1,5.6561e-05,17.669,5.4208e-05,-0.01291,-0.00016662,-1659.2,1.6385
11287,16.477,5.5455,0,0.00016907,1689.5,5.7237e-05,17.311,5.4932e-05,-0.0088847,-0.00016877,-1680.8,1.6244
11288,16.477,5.6364,0.05,7.2759e-07,7.2709,5.587e-07,4.1979,-3.697e-12,6.8367e-06,-5.587e-07,-4.1978,1.6241
11289,16.753,5.6364,0,0.00016249,1623.8,5.5128e-05,18.043,5.2725e-05,-0.013407,-0.00016218,-1614.7,1.6672
11290,16.661,5.5455,0,0.00016462,1645.1,5.5803e-05,17.706,5.3445e-05,-0.0091988,-0.00016431,-1636.2,1.6531
11291,16.661,5.6364,0.05,7.2465e-07,7.2415,5.5645e-07,4.181,-3.7156e-12,7.7764e-06,-5.5644e-07,-4.1808,1.6528
11292,16.936,5.6364,0,0.00015808,1579.7,5.3702e-05,18.425,5.1248e-05,-0.013915,-0.00015775,-1570.4,1.6961
11293,16.844,5.5455,0,0.0001602,1600.9,5.4377e-05,18.11,5.1965e-05,-0.0095175,-0.00015988,-1591.7,1.6819
11294,16.844,5.6364,0.05,7.2176e-07,7.2126,5.5422e-07,4.1643,-3.7184e-12,8.121e-06,-5.5422e-07,-4.1641,1.6816
11295,17.119,5.6364,0,0.00015368,1535.7,5.2284e-05,18.816,4.9778e-05,-0.014452,-0.00015335,-1526.2,1.725
11296,17.028,5.5455,0,0.00015579,1556.9,5.2957e-05,18.525,5.049e-05,-0.00984,-0.00015547,-1547.5,1.7108
11297,17.028,5.6364,0.05,7.1891e-07,7.1841,5.5204e-07,4.1478,-3.7183e-12,7.2605e-06,-5.5203e-07,-4.1477,1.7105
11298,17.303,5.6364,0,0.0001493,1492,5.0873e-05,19.217,4.8313e-05,-0.015022,-0.00014897,-1482.3,1.7541
11299,17.211,5.5455,0,0.00015141,1513,5.1545e-05,18.95,4.9022e-05,-0.010195,-0.00015108,-1503.5,1.7398
11300,17.211,5.6364,0.05,7.1611e-07,7.1562,5.4989e-07,4.1317,-2.327e-12,7.0277e-06,-5.4988e-07,-4.1316,1.7395
11301,17.486,5.6364,0,0.00014494,1448.4,4.9469e-05,19.63,4.6855e-05,-0.015619,-0.0001446,-1438.5,1.7832
11302,17.395,5.5455,0,0.00014704,1469.4,5.0141e-05,19.388,4.7559e-05,-0.010565,-0.0001467,-1459.6,1.7689
11303,17.395,5.6364,0.05,7.1336e-07,7.1287,5.4778e-07,4.1158,-3.2838e-12,5.8476e-06,-5.4777e-07,-4.1157,1.7686
11304,17.67,5.6364,0,0.00014061,1405.1,4.8073e-05,20.055,4.5402e-05,-0.016258,-0.00014026,-1395,1.8125
11305,17.578,5.5455,0,0.0001427,1426,4.8745e-05,19.84,4.6103e-05,-0.010949,-0.00014235,-1416,1.7981
11306,17.578,5.6364,0.05,7.1067e-07,7.1018,5.4571e-07,4.1003,-3.2878e-12,7.7171e-06,-5.457e-07,-4.1001,1.7978
11307,17.853,5.6364,0,0.00013629,1361.9,4.6685e-05,20.494,4.3955e-05,-0.016936,-0.00013593,-1351.6,1.8418
11308,17.762,5.5455,0,0.00013837,1382.7,4.7356e-05,20.307,4.4651e-05,-0.011376,-0.00013801,-1372.5,1.8274
11309,17.762,5.6364,0.05,7.0803e-07,7.0754,5.4368e-07,4.085,-3.2832e-12,8.9404e-06,-5.4367e-07,-4.0849,1.8271
11310,18.037,5.6364,0,0.00013199,1319,4.5304e-05,20.946,4.2514e-05,-0.017646,-0.00013162,-1308.4,1.8713
11311,17.945,5.5455,0,0.00013406,1339.7,4.5975e-05,20.791,4.3206e-05,-0.011806,-0.0001337,-1329.2,1.8568
11312,17.945,5.6364,0.05,7.0544e-07,7.0495,5.4169e-07,4.0701,-2.8144e-12,9.6142e-06,-5.4169e-07,-4.07,1.8565
11313,18.22,5.6364,0,0.00012771,1276.2,4.393e-05,21.414,4.1078e-05,-0.018414,-0.00012733,-1265.4,1.9008
11314,18.129,5.5455,0,0.00012978,1296.9,4.4602e-05,21.292,4.1766e-05,-0.012264,-0.0001294,-1286.1,1.8862
11315,18.129,5.6364,0.05,7.0293e-07,7.0244,5.3976e-07,4.0556,-2.3691e-12,7.2429e-06,-5.3976e-07,-4.0555,1.886
11316,18.404,5.6364,0,0.00012345,1233.6,4.2564e-05,21.898,3.9647e-05,-0.019241,-0.00012306,-1222.6,1.9304
11317,18.312,5.5455,0,0.00012551,1254.2,4.3236e-05,21.813,4.0332e-05,-0.012772,-0.00012512,-1243.2,1.9158
11318,18.312,5.6364,0.05,7.0047e-07,6.9999,5.3788e-07,4.0415,-2.3606e-12,7.9134e-06,-5.3787e-07,-4.0413,1.9156
11319,18.587,5.6364,0,0.00011921,1191.3,4.1206e-05,22.4,3.8222e-05,-0.020121,-0.00011881,-1179.9,1.9601
11320,18.496,5.5455,0,0.00012126,1211.8,4.1879e-05,22.354,3.8903e-05,-0.013305,-0.00012087,-1200.4,1.9454
11321,18.496,5.6364,0.05,6.9809e-07,6.9761,5.3605e-07,4.0277,-1.9505e-12,7.0778e-06,-5.3605e-07,-4.0276,1.9452
11322,18.771,5.6364,0,0.00011499,1149.1,3.9856e-05,22.919,3.6803e-05,-0.02106,-0.00011458,-1137.4,1.9899
11323,18.679,5.5455,0,0.00011703,1169.5,4.0531e-05,22.917,3.7479e-05,-0.01387,-0.00011663,-1157.9,1.9752
11324,18.679,5.6364,0.05,6.9579e-07,6.9531,5.3428e-07,4.0144,-2.3686e-12,8.8871e-06,-5.3428e-07,-4.0143,1.975
11325,18.954,5.6364,0,0.00011078,1107.1,3.8513e-05,23.458,3.5388e-05,-0.022076,-0.00011037,-1095.2,2.0197
11326,18.863,5.5455,0,0.00011282,1127.4,3.919e-05,23.503,3.606e-05,-0.014468,-0.0001124,-1115.5,2.005
11327,18.863,5.6364,0.05,6.9357e-07,6.9309,5.3258e-07,4.0016,-1.9e-12,7.7954e-06,-5.3257e-07,-4.0015,2.0048
11328,19.138,5.6364,0,0.0001066,1065.2,3.7178e-05,24.016,3.3979e-05,-0.023177,-0.00010617,-1053,2.0496
11329,19.046,5.5455,0,0.00010863,1085.6,3.7857e-05,24.113,3.4646e-05,-0.015126,-0.0001082,-1073.3,2.0348
11330,19.046,5.6364,0.05,6.9144e-07,6.9097,5.3094e-07,3.9893,-1.8652e-12,8.2068e-06,-5.3094e-07,-3.9893,2.0346
11331,19.321,5.6364,0,0.00010243,1023.6,3.5851e-05,24.595,3.2574e-05,-0.024363,-0.00010199,-1011.1,2.0796
11332,19.229,5.5455,0,0.00010446,1043.9,3.6533e-05,24.75,3.3237e-05,-0.015828,-0.00010402,-1031.3,2.0648
11333,19.229,5.6364,0.05,6.8941e-07,6.8893,5.2938e-07,3.9776,-1.4623e-12,8.5634e-06,-5.2938e-07,-3.9775,2.0646
11334,19.505,5.6364,0,9.8282e-05,982.14,3.4531e-05,25.196,3.1175e-05,-0.025651,-9.7829e-05,-969.31,2.1097
11335,19.413,5.5455,0,0.00010031,1002.4,3.5218e-05,25.414,3.1833e-05,-0.016583,-9.985e-05,-989.43,2.0948
11336,19.413,5.6364,0.05,6.8748e-07,6.87,5.279e-07,3.9664,-1.942e-12,1.0705e-05,-5.279e-07,-3.9664,2.0946
11337,19.688,5.6364,0,9.4151e-05,940.86,3.322e-05,25.819,2.978e-05,-0.027044,-9.3685e-05,-927.69,2.1398
11338,19.596,5.5455,0,9.6172e-05,961.06,3.391e-05,26.107,3.0433e-05,-0.017406,-9.5702e-05,-947.75,2.1249
11339,19.596,5.6364,0.05,6.8565e-07,6.8518,5.265e-07,3.9559,-1.0108e-12,9.6836e-06,-5.2649e-07,-3.9559,2.1247
11340,19.872,5.6364,0,9.0037e-05,899.75,3.1915e-05,26.465,2.8389e-05,-0.028546,-8.9558e-05,-886.24,2.17
11341,19.78,5.5455,0,9.2056e-05,919.92,3.2612e-05,26.83,2.9038e-05,-0.01828,-9.157e-05,-906.22,2.155
11342,19.78,5.6364,0.05,6.8394e-07,6.8347,5.2519e-07,3.9461,-1.2464e-12,8.8825e-06,-5.2518e-07,-3.946,2.1548
11343,20.055,5.6364,0,8.5941e-05,858.82,3.0619e-05,27.135,2.7003e-05,-0.030181,-8.5448e-05,-844.95,2.2002
11344,19.963,5.5455,0,8.7958e-05,878.97,3.1321e-05,27.585,2.7647e-05,-0.019218,-8.7456e-05,-864.86,2.1852
11345,19.963,5.6364,0.05,6.8236e-07,6.8189,5.2397e-07,3.9369,-5.388e-13,9.0286e-06,-5.2397e-07,-3.9369,2.185
11346,20.239,5.6364,0,8.1863e-05,818.06,2.933e-05,27.829,2.5622e-05,-0.031961,-8.1354e-05,-803.81,2.2305
11347,20.147,5.5455,0,8.3878e-05,838.2,3.004e-05,28.374,2.6261e-05,-0.020244,-8.3359e-05,-823.66,2.2155
11348,20.147,5.6364,0.05,6.8091e-07,6.8044,5.2286e-07,3.9286,-5.9626e-13,8.5463e-06,-5.2286e-07,-3.9285,2.2153
11349,20.422,5.6364,0,7.7801e-05,777.47,2.8048e-05,28.548,2.4244e-05,-0.03389,-7.7276e-05,-762.82,2.2608
11350,20.33,5.5455,0,7.9816e-05,797.61,2.8767e-05,29.197,2.4878e-05,-0.02134,-7.9279e-05,-782.62,2.2458
11351,20.33,5.6364,0.05,6.7961e-07,6.7914,5.2185e-07,3.921,-6.4057e-13,8.3196e-06,-5.2185e-07,-3.921,2.2456
11352,20.606,5.6364,0,7.3755e-05,737.04,2.6774e-05,29.292,2.2871e-05,-0.035983,-7.3214e-05,-721.98,2.2912
11353,20.514,5.5455,0,7.5771e-05,757.19,2.7502e-05,30.056,2.3499e-05,-0.022515,-7.5215e-05,-741.72,2.2762
11354,20.514,5.6364,0.05,6.7845e-07,6.7798,5.2097e-07,3.9143,4.0472e-14,8.6655e-06,-5.2096e-07,-3.9143,2.276
11355,20.789,5.6364,0,6.9726e-05,696.78,2.5507e-05,30.063,2.1501e-05,-0.038264,-6.9167e-05,-681.28,2.3217
11356,20.697,5.5455,0,7.1744e-05,716.95,2.6247e-05,30.954,2.2124e-05,-0.023773,-7.1168e-05,-700.98,2.3066
11357,20.697,5.6364,0.05,6.7746e-07,6.7699,5.202e-07,3.9086,-1.9423e-13,7.6414e-06,-5.202e-07,-3.9086,2.3064
11358,20.973,5.6364,0,6.5714e-05,656.68,2.4248e-05,30.86,2.0136e-05,-0.040751,-6.5135e-05,-640.73,2.3522
11359,20.881,5.5455,0,6.7734e-05,676.88,2.5e-05,31.892,2.0752e-05,-0.025131,-6.7136e-05,-660.38,2.337
11360,20.881,5.6364,0.05,6.7664e-07,6.7617,5.1957e-07,3.9039,4.6523e-13,7.431e-06,-5.1957e-07,-3.9039,2.3369
11361,21.156,5.6364,0,6.1717e-05,616.75,2.2996e-05,31.684,1.8773e-05,-0.043459,-6.1118e-05,-600.31,2.3827
11362,21.064,5.5455,0,6.3742e-05,636.98,2.3762e-05,32.872,1.9383e-05,-0.026581,-6.312e-05,-619.92,2.3675
11363,21.064,5.6364,0.05,6.76e-07,6.7553,5.1908e-07,3.9002,1.9754e-13,7.5334e-06,-5.1908e-07,-3.9002,2.3674
11364,21.34,5.6364,0,5.7737e-05,576.97,2.1751e-05,32.535,1.7415e-05,-0.046415,-5.7115e-05,-560.03,2.4133
11365,21.248,5.5455,0,5.9768e-05,597.27,2.2533e-05,33.898,1.8018e-05,-0.028123,-5.9119e-05,-579.61,2.3981
11366,21.248,5.6364,0.05,6.7555e-07,6.7508,5.1874e-07,3.8976,-1.6143e-13,6.5862e-06,-5.1874e-07,-3.8976,2.398
11367,21.523,5.6364,0,5.3772e-05,537.35,2.0514e-05,33.416,1.606e-05,-0.049637,-5.3127e-05,-519.89,2.4439
11368,21.431,5.5455,0,5.5811e-05,557.73,2.1314e-05,34.972,1.6656e-05,-0.029765,-5.5134e-05,-539.43,2.4287
11369,21.431,5.6364,0.05,6.7531e-07,6.7484,5.1855e-07,3.8962,-1.3342e-13,5.2926e-06,-5.1855e-07,-3.8962,2.4285
11370,21.706,5.6364,0,4.9825e-05,497.9,1.9284e-05,34.327,1.4708e-05,-0.05314,-4.9153e-05,-479.88,2.4745
11371,21.615,5.5455,0,5.1873e-05,518.38,2.0105e-05,36.099,1.5296e-05,-0.031482,-5.1165e-05,-499.4,2.4593
11372,21.615,5.6364,0.05,6.7528e-07,6.7481,5.1853e-07,3.896,1.8192e-13,5.2232e-06,-5.1853e-07,-3.896,2.4592
11373,21.89,5.6364,0,4.5895e-05,458.63,1.8062e-05,35.271,1.336e-05,-0.056957,-4.5193e-05,-440,2.5052
11374,21.798,5.5455,0,4.7955e-05,479.22,1.8906e-05,37.285,1.3939e-05,-0.033258,-4.7212e-05,-459.5,2.4899
11375,21.798,5.6364,0.05,6.7549e-07,6.7502,5.1869e-07,3.8972,2.1953e-13,7.7555e-06,-5.1869e-07,-3.8972,2.4898
11376,22.073,5.6364,0,4.1983e-05,419.54,1.6848e-05,36.253,1.2015e-05,-0.061097,-4.1249e-05,-400.27,2.5359
11377,21.982,5.5455,0,4.4057e-05,440.27,1.7719e-05,38.537,1.2585e-05,-0.035076,-4.3275e-05,-419.75,2.5206
11378,21.982,5.6364,0.05,6.7594e-07,6.7547,5.1904e-07,3.8999,6.8296e-13,4.1653e-06,-5.1904e-07,-3.8999,2.5205
11379,22.257,5.6364,0,3.8092e-05,380.66,1.5643e-05,37.277,1.0673e-05,-0.065556,-3.7322e-05,-360.68,2.5666
11380,22.165,5.5455,0,4.0183e-05,401.55,1.6544e-05,39.867,1.1233e-05,-0.036852,-3.9356e-05,-380.15,2.5513
11381,22.165,5.6364,0.05,6.7667e-07,6.762,5.196e-07,3.9041,6.7513e-13,6.3453e-06,-5.196e-07,-3.9041,2.5512
11382,22.44,5.6364,0,3.4225e-05,342.02,1.4449e-05,38.356,9.3349e-06,-0.070297,-3.3412e-05,-321.25,2.5974
11383,22.349,5.5455,0,3.6335e-05,363.1,1.5384e-05,41.291,9.8837e-06,-0.038496,-3.5456e-05,-340.71,2.5821
11384,22.349,5.6364,0.05,6.777e-07,6.7724,5.2039e-07,3.91,3.3037e-13,6.5861e-06,-5.2039e-07,-3.91,2.582
11385,22.624,5.6364,0,3.0387e-05,303.66,1.3268e-05,39.507,8.0004e-06,-0.075277,-2.9522e-05,-282.01,2.6281
11386,22.532,5.5455,0,3.252e-05,324.97,1.4242e-05,42.834,8.5362e-06,-0.039788,-3.1579e-05,-301.45,2.6128
11387,22.532,5.6364,0.05,6.791e-07,6.7863,5.2146e-07,3.9181,5.9049e-13,7.8063e-06,-5.2146e-07,-3.9181,2.6127
11388,22.807,5.6364,0,2.6586e-05,265.68,1.2105e-05,40.761,6.6697e-06,-0.08008,-2.5658e-05,-242.98,2.6589
11389,22.716,5.5455,0,2.8745e-05,287.26,1.3123e-05,44.535,7.1905e-06,-0.040534,-2.7728e-05,-262.4,2.6436
11390,22.716,5.6364,0.05,6.8093e-07,6.8046,5.2287e-07,3.9287,4.3602e-13,4.2495e-06,-5.2287e-07,-3.9287,2.6435
11391,22.991,5.6364,0,2.2837e-05,228.21,1.0967e-05,42.174,5.3426e-06,-0.084938,-2.1826e-05,-204.22,2.6897
11392,22.899,5.5455,0,2.5026e-05,250.09,1.2034e-05,46.456,5.8463e-06,-0.039593,-2.391e-05,-223.61,2.6744
11393,22.899,5.6364,0.05,6.8337e-07,6.829,5.2474e-07,3.9427,5.179e-13,7.021e-06,-5.2474e-07,-3.9427,2.6743
11394,23.174,5.6364,0,1.9165e-05,191.52,9.8671e-06,43.854,4.019e-06,-0.085858,-1.8039e-05,-165.82,2.7205
11395,23.083,5.5455,0,2.1384e-05,213.7,1.0989e-05,48.698,4.5024e-06,-0.037921,-2.0135e-05,-185.16,2.7052
11396,23.083,5.6364,0.05,6.8671e-07,6.8624,5.2731e-07,3.962,8.9834e-13,1.3282e-05,-5.2731e-07,-3.962,2.7051
11397,23.358,5.6364,0,1.562e-05,156.1,8.8324e-06,46.011,2.6965e-06,-0.09133,-1.432e-05,-127.94,2.7514
11398,23.266,5.5455,0,1.7863e-05,178.51,1.0008e-05,51.445,3.1578e-06,-0.024779,-1.6423e-05,-147.14,2.736
11399,23.266,5.6364,0.05,6.9159e-07,6.9111,5.3106e-07,3.9901,1.1937e-12,1.2874e-05,-5.3106e-07,-3.9901,2.7359
11400,23.541,5.6364,0,1.2312e-05,123.03,7.9196e-06,49.133,1.3735e-06,-0.051363,-1.0715e-05,-90.882,2.7822
11401,23.45,5.5455,0,1.454e-05,145.3,9.1304e-06,55.008,1.8054e-06,-0.028325,-1.28e-05,-109.77,2.7669
11402,23.45,5.6364,0.05,6.9987e-07,6.9939,5.3741e-07,4.0379,1.3382e-12,1.3162e-05,-5.3741e-07,-4.0379,2.7668
11403,23.725,5.6364,0,9.489e-06,94.825,7.2583e-06,54.249,1.666e-08,-0.16215,-7.3144e-06,-55.245,2.8131
11404,23.633,5.5455,0,1.1575e-05,115.67,8.4253e-06,60.038,4.478e-07,0.098079,-9.3211e-06,-73.301,2.7977
11405,23.633,5.6364,0.05,7.1857e-07,7.1808,5.5177e-07,4.1458,1.5452e-12,1.8306e-05,-5.5178e-07,-4.1458,2.7976
11406,23.817,5.5455,0,9.2883e-06,92.819,8.0256e-06,67.51,-9.7943e-07,-0.15021,-6.0577e-06,-38.306,2.8286
11407,23.817,5.6364,0.05,7.8481e-07,7.8427,6.0264e-07,4.528,1.6554e-12,1.8244e-05,-6.0264e-07,-4.528,2.8285
11408,23.908,5.6364,0,7.3555e-06,73.504,6.7528e-06,60.474,-1.2735e-06,0.16779,-4.1442e-06,-21.402,2.8439
11409,3.5419,5.4545,0,0.00021065,2105.1,0.00010589,445.44,4.5597e-05,-7.6096,-0.00019951,-1849.3,0.071713
11410,3.4501,5.3636,0,0.00024325,2430.9,0.00014052,751.07,3.9222e-05,-10.059,-0.00022153,-1969.3,0.06579
11411,3.4501,5.4545,0.05,1.3028e-05,130.19,1.0004e-05,75.167,-5.4053e-13,-1.705e-05,-1.0004e-05,-75.167,0.064771
11412,3.3584,5.4545,0,0.00016791,1677.9,9.1715e-05,454.35,3.16e-05,2.6744,-0.00015551,-1403.2,0.058059
11413,3.7254,5.4545,0,0.00023633,2361.7,0.00010205,291.38,6.2805e-05,-3.5098,-0.00023005,-2203.9,0.085433
11414,3.6336,5.3636,0,0.00024725,2470.8,0.00011882,456.88,5.7716e-05,-2.1931,-0.0002363,-2211.3,0.07942
11415,3.6336,5.4545,0.05,1.0488e-05,104.81,8.0536e-06,60.512,2.5924e-12,3.1279e-05,-8.0536e-06,-60.512,0.07847
11416,3.9088,5.4545,0,0.00027514,2749.5,0.00011061,238.53,7.8476e-05,-2.8897,-0.00027033,-2623.7,0.099267
11417,3.8171,5.3636,0,0.00027793,2777.4,0.00011953,337.04,7.4219e-05,-3.3976,-0.00027068,-2594.8,0.093144
11418,3.8171,5.4545,0.05,9.4759e-06,94.694,7.2763e-06,54.672,4.3256e-12,6.3175e-05,-7.2763e-06,-54.672,0.092253
11419,4.0923,5.4545,0,0.00031315,3129.4,0.00012099,212.29,9.2496e-05,-1.7647,-0.00030902,-3018.6,0.11326
11420,4.0006,5.3636,0,0.00031286,3126.4,0.00012597,274.28,8.9171e-05,-2.1782,-0.00030731,-2981.2,0.10701
11421,4.0006,5.4545,0.05,8.2207e-06,82.15,6.3125e-06,47.43,5.8762e-12,8.0924e-05,-6.3125e-06,-47.43,0.10617
11422,4.2758,5.4545,0,0.0003463,3460.6,0.00013022,191.7,0.00010455,-1.1939,-0.00034265,-3361.3,0.12744
11423,4.1841,5.3636,0,0.0003452,3449.6,0.00013326,232.89,0.00010204,-1.6537,-0.00034067,-3328,0.12105
11424,4.1841,5.4545,0.05,6.9025e-06,68.977,5.3002e-06,39.824,5.1963e-12,8.4886e-05,-5.3002e-06,-39.824,0.12025
11425,4.4593,5.4545,0,0.0003735,3732.4,0.00013747,170.77,0.00011463,-0.81947,-0.00037031,-3644.5,0.14184
11426,4.3676,5.3636,0,0.00037255,3722.9,0.00013954,199.56,0.00011282,-1.1971,-0.00036877,-3619.7,0.1353
11427,4.3676,5.4545,0.05,5.6402e-06,56.363,4.331e-06,32.541,5.0918e-12,7.941e-05,-4.331e-06,-32.541,0.13455
11428,4.6428,5.4545,0,0.00039491,3946.3,0.00014269,148.49,0.00012284,-0.59309,-0.00039218,-3870.3,0.15648
11429,4.551,5.3636,0,0.00039443,3941.6,0.00014426,169.32,0.00012161,-0.90629,-0.00039129,-3854.6,0.1498
11430,4.551,5.4545,0.05,4.5028e-06,44.997,3.4576e-06,25.979,4.4407e-12,7.5204e-05,-3.4576e-06,-25.979,0.14907
11431,4.8263,5.4545,0,0.00041116,4108.7,0.00014615,125.58,0.00012938,-0.44421,-0.00040888,-4044.7,0.17138
11432,4.7345,5.3636,0,0.00041121,4109.2,0.00014744,140.88,0.0001286,-0.70087,-0.00040864,-4037.3,0.16454
11433,4.7345,5.4545,0.05,3.5164e-06,35.14,2.7002e-06,20.288,2.4446e-12,7.9786e-05,-2.7002e-06,-20.288,0.16384
11434,5.0097,5.4545,0,0.00042302,4227.3,0.0001482,103.08,0.00013443,-0.34636,-0.00042118,-4175,0.18655
11435,4.918,5.3636,0,0.00042356,4232.6,0.00014931,114.24,0.00013403,-0.56167,-0.00042151,-4174.6,0.17956
11436,4.918,5.4545,0.05,2.6832e-06,26.813,2.0604e-06,15.481,9.6528e-13,7.4883e-05,-2.0603e-06,-15.481,0.17888
11437,5.1932,5.4545,0,0.00043127,4309.7,0.00014916,81.871,0.00013822,-0.28253,-0.00042983,-4268.4,0.20201
11438,5.1015,5.3636,0,0.0004322,4319,0.00015013,89.741,0.00013812,-0.46881,-0.00043061,-4273.7,0.19486
11439,5.1015,5.4545,0.05,1.9931e-06,19.918,1.5305e-06,11.499,4.5016e-12,8.4219e-05,-1.5305e-06,-11.499,0.1942
11440,5.3767,5.4545,0,0.00043658,4362.8,0.0001493,62.549,0.00014094,-0.24422,-0.00043549,-4331.3,0.21775
11441,5.285,5.3636,0,0.00043783,4375.3,0.00015015,67.713,0.00014108,-0.41323,-0.00043664,-4341.2,0.21045
11442,5.285,5.4545,0.05,1.4321e-06,14.311,1.0996e-06,8.2624,5.6002e-12,0.00010845,-1.0996e-06,-8.2622,0.2098
11443,5.5602,5.4545,0,0.00043953,4392.3,0.00014885,45.449,0.00014277,-0.22797,-0.00043875,-4369.5,0.23379
11444,5.4684,5.3636,0,0.00044103,4407.2,0.00014959,48.342,0.0001431,-0.39238,-0.00044019,-4383.1,0.22633
11445,5.4684,5.4545,0.05,9.8691e-07,9.8623,7.5782e-07,5.6941,8.243e-12,0.00014092,-7.5783e-07,-5.6939,0.22569
11446,5.7437,5.4545,0,0.00044062,4403.1,0.00014798,30.693,0.00014386,-0.23678,-0.00044009,-4387.8,0.25012
11447,5.6519,5.3636,0,0.00044229,4419.9,0.00014862,31.681,0.00014435,-0.41579,-0.00044175,-4404.2,0.24251
11448,5.6519,5.4545,0.05,6.5175e-07,6.513,5.0046e-07,3.7603,2.2453e-11,0.00017679,-5.0047e-07,-3.7603,0.24187
11449,5.9271,5.4545,0,0.00044022,4399.2,0.00014681,18.273,0.00014434,-0.28974,-0.00043991,-4390.2,0.26675
11450,5.8354,5.3636,0,0.00044204,4417.3,0.00014738,17.706,0.00014495,-0.53133,-0.00044174,-4408.7,0.25898
11451,5.8354,5.4545,0.05,4.3838e-07,4.3808,3.3661e-07,2.5292,4.1168e-11,0.00040333,-3.3663e-07,-2.5292,0.25836
11452,6.1106,5.4545,0,0.00043868,4383.7,0.00014547,8.1626,0.00014432,-0.49086,-0.00043855,-4379.9,0.28367
11453,6.0189,5.3636,0,0.00044059,4402.9,0.000146,6.5726,0.00014498,-1.0531,-0.0004405,-4400.1,0.27575
11454,6.0189,5.4545,0.05,3.7456e-07,3.743,2.8761e-07,2.161,2.4848e-11,0.00027166,-2.8762e-07,-2.161,0.27513
11455,6.2941,5.4545,0,0.00043623,4359.3,0.00014419,1.4705,0.00014371,-2.1338,-0.00043624,-4359.6,0.30089
11456,6.2024,5.3636,0,0.00043822,4379.2,0.00014495,1.0553,0.00014415,-4.9674,-0.00043829,-4381.2,0.29282
11457,6.2024,5.4545,0.05,4.2913e-07,4.2883,3.2952e-07,2.4759,9.1795e-12,0.0002164,-3.2951e-07,-2.4757,0.29221
11458,6.4776,5.4545,0,0.00043309,4327.9,0.00014332,0.33367,0.00014227,-7.5705,-0.00043321,-4331.5,0.31841
11459,6.3858,5.3636,0,0.00043514,4348.4,0.0001442,0.34806,0.0001426,-11.706,-0.00043533,-4354,0.31018
11460,6.3858,5.4545,0.05,5.2182e-07,5.2146,4.007e-07,3.0108,7.1968e-13,9.0424e-05,-4.0069e-07,-3.0105,0.30957
11461,6.6611,5.4545,0,0.00042942,4291.2,0.00014234,0.1668,0.00014066,-12.438,-0.00042962,-4297.3,0.33621
11462,6.5693,5.3636,0,0.0004315,4312,0.00014326,0.18751,0.00014094,-17.251,-0.00043179,-4320.5,0.32783
11463,6.5693,5.4545,0.05,6.1224e-07,6.1182,4.7013e-07,3.5325,-6.7076e-12,5.2409e-05,-4.7012e-07,-3.5322,0.32723
11464,6.8445,5.4545,0,0.00042533,4250.4,0.00014116,0.10726,0.00013901,-16.093,-0.0004256,-4258.3,0.3543
11465,6.7528,5.3636,0,0.00042745,4271.5,0.00014213,0.122,0.00013926,-21.393,-0.0004278,-4282.1,0.34578
11466,6.7528,5.4545,0.05,6.8948e-07,6.89,5.2944e-07,3.9781,-8.9445e-12,3.5528e-05,-5.2943e-07,-3.9778,0.34518
11467,7.028,5.4545,0,0.00042093,4206.4,0.00013984,0.077508,0.00013734,-18.66,-0.00042125,-4215.7,0.37268
11468,6.9363,5.3636,0,0.00042307,4227.8,0.00014082,0.087677,0.00013758,-24.296,-0.00042348,-4239.9,0.36401
11469,6.9363,5.4545,0.05,7.5217e-07,7.5165,5.7758e-07,4.3398,-6.9712e-12,2.185e-05,-5.7756e-07,-4.3395,0.36342
11470,7.2115,5.4545,0,0.0004163,4160.1,0.00013839,0.059829,0.00013568,-20.309,-0.00041664,-4170.2,0.39135
11471,7.1198,5.3636,0,0.00041846,4181.7,0.00013939,0.066964,0.0001359,-26.151,-0.0004189,-4194.7,0.38253
11472,7.1198,5.4545,0.05,8.0166e-07,8.0111,6.1559e-07,4.6254,-9.4348e-12,2.1968e-05,-6.1557e-07,-4.625,0.38194
11473,7.395,5.4545,0,0.00041149,4112.1,0.00013685,0.048126,0.00013402,-21.199,-0.00041185,-4122.6,0.41029
11474,7.3032,5.3636,0,0.00041367,4133.9,0.00013786,0.053254,0.00013424,-27.138,-0.00041413,-4147.3,0.40133
11475,7.3032,5.4545,0.05,8.3997e-07,8.3939,6.45e-07,4.8464,-1.1509e-11,2.321e-05,-6.4498e-07,-4.846,0.40075
11476,7.5785,5.4545,0,0.00040656,4062.8,0.00013523,0.039783,0.00013237,-21.473,-0.00040692,-4073.4,0.42951
11477,7.4867,5.3636,0,0.00040875,4084.7,0.00013625,0.043557,0.00013259,-27.42,-0.00040921,-4098.3,0.42041
11478,7.4867,5.4545,0.05,8.6906e-07,8.6846,6.6734e-07,5.0143,-9.8712e-12,1.9562e-05,-6.6732e-07,-5.0139,0.41983
11479,7.7619,5.4545,0,0.00040153,4012.5,0.00013356,0.033506,0.00013072,-21.257,-0.00040188,-4023.1,0.449
11480,7.6702,5.3636,0,0.00040373,4034.6,0.00013458,0.036351,0.00013096,-27.139,-0.00040419,-4048,0.43976
11481,7.6702,5.4545,0.05,8.907e-07,8.9009,6.8396e-07,5.1391,-1.0581e-11,1.2399e-05,-6.8394e-07,-5.1388,0.43919
11482,7.9454,5.4545,0,0.00039643,3961.6,0.00013185,0.028592,0.00012909,-20.656,-0.00039678,-3971.8,0.46877
11483,7.8537,5.3636,0,0.00039865,3983.7,0.00013286,0.030787,0.00012934,-26.415,-0.00039909,-3996.9,0.45939
11484,7.8537,5.4545,0.05,9.0639e-07,9.0576,6.9601e-07,5.2296,-1.2487e-11,1.3136e-05,-6.9598e-07,-5.2292,0.45882
11485,8.1289,5.4545,0,0.00039128,3910.1,0.0001301,0.024625,0.00012747,-19.761,-0.00039162,-3920,0.4888
11486,8.0372,5.3636,0,0.00039352,3932.5,0.00013112,0.026362,0.00012774,-25.354,-0.00039394,-3945.1,0.47928
11487,8.0372,5.4545,0.05,9.1735e-07,9.1671,7.0442e-07,5.2928,-9.2277e-12,1.3147e-05,-7.044e-07,-5.2925,0.47872
11488,8.3124,5.4545,0,0.00038611,3858.4,0.00012834,0.021349,0.00012586,-18.647,-0.00038642,-3867.7,0.5091
11489,8.2206,5.3636,0,0.00038836,3880.9,0.00012935,0.02276,0.00012615,-24.04,-0.00038876,-3892.8,0.49944
11490,8.2206,5.4545,0.05,9.2459e-07,9.2395,7.0999e-07,5.3346,-9.2647e-12,1.1976e-05,-7.0996e-07,-5.3343,0.49888
11491,8.4959,5.4545,0,0.00038092,3806.5,0.00012656,0.018594,0.00012425,-17.376,-0.00038121,-3815.2,0.52965
11492,8.4041,5.3636,0,0.00038317,3829.1,0.00012756,0.019773,0.00012456,-22.546,-0.00038355,-3840.3,0.51986
11493,8.4041,5.4545,0.05,9.2893e-07,9.2829,7.1331e-07,5.3596,-5.9495e-12,1.0346e-05,-7.1329e-07,-5.3593,0.51931
11494,8.6794,5.4545,0,0.00037572,3754.6,0.00012478,0.016244,0.00012265,-15.998,-0.00037598,-3762.5,0.55046
11495,8.5876,5.3636,0,0.00037798,3777.2,0.00012577,0.01726,0.00012298,-20.93,-0.00037833,-3787.6,0.54054
11496,8.5876,5.4545,0.05,9.3101e-07,9.3037,7.1491e-07,5.3716,-7.9572e-12,8.6132e-06,-7.1489e-07,-5.3713,0.53999
11497,8.8628,5.4545,0,0.00037051,3702.6,0.00012299,0.014217,0.00012105,-14.555,-0.00037076,-3709.8,0.57153
11498,8.7711,5.3636,0,0.00037279,3725.3,0.00012397,0.01512,0.00012141,-19.24,-0.00037311,-3734.9,0.56147
11499,8.7711,5.4545,0.05,9.3136e-07,9.3071,7.1518e-07,5.3737,-9.6921e-12,9.0807e-06,-7.1515e-07,-5.3733,0.56093
11500,9.0463,5.4545,0,0.00036531,3650.6,0.0001212,0.012453,0.00011946,-13.079,-0.00036553,-3657.1,0.59284
11501,8.9546,5.3636,0,0.0003676,3673.4,0.00012217,0.013282,0.00011984,-17.513,-0.00036789,-3682.2,0.58266
11502,8.9546,5.4545,0.05,9.3037e-07,9.2973,7.1443e-07,5.368,-8.1788e-12,7.7227e-06,-7.144e-07,-5.3677,0.58212
11503,9.2298,5.4545,0,0.00036012,3598.7,0.00011941,0.010909,0.00011787,-11.596,-0.00036031,-3604.4,0.6144
11504,9.1381,5.3636,0,0.00036241,3621.6,0.00012038,0.011692,0.00011828,-15.78,-0.00036268,-3629.5,0.60409
11505,9.1381,5.4545,0.05,9.2838e-07,9.2774,7.1289e-07,5.3565,-1.0074e-11,7.3862e-06,-7.1288e-07,-5.3562,0.60356
11506,9.4133,5.4545,0,0.00035493,3546.9,0.00011763,0.0095488,0.00011628,-10.125,-0.0003551,-3551.9,0.6362
11507,9.3215,5.3636,0,0.00035724,3569.9,0.00011858,0.010311,0.00011671,-14.063,-0.00035747,-3576.9,0.62577
11508,9.3215,5.4545,0.05,9.2564e-07,9.25,7.1079e-07,5.3407,-1.0156e-11,6.5766e-06,-7.1077e-07,-5.3403,0.62524
11509,9.5968,5.4545,0,0.00034976,3495.2,0.00011585,0.0083502,0.00011469,-8.6832,-0.00034991,-3499.5,0.65824
11510,9.505,5.3636,0,0.00035207,3518.3,0.0001168,0.0091071,0.00011515,-12.381,-0.00035228,-3524.4,0.64768
11511,9.505,5.4545,0.05,9.2235e-07,9.2171,7.0826e-07,5.3217,-8.5605e-12,5.7142e-06,-7.0824e-07,-5.3213,0.64716
11512,9.7802,5.4545,0,0.0003446,3443.6,0.00011408,0.0072922,0.00011311,-7.2802,-0.00034472,-3447.3,0.68052
11513,9.6885,5.3636,0,0.00034692,3466.8,0.00011502,0.0080633,0.00011358,-10.745,-0.0003471,-3472.2,0.66983
11514,9.6885,5.4545,0.05,9.1865e-07,9.1801,7.0542e-07,5.3003,-9.432e-12,4.9888e-06,-7.054e-07,-5.3,0.66932
11515,9.9637,5.4545,0,0.00033946,3392.2,0.00011232,0.0063681,0.00011153,-5.9246,-0.00033956,-3395.2,0.70303
11516,9.872,5.3636,0,0.00034178,3415.5,0.00011324,0.0071559,0.00011202,-9.167,-0.00034194,-3420,0.69222
11517,9.872,5.4545,0.05,9.1467e-07,9.1404,7.0236e-07,5.2773,-9.5305e-12,5.6238e-06,-7.0234e-07,-5.2771,0.69171
11518,10.147,5.4545,0,0.00033433,3341,0.00011056,0.0055787,0.00010994,-4.6216,-0.00033441,-3343.3,0.72576
11519,10.055,5.3636,0,0.00033666,3364.3,0.00011148,0.0063979,0.00011046,-7.6516,-0.00033679,-3368.1,0.71484
11520,10.055,5.4545,0.05,9.1049e-07,9.0986,6.9915e-07,5.2532,-8.7099e-12,5.0156e-06,-6.9914e-07,-5.2529,0.71434
11521,10.331,5.4545,0,0.00032922,3289.9,0.00010881,0.0049224,0.00010836,-3.3747,-0.00032928,-3291.6,0.74872
11522,10.239,5.3636,0,0.00033155,3313.2,0.00010972,0.0057796,0.00010889,-6.2029,-0.00033166,-3316.3,0.73768
11523,10.239,5.4545,0.05,9.062e-07,9.0557,6.9586e-07,5.2285,-8.7555e-12,4.9744e-06,-6.9584e-07,-5.2282,0.73718
11524,10.514,5.4545,0,0.00032413,3239.1,0.00010707,0.0044966,0.00010678,-2.1858,-0.00032417,-3240.1,0.7719
11525,10.422,5.3636,0,0.00032646,3262.4,0.00010797,0.0053006,0.00010733,-4.8234,-0.00032655,-3264.8,0.76074
11526,10.422,5.4545,0.05,9.0183e-07,9.0121,6.925e-07,5.2033,-6.9875e-12,4.6651e-06,-6.9248e-07,-5.203,0.76026
11527,10.698,5.4545,0,0.00031905,3188.3,0.00010534,0.0048107,0.0001052,-1.0558,-0.00031907,-3188.9,0.7953
11528,10.606,5.3636,0,0.00032139,3211.7,0.00010623,0.0050922,0.00010577,-3.5133,-0.00032145,-3213.5,0.78403
11529,10.606,5.4545,0.05,8.9742e-07,8.968,6.8912e-07,5.1778,-9.7086e-12,4.898e-06,-6.891e-07,-5.1775,0.78355
11530,10.881,5.4545,0,0.000314,3137.8,0.00010363,0.056497,0.00010361,-0.034748,-0.000314,-3137.8,0.81892
11531,10.789,5.3636,0,0.00031634,3161.2,0.0001045,0.0054235,0.0001042,-2.2724,-0.00031637,-3162.3,0.80753
11532,10.789,5.4545,0.05,8.9301e-07,8.9239,6.8573e-07,5.1524,-9.7478e-12,4.5385e-06,-6.8571e-07,-5.1521,0.80705
11533,11.065,5.4545,0,0.00030896,3087.5,0.00010204,1.0382,0.00010191,-0.00015939,-0.00030894,-3086.9,0.84274
11534,10.973,5.3636,0,0.0003113,3110.8,0.00010278,0.0076826,0.00010264,-1.1005,-0.00031132,-3111.4,0.83124
11535,10.973,5.4545,0.05,8.8862e-07,8.88,6.8236e-07,5.127,-8.9106e-12,3.5903e-06,-6.8234e-07,-5.1268,0.83077
11536,11.248,5.4545,0,0.00030394,3037.3,0.00010047,1.9994,0.0001002,0.00024966,-0.00030391,-3036.3,0.86677
11537,11.156,5.3636,0,0.00030628,3060.7,0.00010108,0.085413,0.00010106,-0.069209,-0.00030628,-3060.7,0.85516
11538,11.156,5.4545,0.05,8.8426e-07,8.8365,6.7901e-07,5.1019,-8.0041e-12,3.928e-06,-6.79e-07,-5.1017,0.8547
11539,11.432,5.4545,0,0.00029894,2987.3,9.8893e-05,2.9089,9.8506e-05,0.00010705,-0.00029889,-2985.9,0.89101
11540,11.34,5.3636,0,0.00030128,3010.7,9.9511e-05,1.0671,9.9368e-05,-0.0042557,-0.00030126,-3010.2,0.87929
11541,11.34,5.4545,0.05,8.7994e-07,8.7933,6.7569e-07,5.077,-7.1069e-12,4.084e-06,-6.7568e-07,-5.0767,0.87884
11542,11.615,5.4545,0,0.00029396,2937.5,9.7321e-05,3.7687,9.6819e-05,-0.00015042,-0.00029389,-2935.7,0.91544
11543,11.523,5.3636,0,0.00029629,2960.9,9.7948e-05,2.0522,9.7675e-05,-0.0019637,-0.00029626,-2959.9,0.90362
11544,11.523,5.4545,0.05,8.7567e-07,8.7506,6.7241e-07,5.0523,-7.1682e-12,3.4355e-06,-6.724e-07,-5.0521,0.90317
11545,11.799,5.4545,0,0.00028899,2887.9,9.5751e-05,4.5813,9.5141e-05,-0.00045305,-0.00028892,-2885.6,0.94008
11546,11.707,5.3636,0,0.00029133,2911.3,9.6387e-05,2.9828,9.599e-05,-0.0014506,-0.00029128,-2909.8,0.92815
11547,11.707,5.4545,0.05,8.7146e-07,8.7085,6.6918e-07,5.028,-7.1744e-12,2.9256e-06,-6.6916e-07,-5.0278,0.92771
11548,11.982,5.4545,0,0.00028405,2838.5,9.4183e-05,5.3496,9.3471e-05,-0.00074933,-0.00028396,-2835.9,0.9649
11549,11.89,5.3636,0,0.00028638,2861.8,9.4828e-05,3.8608,9.4314e-05,-0.0013498,-0.00028631,-2859.9,0.95287
11550,11.89,5.4545,0.05,8.6729e-07,8.6669,6.6598e-07,5.004,-7.1949e-12,3.5167e-06,-6.6596e-07,-5.0037,0.95244
11551,12.165,5.4545,0,0.00027912,2789.3,9.2619e-05,6.0764,9.181e-05,-0.0010478,-0.00027902,-2786.3,0.98992
11552,12.074,5.3636,0,0.00028145,2812.6,9.3271e-05,4.6894,9.2647e-05,-0.0013955,-0.00028137,-2810.2,0.97779
11553,12.074,5.4545,0.05,8.6318e-07,8.6259,6.6282e-07,4.9803,-7.2097e-12,2.7294e-06,-6.6281e-07,-4.98,0.97736
11554,12.349,5.4545,0,0.00027422,2740.3,9.1057e-05,6.7644,9.0156e-05,-0.0013385,-0.0002741,-2736.9,1.0151
11555,12.257,5.3636,0,0.00027654,2763.5,9.1716e-05,5.4717,9.0988e-05,-0.0015382,-0.00027645,-2760.8,1.0029
11556,12.257,5.4545,0.05,8.5912e-07,8.5853,6.5971e-07,4.9568,-6.3203e-12,3.4684e-06,-6.5969e-07,-4.9566,1.0025
11557,12.532,5.4545,0,0.00026933,2691.5,8.9499e-05,7.4166,8.8511e-05,-0.0015991,-0.0002692,-2687.7,1.0405
11558,12.441,5.3636,0,0.00027165,2714.6,9.0164e-05,6.2111,8.9337e-05,-0.0016921,-0.00027154,-2711.5,1.0282
11559,12.441,5.4545,0.05,8.5511e-07,8.5452,6.5663e-07,4.9337,-7.2423e-12,3.9462e-06,-6.5661e-07,-4.9334,1.0278
11560,12.716,5.4545,0,0.00026446,2642.8,8.7944e-05,8.0357,8.6874e-05,-0.0018288,-0.00026433,-2638.8,1.0661
11561,12.624,5.3636,0,0.00026678,2665.9,8.8614e-05,6.9108,8.7694e-05,-0.0018447,-0.00026666,-2662.5,1.0537
11562,12.624,5.4545,0.05,8.5114e-07,8.5056,6.5358e-07,4.9108,-6.342e-12,2.7684e-06,-6.5357e-07,-4.9106,1.0533
11563,12.899,5.4545,0,0.00025961,2594.4,8.6393e-05,8.6243,8.5245e-05,-0.0020537,-0.00025947,-2590,1.0918
11564,12.808,5.3636,0,0.00026192,2617.4,8.7068e-05,7.574,8.6059e-05,-0.0019832,-0.00026179,-2613.6,1.0793
11565,12.808,5.4545,0.05,8.4723e-07,8.4665,6.5057e-07,4.8882,-6.3534e-12,1.9655e-06,-6.5057e-07,-4.888,1.0789
11566,13.083,5.4545,0,0.00025479,2546.1,8.4846e-05,9.1851,8.3624e-05,-0.0022841,-0.00025463,-2541.5,1.1177
11567,12.991,5.3636,0,0.00025709,2569.1,8.5525e-05,8.2035,8.4433e-05,-0.0021584,-0.00025695,-2565,1.1051
11568,12.991,5.4545,0.05,8.4337e-07,8.4279,6.4761e-07,4.866,-6.3639e-12,2.0759e-06,-6.476e-07,-4.8658,1.1047
11569,13.266,5.4545,0,0.00024998,2498,8.3304e-05,9.7206,8.201e-05,-0.0024819,-0.00024981,-2493.2,1.1438
11570,13.175,5.3636,0,0.00025227,2521,8.3986e-05,8.8024,8.2814e-05,-0.0023293,-0.00025212,-2516.6,1.1311
11571,13.175,5.4545,0.05,8.3955e-07,8.3897,6.4468e-07,4.8439,-5.4633e-12,2.5395e-06,-6.4466e-07,-4.8437,1.1307
11572,13.45,5.4545,0,0.00024519,2450.2,8.1766e-05,10.233,8.0404e-05,-0.0026633,-0.00024501,-2445,1.1701
11573,13.358,5.3636,0,0.00024748,2473.1,8.2451e-05,9.3736,8.1203e-05,-0.0024546,-0.00024732,-2468.4,1.1573
11574,13.358,5.4545,0.05,8.3577e-07,8.3519,6.4177e-07,4.8221,-6.3825e-12,2.9484e-06,-6.4176e-07,-4.8219,1.1569
11575,13.633,5.4545,0,0.00024042,2402.5,8.0233e-05,10.725,7.8805e-05,-0.0028478,-0.00024023,-2397.1,1.1965
11576,13.542,5.3636,0,0.0002427,2425.3,8.092e-05,9.9195,7.9599e-05,-0.0026068,-0.00024253,-2420.4,1.1836
11577,13.542,5.4545,0.05,8.3204e-07,8.3146,6.3891e-07,4.8006,-6.3857e-12,3.5332e-06,-6.3889e-07,-4.8003,1.1833
11578,13.817,5.4545,0,0.00023566,2355,7.8704e-05,11.199,7.7214e-05,-0.003017,-0.00023547,-2349.4,1.2231
11579,13.725,5.3636,0,0.00023794,2377.8,7.9393e-05,10.443,7.8003e-05,-0.0027477,-0.00023776,-2372.5,1.2101
11580,13.725,5.4545,0.05,8.2834e-07,8.2777,6.3607e-07,4.7792,-5.4826e-12,3.2585e-06,-6.3605e-07,-4.779,1.2098
11581,14,5.4545,0,0.00023093,2307.7,7.7181e-05,11.656,7.5629e-05,-0.0031891,-0.00023073,-2301.9,1.2498
11582,13.909,5.3636,0,0.0002332,2330.4,7.7871e-05,10.946,7.6414e-05,-0.0028748,-0.00023302,-2324.9,1.2368
11583,13.909,5.4545,0.05,8.2468e-07,8.2411,6.3325e-07,4.7581,-7.3071e-12,3.3102e-06,-6.3324e-07,-4.7579,1.2364
11584,14.184,5.4545,0,0.00022622,2260.6,7.5663e-05,12.099,7.4052e-05,-0.0033497,-0.00022601,-2254.6,1.2767
11585,14.092,5.3636,0,0.00022848,2283.3,7.6355e-05,11.432,7.4833e-05,-0.0030284,-0.00022829,-2277.5,1.2636
11586,14.092,5.4545,0.05,8.2105e-07,8.2048,6.3047e-07,4.7371,-7.3121e-12,2.6081e-06,-6.3045e-07,-4.737,1.2632
11587,14.367,5.4545,0,0.00022153,2213.8,7.4151e-05,12.53,7.2483e-05,-0.0034853,-0.00022131,-2207.5,1.3038
11588,14.276,5.3636,0,0.00022378,2236.3,7.4843e-05,11.903,7.3258e-05,-0.0031383,-0.00022358,-2230.3,1.2906
11589,14.276,5.4545,0.05,8.1744e-07,8.1688,6.277e-07,4.7163,-3.6745e-12,2.7984e-06,-6.2769e-07,-4.7162,1.2902
11590,14.551,5.4545,0,0.00021686,2167.1,7.2644e-05,12.951,7.092e-05,-0.0036317,-0.00021663,-2160.6,1.331
11591,14.459,5.3636,0,0.0002191,2189.5,7.3336e-05,12.36,7.1691e-05,-0.0032453,-0.00021889,-2183.3,1.3177
11592,14.459,5.4545,0.05,8.1388e-07,8.1332,6.2496e-07,4.6958,-3.6787e-12,3.6337e-06,-6.2496e-07,-4.6956,1.3173
11593,14.734,5.4545,0,0.0002122,2120.6,7.1143e-05,13.363,6.9364e-05,-0.0037814,-0.00021197,-2113.9,1.3583
11594,14.642,5.3636,0,0.00021444,2143,7.1836e-05,12.806,7.0131e-05,-0.0033791,-0.00021422,-2136.5,1.3449
11595,14.642,5.4545,0.05,8.1035e-07,8.0979,6.2225e-07,4.6754,-4.5995e-12,3.3977e-06,-6.2224e-07,-4.6752,1.3446
11596,14.918,5.4545,0,0.00020757,2074.3,6.9648e-05,13.769,6.7815e-05,-0.0039145,-0.00020733,-2067.4,1.3858
11597,14.826,5.3636,0,0.0002098,2096.6,7.034e-05,13.243,6.8577e-05,-0.0034951,-0.00020957,-2089.9,1.3723
11598,14.826,5.4545,0.05,8.0684e-07,8.0628,6.1956e-07,4.6551,-3.6943e-12,3.7967e-06,-6.1954e-07,-4.655,1.372
11599,15.101,5.4545,0,0.00020296,2028.2,6.8159e-05,14.169,6.6273e-05,-0.0040326,-0.00020271,-2021.1,1.4134
11600,15.009,5.3636,0,0.00020518,2050.4,6.8851e-05,13.673,6.7031e-05,-0.0035975,-0.00020495,-2043.5,1.3999
11601,15.009,5.4545,0.05,8.0336e-07,8.028,6.1688e-07,4.635,-4.5909e-12,3.4745e-06,-6.1687e-07,-4.6349,1.3996
11602,15.285,5.4545,0,0.00019836,1982.3,6.6676e-05,14.566,6.4737e-05,-0.0041529,-0.00019811,-1975,1.4412
11603,15.193,5.3636,0,0.00020058,2004.4,6.7368e-05,14.098,6.5491e-05,-0.0036843,-0.00020034,-1997.3,1.4276
11604,15.193,5.4545,0.05,7.9991e-07,7.9935,6.1423e-07,4.6152,-4.6036e-12,3.1873e-06,-6.1422e-07,-4.615,1.4273
11605,15.468,5.4545,0,0.00019379,1936.6,6.52e-05,14.962,6.3208e-05,-0.0042807,-0.00019353,-1929,1.4691
11606,15.376,5.3636,0,0.000196,1958.6,6.5891e-05,14.52,6.3958e-05,-0.003792,-0.00019575,-1951.3,1.4554
11607,15.376,5.4545,0.05,7.9649e-07,7.9594,6.1161e-07,4.5954,-3.698e-12,5.008e-06,-6.116e-07,-4.5953,1.4551
11608,15.652,5.4545,0,0.00018924,1891.1,6.373e-05,15.357,6.1686e-05,-0.004403,-0.00018897,-1883.3,1.4971
11609,15.56,5.3636,0,0.00019144,1913,6.4421e-05,14.94,6.2432e-05,-0.003894,-0.00019118,-1905.5,1.4833
11610,15.56,5.4545,0.05,7.931e-07,7.9255,6.09e-07,4.5759,-3.692e-12,3.9128e-06,-6.09e-07,-4.5757,1.483
11611,15.835,5.4545,0,0.0001847,1845.8,6.2267e-05,15.753,6.017e-05,-0.0045344,-0.00018443,-1837.8,1.5252
11612,15.743,5.3636,0,0.00018689,1867.6,6.2957e-05,15.36,6.0912e-05,-0.0039901,-0.00018663,-1859.9,1.5114
11613,15.743,5.4545,0.05,7.8974e-07,7.8919,6.0642e-07,4.5565,-4.6038e-12,2.8946e-06,-6.0641e-07,-4.5563,1.5111
11614,16.019,5.4545,0,0.00018019,1800.7,6.0811e-05,16.153,5.866e-05,-0.0046635,-0.00017991,-1792.5,1.5535
11615,15.927,5.3636,0,0.00018237,1822.4,6.15e-05,15.783,5.9399e-05,-0.0041099,-0.0001821,-1814.5,1.5396
11616,15.927,5.4545,0.05,7.864e-07,7.8586,6.0386e-07,4.5372,-3.7094e-12,3.7427e-06,-6.0385e-07,-4.5371,1.5393
11617,16.202,5.4545,0,0.0001757,1755.8,5.9362e-05,16.557,5.7157e-05,-0.0047801,-0.00017541,-1747.4,1.5819
11618,16.11,5.3636,0,0.00017787,1777.5,6.0049e-05,16.209,5.7891e-05,-0.004201,-0.00017759,-1769.3,1.5679
11619,16.11,5.4545,0.05,7.8309e-07,7.8254,6.0132e-07,4.5181,-3.7129e-12,3.7376e-06,-6.0131e-07,-4.518,1.5677
11620,16.386,5.4545,0,0.00017122,1711,5.7919e-05,16.967,5.566e-05,-0.0049126,-0.00017093,-1702.5,1.6104
11621,16.294,5.3636,0,0.00017339,1732.7,5.8606e-05,16.641,5.6391e-05,-0.0042931,-0.0001731,-1724.3,1.5964
11622,16.294,5.4545,0.05,7.7981e-07,7.7927,5.988e-07,4.4992,-2.3665e-12,4.3915e-06,-5.9879e-07,-4.4991,1.5961
11623,16.569,5.4545,0,0.00016677,1666.5,5.6484e-05,17.385,5.417e-05,-0.005053,-0.00016647,-1657.8,1.639
11624,16.477,5.3636,0,0.00016892,1688.1,5.717e-05,17.08,5.4896e-05,-0.0044138,-0.00016863,-1679.5,1.6249
11625,16.477,5.4545,0.05,7.7656e-07,7.7602,5.963e-07,4.4804,-3.7216e-12,3.7647e-06,-5.963e-07,-4.4803,1.6247
11626,16.753,5.4545,0,0.00016233,1622.2,5.5057e-05,17.811,5.2685e-05,-0.0051872,-0.00016202,-1613.3,1.6677
11627,16.661,5.3636,0,0.00016448,1643.7,5.5741e-05,17.529,5.3408e-05,-0.0045211,-0.00016418,-1634.8,1.6536
11628,16.661,5.4545,0.05,7.7334e-07,7.728,5.9383e-07,4.4618,-3.2564e-12,4.7451e-06,-5.9382e-07,-4.4617,1.6533
11629,16.936,5.4545,0,0.00015792,1578.1,5.3636e-05,18.249,5.1207e-05,-0.0053184,-0.0001576,-1568.9,1.6966
11630,16.844,5.3636,0,0.00016006,1599.5,5.432e-05,17.988,5.1925e-05,-0.0046243,-0.00015975,-1590.4,1.6824
11631,16.844,5.4545,0.05,7.7015e-07,7.6961,5.9138e-07,4.4434,-3.3232e-12,6.1415e-06,-5.9137e-07,-4.4433,1.6821
11632,17.119,5.4545,0,0.00015353,1534.2,5.2224e-05,18.698,4.9734e-05,-0.0054577,-0.0001532,-1524.8,1.7255
11633,17.028,5.3636,0,0.00015566,1555.5,5.2907e-05,18.46,5.0449e-05,-0.0047226,-0.00015533,-1546.2,1.7113
11634,17.028,5.4545,0.05,7.6699e-07,7.6646,5.8896e-07,4.4252,-2.8386e-12,4.722e-06,-5.8895e-07,-4.4251,1.711
11635,17.303,5.4545,0,0.00014915,1490.5,5.0819e-05,19.161,4.8268e-05,-0.0056105,-0.00014882,-1480.8,1.7546
11636,17.211,5.3636,0,0.00015127,1511.7,5.1501e-05,18.947,4.8979e-05,-0.00484,-0.00015094,-1502.1,1.7402
11637,17.211,5.4545,0.05,7.6388e-07,7.6335,5.8656e-07,4.4072,-3.2684e-12,4.3885e-06,-5.8656e-07,-4.4071,1.74
11638,17.486,5.4545,0,0.0001448,1447,4.9422e-05,19.639,4.6807e-05,-0.0057669,-0.00014446,-1437.1,1.7837
11639,17.395,5.3636,0,0.00014691,1468.1,5.0103e-05,19.449,4.7514e-05,-0.0049595,-0.00014657,-1458.3,1.7693
11640,17.395,5.4545,0.05,7.6079e-07,7.6027,5.842e-07,4.3895,-3.2898e-12,3.1268e-06,-5.8419e-07,-4.3894,1.7691
11641,17.67,5.4545,0,0.00014046,1403.7,4.8032e-05,20.133,4.5352e-05,-0.0059385,-0.00014011,-1393.5,1.8129
11642,17.578,5.3636,0,0.00014257,1424.7,4.8714e-05,19.97,4.6055e-05,-0.0050788,-0.00014222,-1414.6,1.7985
11643,17.578,5.4545,0.05,7.5775e-07,7.5723,5.8186e-07,4.3719,-1.9546e-12,5.5136e-06,-5.8186e-07,-4.3718,1.7983
11644,17.853,5.4545,0,0.00013615,1360.6,4.6651e-05,20.647,4.3903e-05,-0.0061169,-0.00013579,-1350.1,1.8423
11645,17.762,5.3636,0,0.00013825,1381.5,4.7332e-05,20.51,4.4602e-05,-0.0052215,-0.00013789,-1371.2,1.8278
11646,17.762,5.4545,0.05,7.5475e-07,7.5423,5.7956e-07,4.3546,-2.4078e-12,5.2632e-06,-5.7955e-07,-4.3545,1.8276
11647,18.037,5.4545,0,0.00013186,1317.7,4.5278e-05,21.18,4.2459e-05,-0.0062938,-0.00013148,-1306.9,1.8717
11648,17.945,5.3636,0,0.00013395,1338.5,4.5959e-05,21.073,4.3154e-05,-0.0053499,-0.00013358,-1327.9,1.8572
11649,17.945,5.4545,0.05,7.5179e-07,7.5127,5.7729e-07,4.3375,-2.3886e-12,7.3526e-06,-5.7728e-07,-4.3374,1.857
11650,18.22,5.4545,0,0.00012758,1274.9,4.3914e-05,21.735,4.102e-05,-0.0064912,-0.0001272,-1263.9,1.9012
11651,18.129,5.3636,0,0.00012966,1295.7,4.4595e-05,21.66,4.1711e-05,-0.0054834,-0.00012928,-1284.8,1.8866
11652,18.129,5.4545,0.05,7.4888e-07,7.4836,5.7505e-07,4.3207,-3.3575e-12,3.9e-06,-5.7504e-07,-4.3207,1.8864
11653,18.404,5.4545,0,0.00012333,1232.4,4.2557e-05,22.313,3.9587e-05,-0.0067058,-0.00012293,-1221.1,1.9308
11654,18.312,5.3636,0,0.0001254,1253.2,4.3239e-05,22.273,4.0274e-05,-0.0056436,-0.00012501,-1241.9,1.9162
11655,18.312,5.4545,0.05,7.4602e-07,7.455,5.7285e-07,4.3042,-1.9817e-12,4.6186e-06,-5.7285e-07,-4.3041,1.916
11656,18.587,5.4545,0,0.00011909,1190.1,4.121e-05,22.917,3.8159e-05,-0.0069248,-0.00011868,-1178.5,1.9605
11657,18.496,5.3636,0,0.00012116,1210.8,4.1892e-05,22.914,3.8842e-05,-0.0058009,-0.00012075,-1199.1,1.9458
11658,18.496,5.4545,0.05,7.4321e-07,7.427,5.707e-07,4.288,-2.44e-12,2.6125e-06,-5.7069e-07,-4.2879,1.9456
11659,18.771,5.4545,0,0.00011488,1148,3.9871e-05,23.548,3.6736e-05,-0.0071506,-0.00011446,-1136,1.9902
11660,18.679,5.3636,0,0.00011694,1168.6,4.0555e-05,23.585,3.7415e-05,-0.0059589,-0.00011652,-1156.6,1.9755
11661,18.679,5.4545,0.05,7.4046e-07,7.3995,5.6858e-07,4.2721,-2.4446e-12,5.0395e-06,-5.6858e-07,-4.272,1.9753
11662,18.954,5.4545,0,0.00011068,1106,3.8541e-05,24.207,3.5318e-05,-0.0073939,-0.00011025,-1093.7,2.0201
11663,18.863,5.3636,0,0.00011274,1126.6,3.9226e-05,24.29,3.5993e-05,-0.0061186,-0.0001123,-1114.2,2.0053
11664,18.863,5.4545,0.05,7.3777e-07,7.3726,5.6652e-07,4.2566,-2.0024e-12,4.3588e-06,-5.6651e-07,-4.2565,2.0051
11665,19.138,5.4545,0,0.0001065,1064.3,3.7219e-05,24.898,3.3904e-05,-0.0076574,-0.00010606,-1051.6,2.05
11666,19.046,5.3636,0,0.00010855,1084.8,3.7907e-05,25.029,3.4575e-05,-0.0062981,-0.00010811,-1072.1,2.0352
11667,19.046,5.4545,0.05,7.3515e-07,7.3464,5.645e-07,4.2415,-1.9271e-12,4.5434e-06,-5.645e-07,-4.2414,2.035
11668,19.321,5.4545,0,0.00010234,1022.7,3.5907e-05,25.621,3.2496e-05,-0.0079342,-0.00010188,-1009.7,2.0799
11669,19.229,5.3636,0,0.00010439,1043.2,3.6598e-05,25.806,3.3162e-05,-0.0064827,-0.00010393,-1030.1,2.0651
11670,19.229,5.4545,0.05,7.3259e-07,7.3209,5.6254e-07,4.2267,-1.061e-12,4.5191e-06,-5.6254e-07,-4.2267,2.0649
11671,19.505,5.4545,0,9.8206e-05,981.38,3.4604e-05,26.379,3.1092e-05,-0.0082317,-9.773e-05,-967.93,2.11
11672,19.413,5.3636,0,0.00010025,1001.8,3.5298e-05,26.624,3.1754e-05,-0.0066718,-9.9769e-05,-988.22,2.0951
11673,19.413,5.4545,0.05,7.3012e-07,7.2961,5.6064e-07,4.2125,-1.1333e-12,6.6978e-06,-5.6064e-07,-4.2124,2.0949
11674,19.688,5.4545,0,9.4086e-05,940.21,3.331e-05,27.174,2.9692e-05,-0.0085455,-9.3594e-05,-926.33,2.1401
11675,19.596,5.3636,0,9.6126e-05,960.59,3.4009e-05,27.484,3.035e-05,-0.0068791,-9.5629e-05,-946.56,2.1252
11676,19.596,5.4545,0.05,7.2772e-07,7.2722,5.588e-07,4.1986,-1.6474e-12,4.9557e-06,-5.588e-07,-4.1986,2.125
11677,19.872,5.4545,0,8.9985e-05,899.23,3.2025e-05,28.008,2.8296e-05,-0.0088688,-8.9476e-05,-884.91,2.1703
11678,19.78,5.3636,0,9.2022e-05,919.59,3.2729e-05,28.39,2.895e-05,-0.0070762,-9.1507e-05,-905.07,2.1553
11679,19.78,5.4545,0.05,7.2541e-07,7.2491,5.5703e-07,4.1853,-1.1255e-12,4.9233e-06,-5.5702e-07,-4.1852,2.1551
11680,20.055,5.4545,0,8.5904e-05,858.44,3.075e-05,28.884,2.6905e-05,-0.009214,-8.5376e-05,-843.64,2.2005
11681,19.963,5.3636,0,8.7939e-05,878.78,3.146e-05,29.345,2.7553e-05,-0.0072743,-8.7403e-05,-863.74,2.1855
11682,19.963,5.4545,0.05,7.2319e-07,7.227,5.5533e-07,4.1725,-1.3689e-12,4.0016e-06,-5.5532e-07,-4.1725,2.1853
11683,20.239,5.4545,0,8.184e-05,817.84,2.9485e-05,29.804,2.5517e-05,-0.0095764,-8.1293e-05,-802.54,2.2308
11684,20.147,5.3636,0,8.3874e-05,838.16,3.0201e-05,30.353,2.6161e-05,-0.0074859,-8.3317e-05,-822.58,2.2157
11685,20.147,5.4545,0.05,7.2108e-07,7.2058,5.537e-07,4.1603,-1.1632e-12,4.4867e-06,-5.537e-07,-4.1602,2.2156
11686,20.422,5.4545,0,7.7796e-05,777.42,2.8229e-05,30.77,2.4133e-05,-0.0099445,-7.7227e-05,-761.59,2.2611
11687,20.33,5.3636,0,7.983e-05,797.75,2.8954e-05,31.416,2.4772e-05,-0.0076844,-7.9249e-05,-781.58,2.246
11688,20.33,5.4545,0.05,7.1906e-07,7.1857,5.5215e-07,4.1487,-1.1326e-12,4.7591e-06,-5.5215e-07,-4.1486,2.2459
11689,20.606,5.4545,0,7.377e-05,737.19,2.6984e-05,31.786,2.2752e-05,-0.010317,-7.3178e-05,-720.79,2.2915
11690,20.514,5.3636,0,7.5805e-05,757.52,2.7718e-05,32.539,2.3386e-05,-0.007868,-7.5199e-05,-740.73,2.2764
11691,20.514,5.4545,0.05,7.1716e-07,7.1667,5.5069e-07,4.1377,-5.2716e-13,2.8249e-06,-5.5069e-07,-4.1377,2.2763
11692,20.789,5.4545,0,6.9763e-05,697.15,2.5748e-05,32.855,2.1374e-05,-0.010695,-6.9146e-05,-680.15,2.3219
11693,20.697,5.3636,0,7.18e-05,717.5,2.6493e-05,33.727,2.2003e-05,-0.0080297,-7.1166e-05,-700.05,2.3068
11694,20.697,5.4545,0.05,7.1538e-07,7.1489,5.4932e-07,4.1274,-4.8049e-13,1.2663e-06,-5.4932e-07,-4.1274,2.3067
11695,20.973,5.4545,0,6.5775e-05,657.29,2.4524e-05,33.981,2e-05,-0.011068,-6.5131e-05,-639.65,2.3524
11696,20.881,5.3636,0,6.7814e-05,677.68,2.528e-05,34.983,2.0623e-05,-0.0081642,-6.7152e-05,-659.51,2.3373
11697,20.881,5.4545,0.05,7.1373e-07,7.1324,5.4806e-07,4.1179,-5.231e-13,1.6911e-06,-5.4806e-07,-4.1179,2.3371
11698,21.156,5.4545,0,6.1806e-05,617.63,2.331e-05,35.167,1.8628e-05,-0.011418,-6.1132e-05,-599.3,2.3829
11699,21.064,5.3636,0,6.385e-05,638.06,2.408e-05,36.315,1.9245e-05,-0.0082528,-6.3154e-05,-619.13,2.3678
11700,21.064,5.4545,0.05,7.1222e-07,7.1172,5.4689e-07,4.1092,-5.5552e-13,1.5445e-06,-5.4689e-07,-4.1091,2.3676
11701,21.34,5.4545,0,5.7856e-05,578.16,2.2108e-05,36.421,1.7259e-05,-0.011729,-5.715e-05,-559.09,2.4135
11702,21.248,5.3636,0,5.9906e-05,598.65,2.2892e-05,37.729,1.787e-05,-0.008265,-5.9175e-05,-578.89,2.3983
11703,21.248,5.4545,0.05,7.1085e-07,7.1036,5.4584e-07,4.1013,-3.0719e-13,1.805e-06,-5.4584e-07,-4.1012,2.3982
11704,21.523,5.4545,0,5.3927e-05,538.89,2.0918e-05,37.747,1.5892e-05,-0.011972,-5.3185e-05,-519.03,2.4441
11705,21.431,5.3636,0,5.5984e-05,559.45,2.1719e-05,39.233,1.6497e-05,-0.0081829,-5.5213e-05,-538.81,2.4289
11706,21.431,5.4545,0.05,7.0963e-07,7.0914,5.4491e-07,4.0943,-2.2669e-13,4.111e-07,-5.4491e-07,-4.0942,2.4288
11707,21.706,5.4545,0,5.0019e-05,499.84,1.9741e-05,39.156,1.4528e-05,-0.012099,-4.9238e-05,-479.12,2.4747
11708,21.615,5.3636,0,5.2085e-05,520.49,2.0561e-05,40.838,1.5125e-05,-0.0079475,-5.127e-05,-498.87,2.4595
11709,21.615,5.4545,0.05,7.0859e-07,7.081,5.4411e-07,4.0882,-2.3426e-13,1.935e-07,-5.4411e-07,-4.0882,2.4594
11710,21.89,5.4545,0,4.6134e-05,461.02,1.8578e-05,40.658,1.3165e-05,-0.012054,-4.5308e-05,-439.35,2.5054
11711,21.798,5.3636,0,4.8211e-05,481.78,1.9419e-05,42.557,1.3754e-05,-0.0074972,-4.7346e-05,-459.09,2.4901
11712,21.798,5.4545,0.05,7.0773e-07,7.0724,5.4345e-07,4.0833,3.6612e-13,3.4002e-06,-5.4345e-07,-4.0833,2.49
11713,22.073,5.4545,0,4.2275e-05,422.46,1.7431e-05,42.269,1.1804e-05,-0.01174,-4.1397e-05,-399.74,2.5361
11714,21.982,5.3636,0,4.4365e-05,443.35,1.8296e-05,44.408,1.2385e-05,-0.0067536,-4.3443e-05,-419.47,2.5208
11715,21.982,5.4545,0.05,7.0708e-07,7.0659,5.4295e-07,4.0795,-9.858e-14,-2.7061e-06,-5.4295e-07,-4.0795,2.5207
11716,22.257,5.4545,0,3.8446e-05,384.2,1.6303e-05,44.011,1.0444e-05,-0.011012,-3.7508e-05,-360.3,2.5668
11717,22.165,5.3636,0,4.055e-05,405.23,1.7194e-05,46.414,1.1016e-05,-0.0055627,-3.9561e-05,-380.02,2.5515
11718,22.165,5.4545,0.05,7.0667e-07,7.0618,5.4263e-07,4.0771,-5.0123e-14,5.5865e-07,-5.4263e-07,-4.0771,2.5514
11719,22.44,5.4545,0,3.4653e-05,346.29,1.5197e-05,45.914,9.0847e-06,-0.0096308,-3.3643e-05,-321.05,2.5975
11720,22.349,5.3636,0,3.6773e-05,367.48,1.6117e-05,48.608,9.6471e-06,-0.003735,-3.5704e-05,-340.75,2.5822
11721,22.349,5.4545,0.05,7.0654e-07,7.0605,5.4253e-07,4.0764,-1.9329e-13,1.9199e-06,-5.4253e-07,-4.0764,2.5821
11722,22.624,5.4545,0,3.0904e-05,308.83,1.4119e-05,48.024,7.726e-06,-0.007283,-2.9806e-05,-282.01,2.6283
11723,22.532,5.3636,0,3.3041e-05,330.18,1.507e-05,51.035,8.2774e-06,-0.00091506,-3.1875e-05,-301.69,2.613
11724,22.532,5.4545,0.05,7.0677e-07,7.0629,5.4272e-07,4.0778,-1.4818e-13,4.4732e-06,-5.4271e-07,-4.0777,2.6129
11725,22.807,5.4545,0,2.7214e-05,271.95,1.3077e-05,50.411,6.3668e-06,-0.0031486,-2.6003e-05,-243.22,2.6591
11726,22.716,5.3636,0,2.9367e-05,293.47,1.406e-05,53.759,6.9059e-06,0.0032504,-2.8081e-05,-262.87,2.6438
11727,22.716,5.4545,0.05,7.075e-07,7.0701,5.4327e-07,4.0819,1.1315e-14,9.8497e-07,-5.4327e-07,-4.0819,2.6437
11728,22.991,5.4545,0,2.3605e-05,235.88,1.2083e-05,53.182,5.0056e-06,0.0030082,-2.2246e-05,-204.75,2.6899
11729,22.899,5.3636,0,2.5772e-05,257.54,1.31e-05,56.875,5.5313e-06,0.010188,-2.4328e-05,-224.34,2.6746
11730,22.899,5.4545,0.05,7.0895e-07,7.0846,5.4439e-07,4.0903,-1.2499e-13,3.3067e-06,-5.4439e-07,-4.0903,2.6745
11731,23.174,5.4545,0,2.0114e-05,201,1.1159e-05,56.51,3.6403e-06,0.0166,-1.8548e-05,-166.7,2.7207
11732,23.083,5.3636,0,2.2285e-05,222.7,1.2204e-05,60.523,4.1512e-06,0.019093,-2.0629e-05,-186.17,2.7054
11733,23.083,5.4545,0.05,7.1155e-07,7.1106,5.4638e-07,4.1053,4.5297e-13,8.3787e-06,-5.4638e-07,-4.1053,2.7053
11734,23.358,5.4545,0,1.6807e-05,167.95,1.0336e-05,60.67,2.2653e-06,0.027684,-1.4932e-05,-129.18,2.7515
11735,23.266,5.3636,0,1.8958e-05,189.45,1.1397e-05,64.917,2.7627e-06,0.042053,-1.7e-05,-148.45,2.7362
11736,23.266,5.4545,0.05,7.1622e-07,7.1572,5.4996e-07,4.1322,8.0889e-13,9.567e-06,-5.4997e-07,-4.1322,2.7361
11737,23.541,5.4545,0,1.3798e-05,137.89,9.6631e-06,66.116,8.7703e-07,0.10101,-1.143e-05,-92.368,2.7824
11738,23.45,5.3636,0,1.5875e-05,158.64,1.0714e-05,70.352,1.3567e-06,0.048744,-1.3461e-05,-111.29,2.767
11739,23.45,5.4545,0.05,7.2477e-07,7.2427,5.5653e-07,4.1816,1.0905e-12,1.0425e-05,-5.5653e-07,-4.1816,2.7669
11740,23.725,5.4545,0,1.1288e-05,112.81,9.2119e-06,73.444,-5.5648e-07,0.048502,-8.0754e-06,-56.446,2.8132
11741,23.633,5.3636,0,1.3178e-05,131.68,1.0197e-05,77.301,-6.3912e-08,0.20315,-1.004e-05,-74.75,2.7979
11742,23.633,5.4545,0.05,7.4185e-07,7.4134,5.6965e-07,4.2801,1.4757e-12,1.6238e-05,-5.6965e-07,-4.2801,2.7978
11743,23.817,5.3636,0,1.1102e-05,110.94,9.9105e-06,86.16,-1.5569e-06,-0.0013448,-6.7496e-06,-39.017,2.8287
11744,23.817,5.4545,0.05,7.9407e-07,7.9353,6.0975e-07,4.5814,1.2304e-12,1.5014e-05,-6.0975e-07,-4.5814,2.8286
11745,23.908,5.4545,0,9.4082e-06,94.017,8.841e-06,81.233,-1.9222e-06,0.36244,-4.8886e-06,-21.926,2.8441
11746,3.5419,5.2727,0,0.00027132,2711.3,0.00014724,715.89,5.116e-05,-6.0036,-0.00025193,-2283.3,0.073481
11747,3.4501,5.1818,0,0.00031584,3156.3,0.00019132,1095.3,4.4271e-05,-9.5618,-0.00028251,-2464.9,0.067624
11748,3.4501,5.2727,0.05,1.4664e-05,146.54,1.126e-05,84.602,-1.4928e-13,2.5624e-06,-1.126e-05,-84.602,0.066598
11749,3.3584,5.2727,0,0.00022321,2230.6,0.00013015,711.67,3.5781e-05,2.6247,-0.00020244,-1787.2,0.059938
11750,3.7254,5.2727,0,0.00028414,2839.5,0.00013251,474.16,6.9077e-05,-2.4839,-0.0002731,-2573.5,0.087095
11751,3.6336,5.1818,0,0.00030639,3061.8,0.00015758,699.07,6.4375e-05,-1.2383,-0.00028845,-2652.2,0.081129
11752,3.6336,5.2727,0.05,1.1106e-05,110.98,8.5277e-06,64.074,6.6416e-12,5.884e-05,-8.5277e-06,-64.074,0.080187
11753,3.9088,5.2727,0,0.00031314,3129.2,0.0001328,357.1,8.4901e-05,-2.7803,-0.00030555,-2936.5,0.10083
11754,3.8171,5.1818,0,0.00032598,3257.6,0.00014848,499.14,8.1617e-05,-3.2201,-0.00031463,-2980.4,0.094738
11755,3.8171,5.2727,0.05,9.8103e-06,98.035,7.5331e-06,56.6,9.1709e-12,0.00011672,-7.5331e-06,-56.6,0.093868
11756,4.0923,5.2727,0,0.00034352,3432.8,0.00013707,286.06,9.872e-05,-2.0573,-0.00033778,-3281.7,0.11474
11757,4.0006,5.1818,0,0.00035125,3510.1,0.0001468,374.27,9.6677e-05,-2.3462,-0.00034341,-3309,0.1085
11758,4.0006,5.2727,0.05,8.3194e-06,83.137,6.3883e-06,47.999,1.1401e-11,0.00012564,-6.3883e-06,-47.999,0.10769
11759,4.2758,5.2727,0,0.00037066,3704,0.0001419,235.62,0.00011032,-1.6401,-0.0003661,-3581.3,0.12884
11760,4.1841,5.1818,0,0.00037569,3754.3,0.00014798,289.47,0.00010919,-2.0394,-0.00036995,-3602.1,0.12246
11761,4.1841,5.2727,0.05,6.8396e-06,68.349,5.252e-06,39.461,1.3158e-11,0.00014857,-5.252e-06,-39.461,0.1217
11762,4.4593,5.2727,0,0.00039301,3927.4,0.00014593,195.05,0.0001198,-1.2834,-0.00038934,-3826.8,0.14318
11763,4.3676,5.1818,0,0.00039666,3963.8,0.00014983,227.54,0.00011932,-1.6544,-0.00039232,-3845.9,0.13664
11764,4.3676,5.2727,0.05,5.494e-06,54.902,4.2187e-06,31.698,1.2314e-11,0.00015479,-4.2187e-06,-31.697,0.13592
11765,4.6428,5.2727,0,0.00041044,4101.6,0.00014878,159.87,0.00012736,-1.0293,-0.0004075,-4019.8,0.15778
11766,4.551,5.1818,0,0.00041339,4131.1,0.00015135,179.04,0.00012734,-1.3808,-0.00041007,-4039.3,0.15107
11767,4.551,5.2727,0.05,4.3338e-06,43.308,3.3278e-06,25.004,1.3766e-11,0.00016459,-3.3278e-06,-25.004,0.15039
11768,4.8263,5.2727,0,0.00042343,4231.4,0.00015046,128.43,0.00013325,-0.84521,-0.00042111,-4166.1,0.17264
11769,4.7345,5.1818,0,0.00042603,4257.4,0.00015222,139.21,0.00013354,-1.1718,-0.00042351,-4186.6,0.16577
11770,4.7345,5.2727,0.05,3.3641e-06,33.618,2.5832e-06,19.409,1.2428e-11,0.00016329,-2.5832e-06,-19.409,0.16512
11771,5.0097,5.2727,0,0.00043263,4323.3,0.00015115,100.25,0.00013771,-0.71979,-0.00043085,-4272.6,0.18778
11772,4.918,5.1818,0,0.00043506,4347.6,0.00015241,105.6,0.00013822,-1.0316,-0.00043318,-4294.3,0.18076
11773,4.918,5.2727,0.05,2.5699e-06,25.681,1.9733e-06,14.827,1.532e-11,0.00019762,-1.9733e-06,-14.827,0.18012
11774,5.1932,5.2727,0,0.0004387,4383.9,0.00015107,75.223,0.00014097,-0.64353,-0.00043738,-4346.2,0.20321
11775,5.1015,5.1818,0,0.00044104,4407.4,0.000152,76.959,0.00014163,-0.95536,-0.0004397,-4368.9,0.19603
11776,5.1015,5.2727,0.05,1.9303e-06,19.29,1.4822e-06,11.137,1.7269e-11,0.00017869,-1.4822e-06,-11.137,0.19541
11777,5.3767,5.2727,0,0.00044224,4419.3,0.00015042,53.328,0.00014324,-0.61687,-0.00044132,-4392.7,0.21893
11778,5.285,5.1818,0,0.00044454,4442.3,0.00015113,52.581,0.00014401,-0.95571,-0.00044364,-4416.3,0.21159
11779,5.285,5.2727,0.05,1.4265e-06,14.256,1.0954e-06,8.2305,2.1826e-11,0.00026118,-1.0954e-06,-8.2304,0.21099
11780,5.5602,5.2727,0,0.00044377,4434.6,0.00014936,34.525,0.00014467,-0.65833,-0.00044318,-4417.6,0.23495
11781,5.4684,5.1818,0,0.00044604,4457.4,0.00014992,32.06,0.00014551,-1.0868,-0.00044551,-4441.8,0.22745
11782,5.4684,5.2727,0.05,1.045e-06,10.443,8.0242e-07,6.0291,2.7884e-11,0.00023185,-8.0244e-07,-6.0291,0.22686
11783,5.7437,5.2727,0,0.00044371,4434,0.00014803,18.774,0.00014542,-0.8534,-0.0004434,-4425,0.25127
11784,5.6519,5.1818,0,0.00044597,4456.6,0.00014853,15.294,0.00014628,-1.6057,-0.00044573,-4449.7,0.24361
11785,5.6519,5.2727,0.05,7.7987e-07,7.7933,5.9883e-07,4.4995,3.6692e-11,0.00041733,-5.9885e-07,-4.4995,0.24303
11786,5.9271,5.2727,0,0.00044241,4421,0.00014662,6.4712,0.00014552,-1.7851,-0.00044232,-4418.7,0.26788
11787,5.8354,5.1818,0,0.00044465,4443.4,0.00014728,3.9308,0.00014617,-4.4825,-0.00044466,-4443.7,0.26007
11788,5.8354,5.2727,0.05,6.3031e-07,6.2988,4.8399e-07,3.6366,3.3104e-11,0.00024688,-4.8401e-07,-3.6366,0.25949
11789,6.1106,5.2727,0,0.00044014,4398.3,0.0001457,1.1771,0.00014458,-7.245,-0.00044024,-4401.4,0.2848
11790,6.0189,5.1818,0,0.00044237,4420.7,0.00014671,0.98717,0.00014484,-13.046,-0.00044257,-4426.7,0.27683
11791,6.0189,5.2727,0.05,5.8447e-07,5.8407,4.488e-07,3.3722,1.9906e-11,0.00028857,-4.4881e-07,-3.3721,0.27626
11792,6.2941,5.2727,0,0.00043713,4368.3,0.00014503,0.42878,0.00014297,-15.026,-0.00043737,-4375.5,0.30201
11793,6.2024,5.1818,0,0.00043935,4390.5,0.00014609,0.44418,0.00014316,-21.585,-0.0004397,-4401,0.29389
11794,6.2024,5.2727,0.05,6.0696e-07,6.0654,4.6607e-07,3.5019,1.3039e-11,0.00014854,-4.6607e-07,-3.5018,0.29332
11795,6.4776,5.2727,0,0.00043355,4332.5,0.00014415,0.2323,0.00014127,-21.402,-0.0004339,-4343,0.31951
11796,6.3858,5.1818,0,0.00043576,4354.6,0.00014522,0.25609,0.00014142,-28.354,-0.00043623,-4368.6,0.31124
11797,6.3858,5.2727,0.05,6.5869e-07,6.5824,5.058e-07,3.8005,1.854e-12,0.0001144,-5.0579e-07,-3.8002,0.31068
11798,6.6611,5.2727,0,0.00042953,4292.4,0.00014305,0.14911,0.00013955,-26.194,-0.00042997,-4305.3,0.33731
11799,6.5693,5.1818,0,0.00043174,4314.4,0.00014414,0.16726,0.00013967,-33.385,-0.00043229,-4330.9,0.32889
11800,6.5693,5.2727,0.05,7.16e-07,7.1551,5.4981e-07,4.1312,-3.0051e-12,8.9484e-05,-5.498e-07,-4.1308,0.32833
11801,6.8445,5.2727,0,0.00042519,4249,0.00014179,0.10524,0.00013783,-29.581,-0.00042569,-4263.7,0.35539
11802,6.7528,5.1818,0,0.00042739,4271,0.00014287,0.11793,0.00013795,-36.892,-0.00042801,-4289.2,0.34683
11803,6.7528,5.2727,0.05,7.6862e-07,7.6809,5.9021e-07,4.4347,-2.7454e-12,5.0205e-05,-5.902e-07,-4.4344,0.34627
11804,7.028,5.2727,0,0.00042061,4203.2,0.00014038,0.078968,0.00013614,-31.77,-0.00042114,-4218.9,0.37376
11805,6.9363,5.1818,0,0.0004228,4225.1,0.00014146,0.087619,0.00013625,-39.102,-0.00042345,-4244.5,0.36505
11806,6.9363,5.2727,0.05,8.1315e-07,8.1259,6.244e-07,4.6916,-5.3059e-12,2.8375e-05,-6.2439e-07,-4.6913,0.3645
11807,7.2115,5.2727,0,0.00041584,4155.5,0.00013886,0.061812,0.00013447,-32.964,-0.00041639,-4171.8,0.39242
11808,7.1198,5.1818,0,0.00041803,4177.4,0.00013994,0.067624,0.00013458,-40.235,-0.0004187,-4197.4,0.38356
11809,7.1198,5.2727,0.05,8.4914e-07,8.4856,6.5204e-07,4.8993,-9.2573e-12,2.4132e-05,-6.5203e-07,-4.899,0.38302
11810,7.395,5.2727,0,0.00041093,4106.5,0.00013726,0.049882,0.00013282,-33.344,-0.00041149,-4123,0.41136
11811,7.3032,5.1818,0,0.00041313,4128.5,0.00013834,0.053712,0.00013294,-40.486,-0.0004138,-4148.5,0.40235
11812,7.3032,5.2727,0.05,8.7731e-07,8.767,6.7367e-07,5.0618,-7.0499e-12,2.8758e-05,-6.7366e-07,-5.0615,0.40182
11813,7.5785,5.2727,0,0.00040593,4056.5,0.0001356,0.041177,0.00013119,-33.07,-0.00040648,-4072.9,0.43057
11814,7.4867,5.1818,0,0.00040814,4078.5,0.00013667,0.04362,0.00013133,-40.03,-0.0004088,-4098.4,0.42143
11815,7.4867,5.2727,0.05,8.9873e-07,8.9811,6.9012e-07,5.1854,-9.1903e-12,1.7456e-05,-6.901e-07,-5.1851,0.42089
11816,7.7619,5.2727,0,0.00040086,4005.8,0.00013388,0.034577,0.00012958,-32.282,-0.0004014,-4021.9,0.45005
11817,7.6702,5.1818,0,0.00040307,4027.9,0.00013494,0.036052,0.00012975,-39.017,-0.00040372,-4047.3,0.44077
11818,7.6702,5.2727,0.05,9.1453e-07,9.1389,7.0226e-07,5.2765,-6.0801e-12,1.6099e-05,-7.0223e-07,-5.2762,0.44024
11819,7.9454,5.2727,0,0.00039574,3954.7,0.00013213,0.029418,0.00012799,-31.098,-0.00039626,-3970.1,0.46981
11820,7.8537,5.1818,0,0.00039796,3976.9,0.00013319,0.030219,0.00012818,-37.577,-0.00039859,-3995.5,0.46039
11821,7.8537,5.2727,0.05,9.2574e-07,9.251,7.1087e-07,5.3412,-8.3607e-12,1.6003e-05,-7.1084e-07,-5.3409,0.45986
11822,8.1289,5.2727,0,0.00039059,3903.2,0.00013036,0.025285,0.00012642,-29.618,-0.00039109,-3917.9,0.48983
11823,8.0372,5.1818,0,0.00039282,3925.5,0.0001314,0.025622,0.00012663,-35.818,-0.00039342,-3943.3,0.48028
11824,8.0372,5.2727,0.05,9.3327e-07,9.3262,7.1664e-07,5.3847,-8.7996e-12,1.3633e-05,-7.1662e-07,-5.3843,0.47976
11825,8.3124,5.2727,0,0.00038542,3851.6,0.00012857,0.021909,0.00012485,-27.924,-0.00038589,-3865.4,0.51012
11826,8.2206,5.1818,0,0.00038766,3873.9,0.0001296,0.021934,0.0001251,-33.832,-0.00038823,-3890.7,0.50043
11827,8.2206,5.2727,0.05,9.3787e-07,9.3722,7.2018e-07,5.4112,-7.3384e-12,1.1696e-05,-7.2015e-07,-5.4109,0.49991
11828,8.4959,5.2727,0,0.00038024,3799.8,0.00012677,0.019106,0.0001233,-26.085,-0.00038068,-3812.8,0.53067
11829,8.4041,5.1818,0,0.00038249,3822.3,0.00012779,0.018928,0.00012357,-31.692,-0.00038302,-3838,0.52084
11830,8.4041,5.2727,0.05,9.4016e-07,9.3952,7.2194e-07,5.4245,-9.3052e-12,1.1647e-05,-7.2192e-07,-5.4241,0.52033
11831,8.6794,5.2727,0,0.00037506,3748,0.00012497,0.016749,0.00012175,-24.157,-0.00037546,-3760,0.55147
11832,8.5876,5.1818,0,0.00037732,3770.6,0.00012597,0.016448,0.00012205,-29.46,-0.00037781,-3785.2,0.54151
11833,8.5876,5.2727,0.05,9.4067e-07,9.4002,7.2233e-07,5.4274,-1.1254e-11,1.0683e-05,-7.2231e-07,-5.4271,0.541
11834,8.8628,5.2727,0,0.00036988,3696.2,0.00012316,0.014746,0.0001202,-22.183,-0.00037025,-3707.3,0.57252
11835,8.7711,5.1818,0,0.00037215,3718.9,0.00012415,0.014381,0.00012053,-27.184,-0.0003726,-3732.4,0.56243
11836,8.7711,5.2727,0.05,9.3979e-07,9.3915,7.2166e-07,5.4223,-7.9094e-12,9.9587e-06,-7.2164e-07,-5.422,0.56193
11837,9.0463,5.2727,0,0.0003647,3644.5,0.00012135,0.01303,0.00011866,-20.198,-0.00036504,-3654.5,0.59383
11838,8.9546,5.1818,0,0.00036698,3667.3,0.00012234,0.012644,0.00011902,-24.903,-0.0003674,-3679.7,0.58361
11839,8.9546,5.2727,0.05,9.3786e-07,9.3722,7.2017e-07,5.4112,-8.9563e-12,8.2846e-06,-7.2015e-07,-5.4109,0.58311
11840,9.2298,5.2727,0,0.00035953,3592.9,0.00011955,0.011552,0.00011712,-18.231,-0.00035984,-3601.9,0.61538
11841,9.1381,5.1818,0,0.00036182,3615.7,0.00012052,0.011174,0.00011751,-22.648,-0.0003622,-3627,0.60503
11842,9.1381,5.2727,0.05,9.3514e-07,9.3449,7.1808e-07,5.3954,-9.9643e-12,7.6482e-06,-7.1806e-07,-5.3952,0.60454
11843,9.4133,5.2727,0,0.00035438,3541.3,0.00011775,0.010274,0.00011558,-16.302,-0.00035465,-3549.4,0.63717
11844,9.3215,5.1818,0,0.00035668,3564.3,0.00011871,0.0099274,0.00011599,-20.439,-0.00035702,-3574.5,0.6267
11845,9.3215,5.2727,0.05,9.3182e-07,9.3118,7.1553e-07,5.3763,-8.3151e-12,6.8912e-06,-7.1551e-07,-5.376,0.62621
11846,9.5968,5.2727,0,0.00034923,3489.9,0.00011596,0.0091705,0.00011404,-14.426,-0.00034948,-3497.1,0.6592
11847,9.505,5.1818,0,0.00035154,3513,0.00011691,0.008866,0.00011448,-18.296,-0.00035185,-3522.1,0.6486
11848,9.505,5.2727,0.05,9.2807e-07,9.2743,7.1265e-07,5.3547,-9.337e-12,5.4311e-06,-7.1263e-07,-5.3544,0.64812
11849,9.7802,5.2727,0,0.0003441,3438.7,0.00011418,0.0082185,0.0001125,-12.615,-0.00034432,-3444.9,0.68146
11850,9.6885,5.1818,0,0.00034642,3461.8,0.00011512,0.0079682,0.00011296,-16.23,-0.00034669,-3469.8,0.67074
11851,9.6885,5.2727,0.05,9.2402e-07,9.2338,7.0954e-07,5.3313,-8.4266e-12,6.2526e-06,-7.0952e-07,-5.331,0.67027
11852,9.9637,5.2727,0,0.00033899,3387.5,0.0001124,0.007411,0.00011096,-10.876,-0.00033917,-3392.9,0.70396
11853,9.872,5.1818,0,0.00034131,3410.7,0.00011334,0.0072072,0.00011144,-14.249,-0.00034155,-3417.8,0.69312
11854,9.872,5.2727,0.05,9.1976e-07,9.1912,7.0627e-07,5.3067,-9.4716e-12,5.5179e-06,-7.0625e-07,-5.3064,0.69265
11855,10.147,5.2727,0,0.00033388,3336.5,0.00011064,0.006745,0.00010941,-9.2148,-0.00033404,-3341.1,0.72668
11856,10.055,5.1818,0,0.00033621,3359.8,0.00011156,0.0065899,0.00010992,-12.358,-0.00033642,-3365.9,0.71572
11857,10.055,5.2727,0.05,9.1536e-07,9.1473,7.0289e-07,5.2813,-7.6429e-12,5.2823e-06,-7.0287e-07,-5.2811,0.71526
11858,10.331,5.2727,0,0.0003288,3285.7,0.00010888,0.0062053,0.00010787,-7.633,-0.00032893,-3289.5,0.74963
11859,10.239,5.1818,0,0.00033113,3309,0.0001098,0.006097,0.00010839,-10.56,-0.00033131,-3314.3,0.73855
11860,10.239,5.2727,0.05,9.1088e-07,9.1026,6.9945e-07,5.2555,-8.6988e-12,5.1068e-06,-6.9944e-07,-5.2552,0.7381
11861,10.514,5.2727,0,0.00032373,3235.1,0.00010713,0.0058272,0.00010632,-6.1317,-0.00032383,-3238.1,0.7728
11862,10.422,5.1818,0,0.00032606,3258.4,0.00010804,0.0057066,0.00010686,-8.8557,-0.00032621,-3262.8,0.76161
11863,10.422,5.2727,0.05,9.0637e-07,9.0574,6.9599e-07,5.2295,-6.9244e-12,5.1362e-06,-6.9597e-07,-5.2292,0.76116
11864,10.698,5.2727,0,0.00031868,3184.6,0.0001054,0.0057005,0.00010477,-4.7104,-0.00031876,-3186.9,0.79618
11865,10.606,5.1818,0,0.00032101,3207.9,0.00010629,0.0054895,0.00010533,-7.244,-0.00032113,-3211.5,0.78488
11866,10.606,5.2727,0.05,9.0184e-07,9.0122,6.9251e-07,5.2033,-8.7716e-12,5.136e-06,-6.9249e-07,-5.2031,0.78443
11867,10.881,5.2727,0,0.00031364,3134.2,0.00010367,0.0060011,0.00010322,-3.3676,-0.0003137,-3135.9,0.81978
11868,10.789,5.1818,0,0.00031598,3157.6,0.00010456,0.0054985,0.00010379,-5.7232,-0.00031607,-3160.5,0.80837
11869,10.789,5.2727,0.05,8.9733e-07,8.9671,6.8904e-07,5.1773,-7.0144e-12,4.4401e-06,-6.8903e-07,-5.177,0.80793
11870,11.065,5.2727,0,0.00030862,3084.1,0.00010195,0.0072741,0.00010167,-2.1015,-0.00030866,-3085.1,0.8436
11871,10.973,5.1818,0,0.00031096,3107.4,0.00010283,0.0058683,0.00010226,-4.2902,-0.00031103,-3109.6,0.83207
11872,10.973,5.2727,0.05,8.9285e-07,8.9224,6.8561e-07,5.1514,-7.0289e-12,3.8562e-06,-6.8559e-07,-5.1512,0.83164
11873,11.248,5.2727,0,0.00030362,3034.1,0.00010024,0.012934,0.00010012,-0.91269,-0.00030363,-3034.5,0.86762
11874,11.156,5.1818,0,0.00030596,3057.5,0.00010111,0.006882,0.00010072,-2.9423,-0.00030601,-3058.9,0.85598
11875,11.156,5.2727,0.05,8.8843e-07,8.8782,6.8221e-07,5.1259,-7.0524e-12,4.0572e-06,-6.8219e-07,-5.1257,0.85555
11876,11.432,5.2727,0,0.00029863,2984.3,9.8573e-05,0.26191,9.8533e-05,-0.036521,-0.00029863,-2984.2,0.89184
11877,11.34,5.1818,0,0.00030097,3007.7,9.9405e-05,0.0099351,9.918e-05,-1.6767,-0.000301,-3008.5,0.8801
11878,11.34,5.2727,0.05,8.8404e-07,8.8343,6.7884e-07,5.1006,-7.1106e-12,4.0757e-06,-6.7883e-07,-5.1004,0.87967
11879,11.615,5.2727,0,0.00029367,2934.6,9.7018e-05,1.2911,9.6846e-05,-0.0064229,-0.00029365,-2934,0.91626
11880,11.523,5.1818,0,0.000296,2958,9.7709e-05,0.028248,9.7638e-05,-0.50225,-0.00029601,-2958.2,0.90441
11881,11.523,5.2727,0.05,8.7972e-07,8.7911,6.7552e-07,5.0757,-7.1249e-12,3.2055e-06,-6.7551e-07,-5.0754,0.904
11882,11.799,5.2727,0,0.00028872,2885.2,9.5468e-05,2.2854,9.5164e-05,-0.0034297,-0.00028868,-2884,0.94088
11883,11.707,5.1818,0,0.00029105,2908.5,9.6104e-05,0.66567,9.6013e-05,-0.018826,-0.00029104,-2908.2,0.92893
11884,11.707,5.2727,0.05,8.7545e-07,8.7485,6.7224e-07,5.0511,-6.2246e-12,3.1964e-06,-6.7224e-07,-5.0508,0.92852
11885,11.982,5.2727,0,0.00028379,2835.9,9.3919e-05,3.2235,9.349e-05,-0.0024876,-0.00028373,-2834.3,0.9657
11886,11.89,5.1818,0,0.00028612,2859.2,9.4563e-05,1.7072,9.4334e-05,-0.0067832,-0.00028609,-2858.4,0.95364
11887,11.89,5.2727,0.05,8.7124e-07,8.7064,6.6901e-07,5.0268,-7.1566e-12,3.7406e-06,-6.69e-07,-5.0265,0.95324
11888,12.165,5.2727,0,0.00027887,2786.8,9.2372e-05,4.1079,9.1825e-05,-0.0021345,-0.0002788,-2784.8,0.9907
11889,12.074,5.1818,0,0.0002812,2810.1,9.3023e-05,2.6952,9.2663e-05,-0.0041463,-0.00028116,-2808.7,0.97855
11890,12.074,5.2727,0.05,8.671e-07,8.665,6.6583e-07,5.0028,-5.3732e-12,2.9275e-06,-6.6582e-07,-5.0026,0.97815
11891,12.349,5.2727,0,0.00027398,2737.9,9.0826e-05,4.9419,9.0168e-05,-0.0020204,-0.00027389,-2735.4,1.0159
11892,12.257,5.1818,0,0.0002763,2761.1,9.1484e-05,3.6262,9.1001e-05,-0.0031242,-0.00027624,-2759.3,1.0036
11893,12.257,5.2727,0.05,8.63e-07,8.624,6.6268e-07,4.9792,-6.3047e-12,3.2489e-06,-6.6267e-07,-4.979,1.0032
11894,12.532,5.2727,0,0.0002691,2689.2,8.9282e-05,5.7291,8.8519e-05,-0.0020007,-0.000269,-2686.3,1.0413
11895,12.441,5.1818,0,0.00027142,2712.4,8.9946e-05,4.5034,8.9347e-05,-0.0026222,-0.00027135,-2710.1,1.0289
11896,12.441,5.2727,0.05,8.5895e-07,8.5836,6.5957e-07,4.9558,-6.3198e-12,3.5749e-06,-6.5956e-07,-4.9556,1.0285
11897,12.716,5.2727,0,0.00026424,2640.6,8.7741e-05,6.4732,8.6879e-05,-0.0020239,-0.00026413,-2637.4,1.0668
11898,12.624,5.1818,0,0.00026656,2663.8,8.8411e-05,5.3307,8.7701e-05,-0.0023478,-0.00026647,-2661.1,1.0544
11899,12.624,5.2727,0.05,8.5495e-07,8.5436,6.5651e-07,4.9327,-5.4246e-12,2.2516e-06,-6.5649e-07,-4.9326,1.054
11900,12.899,5.2727,0,0.0002594,2592.2,8.6203e-05,7.1776,8.5247e-05,-0.0020896,-0.00025928,-2588.6,1.0926
11901,12.808,5.1818,0,0.00026172,2615.4,8.6877e-05,6.112,8.6063e-05,-0.0021817,-0.00026161,-2612.3,1.08
11902,12.808,5.2727,0.05,8.5101e-07,8.5043,6.5348e-07,4.91,-6.3457e-12,1.2213e-06,-6.5347e-07,-4.9098,1.0796
11903,13.083,5.2727,0,0.00025458,2544.1,8.4667e-05,7.8456,8.3623e-05,-0.0021911,-0.00025445,-2540.1,1.1185
11904,12.991,5.1818,0,0.00025689,2567.1,8.5346e-05,6.8509,8.4434e-05,-0.0021255,-0.00025677,-2563.7,1.1058
11905,12.991,5.2727,0.05,8.4713e-07,8.4654,6.5049e-07,4.8876,-6.3587e-12,1.3617e-06,-6.5048e-07,-4.8874,1.1055
11906,13.266,5.2727,0,0.00024978,2496.1,8.3136e-05,8.4806,8.2007e-05,-0.0022808,-0.00024963,-2491.8,1.1445
11907,13.175,5.1818,0,0.00025208,2519.1,8.3818e-05,7.5512,8.2812e-05,-0.0021114,-0.00025195,-2515.3,1.1318
11908,13.175,5.2727,0.05,8.4327e-07,8.4269,6.4753e-07,4.8654,-5.461e-12,2.0582e-06,-6.4752e-07,-4.8652,1.1315
11909,13.45,5.2727,0,0.000245,2448.3,8.1608e-05,9.0855,8.0398e-05,-0.0023718,-0.00024484,-2443.7,1.1708
11910,13.358,5.1818,0,0.00024729,2471.2,8.2293e-05,8.2165,8.1199e-05,-0.0020836,-0.00024715,-2467.1,1.158
11911,13.358,5.2727,0.05,8.3947e-07,8.3889,6.4461e-07,4.8434,-6.3809e-12,2.6562e-06,-6.446e-07,-4.8432,1.1576
11912,13.633,5.2727,0,0.00024023,2400.7,8.0083e-05,9.6634,7.8797e-05,-0.0024777,-0.00024007,-2395.8,1.1972
11913,13.542,5.1818,0,0.00024252,2423.5,8.0771e-05,8.85,7.9593e-05,-0.0021059,-0.00024237,-2419.1,1.1843
11914,13.542,5.2727,0.05,8.3571e-07,8.3513,6.4173e-07,4.8217,-6.3906e-12,2.9009e-06,-6.4171e-07,-4.8215,1.184
11915,13.817,5.2727,0,0.00023549,2353.2,7.8564e-05,10.217,7.7203e-05,-0.0025752,-0.00023531,-2348.1,1.2238
11916,13.725,5.1818,0,0.00023777,2376,7.9253e-05,9.4549,7.7994e-05,-0.0021327,-0.00023761,-2371.3,1.2108
11917,13.725,5.2727,0.05,8.3198e-07,8.3141,6.3887e-07,4.8002,-4.581e-12,3.0121e-06,-6.3885e-07,-4.8001,1.2104
11918,14,5.2727,0,0.00023076,2306,7.7048e-05,10.749,7.5617e-05,-0.0026837,-0.00023057,-2300.6,1.2505
11919,13.909,5.1818,0,0.00023303,2328.7,7.7739e-05,10.034,7.6404e-05,-0.0021591,-0.00023286,-2323.7,1.2374
11920,13.909,5.2727,0.05,8.283e-07,8.2773,6.3604e-07,4.779,-4.5856e-12,3.1666e-06,-6.3602e-07,-4.7788,1.2371
11921,14.184,5.2727,0,0.00022605,2259,7.5538e-05,11.263,7.4038e-05,-0.002787,-0.00022586,-2253.3,1.2774
11922,14.092,5.1818,0,0.00022832,2281.6,7.623e-05,10.591,7.482e-05,-0.0022211,-0.00022814,-2276.3,1.2642
11923,14.092,5.2727,0.05,8.2465e-07,8.2408,6.3323e-07,4.7579,-4.5847e-12,2.6224e-06,-6.3322e-07,-4.7577,1.2639
11924,14.367,5.2727,0,0.00022136,2212.1,7.4032e-05,11.76,7.2467e-05,-0.0028694,-0.00022116,-2206.2,1.3044
11925,14.276,5.1818,0,0.00022362,2234.7,7.4725e-05,11.129,7.3244e-05,-0.0022467,-0.00022343,-2229.1,1.2912
11926,14.276,5.2727,0.05,8.2102e-07,8.2046,6.3045e-07,4.737,-6.4196e-12,2.7901e-06,-6.3044e-07,-4.7368,1.2909
11927,14.551,5.2727,0,0.0002167,2165.5,7.2532e-05,12.243,7.0902e-05,-0.0029652,-0.00021648,-2159.3,1.3316
11928,14.459,5.1818,0,0.00021895,2188,7.3226e-05,11.649,7.1675e-05,-0.0022761,-0.00021875,-2182.1,1.3183
11929,14.459,5.2727,0.05,8.1744e-07,8.1687,6.277e-07,4.7163,-4.5904e-12,3.5211e-06,-6.2769e-07,-4.7161,1.318
11930,14.734,5.2727,0,0.00021205,2119,7.1037e-05,12.714,6.9344e-05,-0.0030669,-0.00021183,-2112.6,1.3589
11931,14.642,5.1818,0,0.00021429,2141.4,7.1731e-05,12.155,7.0113e-05,-0.0023368,-0.00021408,-2135.3,1.3455
11932,14.642,5.2727,0.05,8.1388e-07,8.1332,6.2497e-07,4.6958,-4.6142e-12,3.1097e-06,-6.2496e-07,-4.6956,1.3452
11933,14.918,5.2727,0,0.00020742,2072.7,6.9548e-05,13.176,6.7794e-05,-0.003154,-0.00020719,-2066.1,1.3864
11934,14.826,5.1818,0,0.00020965,2095.1,7.0242e-05,12.649,6.8558e-05,-0.0023821,-0.00020944,-2088.7,1.3729
11935,14.826,5.2727,0.05,8.1035e-07,8.0979,6.2226e-07,4.6754,-6.4392e-12,3.2646e-06,-6.2224e-07,-4.6753,1.3726
11936,15.101,5.2727,0,0.00020281,2026.7,6.8064e-05,13.631,6.625e-05,-0.0032269,-0.00020257,-2019.8,1.414
11937,15.009,5.1818,0,0.00020504,2048.9,6.8758e-05,13.134,6.701e-05,-0.0024169,-0.00020481,-2042.3,1.4005
11938,15.009,5.2727,0.05,8.0685e-07,8.0629,6.1957e-07,4.6552,-3.7027e-12,2.6497e-06,-6.1956e-07,-4.6551,1.4002
11939,15.285,5.2727,0,0.00019822,1980.8,6.6587e-05,14.081,6.4713e-05,-0.0033032,-0.00019797,-1973.7,1.4417
11940,15.193,5.1818,0,0.00020044,2003,6.7281e-05,13.612,6.5469e-05,-0.0024387,-0.0002002,-1996.2,1.4281
11941,15.193,5.2727,0.05,8.0338e-07,8.0283,6.169e-07,4.6352,-3.7159e-12,2.4991e-06,-6.169e-07,-4.6351,1.4278
11942,15.468,5.2727,0,0.00019365,1935.1,6.5116e-05,14.528,6.3182e-05,-0.0033873,-0.0001934,-1927.8,1.4696
11943,15.376,5.1818,0,0.00019586,1957.2,6.5809e-05,14.085,6.3934e-05,-0.0024807,-0.00019562,-1950.2,1.4559
11944,15.376,5.2727,0.05,7.9995e-07,7.994,6.1426e-07,4.6154,-3.7303e-12,4.3449e-06,-6.1426e-07,-4.6153,1.4556
11945,15.652,5.2727,0,0.0001891,1889.7,6.3651e-05,14.973,6.1658e-05,-0.0034654,-0.00018884,-1882.1,1.4976
11946,15.56,5.1818,0,0.0001913,1911.7,6.4344e-05,14.555,6.2406e-05,-0.0025193,-0.00019105,-1904.4,1.4839
11947,15.56,5.2727,0.05,7.9654e-07,7.9599,6.1165e-07,4.5957,-3.7171e-12,3.6994e-06,-6.1164e-07,-4.5956,1.4836
11948,15.835,5.2727,0,0.00018456,1844.4,6.2193e-05,15.42,6.0141e-05,-0.0035523,-0.0001843,-1836.6,1.5258
11949,15.743,5.1818,0,0.00018676,1866.3,6.2885e-05,15.026,6.0885e-05,-0.0025508,-0.0001865,-1858.8,1.5119
11950,15.743,5.2727,0.05,7.9316e-07,7.9261,6.0905e-07,4.5762,-3.7321e-12,2.2894e-06,-6.0904e-07,-4.5761,1.5117
11951,16.019,5.2727,0,0.00018005,1799.3,6.0742e-05,15.87,5.863e-05,-0.0036367,-0.00017978,-1791.3,1.554
11952,15.927,5.1818,0,0.00018224,1821.1,6.1433e-05,15.498,5.937e-05,-0.0026064,-0.00018197,-1813.3,1.5401
11953,15.927,5.2727,0.05,7.898e-07,7.8926,6.0647e-07,4.5568,-3.2959e-12,2.9328e-06,-6.0647e-07,-4.5567,1.5398
11954,16.202,5.2727,0,0.00017556,1754.4,5.9298e-05,16.325,5.7125e-05,-0.0037059,-0.00017528,-1746.2,1.5824
11955,16.11,5.1818,0,0.00017774,1776.2,5.9988e-05,15.975,5.7861e-05,-0.0026309,-0.00017746,-1768.1,1.5684
11956,16.11,5.2727,0.05,7.8647e-07,7.8593,6.0392e-07,4.5376,-3.744e-12,2.9899e-06,-6.0391e-07,-4.5375,1.5682
11957,16.386,5.2727,0,0.00017109,1709.7,5.7861e-05,16.787,5.5626e-05,-0.003789,-0.0001708,-1701.3,1.6109
11958,16.294,5.1818,0,0.00017326,1731.4,5.855e-05,16.458,5.6359e-05,-0.0026541,-0.00017298,-1723.1,1.5969
11959,16.294,5.2727,0.05,7.8318e-07,7.8264,6.0139e-07,4.5186,-2.3972e-12,3.531e-06,-6.0138e-07,-4.5185,1.5966
11960,16.569,5.2727,0,0.00016664,1665.3,5.6432e-05,17.258,5.4134e-05,-0.0038796,-0.00016634,-1656.6,1.6395
11961,16.477,5.1818,0,0.0001688,1686.9,5.7119e-05,16.949,5.4863e-05,-0.0027047,-0.00016851,-1678.3,1.6254
11962,16.477,5.2727,0.05,7.7992e-07,7.7938,5.9888e-07,4.4998,-3.7681e-12,2.9129e-06,-5.9888e-07,-4.4997,1.6251
11963,16.753,5.2727,0,0.00016221,1621,5.5009e-05,17.739,5.2648e-05,-0.0039591,-0.0001619,-1612,1.6682
11964,16.661,5.1818,0,0.00016436,1642.5,5.5696e-05,17.452,5.3373e-05,-0.0027404,-0.00016406,-1633.7,1.6541
11965,16.661,5.2727,0.05,7.7668e-07,7.7614,5.964e-07,4.4811,-3.3203e-12,3.9289e-06,-5.9639e-07,-4.481,1.6538
11966,16.936,5.2727,0,0.0001578,1576.9,5.3595e-05,18.234,5.1168e-05,-0.0040329,-0.00015748,-1567.7,1.697
11967,16.844,5.1818,0,0.00015994,1598.3,5.428e-05,17.967,5.1889e-05,-0.0027659,-0.00015963,-1589.3,1.6828
11968,16.844,5.2727,0.05,7.7347e-07,7.7294,5.9393e-07,4.4626,-2.8746e-12,5.8236e-06,-5.9393e-07,-4.4625,1.6826
11969,17.119,5.2727,0,0.00015341,1533,5.2188e-05,18.744,4.9693e-05,-0.0041129,-0.00015308,-1523.6,1.726
11970,17.028,5.1818,0,0.00015554,1554.4,5.2873e-05,18.498,5.041e-05,-0.0027841,-0.00015522,-1545,1.7117
11971,17.028,5.2727,0.05,7.703e-07,7.6977,5.915e-07,4.4444,-3.7903e-12,4.7605e-06,-5.915e-07,-4.4442,1.7115
11972,17.303,5.2727,0,0.00014904,1489.4,5.079e-05,19.27,4.8225e-05,-0.0042013,-0.0001487,-1479.6,1.755
11973,17.211,5.1818,0,0.00015117,1510.6,5.1473e-05,19.046,4.8938e-05,-0.0028174,-0.00015083,-1501,1.7407
11974,17.211,5.2727,0.05,7.6717e-07,7.6665,5.891e-07,4.4263,-2.8915e-12,3.9996e-06,-5.8909e-07,-4.4262,1.7404
11975,17.486,5.2727,0,0.00014469,1445.9,4.94e-05,19.816,4.6762e-05,-0.0042883,-0.00014434,-1435.9,1.7841
11976,17.395,5.1818,0,0.00014681,1467.1,5.0082e-05,19.614,4.7471e-05,-0.0028467,-0.00014646,-1457.2,1.7697
11977,17.395,5.2727,0.05,7.6408e-07,7.6355,5.8672e-07,4.4084,-3.3537e-12,2.9146e-06,-5.8672e-07,-4.4083,1.7695
11978,17.67,5.2727,0,0.00014036,1402.6,4.8018e-05,20.384,4.5305e-05,-0.0043839,-0.00014,-1392.3,1.8133
11979,17.578,5.1818,0,0.00014247,1423.7,4.87e-05,20.205,4.601e-05,-0.0028708,-0.00014212,-1413.5,1.7989
11980,17.578,5.2727,0.05,7.6103e-07,7.605,5.8438e-07,4.3908,-1.9944e-12,4.7331e-06,-5.8437e-07,-4.3907,1.7987
11981,17.853,5.2727,0,0.00013605,1359.6,4.6645e-05,20.975,4.3853e-05,-0.0044822,-0.00013568,-1348.9,1.8427
11982,17.762,5.1818,0,0.00013815,1380.6,4.7326e-05,20.821,4.4555e-05,-0.002912,-0.00013779,-1370,1.8282
11983,17.762,5.2727,0.05,7.5801e-07,7.5749,5.8206e-07,4.3734,-2.9107e-12,4.9493e-06,-5.8205e-07,-4.3733,1.828
11984,18.037,5.2727,0,0.00013176,1316.7,4.5281e-05,21.592,4.2406e-05,-0.0045736,-0.00013138,-1305.8,1.8721
11985,17.945,5.1818,0,0.00013386,1337.6,4.5962e-05,21.465,4.3105e-05,-0.0029307,-0.00013348,-1326.8,1.8575
11986,17.945,5.2727,0.05,7.5504e-07,7.5452,5.7978e-07,4.3563,-2.9031e-12,6.4338e-06,-5.7977e-07,-4.3562,1.8573
11987,18.22,5.2727,0,0.00012749,1274,4.3925e-05,22.237,4.0965e-05,-0.0046771,-0.0001271,-1262.8,1.9016
11988,18.129,5.1818,0,0.00012958,1294.9,4.4606e-05,22.139,4.166e-05,-0.0029482,-0.00012919,-1283.7,1.887
11989,18.129,5.2727,0.05,7.5212e-07,7.516,5.7754e-07,4.3394,-2.4821e-12,3.2995e-06,-5.7753e-07,-4.3393,1.8868
11990,18.404,5.2727,0,0.00012324,1231.6,4.2579e-05,22.913,3.9529e-05,-0.004788,-0.00012284,-1220,1.9312
11991,18.312,5.1818,0,0.00012532,1252.4,4.3261e-05,22.846,4.022e-05,-0.002982,-0.00012492,-1240.8,1.9165
11992,18.312,5.2727,0.05,7.4925e-07,7.4873,5.7533e-07,4.3228,-2.4926e-12,3.1797e-06,-5.7533e-07,-4.3228,1.9163
11993,18.587,5.2727,0,0.00011901,1189.3,4.1243e-05,23.623,3.8098e-05,-0.0048933,-0.00011859,-1177.3,1.9608
11994,18.496,5.1818,0,0.00012109,1210,4.1925e-05,23.589,3.8785e-05,-0.0030027,-0.00012067,-1198.1,1.9462
11995,18.496,5.2727,0.05,7.4643e-07,7.4591,5.7316e-07,4.3066,-2.0477e-12,1.5848e-06,-5.7316e-07,-4.3065,1.946
11996,18.771,5.2727,0,0.00011481,1147.3,3.9916e-05,24.369,3.6672e-05,-0.0049954,-0.00011437,-1134.9,1.9906
11997,18.679,5.1818,0,0.00011687,1167.9,4.0599e-05,24.371,3.7355e-05,-0.0030137,-0.00011644,-1155.6,1.9759
11998,18.679,5.2727,0.05,7.4366e-07,7.4315,5.7104e-07,4.2906,-2.0619e-12,5.0033e-06,-5.7104e-07,-4.2905,1.9757
11999,18.954,5.2727,0,0.00011062,1105.4,3.8599e-05,25.155,3.525e-05,-0.0051032,-0.00011017,-1092.6,2.0204
12000,18.863,5.1818,0,0.00011268,1126,3.9283e-05,25.197,3.5929e-05,-0.0030122,-0.00011223,-1113.2,2.0056
12001,18.863,5.2727,0.05,7.4097e-07,7.4045,5.6897e-07,4.2751,-2.0515e-12,3.7677e-06,-5.6897e-07,-4.275,2.0055
12002,19.138,5.2727,0,0.00010645,1063.8,3.7292e-05,25.982,3.3833e-05,-0.005217,-0.00010598,-1050.5,2.0503
12003,19.046,5.1818,0,0.00010851,1084.3,3.7978e-05,26.067,3.4508e-05,-0.0030201,-0.00010804,-1071.1,2.0355
12004,19.046,5.2727,0.05,7.3834e-07,7.3783,5.6695e-07,4.2599,-1.5864e-12,3.4251e-06,-5.6695e-07,-4.2598,2.0353
12005,19.321,5.2727,0,0.0001023,1022.3,3.5995e-05,26.854,3.2421e-05,-0.0053291,-0.00010182,-1008.6,2.0802
12006,19.229,5.1818,0,0.00010436,1042.8,3.6684e-05,26.988,3.3091e-05,-0.0030145,-0.00010387,-1029.1,2.0654
12007,19.229,5.2727,0.05,7.3578e-07,7.3527,5.6499e-07,4.2451,-1.5761e-12,2.3273e-06,-5.6498e-07,-4.2451,2.0652
12008,19.505,5.2727,0,9.8176e-05,981.08,3.4709e-05,27.775,3.1012e-05,-0.0054455,-9.7674e-05,-966.9,2.1103
12009,19.413,5.1818,0,0.00010022,1001.5,3.5401e-05,27.962,3.1679e-05,-0.0029961,-9.9719e-05,-987.27,2.0954
12010,19.413,5.2727,0.05,7.333e-07,7.3279,5.6308e-07,4.2308,-7.5172e-13,5.1887e-06,-5.6308e-07,-4.2308,2.0952
12011,19.688,5.2727,0,9.4069e-05,940.04,3.3434e-05,28.749,2.9607e-05,-0.0055559,-9.3547e-05,-925.34,2.1404
12012,19.596,5.1818,0,9.6114e-05,960.47,3.4129e-05,28.993,3.027e-05,-0.0029782,-9.5588e-05,-945.65,2.1255
12013,19.596,5.2727,0.05,7.309e-07,7.304,5.6124e-07,4.217,-1.2419e-12,3.3962e-06,-5.6124e-07,-4.2169,2.1253
12014,19.872,5.2727,0,8.9983e-05,899.21,3.2171e-05,29.778,2.8207e-05,-0.0056507,-8.944e-05,-883.95,2.1705
12015,19.78,5.1818,0,9.2024e-05,919.61,3.287e-05,30.086,2.8865e-05,-0.0029245,-9.1476e-05,-904.2,2.1556
12016,19.78,5.2727,0.05,7.2859e-07,7.2809,5.5947e-07,4.2036,-1.7023e-12,3.7707e-06,-5.5946e-07,-4.2036,2.1554
12017,20.055,5.2727,0,8.5917e-05,858.58,3.0918e-05,30.866,2.6809e-05,-0.0057416,-8.5351e-05,-842.73,2.2007
12018,19.963,5.1818,0,8.7956e-05,878.95,3.1623e-05,31.246,2.7464e-05,-0.0028493,-8.7383e-05,-862.92,2.1858
12019,19.963,5.2727,0.05,7.2638e-07,7.2587,5.5777e-07,4.1909,-1.269e-12,3.0467e-06,-5.5777e-07,-4.1908,2.1856
12020,20.239,5.2727,0,8.1872e-05,818.15,2.9678e-05,32.02,2.5416e-05,-0.00582,-8.128e-05,-801.68,2.231
12021,20.147,5.1818,0,8.3909e-05,838.51,3.0388e-05,32.478,2.6065e-05,-0.002759,-8.331e-05,-821.8,2.216
12022,20.147,5.2727,0.05,7.2426e-07,7.2376,5.5615e-07,4.1787,-1.2241e-12,3.4422e-06,-5.5614e-07,-4.1786,2.2159
12023,20.422,5.2727,0,7.7847e-05,777.93,2.845e-05,33.242,2.4025e-05,-0.0058695,-7.7228e-05,-760.78,2.2613
12024,20.33,5.1818,0,7.9884e-05,798.29,2.9167e-05,33.787,2.467e-05,-0.0026239,-7.9256e-05,-780.86,2.2463
12025,20.33,5.2727,0.05,7.2226e-07,7.2176,5.5461e-07,4.1671,-1.0667e-12,3.5844e-06,-5.5461e-07,-4.1671,2.2462
12026,20.606,5.2727,0,7.3843e-05,737.92,2.7235e-05,34.539,2.2637e-05,-0.0058835,-7.3195e-05,-720.05,2.2917
12027,20.514,5.1818,0,7.588e-05,758.28,2.796e-05,35.179,2.3278e-05,-0.0024379,-7.5221e-05,-740.08,2.2766
12028,20.514,5.2727,0.05,7.2038e-07,7.1988,5.5316e-07,4.1563,-8.5133e-13,-3.1425e-07,-5.5316e-07,-4.1562,2.2765
12029,20.789,5.2727,0,6.986e-05,698.12,2.6032e-05,35.917,2.1251e-05,-0.0058511,-6.918e-05,-679.47,2.3221
12030,20.697,5.1818,0,7.1899e-05,718.49,2.6767e-05,36.662,2.1887e-05,-0.0021876,-7.1205e-05,-699.46,2.307
12031,20.697,5.2727,0.05,7.1862e-07,7.1813,5.5181e-07,4.1461,-6.8581e-13,-1.4092e-06,-5.5181e-07,-4.1461,2.3069
12032,20.973,5.2727,0,6.5899e-05,658.54,2.4844e-05,37.383,1.9868e-05,-0.0057586,-6.5184e-05,-639.05,2.3526
12033,20.881,5.1818,0,6.7941e-05,678.94,2.5589e-05,38.244,2.0499e-05,-0.0018622,-6.7209e-05,-659.01,2.3375
12034,20.881,5.2727,0.05,7.1701e-07,7.1651,5.5057e-07,4.1368,-8.4922e-13,-9.4464e-07,-5.5057e-07,-4.1368,2.3374
12035,21.156,5.2727,0,6.1961e-05,619.18,2.3671e-05,38.945,1.8487e-05,-0.0055773,-6.1206e-05,-598.79,2.3831
12036,21.064,5.1818,0,6.4005e-05,639.61,2.4428e-05,39.934,1.9113e-05,-0.0014334,-6.3232e-05,-618.71,2.368
12037,21.064,5.2727,0.05,7.1554e-07,7.1505,5.4945e-07,4.1283,-1.3513e-12,-3.0439e-07,-5.4944e-07,-4.1283,2.3679
12038,21.34,5.2727,0,5.8045e-05,580.05,2.2514e-05,40.613,1.7108e-05,-0.005277,-5.7248e-05,-558.68,2.4137
12039,21.248,5.1818,0,6.0095e-05,600.53,2.3283e-05,41.743,1.7728e-05,-0.00086585,-5.9276e-05,-578.57,2.3985
12040,21.248,5.2727,0.05,7.1423e-07,7.1374,5.4844e-07,4.1208,-3.8274e-13,5.6677e-07,-5.4844e-07,-4.1208,2.3984
12041,21.523,5.2727,0,5.4155e-05,541.17,2.1373e-05,42.4,1.5729e-05,-0.0048144,-5.3309e-05,-518.73,2.4443
12042,21.431,5.1818,0,5.621e-05,561.71,2.2157e-05,43.684,1.6343e-05,-0.00012915,-5.534e-05,-538.6,2.4291
12043,21.431,5.2727,0.05,7.131e-07,7.1261,5.4758e-07,4.1143,-6.4005e-13,-2.0218e-06,-5.4757e-07,-4.1143,2.429
12044,21.706,5.2727,0,5.0291e-05,502.56,2.0251e-05,44.321,1.4352e-05,-0.0041216,-4.939e-05,-478.93,2.4749
12045,21.615,5.1818,0,5.2354e-05,523.17,2.1052e-05,45.773,1.496e-05,0.0008533,-5.1424e-05,-498.78,2.4597
12046,21.615,5.2727,0.05,7.1217e-07,7.1168,5.4686e-07,4.1089,-4.1893e-13,-1.8264e-06,-5.4686e-07,-4.1089,2.4596
12047,21.89,5.2727,0,4.6456e-05,464.24,1.915e-05,46.395,1.2975e-05,-0.0031199,-4.5493e-05,-439.3,2.5056
12048,21.798,5.1818,0,4.8527e-05,484.94,1.9968e-05,48.031,1.3576e-05,0.0021518,-4.7531e-05,-459.14,2.4903
12049,21.798,5.2727,0.05,7.1145e-07,7.1096,5.4631e-07,4.1048,-4.5365e-13,9.3737e-07,-5.4631e-07,-4.1047,2.4902
12050,22.073,5.2727,0,4.2655e-05,426.26,1.8072e-05,48.648,1.1597e-05,-0.0016838,-4.1619e-05,-399.85,2.5362
12051,21.982,5.1818,0,4.4736e-05,447.05,1.891e-05,50.482,1.2192e-05,0.0038702,-4.3662e-05,-419.66,2.521
12052,21.982,5.2727,0.05,7.1099e-07,7.105,5.4596e-07,4.1021,-3.2993e-13,-5.0777e-06,-5.4595e-07,-4.1021,2.5209
12053,22.257,5.2727,0,3.8893e-05,388.66,1.7022e-05,51.115,1.0219e-05,0.00037107,-3.777e-05,-360.57,2.567
12054,22.165,5.1818,0,4.0983e-05,409.55,1.788e-05,53.16,1.0806e-05,0.0061797,-3.9819e-05,-380.37,2.5517
12055,22.165,5.2727,0.05,7.1083e-07,7.1034,5.4583e-07,4.1012,-6.4456e-13,-2.8551e-06,-5.4583e-07,-4.1012,2.5516
12056,22.44,5.2727,0,3.5178e-05,351.54,1.6005e-05,53.84,8.8395e-06,0.0033296,-3.3951e-05,-321.51,2.5977
12057,22.349,5.1818,0,3.7278e-05,372.52,1.6884e-05,56.108,9.4182e-06,0.0093027,-3.6005e-05,-341.28,2.5824
12058,22.349,5.2727,0.05,7.1104e-07,7.1055,5.4599e-07,4.1024,-5.462e-13,7.4418e-08,-5.4599e-07,-4.1024,2.5823
12059,22.624,5.2727,0,3.1522e-05,315,1.5027e-05,56.888,7.457e-06,0.0075516,-3.0166e-05,-282.68,2.6285
12060,22.532,5.1818,0,3.363e-05,336.07,1.5929e-05,59.383,8.0269e-06,0.013623,-3.2224e-05,-302.41,2.6132
12061,22.532,5.2727,0.05,7.1172e-07,7.1123,5.4652e-07,4.1063,-3.4602e-13,1.8351e-06,-5.4652e-07,-4.1063,2.6131
12062,22.807,5.2727,0,2.7943e-05,279.23,1.41e-05,60.348,6.0701e-06,0.013934,-2.6422e-05,-244.12,2.6592
12063,22.716,5.1818,0,3.0055e-05,300.34,1.5021e-05,63.063,6.6308e-06,0.019525,-2.8481e-05,-263.8,2.6439
12064,22.716,5.2727,0.05,7.1305e-07,7.1256,5.4754e-07,4.114,-2.2726e-13,-1.5702e-06,-5.4754e-07,-4.114,2.6438
12065,22.991,5.2727,0,2.4467e-05,244.5,1.3237e-05,64.345,4.6765e-06,0.022735,-2.2729e-05,-205.89,2.69
12066,22.899,5.1818,0,2.6576e-05,265.58,1.4175e-05,67.253,5.2278e-06,0.028496,-2.4785e-05,-225.47,2.6747
12067,22.899,5.2727,0.05,7.1531e-07,7.1482,5.4927e-07,4.127,-3.2264e-13,2.6171e-06,-5.4927e-07,-4.127,2.6746
12068,23.174,5.2727,0,2.1138e-05,211.23,1.2459e-05,69.057,3.2729e-06,0.039521,-1.9098e-05,-168.05,2.7208
12069,23.083,5.1818,0,2.3226e-05,232.1,1.3404e-05,72.092,3.8147e-06,0.03972,-2.1144e-05,-187.49,2.7055
12070,23.083,5.2727,0.05,7.1898e-07,7.1849,5.5209e-07,4.1482,2.7765e-13,7.476e-06,-5.5209e-07,-4.1482,2.7054
12071,23.358,5.2727,0,1.8018e-05,180.06,1.179e-05,74.714,1.8531e-06,0.055049,-1.5544e-05,-130.66,2.7517
12072,23.266,5.1818,0,2.0057e-05,200.43,1.2729e-05,77.767,2.3881e-06,0.065576,-1.7569e-05,-149.88,2.7363
12073,23.266,5.2727,0.05,7.2491e-07,7.2441,5.5664e-07,4.1824,5.04e-13,7.6933e-06,-5.5664e-07,-4.1824,2.7362
12074,23.541,5.2727,0,1.5211e-05,152,1.1259e-05,81.626,4.1356e-07,0.13415,-1.2081e-05,-93.743,2.7825
12075,23.45,5.1818,0,1.7146e-05,171.34,1.2173e-05,84.485,9.3887e-07,0.076254,-1.4069e-05,-112.69,2.7672
12076,23.45,5.2727,0.05,7.3444e-07,7.3394,5.6396e-07,4.2374,1.0204e-12,9.5237e-06,-5.6396e-07,-4.2374,2.7671
12077,23.725,5.2727,0,1.2878e-05,128.69,1.0904e-05,90.082,-1.0726e-06,0.091259,-8.7141e-06,-57.324,2.8133
12078,23.633,5.1818,0,1.4614e-05,146.04,1.1757e-05,92.54,-5.2803e-07,0.238,-1.0652e-05,-75.828,2.798
12079,23.633,5.2727,0.05,7.508e-07,7.5028,5.7652e-07,4.3318,1.1932e-12,1.3902e-05,-5.7652e-07,-4.3318,2.7979
12080,23.817,5.1818,0,1.2652e-05,126.43,1.1511e-05,102.04,-2.0629e-06,0.050808,-7.3157e-06,-39.417,2.8288
12081,23.817,5.2727,0.05,7.946e-07,7.9405,6.1016e-07,4.5845,1.0594e-12,1.38e-05,-6.1016e-07,-4.5845,2.8288
12082,23.908,5.2727,0,1.1136e-05,111.28,1.0591e-05,98.625,-2.4855e-06,0.37537,-5.4929e-06,-22.221,2.8442
12083,3.5419,5.0909,0,0.00034189,3416.5,0.00019521,1030,5.7377e-05,-5.6121,-0.00031247,-2784.5,0.075255
12084,3.4501,5,0,0.00040036,4000.8,0.00025054,1497.5,4.9791e-05,-10.878,-0.00035313,-3038.2,0.069481
12085,3.4501,5.0909,0.05,1.7109e-05,170.98,1.3138e-05,98.713,1.1464e-12,9.6169e-06,-1.3138e-05,-98.713,0.068449
12086,3.3584,5.0909,0,0.0002857,2855,0.00017417,1012,3.9887e-05,3.0813,-0.00025473,-2210.5,0.061857
12087,3.7254,5.0909,0,0.00034239,3421.6,0.00016899,689.86,7.6891e-05,-2.161,-0.0003254,-3024.8,0.088733
12088,3.6336,5,0,0.00037665,3763.9,0.00020265,975.24,7.2748e-05,-0.77467,-0.00035046,-3180.6,0.082828
12089,3.6336,5.0909,0.05,1.2188e-05,121.79,9.3587e-06,70.318,1.2014e-11,0.00012949,-9.3588e-06,-70.318,0.081894
12090,3.9088,5.0909,0,0.00036058,3603.3,0.00015963,494.9,9.3385e-05,-2.8551,-0.00034962,-3331.4,0.10235
12091,3.8171,5,0,0.00038409,3838.2,0.00018209,678.27,9.135e-05,-3.5111,-0.00036804,-3455.2,0.096293
12092,3.8171,5.0909,0.05,1.0344e-05,103.37,7.9432e-06,59.682,1.7284e-11,0.00017292,-7.9432e-06,-59.682,0.095446
12093,4.0923,5.0909,0,0.00038138,3811.2,0.00015603,364.98,0.00010714,-2.3414,-0.00037388,-3616.6,0.11615
12094,4.0006,5,0,0.00039772,3974.5,0.0001705,476.85,0.00010669,-2.5972,-0.00038748,-3715.6,0.10993
12095,4.0006,5.0909,0.05,8.4459e-06,84.401,6.4854e-06,48.729,1.9751e-11,0.00020576,-6.4854e-06,-48.729,0.10916
12096,4.2758,5.0909,0,0.00040051,4002.4,0.00015493,273.99,0.00011819,-2.0542,-0.00039517,-3859.2,0.13017
12097,4.1841,5,0,0.00041212,4118.4,0.00016404,338.31,0.00011869,-2.4516,-0.00040535,-3939.9,0.12379
12098,4.1841,5.0909,0.05,6.7355e-06,67.308,5.172e-06,38.86,2.1351e-11,0.00023577,-5.172e-06,-38.86,0.12307
12099,4.4593,5.0909,0,0.00041636,4160.8,0.00015467,207.23,0.00012686,-1.7639,-0.00041247,-4054.1,0.14444
12100,4.3676,5,0,0.00042493,4246.3,0.00016036,241.72,0.0001279,-2.163,-0.00042032,-4121.3,0.13789
12101,4.3676,5.0909,0.05,5.3021e-06,52.985,4.0714e-06,30.591,2.3625e-11,0.00025133,-4.0714e-06,-30.591,0.13722
12102,4.6428,5.0909,0,0.00042859,4282.9,0.00015447,155.89,0.00013351,-1.5563,-0.00042574,-4203.6,0.15898
12103,4.551,5,0,0.00043517,4348.7,0.00015801,172.21,0.00013482,-1.9969,-0.00043202,-4261,0.15226
12104,4.551,5.0909,0.05,4.144e-06,41.411,3.1821e-06,23.909,2.5459e-11,0.00026823,-3.1821e-06,-23.909,0.15162
12105,4.8263,5.0909,0,0.00043743,4371.3,0.00015399,114.96,0.0001385,-1.4162,-0.00043538,-4313.3,0.1738
12106,4.7345,5,0,0.00044272,4424.1,0.00015621,120.41,0.00013993,-1.9086,-0.00044057,-4363.6,0.16691
12107,4.7345,5.0909,0.05,3.2222e-06,32.2,2.4742e-06,18.59,2.7261e-11,0.00026193,-2.4742e-06,-18.59,0.1663
12108,5.0097,5.0909,0,0.00044334,4430.3,0.00015316,81.544,0.00014213,-1.3571,-0.00044192,-4389.7,0.18891
12109,4.918,5,0,0.00044775,4474.4,0.00015457,80.606,0.00014358,-1.9393,-0.00044636,-4434.5,0.18185
12110,4.918,5.0909,0.05,2.4949e-06,24.932,1.9158e-06,14.394,3.1296e-11,0.0003217,-1.9158e-06,-14.394,0.18127
12111,5.1932,5.0909,0,0.00044681,4465,0.00015202,53.97,0.00014465,-1.4101,-0.00044589,-4438.5,0.20431
12112,5.1015,5,0,0.00045062,4503.1,0.00015293,49.398,0.00014607,-2.1806,-0.0004498,-4479.3,0.19709
12113,5.1015,5.0909,0.05,1.9279e-06,19.265,1.4804e-06,11.123,2.9066e-11,0.0003451,-1.4804e-06,-11.123,0.19652
12114,5.3767,5.0909,0,0.00044831,4480,0.00015064,31.307,0.00014625,-1.6921,-0.00044779,-4465.1,0.22001
12115,5.285,5,0,0.00045169,4513.8,0.0001513,25.035,0.00014756,-2.9998,-0.00045131,-4502.7,0.21263
12116,5.285,5.0909,0.05,1.4957e-06,14.947,1.1485e-06,8.6296,3.4923e-11,0.00027576,-1.1485e-06,-8.6297,0.21207
12117,5.5602,5.0909,0,0.00044822,4479.1,0.00014917,13.432,0.00014702,-2.7807,-0.00044804,-4473.8,0.23601
12118,5.4684,5,0,0.0004513,4509.9,0.00014993,8.221,0.00014798,-6.4408,-0.00045127,-4509,0.22847
12119,5.4684,5.0909,0.05,1.1807e-06,11.799,9.0662e-07,6.812,3.8978e-11,0.00038345,-9.0664e-07,-6.8121,0.22793
12120,5.7437,5.0909,0,0.0004469,4465.9,0.00014815,3.2822,0.00014663,-8.1343,-0.00044698,-4468.3,0.25232
12121,5.6519,5,0,0.00044975,4494.4,0.00014943,2.2604,0.00014691,-16.702,-0.00044999,-4501.5,0.24462
12122,5.6519,5.0909,0.05,9.6943e-07,9.6876,7.4439e-07,5.5931,3.7421e-11,0.00043465,-7.4441e-07,-5.5932,0.24408
12123,5.9271,5.0909,0,0.00044461,4443.1,0.00014772,1.0534,0.00014513,-18.376,-0.0004449,-4451.7,0.26892
12124,5.8354,5,0,0.00044729,4469.8,0.00014908,0.96429,0.00014519,-28.239,-0.00044774,-4483.3,0.26107
12125,5.8354,5.0909,0.05,8.4756e-07,8.4698,6.5081e-07,4.89,3.1118e-11,0.00026736,-6.5084e-07,-4.89,0.26054
12126,6.1106,5.0909,0,0.00044158,4412.8,0.00014713,0.51488,0.00014338,-27.649,-0.00044204,-4426.3,0.28582
12127,6.0189,5,0,0.00044412,4438.2,0.00014847,0.52637,0.00014338,-37.747,-0.00044474,-4456.7,0.27782
12128,6.0189,5.0909,0.05,7.9499e-07,7.9444,6.1045e-07,4.5867,2.3911e-11,0.00015303,-6.1046e-07,-4.5867,0.27729
12129,6.2941,5.0909,0,0.00043798,4376.8,0.00014629,0.30383,0.0001416,-34.934,-0.00043856,-4394,0.30303
12130,6.2024,5,0,0.00044042,4401.2,0.00014759,0.32569,0.00014156,-45.023,-0.00044117,-4423.4,0.29486
12131,6.2024,5.0909,0.05,7.8753e-07,7.8699,6.0473e-07,4.5437,9.4421e-12,0.00010282,-6.0473e-07,-4.5436,0.29435
12132,6.4776,5.0909,0,0.00043395,4336.5,0.00014521,0.19875,0.00013982,-40.329,-0.00043462,-4356.5,0.32052
12133,6.3858,5,0,0.00043632,4360.2,0.00014649,0.21755,0.00013977,-50.285,-0.00043715,-4385,0.31221
12134,6.3858,5.0909,0.05,8.0386e-07,8.033,6.1727e-07,4.638,1.9303e-12,0.00012104,-6.1726e-07,-4.6378,0.3117
12135,6.6611,5.0909,0,0.0004296,4293,0.00014396,0.13893,0.00013807,-44.068,-0.00043033,-4314.8,0.33831
12136,6.5693,5,0,0.00043191,4316.1,0.0001452,0.1532,0.00013802,-53.81,-0.0004328,-4342.7,0.32985
12137,6.5693,5.0909,0.05,8.2958e-07,8.2901,6.3702e-07,4.7864,-1.166e-12,8.3307e-05,-6.3702e-07,-4.7862,0.32934
12138,6.8445,5.0909,0,0.000425,4247.1,0.00014255,0.10179,0.00013636,-46.397,-0.00042577,-4270.1,0.35639
12139,6.7528,5,0,0.00042728,4269.8,0.00014377,0.11223,0.00013632,-55.866,-0.0004282,-4297.4,0.34778
12140,6.7528,5.0909,0.05,8.567e-07,8.5611,6.5784e-07,4.9429,-2.1774e-12,4.6974e-05,-6.5783e-07,-4.9426,0.34728
12141,7.028,5.0909,0,0.00042023,4199.4,0.00014103,0.077251,0.00013469,-47.55,-0.00042102,-4223,0.37476
12142,6.9363,5,0,0.00042248,4221.9,0.00014222,0.084774,0.00013467,-56.702,-0.00042341,-4249.9,0.366
12143,6.9363,5.0909,0.05,8.8136e-07,8.8076,6.7679e-07,5.0851,-8.2475e-13,2.4158e-05,-6.7677e-07,-5.0849,0.3655
12144,7.2115,5.0909,0,0.00041533,4150.5,0.00013942,0.060262,0.00013306,-47.741,-0.00041612,-4174.1,0.39341
12145,7.1198,5,0,0.00041756,4172.7,0.00014059,0.065645,0.00013306,-56.541,-0.00041849,-4200.6,0.38451
12146,7.1198,5.0909,0.05,9.0207e-07,9.0145,6.9268e-07,5.2046,-5.469e-12,2.8815e-05,-6.9267e-07,-5.2044,0.38401
12147,7.395,5.0909,0,0.00041034,4100.6,0.00013774,0.048051,0.00013146,-47.157,-0.00041112,-4123.9,0.41233
12148,7.3032,5,0,0.00041255,4122.7,0.00013889,0.051884,0.00013149,-55.582,-0.00041347,-4150.2,0.40329
12149,7.3032,5.0909,0.05,9.185e-07,9.1786,7.053e-07,5.2994,-7.7303e-12,2.3272e-05,-7.0528e-07,-5.2991,0.4028
12150,7.5785,5.0909,0,0.00040528,4050,0.00013602,0.039007,0.00012989,-45.962,-0.00040604,-4072.8,0.43154
12151,7.4867,5,0,0.00040749,4072.1,0.00013714,0.04172,0.00012995,-53.997,-0.00040838,-4098.8,0.42236
12152,7.4867,5.0909,0.05,9.309e-07,9.3025,7.1482e-07,5.371,-5.2332e-12,1.7775e-05,-7.1481e-07,-5.3707,0.42187
12153,7.7619,5.0909,0,0.00040018,3999,0.00013425,0.032139,0.00012835,-44.298,-0.00040091,-4020.9,0.45102
12154,7.6702,5,0,0.00040239,4021.1,0.00013536,0.034045,0.00012844,-51.933,-0.00040325,-4046.8,0.4417
12155,7.6702,5.0909,0.05,9.3975e-07,9.391,7.2162e-07,5.4221,-9.2744e-12,1.7277e-05,-7.216e-07,-5.4218,0.44121
12156,7.9454,5.0909,0,0.00039504,3947.7,0.00013246,0.026816,0.00012682,-42.283,-0.00039575,-3968.7,0.47077
12157,7.8537,5,0,0.00039726,3969.9,0.00013354,0.028142,0.00012695,-49.516,-0.00039808,-3994.4,0.46131
12158,7.8537,5.0909,0.05,9.456e-07,9.4495,7.2612e-07,5.4558,-6.3894e-12,1.5806e-05,-7.261e-07,-5.4555,0.46083
12159,8.1289,5.0909,0,0.00038989,3896.2,0.00013064,0.022619,0.00012531,-40.019,-0.00039056,-3916.1,0.49078
12160,8.0372,5,0,0.00039212,3918.5,0.00013171,0.023531,0.00012548,-46.85,-0.00039289,-3941.7,0.48119
12161,8.0372,5.0909,0.05,9.4899e-07,9.4833,7.2871e-07,5.4753,-8.4277e-12,1.3752e-05,-7.2869e-07,-5.4751,0.48071
12162,8.3124,5.0909,0,0.00038473,3844.7,0.00012882,0.019262,0.00012382,-37.586,-0.00038536,-3863.3,0.51106
12163,8.2206,5,0,0.00038697,3867,0.00012988,0.01988,0.00012401,-44.022,-0.0003877,-3888.8,0.50133
12164,8.2206,5.0909,0.05,9.5037e-07,9.4971,7.2978e-07,5.4833,-5.3424e-12,1.226e-05,-7.2976e-07,-5.4831,0.50086
12165,8.4959,5.0909,0,0.00037957,3793.1,0.00012699,0.016545,0.00012232,-35.053,-0.00038016,-3810.5,0.5316
12166,8.4041,5,0,0.00038181,3815.5,0.00012803,0.016956,0.00012256,-41.102,-0.0003825,-3835.9,0.52174
12167,8.4041,5.0909,0.05,9.5017e-07,9.4951,7.2962e-07,5.4822,-7.305e-12,1.1322e-05,-7.296e-07,-5.4819,0.52127
12168,8.6794,5.0909,0,0.00037441,3741.5,0.00012516,0.014324,0.00012084,-32.474,-0.00037495,-3757.6,0.55239
12169,8.5876,5,0,0.00037666,3764,0.00012618,0.014593,0.00012111,-38.148,-0.0003773,-3783,0.5424
12170,8.5876,5.0909,0.05,9.4873e-07,9.4808,7.2851e-07,5.4738,-8.4175e-12,1.0213e-05,-7.285e-07,-5.4736,0.54193
12171,8.8628,5.0909,0,0.00036925,3690,0.00012333,0.012492,0.00011935,-29.891,-0.00036975,-3704.8,0.57344
12172,8.7711,5,0,0.00037152,3712.6,0.00012434,0.012667,0.00011965,-35.205,-0.0003721,-3730.1,0.56331
12173,8.7711,5.0909,0.05,9.4633e-07,9.4568,7.2667e-07,5.46,-8.7873e-12,1.0516e-05,-7.2667e-07,-5.4597,0.56285
12174,9.0463,5.0909,0,0.00036411,3638.6,0.00012151,0.010973,0.00011787,-27.338,-0.00036456,-3652.1,0.59473
12175,8.9546,5,0,0.00036638,3661.3,0.0001225,0.011088,0.0001182,-32.306,-0.00036692,-3677.3,0.58448
12176,8.9546,5.0909,0.05,9.4321e-07,9.4256,7.2428e-07,5.442,-6.1132e-12,8.5729e-06,-7.2426e-07,-5.4418,0.58402
12177,9.2298,5.0909,0,0.00035897,3587.2,0.00011969,0.0097065,0.00011638,-24.841,-0.00035938,-3599.6,0.61627
12178,9.1381,5,0,0.00036125,3610,0.00012067,0.0097866,0.00011675,-29.479,-0.00036174,-3624.7,0.60589
12179,9.1381,5.0909,0.05,9.3955e-07,9.389,7.2147e-07,5.4209,-7.1382e-12,8.6176e-06,-7.2145e-07,-5.4206,0.60544
12180,9.4133,5.0909,0,0.00035384,3536,0.00011788,0.0086485,0.00011489,-22.418,-0.00035422,-3547.1,0.63805
12181,9.3215,5,0,0.00035613,3558.9,0.00011885,0.0087116,0.00011529,-26.744,-0.00035658,-3572.2,0.62755
12182,9.3215,5.0909,0.05,9.355e-07,9.3485,7.1836e-07,5.3975,-9.121e-12,6.72e-06,-7.1834e-07,-5.3973,0.6271
12183,9.5968,5.0909,0,0.00034872,3484.8,0.00011607,0.0077662,0.0001134,-20.084,-0.00034906,-3494.8,0.66007
12184,9.505,5,0,0.00035103,3507.8,0.00011703,0.0078222,0.00011382,-24.114,-0.00035143,-3519.8,0.64945
12185,9.505,5.0909,0.05,9.3117e-07,9.3053,7.1503e-07,5.3725,-9.1866e-12,6.2936e-06,-7.1501e-07,-5.3723,0.649
12186,9.7802,5.0909,0,0.00034362,3433.8,0.00011428,0.0070324,0.0001119,-17.847,-0.00034392,-3442.7,0.68233
12187,9.6885,5,0,0.00034593,3456.9,0.00011523,0.0070927,0.00011235,-21.598,-0.00034629,-3467.7,0.67158
12188,9.6885,5.0909,0.05,9.2666e-07,9.2602,7.1156e-07,5.3465,-7.518e-12,5.878e-06,-7.1155e-07,-5.3462,0.67114
12189,9.9637,5.0909,0,0.00033853,3383,0.00011249,0.0064342,0.0001104,-15.714,-0.0003388,-3390.8,0.70481
12190,9.872,5,0,0.00034085,3406.1,0.00011343,0.0064914,0.00011087,-19.202,-0.00034117,-3415.7,0.69394
12191,9.872,5.0909,0.05,9.2202e-07,9.2139,7.0801e-07,5.3198,-7.5777e-12,5.982e-06,-7.0799e-07,-5.3195,0.69351
12192,10.147,5.0909,0,0.00033346,3332.3,0.00011072,0.005962,0.0001089,-13.686,-0.00033369,-3339.1,0.72753
12193,10.055,5,0,0.00033578,3355.5,0.00011164,0.0060218,0.00010939,-16.928,-0.00033606,-3363.9,0.71654
12194,10.055,5.0909,0.05,9.1733e-07,9.167,7.044e-07,5.2927,-7.662e-12,5.4454e-06,-7.0439e-07,-5.2924,0.71611
12195,10.331,5.0909,0,0.00032839,3281.7,0.00010895,0.00559,0.00010739,-11.765,-0.00032859,-3287.5,0.75046
12196,10.239,5,0,0.00033072,3304.9,0.00010987,0.005659,0.0001079,-14.777,-0.00033097,-3312.3,0.73936
12197,10.239,5.0909,0.05,9.1262e-07,9.1199,7.0078e-07,5.2655,-6.7948e-12,5.3086e-06,-7.0077e-07,-5.2652,0.73894
12198,10.514,5.0909,0,0.00032335,3231.2,0.0001072,0.0053337,0.00010587,-9.9497,-0.00032352,-3236.2,0.77362
12199,10.422,5,0,0.00032568,3254.5,0.00010811,0.0053712,0.00010641,-12.747,-0.00032589,-3260.9,0.7624
12200,10.422,5.0909,0.05,9.0791e-07,9.0728,6.9716e-07,5.2383,-6.8691e-12,5.0207e-06,-6.9715e-07,-5.2381,0.76199
12201,10.698,5.0909,0,0.00031832,3181,0.00010545,0.0052357,0.00010436,-8.238,-0.00031846,-3185.1,0.797
12202,10.606,5,0,0.00032065,3204.3,0.00010635,0.0052122,0.00010491,-10.835,-0.00032083,-3209.7,0.78567
12203,10.606,5.0909,0.05,9.0322e-07,9.0259,6.9357e-07,5.2112,-6.9106e-12,4.9986e-06,-6.9355e-07,-5.211,0.78525
12204,10.881,5.0909,0,0.0003133,3130.8,0.00010372,0.005343,0.00010283,-6.6265,-0.00031341,-3134.1,0.82059
12205,10.789,5,0,0.00031564,3154.2,0.00010461,0.005199,0.0001034,-9.0371,-0.00031579,-3158.7,0.80914
12206,10.789,5.0909,0.05,8.9857e-07,8.9795,6.9e-07,5.1844,-6.9608e-12,4.3314e-06,-6.8999e-07,-5.1842,0.80874
12207,11.065,5.0909,0,0.0003083,3080.9,0.00010199,0.0057234,0.00010131,-5.1115,-0.00030839,-3083.4,0.84439
12208,10.973,5,0,0.00031064,3104.2,0.00010287,0.0053753,0.0001019,-7.3486,-0.00031076,-3107.9,0.83283
12209,10.973,5.0909,0.05,8.9399e-07,8.9337,6.8648e-07,5.158,-7.0001e-12,3.6923e-06,-6.8647e-07,-5.1578,0.83243
12210,11.248,5.0909,0,0.00030331,3031.1,0.00010028,0.006608,9.9785e-05,-3.6888,-0.00030338,-3032.9,0.8684
12211,11.156,5,0,0.00030565,3054.4,0.00010115,0.0057565,0.00010038,-5.7647,-0.00030575,-3057.3,0.85673
12212,11.156,5.0909,0.05,8.8947e-07,8.8885,6.8301e-07,5.1319,-7.0326e-12,3.7492e-06,-6.8299e-07,-5.1317,0.85634
12213,11.432,5.0909,0,0.00029835,2981.4,9.8572e-05,0.0088003,9.8257e-05,-2.3543,-0.00029839,-2982.6,0.89261
12214,11.34,5,0,0.00030069,3004.8,9.9439e-05,0.0065761,9.8868e-05,-4.28,-0.00030076,-3006.9,0.88084
12215,11.34,5.0909,0.05,8.85e-07,8.8439,6.7958e-07,5.1062,-7.0777e-12,3.708e-06,-6.7956e-07,-5.1059,0.88045
12216,11.615,5.0909,0,0.00029339,2931.9,9.6876e-05,0.016221,9.6727e-05,-1.107,-0.00029341,-2932.5,0.91702
12217,11.523,5,0,0.00029573,2955.3,9.7735e-05,0.0084107,9.735e-05,-2.8891,-0.00029578,-2956.7,0.90515
12218,11.523,5.0909,0.05,8.8061e-07,8.8,6.762e-07,5.0808,-7.1081e-12,2.8262e-06,-6.7619e-07,-5.0806,0.90476
12219,11.799,5.0909,0,0.00028846,2882.6,9.521e-05,0.17679,9.5175e-05,-0.08999,-0.00028846,-2882.6,0.94163
12220,11.707,5,0,0.0002908,2905.9,9.6042e-05,0.013294,9.5829e-05,-1.5889,-0.00029082,-2906.7,0.92965
12221,11.707,5.0909,0.05,8.7628e-07,8.7568,6.7289e-07,5.0558,-7.1221e-12,2.8684e-06,-6.7287e-07,-5.0557,0.92927
12222,11.982,5.0909,0,0.00028354,2833.4,9.3669e-05,1.2044,9.3507e-05,-0.012009,-0.00028352,-2832.8,0.96643
12223,11.89,5,0,0.00028587,2856.8,9.4362e-05,0.046725,9.4303e-05,-0.39878,-0.00028588,-2856.9,0.95435
12224,11.89,5.0909,0.05,8.7202e-07,8.7142,6.6961e-07,5.0313,-5.3321e-12,3.535e-06,-6.696e-07,-5.031,0.95398
12225,12.165,5.0909,0,0.00027864,2784.5,9.2138e-05,2.2368,9.1839e-05,-0.0060462,-0.0002786,-2783.3,0.99142
12226,12.074,5,0,0.00028097,2807.8,9.2789e-05,0.81581,9.2678e-05,-0.020445,-0.00028096,-2807.4,0.97924
12227,12.074,5.0909,0.05,8.6783e-07,8.6723,6.6639e-07,5.0071,-7.173e-12,2.7511e-06,-6.6638e-07,-5.0068,0.97888
12228,12.349,5.0909,0,0.00027375,2735.6,9.0607e-05,3.2109,9.0179e-05,-0.0040539,-0.0002737,-2734,1.0166
12229,12.257,5,0,0.00027608,2758.9,9.1265e-05,1.88,9.1013e-05,-0.0080903,-0.00027605,-2758,1.0043
12230,12.257,5.0909,0.05,8.6369e-07,8.6309,6.6321e-07,4.9832,-6.2838e-12,2.9834e-06,-6.632e-07,-4.983,1.004
12231,12.532,5.0909,0,0.00026889,2687,8.9078e-05,4.1284,8.8528e-05,-0.0030976,-0.00026882,-2684.9,1.042
12232,12.441,5,0,0.00027121,2710.2,8.9741e-05,2.8881,8.9356e-05,-0.0048807,-0.00027116,-2708.8,1.0296
12233,12.441,5.0909,0.05,8.596e-07,8.5901,6.6007e-07,4.9596,-5.3977e-12,3.0998e-06,-6.6007e-07,-4.9594,1.0292
12234,12.716,5.0909,0,0.00026404,2638.6,8.755e-05,4.9932,8.6885e-05,-0.0025498,-0.00026395,-2636.1,1.0675
12235,12.624,5,0,0.00026636,2661.7,8.8219e-05,3.8375,8.7708e-05,-0.0034477,-0.00026629,-2659.8,1.055
12236,12.624,5.0909,0.05,8.5557e-07,8.5498,6.5698e-07,4.9363,-6.3237e-12,1.4848e-06,-6.5697e-07,-4.9362,1.0547
12237,12.899,5.0909,0,0.00025921,2590.3,8.6023e-05,5.8094,8.525e-05,-0.0022223,-0.00025911,-2587.4,1.0932
12238,12.808,5,0,0.00026152,2613.4,8.6698e-05,4.7321,8.6067e-05,-0.002642,-0.00026144,-2611,1.0807
12239,12.808,5.0909,0.05,8.516e-07,8.5102,6.5393e-07,4.9134,-6.3391e-12,6.1629e-07,-6.5392e-07,-4.9133,1.0803
12240,13.083,5.0909,0,0.00025439,2542.2,8.4499e-05,6.5809,8.3623e-05,-0.002031,-0.00025428,-2538.9,1.1191
12241,12.991,5,0,0.0002567,2565.3,8.5178e-05,5.576,8.4435e-05,-0.0021746,-0.00025661,-2562.5,1.1065
12242,12.991,5.0909,0.05,8.4769e-07,8.4711,6.5093e-07,4.8908,-5.4448e-12,7.8364e-07,-6.5091e-07,-4.8907,1.1061
12243,13.266,5.0909,0,0.0002496,2494.2,8.2978e-05,7.312,8.2004e-05,-0.0018899,-0.00024947,-2490.6,1.1452
12244,13.175,5,0,0.0002519,2517.3,8.366e-05,6.3737,8.2812e-05,-0.0018718,-0.00025179,-2514.1,1.1324
12245,13.175,5.0909,0.05,8.4381e-07,8.4323,6.4795e-07,4.8685,-6.3668e-12,1.3386e-06,-6.4794e-07,-4.8683,1.1321
12246,13.45,5.0909,0,0.00024482,2446.5,8.1459e-05,8.0062,8.0393e-05,-0.0017893,-0.00024468,-2442.5,1.1714
12247,13.358,5,0,0.00024712,2469.5,8.2145e-05,7.1294,8.1196e-05,-0.0016237,-0.000247,-2465.9,1.1586
12248,13.358,5.0909,0.05,8.3999e-07,8.3941,6.4501e-07,4.8464,-4.5595e-12,1.9664e-06,-6.45e-07,-4.8462,1.1583
12249,13.633,5.0909,0,0.00024006,2399,7.9944e-05,8.6671,7.879e-05,-0.0017313,-0.00023991,-2394.6,1.1978
12250,13.542,5,0,0.00024235,2421.9,8.0632e-05,7.8469,7.9588e-05,-0.0014698,-0.00024222,-2417.9,1.1849
12251,13.542,5.0909,0.05,8.3621e-07,8.3563,6.4211e-07,4.8246,-5.4799e-12,2.5166e-06,-6.421e-07,-4.8245,1.1846
12252,13.817,5.0909,0,0.00023532,2351.6,7.8432e-05,9.2983,7.7195e-05,-0.0016874,-0.00023516,-2346.9,1.2244
12253,13.725,5,0,0.00023761,2374.4,7.9123e-05,8.5302,7.7987e-05,-0.0013497,-0.00023746,-2370.2,1.2114
12254,13.725,5.0909,0.05,8.3246e-07,8.3189,6.3923e-07,4.803,-5.4903e-12,2.779e-06,-6.3922e-07,-4.8028,1.2111
12255,14,5.0909,0,0.0002306,2304.4,7.6925e-05,9.9029,7.5607e-05,-0.0016689,-0.00023043,-2299.4,1.2511
12256,13.909,5,0,0.00023288,2327.2,7.7617e-05,9.1829,7.6394e-05,-0.0012511,-0.00023272,-2322.6,1.238
12257,13.909,5.0909,0.05,8.2876e-07,8.2819,6.364e-07,4.7816,-5.503e-12,2.986e-06,-6.3638e-07,-4.7815,1.2377
12258,14.184,5.0909,0,0.0002259,2257.4,7.5421e-05,10.484,7.4026e-05,-0.0016552,-0.00022572,-2252.1,1.278
12259,14.092,5,0,0.00022817,2280.1,7.6115e-05,9.8084,7.4809e-05,-0.0012014,-0.000228,-2275.2,1.2648
12260,14.092,5.0909,0.05,8.251e-07,8.2453,6.3358e-07,4.7605,-5.5053e-12,2.424e-06,-6.3357e-07,-4.7603,1.2645
12261,14.367,5.0909,0,0.00022121,2210.6,7.3923e-05,11.045,7.2452e-05,-0.0016301,-0.00022102,-2205.1,1.305
12262,14.276,5,0,0.00022348,2233.2,7.4617e-05,10.41,7.3231e-05,-0.0011278,-0.0002233,-2228,1.2917
12263,14.276,5.0909,0.05,8.2146e-07,8.2089,6.3078e-07,4.7395,-4.5998e-12,2.8611e-06,-6.3077e-07,-4.7393,1.2914
12264,14.551,5.0909,0,0.00021655,2164,7.2429e-05,11.589,7.0886e-05,-0.001627,-0.00021635,-2158.2,1.3322
12265,14.459,5,0,0.00021881,2186.5,7.3124e-05,10.992,7.1661e-05,-0.0010641,-0.00021862,-2181,1.3188
12266,14.459,5.0909,0.05,8.1786e-07,8.173,6.2802e-07,4.7188,-4.607e-12,3.2973e-06,-6.2801e-07,-4.7186,1.3185
12267,14.734,5.0909,0,0.0002119,2117.6,7.094e-05,12.118,6.9327e-05,-0.0016341,-0.00021169,-2111.5,1.3595
12268,14.642,5,0,0.00021415,2140,7.1635e-05,11.555,7.0097e-05,-0.0010407,-0.00021395,-2134.2,1.3461
12269,14.642,5.0909,0.05,8.143e-07,8.1373,6.2528e-07,4.6982,-4.614e-12,2.6832e-06,-6.2527e-07,-4.698,1.3458
12270,14.918,5.0909,0,0.00020728,2071.3,6.9456e-05,12.636,6.7774e-05,-0.0016299,-0.00020706,-2065,1.3869
12271,14.826,5,0,0.00020952,2093.7,7.0152e-05,12.105,6.854e-05,-0.001005,-0.00020931,-2087.7,1.3735
12272,14.826,5.0909,0.05,8.1076e-07,8.102,6.2256e-07,4.6778,-3.7178e-12,2.2713e-06,-6.2256e-07,-4.6776,1.3732
12273,15.101,5.0909,0,0.00020267,2025.3,6.7978e-05,13.144,6.6229e-05,-0.0016163,-0.00020244,-2018.7,1.4145
12274,15.009,5,0,0.0002049,2047.6,6.8674e-05,12.643,6.6991e-05,-0.0009622,-0.00020469,-2041.3,1.401
12275,15.009,5.0909,0.05,8.0725e-07,8.0669,6.1987e-07,4.6575,-5.5436e-12,1.7047e-06,-6.1986e-07,-4.6574,1.4007
12276,15.285,5.0909,0,0.00019808,1979.5,6.6507e-05,13.645,6.469e-05,-0.0016066,-0.00019785,-1972.6,1.4423
12277,15.193,5,0,0.00020031,2001.7,6.7201e-05,13.172,6.5448e-05,-0.00091029,-0.00020008,-1995.1,1.4286
12278,15.193,5.0909,0.05,8.0377e-07,8.0322,6.172e-07,4.6374,-3.7255e-12,1.3495e-06,-6.1719e-07,-4.6373,1.4284
12279,15.468,5.0909,0,0.00019352,1933.8,6.5041e-05,14.142,6.3158e-05,-0.0016059,-0.00019327,-1926.7,1.4701
12280,15.376,5,0,0.00019573,1956,6.5735e-05,13.695,6.3912e-05,-0.00087866,-0.0001955,-1949.1,1.4564
12281,15.376,5.0909,0.05,8.0033e-07,7.9978,6.1456e-07,4.6176,-3.7479e-12,3.5706e-06,-6.1455e-07,-4.6175,1.4562
12282,15.652,5.0909,0,0.00018897,1888.4,6.3581e-05,14.638,6.1633e-05,-0.0016008,-0.00018871,-1881,1.4981
12283,15.56,5,0,0.00019118,1910.4,6.4275e-05,14.215,6.2383e-05,-0.00084435,-0.00019093,-1903.3,1.4843
12284,15.56,5.0909,0.05,7.9692e-07,7.9637,6.1194e-07,4.5979,-3.7391e-12,2.6943e-06,-6.1193e-07,-4.5978,1.4841
12285,15.835,5.0909,0,0.00018444,1843.1,6.2128e-05,15.134,6.0114e-05,-0.001604,-0.00018418,-1835.5,1.5262
12286,15.743,5,0,0.00018664,1865.1,6.2821e-05,14.734,6.086e-05,-0.00080347,-0.00018638,-1857.7,1.5124
12287,15.743,5.0909,0.05,7.9353e-07,7.9299,6.0934e-07,4.5784,-2.8358e-12,9.8255e-07,-6.0933e-07,-4.5783,1.5121
12288,16.019,5.0909,0,0.00017993,1798.1,6.0682e-05,15.634,5.8601e-05,-0.0016027,-0.00017966,-1790.2,1.5545
12289,15.927,5,0,0.00018212,1820,6.1374e-05,15.255,5.9343e-05,-0.00078675,-0.00018186,-1812.3,1.5406
12290,15.927,5.0909,0.05,7.9018e-07,7.8963,6.0676e-07,4.559,-3.2977e-12,1.6449e-06,-6.0675e-07,-4.5589,1.5403
12291,16.202,5.0909,0,0.00017544,1753.2,5.9243e-05,16.139,5.7095e-05,-0.0015842,-0.00017516,-1745.1,1.5829
12292,16.11,5,0,0.00017763,1775,5.9934e-05,15.781,5.7833e-05,-0.00073753,-0.00017735,-1767.1,1.5689
12293,16.11,5.0909,0.05,7.8685e-07,7.863,6.042e-07,4.5398,-2.8499e-12,1.9344e-06,-6.042e-07,-4.5397,1.5686
12294,16.386,5.0909,0,0.00017098,1708.6,5.7812e-05,16.652,5.5595e-05,-0.0015781,-0.00017069,-1700.2,1.6113
12295,16.294,5,0,0.00017315,1730.3,5.8501e-05,16.314,5.6329e-05,-0.00068569,-0.00017287,-1722.1,1.5973
12296,16.294,5.0909,0.05,7.8355e-07,7.8301,6.0167e-07,4.5208,-2.8692e-12,2.8386e-06,-6.0167e-07,-4.5207,1.5971
12297,16.569,5.0909,0,0.00016653,1664.1,5.6387e-05,17.176,5.4101e-05,-0.0015772,-0.00016623,-1655.5,1.6399
12298,16.477,5,0,0.00016869,1685.8,5.7075e-05,16.857,5.4832e-05,-0.0006589,-0.0001684,-1677.3,1.6258
12299,16.477,5.0909,0.05,7.8029e-07,7.7975,5.9917e-07,4.5019,-2.8637e-12,1.8897e-06,-5.9916e-07,-4.5018,1.6256
12300,16.753,5.0909,0,0.0001621,1619.9,5.4971e-05,17.713,5.2613e-05,-0.0015625,-0.00016179,-1611,1.6686
12301,16.661,5,0,0.00016426,1641.4,5.5658e-05,17.413,5.334e-05,-0.00061432,-0.00016395,-1632.7,1.6545
12302,16.661,5.0909,0.05,7.7705e-07,7.7652,5.9668e-07,4.4833,-2.8709e-12,2.8429e-06,-5.9668e-07,-4.4832,1.6542
12303,16.936,5.0909,0,0.00015769,1575.8,5.3562e-05,18.265,5.1131e-05,-0.0015363,-0.00015737,-1566.6,1.6974
12304,16.844,5,0,0.00015984,1597.3,5.4248e-05,17.984,5.1854e-05,-0.00055866,-0.00015953,-1588.2,1.6832
12305,16.844,5.0909,0.05,7.7385e-07,7.7332,5.9422e-07,4.4648,-3.8286e-12,5.1686e-06,-5.9422e-07,-4.4647,1.683
12306,17.119,5.0909,0,0.00015331,1532,5.2162e-05,18.835,4.9655e-05,-0.0015117,-0.00015298,-1522.5,1.7264
12307,17.028,5,0,0.00015545,1553.4,5.2846e-05,18.573,5.0374e-05,-0.000489,-0.00015512,-1544,1.7121
12308,17.028,5.0909,0.05,7.7068e-07,7.7015,5.9179e-07,4.4465,-2.9123e-12,4.0311e-06,-5.9179e-07,-4.4464,1.7119
12309,17.303,5.0909,0,0.00014894,1488.4,5.077e-05,19.425,4.8185e-05,-0.0014903,-0.0001486,-1478.6,1.7554
12310,17.211,5,0,0.00015107,1509.7,5.1453e-05,19.182,4.89e-05,-0.00043223,-0.00015074,-1500,1.7411
12311,17.211,5.0909,0.05,7.6756e-07,7.6703,5.8939e-07,4.4285,-2.4842e-12,3.3214e-06,-5.8939e-07,-4.4284,1.7408
12312,17.486,5.0909,0,0.00014459,1444.9,4.9387e-05,20.039,4.672e-05,-0.0014615,-0.00014424,-1434.8,1.7845
12313,17.395,5,0,0.00014672,1466.2,5.0069e-05,19.816,4.7432e-05,-0.00036535,-0.00014637,-1456.2,1.7701
12314,17.395,5.0909,0.05,7.6447e-07,7.6394,5.8702e-07,4.4107,-2.9357e-12,2.3435e-06,-5.8702e-07,-4.4106,1.7699
12315,17.67,5.0909,0,0.00014027,1401.7,4.8013e-05,20.679,4.526e-05,-0.0014364,-0.00013991,-1391.3,1.8137
12316,17.578,5,0,0.00014238,1422.9,4.8694e-05,20.477,4.5969e-05,-0.00028979,-0.00014202,-1412.5,1.7993
12317,17.578,5.0909,0.05,7.6142e-07,7.609,5.8468e-07,4.3931,-2.4709e-12,4.3225e-06,-5.8468e-07,-4.393,1.7991
12318,17.853,5.0909,0,0.00013596,1358.7,4.6648e-05,21.348,4.3806e-05,-0.0014036,-0.00013559,-1347.9,1.843
12319,17.762,5,0,0.00013807,1379.8,4.7328e-05,21.167,4.4511e-05,-0.00022439,-0.0001377,-1369.1,1.8285
12320,17.762,5.0909,0.05,7.5842e-07,7.579,5.8237e-07,4.3758,-2.5122e-12,4.2871e-06,-5.8237e-07,-4.3757,1.8284
12321,18.037,5.0909,0,0.00013168,1315.9,4.5292e-05,22.05,4.2358e-05,-0.0013547,-0.00013129,-1304.7,1.8724
12322,17.945,5,0,0.00013378,1336.9,4.5972e-05,21.891,4.3059e-05,-0.00012733,-0.00013339,-1325.8,1.8579
12323,17.945,5.0909,0.05,7.5546e-07,7.5494,5.801e-07,4.3587,-2.4971e-12,5.7973e-06,-5.8009e-07,-4.3586,1.8577
12324,18.22,5.0909,0,0.00012742,1273.3,4.3947e-05,22.786,4.0914e-05,-0.0013095,-0.00012701,-1261.8,1.9019
12325,18.129,5,0,0.00012951,1294.2,4.4626e-05,22.652,4.1611e-05,-2.4497e-05,-0.00012911,-1282.7,1.8873
12326,18.129,5.0909,0.05,7.5255e-07,7.5203,5.7787e-07,4.3419,-2.9917e-12,2.0582e-06,-5.7786e-07,-4.3418,1.8872
12327,18.404,5.0909,0,0.00012318,1230.9,4.2611e-05,23.561,3.9475e-05,-0.0012607,-0.00012276,-1219,1.9315
12328,18.312,5,0,0.00012526,1251.7,4.329e-05,23.453,4.0169e-05,7.1132e-05,-0.00012485,-1239.9,1.9169
12329,18.312,5.0909,0.05,7.4969e-07,7.4917,5.7567e-07,4.3254,-2.5415e-12,2.3202e-06,-5.7567e-07,-4.3253,1.9167
12330,18.587,5.0909,0,0.00011895,1188.7,4.1286e-05,24.377,3.8041e-05,-0.0011957,-0.00011852,-1176.3,1.9612
12331,18.496,5,0,0.00012103,1209.5,4.1965e-05,24.298,3.8731e-05,0.00018848,-0.0001206,-1197.2,1.9465
12332,18.496,5.0909,0.05,7.4689e-07,7.4637,5.7352e-07,4.3092,-2.1128e-12,1.3763e-06,-5.7351e-07,-4.3091,1.9463
12333,18.771,5.0909,0,0.00011475,1146.8,3.9971e-05,25.24,3.6612e-05,-0.0011124,-0.0001143,-1133.9,1.9909
12334,18.679,5,0,0.00011683,1167.5,4.0651e-05,25.191,3.7298e-05,0.00032677,-0.00011638,-1154.7,1.9762
12335,18.679,5.0909,0.05,7.4414e-07,7.4363,5.7141e-07,4.2934,-2.1172e-12,3.4723e-06,-5.714e-07,-4.2933,1.976
12336,18.954,5.0909,0,0.00011058,1105,3.8668e-05,26.151,3.5187e-05,-0.0010216,-0.00011011,-1091.7,2.0207
12337,18.863,5,0,0.00011264,1125.6,3.9348e-05,26.136,3.587e-05,0.00048699,-0.00011217,-1112.3,2.0059
12338,18.863,5.0909,0.05,7.4146e-07,7.4095,5.6935e-07,4.2779,-1.6582e-12,2.9066e-06,-5.6935e-07,-4.2779,2.0058
12339,19.138,5.0909,0,0.00010642,1063.5,3.7375e-05,27.117,3.3766e-05,-0.00092184,-0.00010593,-1049.6,2.0506
12340,19.046,5,0,0.00010848,1084,3.8057e-05,27.138,3.4445e-05,0.00065097,-0.00010799,-1070.2,2.0358
12341,19.046,5.0909,0.05,7.3886e-07,7.3835,5.6735e-07,4.2629,-1.6387e-12,2.0956e-06,-5.6735e-07,-4.2628,2.0356
12342,19.321,5.0909,0,0.00010228,1022.1,3.6095e-05,28.14,3.235e-05,-0.00079902,-0.00010178,-1007.8,2.0805
12343,19.229,5,0,0.00010434,1042.7,3.6778e-05,28.202,3.3025e-05,0.00084284,-0.00010383,-1028.3,2.0657
12344,19.229,5.0909,0.05,7.3632e-07,7.3582,5.6541e-07,4.2483,-2.1411e-12,1.7911e-06,-5.654e-07,-4.2482,2.0655
12345,19.505,5.0909,0,9.8168e-05,981.01,3.4827e-05,29.225,3.0937e-05,-0.0006613,-9.7639e-05,-966.07,2.1106
12346,19.413,5,0,0.00010022,1001.5,3.5512e-05,29.332,3.1608e-05,0.0010613,-9.9687e-05,-986.5,2.0957
12347,19.413,5.0909,0.05,7.3387e-07,7.3337,5.6353e-07,4.2341,-1.2574e-12,3.2646e-06,-5.6352e-07,-4.2341,2.0955
12348,19.688,5.0909,0,9.4076e-05,940.11,3.3571e-05,30.378,2.9528e-05,-0.0004961,-9.3522e-05,-924.55,2.1406
12349,19.596,5,0,9.6121e-05,960.55,3.4259e-05,30.534,3.0196e-05,0.0012971,-9.5565e-05,-944.92,2.1257
12350,19.596,5.0909,0.05,7.3151e-07,7.31,5.6171e-07,4.2205,-1.2857e-12,2.4887e-06,-5.617e-07,-4.2204,2.1256
12351,19.872,5.0909,0,9.0005e-05,899.43,3.2328e-05,31.603,2.8122e-05,-0.00029156,-8.9425e-05,-883.21,2.1708
12352,19.78,5,0,9.2047e-05,919.83,3.302e-05,31.814,2.8786e-05,0.0015862,-9.1464e-05,-903.51,2.1558
12353,19.78,5.0909,0.05,7.2923e-07,7.2873,5.5996e-07,4.2073,-2.2176e-12,2.2872e-06,-5.5996e-07,-4.2073,2.1557
12354,20.055,5.0909,0,8.5956e-05,858.96,3.1099e-05,32.907,2.672e-05,-5.6785e-05,-8.5349e-05,-842.04,2.201
12355,19.963,5,0,8.7995e-05,879.34,3.1795e-05,33.178,2.7379e-05,0.0019152,-8.7383e-05,-862.28,2.186
12356,19.963,5.0909,0.05,7.2706e-07,7.2656,5.5829e-07,4.1948,-1.3375e-12,1.5899e-06,-5.5829e-07,-4.1948,2.1859
12357,20.239,5.0909,0,8.1929e-05,818.73,2.9885e-05,34.296,2.532e-05,0.00022229,-8.1292e-05,-801.04,2.2313
12358,20.147,5,0,8.3966e-05,839.08,3.0585e-05,34.633,2.5976e-05,0.0022839,-8.3323e-05,-821.23,2.2162
12359,20.147,5.0909,0.05,7.25e-07,7.245,5.5671e-07,4.1829,-1.3079e-12,2.1805e-06,-5.5671e-07,-4.1829,2.2161
12360,20.422,5.0909,0,7.7925e-05,778.72,2.8684e-05,35.777,2.3923e-05,0.00056484,-7.7255e-05,-760.21,2.2616
12361,20.33,5,0,7.9961e-05,799.06,2.939e-05,36.187,2.4575e-05,0.0027226,-7.9284e-05,-780.35,2.2465
12362,20.33,5.0909,0.05,7.2305e-07,7.2255,5.5522e-07,4.1717,-1.3325e-12,1.2319e-06,-5.5521e-07,-4.1716,2.2464
12363,20.606,5.0909,0,7.3945e-05,738.94,2.75e-05,37.358,2.2528e-05,0.00098281,-7.3238e-05,-719.55,2.2919
12364,20.514,5,0,7.598e-05,759.27,2.8212e-05,37.848,2.3175e-05,0.00324,-7.5265e-05,-739.64,2.2769
12365,20.514,5.0909,0.05,7.2124e-07,7.2074,5.5382e-07,4.1612,-4.8658e-13,-2.138e-06,-5.5382e-07,-4.1612,2.2767
12366,20.789,5.0909,0,6.9988e-05,699.4,2.6332e-05,39.047,2.1135e-05,0.0014888,-6.9242e-05,-679.05,2.3224
12367,20.697,5,0,7.2023e-05,719.73,2.7052e-05,39.626,2.1778e-05,0.0038553,-7.1267e-05,-699.1,2.3073
12368,20.697,5.0909,0.05,7.1956e-07,7.1906,5.5253e-07,4.1515,-9.6425e-13,-4.6069e-06,-5.5253e-07,-4.1515,2.3071
12369,20.973,5.0909,0,6.6056e-05,660.1,2.5181e-05,40.856,1.9743e-05,0.0021072,-6.5266e-05,-638.72,2.3528
12370,20.881,5,0,6.8092e-05,680.45,2.5909e-05,41.532,2.0382e-05,0.0045781,-6.729e-05,-658.73,2.3377
12371,20.881,5.0909,0.05,7.1803e-07,7.1754,5.5136e-07,4.1427,-1.1994e-12,-3.3226e-06,-5.5136e-07,-4.1427,2.3376
12372,21.156,5.0909,0,6.2149e-05,621.06,2.4048e-05,42.795,1.8353e-05,0.0028717,-6.131e-05,-598.56,2.3833
12373,21.064,5,0,6.4188e-05,641.43,2.4786e-05,43.577,1.8987e-05,0.005449,-6.3335e-05,-618.53,2.3682
12374,21.064,5.0909,0.05,7.1667e-07,7.1618,5.5032e-07,4.1349,-1.2226e-12,-1.7349e-06,-5.5031e-07,-4.1348,2.3681
12375,21.34,5.0909,0,5.827e-05,582.3,2.2936e-05,44.879,1.6963e-05,0.0038161,-5.7376e-05,-558.56,2.4139
12376,21.248,5,0,6.0311e-05,602.7,2.3684e-05,45.777,1.7593e-05,0.0064997,-5.9402e-05,-578.5,2.3987
12377,21.248,5.0909,0.05,7.1549e-07,7.15,5.4941e-07,4.1281,-1.1751e-12,-2.1108e-06,-5.4941e-07,-4.128,2.3986
12378,21.523,5.0909,0,5.442e-05,543.82,2.1845e-05,47.126,1.5574e-05,0.0050018,-5.3464e-05,-518.72,2.4445
12379,21.431,5,0,5.6465e-05,564.26,2.2605e-05,48.149,1.6198e-05,0.0077733,-5.5491e-05,-538.64,2.4293
12380,21.431,5.0909,0.05,7.1452e-07,7.1402,5.4866e-07,4.1224,-9.2459e-13,-3.8926e-06,-5.4866e-07,-4.1224,2.4291
12381,21.706,5.0909,0,5.0601e-05,505.66,2.0779e-05,49.555,1.4184e-05,0.0065048,-4.9576e-05,-479.06,2.4751
12382,21.615,5,0,5.2651e-05,526.15,2.1551e-05,50.713,1.4803e-05,0.0093541,-5.1605e-05,-498.95,2.4599
12383,21.615,5.0909,0.05,7.1376e-07,7.1327,5.4808e-07,4.1181,-5.5858e-13,-4.0265e-06,-5.4808e-07,-4.1181,2.4598
12384,21.89,5.0909,0,4.6818e-05,467.86,1.9739e-05,52.194,1.2793e-05,0.008416,-4.5711e-05,-439.57,2.5057
12385,21.798,5,0,4.8873e-05,488.39,2.0525e-05,53.494,1.3407e-05,0.011314,-4.7743e-05,-459.44,2.4905
12386,21.798,5.0909,0.05,7.1328e-07,7.1278,5.4771e-07,4.1153,-8.1415e-13,-2.1682e-06,-5.4771e-07,-4.1152,2.4904
12387,22.073,5.0909,0,4.3076e-05,430.46,1.8729e-05,55.074,1.14e-05,0.010879,-4.1873e-05,-400.27,2.5364
12388,21.982,5,0,4.5136e-05,451.04,1.9529e-05,56.524,1.2008e-05,0.013773,-4.3907e-05,-420.11,2.5211
12389,21.982,5.0909,0.05,7.1309e-07,7.126,5.4756e-07,4.1142,-8.2728e-13,-8.0234e-06,-5.4756e-07,-4.1142,2.5211
12390,22.257,5.0909,0,3.938e-05,393.53,1.7754e-05,58.237,1.0005e-05,0.014092,-3.8065e-05,-361.16,2.5671
12391,22.165,5,0,4.1445e-05,414.16,1.8569e-05,59.841,1.0607e-05,0.016908,-4.0101e-05,-380.98,2.5518
12392,22.165,5.0909,0.05,7.1326e-07,7.1277,5.477e-07,4.1152,-7.0111e-13,-5.3769e-06,-5.477e-07,-4.1152,2.5517
12393,22.44,5.0909,0,3.5742e-05,357.17,1.682e-05,61.739,8.6054e-06,0.018362,-3.4289e-05,-322.27,2.5979
12394,22.349,5,0,3.7809e-05,377.83,1.7649e-05,63.494,9.2008e-06,0.020952,-3.6326e-05,-342.05,2.5826
12395,22.349,5.0909,0.05,7.1388e-07,7.1339,5.4818e-07,4.1188,-1.0972e-12,-3.6046e-06,-5.4817e-07,-4.1188,2.5825
12396,22.624,5.0909,0,3.2175e-05,321.52,1.5935e-05,65.649,7.2006e-06,0.024068,-3.0551e-05,-283.62,2.6286
12397,22.532,5,0,3.424e-05,342.17,1.6776e-05,67.544,7.7895e-06,0.0263,-3.2587e-05,-303.35,2.6133
12398,22.532,5.0909,0.05,7.1508e-07,7.1459,5.491e-07,4.1257,-8.4827e-13,8.0331e-07,-5.4909e-07,-4.1257,2.6132
12399,22.807,5.0909,0,2.8697e-05,286.77,1.5108e-05,70.059,5.7882e-06,0.032132,-2.6856e-05,-245.24,2.6594
12400,22.716,5,0,3.0755e-05,307.34,1.5958e-05,72.07,6.3707e-06,0.033345,-2.8888e-05,-264.89,2.6441
12401,22.716,5.0909,0.05,7.1705e-07,7.1655,5.5061e-07,4.137,-5.7011e-13,-2.5194e-06,-5.506e-07,-4.137,2.644
12402,22.991,5.0909,0,2.5338e-05,253.21,1.4353e-05,75.087,4.3656e-06,0.042846,-2.3211e-05,-207.16,2.6902
12403,22.899,5,0,2.7377e-05,273.58,1.5207e-05,77.17,4.9421e-06,0.043599,-2.5235e-05,-226.7,2.6749
12404,22.899,5.0909,0.05,7.2007e-07,7.1958,5.5293e-07,4.1545,-5.7486e-13,2.1333e-06,-5.5293e-07,-4.1545,2.6748
12405,23.174,5.0909,0,2.2139e-05,221.23,1.3686e-05,80.881,2.9293e-06,0.061895,-1.9624e-05,-169.4,2.721
12406,23.083,5,0,2.414e-05,241.23,1.4534e-05,82.961,3.5003e-06,0.056273,-2.1633e-05,-188.79,2.7056
12407,23.083,5.0909,0.05,7.2461e-07,7.2411,5.5641e-07,4.1807,-2.8021e-13,5.0189e-06,-5.5641e-07,-4.1806,2.7056
12408,23.358,5.0909,0,1.9158e-05,191.45,1.3122e-05,87.604,1.473e-06,0.080063,-1.6101e-05,-131.97,2.7518
12409,23.266,5,0,2.1092e-05,210.77,1.3954e-05,89.585,2.042e-06,0.083987,-1.8088e-05,-151.17,2.7365
12410,23.266,5.0909,0.05,7.3133e-07,7.3083,5.6157e-07,4.2194,3.038e-13,4.8249e-06,-5.6157e-07,-4.2194,2.7364
12411,23.541,5.0909,0,1.6488e-05,164.76,1.2677e-05,95.448,-4.8069e-09,0.16447,-1.2644e-05,-94.804,2.7826
12412,23.45,5,0,1.8303e-05,182.9,1.3479e-05,97.169,5.5903e-07,0.09679,-1.46e-05,-113.8,2.7673
12413,23.45,5.0909,0.05,7.4116e-07,7.4065,5.6912e-07,4.2762,6.0586e-13,5.8843e-06,-5.6912e-07,-4.2762,2.7672
12414,23.725,5.0909,0,1.4267e-05,142.57,1.2368e-05,104.54,-1.527e-06,0.13239,-9.2499e-06,-57.894,2.8135
12415,23.633,5,0,1.588e-05,158.69,1.3117e-05,105.89,-9.4125e-07,0.26512,-1.117e-05,-76.587,2.7981
12416,23.633,5.0909,0.05,7.5615e-07,7.5563,5.8063e-07,4.3626,9.5558e-13,1.2851e-05,-5.8063e-07,-4.3626,2.798
12417,23.817,5,0,1.3989e-05,139.79,1.2886e-05,115.73,-2.5041e-06,0.092976,-7.7898e-06,-39.622,2.829
12418,23.817,5.0909,0.05,7.938e-07,7.9325,6.0954e-07,4.5798,7.9353e-13,9.8359e-06,-6.0954e-07,-4.5798,2.8289
12419,23.908,5.0909,0,1.2614e-05,126.05,1.2085e-05,113.52,-2.9704e-06,0.39895,-5.9994e-06,-22.36,2.8443
12420,3.5419,4.9091,0,0.00042507,4247.8,0.00025091,1389.6,6.5084e-05,-6.6258,-0.00038396,-3380.5,0.077033
12421,3.4501,4.8182,0,0.00050278,5024.3,0.00032173,1978.5,5.6918e-05,-11.129,-0.00043881,-3735.9,0.071362
12422,3.4501,4.9091,0.05,2.0573e-05,205.59,1.5798e-05,118.7,1.0985e-11,7.1727e-05,-1.5798e-05,-118.7,0.070323
12423,3.3584,4.9091,0,0.00035931,3590.6,0.00022636,1370.2,4.4138e-05,1.0715,-0.00031583,-2703.6,0.06382
12424,3.7254,4.9091,0,0.00041154,4112.5,0.00021059,924.9,8.7195e-05,-2.2086,-0.00038792,-3572.1,0.090342
12425,3.6336,4.8182,0,0.00046051,4601.9,0.00025433,1278,8.413e-05,-0.8027,-0.00042525,-3828.1,0.084509
12426,3.6336,4.9091,0.05,1.3812e-05,138.02,1.0606e-05,79.686,2.0691e-11,0.00020247,-1.0606e-05,-79.686,0.083589
12427,3.9088,4.9091,0,0.00041693,4166.4,0.00018957,634.78,0.00010465,-3.2781,-0.0004025,-3813.9,0.10381
12428,3.8171,4.8182,0,0.00045213,4518.2,0.00021864,852.79,0.00010459,-4.1102,-0.00043155,-4032.5,0.097801
12429,3.8171,4.9091,0.05,1.1027e-05,110.19,8.4672e-06,63.619,2.8002e-11,0.00027854,-8.4672e-06,-63.619,0.096981
12430,4.0923,4.9091,0,0.00042592,4256.3,0.00017645,434.66,0.00011824,-2.7084,-0.00041688,-4023.4,0.11749
12431,4.0006,4.8182,0,0.00045121,4509,0.00019509,561.42,0.00011995,-3.0998,-0.00043905,-4203.2,0.1113
12432,4.0006,4.9091,0.05,8.525e-06,85.191,6.5461e-06,49.185,3.1525e-11,0.00033783,-6.5461e-06,-49.185,0.11056
12433,4.2758,4.9091,0,0.00043507,4347.7,0.00016826,296.93,0.0001284,-2.562,-0.00042929,-4192.8,0.13142
12434,4.1841,4.8182,0,0.00045335,4530.4,0.00017985,364.61,0.00013093,-2.9738,-0.00044608,-4338.4,0.12504
12435,4.1841,4.9091,0.05,6.5577e-06,65.532,5.0355e-06,37.835,3.4424e-11,0.00037535,-5.0355e-06,-37.835,0.12436
12436,4.4593,4.9091,0,0.00044291,4426,0.000163,201.47,0.00013586,-2.4235,-0.00043917,-4323,0.14561
12437,4.3676,4.8182,0,0.00045638,4560.7,0.00017008,233.12,0.00013867,-2.8868,-0.00045201,-4441,0.13905
12438,4.3676,4.9091,0.05,5.0817e-06,50.781,3.9021e-06,29.319,3.8493e-11,0.00038083,-3.9021e-06,-29.319,0.13842
12439,4.6428,4.9091,0,0.00044883,4485.2,0.00015936,133.79,0.00014123,-2.4305,-0.00044644,-4418,0.16009
12440,4.551,4.8182,0,0.00045904,4587.2,0.00016364,144.33,0.00014402,-3.0544,-0.00045646,-4514.8,0.15335
12441,4.551,4.9091,0.05,3.9767e-06,39.739,3.0536e-06,22.943,4.6009e-11,0.00044581,-3.0536e-06,-22.943,0.15276
12442,4.8263,4.9091,0,0.00045278,4524.6,0.00015659,84.516,0.00014499,-2.6153,-0.00045132,-4483.1,0.17486
12443,4.7345,4.8182,0,0.00046074,4604.2,0.00015915,83.208,0.0001476,-3.5737,-0.00045932,-4563.7,0.16795
12444,4.7345,4.9091,0.05,3.1408e-06,31.386,2.4117e-06,18.121,4.7126e-11,0.00032187,-2.4117e-06,-18.121,0.16739
12445,5.0097,4.9091,0,0.00045489,4545.8,0.00015427,47.906,0.00014747,-3.1866,-0.00045411,-4523.2,0.18993
12446,4.918,4.8182,0,0.00046128,4609.6,0.00015587,40.721,0.00014978,-5.0311,-0.00046065,-4591.6,0.18285
12447,4.918,4.9091,0.05,2.5023e-06,25.006,1.9214e-06,14.437,4.2352e-11,0.0005028,-1.9215e-06,-14.437,0.18231
12448,5.1932,4.9091,0,0.00045542,4551.1,0.00015231,21.184,0.00014882,-5.0351,-0.00045514,-4542.9,0.20531
12449,5.1015,4.8182,0,0.00046069,4603.7,0.0001537,13.863,0.00015048,-10.318,-0.00046063,-4601.9,0.19805
12450,5.1015,4.9091,0.05,2.0148e-06,20.135,1.5471e-06,11.625,4.8133e-11,0.00040357,-1.5472e-06,-11.625,0.19754
12451,5.3767,4.9091,0,0.00045464,4543.3,0.00015115,6.1475,0.0001487,-12.242,-0.00045474,-4546.3,0.22099
12452,5.285,4.8182,0,0.0004591,4587.8,0.00015306,4.1124,0.00014925,-24.529,-0.00045944,-4598,0.21357
12453,5.285,4.9091,0.05,1.6479e-06,16.468,1.2654e-06,9.5078,4.336e-11,0.00045029,-1.2654e-06,-9.5079,0.21307
12454,5.5602,4.9091,0,0.0004528,4524.9,0.00015086,2.0963,0.00014718,-25.561,-0.00045319,-4536.6,0.23698
12455,5.4684,4.8182,0,0.00045667,4563.5,0.00015284,1.7834,0.00014725,-40.218,-0.00045731,-4582.6,0.22939
12456,5.4684,4.9091,0.05,1.3802e-06,13.792,1.0598e-06,7.9628,4.3869e-11,0.00042883,-1.0598e-06,-7.9629,0.2289
12457,5.7437,4.9091,0,0.00045012,4498.1,0.0001505,1.0144,0.00014532,-37.949,-0.00045074,-4516.5,0.25327
12458,5.6519,4.8182,0,0.00045355,4532.3,0.00015236,0.97124,0.00014519,-52.913,-0.00045441,-4558.1,0.24553
12459,5.6519,4.9091,0.05,1.1942e-06,11.934,9.1697e-07,6.8898,2.7842e-11,0.00032797,-9.17e-07,-6.8899,0.24504
12460,5.9271,4.9091,0,0.00044679,4464.9,0.00014985,0.58403,0.00014341,-47.782,-0.00044758,-4488.3,0.26986
12461,5.8354,4.8182,0,0.00044989,4495.8,0.0001516,0.59362,0.0001432,-62.492,-0.00045091,-4526.4,0.26196
12462,5.8354,4.9091,0.05,1.0738e-06,10.73,8.2452e-07,6.1952,2.0929e-11,0.00022152,-8.2454e-07,-6.1952,0.26148
12463,6.1106,4.9091,0,0.00044297,4426.6,0.00014893,0.37014,0.00014154,-55.155,-0.00044387,-4453.8,0.28676
12464,6.0189,4.8182,0,0.00044581,4455,0.00015057,0.38885,0.00014129,-69.378,-0.00044694,-4489.1,0.2787
12465,6.0189,4.9091,0.05,1.0027e-06,10.02,7.6997e-07,5.7854,1.3685e-11,0.00021477,-7.6998e-07,-5.7853,0.27823
12466,6.2941,4.9091,0,0.00043877,4384.6,0.00014779,0.24961,0.00013973,-60.373,-0.00043976,-4414.4,0.30395
12467,6.2024,4.8182,0,0.00044142,4411.2,0.00014934,0.26708,0.00013946,-73.999,-0.00044263,-4447.6,0.29575
12468,6.2024,4.9091,0.05,9.6581e-07,9.6514,7.4162e-07,5.5723,1.1297e-11,0.00016147,-7.4162e-07,-5.5722,0.29528
12469,6.4776,4.9091,0,0.00043428,4339.8,0.00014647,0.17599,0.00013797,-63.754,-0.00043533,-4371.3,0.32144
12470,6.3858,4.8182,0,0.0004368,4365,0.00014794,0.19006,0.00013771,-76.731,-0.00043805,-4402.7,0.31309
12471,6.3858,4.9091,0.05,9.5027e-07,9.4962,7.2969e-07,5.4827,6.0622e-12,0.0001191,-7.2969e-07,-5.4825,0.31262
12472,6.6611,4.9091,0,0.00042959,4293,0.00014501,0.1284,0.00013627,-65.593,-0.00043067,-4325.3,0.33923
12473,6.5693,4.8182,0,0.00043201,4317.1,0.00014641,0.13912,0.00013603,-77.901,-0.00043328,-4355.4,0.33072
12474,6.5693,4.9091,0.05,9.4682e-07,9.4617,7.2704e-07,5.4628,-1.1598e-12,6.8457e-05,-7.2704e-07,-5.4626,0.33026
12475,6.8445,4.9091,0,0.00042475,4244.6,0.00014344,0.096295,0.00013462,-66.155,-0.00042584,-4277.2,0.3573
12476,6.7528,4.8182,0,0.00042709,4268,0.00014479,0.10423,0.00013442,-77.793,-0.00042836,-4306.3,0.34865
12477,6.7528,4.9091,0.05,9.4932e-07,9.4866,7.2896e-07,5.4772,-3.011e-12,5.169e-05,-7.2896e-07,-5.477,0.34819
12478,7.028,4.9091,0,0.00041981,4195.2,0.00014178,0.07388,0.00013303,-65.677,-0.00042088,-4227.6,0.37566
12479,6.9363,4.8182,0,0.00042209,4218,0.00014308,0.079649,0.00013286,-76.655,-0.00042334,-4255.8,0.36686
12480,6.9363,4.9091,0.05,9.5406e-07,9.534,7.3261e-07,5.5046,-2.4239e-12,4.1202e-05,-7.3259e-07,-5.5044,0.36641
12481,7.2115,4.9091,0,0.00041478,4145,0.00014006,0.057787,0.00013149,-64.368,-0.00041584,-4176.8,0.3943
12482,7.1198,4.8182,0,0.00041704,4167.5,0.00014131,0.061926,0.00013136,-74.7,-0.00041826,-4204.3,0.38536
12483,7.1198,4.9091,0.05,9.5898e-07,9.5832,7.3638e-07,5.5331,-6.0136e-12,4.8598e-05,-7.3638e-07,-5.5327,0.38491
12484,7.395,4.9091,0,0.00040971,4094.3,0.00013829,0.045959,0.00012998,-62.408,-0.00041074,-4125.1,0.41323
12485,7.3032,4.8182,0,0.00041194,4116.6,0.0001395,0.048888,0.0001299,-72.116,-0.00041312,-4152.1,0.40414
12486,7.3032,4.9091,0.05,9.6304e-07,9.6238,7.395e-07,5.5564,-3.9219e-12,2.0046e-05,-7.3949e-07,-5.5562,0.40369
12487,7.5785,4.9091,0,0.0004046,4043.3,0.00013648,0.037091,0.0001285,-59.954,-0.00040559,-4072.9,0.43243
12488,7.4867,4.8182,0,0.00040682,4065.4,0.00013766,0.039132,0.00012846,-69.059,-0.00040795,-4099.5,0.4232
12489,7.4867,4.9091,0.05,9.6579e-07,9.6513,7.4162e-07,5.5723,-8.1014e-12,1.8191e-05,-7.416e-07,-5.572,0.42276
12490,7.7619,4.9091,0,0.00039948,3992,0.00013465,0.030329,0.00012704,-57.138,-0.00040042,-4020.3,0.4519
12491,7.6702,4.8182,0,0.00040169,4014.1,0.0001358,0.031722,0.00012706,-65.663,-0.00040277,-4046.5,0.44254
12492,7.6702,4.9091,0.05,9.6714e-07,9.6647,7.4265e-07,5.58,-8.8351e-12,1.7898e-05,-7.4263e-07,-5.5798,0.44209
12493,7.9454,4.9091,0,0.00039434,3940.7,0.0001328,0.025096,0.0001256,-54.069,-0.00039523,-3967.4,0.47164
12494,7.8537,4.8182,0,0.00039655,3962.8,0.00013393,0.026021,0.00012566,-62.041,-0.00039757,-3993.4,0.46214
12495,7.8537,4.9091,0.05,9.6715e-07,9.6648,7.4265e-07,5.5801,-9.564e-12,1.6671e-05,-7.4265e-07,-5.5798,0.4617
12496,8.1289,4.9091,0,0.00038919,3889.3,0.00013095,0.020997,0.00012418,-50.84,-0.00039003,-3914.4,0.49165
12497,8.0372,4.8182,0,0.00039141,3911.4,0.00013204,0.021587,0.00012428,-58.285,-0.00039237,-3940.2,0.48202
12498,8.0372,4.9091,0.05,9.6599e-07,9.6532,7.4176e-07,5.5734,-4.7908e-12,1.6281e-05,-7.4175e-07,-5.5731,0.48158
12499,8.3124,4.9091,0,0.00038405,3837.8,0.00012908,0.017752,0.00012276,-47.525,-0.00038484,-3861.4,0.51192
12500,8.2206,4.8182,0,0.00038628,3860.1,0.00013016,0.018103,0.00012291,-54.47,-0.00038717,-3887,0.50215
12501,8.2206,4.9091,0.05,9.6383e-07,9.6317,7.4011e-07,5.561,-6.9054e-12,1.2411e-05,-7.401e-07,-5.5607,0.50172
12502,8.4959,4.9091,0,0.00037891,3786.5,0.00012722,0.015158,0.00012134,-44.185,-0.00037964,-3808.4,0.53245
12503,8.4041,4.8182,0,0.00038114,3808.8,0.00012828,0.015345,0.00012154,-50.657,-0.00038198,-3833.9,0.52255
12504,8.4041,4.9091,0.05,9.6087e-07,9.6021,7.3784e-07,5.5439,-7.0814e-12,1.17e-05,-7.3782e-07,-5.5437,0.52212
12505,8.6794,4.9091,0,0.00037377,3735.2,0.00012537,0.013068,0.00011992,-40.866,-0.00037445,-3755.4,0.55324
12506,8.5876,4.8182,0,0.00037602,3757.6,0.0001264,0.013144,0.00012016,-46.891,-0.0003768,-3780.8,0.54321
12507,8.5876,4.9091,0.05,9.5728e-07,9.5662,7.3508e-07,5.5232,-6.5744e-12,1.2185e-05,-7.3506e-07,-5.5229,0.54278
12508,8.8628,4.9091,0,0.00036865,3683.9,0.00012351,0.011376,0.00011851,-37.607,-0.00036927,-3702.6,0.57427
12509,8.7711,4.8182,0,0.0003709,3706.5,0.00012453,0.011379,0.00011878,-43.211,-0.00037162,-3727.9,0.56412
12510,8.7711,4.9091,0.05,9.532e-07,9.5254,7.3195e-07,5.4996,-6.7127e-12,1.0412e-05,-7.3193e-07,-5.4994,0.56369
12511,9.0463,4.9091,0,0.00036353,3632.8,0.00012167,0.0099964,0.00011708,-34.434,-0.0003641,-3649.9,0.59556
12512,8.9546,4.8182,0,0.0003658,3655.4,0.00012267,0.0099566,0.00011739,-39.642,-0.00036645,-3675.1,0.58527
12513,8.9546,4.9091,0.05,9.4876e-07,9.481,7.2854e-07,5.474,-6.0737e-12,9.2619e-06,-7.2852e-07,-5.4738,0.58486
12514,9.2298,4.9091,0,0.00035842,3581.7,0.00011983,0.0088692,0.00011565,-31.368,-0.00035894,-3597.3,0.61709
12515,9.1381,4.8182,0,0.0003607,3604.5,0.00012082,0.0088062,0.000116,-36.206,-0.0003613,-3622.5,0.60668
12516,9.1381,4.9091,0.05,9.4406e-07,9.4341,7.2493e-07,5.4469,-6.189e-12,7.9783e-06,-7.2491e-07,-5.4467,0.60626
12517,9.4133,4.9091,0,0.00035332,3530.8,0.000118,0.007947,0.00011422,-28.424,-0.0003538,-3544.9,0.63886
12518,9.3215,4.8182,0,0.00035561,3553.6,0.00011898,0.0078755,0.0001146,-32.915,-0.00035616,-3570,0.62833
12519,9.3215,4.9091,0.05,9.3919e-07,9.3855,7.2119e-07,5.4188,-6.3041e-12,7.8869e-06,-7.2118e-07,-5.4186,0.62792
12520,9.5968,4.9091,0,0.00034823,3479.9,0.00011618,0.0071952,0.00011277,-25.612,-0.00034866,-3492.7,0.66087
12521,9.505,4.8182,0,0.00035053,3502.9,0.00011715,0.0071224,0.00011318,-29.779,-0.00035103,-3517.7,0.65022
12522,9.505,4.9091,0.05,9.3422e-07,9.3358,7.1737e-07,5.3901,-7.3081e-12,6.4514e-06,-7.1736e-07,-5.3899,0.64981
12523,9.7802,4.9091,0,0.00034316,3429.2,0.00011438,0.0065835,0.00011132,-22.936,-0.00034354,-3440.6,0.68312
12524,9.6885,4.8182,0,0.00034547,3452.3,0.00011533,0.0065195,0.00011176,-26.801,-0.00034591,-3465.6,0.67234
12525,9.6885,4.9091,0.05,9.2919e-07,9.2855,7.1351e-07,5.3611,-6.5085e-12,6.4753e-06,-7.135e-07,-5.3609,0.67194
12526,9.9637,4.9091,0,0.0003381,3378.6,0.00011258,0.0060967,0.00010987,-20.4,-0.00033844,-3388.8,0.7056
12527,9.872,4.8182,0,0.00034041,3401.8,0.00011352,0.0060338,0.00011033,-23.983,-0.00034081,-3413.7,0.6947
12528,9.872,4.9091,0.05,9.2416e-07,9.2352,7.0965e-07,5.3321,-6.6293e-12,6.1216e-06,-7.0963e-07,-5.3318,0.6943
12529,10.147,4.9091,0,0.00033305,3328.2,0.0001108,0.0057228,0.0001084,-18.002,-0.00033335,-3337.1,0.7283
12530,10.055,4.8182,0,0.00033537,3351.4,0.00011173,0.0056673,0.00010889,-21.324,-0.00033572,-3362,0.71728
12531,10.055,4.9091,0.05,9.1914e-07,9.185,7.0579e-07,5.3031,-6.7049e-12,6.0123e-06,-7.0578e-07,-5.3029,0.71689
12532,10.331,4.9091,0,0.00032801,3277.8,0.00010902,0.0054309,0.00010693,-15.742,-0.00032827,-3285.7,0.75123
12533,10.239,4.8182,0,0.00033034,3301.1,0.00010994,0.0053926,0.00010744,-18.82,-0.00033065,-3310.4,0.74009
12534,10.239,4.9091,0.05,9.1416e-07,9.1353,7.0197e-07,5.2744,-6.7601e-12,5.7508e-06,-7.0196e-07,-5.2742,0.73971
12535,10.514,4.9091,0,0.00032298,3227.6,0.00010726,0.0052284,0.00010545,-13.614,-0.00032321,-3234.4,0.77438
12536,10.422,4.8182,0,0.00032532,3250.9,0.00010817,0.0051737,0.00010598,-16.467,-0.00032559,-3259.1,0.76313
12537,10.422,4.9091,0.05,9.0924e-07,9.0861,6.9819e-07,5.246,-6.8129e-12,5.3295e-06,-6.9818e-07,-5.2458,0.76275
12538,10.698,4.9091,0,0.00031797,3177.5,0.00010551,0.0051444,0.00010396,-11.616,-0.00031817,-3183.3,0.79774
12539,10.606,4.8182,0,0.00032031,3200.9,0.00010641,0.0050577,0.00010451,-14.259,-0.00032055,-3208,0.78638
12540,10.606,4.9091,0.05,9.0438e-07,9.0376,6.9446e-07,5.218,-5.983e-12,5.4643e-06,-6.9445e-07,-5.2177,0.786
12541,10.881,4.9091,0,0.00031298,3127.6,0.00010377,0.0051965,0.00010247,-9.7404,-0.00031314,-3132.5,0.82132
12542,10.789,4.8182,0,0.00031532,3151,0.00010466,0.0050499,0.00010303,-12.19,-0.00031552,-3157,0.80985
12543,10.789,4.9091,0.05,8.9959e-07,8.9897,6.9078e-07,5.1903,-6.9373e-12,4.5396e-06,-6.9077e-07,-5.1901,0.80948
12544,11.065,4.9091,0,0.00030799,3077.8,0.00010203,0.0053876,0.00010097,-7.9826,-0.00030813,-3081.8,0.84511
12545,10.973,4.8182,0,0.00031033,3101.2,0.00010292,0.005169,0.00010155,-10.253,-0.00031051,-3106.3,0.83353
12546,10.973,4.9091,0.05,8.9489e-07,8.9427,6.8717e-07,5.1632,-6.9792e-12,3.7538e-06,-6.8716e-07,-5.163,0.83316
12547,11.248,4.9091,0,0.00030303,3028.2,0.00010031,0.0057761,9.9469e-05,-6.3362,-0.00030313,-3031.3,0.86911
12548,11.156,4.8182,0,0.00030537,3051.6,0.00010119,0.0053801,0.00010007,-8.4404,-0.00030551,-3055.8,0.85742
12549,11.156,4.9091,0.05,8.9027e-07,8.8966,6.8362e-07,5.1366,-6.1083e-12,4.2137e-06,-6.8361e-07,-5.1363,0.85706
12550,11.432,4.9091,0,0.00029807,2978.7,9.8603e-05,0.006562,9.7963e-05,-4.795,-0.00029816,-2981.1,0.89331
12551,11.34,4.8182,0,0.00030042,3002.1,9.9471e-05,0.0057893,9.8573e-05,-6.7455,-0.00030053,-3005.4,0.88151
12552,11.34,4.9091,0.05,8.8572e-07,8.8511,6.8013e-07,5.1103,-5.2313e-12,4.1407e-06,-6.8012e-07,-5.1101,0.88116
12553,11.615,4.9091,0,0.00029314,2929.3,9.6902e-05,0.0081205,9.6455e-05,-3.3529,-0.00029319,-2931,0.91771
12554,11.523,4.8182,0,0.00029548,2952.7,9.7764e-05,0.0065804,9.7076e-05,-5.161,-0.00029556,-2955.3,0.90581
12555,11.523,4.9091,0.05,8.8126e-07,8.8065,6.767e-07,5.0845,-6.1719e-12,3.2841e-06,-6.7669e-07,-5.0844,0.90546
12556,11.799,4.9091,0,0.00028821,2880.2,9.5211e-05,0.011801,9.4943e-05,-2.005,-0.00028825,-2881.2,0.94231
12557,11.707,4.8182,0,0.00029055,2903.5,9.6066e-05,0.00799,9.5575e-05,-3.6801,-0.00029062,-2905.4,0.93031
12558,11.707,4.9091,0.05,8.7688e-07,8.7627,6.7334e-07,5.0592,-5.2831e-12,3.5142e-06,-6.7332e-07,-5.0591,0.92996
12559,11.982,4.9091,0,0.00028331,2831.1,9.3531e-05,0.027435,9.3427e-05,-0.75487,-0.00028332,-2831.5,0.9671
12560,11.89,4.8182,0,0.00028565,2854.5,9.4378e-05,0.011114,9.4071e-05,-2.2969,-0.00028568,-2855.6,0.955
12561,11.89,4.9091,0.05,8.7256e-07,8.7196,6.7002e-07,5.0343,-5.3154e-12,4.1885e-06,-6.7001e-07,-5.0342,0.95466
12562,12.165,4.9091,0,0.00027842,2782.3,9.1921e-05,0.49545,9.185e-05,-0.036831,-0.00027841,-2782,0.99209
12563,12.074,4.8182,0,0.00028075,2805.6,9.27e-05,0.021952,9.2563e-05,-1.0104,-0.00028077,-2806.1,0.97988
12564,12.074,4.9091,0.05,8.6832e-07,8.6772,6.6677e-07,5.0099,-5.3436e-12,3.1959e-06,-6.6676e-07,-5.0097,0.97954
12565,12.349,4.9091,0,0.00027354,2733.6,9.0402e-05,1.5811,9.019e-05,-0.010257,-0.00027352,-2732.8,1.0173
12566,12.257,4.8182,0,0.00027588,2756.9,9.1067e-05,0.29208,9.1019e-05,-0.065927,-0.00027587,-2756.7,1.005
12567,12.257,4.9091,0.05,8.6414e-07,8.6355,6.6356e-07,4.9858,-5.3649e-12,3.4846e-06,-6.6355e-07,-4.9856,1.0046
12568,12.532,4.9091,0,0.00026869,2685,8.8886e-05,2.6204,8.8536e-05,-0.0055351,-0.00026864,-2683.7,1.0426
12569,12.441,4.8182,0,0.00027101,2708.3,8.955e-05,1.3768,8.9366e-05,-0.012141,-0.00027099,-2707.6,1.0302
12570,12.441,4.9091,0.05,8.6002e-07,8.5943,6.604e-07,4.962,-5.3894e-12,3.5061e-06,-6.6039e-07,-4.9618,1.0299
12571,12.716,4.9091,0,0.00026385,2636.6,8.737e-05,3.5999,8.689e-05,-0.0036121,-0.00026378,-2634.8,1.0681
12572,12.624,4.8182,0,0.00026617,2659.9,8.804e-05,2.4388,8.7715e-05,-0.0059234,-0.00026613,-2658.6,1.0556
12573,12.624,4.9091,0.05,8.5596e-07,8.5537,6.5728e-07,4.9386,-3.5909e-12,1.7576e-06,-6.5727e-07,-4.9384,1.0553
12574,12.899,4.9091,0,0.00025902,2588.4,8.5855e-05,4.5226,8.5253e-05,-0.0025939,-0.00025895,-2586.2,1.0939
12575,12.808,4.8182,0,0.00026134,2611.6,8.653e-05,3.4402,8.6072e-05,-0.0035873,-0.00026128,-2609.9,1.0813
12576,12.808,4.9091,0.05,8.5196e-07,8.5138,6.5421e-07,4.9155,-5.4255e-12,5.7686e-07,-6.542e-07,-4.9153,1.081
12577,13.083,4.9091,0,0.00025422,2540.4,8.4342e-05,5.393,8.3624e-05,-0.0019893,-0.00025412,-2537.7,1.1197
12578,12.991,4.8182,0,0.00025653,2563.5,8.5021e-05,4.3837,8.4438e-05,-0.0024052,-0.00025646,-2561.3,1.1071
12579,12.991,4.9091,0.05,8.4802e-07,8.4744,6.5118e-07,4.8928,-4.5294e-12,1.267e-06,-6.5117e-07,-4.8926,1.1067
12580,13.266,4.9091,0,0.00024943,2492.6,8.283e-05,6.2158,8.2003e-05,-0.0015709,-0.00024932,-2489.4,1.1458
12581,13.175,4.8182,0,0.00025174,2515.6,8.3513e-05,5.2738,8.2811e-05,-0.0016954,-0.00025165,-2513,1.133
12582,13.175,4.9091,0.05,8.4412e-07,8.4354,6.4819e-07,4.8703,-5.4534e-12,1.5191e-06,-6.4818e-07,-4.8701,1.1327
12583,13.45,4.9091,0,0.00024466,2444.9,8.1321e-05,6.9952,8.039e-05,-0.0012682,-0.00024454,-2441.4,1.172
12584,13.358,4.8182,0,0.00024696,2467.9,8.2007e-05,6.1153,8.1193e-05,-0.0011823,-0.00024685,-2464.8,1.1592
12585,13.358,4.9091,0.05,8.4028e-07,8.397,6.4523e-07,4.8481,-4.5565e-12,2.4493e-06,-6.4522e-07,-4.8479,1.1589
12586,13.633,4.9091,0,0.0002399,2397.4,7.9814e-05,7.7355,7.8785e-05,-0.0010538,-0.00023977,-2393.5,1.1984
12587,13.542,4.8182,0,0.0002422,2420.3,8.0503e-05,6.9126,7.9583e-05,-0.0008414,-0.00024208,-2416.9,1.1855
12588,13.542,4.9091,0.05,8.3648e-07,8.359,6.4232e-07,4.8262,-4.5658e-12,2.9159e-06,-6.4231e-07,-4.826,1.1852
12589,13.817,4.9091,0,0.00023517,2350.1,7.8311e-05,8.4407,7.7187e-05,-0.0008819,-0.00023502,-2345.8,1.225
12590,13.725,4.8182,0,0.00023746,2372.9,7.9002e-05,7.6703,7.7981e-05,-0.00057673,-0.00023733,-2369.1,1.2119
12591,13.725,4.9091,0.05,8.3272e-07,8.3214,6.3943e-07,4.8045,-3.6702e-12,3.4379e-06,-6.3942e-07,-4.8043,1.2116
12592,14,4.9091,0,0.00023045,2302.9,7.681e-05,9.1147,7.5597e-05,-0.00075569,-0.0002303,-2298.4,1.2517
12593,13.909,4.8182,0,0.00023274,2325.7,7.7503e-05,8.3925,7.6386e-05,-0.00036187,-0.00023259,-2321.5,1.2385
12594,13.909,4.9091,0.05,8.29e-07,8.2843,6.3658e-07,4.7831,-5.4998e-12,3.7673e-06,-6.3657e-07,-4.7828,1.2383
12595,14.184,4.9091,0,0.00022575,2256,7.5314e-05,9.7612,7.4015e-05,-0.0006498,-0.00022559,-2251.1,1.2785
12596,14.092,4.8182,0,0.00022803,2278.7,7.6008e-05,9.0833,7.4799e-05,-0.00021569,-0.00022787,-2274.2,1.2653
12597,14.092,4.9091,0.05,8.2532e-07,8.2475,6.3375e-07,4.7618,-5.5065e-12,3.5002e-06,-6.3374e-07,-4.7616,1.265
12598,14.367,4.9091,0,0.00022107,2209.2,7.3822e-05,10.384,7.2439e-05,-0.00054123,-0.0002209,-2204,1.3055
12599,14.276,4.8182,0,0.00022334,2231.9,7.4517e-05,9.7466,7.322e-05,-5.8332e-05,-0.00022318,-2227,1.2923
12600,14.276,4.9091,0.05,8.2167e-07,8.2111,6.3095e-07,4.7407,-3.6927e-12,3.5084e-06,-6.3094e-07,-4.7406,1.292
12601,14.551,4.9091,0,0.00021641,2162.6,7.2334e-05,10.986,7.0872e-05,-0.00046088,-0.00021622,-2157.1,1.3327
12602,14.459,4.8182,0,0.00021867,2185.2,7.303e-05,10.386,7.1648e-05,8.1045e-05,-0.0002185,-2180,1.3193
12603,14.459,4.9091,0.05,8.1807e-07,8.175,6.2818e-07,4.7199,-3.7054e-12,4.2276e-06,-6.2817e-07,-4.7198,1.3191
12604,14.734,4.9091,0,0.00021177,2116.3,7.0851e-05,11.57,6.9311e-05,-0.00039826,-0.00021157,-2110.4,1.36
12605,14.642,4.8182,0,0.00021403,2138.8,7.1547e-05,11.005,7.0083e-05,0.00017333,-0.00021384,-2133.3,1.3466
12606,14.642,4.9091,0.05,8.1449e-07,8.1393,6.2543e-07,4.6993,-3.7138e-12,3.2994e-06,-6.2542e-07,-4.6992,1.3463
12607,14.918,4.9091,0,0.00020715,2070.1,6.9373e-05,12.141,6.7757e-05,-0.00032741,-0.00020694,-2064,1.3874
12608,14.826,4.8182,0,0.00020939,2092.5,7.0069e-05,11.607,6.8525e-05,0.00027286,-0.00020919,-2086.7,1.3739
12609,14.826,4.9091,0.05,8.1094e-07,8.1038,6.2271e-07,4.6788,-3.7225e-12,2.7251e-06,-6.227e-07,-4.6787,1.3737
12610,15.101,4.9091,0,0.00020255,2024.1,6.79e-05,12.7,6.621e-05,-0.00024961,-0.00020233,-2017.7,1.415
12611,15.009,4.8182,0,0.00020478,2046.4,6.8597e-05,12.196,6.6974e-05,0.00037626,-0.00020457,-2040.3,1.4014
12612,15.009,4.9091,0.05,8.0743e-07,8.0687,6.2001e-07,4.6585,-3.7271e-12,2.1305e-06,-6.2e-07,-4.6584,1.4012
12613,15.285,4.9091,0,0.00019796,1978.3,6.6434e-05,13.251,6.467e-05,-0.00017896,-0.00019773,-1971.6,1.4427
12614,15.193,4.8182,0,0.00020019,2000.5,6.7129e-05,12.774,6.5429e-05,0.00048757,-0.00019997,-1994.1,1.4291
12615,15.193,4.9091,0.05,8.0395e-07,8.0339,6.1734e-07,4.6384,-3.7386e-12,1.6525e-06,-6.1733e-07,-4.6383,1.4288
12616,15.468,4.9091,0,0.0001934,1932.6,6.4973e-05,13.797,6.3136e-05,-0.00011693,-0.00019316,-1925.7,1.4706
12617,15.376,4.8182,0,0.00019562,1954.8,6.5668e-05,13.346,6.3892e-05,0.00057485,-0.00019539,-1948.1,1.4569
12618,15.376,4.9091,0.05,8.005e-07,7.9995,6.1469e-07,4.6186,-3.7454e-12,3.3548e-06,-6.1468e-07,-4.6185,1.4566
12619,15.652,4.9091,0,0.00018885,1887.2,6.3518e-05,14.341,6.161e-05,-4.9916e-05,-0.0001886,-1880,1.4986
12620,15.56,4.8182,0,0.00019107,1909.3,6.4213e-05,13.913,6.2361e-05,0.00066626,-0.00019082,-1902.3,1.4848
12621,15.56,4.9091,0.05,7.9708e-07,7.9653,6.1207e-07,4.5988,-2.8324e-12,2.9074e-06,-6.1206e-07,-4.5987,1.4846
12622,15.835,4.9091,0,0.00018433,1842,6.207e-05,14.886,6.0089e-05,7.7299e-06,-0.00018407,-1834.5,1.5267
12623,15.743,4.8182,0,0.00018653,1864,6.2764e-05,14.479,6.0837e-05,0.00076276,-0.00018628,-1856.7,1.5128
12624,15.743,4.9091,0.05,7.937e-07,7.9315,6.0946e-07,4.5793,-1.9358e-12,1.3335e-06,-6.0946e-07,-4.5792,1.5126
12625,16.019,4.9091,0,0.00017982,1797,6.0629e-05,15.434,5.8575e-05,6.9236e-05,-0.00017955,-1789.2,1.5549
12626,15.927,4.8182,0,0.00018202,1818.9,6.1322e-05,15.047,5.9319e-05,0.0008363,-0.00018176,-1811.4,1.541
12627,15.927,4.9091,0.05,7.9034e-07,7.8979,6.0688e-07,4.5599,-1.9348e-12,2.1183e-06,-6.0688e-07,-4.5598,1.5408
12628,16.202,4.9091,0,0.00017534,1752.2,5.9195e-05,15.988,5.7068e-05,0.00014869,-0.00017506,-1744.1,1.5833
12629,16.11,4.8182,0,0.00017752,1774,5.9886e-05,15.621,5.7808e-05,0.00094214,-0.00017725,-1766.2,1.5693
12630,16.11,4.9091,0.05,7.8701e-07,7.8647,6.0433e-07,4.5407,-2.8607e-12,2.2274e-06,-6.0432e-07,-4.5406,1.5691
12631,16.386,4.9091,0,0.00017087,1707.5,5.7769e-05,16.551,5.5566e-05,0.00021788,-0.00017058,-1699.2,1.6117
12632,16.294,4.8182,0,0.00017305,1729.3,5.8459e-05,16.202,5.6302e-05,0.0010511,-0.00017277,-1721.2,1.5977
12633,16.294,4.9091,0.05,7.8372e-07,7.8317,6.018e-07,4.5217,-3.3282e-12,3.0433e-06,-6.0179e-07,-4.5216,1.5975
12634,16.569,4.9091,0,0.00016643,1663.1,5.635e-05,17.127,5.4071e-05,0.00028504,-0.00016613,-1654.5,1.6403
12635,16.477,4.8182,0,0.0001686,1684.8,5.7038e-05,16.795,5.4803e-05,0.0011373,-0.00016831,-1676.3,1.6262
12636,16.477,4.9091,0.05,7.8045e-07,7.7991,5.9929e-07,4.5029,-2.8819e-12,2.3151e-06,-5.9929e-07,-4.5028,1.626
12637,16.753,4.9091,0,0.000162,1618.9,5.4939e-05,17.717,5.2581e-05,0.00036705,-0.00016169,-1610,1.669
12638,16.661,4.8182,0,0.00016416,1640.5,5.5626e-05,17.402,5.331e-05,0.0012438,-0.00016386,-1631.7,1.6549
12639,16.661,4.9091,0.05,7.7722e-07,7.7668,5.9681e-07,4.4842,-2.4348e-12,3.5975e-06,-5.968e-07,-4.4841,1.6546
12640,16.936,4.9091,0,0.0001576,1574.9,5.3536e-05,18.325,5.1097e-05,0.00046242,-0.00015728,-1565.7,1.6978
12641,16.844,4.8182,0,0.00015975,1596.4,5.4222e-05,18.027,5.1823e-05,0.0013634,-0.00015944,-1587.3,1.6836
12642,16.844,4.9091,0.05,7.7402e-07,7.7348,5.9435e-07,4.4658,-2.0014e-12,5.891e-06,-5.9435e-07,-4.4657,1.6834
12643,17.119,4.9091,0,0.00015322,1531.1,5.2142e-05,18.955,4.962e-05,0.0005604,-0.00015289,-1521.5,1.7267
12644,17.028,4.8182,0,0.00015536,1552.5,5.2826e-05,18.673,5.0341e-05,0.0014982,-0.00015503,-1543.1,1.7125
12645,17.028,4.9091,0.05,7.7086e-07,7.7033,5.9193e-07,4.4475,-2.48e-12,4.9957e-06,-5.9192e-07,-4.4474,1.7123
12646,17.303,4.9091,0,0.00014885,1487.5,5.0757e-05,19.608,4.8147e-05,0.00065845,-0.00014851,-1477.6,1.7558
12647,17.211,4.8182,0,0.00015099,1508.9,5.144e-05,19.342,4.8866e-05,0.0016243,-0.00015065,-1499.1,1.7414
12648,17.211,4.9091,0.05,7.6774e-07,7.6721,5.8953e-07,4.4295,-2.0299e-12,4.0448e-06,-5.8953e-07,-4.4295,1.7412
12649,17.486,4.9091,0,0.00014451,1444.1,4.9381e-05,20.289,4.6681e-05,0.00076761,-0.00014416,-1433.9,1.7849
12650,17.395,4.8182,0,0.00014664,1465.4,5.0062e-05,20.04,4.7395e-05,0.0017628,-0.00014629,-1455.3,1.7705
12651,17.395,4.9091,0.05,7.6466e-07,7.6413,5.8716e-07,4.4118,-2.4882e-12,3.1737e-06,-5.8716e-07,-4.4116,1.7703
12652,17.67,4.9091,0,0.00014019,1401,4.8014e-05,21.001,4.5219e-05,0.00087871,-0.00013982,-1390.3,1.8141
12653,17.578,4.8182,0,0.00014231,1422.1,4.8694e-05,20.768,4.593e-05,0.0019167,-0.00014195,-1411.6,1.7996
12654,17.578,4.9091,0.05,7.6162e-07,7.6109,5.8483e-07,4.3942,-2.4919e-12,4.4854e-06,-5.8483e-07,-4.3941,1.7994
12655,17.853,4.9091,0,0.00013589,1358,4.6657e-05,21.747,4.3763e-05,0.0010032,-0.00013551,-1347,1.8434
12656,17.762,4.8182,0,0.000138,1379.1,4.7336e-05,21.532,4.4471e-05,0.0020619,-0.00013762,-1368.2,1.8289
12657,17.762,4.9091,0.05,7.5862e-07,7.581,5.8253e-07,4.3769,-2.5196e-12,4.7997e-06,-5.8253e-07,-4.3769,1.8287
12658,18.037,4.9091,0,0.00013162,1315.2,4.5311e-05,22.531,4.2312e-05,0.0011485,-0.00013122,-1303.8,1.8728
12659,17.945,4.8182,0,0.00013372,1336.3,4.5988e-05,22.334,4.3016e-05,0.0022428,-0.00013332,-1324.9,1.8582
12660,17.945,4.9091,0.05,7.5567e-07,7.5515,5.8026e-07,4.3599,-2.0616e-12,6.9165e-06,-5.8026e-07,-4.3598,1.858
12661,18.22,4.9091,0,0.00012736,1272.7,4.3975e-05,23.357,4.0866e-05,0.0012956,-0.00012695,-1260.9,1.9022
12662,18.129,4.8182,0,0.00012945,1293.6,4.4651e-05,23.179,4.1567e-05,0.0024368,-0.00012904,-1281.9,1.8876
12663,18.129,4.9091,0.05,7.5277e-07,7.5226,5.7804e-07,4.3432,-2.1107e-12,3.1001e-06,-5.7804e-07,-4.3431,1.8875
12664,18.404,4.9091,0,0.00012312,1230.4,4.2649e-05,24.229,3.9425e-05,0.001453,-0.00012269,-1218.1,1.9318
12665,18.312,4.8182,0,0.00012521,1251.2,4.3325e-05,24.072,4.0122e-05,0.0026284,-0.00012478,-1239,1.9172
12666,18.312,4.9091,0.05,7.4993e-07,7.4941,5.7585e-07,4.3268,-2.1107e-12,3.504e-06,-5.7585e-07,-4.3267,1.917
12667,18.587,4.9091,0,0.00011891,1188.3,4.1335e-05,25.151,3.7988e-05,0.0016362,-0.00011846,-1175.5,1.9615
12668,18.496,4.8182,0,0.00012099,1209.1,4.2011e-05,25.017,3.8682e-05,0.0028481,-0.00012055,-1196.4,1.9468
12669,18.496,4.9091,0.05,7.4714e-07,7.4663,5.7371e-07,4.3107,-1.6897e-12,9.1677e-07,-5.7371e-07,-4.3106,1.9466
12670,18.771,4.9091,0,0.00011472,1146.4,4.0033e-05,26.128,3.6556e-05,0.0018433,-0.00011425,-1133.1,1.9912
12671,18.679,4.8182,0,0.00011679,1167.1,4.0708e-05,26.018,3.7246e-05,0.003096,-0.00011633,-1153.9,1.9764
12672,18.679,4.9091,0.05,7.4441e-07,7.439,5.7162e-07,4.2949,-1.6992e-12,5.0629e-06,-5.7162e-07,-4.2949,1.9763
12673,18.954,4.9091,0,0.00011055,1104.7,3.8743e-05,27.164,3.5128e-05,0.0020678,-0.00011006,-1090.9,2.021
12674,18.863,4.8182,0,0.00011262,1125.4,3.9418e-05,27.081,3.5814e-05,0.0033714,-0.00011213,-1111.6,2.0062
12675,18.863,4.9091,0.05,7.4176e-07,7.4124,5.6958e-07,4.2796,-1.2465e-12,3.2984e-06,-5.6958e-07,-4.2795,2.0061
12676,19.138,4.9091,0,0.0001064,1063.3,3.7466e-05,28.266,3.3704e-05,0.0023139,-0.00010589,-1048.9,2.0509
12677,19.046,4.8182,0,0.00010846,1083.9,3.8141e-05,28.212,3.4387e-05,0.0036614,-0.00010796,-1069.5,2.036
12678,19.046,4.9091,0.05,7.3917e-07,7.3866,5.6759e-07,4.2647,-7.8863e-13,2.5471e-06,-5.6759e-07,-4.2646,2.0359
12679,19.321,4.9091,0,0.00010228,1022.1,3.6201e-05,29.437,3.2284e-05,0.0025904,-0.00010175,-1007,2.0808
12680,19.229,4.8182,0,0.00010433,1042.6,3.6878e-05,29.415,3.2963e-05,0.0039867,-0.0001038,-1027.6,2.0659
12681,19.229,4.9091,0.05,7.3667e-07,7.3616,5.6567e-07,4.2502,-2.1683e-12,1.4307e-06,-5.6567e-07,-4.2502,2.0658
12682,19.505,4.9091,0,9.8177e-05,981.1,3.4951e-05,30.685,3.0867e-05,0.0028948,-9.7619e-05,-965.39,2.1108
12683,19.413,4.8182,0,0.00010023,1001.6,3.5628e-05,30.698,3.1543e-05,0.0043479,-9.9669e-05,-985.87,2.0959
12684,19.413,4.9091,0.05,7.3424e-07,7.3374,5.6381e-07,4.2363,-4.2021e-13,4.3481e-06,-5.6381e-07,-4.2362,2.0958
12685,19.688,4.9091,0,9.4099e-05,940.34,3.3714e-05,32.016,2.9454e-05,0.0032408,-9.3513e-05,-923.92,2.1409
12686,19.596,4.8182,0,9.6143e-05,960.77,3.4393e-05,32.067,3.0126e-05,0.0047385,-9.5558e-05,-944.33,2.126
12687,19.596,4.9091,0.05,7.3191e-07,7.3141,5.6202e-07,4.2228,-1.3376e-12,3.0109e-06,-5.6202e-07,-4.2227,2.1258
12688,19.872,4.9091,0,9.0044e-05,899.82,3.2493e-05,33.435,2.8043e-05,0.003639,-8.9428e-05,-882.63,2.171
12689,19.78,4.8182,0,9.2084e-05,920.2,3.3174e-05,33.53,2.8712e-05,0.0051924,-9.1468e-05,-902.98,2.1561
12690,19.78,4.9091,0.05,7.2967e-07,7.2917,5.603e-07,4.2099,-9.1136e-13,2.887e-06,-5.603e-07,-4.2098,2.1559
12691,20.055,4.9091,0,8.6012e-05,859.53,3.1287e-05,34.952,2.6636e-05,0.0040849,-8.5364e-05,-841.52,2.2012
12692,19.963,4.8182,0,8.8049e-05,879.88,3.1971e-05,35.094,2.7301e-05,0.0057024,-8.7399e-05,-861.81,2.1862
12693,19.963,4.9091,0.05,7.2755e-07,7.2705,5.5867e-07,4.1976,-1.3877e-12,1.7148e-06,-5.5866e-07,-4.1976,2.1861
12694,20.239,4.9091,0,8.2005e-05,819.49,3.0097e-05,36.573,2.523e-05,0.004594,-8.1322e-05,-800.59,2.2315
12695,20.147,4.8182,0,8.4038e-05,839.8,3.0785e-05,36.768,2.5892e-05,0.0062642,-8.3352e-05,-820.81,2.2165
12696,20.147,4.9091,0.05,7.2554e-07,7.2503,5.5712e-07,4.186,-1.3533e-12,2.7319e-06,-5.5712e-07,-4.186,2.2163
12697,20.422,4.9091,0,7.8023e-05,779.69,2.8925e-05,38.309,2.3827e-05,0.0051857,-7.73e-05,-759.83,2.2618
12698,20.33,4.8182,0,8.0054e-05,799.98,2.9616e-05,38.561,2.4485e-05,0.0069117,-7.9328e-05,-780,2.2467
12699,20.33,4.9091,0.05,7.2365e-07,7.2315,5.5567e-07,4.1751,-9.4832e-13,1.9051e-06,-5.5567e-07,-4.1751,2.2466
12700,20.606,4.9091,0,7.4066e-05,740.15,2.7771e-05,40.169,2.2426e-05,0.0058756,-7.3301e-05,-719.24,2.2922
12701,20.514,4.8182,0,7.6095e-05,760.42,2.8467e-05,40.484,2.308e-05,0.0076568,-7.5325e-05,-739.37,2.2771
12702,20.514,4.9091,0.05,7.219e-07,7.214,5.5433e-07,4.165,-1.2198e-12,-1.866e-06,-5.5433e-07,-4.165,2.2769
12703,20.789,4.9091,0,7.0135e-05,700.87,2.6636e-05,42.165,2.1025e-05,0.0066794,-6.9323e-05,-678.83,2.3226
12704,20.697,4.8182,0,7.2163e-05,721.13,2.7338e-05,42.549,2.1676e-05,0.0085188,-7.1345e-05,-698.91,2.3074
12705,20.697,4.9091,0.05,7.203e-07,7.198,5.531e-07,4.1558,-5.3714e-13,-3.363e-06,-5.531e-07,-4.1558,2.3073
12706,20.973,4.9091,0,6.6233e-05,661.87,2.5522e-05,44.309,1.9626e-05,0.0076221,-6.5367e-05,-638.6,2.353
12707,20.881,4.8182,0,6.826e-05,682.13,2.623e-05,44.768,2.0273e-05,0.0095079,-6.7388e-05,-658.64,2.3379
12708,20.881,4.9091,0.05,7.1887e-07,7.1837,5.52e-07,4.1475,-1.2034e-12,-4.0124e-06,-5.52e-07,-4.1475,2.3378
12709,21.156,4.9091,0,6.2359e-05,623.16,2.443e-05,46.617,1.8227e-05,0.0087414,-6.1434e-05,-598.53,2.3835
12710,21.064,4.8182,0,6.4386e-05,643.42,2.5144e-05,47.158,1.887e-05,0.010668,-6.3454e-05,-618.53,2.3683
12711,21.064,4.9091,0.05,7.1762e-07,7.1712,5.5104e-07,4.1403,-1.263e-12,-1.8801e-06,-5.5104e-07,-4.1403,2.3682
12712,21.34,4.9091,0,5.8515e-05,584.75,2.3362e-05,49.106,1.6827e-05,0.010077,-5.7525e-05,-558.64,2.4141
12713,21.248,4.8182,0,6.0544e-05,605.02,2.4084e-05,49.735,1.7466e-05,0.012037,-5.9544e-05,-578.61,2.3989
12714,21.248,4.9091,0.05,7.1657e-07,7.1607,5.5024e-07,4.1343,-5.2495e-13,-9.3736e-07,-5.5023e-07,-4.1342,2.3988
12715,21.523,4.9091,0,5.4706e-05,546.68,2.232e-05,51.798,1.5427e-05,0.011693,-5.364e-05,-518.93,2.4446
12716,21.431,4.8182,0,5.6735e-05,566.96,2.305e-05,52.52,1.6062e-05,0.013657,-5.5658e-05,-538.86,2.4294
12717,21.431,4.9091,0.05,7.1575e-07,7.1525,5.496e-07,4.1295,-1.2398e-12,-3.6498e-06,-5.496e-07,-4.1295,2.4293
12718,21.706,4.9091,0,5.0932e-05,508.97,2.1306e-05,54.716,1.4026e-05,0.013669,-4.978e-05,-479.4,2.4752
12719,21.615,4.8182,0,5.2963e-05,529.26,2.2045e-05,55.535,1.4656e-05,0.015614,-5.1799e-05,-499.3,2.46
12720,21.615,4.9091,0.05,7.1518e-07,7.1469,5.4917e-07,4.1263,-5.9861e-13,-2.3591e-06,-5.4917e-07,-4.1262,2.4599
12721,21.89,4.9091,0,4.72e-05,471.67,2.0324e-05,57.891,1.2621e-05,0.0161,-4.5947e-05,-440.05,2.5059
12722,21.798,4.8182,0,4.9231e-05,491.97,2.1072e-05,58.811,1.3247e-05,0.017987,-4.7966e-05,-459.92,2.4906
12723,21.798,4.9091,0.05,7.1492e-07,7.1442,5.4897e-07,4.1247,-8.4697e-13,-9.3655e-07,-5.4897e-07,-4.1247,2.4905
12724,22.073,4.9091,0,4.3514e-05,434.84,1.9378e-05,61.359,1.1214e-05,0.019135,-4.2143e-05,-400.89,2.5366
12725,21.982,4.8182,0,4.5545e-05,455.14,2.0135e-05,62.38,1.1836e-05,0.020893,-4.4162e-05,-420.72,2.5213
12726,21.982,4.9091,0.05,7.15e-07,7.145,5.4903e-07,4.1252,-4.1024e-13,-7.6303e-06,-5.4903e-07,-4.1252,2.5212
12727,22.257,4.9091,0,3.9882e-05,398.54,1.8472e-05,65.167,9.8023e-06,0.022976,-3.8371e-05,-361.93,2.5673
12728,22.165,4.8182,0,4.1912e-05,418.83,1.9238e-05,66.283,1.0419e-05,0.024514,-4.0389e-05,-381.73,2.552
12729,22.165,4.9091,0.05,7.155e-07,7.15,5.4941e-07,4.1281,-4.7218e-13,-4.7262e-06,-5.4941e-07,-4.1281,2.5519
12730,22.44,4.9091,0,3.6314e-05,362.89,1.7613e-05,69.369,8.3847e-06,0.027933,-3.4633e-05,-323.19,2.598
12731,22.349,4.8182,0,3.834e-05,383.13,1.8386e-05,70.571,8.9971e-06,0.029085,-3.6648e-05,-342.93,2.5827
12732,22.349,4.9091,0.05,7.1651e-07,7.1602,5.5019e-07,4.1339,-4.1655e-13,-2.5291e-06,-5.5019e-07,-4.1339,2.5826
12733,22.624,4.9091,0,3.2826e-05,328.03,1.6808e-05,74.034,6.9594e-06,0.034386,-3.0933e-05,-284.68,2.6288
12734,22.532,4.8182,0,3.4842e-05,348.18,1.7585e-05,75.301,7.5675e-06,0.035002,-3.2944e-05,-304.35,2.6134
12735,22.532,4.9091,0.05,7.1817e-07,7.1768,5.5147e-07,4.1435,-6.7099e-13,7.0094e-07,-5.5147e-07,-4.1435,2.6134
12736,22.807,4.9091,0,2.9436e-05,294.16,1.6066e-05,79.247,5.5244e-06,0.043264,-2.7276e-05,-246.41,2.6595
12737,22.716,4.8182,0,3.1434e-05,314.13,1.6843e-05,80.546,6.1284e-06,0.042661,-2.9279e-05,-266,2.6442
12738,22.716,4.9091,0.05,7.2068e-07,7.2018,5.5339e-07,4.158,-2.7438e-13,-1.6113e-06,-5.5339e-07,-4.158,2.6441
12739,22.991,4.9091,0,2.6173e-05,261.55,1.5396e-05,85.105,4.0765e-06,0.054873,-2.3665e-05,-208.38,2.6903
12740,22.899,4.8182,0,2.8141e-05,281.21,1.6168e-05,86.389,4.6775e-06,0.05359,-2.5657e-05,-227.87,2.675
12741,22.899,4.9091,0.05,7.243e-07,7.238,5.5617e-07,4.1789,-5.2872e-13,3.3994e-06,-5.5617e-07,-4.1788,2.6749
12742,23.174,4.9091,0,2.3075e-05,230.59,1.481e-05,91.718,2.6127e-06,0.075027,-2.0104e-05,-170.61,2.7211
12743,23.083,4.8182,0,2.4993e-05,249.76,1.5569e-05,92.92,3.2113e-06,0.067031,-2.208e-05,-189.96,2.7058
12744,23.083,4.9091,0.05,7.2941e-07,7.2891,5.601e-07,4.2084,-9.6723e-14,5.2639e-06,-5.601e-07,-4.2083,2.7057
12745,23.358,4.9091,0,2.0198e-05,201.84,1.4317e-05,99.193,1.1273e-06,0.094515,-1.6592e-05,-133.04,2.7519
12746,23.266,4.8182,0,2.2037e-05,220.21,1.5055e-05,100.24,1.7272e-06,0.095828,-1.8549e-05,-152.25,2.7366
12747,23.266,4.9091,0.05,7.3652e-07,7.3601,5.6556e-07,4.2494,1.3539e-13,5.0408e-06,-5.6556e-07,-4.2494,2.7365
12748,23.541,4.9091,0,1.7624e-05,176.12,1.3923e-05,107.65,-3.7948e-07,0.18195,-1.3128e-05,-95.604,2.7828
12749,23.45,4.8182,0,1.9336e-05,193.23,1.4632e-05,108.41,2.1782e-07,0.10993,-1.5059e-05,-114.68,2.7674
12750,23.45,4.9091,0.05,7.4621e-07,7.4569,5.73e-07,4.3053,6.0222e-13,6.949e-06,-5.73e-07,-4.3053,2.7673
12751,23.725,4.9091,0,1.5479e-05,154.68,1.3639e-05,117.11,-1.9275e-06,0.15693,-9.7038e-06,-58.271,2.8136
12752,23.633,4.8182,0,1.699e-05,169.78,1.4302e-05,117.57,-1.3072e-06,0.28268,-1.1609e-05,-77.124,2.7982
12753,23.633,4.9091,0.05,7.5986e-07,7.5934,5.8348e-07,4.384,7.7195e-13,1.163e-05,-5.8348e-07,-4.384,2.7982
12754,23.817,4.8182,0,1.5149e-05,151.38,1.4076e-05,127.6,-2.8897e-06,0.12209,-8.1924e-06,-39.72,2.8291
12755,23.817,4.9091,0.05,7.9221e-07,7.9166,6.0832e-07,4.5707,6.1462e-13,9.2142e-06,-6.0832e-07,-4.5707,2.829
12756,23.908,4.9091,0,1.3891e-05,138.81,1.3375e-05,126.39,-3.3923e-06,0.40938,-6.431e-06,-22.422,2.8445
12757,3.5419,4.7273,0,0.00052615,5257.8,0.00031674,1803.8,7.5908e-05,-5.7285,-0.00047164,-4119.8,0.078809
12758,3.4501,4.6364,0,0.00063341,6329.7,0.0004108,2563.6,6.6706e-05,-21.797,-0.00054922,-4649.6,0.07326
12759,3.4501,4.7273,0.05,2.5901e-05,258.83,1.9889e-05,149.44,1.8113e-11,9.3178e-05,-1.9889e-05,-149.44,0.072219
12760,3.3584,4.7273,0,0.00045052,4502.1,0.00029045,1812.4,5.036e-05,8.3961,-0.00039155,-3311.9,0.065829
12761,3.7254,4.7273,0,0.0004933,4929.6,0.00025663,1162.7,0.00010152,-2.7304,-0.00046312,-4245.2,0.091912
12762,3.6336,4.6364,0,0.00056104,5606.5,0.00031174,1581.3,0.00010105,-1.714,-0.00051713,-4646.5,0.086161
12763,3.6336,4.7273,0.05,1.5859e-05,158.48,1.2178e-05,91.498,3.0941e-11,0.00036505,-1.2178e-05,-91.498,0.085261
12764,3.9088,4.7273,0,0.00048162,4812.9,0.00022047,751.82,0.00011989,-3.9162,-0.00046442,-4394.2,0.10521
12765,3.8171,4.6364,0,0.0005299,5295.4,0.00025538,988.54,0.00012319,-4.675,-0.00050613,-4733.1,0.099249
12766,3.8171,4.7273,0.05,1.1712e-05,117.04,8.9933e-06,67.572,4.9101e-11,0.0004265,-8.9933e-06,-67.572,0.098463
12767,4.0923,4.7273,0,0.00047585,4755.2,0.00019626,474.65,0.00013264,-3.3357,-0.00046603,-4501.5,0.11876
12768,4.0006,4.6364,0,0.00051001,5096.6,0.00021771,599.53,0.00013739,-3.9494,-0.00049719,-4772,0.11258
12769,4.0006,4.7273,0.05,8.4583e-06,84.524,6.4949e-06,48.8,4.9689e-11,0.0005001,-6.4949e-06,-48.8,0.11189
12770,4.2758,4.7273,0,0.00047307,4727.5,0.00018037,291,0.0001412,-3.2867,-0.00046749,-4576.8,0.13258
12771,4.1841,4.6364,0,0.00049767,4973.3,0.00019337,350.26,0.00014625,-3.8024,-0.00049083,-4790.6,0.1262
12772,4.1841,4.7273,0.05,6.3501e-06,63.458,4.8761e-06,36.637,5.9777e-11,0.00053447,-4.8761e-06,-36.637,0.12557
12773,4.4593,4.7273,0,0.00047163,4713,0.00016997,170.4,0.00014682,-3.5725,-0.00046855,-4627.2,0.14669
12774,4.3676,4.6364,0,0.00048971,4893.7,0.00017778,192.25,0.00015163,-4.1979,-0.00048621,-4796.7,0.14011
12775,4.3676,4.7273,0.05,4.9291e-06,49.257,3.7849e-06,28.439,5.8539e-11,0.00059191,-3.785e-06,-28.439,0.13954
12776,4.6428,4.7273,0,0.00047045,4701.2,0.00016303,90.8,0.00015035,-4.4691,-0.00046891,-4657.3,0.1611
12777,4.551,4.6364,0,0.00048405,4837.2,0.0001677,92.165,0.00015467,-5.7507,-0.00048251,-4793.2,0.15434
12778,4.551,4.7273,0.05,3.9336e-06,39.309,3.0205e-06,22.695,6.007e-11,0.00056794,-3.0205e-06,-22.695,0.1538
12779,4.8263,4.7273,0,0.00046896,4686.4,0.00015835,38.774,0.00015223,-7.175,-0.00046841,-4670.4,0.17583
12780,4.7345,4.6364,0,0.00047945,4791.2,0.00016142,31.57,0.0001557,-11.403,-0.00047909,-4780.9,0.16888
12781,4.7345,4.7273,0.05,3.1989e-06,31.967,2.4563e-06,18.456,5.6203e-11,0.00054727,-2.4564e-06,-18.456,0.16838
12782,5.0097,4.7273,0,0.00046693,4666.1,0.00015588,11.049,0.00015207,-17.557,-0.00046704,-4669.3,0.19086
12783,4.918,4.6364,0,0.0004752,4748.7,0.00015904,7.8689,0.00015377,-31.765,-0.00047559,-4760.5,0.18374
12784,4.918,4.7273,0.05,2.6396e-06,26.378,2.0269e-06,15.229,4.8745e-11,0.00046611,-2.0269e-06,-15.229,0.18326
12785,5.1932,4.7273,0,0.00046429,4639.7,0.00015536,3.67,0.00014992,-37.253,-0.00046485,-4656.4,0.20621
12786,5.1015,4.6364,0,0.00047096,4706.4,0.00015848,3.0941,0.00015051,-56.804,-0.00047185,-4732.9,0.19892
12787,5.1015,4.7273,0.05,2.2084e-06,22.069,1.6958e-06,12.741,5.2376e-11,0.00043813,-1.6958e-06,-12.742,0.19845
12788,5.3767,4.7273,0,0.00046109,4607.7,0.00015501,1.7712,0.00014748,-54.827,-0.00046197,-4634,0.22187
12789,5.285,4.6364,0,0.00046659,4662.6,0.00015785,1.6454,0.00014755,-75.73,-0.0004678,-4699.2,0.21441
12790,5.285,4.7273,0.05,1.8765e-06,18.752,1.4409e-06,10.827,4.0786e-11,0.00034494,-1.441e-06,-10.827,0.21396
12791,5.5602,4.7273,0,0.0004574,4570.8,0.00015439,1.0198,0.00014519,-68.082,-0.0004585,-4603.9,0.23784
12792,5.4684,4.6364,0,0.00046202,4617.1,0.00015694,0.9993,0.00014496,-88.959,-0.00046346,-4660.4,0.23022
12793,5.4684,4.7273,0.05,1.6243e-06,16.231,1.2472e-06,9.3711,2.8917e-11,0.0004257,-1.2472e-06,-9.3712,0.22977
12794,5.7437,4.7273,0,0.0004533,4529.9,0.00015347,0.64334,0.00014306,-77.617,-0.00045456,-4567.9,0.25412
12795,5.6519,4.6364,0,0.00045729,4569.7,0.00015578,0.65171,0.00014267,-97.83,-0.00045886,-4617.5,0.24634
12796,5.6519,4.7273,0.05,1.4364e-06,14.354,1.103e-06,8.2873,2.6882e-11,0.00021608,-1.103e-06,-8.2873,0.2459
12797,5.9271,4.7273,0,0.0004489,4485.9,0.00015232,0.42934,0.00014107,-84.143,-0.00045027,-4527.2,0.27071
12798,5.8354,4.6364,0,0.0004524,4520.9,0.00015442,0.44446,0.0001406,-103.38,-0.00045406,-4571.5,0.26277
12799,5.8354,4.7273,0.05,1.3e-06,12.991,9.9825e-07,7.5005,2.434e-11,0.00017947,-9.9826e-07,-7.5005,0.26233
12800,6.1106,4.7273,0,0.00044427,4439.6,0.00015098,0.29793,0.0001392,-88.235,-0.0004457,-4482.9,0.2876
12801,6.0189,4.6364,0,0.0004474,4470.9,0.00015291,0.31282,0.00013871,-106.36,-0.00044911,-4523,0.2795
12802,6.0189,4.7273,0.05,1.2037e-06,12.028,9.2427e-07,6.9447,1.44e-11,0.00014555,-9.2428e-07,-6.9446,0.27907
12803,6.2941,4.7273,0,0.00043946,4391.6,0.00014949,0.21296,0.00013744,-90.352,-0.00044092,-4435.9,0.30479
12804,6.2024,4.6364,0,0.00044232,4420.2,0.00015127,0.22554,0.00013695,-107.33,-0.00044404,-4472.7,0.29654
12805,6.2024,4.7273,0.05,1.1373e-06,11.365,8.7328e-07,6.5616,8.8669e-12,0.00014476,-8.7328e-07,-6.5614,0.29611
12806,6.4776,4.7273,0,0.00043453,4342.3,0.00014788,0.1559,0.00013577,-90.866,-0.000436,-4386.9,0.32227
12807,6.3858,4.6364,0,0.00043719,4368.9,0.00014954,0.16585,0.00013532,-106.7,-0.0004389,-4421.2,0.31387
12808,6.3858,4.7273,0.05,1.0923e-06,10.916,8.3876e-07,6.3022,4.8522e-12,0.00011375,-8.3875e-07,-6.302,0.31345
12809,6.6611,4.7273,0,0.00042951,4292.1,0.00014619,0.11644,0.00013418,-90.087,-0.00043097,-4336.4,0.34005
12810,6.5693,4.6364,0,0.00043202,4317.3,0.00014774,0.12401,0.00013377,-104.82,-0.00043371,-4368.6,0.3315
12811,6.5693,4.7273,0.05,1.0621e-06,10.614,8.1556e-07,6.1278,-5.4595e-13,5.0479e-05,-8.1555e-07,-6.1277,0.33108
12812,6.8445,4.7273,0,0.00042444,4241.5,0.00014442,0.088498,0.00013266,-88.279,-0.00042587,-4284.9,0.35812
12813,6.7528,4.6364,0,0.00042684,4265.5,0.00014589,0.094118,0.0001323,-101.96,-0.00042848,-4315.5,0.34943
12814,6.7528,4.7273,0.05,1.0416e-06,10.409,7.9984e-07,6.0098,-2.9418e-12,5.4408e-05,-7.9983e-07,-6.0096,0.34901
12815,7.028,4.7273,0,0.00041933,4190.4,0.00014261,0.068307,0.0001312,-85.664,-0.00042072,-4232.5,0.37647
12816,6.9363,4.6364,0,0.00042166,4213.7,0.000144,0.072394,0.0001309,-98.362,-0.00042324,-4262,0.36764
12817,6.9363,4.7273,0.05,1.0274e-06,10.267,7.8889e-07,5.9275,-6.4593e-13,5.3751e-05,-7.8888e-07,-5.9272,0.36722
12818,7.2115,4.7273,0,0.0004142,4139.1,0.00014075,0.053466,0.00012977,-82.435,-0.00041554,-4179.7,0.39511
12819,7.1198,4.6364,0,0.00041648,4161.9,0.00014208,0.056382,0.00012954,-94.206,-0.000418,-4208.2,0.38613
12820,7.1198,4.7273,0.05,1.0169e-06,10.162,7.8086e-07,5.8671,-2.5762e-12,2.6232e-05,-7.8085e-07,-5.867,0.38572
12821,7.395,4.7273,0,0.00040906,4087.7,0.00013887,0.042393,0.00012839,-78.754,-0.00041034,-4126.5,0.41403
12822,7.3032,4.6364,0,0.0004113,4110.2,0.00014015,0.044429,0.00012821,-89.659,-0.00041275,-4154.2,0.40491
12823,7.3032,4.7273,0.05,1.0087e-06,10.08,7.7456e-07,5.8198,-6.5495e-12,2.8592e-05,-7.7455e-07,-5.8196,0.4045
12824,7.5785,4.7273,0,0.00040391,4036.3,0.00013698,0.034025,0.00012703,-74.756,-0.00040513,-4073.2,0.43323
12825,7.4867,4.6364,0,0.00040614,4058.6,0.00013821,0.035409,0.00012691,-84.855,-0.00040751,-4100.3,0.42397
12826,7.4867,4.7273,0.05,1.0017e-06,10.011,7.6922e-07,5.7797,-4.1838e-12,1.9585e-05,-7.6921e-07,-5.7795,0.42356
12827,7.7619,4.7273,0,0.00039877,3984.9,0.00013508,0.027627,0.00012568,-70.556,-0.00039992,-4019.7,0.4527
12828,7.6702,4.6364,0,0.00040098,4007.1,0.00013627,0.028535,0.00012563,-79.905,-0.00040228,-4046.4,0.4433
12829,7.6702,4.7273,0.05,9.9546e-07,9.9477,7.644e-07,5.7434,-5.2093e-12,1.6809e-05,-7.6438e-07,-5.7432,0.44289
12830,7.9454,4.7273,0,0.00039363,3933.6,0.00013317,0.022687,0.00012435,-66.247,-0.00039471,-3966.3,0.47243
12831,7.8537,4.6364,0,0.00039584,3955.7,0.00013432,0.023251,0.00012435,-74.899,-0.00039706,-3992.6,0.4629
12832,7.8537,4.7273,0.05,9.8949e-07,9.888,7.5981e-07,5.709,-4.2275e-12,1.5072e-05,-7.598e-07,-5.7087,0.4625
12833,8.1289,4.7273,0,0.0003885,3882.3,0.00013126,0.01884,0.00012302,-61.905,-0.00038951,-3912.9,0.49244
12834,8.0372,4.6364,0,0.00039071,3904.4,0.00013238,0.019159,0.00012308,-69.91,-0.00039186,-3938.9,0.48276
12835,8.0372,4.7273,0.05,9.8363e-07,9.8295,7.5532e-07,5.6752,-4.367e-12,1.349e-05,-7.553e-07,-5.675,0.48237
12836,8.3124,4.7273,0,0.00038337,3831.1,0.00012936,0.015821,0.00012169,-57.591,-0.00038432,-3859.6,0.5127
12837,8.2206,4.6364,0,0.0003856,3853.3,0.00013045,0.015969,0.0001218,-64.995,-0.00038666,-3885.4,0.5029
12838,8.2206,4.7273,0.05,9.7781e-07,9.7713,7.5084e-07,5.6416,-4.9617e-12,1.2727e-05,-7.5083e-07,-5.6414,0.5025
12839,8.4959,4.7273,0,0.00037826,3780,0.00012746,0.013436,0.00012036,-53.352,-0.00037914,-3806.4,0.53322
12840,8.4041,4.6364,0,0.00038049,3802.3,0.00012853,0.013468,0.00012052,-60.199,-0.00038148,-3832,0.52329
12841,8.4041,4.7273,0.05,9.7197e-07,9.713,7.4636e-07,5.6079,-7.1109e-12,1.1902e-05,-7.4635e-07,-5.6077,0.5229
12842,8.6794,4.7273,0,0.00037315,3728.9,0.00012557,0.011543,0.00011902,-49.224,-0.00037397,-3753.3,0.554
12843,8.5876,4.6364,0,0.0003754,3751.4,0.00012662,0.011499,0.00011923,-55.555,-0.00037631,-3778.8,0.54394
12844,8.5876,4.7273,0.05,9.6613e-07,9.6546,7.4187e-07,5.5742,-5.6119e-12,1.082e-05,-7.4186e-07,-5.574,0.54355
12845,8.8628,4.7273,0,0.00036806,3678,0.00012369,0.010033,0.00011767,-45.234,-0.0003688,-3700.4,0.57503
12846,8.7711,4.6364,0,0.00037031,3700.5,0.00012472,0.0099433,0.00011792,-51.088,-0.00037115,-3725.8,0.56484
12847,8.7711,4.7273,0.05,9.6028e-07,9.5962,7.3738e-07,5.5405,-5.8322e-12,1.0702e-05,-7.3737e-07,-5.5403,0.56445
12848,9.0463,4.7273,0,0.00036297,3627.2,0.00012183,0.0088264,0.00011631,-41.402,-0.00036365,-3647.7,0.59631
12849,8.9546,4.6364,0,0.00036523,3649.8,0.00012284,0.0087109,0.00011661,-46.814,-0.00036601,-3673,0.58599
12850,8.9546,4.7273,0.05,9.5446e-07,9.538,7.3292e-07,5.5069,-5.9342e-12,1.0095e-05,-7.329e-07,-5.5067,0.58561
12851,9.2298,4.7273,0,0.00035789,3576.4,0.00011997,0.0078606,0.00011495,-37.74,-0.00035852,-3595.2,0.61784
12852,9.1381,4.6364,0,0.00036017,3599.2,0.00012097,0.0077348,0.00011528,-42.743,-0.00036088,-3620.4,0.60739
12853,9.1381,4.7273,0.05,9.4868e-07,9.4802,7.2847e-07,5.4735,-5.2067e-12,8.5109e-06,-7.2846e-07,-5.4733,0.60701
12854,9.4133,4.7273,0,0.00035282,3525.8,0.00011813,0.0070881,0.00011356,-34.256,-0.00035339,-3542.8,0.6396
12855,9.3215,4.6364,0,0.00035511,3548.7,0.00011911,0.0069623,0.00011393,-38.881,-0.00035576,-3567.9,0.62903
12856,9.3215,4.7273,0.05,9.4295e-07,9.423,7.2408e-07,5.4405,-5.3525e-12,7.5201e-06,-7.2406e-07,-5.4403,0.62866
12857,9.5968,4.7273,0,0.00034777,3475.3,0.00011629,0.0064739,0.00011217,-30.954,-0.00034828,-3490.6,0.6616
12858,9.505,4.6364,0,0.00035006,3498.2,0.00011726,0.0063523,0.00011257,-35.229,-0.00035065,-3515.7,0.65091
12859,9.505,4.7273,0.05,9.373e-07,9.3665,7.1974e-07,5.4079,-5.499e-12,6.3163e-06,-7.1972e-07,-5.4077,0.65054
12860,9.7802,4.7273,0,0.00034272,3424.8,0.00011447,0.0059876,0.00011077,-27.833,-0.00034318,-3438.7,0.68384
12861,9.6885,4.6364,0,0.00034503,3447.9,0.00011543,0.0058783,0.0001112,-31.785,-0.00034556,-3463.7,0.67303
12862,9.6885,4.7273,0.05,9.3174e-07,9.311,7.1547e-07,5.3758,-5.5537e-12,6.1395e-06,-7.1545e-07,-5.3756,0.67266
12863,9.9637,4.7273,0,0.00033768,3374.5,0.00011267,0.0056134,0.00010935,-24.892,-0.0003381,-3386.9,0.70631
12864,9.872,4.6364,0,0.00034,3397.6,0.00011361,0.0055082,0.00010981,-28.545,-0.00034047,-3411.8,0.69538
12865,9.872,4.7273,0.05,9.2628e-07,9.2564,7.1127e-07,5.3443,-5.6928e-12,6.5133e-06,-7.1126e-07,-5.3441,0.69501
12866,10.147,4.7273,0,0.00033266,3324.3,0.00011087,0.0053379,0.00010793,-22.126,-0.00033303,-3335.3,0.729
12867,10.055,4.6364,0,0.00033498,3347.5,0.0001118,0.0052433,0.00010841,-25.503,-0.00033541,-3360.2,0.71795
12868,10.055,4.7273,0.05,9.2092e-07,9.2028,7.0716e-07,5.3134,-6.6673e-12,5.785e-06,-7.0714e-07,-5.3132,0.7176
12869,10.331,4.7273,0,0.00032764,3274.2,0.00010909,0.0051284,0.00010649,-19.529,-0.00032797,-3283.9,0.75192
12870,10.239,4.6364,0,0.00032997,3297.4,0.00011001,0.0050549,0.000107,-22.652,-0.00033035,-3308.7,0.74076
12871,10.239,4.7273,0.05,9.1567e-07,9.1504,7.0313e-07,5.2831,-4.9255e-12,5.8083e-06,-7.0311e-07,-5.2829,0.7404
12872,10.514,4.7273,0,0.00032264,3224.2,0.00010732,0.004989,0.00010504,-17.095,-0.00032293,-3232.7,0.77506
12873,10.422,4.6364,0,0.00032498,3247.5,0.00010823,0.0049063,0.00010557,-19.983,-0.00032531,-3257.5,0.76378
12874,10.422,4.7273,0.05,9.1053e-07,9.099,6.9918e-07,5.2534,-4.9931e-12,5.4235e-06,-6.9917e-07,-5.2532,0.76344
12875,10.698,4.7273,0,0.00031765,3174.3,0.00010556,0.0049429,0.00010359,-14.816,-0.0003179,-3181.7,0.79842
12876,10.606,4.6364,0,0.00031999,3197.7,0.00010646,0.0048414,0.00010413,-17.487,-0.00032028,-3206.4,0.78703
12877,10.606,4.7273,0.05,9.0549e-07,9.0487,6.9531e-07,5.2244,-5.0565e-12,5.3409e-06,-6.953e-07,-5.2242,0.78668
12878,10.881,4.7273,0,0.00031268,3124.6,0.00010381,0.0049976,0.00010212,-12.684,-0.00031289,-3130.9,0.82199
12879,10.789,4.6364,0,0.00031502,3148,0.00010471,0.0048605,0.00010269,-15.156,-0.00031527,-3155.5,0.81049
12880,10.789,4.7273,0.05,9.0056e-07,8.9994,6.9153e-07,5.1959,-5.0997e-12,4.4545e-06,-6.9151e-07,-5.1957,0.81015
12881,11.065,4.7273,0,0.00030771,3075,0.00010207,0.0051356,0.00010065,-10.692,-0.00030789,-3080.3,0.84577
12882,10.973,4.6364,0,0.00031005,3098.4,0.00010296,0.0049739,0.00010123,-12.979,-0.00031027,-3104.9,0.83416
12883,10.973,4.7273,0.05,8.9574e-07,8.9512,6.8782e-07,5.1681,-6.9574e-12,3.9202e-06,-6.8781e-07,-5.1679,0.83383
12884,11.248,4.7273,0,0.00030276,3025.5,0.00010035,0.0053743,9.9172e-05,-8.8303,-0.00030291,-3029.9,0.86976
12885,11.156,4.6364,0,0.0003051,3048.9,0.00010123,0.0051283,9.9768e-05,-10.947,-0.00030529,-3054.4,0.85804
12886,11.156,4.7273,0.05,8.9102e-07,8.9041,6.842e-07,5.1409,-6.0852e-12,3.8443e-06,-6.8419e-07,-5.1407,0.85771
12887,11.432,4.7273,0,0.00029782,2976.2,9.8633e-05,0.0058176,9.7688e-05,-7.0917,-0.00029794,-2979.7,0.89395
12888,11.34,4.6364,0,0.00030017,2999.6,9.9503e-05,0.0053947,9.8297e-05,-9.0521,-0.00030032,-3004.1,0.88213
12889,11.34,4.7273,0.05,8.8639e-07,8.8578,6.8064e-07,5.1141,-6.1306e-12,4.0251e-06,-6.8063e-07,-5.114,0.8818
12890,11.615,4.7273,0,0.0002929,2927,9.6927e-05,0.0065616,9.6199e-05,-5.468,-0.00029299,-2929.7,0.91834
12891,11.523,4.6364,0,0.00029524,2950.4,9.7791e-05,0.0058771,9.682e-05,-7.2839,-0.00029536,-2954,0.90641
12892,11.523,4.7273,0.05,8.8186e-07,8.8125,6.7716e-07,5.088,-5.2458e-12,3.4499e-06,-6.7715e-07,-5.0878,0.90609
12893,11.799,4.7273,0,0.00028799,2877.9,9.5232e-05,0.0078635,9.4705e-05,-3.9517,-0.00028805,-2879.9,0.94293
12894,11.707,4.6364,0,0.00029033,2901.3,9.6089e-05,0.0065922,9.5338e-05,-5.6342,-0.00029043,-2904.1,0.9309
12895,11.707,4.7273,0.05,8.7742e-07,8.7681,6.7375e-07,5.0624,-4.3657e-12,3.265e-06,-6.7374e-07,-5.0622,0.93059
12896,11.982,4.7273,0,0.00028309,2829,9.3547e-05,0.010589,9.3208e-05,-2.5361,-0.00028314,-2830.2,0.96771
12897,11.89,4.6364,0,0.00028543,2852.4,9.4397e-05,0.0078418,9.3851e-05,-4.0949,-0.0002855,-2854.4,0.95558
12898,11.89,4.7273,0.05,8.7305e-07,8.7245,6.704e-07,5.0372,-5.3057e-12,3.8284e-06,-6.7039e-07,-5.037,0.95527
12899,12.165,4.7273,0,0.00027821,2780.2,9.1872e-05,0.018939,9.1708e-05,-1.2181,-0.00027823,-2780.8,0.99269
12900,12.074,4.6364,0,0.00028055,2803.6,9.2715e-05,0.010372,9.2359e-05,-2.6585,-0.0002806,-2804.9,0.98046
12901,12.074,4.7273,0.05,8.6877e-07,8.6817,6.6711e-07,5.0124,-4.4225e-12,3.1723e-06,-6.671e-07,-5.0123,0.98015
12902,12.349,4.7273,0,0.00027335,2731.6,9.0225e-05,0.163,9.0187e-05,-0.12077,-0.00027335,-2731.6,1.0178
12903,12.257,4.6364,0,0.00027568,2754.9,9.1043e-05,0.017695,9.0865e-05,-1.321,-0.00027571,-2755.6,1.0055
12904,12.257,4.7273,0.05,8.6455e-07,8.6395,6.6387e-07,4.9881,-3.5368e-12,3.1813e-06,-6.6386e-07,-4.988,1.0052
12905,12.532,4.7273,0,0.0002685,2683.2,8.8708e-05,1.2189,8.8544e-05,-0.013643,-0.00026848,-2682.6,1.0432
12906,12.441,4.6364,0,0.00027083,2706.5,8.9393e-05,0.11918,8.9355e-05,-0.16418,-0.00027083,-2706.5,1.0308
12907,12.441,4.7273,0.05,8.604e-07,8.598,6.6068e-07,4.9641,-6.2883e-12,3.2471e-06,-6.6067e-07,-4.964,1.0305
12908,12.716,4.7273,0,0.00026367,2634.9,8.7203e-05,2.3024,8.6896e-05,-0.0059925,-0.00026363,-2633.7,1.0687
12909,12.624,4.6364,0,0.000266,2658.1,8.7875e-05,1.1476,8.7721e-05,-0.013974,-0.00026598,-2657.6,1.0562
12910,12.624,4.7273,0.05,8.5631e-07,8.5571,6.5754e-07,4.9405,-3.5808e-12,1.3849e-06,-6.5753e-07,-4.9404,1.0559
12911,12.899,4.7273,0,0.00025885,2586.7,8.5699e-05,3.3249,8.5256e-05,-0.0033621,-0.0002588,-2585.1,1.0944
12912,12.808,4.6364,0,0.00026118,2610,8.6376e-05,2.2449,8.6076e-05,-0.0056479,-0.00026114,-2608.8,1.0818
12913,12.808,4.7273,0.05,8.5228e-07,8.5169,6.5445e-07,4.9173,-4.5068e-12,2.0244e-07,-6.5444e-07,-4.9172,1.0815
12914,13.083,4.7273,0,0.00025405,2538.8,8.4196e-05,4.2884,8.3625e-05,-0.0020538,-0.00025398,-2536.6,1.1203
12915,12.991,4.6364,0,0.00025637,2562,8.4877e-05,3.2809,8.444e-05,-0.0029208,-0.00025632,-2560.3,1.1076
12916,12.991,4.7273,0.05,8.4832e-07,8.4773,6.5141e-07,4.8945,-5.4337e-12,6.8214e-07,-6.514e-07,-4.8943,1.1073
12917,13.266,4.7273,0,0.00024927,2491,8.2694e-05,5.1977,8.2002e-05,-0.0012507,-0.00024918,-2488.4,1.1463
12918,13.175,4.6364,0,0.00025158,2514.1,8.3379e-05,4.2574,8.2812e-05,-0.0015698,-0.00025151,-2512,1.1335
12919,13.175,4.7273,0.05,8.444e-07,8.4381,6.484e-07,4.8718,-4.5399e-12,1.2802e-06,-6.4839e-07,-4.8717,1.1333
12920,13.45,4.7273,0,0.00024451,2443.4,8.1193e-05,6.0575,8.0387e-05,-0.00070616,-0.0002444,-2440.3,1.1725
12921,13.358,4.6364,0,0.00024681,2466.4,8.1881e-05,5.1793,8.1192e-05,-0.00071745,-0.00024672,-2463.8,1.1597
12922,13.358,4.7273,0.05,8.4053e-07,8.3995,6.4543e-07,4.8495,-4.5535e-12,2.1301e-06,-6.4542e-07,-4.8494,1.1594
12923,13.633,4.7273,0,0.00023976,2395.9,7.9694e-05,6.8727,7.878e-05,-0.00032246,-0.00023964,-2392.5,1.1989
12924,13.542,4.6364,0,0.00024206,2418.9,8.0385e-05,6.0515,7.958e-05,-0.00016763,-0.00024196,-2415.9,1.186
12925,13.542,4.7273,0.05,8.3672e-07,8.3614,6.425e-07,4.8275,-3.6559e-12,2.564e-06,-6.4249e-07,-4.8274,1.1857
12926,13.817,4.7273,0,0.00023503,2348.7,7.8198e-05,7.6479,7.718e-05,-2.1931e-05,-0.0002349,-2344.8,1.2255
12927,13.725,4.6364,0,0.00023732,2371.6,7.8891e-05,6.8789,7.7976e-05,0.00024097,-0.00023721,-2368.1,1.2124
12928,13.725,4.7273,0.05,8.3294e-07,8.3237,6.396e-07,4.8057,-3.6691e-12,3.4773e-06,-6.3959e-07,-4.8056,1.2122
12929,14,4.7273,0,0.00023032,2301.6,7.6705e-05,8.3873,7.5589e-05,0.00020645,-0.00023017,-2297.4,1.2522
12930,13.909,4.6364,0,0.0002326,2324.4,7.74e-05,7.6665,7.6379e-05,0.00056227,-0.00023247,-2320.6,1.239
12931,13.909,4.7273,0.05,8.2921e-07,8.2864,6.3674e-07,4.7842,-3.6771e-12,3.7137e-06,-6.3673e-07,-4.7841,1.2388
12932,14.184,4.7273,0,0.00022562,2254.7,7.5215e-05,9.0953,7.4005e-05,0.00039831,-0.00022547,-2250.1,1.279
12933,14.092,4.6364,0,0.0002279,2277.5,7.5911e-05,8.4184,7.4791e-05,0.00079454,-0.00022776,-2273.2,1.2658
12934,14.092,4.7273,0.05,8.2552e-07,8.2495,6.339e-07,4.7629,-3.6858e-12,3.3429e-06,-6.3389e-07,-4.7628,1.2655
12935,14.367,4.7273,0,0.00022095,2208,7.3729e-05,9.7759,7.2428e-05,0.00058128,-0.00022078,-2203,1.306
12936,14.276,4.6364,0,0.00022322,2230.7,7.4426e-05,9.1394,7.321e-05,0.0010235,-0.00022306,-2226.1,1.2927
12937,14.276,4.7273,0.05,8.2186e-07,8.2129,6.3109e-07,4.7418,-3.6971e-12,3.4229e-06,-6.3108e-07,-4.7417,1.2925
12938,14.551,4.7273,0,0.00021629,2161.4,7.2247e-05,10.433,7.0859e-05,0.0007279,-0.00021611,-2156.2,1.3332
12939,14.459,4.6364,0,0.00021856,2184.1,7.2945e-05,9.8334,7.1636e-05,0.0012244,-0.00021839,-2179.1,1.3198
12940,14.459,4.7273,0.05,8.1824e-07,8.1768,6.2831e-07,4.7209,-3.7044e-12,3.9521e-06,-6.2831e-07,-4.7208,1.3195
12941,14.734,4.7273,0,0.00021165,2115.1,7.077e-05,11.07,6.9296e-05,0.00085282,-0.00021146,-2109.5,1.3605
12942,14.642,4.6364,0,0.00021391,2137.6,7.1467e-05,10.504,7.007e-05,0.0013737,-0.00021373,-2132.4,1.347
12943,14.642,4.7273,0.05,8.1466e-07,8.141,6.2556e-07,4.7002,-2.8012e-12,2.7922e-06,-6.2555e-07,-4.7001,1.3468
12944,14.918,4.7273,0,0.00020703,2068.9,6.9297e-05,11.691,6.7741e-05,0.00098095,-0.00020683,-2063,1.3879
12945,14.826,4.6364,0,0.00020928,2091.4,6.9995e-05,11.156,6.851e-05,0.0015252,-0.00020909,-2085.8,1.3744
12946,14.826,4.7273,0.05,8.111e-07,8.1054,6.2283e-07,4.6797,-2.8123e-12,2.1345e-06,-6.2282e-07,-4.6796,1.3741
12947,15.101,4.7273,0,0.00020243,2022.9,6.783e-05,12.299,6.6193e-05,0.0011142,-0.00020222,-2016.8,1.4155
12948,15.009,4.6364,0,0.00020468,2045.3,6.8527e-05,11.793,6.6958e-05,0.0016781,-0.00020447,-2039.4,1.4019
12949,15.009,4.7273,0.05,8.0758e-07,8.0702,6.2013e-07,4.6594,-3.73e-12,1.4621e-06,-6.2012e-07,-4.6593,1.4016
12950,15.285,4.7273,0,0.00019785,1977.2,6.6368e-05,12.898,6.4651e-05,0.0012387,-0.00019763,-1970.7,1.4432
12951,15.193,4.6364,0,0.00020009,1999.5,6.7065e-05,12.418,6.5412e-05,0.001838,-0.00019987,-1993.2,1.4295
12952,15.193,4.7273,0.05,8.041e-07,8.0354,6.1745e-07,4.6393,-3.7386e-12,1.1361e-06,-6.1744e-07,-4.6392,1.4293
12953,15.468,4.7273,0,0.00019329,1931.6,6.4912e-05,13.491,6.3117e-05,0.001352,-0.00019306,-1924.8,1.471
12954,15.376,4.6364,0,0.00019552,1953.8,6.5608e-05,13.034,6.3874e-05,0.0019709,-0.00019529,-1947.3,1.4573
12955,15.376,4.7273,0.05,8.0065e-07,8.0009,6.148e-07,4.6194,-2.8374e-12,2.9208e-06,-6.1479e-07,-4.6193,1.4571
12956,15.652,4.7273,0,0.00018875,1886.2,6.3462e-05,14.081,6.1588e-05,0.0014697,-0.00018851,-1879.1,1.499
12957,15.56,4.6364,0,0.00019097,1908.3,6.4158e-05,13.647,6.2342e-05,0.0021068,-0.00019073,-1901.5,1.4852
12958,15.56,4.7273,0.05,7.9722e-07,7.9667,6.1217e-07,4.5996,-2.8461e-12,2.2284e-06,-6.1217e-07,-4.5996,1.485
12959,15.835,4.7273,0,0.00018423,1841,6.2019e-05,14.671,6.0067e-05,0.001579,-0.00018397,-1833.6,1.5271
12960,15.743,4.6364,0,0.00018643,1863.1,6.2713e-05,14.257,6.0816e-05,0.0022491,-0.00018619,-1855.9,1.5132
12961,15.743,4.7273,0.05,7.9384e-07,7.9329,6.0957e-07,4.5801,-3.7591e-12,4.21e-07,-6.0956e-07,-4.58,1.513
12962,16.019,4.7273,0,0.00017972,1796,6.0583e-05,15.265,5.8551e-05,0.0016937,-0.00017946,-1788.3,1.5553
12963,15.927,4.6364,0,0.00018192,1818,6.1276e-05,14.87,5.9297e-05,0.0023687,-0.00018167,-1810.5,1.5414
12964,15.927,4.7273,0.05,7.9048e-07,7.8993,6.0699e-07,4.5607,-2.3956e-12,1.2912e-06,-6.0698e-07,-4.5606,1.5412
12965,16.202,4.7273,0,0.00017524,1751.2,5.9154e-05,15.867,5.7042e-05,0.001826,-0.00017497,-1743.2,1.5837
12966,16.11,4.6364,0,0.00017743,1773.1,5.9845e-05,15.489,5.7784e-05,0.00252,-0.00017716,-1765.3,1.5697
12967,16.11,4.7273,0.05,7.8714e-07,7.866,6.0443e-07,4.5415,-1.962e-12,1.4889e-06,-6.0443e-07,-4.5414,1.5695
12968,16.386,4.7273,0,0.00017078,1706.6,5.7732e-05,16.478,5.5539e-05,0.0019489,-0.00017049,-1698.3,1.6121
12969,16.294,4.6364,0,0.00017296,1728.4,5.8422e-05,16.117,5.6278e-05,0.0026773,-0.00017268,-1720.3,1.5981
12970,16.294,4.7273,0.05,7.8385e-07,7.8331,6.019e-07,4.5225,-2.43e-12,2.0634e-06,-6.019e-07,-4.5224,1.5979
12971,16.569,4.7273,0,0.00016634,1662.2,5.6319e-05,17.103,5.4043e-05,0.0020712,-0.00016604,-1653.6,1.6407
12972,16.477,4.6364,0,0.00016851,1684,5.7007e-05,16.757,5.4777e-05,0.0028127,-0.00016822,-1675.5,1.6266
12973,16.477,4.7273,0.05,7.8059e-07,7.8005,5.994e-07,4.5037,-2.4391e-12,1.5116e-06,-5.9939e-07,-4.5036,1.6264
12974,16.753,4.7273,0,0.00016192,1618.1,5.4913e-05,17.745,5.2552e-05,0.0022119,-0.00016161,-1609.1,1.6694
12975,16.661,4.6364,0,0.00016408,1639.7,5.56e-05,17.414,5.3283e-05,0.0029672,-0.00016378,-1630.9,1.6552
12976,16.661,4.7273,0.05,7.7736e-07,7.7682,5.9692e-07,4.485,-1.9994e-12,2.5601e-06,-5.9691e-07,-4.4849,1.655
12977,16.936,4.7273,0,0.00015752,1574.1,5.3516e-05,18.408,5.1067e-05,0.0023675,-0.0001572,-1564.8,1.6982
12978,16.844,4.6364,0,0.00015967,1595.6,5.4201e-05,18.09,5.1794e-05,0.00314,-0.00015936,-1586.5,1.6839
12979,16.844,4.7273,0.05,7.7416e-07,7.7363,5.9446e-07,4.4666,-2.0207e-12,5.3335e-06,-5.9446e-07,-4.4665,1.6838
12980,17.119,4.7273,0,0.00015314,1530.3,5.2128e-05,19.094,4.9587e-05,0.0025268,-0.0001528,-1520.7,1.7271
12981,17.028,4.6364,0,0.00015529,1551.8,5.2811e-05,18.79,5.0311e-05,0.0033283,-0.00015496,-1542.3,1.7128
12982,17.028,4.7273,0.05,7.71e-07,7.7047,5.9204e-07,4.4484,-2.026e-12,4.17e-06,-5.9203e-07,-4.4483,1.7126
12983,17.303,4.7273,0,0.00014878,1486.8,5.0749e-05,19.809,4.8113e-05,0.0026896,-0.00014843,-1476.8,1.7561
12984,17.211,4.6364,0,0.00015092,1508.2,5.1431e-05,19.517,4.8834e-05,0.0035113,-0.00015058,-1498.3,1.7417
12985,17.211,4.7273,0.05,7.6789e-07,7.6736,5.8965e-07,4.4304,-2.0311e-12,3.7127e-06,-5.8964e-07,-4.4303,1.7416
12986,17.486,4.7273,0,0.00014444,1443.4,4.938e-05,20.554,4.6645e-05,0.0028688,-0.00014408,-1433.1,1.7852
12987,17.395,4.6364,0,0.00014657,1464.7,5.006e-05,20.275,4.7362e-05,0.0037075,-0.00014622,-1454.5,1.7708
12988,17.395,4.7273,0.05,7.6481e-07,7.6429,5.8728e-07,4.4126,-2.0493e-12,2.3265e-06,-5.8728e-07,-4.4126,1.7706
12989,17.67,4.7273,0,0.00014013,1400.3,4.8021e-05,21.335,4.5182e-05,0.0030525,-0.00013975,-1389.5,1.8144
12990,17.578,4.6364,0,0.00014225,1421.5,4.8699e-05,21.069,4.5895e-05,0.0039245,-0.00014188,-1410.9,1.7999
12991,17.578,4.7273,0.05,7.6178e-07,7.6126,5.8496e-07,4.3952,-2.0759e-12,4.6425e-06,-5.8495e-07,-4.3951,1.7998
12992,17.853,4.7273,0,0.00013583,1357.4,4.6672e-05,22.156,4.3724e-05,0.0032496,-0.00013544,-1346.2,1.8437
12993,17.762,4.6364,0,0.00013795,1378.5,4.7348e-05,21.902,4.4434e-05,0.0041337,-0.00013756,-1367.4,1.8292
12994,17.762,4.7273,0.05,7.5879e-07,7.5827,5.8266e-07,4.3779,-2.0771e-12,4.1559e-06,-5.8266e-07,-4.3778,1.829
12995,18.037,4.7273,0,0.00013156,1314.7,4.5334e-05,23.02,4.2271e-05,0.0034743,-0.00013116,-1303.1,1.8731
12996,17.945,4.6364,0,0.00013367,1335.7,4.6009e-05,22.78,4.2977e-05,0.0043831,-0.00013326,-1324.2,1.8585
12997,17.945,4.7273,0.05,7.5585e-07,7.5533,5.804e-07,4.3609,-1.6428e-12,5.9724e-06,-5.804e-07,-4.3609,1.8583
12998,18.22,4.7273,0,0.00012731,1272.2,4.4007e-05,23.933,4.0822e-05,0.0037076,-0.00012689,-1260.1,1.9025
12999,18.129,4.6364,0,0.00012941,1293.2,4.468e-05,23.707,4.1526e-05,0.0046496,-0.00012899,-1281.2,1.8879
13000,18.129,4.7273,0.05,7.5297e-07,7.5245,5.7819e-07,4.3443,-1.6607e-12,2.2008e-06,-5.7818e-07,-4.3442,1.8878
13001,18.404,4.7273,0,0.00012308,1230,4.2692e-05,24.899,3.9379e-05,0.0039557,-0.00012264,-1217.4,1.9321
13002,18.312,4.6364,0,0.00012517,1250.9,4.3364e-05,24.687,4.0079e-05,0.0049187,-0.00012474,-1238.3,1.9174
13003,18.312,4.7273,0.05,7.5013e-07,7.4962,5.7601e-07,4.3279,-2.1375e-12,2.7901e-06,-5.7601e-07,-4.3279,1.9173
13004,18.587,4.7273,0,0.00011888,1188,4.1389e-05,25.923,3.7939e-05,0.0042337,-0.00011842,-1174.8,1.9617
13005,18.496,4.6364,0,0.00012096,1208.8,4.206e-05,25.728,3.8636e-05,0.0052186,-0.0001205,-1195.7,1.947
13006,18.496,4.7273,0.05,7.4736e-07,7.4684,5.7388e-07,4.3119,-2.16e-12,3.9618e-07,-5.7388e-07,-4.3119,1.9469
13007,18.771,4.7273,0,0.0001147,1146.2,4.0099e-05,27.011,3.6504e-05,0.0045431,-0.00011421,-1132.4,1.9914
13008,18.679,4.6364,0,0.00011677,1166.9,4.0768e-05,26.833,3.7198e-05,0.0055516,-0.00011629,-1153.2,1.9767
13009,18.679,4.7273,0.05,7.4465e-07,7.4414,5.718e-07,4.2963,-1.7242e-12,4.0625e-06,-5.718e-07,-4.2962,1.9766
13010,18.954,4.7273,0,0.00011054,1104.6,3.8822e-05,28.169,3.5073e-05,0.0048766,-0.00011003,-1090.2,2.0212
13011,18.863,4.6364,0,0.0001126,1125.3,3.9491e-05,28.009,3.5764e-05,0.0059195,-0.0001121,-1111,2.0064
13012,18.863,4.7273,0.05,7.4201e-07,7.415,5.6977e-07,4.2811,-1.714e-12,2.8634e-06,-5.6977e-07,-4.281,2.0063
13013,19.138,4.7273,0,0.0001064,1063.3,3.7559e-05,29.403,3.3646e-05,0.0052376,-0.00010587,-1048.3,2.0511
13014,19.046,4.6364,0,0.00010846,1083.9,3.8227e-05,29.263,3.4333e-05,0.0063066,-0.00010793,-1068.9,2.0363
13015,19.046,4.7273,0.05,7.3945e-07,7.3894,5.678e-07,4.2663,-1.2521e-12,1.9776e-06,-5.678e-07,-4.2662,2.0361
13016,19.321,4.7273,0,0.00010229,1022.2,3.631e-05,30.718,3.2222e-05,0.0056386,-0.00010173,-1006.5,2.081
13017,19.229,4.6364,0,0.00010434,1042.7,3.6978e-05,30.601,3.2906e-05,0.0067361,-0.00010379,-1027.1,2.0662
13018,19.229,4.7273,0.05,7.3696e-07,7.3645,5.659e-07,4.2519,-1.738e-12,3.8022e-07,-5.659e-07,-4.2519,2.066
13019,19.505,4.7273,0,9.8199e-05,981.31,3.5077e-05,32.124,3.0802e-05,0.0060762,-9.7613e-05,-964.86,2.111
13020,19.413,4.6364,0,0.00010025,1001.8,3.5745e-05,32.031,3.1483e-05,0.0072107,-9.9663e-05,-985.37,2.0961
13021,19.413,4.7273,0.05,7.3457e-07,7.3406,5.6406e-07,4.2381,-8.6379e-13,2.9413e-06,-5.6406e-07,-4.2381,2.096
13022,19.688,4.7273,0,9.4135e-05,940.7,3.3859e-05,33.626,2.9385e-05,0.0065638,-9.3518e-05,-923.43,2.1411
13023,19.596,4.6364,0,9.6177e-05,961.1,3.4528e-05,33.561,3.0062e-05,0.0077174,-9.5561e-05,-943.88,2.1262
13024,19.596,4.7273,0.05,7.3227e-07,7.3176,5.6229e-07,4.2249,-8.922e-13,1.4558e-06,-5.6229e-07,-4.2248,2.1261
13025,19.872,4.7273,0,9.0096e-05,900.33,3.2658e-05,35.234,2.797e-05,0.0071174,-8.9444e-05,-882.2,2.1712
13026,19.78,4.6364,0,9.2132e-05,920.68,3.3328e-05,35.198,2.8644e-05,0.0082994,-9.1482e-05,-902.57,2.1563
13027,19.78,4.7273,0.05,7.3007e-07,7.2956,5.606e-07,4.2122,-4.6683e-13,1.3678e-06,-5.606e-07,-4.2121,2.1562
13028,20.055,4.7273,0,8.6082e-05,860.22,3.1475e-05,36.956,2.6557e-05,0.0077298,-8.5393e-05,-841.15,2.2014
13029,19.963,4.6364,0,8.8113e-05,880.52,3.2145e-05,36.954,2.7228e-05,0.0089457,-8.7426e-05,-861.46,2.1864
13030,19.963,4.7273,0.05,7.2798e-07,7.2748,5.59e-07,4.2001,-1.3872e-12,1.4344e-06,-5.59e-07,-4.2001,2.1863
13031,20.239,4.7273,0,8.2094e-05,820.37,3.031e-05,38.802,2.5147e-05,0.0084149,-8.1365e-05,-800.28,2.2317
13032,20.147,4.6364,0,8.4121e-05,840.63,3.0982e-05,38.837,2.5815e-05,0.0096538,-8.3393e-05,-820.53,2.2166
13033,20.147,4.7273,0.05,7.2602e-07,7.2552,5.5749e-07,4.1888,-1.4178e-12,1.8286e-06,-5.5749e-07,-4.1887,2.2165
13034,20.422,4.7273,0,7.8133e-05,780.79,2.9165e-05,40.784,2.3738e-05,0.0091989,-7.7359e-05,-759.59,2.262
13035,20.33,4.6364,0,8.0156e-05,801.01,2.9839e-05,40.859,2.4403e-05,0.010457,-7.9382e-05,-779.79,2.2469
13036,20.33,4.7273,0.05,7.2418e-07,7.2369,5.5609e-07,4.1782,-9.6426e-13,1.4959e-06,-5.5608e-07,-4.1782,2.2468
13037,20.606,4.7273,0,7.4199e-05,741.48,2.804e-05,42.913,2.233e-05,0.010097,-7.3376e-05,-719.09,2.2923
13038,20.514,4.6364,0,7.6219e-05,761.67,2.8717e-05,43.032,2.2992e-05,0.011369,-7.5396e-05,-739.23,2.2772
13039,20.514,4.7273,0.05,7.225e-07,7.22,5.5479e-07,4.1685,-8.1411e-13,-2.4265e-06,-5.5479e-07,-4.1685,2.2771
13040,20.789,4.7273,0,7.0295e-05,702.46,2.6938e-05,45.203,2.0923e-05,0.011122,-6.9417e-05,-678.77,2.3227
13041,20.697,4.6364,0,7.2312e-05,722.62,2.7618e-05,45.37,2.1581e-05,0.012413,-7.1433e-05,-698.86,2.3076
13042,20.697,4.7273,0.05,7.2098e-07,7.2048,5.5362e-07,4.1597,-1.472e-12,-4.1742e-06,-5.5362e-07,-4.1597,2.3075
13043,20.973,4.7273,0,6.6421e-05,663.75,2.5859e-05,47.669,1.9516e-05,0.012304,-6.5481e-05,-638.62,2.3532
13044,20.881,4.6364,0,6.8435e-05,683.88,2.6543e-05,47.888,2.0171e-05,0.013597,-6.7494e-05,-658.67,2.338
13045,20.881,4.7273,0.05,7.1964e-07,7.1914,5.5259e-07,4.152,-7.9917e-13,-4.9326e-06,-5.5259e-07,-4.152,2.3379
13046,21.156,4.7273,0,6.2579e-05,625.35,2.4805e-05,50.329,1.8109e-05,0.013687,-6.157e-05,-598.66,2.3837
13047,21.064,4.6364,0,6.4591e-05,645.46,2.5493e-05,50.603,1.8761e-05,0.014963,-6.3581e-05,-618.67,2.3685
13048,21.064,4.7273,0.05,7.1849e-07,7.18,5.5172e-07,4.1454,-8.2947e-13,-3.2375e-06,-5.5171e-07,-4.1454,2.3684
13049,21.34,4.7273,0,5.8771e-05,587.3,2.3779e-05,53.202,1.6701e-05,0.015305,-5.7684e-05,-558.88,2.4142
13050,21.248,4.6364,0,6.0781e-05,607.39,2.4472e-05,53.534,1.7349e-05,0.016562,-5.9693e-05,-578.85,2.399
13051,21.248,4.7273,0.05,7.1757e-07,7.1708,5.5101e-07,4.1401,-7.3574e-13,-1.8421e-06,-5.5101e-07,-4.14,2.3989
13052,21.523,4.7273,0,5.5e-05,549.62,2.2783e-05,56.312,1.529e-05,0.017224,-5.3825e-05,-519.29,2.4448
13053,21.431,4.6364,0,5.7008e-05,569.69,2.348e-05,56.704,1.5935e-05,0.018422,-5.5831e-05,-539.21,2.4296
13054,21.431,4.7273,0.05,7.169e-07,7.1641,5.5049e-07,4.1362,-7.9647e-13,-4.6092e-06,-5.5049e-07,-4.1362,2.4295
13055,21.706,4.7273,0,5.1269e-05,512.34,2.1819e-05,59.686,1.3878e-05,0.01953,-4.9992e-05,-479.87,2.4754
13056,21.615,4.6364,0,5.3275e-05,532.39,2.2521e-05,60.139,1.4519e-05,0.020636,-5.1997e-05,-499.76,2.4602
13057,21.615,4.7273,0.05,7.1652e-07,7.1603,5.502e-07,4.134,-1.0679e-12,-3.7341e-06,-5.502e-07,-4.134,2.4601
13058,21.89,4.7273,0,4.7584e-05,475.51,2.0891e-05,63.357,1.2461e-05,0.022317,-4.6188e-05,-440.65,2.506
13059,21.798,4.6364,0,4.9587e-05,495.53,2.1597e-05,63.868,1.31e-05,0.023288,-4.8191e-05,-460.49,2.4908
13060,21.798,4.7273,0.05,7.1647e-07,7.1597,5.5016e-07,4.1337,-8.9974e-13,-2.3626e-06,-5.5016e-07,-4.1337,2.4907
13061,22.073,4.7273,0,4.395e-05,439.2,2.0002e-05,67.361,1.1041e-05,0.025732,-4.2415e-05,-401.62,2.5367
13062,21.982,4.6364,0,4.5949e-05,459.17,2.0713e-05,67.925,1.1676e-05,0.026487,-4.4415e-05,-421.41,2.5214
13063,21.982,4.7273,0.05,7.1681e-07,7.1631,5.5042e-07,4.1356,-1.1795e-12,-9.3012e-06,-5.5042e-07,-4.1356,2.5214
13064,22.257,4.7273,0,4.0376e-05,403.48,1.9158e-05,71.744,9.6139e-06,0.029982,-3.8673e-05,-362.78,2.5674
13065,22.165,4.6364,0,4.2367e-05,423.38,1.9871e-05,72.352,1.0246e-05,0.03042,-4.067e-05,-382.53,2.5521
13066,22.165,4.7273,0.05,7.1761e-07,7.1711,5.5103e-07,4.1402,-9.1929e-13,-6.4379e-06,-5.5103e-07,-4.1402,2.552
13067,22.44,4.7273,0,3.6871e-05,368.46,1.8364e-05,76.558,8.1797e-06,0.035374,-3.4967e-05,-324.15,2.5981
13068,22.349,4.6364,0,3.8852e-05,388.25,1.9078e-05,77.194,8.809e-06,0.035323,-3.6958e-05,-343.84,2.5828
13069,22.349,4.7273,0.05,7.1897e-07,7.1847,5.5208e-07,4.1481,-6.609e-13,-1.1151e-06,-5.5208e-07,-4.1481,2.5828
13070,22.624,4.7273,0,3.3451e-05,334.28,1.7626e-05,81.866,6.7363e-06,0.04229,-3.1297e-05,-285.73,2.6289
13071,22.532,4.6364,0,3.5415e-05,353.9,1.8338e-05,82.505,7.3631e-06,0.041588,-3.3282e-05,-305.35,2.6136
13072,22.532,4.7273,0.05,7.2103e-07,7.2053,5.5366e-07,4.16,-7.1768e-13,1.06e-06,-5.5366e-07,-4.16,2.6135
13073,22.807,4.7273,0,3.0134e-05,301.14,1.6952e-05,87.737,5.2813e-06,0.051672,-2.7667e-05,-247.51,2.6597
13074,22.716,4.6364,0,3.2072e-05,320.5,1.7658e-05,88.346,5.9062e-06,0.049622,-2.9642e-05,-267.05,2.6443
13075,22.716,4.7273,0.05,7.2397e-07,7.2347,5.5592e-07,4.177,-3.0487e-13,-1.9197e-06,-5.5592e-07,-4.177,2.6443
13076,22.991,4.7273,0,2.6948e-05,269.3,1.6347e-05,94.248,3.812e-06,0.063851,-2.4078e-05,-209.49,2.6904
13077,22.899,4.6364,0,2.8847e-05,288.27,1.7043e-05,94.783,4.4361e-06,0.060978,-2.6041e-05,-228.93,2.6751
13078,22.899,4.7273,0.05,7.2802e-07,7.2752,5.5903e-07,4.2004,-9.8332e-13,1.6936e-06,-5.5903e-07,-4.2003,2.675
13079,23.174,4.7273,0,2.3929e-05,239.13,1.582e-05,101.48,2.3255e-06,0.08475,-2.053e-05,-171.64,2.7212
13080,23.083,4.6364,0,2.577e-05,257.52,1.6499e-05,101.88,2.9496e-06,0.074927,-2.2478e-05,-190.98,2.7059
13081,23.083,4.7273,0.05,7.3349e-07,7.3298,5.6323e-07,4.2319,-3.724e-15,6.4221e-06,-5.6323e-07,-4.2319,2.7058
13082,23.358,4.7273,0,2.1129e-05,211.15,1.5375e-05,109.49,8.1694e-07,0.10522,-1.7019e-05,-133.91,2.7521
13083,23.266,4.6364,0,2.2883e-05,228.67,1.6032e-05,109.71,1.4445e-06,0.10449,-1.8951e-05,-153.14,2.7367
13084,23.266,4.7273,0.05,7.4072e-07,7.4021,5.6878e-07,4.2736,-1.3479e-13,4.4895e-06,-5.6878e-07,-4.2736,2.7366
13085,23.541,4.7273,0,1.8626e-05,186.13,1.5014e-05,118.35,-7.1196e-07,0.19501,-1.3542e-05,-96.204,2.7829
13086,23.45,4.6364,0,2.0249e-05,202.35,1.5643e-05,118.3,-8.5411e-08,0.1196,-1.5453e-05,-115.35,2.7675
13087,23.45,4.7273,0.05,7.5007e-07,7.4955,5.7596e-07,4.3275,3.3908e-13,4.9184e-06,-5.7596e-07,-4.3275,2.7675
13088,23.725,4.7273,0,1.6536e-05,165.25,1.4742e-05,128.07,-2.279e-06,0.1757,-1.0091e-05,-58.52,2.8137
13089,23.633,4.6364,0,1.796e-05,179.47,1.5332e-05,127.74,-1.6291e-06,0.29579,-1.1984e-05,-77.509,2.7984
13090,23.633,4.7273,0.05,7.6251e-07,7.6198,5.8551e-07,4.3993,4.4502e-13,9.5927e-06,-5.8551e-07,-4.3993,2.7983
13091,23.817,4.6364,0,1.6154e-05,161.43,1.5106e-05,137.89,-3.2261e-06,0.14477,-8.5365e-06,-39.755,2.8292
13092,23.817,4.7273,0.05,7.903e-07,7.8976,6.0685e-07,4.5597,5.7687e-13,6.509e-06,-6.0685e-07,-4.5597,2.8291
13093,23.908,4.7273,0,1.4998e-05,149.87,1.4492e-05,137.55,-3.7596e-06,0.41762,-6.8015e-06,-22.439,2.8446
13094,3.5419,4.5455,0,0.00065282,6523.7,0.00039518,2261.4,9.1795e-05,-18.173,-0.00058405,-5096.2,0.080571
13095,3.4501,4.4545,0,0.00081468,8141.2,0.00053078,3341.1,8.5017e-05,-8.2258,-0.00070452,-5940.5,0.075164
13096,3.4501,4.5455,0.05,3.2709e-05,326.87,2.5117e-05,188.72,3.1206e-11,0.00033769,-2.5117e-05,-188.72,0.074127
13097,3.3584,4.5455,0,0.00057231,5719.2,0.00037731,2399.7,5.4992e-05,-22.104,-0.00049199,-4131.9,0.067882
13098,3.7254,4.5455,0,0.00058898,5885.8,0.00030426,1360.4,0.00012272,-3.6552,-0.00055392,-5087.6,0.093426
13099,3.6336,4.4545,0,0.00068133,6808.6,0.00037054,1816.6,0.00012879,0.17117,-0.00063199,-5716.1,0.087765
13100,3.6336,4.5455,0.05,1.9779e-05,197.66,1.5188e-05,114.12,5.9505e-11,0.000621,-1.5188e-05,-114.12,0.086896
13101,3.9088,4.5455,0,0.00055352,5531.4,0.00024903,809.3,0.0001407,-4.6515,-0.00053532,-5084,0.10653
13102,3.8171,4.4545,0,0.00061427,6138.5,0.00028641,1021.6,0.00014911,-10.065,-0.00059052,-5567.4,0.10062
13103,3.8171,4.5455,0.05,1.1871e-05,118.63,9.1152e-06,68.489,7.3334e-11,0.00076784,-9.1153e-06,-68.489,0.099876
13104,4.0923,4.5455,0,0.00052916,5287.9,0.00021271,459.27,0.000151,-4.3536,-0.00051989,-5045.2,0.11993
13105,4.0006,4.4545,0,0.00057143,5710.3,0.00023466,557.39,0.00015994,-3.987,-0.00055994,-5412.9,0.11378
13106,4.0006,4.5455,0.05,8.3895e-06,83.837,6.442e-06,48.403,8.3575e-11,0.00080642,-6.4421e-06,-48.403,0.11313
13107,4.2758,4.5455,0,0.0005128,5124.5,0.00018955,242.22,0.00015669,-4.6758,-0.00050832,-5001.3,0.13364
13108,4.1841,4.4545,0,0.00054294,5425.6,0.0002026,279.4,0.00016468,-5.5477,-0.00053772,-5283.1,0.12726
13109,4.1841,4.5455,0.05,6.3124e-06,63.081,4.8471e-06,36.42,7.7112e-11,0.00073057,-4.8472e-06,-36.42,0.12668
13110,4.4593,4.5455,0,0.00050129,5009.4,0.00017481,108.81,0.00015946,-6.5516,-0.00049945,-4957.3,0.14766
13111,4.3676,4.4545,0,0.00052345,5230.9,0.00018268,114.71,0.00016636,-7.8597,-0.00052152,-5176.4,0.14108
13112,4.3676,4.5455,0.05,5.0417e-06,50.382,3.8714e-06,29.088,7.4371e-11,0.00065247,-3.8714e-06,-29.088,0.14055
13113,4.6428,4.5455,0,0.00049259,4922.5,0.00016596,32.044,0.00015972,-14.895,-0.00049228,-4913.7,0.16202
13114,4.551,4.4545,0,0.00050925,5088.9,0.00017139,26.746,0.00016485,-22.371,-0.00050915,-5086.6,0.15523
13115,4.551,4.5455,0.05,4.1366e-06,41.338,3.1764e-06,23.866,6.4536e-11,0.00071675,-3.1764e-06,-23.866,0.15475
13116,4.8263,4.5455,0,0.00048543,4850.9,0.00016301,7.3918,0.0001561,-44.486,-0.00048604,-4869.3,0.17669
13117,4.7345,4.4545,0,0.00049822,4978.8,0.00016815,6.2914,0.00015865,-65.086,-0.00049918,-5007.8,0.16972
13118,4.7345,4.5455,0.05,3.4548e-06,34.524,2.6529e-06,19.933,5.8059e-11,0.00054812,-2.6529e-06,-19.933,0.16926
13119,5.0097,4.5455,0,0.0004791,4787.7,0.00016206,3.063,0.00015165,-75.151,-0.00048027,-4823.2,0.19169
13120,4.918,4.4545,0,0.0004891,4887.7,0.00016661,2.8314,0.00015281,-100.81,-0.00049069,-4935.8,0.18454
13121,4.918,4.5455,0.05,2.9209e-06,29.189,2.2429e-06,16.852,4.9456e-11,0.00051023,-2.2429e-06,-16.852,0.1841
13122,5.1932,4.5455,0,0.00047319,4728.6,0.00016104,1.6876,0.00014798,-96.441,-0.00047472,-4775.2,0.20702
13123,5.1015,4.4545,0,0.00048116,4808.3,0.00016501,1.6283,0.00014832,-123.72,-0.00048311,-4868.1,0.19969
13124,5.1015,4.5455,0.05,2.4972e-06,24.954,1.9175e-06,14.407,4.167e-11,0.00041482,-1.9175e-06,-14.408,0.19927
13125,5.3767,4.5455,0,0.00046749,4671.7,0.00015979,1.0497,0.00014497,-110.32,-0.00046925,-4725.3,0.22266
13126,5.285,4.4545,0,0.00047396,4736.4,0.00016326,1.0403,0.00014481,-137.54,-0.00047613,-4803.1,0.21516
13127,5.285,4.5455,0.05,2.1599e-06,21.585,1.6586e-06,12.462,3.0723e-11,0.0003271,-1.6586e-06,-12.462,0.21475
13128,5.5602,4.5455,0,0.0004619,4615.9,0.00015834,0.69646,0.00014242,-118.91,-0.0004638,-4673.8,0.23862
13129,5.4684,4.4545,0,0.00046726,4669.3,0.00016139,0.70348,0.00014197,-145.18,-0.00046954,-4739.9,0.23095
13130,5.4684,4.5455,0.05,1.8926e-06,18.913,1.4533e-06,10.92,3.0443e-11,0.00029765,-1.4533e-06,-10.92,0.23055
13131,5.7437,4.5455,0,0.00045638,4560.7,0.00015673,0.4808,0.00014021,-123.68,-0.00045835,-4621,0.25488
13132,5.6519,4.4545,0,0.00046089,4605.8,0.00015943,0.49247,0.0001396,-148.55,-0.00046323,-4678,0.24706
13133,5.6519,4.5455,0.05,1.6826e-06,16.814,1.292e-06,9.7076,2.0041e-11,0.00026159,-1.292e-06,-9.7076,0.24667
13134,5.9271,4.5455,0,0.0004509,4505.9,0.00015501,0.34117,0.00013824,-125.63,-0.0004529,-4567.2,0.27146
13135,5.8354,4.4545,0,0.00045479,4544.7,0.00015742,0.35299,0.00013756,-148.89,-0.00045713,-4617.1,0.26348
13136,5.8354,4.5455,0.05,1.5192e-06,15.182,1.1666e-06,8.7653,1.1422e-11,0.00022687,-1.1666e-06,-8.7652,0.26309
13137,6.1106,4.5455,0,0.00044546,4451.5,0.00015319,0.24716,0.00013646,-125.46,-0.00044746,-4512.8,0.28834
13138,6.0189,4.4545,0,0.00044887,4485.6,0.00015537,0.25748,0.00013577,-147.04,-0.00045119,-4557.2,0.28021
13139,6.0189,4.5455,0.05,1.3937e-06,13.927,1.0702e-06,8.0409,8.8186e-12,0.00012277,-1.0702e-06,-8.0408,0.27982
13140,6.2941,4.5455,0,0.00044006,4397.5,0.00015132,0.18207,0.00013483,-123.67,-0.00044203,-4458,0.30553
13141,6.2024,4.4545,0,0.00044312,4428.1,0.0001533,0.19046,0.00013416,-143.6,-0.00044538,-4498.1,0.29724
13142,6.2024,4.5455,0.05,1.2981e-06,12.972,9.9679e-07,7.4895,2.4661e-12,0.00012911,-9.9679e-07,-7.4894,0.29686
13143,6.4776,4.5455,0,0.00043469,4343.9,0.00014939,0.13606,0.00013332,-120.64,-0.00043661,-4402.9,0.32301
13144,6.3858,4.4545,0,0.00043749,4371.9,0.00015121,0.14257,0.0001327,-138.99,-0.00043968,-4439.6,0.31457
13145,6.3858,4.5455,0.05,1.2258e-06,12.25,9.4128e-07,7.0725,3.8698e-12,0.00012733,-9.4127e-07,-7.0723,0.31419
13146,6.6611,4.5455,0,0.00042936,4290.6,0.00014744,0.10297,0.00013189,-116.68,-0.00043122,-4347.7,0.34078
13147,6.5693,4.4545,0,0.00043197,4316.7,0.00014912,0.10786,0.00013133,-133.55,-0.00043408,-4381.9,0.3322
13148,6.5693,4.5455,0.05,1.1712e-06,11.704,8.9935e-07,6.7574,-1.1749e-13,4.9213e-05,-8.9935e-07,-6.7573,0.33182
13149,6.8445,4.5455,0,0.00042407,4237.8,0.00014546,0.078846,0.00013054,-112.03,-0.00042586,-4292.6,0.35885
13150,6.7528,4.4545,0,0.00042654,4262.4,0.00014703,0.082405,0.00013005,-127.51,-0.00042856,-4324.7,0.35012
13151,6.7528,4.5455,0.05,1.1298e-06,11.29,8.6754e-07,6.5184,3.7497e-13,4.0503e-05,-8.6753e-07,-6.5182,0.34974
13152,7.028,4.5455,0,0.00041881,4185.2,0.00014347,0.061037,0.00012924,-106.89,-0.00042052,-4237.6,0.3772
13153,6.9363,4.4545,0,0.00042118,4208.9,0.00014495,0.063553,0.00012883,-121.09,-0.00042311,-4268.1,0.36832
13154,6.9363,4.5455,0.05,1.098e-06,10.972,8.4313e-07,6.335,-2.28e-12,3.2902e-05,-8.4312e-07,-6.3348,0.36795
13155,7.2115,4.5455,0,0.00041358,4133,0.00014148,0.047752,0.00012797,-101.42,-0.00041521,-4182.7,0.39584
13156,7.1198,4.4545,0,0.00041589,4156,0.00014288,0.04947,0.00012764,-114.44,-0.00041772,-4212,0.38682
13157,7.1198,4.5455,0.05,1.0732e-06,10.724,8.2407e-07,6.1918,-3.5875e-12,2.705e-05,-8.2406e-07,-6.1916,0.38645
13158,7.395,4.5455,0,0.00040838,4081,0.00013949,0.037749,0.00012674,-95.751,-0.00040993,-4128,0.41475
13159,7.3032,4.4545,0,0.00041065,4103.6,0.00014082,0.038868,0.00012648,-107.7,-0.00041237,-4156.4,0.40559
13160,7.3032,4.5455,0.05,1.0534e-06,10.526,8.0886e-07,6.0775,-5.2074e-12,2.307e-05,-8.0885e-07,-6.0773,0.40522
13161,7.5785,4.5455,0,0.00040321,4029.3,0.0001375,0.030154,0.00012551,-89.995,-0.00040467,-4073.6,0.43394
13162,7.4867,4.4545,0,0.00040545,4051.7,0.00013877,0.030832,0.00012533,-100.95,-0.00040707,-4101.2,0.42464
13163,7.4867,4.5455,0.05,1.0371e-06,10.364,7.9639e-07,5.9838,-2.1762e-12,2.0208e-05,-7.9638e-07,-5.9836,0.42428
13164,7.7619,4.5455,0,0.00039806,3977.9,0.00013551,0.024345,0.0001243,-84.239,-0.00039943,-4019.3,0.45341
13165,7.6702,4.4545,0,0.00040028,4000.1,0.00013674,0.024705,0.00012419,-94.291,-0.0004018,-4046.4,0.44397
13166,7.6702,4.5455,0.05,1.0235e-06,10.228,7.859e-07,5.905,-5.1473e-12,1.3344e-05,-7.8589e-07,-5.9048,0.44361
13167,7.9454,4.5455,0,0.00039293,3926.6,0.00013354,0.019872,0.00012308,-78.553,-0.00039421,-3965.3,0.47314
13168,7.8537,4.4545,0,0.00039515,3948.7,0.00013472,0.020008,0.00012304,-87.779,-0.00039657,-3991.9,0.46357
13169,7.8537,4.5455,0.05,1.0116e-06,10.109,7.7682e-07,5.8368,-3.9771e-12,1.3566e-05,-7.7681e-07,-5.8366,0.46321
13170,8.1289,4.5455,0,0.00038782,3875.5,0.00013158,0.01641,0.00012186,-72.99,-0.00038901,-3911.5,0.49314
13171,8.0372,4.4545,0,0.00039003,3897.6,0.00013273,0.016392,0.00012188,-81.462,-0.00039135,-3937.7,0.48343
13172,8.0372,4.5455,0.05,1.0012e-06,10.005,7.6879e-07,5.7764,-4.4802e-12,1.2683e-05,-7.6878e-07,-5.7763,0.48307
13173,8.3124,4.5455,0,0.00038272,3824.5,0.00012963,0.013717,0.00012063,-67.594,-0.00038382,-3857.9,0.5134
13174,8.2206,4.4545,0,0.00038494,3846.7,0.00013075,0.013597,0.00012071,-75.375,-0.00038617,-3883.9,0.50356
13175,8.2206,4.5455,0.05,9.9173e-07,9.9105,7.6153e-07,5.7219,-4.8522e-12,1.3049e-05,-7.6152e-07,-5.7217,0.5032
13176,8.4959,4.5455,0,0.00037763,3773.7,0.0001277,0.011614,0.00011939,-62.393,-0.00037865,-3804.5,0.53392
13177,8.4041,4.4545,0,0.00037986,3796,0.00012878,0.011431,0.00011953,-69.544,-0.000381,-3830.3,0.52394
13178,8.4041,4.5455,0.05,9.8304e-07,9.8236,7.5486e-07,5.6718,-5.1131e-12,1.0662e-05,-7.5485e-07,-5.6716,0.52359
13179,8.6794,4.5455,0,0.00037255,3723,0.00012578,0.0099678,0.00011813,-57.409,-0.0003735,-3751.3,0.55469
13180,8.5876,4.4545,0,0.0003748,3745.4,0.00012684,0.0097495,0.00011832,-63.984,-0.00037584,-3777,0.54459
13181,8.5876,4.5455,0.05,9.7495e-07,9.7428,7.4865e-07,5.6251,-4.531e-12,9.7516e-06,-7.4864e-07,-5.6249,0.54424
13182,8.8628,4.5455,0,0.00036749,3672.4,0.00012387,0.0086764,0.00011686,-52.657,-0.00036836,-3698.4,0.57571
13183,8.7711,4.4545,0,0.00036974,3694.9,0.00012491,0.0084426,0.0001171,-58.704,-0.00037071,-3723.9,0.56548
13184,8.7711,4.5455,0.05,9.6734e-07,9.6668,7.428e-07,5.5812,-4.8313e-12,9.7304e-06,-7.428e-07,-5.581,0.56514
13185,9.0463,4.5455,0,0.00036244,3621.9,0.00012198,0.0076641,0.00011557,-48.143,-0.00036323,-3645.7,0.59699
13186,8.9546,4.4545,0,0.0003647,3644.5,0.000123,0.0074288,0.00011585,-53.707,-0.00036559,-3671.1,0.58663
13187,8.9546,4.5455,0.05,9.6013e-07,9.5947,7.3726e-07,5.5396,-6.0148e-12,9.5037e-06,-7.3726e-07,-5.5394,0.58629
13188,9.2298,4.5455,0,0.00035739,3571.4,0.00012011,0.0068718,0.00011427,-43.871,-0.00035812,-3593.2,0.6185
13189,9.1381,4.4545,0,0.00035967,3594.2,0.00012111,0.0066434,0.00011459,-48.993,-0.00036048,-3618.4,0.60802
13190,9.1381,4.5455,0.05,9.5325e-07,9.5259,7.3198e-07,5.4999,-5.2391e-12,7.9139e-06,-7.3197e-07,-5.4997,0.60768
13191,9.4133,4.5455,0,0.00035235,3521.1,0.00011825,0.0062535,0.00011294,-39.84,-0.00035301,-3540.9,0.64026
13192,9.3215,4.4545,0,0.00035464,3544,0.00011923,0.0060395,0.0001133,-44.557,-0.00035538,-3566,0.62966
13193,9.3215,4.5455,0.05,9.4666e-07,9.4601,7.2692e-07,5.4619,-3.6336e-12,7.7159e-06,-7.2692e-07,-5.4617,0.62932
13194,9.5968,4.5455,0,0.00034733,3470.9,0.0001164,0.0057762,0.0001116,-36.046,-0.00034792,-3488.7,0.66226
13195,9.505,4.4545,0,0.00034962,3493.8,0.00011737,0.0055776,0.000112,-40.391,-0.00035029,-3513.9,0.65153
13196,9.505,4.5455,0.05,9.4033e-07,9.3969,7.2207e-07,5.4253,-6.3854e-12,5.3489e-06,-7.2205e-07,-5.4252,0.6512
13197,9.7802,4.5455,0,0.00034231,3420.7,0.00011457,0.0054115,0.00011024,-32.482,-0.00034285,-3436.8,0.68449
13198,9.6885,4.4545,0,0.00034462,3443.8,0.00011553,0.0052343,0.00011067,-36.487,-0.00034522,-3461.9,0.67364
13199,9.6885,4.5455,0.05,9.3423e-07,9.3359,7.1738e-07,5.3902,-6.5073e-12,6.9023e-06,-7.1737e-07,-5.39,0.67331
13200,9.9637,4.5455,0,0.0003373,3370.6,0.00011275,0.0051444,0.00010887,-29.141,-0.00033778,-3385.1,0.70695
13201,9.872,4.4545,0,0.00033961,3393.8,0.0001137,0.004978,0.00010933,-32.833,-0.00034016,-3410.1,0.69598
13202,9.872,4.5455,0.05,9.2834e-07,9.277,7.1286e-07,5.3562,-4.7973e-12,6.0877e-06,-7.1285e-07,-5.356,0.69566
13203,10.147,4.5455,0,0.0003323,3320.7,0.00011094,0.0049609,0.00010748,-26.014,-0.00033273,-3333.6,0.72963
13204,10.055,4.4545,0,0.00033462,3343.9,0.00011188,0.0048116,0.00010796,-29.419,-0.00033511,-3358.5,0.71855
13205,10.055,4.5455,0.05,9.2264e-07,9.2201,7.0848e-07,5.3233,-5.7799e-12,5.6426e-06,-7.0847e-07,-5.3231,0.71823
13206,10.331,4.5455,0,0.00032731,3270.8,0.00010915,0.004828,0.00010608,-23.09,-0.00032769,-3282.3,0.75255
13207,10.239,4.4545,0,0.00032964,3294.1,0.00011008,0.0047069,0.00010659,-26.231,-0.00033007,-3307.1,0.74135
13208,10.239,4.5455,0.05,9.1713e-07,9.1649,7.0424e-07,5.2914,-4.0109e-12,5.5405e-06,-7.0424e-07,-5.2913,0.74103
13209,10.514,4.5455,0,0.00032232,3221,0.00010737,0.0047491,0.00010466,-20.358,-0.00032267,-3231.2,0.77568
13210,10.422,4.4545,0,0.00032466,3244.4,0.00010829,0.0046272,0.00010519,-23.258,-0.00032505,-3255.9,0.76437
13211,10.422,4.5455,0.05,9.1177e-07,9.1114,7.0013e-07,5.2606,-4.0785e-12,5.5026e-06,-7.0012e-07,-5.2604,0.76406
13212,10.698,4.5455,0,0.00031735,3171.4,0.00010561,0.0047452,0.00010324,-17.81,-0.00031765,-3180.2,0.79903
13213,10.606,4.4545,0,0.0003197,3194.7,0.00010651,0.0046153,0.00010379,-20.487,-0.00032004,-3204.9,0.7876
13214,10.606,4.5455,0.05,9.0655e-07,9.0593,6.9612e-07,5.2304,-3.2361e-12,4.9176e-06,-6.9612e-07,-5.2303,0.7873
13215,10.881,4.5455,0,0.0003124,3121.8,0.00010385,0.0048194,0.0001018,-15.432,-0.00031265,-3129.5,0.82259
13216,10.789,4.4545,0,0.00031474,3145.2,0.00010475,0.0046697,0.00010237,-17.906,-0.00031504,-3154.1,0.81106
13217,10.789,4.5455,0.05,9.0148e-07,9.0085,6.9222e-07,5.2011,-4.1841e-12,4.5284e-06,-6.9222e-07,-5.201,0.81075
13218,11.065,4.5455,0,0.00030745,3072.4,0.00010211,0.0049466,0.00010035,-13.216,-0.00030767,-3078.9,0.84636
13219,10.973,4.4545,0,0.00030979,3095.8,0.000103,0.0047966,0.00010094,-15.502,-0.00031005,-3103.5,0.83472
13220,10.973,4.5455,0.05,8.9654e-07,8.9592,6.8843e-07,5.1727,-4.2277e-12,3.4922e-06,-6.8843e-07,-5.1725,0.83442
13221,11.248,4.5455,0,0.00030251,3023,0.00010038,0.0051281,9.8896e-05,-11.15,-0.0003027,-3028.6,0.87034
13222,11.156,4.4545,0,0.00030486,3046.5,0.00010126,0.0049356,9.9494e-05,-13.264,-0.00030508,-3053.1,0.85859
13223,11.156,4.5455,0.05,8.9172e-07,8.9111,6.8474e-07,5.1449,-5.182e-12,4.0239e-06,-6.8473e-07,-5.1447,0.8583
13224,11.432,4.5455,0,0.00029759,2973.8,9.8661e-05,0.0054368,9.7433e-05,-9.2248,-0.00029774,-2978.4,0.89452
13225,11.34,4.4545,0,0.00029994,2997.3,9.9533e-05,0.0051427,9.8044e-05,-11.18,-0.00030012,-3002.9,0.88267
13226,11.34,4.5455,0.05,8.8701e-07,8.864,6.8112e-07,5.1177,-5.2101e-12,3.6152e-06,-6.8111e-07,-5.1176,0.88238
13227,11.615,4.5455,0,0.00029268,2924.8,9.6952e-05,0.0059029,9.5962e-05,-7.4301,-0.0002928,-2928.5,0.91891
13228,11.523,4.4545,0,0.00029502,2948.2,9.7816e-05,0.0054954,9.6586e-05,-9.2398,-0.00029518,-2952.8,0.90695
13229,11.523,4.5455,0.05,8.8241e-07,8.818,6.7759e-07,5.0911,-4.3357e-12,3.1198e-06,-6.7758e-07,-5.091,0.90666
13230,11.799,4.5455,0,0.00028778,2875.8,9.5253e-05,0.0066044,9.4486e-05,-5.7569,-0.00028788,-2878.7,0.94349
13231,11.707,4.4545,0,0.00029013,2899.3,9.611e-05,0.0059508,9.512e-05,-7.4327,-0.00029025,-2903,0.93143
13232,11.707,4.5455,0.05,8.7791e-07,8.7731,6.7413e-07,5.0652,-5.267e-12,2.9409e-06,-6.7412e-07,-5.0651,0.93115
13233,11.982,4.5455,0,0.0002829,2827,9.3564e-05,0.007797,9.3005e-05,-4.1964,-0.00028297,-2829.1,0.96826
13234,11.89,4.4545,0,0.00028524,2850.4,9.4415e-05,0.0066526,9.3649e-05,-5.7489,-0.00028534,-2853.3,0.95611
13235,11.89,4.5455,0.05,8.735e-07,8.729,6.7074e-07,5.0397,-4.3931e-12,3.7754e-06,-6.7073e-07,-5.0396,0.95583
13236,12.165,4.5455,0,0.00027803,2778.3,9.1885e-05,0.010138,9.1519e-05,-2.7409,-0.00027807,-2779.7,0.99323
13237,12.074,4.4545,0,0.00028037,2801.8,9.2729e-05,0.0078243,9.2172e-05,-4.1792,-0.00028044,-2803.8,0.98097
13238,12.074,4.5455,0.05,8.6917e-07,8.6857,6.6742e-07,5.0148,-3.509e-12,2.8309e-06,-6.6741e-07,-5.0147,0.9807
13239,12.349,4.5455,0,0.00027317,2729.8,9.0217e-05,0.016756,9.003e-05,-1.3852,-0.00027319,-2730.5,1.0184
13240,12.257,4.4545,0,0.00027551,2753.2,9.1054e-05,0.010089,9.0691e-05,-2.7156,-0.00027556,-2754.6,1.006
13241,12.257,4.5455,0.05,8.6492e-07,8.6432,6.6416e-07,4.9902,-3.5345e-12,3.0222e-06,-6.6415e-07,-4.9901,1.0058
13242,12.532,4.5455,0,0.00026833,2681.5,8.8567e-05,0.098452,8.8529e-05,-0.19264,-0.00026833,-2681.5,1.0437
13243,12.441,4.4545,0,0.00027067,2704.8,8.9389e-05,0.016622,8.9207e-05,-1.3527,-0.00027069,-2705.5,1.0313
13244,12.441,4.5455,0.05,8.6073e-07,8.6014,6.6094e-07,4.9661,-5.3765e-12,3.0569e-06,-6.6094e-07,-4.966,1.031
13245,12.716,4.5455,0,0.00026351,2633.3,8.7051e-05,1.1128,8.6901e-05,-0.013431,-0.00026349,-2632.7,1.0692
13246,12.624,4.4545,0,0.00026584,2656.6,8.7744e-05,0.10881,8.7708e-05,-0.16394,-0.00026584,-2656.6,1.0567
13247,12.624,4.5455,0.05,8.5662e-07,8.5603,6.5778e-07,4.9423,-3.5779e-12,1.3522e-06,-6.5777e-07,-4.9422,1.0564
13248,12.899,4.5455,0,0.0002587,2585.2,8.5557e-05,2.2241,8.526e-05,-0.0049996,-0.00025866,-2584.1,1.0949
13249,12.808,4.4545,0,0.00026103,2608.5,8.6236e-05,1.1564,8.608e-05,-0.011562,-0.00026101,-2607.9,1.0823
13250,12.808,4.5455,0.05,8.5257e-07,8.5198,6.5467e-07,4.919,-4.5038e-12,4.1847e-09,-6.5466e-07,-4.9188,1.082
13251,13.083,4.5455,0,0.00025391,2537.3,8.4063e-05,3.2736,8.3627e-05,-0.0022967,-0.00025385,-2535.7,1.1208
13252,12.991,4.4545,0,0.00025623,2560.5,8.4746e-05,2.2746,8.4442e-05,-0.0040063,-0.00025619,-2559.4,1.1081
13253,12.991,4.5455,0.05,8.4858e-07,8.48,6.5161e-07,4.896,-4.5211e-12,5.5308e-07,-6.516e-07,-4.8959,1.1078
13254,13.266,4.5455,0,0.00024913,2489.6,8.2569e-05,4.2633,8.2001e-05,-0.00093866,-0.00024906,-2487.4,1.1468
13255,13.175,4.4545,0,0.00025145,2512.7,8.3256e-05,3.3305,8.2812e-05,-0.0015146,-0.00025139,-2511.1,1.134
13256,13.175,4.5455,0.05,8.4464e-07,8.4406,6.4858e-07,4.8732,-3.627e-12,1.0095e-06,-6.4858e-07,-4.8731,1.1338
13257,13.45,4.5455,0,0.00024437,2442,8.1076e-05,5.198,8.0385e-05,-0.00010821,-0.00024428,-2439.4,1.173
13258,13.358,4.4545,0,0.00024668,2465.1,8.1766e-05,4.3266,8.1191e-05,-0.00021878,-0.00024661,-2463,1.1601
13259,13.358,4.5455,0.05,8.4076e-07,8.4018,6.456e-07,4.8508,-3.6409e-12,2.0642e-06,-6.4559e-07,-4.8507,1.1599
13260,13.633,4.5455,0,0.00023963,2394.6,7.9585e-05,6.0829,7.8776e-05,0.00044785,-0.00023952,-2391.6,1.1994
13261,13.542,4.4545,0,0.00024193,2417.7,8.0278e-05,5.2679,7.9577e-05,0.00055545,-0.00024184,-2415,1.1864
13262,13.542,4.5455,0.05,8.3693e-07,8.3635,6.4266e-07,4.8287,-3.6536e-12,2.724e-06,-6.4266e-07,-4.8286,1.1862
13263,13.817,4.5455,0,0.0002349,2347.4,7.8096e-05,6.9232,7.7175e-05,0.00086365,-0.00023478,-2343.9,1.2259
13264,13.725,4.4545,0,0.0002372,2370.4,7.8791e-05,6.1599,7.7971e-05,0.0010955,-0.0002371,-2367.3,1.2129
13265,13.725,4.5455,0.05,8.3314e-07,8.3257,6.3975e-07,4.8069,-3.6657e-12,3.5329e-06,-6.3974e-07,-4.8068,1.2126
13266,14,4.5455,0,0.0002302,2300.4,7.6609e-05,7.7237,7.5582e-05,0.0011785,-0.00023006,-2296.5,1.2526
13267,13.909,4.4545,0,0.00023249,2323.3,7.7306e-05,7.0077,7.6374e-05,0.0015065,-0.00023237,-2319.8,1.2395
13268,13.909,4.5455,0.05,8.294e-07,8.2883,6.3688e-07,4.7853,-3.6753e-12,3.7204e-06,-6.3687e-07,-4.7852,1.2392
13269,14.184,4.5455,0,0.00022551,2253.5,7.5126e-05,8.489,7.3996e-05,0.0014397,-0.00022536,-2249.2,1.2795
13270,14.092,4.4545,0,0.00022779,2276.3,7.5824e-05,7.8163,7.4783e-05,0.0018055,-0.00022766,-2272.4,1.2662
13271,14.092,4.5455,0.05,8.2569e-07,8.2513,6.3403e-07,4.7639,-2.7775e-12,3.4525e-06,-6.3403e-07,-4.7638,1.266
13272,14.367,4.5455,0,0.00022083,2206.8,7.3645e-05,9.2238,7.2418e-05,0.0016799,-0.00022068,-2202.2,1.3064
13273,14.276,4.4545,0,0.00022311,2229.6,7.4344e-05,8.5906,7.3201e-05,0.0020884,-0.00022296,-2225.3,1.2931
13274,14.276,4.5455,0.05,8.2202e-07,8.2146,6.3122e-07,4.7427,-3.6957e-12,3.2571e-06,-6.3121e-07,-4.7426,1.2929
13275,14.551,4.5455,0,0.00021618,2160.3,7.2169e-05,9.9323,7.0847e-05,0.0018778,-0.00021601,-2155.3,1.3336
13276,14.459,4.4545,0,0.00021845,2183,7.2868e-05,9.3352,7.1626e-05,0.0023353,-0.00021829,-2178.3,1.3202
13277,14.459,4.5455,0.05,8.184e-07,8.1784,6.2843e-07,4.7218,-2.7923e-12,3.7845e-06,-6.2843e-07,-4.7217,1.32
13278,14.734,4.5455,0,0.00021155,2114,7.0696e-05,10.618,6.9284e-05,0.0020488,-0.00021136,-2108.7,1.3609
13279,14.642,4.4545,0,0.00021381,2136.6,7.1396e-05,10.054,7.0058e-05,0.0025253,-0.00021363,-2131.6,1.3474
13280,14.642,4.5455,0.05,8.1481e-07,8.1425,6.2568e-07,4.7011,-9.8643e-13,2.7205e-06,-6.2567e-07,-4.701,1.3472
13281,14.918,4.5455,0,0.00020693,2067.9,6.9229e-05,11.287,6.7727e-05,0.0022208,-0.00020673,-2062.2,1.3883
13282,14.826,4.4545,0,0.00020918,2090.4,6.9928e-05,10.752,6.8498e-05,0.0027148,-0.000209,-2085,1.3748
13283,14.826,4.5455,0.05,8.1125e-07,8.1069,6.2294e-07,4.6805,-2.8098e-12,1.8108e-06,-6.2293e-07,-4.6805,1.3746
13284,15.101,4.5455,0,0.00020233,2021.9,6.7766e-05,11.94,6.6177e-05,0.0023965,-0.00020213,-2015.9,1.4159
13285,15.009,4.4545,0,0.00020458,2044.4,6.8465e-05,11.433,6.6944e-05,0.0029038,-0.00020438,-2038.6,1.4023
13286,15.009,4.5455,0.05,8.0772e-07,8.0716,6.2023e-07,4.6602,-1.9065e-12,9.7522e-07,-6.2022e-07,-4.6601,1.402
13287,15.285,4.5455,0,0.00019775,1976.2,6.6309e-05,12.584,6.4635e-05,0.0025613,-0.00019754,-1969.9,1.4436
13288,15.193,4.4545,0,0.00019999,1998.5,6.7008e-05,12.101,6.5397e-05,0.0030983,-0.00019978,-1992.5,1.4299
13289,15.193,4.5455,0.05,8.0423e-07,8.0367,6.1755e-07,4.64,-2.827e-12,7.9148e-07,-6.1755e-07,-4.64,1.4297
13290,15.468,4.5455,0,0.0001932,1930.6,6.4858e-05,13.22,6.3099e-05,0.0027134,-0.00019297,-1924,1.4714
13291,15.376,4.4545,0,0.00019543,1952.9,6.5555e-05,12.76,6.3857e-05,0.003266,-0.0001952,-1946.5,1.4577
13292,15.376,4.5455,0.05,8.0077e-07,8.0022,6.149e-07,4.6201,-2.8323e-12,2.3961e-06,-6.1489e-07,-4.62,1.4575
13293,15.652,4.5455,0,0.00018866,1885.3,6.3413e-05,13.853,6.1569e-05,0.0028708,-0.00018842,-1878.3,1.4994
13294,15.56,4.4545,0,0.00019088,1907.5,6.4109e-05,13.414,6.2324e-05,0.003436,-0.00019065,-1900.7,1.4856
13295,15.56,4.5455,0.05,7.9735e-07,7.968,6.1227e-07,4.6004,-1.9343e-12,1.5526e-06,-6.1226e-07,-4.6003,1.4854
13296,15.835,4.5455,0,0.00018414,1840.1,6.1974e-05,14.487,6.0046e-05,0.0030205,-0.00018389,-1832.8,1.5275
13297,15.743,4.4545,0,0.00018635,1862.2,6.2669e-05,14.067,6.0798e-05,0.003613,-0.00018611,-1855.1,1.5136
13298,15.743,4.5455,0.05,7.9396e-07,7.9341,6.0966e-07,4.5808,-1.9357e-12,1.8155e-07,-6.0966e-07,-4.5807,1.5134
13299,16.019,4.5455,0,0.00017964,1795.1,6.0543e-05,15.125,5.853e-05,0.0031738,-0.00017938,-1787.5,1.5557
13300,15.927,4.4545,0,0.00018184,1817.2,6.1236e-05,14.721,5.9277e-05,0.0037664,-0.00018159,-1809.8,1.5417
13301,15.927,4.5455,0.05,7.906e-07,7.9005,6.0708e-07,4.5614,-1.9362e-12,7.1687e-07,-6.0708e-07,-4.5613,1.5415
13302,16.202,4.5455,0,0.00017516,1750.4,5.9118e-05,15.771,5.702e-05,0.0033473,-0.00017488,-1742.4,1.584
13303,16.11,4.4545,0,0.00017735,1772.3,5.981e-05,15.382,5.7763e-05,0.0039532,-0.00017709,-1764.6,1.57
13304,16.11,4.5455,0.05,7.8726e-07,7.8672,6.0452e-07,4.5422,-1.9597e-12,7.3641e-07,-6.0452e-07,-4.5421,1.5698
13305,16.386,4.5455,0,0.0001707,1705.8,5.7701e-05,16.428,5.5516e-05,0.0035142,-0.00017041,-1697.5,1.6125
13306,16.294,4.4545,0,0.00017289,1727.7,5.8392e-05,16.053,5.6256e-05,0.004147,-0.00017261,-1719.6,1.5984
13307,16.294,4.5455,0.05,7.8397e-07,7.8343,6.0199e-07,4.5232,-1.9691e-12,1.7914e-06,-6.0199e-07,-4.5231,1.5982
13308,16.569,4.5455,0,0.00016626,1661.5,5.6293e-05,17.1,5.4017e-05,0.0036788,-0.00016596,-1652.8,1.641
13309,16.477,4.4545,0,0.00016844,1683.2,5.6981e-05,16.738,5.4754e-05,0.0043197,-0.00016815,-1674.8,1.6269
13310,16.477,4.5455,0.05,7.8071e-07,7.8017,5.9949e-07,4.5044,-1.9819e-12,1.1676e-06,-5.9949e-07,-4.5043,1.6267
13311,16.753,4.5455,0,0.00016184,1617.3,5.4892e-05,17.791,5.2525e-05,0.0038623,-0.00016153,-1608.4,1.6697
13312,16.661,4.4545,0,0.00016401,1639,5.5579e-05,17.441,5.3258e-05,0.0045138,-0.00016371,-1630.2,1.6555
13313,16.661,4.5455,0.05,7.7748e-07,7.7694,5.9701e-07,4.4857,-2.001e-12,2.2481e-06,-5.97e-07,-4.4856,1.6553
13314,16.936,4.5455,0,0.00015745,1573.4,5.3501e-05,18.505,5.1039e-05,0.0040648,-0.00015712,-1564.1,1.6985
13315,16.844,4.4545,0,0.00015961,1595,5.4185e-05,18.166,5.1768e-05,0.0047249,-0.00015929,-1585.8,1.6842
13316,16.844,4.5455,0.05,7.7429e-07,7.7375,5.9456e-07,4.4673,-2.0013e-12,4.6666e-06,-5.9455e-07,-4.4672,1.6841
13317,17.119,4.5455,0,0.00015307,1529.7,5.2119e-05,19.246,4.9558e-05,0.0042736,-0.00015274,-1519.9,1.7274
13318,17.028,4.4545,0,0.00015522,1551.2,5.2801e-05,18.916,5.0284e-05,0.0049556,-0.00015489,-1541.6,1.7131
13319,17.028,4.5455,0.05,7.7113e-07,7.706,5.9214e-07,4.4491,-1.5732e-12,4.0733e-06,-5.9213e-07,-4.449,1.7129
13320,17.303,4.5455,0,0.00014872,1486.2,5.0746e-05,20.018,4.8082e-05,0.0044867,-0.00014837,-1476,1.7564
13321,17.211,4.4545,0,0.00015086,1507.6,5.1426e-05,19.697,4.8805e-05,0.0051826,-0.00015051,-1497.6,1.742
13322,17.211,4.5455,0.05,7.6802e-07,7.6749,5.8975e-07,4.4312,-1.5804e-12,3.6776e-06,-5.8975e-07,-4.4311,1.7419
13323,17.486,4.5455,0,0.00014439,1442.9,4.9383e-05,20.825,4.6612e-05,0.0047172,-0.00014402,-1432.3,1.7855
13324,17.395,4.4545,0,0.00014652,1464.2,5.0061e-05,20.513,4.7332e-05,0.0054242,-0.00014616,-1453.8,1.7711
13325,17.395,4.5455,0.05,7.6495e-07,7.6442,5.8739e-07,4.4134,-2.0542e-12,2.2694e-06,-5.8739e-07,-4.4134,1.7709
13326,17.67,4.5455,0,0.00014007,1399.8,4.8031e-05,21.671,4.5147e-05,0.004956,-0.00013969,-1388.8,1.8147
13327,17.578,4.4545,0,0.0001422,1421,4.8707e-05,21.368,4.5864e-05,0.0056875,-0.00014182,-1410.2,1.8002
13328,17.578,4.5455,0.05,7.6193e-07,7.614,5.8507e-07,4.396,-2.0597e-12,3.6968e-06,-5.8506e-07,-4.3959,1.8
13329,17.853,4.5455,0,0.00013579,1356.9,4.669e-05,22.563,4.3688e-05,0.0052136,-0.00013539,-1345.5,1.844
13330,17.762,4.4545,0,0.0001379,1378.1,4.7363e-05,22.267,4.44e-05,0.005947,-0.00013751,-1366.8,1.8294
13331,17.762,4.5455,0.05,7.5895e-07,7.5842,5.8278e-07,4.3788,-2.0732e-12,3.8715e-06,-5.8278e-07,-4.3787,1.8293
13332,18.037,4.5455,0,0.00013152,1314.3,4.536e-05,23.503,4.2233e-05,0.0055007,-0.0001311,-1302.4,1.8733
13333,17.945,4.4545,0,0.00013363,1335.3,4.6031e-05,23.216,4.2942e-05,0.0062502,-0.00013322,-1323.6,1.8588
13334,17.945,4.5455,0.05,7.5601e-07,7.5549,5.8053e-07,4.3619,-1.1772e-12,5.7399e-06,-5.8052e-07,-4.3618,1.8586
13335,18.22,4.5455,0,0.00012728,1271.9,4.4042e-05,24.499,4.0782e-05,0.0057985,-0.00012684,-1259.5,1.9028
13336,18.129,4.4545,0,0.00012937,1292.8,4.4711e-05,24.219,4.1489e-05,0.0065718,-0.00012894,-1280.6,1.8882
13337,18.129,4.5455,0.05,7.5314e-07,7.5262,5.7832e-07,4.3453,-1.6616e-12,1.9059e-06,-5.7831e-07,-4.3452,1.888
13338,18.404,4.5455,0,0.00012306,1229.7,4.2737e-05,25.554,3.9336e-05,0.0061145,-0.0001226,-1216.7,1.9323
13339,18.312,4.4545,0,0.00012514,1250.6,4.3404e-05,25.283,4.004e-05,0.0068989,-0.0001247,-1237.7,1.9177
13340,18.312,4.5455,0.05,7.5032e-07,7.498,5.7615e-07,4.329,-1.6728e-12,2.8545e-06,-5.7615e-07,-4.3289,1.9175
13341,18.587,4.5455,0,0.00011886,1187.8,4.1444e-05,26.676,3.7895e-05,0.0064641,-0.00011838,-1174.2,1.962
13342,18.496,4.4545,0,0.00012094,1208.6,4.2109e-05,26.413,3.8595e-05,0.0072604,-0.00012047,-1195.1,1.9473
13343,18.496,4.5455,0.05,7.4755e-07,7.4704,5.7403e-07,4.313,-1.7075e-12,2.727e-07,-5.7403e-07,-4.313,1.9471
13344,18.771,4.5455,0,0.00011468,1146,4.0166e-05,27.87,3.6457e-05,0.00685,-0.00011418,-1131.9,1.9917
13345,18.679,4.4545,0,0.00011676,1166.8,4.0829e-05,27.617,3.7154e-05,0.0076593,-0.00011626,-1152.7,1.9769
13346,18.679,4.5455,0.05,7.4486e-07,7.4434,5.7196e-07,4.2975,-1.2661e-12,3.7584e-06,-5.7196e-07,-4.2974,1.9768
13347,18.954,4.5455,0,0.00011053,1104.6,3.8901e-05,29.143,3.5023e-05,0.0072654,-0.00011001,-1089.7,2.0215
13348,18.863,4.4545,0,0.0001126,1125.2,3.9563e-05,28.899,3.5718e-05,0.0080966,-0.00011208,-1110.5,2.0067
13349,18.863,4.5455,0.05,7.4223e-07,7.4172,5.6995e-07,4.2824,-1.713e-12,2.2774e-06,-5.6994e-07,-4.2823,2.0065
13350,19.138,4.5455,0,0.00010641,1063.3,3.7652e-05,30.502,3.3593e-05,0.0077145,-0.00010586,-1047.8,2.0513
13351,19.046,4.4545,0,0.00010847,1083.9,3.8312e-05,30.269,3.4284e-05,0.0085572,-0.00010792,-1068.4,2.0365
13352,19.046,4.5455,0.05,7.3969e-07,7.3918,5.6799e-07,4.2677,-8.1622e-13,1.7488e-06,-5.6799e-07,-4.2676,2.0364
13353,19.321,4.5455,0,0.00010231,1022.4,3.6418e-05,31.955,3.2166e-05,0.0082103,-0.00010172,-1006,2.0813
13354,19.229,4.4545,0,0.00010436,1042.8,3.7077e-05,31.734,3.2855e-05,0.0090648,-0.00010378,-1026.6,2.0664
13355,19.229,4.5455,0.05,7.3723e-07,7.3672,5.661e-07,4.2535,-8.2969e-13,-1.3714e-08,-5.661e-07,-4.2534,2.0663
13356,19.505,4.5455,0,9.823e-05,981.62,3.5201e-05,33.51,3.0743e-05,0.008746,-9.7617e-05,-964.43,2.1113
13357,19.413,4.4545,0,0.00010027,1002,3.5859e-05,33.302,3.1428e-05,0.0096222,-9.9666e-05,-984.97,2.0963
13358,19.413,4.5455,0.05,7.3486e-07,7.3435,5.6428e-07,4.2398,-1.7716e-12,3.5367e-06,-5.6428e-07,-4.2398,2.0962
13359,19.688,4.5455,0,9.418e-05,941.15,3.4002e-05,35.176,2.9321e-05,0.0093383,-9.3532e-05,-923.06,2.1413
13360,19.596,4.4545,0,9.6217e-05,961.5,3.4658e-05,34.983,3.0004e-05,0.010219,-9.5574e-05,-943.53,2.1264
13361,19.596,4.5455,0.05,7.3259e-07,7.3208,5.6254e-07,4.2267,-1.3437e-12,1.3946e-06,-5.6253e-07,-4.2267,2.1263
13362,19.872,4.5455,0,9.0156e-05,900.93,3.2821e-05,36.962,2.7903e-05,0.010003,-8.947e-05,-881.88,2.1714
13363,19.78,4.4545,0,9.2186e-05,921.23,3.3476e-05,36.785,2.8582e-05,0.010894,-9.1505e-05,-902.28,2.1565
13364,19.78,4.5455,0.05,7.3042e-07,7.2991,5.6087e-07,4.2142,-9.3102e-13,1.5234e-06,-5.6087e-07,-4.2141,2.1564
13365,20.055,4.5455,0,8.6159e-05,860.99,3.1659e-05,38.879,2.6486e-05,0.010735,-8.5431e-05,-840.89,2.2016
13366,19.963,4.4545,0,8.8183e-05,881.22,3.2314e-05,38.72,2.7162e-05,0.011639,-8.746e-05,-861.22,2.1866
13367,19.963,4.5455,0.05,7.2837e-07,7.2787,5.593e-07,4.2024,-9.4811e-13,1.1746e-06,-5.593e-07,-4.2023,2.1865
13368,20.239,4.5455,0,8.2189e-05,821.33,3.0517e-05,40.938,2.507e-05,0.011549,-8.1416e-05,-800.09,2.2319
13369,20.147,4.4545,0,8.4208e-05,841.5,3.1173e-05,40.8,2.5744e-05,0.012454,-8.344e-05,-820.35,2.2168
13370,20.147,4.5455,0.05,7.2645e-07,7.2595,5.5783e-07,4.1913,-1.1997e-12,1.4452e-06,-5.5783e-07,-4.1913,2.2167
13371,20.422,4.5455,0,7.8249e-05,781.95,2.9398e-05,43.152,2.3656e-05,0.012467,-7.7425e-05,-759.47,2.2622
13372,20.33,4.4545,0,8.0262e-05,802.07,3.0053e-05,43.036,2.4327e-05,0.013372,-7.9443e-05,-779.68,2.2471
13373,20.33,4.5455,0.05,7.2468e-07,7.2418,5.5646e-07,4.181,-1.1987e-12,1.4217e-06,-5.5646e-07,-4.181,2.247
13374,20.606,4.5455,0,7.4338e-05,742.87,2.8301e-05,45.535,2.2243e-05,0.01351,-7.3459e-05,-719.05,2.2925
13375,20.514,4.4545,0,7.6347e-05,762.94,2.8957e-05,45.443,2.2911e-05,0.014403,-7.5472e-05,-739.2,2.2774
13376,20.514,4.5455,0.05,7.2305e-07,7.2255,5.5522e-07,4.1717,-1.255e-12,-3.1436e-06,-5.5521e-07,-4.1717,2.2773
13377,20.789,4.5455,0,7.0459e-05,704.1,2.7229e-05,48.101,2.0829e-05,0.014695,-6.9517e-05,-678.81,2.3229
13378,20.697,4.4545,0,7.2462e-05,724.12,2.7886e-05,48.035,2.1495e-05,0.015576,-7.1525e-05,-698.9,2.3078
13379,20.697,4.5455,0.05,7.2161e-07,7.2111,5.541e-07,4.1633,-1.0199e-12,-5.3641e-06,-5.541e-07,-4.1633,2.3077
13380,20.973,4.5455,0,6.6612e-05,665.66,2.6184e-05,50.869,1.9415e-05,0.016045,-6.5601e-05,-638.76,2.3534
13381,20.881,4.4545,0,6.8611e-05,685.64,2.6841e-05,50.83,2.0079e-05,0.016898,-6.7605e-05,-658.8,2.3382
13382,20.881,4.5455,0.05,7.2035e-07,7.1986,5.5314e-07,4.1561,-5.8844e-13,-6.1858e-06,-5.5314e-07,-4.1561,2.3381
13383,21.156,4.5455,0,6.28e-05,627.57,2.5166e-05,53.856,1.8001e-05,0.017605,-6.171e-05,-598.9,2.3838
13384,21.064,4.4545,0,6.4794e-05,647.5,2.5825e-05,53.845,1.8661e-05,0.018411,-6.371e-05,-618.89,2.3687
13385,21.064,4.5455,0.05,7.1931e-07,7.1882,5.5234e-07,4.1501,-1.0526e-12,-3.1343e-06,-5.5234e-07,-4.1501,2.3686
13386,21.34,4.5455,0,5.9025e-05,589.84,2.4179e-05,57.085,1.6584e-05,0.019416,-5.7846e-05,-559.22,2.4144
13387,21.248,4.4545,0,6.1015e-05,609.73,2.4839e-05,57.102,1.7242e-05,0.020162,-5.9842e-05,-579.16,2.3992
13388,21.248,4.5455,0.05,7.1851e-07,7.1802,5.5173e-07,4.1455,-1.0277e-12,-2.2549e-06,-5.5173e-07,-4.1455,2.3991
13389,21.523,4.5455,0,5.529e-05,552.52,2.3224e-05,60.58,1.5164e-05,0.021538,-5.401e-05,-519.73,2.4449
13390,21.431,4.4545,0,5.7275e-05,572.36,2.3886e-05,60.625,1.582e-05,0.022185,-5.6002e-05,-539.62,2.4297
13391,21.431,4.5455,0.05,7.1799e-07,7.1749,5.5133e-07,4.1425,-7.9298e-13,-4.4773e-06,-5.5133e-07,-4.1424,2.4296
13392,21.706,4.5455,0,5.1599e-05,515.64,2.2305e-05,64.37,1.3742e-05,0.024058,-5.0202e-05,-480.42,2.4755
13393,21.615,4.4545,0,5.3578e-05,535.42,2.2968e-05,64.439,1.4395e-05,0.024571,-5.219e-05,-500.27,2.4603
13394,21.615,4.5455,0.05,7.1778e-07,7.1728,5.5116e-07,4.1412,-6.6805e-13,-4.7092e-06,-5.5116e-07,-4.1412,2.4602
13395,21.89,4.5455,0,4.7957e-05,479.24,2.1425e-05,68.485,1.2314e-05,0.027071,-4.6423e-05,-441.31,2.5062
13396,21.798,4.4545,0,4.9929e-05,498.95,2.2088e-05,68.573,1.2965e-05,0.027402,-4.8408e-05,-461.11,2.4909
13397,21.798,4.5455,0.05,7.1793e-07,7.1743,5.5128e-07,4.1421,-9.1571e-13,-3.4128e-06,-5.5128e-07,-4.1421,2.4908
13398,22.073,4.5455,0,4.437e-05,443.4,2.0588e-05,72.964,1.0881e-05,0.030722,-4.2676e-05,-402.38,2.5368
13399,21.982,4.4545,0,4.6333e-05,463.01,2.125e-05,73.063,1.153e-05,0.030787,-4.4656e-05,-422.13,2.5216
13400,21.982,4.5455,0.05,7.185e-07,7.18,5.5172e-07,4.1454,-7.1585e-13,-8.7435e-06,-5.5172e-07,-4.1454,2.5215
13401,22.257,4.5455,0,4.0846e-05,408.18,1.9797e-05,77.849,9.4411e-06,0.03522,-3.8961e-05,-363.64,2.5675
13402,22.165,4.4545,0,4.2797e-05,427.68,2.0457e-05,77.945,1.0088e-05,0.034915,-4.0935e-05,-383.33,2.5522
13403,22.165,4.5455,0.05,7.1957e-07,7.1907,5.5254e-07,4.1516,-9.0858e-13,-6.3545e-06,-5.5254e-07,-4.1516,2.5522
13404,22.44,4.5455,0,3.7396e-05,373.7,1.9058e-05,83.185,7.9923e-06,0.040868,-3.5279e-05,-325.08,2.5983
13405,22.349,4.4545,0,3.933e-05,393.03,1.9714e-05,83.261,8.6381e-06,0.040018,-3.7246e-05,-344.72,2.583
13406,22.349,4.5455,0.05,7.2124e-07,7.2074,5.5382e-07,4.1612,-6.4532e-13,-4.9418e-06,-5.5382e-07,-4.1612,2.5829
13407,22.624,4.5455,0,3.4033e-05,340.09,1.8375e-05,89.027,6.5329e-06,0.048058,-3.1632e-05,-286.71,2.629
13408,22.532,4.4545,0,3.5945e-05,359.2,1.9025e-05,89.058,7.1779e-06,0.046498,-3.3591e-05,-306.28,2.6137
13409,22.532,4.5455,0.05,7.2363e-07,7.2313,5.5566e-07,4.175,-9.3693e-13,1.8319e-06,-5.5566e-07,-4.175,2.6136
13410,22.807,4.5455,0,3.0776e-05,307.55,1.7754e-05,95.43,5.0608e-06,0.057747,-2.8021e-05,-248.51,2.6598
13411,22.716,4.4545,0,3.2656e-05,326.33,1.8393e-05,95.385,5.7057e-06,0.054766,-2.997e-05,-268,2.6444
13412,22.716,4.5455,0.05,7.269e-07,7.264,5.5817e-07,4.1939,-3.5096e-13,-9.0621e-07,-5.5817e-07,-4.1939,2.6444
13413,22.991,4.5455,0,2.7651e-05,276.32,1.7199e-05,102.45,3.5735e-06,0.070294,-2.4445e-05,-210.45,2.6906
13414,22.899,4.4545,0,2.9486e-05,294.65,1.7825e-05,102.29,4.2193e-06,0.066401,-2.6382e-05,-229.86,2.6752
13415,22.899,4.5455,0.05,7.3126e-07,7.3075,5.6152e-07,4.219,-7.9447e-13,2.0775e-06,-5.6151e-07,-4.219,2.6751
13416,23.174,4.5455,0,2.4693e-05,246.76,1.6715e-05,110.14,2.0683e-06,0.091707,-2.0902e-05,-172.5,2.7214
13417,23.083,4.4545,0,2.6463e-05,264.45,1.7322e-05,109.83,2.716e-06,0.080708,-2.2825e-05,-191.83,2.706
13418,23.083,4.5455,0.05,7.3691e-07,7.364,5.6586e-07,4.2516,-5.0259e-13,4.1841e-06,-5.6586e-07,-4.2516,2.7059
13419,23.358,4.5455,0,2.1953e-05,219.37,1.6303e-05,118.54,5.414e-07,0.1129,-1.7387e-05,-134.6,2.7522
13420,23.266,4.4545,0,2.3631e-05,236.14,1.6888e-05,118.03,1.1941e-06,0.11085,-1.9297e-05,-153.85,2.7368
13421,23.266,4.5455,0.05,7.4411e-07,7.436,5.7138e-07,4.2932,1.2154e-13,2.6582e-06,-5.7138e-07,-4.2932,2.7367
13422,23.541,4.5455,0,1.9503e-05,194.9,1.5964e-05,127.7,-1.0047e-06,0.20448,-1.3896e-05,-96.656,2.783
13423,23.45,4.4545,0,2.1047e-05,210.33,1.6522e-05,126.92,-3.5211e-07,0.12672,-1.579e-05,-115.87,2.7676
13424,23.45,4.5455,0.05,7.5306e-07,7.5254,5.7825e-07,4.3448,1.0448e-13,4.2848e-06,-5.7825e-07,-4.3448,2.7676
13425,23.725,4.5455,0,1.7456e-05,174.44,1.5698e-05,137.57,-2.5862e-06,0.18969,-1.0422e-05,-58.684,2.8138
13426,23.633,4.4545,0,1.8802e-05,187.89,1.6224e-05,136.56,-1.9102e-06,0.30559,-1.2303e-05,-77.786,2.7985
13427,23.633,4.5455,0.05,7.6444e-07,7.6391,5.8699e-07,4.4104,4.2557e-13,8.9651e-06,-5.8699e-07,-4.4104,2.7984
13428,23.817,4.4545,0,1.7024e-05,170.12,1.5995e-05,146.78,-3.518e-06,0.1625,-8.8305e-06,-39.754,2.8293
13429,23.817,4.5455,0.05,7.883e-07,7.8775,6.0531e-07,4.5481,2.9174e-13,3.9652e-06,-6.0531e-07,-4.5481,2.8292
13430,23.908,4.5455,0,1.5957e-05,159.46,1.5459e-05,147.22,-4.0785e-06,0.4232,-7.1201e-06,-22.43,2.8447
13431,3.5419,4.3636,0,0.00082019,8196.2,0.00049054,2779.1,0.00012198,9.8772,-0.00073684,-6443,0.082293
13432,3.4501,4.2727,0,0.0010757,10749,0.00067442,4007,0.0001289,-91.731,-0.00094871,-8188.5,0.077045
13433,3.4501,4.3636,0.05,4.9809e-05,497.74,3.8247e-05,287.37,8.0067e-11,0.00075726,-3.8247e-05,-287.37,0.076031
13434,3.3584,4.3636,0,0.00073702,7365.2,0.00048082,3084.7,8.2644e-05,93.014,-0.00063586,-5305.5,0.069974
13435,3.7254,4.3636,0,0.00069879,6983.1,0.00034725,1436.9,0.00015518,-6.2257,-0.00066317,-6155,0.094862
13436,3.6336,4.2727,0,0.00081797,8174.1,0.00041717,1827.7,0.00017503,8.3568,-0.0007714,-7102.8,0.089289
13437,3.6336,4.3636,0.05,1.9868e-05,198.54,1.5256e-05,114.63,1.1552e-10,0.0010857,-1.5256e-05,-114.63,0.088468
13438,3.9088,4.3636,0,0.0006282,6277.6,0.00026909,747.5,0.00016837,-9.316,-0.00061221,-5874.2,0.10776
13439,3.8171,4.2727,0,0.00069914,6986.6,0.00030307,875.04,0.00018489,-12.963,-0.00068023,-6513.1,0.10189
13440,3.8171,4.3636,0.05,1.2388e-05,123.79,9.5124e-06,71.473,1.264e-10,0.0012,-9.5125e-06,-71.473,0.1012
13441,4.0923,4.3636,0,0.00058305,5826.4,0.00022283,364.59,0.00017363,-5.1271,-0.00057605,-5637.9,0.121
13442,4.0006,4.2727,0,0.00063176,6313.2,0.00024287,412.66,0.00018727,-5.1221,-0.00062379,-6099.1,0.11486
13443,4.0006,4.3636,0.05,8.855e-06,88.488,6.7995e-06,51.089,1.0838e-10,0.0010053,-6.7995e-06,-51.089,0.11427
13444,4.2758,4.3636,0,0.00055236,5519.7,0.00019469,144.08,0.00017436,-8.6576,-0.00054989,-5450.4,0.13459
13445,4.1841,4.2727,0,0.00058717,5867.7,0.00020691,151.99,0.00018534,-10.049,-0.00058459,-5795,0.12821
13446,4.1841,4.3636,0.05,6.8368e-06,68.321,5.2498e-06,39.445,7.5045e-11,0.00081113,-5.2498e-06,-39.445,0.12769
13447,4.4593,4.3636,0,0.0005307,5303.4,0.00017893,30.204,0.00017147,-25.874,-0.00053061,-5301,0.14854
13448,4.3676,4.2727,0,0.0005564,5560.1,0.00018756,25.966,0.0001793,-36.107,-0.00055654,-5564.9,0.14194
13449,4.3676,4.3636,0.05,5.5723e-06,55.685,4.2788e-06,32.15,7.058e-11,0.0006631,-4.2789e-06,-32.15,0.14146
13450,4.6428,4.3636,0,0.00051448,5141.3,0.00017431,6.5027,0.00016269,-80.809,-0.00051569,-5177.9,0.16283
13451,4.551,4.2727,0,0.00053385,5334.8,0.00018188,5.9093,0.00016699,-105.97,-0.00053546,-5383.9,0.15602
13452,4.551,4.3636,0.05,4.6247e-06,46.215,3.5512e-06,26.682,5.0355e-11,0.00055892,-3.5512e-06,-26.682,0.15558
13453,4.8263,4.3636,0,0.00050168,5013.3,0.00017191,2.931,0.00015499,-124.19,-0.00050362,-5072.7,0.17746
13454,4.7345,4.2727,0,0.00051654,5161.8,0.00017832,2.8009,0.00015728,-155.27,-0.00051895,-5236.2,0.17046
13455,4.7345,4.3636,0.05,3.893e-06,38.903,2.9893e-06,22.461,4.0058e-11,0.00047003,-2.9894e-06,-22.461,0.17005
13456,5.0097,4.3636,0,0.00049105,4907.1,0.00016959,1.6954,0.00014932,-150.57,-0.00049341,-4979.8,0.19243
13457,4.918,4.2727,0,0.00050264,5022.9,0.00017503,1.6563,0.00015034,-183.83,-0.00050548,-5111.4,0.18524
13458,4.918,4.3636,0.05,3.3131e-06,33.108,2.544e-06,19.115,5.7197e-11,0.00039491,-2.544e-06,-19.115,0.18485
13459,5.1932,4.3636,0,0.00048188,4815.5,0.00016723,1.0929,0.00014507,-165.42,-0.00048446,-4895.5,0.20772
13460,5.1015,4.2727,0,0.00049105,4907.1,0.00017188,1.086,0.00014528,-198.81,-0.00049411,-5002.9,0.20036
13461,5.1015,4.3636,0.05,2.8473e-06,28.453,2.1864e-06,16.428,3.2837e-11,0.00037176,-2.1864e-06,-16.428,0.19999
13462,5.3767,4.3636,0,0.0004737,4733.8,0.00016486,0.74493,0.00014178,-172.71,-0.00047639,-4817.4,0.22335
13463,5.285,4.2727,0,0.00048107,4807.4,0.00016886,0.74909,0.00014147,-205.04,-0.00048422,-4906.2,0.21581
13464,5.285,4.3636,0.05,2.471e-06,24.693,1.8974e-06,14.257,2.662e-11,0.00025467,-1.8974e-06,-14.256,0.21545
13465,5.5602,4.3636,0,0.00046624,4659.2,0.00016249,0.52518,0.00013913,-174.97,-0.00046896,-4743.9,0.23929
13466,5.4684,4.2727,0,0.00047226,4719.3,0.00016596,0.53322,0.00013853,-205.6,-0.00047541,-4818.5,0.23159
13467,5.4684,4.3636,0.05,2.1668e-06,21.653,1.6639e-06,12.502,2.4058e-11,0.00019229,-1.6639e-06,-12.502,0.23124
13468,5.7437,4.3636,0,0.0004593,4589.8,0.00016013,0.37849,0.00013694,-173.82,-0.000462,-4674.1,0.25555
13469,5.6519,4.2727,0,0.00046431,4639.9,0.00016317,0.38704,0.00013618,-202.44,-0.00046741,-4737.6,0.24769
13470,5.6519,4.3636,0.05,1.9218e-06,19.204,1.4757e-06,11.088,1.2253e-11,0.00024951,-1.4757e-06,-11.088,0.24734
13471,5.9271,4.3636,0,0.00045276,4524.5,0.00015779,0.27711,0.00013509,-170.32,-0.00045541,-4607.1,0.27212
13472,5.8354,4.2727,0,0.00045701,4566.9,0.00016048,0.28484,0.00013425,-196.8,-0.00046003,-4662,0.2641
13473,5.8354,4.3636,0.05,1.7253e-06,17.242,1.3248e-06,9.9544,1.0473e-11,0.00015419,-1.3248e-06,-9.9543,0.26376
13474,6.1106,4.3636,0,0.00044653,4462.3,0.00015548,0.20537,0.00013347,-165.18,-0.00044911,-4542.5,0.289
13475,6.0189,4.2727,0,0.00045021,4499,0.00015788,0.21177,0.00013262,-189.54,-0.00045313,-4590.6,0.28082
13476,6.0189,4.3636,0.05,1.5689e-06,15.679,1.2048e-06,9.0521,6.1833e-12,8.0251e-05,-1.2048e-06,-9.052,0.28048
13477,6.2941,4.3636,0,0.00044056,4402.5,0.0001532,0.15375,0.00013203,-158.92,-0.00044304,-4479.7,0.30618
13478,6.2024,4.2727,0,0.00044381,4435,0.00015535,0.15877,0.00013121,-181.22,-0.00044661,-4522.7,0.29785
13479,6.2024,4.3636,0.05,1.4452e-06,14.442,1.1097e-06,8.3381,5.2409e-12,0.00011252,-1.1097e-06,-8.338,0.29751
13480,6.4776,4.3636,0,0.00043477,4344.7,0.00015094,0.11613,0.00013071,-151.89,-0.00043716,-4418.6,0.32366
13481,6.3858,4.2727,0,0.00043771,4374.1,0.0001529,0.11989,0.00012996,-172.25,-0.00044038,-4457.6,0.31518
13482,6.3858,4.3636,0.05,1.3477e-06,13.468,1.0349e-06,7.7759,-1.7555e-13,7.2548e-05,-1.0349e-06,-7.7757,0.31484
13483,6.6611,4.3636,0,0.00042915,4288.6,0.00014872,0.088441,0.00012949,-144.37,-0.00043142,-4358.9,0.34143
13484,6.5693,4.2727,0,0.00043186,4315.6,0.00015051,0.091138,0.00012882,-162.93,-0.0004344,-4394.7,0.3328
13485,6.5693,4.3636,0.05,1.2712e-06,12.703,9.7611e-07,7.3341,3.1296e-13,4.7494e-05,-9.761e-07,-7.334,0.33247
13486,6.8445,4.3636,0,0.00042366,4233.6,0.00014652,0.067892,0.00012834,-136.56,-0.00042581,-4300.2,0.3595
13487,6.7528,4.2727,0,0.00042619,4259,0.00014818,0.069734,0.00012775,-153.47,-0.0004286,-4333.6,0.35072
13488,6.7528,4.3636,0.05,1.211e-06,12.102,9.299e-07,6.9869,-2.4498e-12,3.7604e-05,-9.2989e-07,-6.9868,0.35039
13489,7.028,4.3636,0,0.00041826,4179.8,0.00014435,0.052532,0.00012723,-128.63,-0.0004203,-4242.6,0.37785
13490,6.9363,4.2727,0,0.00042068,4203.9,0.0001459,0.05371,0.00012673,-144.02,-0.00042295,-4274.1,0.36893
13491,6.9363,4.3636,0.05,1.1635e-06,11.627,8.9342e-07,6.7129,-3.6722e-13,3.1445e-05,-8.9341e-07,-6.7127,0.3686
13492,7.2115,4.3636,0,0.00041296,4126.7,0.00014221,0.040981,0.00012614,-120.71,-0.00041488,-4185.7,0.39648
13493,7.1198,4.2727,0,0.00041529,4150.1,0.00014367,0.041658,0.00012573,-134.72,-0.00041742,-4215.8,0.38742
13494,7.1198,4.3636,0.05,1.1257e-06,11.249,8.6441e-07,6.4949,-1.3572e-12,2.7857e-05,-8.644e-07,-6.4947,0.38709
13495,7.395,4.3636,0,0.00040771,4074.3,0.0001401,0.032245,0.00012507,-112.89,-0.00040951,-4129.6,0.41539
13496,7.3032,4.2727,0,0.00041,4097.1,0.00014148,0.032554,0.00012475,-125.64,-0.00041199,-4158.5,0.40619
13497,7.3032,4.3636,0.05,1.0953e-06,10.946,8.4108e-07,6.3195,-4.9729e-12,1.2297e-05,-8.4107e-07,-6.3195,0.40586
13498,7.5785,4.3636,0,0.00040252,4022.4,0.00013801,0.025608,0.000124,-105.24,-0.00040421,-4074,0.43458
13499,7.4867,4.2727,0,0.00040477,4044.9,0.00013932,0.025655,0.00012377,-116.85,-0.00040663,-4102,0.42524
13500,7.4867,4.3636,0.05,1.0706e-06,10.698,8.2206e-07,6.1767,-2.0233e-12,1.742e-05,-8.2205e-07,-6.1765,0.42491
13501,7.7619,4.3636,0,0.00039737,3970.9,0.00013595,0.020543,0.00012293,-97.824,-0.00039894,-4018.9,0.45404
13502,7.6702,4.2727,0,0.0003996,3993.2,0.0001372,0.020411,0.00012277,-108.41,-0.00040133,-4046.3,0.44456
13503,7.6702,4.3636,0.05,1.05e-06,10.493,8.0631e-07,6.0583,-3.2917e-12,1.5526e-05,-8.063e-07,-6.0582,0.44424
13504,7.9454,4.3636,0,0.00039225,3919.8,0.00013391,0.016666,0.00012184,-90.681,-0.00039371,-3964.3,0.47377
13505,7.8537,4.2727,0,0.00039447,3942,0.00013512,0.016415,0.00012176,-100.34,-0.00039608,-3991.2,0.46415
13506,7.8537,4.3636,0.05,1.0328e-06,10.321,7.9304e-07,5.9587,-4.2148e-12,1.5366e-05,-7.9304e-07,-5.9585,0.46384
13507,8.1289,4.3636,0,0.00038716,3868.9,0.00013189,0.01369,0.00012073,-83.839,-0.00038852,-3910.1,0.49376
13508,8.0372,4.2727,0,0.00038938,3891.1,0.00013306,0.013367,0.00012073,-92.651,-0.00039087,-3936.6,0.48401
13509,8.0372,4.3636,0.05,1.018e-06,10.173,7.8169e-07,5.8733,-4.4149e-12,1.3013e-05,-7.8167e-07,-5.8731,0.4837
13510,8.3124,4.3636,0,0.00038209,3818.2,0.0001299,0.011401,0.00011961,-77.318,-0.00038334,-3856.3,0.51402
13511,8.2206,4.2727,0,0.00038431,3840.5,0.00013103,0.011039,0.00011967,-85.368,-0.0003857,-3882.5,0.50414
13512,8.2206,4.3636,0.05,1.0051e-06,10.044,7.7178e-07,5.7989,-4.9222e-12,1.0673e-05,-7.7178e-07,-5.7988,0.50382
13513,8.4959,4.3636,0,0.00037703,3767.7,0.00012793,0.009639,0.00011846,-71.126,-0.00037819,-3802.8,0.53453
13514,8.4041,4.2727,0,0.00037927,3790.1,0.00012903,0.0092624,0.00011858,-78.486,-0.00038054,-3828.7,0.52452
13515,8.4041,4.3636,0.05,9.9368e-07,9.9299,7.6303e-07,5.7331,-3.3184e-12,1.0777e-05,-7.6301e-07,-5.733,0.52421
13516,8.6794,4.3636,0,0.00037199,3717.3,0.00012598,0.0082832,0.00011729,-65.269,-0.00037306,-3749.5,0.5553
13517,8.5876,4.2727,0,0.00037424,3739.8,0.00012705,0.0079088,0.00011746,-72.003,-0.00037541,-3775.3,0.54516
13518,8.5876,4.3636,0.05,9.8344e-07,9.8276,7.5517e-07,5.6741,-5.5274e-12,8.9173e-06,-7.5516e-07,-5.6739,0.54485
13519,8.8628,4.3636,0,0.00036696,3667,0.00012404,0.0072426,0.00011609,-59.744,-0.00036794,-3696.5,0.57632
13520,8.7711,4.2727,0,0.00036922,3689.6,0.00012509,0.0068813,0.00011632,-65.911,-0.00037029,-3722.1,0.56605
13521,8.7711,4.3636,0.05,9.7414e-07,9.7346,7.4802e-07,5.6204,-5.7321e-12,9.4941e-06,-7.4801e-07,-5.6202,0.56574
13522,9.0463,4.3636,0,0.00036194,3616.9,0.00012213,0.006446,0.00011487,-54.547,-0.00036283,-3643.8,0.59758
13523,8.9546,4.2727,0,0.00036421,3639.5,0.00012316,0.0061061,0.00011515,-60.199,-0.00036519,-3669.3,0.58719
13524,8.9546,4.3636,0.05,9.6558e-07,9.6492,7.4145e-07,5.571,-3.2707e-12,9.1334e-06,-7.4144e-07,-5.5709,0.58689
13525,9.2298,4.3636,0,0.00035692,3566.8,0.00012024,0.0058407,0.00011363,-49.667,-0.00035774,-3591.3,0.6191
13526,9.1381,4.2727,0,0.0003592,3589.6,0.00012124,0.0055258,0.00011394,-54.852,-0.00036011,-3616.7,0.60858
13527,9.1381,4.3636,0.05,9.5765e-07,9.5699,7.3536e-07,5.5253,-3.4595e-12,8.6219e-06,-7.3535e-07,-5.5251,0.60828
13528,9.4133,4.3636,0,0.00035192,3516.7,0.00011836,0.0053861,0.00011236,-45.096,-0.00035266,-3539.1,0.64085
13529,9.3215,4.2727,0,0.00035421,3539.6,0.00011935,0.0050985,0.00011271,-49.854,-0.00035503,-3564.3,0.63021
13530,9.3215,4.3636,0.05,9.5023e-07,9.4957,7.2966e-07,5.4824,-3.5873e-12,7.3467e-06,-7.2965e-07,-5.4823,0.62991
13531,9.5968,4.3636,0,0.00034692,3466.8,0.0001165,0.0050519,0.00011107,-40.819,-0.00034759,-3487,0.66284
13532,9.505,4.2727,0,0.00034922,3489.8,0.00011747,0.0047901,0.00011146,-45.19,-0.00034997,-3512.2,0.65208
13533,9.505,4.3636,0.05,9.4324e-07,9.4258,7.2429e-07,5.4421,-6.4053e-12,5.8962e-06,-7.2428e-07,-5.4419,0.65178
13534,9.7802,4.3636,0,0.00034192,3416.9,0.00011465,0.0048115,0.00010975,-36.824,-0.00034254,-3435.2,0.68506
13535,9.6885,4.2727,0,0.00034424,3440,0.00011562,0.0045792,0.00011018,-40.842,-0.00034491,-3460.2,0.67418
13536,9.6885,4.3636,0.05,9.3661e-07,9.3597,7.1921e-07,5.4039,-4.6963e-12,5.8511e-06,-7.192e-07,-5.4037,0.67389
13537,9.9637,4.3636,0,0.00033694,3367.1,0.00011283,0.004651,0.00010842,-33.097,-0.00033749,-3383.5,0.70751
13538,9.872,4.2727,0,0.00033926,3390.3,0.00011377,0.0044371,0.00010888,-36.792,-0.00033987,-3408.5,0.69652
13539,9.872,4.3636,0.05,9.3031e-07,9.2967,7.1436e-07,5.3675,-3.8904e-12,6.4958e-06,-7.1436e-07,-5.3674,0.69623
13540,10.147,4.3636,0,0.00033196,3317.3,0.00011101,0.0045589,0.00010707,-29.622,-0.00033246,-3332.1,0.73019
13541,10.055,4.2727,0,0.00033429,3340.6,0.00011195,0.0043683,0.00010755,-33.023,-0.00033484,-3357,0.71908
13542,10.055,4.3636,0.05,9.2428e-07,9.2364,7.0973e-07,5.3327,-5.7807e-12,6.2199e-06,-7.0972e-07,-5.3326,0.7188
13543,10.331,4.3636,0,0.00032699,3267.7,0.00010921,0.0045034,0.0001057,-26.385,-0.00032744,-3280.8,0.7531
13544,10.239,4.2727,0,0.00032933,3291,0.00011014,0.0043464,0.00010621,-29.517,-0.00032982,-3305.7,0.74187
13545,10.239,4.3636,0.05,9.1849e-07,9.1786,7.0529e-07,5.2993,-4.0329e-12,5.8716e-06,-7.0529e-07,-5.2992,0.74159
13546,10.514,4.3636,0,0.00032203,3218.1,0.00010743,0.0044871,0.00010432,-23.371,-0.00032242,-3229.7,0.77622
13547,10.422,4.2727,0,0.00032438,3241.5,0.00010834,0.0043356,0.00010485,-26.258,-0.00032481,-3254.6,0.76488
13548,10.422,4.3636,0.05,9.1292e-07,9.1229,7.0102e-07,5.2672,-4.0921e-12,5.606e-06,-7.0101e-07,-5.2671,0.76461
13549,10.698,4.3636,0,0.00031708,3168.6,0.00010565,0.0045303,0.00010292,-20.567,-0.00031743,-3178.9,0.79957
13550,10.606,4.2727,0,0.00031943,3192.1,0.00010656,0.004379,0.00010347,-23.228,-0.00031982,-3203.6,0.78811
13551,10.606,4.3636,0.05,9.0754e-07,9.0691,6.9688e-07,5.2361,-5.0533e-12,5.4858e-06,-6.9687e-07,-5.236,0.78784
13552,10.881,4.3636,0,0.00031214,3119.2,0.00010389,0.0046346,0.0001015,-17.958,-0.00031244,-3128.2,0.82312
13553,10.789,4.2727,0,0.00031449,3142.7,0.00010479,0.004473,0.00010207,-20.414,-0.00031483,-3152.9,0.81156
13554,10.789,4.3636,0.05,9.0232e-07,9.017,6.9288e-07,5.206,-3.2906e-12,4.4658e-06,-6.9287e-07,-5.2059,0.81129
13555,11.065,4.3636,0,0.00030721,3070,0.00010215,0.004771,0.00010008,-15.532,-0.00030747,-3077.7,0.84689
13556,10.973,4.2727,0,0.00030956,3093.5,0.00010304,0.0046231,0.00010067,-17.798,-0.00030986,-3102.3,0.83522
13557,10.973,4.3636,0.05,8.9727e-07,8.9665,6.89e-07,5.1769,-4.2348e-12,3.9049e-06,-6.8899e-07,-5.1768,0.83495
13558,11.248,4.3636,0,0.00030229,3020.8,0.00010041,0.004934,9.8644e-05,-13.275,-0.00030251,-3027.4,0.87086
13559,11.156,4.2727,0,0.00030464,3044.3,0.00010129,0.004766,9.9245e-05,-15.369,-0.0003049,-3051.9,0.85908
13560,11.156,4.3636,0.05,8.9237e-07,8.9175,6.8523e-07,5.1486,-4.2699e-12,4.1926e-06,-6.8522e-07,-5.1485,0.85882
13561,11.432,4.3636,0,0.00029738,2971.7,9.8688e-05,0.0051845,9.7199e-05,-11.176,-0.00029756,-2977.3,0.89504
13562,11.34,4.2727,0,0.00029973,2995.2,9.956e-05,0.0049514,9.7814e-05,-13.111,-0.00029995,-3001.8,0.88315
13563,11.34,4.3636,0.05,8.8758e-07,8.8697,6.8155e-07,5.121,-5.2189e-12,4.3316e-06,-6.8155e-07,-5.1208,0.88289
13564,11.615,4.3636,0,0.00029248,2922.8,9.6974e-05,0.0055276,9.5746e-05,-9.2227,-0.00029263,-2927.4,0.91941
13565,11.523,4.2727,0,0.00029483,2946.3,9.7839e-05,0.0052437,9.6373e-05,-11.012,-0.00029502,-2951.8,0.90743
13566,11.523,4.3636,0.05,8.8292e-07,8.8231,6.7797e-07,5.0941,-3.4307e-12,3.2212e-06,-6.7796e-07,-5.0939,0.90717
13567,11.799,4.3636,0,0.00028759,2873.9,9.5272e-05,0.0059875,9.4286e-05,-7.4044,-0.00028772,-2877.6,0.94398
13568,11.707,4.2727,0,0.00028994,2897.4,9.613e-05,0.0055781,9.4924e-05,-9.0603,-0.0002901,-2901.9,0.9319
13569,11.707,4.3636,0.05,8.7836e-07,8.7776,6.7448e-07,5.0678,-3.456e-12,3.4225e-06,-6.7447e-07,-5.0677,0.93165
13570,11.982,4.3636,0,0.00028272,2825.2,9.358e-05,0.0066795,9.2819e-05,-5.7109,-0.00028281,-2828.1,0.96875
13571,11.89,4.2727,0,0.00028507,2848.7,9.4432e-05,0.0060457,9.3467e-05,-7.2443,-0.00028519,-2852.3,0.95657
13572,11.89,4.3636,0.05,8.739e-07,8.733,6.7105e-07,5.0421,-5.3047e-12,4.2096e-06,-6.7104e-07,-5.0419,0.95632
13573,12.165,4.3636,0,0.00027786,2776.7,9.1898e-05,0.0078018,9.1347e-05,-4.1327,-0.00027793,-2778.7,0.99371
13574,12.074,4.2727,0,0.00028021,2800.1,9.2743e-05,0.0067383,9.2003e-05,-5.5535,-0.0002803,-2802.9,0.98142
13575,12.074,4.3636,0.05,8.6954e-07,8.6894,6.677e-07,5.0169,-3.5104e-12,3.3781e-06,-6.677e-07,-5.0168,0.98118
13576,12.349,4.3636,0,0.00027301,2728.2,9.0226e-05,0.010013,8.9871e-05,-2.6613,-0.00027306,-2729.6,1.0189
13577,12.257,4.2727,0,0.00027536,2751.7,9.1065e-05,0.007841,9.0535e-05,-3.9782,-0.00027542,-2753.6,1.0065
13578,12.257,4.3636,0.05,8.6525e-07,8.6466,6.6441e-07,4.9922,-3.5329e-12,3.5118e-06,-6.644e-07,-4.992,1.0062
13579,12.532,4.3636,0,0.00026818,2679.9,8.8564e-05,0.016549,8.839e-05,-1.2912,-0.0002682,-2680.6,1.0442
13580,12.441,4.2727,0,0.00027052,2703.3,8.9397e-05,0.010094,8.9062e-05,-2.5095,-0.00027056,-2704.6,1.0317
13581,12.441,4.3636,0.05,8.6104e-07,8.6045,6.6118e-07,4.9678,-3.5571e-12,3.5386e-06,-6.6117e-07,-4.9677,1.0315
13582,12.716,4.3636,0,0.00026336,2631.8,8.6927e-05,0.13443,8.6893e-05,-0.12132,-0.00026336,-2631.8,1.0697
13583,12.624,4.2727,0,0.0002657,2655.2,8.7739e-05,0.017259,8.7584e-05,-1.1425,-0.00026572,-2655.7,1.0571
13584,12.624,4.3636,0.05,8.569e-07,8.5631,6.5799e-07,4.9439,-3.5772e-12,1.6987e-06,-6.5799e-07,-4.9438,1.0569
13585,12.899,4.3636,0,0.00025856,2583.8,8.5428e-05,1.2289,8.5263e-05,-0.0092869,-0.00025854,-2583.2,1.0954
13586,12.808,4.2727,0,0.00026089,2607.1,8.6116e-05,0.22424,8.6078e-05,-0.063673,-0.00026089,-2607,1.0827
13587,12.808,4.3636,0.05,8.5283e-07,8.5224,6.5487e-07,4.9205,-3.593e-12,5.608e-07,-6.5486e-07,-4.9203,1.0825
13588,13.083,4.3636,0,0.00025377,2536,8.3942e-05,2.3549,8.3628e-05,-0.0028497,-0.00025373,-2534.8,1.1212
13589,12.991,4.2727,0,0.0002561,2559.2,8.4628e-05,1.3721,8.4445e-05,-0.0065572,-0.00025608,-2558.6,1.1085
13590,12.991,4.3636,0.05,8.4882e-07,8.4823,6.5179e-07,4.8973,-3.6089e-12,9.274e-07,-6.5179e-07,-4.8972,1.1083
13591,13.266,4.3636,0,0.000249,2488.3,8.2456e-05,3.4179,8.2001e-05,-0.00061598,-0.00024894,-2486.6,1.1473
13592,13.175,4.2727,0,0.00025132,2511.5,8.3146e-05,2.4987,8.2813e-05,-0.0015577,-0.00025128,-2510.3,1.1344
13593,13.175,4.3636,0.05,8.4486e-07,8.4428,6.4876e-07,4.8745,-3.6242e-12,1.5603e-06,-6.4874e-07,-4.8744,1.1342
13594,13.45,4.3636,0,0.00024425,2440.8,8.0971e-05,4.4211,8.0383e-05,0.00054775,-0.00024417,-2438.6,1.1735
13595,13.358,4.2727,0,0.00024656,2463.9,8.1664e-05,3.562,8.119e-05,0.00034012,-0.0002465,-2462.2,1.1605
13596,13.358,4.3636,0.05,8.4096e-07,8.4038,6.4576e-07,4.852,-2.7285e-12,2.6223e-06,-6.4575e-07,-4.8519,1.1603
13597,13.633,4.3636,0,0.00023951,2393.5,7.9487e-05,5.37,7.8772e-05,0.0012675,-0.00023942,-2390.8,1.1998
13598,13.542,4.2727,0,0.00024182,2416.5,8.0182e-05,4.566,7.9575e-05,0.0013405,-0.00024174,-2414.3,1.1868
13599,13.542,4.3636,0.05,8.3712e-07,8.3654,6.4281e-07,4.8298,-3.6505e-12,3.4478e-06,-6.428e-07,-4.8297,1.1866
13600,13.817,4.3636,0,0.00023479,2346.3,7.8004e-05,6.2699,7.717e-05,0.0017799,-0.00023468,-2343.1,1.2263
13601,13.725,4.2727,0,0.00023709,2369.3,7.8702e-05,5.5165,7.7968e-05,0.0019902,-0.000237,-2366.5,1.2132
13602,13.725,4.3636,0.05,8.3332e-07,8.3274,6.3989e-07,4.8079,-2.7528e-12,4.2905e-06,-6.3988e-07,-4.8078,1.213
13603,14,4.3636,0,0.00023009,2299.3,7.6524e-05,7.1264,7.5575e-05,0.0021601,-0.00022996,-2295.7,1.253
13604,13.909,4.2727,0,0.00023238,2322.2,7.7222e-05,6.4192,7.6368e-05,0.0024655,-0.00023227,-2319,1.2398
13605,13.909,4.3636,0.05,8.2957e-07,8.2899,6.3701e-07,4.7862,-3.671e-12,4.5191e-06,-6.37e-07,-4.7862,1.2396
13606,14.184,4.3636,0,0.0002254,2252.4,7.5045e-05,7.9444,7.3988e-05,0.0024701,-0.00022526,-2248.5,1.2799
13607,14.092,4.2727,0,0.00022769,2275.3,7.5746e-05,7.2792,7.4777e-05,0.002808,-0.00022757,-2271.7,1.2666
13608,14.092,4.3636,0.05,8.2585e-07,8.2528,6.3415e-07,4.7648,-2.7715e-12,4.2657e-06,-6.3415e-07,-4.7647,1.2664
13609,14.367,4.3636,0,0.00022073,2205.8,7.357e-05,8.7289,7.2409e-05,0.0027517,-0.00022058,-2201.4,1.3068
13610,14.276,4.2727,0,0.00022301,2228.6,7.4271e-05,8.102,7.3193e-05,0.0031251,-0.00022288,-2224.5,1.2935
13611,14.276,4.3636,0.05,8.2217e-07,8.2161,6.3133e-07,4.7436,-2.781e-12,4.1928e-06,-6.3132e-07,-4.7435,1.2933
13612,14.551,4.3636,0,0.00021608,2159.3,7.2099e-05,9.4845,7.0837e-05,0.0029844,-0.00021592,-2154.6,1.334
13613,14.459,4.2727,0,0.00021836,2182.1,7.28e-05,8.8925,7.1617e-05,0.0033999,-0.0002182,-2177.6,1.3206
13614,14.459,4.3636,0.05,8.1854e-07,8.1798,6.2854e-07,4.7226,-1.8807e-12,4.6145e-06,-6.2853e-07,-4.7225,1.3204
13615,14.734,4.3636,0,0.00021145,2113,7.0631e-05,10.216,6.9272e-05,0.0031876,-0.00021127,-2107.9,1.3612
13616,14.642,4.2727,0,0.00021372,2135.7,7.1333e-05,9.6554,7.0048e-05,0.0036154,-0.00021355,-2130.9,1.3478
13617,14.642,4.3636,0.05,8.1494e-07,8.1438,6.2578e-07,4.7019,-2.7993e-12,3.2382e-06,-6.2577e-07,-4.7018,1.3476
13618,14.918,4.3636,0,0.00020684,2066.9,6.9168e-05,10.927,6.7715e-05,0.0033899,-0.00020665,-2061.5,1.3887
13619,14.826,4.2727,0,0.0002091,2089.5,6.987e-05,10.395,6.8486e-05,0.0038298,-0.00020892,-2084.3,1.3751
13620,14.826,4.3636,0.05,8.1137e-07,8.1081,6.2304e-07,4.6813,-1.8946e-12,2.5999e-06,-6.2303e-07,-4.6812,1.3749
13621,15.101,4.3636,0,0.00020224,2021,6.771e-05,11.623,6.6164e-05,0.0035938,-0.00020204,-2015.2,1.4162
13622,15.009,4.2727,0,0.00020449,2043.5,6.8411e-05,11.117,6.6932e-05,0.0040419,-0.0002043,-2037.9,1.4026
13623,15.009,4.3636,0.05,8.0784e-07,8.0728,6.2032e-07,4.6609,-1.9049e-12,1.6199e-06,-6.2032e-07,-4.6608,1.4024
13624,15.285,4.3636,0,0.00019767,1975.3,6.6258e-05,12.307,6.462e-05,0.0037878,-0.00019746,-1969.1,1.4439
13625,15.193,4.2727,0,0.00019991,1997.7,6.6957e-05,11.824,6.5384e-05,0.0042591,-0.00019971,-1991.8,1.4302
13626,15.193,4.3636,0.05,8.0435e-07,8.0379,6.1764e-07,4.6407,-1.9132e-12,9.9783e-07,-6.1763e-07,-4.6407,1.43
13627,15.468,4.3636,0,0.00019311,1929.8,6.4811e-05,12.984,6.3083e-05,0.0039704,-0.00019289,-1923.3,1.4718
13628,15.376,4.2727,0,0.00019535,1952.1,6.5509e-05,12.522,6.3843e-05,0.0044512,-0.00019513,-1945.8,1.458
13629,15.376,4.3636,0.05,8.0089e-07,8.0034,6.1498e-07,4.6208,-1.0287e-13,3.1264e-06,-6.1498e-07,-4.6207,1.4578
13630,15.652,4.3636,0,0.00018858,1884.5,6.337e-05,13.658,6.1552e-05,0.0041571,-0.00018834,-1877.6,1.4997
13631,15.56,4.2727,0,0.0001908,1906.7,6.4067e-05,13.214,6.2309e-05,0.0046456,-0.00019057,-1900,1.4859
13632,15.56,4.3636,0.05,7.9746e-07,7.9691,6.1235e-07,4.601,-1.9267e-12,2.0869e-06,-6.1235e-07,-4.6009,1.4857
13633,15.835,4.3636,0,0.00018406,1839.3,6.1935e-05,14.331,6.0028e-05,0.004335,-0.00018381,-1832.1,1.5278
13634,15.743,4.2727,0,0.00018628,1861.5,6.2631e-05,13.904,6.0781e-05,0.0048476,-0.00018603,-1854.5,1.5139
13635,15.743,4.3636,0.05,7.9407e-07,7.9352,6.0975e-07,4.5814,-1.0256e-12,6.8019e-07,-6.0974e-07,-4.5814,1.5137
13636,16.019,4.3636,0,0.00017956,1794.4,6.0508e-05,15.01,5.8511e-05,0.0045194,-0.0001793,-1786.8,1.556
13637,15.927,4.2727,0,0.00018177,1816.4,6.1202e-05,14.597,5.926e-05,0.0050251,-0.00018152,-1809.1,1.542
13638,15.927,4.3636,0.05,7.907e-07,7.9016,6.0716e-07,4.562,-1.4884e-12,8.8559e-07,-6.0716e-07,-4.562,1.5419
13639,16.202,4.3636,0,0.00017509,1749.6,5.9088e-05,15.696,5.6999e-05,0.0047239,-0.00017481,-1741.7,1.5843
13640,16.11,4.2727,0,0.00017728,1771.6,5.978e-05,15.297,5.7745e-05,0.0052398,-0.00017702,-1763.9,1.5703
13641,16.11,4.3636,0.05,7.8737e-07,7.8683,6.046e-07,4.5428,-1.9513e-12,1.2433e-06,-6.046e-07,-4.5427,1.5701
13642,16.386,4.3636,0,0.00017063,1705.1,5.7676e-05,16.396,5.5494e-05,0.0049209,-0.00017034,-1696.9,1.6128
13643,16.294,4.2727,0,0.00017282,1727,5.8366e-05,16.008,5.6236e-05,0.0054587,-0.00017254,-1718.9,1.5987
13644,16.294,4.3636,0.05,7.8408e-07,7.8354,6.0208e-07,4.5238,-1.5084e-12,2.0441e-06,-6.0207e-07,-4.5237,1.5985
13645,16.569,4.3636,0,0.00016619,1660.8,5.6272e-05,17.112,5.3995e-05,0.0051205,-0.0001659,-1652.2,1.6413
13646,16.477,4.2727,0,0.00016838,1682.6,5.696e-05,16.734,5.4733e-05,0.0056598,-0.00016808,-1674.2,1.6272
13647,16.477,4.3636,0.05,7.8082e-07,7.8028,5.9957e-07,4.505,-1.9724e-12,1.5883e-06,-5.9957e-07,-4.5049,1.627
13648,16.753,4.3636,0,0.00016178,1616.7,5.4876e-05,17.848,5.2501e-05,0.0053396,-0.00016147,-1607.7,1.67
13649,16.661,4.2727,0,0.00016395,1638.4,5.5562e-05,17.479,5.3236e-05,0.0058835,-0.00016365,-1629.6,1.6558
13650,16.661,4.3636,0.05,7.7759e-07,7.7705,5.9709e-07,4.4863,-1.9852e-12,2.8301e-06,-5.9709e-07,-4.4863,1.6556
13651,16.936,4.3636,0,0.00015739,1572.8,5.349e-05,18.61,5.1014e-05,0.0055763,-0.00015706,-1563.4,1.6988
13652,16.844,4.2727,0,0.00015955,1594.4,5.4173e-05,18.248,5.1745e-05,0.0061248,-0.00015923,-1585.2,1.6845
13653,16.844,4.3636,0.05,7.744e-07,7.7386,5.9464e-07,4.4679,-1.5538e-12,5.3423e-06,-5.9464e-07,-4.4679,1.6844
13654,17.119,4.3636,0,0.00015302,1529.1,5.2113e-05,19.401,4.9531e-05,0.0058225,-0.00015268,-1519.3,1.7277
13655,17.028,4.2727,0,0.00015517,1550.6,5.2794e-05,19.046,5.026e-05,0.0063872,-0.00015484,-1541,1.7133
13656,17.028,4.3636,0.05,7.7125e-07,7.7071,5.9222e-07,4.4498,-1.5599e-12,4.7089e-06,-5.9222e-07,-4.4497,1.7132
13657,17.303,4.3636,0,0.00014866,1485.6,5.0746e-05,20.227,4.8055e-05,0.0060752,-0.00014831,-1475.4,1.7567
13658,17.211,4.2727,0,0.00015081,1507,5.1424e-05,19.876,4.878e-05,0.0066467,-0.00015046,-1497,1.7423
13659,17.211,4.3636,0.05,7.6814e-07,7.6761,5.8984e-07,4.4318,-2.0206e-12,4.3852e-06,-5.8983e-07,-4.4318,1.7421
13660,17.486,4.3636,0,0.00014434,1442.4,4.9389e-05,21.091,4.6583e-05,0.0063466,-0.00014397,-1431.7,1.7857
13661,17.395,4.2727,0,0.00014647,1463.7,5.0065e-05,20.745,4.7305e-05,0.0069232,-0.00014611,-1453.2,1.7713
13662,17.395,4.3636,0.05,7.6507e-07,7.6455,5.8748e-07,4.4141,-2.0394e-12,2.9019e-06,-5.8748e-07,-4.4141,1.7712
13663,17.67,4.3636,0,0.00014003,1399.3,4.8044e-05,21.999,4.5117e-05,0.0066275,-0.00013964,-1388.2,1.8149
13664,17.578,4.2727,0,0.00014216,1420.6,4.8717e-05,21.656,4.5835e-05,0.0072226,-0.00014178,-1409.6,1.8004
13665,17.578,4.3636,0.05,7.6205e-07,7.6153,5.8516e-07,4.3967,-1.1475e-12,5.2257e-06,-5.8516e-07,-4.3967,1.8003
13666,17.853,4.3636,0,0.00013575,1356.5,4.6709e-05,22.956,4.3655e-05,0.0069293,-0.00013534,-1344.9,1.8442
13667,17.762,4.2727,0,0.00013786,1377.7,4.738e-05,22.616,4.4371e-05,0.0075199,-0.00013746,-1366.2,1.8297
13668,17.762,4.3636,0.05,7.5908e-07,7.5856,5.8288e-07,4.3795,-1.6143e-12,4.5164e-06,-5.8288e-07,-4.3795,1.8295
13669,18.037,4.3636,0,0.00013149,1314,4.5387e-05,23.968,4.2198e-05,0.0072634,-0.00013106,-1301.8,1.8736
13670,17.945,4.2727,0,0.00013359,1335,4.6055e-05,23.63,4.2911e-05,0.0078631,-0.00013318,-1323,1.859
13671,17.945,4.3636,0.05,7.5615e-07,7.5563,5.8063e-07,4.3627,-1.6223e-12,6.5615e-06,-5.8063e-07,-4.3626,1.8589
13672,18.22,4.3636,0,0.00012725,1271.6,4.4078e-05,25.04,4.0746e-05,0.0076107,-0.0001268,-1258.9,1.903
13673,18.129,4.2727,0,0.00012935,1292.6,4.4743e-05,24.704,4.1456e-05,0.0082271,-0.00012891,-1280,1.8884
13674,18.129,4.3636,0.05,7.5329e-07,7.5277,5.7843e-07,4.3461,-1.2044e-12,3.5599e-06,-5.7843e-07,-4.3461,1.8883
13675,18.404,4.3636,0,0.00012303,1229.5,4.2782e-05,26.179,3.9298e-05,0.0079793,-0.00012257,-1216.2,1.9326
13676,18.312,4.2727,0,0.00012512,1250.4,4.3443e-05,25.844,4.0005e-05,0.0085982,-0.00012466,-1237.3,1.9179
13677,18.312,4.3636,0.05,7.5047e-07,7.4996,5.7627e-07,4.3299,-2.1302e-12,3.4027e-06,-5.7627e-07,-4.3298,1.9178
13678,18.587,4.3636,0,0.00011884,1187.6,4.1499e-05,27.392,3.7855e-05,0.0083857,-0.00011835,-1173.7,1.9622
13679,18.496,4.2727,0,0.00012093,1208.4,4.2158e-05,27.058,3.8558e-05,0.0090065,-0.00012044,-1194.7,1.9475
13680,18.496,4.3636,0.05,7.4772e-07,7.4721,5.7416e-07,4.314,-7.877e-13,1.5031e-06,-5.7416e-07,-4.314,1.9474
13681,18.771,4.3636,0,0.00011468,1146,4.0231e-05,28.684,3.6415e-05,0.0088314,-0.00011416,-1131.4,1.9919
13682,18.679,4.2727,0,0.00011675,1166.7,4.0888e-05,28.351,3.7116e-05,0.009456,-0.00011624,-1152.3,1.9771
13683,18.679,4.3636,0.05,7.4504e-07,7.4453,5.721e-07,4.2986,-1.2427e-12,4.5493e-06,-5.721e-07,-4.2985,1.977
13684,18.954,4.3636,0,0.00011054,1104.6,3.8979e-05,30.065,3.4979e-05,0.0093089,-0.00010999,-1089.3,2.0217
13685,18.863,4.2727,0,0.0001126,1125.2,3.9632e-05,29.733,3.5677e-05,0.0099459,-0.00011207,-1110.1,2.0069
13686,18.863,4.3636,0.05,7.4243e-07,7.4192,5.701e-07,4.2835,-1.2567e-12,3.1768e-06,-5.7009e-07,-4.2834,2.0068
13687,19.138,4.3636,0,0.00010642,1063.5,3.7742e-05,31.541,3.3546e-05,0.0098228,-0.00010585,-1047.3,2.0515
13688,19.046,4.2727,0,0.00010848,1084,3.8393e-05,31.21,3.4241e-05,0.010462,-0.00010791,-1068.1,2.0367
13689,19.046,4.3636,0.05,7.3991e-07,7.394,5.6816e-07,4.2689,-1.2525e-12,2.4113e-06,-5.6816e-07,-4.2689,2.0366
13690,19.321,4.3636,0,0.00010233,1022.6,3.6523e-05,33.122,3.2116e-05,0.010386,-0.00010173,-1005.6,2.0814
13691,19.229,4.2727,0,0.00010438,1043.1,3.7171e-05,32.791,3.2808e-05,0.011026,-0.00010378,-1026.3,2.0666
13692,19.229,4.3636,0.05,7.3746e-07,7.3695,5.6628e-07,4.2548,-3.6587e-13,7.4102e-07,-5.6628e-07,-4.2548,2.0665
13693,19.505,4.3636,0,9.8266e-05,981.99,3.5321e-05,34.816,3.0689e-05,0.010998,-9.7628e-05,-964.11,2.1114
13694,19.413,4.2727,0,0.00010031,1002.4,3.5967e-05,34.487,3.1379e-05,0.011645,-9.9674e-05,-984.67,2.0965
13695,19.413,4.3636,0.05,7.3512e-07,7.3461,5.6448e-07,4.2413,-3.8719e-13,4.0455e-06,-5.6448e-07,-4.2413,2.0964
13696,19.688,4.3636,0,9.4229e-05,941.64,3.4138e-05,36.634,2.9264e-05,0.01167,-9.3552e-05,-922.79,2.1415
13697,19.596,4.2727,0,9.626e-05,961.94,3.4782e-05,36.306,2.9952e-05,0.012309,-9.5591e-05,-943.27,2.1265
13698,19.596,4.3636,0.05,7.3287e-07,7.3236,5.6275e-07,4.2283,-1.343e-12,2.4532e-06,-5.6275e-07,-4.2283,2.1264
13699,19.872,4.3636,0,9.022e-05,901.58,3.2976e-05,38.586,2.7842e-05,0.012418,-8.9501e-05,-881.66,2.1716
13700,19.78,4.2727,0,9.2243e-05,921.8,3.3617e-05,38.26,2.8527e-05,0.013054,-9.1533e-05,-902.07,2.1566
13701,19.78,4.3636,0.05,7.3073e-07,7.3023,5.6111e-07,4.216,-8.943e-13,2.0735e-06,-5.6111e-07,-4.216,2.1565
13702,20.055,4.3636,0,8.6239e-05,861.79,3.1834e-05,40.684,2.6421e-05,0.013237,-8.5474e-05,-840.72,2.2018
13703,19.963,4.2727,0,8.8255e-05,881.94,3.2473e-05,40.36,2.7103e-05,0.013874,-8.7499e-05,-861.06,2.1868
13704,19.963,4.3636,0.05,7.2872e-07,7.2822,5.5957e-07,4.2044,-1.8422e-12,2.0466e-06,-5.5957e-07,-4.2044,2.1867
13705,20.239,4.3636,0,8.2287e-05,822.3,3.0714e-05,42.94,2.5001e-05,0.014146,-8.1472e-05,-799.99,2.232
13706,20.147,4.2727,0,8.4296e-05,842.38,3.1352e-05,42.62,2.5681e-05,0.014765,-8.349e-05,-820.25,2.217
13707,20.147,4.3636,0.05,7.2685e-07,7.2635,5.5813e-07,4.1936,-1.3839e-12,2.5295e-06,-5.5813e-07,-4.1935,2.2169
13708,20.422,4.3636,0,7.8366e-05,783.12,2.9618e-05,45.369,2.3582e-05,0.015167,-7.7495e-05,-759.44,2.2623
13709,20.33,4.2727,0,8.0368e-05,803.13,3.0254e-05,45.052,2.426e-05,0.015766,-7.9506e-05,-779.64,2.2472
13710,20.33,4.3636,0.05,7.2512e-07,7.2462,5.568e-07,4.1836,-7.536e-13,1.7794e-06,-5.568e-07,-4.1836,2.2472
13711,20.606,4.3636,0,7.4477e-05,744.25,2.8548e-05,47.986,2.2163e-05,0.016316,-7.3544e-05,-719.09,2.2927
13712,20.514,4.2727,0,7.6472e-05,764.19,2.9181e-05,47.672,2.2839e-05,0.016888,-7.5549e-05,-739.23,2.2776
13713,20.514,4.3636,0.05,7.2356e-07,7.2306,5.556e-07,4.1746,-1.0159e-12,-2.2239e-06,-5.556e-07,-4.1746,2.2775
13714,20.789,4.3636,0,7.0621e-05,705.72,2.7504e-05,50.807,2.0744e-05,0.017611,-6.9619e-05,-678.93,2.3231
13715,20.697,4.2727,0,7.2609e-05,725.59,2.8136e-05,50.496,2.1418e-05,0.01815,-7.1617e-05,-699.01,2.3079
13716,20.697,4.3636,0.05,7.2218e-07,7.2168,5.5454e-07,4.1666,-7.9246e-13,-3.9988e-06,-5.5454e-07,-4.1666,2.3078
13717,20.973,4.3636,0,6.6799e-05,667.53,2.6489e-05,53.85,1.9324e-05,0.01908,-6.572e-05,-638.97,2.3535
13718,20.881,4.2727,0,6.8781e-05,687.33,2.7119e-05,53.541,1.9995e-05,0.019569,-6.7713e-05,-658.99,2.3383
13719,20.881,4.3636,0.05,7.2101e-07,7.2051,5.5364e-07,4.1599,-9.9235e-13,-4.8332e-06,-5.5364e-07,-4.1599,2.3383
13720,21.156,4.3636,0,6.3015e-05,629.72,2.5504e-05,57.135,1.7902e-05,0.020765,-6.1848e-05,-599.19,2.384
13721,21.064,4.2727,0,6.4989e-05,649.44,2.6132e-05,56.828,1.8572e-05,0.021186,-6.3835e-05,-619.15,2.3688
13722,21.064,4.3636,0.05,7.2006e-07,7.1957,5.5292e-07,4.1544,-8.0945e-13,-2.332e-06,-5.5292e-07,-4.1544,2.3687
13723,21.34,4.3636,0,5.927e-05,592.29,2.4552e-05,60.686,1.6478e-05,0.022704,-5.8004e-05,-559.61,2.4145
13724,21.248,4.2727,0,6.1237e-05,611.95,2.5178e-05,60.378,1.7146e-05,0.02304,-5.9986e-05,-579.51,2.3993
13725,21.248,4.3636,0.05,7.1938e-07,7.1888,5.524e-07,4.1505,-7.7408e-13,-1.0414e-06,-5.5239e-07,-4.1505,2.3992
13726,21.523,4.3636,0,5.5568e-05,555.3,2.3635e-05,64.527,1.505e-05,0.024964,-5.4188e-05,-520.21,2.4451
13727,21.431,4.2727,0,5.7527e-05,574.88,2.4259e-05,64.215,1.5716e-05,0.025175,-5.6165e-05,-540.06,2.4298
13728,21.431,4.3636,0.05,7.1899e-07,7.1849,5.521e-07,4.1482,-9.814e-13,-2.6565e-06,-5.521e-07,-4.1482,2.4298
13729,21.706,4.3636,0,5.1913e-05,518.77,2.2756e-05,68.686,1.3618e-05,0.027626,-5.0402e-05,-481,2.4757
13730,21.615,4.2727,0,5.3863e-05,538.26,2.3378e-05,68.364,1.4283e-05,0.027675,-5.2373e-05,-500.8,2.4604
13731,21.615,4.3636,0.05,7.1894e-07,7.1844,5.5205e-07,4.1479,-8.8634e-13,-2.2972e-06,-5.5205e-07,-4.1479,2.4603
13732,21.89,4.3636,0,4.8309e-05,482.76,2.1918e-05,73.193,1.2181e-05,0.030784,-4.6645e-05,-441.97,2.5063
13733,21.798,4.2727,0,5.0248e-05,502.14,2.2537e-05,72.854,1.2844e-05,0.030622,-4.861e-05,-461.72,2.491
13734,21.798,4.3636,0.05,7.1927e-07,7.1877,5.5231e-07,4.1498,-8.8618e-13,-3.2137e-06,-5.5231e-07,-4.1498,2.491
13735,22.073,4.3636,0,4.4763e-05,447.32,2.1125e-05,78.084,1.0737e-05,0.034586,-4.292e-05,-403.12,2.537
13736,21.982,4.2727,0,4.6689e-05,466.57,2.1739e-05,77.717,1.14e-05,0.034127,-4.4878e-05,-422.82,2.5217
13737,21.982,4.3636,0.05,7.2005e-07,7.1955,5.5291e-07,4.1544,-8.8749e-13,-9.1606e-06,-5.5291e-07,-4.1544,2.5216
13738,22.257,4.3636,0,4.1282e-05,412.54,2.0379e-05,83.396,9.2852e-06,0.039238,-3.9226e-05,-364.45,2.5677
13739,22.165,4.2727,0,4.3192e-05,431.62,2.0987e-05,82.987,9.9471e-06,0.038377,-4.1177e-05,-384.09,2.5524
13740,22.165,4.3636,0.05,7.2136e-07,7.2086,5.5391e-07,4.1619,-6.7138e-13,-6.2233e-06,-5.5391e-07,-4.1619,2.5523
13741,22.44,4.3636,0,3.7877e-05,378.51,1.9685e-05,89.17,7.8236e-06,0.04505,-3.5564e-05,-325.95,2.5984
13742,22.349,4.2727,0,3.9766e-05,397.39,2.0285e-05,88.702,8.4854e-06,0.043608,-3.7507e-05,-345.53,2.5831
13743,22.349,4.3636,0.05,7.2328e-07,7.2278,5.5539e-07,4.173,-8.553e-13,-2.0601e-06,-5.5539e-07,-4.173,2.583
13744,22.624,4.3636,0,3.4561e-05,345.38,1.9047e-05,95.449,6.3506e-06,0.05242,-3.1933e-05,-287.6,2.6291
13745,22.532,4.2727,0,3.6423e-05,363.98,1.9636e-05,94.898,7.013e-06,0.050226,-3.3868e-05,-307.11,2.6138
13746,22.532,4.3636,0.05,7.2594e-07,7.2544,5.5743e-07,4.1883,-9.138e-13,2.0228e-06,-5.5743e-07,-4.1883,2.6137
13747,22.807,4.3636,0,3.1353e-05,313.31,1.8468e-05,102.28,4.864e-06,0.062317,-2.8335e-05,-249.38,2.6599
13748,22.716,4.2727,0,3.3177e-05,331.55,1.9044e-05,101.62,5.5278e-06,0.058652,-3.0259e-05,-268.83,2.6445
13749,22.716,4.3636,0.05,7.2947e-07,7.2897,5.6014e-07,4.2087,-5.8809e-13,8.1704e-07,-5.6014e-07,-4.2087,2.6445
13750,22.991,4.3636,0,2.8277e-05,282.57,1.7951e-05,109.69,3.3617e-06,0.075129,-2.4766e-05,-211.26,2.6907
13751,22.899,4.2727,0,3.0051e-05,300.3,1.8511e-05,108.89,4.0278e-06,0.070488,-2.6679e-05,-230.65,2.6753
13752,22.899,4.3636,0.05,7.3402e-07,7.3351,5.6364e-07,4.235,-5.7995e-13,2.8914e-06,-5.6364e-07,-4.2349,2.6752
13753,23.174,4.3636,0,2.5367e-05,253.49,1.7498e-05,117.73,1.8414e-06,0.096939,-2.1223e-05,-173.2,2.7215
13754,23.083,4.2727,0,2.7072e-05,270.53,1.8039e-05,116.76,2.5108e-06,0.085067,-2.3125e-05,-192.53,2.7061
13755,23.083,4.3636,0.05,7.3976e-07,7.3924,5.6804e-07,4.268,-1.1295e-13,5.4562e-06,-5.6804e-07,-4.268,2.706
13756,23.358,4.3636,0,2.2672e-05,226.56,1.711e-05,126.42,2.9974e-07,0.11869,-1.7702e-05,-135.14,2.7523
13757,23.266,4.2727,0,2.4281e-05,242.65,1.7629e-05,125.24,9.7519e-07,0.11566,-1.9593e-05,-154.42,2.7369
13758,23.266,4.3636,0.05,7.4684e-07,7.4633,5.7348e-07,4.3089,4.8103e-14,3.0306e-06,-5.7348e-07,-4.3089,2.7368
13759,23.541,4.3636,0,2.0265e-05,202.51,1.6784e-05,135.79,-1.2597e-06,0.21169,-1.4197e-05,-96.998,2.7831
13760,23.45,4.2727,0,2.1737e-05,217.22,1.7279e-05,134.35,-5.8375e-07,0.13215,-1.6076e-05,-116.27,2.7677
13761,23.45,4.3636,0.05,7.5538e-07,7.5486,5.8004e-07,4.3582,2.5317e-13,6.33e-06,-5.8004e-07,-4.3582,2.7677
13762,23.725,4.3636,0,1.825e-05,182.37,1.6522e-05,145.77,-2.8523e-06,0.20059,-1.0704e-05,-58.791,2.8139
13763,23.633,4.2727,0,1.9526e-05,195.13,1.6988e-05,144.13,-2.1529e-06,0.31314,-1.2574e-05,-77.987,2.7986
13764,23.633,4.3636,0.05,7.6586e-07,7.6533,5.8809e-07,4.4187,1.0531e-13,7.9808e-06,-5.8809e-07,-4.4187,2.7985
13765,23.817,4.2727,0,1.777e-05,177.58,1.6757e-05,154.4,-3.769e-06,0.17667,-9.0806e-06,-39.733,2.8294
13766,23.817,4.3636,0.05,7.8633e-07,7.8579,6.038e-07,4.5368,2.1614e-13,7.0675e-06,-6.038e-07,-4.5367,2.8293
13767,23.908,4.3636,0,1.6782e-05,167.7,1.6291e-05,155.54,-4.3538e-06,0.42737,-7.3929e-06,-22.407,2.8448
13768,3.5419,4.1818,0,0.0010529,10522,0.00058823,2959.3,0.00018188,-93.809,-0.00097037,-8751.4,0.083932
13769,3.4501,4.0909,0,0.0013513,13504,0.00074294,3435.6,0.00022035,-490.97,-0.0012576,-11596,0.078847
13770,3.4501,4.1818,0.05,9.1717e-05,916.53,7.0427e-05,529.16,2.285e-10,0.002292,-7.0427e-05,-529.16,0.077885
13771,3.3584,4.1818,0,0.0010661,10654,0.00074104,4811.6,4.5596e-05,-413.71,-0.00089034,-7446,0.072084
13772,3.7254,4.1818,0,0.00081309,8125.3,0.00036954,1239.8,0.0002046,0.60554,-0.00078486,-7433.9,0.09619
13773,3.6336,4.0909,0,0.00093947,9388.2,0.00041787,1350.7,0.00024562,56.416,-0.00090881,-8617.5,0.090691
13774,3.6336,4.1818,0.05,3.0778e-05,307.57,2.3634e-05,177.58,1.4873e-10,0.0015719,-2.3634e-05,-177.58,0.089941
13775,3.9088,4.1818,0,0.00070038,6999,0.00027507,526.81,0.00020379,-8.7574,-0.00069003,-6724.6,0.10887
13776,3.8171,4.0909,0,0.00077904,7785,0.00030425,560.68,0.00022734,-17.207,-0.00076818,-7497.2,0.10303
13777,3.8171,4.1818,0.05,1.4257e-05,142.47,1.0948e-05,82.256,9.2948e-11,0.001088,-1.0948e-05,-82.256,0.10241
13778,4.0923,4.1818,0,0.00063445,6340.2,0.00022575,191.02,0.00019899,-10.003,-0.00063114,-6247.3,0.12196
13779,4.0006,4.0909,0,0.00068854,6880.7,0.00024372,193.55,0.00021687,-8.1992,-0.00068517,-6785.8,0.11583
13780,4.0006,4.1818,0.05,1.0301e-05,102.94,7.91e-06,59.433,7.2387e-11,0.00071367,-7.9101e-06,-59.433,0.1153
13781,4.2758,4.1818,0,0.00059033,5899.3,0.00019927,30.087,0.00019001,-39.547,-0.00059046,-5903.7,0.13544
13782,4.1841,4.0909,0,0.00062913,6287,0.00021223,24.534,0.00020204,-52.006,-0.00062956,-6300.4,0.12906
13783,4.1841,4.1818,0.05,8.0273e-06,80.218,6.164e-06,46.314,5.521e-11,0.00066722,-6.164e-06,-46.314,0.12859
13784,4.4593,4.1818,0,0.00055901,5586.2,0.00019113,6.3151,0.00017372,-124.53,-0.0005609,-5644.2,0.1493
13785,4.3676,4.0909,0,0.00058779,5873.8,0.00020196,5.8615,0.00018088,-152.57,-0.00059012,-5945.6,0.14269
13786,4.3676,4.1818,0.05,6.4387e-06,64.343,4.9441e-06,37.148,4.8235e-11,0.00061044,-4.9442e-06,-37.148,0.14227
13787,4.6428,4.1818,0,0.00053559,5352.2,0.00018599,2.9161,0.0001612,-183.39,-0.00053842,-5440,0.16354
13788,4.551,4.0909,0,0.00055734,5569.5,0.00019484,2.7465,0.00016545,-218.08,-0.00056067,-5673.9,0.1567
13789,4.551,4.1818,0.05,5.3004e-06,52.967,4.07e-06,30.581,4.3587e-11,0.00047224,-4.07e-06,-30.58,0.15632
13790,4.8263,4.1818,0,0.00051732,5169.7,0.00018147,1.7322,0.00015243,-216.44,-0.00052063,-5273.6,0.17812
13791,4.7345,4.0909,0,0.00053402,5336.5,0.0001888,1.6951,0.00015476,-254.04,-0.00053785,-5458.1,0.17109
13792,4.7345,4.1818,0.05,4.436e-06,44.33,3.4063e-06,25.594,3.8854e-11,0.00042792,-3.4063e-06,-25.594,0.17073
13793,5.0097,4.1818,0,0.00050254,5021.9,0.00017734,1.135,0.00014618,-232.92,-0.00050607,-5133.7,0.19306
13794,4.918,4.0909,0,0.00051553,5151.7,0.00018347,1.1206,0.00014723,-271.16,-0.00051958,-5281.3,0.18584
13795,4.918,4.1818,0.05,3.7602e-06,37.576,2.8873e-06,21.694,3.8934e-11,0.00033291,-2.8873e-06,-21.694,0.1855
13796,5.1932,4.1818,0,0.0004902,4898.6,0.00017352,0.78691,0.00014162,-238.9,-0.00049381,-5013.2,0.20834
13797,5.1015,4.0909,0,0.00050043,5000.8,0.0001787,0.78733,0.00014182,-276.33,-0.00050454,-5132.8,0.20093
13798,5.1015,4.1818,0.05,3.2205e-06,32.183,2.473e-06,18.581,2.3989e-11,0.00028491,-2.473e-06,-18.581,0.20061
13799,5.3767,4.1818,0,0.00047961,4792.8,0.00016997,0.56219,0.00013819,-238.18,-0.0004832,-4907.1,0.22395
13800,5.285,4.0909,0,0.00048778,4874.4,0.00017439,0.5666,0.00013786,-273.93,-0.00049185,-5005.3,0.21637
13801,5.285,4.1818,0.05,2.785e-06,27.831,2.1385e-06,16.068,1.8905e-11,0.0002351,-2.1385e-06,-16.068,0.21605
13802,5.5602,4.1818,0,0.00047032,4700,0.00016665,0.4096,0.00013556,-233.19,-0.00047385,-4812,0.23988
13803,5.4684,4.0909,0,0.00047694,4766.1,0.00017045,0.41537,0.00013489,-266.76,-0.00048091,-4893.7,0.23213
13804,5.4684,4.1818,0.05,2.4318e-06,24.302,1.8673e-06,14.031,1.5722e-11,0.00022138,-1.8673e-06,-14.03,0.23183
13805,5.7437,4.1818,0,0.00046202,4617,0.00016352,0.3022,0.00013347,-225.47,-0.00046543,-4725.4,0.25613
13806,5.6519,4.0909,0,0.00046747,4671.4,0.00016683,0.30764,0.00013263,-256.63,-0.0004713,-4794.3,0.24822
13807,5.6519,4.1818,0.05,2.1453e-06,21.438,1.6473e-06,12.378,1.1632e-11,0.00017229,-1.6473e-06,-12.377,0.24792
13808,5.9271,4.1818,0,0.00045446,4541.5,0.00016056,0.225,0.00013178,-216.04,-0.00045774,-4645.5,0.2727
13809,5.8354,4.0909,0,0.00045903,4587.2,0.00016346,0.22958,0.00013086,-244.72,-0.0004627,-4704.5,0.26463
13810,5.8354,4.1818,0.05,1.9134e-06,19.121,1.4693e-06,11.039,5.4785e-12,0.00013058,-1.4693e-06,-11.039,0.26433
13811,6.1106,4.1818,0,0.00044749,4471.8,0.00015775,0.16869,0.00013037,-205.58,-0.00045063,-4570.9,0.28957
13812,6.0189,4.0909,0,0.0004514,4510.9,0.00016031,0.17224,0.00012944,-231.82,-0.0004549,-4622.3,0.28135
13813,6.0189,4.1818,0.05,1.7264e-06,17.252,1.3256e-06,9.9603,8.2688e-12,0.00011303,-1.3256e-06,-9.9602,0.28105
13814,6.2941,4.1818,0,0.00044096,4406.6,0.00015506,0.12721,0.00012915,-194.55,-0.00044395,-4500.6,0.30675
13815,6.2024,4.0909,0,0.00044439,4440.9,0.00015735,0.12979,0.00012825,-218.47,-0.0004477,-4546,0.29837
13816,6.2024,4.1818,0.05,1.5761e-06,15.75,1.2103e-06,9.0936,6.2874e-13,0.00010013,-1.2103e-06,-9.0934,0.29808
13817,6.4776,4.1818,0,0.0004348,4345,0.00015247,0.096442,0.00012807,-183.29,-0.00043762,-4433.7,0.32422
13818,6.3858,4.0909,0,0.00043786,4375.6,0.00015454,0.098174,0.00012724,-205.03,-0.00044099,-4474.4,0.3157
13819,6.3858,4.1818,0.05,1.4559e-06,14.549,1.1179e-06,8.3999,9.3694e-13,5.5466e-05,-1.1179e-06,-8.3998,0.31541
13820,6.6611,4.1818,0,0.0004289,4286.1,0.00014998,0.073489,0.00012707,-172.02,-0.00043157,-4369.5,0.34199
13821,6.5693,4.0909,0,0.0004317,4314,0.00015186,0.074542,0.00012633,-191.74,-0.00043464,-4406.7,0.33332
13822,6.5693,4.1818,0.05,1.3599e-06,13.59,1.0442e-06,7.8461,2.3281e-12,4.4135e-05,-1.0442e-06,-7.8459,0.33303
13823,6.8445,4.1818,0,0.00042323,4229.3,0.00014756,0.056295,0.00012614,-160.92,-0.00042573,-4307.5,0.36006
13824,6.7528,4.0909,0,0.00042583,4255.4,0.00014929,0.05682,0.00012549,-178.78,-0.00042859,-4341.9,0.35124
13825,6.7528,4.1818,0.05,1.2833e-06,12.824,9.8542e-07,7.4042,-3.9453e-12,3.6641e-05,-9.8542e-07,-7.404,0.35095
13826,7.028,4.1818,0,0.00041772,4174.3,0.00014522,0.043368,0.00012524,-150.1,-0.00042007,-4247.3,0.3784
13827,6.9363,4.0909,0,0.00042019,4199,0.00014682,0.043501,0.00012468,-166.28,-0.00042277,-4279.6,0.36944
13828,6.9363,4.1818,0.05,1.2221e-06,12.212,9.3842e-07,7.051,-1.3607e-12,3.1629e-05,-9.3841e-07,-7.0508,0.36916
13829,7.2115,4.1818,0,0.00041234,4120.5,0.00014293,0.033623,0.00012434,-139.64,-0.00041453,-4188.5,0.39704
13830,7.1198,4.0909,0,0.00041471,4144.3,0.00014443,0.033474,0.00012389,-154.29,-0.00041712,-4219.2,0.38793
13831,7.1198,4.1818,0.05,1.173e-06,11.722,9.007e-07,6.7675,-2.1274e-13,2.6992e-05,-9.0068e-07,-6.7673,0.38765
13832,7.395,4.1818,0,0.00040706,4067.7,0.0001407,0.026258,0.00012345,-129.6,-0.0004091,-4131,0.41595
13833,7.3032,4.0909,0,0.00040937,4090.9,0.00014211,0.025917,0.00012309,-142.87,-0.00041161,-4160.4,0.4067
13834,7.3032,4.1818,0.05,1.1333e-06,11.325,8.7023e-07,6.5386,-3.6334e-12,1.348e-05,-8.7022e-07,-6.5385,0.40642
13835,7.5785,4.1818,0,0.00040185,4015.7,0.00013851,0.020682,0.00012254,-120.02,-0.00040376,-4074.4,0.43513
13836,7.4867,4.0909,0,0.00040412,4038.5,0.00013985,0.020217,0.00012227,-132.04,-0.00040621,-4102.9,0.42575
13837,7.4867,4.1818,0.05,1.101e-06,11.002,8.454e-07,6.3521,-4.5038e-12,1.2426e-05,-8.454e-07,-6.352,0.42547
13838,7.7619,4.1818,0,0.00039671,3964.3,0.00013637,0.016456,0.00012161,-110.92,-0.00039848,-4018.6,0.45459
13839,7.6702,4.0909,0,0.00039896,3986.8,0.00013765,0.015919,0.00012143,-121.82,-0.00040089,-4046.3,0.44507
13840,7.6702,4.1818,0.05,1.0743e-06,10.736,8.2497e-07,6.1985,-3.6939e-12,1.0612e-05,-8.2496e-07,-6.1984,0.44479
13841,7.9454,4.1818,0,0.00039161,3913.4,0.00013427,0.013252,0.00012065,-102.3,-0.00039325,-3963.5,0.47431
13842,7.8537,4.0909,0,0.00039384,3935.7,0.00013549,0.012682,0.00012055,-112.2,-0.00039563,-3990.6,0.46466
13843,7.8537,4.1818,0.05,1.0522e-06,10.514,8.0795e-07,6.0706,-2.9958e-12,1.2589e-05,-8.0792e-07,-6.0704,0.46438
13844,8.1289,4.1818,0,0.00038654,3862.7,0.0001322,0.010824,0.00011966,-94.173,-0.00038805,-3908.9,0.4943
13845,8.0372,4.0909,0,0.00038877,3885.1,0.00013337,0.010248,0.00011964,-103.17,-0.00039043,-3935.6,0.48452
13846,8.0372,4.1818,0.05,1.0334e-06,10.327,7.9357e-07,5.9626,-4.4675e-12,1.1769e-05,-7.9355e-07,-5.9624,0.48424
13847,8.3124,4.1818,0,0.0003815,3812.3,0.00013016,0.0089864,0.00011864,-86.529,-0.00038289,-3854.9,0.51456
13848,8.2206,4.0909,0,0.00038374,3834.7,0.0001313,0.0084232,0.00011869,-94.714,-0.00038526,-3881.2,0.50464
13849,8.2206,4.1818,0.05,1.0174e-06,10.167,7.8126e-07,5.8701,-5.044e-12,8.1245e-06,-7.8126e-07,-5.87,0.50436
13850,8.4959,4.1818,0,0.00037647,3762.1,0.00012815,0.0076011,0.00011758,-79.356,-0.00037776,-3801.2,0.53507
13851,8.4041,4.0909,0,0.00037872,3784.6,0.00012925,0.0070636,0.0001177,-86.809,-0.00038012,-3827.2,0.52502
13852,8.4041,4.1818,0.05,1.0035e-06,10.028,7.706e-07,5.79,-3.567e-12,8.9195e-06,-7.7059e-07,-5.7899,0.52475
13853,8.6794,4.1818,0,0.00037146,3712.1,0.00012616,0.0065621,0.0001165,-72.638,-0.00037265,-3747.9,0.55583
13854,8.5876,4.0909,0,0.00037372,3734.6,0.00012724,0.0060579,0.00011667,-79.433,-0.00037501,-3773.7,0.54565
13855,8.5876,4.1818,0.05,9.9132e-07,9.9064,7.6122e-07,5.7195,-3.7736e-12,8.8831e-06,-7.6121e-07,-5.7194,0.54538
13856,8.8628,4.1818,0,0.00036647,3662.1,0.00012421,0.0057889,0.00011537,-66.357,-0.00036755,-3694.9,0.57684
13857,8.7711,4.0909,0,0.00036873,3684.8,0.00012526,0.0053225,0.0001156,-72.559,-0.00036991,-3720.5,0.56654
13858,8.7711,4.1818,0.05,9.8045e-07,9.7978,7.5287e-07,5.6568,-4.9103e-12,8.3111e-06,-7.5286e-07,-5.6567,0.56627
13859,9.0463,4.1818,0,0.00036148,3612.3,0.00012227,0.0052207,0.00011422,-60.494,-0.00036247,-3642.1,0.59811
13860,8.9546,4.0909,0,0.00036375,3635,0.0001233,0.0047941,0.0001145,-66.16,-0.00036484,-3667.7,0.58768
13861,8.9546,4.1818,0.05,9.7066e-07,9.6999,7.4535e-07,5.6003,-3.3362e-12,8.4422e-06,-7.4534e-07,-5.6002,0.58741
13862,9.2298,4.1818,0,0.00035649,3562.5,0.00012036,0.0048107,0.00011303,-55.028,-0.0003574,-3589.7,0.61961
13863,9.1381,4.0909,0,0.00035878,3585.4,0.00012137,0.0044237,0.00011335,-60.21,-0.00035977,-3615.1,0.60906
13864,9.1381,4.1818,0.05,9.6174e-07,9.6108,7.385e-07,5.5488,-2.5927e-12,6.2445e-06,-7.3849e-07,-5.5487,0.6088
13865,9.4133,4.1818,0,0.00035152,3512.7,0.00011847,0.0045232,0.00011182,-49.938,-0.00035234,-3537.4,0.64136
13866,9.3215,4.0909,0,0.00035382,3535.7,0.00011946,0.0041752,0.00011218,-54.682,-0.00035472,-3562.8,0.63069
13867,9.3215,4.1818,0.05,9.5354e-07,9.5288,7.322e-07,5.5015,-2.7281e-12,6.8738e-06,-7.3219e-07,-5.5014,0.63043
13868,9.5968,4.1818,0,0.00034654,3463.1,0.00011659,0.0043325,0.00011058,-45.201,-0.00034729,-3485.4,0.66334
13869,9.505,4.0909,0,0.00034886,3486.2,0.00011757,0.0040196,0.00011097,-49.549,-0.00034967,-3510.7,0.65255
13870,9.505,4.1818,0.05,9.4593e-07,9.4528,7.2636e-07,5.4576,-3.7429e-12,5.6447e-06,-7.2635e-07,-5.4575,0.65229
13871,9.7802,4.1818,0,0.00034158,3413.4,0.00011474,0.004215,0.00010931,-40.797,-0.00034225,-3433.6,0.68556
13872,9.6885,4.0909,0,0.0003439,3436.6,0.0001157,0.0039385,0.00010974,-44.785,-0.00034464,-3458.8,0.67465
13873,9.6885,4.1818,0.05,9.3882e-07,9.3817,7.2089e-07,5.4166,-3.8495e-12,5.7722e-06,-7.2089e-07,-5.4165,0.67439
13874,9.9637,4.1818,0,0.00033662,3363.9,0.0001129,0.0041604,0.00010801,-36.705,-0.00033723,-3382.1,0.70801
13875,9.872,4.0909,0,0.00033895,3387.1,0.00011385,0.003908,0.00010847,-40.365,-0.00033962,-3407.1,0.69698
13876,9.872,4.1818,0.05,9.3212e-07,9.3148,7.1576e-07,5.3779,-3.9301e-12,5.5878e-06,-7.1575e-07,-5.3778,0.69673
13877,10.147,4.1818,0,0.00033166,3314.3,0.00011107,0.0041581,0.00010669,-32.904,-0.00033221,-3330.7,0.73068
13878,10.055,4.0909,0,0.000334,3337.7,0.00011201,0.0039343,0.00010718,-36.267,-0.0003346,-3355.7,0.71954
13879,10.055,4.1818,0.05,9.2578e-07,9.2514,7.1089e-07,5.3414,-3.9936e-12,6.0922e-06,-7.1088e-07,-5.3412,0.71929
13880,10.331,4.1818,0,0.00032671,3264.9,0.00010927,0.0041777,0.00010536,-29.375,-0.0003272,-3279.5,0.75358
13881,10.239,4.0909,0,0.00032906,3288.3,0.00011019,0.0039921,0.00010587,-32.467,-0.0003296,-3304.4,0.74232
13882,10.239,4.1818,0.05,9.1975e-07,9.1912,7.0626e-07,5.3066,-4.9566e-12,5.5381e-06,-7.0625e-07,-5.3065,0.74208
13883,10.514,4.1818,0,0.00032177,3215.5,0.00010748,0.0042236,0.000104,-26.099,-0.00032221,-3228.5,0.7767
13884,10.422,4.0909,0,0.00032412,3239,0.00010839,0.0040482,0.00010454,-28.944,-0.0003246,-3253.3,0.76533
13885,10.422,4.1818,0.05,9.1398e-07,9.1335,7.0183e-07,5.2733,-4.1267e-12,5.0881e-06,-7.0182e-07,-5.2732,0.76509
13886,10.698,4.1818,0,0.00031684,3166.2,0.0001057,0.0043152,0.00010263,-23.059,-0.00031722,-3177.6,0.80004
13887,10.606,4.0909,0,0.00031919,3189.7,0.0001066,0.0041448,0.00010318,-25.679,-0.00031962,-3202.5,0.78856
13888,10.606,4.1818,0.05,9.0844e-07,9.0781,6.9757e-07,5.2413,-3.2631e-12,4.9591e-06,-6.9756e-07,-5.2412,0.78831
13889,10.881,4.1818,0,0.00031191,3117,0.00010393,0.004453,0.00010124,-20.237,-0.00031225,-3127,0.82359
13890,10.789,4.0909,0,0.00031427,3140.5,0.00010483,0.0042805,0.00010181,-22.652,-0.00031465,-3151.8,0.812
13891,10.789,4.1818,0.05,9.0309e-07,9.0247,6.9346e-07,5.2105,-3.3064e-12,4.4452e-06,-6.9346e-07,-5.2104,0.81176
13892,11.065,4.1818,0,0.00030699,3067.8,0.00010218,0.0046077,9.9834e-05,-17.618,-0.00030729,-3076.6,0.84735
13893,10.973,4.0909,0,0.00030935,3091.4,0.00010307,0.0044588,0.00010043,-19.845,-0.00030968,-3101.3,0.83565
13894,10.973,4.1818,0.05,8.9794e-07,8.9732,6.8951e-07,5.1807,-3.3455e-12,3.1903e-06,-6.895e-07,-5.1806,0.83541
13895,11.248,4.1818,0,0.00030208,3018.8,0.00010044,0.0047715,9.8418e-05,-15.186,-0.00030234,-3026.3,0.87131
13896,11.156,4.0909,0,0.00030444,3042.3,0.00010132,0.0046146,9.9025e-05,-17.241,-0.00030473,-3050.9,0.85951
13897,11.156,4.1818,0.05,8.9295e-07,8.9233,6.8568e-07,5.1519,-3.3791e-12,3.5548e-06,-6.8567e-07,-5.1518,0.85928
13898,11.432,4.1818,0,0.00029719,2969.8,9.8712e-05,0.0049976,9.699e-05,-12.928,-0.0002974,-2976.3,0.89548
13899,11.34,4.0909,0,0.00029955,2993.4,9.9584e-05,0.0047963,9.761e-05,-14.826,-0.0002998,-3000.8,0.88357
13900,11.34,4.1818,0.05,8.8809e-07,8.8748,6.8195e-07,5.1239,-3.406e-12,3.9337e-06,-6.8194e-07,-5.1238,0.88334
13901,11.615,4.1818,0,0.0002923,2921,9.6995e-05,0.0052805,9.5553e-05,-10.83,-0.00029248,-2926.4,0.91985
13902,11.523,4.0909,0,0.00029466,2944.6,9.7861e-05,0.0050607,9.6185e-05,-12.585,-0.00029487,-2950.8,0.90784
13903,11.523,4.1818,0.05,8.8336e-07,8.8276,6.7832e-07,5.0966,-3.4402e-12,3.0011e-06,-6.7831e-07,-5.0965,0.90762
13904,11.799,4.1818,0,0.00028742,2872.2,9.529e-05,0.0056223,9.4107e-05,-8.8802,-0.00028757,-2876.7,0.94442
13905,11.707,4.0909,0,0.00028978,2895.8,9.6148e-05,0.0053329,9.475e-05,-10.503,-0.00028996,-2901.1,0.93231
13906,11.707,4.1818,0.05,8.7876e-07,8.7816,6.7479e-07,5.0701,-3.4683e-12,3.2145e-06,-6.7478e-07,-5.07,0.93208
13907,11.982,4.1818,0,0.00028256,2823.6,9.3595e-05,0.0060895,9.2653e-05,-7.0663,-0.00028268,-2827.2,0.96918
13908,11.89,4.0909,0,0.00028492,2847.2,9.4447e-05,0.0056821,9.3306e-05,-8.5684,-0.00028506,-2851.5,0.95697
13909,11.89,4.1818,0.05,8.7426e-07,8.7366,6.7133e-07,5.0441,-3.4908e-12,3.8991e-06,-6.7132e-07,-5.044,0.95675
13910,12.165,4.1818,0,0.00027771,2775.2,9.191e-05,0.006756,9.1194e-05,-5.3778,-0.0002778,-2777.8,0.99413
13911,12.074,4.0909,0,0.00028006,2798.7,9.2756e-05,0.006153,9.1854e-05,-6.7693,-0.00028018,-2802.1,0.98182
13912,12.074,4.1818,0.05,8.6986e-07,8.6926,6.6795e-07,5.0187,-3.5167e-12,2.8487e-06,-6.6795e-07,-5.0187,0.9816
13913,12.349,4.1818,0,0.00027287,2726.8,9.0236e-05,0.0078527,8.9728e-05,-3.8046,-0.00027293,-2728.7,1.0193
13914,12.257,4.0909,0,0.00027522,2750.3,9.1075e-05,0.0068017,9.0396e-05,-5.0948,-0.00027531,-2752.8,1.0069
13915,12.257,4.1818,0.05,8.6555e-07,8.6495,6.6464e-07,4.9938,-3.5389e-12,3.1857e-06,-6.6463e-07,-4.9938,1.0066
13916,12.532,4.1818,0,0.00026804,2678.6,8.8571e-05,0.010143,8.8259e-05,-2.3379,-0.00026808,-2679.8,1.0446
13917,12.441,4.0909,0,0.00027039,2702,8.9405e-05,0.0079204,8.8933e-05,-3.5344,-0.00027045,-2703.8,1.0321
13918,12.441,4.1818,0.05,8.6131e-07,8.6071,6.6138e-07,4.9694,-2.6515e-12,3.2121e-06,-6.6137e-07,-4.9693,1.0319
13919,12.716,4.1818,0,0.00026323,2630.5,8.6917e-05,0.018241,8.6785e-05,-0.97335,-0.00026325,-2631,1.0701
13920,12.624,4.0909,0,0.00026558,2653.9,8.7744e-05,0.010368,8.7466e-05,-2.0795,-0.00026561,-2655,1.0575
13921,12.624,4.1818,0.05,8.5714e-07,8.5655,6.5818e-07,4.9453,-3.5782e-12,1.3101e-06,-6.5818e-07,-4.9453,1.0573
13922,12.899,4.1818,0,0.00025844,2582.6,8.5316e-05,0.36251,8.5264e-05,-0.032902,-0.00025843,-2582.4,1.0958
13923,12.808,4.0909,0,0.00026078,2606,8.6094e-05,0.021001,8.5994e-05,-0.72793,-0.00026079,-2606.3,1.0831
13924,12.808,4.1818,0.05,8.5305e-07,8.5246,6.5504e-07,4.9218,-3.594e-12,3.3038e-07,-6.5503e-07,-4.9216,1.0829
13925,13.083,4.1818,0,0.00025366,2534.8,8.3835e-05,1.5383,8.363e-05,-0.0040718,-0.00025363,-2534,1.1216
13926,12.991,4.0909,0,0.00025599,2558.1,8.4526e-05,0.5841,8.4446e-05,-0.015613,-0.00025598,-2557.8,1.1088
13927,12.991,4.1818,0.05,8.4903e-07,8.4844,6.5195e-07,4.8985,-2.6999e-12,7.055e-07,-6.5194e-07,-4.8984,1.1086
13928,13.266,4.1818,0,0.00024889,2487.2,8.2357e-05,2.6665,8.2002e-05,-0.00026377,-0.00024885,-2485.9,1.1476
13929,13.175,4.0909,0,0.00025122,2510.4,8.305e-05,1.7669,8.2814e-05,-0.0017641,-0.00025119,-2509.6,1.1348
13930,13.175,4.1818,0.05,8.4506e-07,8.4447,6.489e-07,4.8756,-2.7139e-12,1.2717e-06,-6.489e-07,-4.8755,1.1346
13931,13.45,4.1818,0,0.00024414,2439.7,8.0878e-05,3.7312,8.0382e-05,0.0012813,-0.00024408,-2437.9,1.1738
13932,13.358,4.0909,0,0.00024646,2462.9,8.1574e-05,2.8896,8.119e-05,0.000992,-0.00024641,-2461.5,1.1609
13933,13.358,4.1818,0.05,8.4114e-07,8.4056,6.459e-07,4.8531,-3.6358e-12,2.3857e-06,-6.4589e-07,-4.8529,1.1607
13934,13.633,4.1818,0,0.00023941,2392.4,7.94e-05,4.7375,7.877e-05,0.0021404,-0.00023933,-2390,1.2002
13935,13.542,4.0909,0,0.00024172,2415.6,8.0098e-05,3.9495,7.9573e-05,0.0021974,-0.00024166,-2413.6,1.1871
13936,13.542,4.1818,0.05,8.3729e-07,8.3671,6.4293e-07,4.8308,-2.7379e-12,3.0197e-06,-6.4293e-07,-4.8307,1.187
13937,13.817,4.1818,0,0.00023469,2345.3,7.7923e-05,5.6912,7.7166e-05,0.0027183,-0.00023459,-2342.4,1.2267
13938,13.725,4.0909,0,0.000237,2368.4,7.8623e-05,4.9521,7.7965e-05,0.0029182,-0.00023691,-2365.9,1.2136
13939,13.725,4.1818,0.05,8.3348e-07,8.329,6.4001e-07,4.8088,-9.2986e-13,4.1249e-06,-6.4e-07,-4.8087,1.2134
13940,14,4.1818,0,0.00022999,2298.3,7.6448e-05,6.5979,7.557e-05,0.0031361,-0.00022988,-2295,1.2534
13941,13.909,4.0909,0,0.00023229,2321.3,7.7149e-05,5.9034,7.6364e-05,0.0034234,-0.00023219,-2318.4,1.2402
13942,13.909,4.1818,0.05,8.2971e-07,8.2914,6.3712e-07,4.7871,-1.8491e-12,4.2437e-06,-6.3711e-07,-4.787,1.24
13943,14.184,4.1818,0,0.00022531,2251.5,7.4975e-05,7.4632,7.3982e-05,0.0034729,-0.00022518,-2247.8,1.2802
13944,14.092,4.0909,0,0.0002276,2274.5,7.5677e-05,6.8092,7.4772e-05,0.0037823,-0.00022749,-2271,1.2669
13945,14.092,4.1818,0.05,8.2599e-07,8.2542,6.3426e-07,4.7656,-3.8842e-14,4.0323e-06,-6.3425e-07,-4.7655,1.2667
13946,14.367,4.1818,0,0.00022064,2204.9,7.3505e-05,8.2925,7.2401e-05,0.0037744,-0.0002205,-2200.8,1.3072
13947,14.276,4.0909,0,0.00022293,2227.8,7.4208e-05,7.6752,7.3187e-05,0.004111,-0.0002228,-2223.9,1.2938
13948,14.276,4.1818,0.05,8.223e-07,8.2174,6.3143e-07,4.7443,-1.867e-12,4.1141e-06,-6.3142e-07,-4.7443,1.2936
13949,14.551,4.1818,0,0.000216,2158.5,7.2038e-05,9.0907,7.0828e-05,0.0040254,-0.00021584,-2153.9,1.3343
13950,14.459,4.0909,0,0.00021828,2181.3,7.2741e-05,8.5066,7.161e-05,0.004397,-0.00021813,-2177,1.3209
13951,14.459,4.1818,0.05,8.1866e-07,8.181,6.2863e-07,4.7233,-9.6369e-13,4.2078e-06,-6.2863e-07,-4.7233,1.3207
13952,14.734,4.1818,0,0.00021137,2112.2,7.0575e-05,9.8627,6.9262e-05,0.004247,-0.0002112,-2107.3,1.3616
13953,14.642,4.0909,0,0.00021364,2134.9,7.1278e-05,9.3084,7.004e-05,0.0046237,-0.00021348,-2130.2,1.3481
13954,14.642,4.1818,0.05,8.1506e-07,8.145,6.2587e-07,4.7026,-2.7923e-12,3.1069e-06,-6.2586e-07,-4.7024,1.3479
13955,14.918,4.1818,0,0.00020676,2066.1,6.9116e-05,10.613,6.7704e-05,0.0044671,-0.00020657,-2060.8,1.389
13956,14.826,4.0909,0,0.00020902,2088.8,6.9819e-05,10.086,6.8477e-05,0.0048494,-0.00020885,-2083.7,1.3754
13957,14.826,4.1818,0.05,8.1149e-07,8.1093,6.2312e-07,4.6819,-1.8927e-12,2.2546e-06,-6.2312e-07,-4.6818,1.3752
13958,15.101,4.1818,0,0.00020217,2020.3,6.7662e-05,11.347,6.6152e-05,0.004689,-0.00020197,-2014.6,1.4165
13959,15.009,4.0909,0,0.00020442,2042.8,6.8364e-05,10.843,6.6921e-05,0.0050744,-0.00020423,-2037.3,1.4029
13960,15.009,4.1818,0.05,8.0795e-07,8.0739,6.204e-07,4.6615,-1.8971e-12,1.2565e-06,-6.204e-07,-4.6614,1.4027
13961,15.285,4.1818,0,0.00019759,1974.6,6.6213e-05,12.068,6.4607e-05,0.0049012,-0.00019738,-1968.5,1.4442
13962,15.193,4.0909,0,0.00019984,1997,6.6914e-05,11.586,6.5373e-05,0.005306,-0.00019964,-1991.2,1.4305
13963,15.193,4.1818,0.05,8.0445e-07,8.0389,6.1772e-07,4.6413,-2.8164e-12,7.0381e-07,-6.1771e-07,-4.6413,1.4303
13964,15.468,4.1818,0,0.00019304,1929.1,6.477e-05,12.781,6.3069e-05,0.0051024,-0.00019282,-1922.6,1.4721
13965,15.376,4.0909,0,0.00019528,1951.4,6.547e-05,12.318,6.3831e-05,0.0055109,-0.00019506,-1945.2,1.4583
13966,15.376,4.1818,0.05,8.0099e-07,8.0044,6.1506e-07,4.6213,-2.8217e-12,2.1537e-06,-6.1506e-07,-4.6213,1.4581
13967,15.652,4.1818,0,0.00018851,1883.8,6.3333e-05,13.491,6.1538e-05,0.0053096,-0.00018827,-1877,1.5
13968,15.56,4.0909,0,0.00019073,1906,6.4031e-05,13.044,6.2296e-05,0.0057207,-0.00019051,-1899.5,1.4861
13969,15.56,4.1818,0.05,7.9756e-07,7.9701,6.1243e-07,4.6015,-1.008e-12,1.5418e-06,-6.1242e-07,-4.6015,1.486
13970,15.835,4.1818,0,0.00018399,1838.6,6.1902e-05,14.201,6.0013e-05,0.0055088,-0.00018375,-1831.5,1.5281
13971,15.743,4.0909,0,0.00018621,1860.8,6.2599e-05,13.769,6.0767e-05,0.0059385,-0.00018597,-1853.9,1.5142
13972,15.743,4.1818,0.05,7.9416e-07,7.9361,6.0982e-07,4.582,-2.8347e-12,-6.2467e-08,-6.0982e-07,-4.5819,1.514
13973,16.019,4.1818,0,0.0001795,1793.7,6.0479e-05,14.916,5.8494e-05,0.0057144,-0.00017924,-1786.2,1.5563
13974,15.927,4.0909,0,0.00018171,1815.8,6.1173e-05,14.496,5.9245e-05,0.006134,-0.00018146,-1808.5,1.5423
13975,15.927,4.1818,0.05,7.908e-07,7.9025,6.0724e-07,4.5625,-1.93e-12,4.7575e-07,-6.0723e-07,-4.5625,1.5421
13976,16.202,4.1818,0,0.00017502,1749,5.9062e-05,15.64,5.6982e-05,0.0059413,-0.00017475,-1741.1,1.5846
13977,16.11,4.0909,0,0.00017723,1771,5.9755e-05,15.23,5.7729e-05,0.0063671,-0.00017696,-1763.4,1.5705
13978,16.11,4.1818,0.05,7.8746e-07,7.8692,6.0468e-07,4.5433,-1.9437e-12,7.5103e-07,-6.0467e-07,-4.5433,1.5704
13979,16.386,4.1818,0,0.00017057,1704.5,5.7654e-05,16.378,5.5475e-05,0.0061621,-0.00017029,-1696.3,1.613
13980,16.294,4.0909,0,0.00017276,1726.4,5.8345e-05,15.977,5.6219e-05,0.006605,-0.00017249,-1718.4,1.5989
13981,16.294,4.1818,0.05,7.8417e-07,7.8363,6.0215e-07,4.5243,-1.5004e-12,1.3792e-06,-6.0214e-07,-4.5243,1.5988
13982,16.569,4.1818,0,0.00016614,1660.2,5.6254e-05,17.133,5.3975e-05,0.0063851,-0.00016584,-1651.6,1.6416
13983,16.477,4.0909,0,0.00016832,1682.1,5.6942e-05,16.739,5.4715e-05,0.0068264,-0.00016803,-1673.6,1.6274
13984,16.477,4.1818,0.05,7.8091e-07,7.8037,5.9964e-07,4.5055,-1.0539e-12,7.2028e-07,-5.9964e-07,-4.5055,1.6273
13985,16.753,4.1818,0,0.00016173,1616.1,5.4863e-05,17.911,5.248e-05,0.0066289,-0.00016141,-1607.1,1.6703
13986,16.661,4.0909,0,0.0001639,1637.9,5.5549e-05,17.522,5.3218e-05,0.0070695,-0.0001636,-1629,1.656
13987,16.661,4.1818,0.05,7.7768e-07,7.7715,5.9717e-07,4.4869,-1.0701e-12,2.4079e-06,-5.9716e-07,-4.4868,1.6559
13988,16.936,4.1818,0,0.00015734,1572.3,5.3482e-05,18.717,5.0992e-05,0.0068936,-0.00015701,-1562.8,1.699
13989,16.844,4.0909,0,0.0001595,1593.9,5.4164e-05,18.331,5.1725e-05,0.0073345,-0.00015918,-1584.7,1.6847
13990,16.844,4.1818,0.05,7.7449e-07,7.7396,5.9472e-07,4.4685,-1.5337e-12,4.9641e-06,-5.9471e-07,-4.4684,1.6846
13991,17.119,4.1818,0,0.00015297,1528.6,5.211e-05,19.554,4.9508e-05,0.007167,-0.00015263,-1518.7,1.7279
13992,17.028,4.0909,0,0.00015512,1550.2,5.2789e-05,19.171,5.0239e-05,0.00762,-0.00015479,-1540.5,1.7136
13993,17.028,4.1818,0.05,7.7134e-07,7.7081,5.923e-07,4.4503,-6.3861e-13,4.4694e-06,-5.9229e-07,-4.4503,1.7134
13994,17.303,4.1818,0,0.00014862,1485.2,5.0748e-05,20.428,4.803e-05,0.0074481,-0.00014826,-1474.9,1.7569
13995,17.211,4.0909,0,0.00015077,1506.6,5.1424e-05,20.046,4.8758e-05,0.0079041,-0.00015042,-1496.5,1.7425
13996,17.211,4.1818,0.05,7.6824e-07,7.6771,5.8992e-07,4.4324,-1.0965e-12,3.7058e-06,-5.8991e-07,-4.4324,1.7424
13997,17.486,4.1818,0,0.0001443,1442,4.9397e-05,21.344,4.6557e-05,0.0077501,-0.00014392,-1431.2,1.786
13998,17.395,4.0909,0,0.00014643,1463.3,5.007e-05,20.962,4.7282e-05,0.008206,-0.00014607,-1452.7,1.7715
13999,17.395,4.1818,0.05,7.6518e-07,7.6465,5.8756e-07,4.4147,-1.1158e-12,2.8306e-06,-5.8756e-07,-4.4147,1.7714
14000,17.67,4.1818,0,0.00013999,1399,4.8057e-05,22.308,4.509e-05,0.0080632,-0.0001396,-1387.7,1.8151
14001,17.578,4.0909,0,0.00014212,1420.2,4.8728e-05,21.924,4.5811e-05,0.0085316,-0.00014174,-1409.1,1.8006
14002,17.578,4.1818,0.05,7.6216e-07,7.6164,5.8525e-07,4.3973,-6.7901e-13,4.5334e-06,-5.8525e-07,-4.3973,1.8005
14003,17.853,4.1818,0,0.00013572,1356.2,4.673e-05,23.325,4.3627e-05,0.0083992,-0.0001353,-1344.4,1.8444
14004,17.762,4.0909,0,0.00013783,1377.4,4.7397e-05,22.939,4.4345e-05,0.0088597,-0.00013743,-1365.8,1.8299
14005,17.762,4.1818,0.05,7.5919e-07,7.5867,5.8297e-07,4.3802,-6.9112e-13,4.2425e-06,-5.8297e-07,-4.3802,1.8298
14006,18.037,4.1818,0,0.00013146,1313.7,4.5415e-05,24.402,4.2168e-05,0.0087695,-0.00013103,-1301.3,1.8738
14007,17.945,4.0909,0,0.00013357,1334.8,4.6078e-05,24.012,4.2884e-05,0.0092314,-0.00013314,-1322.6,1.8592
14008,17.945,4.1818,0.05,7.5627e-07,7.5575,5.8072e-07,4.3634,-1.1615e-12,6.5025e-06,-5.8072e-07,-4.3633,1.8591
14009,18.22,4.1818,0,0.00012723,1271.4,4.4113e-05,25.545,4.0714e-05,0.0091542,-0.00012677,-1258.4,1.9032
14010,18.129,4.0909,0,0.00012933,1292.4,4.4773e-05,25.149,4.1427e-05,0.0096268,-0.00012888,-1279.6,1.8886
14011,18.129,4.1818,0.05,7.5341e-07,7.5289,5.7853e-07,4.3468,-7.3244e-13,2.6927e-06,-5.7853e-07,-4.3468,1.8885
14012,18.404,4.1818,0,0.00012302,1229.4,4.2825e-05,26.76,3.9265e-05,0.0095617,-0.00012254,-1215.8,1.9328
14013,18.312,4.0909,0,0.00012511,1250.2,4.3481e-05,26.359,3.9974e-05,0.010031,-0.00012464,-1236.8,1.9181
14014,18.312,4.1818,0.05,7.5061e-07,7.5009,5.7638e-07,4.3307,-1.1883e-12,3.0969e-06,-5.7637e-07,-4.3307,1.918
14015,18.587,4.1818,0,0.00011884,1187.5,4.1552e-05,28.055,3.7819e-05,0.01001,-0.00011833,-1173.3,1.9624
14016,18.496,4.0909,0,0.00012092,1208.3,4.2204e-05,27.647,3.8526e-05,0.010475,-0.00012042,-1194.3,1.9477
14017,18.496,4.1818,0.05,7.4787e-07,7.4735,5.7427e-07,4.3149,-1.221e-12,1.006e-06,-5.7427e-07,-4.3148,1.9475
14018,18.771,4.1818,0,0.00011468,1146,4.0294e-05,29.437,3.6377e-05,0.010499,-0.00011415,-1131,1.9921
14019,18.679,4.0909,0,0.00011675,1166.7,4.0943e-05,29.022,3.7082e-05,0.01096,-0.00011623,-1151.9,1.9773
14020,18.679,4.1818,0.05,7.452e-07,7.4468,5.7222e-07,4.2995,-7.7859e-13,4.5091e-06,-5.7222e-07,-4.2994,1.9772
14021,18.954,4.1818,0,0.00011055,1104.7,3.9052e-05,30.916,3.4939e-05,0.011024,-0.00010999,-1088.9,2.0219
14022,18.863,4.0909,0,0.00011261,1125.3,3.9697e-05,30.491,3.5641e-05,0.01149,-0.00011206,-1109.7,2.007
14023,18.863,4.1818,0.05,7.426e-07,7.4209,5.7023e-07,4.2845,-1.238e-12,3.2943e-06,-5.7023e-07,-4.2845,2.0069
14024,19.138,4.1818,0,0.00010644,1063.7,3.7827e-05,32.498,3.3504e-05,0.011586,-0.00010585,-1047,2.0517
14025,19.046,4.0909,0,0.00010849,1084.2,3.8469e-05,32.065,3.4203e-05,0.012046,-0.00010791,-1067.8,2.0368
14026,19.046,4.1818,0.05,7.4009e-07,7.3958,5.683e-07,4.27,-7.7374e-13,2.5606e-06,-5.683e-07,-4.27,2.0367
14027,19.321,4.1818,0,0.00010236,1022.9,3.6621e-05,34.195,3.2071e-05,0.012201,-0.00010173,-1005.3,2.0816
14028,19.229,4.0909,0,0.0001044,1043.3,3.7258e-05,33.751,3.2768e-05,0.012655,-0.00010379,-1026,2.0667
14029,19.229,4.1818,0.05,7.3767e-07,7.3716,5.6644e-07,4.256,-1.2593e-12,4.8715e-07,-5.6644e-07,-4.256,2.0666
14030,19.505,4.1818,0,9.8305e-05,982.37,3.5433e-05,36.016,3.0641e-05,0.012867,-9.7643e-05,-963.87,2.1116
14031,19.413,4.0909,0,0.00010034,1002.7,3.6067e-05,35.561,3.1336e-05,0.01332,-9.9686e-05,-984.44,2.0967
14032,19.413,4.1818,0.05,7.3534e-07,7.3483,5.6465e-07,4.2426,-1.286e-12,3.6054e-06,-5.6465e-07,-4.2425,2.0966
14033,19.688,4.1818,0,9.428e-05,942.15,3.4266e-05,37.972,2.9214e-05,0.013597,-9.3577e-05,-922.59,2.1417
14034,19.596,4.0909,0,9.6305e-05,962.38,3.4896e-05,37.505,2.9906e-05,0.014031,-9.5612e-05,-943.08,2.1267
14035,19.596,4.1818,0.05,7.3312e-07,7.3261,5.6295e-07,4.2298,-1.3103e-12,1.9416e-06,-5.6294e-07,-4.2297,2.1266
14036,19.872,4.1818,0,9.0284e-05,902.22,3.312e-05,40.075,2.7788e-05,0.014408,-8.9536e-05,-881.51,2.1718
14037,19.78,4.0909,0,9.23e-05,922.36,3.3746e-05,39.595,2.8478e-05,0.014826,-9.1562e-05,-901.92,2.1568
14038,19.78,4.1818,0.05,7.3101e-07,7.3051,5.6133e-07,4.2176,-8.8615e-13,2.482e-06,-5.6133e-07,-4.2176,2.1567
14039,20.055,4.1818,0,8.6318e-05,862.59,3.1996e-05,42.337,2.6363e-05,0.015292,-8.552e-05,-840.63,2.2019
14040,19.963,4.0909,0,8.8325e-05,882.64,3.2618e-05,41.843,2.7051e-05,0.015701,-8.7538e-05,-860.97,2.1869
14041,19.963,4.1818,0.05,7.2903e-07,7.2853,5.5981e-07,4.2062,-4.4827e-13,2.8048e-06,-5.5981e-07,-4.2062,2.1868
14042,20.239,4.1818,0,8.2383e-05,823.26,3.0896e-05,44.772,2.494e-05,0.016268,-8.1529e-05,-799.95,2.2322
14043,20.147,4.0909,0,8.4381e-05,843.22,3.1515e-05,44.264,2.5626e-05,0.016649,-8.354e-05,-820.21,2.2171
14044,20.147,4.1818,0.05,7.272e-07,7.2669,5.584e-07,4.1956,-9.0644e-13,1.7325e-06,-5.584e-07,-4.1956,2.217
14045,20.422,4.1818,0,7.8479e-05,784.25,2.9822e-05,47.395,2.3516e-05,0.017361,-7.7565e-05,-759.47,2.2625
14046,20.33,4.0909,0,8.0468e-05,804.13,3.0436e-05,46.871,2.4201e-05,0.01771,-7.9568e-05,-779.66,2.2474
14047,20.33,4.1818,0.05,7.2551e-07,7.2501,5.571e-07,4.1859,-7.1809e-13,1.6416e-06,-5.571e-07,-4.1858,2.2473
14048,20.606,4.1818,0,7.4609e-05,745.58,2.8775e-05,50.223,2.2093e-05,0.018586,-7.3628e-05,-719.19,2.2928
14049,20.514,4.0909,0,7.659e-05,765.37,2.9385e-05,49.681,2.2775e-05,0.018894,-7.5623e-05,-739.31,2.2777
14050,20.514,4.1818,0.05,7.24e-07,7.2351,5.5595e-07,4.1772,-7.4173e-13,-2.8242e-06,-5.5595e-07,-4.1771,2.2776
14051,20.789,4.1818,0,7.0774e-05,707.25,2.7756e-05,53.271,2.0669e-05,0.019961,-6.9717e-05,-679.1,2.3232
14052,20.697,4.0909,0,7.2746e-05,726.95,2.8362e-05,52.71,2.1349e-05,0.020222,-7.1705e-05,-699.16,2.308
14053,20.697,4.1818,0.05,7.2269e-07,7.2219,5.5494e-07,4.1696,-7.2813e-13,-4.8616e-06,-5.5494e-07,-4.1696,2.308
14054,20.973,4.1818,0,6.6976e-05,669.3,2.6768e-05,56.561,1.9243e-05,0.021513,-6.5834e-05,-639.21,2.3536
14055,20.881,4.0909,0,6.8938e-05,688.91,2.737e-05,55.978,1.9922e-05,0.021709,-6.7815e-05,-659.2,2.3385
14056,20.881,4.1818,0.05,7.216e-07,7.211,5.541e-07,4.1633,-5.141e-13,-4.339e-06,-5.541e-07,-4.1632,2.3384
14057,21.156,4.1818,0,6.3217e-05,631.73,2.5812e-05,60.112,1.7815e-05,0.023283,-6.1979e-05,-599.51,2.3841
14058,21.064,4.0909,0,6.5169e-05,651.24,2.6409e-05,59.504,1.8493e-05,0.023397,-6.3953e-05,-619.44,2.3689
14059,21.064,4.1818,0.05,7.2074e-07,7.2024,5.5344e-07,4.1583,-7.764e-13,-2.5423e-06,-5.5344e-07,-4.1583,2.3688
14060,21.34,4.1818,0,5.9499e-05,594.58,2.4891e-05,63.947,1.6384e-05,0.025312,-5.8152e-05,-560.01,2.4146
14061,21.248,4.0909,0,6.1442e-05,613.99,2.5484e-05,63.31,1.7061e-05,0.025323,-6.0119e-05,-579.87,2.3994
14062,21.248,4.1818,0.05,7.2016e-07,7.1967,5.53e-07,4.155,-7.4286e-13,-1.9366e-06,-5.53e-07,-4.155,2.3993
14063,21.523,4.1818,0,5.5826e-05,557.87,2.4008e-05,68.091,1.4949e-05,0.027662,-5.4354e-05,-520.69,2.4452
14064,21.431,4.0909,0,5.7758e-05,577.18,2.4594e-05,67.42,1.5625e-05,0.027532,-5.6314e-05,-540.5,2.4299
14065,21.431,4.1818,0.05,7.199e-07,7.194,5.5279e-07,4.1535,-9.3949e-13,-3.2043e-06,-5.5279e-07,-4.1535,2.4299
14066,21.706,4.1818,0,5.2201e-05,521.65,2.3163e-05,72.57,1.3509e-05,0.030416,-5.0586e-05,-481.56,2.4758
14067,21.615,4.0909,0,5.4121e-05,540.84,2.3744e-05,71.858,1.4185e-05,0.030106,-5.2539e-05,-501.31,2.4605
14068,21.615,4.1818,0.05,7.1999e-07,7.1949,5.5286e-07,4.154,-6.2802e-13,-4.0435e-06,-5.5286e-07,-4.154,2.4605
14069,21.89,4.1818,0,4.863e-05,485.97,2.2362e-05,77.415,1.2063e-05,0.033668,-4.6848e-05,-442.6,2.5064
14070,21.798,4.0909,0,5.0536e-05,505.01,2.2936e-05,76.652,1.2738e-05,0.033129,-4.8794e-05,-462.29,2.4911
14071,21.798,4.1818,0.05,7.2048e-07,7.1999,5.5324e-07,4.1568,-4.003e-13,-1.168e-06,-5.5324e-07,-4.1568,2.4911
14072,22.073,4.1818,0,4.5119e-05,450.88,2.1605e-05,82.656,1.0609e-05,0.037565,-4.314e-05,-403.82,2.5371
14073,21.982,4.0909,0,4.7008e-05,469.76,2.2171e-05,81.832,1.1285e-05,0.03671,-4.5078e-05,-423.45,2.5218
14074,21.982,4.1818,0.05,7.2145e-07,7.2095,5.5398e-07,4.1624,-8.7614e-13,-9.7285e-06,-5.5398e-07,-4.1624,2.5217
14075,22.257,4.1818,0,4.1675e-05,416.46,2.0897e-05,88.326,9.1472e-06,0.042315,-3.9463e-05,-365.2,2.5678
14076,22.165,4.0909,0,4.3544e-05,435.14,2.1454e-05,87.427,9.8233e-06,0.041038,-4.1392e-05,-384.77,2.5524
14077,22.165,4.1818,0.05,7.2296e-07,7.2246,5.5514e-07,4.1711,-4.3146e-13,-5.9101e-06,-5.5514e-07,-4.1711,2.5524
14078,22.44,4.1818,0,3.8307e-05,382.81,2.024e-05,94.46,7.6747e-06,0.048233,-3.5816e-05,-326.72,2.5985
14079,22.349,4.0909,0,4.0152e-05,401.24,2.0786e-05,93.468,8.3519e-06,0.046353,-3.7736e-05,-346.24,2.5832
14080,22.349,4.1818,0.05,7.2509e-07,7.2459,5.5678e-07,4.1834,-3.6471e-13,-1.6912e-06,-5.5678e-07,-4.1834,2.5831
14081,22.624,4.1818,0,3.503e-05,350.06,1.9637e-05,101.09,6.1901e-06,0.055719,-3.2197e-05,-288.37,2.6292
14082,22.532,4.0909,0,3.6843e-05,368.18,2.017e-05,99.988,6.8691e-06,0.053059,-3.4109e-05,-307.84,2.6139
14083,22.532,4.1818,0.05,7.2796e-07,7.2746,5.5898e-07,4.2,-4.6039e-13,1.2264e-06,-5.5898e-07,-4.2,2.6138
14084,22.807,4.1818,0,3.186e-05,318.38,1.9091e-05,108.26,4.6914e-06,0.065765,-2.8607e-05,-250.12,2.66
14085,22.716,4.0909,0,3.3632e-05,336.09,1.9608e-05,107.02,5.3731e-06,0.061598,-3.0508e-05,-269.54,2.6446
14086,22.716,4.1818,0.05,7.3167e-07,7.3117,5.6183e-07,4.2214,-3.6137e-13,-9.4615e-07,-5.6183e-07,-4.2214,2.6446
14087,22.991,4.1818,0,2.8822e-05,288.02,1.8602e-05,115.98,3.1767e-06,0.078778,-2.5041e-05,-211.94,2.6907
14088,22.899,4.0909,0,3.0541e-05,305.19,1.9102e-05,114.58,3.862e-06,0.073587,-2.6933e-05,-231.31,2.6754
14089,22.899,4.1818,0.05,7.3634e-07,7.3583,5.6542e-07,4.2484,-1.3441e-13,1.028e-06,-5.6542e-07,-4.2483,2.6753
14090,23.174,4.1818,0,2.595e-05,259.32,1.8172e-05,124.29,1.6442e-06,0.1009,-2.1497e-05,-173.77,2.7215
14091,23.083,4.0909,0,2.7596e-05,275.76,1.8653e-05,122.7,2.3337e-06,0.088378,-2.3379e-05,-193.1,2.7062
14092,23.083,4.1818,0.05,7.4209e-07,7.4158,5.6984e-07,4.2815,-1.6884e-13,5.2771e-06,-5.6983e-07,-4.2815,2.7061
14093,23.358,4.1818,0,2.3291e-05,232.75,1.7801e-05,133.19,9.0894e-08,0.1231,-1.7968e-05,-135.57,2.7524
14094,23.266,4.0909,0,2.4838e-05,248.21,1.826e-05,131.4,7.8727e-07,0.11933,-1.9842e-05,-154.88,2.737
14095,23.266,4.1818,0.05,7.4903e-07,7.4851,5.7516e-07,4.3215,1.0414e-14,4.495e-06,-5.7516e-07,-4.3215,2.7369
14096,23.541,4.1818,0,2.0917e-05,209.03,1.7485e-05,142.7,-1.4791e-06,0.21721,-1.4452e-05,-97.256,2.7832
14097,23.45,4.0909,0,2.2325e-05,223.1,1.7921e-05,140.66,-7.8173e-07,0.1363,-1.6316e-05,-116.58,2.7678
14098,23.45,4.1818,0.05,7.5719e-07,7.5667,5.8143e-07,4.3686,-5.672e-14,4.8061e-06,-5.8143e-07,-4.3686,2.7678
14099,23.725,4.1818,0,1.8927e-05,189.14,1.7224e-05,152.77,-3.0803e-06,0.20913,-1.0942e-05,-58.859,2.814
14100,23.633,4.0909,0,2.0141e-05,201.27,1.7635e-05,150.55,-2.3596e-06,0.31899,-1.2801e-05,-78.132,2.7986
14101,23.633,4.1818,0.05,7.6693e-07,7.664,5.8891e-07,4.4248,-3.9658e-15,7.2149e-06,-5.889e-07,-4.4248,2.7986
14102,23.817,4.0909,0,1.8401e-05,183.88,1.7401e-05,160.85,-3.982e-06,0.188,-9.2909e-06,-39.701,2.8295
14103,23.817,4.1818,0.05,7.8449e-07,7.8395,6.0239e-07,4.5262,3.609e-13,2.9449e-06,-6.0239e-07,-4.5261,2.8294
14104,23.908,4.1818,0,1.7486e-05,174.74,1.7e-05,162.64,-4.5888e-06,0.43047,-7.6246e-06,-22.379,2.8449
14105,3.5419,4,0,0.001241,12402,0.00057688,1859.2,0.00028419,-339.94,-0.0012005,-11495,0.085428
14106,3.4501,3.9091,0,0.0014568,14558,0.00064001,1753,0.00036233,-333.43,-0.0014214,-13736,0.080444
14107,3.4501,4,0.05,0.00016711,1670,0.00012832,964.15,9.8883e-11,0.0017318,-0.00012832,-964.15,0.079605
14108,3.3584,4,0,0.0021824,21809,0.00099021,2979,0.00051768,-571.46,-0.0021196,-20387,0.074101
14109,3.7254,4,0,0.00090588,9052.5,0.00035261,671.68,0.00026833,38.424,-0.00089213,-8680.8,0.097381
14110,3.6336,3.9091,0,0.0010371,10364,0.00039607,694.26,0.0003137,75.399,-0.0010226,-9965.3,0.091935
14111,3.6336,4,0.05,2.8894e-05,288.74,2.2187e-05,166.71,-1.5887e-11,0.00057867,-2.2187e-05,-166.7,0.09127
14112,3.9088,4,0,0.00076624,7657.1,0.00027202,220.75,0.00024047,-16.275,-0.00076248,-7552.1,0.10986
14113,3.8171,3.9091,0,0.00084895,8483.6,0.00029943,219.76,0.0002675,-20.173,-0.0008453,-8381.3,0.10404
14114,3.8171,4,0.05,1.8698e-05,186.86,1.4358e-05,107.88,2.176e-11,0.00062646,-1.4358e-05,-107.88,0.10349
14115,4.0923,4,0,0.00068242,6819.5,0.00023021,27.139,0.00021918,-55.761,-0.00068287,-6833.4,0.1228
14116,4.0006,3.9091,0,0.0007406,7400.9,0.00024922,23.005,0.00023834,-58.744,-0.00074117,-7418.4,0.11668
14117,4.0006,4,0.05,1.248e-05,124.71,9.5831e-06,72.004,3.0463e-11,0.00054156,-9.5831e-06,-72.003,0.11621
14118,4.2758,4,0,0.00062601,6255.8,0.00021561,5.5073,0.00019169,-174.26,-0.00062869,-6338.2,0.13618
14119,4.1841,3.9091,0,0.00066811,6676.5,0.0002305,4.169,0.00020375,-196.79,-0.00067116,-6770.5,0.12978
14120,4.1841,4,0.05,9.3894e-06,93.83,7.2099e-06,54.173,2.2633e-11,0.00044095,-7.2099e-06,-54.172,0.12938
14121,4.4593,4,0,0.00058574,5853.4,0.00020576,2.9327,0.00017217,-249.47,-0.00058953,-5972.6,0.14997
14122,4.3676,3.9091,0,0.00061713,6167,0.00021765,2.8744,0.00017987,-281.03,-0.00062137,-6301.2,0.14333
14123,4.3676,4,0.05,7.4009e-06,73.958,5.683e-06,42.7,2.5058e-11,0.0003811,-5.683e-06,-42.699,0.14297
14124,4.6428,4,0,0.00055554,5551.6,0.00019768,1.7172,0.00015877,-290.65,-0.00055988,-5690.3,0.16414
14125,4.551,3.9091,0,0.00057931,5789.1,0.0002073,1.6201,0.00016349,-327.52,-0.00058416,-5945.1,0.15728
14126,4.551,4,0.05,6.0263e-06,60.222,4.6275e-06,34.769,2.9107e-11,0.00035593,-4.6275e-06,-34.769,0.15695
14127,4.8263,4,0,0.00053209,5317.3,0.00019081,1.1683,0.00014941,-309.89,-0.00053666,-5464.8,0.17869
14128,4.7345,3.9091,0,0.00055035,5499.7,0.00019873,1.1577,0.0001521,-349.19,-0.00055543,-5665.3,0.17163
14129,4.7345,4,0.05,5.0037e-06,50.003,3.8422e-06,28.869,2.0452e-11,0.00030496,-3.8422e-06,-28.869,0.17132
14130,5.0097,4,0,0.00051335,5129.9,0.00018485,0.81753,0.00014278,-315.22,-0.00051796,-5279.8,0.1936
14131,4.918,3.9091,0,0.00052752,5271.6,0.00019144,0.81342,0.00014408,-354.96,-0.00053264,-5439.6,0.18634
14132,4.918,4,0.05,4.2133e-06,42.104,3.2353e-06,24.309,1.6123e-11,0.00031381,-3.2353e-06,-24.308,0.18605
14133,5.1932,4,0,0.00049798,4976.3,0.00017958,0.59274,0.00013801,-311.72,-0.00050253,-5124.5,0.20886
14134,5.1015,3.9091,0,0.00050911,5087.6,0.00018512,0.59695,0.00013838,-350.56,-0.00051415,-5253.5,0.20142
14135,5.1015,4,0.05,3.5869e-06,35.844,2.7543e-06,20.695,1.6928e-11,0.00019342,-2.7543e-06,-20.695,0.20114
14136,5.3767,4,0,0.0004851,4847.6,0.00017488,0.43548,0.00013453,-302.71,-0.00048953,-4991.6,0.22445
14137,5.285,3.9091,0,0.00049394,4936,0.00017958,0.44055,0.0001343,-339.77,-0.00049884,-5096.9,0.21684
14138,5.285,4,0.05,3.0837e-06,30.816,2.3679e-06,17.792,1.8335e-11,0.00019053,-2.3679e-06,-17.791,0.21657
14139,5.5602,4,0,0.00047408,4737.6,0.00017063,0.32335,0.00013195,-290.3,-0.00047835,-4875.9,0.24038
14140,5.4684,3.9091,0,0.00048121,4808.8,0.00017466,0.32825,0.00013135,-325.1,-0.00048591,-4962.9,0.23259
14141,5.4684,4,0.05,2.6768e-06,26.75,2.0555e-06,15.444,1.1023e-11,0.0001536,-2.0555e-06,-15.444,0.23233
14142,5.7437,4,0,0.00046449,4641.7,0.00016677,0.24148,0.00013001,-275.93,-0.00046856,-4773.4,0.25662
14143,5.6519,3.9091,0,0.00047032,4700,0.00017024,0.24539,0.00012919,-308.21,-0.0004748,-4846.4,0.24867
14144,5.6519,4,0.05,2.347e-06,23.454,1.8022e-06,13.541,9.018e-12,0.00012621,-1.8022e-06,-13.541,0.24842
14145,5.9271,4,0,0.00045598,4556.7,0.00016321,0.1811,0.00012851,-260.53,-0.00045985,-4681.3,0.27318
14146,5.8354,3.9091,0,0.00046084,4605.3,0.00016624,0.18396,0.00012759,-290.21,-0.00046509,-4743.4,0.26507
14147,5.8354,4,0.05,2.0798e-06,20.784,1.597e-06,12,5.9001e-12,0.00011006,-1.597e-06,-11.999,0.26482
14148,6.1106,4,0,0.00044831,4480.1,0.00015991,0.13623,0.00012732,-244.72,-0.00045197,-4597.3,0.29005
14149,6.0189,3.9091,0,0.00045245,4521.3,0.00016258,0.13812,0.00012638,-271.84,-0.00045645,-4651.1,0.28179
14150,6.0189,4,0.05,1.8637e-06,18.624,1.4311e-06,10.753,2.1046e-12,8.0827e-05,-1.4311e-06,-10.753,0.28154
14151,6.2941,4,0,0.00044129,4409.9,0.00015683,0.10274,0.00012634,-228.95,-0.00044474,-4519.8,0.30723
14152,6.2024,3.9091,0,0.00044488,4445.8,0.0001592,0.10382,0.00012544,-253.61,-0.00044865,-4567.1,0.29881
14153,6.2024,4,0.05,1.6893e-06,16.882,1.2972e-06,9.7467,2.0671e-12,5.5829e-05,-1.2972e-06,-9.7466,0.29856
14154,6.4776,4,0,0.00043477,4344.7,0.00015393,0.077668,0.0001255,-213.47,-0.00043801,-4447.5,0.3247
14155,6.3858,3.9091,0,0.00043796,4376.6,0.00015606,0.07812,0.00012466,-235.84,-0.00044149,-4489.7,0.31614
14156,6.3858,4,0.05,1.549e-06,15.479,1.1894e-06,8.9368,1.7348e-12,3.7863e-05,-1.1894e-06,-8.9368,0.31589
14157,6.6611,4,0,0.00042864,4283.4,0.00015117,0.058863,0.00012475,-198.5,-0.00043167,-4379.2,0.34247
14158,6.5693,3.9091,0,0.00043153,4312.3,0.00015311,0.058849,0.00012399,-218.73,-0.00043483,-4417.5,0.33376
14159,6.5693,4,0.05,1.4362e-06,14.352,1.1028e-06,8.286,-4.1843e-13,4.0775e-05,-1.1028e-06,-8.2859,0.33351
14160,6.8445,4,0,0.0004228,4225.1,0.00014855,0.044742,0.00012404,-184.14,-0.00042563,-4314.1,0.36053
14161,6.7528,3.9091,0,0.00042548,4251.8,0.00015032,0.044396,0.00012337,-202.42,-0.00042856,-4349.4,0.35168
14162,6.7528,4,0.05,1.3456e-06,13.446,1.0332e-06,7.7632,-1.7368e-12,2.6124e-05,-1.0332e-06,-7.7631,0.35143
14163,7.028,4,0,0.00041719,4169,0.00014603,0.034131,0.00012334,-170.46,-0.00041982,-4251.6,0.37888
14164,6.9363,3.9091,0,0.00041971,4194.2,0.00014767,0.033562,0.00012278,-186.97,-0.00042258,-4284.6,0.36988
14165,6.9363,4,0.05,1.2727e-06,12.718,9.7728e-07,7.3429,-8.3008e-13,2.509e-05,-9.7726e-07,-7.3427,0.36963
14166,7.2115,4,0,0.00041175,4114.6,0.00014361,0.026159,0.00012264,-157.51,-0.0004142,-4191.1,0.39751
14167,7.1198,3.9091,0,0.00041417,4138.8,0.00014513,0.02545,0.00012218,-172.41,-0.00041683,-4222.3,0.38837
14168,7.1198,4,0.05,1.2139e-06,12.131,9.3216e-07,7.0039,-1.1512e-12,1.917e-05,-9.3216e-07,-7.0038,0.38812
14169,7.395,4,0,0.00040644,4061.6,0.00014126,0.020172,0.00012192,-145.31,-0.00040872,-4132.3,0.41642
14170,7.3032,3.9091,0,0.00040879,4085.1,0.00014269,0.019386,0.00012156,-158.76,-0.00041126,-4162.1,0.40714
14171,7.3032,4,0.05,1.1664e-06,11.656,8.9563e-07,6.7294,-2.3848e-12,1.6572e-05,-8.9562e-07,-6.7293,0.40689
14172,7.5785,4,0,0.00040123,4009.5,0.00013898,0.015681,0.00012117,-133.84,-0.00040334,-4074.8,0.4356
14173,7.4867,3.9091,0,0.00040353,4032.6,0.00014033,0.014865,0.0001209,-146,-0.00040582,-4103.6,0.42618
14174,7.4867,4,0.05,1.1276e-06,11.268,8.6585e-07,6.5057,-1.4425e-12,1.7339e-05,-8.6584e-07,-6.5055,0.42594
14175,7.7619,4,0,0.00039609,3958.2,0.00013676,0.01232,0.00012038,-123.1,-0.00039805,-4018.3,0.45506
14176,7.6702,3.9091,0,0.00039837,3981,0.00013805,0.011506,0.0001202,-134.09,-0.00040048,-4046.3,0.4455
14177,7.6702,4,0.05,1.0957e-06,10.95,8.4139e-07,6.3219,-2.9655e-12,1.3124e-05,-8.4138e-07,-6.3218,0.44526
14178,7.9454,4,0,0.00039101,3907.4,0.0001346,0.0098145,0.00011955,-113.07,-0.00039281,-3962.7,0.47478
14179,7.8537,3.9091,0,0.00039327,3930,0.00013583,0.0090258,0.00011945,-123.01,-0.00039522,-3990.1,0.46509
14180,7.8537,4,0.05,1.0693e-06,10.686,8.2111e-07,6.1695,-2.4917e-12,1.1339e-05,-8.211e-07,-6.1694,0.46485
14181,8.1289,4,0,0.00038597,3857.1,0.00013247,0.0079552,0.00011867,-103.71,-0.00038763,-3907.9,0.49477
14182,8.0372,3.9091,0,0.00038823,3879.6,0.00013366,0.0072061,0.00011866,-112.71,-0.00039002,-3934.7,0.48495
14183,8.0372,4,0.05,1.0472e-06,10.465,8.0411e-07,6.0418,-3.0434e-12,1.0743e-05,-8.041e-07,-6.0417,0.48471
14184,8.3124,4,0,0.00038096,3807,0.00013039,0.006586,0.00011775,-94.988,-0.00038249,-3853.6,0.51502
14185,8.2206,3.9091,0,0.00038322,3829.5,0.00013154,0.0058857,0.00011781,-103.16,-0.00038487,-3880.1,0.50506
14186,8.2206,4,0.05,1.0284e-06,10.277,7.897e-07,5.9336,-3.4724e-12,8.3846e-06,-7.897e-07,-5.9335,0.50483
14187,8.4959,4,0,0.00037597,3757.1,0.00012835,0.0055885,0.00011678,-86.88,-0.00037737,-3799.8,0.53552
14188,8.4041,3.9091,0,0.00037823,3779.7,0.00012946,0.0049415,0.00011691,-94.298,-0.00037975,-3826,0.52544
14189,8.4041,4,0.05,1.0123e-06,10.116,7.7736e-07,5.8408,-2.7916e-12,9.0177e-06,-7.7735e-07,-5.8407,0.52521
14190,8.6794,4,0,0.00037099,3707.3,0.00012634,0.0048726,0.00011578,-79.347,-0.00037228,-3746.4,0.55628
14191,8.5876,3.9091,0,0.00037326,3730,0.00012742,0.0042807,0.00011596,-86.092,-0.00037465,-3772.3,0.54607
14192,8.5876,4,0.05,9.9838e-07,9.9769,7.6664e-07,5.7602,-3.0486e-12,9.1184e-06,-7.6663e-07,-5.7601,0.54584
14193,8.8628,4,0,0.00036602,3657.7,0.00012435,0.0043707,0.00011472,-72.354,-0.0003672,-3693.3,0.5773
14194,8.7711,3.9091,0,0.00036831,3680.5,0.00012541,0.0038336,0.00011496,-78.495,-0.00036958,-3719.1,0.56696
14195,8.7711,4,0.05,9.8612e-07,9.8543,7.5722e-07,5.6895,-2.372e-12,6.7516e-06,-7.5721e-07,-5.6894,0.56673
14196,9.0463,4,0,0.00036106,3608.1,0.0001224,0.004031,0.00011363,-65.868,-0.00036214,-3640.6,0.59855
14197,8.9546,3.9091,0,0.00036336,3631.1,0.00012343,0.0035467,0.00011392,-71.465,-0.00036452,-3666.3,0.58809
14198,8.9546,4,0.05,9.7521e-07,9.7454,7.4884e-07,5.6266,-2.5625e-12,8.3045e-06,-7.4884e-07,-5.6265,0.58786
14199,9.2298,4,0,0.00035611,3558.6,0.00012047,0.0038146,0.0001125,-59.854,-0.00035709,-3588.2,0.62006
14200,9.1381,3.9091,0,0.00035841,3581.7,0.00012148,0.0033793,0.00011283,-64.963,-0.00035947,-3613.7,0.60947
14201,9.1381,4,0.05,9.6541e-07,9.6475,7.4132e-07,5.57,-2.7084e-12,7.2778e-06,-7.4132e-07,-5.5699,0.60924
14202,9.4133,4,0,0.00035116,3509.2,0.00011856,0.0036918,0.00011134,-54.282,-0.00035205,-3536,0.6418
14203,9.3215,3.9091,0,0.00035347,3532.3,0.00011955,0.0033031,0.00011171,-58.949,-0.00035444,-3561.4,0.63109
14204,9.3215,4,0.05,9.5651e-07,9.5585,7.3448e-07,5.5187,-2.8259e-12,6.1553e-06,-7.3448e-07,-5.5186,0.63087
14205,9.5968,4,0,0.00034621,3459.7,0.00011668,0.0036405,0.00011014,-49.12,-0.00034702,-3484,0.66378
14206,9.505,3.9091,0,0.00034854,3483,0.00011765,0.0032928,0.00011055,-53.39,-0.00034941,-3509.4,0.65295
14207,9.505,4,0.05,9.4835e-07,9.4769,7.2822e-07,5.4715,-2.8983e-12,5.4313e-06,-7.2821e-07,-5.4715,0.65273
14208,9.7802,4,0,0.00034127,3410.4,0.00011481,0.0036419,0.00010891,-44.34,-0.000342,-3432.3,0.68599
14209,9.6885,3.9091,0,0.0003436,3433.7,0.00011577,0.0033358,0.00010935,-48.25,-0.0003444,-3457.5,0.67504
14210,9.6885,4,0.05,9.4079e-07,9.4014,7.2241e-07,5.428,-2.9949e-12,5.3514e-06,-7.2241e-07,-5.4278,0.67483
14211,9.9637,4,0,0.00033633,3361,0.00011296,0.0036885,0.00010765,-39.914,-0.00033699,-3380.8,0.70843
14212,9.872,3.9091,0,0.00033867,3384.4,0.00011391,0.0034097,0.00010812,-43.498,-0.00033939,-3405.9,0.69737
14213,9.872,4,0.05,9.3374e-07,9.331,7.17e-07,5.3873,-3.0643e-12,6.0516e-06,-7.17e-07,-5.3872,0.69715
14214,10.147,4,0,0.0003314,3311.7,0.00011113,0.0037717,0.00010636,-35.816,-0.00033199,-3329.4,0.7311
14215,10.055,3.9091,0,0.00033374,3335.1,0.00011207,0.0035249,0.00010686,-39.104,-0.00033439,-3354.5,0.71993
14216,10.055,4,0.05,9.2712e-07,9.2648,7.1192e-07,5.3491,-3.1403e-12,5.6781e-06,-7.1191e-07,-5.349,0.71971
14217,10.331,4,0,0.00032647,3262.4,0.00010932,0.0038632,0.00010505,-32.022,-0.000327,-3278.3,0.754
14218,10.239,3.9091,0,0.00032882,3285.9,0.00011024,0.0036574,0.00010558,-35.042,-0.0003294,-3303.3,0.74271
14219,10.239,4,0.05,9.2087e-07,9.2023,7.0712e-07,5.313,-2.2879e-12,5.7208e-06,-7.0711e-07,-5.3129,0.74249
14220,10.514,4,0,0.00032154,3213.2,0.00010752,0.0039676,0.00010372,-28.509,-0.00032202,-3227.4,0.77711
14221,10.422,3.9091,0,0.0003239,3236.8,0.00010843,0.0037755,0.00010427,-31.285,-0.00032442,-3252.3,0.76571
14222,10.422,4,0.05,9.1492e-07,9.1429,7.0255e-07,5.2787,-3.2504e-12,5.784e-06,-7.0254e-07,-5.2786,0.7655
14223,10.698,4,0,0.00031662,3164,0.00010573,0.0041061,0.00010237,-25.256,-0.00031704,-3176.6,0.80044
14224,10.606,3.9091,0,0.00031898,3187.6,0.00010664,0.0039227,0.00010294,-27.81,-0.00031945,-3201.5,0.78893
14225,10.606,4,0.05,9.0923e-07,9.086,6.9818e-07,5.2459,-3.2948e-12,5.2106e-06,-6.9817e-07,-5.2458,0.78872
14226,10.881,4,0,0.00031171,3115,0.00010396,0.0042805,0.000101,-22.243,-0.00031208,-3126,0.82399
14227,10.789,3.9091,0,0.00031408,3138.6,0.00010486,0.0040982,0.00010159,-24.594,-0.00031449,-3150.8,0.81236
14228,10.789,4,0.05,9.0377e-07,9.0315,6.9399e-07,5.2144,-2.4256e-12,4.9052e-06,-6.9398e-07,-5.2143,0.81216
14229,11.065,4,0,0.00030681,3065.9,0.00010221,0.0044584,9.9619e-05,-19.451,-0.00030713,-3075.6,0.84774
14230,10.973,3.9091,0,0.00030917,3089.6,0.0001031,0.0043057,0.00010022,-21.618,-0.00030953,-3100.3,0.83601
14231,10.973,4,0.05,8.9852e-07,8.979,6.8996e-07,5.1841,-2.4579e-12,4.1224e-06,-6.8995e-07,-5.184,0.83581
14232,11.248,4,0,0.00030191,3017,0.00010046,0.004631,9.8219e-05,-16.863,-0.00030219,-3025.4,0.8717
14233,11.156,3.9091,0,0.00030428,3040.7,0.00010134,0.0044795,9.8834e-05,-18.862,-0.00030459,-3050.1,0.85987
14234,11.156,4,0.05,8.9346e-07,8.9284,6.8607e-07,5.1549,-2.4865e-12,4.6527e-06,-6.8606e-07,-5.1548,0.85967
14235,11.432,4,0,0.00029702,2968.2,9.8733e-05,0.0048501,9.6807e-05,-14.464,-0.00029726,-2975.4,0.89586
14236,11.34,3.9091,0,0.00029939,2991.8,9.9606e-05,0.0046658,9.7434e-05,-16.309,-0.00029966,-2999.9,0.88393
14237,11.34,4,0.05,8.8853e-07,8.8792,6.8228e-07,5.1265,-1.6135e-12,4.4133e-06,-6.8228e-07,-5.1264,0.88373
14238,11.615,4,0,0.00029214,2919.4,9.7014e-05,0.0051031,9.5384e-05,-12.238,-0.00029235,-2925.5,0.92023
14239,11.523,3.9091,0,0.00029451,2943.1,9.7879e-05,0.0049192,9.6023e-05,-13.943,-0.00029475,-2950,0.90819
14240,11.523,4,0.05,8.8376e-07,8.8315,6.7862e-07,5.0989,-2.5469e-12,4.0928e-06,-6.7861e-07,-5.0988,0.90799
14241,11.799,4,0,0.00028728,2870.8,9.5305e-05,0.0053821,9.3951e-05,-10.171,-0.00028745,-2875.9,0.94479
14242,11.707,3.9091,0,0.00028964,2894.4,9.6164e-05,0.0051585,9.46e-05,-11.748,-0.00028984,-2900.3,0.93265
14243,11.707,4,0.05,8.7911e-07,8.7851,6.7505e-07,5.0721,-3.4788e-12,3.9209e-06,-6.7505e-07,-5.072,0.93246
14244,11.982,4,0,0.00028242,2822.3,9.3608e-05,0.0057335,9.2509e-05,-8.2511,-0.00028256,-2826.4,0.96954
14245,11.89,3.9091,0,0.00028478,2845.9,9.446e-05,0.005444,9.3167e-05,-9.7099,-0.00028495,-2850.7,0.9573
14246,11.89,4,0.05,8.7458e-07,8.7397,6.7157e-07,5.0459,-1.683e-12,4.9358e-06,-6.7156e-07,-5.0458,0.95712
14247,12.165,4,0,0.00027758,2773.9,9.1921e-05,0.0061813,9.106e-05,-6.4654,-0.00027769,-2777.1,0.99449
14248,12.074,3.9091,0,0.00027994,2797.4,9.2767e-05,0.0057962,9.1726e-05,-7.8166,-0.00028007,-2801.3,0.98215
14249,12.074,4,0.05,8.7015e-07,8.6955,6.6817e-07,5.0204,-1.7037e-12,3.9913e-06,-6.6816e-07,-5.0203,0.98197
14250,12.349,4,0,0.00027275,2725.6,9.0244e-05,0.0068285,8.9604e-05,-4.803,-0.00027283,-2728,1.0196
14251,12.257,3.9091,0,0.0002751,2749.1,9.1084e-05,0.006224,9.0278e-05,-6.0559,-0.00027521,-2752.2,1.0072
14252,12.257,4,0.05,8.658e-07,8.6521,6.6483e-07,4.9953,-2.6381e-12,4.1503e-06,-6.6483e-07,-4.9952,1.007
14253,12.532,4,0,0.00026793,2677.4,8.8578e-05,0.0079592,8.8144e-05,-3.2538,-0.00026798,-2679,1.0449
14254,12.441,3.9091,0,0.00027028,2700.9,8.9412e-05,0.0068791,8.8823e-05,-4.4165,-0.00027036,-2703.1,1.0324
14255,12.441,4,0.05,8.6154e-07,8.6095,6.6156e-07,4.9707,-1.7471e-12,4.0625e-06,-6.6155e-07,-4.9706,1.0322
14256,12.716,4,0,0.00026312,2629.4,8.6921e-05,0.010602,8.6679e-05,-1.8091,-0.00026315,-2630.3,1.0704
14257,12.624,3.9091,0,0.00026547,2652.9,8.7749e-05,0.0080564,8.7364e-05,-2.8883,-0.00026552,-2654.3,1.0578
14258,12.624,4,0.05,8.5736e-07,8.5676,6.5834e-07,4.9466,-1.7637e-12,2.3698e-06,-6.5834e-07,-4.9465,1.0576
14259,12.899,4,0,0.00025833,2581.5,8.5275e-05,0.026628,8.5209e-05,-0.47168,-0.00025834,-2581.8,1.0961
14260,12.808,3.9091,0,0.00026068,2605,8.6096e-05,0.011142,8.59e-05,-1.4629,-0.0002607,-2605.7,1.0834
14261,12.808,4,0.05,8.5325e-07,8.5266,6.5519e-07,4.9229,-2.6857e-12,1.3492e-06,-6.5519e-07,-4.9228,1.0832
14262,13.083,4,0,0.00025355,2533.8,8.3743e-05,0.83025,8.3631e-05,-0.0073127,-0.00025354,-2533.4,1.1219
14263,12.991,3.9091,0,0.00025589,2557.2,8.4458e-05,0.055087,8.4428e-05,-0.17038,-0.0002559,-2557.2,1.1091
14264,12.991,4,0.05,8.4921e-07,8.4862,6.5209e-07,4.8996,-1.7906e-12,1.7451e-06,-6.5209e-07,-4.8995,1.109
14265,13.266,4,0,0.00024879,2486.2,8.227e-05,2.0134,8.2002e-05,0.00015465,-0.00024876,-2485.2,1.148
14266,13.175,3.9091,0,0.00025113,2509.5,8.2967e-05,1.14,8.2815e-05,-0.0023001,-0.00025111,-2509,1.1351
14267,13.175,4,0.05,8.4522e-07,8.4464,6.4902e-07,4.8766,-8.9471e-13,2.7092e-06,-6.4903e-07,-4.8765,1.1349
14268,13.45,4,0,0.00024405,2438.8,8.0797e-05,3.1321,8.0381e-05,0.0021151,-0.00024399,-2437.2,1.1741
14269,13.358,3.9091,0,0.00024638,2462.1,8.1497e-05,2.3136,8.1189e-05,0.0017748,-0.00024634,-2460.9,1.1612
14270,13.358,4,0.05,8.413e-07,8.4072,6.4601e-07,4.8539,-1.8154e-12,3.7677e-06,-6.4601e-07,-4.8539,1.161
14271,13.633,4,0,0.00023932,2391.5,7.9325e-05,4.1889,7.8768e-05,0.0030621,-0.00023925,-2389.4,1.2005
14272,13.542,3.9091,0,0.00024164,2414.7,8.0027e-05,3.4216,7.9572e-05,0.0031253,-0.00024158,-2413,1.1874
14273,13.542,4,0.05,8.3743e-07,8.3685,6.4305e-07,4.8316,-2.7355e-12,4.3096e-06,-6.4304e-07,-4.8315,1.1873
14274,13.817,4,0,0.00023461,2344.4,7.7853e-05,5.1897,7.7163e-05,0.0036624,-0.00023452,-2341.8,1.227
14275,13.725,3.9091,0,0.00023692,2367.6,7.8557e-05,4.4693,7.7962e-05,0.0038572,-0.00023684,-2365.3,1.2139
14276,13.725,4,0.05,8.3361e-07,8.3303,6.4011e-07,4.8096,-1.835e-12,5.2913e-06,-6.4011e-07,-4.8095,1.2137
14277,14,4,0,0.00022991,2297.5,7.6383e-05,6.1406,7.5566e-05,0.0040849,-0.0002298,-2294.4,1.2537
14278,13.909,3.9091,0,0.00023222,2320.6,7.7087e-05,5.4628,7.6361e-05,0.0043537,-0.00023212,-2317.8,1.2405
14279,13.909,4,0.05,8.2984e-07,8.2927,6.3722e-07,4.7878,-1.8434e-12,5.8442e-06,-6.3721e-07,-4.7877,1.2403
14280,14.184,4,0,0.00022523,2250.7,7.4914e-05,7.0474,7.3977e-05,0.0044219,-0.00022511,-2247.2,1.2805
14281,14.092,3.9091,0,0.00022753,2273.7,7.562e-05,6.4082,7.4767e-05,0.0047005,-0.00022742,-2270.5,1.2672
14282,14.092,4,0.05,8.2611e-07,8.2554,6.3435e-07,4.7663,-2.762e-12,5.3468e-06,-6.3435e-07,-4.7662,1.267
14283,14.367,4,0,0.00022057,2204.1,7.3448e-05,7.916,7.2395e-05,0.0047263,-0.00022043,-2200.2,1.3075
14284,14.276,3.9091,0,0.00022286,2227.1,7.4154e-05,7.3115,7.3182e-05,0.0050213,-0.00022273,-2223.4,1.2941
14285,14.276,4,0.05,8.2241e-07,8.2185,6.3151e-07,4.745,-4.27e-14,5.1991e-06,-6.3151e-07,-4.7449,1.2939
14286,14.551,4,0,0.00021592,2157.7,7.1985e-05,8.7515,7.0821e-05,0.0049819,-0.00021577,-2153.3,1.3346
14287,14.459,3.9091,0,0.00021821,2180.6,7.2691e-05,8.1782,7.1603e-05,0.0053028,-0.00021807,-2176.5,1.3211
14288,14.459,4,0.05,8.1877e-07,8.182,6.2872e-07,4.7239,-3.6865e-12,5.8282e-06,-6.2871e-07,-4.7239,1.321
14289,14.734,4,0,0.0002113,2111.5,7.0526e-05,9.5592,6.9254e-05,0.0052081,-0.00021113,-2106.7,1.3619
14290,14.642,3.9091,0,0.00021357,2134.3,7.1231e-05,9.0138,7.0032e-05,0.0055279,-0.00021342,-2129.7,1.3483
14291,14.642,4,0.05,8.1516e-07,8.146,6.2594e-07,4.7031,-2.7871e-12,4.1551e-06,-6.2594e-07,-4.7031,1.3482
14292,14.918,4,0,0.00020669,2065.5,6.9071e-05,10.344,6.7695e-05,0.005435,-0.00020651,-2060.3,1.3893
14293,14.826,3.9091,0,0.00020896,2088.1,6.9776e-05,9.8236,6.8469e-05,0.0057544,-0.00020879,-2083.2,1.3757
14294,14.826,4,0.05,8.1158e-07,8.1102,6.2319e-07,4.6824,-9.7447e-13,3.5665e-06,-6.2319e-07,-4.6824,1.3755
14295,15.101,4,0,0.0002021,2019.6,6.762e-05,11.111,6.6142e-05,0.0056668,-0.00020191,-2014,1.4168
14296,15.009,3.9091,0,0.00020436,2042.2,6.8324e-05,10.612,6.6912e-05,0.005983,-0.00020418,-2036.8,1.4031
14297,15.009,4,0.05,8.0804e-07,8.0748,6.2048e-07,4.662,-1.8897e-12,2.5604e-06,-6.2047e-07,-4.662,1.403
14298,15.285,4,0,0.00019753,1973.9,6.6175e-05,11.865,6.4596e-05,0.0058885,-0.00019732,-1968,1.4445
14299,15.193,3.9091,0,0.00019978,1996.4,6.6878e-05,11.386,6.5363e-05,0.0062199,-0.00019958,-1990.7,1.4307
14300,15.193,4,0.05,8.0454e-07,8.0398,6.1779e-07,4.6418,-9.8915e-13,2.1039e-06,-6.1778e-07,-4.6418,1.4306
14301,15.468,4,0,0.00019298,1928.4,6.4735e-05,12.61,6.3057e-05,0.0060998,-0.00019276,-1922.1,1.4723
14302,15.376,3.9091,0,0.00019522,1950.9,6.5436e-05,12.148,6.382e-05,0.0064318,-0.00019501,-1944.7,1.4585
14303,15.376,4,0.05,8.0107e-07,8.0052,6.1513e-07,4.6218,-9.9444e-13,3.601e-06,-6.1512e-07,-4.6218,1.4584
14304,15.652,4,0,0.00018845,1883.2,6.3301e-05,13.352,6.1525e-05,0.0063181,-0.00018821,-1876.4,1.5003
14305,15.56,3.9091,0,0.00019068,1905.5,6.4001e-05,12.903,6.2284e-05,0.0066505,-0.00019046,-1899,1.4864
14306,15.56,4,0.05,7.9764e-07,7.9709,6.1249e-07,4.602,-1.9087e-12,2.7624e-06,-6.1248e-07,-4.602,1.4862
14307,15.835,4,0,0.00018393,1838.1,6.1874e-05,14.094,5.9999e-05,0.0065304,-0.00018369,-1831,1.5283
14308,15.743,3.9091,0,0.00018616,1860.3,6.2572e-05,13.657,6.0755e-05,0.0068769,-0.00018592,-1853.4,1.5144
14309,15.743,4,0.05,7.9424e-07,7.937,6.0988e-07,4.5824,-9.4848e-14,1.0589e-06,-6.0988e-07,-4.5824,1.5143
14310,16.019,4,0,0.00017944,1793.2,6.0454e-05,14.841,5.848e-05,0.0067516,-0.00017918,-1785.7,1.5565
14311,15.927,3.9091,0,0.00018166,1815.3,6.115e-05,14.414,5.9232e-05,0.0070848,-0.00018141,-1808.1,1.5425
14312,15.927,4,0.05,7.9088e-07,7.9033,6.073e-07,4.563,-1.0111e-12,1.6223e-06,-6.0729e-07,-4.563,1.5424
14313,16.202,4,0,0.00017497,1748.5,5.9041e-05,15.598,5.6966e-05,0.0069939,-0.0001747,-1740.6,1.5848
14314,16.11,3.9091,0,0.00017718,1770.5,5.9735e-05,15.179,5.7715e-05,0.0073292,-0.00017691,-1762.9,1.5708
14315,16.11,4,0.05,7.8754e-07,7.87,6.0473e-07,4.5438,-1.4707e-12,2.0247e-06,-6.0474e-07,-4.5437,1.5706
14316,16.386,4,0,0.00017052,1704,5.7637e-05,16.37,5.5459e-05,0.0072306,-0.00017023,-1695.8,1.6133
14317,16.294,3.9091,0,0.00017272,1726,5.8327e-05,15.956,5.6205e-05,0.00758,-0.00017244,-1717.9,1.5991
14318,16.294,4,0.05,7.8425e-07,7.8371,6.0221e-07,4.5248,-1.4839e-12,2.5423e-06,-6.022e-07,-4.5247,1.599
14319,16.569,4,0,0.00016609,1659.7,5.6241e-05,17.16,5.3958e-05,0.0074704,-0.00016579,-1651.1,1.6418
14320,16.477,3.9091,0,0.00016828,1681.6,5.6928e-05,16.75,5.47e-05,0.0078151,-0.00016799,-1673.2,1.6276
14321,16.477,4,0.05,7.8099e-07,7.8045,5.997e-07,4.5059,-1.3069e-13,2.4938e-06,-5.997e-07,-4.5059,1.6275
14322,16.753,4,0,0.00016168,1615.7,5.4854e-05,17.975,5.2462e-05,0.0077329,-0.00016137,-1606.6,1.6705
14323,16.661,3.9091,0,0.00016386,1637.5,5.5538e-05,17.567,5.3201e-05,0.0080732,-0.00016355,-1628.6,1.6562
14324,16.661,4,0.05,7.7776e-07,7.7723,5.9723e-07,4.4873,-5.9344e-13,3.7274e-06,-5.9722e-07,-4.4873,1.6561
14325,16.936,4,0,0.00015729,1571.8,5.3476e-05,18.819,5.0973e-05,0.0080169,-0.00015696,-1562.4,1.6992
14326,16.844,3.9091,0,0.00015946,1593.5,5.4158e-05,18.411,5.1708e-05,0.0083533,-0.00015914,-1584.2,1.6849
14327,16.844,4,0.05,7.7457e-07,7.7404,5.9478e-07,4.4689,-1.0611e-12,6.7289e-06,-5.9477e-07,-4.4689,1.6848
14328,17.119,4,0,0.00015293,1528.2,5.2108e-05,19.697,4.9488e-05,0.0083111,-0.00015258,-1518.3,1.7281
14329,17.028,3.9091,0,0.00015509,1549.8,5.2787e-05,19.287,5.0221e-05,0.0086557,-0.00015475,-1540.1,1.7138
14330,17.028,4,0.05,7.7143e-07,7.709,5.9236e-07,4.4508,-1.5283e-12,5.9494e-06,-5.9236e-07,-4.4507,1.7136
14331,17.303,4,0,0.00014858,1484.8,5.0751e-05,20.614,4.8009e-05,0.0086141,-0.00014822,-1474.4,1.7571
14332,17.211,3.9091,0,0.00015073,1506.3,5.1426e-05,20.201,4.8739e-05,0.0089572,-0.00015038,-1496.1,1.7427
14333,17.211,4,0.05,7.6833e-07,7.678,5.8998e-07,4.4329,-1.0787e-12,5.386e-06,-5.8998e-07,-4.4329,1.7426
14334,17.486,4,0,0.00014426,1441.6,4.9406e-05,21.577,4.6535e-05,0.0089375,-0.00014388,-1430.7,1.7862
14335,17.395,3.9091,0,0.0001464,1463,5.0077e-05,21.158,4.7262e-05,0.0092782,-0.00014603,-1452.3,1.7717
14336,17.395,4,0.05,7.6527e-07,7.6474,5.8763e-07,4.4153,-6.3946e-13,4.8548e-06,-5.8763e-07,-4.4152,1.7716
14337,17.67,4,0,0.00013997,1398.7,4.8071e-05,22.59,4.5066e-05,0.0092761,-0.00013957,-1387.3,1.8153
14338,17.578,3.9091,0,0.00014209,1420,4.8739e-05,22.165,4.579e-05,0.0096234,-0.0001417,-1408.7,1.8008
14339,17.578,4,0.05,7.6226e-07,7.6173,5.8532e-07,4.3979,-1.1058e-12,6.3692e-06,-5.8532e-07,-4.3978,1.8007
14340,17.853,4,0,0.00013569,1356,4.675e-05,23.661,4.3602e-05,0.0096376,-0.00013527,-1344,1.8446
14341,17.762,3.9091,0,0.00013781,1377.1,4.7413e-05,23.227,4.4323e-05,0.0099733,-0.0001374,-1365.4,1.83
14342,17.762,4,0.05,7.5929e-07,7.5877,5.8304e-07,4.3808,-6.6624e-13,6.7951e-06,-5.8304e-07,-4.3807,1.8299
14343,18.037,4,0,0.00013144,1313.5,4.5441e-05,24.795,4.2142e-05,0.010032,-0.000131,-1300.9,1.874
14344,17.945,3.9091,0,0.00013355,1334.6,4.61e-05,24.352,4.286e-05,0.010365,-0.00013312,-1322.2,1.8594
14345,17.945,4,0.05,7.5638e-07,7.5586,5.808e-07,4.364,-2.2183e-13,8.339e-06,-5.808e-07,-4.3639,1.8593
14346,18.22,4,0,0.00012721,1271.3,4.4146e-05,26,4.0687e-05,0.010444,-0.00012675,-1258.1,1.9034
14347,18.129,3.9091,0,0.00012931,1292.2,4.4801e-05,25.545,4.1402e-05,0.010785,-0.00012886,-1279.3,1.8888
14348,18.129,4,0.05,7.5352e-07,7.53,5.7862e-07,4.3475,-2.4164e-13,4.3853e-06,-5.7861e-07,-4.3474,1.8887
14349,18.404,4,0,0.00012301,1229.3,4.2865e-05,27.282,3.9236e-05,0.010882,-0.00012252,-1215.4,1.9329
14350,18.312,3.9091,0,0.0001251,1250.1,4.3516e-05,26.814,3.9949e-05,0.011212,-0.00012462,-1236.5,1.9182
14351,18.312,4,0.05,7.5073e-07,7.5021,5.7647e-07,4.3314,-2.607e-13,5.2e-06,-5.7647e-07,-4.3313,1.9181
14352,18.587,4,0,0.00011883,1187.5,4.16e-05,28.651,3.7788e-05,0.011361,-0.00011832,-1172.9,1.9625
14353,18.496,3.9091,0,0.00012091,1208.3,4.2246e-05,28.168,3.8499e-05,0.011683,-0.00012041,-1194,1.9478
14354,18.496,4,0.05,7.48e-07,7.4748,5.7437e-07,4.3156,-7.3049e-13,4.1289e-06,-5.7437e-07,-4.3156,1.9477
14355,18.771,4,0,0.00011468,1146,4.0351e-05,30.113,3.6345e-05,0.011883,-0.00011414,-1130.7,1.9922
14356,18.679,3.9091,0,0.00011675,1166.7,4.0992e-05,29.613,3.7053e-05,0.012195,-0.00011622,-1151.6,1.9775
14357,18.679,4,0.05,7.4533e-07,7.4482,5.7233e-07,4.3002,-7.4084e-13,6.2467e-06,-5.7232e-07,-4.3002,1.9774
14358,18.954,4,0,0.00011056,1104.8,3.9119e-05,31.678,3.4904e-05,0.012442,-0.00010998,-1088.6,2.022
14359,18.863,3.9091,0,0.00011261,1125.4,3.9755e-05,31.16,3.561e-05,0.012752,-0.00011205,-1109.5,2.0072
14360,18.863,4,0.05,7.4275e-07,7.4224,5.7034e-07,4.2853,-2.9222e-13,5.6434e-06,-5.7034e-07,-4.2853,2.0071
14361,19.138,4,0,0.00010646,1063.8,3.7905e-05,33.355,3.3467e-05,0.01304,-0.00010585,-1046.8,2.0518
14362,19.046,3.9091,0,0.00010851,1084.3,3.8536e-05,32.817,3.417e-05,0.01334,-0.00010791,-1067.5,2.037
14363,19.046,4,0.05,7.4025e-07,7.3974,5.6842e-07,4.2709,-7.4814e-13,4.901e-06,-5.6842e-07,-4.2709,2.0369
14364,19.321,4,0,0.00010239,1023.2,3.671e-05,35.155,3.2033e-05,0.013694,-0.00010174,-1005.1,2.0818
14365,19.229,3.9091,0,0.00010442,1043.5,3.7336e-05,34.596,3.2733e-05,0.013981,-0.00010379,-1025.8,2.0669
14366,19.229,4,0.05,7.3784e-07,7.3733,5.6657e-07,4.257,-1.222e-12,3.3203e-06,-5.6657e-07,-4.257,2.0668
14367,19.505,4,0,9.8344e-05,982.76,3.5534e-05,37.088,3.06e-05,0.014401,-9.766e-05,-963.68,2.1117
14368,19.413,3.9091,0,0.00010037,1003,3.6156e-05,36.505,3.1299e-05,0.014678,-9.97e-05,-984.26,2.0968
14369,19.413,4,0.05,7.3553e-07,7.3503,5.648e-07,4.2437,-3.4691e-13,6.0239e-06,-5.648e-07,-4.2437,2.0967
14370,19.688,4,0,9.433e-05,942.65,3.4381e-05,39.166,2.917e-05,0.015173,-9.3602e-05,-922.45,2.1418
14371,19.596,3.9091,0,9.6347e-05,962.81,3.4996e-05,38.558,2.9867e-05,0.015426,-9.5633e-05,-942.94,2.1268
14372,19.596,4,0.05,7.3333e-07,7.3283,5.6311e-07,4.231,-3.7067e-13,5.3374e-06,-5.6311e-07,-4.231,2.1267
14373,19.872,4,0,9.0346e-05,902.84,3.3249e-05,41.402,2.7741e-05,0.016027,-8.957e-05,-881.41,2.1719
14374,19.78,3.9091,0,9.2353e-05,922.89,3.386e-05,40.766,2.8436e-05,0.016259,-9.1591e-05,-901.82,2.1569
14375,19.78,4,0.05,7.3125e-07,7.3075,5.6151e-07,4.219,-3.8782e-13,5.2274e-06,-5.6151e-07,-4.2189,2.1568
14376,20.055,4,0,8.6393e-05,863.33,3.2142e-05,43.809,2.6313e-05,0.016959,-8.5564e-05,-840.59,2.2021
14377,19.963,3.9091,0,8.8389e-05,883.28,3.2746e-05,43.143,2.7007e-05,0.01717,-8.7576e-05,-860.91,2.187
14378,19.963,4,0.05,7.293e-07,7.288,5.6001e-07,4.2077,-4.1693e-13,4.5593e-06,-5.6001e-07,-4.2077,2.187
14379,20.239,4,0,8.2472e-05,824.15,3.106e-05,46.401,2.4886e-05,0.017985,-8.1584e-05,-799.96,2.2323
14380,20.147,3.9091,0,8.4458e-05,844,3.1658e-05,45.703,2.5578e-05,0.018162,-8.3587e-05,-820.21,2.2172
14381,20.147,4,0.05,7.275e-07,7.27,5.5863e-07,4.1973,-4.1708e-13,4.8971e-06,-5.5863e-07,-4.1973,2.2172
14382,20.422,4,0,7.8584e-05,785.3,3.0004e-05,49.195,2.3459e-05,0.019129,-7.7631e-05,-759.54,2.2626
14383,20.33,3.9091,0,8.056e-05,805.04,3.0597e-05,48.462,2.415e-05,0.019265,-7.9626e-05,-779.71,2.2475
14384,20.33,4,0.05,7.2586e-07,7.2536,5.5737e-07,4.1879,-4.3827e-13,3.4005e-06,-5.5737e-07,-4.1878,2.2474
14385,20.606,4,0,7.4731e-05,746.8,2.8977e-05,52.207,2.2032e-05,0.020407,-7.3706e-05,-719.31,2.2929
14386,20.514,3.9091,0,7.6696e-05,766.43,2.9564e-05,51.436,2.2721e-05,0.020493,-7.5691e-05,-739.41,2.2778
14387,20.514,4,0.05,7.244e-07,7.239,5.5625e-07,4.1794,-6.9953e-13,2.8559e-07,-5.5625e-07,-4.1794,2.2777
14388,20.789,4,0,7.0915e-05,708.66,2.7981e-05,55.455,2.0603e-05,0.021837,-6.9808e-05,-679.29,2.3233
14389,20.697,3.9091,0,7.2869e-05,728.18,2.8561e-05,54.642,2.1291e-05,0.021868,-7.1785e-05,-699.31,2.3082
14390,20.697,4,0.05,7.2314e-07,7.2264,5.5528e-07,4.1722,-4.6314e-13,-1.628e-06,-5.5528e-07,-4.1722,2.3081
14391,20.973,4,0,6.7137e-05,670.9,2.7016e-05,58.959,1.9172e-05,0.023447,-6.5939e-05,-639.47,2.3537
14392,20.881,3.9091,0,6.9079e-05,690.32,2.7589e-05,58.101,1.986e-05,0.023401,-6.7907e-05,-659.42,2.3386
14393,20.881,4,0.05,7.2211e-07,7.2161,5.5449e-07,4.1662,-4.7586e-13,-1.6813e-06,-5.5449e-07,-4.1662,2.3385
14394,21.156,4,0,6.3399e-05,633.55,2.6086e-05,62.74,1.7739e-05,0.025276,-6.2098e-05,-599.84,2.3842
14395,21.064,3.9091,0,6.533e-05,652.85,2.6651e-05,61.831,1.8426e-05,0.025138,-6.4058e-05,-619.72,2.369
14396,21.064,4,0.05,7.2134e-07,7.2084,5.539e-07,4.1618,-4.8453e-13,1.7078e-07,-5.539e-07,-4.1618,2.3689
14397,21.34,4,0,5.9704e-05,596.63,2.5192e-05,66.819,1.6302e-05,0.027364,-5.8286e-05,-560.4,2.4147
14398,21.248,3.9091,0,6.1623e-05,615.8,2.575e-05,65.855,1.6988e-05,0.027112,-6.0237e-05,-580.22,2.3995
14399,21.248,4,0.05,7.2086e-07,7.2036,5.5353e-07,4.159,-4.6055e-13,-1.1845e-07,-5.5353e-07,-4.159,2.3994
14400,21.523,4,0,5.6056e-05,560.18,2.4336e-05,71.222,1.4861e-05,0.029774,-5.4504e-05,-521.15,2.4453
14401,21.431,3.9091,0,5.7961e-05,579.21,2.4886e-05,70.196,1.5547e-05,0.029371,-5.6447e-05,-540.9,2.43
14402,21.431,4,0.05,7.207e-07,7.202,5.5341e-07,4.1581,-4.4433e-13,4.1921e-07,-5.5341e-07,-4.1581,2.43
14403,21.706,4,0,5.2458e-05,524.22,2.3521e-05,75.974,1.3414e-05,0.032587,-5.0751e-05,-482.08,2.4759
14404,21.615,3.9091,0,5.4348e-05,543.1,2.4062e-05,74.877,1.41e-05,0.031993,-5.2685e-05,-501.77,2.4606
14405,21.615,4,0.05,7.2091e-07,7.2041,5.5357e-07,4.1593,-3.7259e-13,-1.7165e-06,-5.5357e-07,-4.1593,2.4606
14406,21.89,4,0,4.8915e-05,488.81,2.275e-05,81.102,1.196e-05,0.035899,-4.7028e-05,-443.18,2.5065
14407,21.798,3.9091,0,5.0788e-05,507.53,2.328e-05,79.925,1.2647e-05,0.035065,-4.8953e-05,-462.81,2.4912
14408,21.798,4,0.05,7.2155e-07,7.2105,5.5406e-07,4.163,-3.5458e-13,2.9108e-06,-5.5406e-07,-4.163,2.4912
14409,22.073,4,0,4.5433e-05,454.01,2.2024e-05,86.634,1.0499e-05,0.039857,-4.3334e-05,-404.44,2.5372
14410,21.982,3.9091,0,4.7286e-05,472.53,2.2543e-05,85.365,1.1187e-05,0.038692,-4.5251e-05,-424.01,2.5219
14411,21.982,4,0.05,7.2267e-07,7.2217,5.5492e-07,4.1695,-5.9487e-13,-4.6957e-06,-5.5492e-07,-4.1695,2.5218
14412,22.257,4,0,4.2018e-05,419.89,2.1346e-05,92.598,9.028e-06,0.044671,-3.9669e-05,-365.85,2.5678
14413,22.165,3.9091,0,4.3848e-05,438.18,2.1853e-05,91.225,9.7177e-06,0.043072,-4.1577e-05,-385.37,2.5525
14414,22.165,4,0.05,7.2435e-07,7.2385,5.5621e-07,4.1791,-5.999e-13,-1.8529e-06,-5.5621e-07,-4.1791,2.5525
14415,22.44,4,0,3.8681e-05,386.55,2.0719e-05,99.023,7.5463e-06,0.050657,-3.6033e-05,-327.39,2.5986
14416,22.349,3.9091,0,4.0483e-05,404.55,2.1212e-05,97.53,8.2382e-06,0.048439,-3.7932e-05,-346.85,2.5832
14417,22.349,4,0.05,7.2665e-07,7.2615,5.5798e-07,4.1924,-3.3902e-13,1.2631e-06,-5.5798e-07,-4.1924,2.5832
14418,22.624,4,0,3.5435e-05,354.1,2.0143e-05,105.94,6.052e-06,0.058229,-3.2423e-05,-289.03,2.6293
14419,22.532,3.9091,0,3.7202e-05,371.76,2.0622e-05,104.31,6.7468e-06,0.055213,-3.4312e-05,-308.45,2.614
14420,22.532,4,0.05,7.2968e-07,7.2918,5.603e-07,4.2099,-2.2016e-13,4.9997e-06,-5.603e-07,-4.2099,2.6139
14421,22.807,4,0,3.2296e-05,322.73,1.9622e-05,113.36,4.5435e-06,0.06839,-2.8837e-05,-250.74,2.66
14422,22.716,3.9091,0,3.4019e-05,339.95,2.0084e-05,111.58,5.2419e-06,0.063834,-3.0718e-05,-270.12,2.6447
14423,22.716,4,0.05,7.3352e-07,7.3301,5.6325e-07,4.232,-1.4481e-13,2.6923e-06,-5.6325e-07,-4.232,2.6447
14424,22.991,4,0,2.9288e-05,292.67,1.9155e-05,121.32,3.0187e-06,0.08156,-2.5273e-05,-212.49,2.6908
14425,22.899,3.9091,0,3.0954e-05,309.32,1.9598e-05,119.37,3.7218e-06,0.07594,-2.7144e-05,-231.84,2.6755
14426,22.899,4,0.05,7.3826e-07,7.3775,5.6689e-07,4.2594,-1.2789e-13,6.5626e-06,-5.6689e-07,-4.2594,2.6754
14427,23.174,4,0,2.6445e-05,264.26,1.8742e-05,129.83,1.4764e-06,0.10392,-2.1725e-05,-174.23,2.7216
14428,23.083,3.9091,0,2.8035e-05,280.16,1.9166e-05,127.68,2.1846e-06,0.090899,-2.3589e-05,-193.56,2.7063
14429,23.083,4,0.05,7.4399e-07,7.4347,5.7129e-07,4.2925,2.3164e-14,7.7967e-06,-5.7129e-07,-4.2924,2.7062
14430,23.358,4,0,2.3814e-05,237.98,1.8382e-05,138.89,-8.6161e-08,0.12647,-1.819e-05,-135.9,2.7524
14431,23.266,3.9091,0,2.5304e-05,252.86,1.8786e-05,136.54,6.296e-07,0.12213,-2.0047e-05,-155.23,2.7371
14432,23.266,4,0.05,7.5077e-07,7.5025,5.765e-07,4.3316,1.7101e-13,6.9107e-06,-5.7649e-07,-4.3316,2.737
14433,23.541,4,0,2.1467e-05,214.52,1.8073e-05,148.52,-1.6644e-06,0.22148,-1.4664e-05,-97.45,2.7833
14434,23.45,3.9091,0,2.2815e-05,227.99,1.8455e-05,145.92,-9.4727e-07,0.13949,-1.6513e-05,-116.81,2.7679
14435,23.45,4,0.05,7.586e-07,7.5808,5.8251e-07,4.3768,7.0429e-14,6.0303e-06,-5.8251e-07,-4.3768,2.7678
14436,23.725,4,0,1.9497e-05,194.84,1.7814e-05,158.65,-3.2722e-06,0.21583,-1.114e-05,-58.902,2.8141
14437,23.633,3.9091,0,2.0652e-05,206.38,1.8173e-05,155.89,-2.5318e-06,0.32351,-1.2988e-05,-78.238,2.7987
14438,23.633,4,0.05,7.6772e-07,7.6719,5.8952e-07,4.4294,1.2512e-13,8.3994e-06,-5.8952e-07,-4.4294,2.7987
14439,23.817,3.9091,0,1.8925e-05,189.12,1.7936e-05,166.21,-4.1591e-06,0.19701,-9.4647e-06,-39.667,2.8295
14440,23.817,4,0.05,7.8285e-07,7.8231,6.0113e-07,4.5167,2.7883e-13,7.7767e-06,-6.0113e-07,-4.5166,2.8295
14441,23.908,4,0,1.8076e-05,180.64,1.7595e-05,168.6,-4.7863e-06,0.43282,-7.8183e-06,-22.349,2.8449
14442,3.5419,3.8182,0,0.0012715,12706,0.00047941,739.83,0.00038501,30.592,-0.0012569,-12306,0.086729
14443,3.4501,3.7273,0,0.0014128,14118,0.00054124,901.05,0.00042008,-9.2893,-0.0013954,-13650,0.081792
14444,3.4501,3.8182,0.05,8.5454e-05,853.95,6.5618e-05,493.03,-7.3714e-11,0.00041358,-6.5618e-05,-493.03,0.081091
14445,3.7254,3.8182,0,0.00098194,9812.6,0.00034398,250.55,0.00031313,18.785,-0.00097716,-9675.9,0.098417
14446,3.6336,3.7273,0,0.0010953,10946,0.00038901,343.12,0.00034603,20.137,-0.0010888,-10760,0.092998
14447,3.6336,3.8182,0.05,4.0461e-05,404.33,3.1069e-05,233.44,-5.2314e-11,0.00021961,-3.1069e-05,-233.44,0.092427
14448,3.9088,3.8182,0,0.00082324,8226.8,0.00027529,11.922,0.00026664,-53.01,-0.00082392,-8247.1,0.11071
14449,3.8171,3.7273,0,0.00090515,9045.3,0.00030026,13.16,0.00029728,-9.2248,-0.00090508,-9043.3,0.1049
14450,3.8171,3.8182,0.05,2.0737e-05,207.22,1.5923e-05,119.64,-1.8591e-11,0.00031462,-1.5923e-05,-119.64,0.10443
14451,4.0923,3.8182,0,0.00072594,7254.4,0.00025031,6.096,0.00022178,-208.28,-0.00072914,-7353.1,0.12352
14452,4.0006,3.7273,0,0.00078554,7850,0.00026931,5.5088,0.00024257,-195.4,-0.00078858,-7943,0.11739
14453,4.0006,3.8182,0.05,1.4216e-05,142.07,1.0916e-05,82.022,-1.1875e-11,0.00022834,-1.0916e-05,-82.021,0.11699
14454,4.2758,3.8182,0,0.00065889,6584.4,0.00023263,2.2454,0.00019152,-306.65,-0.00066353,-6731.2,0.1368
14455,4.1841,3.7273,0,0.00070305,7025.7,0.00024766,1.954,0.0002053,-316.3,-0.00070786,-7177.5,0.13039
14456,4.1841,3.8182,0.05,1.0569e-05,105.62,8.1159e-06,60.98,5.5902e-13,0.00027297,-8.1159e-06,-60.979,0.13005
14457,4.4593,3.8182,0,0.00061046,6100.4,0.00021922,1.7796,0.00017093,-361.07,-0.00061576,-6272,0.15052
14458,4.3676,3.7273,0,0.00064367,6432.3,0.00023132,1.7662,0.0001799,-384.62,-0.00064931,-6615,0.14386
14459,4.3676,3.8182,0.05,8.2957e-06,82.9,6.3701e-06,47.862,1.1558e-11,0.00023575,-6.37e-06,-47.862,0.14355
14460,4.6428,3.8182,0,0.00057397,5735.8,0.00020837,1.1548,0.00015666,-387.34,-0.00057955,-5919,0.16465
14461,4.551,3.7273,0,0.00059924,5988.2,0.00021824,1.1415,0.0001623,-419.13,-0.00060524,-6186.1,0.15776
14462,4.551,3.8182,0.05,6.7174e-06,67.128,5.1582e-06,38.757,9.0456e-12,0.00024647,-5.1582e-06,-38.756,0.15748
14463,4.8263,3.8182,0,0.00054569,5453.1,0.00019936,0.85185,0.00014667,-395.05,-0.00055131,-5639.4,0.17916
14464,4.7345,3.7273,0,0.00056511,5647.2,0.0002075,0.86495,0.00015001,-431.11,-0.00057118,-5849.9,0.17207
14465,4.7345,3.8182,0.05,5.5464e-06,55.426,4.2589e-06,32,1.5411e-11,0.00020625,-4.2589e-06,-32,0.17181
14466,5.0097,3.8182,0,0.00052324,5228.8,0.00019171,0.62122,0.00013962,-390.77,-0.00052877,-5412.8,0.19405
14467,4.918,3.7273,0,0.00053831,5379.3,0.00019849,0.63341,0.00014139,-428.43,-0.0005443,-5580.4,0.18675
14468,4.918,3.8182,0.05,4.6419e-06,46.387,3.5644e-06,26.782,8.5101e-12,0.00018998,-3.5644e-06,-26.781,0.18651
14469,5.1932,3.8182,0,0.00050505,5047.1,0.00018512,0.46229,0.00013463,-378.87,-0.00051042,-5225.6,0.20929
14470,5.1015,3.7273,0,0.00051686,5165.1,0.00019081,0.47395,0.00013534,-416.35,-0.00052268,-5360.4,0.20181
14471,5.1015,3.8182,0.05,3.9271e-06,39.244,3.0155e-06,22.657,1.2113e-11,0.00015586,-3.0155e-06,-22.657,0.20158
14472,5.3767,3.8182,0,0.00049005,4897.1,0.00017936,0.34464,0.00013109,-362.31,-0.0004952,-5068,0.22487
14473,5.285,3.7273,0,0.00049941,4990.7,0.00018418,0.35353,0.0001311,-398.48,-0.00050499,-5177.8,0.21721
14474,5.285,3.8182,0.05,3.3551e-06,33.528,2.5763e-06,19.357,7.8986e-12,0.00011765,-2.5763e-06,-19.357,0.21699
14475,5.5602,3.8182,0,0.00047745,4771.2,0.00017427,0.25783,0.00012857,-343.07,-0.00048235,-4933.3,0.24079
14476,5.4684,3.7273,0,0.00048497,4846.4,0.00017839,0.26427,0.00012814,-377.27,-0.00049028,-5023.8,0.23296
14477,5.4684,3.8182,0.05,2.8945e-06,28.925,2.2226e-06,16.7,8.8087e-12,9.5683e-05,-2.2226e-06,-16.7,0.23274
14478,5.7437,3.8182,0,0.00046668,4663.6,0.00016972,0.193,0.00012677,-322.52,-0.00047132,-4816.4,0.25703
14479,5.6519,3.7273,0,0.00047281,4724.9,0.00017327,0.19731,0.00012608,-354.37,-0.00047784,-4892,0.24904
14480,5.6519,3.8182,0.05,2.5226e-06,25.208,1.937e-06,14.554,4.3795e-12,0.00010156,-1.937e-06,-14.554,0.24882
14481,5.9271,3.8182,0,0.00045731,4570,0.00016561,0.14453,0.00012546,-301.54,-0.00046169,-4713.2,0.27358
14482,5.8354,3.7273,0,0.0004624,4620.8,0.0001687,0.14718,0.00012464,-330.91,-0.00046714,-4777.3,0.26544
14483,5.8354,3.8182,0.05,2.2222e-06,22.206,1.7063e-06,12.821,4.5105e-12,7.8536e-05,-1.7063e-06,-12.821,0.26522
14484,6.1106,3.8182,0,0.00044902,4487.1,0.00016187,0.1082,0.0001245,-280.74,-0.00045313,-4620.8,0.29045
14485,6.0189,3.7273,0,0.00045333,4530.2,0.00016459,0.10962,0.00012363,-307.62,-0.00045778,-4676.1,0.28215
14486,6.0189,3.8182,0.05,1.9796e-06,19.782,1.5201e-06,11.421,3.0264e-12,5.633e-05,-1.5201e-06,-11.421,0.28194
14487,6.2941,3.8182,0,0.00044155,4412.5,0.00015843,0.080981,0.00012375,-260.5,-0.0004454,-4536.9,0.30763
14488,6.2024,3.7273,0,0.00044528,4449.8,0.00016084,0.081518,0.0001229,-284.97,-0.00044944,-4585.3,0.29917
14489,6.2024,3.8182,0.05,1.7839e-06,17.827,1.3698e-06,10.293,2.2087e-12,3.9205e-05,-1.3698e-06,-10.292,0.29896
14490,6.4776,3.8182,0,0.00043472,4344.2,0.00015524,0.060587,0.00012314,-241.09,-0.00043832,-4459.7,0.3251
14491,6.3858,3.7273,0,0.00043802,4377.2,0.0001574,0.06051,0.00012235,-263.28,-0.0004419,-4502.8,0.31649
14492,6.3858,3.8182,0.05,1.6263e-06,16.252,1.2488e-06,9.3831,-5.2615e-13,4.5688e-05,-1.2488e-06,-9.3829,0.31629
14493,6.6611,3.8182,0,0.00042837,4280.8,0.00015225,0.045321,0.00012261,-222.65,-0.00043172,-4387.7,0.34287
14494,6.5693,3.7273,0,0.00043136,4310.6,0.0001542,0.044834,0.0001219,-242.71,-0.00043497,-4426.8,0.33412
14495,6.5693,3.8182,0.05,1.4994e-06,14.983,1.1513e-06,8.6507,-1.2421e-12,2.946e-05,-1.1513e-06,-8.6506,0.33391
14496,6.8445,3.8182,0,0.00042239,4221,0.00014944,0.03391,0.00012212,-205.24,-0.00042551,-4319.9,0.36093
14497,6.7528,3.7273,0,0.00042515,4248.6,0.00015122,0.033162,0.00012149,-223.35,-0.00042851,-4355.8,0.35203
14498,6.7528,3.8182,0.05,1.3971e-06,13.962,1.0728e-06,8.0609,4.8854e-13,2.9403e-05,-1.0728e-06,-8.0607,0.35182
14499,7.028,3.8182,0,0.0004167,4164.1,0.00014676,0.025399,0.00012162,-188.91,-0.00041959,-4255.3,0.37928
14500,6.9363,3.7273,0,0.00041929,4190,0.00014841,0.024498,0.00012109,-205.24,-0.0004224,-4288.8,0.37023
14501,6.9363,3.8182,0.05,1.3147e-06,13.138,1.0095e-06,7.5853,-1.6511e-12,1.7233e-05,-1.0095e-06,-7.5852,0.37003
14502,7.2115,3.8182,0,0.00041121,4109.3,0.00014421,0.019068,0.0001211,-173.66,-0.00041389,-4193.3,0.3979
14503,7.1198,3.7273,0,0.00041369,4134,0.00014574,0.018093,0.00012067,-188.38,-0.00041657,-4225,0.38872
14504,7.1198,3.8182,0.05,1.2481e-06,12.472,9.5839e-07,7.2009,-1.8882e-12,1.4609e-05,-9.5838e-07,-7.2009,0.38852
14505,7.395,3.8182,0,0.00040588,4056,0.00014176,0.014377,0.00012054,-159.44,-0.00040836,-4133.4,0.41681
14506,7.3032,3.7273,0,0.00040828,4080,0.0001432,0.01338,0.00012021,-172.71,-0.00041094,-4163.6,0.40749
14507,7.3032,3.8182,0.05,1.194e-06,11.932,9.1688e-07,6.8891,-1.0767e-12,1.3477e-05,-9.1687e-07,-6.889,0.40729
14508,7.5785,3.8182,0,0.00040067,4004,0.0001394,0.01092,0.00011994,-146.24,-0.00040296,-4075.1,0.43599
14509,7.4867,3.7273,0,0.00040302,4027.4,0.00014076,0.0099384,0.0001197,-158.21,-0.00040547,-4104.1,0.42653
14510,7.4867,3.8182,0.05,1.15e-06,11.492,8.8303e-07,6.6348,-2.6796e-12,9.5536e-06,-8.8302e-07,-6.6347,0.42633
14511,7.7619,3.8182,0,0.00039555,3952.8,0.00013711,0.0083903,0.00011928,-133.99,-0.00039766,-4018.1,0.45545
14512,7.6702,3.7273,0,0.00039786,3975.9,0.0001384,0.0074483,0.00011913,-144.79,-0.00040013,-4046.3,0.44585
14513,7.6702,3.8182,0.05,1.1138e-06,11.13,8.5525e-07,6.426,-1.6309e-12,1.0966e-05,-8.5525e-07,-6.4259,0.44565
14514,7.9454,3.8182,0,0.00039049,3902.2,0.00013489,0.0065569,0.00011857,-122.65,-0.00039243,-3962.1,0.47517
14515,7.8537,3.7273,0,0.00039278,3925.1,0.00013612,0.0056695,0.0001185,-132.41,-0.00039487,-3989.6,0.46544
14516,7.8537,3.8182,0.05,1.0839e-06,10.831,8.3227e-07,6.2534,-2.0888e-12,1.0259e-05,-8.3226e-07,-6.2533,0.46524
14517,8.1289,3.8182,0,0.00038547,3852.1,0.00013272,0.0052466,0.00011779,-112.16,-0.00038726,-3906.9,0.49515
14518,8.0372,3.7273,0,0.00038776,3874.9,0.00013391,0.0044215,0.0001178,-120.98,-0.00038967,-3934,0.48529
14519,8.0372,3.8182,0.05,1.0589e-06,10.581,8.1309e-07,6.1092,-1.5827e-12,8.2124e-06,-8.1308e-07,-6.1091,0.4851
14520,8.3124,3.8182,0,0.00038049,3802.3,0.0001306,0.0043281,0.00011697,-102.46,-0.00038213,-3852.5,0.5154
14521,8.2206,3.7273,0,0.00038277,3825.1,0.00013175,0.00357,0.00011705,-110.45,-0.00038453,-3879.1,0.50541
14522,8.2206,3.8182,0.05,1.0378e-06,10.371,7.9692e-07,5.9878,-2.7318e-12,8.2961e-06,-7.9691e-07,-5.9877,0.50521
14523,8.4959,3.8182,0,0.00037553,3752.7,0.00012853,0.0037026,0.00011608,-93.504,-0.00037703,-3798.5,0.5359
14524,8.4041,3.7273,0,0.00037781,3775.5,0.00012964,0.0030112,0.00011623,-100.75,-0.00037943,-3824.9,0.52578
14525,8.4041,3.8182,0.05,1.0199e-06,10.192,7.8315e-07,5.8843,-3.0286e-12,8.2986e-06,-7.8315e-07,-5.8842,0.52559
14526,8.6794,3.8182,0,0.00037058,3703.2,0.00012649,0.0032964,0.00011514,-85.233,-0.00037195,-3745.1,0.55666
14527,8.5876,3.7273,0,0.00037287,3726.1,0.00012757,0.0026696,0.00011535,-91.809,-0.00037435,-3771.2,0.54641
14528,8.5876,3.8182,0.05,1.0044e-06,10.038,7.7129e-07,5.7952,-2.3102e-12,6.7454e-06,-7.7129e-07,-5.7951,0.54622
14529,8.8628,3.8182,0,0.00036564,3653.9,0.00012448,0.0030529,0.00011416,-77.598,-0.0003669,-3692,0.57767
14530,8.7711,3.7273,0,0.00036794,3676.9,0.00012554,0.0024883,0.00011441,-83.576,-0.00036929,-3717.9,0.5673
14531,8.7711,3.8182,0.05,9.9099e-07,9.9031,7.6096e-07,5.7176,-2.5079e-12,6.4091e-06,-7.6096e-07,-5.7175,0.5671
14532,9.0463,3.8182,0,0.00036071,3604.6,0.00012251,0.0029292,0.00011312,-70.552,-0.00036186,-3639.3,0.59893
14533,8.9546,3.7273,0,0.00036302,3627.7,0.00012354,0.0024229,0.00011343,-75.992,-0.00036425,-3665.1,0.58843
14534,8.9546,3.8182,0.05,9.7914e-07,9.7847,7.5186e-07,5.6492,3.5778e-14,5.4558e-06,-7.5185e-07,-5.6491,0.58824
14535,9.2298,3.8182,0,0.00035578,3555.3,0.00012057,0.0028944,0.00011204,-64.049,-0.00035682,-3586.9,0.62042
14536,9.1381,3.7273,0,0.0003581,3578.5,0.00012157,0.0024418,0.00011239,-69.007,-0.00035922,-3612.5,0.6098
14537,9.1381,3.8182,0.05,9.6858e-07,9.6792,7.4375e-07,5.5883,-9.9865e-13,5.9684e-06,-7.4375e-07,-5.5883,0.60961
14538,9.4133,3.8182,0,0.00035085,3506.1,0.00011865,0.0029246,0.00011092,-58.047,-0.0003518,-3534.8,0.64216
14539,9.3215,3.7273,0,0.00035318,3529.4,0.00011964,0.0025215,0.00011131,-62.572,-0.00035421,-3560.3,0.63142
14540,9.3215,3.8182,0.05,9.5908e-07,9.5842,7.3646e-07,5.5335,-2.0046e-12,5.5351e-06,-7.3645e-07,-5.5334,0.63123
14541,9.5968,3.8182,0,0.00034593,3456.9,0.00011675,0.0030033,0.00010976,-52.508,-0.00034679,-3482.9,0.66414
14542,9.505,3.7273,0,0.00034827,3480.3,0.00011772,0.0026427,0.00011018,-56.643,-0.0003492,-3508.3,0.65328
14543,9.505,3.8182,0.05,9.5043e-07,9.4978,7.2982e-07,5.4836,-2.0852e-12,4.2383e-06,-7.2981e-07,-5.4835,0.65309
14544,9.7802,3.8182,0,0.00034101,3407.7,0.00011487,0.0031145,0.00010856,-47.395,-0.00034179,-3431.2,0.68635
14545,9.6885,3.7273,0,0.00034335,3431.2,0.00011583,0.0027973,0.00010902,-51.178,-0.0003442,-3456.5,0.67537
14546,9.6885,3.8182,0.05,9.4249e-07,9.4184,7.2372e-07,5.4378,-2.1653e-12,5.5779e-06,-7.2372e-07,-5.4377,0.67518
14547,9.9637,3.8182,0,0.00033609,3358.6,0.00011302,0.0032535,0.00010734,-42.675,-0.00033679,-3379.7,0.70879
14548,9.872,3.7273,0,0.00033844,3382.1,0.00011396,0.0029646,0.00010782,-46.139,-0.0003392,-3404.9,0.69769
14549,9.872,3.8182,0.05,9.3514e-07,9.345,7.1808e-07,5.3954,-2.2399e-12,4.5924e-06,-7.1807e-07,-5.3953,0.69751
14550,10.147,3.8182,0,0.00033117,3309.4,0.00011118,0.003415,0.00010608,-38.316,-0.0003318,-3328.4,0.73145
14551,10.055,3.7273,0,0.00033353,3333,0.00011211,0.0031589,0.00010659,-41.492,-0.00033422,-3353.6,0.72024
14552,10.055,3.8182,0.05,9.2828e-07,9.2764,7.1281e-07,5.3558,-1.3834e-12,4.2442e-06,-7.128e-07,-5.3557,0.72006
14553,10.331,3.8182,0,0.00032626,3260.3,0.00010936,0.0035715,0.00010479,-34.29,-0.00032683,-3277.3,0.75434
14554,10.239,3.7273,0,0.00032862,3284,0.00011028,0.0033578,0.00010533,-37.204,-0.00032924,-3302.4,0.74302
14555,10.239,3.8182,0.05,9.2183e-07,9.212,7.0786e-07,5.3186,-2.3384e-12,4.3429e-06,-7.0785e-07,-5.3185,0.74284
14556,10.514,3.8182,0,0.00032135,3211.2,0.00010755,0.0037303,0.00010349,-30.571,-0.00032185,-3226.4,0.77745
14557,10.422,3.7273,0,0.00032372,3234.9,0.00010847,0.0035306,0.00010404,-33.248,-0.00032427,-3251.4,0.76602
14558,10.422,3.8182,0.05,9.1573e-07,9.1509,7.0317e-07,5.2833,-3.295e-12,4.7011e-06,-7.0316e-07,-5.2833,0.76584
14559,10.698,3.8182,0,0.00031644,3162.2,0.00010577,0.0039127,0.00010215,-27.132,-0.00031689,-3175.7,0.80078
14560,10.606,3.7273,0,0.00031881,3185.9,0.00010667,0.0037239,0.00010273,-29.594,-0.00031931,-3200.6,0.78923
14561,10.606,3.8182,0.05,9.0991e-07,9.0928,6.987e-07,5.2498,-1.5193e-12,4.4237e-06,-6.987e-07,-5.2497,0.78906
14562,10.881,3.8182,0,0.00031154,3113.2,0.00010399,0.0041198,0.0001008,-23.953,-0.00031194,-3125.2,0.82432
14563,10.789,3.7273,0,0.00031392,3137,0.00010489,0.003935,0.0001014,-26.219,-0.00031435,-3150,0.81266
14564,10.789,3.8182,0.05,9.0435e-07,9.0373,6.9443e-07,5.2177,-6.5279e-13,3.8932e-06,-6.9443e-07,-5.2176,0.81249
14565,11.065,3.8182,0,0.00030665,3064.3,0.00010223,0.004322,9.9436e-05,-21.012,-0.000307,-3074.8,0.84807
14566,10.973,3.7273,0,0.00030902,3088.1,0.00010312,0.0041693,0.00010005,-23.099,-0.00030941,-3099.6,0.83631
14567,10.973,3.8182,0.05,8.9902e-07,8.984,6.9034e-07,5.1869,-2.4935e-12,3.1485e-06,-6.9033e-07,-5.1869,0.83614
14568,11.248,3.8182,0,0.00030176,3015.5,0.00010049,0.0045086,9.8051e-05,-18.29,-0.00030207,-3024.6,0.87202
14569,11.156,3.7273,0,0.00030414,3039.3,0.00010137,0.0043621,9.8674e-05,-20.214,-0.00030448,-3049.3,0.86016
14570,11.156,3.8182,0.05,8.9389e-07,8.9327,6.864e-07,5.1573,-2.5257e-12,3.4182e-06,-6.8639e-07,-5.1573,0.85999
14571,11.432,3.8182,0,0.00029688,2966.8,9.8752e-05,0.0047286,9.6652e-05,-15.769,-0.00029715,-2974.6,0.89618
14572,11.34,3.7273,0,0.00029926,2990.5,9.9624e-05,0.0045571,9.7288e-05,-17.545,-0.00029955,-2999.3,0.88421
14573,11.34,3.8182,0.05,8.8891e-07,8.883,6.8258e-07,5.1286,-2.5502e-12,3.6023e-06,-6.8257e-07,-5.1286,0.88405
14574,11.615,3.8182,0,0.00029201,2918.1,9.7029e-05,0.0049679,9.5241e-05,-13.433,-0.00029224,-2924.8,0.92054
14575,11.523,3.7273,0,0.00029439,2941.9,9.7894e-05,0.0048076,9.5888e-05,-15.073,-0.00029464,-2949.4,0.90847
14576,11.523,3.8182,0.05,8.8409e-07,8.8348,6.7887e-07,5.1008,-1.6625e-12,2.9696e-06,-6.7887e-07,-5.1007,0.90831
14577,11.799,3.8182,0,0.00028715,2869.6,9.5319e-05,0.0052134,9.3818e-05,-11.266,-0.00028734,-2875.2,0.9451
14578,11.707,3.7273,0,0.00028953,2893.3,9.6177e-05,0.0050306,9.4475e-05,-12.783,-0.00028974,-2899.6,0.93293
14579,11.707,3.8182,0.05,8.7941e-07,8.788,6.7528e-07,5.0738,-2.5919e-12,3.3032e-06,-6.7527e-07,-5.0737,0.93277
14580,11.982,3.8182,0,0.0002823,2821.1,9.3619e-05,0.0054993,9.2387e-05,-9.2552,-0.00028246,-2825.7,0.96985
14581,11.89,3.7273,0,0.00028468,2844.8,9.4471e-05,0.0052796,9.3052e-05,-10.658,-0.00028486,-2850.1,0.95758
14582,11.89,3.8182,0.05,8.7484e-07,8.7424,6.7177e-07,5.0474,-7.9195e-13,4.3294e-06,-6.7176e-07,-5.0474,0.95742
14583,12.165,3.8182,0,0.00027747,2772.8,9.193e-05,0.0058292,9.0946e-05,-7.3864,-0.00027759,-2776.4,0.99479
14584,12.074,3.7273,0,0.00027984,2796.4,9.2776e-05,0.0055642,9.1619e-05,-8.6864,-0.00027998,-2800.8,0.98242
14585,12.074,3.8182,0.05,8.7038e-07,8.6978,6.6835e-07,5.0217,-1.7214e-12,2.9981e-06,-6.6835e-07,-5.0216,0.98227
14586,12.349,3.8182,0,0.00027264,2724.5,9.0252e-05,0.006255,8.9499e-05,-5.648,-0.00027274,-2727.3,1.0199
14587,12.257,3.7273,0,0.00027501,2748.2,9.1092e-05,0.0058722,9.0179e-05,-6.8537,-0.00027512,-2751.6,1.0075
14588,12.257,3.8182,0.05,8.6602e-07,8.6542,6.65e-07,4.9966,-8.3012e-13,3.4117e-06,-6.6499e-07,-4.9965,1.0073
14589,12.532,3.8182,0,0.00026783,2676.4,8.8583e-05,0.0069074,8.8046e-05,-4.029,-0.0002679,-2678.4,1.0452
14590,12.441,3.7273,0,0.00027019,2700,8.9418e-05,0.0062968,8.8732e-05,-5.1482,-0.00027028,-2702.6,1.0327
14591,12.441,3.8182,0.05,8.6174e-07,8.6114,6.6171e-07,4.9718,-2.6646e-12,3.1838e-06,-6.6171e-07,-4.9718,1.0325
14592,12.716,3.8182,0,0.00026303,2628.5,8.6925e-05,0.0081348,8.6588e-05,-2.5192,-0.00026307,-2629.7,1.0707
14593,12.624,3.7273,0,0.00026538,2652,8.7754e-05,0.0069576,8.7279e-05,-3.5593,-0.00026544,-2653.8,1.0581
14594,12.624,3.8182,0.05,8.5753e-07,8.5694,6.5848e-07,4.9476,-2.6787e-12,1.624e-06,-6.5848e-07,-4.9475,1.0579
14595,12.899,3.8182,0,0.00025824,2580.6,8.5276e-05,0.011899,8.5126e-05,-1.111,-0.00025826,-2581.2,1.0964
14596,12.808,3.7273,0,0.00026059,2604.1,8.6099e-05,0.0082973,8.5822e-05,-2.0769,-0.00026063,-2605.2,1.0836
14597,12.808,3.8182,0.05,8.5341e-07,8.5282,6.5531e-07,4.9238,-2.6918e-12,6.5741e-07,-6.5531e-07,-4.9238,1.0835
14598,13.083,3.8182,0,0.00025347,2533,8.3667e-05,0.24731,8.3631e-05,-0.02445,-0.00025347,-2532.8,1.1222
14599,12.991,3.7273,0,0.00025582,2556.4,8.4455e-05,0.01397,8.436e-05,-0.69522,-0.00025583,-2556.7,1.1094
14600,12.991,3.8182,0.05,8.4936e-07,8.4877,6.5221e-07,4.9004,-8.8397e-13,8.9392e-07,-6.522e-07,-4.9004,1.1093
14601,13.266,3.8182,0,0.00024871,2485.4,8.2197e-05,1.4627,8.2003e-05,0.00069733,-0.00024869,-2484.7,1.1482
14602,13.175,3.7273,0,0.00025105,2508.8,8.2899e-05,0.62244,8.2816e-05,-0.0037386,-0.00025104,-2508.5,1.1353
14603,13.175,3.8182,0.05,8.4536e-07,8.4478,6.4913e-07,4.8773,-8.9511e-13,1.7159e-06,-6.4913e-07,-4.8773,1.1352
14604,13.45,3.8182,0,0.00024397,2438,8.073e-05,2.6272,8.038e-05,0.003055,-0.00024393,-2436.7,1.1744
14605,13.358,3.7273,0,0.0002463,2461.3,8.1434e-05,1.8371,8.119e-05,0.0027274,-0.00024627,-2460.4,1.1614
14606,13.358,3.8182,0.05,8.4143e-07,8.4085,6.4611e-07,4.8547,-2.7242e-12,2.8928e-06,-6.4611e-07,-4.8546,1.1613
14607,13.633,3.8182,0,0.00023924,2390.8,7.9262e-05,3.7269,7.8766e-05,0.0040074,-0.00023918,-2388.9,1.2008
14608,13.542,3.7273,0,0.00024157,2414,7.9968e-05,2.9854,7.9571e-05,0.0040989,-0.00024152,-2412.5,1.1877
14609,13.542,3.8182,0.05,8.3755e-07,8.3697,6.4314e-07,4.8323,-9.144e-13,3.6444e-06,-6.4313e-07,-4.8322,1.1875
14610,13.817,3.8182,0,0.00023453,2343.7,7.7794e-05,4.7678,7.716e-05,0.0045773,-0.00023445,-2341.3,1.2273
14611,13.725,3.7273,0,0.00023685,2366.9,7.8502e-05,4.0707,7.796e-05,0.0047707,-0.00023678,-2364.9,1.2141
14612,13.725,3.8182,0.05,8.3372e-07,8.3315,6.402e-07,4.8102,-1.8322e-12,4.468e-06,-6.4019e-07,-4.8102,1.214
14613,14,3.8182,0,0.00022984,2296.8,7.6328e-05,5.7562,7.5562e-05,0.0049731,-0.00022974,-2293.9,1.2539
14614,13.909,3.7273,0,0.00023215,2319.9,7.7036e-05,5.0994,7.6358e-05,0.0052177,-0.00023207,-2317.4,1.2407
14615,13.909,3.8182,0.05,8.2994e-07,8.2937,6.373e-07,4.7884,-1.8402e-12,5.162e-06,-6.3729e-07,-4.7883,1.2405
14616,14.184,3.8182,0,0.00022516,2250.1,7.4863e-05,6.6985,7.3972e-05,0.0052907,-0.00022505,-2246.7,1.2807
14617,14.092,3.7273,0,0.00022747,2273.1,7.5572e-05,6.0778,7.4764e-05,0.0055294,-0.00022736,-2270.1,1.2674
14618,14.092,3.8182,0.05,8.2621e-07,8.2564,6.3443e-07,4.7668,-1.8467e-12,4.5884e-06,-6.3442e-07,-4.7668,1.2673
14619,14.367,3.8182,0,0.0002205,2203.5,7.3401e-05,7.6004,7.239e-05,0.0055808,-0.00022037,-2199.7,1.3077
14620,14.276,3.7273,0,0.0002228,2226.5,7.411e-05,7.0121,7.3177e-05,0.0058267,-0.00022268,-2223,1.2943
14621,14.276,3.8182,0.05,8.2251e-07,8.2194,6.3159e-07,4.7455,-9.446e-13,4.8003e-06,-6.3158e-07,-4.7454,1.2942
14622,14.551,3.8182,0,0.00021586,2157.1,7.1941e-05,8.4677,7.0815e-05,0.0058268,-0.00021572,-2152.9,1.3348
14623,14.459,3.7273,0,0.00021815,2180,7.265e-05,7.9084,7.1598e-05,0.0060909,-0.00021802,-2176,1.3213
14624,14.459,3.8182,0.05,8.1886e-07,8.1829,6.2878e-07,4.7244,-2.77e-12,4.9937e-06,-6.2878e-07,-4.7244,1.3212
14625,14.734,3.8182,0,0.00021124,2110.9,7.0485e-05,9.3058,6.9247e-05,0.0060485,-0.00021108,-2106.2,1.3621
14626,14.642,3.7273,0,0.00021352,2133.7,7.1193e-05,8.7721,7.0027e-05,0.0063056,-0.00021337,-2129.3,1.3485
14627,14.642,3.8182,0.05,8.1524e-07,8.1468,6.2601e-07,4.7036,-9.5768e-13,3.569e-06,-6.26e-07,-4.7035,1.3484
14628,14.918,3.8182,0,0.00020663,2064.9,6.9033e-05,10.12,6.7687e-05,0.006274,-0.00020646,-2059.8,1.3895
14629,14.826,3.7273,0,0.0002089,2087.6,6.974e-05,9.6089,6.8462e-05,0.0065261,-0.00020874,-2082.8,1.3759
14630,14.826,3.8182,0.05,8.1166e-07,8.111,6.2326e-07,4.6829,-9.6473e-13,2.6906e-06,-6.2325e-07,-4.6829,1.3757
14631,15.101,3.8182,0,0.00020204,2019,6.7585e-05,10.915,6.6134e-05,0.0065054,-0.00020186,-2013.6,1.417
14632,15.009,3.7273,0,0.00020431,2041.7,6.8292e-05,10.424,6.6905e-05,0.0067515,-0.00020413,-2036.4,1.4033
14633,15.009,3.8182,0.05,8.0812e-07,8.0756,6.2053e-07,4.6625,-1.8801e-12,1.5749e-06,-6.2053e-07,-4.6624,1.4032
14634,15.285,3.8182,0,0.00019748,1973.4,6.6143e-05,11.697,6.4587e-05,0.0067305,-0.00019727,-1967.5,1.4447
14635,15.193,3.7273,0,0.00019973,1995.9,6.6848e-05,11.222,6.5355e-05,0.0069872,-0.00019954,-1990.3,1.4309
14636,15.193,3.8182,0.05,8.0461e-07,8.0406,6.1784e-07,4.6422,-1.8857e-12,8.1395e-07,-6.1784e-07,-4.6422,1.4308
14637,15.468,3.8182,0,0.00019293,1927.9,6.4706e-05,12.47,6.3047e-05,0.0069482,-0.00019271,-1921.7,1.4725
14638,15.376,3.7273,0,0.00019517,1950.4,6.5409e-05,12.009,6.3812e-05,0.0072026,-0.00019497,-1944.3,1.4587
14639,15.376,3.8182,0.05,8.0114e-07,8.0059,6.1518e-07,4.6222,-7.2774e-14,2.3103e-06,-6.1518e-07,-4.6222,1.4586
14640,15.652,3.8182,0,0.0001884,1882.7,6.3275e-05,13.238,6.1514e-05,0.0071735,-0.00018817,-1876,1.5005
14641,15.56,3.7273,0,0.00019063,1905,6.3976e-05,12.79,6.2275e-05,0.0074246,-0.00019041,-1898.6,1.4866
14642,15.56,3.8182,0.05,7.9771e-07,7.9716,6.1254e-07,4.6024,-9.8686e-13,1.8031e-06,-6.1254e-07,-4.6024,1.4865
14643,15.835,3.8182,0,0.00018389,1837.6,6.1851e-05,14.008,5.9988e-05,0.0073941,-0.00018364,-1830.5,1.5285
14644,15.743,3.7273,0,0.00018611,1859.9,6.255e-05,13.568,6.0745e-05,0.0076564,-0.00018588,-1853,1.5146
14645,15.743,3.8182,0.05,7.9431e-07,7.9376,6.0993e-07,4.5828,-8.1408e-14,-1.4383e-07,-6.0993e-07,-4.5828,1.5145
14646,16.019,3.8182,0,0.0001794,1792.7,6.0434e-05,14.783,5.8468e-05,0.0076237,-0.00017914,-1785.3,1.5567
14647,15.927,3.7273,0,0.00018162,1814.9,6.113e-05,14.35,5.9222e-05,0.0078699,-0.00018137,-1807.7,1.5427
14648,15.927,3.8182,0.05,7.9094e-07,7.904,6.0735e-07,4.5634,-5.4125e-13,6.5095e-07,-6.0735e-07,-4.5634,1.5426
14649,16.202,3.8182,0,0.00017493,1748.1,5.9025e-05,15.568,5.6954e-05,0.0078753,-0.00017466,-1740.2,1.585
14650,16.11,3.7273,0,0.00017714,1770.1,5.9718e-05,15.14,5.7704e-05,0.0081209,-0.00017687,-1762.5,1.5709
14651,16.11,3.8182,0.05,7.8761e-07,7.8707,6.0479e-07,4.5441,-1.0052e-12,4.8956e-07,-6.0479e-07,-4.5441,1.5708
14652,16.386,3.8182,0,0.00017048,1703.6,5.7623e-05,16.368,5.5446e-05,0.0081231,-0.00017019,-1695.4,1.6135
14653,16.294,3.7273,0,0.00017268,1725.6,5.8314e-05,15.943,5.6193e-05,0.0083798,-0.0001724,-1717.6,1.5993
14654,16.294,3.8182,0.05,7.8432e-07,7.8377,6.0226e-07,4.5251,-5.5784e-13,1.236e-06,-6.0226e-07,-4.5251,1.5992
14655,16.569,3.8182,0,0.00016605,1659.4,5.623e-05,17.189,5.3944e-05,0.0083751,-0.00016575,-1650.7,1.642
14656,16.477,3.7273,0,0.00016824,1681.2,5.6918e-05,16.764,5.4688e-05,0.0086241,-0.00016795,-1672.8,1.6278
14657,16.477,3.8182,0.05,7.8106e-07,7.8052,5.9975e-07,4.5063,-5.659e-13,1.551e-06,-5.9975e-07,-4.5063,1.6277
14658,16.753,3.8182,0,0.00016164,1615.3,5.4847e-05,18.035,5.2447e-05,0.0086494,-0.00016133,-1606.2,1.6707
14659,16.661,3.7273,0,0.00016382,1637.1,5.5531e-05,17.609,5.3188e-05,0.0088939,-0.00016352,-1628.2,1.6564
14660,16.661,3.8182,0.05,7.7783e-07,7.7729,5.9728e-07,4.4877,-5.752e-13,2.5429e-06,-5.9728e-07,-4.4877,1.6563
14661,16.936,3.8182,0,0.00015726,1571.5,5.3472e-05,18.912,5.0957e-05,0.0089465,-0.00015693,-1562,1.6994
14662,16.844,3.7273,0,0.00015943,1593.2,5.4153e-05,18.482,5.1694e-05,0.0091835,-0.00015911,-1583.9,1.6851
14663,16.844,3.8182,0.05,7.7464e-07,7.7411,5.9483e-07,4.4693,-1.0414e-12,5.3382e-06,-5.9483e-07,-4.4693,1.685
14664,17.119,3.8182,0,0.0001529,1527.9,5.2109e-05,19.825,4.9471e-05,0.0092546,-0.00015255,-1517.9,1.7283
14665,17.028,3.7273,0,0.00015506,1549.5,5.2785e-05,19.389,5.0206e-05,0.0094979,-0.00015472,-1539.7,1.7139
14666,17.028,3.8182,0.05,7.715e-07,7.7097,5.9241e-07,4.4512,-5.9523e-13,4.4156e-06,-5.9242e-07,-4.4512,1.7138
14667,17.303,3.8182,0,0.00014856,1484.5,5.0756e-05,20.779,4.7991e-05,0.0095726,-0.00014819,-1474,1.7573
14668,17.211,3.7273,0,0.00015071,1506,5.1428e-05,20.335,4.8723e-05,0.0098108,-0.00015035,-1495.7,1.7428
14669,17.211,3.8182,0.05,7.684e-07,7.6787,5.9004e-07,4.4333,-6.0112e-13,3.6622e-06,-5.9003e-07,-4.4333,1.7427
14670,17.486,3.8182,0,0.00014424,1441.4,4.9414e-05,21.781,4.6516e-05,0.0099139,-0.00014386,-1430.4,1.7863
14671,17.395,3.7273,0,0.00014638,1462.8,5.0083e-05,21.328,4.7245e-05,0.010146,-0.000146,-1452,1.7719
14672,17.395,3.8182,0.05,7.6534e-07,7.6481,5.8769e-07,4.4157,-6.1178e-13,3.5827e-06,-5.8769e-07,-4.4156,1.7718
14673,17.67,3.8182,0,0.00013994,1398.5,4.8085e-05,22.837,4.5046e-05,0.010269,-0.00013954,-1386.9,1.8155
14674,17.578,3.7273,0,0.00014207,1419.8,4.8749e-05,22.372,4.5773e-05,0.010505,-0.00014168,-1408.4,1.801
14675,17.578,3.8182,0.05,7.6233e-07,7.6181,5.8538e-07,4.3983,-1.6988e-13,4.917e-06,-5.8538e-07,-4.3983,1.8009
14676,17.853,3.8182,0,0.00013567,1355.8,4.6768e-05,23.953,4.3581e-05,0.010647,-0.00013525,-1343.7,1.8448
14677,17.762,3.7273,0,0.00013779,1377,4.7427e-05,23.474,4.4305e-05,0.010868,-0.00013738,-1365.1,1.8302
14678,17.762,3.8182,0.05,7.5937e-07,7.5885,5.831e-07,4.3812,-1.0897e-12,5.3062e-06,-5.831e-07,-4.3812,1.8301
14679,18.037,3.8182,0,0.00013143,1313.4,4.5464e-05,25.137,4.212e-05,0.011062,-0.00013098,-1300.6,1.8741
14680,17.945,3.7273,0,0.00013353,1334.4,4.6119e-05,24.641,4.2841e-05,0.011277,-0.0001331,-1321.9,1.8595
14681,17.945,3.8182,0.05,7.5646e-07,7.5594,5.8087e-07,4.3644,-6.4636e-13,6.9257e-06,-5.8087e-07,-4.3644,1.8594
14682,18.22,3.8182,0,0.0001272,1271.2,4.4175e-05,26.395,4.0664e-05,0.011495,-0.00012673,-1257.7,1.9036
14683,18.129,3.7273,0,0.0001293,1292.1,4.4825e-05,25.881,4.1382e-05,0.011712,-0.00012884,-1279,1.8889
14684,18.129,3.8182,0.05,7.5361e-07,7.5309,5.7868e-07,4.348,-2.0948e-13,3.929e-06,-5.7868e-07,-4.348,1.8888
14685,18.404,3.8182,0,0.00012301,1229.2,4.2901e-05,27.736,3.9211e-05,0.011953,-0.00012251,-1215.1,1.9331
14686,18.312,3.7273,0,0.00012509,1250.1,4.3546e-05,27.201,3.9927e-05,0.012159,-0.00012461,-1236.2,1.9184
14687,18.312,3.8182,0.05,7.5082e-07,7.5031,5.7654e-07,4.3319,-1.1301e-12,4.0497e-06,-5.7654e-07,-4.3319,1.9183
14688,18.587,3.8182,0,0.00011883,1187.5,4.1643e-05,29.167,3.7763e-05,0.012455,-0.00011831,-1172.7,1.9627
14689,18.496,3.7273,0,0.00012091,1208.3,4.2282e-05,28.609,3.8476e-05,0.012647,-0.0001204,-1193.7,1.9479
14690,18.496,3.8182,0.05,7.481e-07,7.4758,5.7445e-07,4.3162,-1.1443e-12,2.2725e-06,-5.7445e-07,-4.3161,1.9479
14691,18.771,3.8182,0,0.00011469,1146.1,4.0401e-05,30.697,3.6318e-05,0.012999,-0.00011414,-1130.4,1.9924
14692,18.679,3.7273,0,0.00011675,1166.7,4.1035e-05,30.114,3.7029e-05,0.013178,-0.00011621,-1151.4,1.9776
14693,18.679,3.8182,0.05,7.4545e-07,7.4493,5.7241e-07,4.3009,-7.034e-13,5.2605e-06,-5.7241e-07,-4.3009,1.9775
14694,18.954,3.8182,0,0.00011057,1104.9,3.9177e-05,32.337,3.4876e-05,0.013582,-0.00010998,-1088.4,2.0221
14695,18.863,3.7273,0,0.00011262,1125.5,3.9805e-05,31.726,3.5584e-05,0.013756,-0.00011205,-1109.3,2.0073
14696,18.863,3.8182,0.05,7.4287e-07,7.4236,5.7043e-07,4.286,-2.5445e-13,3.8353e-06,-5.7043e-07,-4.286,2.0072
14697,19.138,3.8182,0,0.00010648,1064,3.7972e-05,34.095,3.3436e-05,0.01421,-0.00010586,-1046.6,2.052
14698,19.046,3.7273,0,0.00010852,1084.5,3.8594e-05,33.454,3.4143e-05,0.014366,-0.00010791,-1067.3,2.0371
14699,19.046,3.8182,0.05,7.4038e-07,7.3987,5.6852e-07,4.2717,-2.5723e-13,3.7938e-06,-5.6852e-07,-4.2717,2.037
14700,19.321,3.8182,0,0.00010241,1023.4,3.6787e-05,35.983,3.2e-05,0.014891,-0.00010175,-1005,2.0819
14701,19.229,3.7273,0,0.00010445,1043.7,3.7402e-05,35.308,3.2705e-05,0.015029,-0.0001038,-1025.6,2.067
14702,19.229,3.8182,0.05,7.3799e-07,7.3748,5.6668e-07,4.2579,-7.2697e-13,2.0123e-06,-5.6668e-07,-4.2578,2.0669
14703,19.505,3.8182,0,9.838e-05,983.12,3.5623e-05,38.012,3.0566e-05,0.015626,-9.7678e-05,-963.56,2.1119
14704,19.413,3.7273,0,0.0001004,1003.3,3.6231e-05,37.302,3.1269e-05,0.015752,-9.9714e-05,-984.14,2.0969
14705,19.413,3.8182,0.05,7.357e-07,7.3519,5.6492e-07,4.2446,-2.9402e-13,5.3949e-06,-5.6492e-07,-4.2446,2.0968
14706,19.688,3.8182,0,9.4375e-05,943.1,3.448e-05,40.195,2.9133e-05,0.01643,-9.3627e-05,-922.35,2.1419
14707,19.596,3.7273,0,9.6385e-05,963.18,3.5082e-05,39.445,2.9834e-05,0.016524,-9.5653e-05,-942.85,2.1269
14708,19.596,3.8182,0.05,7.3351e-07,7.3301,5.6325e-07,4.232,-3.2164e-13,2.8376e-06,-5.6325e-07,-4.232,2.1269
14709,19.872,3.8182,0,9.0402e-05,903.39,3.3362e-05,42.544,2.7702e-05,0.017316,-8.9602e-05,-881.36,2.172
14710,19.78,3.7273,0,9.24e-05,923.36,3.3956e-05,41.752,2.8402e-05,0.017385,-9.1618e-05,-901.77,2.157
14711,19.78,3.8182,0.05,7.3145e-07,7.3095,5.6166e-07,4.2201,-3.3414e-13,4.1442e-06,-5.6166e-07,-4.2201,2.1569
14712,20.055,3.8182,0,8.646e-05,864,3.2268e-05,45.074,2.6271e-05,0.018282,-8.5605e-05,-840.57,2.2022
14713,19.963,3.7273,0,8.8446e-05,883.85,3.2855e-05,44.237,2.697e-05,0.018323,-8.761e-05,-860.89,2.1871
14714,19.963,3.8182,0.05,7.2953e-07,7.2902,5.6019e-07,4.209,-8.1079e-13,2.5692e-06,-5.6019e-07,-4.209,2.1871
14715,20.239,3.8182,0,8.2551e-05,824.94,3.1201e-05,47.801,2.4841e-05,0.019344,-8.1634e-05,-799.99,2.2324
14716,20.147,3.7273,0,8.4525e-05,844.67,3.178e-05,46.913,2.5539e-05,0.019346,-8.3629e-05,-820.23,2.2173
14717,20.147,3.8182,0.05,7.2775e-07,7.2725,5.5883e-07,4.1988,-3.626e-13,3.5019e-06,-5.5882e-07,-4.1988,2.2173
14718,20.422,3.8182,0,7.8677e-05,786.23,3.0161e-05,50.739,2.3411e-05,0.020525,-7.7691e-05,-759.62,2.2627
14719,20.33,3.7273,0,8.0639e-05,805.83,3.0733e-05,49.798,2.4108e-05,0.020478,-7.9676e-05,-779.77,2.2476
14720,20.33,3.8182,0.05,7.2615e-07,7.2565,5.5759e-07,4.1895,-3.774e-13,2.855e-06,-5.5759e-07,-4.1895,2.2475
14721,20.606,3.8182,0,7.4839e-05,747.87,2.9152e-05,53.908,2.198e-05,0.021841,-7.3775e-05,-719.45,2.293
14722,20.514,3.7273,0,7.6788e-05,767.35,2.9715e-05,52.909,2.2676e-05,0.021731,-7.5751e-05,-739.52,2.2779
14723,20.514,3.8182,0.05,7.2473e-07,7.2423,5.565e-07,4.1813,-4.0641e-13,-7.1557e-07,-5.565e-07,-4.1813,2.2778
14724,20.789,3.8182,0,7.1038e-05,709.89,2.8174e-05,57.324,2.0548e-05,0.023309,-6.9889e-05,-679.48,2.3234
14725,20.697,3.7273,0,7.2974e-05,729.24,2.8728e-05,56.262,2.1243e-05,0.023143,-7.1854e-05,-699.47,2.3082
14726,20.697,3.8182,0.05,7.2352e-07,7.2302,5.5558e-07,4.1744,-4.0468e-13,-2.5478e-06,-5.5558e-07,-4.1744,2.3082
14727,20.973,3.8182,0,6.7277e-05,672.3,2.7229e-05,61.009,1.9113e-05,0.024959,-6.6031e-05,-639.71,2.3538
14728,20.881,3.7273,0,6.92e-05,691.52,2.7774e-05,59.878,1.9808e-05,0.024709,-6.7986e-05,-659.62,2.3386
14729,20.881,3.8182,0.05,7.2255e-07,7.2206,5.5483e-07,4.1688,-4.061e-13,-3.0311e-06,-5.5483e-07,-4.1688,2.3386
14730,21.156,3.8182,0,6.3558e-05,635.14,2.632e-05,64.982,1.7675e-05,0.026826,-6.2202e-05,-600.14,2.3843
14731,21.064,3.7273,0,6.5466e-05,654.21,2.6855e-05,63.777,1.837e-05,0.026478,-6.4147e-05,-619.98,2.3691
14732,21.064,3.8182,0.05,7.2185e-07,7.2135,5.5429e-07,4.1647,-4.1251e-13,6.8018e-07,-5.5429e-07,-4.1647,2.369
14733,21.34,3.8182,0,5.9883e-05,598.41,2.5448e-05,69.266,1.6233e-05,0.028954,-5.8402e-05,-560.75,2.4148
14734,21.248,3.7273,0,6.1776e-05,617.34,2.5972e-05,67.98,1.6928e-05,0.028485,-6.0338e-05,-580.52,2.3996
14735,21.248,3.8182,0.05,7.2145e-07,7.2095,5.5398e-07,4.1624,-6.3022e-13,-1.0018e-07,-5.5398e-07,-4.1624,2.3995
14736,21.523,3.8182,0,5.6255e-05,562.16,2.4616e-05,73.883,1.4787e-05,0.031403,-5.4632e-05,-521.56,2.4454
14737,21.431,3.7273,0,5.8133e-05,580.93,2.5129e-05,72.509,1.5482e-05,0.030774,-5.6558e-05,-541.26,2.4301
14738,21.431,3.8182,0.05,7.2138e-07,7.2088,5.5393e-07,4.162,-3.851e-13,-5.0568e-08,-5.5393e-07,-4.162,2.4301
14739,21.706,3.8182,0,5.2679e-05,526.42,2.3825e-05,78.859,1.3334e-05,0.034255,-5.0892e-05,-482.53,2.4759
14740,21.615,3.7273,0,5.4539e-05,545.01,2.4326e-05,77.388,1.4031e-05,0.033428,-5.2808e-05,-502.17,2.4607
14741,21.615,3.8182,0.05,7.217e-07,7.212,5.5418e-07,4.1639,-3.1661e-13,-2.3645e-06,-5.5418e-07,-4.1639,2.4606
14742,21.89,3.8182,0,4.9158e-05,491.24,2.3078e-05,84.218,1.1874e-05,0.037605,-4.7181e-05,-443.68,2.5066
14743,21.798,3.7273,0,5.0998e-05,509.63,2.3566e-05,82.639,1.2572e-05,0.03653,-4.9087e-05,-463.25,2.4913
14744,21.798,3.8182,0.05,7.2246e-07,7.2196,5.5476e-07,4.1682,-3.2221e-13,3.7831e-07,-5.5476e-07,-4.1682,2.4912
14745,22.073,3.8182,0,4.5699e-05,456.68,2.2377e-05,89.985,1.0406e-05,0.0416,-4.3498e-05,-404.97,2.5372
14746,21.982,3.7273,0,4.7517e-05,474.84,2.2851e-05,88.288,1.1106e-05,0.04019,-4.5395e-05,-424.49,2.5219
14747,21.982,3.8182,0.05,7.2371e-07,7.2321,5.5572e-07,4.1754,-5.5361e-13,-6.2264e-06,-5.5572e-07,-4.1754,2.5219
14748,22.257,3.8182,0,4.2309e-05,422.79,2.1723e-05,96.184,8.9279e-06,0.046455,-3.9843e-05,-366.4,2.5679
14749,22.165,3.7273,0,4.41e-05,440.7,2.2183e-05,94.357,9.6308e-06,0.044601,-4.173e-05,-385.86,2.5526
14750,22.165,3.8182,0.05,7.2551e-07,7.2501,5.5711e-07,4.1859,-3.2485e-13,-3.4491e-06,-5.571e-07,-4.1859,2.5526
14751,22.44,3.8182,0,3.8996e-05,389.69,2.1119e-05,102.84,7.4387e-06,0.052492,-3.6214e-05,-327.94,2.5986
14752,22.349,3.7273,0,4.0757e-05,407.29,2.1563e-05,100.87,8.1447e-06,0.050004,-3.8092e-05,-347.36,2.5833
14753,22.349,3.8182,0.05,7.2795e-07,7.2745,5.5898e-07,4.2,-5.1485e-13,-3.0534e-07,-5.5898e-07,-4.1999,2.5833
14754,22.624,3.8182,0,3.5773e-05,357.49,2.0565e-05,109.97,5.9367e-06,0.060127,-3.261e-05,-289.56,2.6294
14755,22.532,3.7273,0,3.7497e-05,374.71,2.0992e-05,107.85,6.6465e-06,0.056825,-3.4479e-05,-308.94,2.614
14756,22.532,3.8182,0.05,7.311e-07,7.3059,5.6139e-07,4.2181,-2.0585e-13,4.2282e-06,-5.6139e-07,-4.2181,2.614
14757,22.807,3.8182,0,3.2658e-05,326.36,2.0063e-05,117.6,4.4202e-06,0.070371,-2.9027e-05,-251.24,2.6601
14758,22.716,3.7273,0,3.4335e-05,343.11,2.0472e-05,115.3,5.1345e-06,0.065509,-3.0888e-05,-270.59,2.6448
14759,22.716,3.8182,0.05,7.3503e-07,7.3452,5.6441e-07,4.2407,-5.9847e-13,1.7552e-06,-5.6441e-07,-4.2407,2.6447
14760,22.991,3.8182,0,2.9674e-05,296.53,1.9612e-05,125.74,2.8875e-06,0.083663,-2.5463e-05,-212.93,2.6909
14761,22.899,3.7273,0,3.1291e-05,312.69,2.0002e-05,123.26,3.6074e-06,0.077706,-2.7315e-05,-232.26,2.6755
14762,22.899,3.8182,0.05,7.398e-07,7.3929,5.6808e-07,4.2683,-5.865e-13,3.7828e-06,-5.6808e-07,-4.2683,2.6755
14763,23.174,3.8182,0,2.6854e-05,268.35,1.9211e-05,134.4,1.3374e-06,0.10622,-2.1912e-05,-174.58,2.7217
14764,23.083,3.7273,0,2.8393e-05,283.73,1.9582e-05,131.72,2.0632e-06,0.092794,-2.3758e-05,-193.92,2.7063
14765,23.083,3.8182,0.05,7.4549e-07,7.4497,5.7244e-07,4.3011,-4.6148e-13,7.5949e-06,-5.7244e-07,-4.3011,2.7063
14766,23.358,3.8182,0,2.4245e-05,242.29,1.886e-05,143.58,-2.3232e-07,0.12905,-1.8371e-05,-136.16,2.7525
14767,23.266,3.7273,0,2.5681e-05,256.63,1.9211e-05,140.7,5.0153e-07,0.12425,-2.0212e-05,-155.51,2.7371
14768,23.266,3.8182,0.05,7.5212e-07,7.516,5.7754e-07,4.3394,1.0493e-13,2.7093e-06,-5.7754e-07,-4.3394,2.7371
14769,23.541,3.8182,0,2.1918e-05,219.03,1.8556e-05,153.3,-1.8169e-06,0.22475,-1.4836e-05,-97.596,2.7833
14770,23.45,3.7273,0,2.3211e-05,231.95,1.8886e-05,150.17,-1.0814e-06,0.1419,-1.6671e-05,-116.99,2.7679
14771,23.45,3.8182,0.05,7.5969e-07,7.5916,5.8335e-07,4.383,2.2528e-13,3.581e-06,-5.8334e-07,-4.383,2.7679
14772,23.725,3.8182,0,1.9964e-05,199.5,1.8296e-05,163.46,-3.4299e-06,0.22105,-1.1302e-05,-58.928,2.8141
14773,23.633,3.7273,0,2.1065e-05,210.5,1.8605e-05,160.19,-2.6711e-06,0.32696,-1.3137e-05,-78.313,2.7988
14774,23.633,3.8182,0.05,7.6831e-07,7.6778,5.8997e-07,4.4328,-1.8276e-13,7.7318e-06,-5.8997e-07,-4.4328,2.7987
14775,23.817,3.7273,0,1.9348e-05,193.34,1.8366e-05,170.53,-4.302e-06,0.20404,-9.6041e-06,-39.634,2.8296
14776,23.817,3.8182,0.05,7.8143e-07,7.8089,6.0004e-07,4.5085,-1.0243e-14,1.6181e-06,-6.0004e-07,-4.5085,2.8296
14777,23.908,3.8182,0,1.856e-05,185.47,1.8083e-05,173.48,-4.9482e-06,0.43458,-7.9766e-06,-22.32,2.845
14778,3.5419,3.6364,0,0.0012442,12434,0.00045746,554.09,0.00038131,-18.133,-0.0012341,-12156,0.087803
14779,3.4501,3.5455,0,0.0013247,13238,0.00049764,724.37,0.00039996,-9.569,-0.001311,-12865,0.082831
14780,3.4501,3.6364,0.05,3.7567e-05,375.41,2.8847e-05,216.74,-2.5776e-11,0.00055448,-2.8847e-05,-216.74,0.082288
14781,3.7254,3.6364,0,0.0010215,10208,0.00034732,121,0.00033082,-3.0189,-0.0010194,-10148,0.099281
14782,3.6336,3.5455,0,0.0011092,11084,0.00038857,267.17,0.00035218,-6.228,-0.0011045,-10951,0.093851
14783,3.6336,3.6364,0.05,2.9471e-05,294.51,2.263e-05,170.04,-5.5567e-11,0.00011269,-2.263e-05,-170.03,0.093392
14784,3.9088,3.6364,0,0.00086813,8675.3,0.0002941,5.4027,0.00027404,-145.28,-0.00087041,-8744.2,0.11141
14785,3.8171,3.5455,0,0.00094198,9413.4,0.00031418,6.5361,0.00030583,-56.159,-0.00094281,-9438,0.1056
14786,3.8171,3.6364,0.05,2.1355e-05,213.4,1.6398e-05,123.21,-4.9833e-11,2.3234e-05,-1.6398e-05,-123.21,0.10521
14787,4.0923,3.6364,0,0.00076271,7621.8,0.00026675,2.0624,0.00022608,-303.54,-0.00076738,-7768,0.12411
14788,4.0006,3.5455,0,0.00082048,8199.2,0.00028368,2.0418,0.00024887,-259.5,-0.00082455,-8324.8,0.11796
14789,4.0006,3.6364,0.05,1.5053e-05,150.42,1.1559e-05,86.848,-2.7459e-11,6.0354e-05,-1.1559e-05,-86.847,0.11764
14790,4.2758,3.6364,0,0.00068773,6872.5,0.00024638,1.7129,0.00019357,-395.13,-0.00069356,-7060.6,0.13731
14791,4.1841,3.5455,0,0.00073203,7315.2,0.00026046,1.7891,0.00020919,-383.42,-0.00073776,-7498.4,0.13088
14792,4.1841,3.6364,0.05,1.1438e-05,114.3,8.7828e-06,65.991,-1.2188e-11,0.000103,-8.7828e-06,-65.99,0.13059
14793,4.4593,3.6364,0,0.00063234,6319,0.00023036,1.2321,0.00017116,-443.54,-0.00063869,-6528.4,0.15097
14794,4.3676,3.5455,0,0.00066619,6657.3,0.000242,1.2896,0.00018156,-452.78,-0.00067271,-6871.5,0.14428
14795,4.3676,3.6364,0.05,9.0484e-06,90.421,6.948e-06,52.205,-4.5402e-12,0.00013201,-6.948e-06,-52.205,0.14403
14796,4.6428,3.6364,0,0.00059029,5898.9,0.00021738,0.90577,0.00015557,-463.55,-0.00059679,-6116.5,0.16506
14797,4.551,3.5455,0,0.00061625,6158.3,0.00022702,0.96257,0.00016227,-485.56,-0.00062305,-6386.1,0.15814
14798,4.551,3.6364,0.05,7.3323e-06,73.272,5.6303e-06,42.304,3.6682e-12,0.00012916,-5.6303e-06,-42.304,0.15791
14799,4.8263,3.6364,0,0.00055768,5572.9,0.00020664,0.67796,0.00014467,-464.92,-0.00056411,-5790.4,0.17954
14800,4.7345,3.5455,0,0.0005777,5773,0.00021465,0.72161,0.00014879,-494.11,-0.00058449,-6003.7,0.17241
14801,4.7345,3.6364,0.05,6.0354e-06,60.313,4.6345e-06,34.822,3.4573e-12,0.00013489,-4.6345e-06,-34.821,0.1722
14802,5.0097,3.6364,0,0.00053191,5315.4,0.00019759,0.50576,0.00013706,-454.27,-0.00053817,-5527.7,0.1944
14803,4.918,3.5455,0,0.00054746,5470.8,0.00020429,0.53767,0.00013941,-486.93,-0.0005541,-5697.7,0.18707
14804,4.918,3.6364,0.05,5.0261e-06,50.227,3.8594e-06,28.998,7.2694e-12,0.00013223,-3.8594e-06,-28.998,0.18688
14805,5.1932,3.6364,0,0.00051121,5108.6,0.00018987,0.37802,0.00013178,-436.11,-0.00051723,-5312.5,0.20963
14806,5.1015,3.5455,0,0.00052341,5230.5,0.00019551,0.40046,0.00013292,-469.82,-0.00052981,-5449.3,0.20211
14807,5.1015,3.6364,0.05,4.2275e-06,42.246,3.2462e-06,24.391,5.8693e-12,0.00010278,-3.2462e-06,-24.391,0.20192
14808,5.3767,3.6364,0,0.00049433,4939.9,0.00018321,0.28185,0.00012813,-413.53,-0.00050006,-5133.5,0.2252
14809,5.285,3.5455,0,0.000504,5036.5,0.00018798,0.29705,0.00012848,-446.77,-0.0005101,-5244.9,0.21751
14810,5.285,3.6364,0.05,3.5902e-06,35.877,2.7568e-06,20.714,4.2939e-12,8.2587e-05,-2.7568e-06,-20.714,0.21733
14811,5.5602,3.6364,0,0.00048034,4800,0.00017739,0.20978,0.00012564,-388.62,-0.00048576,-4982.4,0.24111
14812,5.4684,3.5455,0,0.0004881,4877.6,0.00018147,0.21976,0.00012548,-420.47,-0.00049389,-5074.1,0.23325
14813,5.4684,3.6364,0.05,3.0793e-06,30.772,2.3645e-06,17.766,4.5028e-12,6.9996e-05,-2.3645e-06,-17.766,0.23307
14814,5.7437,3.6364,0,0.00046854,4682.2,0.00017225,0.15574,0.00012395,-362.79,-0.00047365,-4852.9,0.25735
14815,5.6519,3.5455,0,0.00047487,4745.4,0.00017577,0.16205,0.00012348,-392.74,-0.00048033,-4929.5,0.24932
14816,5.6519,3.6364,0.05,2.6688e-06,26.67,2.0493e-06,15.398,6.0112e-12,6.2676e-05,-2.0493e-06,-15.398,0.24914
14817,5.9271,3.6364,0,0.00045843,4581.1,0.00016768,0.11533,0.00012281,-337,-0.00046322,-4740.2,0.2739
14818,5.8354,3.5455,0,0.00046368,4633.6,0.00017074,0.11909,0.00012217,-364.79,-0.0004688,-4805.1,0.26571
14819,5.8354,3.6364,0.05,2.3388e-06,23.371,1.7959e-06,13.494,2.5116e-12,5.171e-05,-1.7959e-06,-13.494,0.26554
14820,6.1106,3.6364,0,0.0004496,4492.9,0.00016355,0.085155,0.00012204,-311.86,-0.00045409,-4640.6,0.29077
14821,6.0189,3.5455,0,0.00045404,4537.3,0.00016624,0.087184,0.00012133,-337.39,-0.00045884,-4696.5,0.28243
14822,6.0189,3.6364,0.05,2.0732e-06,20.718,1.592e-06,11.962,1.3944e-12,4.921e-05,-1.592e-06,-11.962,0.28226
14823,6.2941,3.6364,0,0.00044175,4414.5,0.0001598,0.062672,0.0001215,-287.75,-0.00044594,-4551.3,0.30794
14824,6.2024,3.5455,0,0.0004456,4452.9,0.00016219,0.06354,0.00012078,-311.06,-0.00045007,-4600.2,0.29945
14825,6.2024,3.6364,0.05,1.8596e-06,18.584,1.428e-06,10.729,6.7588e-13,2.8523e-05,-1.428e-06,-10.729,0.29928
14826,6.4776,3.6364,0,0.00043466,4343.6,0.00015636,0.04596,0.0001211,-264.89,-0.00043856,-4469.9,0.32542
14827,6.3858,3.5455,0,0.00043805,4377.5,0.0001585,0.046064,0.00012042,-286.07,-0.00044222,-4513.5,0.31677
14828,6.3858,3.6364,0.05,1.6878e-06,16.866,1.296e-06,9.7376,8.3143e-13,1.9134e-05,-1.296e-06,-9.7376,0.3166
14829,6.6611,3.6364,0,0.00042813,4278.4,0.00015317,0.033573,0.00012077,-243.41,-0.00043175,-4394.9,0.34318
14830,6.5693,3.5455,0,0.0004312,4309,0.00015511,0.033188,0.00012015,-262.59,-0.00043507,-4434.3,0.33439
14831,6.5693,3.6364,0.05,1.5494e-06,15.484,1.1898e-06,8.9395,-1.6841e-12,2.5295e-05,-1.1898e-06,-8.9394,0.33422
14832,6.8445,3.6364,0,0.00042204,4217.5,0.00015019,0.024426,0.00012046,-223.35,-0.0004254,-4324.7,0.36124
14833,6.7528,3.5455,0,0.00042487,4245.8,0.00015196,0.023741,0.00011993,-240.68,-0.00042845,-4361,0.35231
14834,6.7528,3.6364,0.05,1.438e-06,14.37,1.1042e-06,8.2964,-7.6773e-13,2.1179e-05,-1.1042e-06,-8.2963,0.35214
14835,7.028,3.6364,0,0.00041627,4159.9,0.00014739,0.017705,0.00012014,-204.7,-0.00041938,-4258.4,0.37959
14836,6.9363,3.5455,0,0.00041893,4186.4,0.00014902,0.016848,0.00011969,-220.34,-0.00042224,-4292.2,0.37051
14837,6.9363,3.6364,0.05,1.348e-06,13.471,1.0351e-06,7.7774,-1.7285e-12,1.0612e-05,-1.0351e-06,-7.7773,0.37034
14838,7.2115,3.6364,0,0.00041075,4104.7,0.00014473,0.012797,0.00011978,-187.43,-0.00041362,-4195.2,0.39822
14839,7.1198,3.5455,0,0.00041328,4130,0.00014625,0.011857,0.00011942,-201.54,-0.00041634,-4227.1,0.389
14840,7.1198,3.6364,0.05,1.2752e-06,12.743,9.7921e-07,7.3575,-1.8344e-12,1.7243e-05,-9.792e-07,-7.3573,0.38883
14841,7.395,3.6364,0,0.00040541,4051.3,0.00014219,0.0092432,0.00011937,-171.48,-0.00040806,-4134.3,0.41712
14842,7.3032,3.5455,0,0.00040786,4075.8,0.00014361,0.0082795,0.0001191,-184.19,-0.00041068,-4164.7,0.40776
14843,7.3032,3.6364,0.05,1.2161e-06,12.153,9.3381e-07,7.0163,-1.0819e-12,1.2251e-05,-9.3381e-07,-7.0162,0.4076
14844,7.5785,3.6364,0,0.0004002,3999.3,0.00013976,0.0067003,0.00011889,-156.76,-0.00040264,-4075.3,0.43631
14845,7.4867,3.5455,0,0.00040259,4023.1,0.0001411,0.0057507,0.00011871,-168.23,-0.00040519,-4104.6,0.42681
14846,7.4867,3.6364,0.05,1.1679e-06,11.671,8.9678e-07,6.7381,-1.4963e-12,9.4197e-06,-8.9677e-07,-6.738,0.42665
14847,7.7619,3.6364,0,0.00039509,3948.2,0.00013741,0.0049095,0.00011835,-143.21,-0.00039733,-4017.8,0.45576
14848,7.6702,3.5455,0,0.00039744,3971.7,0.00013869,0.0039987,0.00011825,-153.55,-0.00039983,-4046.2,0.44612
14849,7.6702,3.6364,0.05,1.1283e-06,11.275,8.6638e-07,6.5097,-1.2545e-12,9.3052e-06,-8.6638e-07,-6.5096,0.44596
14850,7.9454,3.6364,0,0.00039005,3897.8,0.00013514,0.0036768,0.00011774,-130.74,-0.00039211,-3961.5,0.47548
14851,7.8537,3.5455,0,0.00039238,3921.1,0.00013636,0.0028197,0.00011772,-140.08,-0.00039457,-3989.2,0.46571
14852,7.8537,3.6364,0.05,1.0956e-06,10.948,8.4127e-07,6.321,-1.6332e-12,9.573e-06,-8.4126e-07,-6.3209,0.46555
14853,8.1289,3.6364,0,0.00038506,3847.9,0.00013293,0.0028574,0.00011706,-119.27,-0.00038695,-3906.1,0.49546
14854,8.0372,3.5455,0,0.00038737,3871.1,0.00013411,0.002061,0.00011711,-127.72,-0.00038939,-3933.4,0.48556
14855,8.0372,3.6364,0.05,1.0683e-06,10.676,8.2036e-07,6.1638,-9.5925e-13,6.8326e-06,-8.2034e-07,-6.1638,0.4854
14856,8.3124,3.6364,0,0.0003801,3798.3,0.00013078,0.0023419,0.00011631,-108.73,-0.00038183,-3851.5,0.51571
14857,8.2206,3.5455,0,0.00038241,3821.5,0.00013192,0.0016105,0.00011643,-116.38,-0.00038426,-3878.3,0.50568
14858,8.2206,3.6364,0.05,1.0454e-06,10.447,8.0277e-07,6.0318,-1.3011e-12,7.424e-06,-8.0278e-07,-6.0317,0.50552
14859,8.4959,3.6364,0,0.00037516,3749,0.00012868,0.0020486,0.00011549,-99.047,-0.00037674,-3797.5,0.53621
14860,8.4041,3.5455,0,0.00037747,3772.1,0.00012978,0.0013822,0.00011567,-105.97,-0.00037917,-3824,0.52605
14861,8.4041,3.6364,0.05,1.026e-06,10.253,7.8787e-07,5.9198,-5.7346e-13,8.3689e-06,-7.8786e-07,-5.9197,0.52589
14862,8.6794,3.6364,0,0.00037024,3699.8,0.00012662,0.0019172,0.00011462,-90.145,-0.00037169,-3744,0.55696
14863,8.5876,3.5455,0,0.00037256,3723,0.00012769,0.0013132,0.00011486,-96.431,-0.0003741,-3770.3,0.54668
14864,8.5876,3.6364,0.05,1.0094e-06,10.087,7.751e-07,5.8238,-1.6569e-12,7.05e-06,-7.7509e-07,-5.8237,0.54652
14865,8.8628,3.6364,0,0.00036532,3650.7,0.00012459,0.0019023,0.00011368,-81.963,-0.00036665,-3691,0.57797
14866,8.7711,3.5455,0,0.00036765,3674,0.00012564,0.0013581,0.00011397,-87.674,-0.00036906,-3717,0.56756
14867,8.7711,3.6364,0.05,9.9498e-07,9.943,7.6403e-07,5.7406,-1.1835e-14,6.7593e-06,-7.6402e-07,-5.7405,0.5674
14868,9.0463,3.6364,0,0.00036041,3601.6,0.0001226,0.0019702,0.0001127,-74.441,-0.00036162,-3638.3,0.59922
14869,8.9546,3.5455,0,0.00036275,3625,0.00012363,0.0014812,0.00011303,-79.636,-0.00036404,-3664.1,0.58869
14870,8.9546,3.6364,0.05,9.8236e-07,9.8168,7.5433e-07,5.6678,-1.9362e-12,4.8146e-06,-7.5433e-07,-5.6677,0.58853
14871,9.2298,3.6364,0,0.00035551,3552.6,0.00012065,0.002096,0.00011166,-67.523,-0.00035661,-3585.9,0.62072
14872,9.1381,3.5455,0,0.00035785,3576,0.00012165,0.0016576,0.00011203,-72.255,-0.00035902,-3611.6,0.61006
14873,9.1381,3.6364,0.05,9.7119e-07,9.7052,7.4575e-07,5.6033,-2.0643e-12,5.2275e-06,-7.4575e-07,-5.6032,0.60991
14874,9.4133,3.6364,0,0.0003506,3503.6,0.00011871,0.0022605,0.00011057,-61.158,-0.0003516,-3533.8,0.64245
14875,9.3215,3.5455,0,0.00035295,3527.1,0.0001197,0.001869,0.00011099,-65.475,-0.00035402,-3559.4,0.63168
14876,9.3215,3.6364,0.05,9.6119e-07,9.6052,7.3808e-07,5.5456,-3.2497e-13,5.2748e-06,-7.3807e-07,-5.5456,0.63153
14877,9.5968,3.6364,0,0.0003457,3454.6,0.00011681,0.0024525,0.00010945,-55.302,-0.0003466,-3481.9,0.66443
14878,9.505,3.5455,0,0.00034805,3478.1,0.00011778,0.0021012,0.00010989,-59.244,-0.00034902,-3507.4,0.65353
14879,9.505,3.6364,0.05,9.5215e-07,9.5149,7.3113e-07,5.4935,-2.2246e-12,4.8802e-06,-7.3113e-07,-5.4934,0.65338
14880,9.7802,3.6364,0,0.00034079,3405.6,0.00011492,0.0026591,0.00010828,-49.91,-0.00034161,-3430.2,0.68663
14881,9.6885,3.5455,0,0.00034316,3429.2,0.00011588,0.002349,0.00010876,-53.515,-0.00034404,-3455.6,0.67562
14882,9.6885,3.6364,0.05,9.439e-07,9.4324,7.2479e-07,5.4459,-3.1866e-12,4.8813e-06,-7.2479e-07,-5.4458,0.67547
14883,9.9637,3.6364,0,0.00033589,3356.6,0.00011306,0.0028782,0.00010708,-44.943,-0.00033663,-3378.8,0.70907
14884,9.872,3.5455,0,0.00033826,3380.3,0.00011401,0.0025946,0.00010759,-48.244,-0.00033905,-3404.1,0.69794
14885,9.872,3.6364,0.05,9.3629e-07,9.3565,7.1896e-07,5.402,-5.0905e-13,4.9169e-06,-7.1895e-07,-5.4019,0.69779
14886,10.147,3.6364,0,0.00033098,3307.6,0.00011122,0.003107,0.00010585,-40.367,-0.00033165,-3327.6,0.73173
14887,10.055,3.5455,0,0.00033336,3331.3,0.00011215,0.0028541,0.00010638,-43.392,-0.00033408,-3352.8,0.72049
14888,10.055,3.6364,0.05,9.2923e-07,9.2859,7.1353e-07,5.3612,-5.543e-13,4.595e-06,-7.1353e-07,-5.3611,0.72034
14889,10.331,3.6364,0,0.00032608,3258.6,0.00010939,0.0033197,0.00010458,-36.148,-0.00032668,-3276.5,0.75462
14890,10.239,3.5455,0,0.00032846,3282.4,0.00011032,0.0031088,0.00010514,-38.923,-0.00032911,-3301.7,0.74326
14891,10.239,3.6364,0.05,9.2262e-07,9.2198,7.0846e-07,5.3231,-5.9715e-13,4.7637e-06,-7.0846e-07,-5.323,0.74312
14892,10.514,3.6364,0,0.00032119,3209.6,0.00010759,0.003525,0.00010329,-32.256,-0.00032172,-3225.6,0.77773
14893,10.422,3.5455,0,0.00032357,3233.5,0.0001085,0.0033276,0.00010387,-34.805,-0.00032415,-3250.7,0.76626
14894,10.422,3.6364,0.05,9.1639e-07,9.1575,7.0367e-07,5.2871,-6.3649e-13,4.2394e-06,-7.0367e-07,-5.2871,0.76612
14895,10.698,3.6364,0,0.00031629,3160.7,0.00010579,0.0037455,0.00010198,-28.665,-0.00031677,-3175,0.80105
14896,10.606,3.5455,0,0.00031868,3184.6,0.0001067,0.003558,0.00010257,-31.008,-0.00031919,-3200,0.78947
14897,10.606,3.6364,0.05,9.1047e-07,9.0984,6.9912e-07,5.253,-6.6746e-13,4.2172e-06,-6.9913e-07,-5.253,0.78933
14898,10.881,3.6364,0,0.0003114,3111.9,0.00010402,0.0039825,0.00010064,-25.348,-0.00031182,-3124.5,0.82458
14899,10.789,3.5455,0,0.00031379,3135.7,0.00010491,0.0038001,0.00010125,-27.504,-0.00031425,-3149.4,0.8129
14900,10.789,3.6364,0.05,9.0482e-07,9.042,6.948e-07,5.2204,-3.4219e-12,3.777e-06,-6.9479e-07,-5.2204,0.81276
14901,11.065,3.6364,0,0.00030652,3063.1,0.00010225,0.0042063,9.9286e-05,-22.284,-0.00030689,-3074.1,0.84833
14902,10.973,3.5455,0,0.00030891,3086.9,0.00010314,0.0040577,9.9908e-05,-24.27,-0.00030931,-3099,0.83654
14903,10.973,3.6364,0.05,8.9943e-07,8.988,6.9065e-07,5.1892,-1.6297e-12,2.5986e-06,-6.9064e-07,-5.1893,0.8364
14904,11.248,3.6364,0,0.00030164,3014.3,0.0001005,0.0044069,9.7914e-05,-19.451,-0.00030197,-3024,0.87228
14905,11.156,3.5455,0,0.00030403,3038.2,0.00010138,0.0042669,9.8549e-05,-21.282,-0.00030438,-3048.8,0.86039
14906,11.156,3.6364,0.05,8.9424e-07,8.9362,6.8666e-07,5.1594,-1.6522e-12,3.3992e-06,-6.8666e-07,-5.1593,0.86025
14907,11.432,3.6364,0,0.00029677,2965.6,9.8767e-05,0.0046321,9.6526e-05,-16.831,-0.00029705,-2974,0.89644
14908,11.34,3.5455,0,0.00029916,2989.5,9.9638e-05,0.0044712,9.7173e-05,-18.52,-0.00029947,-2998.7,0.88444
14909,11.34,3.6364,0.05,8.8922e-07,8.886,6.8281e-07,5.1304,-1.6731e-12,3.8501e-06,-6.8281e-07,-5.1303,0.88431
14910,11.615,3.6364,0,0.00029191,2917.1,9.7042e-05,0.0048662,9.5125e-05,-14.404,-0.00029215,-2924.2,0.92079
14911,11.523,3.5455,0,0.00029429,2940.9,9.7907e-05,0.0047237,9.5781e-05,-15.965,-0.00029456,-2948.8,0.90869
14912,11.523,3.6364,0.05,8.8436e-07,8.8375,6.7908e-07,5.1024,-7.8132e-13,3.1021e-06,-6.7907e-07,-5.1023,0.90856
14913,11.799,3.6364,0,0.00028705,2868.6,9.533e-05,0.0050929,9.3711e-05,-12.155,-0.00028726,-2874.6,0.94535
14914,11.707,3.5455,0,0.00028944,2892.4,9.6188e-05,0.0049381,9.4377e-05,-13.599,-0.00028967,-2899.2,0.93315
14915,11.707,3.6364,0.05,8.7965e-07,8.7904,6.7546e-07,5.0752,-1.7061e-12,3.3367e-06,-6.7545e-07,-5.0751,0.93302
14916,11.982,3.6364,0,0.00028221,2820.2,9.3628e-05,0.005341,9.2287e-05,-10.07,-0.00028238,-2825.2,0.97009
14917,11.89,3.5455,0,0.00028459,2844,9.448e-05,0.0051665,9.2961e-05,-11.406,-0.00028478,-2849.6,0.95779
14918,11.89,3.6364,0.05,8.7505e-07,8.7445,6.7194e-07,5.0487,-8.1415e-13,4.2979e-06,-6.7193e-07,-5.0486,0.95767
14919,12.165,3.6364,0,0.00027738,2771.9,9.1938e-05,0.0056036,9.0855e-05,-8.133,-0.00027752,-2775.9,0.99503
14920,12.074,3.5455,0,0.00027976,2795.6,9.2784e-05,0.005412,9.1536e-05,-9.371,-0.00027991,-2800.3,0.98263
14921,12.074,3.6364,0.05,8.7057e-07,8.6997,6.685e-07,5.0228,-8.287e-13,3.4073e-06,-6.6849e-07,-5.0228,0.98251
14922,12.349,3.6364,0,0.00027256,2723.7,9.0258e-05,0.0059076,8.9414e-05,-6.3327,-0.00027266,-2726.9,1.0202
14923,12.257,3.5455,0,0.00027493,2747.4,9.1098e-05,0.0056505,9.0102e-05,-7.4813,-0.00027506,-2751.1,1.0077
14924,12.257,3.6364,0.05,8.6619e-07,8.6559,6.6513e-07,4.9975,-2.6618e-12,3.8989e-06,-6.6512e-07,-4.9975,1.0075
14925,12.532,3.6364,0,0.00026775,2675.6,8.8588e-05,0.0063241,8.7968e-05,-4.6568,-0.00026783,-2678,1.0455
14926,12.441,3.5455,0,0.00027012,2699.3,8.9423e-05,0.0059505,8.866e-05,-5.7237,-0.00027021,-2702.2,1.0329
14927,12.441,3.6364,0.05,8.6189e-07,8.613,6.6183e-07,4.9727,-8.5694e-13,3.6744e-06,-6.6182e-07,-4.9727,1.0328
14928,12.716,3.6364,0,0.00026295,2627.7,8.6928e-05,0.0069884,8.6515e-05,-3.0946,-0.00026301,-2629.3,1.0709
14929,12.624,3.5455,0,0.00026532,2651.3,8.7757e-05,0.0063594,8.7213e-05,-4.0869,-0.00026539,-2653.4,1.0583
14930,12.624,3.6364,0.05,8.5768e-07,8.5708,6.5859e-07,4.9484,-8.687e-13,2.1851e-06,-6.5859e-07,-4.9483,1.0582
14931,12.899,3.6364,0,0.00025817,2579.9,8.5278e-05,0.0084535,8.5059e-05,-1.6364,-0.0002582,-2580.7,1.0966
14932,12.808,3.5455,0,0.00026053,2603.5,8.6102e-05,0.00704,8.576e-05,-2.5601,-0.00026057,-2604.8,1.0838
14933,12.808,3.6364,0.05,8.5354e-07,8.5295,6.5542e-07,4.9246,-8.7843e-13,9.4838e-07,-6.5541e-07,-4.9245,1.0837
14934,13.083,3.6364,0,0.0002534,2532.3,8.3638e-05,0.021554,8.3598e-05,-0.28366,-0.00025341,-2532.4,1.1224
14935,12.991,3.5455,0,0.00025575,2555.8,8.4456e-05,0.0088447,8.4304e-05,-1.1344,-0.00025577,-2556.3,1.1096
14936,12.991,3.6364,0.05,8.4948e-07,8.4889,6.5229e-07,4.9011,-8.8828e-13,1.7112e-06,-6.523e-07,-4.9011,1.1095
14937,13.266,3.6364,0,0.00024865,2484.8,8.2139e-05,1.0175,8.2003e-05,0.0014747,-0.00024863,-2484.2,1.1485
14938,13.175,3.5455,0,0.00025099,2508.2,8.2847e-05,0.22127,8.2816e-05,-0.0097848,-0.00025099,-2508.1,1.1355
14939,13.175,3.6364,0.05,8.4547e-07,8.4489,6.4922e-07,4.878,-1.8067e-12,2.27e-06,-6.4922e-07,-4.8779,1.1354
14940,13.45,3.6364,0,0.00024391,2437.4,8.0675e-05,2.2193,8.038e-05,0.0040838,-0.00024387,-2436.3,1.1746
14941,13.358,3.5455,0,0.00024625,2460.8,8.1384e-05,1.463,8.119e-05,0.0038614,-0.00024622,-2460,1.1616
14942,13.358,3.6364,0.05,8.4153e-07,8.4095,6.4619e-07,4.8552,-2.7242e-12,3.3998e-06,-6.4619e-07,-4.8552,1.1615
14943,13.633,3.6364,0,0.00023918,2390.2,7.9211e-05,3.354,7.8765e-05,0.0049325,-0.00023913,-2388.5,1.201
14944,13.542,3.5455,0,0.00024152,2413.5,7.9921e-05,2.6434,7.957e-05,0.0050592,-0.00024147,-2412.2,1.1879
14945,13.542,3.6364,0.05,8.3765e-07,8.3707,6.4321e-07,4.8329,-9.1269e-13,4.2306e-06,-6.4321e-07,-4.8328,1.1878
14946,13.817,3.6364,0,0.00023448,2343.1,7.7747e-05,4.4276,7.7158e-05,0.0054216,-0.0002344,-2340.9,1.2275
14947,13.725,3.5455,0,0.0002368,2366.4,7.8459e-05,3.7585,7.7959e-05,0.0056025,-0.00023674,-2364.5,1.2143
14948,13.725,3.6364,0.05,8.3381e-07,8.3324,6.4026e-07,4.8107,-9.1957e-13,5.237e-06,-6.4026e-07,-4.8106,1.2142
14949,14,3.6364,0,0.00022978,2296.3,7.6284e-05,5.4467,7.556e-05,0.0057624,-0.00022969,-2293.5,1.2541
14950,13.909,3.5455,0,0.0002321,2319.4,7.6996e-05,4.8149,7.6356e-05,0.0059705,-0.00023202,-2317,1.2409
14951,13.909,3.6364,0.05,8.3003e-07,8.2946,6.3736e-07,4.7889,-9.2565e-13,5.6885e-06,-6.3736e-07,-4.7888,1.2408
14952,14.184,3.6364,0,0.00022511,2249.5,7.4822e-05,6.4177,7.3969e-05,0.0060435,-0.000225,-2246.3,1.2809
14953,14.092,3.5455,0,0.00022742,2272.6,7.5535e-05,5.8193,7.4761e-05,0.0062316,-0.00022732,-2269.7,1.2676
14954,14.092,3.6364,0.05,8.2629e-07,8.2572,6.3448e-07,4.7673,-1.8412e-12,5.0775e-06,-6.3448e-07,-4.7673,1.2675
14955,14.367,3.6364,0,0.00022045,2203,7.3363e-05,7.3468,7.2386e-05,0.0063094,-0.00022033,-2199.3,1.3079
14956,14.276,3.5455,0,0.00022276,2226,7.4075e-05,6.7782,7.3174e-05,0.0064952,-0.00022264,-2222.6,1.2945
14957,14.276,3.6364,0.05,8.2258e-07,8.2201,6.3164e-07,4.7459,-2.84e-14,5.4532e-06,-6.3164e-07,-4.7459,1.2944
14958,14.551,3.6364,0,0.00021581,2156.6,7.1906e-05,8.2399,7.081e-05,0.0065389,-0.00021567,-2152.5,1.335
14959,14.459,3.5455,0,0.00021811,2179.6,7.2618e-05,7.6978,7.1594e-05,0.0067385,-0.00021797,-2175.7,1.3215
14960,14.459,3.6364,0.05,8.1893e-07,8.1836,6.2884e-07,4.7248,-1.8528e-12,5.3538e-06,-6.2883e-07,-4.7248,1.3214
14961,14.734,3.6364,0,0.00021119,2110.4,7.0452e-05,9.1027,6.9242e-05,0.00675,-0.00021103,-2105.9,1.3623
14962,14.642,3.5455,0,0.00021348,2133.3,7.1164e-05,8.5837,7.0022e-05,0.0069369,-0.00021333,-2129,1.3487
14963,14.642,3.6364,0.05,8.1531e-07,8.1475,6.2606e-07,4.7039,-2.7678e-12,4.2966e-06,-6.2606e-07,-4.7039,1.3486
14964,14.918,3.6364,0,0.00020659,2064.4,6.9003e-05,9.9408,6.7681e-05,0.0069688,-0.00020641,-2059.4,1.3897
14965,14.826,3.5455,0,0.00020886,2087.2,6.9713e-05,9.4418,6.8457e-05,0.0071475,-0.0002087,-2082.5,1.376
14966,14.826,3.6364,0.05,8.1172e-07,8.1116,6.233e-07,4.6833,-4.4671e-14,3.1241e-06,-6.233e-07,-4.6833,1.3759
14967,15.101,3.6364,0,0.000202,2018.6,6.7558e-05,10.759,6.6127e-05,0.0071971,-0.00020181,-2013.2,1.4172
14968,15.009,3.5455,0,0.00020427,2041.3,6.8267e-05,10.277,6.69e-05,0.0073666,-0.00020409,-2036.1,1.4035
14969,15.009,3.6364,0.05,8.0818e-07,8.0762,6.2058e-07,4.6628,-4.9467e-14,1.838e-06,-6.2058e-07,-4.6628,1.4034
14970,15.285,3.6364,0,0.00019743,1973,6.6118e-05,11.564,6.458e-05,0.0074218,-0.00019723,-1967.2,1.4449
14971,15.193,3.5455,0,0.00019969,1995.6,6.6825e-05,11.096,6.5349e-05,0.0075988,-0.0001995,-1990,1.4311
14972,15.193,3.6364,0.05,8.0467e-07,8.0411,6.1789e-07,4.6426,-5.4018e-14,1.6802e-06,-6.1789e-07,-4.6425,1.431
14973,15.468,3.6364,0,0.00019289,1927.5,6.4683e-05,12.359,6.304e-05,0.0076404,-0.00019267,-1921.3,1.4727
14974,15.376,3.5455,0,0.00019514,1950,6.5388e-05,11.903,6.3805e-05,0.0078124,-0.00019493,-1944,1.4588
14975,15.376,3.6364,0.05,8.012e-07,8.0065,6.1522e-07,4.6226,-9.6799e-13,3.2566e-06,-6.1522e-07,-4.6225,1.4587
14976,15.652,3.6364,0,0.00018836,1882.3,6.3255e-05,13.149,6.1506e-05,0.0078679,-0.00018813,-1875.7,1.5006
14977,15.56,3.5455,0,0.0001906,1904.7,6.3958e-05,12.703,6.2268e-05,0.0080348,-0.00019038,-1898.3,1.4867
14978,15.56,3.6364,0.05,7.9776e-07,7.9721,6.1259e-07,4.6027,-9.7147e-13,2.1512e-06,-6.1258e-07,-4.6027,1.4866
14979,15.835,3.6364,0,0.00018385,1837.2,6.1833e-05,13.941,5.9979e-05,0.0080917,-0.00018361,-1830.2,1.5287
14980,15.743,3.5455,0,0.00018608,1859.5,6.2533e-05,13.501,6.0738e-05,0.0082685,-0.00018585,-1852.7,1.5147
14981,15.743,3.6364,0.05,7.9437e-07,7.9382,6.0997e-07,4.5831,-9.7588e-13,5.7686e-07,-6.0997e-07,-4.5831,1.5146
14982,16.019,3.6364,0,0.00017936,1792.4,6.0419e-05,14.738,5.8458e-05,0.0083256,-0.0001791,-1784.9,1.5569
14983,15.927,3.5455,0,0.00018158,1814.6,6.1116e-05,14.302,5.9213e-05,0.0084851,-0.00018134,-1807.4,1.5428
14984,15.927,3.6364,0.05,7.91e-07,7.9045,6.0739e-07,4.5637,-6.9814e-14,6.5917e-07,-6.0739e-07,-4.5637,1.5427
14985,16.202,3.6364,0,0.00017489,1747.7,5.9011e-05,15.547,5.6943e-05,0.008583,-0.00017462,-1739.9,1.5852
14986,16.11,3.5455,0,0.00017711,1769.8,5.9706e-05,15.112,5.7696e-05,0.0087399,-0.00017684,-1762.2,1.5711
14987,16.11,3.6364,0.05,7.8766e-07,7.8712,6.0483e-07,4.5444,-7.7233e-14,1.0853e-06,-6.0483e-07,-4.5444,1.571
14988,16.386,3.6364,0,0.00017045,1703.3,5.7613e-05,16.371,5.5435e-05,0.0088372,-0.00017016,-1695,1.6136
14989,16.294,3.5455,0,0.00017265,1725.3,5.8303e-05,15.936,5.6184e-05,0.0090046,-0.00017237,-1717.3,1.5994
14990,16.294,3.6364,0.05,7.8437e-07,7.8383,6.023e-07,4.5254,-8.3222e-14,1.8637e-06,-6.023e-07,-4.5254,1.5994
14991,16.569,3.6364,0,0.00016602,1659,5.6222e-05,17.216,5.3932e-05,0.0090983,-0.00016572,-1650.4,1.6421
14992,16.477,3.5455,0,0.00016821,1681,5.691e-05,16.778,5.4678e-05,0.0092531,-0.00016792,-1672.5,1.6279
14993,16.477,3.6364,0.05,7.8111e-07,7.8057,5.998e-07,4.5066,-9.1469e-14,1.7118e-06,-5.9979e-07,-4.5066,1.6278
14994,16.753,3.6364,0,0.00016162,1615,5.4841e-05,18.088,5.2435e-05,0.0093824,-0.0001613,-1605.9,1.6708
14995,16.661,3.5455,0,0.0001638,1636.9,5.5525e-05,17.645,5.3178e-05,0.0095304,-0.00016349,-1628,1.6565
14996,16.661,3.6364,0.05,7.7788e-07,7.7735,5.9732e-07,4.488,-9.739e-14,3.4501e-06,-5.9732e-07,-4.488,1.6564
14997,16.936,3.6364,0,0.00015723,1571.2,5.347e-05,18.991,5.0944e-05,0.0096881,-0.0001569,-1561.7,1.6996
14998,16.844,3.5455,0,0.00015941,1593,5.415e-05,18.541,5.1684e-05,0.0098278,-0.00015908,-1583.6,1.6852
14999,16.844,3.6364,0.05,7.747e-07,7.7416,5.9487e-07,4.4696,-1.0647e-13,5.8728e-06,-5.9487e-07,-4.4696,1.6851
15000,17.119,3.6364,0,0.00015287,1527.7,5.2109e-05,19.933,4.9458e-05,0.010006,-0.00015252,-1517.6,1.7284
15001,17.028,3.5455,0,0.00015503,1549.3,5.2785e-05,19.472,5.0195e-05,0.010149,-0.00015469,-1539.4,1.714
15002,17.028,3.6364,0.05,7.7155e-07,7.7102,5.9246e-07,4.4515,-5.6991e-13,5.5856e-06,-5.9246e-07,-4.4515,1.714
15003,17.303,3.6364,0,0.00014853,1484.3,5.076e-05,20.917,4.7977e-05,0.010335,-0.00014817,-1473.7,1.7574
15004,17.211,3.5455,0,0.00015069,1505.8,5.1431e-05,20.445,4.8711e-05,0.010471,-0.00015033,-1495.5,1.743
15005,17.211,3.6364,0.05,7.6846e-07,7.6793,5.9008e-07,4.4336,-1.2235e-13,5.0659e-06,-5.9008e-07,-4.4336,1.7429
15006,17.486,3.6364,0,0.00014422,1441.2,4.9422e-05,21.952,4.6502e-05,0.010686,-0.00014383,-1430.1,1.7865
15007,17.395,3.5455,0,0.00014636,1462.6,5.0088e-05,21.465,4.7233e-05,0.010815,-0.00014598,-1451.7,1.772
15008,17.395,3.6364,0.05,7.654e-07,7.6487,5.8773e-07,4.416,-1.282e-13,4.2972e-06,-5.8773e-07,-4.416,1.7719
15009,17.67,3.6364,0,0.00013993,1398.3,4.8096e-05,23.043,4.5031e-05,0.011053,-0.00013952,-1386.6,1.8156
15010,17.578,3.5455,0,0.00014206,1419.6,4.8757e-05,22.538,4.5759e-05,0.011182,-0.00014166,-1408.2,1.8011
15011,17.578,3.6364,0.05,7.6239e-07,7.6187,5.8543e-07,4.3987,-1.3939e-13,5.6525e-06,-5.8542e-07,-4.3986,1.801
15012,17.853,3.6364,0,0.00013566,1355.7,4.6783e-05,24.196,4.3565e-05,0.011444,-0.00013523,-1343.4,1.8449
15013,17.762,3.5455,0,0.00013778,1376.8,4.7439e-05,23.672,4.429e-05,0.011556,-0.00013736,-1364.8,1.8303
15014,17.762,3.6364,0.05,7.5944e-07,7.5891,5.8316e-07,4.3816,-1.4484e-13,6.2898e-06,-5.8315e-07,-4.3816,1.8302
15015,18.037,3.6364,0,0.00013142,1313.2,4.5484e-05,25.42,4.2103e-05,0.011872,-0.00013096,-1300.3,1.8742
15016,17.945,3.5455,0,0.00013352,1334.3,4.6135e-05,24.874,4.2826e-05,0.011975,-0.00013308,-1321.7,1.8596
15017,17.945,3.6364,0.05,7.5653e-07,7.5601,5.8092e-07,4.3648,-1.5384e-13,7.9049e-06,-5.8092e-07,-4.3648,1.8595
15018,18.22,3.6364,0,0.0001272,1271.1,4.42e-05,26.722,4.0645e-05,0.01232,-0.00012672,-1257.5,1.9037
15019,18.129,3.5455,0,0.00012929,1292.1,4.4845e-05,26.15,4.1366e-05,0.012423,-0.00012883,-1278.8,1.889
15020,18.129,3.6364,0.05,7.5369e-07,7.5317,5.7874e-07,4.3484,-6.2581e-13,4.4468e-06,-5.7874e-07,-4.3484,1.8889
15021,18.404,3.6364,0,0.000123,1229.2,4.2931e-05,28.11,3.9192e-05,0.012794,-0.0001225,-1214.9,1.9332
15022,18.312,3.5455,0,0.00012509,1250,4.357e-05,27.51,3.991e-05,0.012882,-0.0001246,-1236,1.9185
15023,18.312,3.6364,0.05,7.509e-07,7.5038,5.766e-07,4.3323,-1.8028e-13,5.0917e-06,-5.766e-07,-4.3323,1.9184
15024,18.587,3.6364,0,0.00011884,1187.5,4.1679e-05,29.593,3.7742e-05,0.01331,-0.0001183,-1172.5,1.9628
15025,18.496,3.5455,0,0.00012091,1208.3,4.2311e-05,28.962,3.8458e-05,0.013383,-0.00012039,-1193.5,1.948
15026,18.496,3.6364,0.05,7.4818e-07,7.4767,5.7451e-07,4.3167,-1.9162e-13,3.5671e-06,-5.7451e-07,-4.3166,1.948
15027,18.771,3.6364,0,0.00011469,1146.2,4.0443e-05,31.179,3.6296e-05,0.013872,-0.00011413,-1130.2,1.9925
15028,18.679,3.5455,0,0.00011676,1166.8,4.1069e-05,30.514,3.701e-05,0.013926,-0.00011621,-1151.2,1.9777
15029,18.679,3.6364,0.05,7.4553e-07,7.4502,5.7248e-07,4.3014,-6.5626e-13,6.5759e-06,-5.7248e-07,-4.3014,1.9776
15030,18.954,3.6364,0,0.00011058,1105,3.9226e-05,32.879,3.4852e-05,0.014475,-0.00010998,-1088.2,2.0222
15031,18.863,3.5455,0,0.00011263,1125.5,3.9845e-05,32.177,3.5565e-05,0.01452,-0.00011205,-1109.1,2.0074
15032,18.863,3.6364,0.05,7.4297e-07,7.4246,5.7051e-07,4.2866,-6.5612e-13,5.608e-06,-5.7051e-07,-4.2866,2.0073
15033,19.138,3.6364,0,0.0001065,1064.2,3.8028e-05,34.704,3.3412e-05,0.015118,-0.00010586,-1046.4,2.0521
15034,19.046,3.5455,0,0.00010853,1084.6,3.864e-05,33.961,3.4122e-05,0.015145,-0.00010792,-1067.2,2.0372
15035,19.046,3.6364,0.05,7.4049e-07,7.3998,5.6861e-07,4.2723,-2.0782e-13,4.6421e-06,-5.686e-07,-4.2723,2.0371
15036,19.321,3.6364,0,0.00010244,1023.7,3.6851e-05,36.664,3.1974e-05,0.01582,-0.00010177,-1004.8,2.082
15037,19.229,3.5455,0,0.00010447,1043.9,3.7455e-05,35.877,3.2683e-05,0.015823,-0.00010381,-1025.5,2.0671
15038,19.229,3.6364,0.05,7.381e-07,7.3759,5.6677e-07,4.2585,-2.2159e-13,3.0921e-06,-5.6677e-07,-4.2585,2.067
15039,19.505,3.6364,0,9.8411e-05,983.43,3.5696e-05,38.771,3.0538e-05,0.016576,-9.7694e-05,-963.47,2.112
15040,19.413,3.5455,0,0.00010043,1003.6,3.6292e-05,37.936,3.1245e-05,0.016564,-9.9726e-05,-984.05,2.097
15041,19.413,3.6364,0.05,7.3582e-07,7.3532,5.6502e-07,4.2454,-2.3854e-13,6.267e-06,-5.6502e-07,-4.2453,2.0969
15042,19.688,3.6364,0,9.4414e-05,943.49,3.4563e-05,41.039,2.9103e-05,0.017401,-9.3649e-05,-922.29,2.142
15043,19.596,3.5455,0,9.6416e-05,963.5,3.5151e-05,40.152,2.9809e-05,0.017353,-9.567e-05,-942.78,2.127
15044,19.596,3.6364,0.05,7.3366e-07,7.3315,5.6336e-07,4.2329,-2.5694e-13,5.2072e-06,-5.6336e-07,-4.2328,2.127
15045,19.872,3.6364,0,9.0449e-05,903.87,3.3455e-05,43.481,2.767e-05,0.018311,-8.9631e-05,-881.33,2.1721
15046,19.78,3.5455,0,9.2438e-05,923.74,3.4034e-05,42.537,2.8375e-05,0.018232,-9.1641e-05,-901.73,2.1571
15047,19.78,3.6364,0.05,7.3161e-07,7.3111,5.6179e-07,4.221,1.7925e-13,5.5681e-06,-5.6179e-07,-4.221,2.157
15048,20.055,3.6364,0,8.6517e-05,864.57,3.2372e-05,46.112,2.6238e-05,0.019301,-8.564e-05,-840.58,2.2023
15049,19.963,3.5455,0,8.8492e-05,884.31,3.2942e-05,45.106,2.6941e-05,0.019191,-8.7638e-05,-860.89,2.1872
15050,19.963,3.6364,0.05,7.2971e-07,7.2921,5.6033e-07,4.2101,-2.8937e-13,5.0002e-06,-5.6033e-07,-4.2101,2.1872
15051,20.239,3.6364,0,8.2618e-05,825.61,3.1317e-05,48.947,2.4805e-05,0.020388,-8.1676e-05,-800.04,2.2325
15052,20.147,3.5455,0,8.458e-05,845.22,3.1877e-05,47.875,2.5508e-05,0.020231,-8.3664e-05,-820.25,2.2174
15053,20.147,3.6364,0.05,7.2796e-07,7.2746,5.5898e-07,4.2,1.5949e-13,5.4049e-06,-5.5898e-07,-4.2,2.2174
15054,20.422,3.6364,0,7.8755e-05,787,3.0291e-05,52.004,2.3372e-05,0.021593,-7.7741e-05,-759.7,2.2628
15055,20.33,3.5455,0,8.0703e-05,806.47,3.0841e-05,50.86,2.4075e-05,0.021386,-7.9717e-05,-779.83,2.2477
15056,20.33,3.6364,0.05,7.2638e-07,7.2588,5.5777e-07,4.1909,6.0214e-13,4.3425e-06,-5.5777e-07,-4.1909,2.2476
15057,20.606,3.6364,0,7.4928e-05,748.77,2.9295e-05,55.299,2.1939e-05,0.022934,-7.3834e-05,-719.57,2.2931
15058,20.514,3.5455,0,7.6862e-05,768.09,2.9835e-05,54.078,2.2641e-05,0.022666,-7.5799e-05,-739.61,2.278
15059,20.514,3.6364,0.05,7.25e-07,7.245,5.5671e-07,4.1829,-1.0236e-13,1.331e-06,-5.5671e-07,-4.1829,2.2779
15060,20.789,3.6364,0,7.1141e-05,710.91,2.8332e-05,58.851,2.0503e-05,0.024429,-6.9956e-05,-679.65,2.3235
15061,20.697,3.5455,0,7.306e-05,730.09,2.8861e-05,57.546,2.1205e-05,0.024094,-7.191e-05,-699.6,2.3083
15062,20.697,3.6364,0.05,7.2383e-07,7.2333,5.5582e-07,4.1762,-9.9799e-14,-1.0179e-06,-5.5581e-07,-4.1762,2.3083
15063,20.973,3.6364,0,6.7393e-05,673.47,2.7404e-05,62.681,1.9065e-05,0.026104,-6.6107e-05,-639.92,2.3539
15064,20.881,3.5455,0,6.9297e-05,692.49,2.792e-05,61.286,1.9767e-05,0.025682,-6.805e-05,-659.8,2.3387
15065,20.881,3.6364,0.05,7.2291e-07,7.2242,5.5511e-07,4.1709,-3.3281e-13,-5.4306e-07,-5.5511e-07,-4.1709,2.3387
15066,21.156,3.6364,0,6.3689e-05,636.45,2.6511e-05,66.809,1.7623e-05,0.027999,-6.2288e-05,-600.39,2.3844
15067,21.064,3.5455,0,6.5576e-05,655.3,2.7016e-05,65.316,1.8326e-05,0.02747,-6.422e-05,-620.19,2.3692
15068,21.064,3.6364,0.05,7.2227e-07,7.2177,5.5461e-07,4.1671,-1.1531e-13,1.268e-06,-5.5461e-07,-4.1671,2.3691
15069,21.34,3.6364,0,6.0029e-05,599.88,2.5657e-05,71.255,1.6178e-05,0.030151,-5.8498e-05,-561.06,2.4149
15070,21.248,3.5455,0,6.1899e-05,618.56,2.6148e-05,69.658,1.6881e-05,0.029499,-6.0419e-05,-580.77,2.3996
15071,21.248,3.6364,0.05,7.2193e-07,7.2143,5.5435e-07,4.1652,-9.8906e-14,1.355e-06,-5.5435e-07,-4.1652,2.3996
15072,21.523,3.6364,0,5.6418e-05,563.79,2.4843e-05,76.044,1.4727e-05,0.032624,-5.4738e-05,-521.9,2.4454
15073,21.431,3.5455,0,5.8269e-05,582.29,2.5321e-05,74.333,1.5432e-05,0.031808,-5.6647e-05,-541.54,2.4302
15074,21.431,3.6364,0.05,7.2194e-07,7.2144,5.5436e-07,4.1652,-8.9258e-14,4.9494e-07,-5.5436e-07,-4.1652,2.4301
15075,21.706,3.6364,0,5.2859e-05,528.23,2.4071e-05,81.197,1.3269e-05,0.035499,-5.1007e-05,-482.91,2.476
15076,21.615,3.5455,0,5.469e-05,546.52,2.4534e-05,79.364,1.3976e-05,0.03448,-5.2906e-05,-502.49,2.4607
15077,21.615,3.6364,0.05,7.2234e-07,7.2184,5.5467e-07,4.1676,-2.6381e-13,-5.034e-08,-5.5467e-07,-4.1676,2.4607
15078,21.89,3.6364,0,4.9356e-05,493.22,2.3343e-05,86.737,1.1805e-05,0.038873,-4.7305e-05,-444.09,2.5066
15079,21.798,3.5455,0,5.1165e-05,511.3,2.3791e-05,84.772,1.2514e-05,0.037601,-4.9193e-05,-463.6,2.4913
15080,21.798,3.6364,0.05,7.2319e-07,7.227,5.5532e-07,4.1725,1.9258e-13,3.6978e-06,-5.5532e-07,-4.1725,2.4913
15081,22.073,3.6364,0,4.5915e-05,458.84,2.2661e-05,92.686,1.0331e-05,0.042896,-4.3631e-05,-405.4,2.5373
15082,21.982,3.5455,0,4.7699e-05,476.66,2.3093e-05,90.579,1.1043e-05,0.041282,-4.5508e-05,-424.86,2.522
15083,21.982,3.6364,0.05,7.2454e-07,7.2405,5.5636e-07,4.1803,-2.6554e-13,-3.9712e-06,-5.5636e-07,-4.1803,2.5219
15084,22.257,3.6364,0,4.2543e-05,425.14,2.2026e-05,99.067,8.8475e-06,0.047779,-3.9983e-05,-366.84,2.568
15085,22.165,3.5455,0,4.4299e-05,442.68,2.2441e-05,96.807,9.5628e-06,0.045714,-4.185e-05,-386.25,2.5526
15086,22.165,3.6364,0.05,7.2646e-07,7.2596,5.5783e-07,4.1913,-2.6517e-13,-1.7221e-07,-5.5783e-07,-4.1913,2.5526
15087,22.44,3.6364,0,3.9249e-05,392.22,2.1439e-05,105.9,7.3524e-06,0.053848,-3.636e-05,-328.38,2.5987
15088,22.349,3.5455,0,4.0971e-05,409.43,2.1836e-05,103.47,8.0717e-06,0.051143,-3.8217e-05,-347.75,2.5833
15089,22.349,3.6364,0.05,7.2899e-07,7.2849,5.5978e-07,4.206,-2.4189e-13,1.9722e-06,-5.5978e-07,-4.2059,2.5833
15090,22.624,3.6364,0,3.6045e-05,360.2,2.0902e-05,113.2,5.8443e-06,0.061529,-3.2759e-05,-289.99,2.6294
15091,22.532,3.5455,0,3.7727e-05,377.01,2.128e-05,110.6,6.5683e-06,0.057995,-3.4608e-05,-309.32,2.6141
15092,22.532,3.6364,0.05,7.3222e-07,7.3172,5.6226e-07,4.2246,-1.7645e-13,4.4309e-06,-5.6226e-07,-4.2246,2.614
15093,22.807,3.6364,0,3.2948e-05,329.25,2.0414e-05,120.98,4.3216e-06,0.071841,-2.9178e-05,-251.63,2.6602
15094,22.716,3.5455,0,3.4581e-05,345.57,2.0773e-05,118.2,5.051e-06,0.066725,-3.1019e-05,-270.95,2.6448
15095,22.716,3.6364,0.05,7.3621e-07,7.357,5.6532e-07,4.2476,-3.5417e-13,3.8353e-06,-5.6532e-07,-4.2476,2.6448
15096,22.991,3.6364,0,2.9981e-05,299.6,1.9974e-05,129.25,2.7828e-06,0.085225,-2.5613e-05,-213.27,2.6909
15097,22.899,3.5455,0,3.1552e-05,315.3,2.0314e-05,126.27,3.5185e-06,0.078989,-2.7447e-05,-232.58,2.6756
15098,22.899,3.6364,0.05,7.41e-07,7.4049,5.69e-07,4.2752,-1.2442e-13,5.7588e-06,-5.69e-07,-4.2752,2.6755
15099,23.174,3.6364,0,2.7178e-05,271.59,1.9583e-05,138.03,1.2269e-06,0.10792,-2.2059e-05,-174.85,2.7217
15100,23.083,3.5455,0,2.8669e-05,286.49,1.9903e-05,134.84,1.9691e-06,0.094176,-2.3888e-05,-194.18,2.7064
15101,23.083,3.6364,0.05,7.4664e-07,7.4613,5.7333e-07,4.3078,-2.522e-13,1.1248e-05,-5.7333e-07,-4.3078,2.7063
15102,23.358,3.6364,0,2.4587e-05,245.7,1.9238e-05,147.29,-3.4835e-07,0.13096,-1.8513e-05,-136.35,2.7525
15103,23.266,3.5455,0,2.5972e-05,259.54,1.9538e-05,143.9,4.025e-07,0.12579,-2.0338e-05,-155.71,2.7372
15104,23.266,3.6364,0.05,7.5315e-07,7.5263,5.7833e-07,4.3453,6.3293e-14,4.8178e-07,-5.7833e-07,-4.3453,2.7371
15105,23.541,3.6364,0,2.2275e-05,222.6,1.8937e-05,157.07,-1.9378e-06,0.2272,-1.4971e-05,-97.702,2.7834
15106,23.45,3.5455,0,2.3516e-05,235,1.9217e-05,153.44,-1.1849e-06,0.14367,-1.6792e-05,-117.12,2.768
15107,23.45,3.6364,0.05,7.605e-07,7.5997,5.8397e-07,4.3877,3.822e-13,3.0535e-06,-5.8397e-07,-4.3877,2.7679
15108,23.725,3.6364,0,2.0333e-05,203.19,1.8677e-05,167.26,-3.5545e-06,0.225,-1.1429e-05,-58.943,2.8142
15109,23.633,3.5455,0,2.1382e-05,213.68,1.8938e-05,163.5,-2.7783e-06,0.3295,-1.3252e-05,-78.366,2.7988
15110,23.633,3.6364,0.05,7.6874e-07,7.6821,5.903e-07,4.4353,1.8862e-13,7.1483e-06,-5.903e-07,-4.4353,2.7988
15111,23.817,3.5455,0,1.9672e-05,196.59,1.8697e-05,173.84,-4.412e-06,0.2093,-9.711e-06,-39.606,2.8296
15112,23.817,3.6364,0.05,7.8027e-07,7.7973,5.9915e-07,4.5018,1.4682e-13,3.0209e-06,-5.9915e-07,-4.5018,2.8296
15113,23.908,3.6364,0,1.8942e-05,189.28,1.8467e-05,177.33,-5.076e-06,0.43587,-8.1013e-06,-22.295,2.845
15114,3.5419,3.4545,0,0.0011923,11915,0.00043126,456.32,0.00037087,2.5413,-0.0011839,-11679,0.088615
15115,3.4501,3.3636,0,0.001246,12451,0.00046059,596.04,0.00038135,0.63599,-0.0012348,-12142,0.083563
15116,3.4501,3.4545,0.05,2.1523e-05,215.08,1.6527e-05,124.18,-2.8188e-11,0.00032807,-1.6527e-05,-124.17,0.083175
15117,3.7254,3.4545,0,0.0010323,10316,0.00035021,113.5,0.00033489,-1.6083,-0.0010303,-10259,0.099949
15118,3.6336,3.3636,0,0.0011006,10998,0.00038475,258.73,0.00035026,-0.37305,-0.0010959,-10867,0.09447
15119,3.6336,3.4545,0.05,2.2557e-05,225.42,1.7321e-05,130.15,-3.9161e-11,5.951e-05,-1.7321e-05,-130.14,0.094131
15120,3.9088,3.4545,0,0.00089555,8949.3,0.00030363,2.175,0.00028197,-160.53,-0.00089813,-9027.4,0.11196
15121,3.8171,3.3636,0,0.00095973,9590.7,0.0003196,3.7548,0.00031217,-52.129,-0.00096055,-9614.8,0.10611
15122,3.8171,3.4545,0.05,1.8615e-05,186.02,1.4294e-05,107.4,-4.5381e-11,-3.1631e-05,-1.4294e-05,-107.4,0.10582
15123,4.0923,3.4545,0,0.00079025,7897,0.00027741,1.9006,0.00023243,-336.04,-0.00079539,-8058.7,0.12457
15124,4.0006,3.3636,0,0.00084385,8432.7,0.00029191,1.9834,0.0002557,-270.07,-0.00084808,-8563.5,0.11838
15125,4.0006,3.4545,0.05,1.4919e-05,149.09,1.1456e-05,86.078,-3.0516e-11,-1.7804e-05,-1.1456e-05,-86.077,0.11814
15126,4.2758,3.4545,0,0.00071064,7101.5,0.00025608,1.4469,0.00019734,-439.95,-0.00071707,-7310.4,0.1377
15127,4.1841,3.3636,0,0.00075323,7527.1,0.00026872,1.5805,0.00021396,-409.82,-0.00075933,-7722.7,0.13123
15128,4.1841,3.4545,0.05,1.1906e-05,118.98,9.1422e-06,68.691,-1.6617e-11,2.1368e-05,-9.1421e-06,-68.69,0.13101
15129,4.4593,3.4545,0,0.00065015,6497,0.00023866,1.0691,0.00017271,-494.5,-0.00065712,-6729.5,0.15131
15130,4.3676,3.3636,0,0.00068332,6828.5,0.0002494,1.1946,0.0001841,-489.45,-0.0006903,-7059.3,0.14458
15131,4.3676,3.4545,0.05,9.6031e-06,95.965,7.374e-06,55.405,-8.3476e-12,5.7041e-05,-7.374e-06,-55.405,0.14439
15132,4.6428,3.4545,0,0.00060366,6032.4,0.00022429,0.80936,0.00015549,-516.11,-0.00061076,-6273.5,0.16536
15133,4.551,3.3636,0,0.00062935,6289.1,0.00023332,0.90759,0.00016304,-527.16,-0.00063663,-6535.6,0.1584
15134,4.551,3.4545,0.05,7.8296e-06,78.242,6.0121e-06,45.173,-1.7408e-12,7.9099e-05,-6.0121e-06,-45.173,0.15823
15135,4.8263,3.4545,0,0.00056748,5670.9,0.0002123,0.60167,0.00014352,-516.18,-0.00057448,-5911,0.17982
15136,4.7345,3.3636,0,0.0005874,5870,0.00021988,0.67267,0.00014834,-536.85,-0.00059467,-6119.6,0.17265
15137,4.7345,3.4545,0.05,6.442e-06,64.376,4.9467e-06,37.167,2.6777e-12,8.0872e-05,-4.9467e-06,-37.167,0.17249
15138,5.0097,3.4545,0,0.00053896,5385.9,0.00020221,0.44622,0.00013526,-502.55,-0.00054574,-5619.3,0.19467
15139,4.918,3.3636,0,0.0005545,5541.2,0.00020858,0.49557,0.00013818,-528.42,-0.00056159,-5786.2,0.1873
15140,4.918,3.4545,0.05,5.3454e-06,53.417,4.1046e-06,30.84,2.3135e-12,6.3476e-05,-4.1046e-06,-30.84,0.18715
15141,5.1932,3.4545,0,0.0005162,5158.4,0.00019362,0.32916,0.00012962,-480.54,-0.00052268,-5381.7,0.20988
15142,5.1015,3.3636,0,0.00052842,5280.5,0.000199,0.36255,0.00013124,-508.73,-0.00053522,-5516.3,0.20233
15143,5.1015,3.4545,0.05,4.4742e-06,44.711,3.4357e-06,25.814,2.5183e-13,6.5448e-05,-3.4357e-06,-25.814,0.20218
15144,5.3767,3.4545,0,0.00049777,4974.2,0.00018625,0.24185,0.00012582,-453.75,-0.00050393,-5185.4,0.22545
15145,5.285,3.3636,0,0.00050749,5071.4,0.00019082,0.26406,0.00012658,-482.42,-0.00051396,-5295.2,0.21771
15146,5.285,3.4545,0.05,3.78e-06,37.774,2.9026e-06,21.809,7.0745e-12,5.949e-05,-2.9026e-06,-21.809,0.21758
15147,5.5602,3.4545,0,0.00048264,4823,0.00017985,0.17702,0.00012332,-424.62,-0.00048845,-5021.2,0.24135
15148,5.4684,3.3636,0,0.00049046,4901.3,0.00018377,0.19156,0.0001235,-452.63,-0.00049659,-5111.8,0.23345
15149,5.4684,3.4545,0.05,3.2258e-06,32.236,2.477e-06,18.612,5.6988e-12,5.3613e-05,-2.477e-06,-18.611,0.23331
15150,5.7437,3.4545,0,0.00047001,4696.9,0.00017426,0.12905,0.0001217,-394.75,-0.00047548,-4881.7,0.25759
15151,5.6519,3.3636,0,0.00047641,4760.9,0.00017764,0.13839,0.00012153,-421.43,-0.00048218,-4957.5,0.24952
15152,5.6519,3.4545,0.05,2.7828e-06,27.808,2.1368e-06,16.055,2.8421e-12,4.5643e-05,-2.1368e-06,-16.055,0.24938
15153,5.9271,3.4545,0,0.0004593,4589.8,0.0001693,0.093647,0.00012069,-365.18,-0.00046442,-4761.4,0.27414
15154,5.8354,3.3636,0,0.00046463,4643.1,0.00017226,0.099498,0.00012031,-390.17,-0.00047003,-4825.8,0.26591
15155,5.8354,3.4545,0.05,2.4282e-06,24.265,1.8645e-06,14.009,2.8949e-12,3.3246e-05,-1.8645e-06,-14.009,0.26578
15156,6.1106,3.4545,0,0.00045004,4497.3,0.00016488,0.067583,0.00012007,-336.59,-0.00045482,-4656.1,0.29101
15157,6.0189,3.3636,0,0.00045457,4542.6,0.00016748,0.071096,0.00011959,-359.73,-0.00045962,-4711.7,0.28262
15158,6.0189,3.4545,0.05,2.1441e-06,21.427,1.6464e-06,12.371,1.5378e-12,2.3733e-05,-1.6464e-06,-12.371,0.28249
15159,6.2941,3.4545,0,0.0004419,4415.9,0.00016089,0.048444,0.0001197,-309.38,-0.00044635,-4562.5,0.30818
15160,6.2024,3.3636,0,0.00044582,4455.2,0.0001632,0.050398,0.00011919,-330.62,-0.00045052,-4611.2,0.29964
15161,6.2024,3.4545,0.05,1.9164e-06,19.15,1.4715e-06,11.057,1.9997e-12,3.068e-05,-1.4715e-06,-11.056,0.29951
15162,6.4776,3.4545,0,0.0004346,4343,0.00015725,0.034434,0.00011947,-283.77,-0.00043873,-4477.9,0.32565
15163,6.3858,3.3636,0,0.00043807,4377.7,0.00015932,0.035356,0.00011897,-303.15,-0.00044244,-4521.4,0.31696
15164,6.3858,3.4545,0.05,1.7335e-06,17.323,1.3311e-06,10.002,2.1773e-13,1.9231e-05,-1.3311e-06,-10.002,0.31684
15165,6.6611,3.4545,0,0.00042794,4276.4,0.0001539,0.024223,0.00011931,-259.86,-0.00043176,-4400.4,0.34342
15166,6.5693,3.3636,0,0.00043108,4307.8,0.00015578,0.02447,0.00011885,-277.48,-0.00043513,-4439.8,0.33459
15167,6.5693,3.4545,0.05,1.5865e-06,15.854,1.2183e-06,9.1536,4.9034e-13,1.8723e-05,-1.2183e-06,-9.1535,0.33446
15168,6.8445,3.4545,0,0.00042176,4214.7,0.00015079,0.016825,0.00011915,-237.67,-0.0004253,-4328.5,0.36148
15169,6.7528,3.3636,0,0.00042466,4243.6,0.00015251,0.016639,0.00011875,-253.64,-0.0004284,-4364.8,0.3525
15170,6.7528,3.4545,0.05,1.4682e-06,14.672,1.1274e-06,8.4707,-5.8571e-13,1.3344e-05,-1.1274e-06,-8.4707,0.35237
15171,7.028,3.4545,0,0.00041594,4156.5,0.00014788,0.011509,0.00011897,-217.17,-0.00041921,-4260.8,0.37982
15172,6.9363,3.3636,0,0.00041866,4183.7,0.00014947,0.011054,0.00011864,-231.62,-0.00042212,-4294.7,0.3707
15173,6.9363,3.4545,0.05,1.3727e-06,13.717,1.054e-06,7.9196,-1.471e-12,1.2325e-05,-1.054e-06,-7.9195,0.37058
15174,7.2115,3.4545,0,0.00041039,4101.1,0.00014513,0.0077319,0.00011874,-198.29,-0.0004134,-4196.6,0.39845
15175,7.1198,3.3636,0,0.00041298,4127,0.00014662,0.0071199,0.00011849,-211.35,-0.00041617,-4228.6,0.38919
15176,7.1198,3.4545,0.05,1.2953e-06,12.944,9.9465e-07,7.4735,-4.1158e-13,1.1363e-05,-9.9465e-07,-7.4733,0.38907
15177,7.395,3.4545,0,0.00040504,4047.6,0.00014253,0.005091,0.00011844,-180.94,-0.00040781,-4135,0.41736
15178,7.3032,3.3636,0,0.00040754,4072.6,0.00014392,0.0043971,0.00011827,-192.73,-0.00041048,-4165.6,0.40796
15179,7.3032,3.4545,0.05,1.2325e-06,12.317,9.4641e-07,7.111,-9.8373e-13,1.0228e-05,-9.4641e-07,-7.1109,0.40783
15180,7.5785,3.4545,0,0.00039983,3995.6,0.00014003,0.003286,0.00011807,-165.02,-0.00040238,-4075.5,0.43654
15181,7.4867,3.3636,0,0.00040228,4020,0.00014136,0.002561,0.00011798,-175.67,-0.00040498,-4104.9,0.427
15182,7.4867,3.4545,0.05,1.1812e-06,11.804,9.0704e-07,6.8151,-1.4002e-12,9.4383e-06,-9.0703e-07,-6.815,0.42688
15183,7.7619,3.4545,0,0.00039473,3944.6,0.00013764,0.0020942,0.00011762,-150.43,-0.00039708,-4017.7,0.45599
15184,7.6702,3.3636,0,0.00039713,3968.6,0.0001389,0.001371,0.0001176,-160.05,-0.00039962,-4046.2,0.44632
15185,7.6702,3.4545,0.05,1.1391e-06,11.384,8.7472e-07,6.5723,-1.8219e-12,7.7602e-06,-8.7471e-07,-6.5723,0.4462
15186,7.9454,3.4545,0,0.00038971,3894.4,0.00013533,0.0013495,0.00011709,-137.06,-0.00039186,-3961.1,0.47571
15187,7.8537,3.3636,0,0.00039208,3918.1,0.00013654,0.00065008,0.00011714,-145.76,-0.00039436,-3989,0.4659
15188,7.8537,3.4545,0.05,1.1044e-06,11.036,8.4803e-07,6.3718,-2.1463e-12,5.5492e-06,-8.4803e-07,-6.3717,0.46578
15189,8.1289,3.4545,0,0.00038473,3844.6,0.00013309,0.00092902,0.00011648,-124.82,-0.0003867,-3905.5,0.49569
15190,8.0372,3.3636,0,0.00038709,3868.3,0.00013426,0.00026556,0.0001166,-132.7,-0.00038918,-3932.9,0.48576
15191,8.0372,3.4545,0.05,1.0755e-06,10.747,8.2583e-07,6.205,-1.4806e-12,6.4317e-06,-8.2583e-07,-6.2049,0.48563
15192,8.3124,3.4545,0,0.00037979,3795.3,0.00013092,0.00074163,0.0001158,-113.62,-0.0003816,-3850.8,0.51594
15193,8.2206,3.3636,0,0.00038215,3818.8,0.00013204,0.00012183,0.00011597,-120.75,-0.00038406,-3877.8,0.50587
15194,8.2206,3.4545,0.05,1.0512e-06,10.505,8.072e-07,6.065,-7.6339e-13,7.062e-06,-8.0721e-07,-6.065,0.50575
15195,8.4959,3.4545,0,0.00037487,3746.1,0.00012879,0.0007187,0.00011504,-103.35,-0.00037652,-3796.8,0.53644
15196,8.4041,3.3636,0,0.00037723,3769.7,0.00012989,0.00014605,0.00011527,-109.82,-0.00037897,-3823.4,0.52624
15197,8.4041,3.4545,0.05,1.0307e-06,10.3,7.9144e-07,5.9466,-9.798e-15,4.0024e-06,-7.9145e-07,-5.9466,0.52612
15198,8.6794,3.4545,0,0.00036997,3697.2,0.00012671,0.0008109,0.00011421,-93.953,-0.00037148,-3743.2,0.55719
15199,8.5876,3.3636,0,0.00037233,3720.7,0.00012778,0.00028569,0.00011449,-99.829,-0.00037392,-3769.6,0.54687
15200,8.5876,3.4545,0.05,1.0132e-06,10.125,7.7798e-07,5.8455,-1.2383e-13,5.8776e-06,-7.7798e-07,-5.8454,0.54675
15201,8.8628,3.4545,0,0.00036508,3648.2,0.00012468,0.00098194,0.00011332,-85.34,-0.00036645,-3690.2,0.57819
15202,8.7711,3.3636,0,0.00036743,3671.8,0.00012572,0.00050328,0.00011365,-90.682,-0.00036889,-3716.3,0.56775
15203,8.7711,3.4545,0.05,9.9802e-07,9.9733,7.6635e-07,5.7581,-2.9691e-12,5.0667e-06,-7.6636e-07,-5.7581,0.56763
15204,9.0463,3.4545,0,0.00036019,3599.4,0.00012268,0.0012041,0.00011237,-77.443,-0.00036144,-3637.5,0.59945
15205,8.9546,3.3636,0,0.00036255,3623,0.0001237,0.00077024,0.00011274,-82.306,-0.00036388,-3663.4,0.58887
15206,8.9546,3.4545,0.05,9.8482e-07,9.8414,7.5621e-07,5.6819,-2.1515e-12,4.354e-06,-7.5622e-07,-5.6819,0.58876
15207,9.2298,3.4545,0,0.0003553,3550.5,0.00012071,0.0014584,0.00011136,-70.2,-0.00035644,-3585.1,0.62094
15208,9.1381,3.3636,0,0.00035767,3574.2,0.00012171,0.0010661,0.00011177,-74.632,-0.00035888,-3610.9,0.61025
15209,9.1381,3.4545,0.05,9.7317e-07,9.725,7.4727e-07,5.6148,-2.2332e-12,5.6678e-06,-7.4728e-07,-5.6147,0.61013
15210,9.4133,3.4545,0,0.00035041,3501.6,0.00011877,0.0017313,0.00011031,-63.552,-0.00035144,-3533,0.64267
15211,9.3215,3.3636,0,0.00035278,3525.4,0.00011975,0.0013778,0.00011075,-67.596,-0.00035388,-3558.7,0.63186
15212,9.3215,3.4545,0.05,9.628e-07,9.6213,7.3931e-07,5.5549,-4.7236e-13,4.2088e-06,-7.3931e-07,-5.5549,0.63175
15213,9.5968,3.4545,0,0.00034552,3452.8,0.00011685,0.0020141,0.00010921,-57.447,-0.00034646,-3481.1,0.66464
15214,9.505,3.3636,0,0.0003479,3476.6,0.00011782,0.0016935,0.00010968,-61.142,-0.0003489,-3506.8,0.65371
15215,9.505,3.4545,0.05,9.5346e-07,9.528,7.3214e-07,5.501,-2.3456e-12,3.827e-06,-7.3214e-07,-5.501,0.6536
15216,9.7802,3.4545,0,0.00034063,3403.9,0.00011496,0.0022968,0.00010807,-51.838,-0.00034148,-3429.5,0.68685
15217,9.6885,3.3636,0,0.00034301,3427.8,0.00011592,0.0020115,0.00010857,-55.217,-0.00034392,-3455,0.6758
15218,9.6885,3.4545,0.05,9.4497e-07,9.4431,7.2562e-07,5.452,-5.7563e-13,4.4465e-06,-7.2562e-07,-5.452,0.67569
15219,9.9637,3.4545,0,0.00033573,3355,0.0001131,0.0025794,0.00010688,-46.68,-0.0003365,-3378.1,0.70928
15220,9.872,3.3636,0,0.00033813,3378.9,0.00011404,0.0023162,0.00010741,-49.775,-0.00033895,-3403.5,0.69812
15221,9.872,3.4545,0.05,9.3717e-07,9.3652,7.1963e-07,5.407,-6.1142e-13,3.6426e-06,-7.1963e-07,-5.407,0.69801
15222,10.147,3.4545,0,0.00033084,3306.1,0.00011125,0.0028619,0.00010567,-41.935,-0.00033154,-3326.9,0.73194
15223,10.055,3.3636,0,0.00033324,3330.1,0.00011218,0.0026252,0.00010622,-44.772,-0.00033398,-3352.2,0.72066
15224,10.055,3.4545,0.05,9.2995e-07,9.2931,7.1409e-07,5.3654,2.6338e-13,3.8883e-06,-7.1409e-07,-5.3653,0.72055
15225,10.331,3.4545,0,0.00032595,3257.3,0.00010942,0.0031203,0.00010442,-37.566,-0.00032658,-3275.9,0.75483
15226,10.239,3.3636,0,0.00032835,3281.2,0.00011034,0.0029214,0.00010499,-40.17,-0.00032902,-3301.1,0.74343
15227,10.239,3.4545,0.05,9.2322e-07,9.2258,7.0892e-07,5.3266,-2.4971e-12,4.1383e-06,-7.0892e-07,-5.3265,0.74333
15228,10.514,3.4545,0,0.00032106,3208.4,0.00010761,0.0033624,0.00010314,-33.542,-0.00032162,-3225.1,0.77793
15229,10.422,3.3636,0,0.00032346,3232.4,0.00010852,0.0031745,0.00010374,-35.934,-0.00032406,-3250.2,0.76643
15230,10.422,3.4545,0.05,9.1689e-07,9.1626,7.0405e-07,5.29,2.0183e-13,3.4479e-06,-7.0406e-07,-5.29,0.76632
15231,10.698,3.4545,0,0.00031618,3159.6,0.00010581,0.0036129,0.00010184,-29.832,-0.00031668,-3174.4,0.80125
15232,10.606,3.3636,0,0.00031858,3183.6,0.00010671,0.0034334,0.00010245,-32.032,-0.00031911,-3199.5,0.78964
15233,10.606,3.4545,0.05,9.1089e-07,9.1026,6.9945e-07,5.2554,-7.3046e-13,4.6774e-06,-6.9945e-07,-5.2554,0.78953
15234,10.881,3.4545,0,0.0003113,3110.8,0.00010403,0.0038744,0.00010052,-26.41,-0.00031174,-3123.9,0.82478
15235,10.789,3.3636,0,0.0003137,3134.8,0.00010493,0.0036987,0.00010114,-28.435,-0.00031417,-3148.9,0.81307
15236,10.789,3.4545,0.05,9.0518e-07,9.0456,6.9507e-07,5.2225,-1.6601e-12,3.5771e-06,-6.9507e-07,-5.2224,0.81296
15237,11.065,3.4545,0,0.00030642,3062.1,0.00010227,0.0041165,9.9173e-05,-23.252,-0.00030681,-3073.6,0.84853
15238,10.973,3.3636,0,0.00030882,3086.1,0.00010315,0.0039744,9.981e-05,-25.117,-0.00030924,-3098.6,0.8367
15239,10.973,3.4545,0.05,8.9973e-07,8.9911,6.9088e-07,5.191,-7.6861e-13,2.9628e-06,-6.9088e-07,-5.191,0.8366
15240,11.248,3.4545,0,0.00030155,3013.4,0.00010052,0.0043289,9.781e-05,-20.334,-0.00030189,-3023.5,0.87248
15241,11.156,3.3636,0,0.00030395,3037.4,0.00010139,0.0041963,9.8458e-05,-22.054,-0.00030432,-3048.4,0.86055
15242,11.156,3.4545,0.05,8.945e-07,8.9389,6.8687e-07,5.1609,1.2392e-13,3.322e-06,-6.8687e-07,-5.1608,0.86045
15243,11.432,3.4545,0,0.00029668,2964.8,9.8778e-05,0.0045603,9.643e-05,-17.637,-0.00029698,-2973.6,0.89663
15244,11.34,3.3636,0,0.00029908,2988.8,9.9648e-05,0.0044086,9.7089e-05,-19.225,-0.0002994,-2998.3,0.8846
15245,11.34,3.4545,0.05,8.8945e-07,8.8883,6.8299e-07,5.1317,1.0842e-13,3.1947e-06,-6.8298e-07,-5.1317,0.8845
15246,11.615,3.4545,0,0.00029183,2916.3,9.7052e-05,0.0047934,9.5036e-05,-15.141,-0.00029208,-2923.8,0.92098
15247,11.523,3.3636,0,0.00029422,2940.2,9.7916e-05,0.0046644,9.5705e-05,-16.609,-0.0002945,-2948.5,0.90885
15248,11.523,3.4545,0.05,8.8456e-07,8.8395,6.7923e-07,5.1035,-8.151e-13,2.621e-06,-6.7923e-07,-5.1035,0.90875
15249,11.799,3.4545,0,0.00028698,2867.8,9.5338e-05,0.0050101,9.363e-05,-12.83,-0.00028719,-2874.2,0.94553
15250,11.707,3.3636,0,0.00028937,2891.7,9.6195e-05,0.0048747,9.4306e-05,-14.187,-0.00028961,-2898.8,0.9333
15251,11.707,3.4545,0.05,8.7983e-07,8.7922,6.756e-07,5.0762,-1.7357e-12,3.1286e-06,-6.7559e-07,-5.0761,0.93321
15252,11.982,3.4545,0,0.00028214,2819.5,9.3635e-05,0.0052368,9.2212e-05,-10.687,-0.00028232,-2824.8,0.97027
15253,11.89,3.3636,0,0.00028453,2843.3,9.4487e-05,0.005092,9.2896e-05,-11.944,-0.00028473,-2849.3,0.95795
15254,11.89,3.4545,0.05,8.7521e-07,8.7461,6.7205e-07,5.0495,7.1266e-14,4.3471e-06,-6.7205e-07,-5.0495,0.95785
15255,12.165,3.4545,0,0.00027731,2771.2,9.1944e-05,0.0054596,9.0785e-05,-8.6988,-0.00027746,-2775.5,0.99521
15256,12.074,3.3636,0,0.0002797,2795.1,9.2789e-05,0.005315,9.1475e-05,-9.8645,-0.00027986,-2800,0.98279
15257,12.074,3.4545,0.05,8.7072e-07,8.7012,6.686e-07,5.0236,-8.4992e-13,3.2455e-06,-6.686e-07,-5.0236,0.98269
15258,12.349,3.4545,0,0.00027249,2723.1,9.0263e-05,0.0056952,8.935e-05,-6.8513,-0.00027261,-2726.5,1.0203
15259,12.257,3.3636,0,0.00027488,2746.9,9.1102e-05,0.0055133,9.0046e-05,-7.9335,-0.00027501,-2750.8,1.0078
15260,12.257,3.4545,0.05,8.6632e-07,8.6572,6.6523e-07,4.9983,4.9076e-14,3.5902e-06,-6.6523e-07,-4.9982,1.0077
15261,12.532,3.4545,0,0.00026769,2675,8.8592e-05,0.0059848,8.7908e-05,-5.1322,-0.00026778,-2677.6,1.0456
15262,12.441,3.3636,0,0.00027007,2698.8,8.9426e-05,0.0057442,8.8609e-05,-6.1382,-0.00027017,-2701.9,1.033
15263,12.441,3.4545,0.05,8.6201e-07,8.6141,6.6192e-07,4.9734,-1.7798e-12,3.8115e-06,-6.6191e-07,-4.9734,1.0329
15264,12.716,3.4545,0,0.0002629,2627.1,8.6931e-05,0.0063804,8.646e-05,-3.5302,-0.00026296,-2628.9,1.0711
15265,12.624,3.3636,0,0.00026527,2650.9,8.776e-05,0.0060214,8.7165e-05,-4.4668,-0.00026534,-2653.1,1.0584
15266,12.624,3.4545,0.05,8.5778e-07,8.5719,6.5867e-07,4.949,-8.7895e-13,1.9887e-06,-6.5867e-07,-4.949,1.0583
15267,12.899,3.4545,0,0.00025812,2579.4,8.528e-05,0.0070481,8.5008e-05,-2.035,-0.00025815,-2580.4,1.0968
15268,12.808,3.3636,0,0.00026048,2603,8.6104e-05,0.006404,8.5716e-05,-2.9081,-0.00026053,-2604.5,1.084
15269,12.808,3.4545,0.05,8.5364e-07,8.5305,6.5549e-07,4.9251,2.3236e-14,1.0213e-06,-6.5549e-07,-4.9251,1.0839
15270,13.083,3.4545,0,0.00025335,2531.8,8.3638e-05,0.0097354,8.3552e-05,-0.63846,-0.00025336,-2532.1,1.1226
15271,12.991,3.3636,0,0.00025571,2555.3,8.4457e-05,0.0070917,8.4263e-05,-1.4522,-0.00025573,-2556.1,1.1097
15272,12.991,3.4545,0.05,8.4957e-07,8.4899,6.5237e-07,4.9016,1.6232e-14,1.5599e-06,-6.5236e-07,-4.9016,1.1096
15273,13.266,3.4545,0,0.0002486,2484.3,8.2094e-05,0.68049,8.2004e-05,0.0026622,-0.00024859,-2483.9,1.1486
15274,13.175,3.3636,0,0.00025095,2507.8,8.2821e-05,0.020492,8.2805e-05,-0.1018,-0.00025095,-2507.8,1.1357
15275,13.175,3.4545,0.05,8.4556e-07,8.4497,6.4928e-07,4.8785,9.5397e-15,2.3075e-06,-6.4928e-07,-4.8784,1.1356
15276,13.45,3.4545,0,0.00024386,2436.9,8.0634e-05,1.911,8.038e-05,0.0051251,-0.00024383,-2436,1.1748
15277,13.358,3.3636,0,0.00024621,2460.4,8.1348e-05,1.1938,8.119e-05,0.0050843,-0.00024619,-2459.8,1.1617
15278,13.358,3.4545,0.05,8.4161e-07,8.4103,6.4625e-07,4.8557,3.5625e-15,3.6776e-06,-6.4625e-07,-4.8556,1.1617
15279,13.633,3.4545,0,0.00023914,2389.7,7.9172e-05,3.0725,7.8764e-05,0.0057614,-0.00023909,-2388.2,1.2011
15280,13.542,3.3636,0,0.00024148,2413.1,7.9888e-05,2.3975,7.957e-05,0.0059015,-0.00024144,-2411.9,1.188
15281,13.542,3.4545,0.05,8.3772e-07,8.3714,6.4327e-07,4.8332,-9.1144e-13,4.3701e-06,-6.4326e-07,-4.8332,1.1879
15282,13.817,3.4545,0,0.00023443,2342.7,7.7711e-05,4.171,7.7157e-05,0.0061363,-0.00023436,-2340.6,1.2276
15283,13.725,3.3636,0,0.00023677,2366,7.8428e-05,3.5341,7.7958e-05,0.0062792,-0.00023671,-2364.3,1.2144
15284,13.725,3.4545,0.05,8.3388e-07,8.333,6.4032e-07,4.8111,-9.165e-13,5.2518e-06,-6.4031e-07,-4.8111,1.2143
15285,14,3.4545,0,0.00022974,2295.9,7.6251e-05,5.2132,7.5558e-05,0.0064103,-0.00022965,-2293.2,1.2543
15286,13.909,3.3636,0,0.00023207,2319.1,7.6967e-05,4.6107,7.6355e-05,0.0065596,-0.00023199,-2316.8,1.241
15287,13.909,3.4545,0.05,8.3009e-07,8.2952,6.3741e-07,4.7892,-1.1722e-14,5.7833e-06,-6.3741e-07,-4.7892,1.2409
15288,14.184,3.4545,0,0.00022507,2249.2,7.4791e-05,6.2061,7.3966e-05,0.0066483,-0.00022496,-2246,1.2811
15289,14.092,3.3636,0,0.00022739,2272.3,7.5508e-05,5.6339,7.4759e-05,0.0067688,-0.00022729,-2269.5,1.2677
15290,14.092,3.4545,0.05,8.2635e-07,8.2578,6.3453e-07,4.7676,-1.6061e-14,5.3338e-06,-6.3453e-07,-4.7676,1.2676
15291,14.367,3.4545,0,0.00022041,2202.6,7.3334e-05,7.1559,7.2382e-05,0.0068868,-0.00022029,-2199,1.308
15292,14.276,3.3636,0,0.00022272,2225.7,7.405e-05,6.6106,7.3171e-05,0.0069984,-0.00022261,-2222.4,1.2946
15293,14.276,3.4545,0.05,8.2264e-07,8.2207,6.3169e-07,4.7462,-9.2968e-13,5.3014e-06,-6.3168e-07,-4.7462,1.2945
15294,14.551,3.4545,0,0.00021578,2156.3,7.1879e-05,8.0686,7.0806e-05,0.0070976,-0.00021564,-2152.2,1.3352
15295,14.459,3.3636,0,0.00021808,2179.3,7.2595e-05,7.5469,7.1591e-05,0.00722,-0.00021795,-2175.5,1.3216
15296,14.459,3.4545,0.05,8.1898e-07,8.1842,6.2888e-07,4.7251,-2.4332e-14,5.898e-06,-6.2887e-07,-4.7251,1.3216
15297,14.734,3.4545,0,0.00021115,2110.1,7.0428e-05,8.9503,6.9238e-05,0.0072946,-0.000211,-2105.6,1.3624
15298,14.642,3.3636,0,0.00021345,2133,7.1142e-05,8.4489,7.0019e-05,0.0074025,-0.0002133,-2128.7,1.3488
15299,14.642,3.4545,0.05,8.1536e-07,8.148,6.261e-07,4.7042,-2.8485e-14,4.2575e-06,-6.261e-07,-4.7042,1.3487
15300,14.918,3.4545,0,0.00020655,2064.1,6.898e-05,9.8064,6.7676e-05,0.0075049,-0.00020638,-2059.2,1.3898
15301,14.826,3.3636,0,0.00020883,2086.9,6.9693e-05,9.3224,6.8454e-05,0.0076031,-0.00020867,-2082.2,1.3761
15302,14.826,3.4545,0.05,8.1177e-07,8.1121,6.2334e-07,4.6835,-3.2279e-14,3.273e-06,-6.2334e-07,-4.6835,1.3761
15303,15.101,3.4545,0,0.00020197,2018.3,6.7537e-05,10.643,6.6122e-05,0.0077274,-0.00020178,-2012.9,1.4173
15304,15.009,3.3636,0,0.00020424,2041,6.8249e-05,10.173,6.6896e-05,0.0078151,-0.00020407,-2035.9,1.4036
15305,15.009,3.4545,0.05,8.0822e-07,8.0767,6.2062e-07,4.6631,-3.5767e-14,1.9358e-06,-6.2061e-07,-4.6631,1.4035
15306,15.285,3.4545,0,0.0001974,1972.7,6.6099e-05,11.464,6.4574e-05,0.007948,-0.0001972,-1966.9,1.445
15307,15.193,3.3636,0,0.00019967,1995.3,6.6808e-05,11.006,6.5345e-05,0.0080429,-0.00019948,-1989.8,1.4312
15308,15.193,3.4545,0.05,8.0471e-07,8.0416,6.1792e-07,4.6428,-3.9533e-14,1.3693e-06,-6.1792e-07,-4.6428,1.4311
15309,15.468,3.4545,0,0.00019285,1927.2,6.4666e-05,12.276,6.3034e-05,0.0081648,-0.00019264,-1921,1.4728
15310,15.376,3.3636,0,0.00019511,1949.8,6.5373e-05,11.827,6.3801e-05,0.0082539,-0.00019491,-1943.8,1.4589
15311,15.376,3.4545,0.05,8.0124e-07,8.0069,6.1526e-07,4.6228,-4.2613e-14,2.7807e-06,-6.1525e-07,-4.6228,1.4589
15312,15.652,3.4545,0,0.00018833,1882,6.324e-05,13.084,6.15e-05,0.0083928,-0.0001881,-1875.4,1.5008
15313,15.56,3.3636,0,0.00019057,1904.4,6.3944e-05,12.641,6.2263e-05,0.0084748,-0.00019036,-1898.1,1.4868
15314,15.56,3.4545,0.05,7.9781e-07,7.9726,6.1262e-07,4.603,-4.5849e-14,1.9207e-06,-6.1262e-07,-4.6029,1.4867
15315,15.835,3.4545,0,0.00018382,1836.9,6.182e-05,13.892,5.9972e-05,0.0086188,-0.00018358,-1829.9,1.5288
15316,15.743,3.3636,0,0.00018606,1859.3,6.2521e-05,13.453,6.0732e-05,0.0087092,-0.00018582,-1852.5,1.5148
15317,15.743,3.4545,0.05,7.9441e-07,7.9386,6.1001e-07,4.5833,-4.8707e-14,1.1336e-07,-6.1e-07,-4.5833,1.5147
15318,16.019,3.4545,0,0.00017933,1792.1,6.0407e-05,14.707,5.8451e-05,0.0088556,-0.00017908,-1784.7,1.557
15319,15.927,3.3636,0,0.00018156,1814.4,6.1105e-05,14.269,5.9208e-05,0.0089269,-0.00018131,-1807.2,1.5429
15320,15.927,3.4545,0.05,7.9104e-07,7.9049,6.0742e-07,4.5639,-5.1569e-14,8.0599e-07,-6.0742e-07,-4.5639,1.5429
15321,16.202,3.4545,0,0.00017487,1747.5,5.9002e-05,15.533,5.6936e-05,0.0091172,-0.0001746,-1739.6,1.5853
15322,16.11,3.3636,0,0.00017708,1769.6,5.9697e-05,15.094,5.7689e-05,0.0091833,-0.00017682,-1762,1.5712
15323,16.11,3.4545,0.05,7.877e-07,7.8716,6.0486e-07,4.5447,3.9802e-13,1.0045e-06,-6.0486e-07,-4.5447,1.5711
15324,16.386,3.4545,0,0.00017042,1703,5.7605e-05,16.375,5.5427e-05,0.0093753,-0.00017014,-1694.8,1.6137
15325,16.294,3.3636,0,0.00017263,1725.1,5.8296e-05,15.932,5.6177e-05,0.0094519,-0.00017235,-1717.1,1.5995
15326,16.294,3.4545,0.05,7.8441e-07,7.8387,6.0233e-07,4.5257,-6.2155e-14,1.9186e-06,-6.0233e-07,-4.5257,1.5995
15327,16.569,3.4545,0,0.000166,1658.8,5.6217e-05,17.239,5.3924e-05,0.0096393,-0.0001657,-1650.1,1.6423
15328,16.477,3.3636,0,0.00016819,1680.8,5.6904e-05,16.79,5.4671e-05,0.0097031,-0.0001679,-1672.3,1.628
15329,16.477,3.4545,0.05,7.8115e-07,7.8061,5.9982e-07,4.5068,-6.6565e-14,1.4084e-06,-5.9983e-07,-4.5068,1.628
15330,16.753,3.4545,0,0.00016159,1614.8,5.4838e-05,18.13,5.2426e-05,0.009929,-0.00016128,-1605.7,1.6709
15331,16.661,3.3636,0,0.00016378,1636.7,5.5521e-05,17.672,5.3171e-05,0.0099823,-0.00016347,-1627.8,1.6566
15332,16.661,3.4545,0.05,7.7792e-07,7.7739,5.9735e-07,4.4883,-7.1445e-14,3.0407e-06,-5.9735e-07,-4.4882,1.6566
15333,16.936,3.4545,0,0.00015721,1571,5.3469e-05,19.054,5.0934e-05,0.010241,-0.00015688,-1561.4,1.6997
15334,16.844,3.3636,0,0.00015939,1592.8,5.4148e-05,18.585,5.1676e-05,0.010285,-0.00015906,-1583.4,1.6853
15335,16.844,3.4545,0.05,7.7474e-07,7.742,5.949e-07,4.4699,-7.7801e-14,6.2085e-06,-5.949e-07,-4.4699,1.6853
15336,17.119,3.4545,0,0.00015285,1527.5,5.2111e-05,20.017,4.9448e-05,0.010565,-0.0001525,-1517.4,1.7285
15337,17.028,3.3636,0,0.00015502,1549.1,5.2785e-05,19.534,5.0186e-05,0.010611,-0.00015468,-1539.3,1.7141
15338,17.028,3.4545,0.05,7.7159e-07,7.7106,5.9249e-07,4.4517,-8.2968e-14,5.3314e-06,-5.9249e-07,-4.4517,1.7141
15339,17.303,3.4545,0,0.00014852,1484.2,5.0763e-05,21.025,4.7967e-05,0.010901,-0.00014815,-1473.5,1.7575
15340,17.211,3.3636,0,0.00015067,1505.7,5.1433e-05,20.525,4.8702e-05,0.010938,-0.00015031,-1495.3,1.743
15341,17.211,3.4545,0.05,7.685e-07,7.6797,5.9011e-07,4.4339,-8.8318e-14,5.5361e-06,-5.9011e-07,-4.4339,1.743
15342,17.486,3.4545,0,0.0001442,1441,4.9428e-05,22.084,4.649e-05,0.01126,-0.00014382,-1429.9,1.7866
15343,17.395,3.3636,0,0.00014635,1462.5,5.0092e-05,21.565,4.7224e-05,0.011288,-0.00014597,-1451.6,1.7721
15344,17.395,3.4545,0.05,7.6544e-07,7.6492,5.8777e-07,4.4163,3.6143e-13,4.0619e-06,-5.8776e-07,-4.4162,1.772
15345,17.67,3.4545,0,0.00013991,1398.2,4.8105e-05,23.202,4.5019e-05,0.011634,-0.00013951,-1386.4,1.8157
15346,17.578,3.3636,0,0.00014205,1419.5,4.8764e-05,22.66,4.575e-05,0.011662,-0.00014165,-1408,1.8012
15347,17.578,3.4545,0.05,7.6244e-07,7.6191,5.8546e-07,4.3989,3.5293e-13,6.3862e-06,-5.8546e-07,-4.3989,1.8011
15348,17.853,3.4545,0,0.00013565,1355.6,4.6796e-05,24.384,4.3552e-05,0.012034,-0.00013522,-1343.2,1.845
15349,17.762,3.3636,0,0.00013777,1376.7,4.7448e-05,23.817,4.428e-05,0.012042,-0.00013735,-1364.7,1.8304
15350,17.762,3.4545,0.05,7.5948e-07,7.5896,5.8319e-07,4.3819,-1.0776e-13,6.8095e-06,-5.8319e-07,-4.3819,1.8303
15351,18.037,3.4545,0,0.00013141,1313.2,4.55e-05,25.639,4.209e-05,0.012471,-0.00013095,-1300.2,1.8743
15352,17.945,3.3636,0,0.00013352,1334.3,4.6147e-05,25.044,4.2815e-05,0.012468,-0.00013307,-1321.5,1.8597
15353,17.945,3.4545,0.05,7.5658e-07,7.5606,5.8096e-07,4.3651,-1.1405e-13,8.1994e-06,-5.8096e-07,-4.3651,1.8596
15354,18.22,3.4545,0,0.00012719,1271,4.422e-05,26.974,4.0631e-05,0.012929,-0.00012671,-1257.3,1.9038
15355,18.129,3.3636,0,0.00012929,1292,4.486e-05,26.347,4.1355e-05,0.012924,-0.00012882,-1278.6,1.8891
15356,18.129,3.4545,0.05,7.5374e-07,7.5322,5.7878e-07,4.3487,3.2929e-13,5.2589e-06,-5.7878e-07,-4.3487,1.889
15357,18.404,3.4545,0,0.000123,1229.2,4.2955e-05,28.398,3.9177e-05,0.013413,-0.00012249,-1214.7,1.9333
15358,18.312,3.3636,0,0.00012509,1250,4.3588e-05,27.736,3.9898e-05,0.01339,-0.00012459,-1235.9,1.9185
15359,18.312,3.4545,0.05,7.5096e-07,7.5044,5.7664e-07,4.3327,-1.333e-13,5.4381e-06,-5.7664e-07,-4.3327,1.9185
15360,18.587,3.4545,0,0.00011884,1187.6,4.1707e-05,29.92,3.7726e-05,0.013941,-0.0001183,-1172.3,1.9629
15361,18.496,3.3636,0,0.00012091,1208.3,4.2333e-05,29.219,3.8446e-05,0.013898,-0.00012039,-1193.4,1.9481
15362,18.496,3.4545,0.05,7.4824e-07,7.4773,5.7456e-07,4.317,-1.4222e-13,3.4582e-06,-5.7456e-07,-4.317,1.948
15363,18.771,3.4545,0,0.0001147,1146.2,4.0476e-05,31.549,3.6279e-05,0.014513,-0.00011413,-1130.1,1.9926
15364,18.679,3.3636,0,0.00011676,1166.8,4.1095e-05,30.806,3.6996e-05,0.014452,-0.00011621,-1151.1,1.9777
15365,18.679,3.4545,0.05,7.456e-07,7.4509,5.7253e-07,4.3018,3.0494e-13,6.9843e-06,-5.7253e-07,-4.3017,1.9777
15366,18.954,3.4545,0,0.00011059,1105.1,3.9264e-05,33.295,3.4835e-05,0.015127,-0.00010999,-1088.1,2.0223
15367,18.863,3.3636,0,0.00011264,1125.6,3.9875e-05,32.506,3.555e-05,0.015055,-0.00011205,-1109,2.0075
15368,18.863,3.4545,0.05,7.4304e-07,7.4253,5.7056e-07,4.287,1.2123e-12,5.5347e-06,-5.7056e-07,-4.287,2.0074
15369,19.138,3.4545,0,0.00010651,1064.4,3.8072e-05,35.17,3.3393e-05,0.015785,-0.00010587,-1046.3,2.0522
15370,19.046,3.3636,0,0.00010855,1084.7,3.8674e-05,34.331,3.4107e-05,0.015689,-0.00010792,-1067.1,2.0373
15371,19.046,3.4545,0.05,7.4057e-07,7.4006,5.6867e-07,4.2727,-1.5444e-13,5.5085e-06,-5.6866e-07,-4.2727,2.0372
15372,19.321,3.4545,0,0.00010246,1023.9,3.6901e-05,37.185,3.1954e-05,0.0165,-0.00010177,-1004.8,2.0821
15373,19.229,3.3636,0,0.00010448,1044.1,3.7494e-05,36.29,3.2666e-05,0.01638,-0.00010381,-1025.5,2.0671
15374,19.229,3.4545,0.05,7.3819e-07,7.3768,5.6684e-07,4.259,2.8936e-13,4.011e-06,-5.6684e-07,-4.259,2.0671
15375,19.505,3.4545,0,9.8436e-05,983.68,3.5752e-05,39.353,3.0517e-05,0.01727,-9.7707e-05,-963.41,2.112
15376,19.413,3.3636,0,0.00010044,1003.8,3.6336e-05,38.397,3.1228e-05,0.017131,-9.9736e-05,-983.99,2.0971
15377,19.413,3.4545,0.05,7.3592e-07,7.3541,5.651e-07,4.2459,-1.7946e-13,8.1944e-06,-5.6509e-07,-4.2459,2.097
15378,19.688,3.4545,0,9.4445e-05,943.8,3.4626e-05,41.685,2.9081e-05,0.01811,-9.3667e-05,-922.26,2.1421
15379,19.596,3.3636,0,9.644e-05,963.73,3.5201e-05,40.665,2.9791e-05,0.01793,-9.5683e-05,-942.75,2.1271
15380,19.596,3.4545,0.05,7.3376e-07,7.3326,5.6344e-07,4.2335,2.6206e-13,5.2372e-06,-5.6344e-07,-4.2334,2.127
15381,19.872,3.4545,0,9.0486e-05,904.24,3.3526e-05,44.198,2.7646e-05,0.019035,-8.9653e-05,-881.32,2.1722
15382,19.78,3.3636,0,9.2467e-05,924.03,3.409e-05,43.107,2.8355e-05,0.018823,-9.1658e-05,-901.71,2.1571
15383,19.78,3.4545,0.05,7.3173e-07,7.3123,5.6188e-07,4.2217,-2.0173e-13,6.6e-06,-5.6188e-07,-4.2217,2.1571
15384,20.055,3.4545,0,8.6561e-05,865.01,3.2452e-05,46.905,2.6212e-05,0.020039,-8.5667e-05,-840.6,2.2023
15385,19.963,3.3636,0,8.8527e-05,884.66,3.3005e-05,45.738,2.6921e-05,0.019795,-8.766e-05,-860.89,2.1873
15386,19.963,3.4545,0.05,7.2985e-07,7.2934,5.6043e-07,4.2109,-2.1434e-13,5.0796e-06,-5.6043e-07,-4.2109,2.1872
15387,20.239,3.4545,0,8.267e-05,826.13,3.1406e-05,49.823,2.4778e-05,0.021142,-8.1709e-05,-800.08,2.2325
15388,20.147,3.3636,0,8.4621e-05,845.62,3.1948e-05,48.573,2.5486e-05,0.020849,-8.3689e-05,-820.28,2.2175
15389,20.147,3.4545,0.05,7.2812e-07,7.2761,5.591e-07,4.2009,2.3666e-13,6.0139e-06,-5.591e-07,-4.2009,2.2174
15390,20.422,3.4545,0,7.8815e-05,787.61,3.039e-05,52.969,2.3343e-05,0.022363,-7.778e-05,-759.78,2.2628
15391,20.33,3.3636,0,8.075e-05,806.95,3.092e-05,51.63,2.4051e-05,0.022015,-7.9748e-05,-779.88,2.2477
15392,20.33,3.4545,0.05,7.2656e-07,7.2606,5.5791e-07,4.1919,-2.2872e-13,5.4468e-06,-5.5791e-07,-4.1919,2.2477
15393,20.606,3.4545,0,7.4998e-05,749.46,2.9405e-05,56.359,2.1907e-05,0.023726,-7.388e-05,-719.68,2.2931
15394,20.514,3.3636,0,7.6917e-05,768.64,2.9922e-05,54.925,2.2615e-05,0.02331,-7.5835e-05,-739.69,2.278
15395,20.514,3.4545,0.05,7.2521e-07,7.247,5.5687e-07,4.1841,4.398e-13,1.9926e-06,-5.5687e-07,-4.1841,2.278
15396,20.789,3.4545,0,7.122e-05,711.71,2.8453e-05,60.015,2.0469e-05,0.025238,-7.0008e-05,-679.79,2.3235
15397,20.697,3.3636,0,7.3122e-05,730.72,2.8957e-05,58.476,2.1178e-05,0.02475,-7.1951e-05,-699.71,2.3084
15398,20.697,3.4545,0.05,7.2407e-07,7.2357,5.56e-07,4.1775,2.0983e-13,5.7355e-07,-5.56e-07,-4.1775,2.3083
15399,20.973,3.4545,0,6.7483e-05,674.36,2.7537e-05,63.954,1.9028e-05,0.026929,-6.6167e-05,-640.1,2.3539
15400,20.881,3.3636,0,6.9367e-05,693.2,2.8027e-05,62.305,1.9738e-05,0.026353,-6.8097e-05,-659.93,2.3388
15401,20.881,3.4545,0.05,7.2319e-07,7.2269,5.5532e-07,4.1724,2.1029e-13,1.0433e-06,-5.5532e-07,-4.1724,2.3387
15402,21.156,3.4545,0,6.3789e-05,637.45,2.6657e-05,68.197,1.7584e-05,0.028839,-6.2354e-05,-600.6,2.3844
15403,21.064,3.3636,0,6.5656e-05,656.1,2.7132e-05,66.429,1.8295e-05,0.028153,-6.4272e-05,-620.35,2.3692
15404,21.064,3.4545,0.05,7.2258e-07,7.2208,5.5485e-07,4.169,-2.5219e-13,2.8842e-06,-5.5485e-07,-4.169,2.3692
15405,21.34,3.4545,0,6.0142e-05,601,2.5816e-05,72.766,1.6136e-05,0.031008,-5.8572e-05,-561.29,2.4149
15406,21.248,3.3636,0,6.1988e-05,619.46,2.6276e-05,70.87,1.6848e-05,0.030194,-6.0477e-05,-580.96,2.3997
15407,21.248,3.4545,0.05,7.223e-07,7.218,5.5463e-07,4.1673,-2.4188e-13,3.9036e-06,-5.5463e-07,-4.1673,2.3997
15408,21.523,3.4545,0,5.6543e-05,565.04,2.5016e-05,77.682,1.4681e-05,0.033497,-5.4819e-05,-522.16,2.4455
15409,21.431,3.3636,0,5.8369e-05,583.28,2.5459e-05,75.649,1.5395e-05,0.032516,-5.6712e-05,-541.76,2.4302
15410,21.431,3.4545,0.05,7.2236e-07,7.2187,5.5469e-07,4.1677,-2.3378e-13,2.0529e-06,-5.5469e-07,-4.1677,2.4302
15411,21.706,3.4545,0,5.2996e-05,529.6,2.4258e-05,82.966,1.3221e-05,0.036386,-5.1095e-05,-483.21,2.4761
15412,21.615,3.3636,0,5.48e-05,547.62,2.4685e-05,80.787,1.3937e-05,0.035201,-5.2976e-05,-502.73,2.4608
15413,21.615,3.4545,0.05,7.2283e-07,7.2233,5.5505e-07,4.1704,3.409e-14,4.5769e-07,-5.5505e-07,-4.1704,2.4607
15414,21.89,3.4545,0,4.9507e-05,494.73,2.3544e-05,88.64,1.1752e-05,0.039776,-4.7399e-05,-444.4,2.5067
15415,21.798,3.3636,0,5.1286e-05,512.5,2.3953e-05,86.306,1.2472e-05,0.038332,-4.9269e-05,-463.86,2.4914
15416,21.798,3.4545,0.05,7.2375e-07,7.2325,5.5575e-07,4.1757,-1.9797e-13,3.289e-06,-5.5575e-07,-4.1757,2.4914
15417,22.073,3.4545,0,4.6079e-05,460.47,2.2876e-05,94.723,1.0275e-05,0.043813,-4.3731e-05,-405.73,2.5373
15418,21.982,3.3636,0,4.7831e-05,477.98,2.3266e-05,92.224,1.0998e-05,0.042024,-4.5589e-05,-425.13,2.522
15419,21.982,3.4545,0.05,7.2518e-07,7.2468,5.5685e-07,4.1839,2.9978e-14,-1.4721e-06,-5.5685e-07,-4.1839,2.522
15420,22.257,3.4545,0,4.272e-05,426.91,2.2254e-05,101.24,8.787e-06,0.048715,-4.0088e-05,-367.18,2.568
15421,22.165,3.3636,0,4.4441e-05,444.11,2.2626e-05,98.562,9.5141e-06,0.04647,-4.1936e-05,-386.53,2.5527
15422,22.165,3.4545,0.05,7.2717e-07,7.2666,5.5837e-07,4.1954,-2.0113e-13,-5.5958e-07,-5.5837e-07,-4.1954,2.5527
15423,22.44,3.4545,0,3.944e-05,394.12,2.168e-05,108.19,7.2875e-06,0.054809,-3.6468e-05,-328.71,2.5987
15424,22.349,3.3636,0,4.1125e-05,410.96,2.2032e-05,105.34,8.0195e-06,0.051916,-3.8307e-05,-348.03,2.5834
15425,22.349,3.4545,0.05,7.2977e-07,7.2927,5.6038e-07,4.2105,-1.829e-13,3.4038e-06,-5.6038e-07,-4.2104,2.5834
15426,22.624,3.4545,0,3.6249e-05,362.24,2.1154e-05,115.61,5.7749e-06,0.06252,-3.287e-05,-290.3,2.6295
15427,22.532,3.3636,0,3.7892e-05,378.66,2.1486e-05,112.56,6.5124e-06,0.058791,-3.47e-05,-309.59,2.6141
15428,22.532,3.4545,0.05,7.3306e-07,7.3256,5.629e-07,4.2294,-1.3121e-13,5.6907e-06,-5.629e-07,-4.2294,2.6141
15429,22.807,3.4545,0,3.3165e-05,331.42,2.0676e-05,123.51,4.2478e-06,0.072876,-2.929e-05,-251.92,2.6602
15430,22.716,3.3636,0,3.4756e-05,347.32,2.0987e-05,120.26,4.9914e-06,0.067551,-3.1112e-05,-271.2,2.6448
15431,22.716,3.4545,0.05,7.3709e-07,7.3658,5.6599e-07,4.2526,1.2795e-13,4.0292e-06,-5.6599e-07,-4.2526,2.6448
15432,22.991,3.4545,0,3.0211e-05,301.9,2.0244e-05,131.87,2.7045e-06,0.08633,-2.5724e-05,-213.51,2.691
15433,22.899,3.3636,0,3.1738e-05,317.17,2.0536e-05,128.42,3.4551e-06,0.079861,-2.754e-05,-232.8,2.6756
15434,22.899,3.4545,0.05,7.4188e-07,7.4137,5.6967e-07,4.2803,-9.8684e-14,8.8036e-06,-5.6967e-07,-4.2803,2.6756
15435,23.174,3.4545,0,2.742e-05,274.01,1.9859e-05,140.73,1.1443e-06,0.10914,-2.2168e-05,-175.05,2.7218
15436,23.083,3.3636,0,2.8866e-05,288.46,2.0131e-05,137.06,1.9021e-06,0.095118,-2.3979e-05,-194.37,2.7064
15437,23.083,3.4545,0.05,7.4748e-07,7.4697,5.7397e-07,4.3126,-2.5244e-13,1.1238e-05,-5.7397e-07,-4.3126,2.7064
15438,23.358,3.4545,0,2.4841e-05,248.24,1.9518e-05,150.05,-4.3484e-07,0.13233,-1.8617e-05,-136.48,2.7526
15439,23.266,3.3636,0,2.6179e-05,261.61,1.977e-05,146.17,3.3209e-07,0.12684,-2.0427e-05,-155.85,2.7372
15440,23.266,3.4545,0.05,7.5389e-07,7.5337,5.789e-07,4.3496,3.6934e-14,2.1914e-06,-5.789e-07,-4.3496,2.7372
15441,23.541,3.4545,0,2.254e-05,225.25,1.922e-05,159.87,-2.0277e-06,0.22895,-1.5071e-05,-97.776,2.7834
15442,23.45,3.3636,0,2.3733e-05,237.16,1.9452e-05,155.75,-1.2584e-06,0.14488,-1.6877e-05,-117.21,2.768
15443,23.45,3.4545,0.05,7.6108e-07,7.6055,5.8441e-07,4.391,1.0237e-13,2.6753e-06,-5.8441e-07,-4.391,2.768
15444,23.725,3.4545,0,2.0607e-05,205.93,1.896e-05,170.09,-3.6472e-06,0.22785,-1.1523e-05,-58.951,2.8142
15445,23.633,3.3636,0,2.1607e-05,215.92,1.9174e-05,165.84,-2.8544e-06,0.33125,-1.3333e-05,-78.4,2.7988
15446,23.633,3.4545,0.05,7.6904e-07,7.6851,5.9053e-07,4.437,-1.0004e-13,4.773e-06,-5.9053e-07,-4.437,2.7988
15447,23.817,3.3636,0,1.9902e-05,198.89,1.8932e-05,176.19,-4.4899e-06,0.21297,-9.7865e-06,-39.584,2.8297
15448,23.817,3.4545,0.05,7.7939e-07,7.7885,5.9847e-07,4.4967,-1.2749e-13,4.535e-06,-5.9847e-07,-4.4967,2.8296
15449,23.908,3.4545,0,1.9225e-05,192.12,1.8752e-05,180.19,-5.171e-06,0.43679,-8.1938e-06,-22.275,2.8451
15450,3.5419,3.2727,0,0.0011555,11547,0.00041535,407.99,0.00036072,-2.4929,-0.0011481,-11339,0.089156
15451,3.4501,3.1818,0,0.0012026,12017,0.00044128,533.82,0.00036991,-2.4716,-0.0011926,-11743,0.083997
15452,3.4501,3.2727,0.05,1.3814e-05,138.05,1.0608e-05,79.701,-1.8162e-11,0.00015655,-1.0607e-05,-79.7,0.083758
15453,3.7254,3.2727,0,0.0010299,10292,0.00034925,112.2,0.00033425,-0.49728,-0.001028,-10236,0.1004
15454,3.6336,3.1818,0,0.0010887,10879,0.00038015,250.72,0.00034674,-0.25447,-0.0010842,-10752,0.094844
15455,3.6336,3.2727,0.05,1.6828e-05,168.16,1.2922e-05,97.09,-2.9448e-11,-1.0237e-05,-1.2922e-05,-97.089,0.09463
15456,3.9088,3.2727,0,0.00090935,9087.3,0.00030767,1.995,0.00028739,-150.45,-0.00091178,-9160.5,0.11233
15457,3.8171,3.1818,0,0.00096631,9656.5,0.00032098,2.4587,0.00031557,-38.174,-0.00096691,-9674.3,0.10642
15458,3.8171,3.2727,0.05,1.6329e-05,163.18,1.2539e-05,94.213,-3.2069e-11,-4.6517e-05,-1.2539e-05,-94.212,0.10623
15459,4.0923,3.2727,0,0.00080755,8070,0.00028322,1.6455,0.00023796,-338.41,-0.00081274,-8233,0.12488
15460,4.0006,3.1818,0,0.00085648,8558.9,0.00029574,1.6903,0.00026043,-263.57,-0.00086063,-8686.8,0.11864
15461,4.0006,3.2727,0.05,1.4304e-05,142.94,1.0983e-05,82.525,-2.4571e-11,-3.8162e-05,-1.0983e-05,-82.525,0.11848
15462,4.2758,3.2727,0,0.00072627,7257.6,0.00026204,1.3476,0.00020109,-456.58,-0.00073293,-7474.4,0.13796
15463,4.1841,3.1818,0,0.0007659,7653.8,0.00027318,1.484,0.00021765,-415.76,-0.0007721,-7852.4,0.13145
15464,4.1841,3.2727,0.05,1.2019e-05,120.1,9.2288e-06,69.342,-1.5112e-11,-1.5996e-05,-9.2288e-06,-69.341,0.1313
15465,4.4593,3.2727,0,0.00066269,6622.3,0.00024406,1.0538,0.00017461,-520.78,-0.00066999,-6866.8,0.15154
15466,4.3676,3.1818,0,0.00069396,6934.8,0.00025367,1.1961,0.00018627,-505.25,-0.00070114,-7172.9,0.14477
15467,4.3676,3.2727,0.05,9.9334e-06,99.266,7.6276e-06,57.311,-7.2269e-12,1.1831e-05,-7.6276e-06,-57.311,0.14464
15468,4.6428,3.2727,0,0.00061317,6127.5,0.00022891,0.78784,0.00015597,-547.28,-0.00062063,-6382.3,0.16557
15469,4.551,3.1818,0,0.0006376,6371.6,0.00023708,0.90435,0.00016392,-548.76,-0.00064514,-6627.7,0.15857
15470,4.551,3.2727,0.05,8.1724e-06,81.667,6.2754e-06,47.151,-2.9731e-12,3.3082e-05,-6.2754e-06,-47.151,0.15845
15471,4.8263,3.2727,0,0.00057447,5740.7,0.00021616,0.57966,0.00014304,-548.82,-0.00058182,-5995.1,0.18001
15472,4.7345,3.1818,0,0.00059355,5931.4,0.00022305,0.6657,0.00014831,-560.95,-0.00060108,-6191.5,0.1728
15473,4.7345,3.2727,0.05,6.7337e-06,67.29,5.1706e-06,38.85,-3.164e-13,3.5364e-05,-5.1706e-06,-38.85,0.17269
15474,5.0097,3.2727,0,0.00054398,5436,0.00020537,0.42182,0.00013418,-534.49,-0.00055108,-5683.3,0.19484
15475,4.918,3.1818,0,0.00055895,5585.7,0.0002112,0.48244,0.00013756,-552.84,-0.00056629,-5841.3,0.18744
15476,4.918,3.2727,0.05,5.5762e-06,55.723,4.2818e-06,32.172,3.1746e-12,3.2731e-05,-4.2818e-06,-32.172,0.18733
15477,5.1932,3.2727,0,0.00051972,5193.6,0.0001962,0.30493,0.00012821,-510.58,-0.00052651,-5429.9,0.21005
15478,5.1015,3.1818,0,0.00053157,5312.1,0.00020115,0.34666,0.00013027,-532.16,-0.00053861,-5557.9,0.20246
15479,5.1015,3.2727,0.05,4.6513e-06,46.481,3.5717e-06,26.836,2.6852e-12,4.0385e-05,-3.5716e-06,-26.836,0.20235
15480,5.3767,3.2727,0,0.00050019,4998.4,0.00018835,0.2194,0.00012426,-481.3,-0.00050663,-5221.5,0.22561
15481,5.285,3.1818,0,0.00050968,5093.2,0.00019257,0.2478,0.00012543,-504.18,-0.00051637,-5326.4,0.21784
15482,5.285,3.2727,0.05,3.9146e-06,39.119,3.0059e-06,22.586,1.8558e-12,3.4939e-05,-3.0059e-06,-22.585,0.21774
15483,5.5602,3.2727,0,0.00048425,4839.1,0.00018156,0.15719,0.00012172,-449.45,-0.00049032,-5048.1,0.24151
15484,5.4684,3.1818,0,0.00049194,4916,0.00018519,0.17639,0.0001223,-472.41,-0.00049827,-5135.1,0.23357
15485,5.4684,3.2727,0.05,3.3282e-06,33.259,2.5557e-06,19.202,1.7133e-12,3.5601e-05,-2.5557e-06,-19.202,0.23347
15486,5.7437,3.2727,0,0.00047103,4707.1,0.00017564,0.11207,0.00012015,-416.86,-0.00047674,-4901.6,0.25774
15487,5.6519,3.1818,0,0.00047738,4770.5,0.0001788,0.12497,0.00012033,-439.14,-0.00048332,-4974.8,0.24964
15488,5.6519,3.2727,0.05,2.8612e-06,28.593,2.1971e-06,16.508,-4.478e-13,2.8559e-05,-2.1971e-06,-16.508,0.24954
15489,5.9271,3.2727,0,0.0004599,4595.8,0.00017043,0.079403,0.00011922,-384.72,-0.00046523,-4776.1,0.2743
15490,5.8354,3.1818,0,0.00046522,4649,0.00017319,0.088011,0.00011916,-405.88,-0.00047079,-4838.6,0.26603
15491,5.8354,3.2727,0.05,2.489e-06,24.873,1.9112e-06,14.36,1.2895e-12,2.6119e-05,-1.9112e-06,-14.36,0.26594
15492,6.1106,3.2727,0,0.00045035,4500.4,0.0001658,0.055783,0.00011871,-353.75,-0.00045532,-4666.8,0.29116
15493,6.0189,3.1818,0,0.00045489,4545.8,0.00016824,0.061457,0.00011852,-373.56,-0.00046009,-4721,0.28274
15494,6.0189,3.2727,0.05,2.1918e-06,21.903,1.683e-06,12.646,2.4759e-12,1.7959e-05,-1.683e-06,-12.646,0.28265
15495,6.2941,3.2727,0,0.000442,4416.9,0.00016164,0.038742,0.00011846,-324.39,-0.00044662,-4570.1,0.30833
15496,6.2024,3.1818,0,0.00044596,4456.5,0.00016382,0.042409,0.0001182,-342.74,-0.0004508,-4618,0.29976
15497,6.2024,3.2727,0.05,1.9542e-06,19.528,1.5006e-06,11.275,2.594e-13,1.9814e-05,-1.5006e-06,-11.275,0.29967
15498,6.4776,3.2727,0,0.00043455,4342.5,0.00015786,0.026491,0.00011834,-296.86,-0.00043884,-4483.3,0.32581
15499,6.3858,3.1818,0,0.00043808,4377.8,0.00015983,0.028782,0.00011807,-313.73,-0.00044257,-4526.2,0.31708
15500,6.3858,3.2727,0.05,1.7638e-06,17.626,1.3544e-06,10.176,4.3947e-14,1.9492e-05,-1.3544e-06,-10.176,0.31699
15501,6.6611,3.2727,0,0.0004278,4275,0.0001544,0.017731,0.00011829,-271.26,-0.00043177,-4404.2,0.34358
15502,6.5693,3.1818,0,0.000431,4307,0.0001562,0.019081,0.00011804,-286.7,-0.00043516,-4443.2,0.3347
15503,6.5693,3.2727,0.05,1.611e-06,16.099,1.2371e-06,9.2949,1.3687e-13,1.3022e-05,-1.2371e-06,-9.2949,0.33462
15504,6.8445,3.2727,0,0.00042156,4212.7,0.0001512,0.01152,0.00011825,-247.59,-0.00042522,-4331,0.36163
15505,6.7528,3.1818,0,0.00042452,4242.3,0.00015285,0.012228,0.00011803,-261.66,-0.00042837,-4367.1,0.35262
15506,6.7528,3.2727,0.05,1.4881e-06,14.871,1.1427e-06,8.5856,-6.1338e-13,7.722e-06,-1.1427e-06,-8.5855,0.35253
15507,7.028,3.2727,0,0.0004157,4154.2,0.00014822,0.0071701,0.00011816,-225.8,-0.00041908,-4262.5,0.37998
15508,6.9363,3.1818,0,0.00041849,4182,0.00014975,0.0074431,0.000118,-238.59,-0.00042204,-4296.2,0.37082
15509,6.9363,3.2727,0.05,1.3889e-06,13.879,1.0665e-06,8.0133,-2.4489e-13,1.1553e-05,-1.0665e-06,-8.0132,0.37073
15510,7.2115,3.2727,0,0.00041014,4098.5,0.00014541,0.0041773,0.00011802,-205.79,-0.00041325,-4197.6,0.39861
15511,7.1198,3.1818,0,0.0004128,4125.1,0.00014685,0.0041614,0.00011792,-217.41,-0.00041607,-4229.5,0.38931
15512,7.1198,3.2727,0.05,1.3086e-06,13.077,1.0048e-06,7.55,-7.062e-13,7.0491e-06,-1.0048e-06,-7.55,0.38922
15513,7.395,3.2727,0,0.00040478,4045,0.00014276,0.0021728,0.00011781,-187.46,-0.00040764,-4135.5,0.41751
15514,7.3032,3.1818,0,0.00040735,4070.7,0.00014411,0.0019692,0.00011776,-198,-0.00041036,-4166.1,0.40807
15515,7.3032,3.2727,0.05,1.2433e-06,12.425,9.5473e-07,7.1735,-1.6976e-13,6.2896e-06,-9.5473e-07,-7.1735,0.40799
15516,7.5785,3.2727,0,0.00039958,3993,0.00014023,0.00088522,0.00011751,-170.7,-0.00040221,-4075.6,0.43669
15517,7.4867,3.1818,0,0.00040208,4018,0.00014152,0.00056463,0.00011752,-180.26,-0.00040484,-4105.1,0.42712
15518,7.4867,3.2727,0.05,1.1901e-06,11.892,9.1383e-07,6.8662,4.2502e-13,8.2588e-06,-9.1382e-07,-6.8661,0.42703
15519,7.7619,3.2727,0,0.00039448,3942.1,0.0001378,0.00011468,0.00011712,-155.39,-0.0003969,-4017.5,0.45615
15520,7.6702,3.1818,0,0.00039694,3966.7,0.00013903,-0.00027358,0.0001172,-164.05,-0.00039948,-4046.2,0.44643
15521,7.6702,3.2727,0.05,1.1463e-06,11.456,8.8026e-07,6.6139,1.9538e-13,6.3795e-06,-8.8025e-07,-6.6139,0.44635
15522,7.9454,3.2727,0,0.00038947,3892,0.00013547,-0.000286,0.00011665,-141.4,-0.00039168,-3960.8,0.47586
15523,7.8537,3.1818,0,0.0003919,3916.3,0.00013665,-0.00070781,0.00011678,-149.26,-0.00039423,-3988.8,0.46602
15524,7.8537,3.2727,0.05,1.1102e-06,11.095,8.5253e-07,6.4056,-1.8102e-12,4.9292e-06,-8.5253e-07,-6.4056,0.46594
15525,8.1289,3.2727,0,0.00038451,3842.4,0.00013321,-0.00042486,0.00011609,-128.63,-0.00038653,-3905.1,0.49585
15526,8.0372,3.1818,0,0.00038692,3866.5,0.00013435,-0.00085716,0.00011628,-135.75,-0.00038905,-3932.6,0.48587
15527,8.0372,3.2727,0.05,1.0802e-06,10.795,8.2948e-07,6.2324,7.6604e-13,3.9144e-06,-8.2948e-07,-6.2324,0.48579
15528,8.3124,3.2727,0,0.00037958,3793.2,0.00013101,-0.00038138,0.00011544,-116.96,-0.00038144,-3850.3,0.51609
15529,8.2206,3.1818,0,0.00038198,3817.2,0.00013212,-0.00080881,0.00011569,-123.43,-0.00038393,-3877.4,0.50598
15530,8.2206,3.2727,0.05,1.0551e-06,10.543,8.1016e-07,6.0873,6.4684e-13,4.9092e-06,-8.1017e-07,-6.0873,0.5059
15531,8.4959,3.2727,0,0.00037468,3744.2,0.00012887,-0.0002138,0.00011472,-106.3,-0.00037637,-3796.2,0.53659
15532,8.4041,3.1818,0,0.00037707,3768.1,0.00012995,-0.00062618,0.00011502,-112.18,-0.00037886,-3823,0.52635
15533,8.4041,3.2727,0.05,1.0338e-06,10.331,7.9384e-07,5.9646,-1.2636e-12,4.1925e-06,-7.9384e-07,-5.9646,0.52627
15534,8.6794,3.2727,0,0.00036979,3695.4,0.00012678,3.6034e-05,0.00011393,-96.553,-0.00037134,-3742.7,0.55734
15535,8.5876,3.1818,0,0.00037218,3719.3,0.00012783,-0.00035563,0.00011427,-101.91,-0.00037381,-3769.2,0.54698
15536,8.5876,3.2727,0.05,1.0157e-06,10.15,7.7992e-07,5.86,-4.2997e-13,5.4662e-06,-7.7992e-07,-5.86,0.5469
15537,8.8628,3.2727,0,0.00036491,3646.6,0.00012474,0.00033746,0.00011307,-87.642,-0.00036632,-3689.6,0.57834
15538,8.7711,3.1818,0,0.0003673,3670.5,0.00012576,-2.9831e-05,0.00011345,-92.52,-0.00036879,-3715.9,0.56786
15539,8.7711,3.2727,0.05,1.0001e-06,9.9937,7.6793e-07,5.7699,4.1532e-13,4.0305e-06,-7.6792e-07,-5.7699,0.56778
15540,9.0463,3.2727,0,0.00036003,3597.8,0.00012273,0.00066848,0.00011215,-79.487,-0.00036132,-3636.9,0.59959
15541,8.9546,3.1818,0,0.00036243,3621.8,0.00012374,0.00032675,0.00011256,-83.936,-0.00036378,-3663,0.58898
15542,8.9546,3.2727,0.05,9.8647e-07,9.8579,7.5749e-07,5.6915,-5.4872e-13,5.5651e-06,-7.5748e-07,-5.6914,0.58891
15543,9.2298,3.2727,0,0.00035515,3549.1,0.00012075,0.0010138,0.00011116,-72.02,-0.00035632,-3584.5,0.62109
15544,9.1381,3.1818,0,0.00035755,3573.1,0.00012174,0.00069796,0.00011162,-76.081,-0.00035879,-3610.5,0.61036
15545,9.1381,3.2727,0.05,9.7451e-07,9.7384,7.4831e-07,5.6225,-6.0178e-13,5.1549e-06,-7.483e-07,-5.6225,0.61028
15546,9.4133,3.2727,0,0.00035028,3500.3,0.0001188,0.001362,0.00011013,-65.177,-0.00035134,-3532.5,0.64282
15547,9.3215,3.1818,0,0.00035268,3524.4,0.00011978,0.0010718,0.00011061,-68.888,-0.0003538,-3558.3,0.63197
15548,9.3215,3.2727,0.05,9.6389e-07,9.6322,7.4015e-07,5.5612,2.6673e-13,2.9677e-06,-7.4015e-07,-5.5611,0.63189
15549,9.5968,3.2727,0,0.0003454,3451.6,0.00011689,0.0017078,0.00010905,-58.902,-0.00034636,-3480.6,0.66479
15550,9.505,3.1818,0,0.0003478,3475.6,0.00011785,0.0014398,0.00010956,-62.297,-0.00034882,-3506.4,0.65382
15551,9.505,3.2727,0.05,9.5434e-07,9.5369,7.3282e-07,5.5061,-6.7505e-13,3.6574e-06,-7.3282e-07,-5.5061,0.65374
15552,9.7802,3.2727,0,0.00034051,3402.8,0.00011499,0.0020436,0.00010792,-53.144,-0.00034139,-3429.1,0.68699
15553,9.6885,3.1818,0,0.00034293,3426.9,0.00011594,0.0018012,0.00010845,-56.253,-0.00034385,-3454.7,0.67591
15554,9.6885,3.2727,0.05,9.4569e-07,9.4504,7.2617e-07,5.4562,2.0757e-13,3.4629e-06,-7.2617e-07,-5.4562,0.67583
15555,9.9637,3.2727,0,0.00033563,3354,0.00011312,0.0023714,0.00010675,-47.855,-0.00033642,-3377.7,0.70942
15556,9.872,3.1818,0,0.00033805,3378.1,0.00011406,0.0021429,0.00010731,-50.705,-0.00033888,-3403.2,0.69822
15557,9.872,3.2727,0.05,9.3776e-07,9.3712,7.2009e-07,5.4104,1.8164e-13,3.7498e-06,-7.2009e-07,-5.4104,0.69815
15558,10.147,3.2727,0,0.00033075,3305.2,0.00011127,0.0026913,0.00010555,-42.995,-0.00033146,-3326.5,0.73208
15559,10.055,3.1818,0,0.00033316,3329.3,0.0001122,0.002483,0.00010613,-45.61,-0.00033392,-3351.9,0.72077
15560,10.055,3.2727,0.05,9.3044e-07,9.298,7.1446e-07,5.3682,-7.487e-13,3.1151e-06,-7.1447e-07,-5.3682,0.7207
15561,10.331,3.2727,0,0.00032586,3256.4,0.00010944,0.0029799,0.00010431,-38.524,-0.0003265,-3275.5,0.75496
15562,10.239,3.1818,0,0.00032828,3280.6,0.00011035,0.0028045,0.00010491,-40.926,-0.00032896,-3300.8,0.74354
15563,10.239,3.2727,0.05,9.2363e-07,9.2299,7.0923e-07,5.3289,-7.6684e-13,3.4525e-06,-7.0923e-07,-5.3289,0.74347
15564,10.514,3.2727,0,0.00032098,3207.6,0.00010762,0.003248,0.00010304,-34.41,-0.00032155,-3224.7,0.77807
15565,10.422,3.1818,0,0.0003234,3231.8,0.00010853,0.003079,0.00010366,-36.618,-0.00032401,-3249.9,0.76653
15566,10.422,3.2727,0.05,9.1723e-07,9.1659,7.0432e-07,5.292,1.2498e-13,3.8037e-06,-7.0432e-07,-5.292,0.76646
15567,10.698,3.2727,0,0.0003161,3158.8,0.00010583,0.0035203,0.00010175,-30.62,-0.00031661,-3174,0.80138
15568,10.606,3.1818,0,0.00031852,3183,0.00010673,0.003356,0.00010238,-32.652,-0.00031906,-3199.2,0.78974
15569,10.606,3.2727,0.05,9.1118e-07,9.1055,6.9967e-07,5.2571,1.1048e-13,4.171e-06,-6.9967e-07,-5.257,0.78967
15570,10.881,3.2727,0,0.00031123,3110.1,0.00010405,0.0037986,0.00010043,-27.126,-0.00031168,-3123.6,0.82492
15571,10.789,3.1818,0,0.00031364,3134.3,0.00010494,0.003635,0.00010108,-28.999,-0.00031413,-3148.7,0.81317
15572,10.789,3.2727,0.05,9.0543e-07,9.048,6.9526e-07,5.2239,9.7929e-14,3.5944e-06,-6.9526e-07,-5.2238,0.8131
15573,11.065,3.2727,0,0.00030635,3061.4,0.00010228,0.0040533,9.9097e-05,-23.903,-0.00030675,-3073.3,0.84866
15574,10.973,3.1818,0,0.00030877,3085.6,0.00010316,0.0039222,9.975e-05,-25.63,-0.0003092,-3098.3,0.8368
15575,10.973,3.2727,0.05,8.9994e-07,8.9932,6.9104e-07,5.1922,8.629e-14,3.0304e-06,-6.9104e-07,-5.1922,0.83673
15576,11.248,3.2727,0,0.00030149,3012.8,0.00010053,0.0042747,9.774e-05,-20.928,-0.00030184,-3023.2,0.87261
15577,11.156,3.1818,0,0.0003039,3036.9,0.0001014,0.0041522,9.8403e-05,-22.521,-0.00030428,-3048.1,0.86065
15578,11.156,3.2727,0.05,8.9468e-07,8.9406,6.8701e-07,5.1619,7.6512e-14,3.1942e-06,-6.87e-07,-5.1619,0.86058
15579,11.432,3.2727,0,0.00029663,2964.2,9.8786e-05,0.0045113,9.6366e-05,-18.179,-0.00029693,-2973.3,0.89676
15580,11.34,3.1818,0,0.00029904,2988.3,9.9655e-05,0.0043698,9.7039e-05,-19.651,-0.00029937,-2998.1,0.8847
15581,11.34,3.2727,0.05,8.896e-07,8.8899,6.8311e-07,5.1326,-1.7528e-12,3.5983e-06,-6.831e-07,-5.1326,0.88463
15582,11.615,3.2727,0,0.00029177,2915.7,9.7059e-05,0.0047447,9.4977e-05,-15.636,-0.00029204,-2923.5,0.92111
15583,11.523,3.1818,0,0.00029418,2939.8,9.7921e-05,0.0046279,9.5658e-05,-16.998,-0.00029447,-2948.2,0.90895
15584,11.523,3.2727,0.05,8.847e-07,8.8409,6.7934e-07,5.1043,5.7871e-14,3.1786e-06,-6.7934e-07,-5.1043,0.90888
15585,11.799,3.2727,0,0.00028693,2867.3,9.5344e-05,0.0049565,9.3575e-05,-13.283,-0.00028715,-2873.9,0.94566
15586,11.707,3.1818,0,0.00028933,2891.3,9.62e-05,0.0048371,9.4264e-05,-14.543,-0.00028958,-2898.6,0.9334
15587,11.707,3.2727,0.05,8.7995e-07,8.7934,6.7569e-07,5.0769,5.1208e-14,3.4846e-06,-6.7569e-07,-5.0769,0.93333
15588,11.982,3.2727,0,0.00028209,2819,9.364e-05,0.0051714,9.2162e-05,-11.102,-0.00028228,-2824.5,0.9704
15589,11.89,3.1818,0,0.00028449,2843,9.449e-05,0.0050485,9.2857e-05,-12.27,-0.0002847,-2849.1,0.95804
15590,11.89,3.2727,0.05,8.7532e-07,8.7471,6.7214e-07,5.0502,4.3809e-14,4.3808e-06,-6.7214e-07,-5.0501,0.95798
15591,12.165,3.2727,0,0.00027727,2770.8,9.1948e-05,0.0053722,9.0739e-05,-9.0788,-0.00027742,-2775.3,0.99533
15592,12.074,3.1818,0,0.00027966,2794.7,9.2792e-05,0.00526,9.1439e-05,-10.162,-0.00027983,-2799.8,0.98288
15593,12.074,3.2727,0.05,8.7081e-07,8.7021,6.6867e-07,5.0242,-8.7274e-13,3.6726e-06,-6.6868e-07,-5.0242,0.98281
15594,12.349,3.2727,0,0.00027245,2722.6,9.0266e-05,0.0055689,8.9307e-05,-7.1994,-0.00027257,-2726.2,1.0204
15595,12.257,3.1818,0,0.00027484,2746.5,9.1105e-05,0.0054378,9.0012e-05,-8.2064,-0.00027498,-2750.6,1.0079
15596,12.257,3.2727,0.05,8.6641e-07,8.6581,6.6529e-07,4.9988,3.0217e-14,3.9816e-06,-6.6529e-07,-4.9987,1.0078
15597,12.532,3.2727,0,0.00026765,2674.6,8.8594e-05,0.005791,8.7868e-05,-5.4513,-0.00026774,-2677.4,1.0457
15598,12.441,3.1818,0,0.00027004,2698.5,8.9428e-05,0.0056326,8.8577e-05,-6.3883,-0.00027014,-2701.7,1.0331
15599,12.441,3.2727,0.05,8.6209e-07,8.6149,6.6198e-07,4.9739,2.413e-14,4.2053e-06,-6.6198e-07,-4.9738,1.033
15600,12.716,3.2727,0,0.00026286,2626.8,8.6933e-05,0.0060543,8.6423e-05,-3.8226,-0.00026292,-2628.7,1.0712
15601,12.624,3.1818,0,0.00026524,2650.6,8.7762e-05,0.0058452,8.7136e-05,-4.696,-0.00026532,-2652.9,1.0585
15602,12.624,3.2727,0.05,8.5786e-07,8.5726,6.5873e-07,4.9494,1.9017e-14,2.7942e-06,-6.5873e-07,-4.9494,1.0584
15603,12.899,3.2727,0,0.00025808,2579,8.5281e-05,0.0063872,8.4974e-05,-2.3026,-0.00025812,-2580.2,1.0969
15604,12.808,3.1818,0,0.00026045,2602.7,8.6105e-05,0.0060922,8.5689e-05,-3.118,-0.00026051,-2604.3,1.0841
15605,12.808,3.2727,0.05,8.5371e-07,8.5312,6.5554e-07,4.9255,1.445e-14,1.5101e-06,-6.5554e-07,-4.9255,1.084
15606,13.083,3.2727,0,0.00025332,2531.4,8.3638e-05,0.0071543,8.352e-05,-0.88169,-0.00025333,-2531.8,1.1227
15607,12.991,3.1818,0,0.00025568,2555.1,8.4458e-05,0.0063694,8.4238e-05,-1.6442,-0.00025571,-2555.9,1.1098
15608,12.991,3.2727,0.05,8.4963e-07,8.4905,6.5241e-07,4.902,1.0059e-14,2.2508e-06,-6.5241e-07,-4.902,1.1098
15609,13.266,3.2727,0,0.00024857,2483.9,8.2064e-05,0.45369,8.2004e-05,0.0043936,-0.00024856,-2483.7,1.1487
15610,13.175,3.1818,0,0.00025093,2507.5,8.282e-05,0.007733,8.2783e-05,-0.2655,-0.00025093,-2507.7,1.1357
15611,13.175,3.2727,0.05,8.4561e-07,8.4503,6.4932e-07,4.8788,6.0612e-15,3.0556e-06,-6.4933e-07,-4.8788,1.1357
15612,13.45,3.2727,0,0.00024383,2436.6,8.0606e-05,1.7043,8.038e-05,0.0060166,-0.0002438,-2435.8,1.1749
15613,13.358,3.1818,0,0.00024618,2460.1,8.1327e-05,1.0312,8.119e-05,0.006115,-0.00024617,-2459.6,1.1618
15614,13.358,3.2727,0.05,8.4166e-07,8.4108,6.4629e-07,4.856,2.3469e-15,4.3389e-06,-6.4629e-07,-4.856,1.1618
15615,13.633,3.2727,0,0.00023911,2389.4,7.9147e-05,2.8839,7.8764e-05,0.0063974,-0.00023906,-2388,1.2012
15616,13.542,3.1818,0,0.00024146,2412.9,7.9868e-05,2.2493,7.957e-05,0.0064906,-0.00024142,-2411.8,1.1881
15617,13.542,3.2727,0.05,8.3777e-07,8.3719,6.433e-07,4.8335,-1.0349e-15,5.0847e-06,-6.433e-07,-4.8335,1.188
15618,13.817,3.2727,0,0.0002344,2342.4,7.7687e-05,3.9991,7.7156e-05,0.0066595,-0.00023434,-2340.4,1.2277
15619,13.725,3.1818,0,0.00023674,2365.8,7.8409e-05,3.399,7.7958e-05,0.0067251,-0.00023669,-2364.1,1.2145
15620,13.725,3.2727,0.05,8.3392e-07,8.3335,6.4035e-07,4.8113,-4.1077e-15,6.1008e-06,-6.4035e-07,-4.8113,1.2144
15621,14,3.2727,0,0.00022972,2295.6,7.6228e-05,5.057,7.5556e-05,0.0068716,-0.00022963,-2293,1.2544
15622,13.909,3.1818,0,0.00023205,2318.9,7.695e-05,4.4877,7.6354e-05,0.0069363,-0.00023197,-2316.6,1.2411
15623,13.909,3.2727,0.05,8.3013e-07,8.2956,6.3744e-07,4.7895,-7.0193e-15,6.4142e-06,-6.3744e-07,-4.7895,1.241
15624,14.184,3.2727,0,0.00022504,2248.9,7.4771e-05,6.0645,7.3964e-05,0.0070723,-0.00022494,-2245.8,1.2812
15625,14.092,3.1818,0,0.00022737,2272.1,7.5492e-05,5.5223,7.4758e-05,0.0071063,-0.00022727,-2269.3,1.2678
15626,14.092,3.2727,0.05,8.2638e-07,8.2581,6.3456e-07,4.7678,-9.7285e-15,6.2158e-06,-6.3456e-07,-4.7678,1.2677
15627,14.367,3.2727,0,0.00022039,2202.4,7.3315e-05,7.0282,7.238e-05,0.0072855,-0.00022027,-2198.8,1.3081
15628,14.276,3.1818,0,0.0002227,2225.5,7.4035e-05,6.5097,7.317e-05,0.0073113,-0.00022259,-2222.2,1.2947
15629,14.276,3.2727,0.05,8.2268e-07,8.2211,6.3171e-07,4.7465,-1.2333e-14,6.3743e-06,-6.3171e-07,-4.7464,1.2946
15630,14.551,3.2727,0,0.00021575,2156,7.1862e-05,7.9542,7.0804e-05,0.0074794,-0.00021561,-2152,1.3353
15631,14.459,3.1818,0,0.00021806,2179.1,7.2581e-05,7.4562,7.159e-05,0.0075155,-0.00021793,-2175.3,1.3217
15632,14.459,3.2727,0.05,8.1902e-07,8.1845,6.289e-07,4.7253,-1.4821e-14,6.5052e-06,-6.289e-07,-4.7253,1.3217
15633,14.734,3.2727,0,0.00021113,2109.8,7.0412e-05,8.8485,6.9235e-05,0.007666,-0.00021098,-2105.4,1.3625
15634,14.642,3.1818,0,0.00021343,2132.8,7.113e-05,8.3679,7.0017e-05,0.0076887,-0.00021328,-2128.6,1.3489
15635,14.642,3.2727,0.05,8.1539e-07,8.1483,6.2612e-07,4.7044,-1.747e-14,4.876e-06,-6.2612e-07,-4.7044,1.3488
15636,14.918,3.2727,0,0.00020653,2063.9,6.8965e-05,9.7168,6.7673e-05,0.0078686,-0.00020636,-2059,1.3899
15637,14.826,3.1818,0,0.00020882,2086.7,6.9682e-05,9.2507,6.8452e-05,0.0078807,-0.00020866,-2082.1,1.3762
15638,14.826,3.2727,0.05,8.118e-07,8.1124,6.2337e-07,4.6837,8.8968e-13,3.9644e-06,-6.2337e-07,-4.6837,1.3762
15639,15.101,3.2727,0,0.00020195,2018.1,6.7524e-05,10.565,6.6119e-05,0.008086,-0.00020176,-2012.7,1.4174
15640,15.009,3.1818,0,0.00020422,2040.8,6.8238e-05,10.11,6.6893e-05,0.0080878,-0.00020405,-2035.8,1.4037
15641,15.009,3.2727,0.05,8.0825e-07,8.077,6.2064e-07,4.6632,-2.1978e-14,2.815e-06,-6.2064e-07,-4.6632,1.4036
15642,15.285,3.2727,0,0.00019738,1972.4,6.6087e-05,11.398,6.4571e-05,0.0083043,-0.00019718,-1966.7,1.4451
15643,15.193,3.1818,0,0.00019965,1995.1,6.6799e-05,10.952,6.5342e-05,0.0083121,-0.00019946,-1989.6,1.4313
15644,15.193,3.2727,0.05,8.0474e-07,8.0419,6.1794e-07,4.643,-2.4188e-14,2.0812e-06,-6.1794e-07,-4.643,1.4312
15645,15.468,3.2727,0,0.00019283,1927,6.4655e-05,12.221,6.303e-05,0.0085194,-0.00019262,-1920.9,1.4729
15646,15.376,3.1818,0,0.0001951,1949.6,6.5365e-05,11.782,6.3798e-05,0.0085213,-0.00019489,-1943.7,1.459
15647,15.376,3.2727,0.05,8.0127e-07,8.0072,6.1528e-07,4.623,-2.6228e-14,3.7376e-06,-6.1528e-07,-4.623,1.459
15648,15.652,3.2727,0,0.00018831,1881.8,6.323e-05,13.04,6.1495e-05,0.0087465,-0.00018808,-1875.2,1.5008
15649,15.56,3.1818,0,0.00019056,1904.3,6.3936e-05,12.604,6.226e-05,0.008741,-0.00019034,-1897.9,1.4869
15650,15.56,3.2727,0.05,7.9783e-07,7.9728,6.1264e-07,4.6031,-2.8079e-14,2.6494e-06,-6.1264e-07,-4.6031,1.4868
15651,15.835,3.2727,0,0.0001838,1836.8,6.1811e-05,13.86,5.9968e-05,0.0089723,-0.00018356,-1829.8,1.5289
15652,15.743,3.1818,0,0.00018604,1859.1,6.2514e-05,13.425,6.0729e-05,0.0089746,-0.00018581,-1852.4,1.5149
15653,15.743,3.2727,0.05,7.9443e-07,7.9388,6.1002e-07,4.5835,-2.99e-14,9.6865e-07,-6.1003e-07,-4.5835,1.5148
15654,16.019,3.2727,0,0.00017932,1791.9,6.0399e-05,14.686,5.8446e-05,0.0092092,-0.00017906,-1784.5,1.5571
15655,15.927,3.1818,0,0.00018155,1814.2,6.1099e-05,14.249,5.9204e-05,0.0091929,-0.0001813,-1807,1.543
15656,15.927,3.2727,0.05,7.9106e-07,7.9052,6.0744e-07,4.5641,-3.1458e-14,1.6707e-06,-6.0744e-07,-4.5641,1.543
15657,16.202,3.2727,0,0.00017485,1747.3,5.8996e-05,15.524,5.6931e-05,0.0094723,-0.00017458,-1739.5,1.5854
15658,16.11,3.1818,0,0.00017707,1769.5,5.9692e-05,15.083,5.7686e-05,0.0094499,-0.00017681,-1761.9,1.5712
15659,16.11,3.2727,0.05,7.8773e-07,7.8718,6.0488e-07,4.5448,8.7507e-13,2.0047e-06,-6.0488e-07,-4.5448,1.5712
15660,16.386,3.2727,0,0.00017041,1702.9,5.76e-05,16.378,5.5421e-05,0.0097334,-0.00017012,-1694.6,1.6138
15661,16.294,3.1818,0,0.00017262,1725,5.8292e-05,15.93,5.6173e-05,0.0097195,-0.00017234,-1716.9,1.5996
15662,16.294,3.2727,0.05,7.8443e-07,7.8389,6.0235e-07,4.5258,4.1701e-13,2.934e-06,-6.0235e-07,-4.5258,1.5996
15663,16.569,3.2727,0,0.00016598,1658.7,5.6213e-05,17.255,5.3918e-05,0.0099993,-0.00016568,-1650,1.6423
15664,16.477,3.1818,0,0.00016818,1680.7,5.6901e-05,16.797,5.4667e-05,0.0099734,-0.00016789,-1672.2,1.6281
15665,16.477,3.2727,0.05,7.8117e-07,7.8063,5.9984e-07,4.507,4.1434e-13,2.0793e-06,-5.9984e-07,-4.507,1.628
15666,16.753,3.2727,0,0.00016158,1614.7,5.4836e-05,18.159,5.242e-05,0.010291,-0.00016126,-1605.5,1.671
15667,16.661,3.1818,0,0.00016377,1636.6,5.5519e-05,17.689,5.3166e-05,0.010253,-0.00016346,-1627.6,1.6567
15668,16.661,3.2727,0.05,7.7795e-07,7.7741,5.9737e-07,4.4884,-4.384e-14,3.4858e-06,-5.9737e-07,-4.4884,1.6566
15669,16.936,3.2727,0,0.0001572,1570.9,5.3468e-05,19.098,5.0928e-05,0.010607,-0.00015687,-1561.3,1.6997
15670,16.844,3.1818,0,0.00015938,1592.7,5.4147e-05,18.612,5.1671e-05,0.010559,-0.00015905,-1583.3,1.6854
15671,16.844,3.2727,0.05,7.7476e-07,7.7423,5.9492e-07,4.47,8.6224e-13,6.7973e-06,-5.9492e-07,-4.47,1.6853
15672,17.119,3.2727,0,0.00015284,1527.4,5.2111e-05,20.075,4.9441e-05,0.010935,-0.00015249,-1517.2,1.7286
15673,17.028,3.1818,0,0.00015501,1549,5.2785e-05,19.572,5.0182e-05,0.010888,-0.00015467,-1539.1,1.7142
15674,17.028,3.2727,0.05,7.7162e-07,7.7109,5.9251e-07,4.4519,4.0359e-13,6.0551e-06,-5.9251e-07,-4.4519,1.7141
15675,17.303,3.2727,0,0.00014851,1484,5.0766e-05,21.099,4.7959e-05,0.011275,-0.00014814,-1473.4,1.7576
15676,17.211,3.1818,0,0.00015066,1505.6,5.1434e-05,20.575,4.8697e-05,0.011218,-0.0001503,-1495.2,1.7431
15677,17.211,3.2727,0.05,7.6853e-07,7.68,5.9013e-07,4.434,-5.4001e-14,6.0343e-06,-5.9013e-07,-4.434,1.743
15678,17.486,3.2727,0,0.0001442,1441,4.9432e-05,22.175,4.6483e-05,0.01164,-0.0001438,-1429.7,1.7866
15679,17.395,3.1818,0,0.00014634,1462.4,5.0095e-05,21.627,4.7218e-05,0.01157,-0.00014596,-1451.5,1.7721
15680,17.395,3.2727,0.05,7.6547e-07,7.6494,5.8779e-07,4.4164,3.9775e-13,5.291e-06,-5.8779e-07,-4.4164,1.7721
15681,17.67,3.2727,0,0.00013991,1398.1,4.8112e-05,23.31,4.5011e-05,0.012019,-0.0001395,-1386.3,1.8158
15682,17.578,3.1818,0,0.00014204,1419.4,4.8768e-05,22.735,4.5744e-05,0.011948,-0.00014164,-1407.9,1.8012
15683,17.578,3.2727,0.05,7.6247e-07,7.6194,5.8548e-07,4.3991,3.929e-13,7.6381e-06,-5.8548e-07,-4.3991,1.8012
15684,17.853,3.2727,0,0.00013564,1355.5,4.6804e-05,24.511,4.3544e-05,0.012424,-0.00013521,-1343.1,1.845
15685,17.762,3.1818,0,0.00013776,1376.7,4.7454e-05,23.906,4.4274e-05,0.012331,-0.00013734,-1364.6,1.8304
15686,17.762,3.2727,0.05,7.5952e-07,7.5899,5.8321e-07,4.3821,3.8825e-13,7.6103e-06,-5.8321e-07,-4.382,1.8304
15687,18.037,3.2727,0,0.0001314,1313.1,4.5511e-05,25.787,4.2081e-05,0.012867,-0.00013095,-1300,1.8744
15688,17.945,3.1818,0,0.00013351,1334.2,4.6154e-05,25.147,4.2809e-05,0.012763,-0.00013307,-1321.5,1.8597
15689,17.945,3.2727,0.05,7.5661e-07,7.5609,5.8099e-07,4.3653,-6.98e-14,9.4884e-06,-5.8098e-07,-4.3653,1.8597
15690,18.22,3.2727,0,0.00012719,1271,4.4233e-05,27.144,4.0622e-05,0.013329,-0.00012671,-1257.2,1.9038
15691,18.129,3.1818,0,0.00012929,1292,4.4869e-05,26.467,4.1348e-05,0.013221,-0.00012882,-1278.5,1.8891
15692,18.129,3.2727,0.05,7.5377e-07,7.5325,5.7881e-07,4.3489,1.2874e-12,6.3381e-06,-5.7881e-07,-4.3489,1.8891
15693,18.404,3.2727,0,0.000123,1229.2,4.2971e-05,28.593,3.9167e-05,0.013818,-0.00012249,-1214.6,1.9333
15694,18.312,3.1818,0,0.00012509,1250,4.3599e-05,27.874,3.9891e-05,0.013691,-0.00012459,-1235.8,1.9186
15695,18.312,3.2727,0.05,7.51e-07,7.5048,5.7667e-07,4.3329,3.734e-13,6.5426e-06,-5.7667e-07,-4.3329,1.9185
15696,18.587,3.2727,0,0.00011884,1187.6,4.1725e-05,30.141,3.7716e-05,0.014352,-0.0001183,-1172.2,1.9629
15697,18.496,3.1818,0,0.00012091,1208.3,4.2346e-05,29.376,3.8438e-05,0.014205,-0.00012038,-1193.3,1.9481
15698,18.496,3.2727,0.05,7.4828e-07,7.4777,5.7459e-07,4.3172,3.6776e-13,4.5909e-06,-5.7459e-07,-4.3172,1.9481
15699,18.771,3.2727,0,0.00011471,1146.3,4.0498e-05,31.799,3.6268e-05,0.014935,-0.00011413,-1130,1.9926
15700,18.679,3.1818,0,0.00011676,1166.8,4.111e-05,30.983,3.6988e-05,0.014764,-0.00011621,-1151,1.9778
15701,18.679,3.2727,0.05,7.4564e-07,7.4513,5.7256e-07,4.302,3.6339e-13,9.0873e-06,-5.7256e-07,-4.302,1.9777
15702,18.954,3.2727,0,0.0001106,1105.2,3.929e-05,33.577,3.4823e-05,0.015556,-0.00010999,-1088,2.0224
15703,18.863,3.1818,0,0.00011264,1125.7,3.9893e-05,32.706,3.5542e-05,0.015372,-0.00011205,-1108.9,2.0075
15704,18.863,3.2727,0.05,7.4309e-07,7.4258,5.706e-07,4.2873,3.6162e-13,7.6456e-06,-5.706e-07,-4.2873,2.0075
15705,19.138,3.2727,0,0.00010652,1064.5,3.8101e-05,35.486,3.3381e-05,0.016221,-0.00010587,-1046.3,2.0522
15706,19.046,3.1818,0,0.00010855,1084.8,3.8695e-05,34.555,3.4098e-05,0.016013,-0.00010792,-1067.1,2.0373
15707,19.046,3.2727,0.05,7.4062e-07,7.4011,5.6871e-07,4.273,3.5975e-13,6.9131e-06,-5.6871e-07,-4.273,2.0373
15708,19.321,3.2727,0,0.00010247,1024,3.6934e-05,37.538,3.1941e-05,0.016946,-0.00010178,-1004.7,2.0821
15709,19.229,3.1818,0,0.00010449,1044.2,3.7518e-05,36.541,3.2657e-05,0.016709,-0.00010382,-1025.4,2.0672
15710,19.229,3.2727,0.05,7.3825e-07,7.3774,5.6688e-07,4.2593,-1.0164e-13,5.4361e-06,-5.6688e-07,-4.2593,2.0671
15711,19.505,3.2727,0,9.8453e-05,983.85,3.579e-05,39.746,3.0502e-05,0.017723,-9.7717e-05,-963.37,2.1121
15712,19.413,3.1818,0,0.00010046,1003.9,3.6363e-05,38.677,3.1218e-05,0.017466,-9.9742e-05,-983.96,2.0971
15713,19.413,3.2727,0.05,7.3598e-07,7.3548,5.6515e-07,4.2463,-1.1012e-13,8.7084e-06,-5.6514e-07,-4.2463,2.0971
15714,19.688,3.2727,0,9.4466e-05,944.01,3.4669e-05,42.122,2.9066e-05,0.018572,-9.3679e-05,-922.24,2.1421
15715,19.596,3.1818,0,9.6454e-05,963.88,3.5231e-05,40.977,2.978e-05,0.018273,-9.5691e-05,-942.73,2.1271
15716,19.596,3.2727,0.05,7.3384e-07,7.3333,5.6349e-07,4.2339,-1.183e-13,6.7389e-06,-5.6349e-07,-4.2339,2.1271
15717,19.872,3.2727,0,9.0512e-05,904.5,3.3574e-05,44.682,2.763e-05,0.019508,-8.9669e-05,-881.32,2.1722
15718,19.78,3.1818,0,9.2484e-05,924.21,3.4124e-05,43.453,2.8344e-05,0.019172,-9.1668e-05,-901.7,2.1572
15719,19.78,3.2727,0.05,7.3181e-07,7.3131,5.6194e-07,4.2222,-1.2432e-13,8.1255e-06,-5.6194e-07,-4.2222,2.1571
15720,20.055,3.2727,0,8.6591e-05,865.32,3.2506e-05,47.441,2.6195e-05,0.020524,-8.5686e-05,-840.61,2.2024
15721,19.963,3.1818,0,8.8548e-05,884.87,3.3044e-05,46.121,2.6908e-05,0.02015,-8.7673e-05,-860.9,2.1873
15722,19.963,3.2727,0.05,7.2994e-07,7.2943,5.605e-07,4.2114,1.2328e-12,7.5943e-06,-5.605e-07,-4.2114,2.1873
15723,20.239,3.2727,0,8.2706e-05,826.49,3.1466e-05,50.414,2.4759e-05,0.021637,-8.1732e-05,-800.12,2.2326
15724,20.147,3.1818,0,8.4646e-05,845.87,3.1991e-05,48.996,2.5473e-05,0.021213,-8.3705e-05,-820.3,2.2175
15725,20.147,3.2727,0.05,7.2822e-07,7.2772,5.5918e-07,4.2015,3.2126e-13,9.0085e-06,-5.5918e-07,-4.2015,2.2175
15726,20.422,3.2727,0,7.8856e-05,788.02,3.0457e-05,53.62,2.3323e-05,0.02287,-7.7807e-05,-759.83,2.2629
15727,20.33,3.1818,0,8.0779e-05,807.24,3.0967e-05,52.096,2.4037e-05,0.022386,-7.9767e-05,-779.92,2.2477
15728,20.33,3.2727,0.05,7.2668e-07,7.2618,5.58e-07,4.1926,3.1482e-13,7.5309e-06,-5.58e-07,-4.1926,2.2477
15729,20.606,3.2727,0,7.5045e-05,749.93,2.9479e-05,57.075,2.1886e-05,0.024239,-7.3911e-05,-719.75,2.2932
15730,20.514,3.1818,0,7.695e-05,768.97,2.9975e-05,55.438,2.26e-05,0.023689,-7.5857e-05,-739.74,2.278
15731,20.514,3.2727,0.05,7.2534e-07,7.2484,5.5697e-07,4.1849,5.3271e-13,5.5517e-06,-5.5697e-07,-4.1849,2.278
15732,20.789,3.2727,0,7.1274e-05,712.24,2.8535e-05,60.799,2.0446e-05,0.025761,-7.0044e-05,-679.88,2.3236
15733,20.697,3.1818,0,7.316e-05,731.1,2.9016e-05,59.04,2.1161e-05,0.025135,-7.1976e-05,-699.77,2.3084
15734,20.697,3.2727,0.05,7.2423e-07,7.2373,5.5612e-07,4.1785,3.0543e-13,2.6954e-06,-5.5612e-07,-4.1785,2.3084
15735,20.973,3.2727,0,6.7544e-05,674.97,2.7626e-05,64.811,1.9004e-05,0.027463,-6.6207e-05,-640.21,2.354
15736,20.881,3.1818,0,6.9411e-05,693.63,2.8091e-05,62.921,1.972e-05,0.026745,-6.8125e-05,-660.01,2.3388
15737,20.881,3.2727,0.05,7.2337e-07,7.2287,5.5546e-07,4.1735,7.6084e-13,2.6939e-06,-5.5546e-07,-4.1735,2.3388
15738,21.156,3.2727,0,6.3857e-05,638.13,2.6755e-05,69.132,1.7558e-05,0.029382,-6.2399e-05,-600.74,2.3845
15739,21.064,3.1818,0,6.5704e-05,656.59,2.7203e-05,67.102,1.8276e-05,0.028551,-6.4304e-05,-620.45,2.3692
15740,21.064,3.2727,0.05,7.228e-07,7.223,5.5502e-07,4.1702,7.2852e-14,4.5608e-06,-5.5502e-07,-4.1702,2.3692
15741,21.34,3.2727,0,6.0218e-05,601.76,2.5923e-05,73.782,1.6107e-05,0.031559,-5.8622e-05,-561.45,2.415
15742,21.248,3.1818,0,6.2043e-05,620,2.6353e-05,71.603,1.6827e-05,0.030603,-6.0513e-05,-581.08,2.3997
15743,21.248,3.2727,0.05,7.2254e-07,7.2205,5.5482e-07,4.1687,3.0711e-13,7.4673e-06,-5.5482e-07,-4.1687,2.3997
15744,21.523,3.2727,0,5.6627e-05,565.88,2.5132e-05,78.782,1.4651e-05,0.034057,-5.4873e-05,-522.35,2.4455
15745,21.431,3.1818,0,5.8429e-05,583.89,2.5543e-05,76.444,1.5374e-05,0.032929,-5.6752e-05,-541.89,2.4302
15746,21.431,3.2727,0.05,7.2265e-07,7.2215,5.5491e-07,4.1693,8.3601e-14,2.7326e-06,-5.5491e-07,-4.1693,2.4302
15747,21.706,3.2727,0,5.3089e-05,530.52,2.4383e-05,84.153,1.3188e-05,0.036956,-5.1154e-05,-483.4,2.4761
15748,21.615,3.1818,0,5.4866e-05,548.29,2.4775e-05,81.646,1.3914e-05,0.03562,-5.3019e-05,-502.87,2.4608
15749,21.615,3.2727,0.05,7.2316e-07,7.2266,5.553e-07,4.1723,3.3496e-13,2.918e-06,-5.553e-07,-4.1723,2.4608
15750,21.89,3.2727,0,4.9608e-05,495.74,2.3679e-05,89.915,1.1717e-05,0.040353,-4.7462e-05,-444.61,2.5067
15751,21.798,3.1818,0,5.1359e-05,513.23,2.4051e-05,87.23,1.2446e-05,0.038758,-4.9315e-05,-464.01,2.4914
15752,21.798,3.2727,0.05,7.2413e-07,7.2363,5.5604e-07,4.1779,1.0662e-13,5.7597e-06,-5.5604e-07,-4.1779,2.4914
15753,22.073,3.2727,0,4.6189e-05,461.57,2.3019e-05,96.086,1.0237e-05,0.0444,-4.3798e-05,-405.95,2.5374
15754,21.982,3.1818,0,4.791e-05,478.77,2.3371e-05,93.215,1.097e-05,0.042457,-4.5638e-05,-425.29,2.522
15755,21.982,3.2727,0.05,7.256e-07,7.251,5.5717e-07,4.1864,-1.1979e-13,-9.0718e-07,-5.5717e-07,-4.1864,2.522
15756,22.257,3.2727,0,4.2839e-05,428.1,2.2407e-05,102.69,8.7465e-06,0.049313,-4.0158e-05,-367.4,2.568
15757,22.165,3.1818,0,4.4527e-05,444.96,2.2737e-05,99.618,9.4848e-06,0.046908,-4.1988e-05,-386.7,2.5527
15758,22.165,3.2727,0.05,7.2764e-07,7.2714,5.5874e-07,4.1981,1.0475e-13,2.8903e-06,-5.5874e-07,-4.1981,2.5527
15759,22.44,3.2727,0,3.9567e-05,395.4,2.1841e-05,109.73,7.2442e-06,0.055421,-3.6541e-05,-328.93,2.5988
15760,22.349,3.1818,0,4.1217e-05,411.89,2.215e-05,106.46,7.9881e-06,0.052364,-3.8361e-05,-348.19,2.5834
15761,22.349,3.2727,0.05,7.3029e-07,7.2979,5.6077e-07,4.2134,3.4195e-13,5.8288e-06,-5.6077e-07,-4.2134,2.5834
15762,22.624,3.2727,0,3.6385e-05,363.6,2.1322e-05,117.22,5.7287e-06,0.063155,-3.2944e-05,-290.51,2.6295
15763,22.532,3.1818,0,3.7991e-05,379.65,2.1609e-05,113.74,6.4788e-06,0.059251,-3.4755e-05,-309.76,2.6141
15764,22.532,3.2727,0.05,7.3362e-07,7.3311,5.6333e-07,4.2326,1.4468e-13,7.9611e-06,-5.6333e-07,-4.2326,2.6141
15765,22.807,3.2727,0,3.3309e-05,332.86,2.085e-05,125.18,4.1986e-06,0.073541,-2.9364e-05,-252.1,2.6602
15766,22.716,3.1818,0,3.4862e-05,348.38,2.1116e-05,121.49,4.9556e-06,0.068031,-3.1168e-05,-271.35,2.6449
15767,22.716,3.2727,0.05,7.3766e-07,7.3715,5.6643e-07,4.256,-6.2315e-14,6.2074e-06,-5.6643e-07,-4.2559,2.6448
15768,22.991,3.2727,0,3.0363e-05,303.42,2.0424e-05,133.61,2.6524e-06,0.087039,-2.5797e-05,-213.67,2.691
15769,22.899,3.1818,0,3.185e-05,318.28,2.0669e-05,129.7,3.4171e-06,0.080371,-2.7595e-05,-232.94,2.6756
15770,22.899,3.2727,0.05,7.4246e-07,7.4195,5.7012e-07,4.2836,1.6476e-13,7.1706e-06,-5.7012e-07,-4.2836,2.6756
15771,23.174,3.2727,0,2.7581e-05,275.62,2.0043e-05,142.52,1.0895e-06,0.10991,-2.2239e-05,-175.17,2.7218
15772,23.083,3.1818,0,2.8983e-05,289.63,2.0267e-05,138.38,1.8619e-06,0.095665,-2.4034e-05,-194.48,2.7064
15773,23.083,3.2727,0.05,7.4803e-07,7.4751,5.7439e-07,4.3158,2.0797e-13,7.4703e-06,-5.7439e-07,-4.3157,2.7064
15774,23.358,3.2727,0,2.501e-05,249.92,1.9704e-05,151.88,-4.9226e-07,0.13321,-1.8687e-05,-136.57,2.7526
15775,23.266,3.1818,0,2.6302e-05,262.84,1.9908e-05,147.53,2.8996e-07,0.12746,-2.048e-05,-155.93,2.7372
15776,23.266,3.2727,0.05,7.5437e-07,7.5385,5.7927e-07,4.3524,1.8039e-14,5.8568e-06,-5.7927e-07,-4.3524,2.7372
15777,23.541,3.2727,0,2.2716e-05,227.01,1.9407e-05,161.73,-2.0873e-06,0.23008,-1.5137e-05,-97.823,2.7834
15778,23.45,3.1818,0,2.3862e-05,238.45,1.9592e-05,157.13,-1.3023e-06,0.14558,-1.6928e-05,-117.26,2.768
15779,23.45,3.2727,0.05,7.6145e-07,7.6092,5.847e-07,4.3932,2.8433e-13,2.3363e-06,-5.847e-07,-4.3932,2.768
15780,23.725,3.2727,0,2.0788e-05,207.74,1.9147e-05,171.95,-3.7086e-06,0.2297,-1.1586e-05,-58.954,2.8143
15781,23.633,3.1818,0,2.1741e-05,217.26,1.9314e-05,167.24,-2.8998e-06,0.33227,-1.3381e-05,-78.419,2.7989
15782,23.633,3.2727,0.05,7.6923e-07,7.687,5.9067e-07,4.4381,7.1742e-14,1.0072e-05,-5.9067e-07,-4.4381,2.7988
15783,23.817,3.1818,0,2.004e-05,200.26,1.9071e-05,177.59,-4.5364e-06,0.21513,-9.8315e-06,-39.571,2.8297
15784,23.817,3.2727,0.05,7.7879e-07,7.7825,5.9802e-07,4.4933,2.8166e-13,4.2325e-06,-5.9802e-07,-4.4932,2.8297
15785,23.908,3.2727,0,1.9412e-05,193.99,1.8941e-05,182.08,-5.2339e-06,0.43738,-8.2549e-06,-22.262,2.8451
15786,3.5419,3.0909,0,0.0011368,11360,0.00040707,383.97,0.00035592,-0.36078,-0.0011297,-11163,0.089426
15787,3.4501,3,0,0.0011886,11877,0.00043479,512.38,0.00036652,-0.55291,-0.001179,-11613,0.08414
15788,3.4501,3.0909,0.05,1.1136e-05,111.28,8.5512e-06,64.25,-6.1423e-12,2.4004e-05,-8.5511e-06,-64.25,0.084047
15789,3.7254,3.0909,0,0.0010265,10258,0.00034819,113.27,0.00033317,0.46831,-0.0010246,-10201,0.10063
15790,3.6336,3,0,0.001084,10832,0.00037839,248.34,0.00034534,0.026905,-0.0010795,-10706,0.094969
15791,3.6336,3.0909,0.05,1.4387e-05,143.77,1.1048e-05,83.008,-1.347e-11,-1.419e-05,-1.1048e-05,-83.008,0.09488
15792,3.9088,3.0909,0,0.0009147,9140.7,0.00030894,1.4358,0.00028994,-141.34,-0.00091699,-9209.8,0.11252
15793,3.8171,3,0,0.00096779,9671.2,0.00032105,1.2491,0.00031664,-31.935,-0.0009683,-9686.5,0.10652
15794,3.8171,3.0909,0.05,1.4976e-05,149.66,1.15e-05,86.406,-1.1223e-11,-2.9651e-05,-1.15e-05,-86.406,0.10644
15795,4.0923,3.0909,0,0.00081567,8151.1,0.0002857,1.5139,0.00024097,-334.62,-0.00082082,-8312.5,0.12503
15796,4.0006,3,0,0.00086039,8598,0.00029682,1.5537,0.00026206,-259.66,-0.00086449,-8724.1,0.11873
15797,4.0006,3.0909,0.05,1.384e-05,138.3,1.0627e-05,79.848,-9.1883e-12,-2.1376e-05,-1.0627e-05,-79.848,0.11865
15798,4.2758,3.0909,0,0.00073409,7335.9,0.00026482,1.3356,0.00020333,-460.69,-0.00074081,-7554.6,0.1381
15799,4.1841,3,0,0.00077009,7695.6,0.00027458,1.4742,0.00021901,-416.07,-0.00077629,-7894.4,0.13152
15800,4.1841,3.0909,0.05,1.2e-05,119.91,9.2142e-06,69.232,-3.7859e-12,-5.9002e-06,-9.2142e-06,-69.232,0.13144
15801,4.4593,3.0909,0,0.00066914,6686.8,0.00024669,1.0554,0.00017586,-531.17,-0.00067657,-6936,0.15165
15802,4.3676,3,0,0.00069756,6970.7,0.00025506,1.1956,0.00018711,-509.36,-0.0007048,-7210.8,0.14483
15803,4.3676,3.0909,0.05,1.0076e-05,100.69,7.7369e-06,58.132,-2.0545e-12,-4.9605e-07,-7.7369e-06,-58.132,0.14476
15804,4.6428,3.0909,0,0.00061812,6176.9,0.00023122,0.79198,0.0001564,-561.36,-0.00062573,-6438,0.16567
15805,4.551,3,0,0.00064042,6399.8,0.00023832,0.90936,0.0001643,-555.29,-0.00064804,-6658.8,0.15862
15806,4.551,3.0909,0.05,8.3436e-06,83.378,6.4068e-06,48.139,-1.58e-12,1.8254e-05,-6.4068e-06,-48.139,0.15856
15807,4.8263,3.0909,0,0.00057811,5777.1,0.0002181,0.57748,0.0001429,-564.45,-0.00058562,-6038.3,0.1801
15808,4.7345,3,0,0.00059565,5952.4,0.00022411,0.66696,0.00014834,-568.66,-0.00060327,-6215.9,0.17285
15809,4.7345,3.0909,0.05,6.8856e-06,68.809,5.2873e-06,39.727,-7.7767e-14,8.4791e-06,-5.2873e-06,-39.727,0.17279
15810,5.0097,3.0909,0,0.00054659,5462.1,0.00020698,0.41489,0.00013369,-550.26,-0.00055385,-5716.2,0.19493
15811,4.918,3,0,0.00056048,5600.9,0.00021208,0.48031,0.00013737,-560.86,-0.0005679,-5860,0.18748
15812,4.918,3.0909,0.05,5.6975e-06,56.936,4.375e-06,32.872,1.1192e-12,1.1289e-05,-4.375e-06,-32.872,0.18742
15813,5.1932,3.0909,0,0.00052155,5211.9,0.00019752,0.2957,0.00012752,-525.66,-0.00052849,-5454.6,0.21013
15814,5.1015,3,0,0.00053265,5322.9,0.00020187,0.34263,0.00012996,-539.97,-0.00053977,-5572.1,0.2025
15815,5.1015,3.0909,0.05,4.7443e-06,47.41,3.643e-06,27.372,3.3291e-13,1.2946e-05,-3.643e-06,-27.372,0.20244
15816,5.3767,3.0909,0,0.00050144,5010.9,0.00018942,0.20968,0.00012347,-495.25,-0.00050802,-5240,0.22569
15817,5.285,3,0,0.00051042,5100.7,0.00019316,0.24305,0.00012505,-511.48,-0.00051719,-5337,0.21788
15818,5.285,3.0909,0.05,3.9847e-06,39.82,3.0598e-06,22.99,-4.7381e-13,1.0885e-05,-3.0598e-06,-22.99,0.21782
15819,5.5602,3.0909,0,0.00048508,4847.4,0.00018243,0.148,0.00012091,-462.09,-0.00049128,-5061.8,0.24159
15820,5.4684,3,0,0.00049245,4921.1,0.00018567,0.17166,0.00012189,-479.07,-0.00049884,-5143,0.23361
15821,5.4684,3.0909,0.05,3.381e-06,33.787,2.5962e-06,19.507,5.5176e-13,1.6165e-05,-2.5962e-06,-19.507,0.23356
15822,5.7437,3.0909,0,0.00047156,4712.3,0.00017635,0.10389,0.00011935,-428.16,-0.00047738,-4911.8,0.25782
15823,5.6519,3,0,0.0004777,4773.7,0.00017919,0.12065,0.00011993,-445.13,-0.00048371,-4980.6,0.24968
15824,5.6519,3.0909,0.05,2.9013e-06,28.993,2.2279e-06,16.739,2.5811e-12,1.0977e-05,-2.2279e-06,-16.739,0.24962
15825,5.9271,3.0909,0,0.00046021,4598.9,0.00017101,0.072375,0.00011846,-394.72,-0.00046565,-4783.5,0.27437
15826,5.8354,3,0,0.00046542,4651,0.00017351,0.084237,0.00011877,-411.19,-0.00047105,-4842.9,0.26607
15827,5.8354,3.0909,0.05,2.5198e-06,25.18,1.9349e-06,14.538,2.8912e-12,1.0234e-05,-1.9349e-06,-14.538,0.26602
15828,6.1106,3.0909,0,0.0004505,4501.9,0.00016627,0.049871,0.00011801,-362.54,-0.00045557,-4672.2,0.29124
15829,6.0189,3,0,0.000455,4546.9,0.0001685,0.058252,0.00011815,-378.24,-0.00046025,-4724.2,0.28278
15830,6.0189,3.0909,0.05,2.2158e-06,22.142,1.7014e-06,12.784,5.4706e-13,1.3938e-05,-1.7014e-06,-12.784,0.28273
15831,6.2941,3.0909,0,0.00044204,4417.4,0.00016202,0.033833,0.00011782,-332.08,-0.00044676,-4574,0.30841
15832,6.2024,3,0,0.00044601,4457,0.00016403,0.039731,0.00011786,-346.84,-0.00045089,-4620.2,0.2998
15833,6.2024,3.0909,0.05,1.9731e-06,19.717,1.5151e-06,11.384,1.0261e-12,6.9898e-06,-1.5151e-06,-11.384,0.29975
15834,6.4776,3.0909,0,0.00043453,4342.3,0.00015817,0.022444,0.00011777,-303.57,-0.0004389,-4486.1,0.32588
15835,6.3858,3,0,0.00043808,4377.8,0.00016,0.026567,0.00011777,-317.32,-0.00044262,-4527.8,0.31712
15836,6.3858,3.0909,0.05,1.7789e-06,17.777,1.366e-06,10.263,6.5505e-13,7.9351e-06,-1.366e-06,-10.263,0.31707
15837,6.6611,3.0909,0,0.00042773,4274.3,0.00015465,0.014408,0.00011777,-277.09,-0.00043176,-4406.1,0.34365
15838,6.5693,3,0,0.00043098,4306.8,0.00015634,0.017258,0.00011776,-289.82,-0.00043517,-4444.4,0.33474
15839,6.5693,3.0909,0.05,1.6232e-06,16.221,1.2464e-06,9.365,1.265e-12,5.6963e-06,-1.2464e-06,-9.365,0.33469
15840,6.8445,3.0909,0,0.00042146,4211.6,0.00015141,0.0087961,0.00011778,-252.66,-0.00042518,-4332.3,0.36171
15841,6.7528,3,0,0.00042448,4241.8,0.00015297,0.010732,0.00011778,-264.37,-0.00042836,-4367.8,0.35266
15842,6.7528,3.0909,0.05,1.498e-06,14.969,1.1502e-06,8.6425,1.1496e-13,6.8964e-08,-1.1503e-06,-8.6425,0.35261
15843,7.028,3.0909,0,0.00041558,4153,0.00014839,0.0049371,0.00011775,-230.2,-0.00041902,-4263.3,0.38006
15844,6.9363,3,0,0.00041844,4181.5,0.00014985,0.0062168,0.00011778,-240.95,-0.00042201,-4296.7,0.37086
15845,6.9363,3.0909,0.05,1.3969e-06,13.96,1.0727e-06,8.0597,8.2829e-13,6.2234e-06,-1.0727e-06,-8.0597,0.37081
15846,7.2115,3.0909,0,0.00041001,4097.3,0.00014555,0.0023456,0.00011765,-209.62,-0.00041317,-4198,0.39869
15847,7.1198,3,0,0.00041273,4124.5,0.00014693,0.0031555,0.00011772,-219.45,-0.00041603,-4229.8,0.38935
15848,7.1198,3.0909,0.05,1.3152e-06,13.143,1.0099e-06,7.5879,6.7262e-13,6.9596e-06,-1.0099e-06,-7.5879,0.3893
15849,7.395,3.0909,0,0.00040465,4043.7,0.00014287,0.00066793,0.00011748,-190.79,-0.00040756,-4135.7,0.41759
15850,7.3032,3,0,0.00040728,4070,0.00014418,0.0011432,0.00011759,-199.78,-0.00041031,-4166.2,0.40811
15851,7.3032,3.0909,0.05,1.2487e-06,12.479,9.5887e-07,7.2045,5.4935e-13,4.1274e-06,-9.5887e-07,-7.2045,0.40807
15852,7.5785,3.0909,0,0.00039945,3991.7,0.00014032,-0.00035339,0.00011722,-173.6,-0.00040212,-4075.7,0.43677
15853,7.4867,3,0,0.00040202,4017.4,0.00014157,-0.0001147,0.00011737,-181.81,-0.0004048,-4105.2,0.42716
15854,7.4867,3.0909,0.05,1.1945e-06,11.936,9.172e-07,6.8915,4.5125e-13,3.3911e-06,-9.1721e-07,-6.8915,0.42711
15855,7.7619,3.0909,0,0.00039436,3940.9,0.00013788,-0.00090668,0.00011686,-157.92,-0.00039681,-4017.5,0.45622
15856,7.6702,3,0,0.00039688,3966.1,0.00013908,-0.0008334,0.00011706,-165.4,-0.00039944,-4046.2,0.44647
15857,7.6702,3.0909,0.05,1.1499e-06,11.491,8.8301e-07,6.6346,3.7265e-13,6.6124e-06,-8.8301e-07,-6.6346,0.44643
15858,7.9454,3.0909,0,0.00038935,3890.8,0.00013553,-0.0011296,0.00011642,-143.61,-0.00039159,-3960.6,0.47594
15859,7.8537,3,0,0.00039184,3915.7,0.00013669,-0.00117,0.00011667,-150.44,-0.00039418,-3988.7,0.46606
15860,7.8537,3.0909,0.05,1.1132e-06,11.124,8.5478e-07,6.4225,3.1085e-13,2.3352e-06,-8.5478e-07,-6.4225,0.46601
15861,8.1289,3.0909,0,0.00038439,3841.3,0.00013326,-0.0011231,0.00011589,-130.56,-0.00038645,-3904.9,0.49592
15862,8.0372,3,0,0.00038686,3865.9,0.00013438,-0.0012393,0.00011617,-136.79,-0.00038901,-3932.5,0.48591
15863,8.0372,3.0909,0.05,1.0826e-06,10.819,8.3131e-07,6.2461,2.6092e-13,1.9608e-06,-8.3131e-07,-6.2461,0.48587
15864,8.3124,3.0909,0,0.00037948,3792.1,0.00013106,-0.0009602,0.00011527,-118.65,-0.00038136,-3850.1,0.51617
15865,8.2206,3,0,0.00038193,3816.6,0.00013214,-0.0011252,0.0001156,-124.34,-0.00038389,-3877.3,0.50602
15866,8.2206,3.0909,0.05,1.057e-06,10.563,8.1165e-07,6.0984,2.2045e-13,2.6105e-06,-8.1165e-07,-6.0984,0.50598
15867,8.4959,3.0909,0,0.00037458,3743.2,0.00012891,-0.00069399,0.00011457,-107.79,-0.0003763,-3796,0.53666
15868,8.4041,3,0,0.00037702,3767.6,0.00012997,-0.00088879,0.00011494,-112.98,-0.00037882,-3822.9,0.52639
15869,8.4041,3.0909,0.05,1.0354e-06,10.347,7.9505e-07,5.9737,1.8795e-13,4.2736e-06,-7.9505e-07,-5.9737,0.52635
15870,8.6794,3.0909,0,0.0003697,3694.4,0.00012682,-0.00036284,0.00011379,-97.871,-0.00037127,-3742.4,0.55742
15871,8.5876,3,0,0.00037214,3718.8,0.00012785,-0.00057351,0.0001142,-102.61,-0.00037378,-3769,0.54702
15872,8.5876,3.0909,0.05,1.017e-06,10.163,7.8089e-07,5.8673,1.0706e-12,4.0728e-06,-7.8089e-07,-5.8673,0.54698
15873,8.8628,3.0909,0,0.00036482,3645.7,0.00012476,5.8926e-06,0.00011294,-88.808,-0.00036625,-3689.3,0.57842
15874,8.7711,3,0,0.00036726,3670.1,0.00012578,-0.00021109,0.00011338,-93.139,-0.00036876,-3715.8,0.5679
15875,8.7711,3.0909,0.05,1.0011e-06,10.004,7.6871e-07,5.7758,1.3886e-13,2.9508e-06,-7.6871e-07,-5.7758,0.56785
15876,9.0463,3.0909,0,0.00035995,3597,0.00012275,0.00039289,0.00011203,-80.522,-0.00036126,-3636.6,0.59967
15877,8.9546,3,0,0.00036239,3621.4,0.00012375,0.00017636,0.0001125,-84.484,-0.00036375,-3662.9,0.58902
15878,8.9546,3.0909,0.05,9.873e-07,9.8662,7.5812e-07,5.6963,1.1968e-13,2.8064e-06,-7.5812e-07,-5.6963,0.58898
15879,9.2298,3.0909,0,0.00035508,3548.4,0.00012077,0.00078469,0.00011106,-72.941,-0.00035627,-3584.3,0.62116
15880,9.1381,3,0,0.00035752,3572.7,0.00012175,0.00057268,0.00011156,-76.568,-0.00035876,-3610.4,0.61039
15881,9.1381,3.0909,0.05,9.7519e-07,9.7451,7.4882e-07,5.6264,1.0334e-13,4.5925e-06,-7.4882e-07,-5.6264,0.61035
15882,9.4133,3.0909,0,0.00035021,3499.7,0.00011882,0.001172,0.00011004,-65.999,-0.00035129,-3532.2,0.64289
15883,9.3215,3,0,0.00035265,3524,0.00011979,0.00096779,0.00011056,-69.322,-0.00035377,-3558.2,0.63201
15884,9.3215,3.0909,0.05,9.6443e-07,9.6377,7.4057e-07,5.5643,9.9937e-13,1.6287e-06,-7.4057e-07,-5.5643,0.63197
15885,9.5968,3.0909,0,0.00034533,3451,0.0001169,0.0015505,0.00010896,-59.638,-0.00034631,-3480.4,0.66486
15886,9.505,3,0,0.00034777,3475.3,0.00011786,0.0013538,0.00010951,-62.685,-0.0003488,-3506.2,0.65386
15887,9.505,3.0909,0.05,9.5479e-07,9.5413,7.3316e-07,5.5087,7.8879e-14,1.5454e-06,-7.3316e-07,-5.5087,0.65382
15888,9.7802,3.0909,0,0.00034046,3402.2,0.00011501,0.0019135,0.00010784,-53.803,-0.00034134,-3428.8,0.68706
15889,9.6885,3,0,0.0003429,3426.6,0.00011595,0.00173,0.00010841,-56.6,-0.00034382,-3454.5,0.67594
15890,9.6885,3.0909,0.05,9.4605e-07,9.454,7.2645e-07,5.4583,6.964e-14,2.4305e-06,-7.2645e-07,-5.4583,0.6759
15891,9.9637,3.0909,0,0.00033558,3353.5,0.00011313,0.0022642,0.00010668,-48.448,-0.00033638,-3377.4,0.70949
15892,9.872,3,0,0.00033802,3377.9,0.00011406,0.002084,0.00010727,-51.017,-0.00033886,-3403.1,0.69826
15893,9.872,3.0909,0.05,9.3806e-07,9.3742,7.2032e-07,5.4122,6.148e-14,2.3685e-06,-7.2032e-07,-5.4122,0.69822
15894,10.147,3.0909,0,0.0003307,3304.7,0.00011128,0.0026031,0.00010549,-43.529,-0.00033142,-3326.3,0.73215
15895,10.055,3,0,0.00033314,3329.1,0.0001122,0.0024345,0.00010609,-45.891,-0.0003339,-3351.8,0.7208
15896,10.055,3.0909,0.05,9.3069e-07,9.3005,7.1465e-07,5.3696,5.4368e-14,3.2697e-06,-7.1465e-07,-5.3696,0.72077
15897,10.331,3.0909,0,0.00032582,3256,0.00010945,0.0029083,0.00010426,-39.007,-0.00032647,-3275.3,0.75503
15898,10.239,3,0,0.00032826,3280.3,0.00011036,0.0027645,0.00010488,-41.18,-0.00032894,-3300.7,0.74357
15899,10.239,3.0909,0.05,9.2383e-07,9.2319,7.0939e-07,5.3301,4.8043e-14,3.6992e-06,-7.0939e-07,-5.3301,0.74354
15900,10.514,3.0909,0,0.00032094,3207.2,0.00010763,0.0031898,0.00010299,-34.847,-0.00032152,-3224.5,0.77813
15901,10.422,3,0,0.00032338,3231.6,0.00010854,0.0030469,0.00010363,-36.848,-0.00032399,-3249.8,0.76656
15902,10.422,3.0909,0.05,9.174e-07,9.1677,7.0445e-07,5.2929,4.2271e-14,4.1324e-06,-7.0445e-07,-5.2929,0.76653
15903,10.698,3.0909,0,0.00031606,3158.5,0.00010583,0.0034722,0.00010171,-31.016,-0.00031658,-3173.9,0.80145
15904,10.606,3,0,0.0003185,3182.8,0.00010673,0.0033293,0.00010236,-32.86,-0.00031905,-3199.1,0.78977
15905,10.606,3.0909,0.05,9.1132e-07,9.1069,6.9978e-07,5.2579,3.7333e-14,4.0948e-06,-6.9978e-07,-5.2579,0.78974
15906,10.881,3.0909,0,0.00031119,3109.8,0.00010405,0.003759,0.00010039,-27.486,-0.00031165,-3123.4,0.82498
15907,10.789,3,0,0.00031363,3134.1,0.00010494,0.0036131,0.00010105,-29.187,-0.00031411,-3148.6,0.8132
15908,10.789,3.0909,0.05,9.0555e-07,9.0492,6.9535e-07,5.2246,3.291e-14,3.3466e-06,-6.9535e-07,-5.2246,0.81316
15909,11.065,3.0909,0,0.00030632,3061.1,0.00010228,0.0040207,9.9058e-05,-24.231,-0.00030673,-3073.1,0.84872
15910,10.973,3,0,0.00030875,3085.4,0.00010316,0.0039041,9.973e-05,-25.801,-0.00030918,-3098.2,0.83683
15911,10.973,3.0909,0.05,9.0004e-07,8.9942,6.9112e-07,5.1928,2.9081e-14,2.8413e-06,-6.9112e-07,-5.1928,0.8368
15912,11.248,3.0909,0,0.00030146,3012.5,0.00010053,0.0042466,9.7705e-05,-21.227,-0.00030181,-3023,0.87267
15913,11.156,3,0,0.00030389,3036.8,0.0001014,0.0041371,9.8385e-05,-22.678,-0.00030426,-3048,0.86068
15914,11.156,3.0909,0.05,8.9477e-07,8.9415,6.8707e-07,5.1624,9.352e-13,3.2931e-06,-6.8707e-07,-5.1624,0.86064
15915,11.432,3.0909,0,0.0002966,2963.9,9.879e-05,0.0044858,9.6334e-05,-18.452,-0.00029691,-2973.1,0.89682
15916,11.34,3,0,0.00029902,2988.2,9.9657e-05,0.0043568,9.7022e-05,-19.793,-0.00029935,-2998,0.88473
15917,11.34,3.0909,0.05,8.8968e-07,8.8907,6.8316e-07,5.133,9.3189e-13,3.7449e-06,-6.8316e-07,-5.133,0.88469
15918,11.615,3.0909,0,0.00029175,2915.4,9.7062e-05,0.0047201,9.4947e-05,-15.886,-0.00029201,-2923.3,0.92117
15919,11.523,3,0,0.00029417,2939.6,9.7923e-05,0.0046156,9.5643e-05,-17.128,-0.00029446,-2948.2,0.90898
15920,11.523,3.0909,0.05,8.8477e-07,8.8416,6.7939e-07,5.1047,1.9625e-14,3.3661e-06,-6.7939e-07,-5.1047,0.90894
15921,11.799,3.0909,0,0.0002869,2867,9.5347e-05,0.0049299,9.3548e-05,-13.511,-0.00028713,-2873.8,0.94572
15922,11.707,3,0,0.00028932,2891.2,9.6201e-05,0.004825,9.4249e-05,-14.662,-0.00028957,-2898.5,0.93343
15923,11.707,3.0909,0.05,8.8001e-07,8.794,6.7574e-07,5.0772,1.7256e-14,3.8251e-06,-6.7574e-07,-5.0772,0.93339
15924,11.982,3.0909,0,0.00028207,2818.7,9.3643e-05,0.0051395,9.2137e-05,-11.31,-0.00028226,-2824.4,0.97046
15925,11.89,3,0,0.00028448,2842.9,9.4492e-05,0.0050339,9.2844e-05,-12.379,-0.00028469,-2849,0.95807
15926,11.89,3.0909,0.05,8.7537e-07,8.7477,6.7218e-07,5.0505,1.4734e-14,4.8788e-06,-6.7218e-07,-5.0505,0.95804
15927,12.165,3.0909,0,0.00027724,2770.5,9.195e-05,0.0053306,9.0715e-05,-9.2696,-0.0002774,-2775.1,0.99539
15928,12.074,3,0,0.00027965,2794.6,9.2793e-05,0.0052424,9.1427e-05,-10.262,-0.00027983,-2799.7,0.98291
15929,12.074,3.0909,0.05,8.7086e-07,8.7026,6.6871e-07,5.0244,9.2188e-13,4.2057e-06,-6.6871e-07,-5.0245,0.98287
15930,12.349,3.0909,0,0.00027243,2722.4,9.0268e-05,0.0055106,8.9285e-05,-7.3743,-0.00027256,-2726.1,1.0205
15931,12.257,3,0,0.00027483,2746.4,9.1106e-05,0.0054133,9.0001e-05,-8.2976,-0.00027497,-2750.6,1.0079
15932,12.257,3.0909,0.05,8.6645e-07,8.6585,6.6533e-07,4.999,1.0224e-14,4.5471e-06,-6.6533e-07,-4.999,1.0079
15933,12.532,3.0909,0,0.00026763,2674.4,8.8596e-05,0.0057026,8.7848e-05,-5.6115,-0.00026772,-2677.2,1.0458
15934,12.441,3,0,0.00027003,2698.4,8.9429e-05,0.0055979,8.8567e-05,-6.4719,-0.00027013,-2701.6,1.0331
15935,12.441,3.0909,0.05,8.6213e-07,8.6153,6.6201e-07,4.9741,8.184e-15,4.7704e-06,-6.6201e-07,-4.9741,1.0331
15936,12.716,3.0909,0,0.00026284,2626.6,8.6934e-05,0.0059093,8.6405e-05,-3.9694,-0.00026291,-2628.6,1.0713
15937,12.624,3,0,0.00026523,2650.5,8.7762e-05,0.0057898,8.7126e-05,-4.7726,-0.00026531,-2652.8,1.0585
15938,12.624,3.0909,0.05,8.5789e-07,8.573,6.5876e-07,4.9496,9.1589e-13,3.088e-06,-6.5875e-07,-4.9496,1.0585
15939,12.899,3.0909,0,0.00025806,2578.8,8.5282e-05,0.0061117,8.4956e-05,-2.437,-0.0002581,-2580.1,1.0969
15940,12.808,3,0,0.00026045,2602.7,8.6105e-05,0.0059976,8.568e-05,-3.1882,-0.0002605,-2604.2,1.0841
15941,12.808,3.0909,0.05,8.5374e-07,8.5315,6.5556e-07,4.9257,4.9144e-15,2.1827e-06,-6.5557e-07,-4.9257,1.0841
15942,13.083,3.0909,0,0.0002533,2531.2,8.3639e-05,0.0063338,8.3504e-05,-1.0042,-0.00025332,-2531.7,1.1228
15943,12.991,3,0,0.00025567,2555,8.4458e-05,0.006165,8.423e-05,-1.7083,-0.0002557,-2555.8,1.1098
15944,12.991,3.0909,0.05,8.4966e-07,8.4908,6.5243e-07,4.9021,1.8224e-12,2.8123e-06,-6.5244e-07,-4.9021,1.1098
15945,13.266,3.0909,0,0.00024855,2483.8,8.2049e-05,0.33906,8.2005e-05,0.0061262,-0.00024854,-2483.6,1.1488
15946,13.175,3,0,0.00025092,2507.5,8.282e-05,0.0063286,8.2776e-05,-0.32304,-0.00025092,-2507.6,1.1358
15947,13.175,3.0909,0.05,8.4564e-07,8.4506,6.4935e-07,4.8789,9.1156e-13,3.711e-06,-6.4935e-07,-4.8789,1.1357
15948,13.45,3.0909,0,0.00024381,2436.5,8.0592e-05,1.6005,8.038e-05,0.0065466,-0.00024379,-2435.7,1.1749
15949,13.358,3,0,0.00024618,2460.1,8.1319e-05,0.97689,8.119e-05,0.0065332,-0.00024616,-2459.6,1.1618
15950,13.358,3.0909,0.05,8.4169e-07,8.4111,6.4631e-07,4.8561,9.1031e-13,5.0875e-06,-6.4631e-07,-4.8561,1.1618
15951,13.633,3.0909,0,0.00023909,2389.3,7.9134e-05,2.7892,7.8763e-05,0.0067462,-0.00023905,-2387.9,1.2013
15952,13.542,3,0,0.00024145,2412.8,7.9861e-05,2.1998,7.957e-05,0.0067047,-0.00024141,-2411.7,1.1881
15953,13.542,3.0909,0.05,8.3779e-07,8.3721,6.4332e-07,4.8337,1.8187e-12,6.0437e-06,-6.4332e-07,-4.8337,1.1881
15954,13.817,3.0909,0,0.00023439,2342.3,7.7675e-05,3.9129,7.7155e-05,0.006937,-0.00023432,-2340.3,1.2278
15955,13.725,3,0,0.00023674,2365.7,7.8403e-05,3.3539,7.7957e-05,0.0068811,-0.00023668,-2364,1.2145
15956,13.725,3.0909,0.05,8.3395e-07,8.3337,6.4037e-07,4.8115,1.8176e-12,6.8442e-06,-6.4037e-07,-4.8115,1.2145
15957,14,3.0909,0,0.0002297,2295.4,7.6217e-05,4.9787,7.5556e-05,0.0071121,-0.00022962,-2292.9,1.2544
15958,13.909,3,0,0.00023204,2318.8,7.6944e-05,4.4467,7.6353e-05,0.0070659,-0.00023196,-2316.6,1.2411
15959,13.909,3.0909,0.05,8.3015e-07,8.2958,6.3746e-07,4.7896,-2.3462e-15,7.3883e-06,-6.3746e-07,-4.7896,1.2411
15960,14.184,3.0909,0,0.00022503,2248.8,7.476e-05,5.9936,7.3964e-05,0.0072906,-0.00022493,-2245.7,1.2812
15961,14.092,3,0,0.00022736,2272,7.5487e-05,5.4851,7.4758e-05,0.0072214,-0.00022727,-2269.3,1.2678
15962,14.092,3.0909,0.05,8.264e-07,8.2583,6.3458e-07,4.768,-3.2455e-15,7.0983e-06,-6.3458e-07,-4.768,1.2678
15963,14.367,3.0909,0,0.00022038,2202.2,7.3305e-05,6.9643,7.2379e-05,0.0074895,-0.00022026,-2198.7,1.3082
15964,14.276,3,0,0.0002227,2225.4,7.4031e-05,6.4761,7.317e-05,0.0074177,-0.00022259,-2222.2,1.2947
15965,14.276,3.0909,0.05,8.2269e-07,8.2213,6.3173e-07,4.7465,9.0537e-13,6.9427e-06,-6.3173e-07,-4.7465,1.2947
15966,14.551,3.0909,0,0.00021574,2155.9,7.1853e-05,7.897,7.0803e-05,0.007675,-0.0002156,-2151.9,1.3353
15967,14.459,3,0,0.00021805,2179,7.2577e-05,7.426,7.1589e-05,0.0076159,-0.00021792,-2175.3,1.3217
15968,14.459,3.0909,0.05,8.1903e-07,8.1847,6.2892e-07,4.7254,9.0452e-13,7.2941e-06,-6.2892e-07,-4.7254,1.3217
15969,14.734,3.0909,0,0.00021112,2109.7,7.0403e-05,8.7976,6.9234e-05,0.007855,-0.00021097,-2105.3,1.3626
15970,14.642,3,0,0.00021342,2132.7,7.1125e-05,8.3409,7.0016e-05,0.0077851,-0.00021328,-2128.6,1.3489
15971,14.642,3.0909,0.05,8.1541e-07,8.1485,6.2613e-07,4.7045,-5.8411e-15,6.0954e-06,-6.2613e-07,-4.7045,1.3489
15972,14.918,3.0909,0,0.00020652,2063.7,6.8958e-05,9.672,6.7672e-05,0.0080525,-0.00020635,-2058.9,1.3899
15973,14.826,3,0,0.00020881,2086.7,6.9678e-05,9.2268,6.8451e-05,0.0079745,-0.00020865,-2082,1.3762
15974,14.826,3.0909,0.05,8.1182e-07,8.1126,6.2338e-07,4.6838,-6.6527e-15,4.9567e-06,-6.2338e-07,-4.6838,1.3762
15975,15.101,3.0909,0,0.00020193,2017.9,6.7517e-05,10.526,6.6117e-05,0.0082671,-0.00020175,-2012.7,1.4175
15976,15.009,3,0,0.00020422,2040.8,6.8234e-05,10.089,6.6893e-05,0.0081795,-0.00020405,-2035.7,1.4037
15977,15.009,3.0909,0.05,8.0827e-07,8.0771,6.2065e-07,4.6633,9.021e-13,3.8784e-06,-6.2065e-07,-4.6633,1.4037
15978,15.285,3.0909,0,0.00019737,1972.3,6.608e-05,11.365,6.4569e-05,0.0084827,-0.00019717,-1966.6,1.4451
15979,15.193,3,0,0.00019964,1995.1,6.6795e-05,10.934,6.5341e-05,0.0084021,-0.00019946,-1989.6,1.4313
15980,15.193,3.0909,0.05,8.0476e-07,8.042,6.1795e-07,4.6431,2.7203e-12,3.0381e-06,-6.1795e-07,-4.6431,1.4313
15981,15.468,3.0909,0,0.00019282,1926.9,6.465e-05,12.194,6.3028e-05,0.0086968,-0.00019261,-1920.8,1.4729
15982,15.376,3,0,0.00019509,1949.6,6.5362e-05,11.767,6.3797e-05,0.0086103,-0.00019489,-1943.6,1.459
15983,15.376,3.0909,0.05,8.0129e-07,8.0073,6.1529e-07,4.623,-8.8189e-15,4.583e-06,-6.1529e-07,-4.6231,1.459
15984,15.652,3.0909,0,0.0001883,1881.7,6.3225e-05,13.019,6.1493e-05,0.008923,-0.00018807,-1875.1,1.5009
15985,15.56,3,0,0.00019055,1904.2,6.3934e-05,12.592,6.2259e-05,0.0088302,-0.00019034,-1897.9,1.4869
15986,15.56,3.0909,0.05,7.9785e-07,7.973,6.1265e-07,4.6032,1.8095e-12,3.5053e-06,-6.1265e-07,-4.6032,1.4869
15987,15.835,3.0909,0,0.00018379,1836.7,6.1807e-05,13.844,5.9965e-05,0.0091489,-0.00018355,-1829.7,1.5289
15988,15.743,3,0,0.00018604,1859.1,6.2512e-05,13.416,6.0728e-05,0.0090627,-0.00018581,-1852.4,1.5149
15989,15.743,3.0909,0.05,7.9445e-07,7.939,6.1004e-07,4.5836,-1.001e-14,2.0703e-06,-6.1004e-07,-4.5836,1.5149
15990,16.019,3.0909,0,0.00017931,1791.8,6.0396e-05,14.676,5.8444e-05,0.0093872,-0.00017905,-1784.4,1.5571
15991,15.927,3,0,0.00018154,1814.2,6.1097e-05,14.243,5.9203e-05,0.0092813,-0.0001813,-1807,1.543
15992,15.927,3.0909,0.05,7.9108e-07,7.9053,6.0745e-07,4.5641,-1.0645e-14,2.5425e-06,-6.0745e-07,-4.5641,1.543
15993,16.202,3.0909,0,0.00017484,1747.2,5.8992e-05,15.52,5.6928e-05,0.0096506,-0.00017457,-1739.4,1.5854
15994,16.11,3,0,0.00017707,1769.4,5.969e-05,15.079,5.7684e-05,0.0095394,-0.00017681,-1761.9,1.5713
15995,16.11,3.0909,0.05,7.8774e-07,7.872,6.0489e-07,4.5449,4.4309e-13,2.7736e-06,-6.0489e-07,-4.5449,1.5712
15996,16.386,3.0909,0,0.0001704,1702.8,5.7597e-05,16.38,5.5419e-05,0.0099126,-0.00017011,-1694.5,1.6138
15997,16.294,3,0,0.00017261,1724.9,5.8291e-05,15.93,5.6172e-05,0.0098078,-0.00017234,-1716.9,1.5996
15998,16.294,3.0909,0.05,7.8445e-07,7.8391,6.0236e-07,4.5259,8.968e-13,3.7194e-06,-6.0236e-07,-4.5259,1.5996
15999,16.569,3.0909,0,0.00016597,1658.6,5.6211e-05,17.263,5.3915e-05,0.01018,-0.00016567,-1649.9,1.6424
16000,16.477,3,0,0.00016818,1680.6,5.69e-05,16.8,5.4665e-05,0.010064,-0.00016789,-1672.2,1.6281
16001,16.477,3.0909,0.05,7.8119e-07,7.8065,5.9985e-07,4.5071,8.9589e-13,3.5933e-06,-5.9986e-07,-4.5071,1.6281
16002,16.753,3.0909,0,0.00016157,1614.6,5.4835e-05,18.175,5.2417e-05,0.010473,-0.00016126,-1605.4,1.671
16003,16.661,3,0,0.00016377,1636.5,5.5518e-05,17.695,5.3165e-05,0.010344,-0.00016346,-1627.6,1.6567
16004,16.661,3.0909,0.05,7.7796e-07,7.7742,5.9738e-07,4.4884,4.4001e-13,4.8963e-06,-5.9738e-07,-4.4885,1.6567
16005,16.936,3.0909,0,0.00015719,1570.8,5.3468e-05,19.12,5.0925e-05,0.010791,-0.00015686,-1561.2,1.6998
16006,16.844,3,0,0.00015937,1592.7,5.4147e-05,18.622,5.167e-05,0.01065,-0.00015905,-1583.3,1.6854
16007,16.844,3.0909,0.05,7.7478e-07,7.7424,5.9493e-07,4.4701,1.3483e-12,7.7479e-06,-5.9493e-07,-4.4701,1.6854
16008,17.119,3.0909,0,0.00015284,1527.3,5.2112e-05,20.105,4.9438e-05,0.011121,-0.00015248,-1517.1,1.7286
16009,17.028,3,0,0.00015501,1549,5.2785e-05,19.585,5.018e-05,0.01098,-0.00015466,-1539.1,1.7142
16010,17.028,3.0909,0.05,7.7163e-07,7.711,5.9252e-07,4.452,8.9233e-13,7.5005e-06,-5.9252e-07,-4.452,1.7142
16011,17.303,3.0909,0,0.0001485,1484,5.0767e-05,21.136,4.7956e-05,0.011463,-0.00014813,-1473.3,1.7576
16012,17.211,3,0,0.00015066,1505.6,5.1435e-05,20.592,4.8695e-05,0.011311,-0.0001503,-1495.2,1.7431
16013,17.211,3.0909,0.05,7.6854e-07,7.6801,5.9014e-07,4.4341,8.9141e-13,7.0166e-06,-5.9014e-07,-4.4341,1.7431
16014,17.486,3.0909,0,0.00014419,1440.9,4.9435e-05,22.22,4.6479e-05,0.011828,-0.0001438,-1429.7,1.7867
16015,17.395,3,0,0.00014634,1462.4,5.0096e-05,21.647,4.7216e-05,0.011664,-0.00014596,-1451.4,1.7721
16016,17.395,3.0909,0.05,7.6549e-07,7.6496,5.878e-07,4.4165,8.9025e-13,6.2925e-06,-5.878e-07,-4.4165,1.7721
16017,17.67,3.0909,0,0.0001399,1398.1,4.8115e-05,23.365,4.5007e-05,0.012209,-0.00013949,-1386.2,1.8158
16018,17.578,3,0,0.00014204,1419.4,4.8769e-05,22.76,4.5742e-05,0.012042,-0.00014164,-1407.9,1.8012
16019,17.578,3.0909,0.05,7.6249e-07,7.6196,5.8549e-07,4.3992,1.3434e-12,8.4261e-06,-5.8549e-07,-4.3992,1.8012
16020,17.853,3.0909,0,0.00013564,1355.5,4.6809e-05,24.576,4.3539e-05,0.012618,-0.00013521,-1343,1.8451
16021,17.762,3,0,0.00013776,1376.7,4.7456e-05,23.935,4.4272e-05,0.012427,-0.00013734,-1364.6,1.8304
16022,17.762,3.0909,0.05,7.5953e-07,7.5901,5.8323e-07,4.3821,8.8726e-13,9.131e-06,-5.8323e-07,-4.3821,1.8304
16023,18.037,3.0909,0,0.0001314,1313.1,4.5517e-05,25.862,4.2076e-05,0.013063,-0.00013094,-1300,1.8744
16024,17.945,3,0,0.00013351,1334.2,4.6157e-05,25.182,4.2807e-05,0.01286,-0.00013307,-1321.4,1.8597
16025,17.945,3.0909,0.05,7.5663e-07,7.5611,5.81e-07,4.3654,1.3407e-12,1.0791e-05,-5.81e-07,-4.3654,1.8597
16026,18.22,3.0909,0,0.00012719,1271,4.424e-05,27.231,4.0617e-05,0.013528,-0.0001267,-1257.2,1.9038
16027,18.129,3,0,0.00012929,1292,4.4872e-05,26.507,4.1346e-05,0.013319,-0.00012881,-1278.5,1.8891
16028,18.129,3.0909,0.05,7.5379e-07,7.5327,5.7882e-07,4.349,8.8365e-13,8.1503e-06,-5.7882e-07,-4.349,1.8891
16029,18.404,3.0909,0,0.000123,1229.2,4.2979e-05,28.691,3.9162e-05,0.014021,-0.00012249,-1214.6,1.9334
16030,18.312,3,0,0.00012509,1250,4.3603e-05,27.92,3.9889e-05,0.013791,-0.00012459,-1235.8,1.9186
16031,18.312,3.0909,0.05,7.5102e-07,7.505,5.7669e-07,4.333,8.8219e-13,8.378e-06,-5.7669e-07,-4.333,1.9186
16032,18.587,3.0909,0,0.00011884,1187.6,4.1735e-05,30.253,3.7711e-05,0.01456,-0.0001183,-1172.2,1.963
16033,18.496,3,0,0.00012091,1208.3,4.235e-05,29.428,3.8436e-05,0.014308,-0.00012038,-1193.3,1.9482
16034,18.496,3.0909,0.05,7.483e-07,7.4779,5.746e-07,4.3174,4.2542e-13,7.1707e-06,-5.746e-07,-4.3174,1.9481
16035,18.771,3.0909,0,0.00011471,1146.3,4.0509e-05,31.926,3.6262e-05,0.015143,-0.00011413,-1130,1.9926
16036,18.679,3,0,0.00011676,1166.8,4.1115e-05,31.043,3.6986e-05,0.014869,-0.00011621,-1151,1.9778
16037,18.679,3.0909,0.05,7.4567e-07,7.4515,5.7258e-07,4.3021,8.7864e-13,1.002e-05,-5.7258e-07,-4.3021,1.9778
16038,18.954,3.0909,0,0.0001106,1105.3,3.9303e-05,33.719,3.4817e-05,0.015768,-0.00010999,-1088,2.0224
16039,18.863,3,0,0.00011265,1125.7,3.9899e-05,32.773,3.5539e-05,0.015477,-0.00011205,-1108.9,2.0075
16040,18.863,3.0909,0.05,7.4311e-07,7.426,5.7062e-07,4.2874,4.2336e-13,9.0627e-06,-5.7062e-07,-4.2874,2.0075
16041,19.138,3.0909,0,0.00010653,1064.5,3.8116e-05,35.645,3.3374e-05,0.016438,-0.00010587,-1046.2,2.0522
16042,19.046,3,0,0.00010855,1084.8,3.8702e-05,34.63,3.4095e-05,0.01612,-0.00010792,-1067.1,2.0373
16043,19.046,3.0909,0.05,7.4065e-07,7.4014,5.6873e-07,4.2732,-3.2142e-14,8.8175e-06,-5.6873e-07,-4.2732,2.0373
16044,19.321,3.0909,0,0.00010248,1024.1,3.6951e-05,37.716,3.1934e-05,0.017164,-0.00010178,-1004.7,2.0821
16045,19.229,3,0,0.00010449,1044.2,3.7526e-05,36.625,3.2654e-05,0.016817,-0.00010382,-1025.4,2.0672
16046,19.229,3.0909,0.05,7.3828e-07,7.3777,5.6691e-07,4.2595,1.3298e-12,6.4162e-06,-5.6691e-07,-4.2595,2.0672
16047,19.505,3.0909,0,9.8462e-05,983.94,3.5809e-05,39.944,3.0495e-05,0.017948,-9.7721e-05,-963.35,2.1121
16048,19.413,3,0,0.00010046,1003.9,3.6372e-05,38.771,3.1214e-05,0.017576,-9.9744e-05,-983.95,2.0971
16049,19.413,3.0909,0.05,7.3602e-07,7.3551,5.6517e-07,4.2465,1.7816e-12,1.0209e-05,-5.6517e-07,-4.2465,2.0971
16050,19.688,3.0909,0,9.4477e-05,944.12,3.4691e-05,42.342,2.9058e-05,0.018803,-9.3685e-05,-922.23,2.1421
16051,19.596,3,0,9.6459e-05,963.93,3.5242e-05,41.081,2.9776e-05,0.018387,-9.5694e-05,-942.72,2.1271
16052,19.596,3.0909,0.05,7.3387e-07,7.3336,5.6352e-07,4.2341,8.6943e-13,9.2354e-06,-5.6352e-07,-4.2341,2.1271
16053,19.872,3.0909,0,9.0525e-05,904.63,3.3599e-05,44.926,2.7622e-05,0.019741,-8.9677e-05,-881.32,2.1722
16054,19.78,3,0,9.249e-05,924.27,3.4136e-05,43.569,2.834e-05,0.019287,-9.1672e-05,-901.7,2.1572
16055,19.78,3.0909,0.05,7.3185e-07,7.3135,5.6197e-07,4.2224,4.1265e-13,1.0173e-05,-5.6197e-07,-4.2224,2.1572
16056,20.055,3.0909,0,8.6607e-05,865.47,3.2533e-05,47.711,2.6186e-05,0.020761,-8.5696e-05,-840.62,2.2024
16057,19.963,3,0,8.8555e-05,884.94,3.3057e-05,46.249,2.6904e-05,0.020267,-8.7677e-05,-860.9,2.1873
16058,19.963,3.0909,0.05,7.2998e-07,7.2948,5.6054e-07,4.2117,8.6503e-13,1.0633e-05,-5.6054e-07,-4.2117,2.1873
16059,20.239,3.0909,0,8.2724e-05,826.67,3.1497e-05,50.712,2.475e-05,0.02188,-8.1744e-05,-800.13,2.2326
16060,20.147,3,0,8.4654e-05,845.96,3.2005e-05,49.138,2.5468e-05,0.021332,-8.3711e-05,-820.31,2.2175
16061,20.147,3.0909,0.05,7.2827e-07,7.2777,5.5922e-07,4.2018,8.6429e-13,1.0627e-05,-5.5922e-07,-4.2018,2.2175
16062,20.422,3.0909,0,7.8877e-05,788.23,3.049e-05,53.948,2.3313e-05,0.023118,-7.7821e-05,-759.86,2.2629
16063,20.33,3,0,8.0789e-05,807.33,3.0983e-05,52.252,2.4032e-05,0.022508,-7.9773e-05,-779.93,2.2477
16064,20.33,3.0909,0.05,7.2674e-07,7.2624,5.5805e-07,4.193,1.3168e-12,1.0133e-05,-5.5805e-07,-4.1929,2.2477
16065,20.606,3.0909,0,7.5069e-05,750.17,2.9516e-05,57.435,2.1875e-05,0.024492,-7.3927e-05,-719.79,2.2932
16066,20.514,3,0,7.6961e-05,769.08,2.9993e-05,55.609,2.2595e-05,0.023812,-7.5864e-05,-739.76,2.278
16067,20.514,3.0909,0.05,7.2541e-07,7.2491,5.5703e-07,4.1853,4.0418e-13,6.2962e-06,-5.5703e-07,-4.1853,2.278
16068,20.789,3.0909,0,7.1301e-05,712.52,2.8576e-05,61.194,2.0435e-05,0.026017,-7.0062e-05,-679.93,2.3236
16069,20.697,3,0,7.3173e-05,731.22,2.9035e-05,59.228,2.1156e-05,0.025264,-7.1985e-05,-699.8,2.3084
16070,20.697,3.0909,0.05,7.2431e-07,7.2381,5.5618e-07,4.1789,8.5938e-13,4.8687e-06,-5.5618e-07,-4.1789,2.3084
16071,20.973,3.0909,0,6.7574e-05,675.28,2.7672e-05,65.243,1.8992e-05,0.027722,-6.6227e-05,-640.28,2.354
16072,20.881,3,0,6.9425e-05,693.77,2.8113e-05,63.127,1.9714e-05,0.026874,-6.8135e-05,-660.04,2.3388
16073,20.881,3.0909,0.05,7.2347e-07,7.2297,5.5553e-07,4.174,6.3175e-13,6.2969e-06,-5.5553e-07,-4.174,2.3388
16074,21.156,3.0909,0,6.3892e-05,638.48,2.6805e-05,69.602,1.7545e-05,0.029649,-6.2422e-05,-600.81,2.3845
16075,21.064,3,0,6.572e-05,656.75,2.7226e-05,67.327,1.827e-05,0.028685,-6.4315e-05,-620.48,2.3692
16076,21.064,3.0909,0.05,7.2291e-07,7.2241,5.551e-07,4.1708,6.2976e-13,8.1897e-06,-5.551e-07,-4.1708,2.3692
16077,21.34,3.0909,0,6.0256e-05,602.14,2.5977e-05,74.293,1.6093e-05,0.031833,-5.8647e-05,-561.54,2.415
16078,21.248,3,0,6.2061e-05,620.18,2.6379e-05,71.848,1.682e-05,0.030737,-6.0525e-05,-581.11,2.3997
16079,21.248,3.0909,0.05,7.2267e-07,7.2217,5.5492e-07,4.1695,4.0485e-13,9.1622e-06,-5.5492e-07,-4.1694,2.3997
16080,21.523,3.0909,0,5.6669e-05,566.3,2.519e-05,79.335,1.4636e-05,0.034332,-5.4901e-05,-522.44,2.4455
16081,21.431,3,0,5.8449e-05,584.09,2.5571e-05,76.709,1.5366e-05,0.033065,-5.6765e-05,-541.93,2.4302
16082,21.431,3.0909,0.05,7.2279e-07,7.223,5.5502e-07,4.1702,4.0636e-13,7.2657e-06,-5.5502e-07,-4.1702,2.4302
16083,21.706,3.0909,0,5.3136e-05,530.99,2.4446e-05,84.749,1.3172e-05,0.037235,-5.1184e-05,-483.5,2.4761
16084,21.615,3,0,5.4889e-05,548.51,2.4806e-05,81.933,1.3906e-05,0.035759,-5.3033e-05,-502.92,2.4608
16085,21.615,3.0909,0.05,7.2333e-07,7.2283,5.5543e-07,4.1733,4.1433e-13,5.4182e-06,-5.5543e-07,-4.1733,2.4608
16086,21.89,3.0909,0,4.9659e-05,496.25,2.3746e-05,90.554,1.17e-05,0.040637,-4.7494e-05,-444.72,2.5067
16087,21.798,3,0,5.1383e-05,513.47,2.4083e-05,87.539,1.2438e-05,0.038897,-4.933e-05,-464.06,2.4914
16088,21.798,3.0909,0.05,7.2432e-07,7.2382,5.5619e-07,4.179,8.684e-13,8.2744e-06,-5.5619e-07,-4.179,2.4914
16089,22.073,3.0909,0,4.6244e-05,462.12,2.3091e-05,96.769,1.0218e-05,0.044687,-4.3831e-05,-406.06,2.5374
16090,21.982,3,0,4.7937e-05,479.04,2.3406e-05,93.545,1.0961e-05,0.042598,-4.5655e-05,-425.35,2.5221
16091,21.982,3.0909,0.05,7.2582e-07,7.2532,5.5734e-07,4.1876,4.1405e-13,1.601e-06,-5.5734e-07,-4.1876,2.522
16092,22.257,3.0909,0,4.2899e-05,428.69,2.2483e-05,103.41,8.7263e-06,0.049605,-4.0193e-05,-367.51,2.5681
16093,22.165,3,0,4.4556e-05,445.25,2.2774e-05,99.971,9.475e-06,0.047052,-4.2005e-05,-386.75,2.5527
16094,22.165,3.0909,0.05,7.2788e-07,7.2738,5.5892e-07,4.1995,6.4071e-13,6.3639e-06,-5.5892e-07,-4.1995,2.5527
16095,22.44,3.0909,0,3.9631e-05,396.03,2.1921e-05,110.49,7.2225e-06,0.055721,-3.6577e-05,-329.04,2.5988
16096,22.349,3,0,4.1248e-05,412.2,2.2189e-05,106.83,7.9776e-06,0.052511,-3.8378e-05,-348.25,2.5834
16097,22.349,3.0909,0.05,7.3055e-07,7.3005,5.6097e-07,4.2149,1.8935e-13,8.2977e-06,-5.6097e-07,-4.2149,2.5834
16098,22.624,3.0909,0,3.6453e-05,364.27,2.1406e-05,118.03,5.7056e-06,0.063463,-3.2981e-05,-290.61,2.6295
16099,22.532,3,0,3.8024e-05,379.97,2.165e-05,114.14,6.4676e-06,0.059402,-3.4773e-05,-309.81,2.6141
16100,22.532,3.0909,0.05,7.339e-07,7.3339,5.6354e-07,4.2342,6.5379e-13,1.1231e-05,-5.6354e-07,-4.2342,2.6141
16101,22.807,3.0909,0,3.3381e-05,333.58,2.0937e-05,126.02,4.174e-06,0.073866,-2.9401e-05,-252.2,2.6603
16102,22.716,3,0,3.4897e-05,348.73,2.1159e-05,121.9,4.9436e-06,0.068188,-3.1186e-05,-271.4,2.6449
16103,22.716,3.0909,0.05,7.3795e-07,7.3744,5.6665e-07,4.2576,-2.1369e-14,5.562e-06,-5.6665e-07,-4.2576,2.6449
16104,22.991,3.0909,0,3.0439e-05,304.18,2.0513e-05,134.48,2.6264e-06,0.087386,-2.5834e-05,-213.75,2.691
16105,22.899,3,0,3.1887e-05,318.65,2.0713e-05,130.13,3.4044e-06,0.080537,-2.7614e-05,-232.98,2.6756
16106,22.899,3.0909,0.05,7.4274e-07,7.4223,5.7034e-07,4.2853,2.0565e-13,1.3188e-05,-5.7033e-07,-4.2853,2.6756
16107,23.174,3.0909,0,2.7661e-05,276.42,2.0134e-05,143.41,1.0621e-06,0.11029,-2.2275e-05,-175.24,2.7218
16108,23.083,3,0,2.9023e-05,290.02,2.0312e-05,138.82,1.8486e-06,0.095844,-2.4052e-05,-194.51,2.7064
16109,23.083,3.0909,0.05,7.483e-07,7.4778,5.746e-07,4.3173,4.469e-13,1.1386e-05,-5.746e-07,-4.3173,2.7064
16110,23.358,3.0909,0,2.5094e-05,250.76,1.9797e-05,152.79,-5.2089e-07,0.13363,-1.8721e-05,-136.62,2.7526
16111,23.266,3,0,2.6343e-05,263.25,1.9954e-05,147.98,2.7594e-07,0.12766,-2.0497e-05,-155.95,2.7372
16112,23.266,3.0909,0.05,7.5461e-07,7.5409,5.7945e-07,4.3537,2.3264e-13,3.8542e-06,-5.7945e-07,-4.3537,2.7372
16113,23.541,3.0909,0,2.2804e-05,227.88,1.95e-05,162.65,-2.1171e-06,0.23063,-1.517e-05,-97.845,2.7834
16114,23.45,3,0,2.3905e-05,238.88,1.9638e-05,157.59,-1.3169e-06,0.14581,-1.6945e-05,-117.27,2.768
16115,23.45,3.0909,0.05,7.6163e-07,7.611,5.8484e-07,4.3942,2.457e-13,7.7672e-06,-5.8484e-07,-4.3942,2.768
16116,23.725,3.0909,0,2.0879e-05,208.64,1.924e-05,172.89,-3.7392e-06,0.23061,-1.1616e-05,-58.956,2.8143
16117,23.633,3,0,2.1786e-05,217.71,1.9361e-05,167.7,-2.9149e-06,0.3326,-1.3397e-05,-78.426,2.7989
16118,23.633,3.0909,0.05,7.6932e-07,7.6879,5.9074e-07,4.4386,2.2997e-14,7.8024e-06,-5.9074e-07,-4.4386,2.7988
16119,23.817,3,0,2.0085e-05,200.71,1.9118e-05,178.06,-4.5518e-06,0.21584,-9.8465e-06,-39.566,2.8297
16120,23.817,3.0909,0.05,7.7849e-07,7.7795,5.9779e-07,4.4915,2.4441e-13,5.85e-06,-5.9779e-07,-4.4915,2.8297
16121,23.908,3.0909,0,1.9506e-05,194.92,1.9035e-05,183.02,-5.2652e-06,0.43766,-8.2853e-06,-22.255,2.8451
16122,3.5419,2.9091,0,0.0011368,11360,0.00040707,383.97,0.00035592,-0.36078,-0.0011297,-11163,0.089426
16123,3.4501,2.8182,0,0.0012026,12017,0.00044128,533.82,0.00036991,-2.4716,-0.0011926,-11743,0.083997
16124,3.4501,2.9091,0.05,1.1136e-05,111.28,8.5511e-06,64.25,9.8296e-12,-5.7506e-05,-8.5512e-06,-64.25,0.084047
16125,3.7254,2.9091,0,0.0010265,10258,0.00034819,113.27,0.00033317,0.46831,-0.0010246,-10201,0.10063
16126,3.6336,2.8182,0,0.0010887,10879,0.00038015,250.72,0.00034674,-0.25447,-0.0010842,-10752,0.094844
16127,3.6336,2.9091,0.05,1.4387e-05,143.77,1.1048e-05,83.008,9.8581e-12,-1.2627e-05,-1.1048e-05,-83.008,0.09488
16128,3.9088,2.9091,0,0.0009147,9140.7,0.00030894,1.4358,0.00028994,-141.34,-0.00091699,-9209.8,0.11252
16129,3.8171,2.8182,0,0.00096631,9656.5,0.00032098,2.4587,0.00031557,-38.174,-0.00096692,-9674.3,0.10642
16130,3.8171,2.9091,0.05,1.4976e-05,149.66,1.15e-05,86.406,1.1214e-11,1.216e-05,-1.15e-05,-86.406,0.10644
16131,4.0923,2.9091,0,0.00081567,8151.1,0.0002857,1.5139,0.00024097,-334.62,-0.00082082,-8312.5,0.12503
16132,4.0006,2.8182,0,0.00085648,8558.9,0.00029574,1.6903,0.00026043,-263.57,-0.00086063,-8686.8,0.11864
16133,4.0006,2.9091,0.05,1.384e-05,138.3,1.0627e-05,79.848,9.1916e-12,8.0255e-06,-1.0627e-05,-79.848,0.11865
16134,4.2758,2.9091,0,0.00073409,7335.9,0.00026482,1.3356,0.00020333,-460.69,-0.00074081,-7554.6,0.1381
16135,4.1841,2.8182,0,0.0007659,7653.8,0.00027318,1.484,0.00021765,-415.76,-0.0007721,-7852.4,0.13145
16136,4.1841,2.9091,0.05,1.2e-05,119.91,9.2142e-06,69.232,9.2507e-12,5.9006e-06,-9.2142e-06,-69.232,0.13144
16137,4.4593,2.9091,0,0.00066914,6686.8,0.00024669,1.0554,0.00017586,-531.17,-0.00067657,-6936,0.15165
16138,4.3676,2.8182,0,0.00069396,6934.8,0.00025367,1.1961,0.00018627,-505.25,-0.00070114,-7172.9,0.14477
16139,4.3676,2.9091,0.05,1.0076e-05,100.69,7.7369e-06,58.132,3.8793e-12,-3.2442e-06,-7.7369e-06,-58.132,0.14476
16140,4.6428,2.9091,0,0.00061812,6176.9,0.00023122,0.79198,0.0001564,-561.36,-0.00062573,-6438,0.16567
16141,4.551,2.8182,0,0.0006376,6371.6,0.00023708,0.90435,0.00016392,-548.76,-0.00064514,-6627.7,0.15857
16142,4.551,2.9091,0.05,8.3436e-06,83.378,6.4068e-06,48.138,3.4157e-12,-2.977e-06,-6.4068e-06,-48.139,0.15856
16143,4.8263,2.9091,0,0.00057811,5777.1,0.0002181,0.57748,0.0001429,-564.45,-0.00058562,-6038.3,0.1801
16144,4.7345,2.8182,0,0.00059355,5931.4,0.00022305,0.66571,0.00014831,-560.95,-0.00060108,-6191.5,0.1728
16145,4.7345,2.9091,0.05,6.8856e-06,68.809,5.2873e-06,39.727,1.8666e-12,-8.3347e-06,-5.2873e-06,-39.727,0.17279
16146,5.0097,2.9091,0,0.00054659,5462.1,0.00020698,0.41489,0.00013369,-550.26,-0.00055385,-5716.2,0.19493
16147,4.918,2.8182,0,0.00055895,5585.7,0.0002112,0.48244,0.00013756,-552.84,-0.00056629,-5841.3,0.18744
16148,4.918,2.9091,0.05,5.6975e-06,56.936,4.375e-06,32.872,6.9168e-13,-1.1261e-05,-4.375e-06,-32.872,0.18742
16149,5.1932,2.9091,0,0.00052155,5211.9,0.00019752,0.2957,0.00012752,-525.66,-0.00052849,-5454.6,0.21013
16150,5.1015,2.8182,0,0.00053157,5312.1,0.00020115,0.34666,0.00013027,-532.16,-0.00053861,-5557.9,0.20246
16151,5.1015,2.9091,0.05,4.7443e-06,47.41,3.643e-06,27.372,-2.124e-12,-5.2071e-06,-3.643e-06,-27.372,0.20244
16152,5.3767,2.9091,0,0.00050144,5010.9,0.00018942,0.20968,0.00012347,-495.25,-0.00050802,-5240,0.22569
16153,5.285,2.8182,0,0.00050968,5093.2,0.00019257,0.2478,0.00012543,-504.18,-0.00051637,-5326.4,0.21784
16154,5.285,2.9091,0.05,3.9847e-06,39.82,3.0598e-06,22.99,4.931e-13,-7.1699e-06,-3.0598e-06,-22.99,0.21782
16155,5.5602,2.9091,0,0.00048508,4847.4,0.00018243,0.148,0.00012091,-462.09,-0.00049128,-5061.8,0.24159
16156,5.4684,2.8182,0,0.00049194,4916,0.00018519,0.17639,0.0001223,-472.41,-0.00049827,-5135.1,0.23357
16157,5.4684,2.9091,0.05,3.381e-06,33.787,2.5962e-06,19.507,1.2774e-12,-8.4521e-06,-2.5962e-06,-19.507,0.23356
16158,5.7437,2.9091,0,0.00047156,4712.3,0.00017635,0.10389,0.00011935,-428.16,-0.00047738,-4911.8,0.25782
16159,5.6519,2.8182,0,0.00047738,4770.5,0.0001788,0.12497,0.00012033,-439.14,-0.00048332,-4974.8,0.24964
16160,5.6519,2.9091,0.05,2.9013e-06,28.993,2.2279e-06,16.739,1.3285e-13,-3.463e-06,-2.2279e-06,-16.739,0.24962
16161,5.9271,2.9091,0,0.00046021,4598.9,0.00017101,0.072375,0.00011846,-394.72,-0.00046565,-4783.5,0.27437
16162,5.8354,2.8182,0,0.00046522,4649,0.00017319,0.088011,0.00011916,-405.88,-0.00047079,-4838.6,0.26603
16163,5.8354,2.9091,0.05,2.5198e-06,25.18,1.9349e-06,14.538,7.3928e-13,-6.3355e-06,-1.9349e-06,-14.538,0.26602
16164,6.1106,2.9091,0,0.0004505,4501.9,0.00016627,0.049871,0.00011801,-362.54,-0.00045557,-4672.2,0.29124
16165,6.0189,2.8182,0,0.00045489,4545.8,0.00016824,0.061457,0.00011852,-373.56,-0.00046009,-4721,0.28274
16166,6.0189,2.9091,0.05,2.2158e-06,22.142,1.7014e-06,12.784,3.4352e-13,1.3649e-06,-1.7014e-06,-12.784,0.28273
16167,6.2941,2.9091,0,0.00044204,4417.4,0.00016202,0.033833,0.00011782,-332.08,-0.00044676,-4574,0.30841
16168,6.2024,2.8182,0,0.00044596,4456.5,0.00016382,0.042409,0.0001182,-342.74,-0.0004508,-4618,0.29976
16169,6.2024,2.9091,0.05,1.9731e-06,19.717,1.5151e-06,11.384,-1.2541e-13,6.9285e-07,-1.5151e-06,-11.384,0.29975
16170,6.4776,2.9091,0,0.00043453,4342.3,0.00015817,0.022444,0.00011777,-303.57,-0.0004389,-4486.1,0.32588
16171,6.3858,2.8182,0,0.00043808,4377.8,0.00015983,0.028782,0.00011807,-313.73,-0.00044257,-4526.2,0.31708
16172,6.3858,2.9091,0.05,1.7789e-06,17.777,1.366e-06,10.263,1.1684e-12,-2.6029e-07,-1.366e-06,-10.263,0.31707
16173,6.6611,2.9091,0,0.00042773,4274.3,0.00015465,0.014408,0.00011777,-277.09,-0.00043176,-4406.1,0.34365
16174,6.5693,2.8182,0,0.000431,4307,0.0001562,0.019081,0.00011804,-286.7,-0.00043516,-4443.2,0.3347
16175,6.5693,2.9091,0.05,1.6232e-06,16.221,1.2464e-06,9.365,1.4599e-12,5.6811e-06,-1.2464e-06,-9.3651,0.33469
16176,6.8445,2.9091,0,0.00042146,4211.6,0.00015141,0.0087962,0.00011778,-252.66,-0.00042518,-4332.3,0.36171
16177,6.7528,2.8182,0,0.00042452,4242.3,0.00015285,0.012227,0.00011803,-261.66,-0.00042837,-4367.1,0.35262
16178,6.7528,2.9091,0.05,1.498e-06,14.969,1.1502e-06,8.6425,7.8921e-13,-2.7155e-08,-1.1503e-06,-8.6425,0.35261
16179,7.028,2.9091,0,0.00041558,4153,0.00014839,0.0049371,0.00011775,-230.2,-0.00041902,-4263.3,0.38006
16180,6.9363,2.8182,0,0.00041849,4182,0.00014975,0.0074432,0.000118,-238.59,-0.00042204,-4296.2,0.37082
16181,6.9363,2.9091,0.05,1.3969e-06,13.96,1.0727e-06,8.0597,1.8901e-12,1.4325e-06,-1.0727e-06,-8.0597,0.37081
16182,7.2115,2.9091,0,0.00041001,4097.3,0.00014555,0.0023454,0.00011765,-209.62,-0.00041317,-4198,0.39869
16183,7.1198,2.8182,0,0.0004128,4125.1,0.00014685,0.0041613,0.00011792,-217.41,-0.00041607,-4229.5,0.38931
16184,7.1198,2.9091,0.05,1.3152e-06,13.143,1.0099e-06,7.5879,1.1453e-12,2.5441e-06,-1.0099e-06,-7.588,0.3893
16185,7.395,2.9091,0,0.00040465,4043.7,0.00014287,0.00066783,0.00011748,-190.79,-0.00040756,-4135.7,0.41759
16186,7.3032,2.8182,0,0.00040735,4070.7,0.00014411,0.0019693,0.00011776,-198,-0.00041036,-4166.1,0.40807
16187,7.3032,2.9091,0.05,1.2487e-06,12.479,9.5886e-07,7.2045,1.2665e-12,3.4784e-06,-9.5887e-07,-7.2046,0.40807
16188,7.5785,2.9091,0,0.00039945,3991.7,0.00014032,-0.00035342,0.00011722,-173.6,-0.00040212,-4075.7,0.43677
16189,7.4867,2.8182,0,0.00040208,4018,0.00014152,0.00056468,0.00011752,-180.26,-0.00040484,-4105.1,0.42712
16190,7.4867,2.9091,0.05,1.1945e-06,11.936,9.1721e-07,6.8915,4.6031e-13,4.2536e-06,-9.172e-07,-6.8915,0.42711
16191,7.7619,2.9091,0,0.00039436,3940.9,0.00013788,-0.0009068,0.00011686,-157.92,-0.00039681,-4017.5,0.45622
16192,7.6702,2.8182,0,0.00039694,3966.7,0.00013903,-0.00027341,0.0001172,-164.05,-0.00039948,-4046.2,0.44643
16193,7.6702,2.9091,0.05,1.1499e-06,11.491,8.8301e-07,6.6346,1.4446e-12,2.921e-06,-8.8302e-07,-6.6346,0.44643
16194,7.9454,2.9091,0,0.00038935,3890.8,0.00013553,-0.0011298,0.00011642,-143.61,-0.00039159,-3960.6,0.47594
16195,7.8537,2.8182,0,0.0003919,3916.3,0.00013665,-0.0007079,0.00011678,-149.26,-0.00039423,-3988.8,0.46602
16196,7.8537,2.9091,0.05,1.1132e-06,11.124,8.5478e-07,6.4225,2.4161e-12,3.3875e-06,-8.5478e-07,-6.4225,0.46601
16197,8.1289,2.9091,0,0.00038439,3841.3,0.00013326,-0.0011229,0.00011589,-130.56,-0.00038645,-3904.9,0.49592
16198,8.0372,2.8182,0,0.00038692,3866.5,0.00013435,-0.00085722,0.00011628,-135.75,-0.00038905,-3932.6,0.48587
16199,8.0372,2.9091,0.05,1.0826e-06,10.819,8.3131e-07,6.2461,-2.6037e-13,-4.3537e-08,-8.3131e-07,-6.2461,0.48587
16200,8.3124,2.9091,0,0.00037948,3792.1,0.00013106,-0.00095999,0.00011527,-118.65,-0.00038136,-3850.1,0.51617
16201,8.2206,2.8182,0,0.00038198,3817.2,0.00013212,-0.00080837,0.00011569,-123.43,-0.00038393,-3877.4,0.50598
16202,8.2206,2.9091,0.05,1.057e-06,10.563,8.1165e-07,6.0984,6.8926e-13,2.1661e-06,-8.1165e-07,-6.0984,0.50598
16203,8.4959,2.9091,0,0.00037458,3743.2,0.00012891,-0.00069399,0.00011457,-107.79,-0.0003763,-3796,0.53666
16204,8.4041,2.8182,0,0.00037707,3768.1,0.00012995,-0.00062622,0.00011502,-112.18,-0.00037886,-3823,0.52635
16205,8.4041,2.9091,0.05,1.0354e-06,10.347,7.9505e-07,5.9736,-1.8709e-13,1.4459e-06,-7.9505e-07,-5.9737,0.52635
16206,8.6794,2.9091,0,0.0003697,3694.4,0.00012682,-0.00036287,0.00011379,-97.871,-0.00037127,-3742.4,0.55742
16207,8.5876,2.8182,0,0.00037218,3719.3,0.00012783,-0.00035525,0.00011427,-101.91,-0.00037381,-3769.2,0.54698
16208,8.5876,2.9091,0.05,1.017e-06,10.163,7.8089e-07,5.8673,1.6578e-12,1.6515e-06,-7.809e-07,-5.8673,0.54698
16209,8.8628,2.9091,0,0.00036482,3645.7,0.00012476,6.011e-06,0.00011294,-88.808,-0.00036625,-3689.3,0.57842
16210,8.7711,2.8182,0,0.0003673,3670.5,0.00012576,-2.9954e-05,0.00011345,-92.52,-0.00036879,-3715.9,0.56786
16211,8.7711,2.9091,0.05,1.0011e-06,10.004,7.6871e-07,5.7758,1.6807e-12,1.8207e-06,-7.6871e-07,-5.7758,0.56785
16212,9.0463,2.9091,0,0.00035995,3597,0.00012275,0.00039297,0.00011203,-80.522,-0.00036126,-3636.6,0.59967
16213,8.9546,2.8182,0,0.00036243,3621.8,0.00012374,0.00032698,0.00011256,-83.936,-0.00036378,-3663,0.58898
16214,8.9546,2.9091,0.05,9.873e-07,9.8662,7.5812e-07,5.6962,7.9029e-13,2.9177e-06,-7.5812e-07,-5.6963,0.58898
16215,9.2298,2.9091,0,0.00035508,3548.4,0.00012077,0.00078472,0.00011106,-72.941,-0.00035627,-3584.3,0.62116
16216,9.1381,2.8182,0,0.00035755,3573.1,0.00012174,0.00069775,0.00011162,-76.081,-0.00035879,-3610.5,0.61036
16217,9.1381,2.9091,0.05,9.7519e-07,9.7451,7.4882e-07,5.6263,8.0632e-13,3.0388e-06,-7.4882e-07,-5.6264,0.61035
16218,9.4133,2.9091,0,0.00035021,3499.7,0.00011882,0.0011722,0.00011004,-65.999,-0.00035129,-3532.2,0.64289
16219,9.3215,2.8182,0,0.00035268,3524.4,0.00011978,0.0010718,0.00011061,-68.888,-0.0003538,-3558.3,0.63197
16220,9.3215,2.9091,0.05,9.6443e-07,9.6377,7.4056e-07,5.5643,8.1986e-13,1.2329e-06,-7.4057e-07,-5.5643,0.63197
16221,9.5968,2.9091,0,0.00034533,3451,0.0001169,0.0015508,0.00010896,-59.638,-0.00034631,-3480.4,0.66486
16222,9.505,2.8182,0,0.0003478,3475.6,0.00011785,0.0014401,0.00010956,-62.297,-0.00034882,-3506.4,0.65382
16223,9.505,2.9091,0.05,9.5479e-07,9.5413,7.3316e-07,5.5087,-7.8673e-14,8.3978e-07,-7.3316e-07,-5.5087,0.65382
16224,9.7802,2.9091,0,0.00034046,3402.2,0.00011501,0.0019137,0.00010784,-53.803,-0.00034134,-3428.8,0.68706
16225,9.6885,2.8182,0,0.00034293,3426.9,0.00011594,0.0018015,0.00010845,-56.253,-0.00034385,-3454.7,0.67591
16226,9.6885,2.9091,0.05,9.4605e-07,9.454,7.2645e-07,5.4583,8.3996e-13,1.3865e-06,-7.2645e-07,-5.4583,0.6759
16227,9.9637,2.9091,0,0.00033558,3353.5,0.00011313,0.0022642,0.00010668,-48.448,-0.00033638,-3377.4,0.70949
16228,9.872,2.8182,0,0.00033805,3378.1,0.00011406,0.0021428,0.00010731,-50.705,-0.00033888,-3403.2,0.69822
16229,9.872,2.9091,0.05,9.3806e-07,9.3742,7.2031e-07,5.4122,-6.1298e-14,1.9256e-06,-7.2032e-07,-5.4122,0.69822
16230,10.147,2.9091,0,0.0003307,3304.7,0.00011128,0.0026029,0.00010549,-43.529,-0.00033142,-3326.3,0.73215
16231,10.055,2.8182,0,0.00033316,3329.3,0.0001122,0.002483,0.00010613,-45.61,-0.00033392,-3351.9,0.72077
16232,10.055,2.9091,0.05,9.3069e-07,9.3005,7.1465e-07,5.3696,-5.4087e-14,1.5e-06,-7.1465e-07,-5.3696,0.72077
16233,10.331,2.9091,0,0.00032582,3256,0.00010945,0.0029079,0.00010426,-39.007,-0.00032647,-3275.3,0.75503
16234,10.239,2.8182,0,0.00032828,3280.6,0.00011035,0.0028043,0.00010491,-40.926,-0.00032896,-3300.8,0.74354
16235,10.239,2.9091,0.05,9.2383e-07,9.2319,7.0939e-07,5.3301,-4.7887e-14,2.0244e-06,-7.0939e-07,-5.3301,0.74354
16236,10.514,2.9091,0,0.00032094,3207.2,0.00010763,0.0031894,0.00010299,-34.847,-0.00032152,-3224.5,0.77813
16237,10.422,2.8182,0,0.0003234,3231.8,0.00010853,0.0030792,0.00010366,-36.618,-0.00032401,-3249.9,0.76653
16238,10.422,2.9091,0.05,9.174e-07,9.1677,7.0445e-07,5.2929,8.6744e-13,3.4988e-06,-7.0445e-07,-5.2929,0.76653
16239,10.698,2.9091,0,0.00031606,3158.5,0.00010583,0.0034719,0.00010171,-31.016,-0.00031658,-3173.9,0.80145
16240,10.606,2.8182,0,0.00031852,3183,0.00010673,0.0033561,0.00010238,-32.652,-0.00031906,-3199.2,0.78974
16241,10.606,2.9091,0.05,9.1132e-07,9.1069,6.9978e-07,5.2579,-3.7232e-14,2.5813e-06,-6.9978e-07,-5.2579,0.78974
16242,10.881,2.9091,0,0.00031119,3109.8,0.00010405,0.0037588,0.00010039,-27.486,-0.00031165,-3123.4,0.82498
16243,10.789,2.8182,0,0.00031364,3134.3,0.00010494,0.0036347,0.00010108,-28.999,-0.00031413,-3148.7,0.81317
16244,10.789,2.9091,0.05,9.0555e-07,9.0492,6.9535e-07,5.2246,-3.2771e-14,2.3764e-06,-6.9535e-07,-5.2246,0.81316
16245,11.065,2.9091,0,0.00030632,3061.1,0.00010228,0.0040204,9.9058e-05,-24.231,-0.00030673,-3073.1,0.84872
16246,10.973,2.8182,0,0.00030877,3085.6,0.00010316,0.0039219,9.975e-05,-25.63,-0.0003092,-3098.3,0.8368
16247,10.973,2.9091,0.05,9.0004e-07,8.9942,6.9112e-07,5.1928,8.8056e-13,1.6901e-06,-6.9112e-07,-5.1928,0.8368
16248,11.248,2.9091,0,0.00030146,3012.5,0.00010053,0.0042468,9.7705e-05,-21.227,-0.00030181,-3023,0.87267
16249,11.156,2.8182,0,0.0003039,3036.9,0.0001014,0.0041521,9.8403e-05,-22.521,-0.00030428,-3048.1,0.86065
16250,11.156,2.9091,0.05,8.9477e-07,8.9415,6.8707e-07,5.1624,8.8389e-13,2.6689e-06,-6.8707e-07,-5.1624,0.86064
16251,11.432,2.9091,0,0.0002966,2963.9,9.879e-05,0.0044861,9.6334e-05,-18.452,-0.00029691,-2973.1,0.89682
16252,11.34,2.8182,0,0.00029904,2988.3,9.9655e-05,0.00437,9.7039e-05,-19.651,-0.00029937,-2998.1,0.8847
16253,11.34,2.9091,0.05,8.8968e-07,8.8907,6.8316e-07,5.133,8.8719e-13,2.9316e-06,-6.8317e-07,-5.133,0.88469
16254,11.615,2.9091,0,0.00029175,2915.4,9.7062e-05,0.0047205,9.4947e-05,-15.886,-0.00029201,-2923.3,0.92117
16255,11.523,2.8182,0,0.00029418,2939.8,9.7921e-05,0.0046277,9.5658e-05,-16.998,-0.00029447,-2948.2,0.90895
16256,11.523,2.9091,0.05,8.8477e-07,8.8416,6.7939e-07,5.1047,1.7995e-12,2.595e-06,-6.7939e-07,-5.1047,0.90894
16257,11.799,2.9091,0,0.0002869,2867,9.5347e-05,0.0049299,9.3548e-05,-13.511,-0.00028713,-2873.8,0.94572
16258,11.707,2.8182,0,0.00028933,2891.3,9.62e-05,0.0048375,9.4264e-05,-14.543,-0.00028958,-2898.6,0.9334
16259,11.707,2.9091,0.05,8.8001e-07,8.794,6.7574e-07,5.0772,8.9234e-13,2.7322e-06,-6.7574e-07,-5.0772,0.93339
16260,11.982,2.9091,0,0.00028207,2818.7,9.3643e-05,0.0051395,9.2137e-05,-11.31,-0.00028226,-2824.4,0.97046
16261,11.89,2.8182,0,0.00028449,2843,9.449e-05,0.0050478,9.2857e-05,-12.27,-0.0002847,-2849.1,0.95804
16262,11.89,2.9091,0.05,8.7537e-07,8.7477,6.7218e-07,5.0505,1.8044e-12,3.8237e-06,-6.7218e-07,-5.0505,0.95804
16263,12.165,2.9091,0,0.00027724,2770.5,9.195e-05,0.0053306,9.0715e-05,-9.2696,-0.0002774,-2775.1,0.99539
16264,12.074,2.8182,0,0.00027966,2794.7,9.2792e-05,0.0052603,9.1439e-05,-10.162,-0.00027983,-2799.8,0.98288
16265,12.074,2.9091,0.05,8.7086e-07,8.7026,6.6871e-07,5.0244,8.9717e-13,3.3645e-06,-6.6871e-07,-5.0245,0.98287
16266,12.349,2.9091,0,0.00027243,2722.4,9.0268e-05,0.0055105,8.9285e-05,-7.3743,-0.00027256,-2726.1,1.0205
16267,12.257,2.8182,0,0.00027484,2746.5,9.1105e-05,0.0054377,9.0012e-05,-8.2064,-0.00027498,-2750.6,1.0079
16268,12.257,2.9091,0.05,8.6645e-07,8.6585,6.6533e-07,4.999,8.9935e-13,3.6787e-06,-6.6533e-07,-4.999,1.0079
16269,12.532,2.9091,0,0.00026763,2674.4,8.8596e-05,0.0057025,8.7848e-05,-5.6115,-0.00026772,-2677.2,1.0458
16270,12.441,2.8182,0,0.00027004,2698.5,8.9428e-05,0.005633,8.8577e-05,-6.3883,-0.00027014,-2701.7,1.0331
16271,12.441,2.9091,0.05,8.6213e-07,8.6153,6.6201e-07,4.974,-8.1351e-15,3.9622e-06,-6.6201e-07,-4.9741,1.0331
16272,12.716,2.9091,0,0.00026284,2626.6,8.6934e-05,0.005909,8.6405e-05,-3.9694,-0.00026291,-2628.6,1.0713
16273,12.624,2.8182,0,0.00026524,2650.6,8.7762e-05,0.0058445,8.7136e-05,-4.696,-0.00026532,-2652.9,1.0585
16274,12.624,2.9091,0.05,8.5789e-07,8.573,6.5875e-07,4.9496,9.0314e-13,2.3364e-06,-6.5875e-07,-4.9496,1.0585
16275,12.899,2.9091,0,0.00025806,2578.8,8.5282e-05,0.0061119,8.4956e-05,-2.437,-0.0002581,-2580.1,1.0969
16276,12.808,2.8182,0,0.00026045,2602.7,8.6105e-05,0.0060923,8.5689e-05,-3.118,-0.00026051,-2604.3,1.0841
16277,12.808,2.9091,0.05,8.5374e-07,8.5315,6.5556e-07,4.9256,9.0462e-13,1.2746e-06,-6.5557e-07,-4.9257,1.0841
16278,13.083,2.9091,0,0.0002533,2531.2,8.3639e-05,0.0063337,8.3504e-05,-1.0042,-0.00025332,-2531.7,1.1228
16279,12.991,2.8182,0,0.00025568,2555.1,8.4458e-05,0.0063694,8.4238e-05,-1.6442,-0.00025571,-2555.9,1.1098
16280,12.991,2.9091,0.05,8.4966e-07,8.4908,6.5243e-07,4.9021,2.7251e-12,2.2692e-06,-6.5244e-07,-4.9021,1.1098
16281,13.266,2.9091,0,0.00024855,2483.8,8.2049e-05,0.33906,8.2005e-05,0.0061254,-0.00024854,-2483.6,1.1488
16282,13.175,2.8182,0,0.00025093,2507.5,8.282e-05,0.0077331,8.2783e-05,-0.2655,-0.00025093,-2507.7,1.1357
16283,13.175,2.9091,0.05,8.4564e-07,8.4506,6.4935e-07,4.8789,9.0745e-13,2.9052e-06,-6.4935e-07,-4.8789,1.1357
16284,13.45,2.9091,0,0.00024381,2436.5,8.0592e-05,1.6005,8.038e-05,0.0065466,-0.00024379,-2435.7,1.1749
16285,13.358,2.8182,0,0.00024618,2460.1,8.1327e-05,1.0312,8.119e-05,0.0061145,-0.00024617,-2459.6,1.1618
16286,13.358,2.9091,0.05,8.4169e-07,8.4111,6.4631e-07,4.8561,1.8182e-12,4.196e-06,-6.4631e-07,-4.8562,1.1618
16287,13.633,2.9091,0,0.00023909,2389.3,7.9134e-05,2.7892,7.8763e-05,0.0067467,-0.00023905,-2387.9,1.2013
16288,13.542,2.8182,0,0.00024146,2412.9,7.9868e-05,2.2493,7.957e-05,0.0064915,-0.00024142,-2411.8,1.1881
16289,13.542,2.9091,0.05,8.3779e-07,8.3721,6.4332e-07,4.8336,1.8193e-12,5.4488e-06,-6.4332e-07,-4.8337,1.1881
16290,13.817,2.9091,0,0.00023439,2342.3,7.7675e-05,3.9129,7.7155e-05,0.0069366,-0.00023432,-2340.3,1.2278
16291,13.725,2.8182,0,0.00023674,2365.8,7.8409e-05,3.399,7.7958e-05,0.0067246,-0.00023669,-2364.1,1.2145
16292,13.725,2.9091,0.05,8.3395e-07,8.3337,6.4037e-07,4.8115,1.8204e-12,6.0154e-06,-6.4037e-07,-4.8115,1.2145
16293,14,2.9091,0,0.0002297,2295.4,7.6217e-05,4.9787,7.5556e-05,0.0071117,-0.00022962,-2292.9,1.2544
16294,13.909,2.8182,0,0.00023205,2318.9,7.695e-05,4.4877,7.6354e-05,0.0069366,-0.00023197,-2316.6,1.2411
16295,13.909,2.9091,0.05,8.3015e-07,8.2958,6.3746e-07,4.7896,2.3222e-15,6.4249e-06,-6.3746e-07,-4.7896,1.2411
16296,14.184,2.9091,0,0.00022503,2248.8,7.476e-05,5.9936,7.3964e-05,0.0072909,-0.00022493,-2245.7,1.2812
16297,14.092,2.8182,0,0.00022737,2272.1,7.5492e-05,5.5223,7.4758e-05,0.0071065,-0.00022727,-2269.3,1.2678
16298,14.092,2.9091,0.05,8.264e-07,8.2583,6.3457e-07,4.768,3.2251e-15,6.1933e-06,-6.3458e-07,-4.768,1.2678
16299,14.367,2.9091,0,0.00022038,2202.2,7.3305e-05,6.9643,7.2379e-05,0.0074902,-0.00022026,-2198.7,1.3082
16300,14.276,2.8182,0,0.0002227,2225.5,7.4035e-05,6.5097,7.317e-05,0.0073116,-0.00022259,-2222.2,1.2947
16301,14.276,2.9091,0.05,8.2269e-07,8.2213,6.3173e-07,4.7465,9.136e-13,6.2297e-06,-6.3173e-07,-4.7466,1.2947
16302,14.551,2.9091,0,0.00021574,2155.9,7.1853e-05,7.897,7.0803e-05,0.0076746,-0.0002156,-2151.9,1.3353
16303,14.459,2.8182,0,0.00021806,2179.1,7.2581e-05,7.4562,7.159e-05,0.0075161,-0.00021793,-2175.3,1.3217
16304,14.459,2.9091,0.05,8.1903e-07,8.1847,6.2892e-07,4.7254,9.1443e-13,6.534e-06,-6.2892e-07,-4.7254,1.3217
16305,14.734,2.9091,0,0.00021112,2109.7,7.0403e-05,8.7976,6.9234e-05,0.007855,-0.00021097,-2105.3,1.3626
16306,14.642,2.8182,0,0.00021343,2132.8,7.113e-05,8.3679,7.0017e-05,0.0076885,-0.00021328,-2128.6,1.3489
16307,14.642,2.9091,0.05,8.1541e-07,8.1485,6.2613e-07,4.7045,1.8248e-12,4.9908e-06,-6.2613e-07,-4.7046,1.3489
16308,14.918,2.9091,0,0.00020652,2063.7,6.8958e-05,9.672,6.7672e-05,0.0080531,-0.00020635,-2058.9,1.3899
16309,14.826,2.8182,0,0.00020882,2086.7,6.9682e-05,9.2507,6.8452e-05,0.0078809,-0.00020866,-2082.1,1.3762
16310,14.826,2.9091,0.05,8.1182e-07,8.1126,6.2338e-07,4.6838,9.1611e-13,3.9835e-06,-6.2338e-07,-4.6838,1.3762
16311,15.101,2.9091,0,0.00020193,2017.9,6.7517e-05,10.526,6.6117e-05,0.0082669,-0.00020175,-2012.7,1.4175
16312,15.009,2.8182,0,0.00020422,2040.8,6.8238e-05,10.11,6.6893e-05,0.0080878,-0.00020405,-2035.8,1.4037
16313,15.009,2.9091,0.05,8.0827e-07,8.0771,6.2065e-07,4.6633,9.1683e-13,2.7372e-06,-6.2065e-07,-4.6633,1.4037
16314,15.285,2.9091,0,0.00019737,1972.3,6.608e-05,11.365,6.4569e-05,0.0084827,-0.00019717,-1966.6,1.4451
16315,15.193,2.8182,0,0.00019965,1995.1,6.6799e-05,10.952,6.5342e-05,0.008312,-0.00019946,-1989.6,1.4313
16316,15.193,2.9091,0.05,8.0476e-07,8.042,6.1795e-07,4.6431,2.7366e-12,1.8489e-06,-6.1796e-07,-4.6431,1.4313
16317,15.468,2.9091,0,0.00019282,1926.9,6.465e-05,12.194,6.3028e-05,0.008697,-0.00019261,-1920.8,1.4729
16318,15.376,2.8182,0,0.0001951,1949.6,6.5365e-05,11.782,6.3798e-05,0.0085214,-0.00019489,-1943.7,1.459
16319,15.376,2.9091,0.05,8.0129e-07,8.0073,6.1529e-07,4.623,8.7489e-15,3.5227e-06,-6.1529e-07,-4.6231,1.459
16320,15.652,2.9091,0,0.0001883,1881.7,6.3225e-05,13.019,6.1493e-05,0.0089234,-0.00018807,-1875.1,1.5009
16321,15.56,2.8182,0,0.00019056,1904.3,6.3936e-05,12.604,6.226e-05,0.0087407,-0.00019034,-1897.9,1.4869
16322,15.56,2.9091,0.05,7.9785e-07,7.973,6.1265e-07,4.6032,9.1885e-13,2.8122e-06,-6.1265e-07,-4.6032,1.4869
16323,15.835,2.9091,0,0.00018379,1836.7,6.1807e-05,13.844,5.9965e-05,0.0091485,-0.00018355,-1829.7,1.5289
16324,15.743,2.8182,0,0.00018604,1859.1,6.2514e-05,13.425,6.0729e-05,0.0089742,-0.00018581,-1852.4,1.5149
16325,15.743,2.9091,0.05,7.9445e-07,7.939,6.1004e-07,4.5836,9.9331e-15,6.7059e-07,-6.1004e-07,-4.5836,1.5149
16326,16.019,2.9091,0,0.00017931,1791.8,6.0396e-05,14.676,5.8444e-05,0.0093868,-0.00017905,-1784.4,1.5571
16327,15.927,2.8182,0,0.00018155,1814.2,6.1099e-05,14.249,5.9204e-05,0.0091923,-0.0001813,-1807,1.543
16328,15.927,2.9091,0.05,7.9108e-07,7.9053,6.0745e-07,4.5641,1.8295e-12,1.152e-06,-6.0745e-07,-4.5641,1.543
16329,16.202,2.9091,0,0.00017484,1747.2,5.8992e-05,15.52,5.6928e-05,0.0096498,-0.00017457,-1739.4,1.5854
16330,16.11,2.8182,0,0.00017707,1769.5,5.9692e-05,15.083,5.7686e-05,0.0094506,-0.00017681,-1761.9,1.5712
16331,16.11,2.9091,0.05,7.8774e-07,7.872,6.0488e-07,4.5449,4.6626e-13,1.6362e-06,-6.0489e-07,-4.5449,1.5712
16332,16.386,2.9091,0,0.0001704,1702.8,5.7597e-05,16.38,5.5419e-05,0.0099116,-0.00017011,-1694.5,1.6138
16333,16.294,2.8182,0,0.00017262,1725,5.8292e-05,15.93,5.6173e-05,0.009718,-0.00017234,-1716.9,1.5996
16334,16.294,2.9091,0.05,7.8445e-07,7.8391,6.0236e-07,4.5259,9.2202e-13,2.2401e-06,-6.0236e-07,-4.5259,1.5996
16335,16.569,2.9091,0,0.00016597,1658.6,5.6211e-05,17.263,5.3915e-05,0.01018,-0.00016567,-1649.9,1.6424
16336,16.477,2.8182,0,0.00016818,1680.7,5.6901e-05,16.797,5.4667e-05,0.009973,-0.00016789,-1672.2,1.6281
16337,16.477,2.9091,0.05,7.8119e-07,7.8065,5.9985e-07,4.507,1.3777e-12,2.0081e-06,-5.9986e-07,-4.5071,1.6281
16338,16.753,2.9091,0,0.00016157,1614.6,5.4835e-05,18.175,5.2417e-05,0.010473,-0.00016126,-1605.4,1.671
16339,16.661,2.8182,0,0.00016377,1636.6,5.5519e-05,17.689,5.3166e-05,0.010254,-0.00016346,-1627.6,1.6567
16340,16.661,2.9091,0.05,7.7796e-07,7.7742,5.9738e-07,4.4884,4.6926e-13,3.6851e-06,-5.9738e-07,-4.4885,1.6567
16341,16.936,2.9091,0,0.00015719,1570.8,5.3468e-05,19.12,5.0925e-05,0.01079,-0.00015686,-1561.2,1.6998
16342,16.844,2.8182,0,0.00015938,1592.7,5.4147e-05,18.612,5.1671e-05,0.010558,-0.00015905,-1583.3,1.6854
16343,16.844,2.9091,0.05,7.7478e-07,7.7424,5.9493e-07,4.4701,9.2526e-13,6.7939e-06,-5.9493e-07,-4.4701,1.6854
16344,17.119,2.9091,0,0.00015284,1527.3,5.2112e-05,20.105,4.9438e-05,0.01112,-0.00015248,-1517.1,1.7286
16345,17.028,2.8182,0,0.00015501,1549,5.2785e-05,19.572,5.0182e-05,0.010888,-0.00015467,-1539.1,1.7142
16346,17.028,2.9091,0.05,7.7163e-07,7.711,5.9252e-07,4.452,9.2643e-13,6.0878e-06,-5.9252e-07,-4.452,1.7142
16347,17.303,2.9091,0,0.0001485,1484,5.0767e-05,21.136,4.7956e-05,0.011462,-0.00014813,-1473.3,1.7576
16348,17.211,2.8182,0,0.00015066,1505.6,5.1434e-05,20.575,4.8697e-05,0.011217,-0.0001503,-1495.2,1.7431
16349,17.211,2.9091,0.05,7.6854e-07,7.6801,5.9014e-07,4.4341,1.7869e-14,5.618e-06,-5.9014e-07,-4.4341,1.7431
16350,17.486,2.9091,0,0.00014419,1440.9,4.9435e-05,22.22,4.6479e-05,0.011828,-0.0001438,-1429.7,1.7867
16351,17.395,2.8182,0,0.00014634,1462.4,5.0095e-05,21.627,4.7218e-05,0.01157,-0.00014596,-1451.5,1.7721
16352,17.395,2.9091,0.05,7.6549e-07,7.6496,5.878e-07,4.4165,1.3833e-12,5.15e-06,-5.878e-07,-4.4165,1.7721
16353,17.67,2.9091,0,0.0001399,1398.1,4.8115e-05,23.365,4.5007e-05,0.012209,-0.00013949,-1386.2,1.8158
16354,17.578,2.8182,0,0.00014204,1419.4,4.8768e-05,22.735,4.5744e-05,0.011948,-0.00014164,-1407.9,1.8012
16355,17.578,2.9091,0.05,7.6249e-07,7.6196,5.8549e-07,4.3992,1.8396e-12,7.5463e-06,-5.855e-07,-4.3992,1.8012
16356,17.853,2.9091,0,0.00013564,1355.5,4.6809e-05,24.576,4.3539e-05,0.012618,-0.00013521,-1343,1.8451
16357,17.762,2.8182,0,0.00013776,1376.7,4.7454e-05,23.906,4.4274e-05,0.012331,-0.00013734,-1364.6,1.8304
16358,17.762,2.9091,0.05,7.5953e-07,7.5901,5.8323e-07,4.3821,9.315e-13,7.7945e-06,-5.8323e-07,-4.3821,1.8304
16359,18.037,2.9091,0,0.0001314,1313.1,4.5517e-05,25.862,4.2076e-05,0.013063,-0.00013094,-1300,1.8744
16360,17.945,2.8182,0,0.00013351,1334.2,4.6154e-05,25.147,4.2809e-05,0.012762,-0.00013307,-1321.5,1.8597
16361,17.945,2.9091,0.05,7.5663e-07,7.5611,5.81e-07,4.3654,1.3875e-12,9.7117e-06,-5.81e-07,-4.3654,1.8597
16362,18.22,2.9091,0,0.00012719,1271,4.424e-05,27.231,4.0617e-05,0.013528,-0.0001267,-1257.2,1.9038
16363,18.129,2.8182,0,0.00012929,1292,4.4869e-05,26.467,4.1348e-05,0.013221,-0.00012882,-1278.5,1.8891
16364,18.129,2.9091,0.05,7.5379e-07,7.5327,5.7882e-07,4.349,2.5629e-14,6.3915e-06,-5.7882e-07,-4.349,1.8891
16365,18.404,2.9091,0,0.000123,1229.2,4.2979e-05,28.691,3.9162e-05,0.014022,-0.00012249,-1214.6,1.9334
16366,18.312,2.8182,0,0.00012509,1250,4.3599e-05,27.874,3.9891e-05,0.013692,-0.00012459,-1235.8,1.9186
16367,18.312,2.9091,0.05,7.5102e-07,7.505,5.7669e-07,4.333,9.3655e-13,7.356e-06,-5.7669e-07,-4.333,1.9186
16368,18.587,2.9091,0,0.00011884,1187.6,4.1735e-05,30.253,3.7711e-05,0.01456,-0.0001183,-1172.2,1.963
16369,18.496,2.8182,0,0.00012091,1208.3,4.2346e-05,29.376,3.8438e-05,0.014205,-0.00012038,-1193.3,1.9481
16370,18.496,2.9091,0.05,7.483e-07,7.4779,5.746e-07,4.3174,4.839e-13,5.4641e-06,-5.746e-07,-4.3174,1.9481
16371,18.771,2.9091,0,0.00011471,1146.3,4.0509e-05,31.926,3.6262e-05,0.015144,-0.00011413,-1130,1.9926
16372,18.679,2.8182,0,0.00011676,1166.8,4.111e-05,30.983,3.6988e-05,0.014766,-0.00011621,-1151,1.9778
16373,18.679,2.9091,0.05,7.4567e-07,7.4515,5.7258e-07,4.3021,9.4014e-13,9.767e-06,-5.7258e-07,-4.3021,1.9778
16374,18.954,2.9091,0,0.0001106,1105.3,3.9303e-05,33.719,3.4817e-05,0.015768,-0.00010999,-1088,2.0224
16375,18.863,2.8182,0,0.00011264,1125.7,3.9893e-05,32.706,3.5542e-05,0.015373,-0.00011205,-1108.9,2.0075
16376,18.863,2.9091,0.05,7.4311e-07,7.426,5.7062e-07,4.2874,3.1151e-14,7.8635e-06,-5.7062e-07,-4.2874,2.0075
16377,19.138,2.9091,0,0.00010653,1064.5,3.8116e-05,35.645,3.3374e-05,0.016437,-0.00010587,-1046.2,2.0522
16378,19.046,2.8182,0,0.00010855,1084.8,3.8695e-05,34.555,3.4098e-05,0.016012,-0.00010792,-1067.1,2.0373
16379,19.046,2.9091,0.05,7.4065e-07,7.4014,5.6873e-07,4.2732,3.1946e-14,7.869e-06,-5.6873e-07,-4.2732,2.0373
16380,19.321,2.9091,0,0.00010248,1024.1,3.6951e-05,37.716,3.1934e-05,0.017165,-0.00010178,-1004.7,2.0821
16381,19.229,2.8182,0,0.00010449,1044.2,3.7518e-05,36.541,3.2657e-05,0.016709,-0.00010382,-1025.4,2.0672
16382,19.229,2.9091,0.05,7.3828e-07,7.3777,5.6691e-07,4.2595,1.3985e-12,5.9793e-06,-5.6691e-07,-4.2595,2.0672
16383,19.505,2.9091,0,9.8462e-05,983.94,3.5809e-05,39.944,3.0495e-05,0.017948,-9.7721e-05,-963.35,2.1121
16384,19.413,2.8182,0,0.00010046,1003.9,3.6363e-05,38.677,3.1218e-05,0.017466,-9.9742e-05,-983.96,2.0971
16385,19.413,2.9091,0.05,7.3602e-07,7.3551,5.6517e-07,4.2465,1.4013e-12,1.0292e-05,-5.6517e-07,-4.2465,2.0971
16386,19.688,2.9091,0,9.4477e-05,944.12,3.4691e-05,42.342,2.9058e-05,0.018802,-9.3685e-05,-922.23,2.1421
16387,19.596,2.8182,0,9.6454e-05,963.88,3.5231e-05,40.977,2.978e-05,0.018273,-9.5691e-05,-942.73,2.1271
16388,19.596,2.9091,0.05,7.3387e-07,7.3336,5.6352e-07,4.2341,9.4926e-13,8.8815e-06,-5.6352e-07,-4.2341,2.1271
16389,19.872,2.9091,0,9.0525e-05,904.63,3.3599e-05,44.926,2.7622e-05,0.01974,-8.9677e-05,-881.32,2.1722
16390,19.78,2.8182,0,9.2484e-05,924.21,3.4124e-05,43.453,2.8344e-05,0.019172,-9.1668e-05,-901.7,2.1572
16391,19.78,2.9091,0.05,7.3185e-07,7.3135,5.6197e-07,4.2224,9.5133e-13,9.851e-06,-5.6197e-07,-4.2224,2.1572
16392,20.055,2.9091,0,8.6607e-05,865.47,3.2533e-05,47.711,2.6186e-05,0.020761,-8.5696e-05,-840.62,2.2024
16393,19.963,2.8182,0,8.8548e-05,884.87,3.3044e-05,46.121,2.6908e-05,0.02015,-8.7673e-05,-860.9,2.1873
16394,19.963,2.9091,0.05,7.2998e-07,7.2948,5.6054e-07,4.2117,9.5352e-13,8.9139e-06,-5.6054e-07,-4.2117,2.1873
16395,20.239,2.9091,0,8.2724e-05,826.67,3.1497e-05,50.712,2.475e-05,0.021879,-8.1744e-05,-800.13,2.2326
16396,20.147,2.8182,0,8.4646e-05,845.87,3.1991e-05,48.996,2.5473e-05,0.021211,-8.3705e-05,-820.3,2.2175
16397,20.147,2.9091,0.05,7.2827e-07,7.2777,5.5922e-07,4.2018,9.5438e-13,1.035e-05,-5.5922e-07,-4.2018,2.2175
16398,20.422,2.9091,0,7.8877e-05,788.23,3.049e-05,53.948,2.3313e-05,0.023116,-7.7821e-05,-759.86,2.2629
16399,20.33,2.8182,0,8.0779e-05,807.24,3.0967e-05,52.096,2.4037e-05,0.022385,-7.9767e-05,-779.92,2.2477
16400,20.33,2.9091,0.05,7.2674e-07,7.2624,5.5805e-07,4.193,1.4112e-12,9.8903e-06,-5.5805e-07,-4.193,2.2477
16401,20.606,2.9091,0,7.5069e-05,750.17,2.9516e-05,57.435,2.1875e-05,0.02449,-7.3927e-05,-719.79,2.2932
16402,20.514,2.8182,0,7.695e-05,768.97,2.9975e-05,55.438,2.26e-05,0.023687,-7.5857e-05,-739.74,2.278
16403,20.514,2.9091,0.05,7.2541e-07,7.2491,5.5703e-07,4.1853,7.3207e-13,5.6203e-06,-5.5703e-07,-4.1853,2.278
16404,20.789,2.9091,0,7.1301e-05,712.52,2.8576e-05,61.194,2.0435e-05,0.026019,-7.0062e-05,-679.93,2.3236
16405,20.697,2.8182,0,7.316e-05,731.1,2.9016e-05,59.04,2.1161e-05,0.025136,-7.1976e-05,-699.77,2.3084
16406,20.697,2.9091,0.05,7.2431e-07,7.2381,5.5618e-07,4.1789,7.315e-13,4.6627e-06,-5.5618e-07,-4.1789,2.3084
16407,20.973,2.9091,0,6.7574e-05,675.28,2.7672e-05,65.243,1.8992e-05,0.027726,-6.6227e-05,-640.28,2.354
16408,20.881,2.8182,0,6.9411e-05,693.63,2.8091e-05,62.921,1.972e-05,0.026745,-6.8125e-05,-660.01,2.3388
16409,20.881,2.9091,0.05,7.2347e-07,7.2297,5.5553e-07,4.174,9.5914e-13,4.664e-06,-5.5553e-07,-4.1741,2.3388
16410,21.156,2.9091,0,6.3892e-05,638.48,2.6805e-05,69.602,1.7545e-05,0.02965,-6.2422e-05,-600.81,2.3845
16411,21.064,2.8182,0,6.5704e-05,656.59,2.7203e-05,67.102,1.8276e-05,0.028553,-6.4304e-05,-620.45,2.3692
16412,21.064,2.9091,0.05,7.2291e-07,7.2241,5.551e-07,4.1708,9.6084e-13,6.1078e-06,-5.551e-07,-4.1708,2.3692
16413,21.34,2.9091,0,6.0256e-05,602.14,2.5977e-05,74.293,1.6093e-05,0.03183,-5.8647e-05,-561.54,2.415
16414,21.248,2.8182,0,6.2043e-05,620,2.6353e-05,71.603,1.6827e-05,0.030602,-6.0513e-05,-581.08,2.3997
16415,21.248,2.9091,0.05,7.2267e-07,7.2217,5.5492e-07,4.1695,9.5844e-13,7.0436e-06,-5.5492e-07,-4.1694,2.3997
16416,21.523,2.9091,0,5.6669e-05,566.3,2.519e-05,79.335,1.4636e-05,0.034332,-5.4901e-05,-522.44,2.4455
16417,21.431,2.8182,0,5.8429e-05,583.89,2.5543e-05,76.444,1.5374e-05,0.032929,-5.6752e-05,-541.89,2.4302
16418,21.431,2.9091,0.05,7.228e-07,7.223,5.5502e-07,4.1702,7.2932e-13,7.03e-06,-5.5502e-07,-4.1702,2.4302
16419,21.706,2.9091,0,5.3136e-05,530.99,2.4446e-05,84.749,1.3172e-05,0.037234,-5.1184e-05,-483.5,2.4761
16420,21.615,2.8182,0,5.4866e-05,548.29,2.4775e-05,81.646,1.3914e-05,0.03562,-5.3019e-05,-502.87,2.4608
16421,21.615,2.9091,0.05,7.2333e-07,7.2283,5.5543e-07,4.1733,7.2114e-13,6.0157e-06,-5.5543e-07,-4.1733,2.4608
16422,21.89,2.9091,0,4.9659e-05,496.25,2.3746e-05,90.554,1.17e-05,0.040635,-4.7494e-05,-444.72,2.5067
16423,21.798,2.8182,0,5.1359e-05,513.23,2.4051e-05,87.23,1.2446e-05,0.038757,-4.9315e-05,-464.01,2.4914
16424,21.798,2.9091,0.05,7.2432e-07,7.2382,5.5619e-07,4.179,3.9699e-14,7.9267e-06,-5.5619e-07,-4.179,2.4914
16425,22.073,2.9091,0,4.6244e-05,462.12,2.3091e-05,96.769,1.0218e-05,0.044687,-4.3831e-05,-406.06,2.5374
16426,21.982,2.8182,0,4.791e-05,478.77,2.3371e-05,93.215,1.097e-05,0.042456,-4.5638e-05,-425.29,2.522
16427,21.982,2.9091,0.05,7.2582e-07,7.2532,5.5734e-07,4.1876,3.9045e-14,2.9289e-07,-5.5734e-07,-4.1876,2.522
16428,22.257,2.9091,0,4.2899e-05,428.69,2.2483e-05,103.41,8.7263e-06,0.049604,-4.0193e-05,-367.51,2.5681
16429,22.165,2.8182,0,4.4527e-05,444.96,2.2737e-05,99.618,9.4848e-06,0.046909,-4.1988e-05,-386.7,2.5527
16430,22.165,2.9091,0.05,7.2788e-07,7.2738,5.5892e-07,4.1995,7.2178e-13,4.1121e-06,-5.5892e-07,-4.1995,2.5527
16431,22.44,2.9091,0,3.9631e-05,396.03,2.1921e-05,110.49,7.2225e-06,0.055719,-3.6577e-05,-329.04,2.5988
16432,22.349,2.8182,0,4.1217e-05,411.89,2.215e-05,106.46,7.9881e-06,0.052363,-3.8361e-05,-348.19,2.5834
16433,22.349,2.9091,0.05,7.3055e-07,7.3005,5.6097e-07,4.2149,4.914e-13,7.9045e-06,-5.6097e-07,-4.2149,2.5834
16434,22.624,2.9091,0,3.6453e-05,364.27,2.1406e-05,118.03,5.7056e-06,0.063463,-3.2981e-05,-290.61,2.6295
16435,22.532,2.8182,0,3.7991e-05,379.65,2.1609e-05,113.74,6.4788e-06,0.05925,-3.4755e-05,-309.76,2.6141
16436,22.532,2.9091,0.05,7.339e-07,7.3339,5.6354e-07,4.2342,4.8154e-13,7.8311e-06,-5.6354e-07,-4.2342,2.6141
16437,22.807,2.9091,0,3.3381e-05,333.58,2.0937e-05,126.02,4.174e-06,0.073865,-2.9401e-05,-252.2,2.6603
16438,22.716,2.8182,0,3.4862e-05,348.38,2.1116e-05,121.49,4.9556e-06,0.068032,-3.1168e-05,-271.35,2.6449
16439,22.716,2.9091,0.05,7.3795e-07,7.3744,5.6665e-07,4.2576,1.9844e-14,6.824e-06,-5.6665e-07,-4.2576,2.6449
16440,22.991,2.9091,0,3.0439e-05,304.18,2.0513e-05,134.48,2.6264e-06,0.087384,-2.5834e-05,-213.75,2.691
16441,22.899,2.8182,0,3.185e-05,318.28,2.0669e-05,129.7,3.4171e-06,0.080369,-2.7595e-05,-232.94,2.6756
16442,22.899,2.9091,0.05,7.4274e-07,7.4223,5.7034e-07,4.2853,2.4775e-13,1.1597e-05,-5.7033e-07,-4.2853,2.6756
16443,23.174,2.9091,0,2.7661e-05,276.42,2.0134e-05,143.41,1.0621e-06,0.11029,-2.2275e-05,-175.24,2.7218
16444,23.083,2.8182,0,2.8983e-05,289.63,2.0267e-05,138.38,1.8619e-06,0.095664,-2.4034e-05,-194.48,2.7064
16445,23.083,2.9091,0.05,7.483e-07,7.4778,5.746e-07,4.3173,4.6114e-13,1.1492e-05,-5.746e-07,-4.3173,2.7064
16446,23.358,2.9091,0,2.5094e-05,250.76,1.9797e-05,152.79,-5.2089e-07,0.13364,-1.8721e-05,-136.62,2.7526
16447,23.266,2.8182,0,2.6302e-05,262.84,1.9908e-05,147.53,2.8996e-07,0.12746,-2.048e-05,-155.93,2.7372
16448,23.266,2.9091,0.05,7.5461e-07,7.5409,5.7945e-07,4.3537,2.2049e-13,5.6702e-06,-5.7945e-07,-4.3537,2.7372
16449,23.541,2.9091,0,2.2804e-05,227.88,1.95e-05,162.65,-2.1171e-06,0.23063,-1.517e-05,-97.845,2.7834
16450,23.45,2.8182,0,2.3862e-05,238.45,1.9592e-05,157.13,-1.3023e-06,0.14558,-1.6928e-05,-117.26,2.768
16451,23.45,2.9091,0.05,7.6163e-07,7.611,5.8484e-07,4.3942,2.0732e-13,3.6643e-06,-5.8484e-07,-4.3942,2.768
16452,23.725,2.9091,0,2.0879e-05,208.64,1.924e-05,172.89,-3.7392e-06,0.23061,-1.1616e-05,-58.956,2.8143
16453,23.633,2.8182,0,2.1741e-05,217.26,1.9314e-05,167.24,-2.8998e-06,0.33227,-1.3381e-05,-78.419,2.7989
16454,23.633,2.9091,0.05,7.6932e-07,7.6879,5.9074e-07,4.4386,-2.463e-14,5.5372e-06,-5.9074e-07,-4.4386,2.7988
16455,23.817,2.8182,0,2.004e-05,200.26,1.9071e-05,177.59,-4.5364e-06,0.21513,-9.8315e-06,-39.571,2.8297
16456,23.817,2.9091,0.05,7.7849e-07,7.7796,5.9779e-07,4.4915,2.0855e-13,7.4877e-06,-5.9779e-07,-4.4915,2.8297
16457,23.908,2.9091,0,1.9506e-05,194.92,1.9035e-05,183.02,-5.2652e-06,0.43766,-8.2853e-06,-22.255,2.8451
16458,3.5419,2.7273,0,0.0011555,11547,0.00041535,407.99,0.00036072,-2.4929,-0.0011481,-11339,0.089156
16459,3.4501,2.6364,0,0.001246,12451,0.00046059,596.03,0.00038135,0.63597,-0.0012348,-12142,0.083563
16460,3.4501,2.7273,0.05,1.3814e-05,138.05,1.0607e-05,79.7,8.4034e-12,-0.000206,-1.0608e-05,-79.701,0.083758
16461,3.7254,2.7273,0,0.0010299,10292,0.00034925,112.2,0.00033425,-0.4973,-0.001028,-10236,0.1004
16462,3.6336,2.6364,0,0.0011006,10998,0.00038475,258.73,0.00035026,-0.37306,-0.0010959,-10867,0.09447
16463,3.6336,2.7273,0.05,1.6828e-05,168.16,1.2922e-05,97.089,2.6069e-11,-1.6113e-05,-1.2922e-05,-97.09,0.09463
16464,3.9088,2.7273,0,0.00090935,9087.3,0.00030767,1.995,0.00028739,-150.45,-0.00091178,-9160.5,0.11233
16465,3.8171,2.6364,0,0.00095973,9590.7,0.0003196,3.7548,0.00031217,-52.13,-0.00096055,-9614.8,0.10611
16466,3.8171,2.7273,0.05,1.6329e-05,163.18,1.2539e-05,94.212,3.212e-11,3.1245e-05,-1.2539e-05,-94.213,0.10623
16467,4.0923,2.7273,0,0.00080755,8070,0.00028322,1.6455,0.00023796,-338.41,-0.00081274,-8233,0.12488
16468,4.0006,2.6364,0,0.00084385,8432.7,0.00029191,1.9834,0.0002557,-270.07,-0.00084808,-8563.5,0.11838
16469,4.0006,2.7273,0.05,1.4304e-05,142.94,1.0983e-05,82.525,3.1911e-11,2.9999e-05,-1.0983e-05,-82.525,0.11848
16470,4.2758,2.7273,0,0.00072627,7257.6,0.00026204,1.3476,0.00020109,-456.58,-0.00073293,-7474.4,0.13796
16471,4.1841,2.6364,0,0.00075323,7527.1,0.00026872,1.5805,0.00021396,-409.82,-0.00075933,-7722.7,0.13123
16472,4.1841,2.7273,0.05,1.2019e-05,120.1,9.2288e-06,69.341,1.6842e-11,5.907e-06,-9.2288e-06,-69.342,0.1313
16473,4.4593,2.7273,0,0.00066269,6622.3,0.00024406,1.0538,0.00017461,-520.78,-0.00066999,-6866.8,0.15154
16474,4.3676,2.6364,0,0.00068332,6828.5,0.0002494,1.1946,0.0001841,-489.45,-0.0006903,-7059.3,0.14458
16475,4.3676,2.7273,0.05,9.9334e-06,99.266,7.6276e-06,57.311,9.1219e-12,-1.5548e-05,-7.6276e-06,-57.311,0.14464
16476,4.6428,2.7273,0,0.00061317,6127.5,0.00022891,0.78784,0.00015597,-547.28,-0.00062063,-6382.3,0.16557
16477,4.551,2.6364,0,0.00062935,6289.1,0.00023332,0.90759,0.00016304,-527.16,-0.00063663,-6535.6,0.1584
16478,4.551,2.7273,0.05,8.1724e-06,81.667,6.2754e-06,47.151,6.1677e-12,-2.6287e-05,-6.2754e-06,-47.151,0.15845
16479,4.8263,2.7273,0,0.00057447,5740.7,0.00021616,0.57966,0.00014304,-548.82,-0.00058182,-5995.1,0.18001
16480,4.7345,2.6364,0,0.0005874,5870,0.00021988,0.67267,0.00014834,-536.85,-0.00059467,-6119.6,0.17265
16481,4.7345,2.7273,0.05,6.7337e-06,67.29,5.1706e-06,38.85,3.8286e-12,-3.4498e-05,-5.1706e-06,-38.85,0.17269
16482,5.0097,2.7273,0,0.00054398,5436,0.00020537,0.42182,0.00013418,-534.49,-0.00055108,-5683.3,0.19484
16483,4.918,2.6364,0,0.0005545,5541.2,0.00020858,0.49557,0.00013818,-528.42,-0.00056159,-5786.2,0.1873
16484,4.918,2.7273,0.05,5.5762e-06,55.723,4.2818e-06,32.172,5.1234e-13,-3.1487e-05,-4.2818e-06,-32.172,0.18733
16485,5.1932,2.7273,0,0.00051972,5193.6,0.0001962,0.30493,0.00012821,-510.58,-0.00052651,-5429.9,0.21005
16486,5.1015,2.6364,0,0.00052842,5280.5,0.000199,0.36255,0.00013124,-508.73,-0.00053522,-5516.3,0.20233
16487,5.1015,2.7273,0.05,4.6513e-06,46.481,3.5717e-06,26.836,8.4797e-13,-3.4096e-05,-3.5717e-06,-26.836,0.20235
16488,5.3767,2.7273,0,0.00050019,4998.4,0.00018835,0.2194,0.00012426,-481.3,-0.00050663,-5221.5,0.22561
16489,5.285,2.6364,0,0.00050749,5071.4,0.00019082,0.26406,0.00012658,-482.42,-0.00051396,-5295.2,0.21771
16490,5.285,2.7273,0.05,3.9146e-06,39.119,3.0059e-06,22.585,-1.6811e-13,-3.1892e-05,-3.0059e-06,-22.586,0.21774
16491,5.5602,2.7273,0,0.00048425,4839.1,0.00018156,0.15719,0.00012172,-449.45,-0.00049032,-5048.1,0.24151
16492,5.4684,2.6364,0,0.00049046,4901.3,0.00018377,0.19156,0.0001235,-452.63,-0.00049659,-5111.8,0.23345
16493,5.4684,2.7273,0.05,3.3282e-06,33.259,2.5556e-06,19.202,1.7686e-13,-2.7078e-05,-2.5557e-06,-19.202,0.23347
16494,5.7437,2.7273,0,0.00047103,4707.1,0.00017564,0.11207,0.00012015,-416.86,-0.00047674,-4901.6,0.25774
16495,5.6519,2.6364,0,0.00047642,4760.9,0.00017764,0.13839,0.00012153,-421.43,-0.00048218,-4957.5,0.24952
16496,5.6519,2.7273,0.05,2.8612e-06,28.593,2.1971e-06,16.508,3.616e-13,-2.557e-05,-2.1971e-06,-16.508,0.24954
16497,5.9271,2.7273,0,0.0004599,4595.8,0.00017043,0.079403,0.00011922,-384.72,-0.00046523,-4776.1,0.2743
16498,5.8354,2.6364,0,0.00046463,4643.1,0.00017226,0.099498,0.00012031,-390.17,-0.00047003,-4825.8,0.26591
16499,5.8354,2.7273,0.05,2.489e-06,24.873,1.9112e-06,14.36,-3.96e-13,-2.1617e-05,-1.9112e-06,-14.36,0.26594
16500,6.1106,2.7273,0,0.00045035,4500.4,0.0001658,0.055783,0.00011871,-353.75,-0.00045532,-4666.8,0.29116
16501,6.0189,2.6364,0,0.00045457,4542.6,0.00016748,0.071096,0.00011959,-359.73,-0.00045962,-4711.7,0.28262
16502,6.0189,2.7273,0.05,2.1918e-06,21.903,1.683e-06,12.646,1.0869e-12,-8.8828e-06,-1.683e-06,-12.646,0.28265
16503,6.2941,2.7273,0,0.000442,4416.9,0.00016164,0.038742,0.00011846,-324.39,-0.00044662,-4570.1,0.30833
16504,6.2024,2.6364,0,0.00044582,4455.2,0.0001632,0.050398,0.00011919,-330.62,-0.00045052,-4611.2,0.29964
16505,6.2024,2.7273,0.05,1.9542e-06,19.528,1.5006e-06,11.275,1.6008e-12,-5.5001e-06,-1.5006e-06,-11.275,0.29967
16506,6.4776,2.7273,0,0.00043455,4342.5,0.00015786,0.026491,0.00011834,-296.86,-0.00043884,-4483.3,0.32581
16507,6.3858,2.6364,0,0.00043807,4377.7,0.00015932,0.035356,0.00011897,-303.15,-0.00044244,-4521.4,0.31696
16508,6.3858,2.7273,0.05,1.7638e-06,17.626,1.3544e-06,10.176,1.7461e-12,-5.0503e-06,-1.3544e-06,-10.176,0.31699
16509,6.6611,2.7273,0,0.0004278,4275,0.0001544,0.017731,0.00011829,-271.26,-0.00043177,-4404.2,0.34358
16510,6.5693,2.6364,0,0.00043108,4307.8,0.00015578,0.024471,0.00011885,-277.48,-0.00043513,-4439.8,0.33459
16511,6.5693,2.7273,0.05,1.611e-06,16.099,1.2371e-06,9.2948,2.6058e-12,-2.2151e-06,-1.2371e-06,-9.2949,0.33462
16512,6.8445,2.7273,0,0.00042156,4212.7,0.0001512,0.01152,0.00011825,-247.59,-0.00042522,-4331,0.36163
16513,6.7528,2.6364,0,0.00042466,4243.6,0.00015251,0.016639,0.00011875,-253.64,-0.0004284,-4364.8,0.3525
16514,6.7528,2.7273,0.05,1.4881e-06,14.871,1.1427e-06,8.5855,3.3111e-12,1.3151e-06,-1.1427e-06,-8.5856,0.35253
16515,7.028,2.7273,0,0.0004157,4154.2,0.00014822,0.00717,0.00011816,-225.8,-0.00041908,-4262.5,0.37998
16516,6.9363,2.6364,0,0.00041866,4183.7,0.00014947,0.011054,0.00011864,-231.62,-0.00042212,-4294.7,0.3707
16517,6.9363,2.7273,0.05,1.3889e-06,13.879,1.0665e-06,8.0131,2.0826e-12,-1.1167e-06,-1.0665e-06,-8.0134,0.37073
16518,7.2115,2.7273,0,0.00041014,4098.5,0.00014541,0.0041775,0.00011802,-205.79,-0.00041325,-4197.6,0.39861
16519,7.1198,2.6364,0,0.00041298,4127,0.00014662,0.0071202,0.00011849,-211.35,-0.00041617,-4228.6,0.38919
16520,7.1198,2.7273,0.05,1.3086e-06,13.077,1.0048e-06,7.55,1.6378e-12,7.4012e-07,-1.0048e-06,-7.55,0.38922
16521,7.395,2.7273,0,0.00040478,4045,0.00014276,0.002173,0.00011781,-187.46,-0.00040764,-4135.5,0.41751
16522,7.3032,2.6364,0,0.00040754,4072.6,0.00014392,0.0043972,0.00011827,-192.73,-0.00041048,-4165.6,0.40796
16523,7.3032,2.7273,0.05,1.2433e-06,12.425,9.5473e-07,7.1735,2.0009e-12,-4.265e-07,-9.5473e-07,-7.1735,0.40799
16524,7.5785,2.7273,0,0.00039958,3993,0.00014023,0.00088548,0.00011751,-170.7,-0.00040221,-4075.6,0.43669
16525,7.4867,2.6364,0,0.00040228,4020,0.00014136,0.002561,0.00011798,-175.67,-0.00040498,-4104.9,0.427
16526,7.4867,2.7273,0.05,1.1901e-06,11.892,9.1382e-07,6.8661,4.8099e-13,3.2662e-06,-9.1383e-07,-6.8662,0.42703
16527,7.7619,2.7273,0,0.00039448,3942.1,0.0001378,0.00011488,0.00011712,-155.39,-0.0003969,-4017.5,0.45615
16528,7.6702,2.6364,0,0.00039713,3968.6,0.0001389,0.0013713,0.0001176,-160.05,-0.00039962,-4046.2,0.44632
16529,7.6702,2.7273,0.05,1.1463e-06,11.456,8.8025e-07,6.6139,2.5251e-12,-5.6298e-07,-8.8026e-07,-6.6139,0.44635
16530,7.9454,2.7273,0,0.00038947,3892,0.00013547,-0.00028597,0.00011665,-141.4,-0.00039168,-3960.8,0.47586
16531,7.8537,2.6364,0,0.00039208,3918.1,0.00013654,0.00065019,0.00011714,-145.76,-0.00039436,-3989,0.4659
16532,7.8537,2.7273,0.05,1.1102e-06,11.095,8.5253e-07,6.4056,9.0578e-13,8.5916e-07,-8.5253e-07,-6.4056,0.46594
16533,8.1289,2.7273,0,0.00038451,3842.4,0.00013321,-0.00042466,0.00011609,-128.63,-0.00038653,-3905.1,0.49585
16534,8.0372,2.6364,0,0.00038709,3868.3,0.00013426,0.00026591,0.0001166,-132.7,-0.00038918,-3932.9,0.48576
16535,8.0372,2.7273,0.05,1.0802e-06,10.795,8.2948e-07,6.2324,1.0356e-12,-1.9275e-06,-8.2949e-07,-6.2324,0.48579
16536,8.3124,2.7273,0,0.00037958,3793.2,0.00013101,-0.00038118,0.00011544,-116.96,-0.00038144,-3850.3,0.51609
16537,8.2206,2.6364,0,0.00038215,3818.8,0.00013204,0.00012215,0.00011597,-120.75,-0.00038406,-3877.8,0.50587
16538,8.2206,2.7273,0.05,1.0551e-06,10.543,8.1017e-07,6.0873,1.1767e-12,1.7993e-06,-8.1016e-07,-6.0873,0.5059
16539,8.4959,2.7273,0,0.00037468,3744.2,0.00012887,-0.00021345,0.00011472,-106.3,-0.00037637,-3796.2,0.53659
16540,8.4041,2.6364,0,0.00037723,3769.7,0.00012989,0.00014598,0.00011527,-109.82,-0.00037897,-3823.4,0.52624
16541,8.4041,2.7273,0.05,1.0338e-06,10.331,7.9384e-07,5.9646,2.1781e-12,1.5694e-06,-7.9384e-07,-5.9646,0.52627
16542,8.6794,2.7273,0,0.00036979,3695.4,0.00012678,3.6326e-05,0.00011393,-96.553,-0.00037134,-3742.7,0.55734
16543,8.5876,2.6364,0,0.00037233,3720.7,0.00012778,0.00028642,0.00011449,-99.829,-0.00037392,-3769.6,0.54687
16544,8.5876,2.7273,0.05,1.0157e-06,10.15,7.7992e-07,5.86,1.3412e-12,1.2255e-06,-7.7992e-07,-5.86,0.5469
16545,8.8628,2.7273,0,0.00036491,3646.6,0.00012474,0.00033745,0.00011307,-87.642,-0.00036632,-3689.6,0.57834
16546,8.7711,2.6364,0,0.00036743,3671.8,0.00012572,0.00050342,0.00011365,-90.682,-0.00036889,-3716.3,0.56775
16547,8.7711,2.7273,0.05,1.0001e-06,9.9937,7.6792e-07,5.7698,2.3138e-12,6.962e-07,-7.6793e-07,-5.7699,0.56778
16548,9.0463,2.7273,0,0.00036003,3597.8,0.00012273,0.00066841,0.00011215,-79.487,-0.00036132,-3636.9,0.59959
16549,8.9546,2.6364,0,0.00036255,3623,0.0001237,0.00077021,0.00011274,-82.306,-0.00036388,-3663.4,0.58887
16550,8.9546,2.7273,0.05,9.8647e-07,9.8579,7.5748e-07,5.6914,1.4612e-12,1.7692e-07,-7.5749e-07,-5.6915,0.58891
16551,9.2298,2.7273,0,0.00035515,3549.1,0.00012075,0.0010136,0.00011116,-72.02,-0.00035632,-3584.5,0.62109
16552,9.1381,2.6364,0,0.00035767,3574.2,0.00012171,0.0010662,0.00011177,-74.632,-0.00035888,-3610.9,0.61025
16553,9.1381,2.7273,0.05,9.7451e-07,9.7384,7.4831e-07,5.6225,1.5133e-12,5.6566e-07,-7.483e-07,-5.6225,0.61028
16554,9.4133,2.7273,0,0.00035028,3500.3,0.0001188,0.0013621,0.00011013,-65.177,-0.00035134,-3532.5,0.64282
16555,9.3215,2.6364,0,0.00035278,3525.4,0.00011975,0.0013776,0.00011075,-67.596,-0.00035388,-3558.7,0.63186
16556,9.3215,2.7273,0.05,9.6389e-07,9.6322,7.4014e-07,5.5611,2.4616e-12,8.729e-07,-7.4015e-07,-5.5612,0.63189
16557,9.5968,2.7273,0,0.0003454,3451.6,0.00011689,0.0017081,0.00010905,-58.902,-0.00034636,-3480.6,0.66479
16558,9.505,2.6364,0,0.0003479,3476.6,0.00011782,0.001694,0.00010968,-61.142,-0.0003489,-3506.8,0.65371
16559,9.505,2.7273,0.05,9.5434e-07,9.5369,7.3282e-07,5.5061,1.5867e-12,1.596e-07,-7.3282e-07,-5.5061,0.65374
16560,9.7802,2.7273,0,0.00034051,3402.8,0.00011499,0.0020437,0.00010792,-53.144,-0.00034139,-3429.1,0.68699
16561,9.6885,2.6364,0,0.00034301,3427.8,0.00011592,0.0020115,0.00010857,-55.217,-0.00034392,-3455,0.6758
16562,9.6885,2.7273,0.05,9.4569e-07,9.4504,7.2617e-07,5.4561,1.6123e-12,1.3154e-06,-7.2617e-07,-5.4562,0.67583
16563,9.9637,2.7273,0,0.00033563,3354,0.00011312,0.0023713,0.00010675,-47.855,-0.00033642,-3377.7,0.70942
16564,9.872,2.6364,0,0.00033813,3378.9,0.00011404,0.0023163,0.00010741,-49.775,-0.00033895,-3403.5,0.69812
16565,9.872,2.7273,0.05,9.3776e-07,9.3712,7.2008e-07,5.4104,1.6376e-12,1.0241e-06,-7.2009e-07,-5.4104,0.69815
16566,10.147,2.7273,0,0.00033075,3305.2,0.00011127,0.0026912,0.00010555,-42.995,-0.00033146,-3326.5,0.73208
16567,10.055,2.6364,0,0.00033324,3330.1,0.00011218,0.0026256,0.00010622,-44.772,-0.00033398,-3352.2,0.72066
16568,10.055,2.7273,0.05,9.3044e-07,9.298,7.1447e-07,5.3682,3.4778e-12,6.9907e-07,-7.1446e-07,-5.3682,0.7207
16569,10.331,2.7273,0,0.00032586,3256.4,0.00010944,0.0029802,0.00010431,-38.524,-0.0003265,-3275.5,0.75496
16570,10.239,2.6364,0,0.00032835,3281.2,0.00011034,0.0029214,0.00010499,-40.17,-0.00032902,-3301.1,0.74343
16571,10.239,2.7273,0.05,9.2363e-07,9.2299,7.0923e-07,5.3289,1.6767e-12,2.278e-06,-7.0923e-07,-5.3289,0.74347
16572,10.514,2.7273,0,0.00032098,3207.6,0.00010762,0.0032488,0.00010304,-34.41,-0.00032155,-3224.7,0.77807
16573,10.422,2.6364,0,0.00032346,3232.4,0.00010852,0.0031748,0.00010374,-35.934,-0.00032406,-3250.2,0.76643
16574,10.422,2.7273,0.05,9.1723e-07,9.1659,7.0431e-07,5.2919,7.8513e-13,1.4473e-06,-7.0432e-07,-5.292,0.76646
16575,10.698,2.7273,0,0.0003161,3158.8,0.00010583,0.0035203,0.00010175,-30.62,-0.00031661,-3174,0.80138
16576,10.606,2.6364,0,0.00031858,3183.6,0.00010671,0.003434,0.00010245,-32.032,-0.00031911,-3199.5,0.78964
16577,10.606,2.7273,0.05,9.1118e-07,9.1055,6.9967e-07,5.257,1.7089e-12,2.0333e-06,-6.9967e-07,-5.2571,0.78967
16578,10.881,2.7273,0,0.00031123,3110.1,0.00010405,0.0037981,0.00010043,-27.126,-0.00031168,-3123.6,0.82492
16579,10.789,2.6364,0,0.0003137,3134.8,0.00010493,0.0036983,0.00010114,-28.435,-0.00031417,-3148.9,0.81307
16580,10.789,2.7273,0.05,9.0543e-07,9.048,6.9525e-07,5.2238,8.1237e-13,1.8925e-06,-6.9526e-07,-5.2239,0.8131
16581,11.065,2.7273,0,0.00030635,3061.4,0.00010228,0.0040532,9.9097e-05,-23.903,-0.00030675,-3073.3,0.84866
16582,10.973,2.6364,0,0.00030882,3086.1,0.00010315,0.0039745,9.981e-05,-25.117,-0.00030924,-3098.6,0.8367
16583,10.973,2.7273,0.05,8.9994e-07,8.9932,6.9104e-07,5.1922,2.643e-12,1.4972e-06,-6.9104e-07,-5.1923,0.83673
16584,11.248,2.7273,0,0.00030149,3012.8,0.00010053,0.0042747,9.774e-05,-20.928,-0.00030184,-3023.2,0.87261
16585,11.156,2.6364,0,0.00030395,3037.4,0.00010139,0.0041963,9.8458e-05,-22.054,-0.00030432,-3048.4,0.86055
16586,11.156,2.7273,0.05,8.9468e-07,8.9406,6.87e-07,5.1619,1.7434e-12,2.2914e-06,-6.8701e-07,-5.1619,0.86058
16587,11.432,2.7273,0,0.00029663,2964.2,9.8786e-05,0.0045109,9.6366e-05,-18.179,-0.00029693,-2973.3,0.89676
16588,11.34,2.6364,0,0.00029908,2988.8,9.9648e-05,0.0044086,9.7089e-05,-19.225,-0.0002994,-2998.3,0.8846
16589,11.34,2.7273,0.05,8.896e-07,8.8899,6.831e-07,5.1326,2.6626e-12,2.1264e-06,-6.8311e-07,-5.1326,0.88463
16590,11.615,2.7273,0,0.00029177,2915.7,9.7059e-05,0.0047444,9.4977e-05,-15.636,-0.00029204,-2923.5,0.92111
16591,11.523,2.6364,0,0.00029422,2940.2,9.7916e-05,0.0046641,9.5705e-05,-16.609,-0.0002945,-2948.5,0.90885
16592,11.523,2.7273,0.05,8.847e-07,8.8409,6.7934e-07,5.1043,-5.7761e-14,2.0696e-06,-6.7934e-07,-5.1043,0.90888
16593,11.799,2.7273,0,0.00028693,2867.3,9.5344e-05,0.0049561,9.3575e-05,-13.283,-0.00028715,-2873.9,0.94566
16594,11.707,2.6364,0,0.00028937,2891.7,9.6195e-05,0.0048751,9.4306e-05,-14.187,-0.00028961,-2898.8,0.9333
16595,11.707,2.7273,0.05,8.7995e-07,8.7934,6.7569e-07,5.0769,8.587e-13,2.3601e-06,-6.7569e-07,-5.0769,0.93333
16596,11.982,2.7273,0,0.00028209,2819,9.364e-05,0.005171,9.2162e-05,-11.102,-0.00028228,-2824.5,0.9704
16597,11.89,2.6364,0,0.00028453,2843.3,9.4487e-05,0.0050915,9.2896e-05,-11.944,-0.00028473,-2849.3,0.95795
16598,11.89,2.7273,0.05,8.7532e-07,8.7471,6.7214e-07,5.0501,8.6622e-13,3.6077e-06,-6.7214e-07,-5.0502,0.95798
16599,12.165,2.7273,0,0.00027727,2770.8,9.1948e-05,0.0053725,9.0739e-05,-9.0788,-0.00027742,-2775.3,0.99533
16600,12.074,2.6364,0,0.0002797,2795.1,9.2789e-05,0.0053151,9.1475e-05,-9.8645,-0.00027986,-2800,0.98279
16601,12.074,2.7273,0.05,8.7081e-07,8.7021,6.6868e-07,5.0242,8.7321e-13,3.124e-06,-6.6867e-07,-5.0242,0.98281
16602,12.349,2.7273,0,0.00027245,2722.6,9.0266e-05,0.0055693,8.9307e-05,-7.1994,-0.00027257,-2726.2,1.0204
16603,12.257,2.6364,0,0.00027488,2746.9,9.1102e-05,0.0055138,9.0046e-05,-7.9335,-0.00027501,-2750.8,1.0078
16604,12.257,2.7273,0.05,8.6641e-07,8.6581,6.6529e-07,4.9987,1.789e-12,3.6486e-06,-6.6529e-07,-4.9988,1.0078
16605,12.532,2.7273,0,0.00026765,2674.6,8.8594e-05,0.0057907,8.7868e-05,-5.4513,-0.00026774,-2677.4,1.0457
16606,12.441,2.6364,0,0.00027007,2698.8,8.9426e-05,0.0057439,8.8609e-05,-6.1382,-0.00027017,-2701.9,1.033
16607,12.441,2.7273,0.05,8.6209e-07,8.6149,6.6197e-07,4.9738,2.7044e-12,3.7247e-06,-6.6198e-07,-4.9739,1.033
16608,12.716,2.7273,0,0.00026286,2626.8,8.6933e-05,0.0060539,8.6423e-05,-3.8226,-0.00026292,-2628.7,1.0712
16609,12.624,2.6364,0,0.00026527,2650.9,8.776e-05,0.0060211,8.7165e-05,-4.4668,-0.00026534,-2653.1,1.0584
16610,12.624,2.7273,0.05,8.5786e-07,8.5726,6.5872e-07,4.9494,8.9089e-13,2.2727e-06,-6.5873e-07,-4.9494,1.0584
16611,12.899,2.7273,0,0.00025808,2579,8.5281e-05,0.0063872,8.4974e-05,-2.3026,-0.00025812,-2580.2,1.0969
16612,12.808,2.6364,0,0.00026048,2603,8.6104e-05,0.006404,8.5716e-05,-2.9081,-0.00026053,-2604.5,1.084
16613,12.808,2.7273,0.05,8.5371e-07,8.5312,6.5554e-07,4.9255,8.9504e-13,1.4345e-06,-6.5554e-07,-4.9255,1.084
16614,13.083,2.7273,0,0.00025332,2531.4,8.3638e-05,0.0071543,8.352e-05,-0.88169,-0.00025333,-2531.8,1.1227
16615,12.991,2.6364,0,0.00025571,2555.3,8.4457e-05,0.0070919,8.4263e-05,-1.4522,-0.00025573,-2556.1,1.1097
16616,12.991,2.7273,0.05,8.4963e-07,8.4905,6.5241e-07,4.9019,8.9948e-13,2.0775e-06,-6.5241e-07,-4.902,1.1098
16617,13.266,2.7273,0,0.00024857,2483.9,8.2064e-05,0.45369,8.2004e-05,0.0043937,-0.00024856,-2483.7,1.1487
16618,13.175,2.6364,0,0.00025095,2507.8,8.2821e-05,0.020493,8.2805e-05,-0.1018,-0.00025095,-2507.8,1.1357
16619,13.175,2.7273,0.05,8.4561e-07,8.4503,6.4933e-07,4.8788,1.813e-12,2.9354e-06,-6.4932e-07,-4.8788,1.1357
16620,13.45,2.7273,0,0.00024383,2436.6,8.0606e-05,1.7043,8.038e-05,0.006017,-0.0002438,-2435.8,1.1749
16621,13.358,2.6364,0,0.00024621,2460.4,8.1348e-05,1.1938,8.119e-05,0.0050836,-0.00024619,-2459.8,1.1617
16622,13.358,2.7273,0.05,8.4166e-07,8.4108,6.4629e-07,4.856,9.0717e-13,4.2889e-06,-6.4629e-07,-4.856,1.1618
16623,13.633,2.7273,0,0.00023911,2389.4,7.9147e-05,2.8839,7.8764e-05,0.0063972,-0.00023906,-2388,1.2012
16624,13.542,2.6364,0,0.00024148,2413.1,7.9888e-05,2.3975,7.957e-05,0.0059015,-0.00024144,-2411.9,1.188
16625,13.542,2.7273,0.05,8.3777e-07,8.3719,6.433e-07,4.8335,9.1052e-13,5.0518e-06,-6.433e-07,-4.8335,1.188
16626,13.817,2.7273,0,0.0002344,2342.4,7.7687e-05,3.9991,7.7156e-05,0.0066597,-0.00023434,-2340.4,1.2277
16627,13.725,2.6364,0,0.00023677,2366,7.8428e-05,3.5341,7.7958e-05,0.0062796,-0.00023671,-2364.3,1.2144
16628,13.725,2.7273,0.05,8.3392e-07,8.3335,6.4035e-07,4.8113,9.136e-13,6.0658e-06,-6.4035e-07,-4.8114,1.2144
16629,14,2.7273,0,0.00022972,2295.6,7.6228e-05,5.057,7.5556e-05,0.0068725,-0.00022963,-2293,1.2544
16630,13.909,2.6364,0,0.00023207,2319.1,7.6967e-05,4.6107,7.6355e-05,0.0065602,-0.00023199,-2316.8,1.241
16631,13.909,2.7273,0.05,8.3013e-07,8.2956,6.3744e-07,4.7895,3.645e-12,6.8178e-06,-6.3744e-07,-4.7895,1.241
16632,14.184,2.7273,0,0.00022504,2248.9,7.4771e-05,6.0645,7.3964e-05,0.0070725,-0.00022494,-2245.8,1.2812
16633,14.092,2.6364,0,0.00022739,2272.3,7.5508e-05,5.6339,7.4759e-05,0.0067695,-0.00022729,-2269.5,1.2677
16634,14.092,2.7273,0.05,8.2638e-07,8.2581,6.3456e-07,4.7678,9.679e-15,6.2415e-06,-6.3456e-07,-4.7679,1.2677
16635,14.367,2.7273,0,0.00022039,2202.4,7.3315e-05,7.0282,7.238e-05,0.0072857,-0.00022027,-2198.8,1.3081
16636,14.276,2.6364,0,0.00022272,2225.7,7.405e-05,6.6106,7.3171e-05,0.0069986,-0.00022261,-2222.4,1.2946
16637,14.276,2.7273,0.05,8.2268e-07,8.2211,6.3171e-07,4.7464,1.8312e-12,6.0825e-06,-6.3171e-07,-4.7465,1.2946
16638,14.551,2.7273,0,0.00021575,2156,7.1862e-05,7.9542,7.0804e-05,0.0074802,-0.00021561,-2152,1.3353
16639,14.459,2.6364,0,0.00021808,2179.3,7.2595e-05,7.5469,7.1591e-05,0.0072195,-0.00021795,-2175.5,1.3216
16640,14.459,2.7273,0.05,8.1902e-07,8.1845,6.289e-07,4.7253,1.8338e-12,6.7866e-06,-6.2891e-07,-4.7253,1.3217
16641,14.734,2.7273,0,0.00021113,2109.8,7.0412e-05,8.8485,6.9235e-05,0.0076659,-0.00021098,-2105.4,1.3625
16642,14.642,2.6364,0,0.00021345,2133,7.1142e-05,8.4489,7.0019e-05,0.0074032,-0.0002133,-2128.7,1.3488
16643,14.642,2.7273,0.05,8.1539e-07,8.1483,6.2612e-07,4.7044,9.267e-13,5.0771e-06,-6.2612e-07,-4.7045,1.3488
16644,14.918,2.7273,0,0.00020653,2063.9,6.8965e-05,9.7168,6.7673e-05,0.0078681,-0.00020636,-2059,1.3899
16645,14.826,2.6364,0,0.00020883,2086.9,6.9693e-05,9.3224,6.8454e-05,0.0076026,-0.00020867,-2082.2,1.3761
16646,14.826,2.7273,0.05,8.118e-07,8.1124,6.2336e-07,4.6837,9.2909e-13,4.0216e-06,-6.2337e-07,-4.6838,1.3762
16647,15.101,2.7273,0,0.00020195,2018.1,6.7524e-05,10.565,6.6119e-05,0.0080861,-0.00020176,-2012.7,1.4174
16648,15.009,2.6364,0,0.00020424,2041,6.8249e-05,10.173,6.6896e-05,0.0078153,-0.00020407,-2035.9,1.4036
16649,15.009,2.7273,0.05,8.0825e-07,8.077,6.2064e-07,4.6632,2.7502e-12,2.7877e-06,-6.2064e-07,-4.6633,1.4036
16650,15.285,2.7273,0,0.00019738,1972.4,6.6087e-05,11.398,6.4571e-05,0.0083044,-0.00019718,-1966.7,1.4451
16651,15.193,2.6364,0,0.00019967,1995.3,6.6808e-05,11.006,6.5345e-05,0.0080428,-0.00019948,-1989.8,1.4312
16652,15.193,2.7273,0.05,8.0474e-07,8.0419,6.1794e-07,4.643,2.4275e-14,2.0889e-06,-6.1795e-07,-4.643,1.4312
16653,15.468,2.7273,0,0.00019283,1927,6.4655e-05,12.221,6.303e-05,0.008519,-0.00019262,-1920.9,1.4729
16654,15.376,2.6364,0,0.00019511,1949.8,6.5373e-05,11.827,6.3801e-05,0.008255,-0.00019491,-1943.8,1.4589
16655,15.376,2.7273,0.05,8.0127e-07,8.0072,6.1528e-07,4.6229,2.6076e-14,3.7711e-06,-6.1528e-07,-4.623,1.459
16656,15.652,2.7273,0,0.00018831,1881.8,6.323e-05,13.04,6.1495e-05,0.0087454,-0.00018808,-1875.2,1.5008
16657,15.56,2.6364,0,0.00019057,1904.4,6.3944e-05,12.641,6.2263e-05,0.0084749,-0.00019036,-1898.1,1.4868
16658,15.56,2.7273,0.05,7.9783e-07,7.9728,6.1264e-07,4.6031,3.6657e-12,2.1167e-06,-6.1264e-07,-4.6031,1.4868
16659,15.835,2.7273,0,0.0001838,1836.8,6.1811e-05,13.86,5.9968e-05,0.0089718,-0.00018356,-1829.8,1.5289
16660,15.743,2.6364,0,0.00018606,1859.3,6.2521e-05,13.453,6.0732e-05,0.0087085,-0.00018582,-1852.5,1.5148
16661,15.743,2.7273,0.05,7.9443e-07,7.9388,6.1002e-07,4.5835,2.9368e-14,9.364e-07,-6.1003e-07,-4.5835,1.5148
16662,16.019,2.7273,0,0.00017932,1791.9,6.0399e-05,14.686,5.8446e-05,0.0092097,-0.00017906,-1784.5,1.5571
16663,15.927,2.6364,0,0.00018156,1814.4,6.1105e-05,14.269,5.9208e-05,0.0089272,-0.00018131,-1807.2,1.5429
16664,15.927,2.7273,0.05,7.9106e-07,7.9052,6.0744e-07,4.564,3.0959e-14,1.0681e-06,-6.0744e-07,-4.5641,1.543
16665,16.202,2.7273,0,0.00017485,1747.3,5.8996e-05,15.524,5.6931e-05,0.0094721,-0.00017458,-1739.5,1.5854
16666,16.11,2.6364,0,0.00017708,1769.6,5.9697e-05,15.094,5.7689e-05,0.009184,-0.00017682,-1762,1.5712
16667,16.11,2.7273,0.05,7.8773e-07,7.8718,6.0488e-07,4.5448,1.3984e-12,1.5683e-06,-6.0488e-07,-4.5448,1.5712
16668,16.386,2.7273,0,0.00017041,1702.9,5.76e-05,16.378,5.5421e-05,0.0097324,-0.00017012,-1694.6,1.6138
16669,16.294,2.6364,0,0.00017263,1725.1,5.8296e-05,15.932,5.6177e-05,0.0094508,-0.00017235,-1717.1,1.5995
16670,16.294,2.7273,0.05,7.8443e-07,7.8389,6.0235e-07,4.5258,1.4009e-12,2.1874e-06,-6.0235e-07,-4.5258,1.5996
16671,16.569,2.7273,0,0.00016598,1658.7,5.6213e-05,17.255,5.3918e-05,0.0099995,-0.00016568,-1650,1.6423
16672,16.477,2.6364,0,0.00016819,1680.8,5.6904e-05,16.79,5.4671e-05,0.0097031,-0.0001679,-1672.3,1.628
16673,16.477,2.7273,0.05,7.8117e-07,7.8063,5.9984e-07,4.507,1.404e-12,1.8482e-06,-5.9985e-07,-4.507,1.628
16674,16.753,2.7273,0,0.00016158,1614.7,5.4836e-05,18.159,5.242e-05,0.010291,-0.00016126,-1605.5,1.671
16675,16.661,2.6364,0,0.00016378,1636.7,5.5521e-05,17.672,5.3171e-05,0.0099826,-0.00016347,-1627.8,1.6566
16676,16.661,2.7273,0.05,7.7795e-07,7.7741,5.9737e-07,4.4884,1.8619e-12,3.7798e-06,-5.9737e-07,-4.4884,1.6566
16677,16.936,2.7273,0,0.0001572,1570.9,5.3468e-05,19.098,5.0928e-05,0.010607,-0.00015687,-1561.3,1.6997
16678,16.844,2.6364,0,0.00015939,1592.8,5.4148e-05,18.585,5.1676e-05,0.010284,-0.00015906,-1583.4,1.6853
16679,16.844,2.7273,0.05,7.7476e-07,7.7423,5.9492e-07,4.47,1.411e-12,6.3095e-06,-5.9492e-07,-4.47,1.6853
16680,17.119,2.7273,0,0.00015284,1527.4,5.2111e-05,20.075,4.9441e-05,0.010935,-0.00015249,-1517.2,1.7286
16681,17.028,2.6364,0,0.00015502,1549.1,5.2785e-05,19.534,5.0186e-05,0.010611,-0.00015468,-1539.3,1.7141
16682,17.028,2.7273,0.05,7.7162e-07,7.7109,5.9251e-07,4.4519,9.5965e-13,5.6218e-06,-5.9251e-07,-4.4519,1.7141
16683,17.303,2.7273,0,0.00014851,1484,5.0766e-05,21.099,4.7959e-05,0.011275,-0.00014814,-1473.4,1.7576
16684,17.211,2.6364,0,0.00015067,1505.7,5.1433e-05,20.525,4.8702e-05,0.010938,-0.00015031,-1495.3,1.743
16685,17.211,2.7273,0.05,7.6853e-07,7.68,5.9013e-07,4.434,9.6241e-13,6.1198e-06,-5.9013e-07,-4.434,1.743
16686,17.486,2.7273,0,0.0001442,1441,4.9432e-05,22.175,4.6483e-05,0.011639,-0.0001438,-1429.7,1.7866
16687,17.395,2.6364,0,0.00014635,1462.5,5.0092e-05,21.565,4.7224e-05,0.011288,-0.00014597,-1451.6,1.7721
16688,17.395,2.7273,0.05,7.6547e-07,7.6494,5.8779e-07,4.4164,1.4206e-12,5.4304e-06,-5.8779e-07,-4.4164,1.7721
16689,17.67,2.7273,0,0.00013991,1398.1,4.8112e-05,23.31,4.5011e-05,0.012018,-0.0001395,-1386.3,1.8158
16690,17.578,2.6364,0,0.00014205,1419.5,4.8764e-05,22.66,4.575e-05,0.011662,-0.00014165,-1408,1.8012
16691,17.578,2.7273,0.05,7.6247e-07,7.6194,5.8548e-07,4.3991,5.1599e-13,7.3746e-06,-5.8548e-07,-4.3991,1.8012
16692,17.853,2.7273,0,0.00013564,1355.5,4.6804e-05,24.511,4.3544e-05,0.012423,-0.00013521,-1343.1,1.845
16693,17.762,2.6364,0,0.00013777,1376.7,4.7448e-05,23.817,4.428e-05,0.012042,-0.00013735,-1364.7,1.8304
16694,17.762,2.7273,0.05,7.5952e-07,7.5899,5.8321e-07,4.382,1.4295e-12,7.6429e-06,-5.8321e-07,-4.3821,1.8304
16695,18.037,2.7273,0,0.0001314,1313.1,4.5511e-05,25.787,4.2081e-05,0.012866,-0.00013095,-1300,1.8744
16696,17.945,2.6364,0,0.00013352,1334.3,4.6147e-05,25.044,4.2815e-05,0.012468,-0.00013307,-1321.5,1.8597
16697,17.945,2.7273,0.05,7.5661e-07,7.5609,5.8099e-07,4.3653,1.4331e-12,9.579e-06,-5.8099e-07,-4.3653,1.8597
16698,18.22,2.7273,0,0.00012719,1271,4.4233e-05,27.144,4.0622e-05,0.01333,-0.00012671,-1257.2,1.9038
16699,18.129,2.6364,0,0.00012929,1292,4.486e-05,26.347,4.1355e-05,0.012923,-0.00012882,-1278.6,1.8891
16700,18.129,2.7273,0.05,7.5377e-07,7.5325,5.788e-07,4.3489,5.3069e-13,6.7715e-06,-5.7881e-07,-4.3489,1.8891
16701,18.404,2.7273,0,0.000123,1229.2,4.2971e-05,28.593,3.9167e-05,0.013819,-0.00012249,-1214.6,1.9333
16702,18.312,2.6364,0,0.00012509,1250,4.3588e-05,27.736,3.9898e-05,0.013389,-0.00012459,-1235.9,1.9185
16703,18.312,2.7273,0.05,7.51e-07,7.5048,5.7667e-07,4.3329,9.8997e-13,7.522e-06,-5.7667e-07,-4.3329,1.9185
16704,18.587,2.7273,0,0.00011884,1187.6,4.1725e-05,30.141,3.7716e-05,0.014354,-0.0001183,-1172.2,1.9629
16705,18.496,2.6364,0,0.00012091,1208.3,4.2333e-05,29.219,3.8446e-05,0.013898,-0.00012039,-1193.4,1.9481
16706,18.496,2.7273,0.05,7.4828e-07,7.4777,5.7459e-07,4.3172,9.9578e-13,5.1805e-06,-5.7459e-07,-4.3172,1.9481
16707,18.771,2.7273,0,0.00011471,1146.3,4.0498e-05,31.799,3.6268e-05,0.014936,-0.00011413,-1130,1.9926
16708,18.679,2.6364,0,0.00011676,1166.8,4.1095e-05,30.806,3.6996e-05,0.014454,-0.00011621,-1151.1,1.9777
16709,18.679,2.7273,0.05,7.4564e-07,7.4513,5.7256e-07,4.302,5.459e-13,9.9825e-06,-5.7256e-07,-4.302,1.9777
16710,18.954,2.7273,0,0.0001106,1105.2,3.929e-05,33.577,3.4823e-05,0.015556,-0.00010999,-1088,2.0224
16711,18.863,2.6364,0,0.00011264,1125.6,3.9875e-05,32.506,3.555e-05,0.015054,-0.00011205,-1109,2.0075
16712,18.863,2.7273,0.05,7.4309e-07,7.4258,5.706e-07,4.2873,1.0022e-12,8.564e-06,-5.706e-07,-4.2873,2.0075
16713,19.138,2.7273,0,0.00010652,1064.5,3.8101e-05,35.486,3.3381e-05,0.016221,-0.00010587,-1046.3,2.0522
16714,19.046,2.6364,0,0.00010855,1084.7,3.8674e-05,34.331,3.4107e-05,0.015691,-0.00010792,-1067.1,2.0373
16715,19.046,2.7273,0.05,7.4062e-07,7.4011,5.687e-07,4.273,1.0048e-12,7.8649e-06,-5.6871e-07,-4.273,2.0373
16716,19.321,2.7273,0,0.00010247,1024,3.6934e-05,37.538,3.1941e-05,0.016945,-0.00010178,-1004.7,2.0821
16717,19.229,2.6364,0,0.00010448,1044.1,3.7494e-05,36.29,3.2666e-05,0.016379,-0.00010381,-1025.5,2.0671
16718,19.229,2.7273,0.05,7.3825e-07,7.3774,5.6688e-07,4.2593,1.9204e-12,6.9629e-06,-5.6688e-07,-4.2593,2.0671
16719,19.505,2.7273,0,9.8453e-05,983.85,3.579e-05,39.746,3.0502e-05,0.017723,-9.7717e-05,-963.37,2.1121
16720,19.413,2.6364,0,0.00010044,1003.8,3.6336e-05,38.397,3.1228e-05,0.017131,-9.9736e-05,-983.99,2.0971
16721,19.413,2.7273,0.05,7.3598e-07,7.3548,5.6514e-07,4.2463,5.6456e-13,1.0364e-05,-5.6515e-07,-4.2463,2.0971
16722,19.688,2.7273,0,9.4466e-05,944.01,3.4669e-05,42.122,2.9066e-05,0.018573,-9.3679e-05,-922.24,2.1421
16723,19.596,2.6364,0,9.644e-05,963.73,3.5201e-05,40.665,2.9791e-05,0.017933,-9.5683e-05,-942.75,2.1271
16724,19.596,2.7273,0.05,7.3384e-07,7.3333,5.6349e-07,4.2339,1.9375e-12,9.4727e-06,-5.6349e-07,-4.2339,2.1271
16725,19.872,2.7273,0,9.0512e-05,904.5,3.3574e-05,44.682,2.763e-05,0.019508,-8.9669e-05,-881.32,2.1722
16726,19.78,2.6364,0,9.2467e-05,924.03,3.409e-05,43.107,2.8355e-05,0.018823,-9.1658e-05,-901.71,2.1571
16727,19.78,2.7273,0.05,7.3181e-07,7.3131,5.6194e-07,4.2222,1.4889e-12,1.0468e-05,-5.6194e-07,-4.2222,2.1571
16728,20.055,2.7273,0,8.6591e-05,865.32,3.2506e-05,47.441,2.6195e-05,0.020523,-8.5686e-05,-840.61,2.2024
16729,19.963,2.6364,0,8.8527e-05,884.66,3.3005e-05,45.738,2.6921e-05,0.019795,-8.766e-05,-860.89,2.1873
16730,19.963,2.7273,0.05,7.2994e-07,7.2943,5.605e-07,4.2114,1.04e-12,1.0044e-05,-5.605e-07,-4.2114,2.1873
16731,20.239,2.7273,0,8.2706e-05,826.49,3.1466e-05,50.414,2.4759e-05,0.021636,-8.1732e-05,-800.12,2.2326
16732,20.147,2.6364,0,8.4621e-05,845.62,3.1948e-05,48.573,2.5486e-05,0.020848,-8.3689e-05,-820.28,2.2175
16733,20.147,2.7273,0.05,7.2822e-07,7.2772,5.5918e-07,4.2015,1.0428e-12,1.0538e-05,-5.5918e-07,-4.2015,2.2175
16734,20.422,2.7273,0,7.8856e-05,788.02,3.0457e-05,53.62,2.3323e-05,0.022869,-7.7807e-05,-759.83,2.2629
16735,20.33,2.6364,0,8.075e-05,806.95,3.092e-05,51.63,2.4051e-05,0.022014,-7.9748e-05,-779.88,2.2477
16736,20.33,2.7273,0.05,7.2668e-07,7.2618,5.58e-07,4.1926,1.9582e-12,1.1059e-05,-5.58e-07,-4.1926,2.2477
16737,20.606,2.7273,0,7.5045e-05,749.93,2.9479e-05,57.075,2.1886e-05,0.024238,-7.3911e-05,-719.75,2.2932
16738,20.514,2.6364,0,7.6917e-05,768.64,2.9922e-05,54.925,2.2615e-05,0.02331,-7.5835e-05,-739.69,2.278
16739,20.514,2.7273,0.05,7.2534e-07,7.2484,5.5697e-07,4.1849,1.0578e-12,7.7809e-06,-5.5697e-07,-4.1849,2.278
16740,20.789,2.7273,0,7.1274e-05,712.24,2.8535e-05,60.799,2.0446e-05,0.02576,-7.0044e-05,-679.88,2.3236
16741,20.697,2.6364,0,7.3122e-05,730.72,2.8957e-05,58.476,2.1178e-05,0.02475,-7.1951e-05,-699.71,2.3084
16742,20.697,2.7273,0.05,7.2423e-07,7.2373,5.5612e-07,4.1785,1.0551e-12,4.913e-06,-5.5612e-07,-4.1785,2.3084
16743,20.973,2.7273,0,6.7544e-05,674.97,2.7626e-05,64.811,1.9004e-05,0.027461,-6.6207e-05,-640.21,2.354
16744,20.881,2.6364,0,6.9367e-05,693.2,2.8027e-05,62.305,1.9738e-05,0.026353,-6.8097e-05,-659.93,2.3388
16745,20.881,2.7273,0.05,7.2337e-07,7.2287,5.5546e-07,4.1735,1.0559e-12,5.8774e-06,-5.5546e-07,-4.1735,2.3388
16746,21.156,2.7273,0,6.3857e-05,638.13,2.6755e-05,69.132,1.7558e-05,0.029381,-6.2399e-05,-600.74,2.3845
16747,21.064,2.6364,0,6.5656e-05,656.1,2.7132e-05,66.429,1.8295e-05,0.028153,-6.4272e-05,-620.35,2.3692
16748,21.064,2.7273,0.05,7.228e-07,7.223,5.5502e-07,4.1702,1.0613e-12,8.7709e-06,-5.5502e-07,-4.1702,2.3692
16749,21.34,2.7273,0,6.0218e-05,601.76,2.5923e-05,73.782,1.6107e-05,0.03156,-5.8622e-05,-561.45,2.415
16750,21.248,2.6364,0,6.1988e-05,619.46,2.6276e-05,70.87,1.6848e-05,0.030194,-6.0477e-05,-580.96,2.3997
16751,21.248,2.7273,0.05,7.2254e-07,7.2205,5.5482e-07,4.1687,1.0541e-12,8.7181e-06,-5.5482e-07,-4.1687,2.3997
16752,21.523,2.7273,0,5.6627e-05,565.88,2.5132e-05,78.782,1.4651e-05,0.034057,-5.4873e-05,-522.35,2.4455
16753,21.431,2.6364,0,5.8369e-05,583.28,2.5459e-05,75.649,1.5395e-05,0.032516,-5.6712e-05,-541.76,2.4302
16754,21.431,2.7273,0.05,7.2265e-07,7.2215,5.5491e-07,4.1693,1.0485e-12,8.6749e-06,-5.5491e-07,-4.1693,2.4302
16755,21.706,2.7273,0,5.3089e-05,530.52,2.4383e-05,84.153,1.3188e-05,0.036956,-5.1154e-05,-483.4,2.4761
16756,21.615,2.6364,0,5.48e-05,547.62,2.4685e-05,80.787,1.3937e-05,0.0352,-5.2976e-05,-502.73,2.4608
16757,21.615,2.7273,0.05,7.2316e-07,7.2266,5.553e-07,4.1723,1.0244e-12,6.5819e-06,-5.553e-07,-4.1723,2.4608
16758,21.89,2.7273,0,4.9608e-05,495.74,2.3679e-05,89.915,1.1717e-05,0.040354,-4.7462e-05,-444.61,2.5067
16759,21.798,2.6364,0,5.1286e-05,512.5,2.3953e-05,86.306,1.2472e-05,0.038332,-4.9269e-05,-463.86,2.4914
16760,21.798,2.7273,0.05,7.2413e-07,7.2363,5.5604e-07,4.1779,5.7104e-13,8.5056e-06,-5.5604e-07,-4.1779,2.4914
16761,22.073,2.7273,0,4.6189e-05,461.57,2.3019e-05,96.086,1.0237e-05,0.0444,-4.3798e-05,-405.95,2.5374
16762,21.982,2.6364,0,4.7831e-05,477.98,2.3266e-05,92.224,1.0998e-05,0.042024,-4.5589e-05,-425.13,2.522
16763,21.982,2.7273,0.05,7.256e-07,7.251,5.5717e-07,4.1864,7.9593e-13,1.8112e-06,-5.5717e-07,-4.1864,2.522
16764,22.257,2.7273,0,4.2839e-05,428.1,2.2407e-05,102.69,8.7465e-06,0.049312,-4.0158e-05,-367.4,2.568
16765,22.165,2.6364,0,4.4441e-05,444.11,2.2626e-05,98.562,9.5141e-06,0.046469,-4.1936e-05,-386.53,2.5527
16766,22.165,2.7273,0.05,7.2764e-07,7.2714,5.5874e-07,4.1981,5.711e-13,5.6443e-06,-5.5874e-07,-4.1981,2.5527
16767,22.44,2.7273,0,3.9567e-05,395.4,2.1841e-05,109.73,7.2442e-06,0.05542,-3.6541e-05,-328.93,2.5988
16768,22.349,2.6364,0,4.1125e-05,410.96,2.2032e-05,105.34,8.0195e-06,0.051916,-3.8307e-05,-348.03,2.5834
16769,22.349,2.7273,0.05,7.3029e-07,7.2979,5.6077e-07,4.2135,1.0161e-12,8.442e-06,-5.6077e-07,-4.2134,2.5834
16770,22.624,2.7273,0,3.6385e-05,363.6,2.1322e-05,117.22,5.7287e-06,0.063154,-3.2944e-05,-290.51,2.6295
16771,22.532,2.6364,0,3.7892e-05,378.66,2.1486e-05,112.56,6.5124e-06,0.058791,-3.47e-05,-309.59,2.6141
16772,22.532,2.7273,0.05,7.3362e-07,7.3311,5.6333e-07,4.2326,3.0602e-13,1.1076e-05,-5.6333e-07,-4.2326,2.6141
16773,22.807,2.7273,0,3.3309e-05,332.86,2.085e-05,125.18,4.1986e-06,0.073542,-2.9364e-05,-252.1,2.6602
16774,22.716,2.6364,0,3.4756e-05,347.32,2.0987e-05,120.26,4.9913e-06,0.067552,-3.1112e-05,-271.2,2.6448
16775,22.716,2.7273,0.05,7.3766e-07,7.3715,5.6643e-07,4.256,2.8497e-13,8.0571e-06,-5.6643e-07,-4.2559,2.6448
16776,22.991,2.7273,0,3.0363e-05,303.42,2.0424e-05,133.61,2.6524e-06,0.087039,-2.5797e-05,-213.67,2.691
16777,22.899,2.6364,0,3.1738e-05,317.17,2.0536e-05,128.42,3.4551e-06,0.079863,-2.754e-05,-232.8,2.6756
16778,22.899,2.7273,0.05,7.4246e-07,7.4195,5.7012e-07,4.2836,7.4064e-13,9.9801e-06,-5.7012e-07,-4.2836,2.6756
16779,23.174,2.7273,0,2.7581e-05,275.62,2.0043e-05,142.52,1.0894e-06,0.10991,-2.2239e-05,-175.17,2.7218
16780,23.083,2.6364,0,2.8866e-05,288.46,2.0131e-05,137.06,1.9021e-06,0.095118,-2.3979e-05,-194.37,2.7064
16781,23.083,2.7273,0.05,7.4803e-07,7.4751,5.7439e-07,4.3158,2.4516e-13,9.6698e-06,-5.7439e-07,-4.3157,2.7064
16782,23.358,2.7273,0,2.501e-05,249.92,1.9704e-05,151.88,-4.9226e-07,0.13321,-1.8687e-05,-136.57,2.7526
16783,23.266,2.6364,0,2.6179e-05,261.61,1.977e-05,146.17,3.3208e-07,0.12684,-2.0427e-05,-155.85,2.7372
16784,23.266,2.7273,0.05,7.5437e-07,7.5385,5.7927e-07,4.3524,2.047e-13,7.4595e-06,-5.7926e-07,-4.3524,2.7372
16785,23.541,2.7273,0,2.2716e-05,227.01,1.9407e-05,161.73,-2.0873e-06,0.23008,-1.5137e-05,-97.823,2.7834
16786,23.45,2.6364,0,2.3733e-05,237.16,1.9452e-05,155.75,-1.2584e-06,0.14488,-1.6877e-05,-117.21,2.768
16787,23.45,2.7273,0.05,7.6145e-07,7.6092,5.847e-07,4.3932,1.6527e-13,5.2528e-06,-5.847e-07,-4.3932,2.768
16788,23.725,2.7273,0,2.0788e-05,207.74,1.9147e-05,171.95,-3.7086e-06,0.2297,-1.1586e-05,-58.954,2.8143
16789,23.633,2.6364,0,2.1607e-05,215.92,1.9174e-05,165.84,-2.8544e-06,0.33125,-1.3333e-05,-78.4,2.7988
16790,23.633,2.7273,0.05,7.6923e-07,7.687,5.9067e-07,4.4381,1.5183e-13,5.1525e-06,-5.9067e-07,-4.4381,2.7988
16791,23.817,2.6364,0,1.9902e-05,198.89,1.8932e-05,176.19,-4.4899e-06,0.21297,-9.7865e-06,-39.584,2.8297
16792,23.817,2.7273,0.05,7.7879e-07,7.7825,5.9802e-07,4.4933,-5.7724e-14,5.2904e-06,-5.9802e-07,-4.4932,2.8297
16793,23.908,2.7273,0,1.9412e-05,193.99,1.8941e-05,182.08,-5.2339e-06,0.43737,-8.2549e-06,-22.262,2.8451
16794,3.5419,2.5455,0,0.0011923,11915,0.00043126,456.32,0.00037087,2.5413,-0.0011839,-11679,0.088615
16795,3.4501,2.4545,0,0.0013247,13238,0.00049764,724.37,0.00039996,-9.569,-0.001311,-12865,0.082831
16796,3.4501,2.5455,0.05,2.1523e-05,215.08,1.6527e-05,124.17,2.1664e-11,-0.00035543,-1.6527e-05,-124.18,0.083175
16797,3.7254,2.5455,0,0.0010323,10316,0.00035021,113.49,0.00033489,-1.6083,-0.0010303,-10259,0.099949
16798,3.6336,2.4545,0,0.0011092,11084,0.00038857,267.17,0.00035218,-6.228,-0.0011045,-10951,0.093851
16799,3.6336,2.5455,0.05,2.2557e-05,225.42,1.7321e-05,130.14,4.6333e-11,-8.3805e-05,-1.7321e-05,-130.15,0.094131
16800,3.9088,2.5455,0,0.00089555,8949.3,0.00030363,2.175,0.00028197,-160.53,-0.00089813,-9027.4,0.11196
16801,3.8171,2.4545,0,0.00094199,9413.4,0.00031418,6.5361,0.00030583,-56.16,-0.00094281,-9438,0.1056
16802,3.8171,2.5455,0.05,1.8615e-05,186.02,1.4294e-05,107.4,4.1776e-11,1.8272e-05,-1.4294e-05,-107.4,0.10582
16803,4.0923,2.5455,0,0.00079025,7897,0.00027741,1.9006,0.00023243,-336.04,-0.00079539,-8058.7,0.12457
16804,4.0006,2.4545,0,0.00082048,8199.2,0.00028368,2.0418,0.00024887,-259.5,-0.00082455,-8324.8,0.11796
16805,4.0006,2.5455,0.05,1.4919e-05,149.09,1.1456e-05,86.077,3.2509e-11,6.4932e-06,-1.1456e-05,-86.078,0.11814
16806,4.2758,2.5455,0,0.00071064,7101.5,0.00025608,1.4469,0.00019734,-439.94,-0.00071707,-7310.4,0.1377
16807,4.1841,2.4545,0,0.00073203,7315.2,0.00026046,1.7891,0.00020919,-383.42,-0.00073776,-7498.4,0.13088
16808,4.1841,2.5455,0.05,1.1906e-05,118.98,9.1422e-06,68.69,2.0924e-11,-2.4327e-05,-9.1422e-06,-68.691,0.13101
16809,4.4593,2.5455,0,0.00065015,6497,0.00023866,1.0691,0.00017271,-494.5,-0.00065712,-6729.5,0.15131
16810,4.3676,2.4545,0,0.00066619,6657.3,0.000242,1.2896,0.00018156,-452.78,-0.00067271,-6871.5,0.14428
16811,4.3676,2.5455,0.05,9.6031e-06,95.965,7.374e-06,55.405,1.0875e-11,-5.9237e-05,-7.374e-06,-55.405,0.14439
16812,4.6428,2.5455,0,0.00060366,6032.4,0.00022429,0.80936,0.00015549,-516.11,-0.00061076,-6273.5,0.16536
16813,4.551,2.4545,0,0.00061625,6158.3,0.00022702,0.96257,0.00016227,-485.56,-0.00062305,-6386.1,0.15814
16814,4.551,2.5455,0.05,7.8296e-06,78.242,6.0121e-06,45.173,5.5904e-12,-7.3644e-05,-6.0121e-06,-45.173,0.15823
16815,4.8263,2.5455,0,0.00056748,5670.9,0.0002123,0.60167,0.00014352,-516.18,-0.00057448,-5911,0.17982
16816,4.7345,2.4545,0,0.0005777,5773,0.00021465,0.72161,0.00014879,-494.11,-0.00058449,-6003.7,0.17241
16817,4.7345,2.5455,0.05,6.442e-06,64.376,4.9467e-06,37.167,2.0571e-12,-8.2461e-05,-4.9467e-06,-37.167,0.17249
16818,5.0097,2.5455,0,0.00053896,5385.9,0.00020221,0.44622,0.00013526,-502.55,-0.00054574,-5619.3,0.19467
16819,4.918,2.4545,0,0.00054746,5470.9,0.00020429,0.53767,0.00013941,-486.93,-0.0005541,-5697.7,0.18707
16820,4.918,2.5455,0.05,5.3454e-06,53.417,4.1046e-06,30.84,-7.3658e-13,-7.3361e-05,-4.1046e-06,-30.84,0.18715
16821,5.1932,2.5455,0,0.0005162,5158.4,0.00019362,0.32916,0.00012962,-480.54,-0.00052268,-5381.7,0.20988
16822,5.1015,2.4545,0,0.00052341,5230.5,0.00019551,0.40046,0.00013292,-469.82,-0.00052981,-5449.3,0.20211
16823,5.1015,2.5455,0.05,4.4742e-06,44.711,3.4357e-06,25.814,-4.1893e-13,-5.6888e-05,-3.4357e-06,-25.814,0.20218
16824,5.3767,2.5455,0,0.00049777,4974.2,0.00018625,0.24185,0.00012582,-453.75,-0.00050393,-5185.4,0.22545
16825,5.285,2.4545,0,0.000504,5036.5,0.00018798,0.29705,0.00012848,-446.77,-0.0005101,-5244.9,0.21751
16826,5.285,2.5455,0.05,3.78e-06,37.774,2.9026e-06,21.809,-6.2782e-13,-5.8418e-05,-2.9026e-06,-21.809,0.21758
16827,5.5602,2.5455,0,0.00048264,4823,0.00017985,0.17702,0.00012332,-424.62,-0.00048845,-5021.2,0.24135
16828,5.4684,2.4545,0,0.0004881,4877.6,0.00018147,0.21976,0.00012548,-420.47,-0.00049389,-5074.1,0.23325
16829,5.4684,2.5455,0.05,3.2258e-06,32.236,2.477e-06,18.611,-3.3857e-13,-5.2909e-05,-2.477e-06,-18.612,0.23331
16830,5.7437,2.5455,0,0.00047001,4696.9,0.00017426,0.12905,0.0001217,-394.75,-0.00047548,-4881.7,0.25759
16831,5.6519,2.4545,0,0.00047487,4745.4,0.00017577,0.16205,0.00012348,-392.74,-0.00048033,-4929.5,0.24932
16832,5.6519,2.5455,0.05,2.7828e-06,27.808,2.1368e-06,16.055,-5.8722e-13,-3.9979e-05,-2.1368e-06,-16.055,0.24938
16833,5.9271,2.5455,0,0.0004593,4589.8,0.0001693,0.093647,0.00012069,-365.18,-0.00046442,-4761.4,0.27414
16834,5.8354,2.4545,0,0.00046368,4633.6,0.00017074,0.11909,0.00012217,-364.79,-0.0004688,-4805.1,0.26571
16835,5.8354,2.5455,0.05,2.4282e-06,24.265,1.8645e-06,14.009,7.6623e-13,-2.7522e-05,-1.8645e-06,-14.009,0.26578
16836,6.1106,2.5455,0,0.00045004,4497.3,0.00016488,0.067584,0.00012007,-336.59,-0.00045482,-4656.1,0.29101
16837,6.0189,2.4545,0,0.00045404,4537.3,0.00016624,0.087184,0.00012133,-337.39,-0.00045884,-4696.5,0.28243
16838,6.0189,2.5455,0.05,2.1441e-06,21.427,1.6464e-06,12.371,1.2551e-12,-1.8727e-05,-1.6464e-06,-12.371,0.28249
16839,6.2941,2.5455,0,0.0004419,4415.9,0.00016089,0.048444,0.0001197,-309.38,-0.00044635,-4562.5,0.30818
16840,6.2024,2.4545,0,0.0004456,4452.9,0.00016219,0.06354,0.00012078,-311.06,-0.00045007,-4600.2,0.29945
16841,6.2024,2.5455,0.05,1.9164e-06,19.15,1.4715e-06,11.056,1.6414e-12,-2.5564e-05,-1.4715e-06,-11.057,0.29951
16842,6.4776,2.5455,0,0.0004346,4343,0.00015725,0.034434,0.00011947,-283.77,-0.00043873,-4477.9,0.32565
16843,6.3858,2.4545,0,0.00043805,4377.5,0.0001585,0.046064,0.00012042,-286.07,-0.00044222,-4513.5,0.31677
16844,6.3858,2.5455,0.05,1.7335e-06,17.323,1.3311e-06,10.002,6.4688e-13,-1.7173e-05,-1.3311e-06,-10.002,0.31684
16845,6.6611,2.5455,0,0.00042794,4276.4,0.0001539,0.024223,0.00011931,-259.86,-0.00043176,-4400.4,0.34342
16846,6.5693,2.4545,0,0.0004312,4309,0.00015511,0.033188,0.00012015,-262.59,-0.00043507,-4434.3,0.33439
16847,6.5693,2.5455,0.05,1.5865e-06,15.854,1.2183e-06,9.1535,1.9879e-12,-1.0368e-05,-1.2183e-06,-9.1536,0.33446
16848,6.8445,2.5455,0,0.00042176,4214.7,0.00015079,0.016825,0.00011915,-237.67,-0.0004253,-4328.5,0.36148
16849,6.7528,2.4545,0,0.00042487,4245.8,0.00015196,0.023741,0.00011993,-240.68,-0.00042845,-4361,0.35231
16850,6.7528,2.5455,0.05,1.4682e-06,14.672,1.1274e-06,8.4707,2.2274e-12,-5.11e-06,-1.1274e-06,-8.4707,0.35237
16851,7.028,2.5455,0,0.00041594,4156.5,0.00014788,0.011509,0.00011897,-217.17,-0.00041921,-4260.8,0.37982
16852,6.9363,2.4545,0,0.00041893,4186.4,0.00014902,0.016849,0.00011969,-220.34,-0.00042224,-4292.2,0.37051
16853,6.9363,2.5455,0.05,1.3727e-06,13.717,1.054e-06,7.9195,2.3552e-12,-5.4912e-06,-1.054e-06,-7.9196,0.37058
16854,7.2115,2.5455,0,0.00041039,4101.1,0.00014513,0.0077322,0.00011874,-198.29,-0.0004134,-4196.6,0.39845
16855,7.1198,2.4545,0,0.00041328,4130,0.00014625,0.011857,0.00011942,-201.54,-0.00041634,-4227.1,0.389
16856,7.1198,2.5455,0.05,1.2953e-06,12.944,9.9465e-07,7.4733,2.192e-12,-3.3491e-06,-9.9466e-07,-7.4735,0.38907
16857,7.395,2.5455,0,0.00040504,4047.6,0.00014253,0.005091,0.00011844,-180.94,-0.00040781,-4135,0.41736
16858,7.3032,2.4545,0,0.00040786,4075.8,0.00014361,0.0082797,0.0001191,-184.19,-0.00041068,-4164.7,0.40776
16859,7.3032,2.5455,0.05,1.2325e-06,12.317,9.4641e-07,7.1109,1.8787e-12,-4.1465e-06,-9.4641e-07,-7.111,0.40783
16860,7.5785,2.5455,0,0.00039983,3995.6,0.00014003,0.003286,0.00011807,-165.02,-0.00040238,-4075.5,0.43654
16861,7.4867,2.4545,0,0.00040259,4023.1,0.0001411,0.0057511,0.00011871,-168.23,-0.00040519,-4104.6,0.42681
16862,7.4867,2.5455,0.05,1.1812e-06,11.804,9.0703e-07,6.815,2.3443e-12,-1.5455e-06,-9.0704e-07,-6.8151,0.42688
16863,7.7619,2.5455,0,0.00039473,3944.6,0.00013764,0.0020944,0.00011762,-150.43,-0.00039708,-4017.7,0.45599
16864,7.6702,2.4545,0,0.00039744,3971.7,0.00013869,0.0039986,0.00011825,-153.55,-0.00039983,-4046.2,0.44612
16865,7.6702,2.5455,0.05,1.1391e-06,11.384,8.7471e-07,6.5723,1.7867e-12,6.4867e-08,-8.7472e-07,-6.5723,0.4462
16866,7.9454,2.5455,0,0.00038971,3894.4,0.00013533,0.00135,0.00011709,-137.06,-0.00039186,-3961.1,0.47571
16867,7.8537,2.4545,0,0.00039238,3921.1,0.00013636,0.0028202,0.00011772,-140.08,-0.00039457,-3989.2,0.46571
16868,7.8537,2.5455,0.05,1.1044e-06,11.036,8.4803e-07,6.3717,3.081e-12,-1.8095e-06,-8.4803e-07,-6.3718,0.46578
16869,8.1289,2.5455,0,0.00038473,3844.6,0.00013309,0.00092949,0.00011648,-124.82,-0.0003867,-3905.5,0.49569
16870,8.0372,2.4545,0,0.00038737,3871.1,0.00013411,0.0020618,0.00011711,-127.72,-0.00038939,-3933.4,0.48556
16871,8.0372,2.5455,0.05,1.0755e-06,10.747,8.2583e-07,6.2049,2.4043e-12,1.1375e-06,-8.2583e-07,-6.205,0.48563
16872,8.3124,2.5455,0,0.00037979,3795.3,0.00013092,0.00074168,0.0001158,-113.62,-0.0003816,-3850.8,0.51594
16873,8.2206,2.4545,0,0.00038241,3821.5,0.00013192,0.0016104,0.00011643,-116.38,-0.00038426,-3878.3,0.50568
16874,8.2206,2.5455,0.05,1.0512e-06,10.505,8.072e-07,6.065,2.5583e-12,-1.3761e-06,-8.0721e-07,-6.0651,0.50575
16875,8.4959,2.5455,0,0.00037487,3746.1,0.00012879,0.00071902,0.00011504,-103.35,-0.00037652,-3796.8,0.53644
16876,8.4041,2.4545,0,0.00037747,3772.1,0.00012978,0.0013824,0.00011567,-105.97,-0.00037917,-3824,0.52605
16877,8.4041,2.5455,0.05,1.0307e-06,10.3,7.9145e-07,5.9466,2.7438e-12,-1.9509e-07,-7.9144e-07,-5.9467,0.52612
16878,8.6794,2.5455,0,0.00036997,3697.2,0.00012671,0.00081149,0.00011421,-93.953,-0.00037148,-3743.2,0.55719
16879,8.5876,2.4545,0,0.00037256,3723,0.00012769,0.0013137,0.00011486,-96.431,-0.0003741,-3770.3,0.54668
16880,8.5876,2.5455,0.05,1.0132e-06,10.125,7.7797e-07,5.8454,2.8469e-12,-1.1178e-06,-7.7798e-07,-5.8455,0.54675
16881,8.8628,2.5455,0,0.00036508,3648.2,0.00012468,0.00098205,0.00011332,-85.34,-0.00036645,-3690.2,0.57819
16882,8.7711,2.4545,0,0.00036765,3674,0.00012564,0.0013582,0.00011397,-87.674,-0.00036906,-3717,0.56756
16883,8.7711,2.5455,0.05,9.9802e-07,9.9733,7.6636e-07,5.7581,2.0641e-12,1.6604e-06,-7.6635e-07,-5.7581,0.56763
16884,9.0463,2.5455,0,0.00036019,3599.4,0.00012268,0.0012042,0.00011237,-77.443,-0.00036144,-3637.5,0.59945
16885,8.9546,2.4545,0,0.00036275,3625,0.00012363,0.0014815,0.00011303,-79.636,-0.00036404,-3664.1,0.58869
16886,8.9546,2.5455,0.05,9.8482e-07,9.8414,7.5622e-07,5.6819,3.0605e-12,1.3477e-06,-7.5622e-07,-5.682,0.58876
16887,9.2298,2.5455,0,0.0003553,3550.5,0.00012071,0.0014586,0.00011136,-70.2,-0.00035644,-3585.1,0.62094
16888,9.1381,2.4545,0,0.00035785,3576,0.00012165,0.0016578,0.00011203,-72.255,-0.00035902,-3611.6,0.61006
16889,9.1381,2.5455,0.05,9.7317e-07,9.725,7.4728e-07,5.6147,2.2393e-12,6.3991e-08,-7.4727e-07,-5.6148,0.61013
16890,9.4133,2.5455,0,0.00035041,3501.6,0.00011877,0.0017316,0.00011031,-63.552,-0.00035144,-3533,0.64267
16891,9.3215,2.4545,0,0.00035295,3527.1,0.0001197,0.0018692,0.00011099,-65.475,-0.00035402,-3559.4,0.63168
16892,9.3215,2.5455,0.05,9.628e-07,9.6213,7.393e-07,5.5548,1.3809e-12,-4.2804e-07,-7.3932e-07,-5.5549,0.63175
16893,9.5968,2.5455,0,0.00034552,3452.8,0.00011685,0.0020144,0.00010921,-57.447,-0.00034646,-3481.1,0.66464
16894,9.505,2.4545,0,0.00034805,3478.1,0.00011778,0.0021013,0.00010989,-59.244,-0.00034902,-3507.4,0.65353
16895,9.505,2.5455,0.05,9.5346e-07,9.528,7.3214e-07,5.501,3.2579e-12,4.6426e-07,-7.3214e-07,-5.501,0.6536
16896,9.7802,2.5455,0,0.00034063,3403.9,0.00011496,0.0022969,0.00010807,-51.838,-0.00034148,-3429.5,0.68685
16897,9.6885,2.4545,0,0.00034316,3429.2,0.00011588,0.0023489,0.00010876,-53.515,-0.00034404,-3455.6,0.67562
16898,9.6885,2.5455,0.05,9.4497e-07,9.4431,7.2562e-07,5.452,2.3963e-12,3.006e-07,-7.2562e-07,-5.452,0.67569
16899,9.9637,2.5455,0,0.00033573,3355,0.0001131,0.00258,0.00010688,-46.68,-0.0003365,-3378.1,0.70928
16900,9.872,2.4545,0,0.00033826,3380.3,0.00011401,0.0025946,0.00010759,-48.244,-0.00033905,-3404.1,0.69794
16901,9.872,2.5455,0.05,9.3717e-07,9.3652,7.1963e-07,5.407,1.5212e-12,1.8066e-07,-7.1963e-07,-5.407,0.69801
16902,10.147,2.5455,0,0.00033084,3306.1,0.00011125,0.0028624,0.00010567,-41.935,-0.00033154,-3326.9,0.73194
16903,10.055,2.4545,0,0.00033336,3331.3,0.00011215,0.0028548,0.00010638,-43.392,-0.00033408,-3352.8,0.72049
16904,10.055,2.5455,0.05,9.2995e-07,9.2931,7.1408e-07,5.3653,2.4671e-12,1.8387e-06,-7.1409e-07,-5.3654,0.72055
16905,10.331,2.5455,0,0.00032595,3257.3,0.00010942,0.0031202,0.00010442,-37.566,-0.00032658,-3275.9,0.75483
16906,10.239,2.4545,0,0.00032846,3282.4,0.00011032,0.0031088,0.00010514,-38.923,-0.00032911,-3301.7,0.74326
16907,10.239,2.5455,0.05,9.2322e-07,9.2258,7.0892e-07,5.3265,2.4959e-12,1.6058e-06,-7.0892e-07,-5.3266,0.74333
16908,10.514,2.5455,0,0.00032106,3208.4,0.00010761,0.0033625,0.00010314,-33.542,-0.00032162,-3225.1,0.77793
16909,10.422,2.4545,0,0.00032357,3233.5,0.0001085,0.0033279,0.00010387,-34.805,-0.00032415,-3250.7,0.76626
16910,10.422,2.5455,0.05,9.1689e-07,9.1626,7.0405e-07,5.29,1.6142e-12,8.5736e-07,-7.0406e-07,-5.29,0.76632
16911,10.698,2.5455,0,0.00031618,3159.6,0.00010581,0.003613,0.00010184,-29.832,-0.00031668,-3174.4,0.80125
16912,10.606,2.4545,0,0.00031868,3184.6,0.0001067,0.0035584,0.00010257,-31.008,-0.00031919,-3200,0.78947
16913,10.606,2.5455,0.05,9.1089e-07,9.1026,6.9945e-07,5.2554,2.5491e-12,1.7541e-06,-6.9945e-07,-5.2554,0.78953
16914,10.881,2.5455,0,0.0003113,3110.8,0.00010403,0.0038747,0.00010052,-26.41,-0.00031174,-3123.9,0.82478
16915,10.789,2.4545,0,0.00031379,3135.7,0.00010491,0.0038,0.00010125,-27.504,-0.00031425,-3149.4,0.8129
16916,10.789,2.5455,0.05,9.0518e-07,9.0456,6.9506e-07,5.2224,2.5703e-12,2.1498e-06,-6.9507e-07,-5.2225,0.81296
16917,11.065,2.5455,0,0.00030642,3062.1,0.00010227,0.0041168,9.9173e-05,-23.252,-0.00030681,-3073.6,0.84853
16918,10.973,2.4545,0,0.00030891,3086.9,0.00010314,0.0040583,9.9908e-05,-24.27,-0.00030931,-3099,0.83654
16919,10.973,2.5455,0.05,8.9973e-07,8.9911,6.9088e-07,5.191,2.5886e-12,1.815e-06,-6.9089e-07,-5.191,0.8366
16920,11.248,2.5455,0,0.00030155,3013.4,0.00010052,0.004329,9.781e-05,-20.334,-0.00030189,-3023.5,0.87248
16921,11.156,2.4545,0,0.00030403,3038.2,0.00010138,0.0042669,9.8549e-05,-21.282,-0.00030438,-3048.8,0.86039
16922,11.156,2.5455,0.05,8.945e-07,8.9389,6.8686e-07,5.1608,7.8624e-13,1.929e-06,-6.8687e-07,-5.1609,0.86045
16923,11.432,2.5455,0,0.00029668,2964.8,9.8778e-05,0.0045604,9.643e-05,-17.637,-0.00029698,-2973.6,0.89663
16924,11.34,2.4545,0,0.00029916,2989.5,9.9638e-05,0.0044712,9.7173e-05,-18.52,-0.00029947,-2998.7,0.88444
16925,11.34,2.5455,0.05,8.8945e-07,8.8883,6.8298e-07,5.1316,2.6206e-12,2.2922e-06,-6.8299e-07,-5.1317,0.8845
16926,11.615,2.5455,0,0.00029183,2916.3,9.7052e-05,0.0047937,9.5036e-05,-15.141,-0.00029208,-2923.8,0.92098
16927,11.523,2.4545,0,0.00029429,2940.9,9.7907e-05,0.0047246,9.5781e-05,-15.965,-0.00029456,-2948.8,0.90869
16928,11.523,2.5455,0.05,8.8456e-07,8.8395,6.7923e-07,5.1035,2.6338e-12,2.5099e-06,-6.7923e-07,-5.1035,0.90875
16929,11.799,2.5455,0,0.00028698,2867.8,9.5338e-05,0.0050103,9.363e-05,-12.83,-0.00028719,-2874.2,0.94553
16930,11.707,2.4545,0,0.00028944,2892.4,9.6188e-05,0.0049386,9.4377e-05,-13.599,-0.00028967,-2899.2,0.93315
16931,11.707,2.5455,0.05,8.7983e-07,8.7922,6.7559e-07,5.0761,8.2628e-13,2.8334e-06,-6.756e-07,-5.0762,0.93321
16932,11.982,2.5455,0,0.00028214,2819.5,9.3635e-05,0.0052369,9.2212e-05,-10.687,-0.00028232,-2824.8,0.97027
16933,11.89,2.4545,0,0.00028459,2844,9.448e-05,0.0051664,9.2961e-05,-11.406,-0.00028478,-2849.6,0.95779
16934,11.89,2.5455,0.05,8.7521e-07,8.7461,6.7206e-07,5.0495,2.6583e-12,4.1215e-06,-6.7205e-07,-5.0495,0.95785
16935,12.165,2.5455,0,0.00027731,2771.2,9.1944e-05,0.0054599,9.0785e-05,-8.6988,-0.00027746,-2775.5,0.99521
16936,12.074,2.4545,0,0.00027976,2795.6,9.2784e-05,0.0054126,9.1536e-05,-9.371,-0.00027991,-2800.3,0.98263
16937,12.074,2.5455,0.05,8.7072e-07,8.7012,6.686e-07,5.0236,2.6691e-12,3.6673e-06,-6.686e-07,-5.0237,0.98269
16938,12.349,2.5455,0,0.00027249,2723.1,9.0263e-05,0.005695,8.935e-05,-6.8512,-0.00027261,-2726.5,1.0203
16939,12.257,2.4545,0,0.00027493,2747.4,9.1098e-05,0.0056506,9.0102e-05,-7.4813,-0.00027506,-2751.1,1.0077
16940,12.257,2.5455,0.05,8.6632e-07,8.6572,6.6523e-07,4.9982,2.6796e-12,3.8657e-06,-6.6523e-07,-4.9983,1.0077
16941,12.532,2.5455,0,0.00026769,2675,8.8592e-05,0.0059846,8.7908e-05,-5.1322,-0.00026778,-2677.6,1.0456
16942,12.441,2.4545,0,0.00027012,2699.3,8.9423e-05,0.0059509,8.866e-05,-5.7237,-0.00027021,-2702.2,1.0329
16943,12.441,2.5455,0.05,8.6201e-07,8.6141,6.6191e-07,4.9734,2.6894e-12,4.3852e-06,-6.6192e-07,-4.9734,1.0329
16944,12.716,2.5455,0,0.0002629,2627.1,8.6931e-05,0.0063805,8.646e-05,-3.5302,-0.00026296,-2628.9,1.0711
16945,12.624,2.4545,0,0.00026532,2651.3,8.7757e-05,0.0063593,8.7213e-05,-4.0869,-0.00026539,-2653.4,1.0583
16946,12.624,2.5455,0.05,8.5778e-07,8.5719,6.5867e-07,4.949,2.6981e-12,2.902e-06,-6.5867e-07,-4.949,1.0583
16947,12.899,2.5455,0,0.00025812,2579.4,8.528e-05,0.0070483,8.5008e-05,-2.035,-0.00025815,-2580.4,1.0968
16948,12.808,2.4545,0,0.00026053,2603.5,8.6102e-05,0.0070402,8.576e-05,-2.5601,-0.00026057,-2604.8,1.0838
16949,12.808,2.5455,0.05,8.5364e-07,8.5305,6.5549e-07,4.9251,8.8635e-13,1.9569e-06,-6.5549e-07,-4.9251,1.0839
16950,13.083,2.5455,0,0.00025335,2531.8,8.3638e-05,0.009736,8.3552e-05,-0.63846,-0.00025336,-2532.1,1.1226
16951,12.991,2.4545,0,0.00025575,2555.8,8.4456e-05,0.0088447,8.4304e-05,-1.1344,-0.00025577,-2556.3,1.1096
16952,12.991,2.5455,0.05,8.4957e-07,8.4899,6.5236e-07,4.9016,1.8029e-12,2.6148e-06,-6.5237e-07,-4.9016,1.1096
16953,13.266,2.5455,0,0.0002486,2484.3,8.2094e-05,0.68049,8.2004e-05,0.0026615,-0.00024859,-2483.9,1.1486
16954,13.175,2.4545,0,0.00025099,2508.2,8.2847e-05,0.22128,8.2816e-05,-0.0097846,-0.00025099,-2508.1,1.1355
16955,13.175,2.5455,0.05,8.4556e-07,8.4497,6.4928e-07,4.8784,1.8095e-12,3.6835e-06,-6.4929e-07,-4.8785,1.1356
16956,13.45,2.5455,0,0.00024386,2436.9,8.0634e-05,1.911,8.038e-05,0.0051241,-0.00024383,-2436,1.1748
16957,13.358,2.4545,0,0.00024625,2460.8,8.1384e-05,1.463,8.119e-05,0.0038615,-0.00024622,-2460,1.1616
16958,13.358,2.5455,0.05,8.4161e-07,8.4103,6.4625e-07,4.8556,3.6345e-12,4.8313e-06,-6.4625e-07,-4.8557,1.1617
16959,13.633,2.5455,0,0.00023914,2389.7,7.9172e-05,3.0725,7.8764e-05,0.005762,-0.00023909,-2388.2,1.2011
16960,13.542,2.4545,0,0.00024152,2413.5,7.9921e-05,2.6434,7.957e-05,0.0050588,-0.00024147,-2412.2,1.1879
16961,13.542,2.5455,0.05,8.3772e-07,8.3714,6.4326e-07,4.8332,2.7304e-12,5.7664e-06,-6.4327e-07,-4.8332,1.1879
16962,13.817,2.5455,0,0.00023443,2342.7,7.7711e-05,4.171,7.7157e-05,0.0061373,-0.00023436,-2340.6,1.2276
16963,13.725,2.4545,0,0.0002368,2366.4,7.8459e-05,3.7585,7.7959e-05,0.0056034,-0.00023674,-2364.5,1.2143
16964,13.725,2.5455,0.05,8.3388e-07,8.333,6.4031e-07,4.8111,2.7355e-12,7.0191e-06,-6.4032e-07,-4.8111,1.2143
16965,14,2.5455,0,0.00022974,2295.9,7.6251e-05,5.2132,7.5558e-05,0.0064108,-0.00022965,-2293.2,1.2543
16966,13.909,2.4545,0,0.0002321,2319.4,7.6996e-05,4.8149,7.6356e-05,0.0059705,-0.00023202,-2317,1.2409
16967,13.909,2.5455,0.05,8.3009e-07,8.2952,6.374e-07,4.7892,2.7401e-12,7.3153e-06,-6.3741e-07,-4.7892,1.2409
16968,14.184,2.5455,0,0.00022507,2249.2,7.4791e-05,6.2061,7.3966e-05,0.006649,-0.00022496,-2246,1.2811
16969,14.092,2.4545,0,0.00022742,2272.6,7.5535e-05,5.8193,7.4761e-05,0.0062327,-0.00022732,-2269.7,1.2676
16970,14.092,2.5455,0.05,8.2635e-07,8.2578,6.3453e-07,4.7676,9.2563e-13,7.0937e-06,-6.3453e-07,-4.7676,1.2676
16971,14.367,2.5455,0,0.00022041,2202.6,7.3334e-05,7.1559,7.2382e-05,0.0068864,-0.00022029,-2199,1.308
16972,14.276,2.4545,0,0.00022276,2226,7.4075e-05,6.7782,7.3174e-05,0.0064955,-0.00022264,-2222.6,1.2945
16973,14.276,2.5455,0.05,8.2264e-07,8.2207,6.3168e-07,4.7462,1.8392e-12,7.0665e-06,-6.3169e-07,-4.7462,1.2945
16974,14.551,2.5455,0,0.00021578,2156.3,7.1879e-05,8.0686,7.0806e-05,0.007097,-0.00021564,-2152.2,1.3352
16975,14.459,2.4545,0,0.00021811,2179.6,7.2618e-05,7.6978,7.1594e-05,0.006738,-0.00021797,-2175.7,1.3215
16976,14.459,2.5455,0.05,8.1898e-07,8.1842,6.2887e-07,4.7251,1.8433e-12,7.516e-06,-6.2888e-07,-4.7251,1.3216
16977,14.734,2.5455,0,0.00021115,2110.1,7.0428e-05,8.9503,6.9238e-05,0.0072948,-0.000211,-2105.6,1.3624
16978,14.642,2.4545,0,0.00021348,2133.3,7.1164e-05,8.5837,7.0022e-05,0.0069372,-0.00021333,-2129,1.3487
16979,14.642,2.5455,0.05,8.1536e-07,8.148,6.2609e-07,4.7042,1.8475e-12,5.8166e-06,-6.261e-07,-4.7043,1.3487
16980,14.918,2.5455,0,0.00020655,2064.1,6.898e-05,9.8064,6.7676e-05,0.007505,-0.00020638,-2059.2,1.3898
16981,14.826,2.4545,0,0.00020886,2087.2,6.9713e-05,9.4418,6.8457e-05,0.0071475,-0.0002087,-2082.5,1.376
16982,14.826,2.5455,0.05,8.1177e-07,8.1121,6.2334e-07,4.6835,3.6703e-12,4.6541e-06,-6.2334e-07,-4.6836,1.3761
16983,15.101,2.5455,0,0.00020197,2018.3,6.7537e-05,10.643,6.6122e-05,0.0077274,-0.00020178,-2012.9,1.4173
16984,15.009,2.4545,0,0.00020427,2041.3,6.8267e-05,10.277,6.69e-05,0.0073667,-0.00020409,-2036.1,1.4035
16985,15.009,2.5455,0.05,8.0822e-07,8.0767,6.2061e-07,4.663,1.8547e-12,3.7263e-06,-6.2062e-07,-4.6631,1.4035
16986,15.285,2.5455,0,0.0001974,1972.7,6.6099e-05,11.464,6.4574e-05,0.0079489,-0.0001972,-1966.9,1.445
16987,15.193,2.4545,0,0.00019969,1995.6,6.6825e-05,11.096,6.5349e-05,0.0075989,-0.0001995,-1990,1.4311
16988,15.193,2.5455,0.05,8.0471e-07,8.0416,6.1792e-07,4.6428,9.4937e-13,2.8009e-06,-6.1792e-07,-4.6428,1.4311
16989,15.468,2.5455,0,0.00019285,1927.2,6.4666e-05,12.276,6.3034e-05,0.0081663,-0.00019264,-1921,1.4728
16990,15.376,2.4545,0,0.00019514,1950,6.5388e-05,11.903,6.3805e-05,0.007813,-0.00019493,-1944,1.4588
16991,15.376,2.5455,0.05,8.0124e-07,8.0069,6.1525e-07,4.6228,3.6809e-12,4.494e-06,-6.1526e-07,-4.6228,1.4589
16992,15.652,2.5455,0,0.00018833,1882,6.324e-05,13.084,6.15e-05,0.0083933,-0.0001881,-1875.4,1.5008
16993,15.56,2.4545,0,0.0001906,1904.7,6.3958e-05,12.703,6.2268e-05,0.0080351,-0.00019038,-1898.3,1.4867
16994,15.56,2.5455,0.05,7.9781e-07,7.9726,6.1261e-07,4.6029,1.8647e-12,3.6795e-06,-6.1262e-07,-4.603,1.4867
16995,15.835,2.5455,0,0.00018382,1836.9,6.182e-05,13.892,5.9972e-05,0.0086189,-0.00018358,-1829.9,1.5288
16996,15.743,2.4545,0,0.00018608,1859.5,6.2533e-05,13.501,6.0738e-05,0.008268,-0.00018585,-1852.7,1.5147
16997,15.743,2.5455,0.05,7.9441e-07,7.9386,6.1e-07,4.5833,1.8675e-12,1.7955e-06,-6.1001e-07,-4.5834,1.5147
16998,16.019,2.5455,0,0.00017933,1792.1,6.0407e-05,14.707,5.8451e-05,0.0088561,-0.00017908,-1784.7,1.557
16999,15.927,2.4545,0,0.00018158,1814.6,6.1116e-05,14.302,5.9213e-05,0.0084854,-0.00018134,-1807.4,1.5428
17000,15.927,2.5455,0.05,7.9104e-07,7.9049,6.0742e-07,4.5639,1.87e-12,2.2946e-06,-6.0742e-07,-4.5639,1.5429
17001,16.202,2.5455,0,0.00017487,1747.5,5.9002e-05,15.533,5.6936e-05,0.0091169,-0.0001746,-1739.6,1.5853
17002,16.11,2.4545,0,0.00017711,1769.8,5.9706e-05,15.112,5.7696e-05,0.0087397,-0.00017684,-1762.2,1.5711
17003,16.11,2.5455,0.05,7.877e-07,7.8716,6.0485e-07,4.5446,1.8746e-12,2.565e-06,-6.0486e-07,-4.5447,1.5711
17004,16.386,2.5455,0,0.00017042,1703,5.7605e-05,16.375,5.5427e-05,0.0093753,-0.00017014,-1694.8,1.6137
17005,16.294,2.4545,0,0.00017265,1725.3,5.8303e-05,15.936,5.6184e-05,0.009005,-0.00017237,-1717.3,1.5994
17006,16.294,2.5455,0.05,7.8441e-07,7.8387,6.0232e-07,4.5256,1.8793e-12,3.1952e-06,-6.0233e-07,-4.5257,1.5995
17007,16.569,2.5455,0,0.000166,1658.8,5.6217e-05,17.239,5.3924e-05,0.0096394,-0.0001657,-1650.1,1.6423
17008,16.477,2.4545,0,0.00016821,1681,5.691e-05,16.778,5.4678e-05,0.0092538,-0.00016792,-1672.5,1.6279
17009,16.477,2.5455,0.05,7.8115e-07,7.8061,5.9982e-07,4.5068,1.8835e-12,2.9949e-06,-5.9983e-07,-4.5069,1.628
17010,16.753,2.5455,0,0.00016159,1614.8,5.4838e-05,18.13,5.2426e-05,0.0099281,-0.00016128,-1605.7,1.6709
17011,16.661,2.4545,0,0.0001638,1636.9,5.5525e-05,17.645,5.3178e-05,0.0095291,-0.00016349,-1628,1.6565
17012,16.661,2.5455,0.05,7.7792e-07,7.7739,5.9735e-07,4.4882,1.8891e-12,4.4601e-06,-5.9735e-07,-4.4883,1.6566
17013,16.936,2.5455,0,0.00015721,1571,5.3469e-05,19.054,5.0934e-05,0.01024,-0.00015688,-1561.4,1.6997
17014,16.844,2.4545,0,0.00015941,1593,5.415e-05,18.541,5.1684e-05,0.0098269,-0.00015908,-1583.6,1.6852
17015,16.844,2.5455,0.05,7.7474e-07,7.742,5.949e-07,4.4699,1.8954e-12,7.6095e-06,-5.949e-07,-4.4699,1.6853
17016,17.119,2.5455,0,0.00015285,1527.5,5.2111e-05,20.017,4.9448e-05,0.010565,-0.0001525,-1517.4,1.7285
17017,17.028,2.4545,0,0.00015503,1549.3,5.2785e-05,19.472,5.0195e-05,0.010148,-0.00015469,-1539.4,1.714
17018,17.028,2.5455,0.05,7.7159e-07,7.7106,5.9249e-07,4.4517,1.4466e-12,7.294e-06,-5.9249e-07,-4.4517,1.7141
17019,17.303,2.5455,0,0.00014852,1484.2,5.0763e-05,21.025,4.7967e-05,0.010901,-0.00014815,-1473.5,1.7575
17020,17.211,2.4545,0,0.00015069,1505.8,5.1431e-05,20.445,4.8711e-05,0.01047,-0.00015033,-1495.5,1.743
17021,17.211,2.5455,0.05,7.685e-07,7.6797,5.9011e-07,4.4339,1.906e-12,7.3306e-06,-5.9011e-07,-4.4339,1.743
17022,17.486,2.5455,0,0.0001442,1441,4.9428e-05,22.084,4.649e-05,0.01126,-0.00014382,-1429.9,1.7866
17023,17.395,2.4545,0,0.00014636,1462.6,5.0088e-05,21.465,4.7233e-05,0.010814,-0.00014598,-1451.7,1.772
17024,17.395,2.5455,0.05,7.6544e-07,7.6492,5.8777e-07,4.4162,1.4565e-12,6.176e-06,-5.8777e-07,-4.4163,1.772
17025,17.67,2.5455,0,0.00013991,1398.2,4.8105e-05,23.202,4.5019e-05,0.011635,-0.00013951,-1386.4,1.8157
17026,17.578,2.4545,0,0.00014206,1419.6,4.8757e-05,22.538,4.5759e-05,0.011182,-0.00014166,-1408.2,1.8011
17027,17.578,2.5455,0.05,7.6244e-07,7.6191,5.8546e-07,4.3989,1.464e-12,8.3855e-06,-5.8546e-07,-4.3989,1.8011
17028,17.853,2.5455,0,0.00013565,1355.6,4.6796e-05,24.384,4.3552e-05,0.012034,-0.00013522,-1343.2,1.845
17029,17.762,2.4545,0,0.00013778,1376.8,4.7439e-05,23.672,4.429e-05,0.011556,-0.00013736,-1364.8,1.8303
17030,17.762,2.5455,0.05,7.5948e-07,7.5896,5.8319e-07,4.3818,1.9259e-12,9.1449e-06,-5.8319e-07,-4.3819,1.8303
17031,18.037,2.5455,0,0.00013141,1313.2,4.55e-05,25.639,4.209e-05,0.012471,-0.00013095,-1300.2,1.8743
17032,17.945,2.4545,0,0.00013352,1334.3,4.6135e-05,24.874,4.2826e-05,0.011975,-0.00013308,-1321.7,1.8596
17033,17.945,2.5455,0.05,7.5658e-07,7.5606,5.8096e-07,4.3651,1.9315e-12,1.0383e-05,-5.8096e-07,-4.3651,1.8596
17034,18.22,2.5455,0,0.00012719,1271,4.422e-05,26.974,4.0631e-05,0.012928,-0.00012671,-1257.3,1.9038
17035,18.129,2.4545,0,0.00012929,1292.1,4.4845e-05,26.15,4.1366e-05,0.012422,-0.00012883,-1278.8,1.889
17036,18.129,2.5455,0.05,7.5374e-07,7.5322,5.7878e-07,4.3487,1.0352e-12,7.8527e-06,-5.7878e-07,-4.3487,1.889
17037,18.404,2.5455,0,0.000123,1229.2,4.2955e-05,28.398,3.9177e-05,0.013412,-0.00012249,-1214.7,1.9333
17038,18.312,2.4545,0,0.00012509,1250,4.357e-05,27.51,3.991e-05,0.01288,-0.0001246,-1236,1.9185
17039,18.312,2.5455,0.05,7.5096e-07,7.5044,5.7664e-07,4.3327,1.0427e-12,8.3955e-06,-5.7664e-07,-4.3327,1.9185
17040,18.587,2.5455,0,0.00011884,1187.6,4.1707e-05,29.92,3.7726e-05,0.01394,-0.0001183,-1172.3,1.9629
17041,18.496,2.4545,0,0.00012091,1208.3,4.2311e-05,28.962,3.8458e-05,0.013382,-0.00012039,-1193.5,1.948
17042,18.496,2.5455,0.05,7.4824e-07,7.4773,5.7456e-07,4.317,1.5059e-12,7.0323e-06,-5.7456e-07,-4.317,1.948
17043,18.771,2.5455,0,0.0001147,1146.2,4.0476e-05,31.549,3.6279e-05,0.014512,-0.00011413,-1130.1,1.9926
17044,18.679,2.4545,0,0.00011676,1166.8,4.1069e-05,30.514,3.701e-05,0.013927,-0.00011621,-1151.2,1.9777
17045,18.679,2.5455,0.05,7.456e-07,7.4509,5.7253e-07,4.3018,1.0601e-12,1.1623e-05,-5.7253e-07,-4.3018,1.9777
17046,18.954,2.5455,0,0.00011059,1105.1,3.9264e-05,33.295,3.4835e-05,0.015128,-0.00010999,-1088.1,2.0223
17047,18.863,2.4545,0,0.00011263,1125.5,3.9845e-05,32.177,3.5565e-05,0.014519,-0.00011205,-1109.1,2.0074
17048,18.863,2.5455,0.05,7.4304e-07,7.4253,5.7056e-07,4.287,1.5172e-12,9.9896e-06,-5.7056e-07,-4.287,2.0074
17049,19.138,2.5455,0,0.00010651,1064.4,3.8072e-05,35.17,3.3393e-05,0.015785,-0.00010587,-1046.3,2.0522
17050,19.046,2.4545,0,0.00010853,1084.6,3.864e-05,33.961,3.4122e-05,0.015145,-0.00010792,-1067.2,2.0372
17051,19.046,2.5455,0.05,7.4057e-07,7.4006,5.6866e-07,4.2727,1.5208e-12,1.0003e-05,-5.6867e-07,-4.2727,2.0372
17052,19.321,2.5455,0,0.00010246,1023.9,3.6901e-05,37.185,3.1954e-05,0.0165,-0.00010177,-1004.8,2.0821
17053,19.229,2.4545,0,0.00010447,1043.9,3.7455e-05,35.877,3.2683e-05,0.015824,-0.00010381,-1025.5,2.0671
17054,19.229,2.5455,0.05,7.3819e-07,7.3768,5.6684e-07,4.259,1.5324e-12,8.8888e-06,-5.6684e-07,-4.259,2.0671
17055,19.505,2.5455,0,9.8436e-05,983.68,3.5752e-05,39.353,3.0517e-05,0.017272,-9.7707e-05,-963.41,2.112
17056,19.413,2.4545,0,0.00010043,1003.6,3.6292e-05,37.936,3.1245e-05,0.016564,-9.9726e-05,-984.05,2.097
17057,19.413,2.5455,0.05,7.3592e-07,7.3541,5.6509e-07,4.2459,1.0907e-12,1.2807e-05,-5.651e-07,-4.2459,2.097
17058,19.688,2.5455,0,9.4445e-05,943.8,3.4626e-05,41.685,2.9081e-05,0.018111,-9.3667e-05,-922.26,2.1421
17059,19.596,2.4545,0,9.6416e-05,963.5,3.5151e-05,40.152,2.9809e-05,0.017354,-9.567e-05,-942.78,2.127
17060,19.596,2.5455,0.05,7.3376e-07,7.3326,5.6344e-07,4.2335,1.5581e-12,1.1007e-05,-5.6344e-07,-4.2335,2.127
17061,19.872,2.5455,0,9.0486e-05,904.24,3.3526e-05,44.198,2.7646e-05,0.019035,-8.9653e-05,-881.32,2.1722
17062,19.78,2.4545,0,9.2438e-05,923.74,3.4034e-05,42.537,2.8375e-05,0.018232,-9.1641e-05,-901.73,2.1571
17063,19.78,2.5455,0.05,7.3173e-07,7.3123,5.6188e-07,4.2217,2.0236e-12,1.2031e-05,-5.6188e-07,-4.2217,2.1571
17064,20.055,2.5455,0,8.6561e-05,865.01,3.2452e-05,46.905,2.6212e-05,0.020041,-8.5667e-05,-840.6,2.2023
17065,19.963,2.4545,0,8.8492e-05,884.31,3.2942e-05,45.106,2.6941e-05,0.019191,-8.7638e-05,-860.89,2.1872
17066,19.963,2.5455,0.05,7.2985e-07,7.2934,5.6043e-07,4.2109,1.5792e-12,1.2578e-05,-5.6043e-07,-4.2109,2.1872
17067,20.239,2.5455,0,8.267e-05,826.13,3.1406e-05,49.823,2.4778e-05,0.021143,-8.1709e-05,-800.08,2.2325
17068,20.147,2.4545,0,8.458e-05,845.22,3.1877e-05,47.875,2.5508e-05,0.020232,-8.3664e-05,-820.25,2.2174
17069,20.147,2.5455,0.05,7.2812e-07,7.2761,5.591e-07,4.2009,1.5846e-12,1.3087e-05,-5.591e-07,-4.2009,2.2174
17070,20.422,2.5455,0,7.8815e-05,787.61,3.039e-05,52.969,2.3343e-05,0.022363,-7.778e-05,-759.78,2.2628
17071,20.33,2.4545,0,8.0703e-05,806.47,3.0841e-05,50.86,2.4075e-05,0.021385,-7.9717e-05,-779.83,2.2477
17072,20.33,2.5455,0.05,7.2656e-07,7.2606,5.5791e-07,4.1919,1.5948e-12,1.3162e-05,-5.5791e-07,-4.1919,2.2477
17073,20.606,2.5455,0,7.4998e-05,749.46,2.9405e-05,56.359,2.1907e-05,0.023725,-7.388e-05,-719.68,2.2931
17074,20.514,2.4545,0,7.6862e-05,768.09,2.9835e-05,54.078,2.2641e-05,0.022667,-7.5799e-05,-739.61,2.278
17075,20.514,2.5455,0.05,7.2521e-07,7.247,5.5687e-07,4.1841,1.3799e-12,9.4744e-06,-5.5687e-07,-4.1841,2.278
17076,20.789,2.5455,0,7.122e-05,711.71,2.8453e-05,60.015,2.0469e-05,0.025238,-7.0008e-05,-679.79,2.3235
17077,20.697,2.4545,0,7.306e-05,730.09,2.8861e-05,57.547,2.1205e-05,0.024092,-7.191e-05,-699.6,2.3083
17078,20.697,2.5455,0.05,7.2407e-07,7.2357,5.56e-07,4.1775,1.605e-12,7.5326e-06,-5.56e-07,-4.1776,2.3083
17079,20.973,2.5455,0,6.7483e-05,674.36,2.7537e-05,63.954,1.9028e-05,0.026931,-6.6167e-05,-640.1,2.3539
17080,20.881,2.4545,0,6.9297e-05,692.49,2.792e-05,61.286,1.9767e-05,0.025683,-6.805e-05,-659.8,2.3387
17081,20.881,2.5455,0.05,7.2319e-07,7.2269,5.5532e-07,4.1724,1.1502e-12,8.9525e-06,-5.5532e-07,-4.1725,2.3387
17082,21.156,2.5455,0,6.3789e-05,637.45,2.6657e-05,68.197,1.7584e-05,0.02884,-6.2354e-05,-600.6,2.3844
17083,21.064,2.4545,0,6.5576e-05,655.3,2.7016e-05,65.316,1.8326e-05,0.02747,-6.422e-05,-620.19,2.3692
17084,21.064,2.5455,0.05,7.2258e-07,7.2208,5.5485e-07,4.169,1.1586e-12,1.1919e-05,-5.5485e-07,-4.169,2.3692
17085,21.34,2.5455,0,6.0142e-05,601,2.5816e-05,72.766,1.6136e-05,0.031007,-5.8572e-05,-561.29,2.4149
17086,21.248,2.4545,0,6.1899e-05,618.56,2.6148e-05,69.658,1.6881e-05,0.029498,-6.0419e-05,-580.77,2.3996
17087,21.248,2.5455,0.05,7.223e-07,7.218,5.5463e-07,4.1673,1.3743e-12,1.132e-05,-5.5463e-07,-4.1673,2.3997
17088,21.523,2.5455,0,5.6543e-05,565.04,2.5016e-05,77.682,1.4681e-05,0.033496,-5.4819e-05,-522.16,2.4455
17089,21.431,2.4545,0,5.8269e-05,582.29,2.5321e-05,74.333,1.5432e-05,0.031808,-5.6647e-05,-541.54,2.4302
17090,21.431,2.5455,0.05,7.2236e-07,7.2187,5.5469e-07,4.1677,1.1387e-12,1.1262e-05,-5.5469e-07,-4.1677,2.4302
17091,21.706,2.5455,0,5.2996e-05,529.6,2.4258e-05,82.966,1.3221e-05,0.036386,-5.1095e-05,-483.21,2.4761
17092,21.615,2.4545,0,5.469e-05,546.52,2.4534e-05,79.364,1.3976e-05,0.034482,-5.2906e-05,-502.49,2.4607
17093,21.615,2.5455,0.05,7.2283e-07,7.2233,5.5504e-07,4.1704,1.323e-12,9.9995e-06,-5.5505e-07,-4.1704,2.4607
17094,21.89,2.5455,0,4.9507e-05,494.73,2.3544e-05,88.64,1.1752e-05,0.039775,-4.7399e-05,-444.4,2.5067
17095,21.798,2.4545,0,5.1165e-05,511.3,2.3791e-05,84.772,1.2514e-05,0.037599,-4.9193e-05,-463.6,2.4913
17096,21.798,2.5455,0.05,7.2375e-07,7.2325,5.5575e-07,4.1757,1.1005e-12,1.0967e-05,-5.5575e-07,-4.1757,2.4914
17097,22.073,2.5455,0,4.6079e-05,460.47,2.2876e-05,94.723,1.0275e-05,0.043812,-4.3731e-05,-405.73,2.5373
17098,21.982,2.4545,0,4.7699e-05,476.66,2.3093e-05,90.579,1.1043e-05,0.041281,-4.5508e-05,-424.86,2.522
17099,21.982,2.5455,0.05,7.2518e-07,7.2468,5.5685e-07,4.1839,1.0952e-12,5.1971e-06,-5.5685e-07,-4.1839,2.522
17100,22.257,2.5455,0,4.272e-05,426.91,2.2254e-05,101.24,8.787e-06,0.048714,-4.0088e-05,-367.18,2.568
17101,22.165,2.4545,0,4.4299e-05,442.68,2.2441e-05,96.807,9.5628e-06,0.045713,-4.185e-05,-386.25,2.5526
17102,22.165,2.5455,0.05,7.2717e-07,7.2666,5.5837e-07,4.1954,8.7513e-13,7.1656e-06,-5.5837e-07,-4.1954,2.5527
17103,22.44,2.5455,0,3.944e-05,394.12,2.168e-05,108.19,7.2875e-06,0.05481,-3.6468e-05,-328.71,2.5987
17104,22.349,2.4545,0,4.0971e-05,409.43,2.1836e-05,103.47,8.0717e-06,0.051144,-3.8217e-05,-347.75,2.5833
17105,22.349,2.5455,0.05,7.2977e-07,7.2927,5.6038e-07,4.2105,8.5809e-13,1.0852e-05,-5.6038e-07,-4.2104,2.5834
17106,22.624,2.5455,0,3.6249e-05,362.24,2.1154e-05,115.61,5.7749e-06,0.062521,-3.287e-05,-290.3,2.6295
17107,22.532,2.4545,0,3.7727e-05,377.01,2.128e-05,110.6,6.5683e-06,0.057996,-3.4608e-05,-309.32,2.6141
17108,22.532,2.5455,0.05,7.3306e-07,7.3256,5.629e-07,4.2294,8.1239e-13,1.3374e-05,-5.629e-07,-4.2294,2.6141
17109,22.807,2.5455,0,3.3165e-05,331.42,2.0676e-05,123.51,4.2478e-06,0.072878,-2.929e-05,-251.92,2.6602
17110,22.716,2.4545,0,3.4581e-05,345.57,2.0773e-05,118.2,5.051e-06,0.066725,-3.1019e-05,-270.95,2.6448
17111,22.716,2.5455,0.05,7.3709e-07,7.3658,5.6599e-07,4.2526,5.4866e-13,9.3182e-06,-5.6599e-07,-4.2526,2.6448
17112,22.991,2.5455,0,3.0211e-05,301.9,2.0244e-05,131.87,2.7045e-06,0.086332,-2.5724e-05,-213.51,2.691
17113,22.899,2.4545,0,3.1552e-05,315.3,2.0314e-05,126.27,3.5185e-06,0.07899,-2.7447e-05,-232.58,2.6756
17114,22.899,2.5455,0.05,7.4188e-07,7.4137,5.6967e-07,4.2803,5.5498e-13,1.4099e-05,-5.6967e-07,-4.2803,2.6756
17115,23.174,2.5455,0,2.742e-05,274.01,1.9859e-05,140.73,1.1443e-06,0.10914,-2.2168e-05,-175.05,2.7218
17116,23.083,2.4545,0,2.8669e-05,286.49,1.9903e-05,134.84,1.9691e-06,0.094176,-2.3888e-05,-194.18,2.7064
17117,23.083,2.5455,0.05,7.4748e-07,7.4696,5.7397e-07,4.3126,2.5947e-13,1.3576e-05,-5.7397e-07,-4.3126,2.7064
17118,23.358,2.5455,0,2.4841e-05,248.24,1.9518e-05,150.05,-4.3484e-07,0.13233,-1.8617e-05,-136.48,2.7526
17119,23.266,2.4545,0,2.5972e-05,259.54,1.9538e-05,143.9,4.025e-07,0.12579,-2.0338e-05,-155.71,2.7372
17120,23.266,2.5455,0.05,7.5389e-07,7.5337,5.789e-07,4.3496,1.9092e-13,7.3534e-06,-5.789e-07,-4.3496,2.7372
17121,23.541,2.5455,0,2.254e-05,225.25,1.922e-05,159.87,-2.0277e-06,0.22895,-1.5071e-05,-97.776,2.7834
17122,23.45,2.4545,0,2.3516e-05,235,1.9217e-05,153.44,-1.1849e-06,0.14367,-1.6792e-05,-117.12,2.768
17123,23.45,2.5455,0.05,7.6108e-07,7.6055,5.8441e-07,4.391,1.2431e-13,4.9466e-06,-5.8441e-07,-4.391,2.768
17124,23.725,2.5455,0,2.0607e-05,205.93,1.896e-05,170.09,-3.6472e-06,0.22785,-1.1523e-05,-58.951,2.8142
17125,23.633,2.4545,0,2.1382e-05,213.68,1.8938e-05,163.5,-2.7783e-06,0.3295,-1.3252e-05,-78.366,2.7988
17126,23.633,2.5455,0.05,7.6904e-07,7.6851,5.9053e-07,4.437,1.0258e-13,1.2412e-05,-5.9053e-07,-4.437,2.7988
17127,23.817,2.4545,0,1.9672e-05,196.59,1.8697e-05,173.84,-4.412e-06,0.2093,-9.711e-06,-39.606,2.8296
17128,23.817,2.5455,0.05,7.7939e-07,7.7885,5.9847e-07,4.4967,1.355e-13,8.8367e-06,-5.9847e-07,-4.4967,2.8296
17129,23.908,2.5455,0,1.9225e-05,192.12,1.8752e-05,180.19,-5.171e-06,0.43679,-8.1938e-06,-22.275,2.8451
17130,3.5419,2.3636,0,0.0012442,12434,0.00045746,554.09,0.00038131,-18.133,-0.0012341,-12156,0.087803
17131,3.4501,2.2727,0,0.0014128,14118,0.00054124,901.04,0.00042008,-9.2893,-0.0013954,-13650,0.081792
17132,3.4501,2.3636,0.05,3.7567e-05,375.41,2.8847e-05,216.74,2.5027e-11,-0.00058343,-2.8847e-05,-216.74,0.082288
17133,3.7254,2.3636,0,0.0010215,10208,0.00034732,121,0.00033082,-3.019,-0.0010194,-10148,0.099281
17134,3.6336,2.2727,0,0.0010953,10946,0.00038901,343.12,0.00034603,20.137,-0.0010888,-10760,0.092998
17135,3.6336,2.3636,0.05,2.9471e-05,294.51,2.263e-05,170.03,5.8495e-11,-0.00013046,-2.263e-05,-170.04,0.093392
17136,3.9088,2.3636,0,0.00086813,8675.3,0.0002941,5.4027,0.00027404,-145.28,-0.00087041,-8744.2,0.11141
17137,3.8171,2.2727,0,0.00090515,9045.3,0.00030026,13.16,0.00029728,-9.225,-0.00090509,-9043.3,0.1049
17138,3.8171,2.3636,0.05,2.1355e-05,213.4,1.6398e-05,123.21,5.0421e-11,-3.0739e-05,-1.6398e-05,-123.21,0.10521
17139,4.0923,2.3636,0,0.00076271,7621.8,0.00026675,2.0624,0.00022608,-303.54,-0.00076738,-7768,0.12411
17140,4.0006,2.2727,0,0.00078554,7850,0.00026931,5.5088,0.00024257,-195.4,-0.00078858,-7943,0.11739
17141,4.0006,2.3636,0.05,1.5053e-05,150.42,1.1559e-05,86.847,2.7036e-11,-6.7477e-05,-1.1559e-05,-86.848,0.11764
17142,4.2758,2.3636,0,0.00068773,6872.5,0.00024638,1.7129,0.00019357,-395.13,-0.00069356,-7060.6,0.13731
17143,4.1841,2.2727,0,0.00070305,7025.7,0.00024766,1.954,0.0002053,-316.3,-0.00070786,-7177.5,0.13039
17144,4.1841,2.3636,0.05,1.1438e-05,114.3,8.7828e-06,65.99,1.4594e-11,-0.00011139,-8.7828e-06,-65.991,0.13059
17145,4.4593,2.3636,0,0.00063234,6319,0.00023036,1.2321,0.00017116,-443.54,-0.00063869,-6528.4,0.15097
17146,4.3676,2.2727,0,0.00064367,6432.3,0.00023132,1.7662,0.0001799,-384.62,-0.00064931,-6615,0.14386
17147,4.3676,2.3636,0.05,9.0484e-06,90.421,6.948e-06,52.205,4.6681e-12,-0.00013713,-6.9481e-06,-52.205,0.14403
17148,4.6428,2.3636,0,0.00059029,5898.9,0.00021738,0.90577,0.00015557,-463.55,-0.00059679,-6116.5,0.16506
17149,4.551,2.2727,0,0.00059924,5988.2,0.00021824,1.1415,0.0001623,-419.13,-0.00060524,-6186.1,0.15776
17150,4.551,2.3636,0.05,7.3323e-06,73.272,5.6303e-06,42.304,-2.6739e-12,-0.00014562,-5.6303e-06,-42.304,0.15791
17151,4.8263,2.3636,0,0.00055768,5572.9,0.00020664,0.67796,0.00014467,-464.92,-0.00056411,-5790.4,0.17954
17152,4.7345,2.2727,0,0.00056511,5647.2,0.0002075,0.86495,0.00015001,-431.11,-0.00057118,-5849.9,0.17207
17153,4.7345,2.3636,0.05,6.0354e-06,60.313,4.6344e-06,34.821,-6.1664e-12,-0.00014371,-4.6345e-06,-34.822,0.1722
17154,5.0097,2.3636,0,0.00053191,5315.4,0.00019759,0.50576,0.00013706,-454.27,-0.00053817,-5527.7,0.1944
17155,4.918,2.2727,0,0.00053831,5379.3,0.00019849,0.63341,0.00014139,-428.43,-0.0005443,-5580.4,0.18675
17156,4.918,2.3636,0.05,5.0261e-06,50.227,3.8594e-06,28.998,-2.8071e-12,-0.00012159,-3.8594e-06,-28.998,0.18688
17157,5.1932,2.3636,0,0.00051121,5108.6,0.00018987,0.37802,0.00013178,-436.11,-0.00051723,-5312.5,0.20963
17158,5.1015,2.2727,0,0.00051686,5165.1,0.00019081,0.47395,0.00013534,-416.35,-0.00052268,-5360.4,0.20181
17159,5.1015,2.3636,0.05,4.2275e-06,42.246,3.2462e-06,24.391,-3.6766e-12,-0.00010606,-3.2462e-06,-24.391,0.20192
17160,5.3767,2.3636,0,0.00049433,4939.9,0.00018321,0.28185,0.00012813,-413.53,-0.00050006,-5133.5,0.2252
17161,5.285,2.2727,0,0.00049941,4990.7,0.00018418,0.35353,0.0001311,-398.48,-0.00050499,-5177.8,0.21721
17162,5.285,2.3636,0.05,3.5902e-06,35.877,2.7568e-06,20.714,-3.5637e-12,-8.7763e-05,-2.7568e-06,-20.714,0.21733
17163,5.5602,2.3636,0,0.00048034,4800,0.00017739,0.20978,0.00012564,-388.62,-0.00048576,-4982.4,0.24111
17164,5.4684,2.2727,0,0.00048497,4846.4,0.00017839,0.26427,0.00012814,-377.27,-0.00049028,-5023.8,0.23296
17165,5.4684,2.3636,0.05,3.0793e-06,30.772,2.3645e-06,17.766,-6.8928e-12,-7.4722e-05,-2.3645e-06,-17.766,0.23307
17166,5.7437,2.3636,0,0.00046854,4682.2,0.00017225,0.15574,0.00012395,-362.79,-0.00047365,-4852.9,0.25735
17167,5.6519,2.2727,0,0.00047281,4724.9,0.00017327,0.19731,0.00012608,-354.37,-0.00047784,-4892,0.24904
17168,5.6519,2.3636,0.05,2.6688e-06,26.67,2.0493e-06,15.398,-2.3834e-12,-5.2119e-05,-2.0493e-06,-15.398,0.24914
17169,5.9271,2.3636,0,0.00045843,4581.1,0.00016768,0.11533,0.00012281,-337,-0.00046322,-4740.2,0.2739
17170,5.8354,2.2727,0,0.0004624,4620.8,0.0001687,0.14718,0.00012464,-330.91,-0.00046714,-4777.3,0.26544
17171,5.8354,2.3636,0.05,2.3388e-06,23.371,1.7959e-06,13.493,6.4396e-13,-5.0934e-05,-1.7959e-06,-13.494,0.26554
17172,6.1106,2.3636,0,0.0004496,4492.9,0.00016355,0.085155,0.00012204,-311.86,-0.00045409,-4640.6,0.29077
17173,6.0189,2.2727,0,0.00045333,4530.2,0.00016459,0.10962,0.00012363,-307.62,-0.00045778,-4676.1,0.28215
17174,6.0189,2.3636,0.05,2.0732e-06,20.718,1.592e-06,11.962,-1.4012e-12,-3.9405e-05,-1.592e-06,-11.962,0.28226
17175,6.2941,2.3636,0,0.00044175,4414.5,0.0001598,0.062672,0.0001215,-287.75,-0.00044594,-4551.3,0.30794
17176,6.2024,2.2727,0,0.00044528,4449.8,0.00016084,0.081518,0.0001229,-284.97,-0.00044944,-4585.3,0.29917
17177,6.2024,2.3636,0.05,1.8596e-06,18.584,1.428e-06,10.729,1.3826e-12,-1.9001e-05,-1.428e-06,-10.729,0.29928
17178,6.4776,2.3636,0,0.00043466,4343.6,0.00015636,0.04596,0.0001211,-264.89,-0.00043856,-4469.9,0.32542
17179,6.3858,2.2727,0,0.00043802,4377.2,0.0001574,0.06051,0.00012235,-263.28,-0.0004419,-4502.8,0.31649
17180,6.3858,2.3636,0.05,1.6878e-06,16.866,1.296e-06,9.7376,2.153e-12,-2.0577e-05,-1.296e-06,-9.7377,0.3166
17181,6.6611,2.3636,0,0.00042813,4278.4,0.00015317,0.033573,0.00012077,-243.41,-0.00043175,-4394.9,0.34318
17182,6.5693,2.2727,0,0.00043136,4310.6,0.0001542,0.044834,0.0001219,-242.71,-0.00043497,-4426.8,0.33412
17183,6.5693,2.3636,0.05,1.5494e-06,15.484,1.1898e-06,8.9394,1.6615e-12,-1.7276e-05,-1.1898e-06,-8.9395,0.33422
17184,6.8445,2.3636,0,0.00042204,4217.5,0.00015019,0.024426,0.00012046,-223.35,-0.0004254,-4324.7,0.36124
17185,6.7528,2.2727,0,0.00042515,4248.6,0.00015122,0.033163,0.00012149,-223.35,-0.00042851,-4355.8,0.35203
17186,6.7528,2.3636,0.05,1.438e-06,14.37,1.1042e-06,8.2963,3.3205e-12,-1.2495e-05,-1.1042e-06,-8.2964,0.35214
17187,7.028,2.3636,0,0.00041627,4159.9,0.00014739,0.017705,0.00012014,-204.7,-0.00041938,-4258.4,0.37959
17188,6.9363,2.2727,0,0.00041929,4190,0.00014841,0.024499,0.00012109,-205.24,-0.0004224,-4288.8,0.37023
17189,6.9363,2.3636,0.05,1.348e-06,13.471,1.0351e-06,7.7773,1.7193e-12,-7.5467e-06,-1.0351e-06,-7.7774,0.37034
17190,7.2115,2.3636,0,0.00041075,4104.7,0.00014473,0.012797,0.00011978,-187.43,-0.00041362,-4195.2,0.39822
17191,7.1198,2.2727,0,0.00041369,4134,0.00014574,0.018093,0.00012067,-188.38,-0.00041657,-4225,0.38872
17192,7.1198,2.3636,0.05,1.2752e-06,12.743,9.792e-07,7.3573,2.8399e-12,-1.0756e-05,-9.7921e-07,-7.3575,0.38883
17193,7.395,2.3636,0,0.00040541,4051.3,0.00014219,0.0092437,0.00011937,-171.48,-0.00040806,-4134.3,0.41712
17194,7.3032,2.2727,0,0.00040828,4080,0.0001432,0.013381,0.00012021,-172.71,-0.00041094,-4163.6,0.40749
17195,7.3032,2.3636,0.05,1.2161e-06,12.153,9.3381e-07,7.0162,2.7241e-12,-4.0977e-06,-9.3382e-07,-7.0163,0.4076
17196,7.5785,2.3636,0,0.0004002,3999.3,0.00013976,0.0067005,0.00011889,-156.76,-0.00040264,-4075.3,0.43631
17197,7.4867,2.2727,0,0.00040302,4027.4,0.00014076,0.009939,0.0001197,-158.21,-0.00040547,-4104.1,0.42653
17198,7.4867,2.3636,0.05,1.1679e-06,11.671,8.9677e-07,6.7379,2.462e-12,-6.4801e-06,-8.9678e-07,-6.7381,0.42665
17199,7.7619,2.3636,0,0.00039509,3948.2,0.00013741,0.0049098,0.00011835,-143.21,-0.00039733,-4017.8,0.45576
17200,7.6702,2.2727,0,0.00039786,3975.9,0.0001384,0.0074483,0.00011913,-144.79,-0.00040013,-4046.3,0.44585
17201,7.6702,2.3636,0.05,1.1283e-06,11.275,8.6638e-07,6.5096,3.1012e-12,-3.2088e-06,-8.6638e-07,-6.5097,0.44596
17202,7.9454,2.3636,0,0.00039005,3897.8,0.00013514,0.0036776,0.00011774,-130.74,-0.00039211,-3961.5,0.47548
17203,7.8537,2.2727,0,0.00039278,3925.1,0.00013612,0.00567,0.0001185,-132.41,-0.00039487,-3989.6,0.46544
17204,7.8537,2.3636,0.05,1.0956e-06,10.948,8.4126e-07,6.3209,2.4741e-12,-1.6857e-06,-8.4127e-07,-6.321,0.46555
17205,8.1289,2.3636,0,0.00038506,3847.9,0.00013293,0.0028575,0.00011706,-119.27,-0.00038695,-3906.1,0.49546
17206,8.0372,2.2727,0,0.00038776,3874.9,0.00013391,0.0044223,0.0001178,-120.98,-0.00038967,-3934,0.48529
17207,8.0372,2.3636,0.05,1.0683e-06,10.676,8.2034e-07,6.1638,3.7052e-12,-1.7945e-06,-8.2036e-07,-6.1638,0.4854
17208,8.3124,2.3636,0,0.0003801,3798.3,0.00013078,0.0023419,0.00011631,-108.73,-0.00038183,-3851.5,0.51571
17209,8.2206,2.2727,0,0.00038277,3825.1,0.00013175,0.0035699,0.00011705,-110.45,-0.00038453,-3879.1,0.50541
17210,8.2206,2.3636,0.05,1.0454e-06,10.447,8.0277e-07,6.0317,3.1053e-12,-1.4019e-06,-8.0278e-07,-6.0318,0.50552
17211,8.4959,2.3636,0,0.00037516,3749,0.00012868,0.0020489,0.00011549,-99.047,-0.00037674,-3797.5,0.53621
17212,8.4041,2.2727,0,0.00037781,3775.5,0.00012964,0.0030119,0.00011623,-100.75,-0.00037943,-3824.9,0.52578
17213,8.4041,2.3636,0.05,1.026e-06,10.253,7.8786e-07,5.9197,2.408e-12,-5.5938e-07,-7.8787e-07,-5.9198,0.52589
17214,8.6794,2.3636,0,0.00037024,3699.8,0.00012662,0.0019173,0.00011462,-90.146,-0.00037169,-3744,0.55696
17215,8.5876,2.2727,0,0.00037287,3726.1,0.00012757,0.00267,0.00011535,-91.809,-0.00037435,-3771.2,0.54641
17216,8.5876,2.3636,0.05,1.0094e-06,10.087,7.7508e-07,5.8237,2.5677e-12,-2.1372e-06,-7.751e-07,-5.8238,0.54652
17217,8.8628,2.3636,0,0.00036532,3650.7,0.00012459,0.0019027,0.00011368,-81.963,-0.00036665,-3691,0.57797
17218,8.7711,2.2727,0,0.00036794,3676.9,0.00012554,0.0024884,0.00011441,-83.576,-0.00036929,-3717.9,0.5673
17219,8.7711,2.3636,0.05,9.9498e-07,9.943,7.6402e-07,5.7405,2.7262e-12,-2.0389e-06,-7.6402e-07,-5.7406,0.5674
17220,9.0463,2.3636,0,0.00036041,3601.6,0.0001226,0.0019707,0.0001127,-74.441,-0.00036162,-3638.3,0.59922
17221,8.9546,2.2727,0,0.00036302,3627.7,0.00012354,0.0024231,0.00011343,-75.992,-0.00036425,-3665.1,0.58843
17222,8.9546,2.3636,0.05,9.8236e-07,9.8168,7.5433e-07,5.6677,2.8445e-12,-1.0908e-06,-7.5433e-07,-5.6678,0.58853
17223,9.2298,2.3636,0,0.00035551,3552.6,0.00012065,0.0020963,0.00011166,-67.523,-0.00035661,-3585.9,0.62072
17224,9.1381,2.2727,0,0.0003581,3578.5,0.00012157,0.0024423,0.00011239,-69.007,-0.00035922,-3612.5,0.6098
17225,9.1381,2.3636,0.05,9.7119e-07,9.7052,7.4575e-07,5.6032,3.8729e-12,-1.3063e-06,-7.4575e-07,-5.6033,0.60991
17226,9.4133,2.3636,0,0.0003506,3503.6,0.00011871,0.0022605,0.00011057,-61.158,-0.0003516,-3533.8,0.64245
17227,9.3215,2.2727,0,0.00035318,3529.4,0.00011964,0.0025217,0.00011131,-62.572,-0.00035421,-3560.3,0.63142
17228,9.3215,2.3636,0.05,9.6119e-07,9.6052,7.3807e-07,5.5455,3.0533e-12,-1.042e-06,-7.3808e-07,-5.5456,0.63153
17229,9.5968,2.3636,0,0.0003457,3454.6,0.00011681,0.0024522,0.00010945,-55.302,-0.0003466,-3481.9,0.66443
17230,9.505,2.2727,0,0.00034827,3480.3,0.00011772,0.0026429,0.00011018,-56.643,-0.0003492,-3508.3,0.65328
17231,9.505,2.3636,0.05,9.5215e-07,9.5149,7.3113e-07,5.4934,3.1245e-12,-1.0426e-06,-7.3113e-07,-5.4935,0.65338
17232,9.7802,2.3636,0,0.00034079,3405.6,0.00011492,0.0026589,0.00010828,-49.91,-0.00034161,-3430.2,0.68663
17233,9.6885,2.2727,0,0.00034335,3431.2,0.00011583,0.0027974,0.00010902,-51.178,-0.0003442,-3456.5,0.67537
17234,9.6885,2.3636,0.05,9.439e-07,9.4324,7.2479e-07,5.4458,2.2819e-12,3.5549e-07,-7.2479e-07,-5.4459,0.67547
17235,9.9637,2.3636,0,0.00033589,3356.6,0.00011306,0.0028783,0.00010708,-44.943,-0.00033663,-3378.8,0.70907
17236,9.872,2.2727,0,0.00033844,3382.1,0.00011396,0.0029646,0.00010782,-46.139,-0.0003392,-3404.9,0.69769
17237,9.872,2.3636,0.05,9.3629e-07,9.3565,7.1895e-07,5.4019,3.2353e-12,-1.5148e-07,-7.1896e-07,-5.402,0.69779
17238,10.147,2.3636,0,0.00033098,3307.6,0.00011122,0.0031073,0.00010585,-40.367,-0.00033165,-3327.6,0.73173
17239,10.055,2.2727,0,0.00033353,3333,0.00011211,0.0031594,0.00010659,-41.492,-0.00033422,-3353.6,0.72024
17240,10.055,2.3636,0.05,9.2923e-07,9.2859,7.1353e-07,5.3611,3.2839e-12,1.9531e-07,-7.1353e-07,-5.3612,0.72034
17241,10.331,2.3636,0,0.00032608,3258.6,0.00010939,0.0033203,0.00010458,-36.148,-0.00032668,-3276.5,0.75462
17242,10.239,2.2727,0,0.00032862,3284,0.00011028,0.0033581,0.00010533,-37.204,-0.00032924,-3302.4,0.74302
17243,10.239,2.3636,0.05,9.2262e-07,9.2198,7.0846e-07,5.323,3.3248e-12,1.4374e-06,-7.0846e-07,-5.3231,0.74312
17244,10.514,2.3636,0,0.00032119,3209.6,0.00010759,0.0035257,0.00010329,-32.256,-0.00032172,-3225.6,0.77773
17245,10.422,2.2727,0,0.00032372,3234.9,0.00010847,0.0035315,0.00010404,-33.248,-0.00032427,-3251.4,0.76602
17246,10.422,2.3636,0.05,9.1639e-07,9.1575,7.0367e-07,5.2871,3.3598e-12,1.0499e-06,-7.0367e-07,-5.2871,0.76612
17247,10.698,2.3636,0,0.00031629,3160.7,0.00010579,0.0037457,0.00010198,-28.665,-0.00031677,-3175,0.80105
17248,10.606,2.2727,0,0.00031881,3185.9,0.00010667,0.003724,0.00010273,-29.594,-0.00031931,-3200.6,0.78923
17249,10.606,2.3636,0.05,9.1047e-07,9.0984,6.9912e-07,5.2529,2.4854e-12,1.738e-06,-6.9913e-07,-5.253,0.78933
17250,10.881,2.3636,0,0.0003114,3111.9,0.00010402,0.0039828,0.00010064,-25.348,-0.00031182,-3124.5,0.82458
17251,10.789,2.2727,0,0.00031392,3137,0.00010489,0.0039353,0.0001014,-26.219,-0.00031435,-3150,0.81266
17252,10.789,2.3636,0.05,9.0482e-07,9.042,6.9479e-07,5.2204,2.5127e-12,1.72e-06,-6.948e-07,-5.2204,0.81276
17253,11.065,2.3636,0,0.00030652,3063.1,0.00010225,0.0042067,9.9286e-05,-22.284,-0.00030689,-3074.1,0.84833
17254,10.973,2.2727,0,0.00030902,3088.1,0.00010312,0.0041702,0.00010005,-23.099,-0.00030941,-3099.6,0.83631
17255,10.973,2.3636,0.05,8.9943e-07,8.988,6.9064e-07,5.1892,2.539e-12,1.2227e-06,-6.9065e-07,-5.1893,0.8364
17256,11.248,2.3636,0,0.00030164,3014.3,0.0001005,0.0044069,9.7914e-05,-19.451,-0.00030197,-3024,0.87228
17257,11.156,2.2727,0,0.00030414,3039.3,0.00010137,0.0043621,9.8674e-05,-20.214,-0.00030448,-3049.3,0.86016
17258,11.156,2.3636,0.05,8.9424e-07,8.9362,6.8666e-07,5.1593,1.6539e-12,2.0665e-06,-6.8666e-07,-5.1594,0.86025
17259,11.432,2.3636,0,0.00029677,2965.6,9.8767e-05,0.004633,9.6526e-05,-16.831,-0.00029705,-2974,0.89644
17260,11.34,2.2727,0,0.00029926,2990.5,9.9624e-05,0.0045572,9.7288e-05,-17.545,-0.00029955,-2999.3,0.88421
17261,11.34,2.3636,0.05,8.8922e-07,8.886,6.8281e-07,5.1303,3.4923e-12,2.8461e-06,-6.8281e-07,-5.1304,0.88431
17262,11.615,2.3636,0,0.00029191,2917.1,9.7042e-05,0.0048672,9.5125e-05,-14.404,-0.00029215,-2924.2,0.92079
17263,11.523,2.2727,0,0.00029439,2941.9,9.7894e-05,0.0048087,9.5888e-05,-15.073,-0.00029464,-2949.4,0.90847
17264,11.523,2.3636,0.05,8.8436e-07,8.8375,6.7907e-07,5.1023,2.599e-12,2.6165e-06,-6.7908e-07,-5.1024,0.90856
17265,11.799,2.3636,0,0.00028705,2868.6,9.533e-05,0.005093,9.3711e-05,-12.155,-0.00028726,-2874.6,0.94535
17266,11.707,2.2727,0,0.00028953,2893.3,9.6177e-05,0.0050309,9.4475e-05,-12.783,-0.00028974,-2899.6,0.93293
17267,11.707,2.3636,0.05,8.7965e-07,8.7904,6.7545e-07,5.0751,3.5247e-12,2.8676e-06,-6.7546e-07,-5.0752,0.93302
17268,11.982,2.3636,0,0.00028221,2820.2,9.3628e-05,0.0053414,9.2287e-05,-10.07,-0.00028238,-2825.2,0.97009
17269,11.89,2.2727,0,0.00028468,2844.8,9.4471e-05,0.0052798,9.3052e-05,-10.658,-0.00028486,-2850.1,0.95758
17270,11.89,2.3636,0.05,8.7505e-07,8.7445,6.7193e-07,5.0486,3.5425e-12,4.0532e-06,-6.7194e-07,-5.0487,0.95767
17271,12.165,2.3636,0,0.00027738,2771.9,9.1938e-05,0.005604,9.0855e-05,-8.133,-0.00027752,-2775.9,0.99503
17272,12.074,2.2727,0,0.00027984,2796.4,9.2776e-05,0.0055647,9.1619e-05,-8.6864,-0.00027998,-2800.8,0.98242
17273,12.074,2.3636,0.05,8.7057e-07,8.6997,6.6849e-07,5.0227,2.6489e-12,3.5697e-06,-6.685e-07,-5.0229,0.98251
17274,12.349,2.3636,0,0.00027256,2723.7,9.0258e-05,0.0059083,8.9414e-05,-6.3327,-0.00027266,-2726.9,1.0202
17275,12.257,2.2727,0,0.00027501,2748.2,9.1092e-05,0.0058723,9.0179e-05,-6.8536,-0.00027512,-2751.6,1.0075
17276,12.257,2.3636,0.05,8.6619e-07,8.6559,6.6512e-07,4.9975,8.4346e-13,4.2071e-06,-6.6513e-07,-4.9975,1.0075
17277,12.532,2.3636,0,0.00026775,2675.6,8.8588e-05,0.0063246,8.7968e-05,-4.6568,-0.00026783,-2678,1.0455
17278,12.441,2.2727,0,0.00027019,2700,8.9418e-05,0.0062973,8.8732e-05,-5.1482,-0.00027028,-2702.6,1.0327
17279,12.441,2.3636,0.05,8.6189e-07,8.613,6.6183e-07,4.9727,3.5859e-12,4.4058e-06,-6.6183e-07,-4.9727,1.0328
17280,12.716,2.3636,0,0.00026295,2627.7,8.6928e-05,0.0069882,8.6515e-05,-3.0946,-0.00026301,-2629.3,1.0709
17281,12.624,2.2727,0,0.00026538,2652,8.7754e-05,0.0069578,8.7279e-05,-3.5593,-0.00026544,-2653.8,1.0581
17282,12.624,2.3636,0.05,8.5768e-07,8.5708,6.5858e-07,4.9483,3.5978e-12,3.1969e-06,-6.5859e-07,-4.9484,1.0582
17283,12.899,2.3636,0,0.00025817,2579.9,8.5278e-05,0.0084533,8.5059e-05,-1.6364,-0.0002582,-2580.7,1.0966
17284,12.808,2.2727,0,0.00026059,2604.1,8.6099e-05,0.0082974,8.5822e-05,-2.0769,-0.00026063,-2605.2,1.0836
17285,12.808,2.3636,0.05,8.5354e-07,8.5295,6.5541e-07,4.9245,2.6977e-12,2.1232e-06,-6.5542e-07,-4.9246,1.0837
17286,13.083,2.3636,0,0.0002534,2532.3,8.3638e-05,0.021555,8.3598e-05,-0.28365,-0.00025341,-2532.4,1.1224
17287,12.991,2.2727,0,0.00025582,2556.4,8.4455e-05,0.01397,8.436e-05,-0.69521,-0.00025583,-2556.7,1.1094
17288,12.991,2.3636,0.05,8.4948e-07,8.4889,6.523e-07,4.901,3.6165e-12,2.8964e-06,-6.523e-07,-4.9011,1.1095
17289,13.266,2.3636,0,0.00024865,2484.8,8.2139e-05,1.0175,8.2003e-05,0.0014761,-0.00024863,-2484.2,1.1485
17290,13.175,2.2727,0,0.00025105,2508.8,8.2899e-05,0.62245,8.2816e-05,-0.0037383,-0.00025104,-2508.5,1.1353
17291,13.175,2.3636,0.05,8.4547e-07,8.4489,6.4921e-07,4.8779,8.9718e-13,3.901e-06,-6.4922e-07,-4.878,1.1354
17292,13.45,2.3636,0,0.00024391,2437.4,8.0675e-05,2.2193,8.038e-05,0.0040844,-0.00024387,-2436.3,1.1746
17293,13.358,2.2727,0,0.0002463,2461.3,8.1434e-05,1.8371,8.119e-05,0.002728,-0.00024627,-2460.4,1.1614
17294,13.358,2.3636,0.05,8.4153e-07,8.4095,6.4619e-07,4.8552,2.7242e-12,5.3322e-06,-6.4619e-07,-4.8553,1.1615
17295,13.633,2.3636,0,0.00023918,2390.2,7.9211e-05,3.354,7.8765e-05,0.0049323,-0.00023913,-2388.5,1.201
17296,13.542,2.2727,0,0.00024157,2414,7.9968e-05,2.9854,7.9571e-05,0.0040996,-0.00024152,-2412.5,1.1877
17297,13.542,2.3636,0.05,8.3765e-07,8.3707,6.4321e-07,4.8328,1.8222e-12,6.0139e-06,-6.4321e-07,-4.8328,1.1878
17298,13.817,2.3636,0,0.00023448,2343.1,7.7747e-05,4.4276,7.7158e-05,0.0054215,-0.0002344,-2340.9,1.2275
17299,13.725,2.2727,0,0.00023685,2366.9,7.8502e-05,4.0707,7.796e-05,0.0047708,-0.00023678,-2364.9,1.2141
17300,13.725,2.3636,0.05,8.3381e-07,8.3324,6.4026e-07,4.8106,2.7385e-12,6.9596e-06,-6.4027e-07,-4.8108,1.2142
17301,14,2.3636,0,0.00022978,2296.3,7.6284e-05,5.4467,7.556e-05,0.005763,-0.00022969,-2293.5,1.2541
17302,13.909,2.2727,0,0.00023215,2319.9,7.7036e-05,5.0994,7.6358e-05,0.0052174,-0.00023207,-2317.4,1.2407
17303,13.909,2.3636,0.05,8.3003e-07,8.2946,6.3736e-07,4.7888,1.8355e-12,7.6765e-06,-6.3736e-07,-4.7889,1.2408
17304,14.184,2.3636,0,0.00022511,2249.5,7.4822e-05,6.4177,7.3969e-05,0.0060443,-0.000225,-2246.3,1.2809
17305,14.092,2.2727,0,0.00022747,2273.1,7.5572e-05,6.0778,7.4764e-05,0.0055299,-0.00022736,-2270.1,1.2674
17306,14.092,2.3636,0.05,8.2629e-07,8.2572,6.3448e-07,4.7673,2.7507e-12,7.5307e-06,-6.3449e-07,-4.7673,1.2675
17307,14.367,2.3636,0,0.00022045,2203,7.3363e-05,7.3468,7.2386e-05,0.0063096,-0.00022033,-2199.3,1.3079
17308,14.276,2.2727,0,0.0002228,2226.5,7.411e-05,7.0122,7.3177e-05,0.0058264,-0.00022268,-2223,1.2943
17309,14.276,2.3636,0.05,8.2258e-07,8.2201,6.3164e-07,4.7459,3.6658e-12,7.2451e-06,-6.3164e-07,-4.7459,1.2944
17310,14.551,2.3636,0,0.00021581,2156.6,7.1906e-05,8.2399,7.081e-05,0.0065392,-0.00021567,-2152.5,1.335
17311,14.459,2.2727,0,0.00021815,2180,7.265e-05,7.9084,7.1598e-05,0.0060917,-0.00021802,-2176,1.3213
17312,14.459,2.3636,0.05,8.1893e-07,8.1836,6.2883e-07,4.7248,1.8527e-12,7.7082e-06,-6.2884e-07,-4.7248,1.3214
17313,14.734,2.3636,0,0.00021119,2110.4,7.0452e-05,9.1027,6.9242e-05,0.0067501,-0.00021103,-2105.9,1.3623
17314,14.642,2.2727,0,0.00021352,2133.7,7.1193e-05,8.7721,7.0027e-05,0.0063055,-0.00021337,-2129.3,1.3485
17315,14.642,2.3636,0.05,8.1531e-07,8.1475,6.2606e-07,4.7039,2.7685e-12,6.2558e-06,-6.2606e-07,-4.704,1.3486
17316,14.918,2.3636,0,0.00020659,2064.4,6.9003e-05,9.9408,6.7681e-05,0.0069688,-0.00020641,-2059.4,1.3897
17317,14.826,2.2727,0,0.0002089,2087.6,6.974e-05,9.6089,6.8462e-05,0.0065261,-0.00020874,-2082.8,1.3759
17318,14.826,2.3636,0.05,8.1172e-07,8.1116,6.233e-07,4.6832,9.5412e-13,5.0482e-06,-6.233e-07,-4.6833,1.3759
17319,15.101,2.3636,0,0.000202,2018.6,6.7558e-05,10.759,6.6127e-05,0.0071972,-0.00020181,-2013.2,1.4172
17320,15.009,2.2727,0,0.00020431,2041.7,6.8292e-05,10.424,6.6905e-05,0.0067519,-0.00020413,-2036.4,1.4033
17321,15.009,2.3636,0.05,8.0818e-07,8.0762,6.2058e-07,4.6628,3.6873e-12,3.9472e-06,-6.2058e-07,-4.6628,1.4034
17322,15.285,2.3636,0,0.00019743,1973,6.6118e-05,11.564,6.458e-05,0.0074215,-0.00019723,-1967.2,1.4449
17323,15.193,2.2727,0,0.00019973,1995.9,6.6848e-05,11.222,6.5355e-05,0.0069872,-0.00019954,-1990.3,1.4309
17324,15.193,2.3636,0.05,8.0467e-07,8.0411,6.1788e-07,4.6425,2.7829e-12,3.2108e-06,-6.1789e-07,-4.6426,1.431
17325,15.468,2.3636,0,0.00019289,1927.5,6.4683e-05,12.359,6.304e-05,0.0076398,-0.00019267,-1921.3,1.4727
17326,15.376,2.2727,0,0.00019517,1950.4,6.5409e-05,12.009,6.3812e-05,0.0072027,-0.00019497,-1944.3,1.4587
17327,15.376,2.3636,0.05,8.012e-07,8.0065,6.1522e-07,4.6225,1.8773e-12,4.9724e-06,-6.1523e-07,-4.6226,1.4587
17328,15.652,2.3636,0,0.00018836,1882.3,6.3255e-05,13.149,6.1506e-05,0.0078672,-0.00018813,-1875.7,1.5006
17329,15.56,2.2727,0,0.00019063,1905,6.3976e-05,12.79,6.2275e-05,0.0074242,-0.00019041,-1898.6,1.4866
17330,15.56,2.3636,0.05,7.9776e-07,7.9721,6.1258e-07,4.6027,9.7147e-13,3.6877e-06,-6.1259e-07,-4.6027,1.4866
17331,15.835,2.3636,0,0.00018385,1837.2,6.1833e-05,13.941,5.9979e-05,0.0080913,-0.00018361,-1830.2,1.5287
17332,15.743,2.2727,0,0.00018611,1859.9,6.255e-05,13.568,6.0745e-05,0.0076559,-0.00018588,-1853,1.5146
17333,15.743,2.3636,0.05,7.9437e-07,7.9382,6.0997e-07,4.5831,9.7558e-13,2.0438e-06,-6.0998e-07,-4.5831,1.5146
17334,16.019,2.3636,0,0.00017936,1792.4,6.0419e-05,14.738,5.8458e-05,0.0083252,-0.0001791,-1784.9,1.5569
17335,15.927,2.2727,0,0.00018162,1814.9,6.113e-05,14.35,5.9222e-05,0.0078692,-0.00018137,-1807.7,1.5427
17336,15.927,2.3636,0.05,7.91e-07,7.9045,6.0739e-07,4.5636,2.3431e-12,2.3123e-06,-6.0739e-07,-4.5637,1.5427
17337,16.202,2.3636,0,0.00017489,1747.7,5.9011e-05,15.547,5.6943e-05,0.0085834,-0.00017462,-1739.9,1.5852
17338,16.11,2.2727,0,0.00017714,1770.1,5.9718e-05,15.14,5.7704e-05,0.0081211,-0.00017687,-1762.5,1.5709
17339,16.11,2.3636,0.05,7.8766e-07,7.8712,6.0482e-07,4.5444,1.8958e-12,3.0712e-06,-6.0483e-07,-4.5445,1.571
17340,16.386,2.3636,0,0.00017045,1703.3,5.7613e-05,16.371,5.5435e-05,0.0088384,-0.00017016,-1695,1.6136
17341,16.294,2.2727,0,0.00017268,1725.6,5.8314e-05,15.943,5.6193e-05,0.0083809,-0.0001724,-1717.6,1.5993
17342,16.294,2.3636,0.05,7.8437e-07,7.8383,6.023e-07,4.5254,2.3566e-12,3.4967e-06,-6.023e-07,-4.5255,1.5994
17343,16.569,2.3636,0,0.00016602,1659,5.6222e-05,17.216,5.3932e-05,0.0090977,-0.00016572,-1650.4,1.6421
17344,16.477,2.2727,0,0.00016824,1681.2,5.6918e-05,16.764,5.4688e-05,0.0086225,-0.00016795,-1672.8,1.6278
17345,16.477,2.3636,0.05,7.8111e-07,7.8057,5.9979e-07,4.5066,2.3621e-12,3.1723e-06,-5.998e-07,-4.5066,1.6278
17346,16.753,2.3636,0,0.00016162,1615,5.4841e-05,18.088,5.2435e-05,0.0093812,-0.0001613,-1605.9,1.6708
17347,16.661,2.2727,0,0.00016382,1637.1,5.5531e-05,17.609,5.3188e-05,0.0088937,-0.00016352,-1628.2,1.6564
17348,16.661,2.3636,0.05,7.7788e-07,7.7735,5.9732e-07,4.488,1.915e-12,4.7724e-06,-5.9732e-07,-4.488,1.6564
17349,16.936,2.3636,0,0.00015723,1571.2,5.347e-05,18.991,5.0944e-05,0.0096875,-0.0001569,-1561.7,1.6996
17350,16.844,2.2727,0,0.00015943,1593.2,5.4153e-05,18.482,5.1694e-05,0.0091831,-0.00015911,-1583.9,1.6851
17351,16.844,2.3636,0.05,7.747e-07,7.7416,5.9487e-07,4.4696,1.923e-12,7.935e-06,-5.9487e-07,-4.4696,1.6851
17352,17.119,2.3636,0,0.00015287,1527.7,5.2109e-05,19.933,4.9458e-05,0.010005,-0.00015252,-1517.6,1.7284
17353,17.028,2.2727,0,0.00015506,1549.5,5.2785e-05,19.389,5.0206e-05,0.0094978,-0.00015472,-1539.7,1.7139
17354,17.028,2.3636,0.05,7.7155e-07,7.7102,5.9246e-07,4.4515,1.9316e-12,7.5246e-06,-5.9246e-07,-4.4515,1.714
17355,17.303,2.3636,0,0.00014853,1484.3,5.076e-05,20.917,4.7977e-05,0.010334,-0.00014817,-1473.7,1.7574
17356,17.211,2.2727,0,0.00015071,1506,5.1428e-05,20.335,4.8723e-05,0.0098107,-0.00015035,-1495.7,1.7428
17357,17.211,2.3636,0.05,7.6846e-07,7.6793,5.9008e-07,4.4336,2.3906e-12,6.862e-06,-5.9008e-07,-4.4336,1.7429
17358,17.486,2.3636,0,0.00014422,1441.2,4.9422e-05,21.952,4.6502e-05,0.010686,-0.00014383,-1430.1,1.7865
17359,17.395,2.2727,0,0.00014638,1462.8,5.0083e-05,21.328,4.7245e-05,0.010147,-0.000146,-1452,1.7719
17360,17.395,2.3636,0.05,7.654e-07,7.6487,5.8773e-07,4.416,1.9457e-12,6.914e-06,-5.8773e-07,-4.416,1.7719
17361,17.67,2.3636,0,0.00013993,1398.3,4.8096e-05,23.043,4.5031e-05,0.011052,-0.00013952,-1386.6,1.8156
17362,17.578,2.2727,0,0.00014207,1419.8,4.8749e-05,22.372,4.5773e-05,0.010504,-0.00014168,-1408.4,1.801
17363,17.578,2.3636,0.05,7.6239e-07,7.6187,5.8542e-07,4.3986,1.5026e-12,8.6571e-06,-5.8543e-07,-4.3987,1.801
17364,17.853,2.3636,0,0.00013566,1355.7,4.6783e-05,24.196,4.3565e-05,0.011444,-0.00013523,-1343.4,1.8449
17365,17.762,2.2727,0,0.00013779,1377,4.7427e-05,23.474,4.4305e-05,0.010868,-0.00013738,-1365.1,1.8302
17366,17.762,2.3636,0.05,7.5944e-07,7.5891,5.8315e-07,4.3816,1.9656e-12,9.2026e-06,-5.8315e-07,-4.3816,1.8302
17367,18.037,2.3636,0,0.00013142,1313.2,4.5484e-05,25.42,4.2103e-05,0.011872,-0.00013096,-1300.3,1.8742
17368,17.945,2.2727,0,0.00013353,1334.4,4.6119e-05,24.641,4.2841e-05,0.011277,-0.0001331,-1321.9,1.8595
17369,17.945,2.3636,0.05,7.5653e-07,7.5601,5.8092e-07,4.3648,1.9725e-12,1.1163e-05,-5.8092e-07,-4.3648,1.8595
17370,18.22,2.3636,0,0.0001272,1271.1,4.42e-05,26.722,4.0645e-05,0.012319,-0.00012672,-1257.5,1.9037
17371,18.129,2.2727,0,0.0001293,1292.1,4.4825e-05,25.881,4.1382e-05,0.011712,-0.00012884,-1279,1.8889
17372,18.129,2.3636,0.05,7.5369e-07,7.5317,5.7874e-07,4.3484,1.5342e-12,8.4386e-06,-5.7874e-07,-4.3484,1.8889
17373,18.404,2.3636,0,0.000123,1229.2,4.2931e-05,28.11,3.9192e-05,0.012793,-0.0001225,-1214.9,1.9332
17374,18.312,2.2727,0,0.00012509,1250.1,4.3546e-05,27.201,3.9927e-05,0.012159,-0.00012461,-1236.2,1.9184
17375,18.312,2.3636,0.05,7.509e-07,7.5038,5.766e-07,4.3323,1.5472e-12,9.0044e-06,-5.766e-07,-4.3324,1.9184
17376,18.587,2.3636,0,0.00011884,1187.5,4.1679e-05,29.593,3.7742e-05,0.01331,-0.0001183,-1172.5,1.9628
17377,18.496,2.2727,0,0.00012091,1208.3,4.2282e-05,28.609,3.8476e-05,0.012647,-0.0001204,-1193.7,1.9479
17378,18.496,2.3636,0.05,7.4818e-07,7.4767,5.7451e-07,4.3166,2.0149e-12,8.1467e-06,-5.7451e-07,-4.3166,1.948
17379,18.771,2.3636,0,0.00011469,1146.2,4.0443e-05,31.179,3.6296e-05,0.013872,-0.00011413,-1130.2,1.9925
17380,18.679,2.2727,0,0.00011675,1166.7,4.1035e-05,30.114,3.7029e-05,0.013178,-0.00011621,-1151.4,1.9776
17381,18.679,2.3636,0.05,7.4553e-07,7.4502,5.7248e-07,4.3014,1.1147e-12,1.1567e-05,-5.7248e-07,-4.3014,1.9776
17382,18.954,2.3636,0,0.00011058,1105,3.9226e-05,32.879,3.4852e-05,0.014473,-0.00010998,-1088.2,2.0222
17383,18.863,2.2727,0,0.00011262,1125.5,3.9805e-05,31.726,3.5584e-05,0.013757,-0.00011205,-1109.3,2.0073
17384,18.863,2.3636,0.05,7.4297e-07,7.4246,5.7051e-07,4.2866,1.5738e-12,1.0647e-05,-5.7051e-07,-4.2866,2.0073
17385,19.138,2.3636,0,0.0001065,1064.2,3.8029e-05,34.704,3.3412e-05,0.015118,-0.00010586,-1046.4,2.0521
17386,19.046,2.2727,0,0.00010852,1084.5,3.8594e-05,33.454,3.4143e-05,0.014367,-0.00010791,-1067.3,2.0371
17387,19.046,2.3636,0.05,7.4049e-07,7.3998,5.686e-07,4.2723,1.5784e-12,9.4686e-06,-5.6861e-07,-4.2723,2.0371
17388,19.321,2.3636,0,0.00010244,1023.7,3.6851e-05,36.664,3.1974e-05,0.015821,-0.00010177,-1004.8,2.082
17389,19.229,2.2727,0,0.00010445,1043.7,3.7402e-05,35.308,3.2705e-05,0.01503,-0.0001038,-1025.6,2.067
17390,19.229,2.3636,0.05,7.381e-07,7.376,5.6677e-07,4.2585,2.0483e-12,9.8386e-06,-5.6677e-07,-4.2585,2.067
17391,19.505,2.3636,0,9.8411e-05,983.43,3.5696e-05,38.771,3.0538e-05,0.016576,-9.7694e-05,-963.47,2.112
17392,19.413,2.2727,0,0.0001004,1003.3,3.6231e-05,37.302,3.1269e-05,0.015753,-9.9714e-05,-984.14,2.0969
17393,19.413,2.3636,0.05,7.3582e-07,7.3532,5.6502e-07,4.2453,2.0645e-12,1.3796e-05,-5.6502e-07,-4.2454,2.0969
17394,19.688,2.3636,0,9.4414e-05,943.49,3.4563e-05,41.039,2.9103e-05,0.017401,-9.3649e-05,-922.29,2.142
17395,19.596,2.2727,0,9.6385e-05,963.18,3.5082e-05,39.445,2.9834e-05,0.016523,-9.5653e-05,-942.85,2.1269
17396,19.596,2.3636,0.05,7.3366e-07,7.3315,5.6336e-07,4.2328,1.631e-12,1.2508e-05,-5.6336e-07,-4.2328,2.127
17397,19.872,2.3636,0,9.0449e-05,903.87,3.3455e-05,43.481,2.767e-05,0.01831,-8.9631e-05,-881.33,2.1721
17398,19.78,2.2727,0,9.24e-05,923.36,3.3956e-05,41.752,2.8402e-05,0.017385,-9.1618e-05,-901.77,2.157
17399,19.78,2.3636,0.05,7.3161e-07,7.3111,5.6179e-07,4.221,1.6442e-12,1.3093e-05,-5.6179e-07,-4.221,2.157
17400,20.055,2.3636,0,8.6517e-05,864.57,3.2372e-05,46.112,2.6238e-05,0.0193,-8.564e-05,-840.58,2.2023
17401,19.963,2.2727,0,8.8446e-05,883.85,3.2855e-05,44.237,2.697e-05,0.018324,-8.761e-05,-860.89,2.1871
17402,19.963,2.3636,0.05,7.2971e-07,7.2921,5.6032e-07,4.2101,2.114e-12,1.3652e-05,-5.6033e-07,-4.2101,2.1872
17403,20.239,2.3636,0,8.2618e-05,825.61,3.1317e-05,48.947,2.4805e-05,0.020387,-8.1676e-05,-800.04,2.2325
17404,20.147,2.2727,0,8.4525e-05,844.67,3.178e-05,46.913,2.5539e-05,0.019345,-8.3629e-05,-820.23,2.2173
17405,20.147,2.3636,0.05,7.2796e-07,7.2746,5.5898e-07,4.2,1.6643e-12,1.5135e-05,-5.5898e-07,-4.2,2.2174
17406,20.422,2.3636,0,7.8755e-05,787,3.0291e-05,52.004,2.3372e-05,0.021593,-7.7741e-05,-759.7,2.2628
17407,20.33,2.2727,0,8.0639e-05,805.83,3.0733e-05,49.799,2.4108e-05,0.020479,-7.9676e-05,-779.77,2.2476
17408,20.33,2.3636,0.05,7.2638e-07,7.2588,5.5777e-07,4.1909,2.1324e-12,1.4757e-05,-5.5777e-07,-4.1909,2.2476
17409,20.606,2.3636,0,7.4928e-05,748.77,2.9295e-05,55.299,2.1939e-05,0.022934,-7.3834e-05,-719.57,2.2931
17410,20.514,2.2727,0,7.6788e-05,767.35,2.9715e-05,52.909,2.2676e-05,0.021731,-7.5751e-05,-739.52,2.2779
17411,20.514,2.3636,0.05,7.25e-07,7.245,5.5671e-07,4.1829,1.6986e-12,1.1553e-05,-5.5671e-07,-4.1829,2.2779
17412,20.789,2.3636,0,7.1141e-05,710.91,2.8332e-05,58.851,2.0503e-05,0.024429,-6.9956e-05,-679.65,2.3235
17413,20.697,2.2727,0,7.2974e-05,729.24,2.8728e-05,56.262,2.1243e-05,0.023142,-7.1854e-05,-699.47,2.3082
17414,20.697,2.3636,0.05,7.2383e-07,7.2333,5.5581e-07,4.1762,1.6932e-12,9.1456e-06,-5.5582e-07,-4.1762,2.3083
17415,20.973,2.3636,0,6.7393e-05,673.47,2.7404e-05,62.681,1.9065e-05,0.026103,-6.6107e-05,-639.92,2.3539
17416,20.881,2.2727,0,6.92e-05,691.52,2.7774e-05,59.878,1.9808e-05,0.02471,-6.7986e-05,-659.62,2.3386
17417,20.881,2.3636,0.05,7.2291e-07,7.2241,5.5511e-07,4.1709,1.6915e-12,1.0593e-05,-5.5511e-07,-4.1709,2.3387
17418,21.156,2.3636,0,6.3689e-05,636.45,2.6511e-05,66.809,1.7623e-05,0.027997,-6.2288e-05,-600.39,2.3844
17419,21.064,2.2727,0,6.5466e-05,654.21,2.6855e-05,63.777,1.837e-05,0.026477,-6.4147e-05,-619.98,2.3691
17420,21.064,2.3636,0.05,7.2227e-07,7.2177,5.5461e-07,4.1671,1.9323e-12,1.3535e-05,-5.5461e-07,-4.1671,2.3691
17421,21.34,2.3636,0,6.0029e-05,599.88,2.5657e-05,71.255,1.6178e-05,0.030151,-5.8498e-05,-561.06,2.4149
17422,21.248,2.2727,0,6.1776e-05,617.34,2.5972e-05,67.98,1.6928e-05,0.028485,-6.0338e-05,-580.52,2.3996
17423,21.248,2.3636,0.05,7.2193e-07,7.2143,5.5435e-07,4.1652,1.6861e-12,1.3877e-05,-5.5435e-07,-4.1652,2.3996
17424,21.523,2.3636,0,5.6418e-05,563.79,2.4843e-05,76.044,1.4727e-05,0.032625,-5.4738e-05,-521.9,2.4454
17425,21.431,2.2727,0,5.8133e-05,580.93,2.5129e-05,72.509,1.5482e-05,0.030774,-5.6558e-05,-541.26,2.4301
17426,21.431,2.3636,0.05,7.2194e-07,7.2144,5.5436e-07,4.1652,1.6718e-12,1.092e-05,-5.5436e-07,-4.1652,2.4301
17427,21.706,2.3636,0,5.2859e-05,528.23,2.4071e-05,81.197,1.3269e-05,0.0355,-5.1007e-05,-482.91,2.476
17428,21.615,2.2727,0,5.4539e-05,545.01,2.4326e-05,77.388,1.4031e-05,0.033429,-5.2808e-05,-502.17,2.4607
17429,21.615,2.3636,0.05,7.2234e-07,7.2184,5.5467e-07,4.1676,1.3922e-12,1.1414e-05,-5.5467e-07,-4.1676,2.4607
17430,21.89,2.3636,0,4.9356e-05,493.22,2.3343e-05,86.737,1.1805e-05,0.038873,-4.7305e-05,-444.09,2.5066
17431,21.798,2.2727,0,5.0998e-05,509.63,2.3566e-05,82.639,1.2572e-05,0.036528,-4.9087e-05,-463.25,2.4913
17432,21.798,2.3636,0.05,7.2319e-07,7.2269,5.5532e-07,4.1725,1.62e-12,1.2429e-05,-5.5532e-07,-4.1725,2.4913
17433,22.073,2.3636,0,4.5915e-05,458.84,2.2661e-05,92.686,1.0331e-05,0.042896,-4.3631e-05,-405.4,2.5373
17434,21.982,2.2727,0,4.7517e-05,474.84,2.2851e-05,88.288,1.1106e-05,0.04019,-4.5395e-05,-424.49,2.5219
17435,21.982,2.3636,0.05,7.2454e-07,7.2405,5.5636e-07,4.1803,1.1626e-12,6.6314e-06,-5.5636e-07,-4.1803,2.5219
17436,22.257,2.3636,0,4.2543e-05,425.14,2.2026e-05,99.067,8.8475e-06,0.047779,-3.9983e-05,-366.84,2.568
17437,22.165,2.2727,0,4.41e-05,440.7,2.2183e-05,94.357,9.6308e-06,0.044602,-4.173e-05,-385.86,2.5526
17438,22.165,2.3636,0.05,7.2646e-07,7.2596,5.5783e-07,4.1913,1.1622e-12,9.5685e-06,-5.5783e-07,-4.1913,2.5526
17439,22.44,2.3636,0,3.9249e-05,392.22,2.1439e-05,105.9,7.3524e-06,0.053849,-3.636e-05,-328.38,2.5987
17440,22.349,2.2727,0,4.0757e-05,407.29,2.1563e-05,100.87,8.1447e-06,0.050005,-3.8092e-05,-347.36,2.5833
17441,22.349,2.3636,0.05,7.2899e-07,7.2849,5.5978e-07,4.206,1.1463e-12,1.1371e-05,-5.5978e-07,-4.2059,2.5833
17442,22.624,2.3636,0,3.6045e-05,360.2,2.0902e-05,113.2,5.8443e-06,0.061529,-3.2759e-05,-289.99,2.6294
17443,22.532,2.2727,0,3.7497e-05,374.71,2.0992e-05,107.85,6.6465e-06,0.056826,-3.4479e-05,-308.94,2.614
17444,22.532,2.3636,0.05,7.3222e-07,7.3172,5.6226e-07,4.2246,8.5962e-13,1.4659e-05,-5.6226e-07,-4.2246,2.614
17445,22.807,2.3636,0,3.2948e-05,329.25,2.0414e-05,120.98,4.3216e-06,0.071839,-2.9178e-05,-251.63,2.6602
17446,22.716,2.2727,0,3.4335e-05,343.11,2.0472e-05,115.3,5.1345e-06,0.065508,-3.0888e-05,-270.59,2.6448
17447,22.716,2.3636,0.05,7.3621e-07,7.357,5.6532e-07,4.2476,8.0916e-13,1.0459e-05,-5.6532e-07,-4.2476,2.6448
17448,22.991,2.3636,0,2.9981e-05,299.6,1.9974e-05,129.25,2.7828e-06,0.085223,-2.5613e-05,-213.27,2.6909
17449,22.899,2.2727,0,3.1291e-05,312.69,2.0002e-05,123.26,3.6074e-06,0.077706,-2.7315e-05,-232.26,2.6755
17450,22.899,2.3636,0.05,7.41e-07,7.4049,5.69e-07,4.2752,1.0408e-12,1.3433e-05,-5.69e-07,-4.2752,2.6755
17451,23.174,2.3636,0,2.7178e-05,271.59,1.9583e-05,138.03,1.2269e-06,0.10793,-2.2059e-05,-174.85,2.7217
17452,23.083,2.2727,0,2.8393e-05,283.73,1.9582e-05,131.72,2.0632e-06,0.092794,-2.3758e-05,-193.92,2.7063
17453,23.083,2.3636,0.05,7.4664e-07,7.4613,5.7333e-07,4.3078,9.505e-13,1.1781e-05,-5.7333e-07,-4.3078,2.7063
17454,23.358,2.3636,0,2.4587e-05,245.7,1.9238e-05,147.29,-3.4835e-07,0.13097,-1.8513e-05,-136.35,2.7525
17455,23.266,2.2727,0,2.5681e-05,256.63,1.9211e-05,140.7,5.0153e-07,0.12425,-2.0212e-05,-155.51,2.7371
17456,23.266,2.3636,0.05,7.5315e-07,7.5263,5.7833e-07,4.3453,8.5558e-13,9.1223e-06,-5.7833e-07,-4.3453,2.7371
17457,23.541,2.3636,0,2.2275e-05,222.6,1.8937e-05,157.07,-1.9378e-06,0.2272,-1.4971e-05,-97.702,2.7834
17458,23.45,2.2727,0,2.3211e-05,231.95,1.8886e-05,150.17,-1.0814e-06,0.1419,-1.6671e-05,-116.99,2.7679
17459,23.45,2.3636,0.05,7.605e-07,7.5997,5.8397e-07,4.3877,3.088e-13,4.6272e-06,-5.8397e-07,-4.3877,2.7679
17460,23.725,2.3636,0,2.0333e-05,203.19,1.8677e-05,167.26,-3.5545e-06,0.225,-1.1429e-05,-58.943,2.8142
17461,23.633,2.2727,0,2.1065e-05,210.5,1.8605e-05,160.19,-2.6711e-06,0.32696,-1.3137e-05,-78.313,2.7988
17462,23.633,2.3636,0.05,7.6874e-07,7.6821,5.903e-07,4.4353,5.4752e-14,8.2241e-06,-5.903e-07,-4.4353,2.7988
17463,23.817,2.2727,0,1.9348e-05,193.34,1.8366e-05,170.53,-4.302e-06,0.20404,-9.6041e-06,-39.634,2.8296
17464,23.817,2.3636,0.05,7.8027e-07,7.7973,5.9915e-07,4.5018,5.5076e-13,4.8121e-06,-5.9915e-07,-4.5018,2.8296
17465,23.908,2.3636,0,1.8942e-05,189.28,1.8467e-05,177.33,-5.076e-06,0.43587,-8.1013e-06,-22.295,2.845
17466,3.5419,2.1818,0,0.0012715,12706,0.00047941,739.83,0.00038501,30.592,-0.0012569,-12306,0.086729
17467,3.4501,2.0909,0,0.0014568,14558,0.00064001,1753,0.00036233,-333.43,-0.0014214,-13736,0.080444
17468,3.4501,2.1818,0.05,8.5454e-05,853.95,6.5618e-05,493.03,7.8758e-11,-0.00042018,-6.5618e-05,-493.03,0.081091
17469,3.7254,2.1818,0,0.00098194,9812.7,0.00034398,250.55,0.00031313,18.785,-0.00097716,-9675.9,0.098417
17470,3.6336,2.0909,0,0.0010371,10364,0.00039607,694.25,0.0003137,75.399,-0.0010226,-9965.3,0.091935
17471,3.6336,2.1818,0.05,4.0461e-05,404.33,3.1069e-05,233.44,5.3985e-11,-0.00024069,-3.1069e-05,-233.44,0.092427
17472,3.9088,2.1818,0,0.00082324,8226.8,0.00027529,11.922,0.00026664,-53.01,-0.00082392,-8247.1,0.11071
17473,3.8171,2.0909,0,0.00084895,8483.6,0.00029943,219.76,0.0002675,-20.173,-0.0008453,-8381.3,0.10404
17474,3.8171,2.1818,0.05,2.0737e-05,207.22,1.5923e-05,119.64,2.0118e-11,-0.00030557,-1.5923e-05,-119.64,0.10443
17475,4.0923,2.1818,0,0.00072594,7254.4,0.00025031,6.096,0.00022178,-208.28,-0.00072914,-7353.1,0.12352
17476,4.0006,2.0909,0,0.0007406,7400.9,0.00024922,23.005,0.00023834,-58.744,-0.00074117,-7418.4,0.11668
17477,4.0006,2.1818,0.05,1.4216e-05,142.07,1.0916e-05,82.021,1.0346e-11,-0.00025003,-1.0916e-05,-82.022,0.11699
17478,4.2758,2.1818,0,0.00065889,6584.4,0.00023263,2.2454,0.00019152,-306.65,-0.00066353,-6731.2,0.1368
17479,4.1841,2.0909,0,0.00066811,6676.5,0.0002305,4.169,0.00020375,-196.79,-0.00067116,-6770.5,0.12978
17480,4.1841,2.1818,0.05,1.0569e-05,105.62,8.1159e-06,60.979,-3.6422e-12,-0.00026202,-8.1159e-06,-60.98,0.13005
17481,4.4593,2.1818,0,0.00061046,6100.4,0.00021922,1.7796,0.00017093,-361.07,-0.00061576,-6272,0.15052
17482,4.3676,2.0909,0,0.00061713,6167,0.00021765,2.8744,0.00017987,-281.03,-0.00062137,-6301.2,0.14333
17483,4.3676,2.1818,0.05,8.2957e-06,82.9,6.37e-06,47.862,-7.7828e-12,-0.00027966,-6.3701e-06,-47.862,0.14355
17484,4.6428,2.1818,0,0.00057397,5735.8,0.00020837,1.1548,0.00015666,-387.34,-0.00057955,-5919,0.16465
17485,4.551,2.0909,0,0.00057931,5789.1,0.0002073,1.6201,0.00016349,-327.52,-0.00058416,-5945.1,0.15728
17486,4.551,2.1818,0.05,6.7174e-06,67.128,5.1581e-06,38.756,-1.3148e-11,-0.00022256,-5.1582e-06,-38.756,0.15748
17487,4.8263,2.1818,0,0.00054569,5453.1,0.00019936,0.85186,0.00014667,-395.05,-0.00055131,-5639.4,0.17916
17488,4.7345,2.0909,0,0.00055035,5499.7,0.00019873,1.1577,0.0001521,-349.19,-0.00055543,-5665.3,0.17163
17489,4.7345,2.1818,0.05,5.5464e-06,55.426,4.2589e-06,32,-1.2474e-11,-0.00020239,-4.2589e-06,-32,0.17181
17490,5.0097,2.1818,0,0.00052324,5228.8,0.00019171,0.62122,0.00013962,-390.77,-0.00052877,-5412.8,0.19405
17491,4.918,2.0909,0,0.00052752,5271.6,0.00019144,0.81342,0.00014408,-354.96,-0.00053264,-5439.6,0.18634
17492,4.918,2.1818,0.05,4.6419e-06,46.387,3.5644e-06,26.781,-9.4811e-12,-0.00020978,-3.5644e-06,-26.782,0.18651
17493,5.1932,2.1818,0,0.00050505,5047.1,0.00018512,0.46229,0.00013463,-378.87,-0.00051042,-5225.6,0.20929
17494,5.1015,2.0909,0,0.00050911,5087.6,0.00018512,0.59695,0.00013838,-350.56,-0.00051415,-5253.5,0.20142
17495,5.1015,2.1818,0.05,3.9271e-06,39.244,3.0155e-06,22.657,-9.7938e-12,-0.00015711,-3.0155e-06,-22.657,0.20158
17496,5.3767,2.1818,0,0.00049005,4897.1,0.00017936,0.34464,0.00013109,-362.31,-0.0004952,-5068,0.22487
17497,5.285,2.0909,0,0.00049394,4936,0.00017958,0.44055,0.0001343,-339.77,-0.00049884,-5096.9,0.21684
17498,5.285,2.1818,0.05,3.3551e-06,33.528,2.5763e-06,19.357,-7.3988e-12,-0.00011706,-2.5763e-06,-19.357,0.21699
17499,5.5602,2.1818,0,0.00047745,4771.2,0.00017427,0.25783,0.00012857,-343.07,-0.00048235,-4933.3,0.24079
17500,5.4684,2.0909,0,0.00048121,4808.8,0.00017466,0.32825,0.00013135,-325.1,-0.00048591,-4962.9,0.23259
17501,5.4684,2.1818,0.05,2.8945e-06,28.925,2.2226e-06,16.7,-7.7109e-12,-0.00011598,-2.2226e-06,-16.7,0.23274
17502,5.7437,2.1818,0,0.00046668,4663.6,0.00016972,0.193,0.00012677,-322.52,-0.00047133,-4816.4,0.25703
17503,5.6519,2.0909,0,0.00047032,4700,0.00017024,0.24539,0.00012919,-308.21,-0.0004748,-4846.4,0.24867
17504,5.6519,2.1818,0.05,2.5226e-06,25.208,1.937e-06,14.554,-4.6416e-12,-8.9244e-05,-1.937e-06,-14.554,0.24882
17505,5.9271,2.1818,0,0.00045731,4570,0.00016561,0.14453,0.00012546,-301.54,-0.00046169,-4713.2,0.27358
17506,5.8354,2.0909,0,0.00046084,4605.3,0.00016624,0.18396,0.00012759,-290.21,-0.00046509,-4743.4,0.26507
17507,5.8354,2.1818,0.05,2.2222e-06,22.206,1.7063e-06,12.821,-8.1151e-13,-5.4401e-05,-1.7063e-06,-12.821,0.26522
17508,6.1106,2.1818,0,0.00044902,4487.1,0.00016187,0.1082,0.0001245,-280.74,-0.00045313,-4620.8,0.29045
17509,6.0189,2.0909,0,0.00045245,4521.3,0.00016258,0.13812,0.00012638,-271.84,-0.00045645,-4651.1,0.28179
17510,6.0189,2.1818,0.05,1.9796e-06,19.782,1.5201e-06,11.421,5.4917e-13,-4.8574e-05,-1.5201e-06,-11.421,0.28194
17511,6.2941,2.1818,0,0.00044155,4412.5,0.00015843,0.080981,0.00012375,-260.5,-0.0004454,-4536.9,0.30763
17512,6.2024,2.0909,0,0.00044488,4445.8,0.0001592,0.10382,0.00012544,-253.61,-0.00044865,-4567.1,0.29881
17513,6.2024,2.1818,0.05,1.7839e-06,17.827,1.3698e-06,10.292,3.2306e-12,-4.1955e-05,-1.3698e-06,-10.293,0.29896
17514,6.4776,2.1818,0,0.00043472,4344.2,0.00015524,0.060587,0.00012314,-241.09,-0.00043832,-4459.7,0.3251
17515,6.3858,2.0909,0,0.00043796,4376.6,0.00015606,0.078121,0.00012466,-235.84,-0.00044149,-4489.7,0.31614
17516,6.3858,2.1818,0.05,1.6263e-06,16.252,1.2488e-06,9.3829,1.5186e-12,-3.0928e-05,-1.2488e-06,-9.3831,0.31629
17517,6.6611,2.1818,0,0.00042837,4280.8,0.00015225,0.045321,0.00012261,-222.65,-0.00043172,-4387.7,0.34287
17518,6.5693,2.0909,0,0.00043153,4312.3,0.00015311,0.058849,0.00012399,-218.73,-0.00043483,-4417.5,0.33376
17519,6.5693,2.1818,0.05,1.4994e-06,14.983,1.1513e-06,8.6506,4.8273e-12,-2.0011e-05,-1.1513e-06,-8.6507,0.33391
17520,6.8445,2.1818,0,0.00042239,4221,0.00014944,0.033911,0.00012212,-205.24,-0.00042551,-4319.9,0.36093
17521,6.7528,2.0909,0,0.00042548,4251.8,0.00015032,0.044397,0.00012337,-202.42,-0.00042856,-4349.4,0.35168
17522,6.7528,2.1818,0.05,1.3971e-06,13.962,1.0728e-06,8.0608,2.1013e-12,-1.6375e-05,-1.0728e-06,-8.0609,0.35182
17523,7.028,2.1818,0,0.0004167,4164.1,0.00014676,0.025399,0.00012162,-188.91,-0.00041959,-4255.3,0.37928
17524,6.9363,2.0909,0,0.00041971,4194.2,0.00014767,0.033563,0.00012278,-186.97,-0.00042258,-4284.6,0.36988
17525,6.9363,2.1818,0.05,1.3147e-06,13.138,1.0095e-06,7.5852,4.1481e-12,-1.29e-05,-1.0095e-06,-7.5853,0.37003
17526,7.2115,2.1818,0,0.00041121,4109.3,0.00014421,0.019068,0.0001211,-173.66,-0.00041389,-4193.3,0.3979
17527,7.1198,2.0909,0,0.00041417,4138.8,0.00014513,0.02545,0.00012218,-172.41,-0.00041683,-4222.3,0.38837
17528,7.1198,2.1818,0.05,1.2481e-06,12.472,9.5838e-07,7.2009,2.7436e-12,-4.1459e-06,-9.5838e-07,-7.2009,0.38852
17529,7.395,2.1818,0,0.00040588,4056,0.00014176,0.014378,0.00012054,-159.44,-0.00040836,-4133.4,0.41681
17530,7.3032,2.0909,0,0.00040879,4085.1,0.00014269,0.019386,0.00012156,-158.76,-0.00041126,-4162.1,0.40714
17531,7.3032,2.1818,0.05,1.194e-06,11.932,9.1687e-07,6.889,2.7922e-12,-5.0986e-06,-9.1688e-07,-6.8891,0.40729
17532,7.5785,2.1818,0,0.00040067,4004,0.0001394,0.01092,0.00011994,-146.24,-0.00040296,-4075.1,0.43599
17533,7.4867,2.0909,0,0.00040353,4032.6,0.00014033,0.014865,0.0001209,-146,-0.00040582,-4103.6,0.42618
17534,7.4867,2.1818,0.05,1.15e-06,11.492,8.8302e-07,6.6347,3.4156e-12,-1.2657e-06,-8.8303e-07,-6.6348,0.42633
17535,7.7619,2.1818,0,0.00039555,3952.8,0.00013711,0.0083906,0.00011928,-133.99,-0.00039766,-4018.1,0.45545
17536,7.6702,2.0909,0,0.00039837,3981,0.00013805,0.011507,0.0001202,-134.09,-0.00040048,-4046.3,0.4455
17537,7.6702,2.1818,0.05,1.1138e-06,11.13,8.5524e-07,6.4259,3.3909e-12,-5.5898e-06,-8.5525e-07,-6.4261,0.44565
17538,7.9454,2.1818,0,0.00039049,3902.2,0.00013489,0.0065573,0.00011857,-122.65,-0.00039243,-3962.1,0.47517
17539,7.8537,2.0909,0,0.00039327,3930,0.00013583,0.0090259,0.00011945,-123.01,-0.00039522,-3990.1,0.46509
17540,7.8537,2.1818,0.05,1.0839e-06,10.831,8.3226e-07,6.2532,3.8643e-12,-3.7634e-06,-8.3227e-07,-6.2534,0.46524
17541,8.1289,2.1818,0,0.00038547,3852.1,0.00013272,0.005247,0.00011779,-112.16,-0.00038726,-3906.9,0.49515
17542,8.0372,2.0909,0,0.00038823,3879.6,0.00013366,0.0072065,0.00011866,-112.71,-0.00039002,-3934.7,0.48495
17543,8.0372,2.1818,0.05,1.0589e-06,10.581,8.1308e-07,6.1091,4.2486e-12,-4.0339e-06,-8.1309e-07,-6.1092,0.4851
17544,8.3124,2.1818,0,0.00038049,3802.3,0.0001306,0.0043286,0.00011697,-102.46,-0.00038213,-3852.5,0.5154
17545,8.2206,2.0909,0,0.00038322,3829.5,0.00013154,0.0058863,0.00011781,-103.16,-0.00038487,-3880.1,0.50506
17546,8.2206,2.1818,0.05,1.0378e-06,10.371,7.9691e-07,5.9877,3.6745e-12,-2.6642e-06,-7.9692e-07,-5.9878,0.50521
17547,8.4959,2.1818,0,0.00037553,3752.7,0.00012853,0.0037033,0.00011608,-93.504,-0.00037703,-3798.5,0.5359
17548,8.4041,2.0909,0,0.00037823,3779.7,0.00012946,0.004942,0.00011691,-94.298,-0.00037975,-3826,0.52544
17549,8.4041,2.1818,0.05,1.0199e-06,10.192,7.8315e-07,5.8842,3.0625e-12,-1.8036e-06,-7.8315e-07,-5.8843,0.52559
17550,8.6794,2.1818,0,0.00037058,3703.2,0.00012649,0.0032969,0.00011514,-85.233,-0.00037195,-3745.1,0.55666
17551,8.5876,2.0909,0,0.00037326,3730,0.00012742,0.0042811,0.00011596,-86.092,-0.00037465,-3772.3,0.54607
17552,8.5876,2.1818,0.05,1.0044e-06,10.038,7.7129e-07,5.7951,4.145e-12,-2.082e-06,-7.7129e-07,-5.7952,0.54622
17553,8.8628,2.1818,0,0.00036564,3653.9,0.00012448,0.0030529,0.00011416,-77.598,-0.0003669,-3692,0.57767
17554,8.7711,2.0909,0,0.00036831,3680.5,0.00012541,0.0038339,0.00011496,-78.495,-0.00036958,-3719.1,0.56696
17555,8.7711,2.1818,0.05,9.9099e-07,9.9031,7.6096e-07,5.7175,4.3423e-12,-1.6679e-06,-7.6096e-07,-5.7176,0.5671
17556,9.0463,2.1818,0,0.00036071,3604.6,0.00012251,0.0029294,0.00011312,-70.552,-0.00036186,-3639.3,0.59893
17557,8.9546,2.0909,0,0.00036336,3631.1,0.00012343,0.0035467,0.00011392,-71.465,-0.00036452,-3666.3,0.58809
17558,8.9546,2.1818,0.05,9.7914e-07,9.7847,7.5185e-07,5.6491,2.6708e-12,-2.4783e-06,-7.5187e-07,-5.6492,0.58824
17559,9.2298,2.1818,0,0.00035578,3555.3,0.00012057,0.0028948,0.00011204,-64.049,-0.00035682,-3586.9,0.62042
17560,9.1381,2.0909,0,0.00035841,3581.7,0.00012148,0.00338,0.00011283,-64.963,-0.00035947,-3613.7,0.60947
17561,9.1381,2.1818,0.05,9.6858e-07,9.6792,7.4375e-07,5.5882,2.8046e-12,-6.5392e-07,-7.4376e-07,-5.5883,0.60961
17562,9.4133,2.1818,0,0.00035085,3506.1,0.00011865,0.0029251,0.00011092,-58.047,-0.0003518,-3534.8,0.64216
17563,9.3215,2.0909,0,0.00035347,3532.3,0.00011955,0.0033033,0.00011171,-58.949,-0.00035444,-3561.4,0.63109
17564,9.3215,2.1818,0.05,9.5908e-07,9.5842,7.3645e-07,5.5334,2.9193e-12,-1.6295e-06,-7.3646e-07,-5.5335,0.63123
17565,9.5968,2.1818,0,0.00034593,3456.9,0.00011675,0.0030038,0.00010976,-52.508,-0.00034679,-3482.9,0.66414
17566,9.505,2.0909,0,0.00034854,3483,0.00011765,0.003293,0.00011055,-53.39,-0.00034941,-3509.4,0.65295
17567,9.505,2.1818,0.05,9.5043e-07,9.4978,7.2981e-07,5.4835,4.8183e-12,-1.8828e-06,-7.2982e-07,-5.4836,0.65309
17568,9.7802,2.1818,0,0.00034101,3407.7,0.00011487,0.0031147,0.00010856,-47.395,-0.00034179,-3431.2,0.68635
17569,9.6885,2.0909,0,0.0003436,3433.7,0.00011577,0.0033364,0.00010935,-48.25,-0.0003444,-3457.5,0.67504
17570,9.6885,2.1818,0.05,9.4249e-07,9.4184,7.2371e-07,5.4377,3.0763e-12,-4.096e-07,-7.2372e-07,-5.4378,0.67518
17571,9.9637,2.1818,0,0.00033609,3358.6,0.00011302,0.0032539,0.00010734,-42.675,-0.00033679,-3379.7,0.70879
17572,9.872,2.0909,0,0.00033867,3384.4,0.00011391,0.0034101,0.00010812,-43.498,-0.00033939,-3405.9,0.69737
17573,9.872,2.1818,0.05,9.3514e-07,9.345,7.1807e-07,5.3953,3.138e-12,1.2682e-07,-7.1808e-07,-5.3954,0.69751
17574,10.147,2.1818,0,0.00033117,3309.4,0.00011118,0.0034156,0.00010608,-38.316,-0.00033181,-3328.4,0.73145
17575,10.055,2.0909,0,0.00033374,3335.1,0.00011207,0.0035252,0.00010686,-39.104,-0.00033439,-3354.5,0.71993
17576,10.055,2.1818,0.05,9.2828e-07,9.2764,7.128e-07,5.3557,3.2042e-12,5.4856e-07,-7.128e-07,-5.3558,0.72006
17577,10.331,2.1818,0,0.00032626,3260.3,0.00010936,0.0035722,0.00010479,-34.29,-0.00032683,-3277.3,0.75434
17578,10.239,2.0909,0,0.00032882,3285.9,0.00011024,0.0036581,0.00010558,-35.042,-0.0003294,-3303.3,0.74271
17579,10.239,2.1818,0.05,9.2183e-07,9.212,7.0785e-07,5.3185,3.2505e-12,8.9772e-07,-7.0786e-07,-5.3186,0.74284
17580,10.514,2.1818,0,0.00032135,3211.2,0.00010755,0.0037307,0.00010349,-30.571,-0.00032185,-3226.4,0.77745
17581,10.422,2.0909,0,0.0003239,3236.8,0.00010843,0.0037758,0.00010427,-31.285,-0.00032442,-3252.3,0.76571
17582,10.422,2.1818,0.05,9.1573e-07,9.1509,7.0316e-07,5.2832,4.2128e-12,9.9616e-07,-7.0317e-07,-5.2834,0.76584
17583,10.698,2.1818,0,0.00031644,3162.2,0.00010577,0.0039128,0.00010215,-27.132,-0.00031689,-3175.7,0.80078
17584,10.606,2.0909,0,0.00031898,3187.6,0.00010664,0.0039231,0.00010294,-27.81,-0.00031945,-3201.5,0.78893
17585,10.606,2.1818,0.05,9.0991e-07,9.0928,6.9869e-07,5.2497,3.3379e-12,1.5557e-06,-6.987e-07,-5.2498,0.78906
17586,10.881,2.1818,0,0.00031154,3113.2,0.00010399,0.0041206,0.0001008,-23.953,-0.00031194,-3125.2,0.82432
17587,10.789,2.0909,0,0.00031408,3138.6,0.00010486,0.0040983,0.00010159,-24.594,-0.00031449,-3150.8,0.81236
17588,10.789,2.1818,0.05,9.0435e-07,9.0373,6.9443e-07,5.2176,3.3778e-12,1.6273e-06,-6.9443e-07,-5.2177,0.81249
17589,11.065,2.1818,0,0.00030665,3064.3,0.00010223,0.0043226,9.9436e-05,-21.012,-0.000307,-3074.8,0.84807
17590,10.973,2.0909,0,0.00030917,3089.6,0.0001031,0.0043063,0.00010022,-21.618,-0.00030953,-3100.3,0.83601
17591,10.973,2.1818,0.05,8.9902e-07,8.984,6.9033e-07,5.1869,3.4006e-12,1.1041e-06,-6.9034e-07,-5.187,0.83614
17592,11.248,2.1818,0,0.00030176,3015.5,0.00010049,0.0045087,9.8051e-05,-18.29,-0.00030207,-3024.6,0.87202
17593,11.156,2.0909,0,0.00030428,3040.7,0.00010134,0.0044796,9.8834e-05,-18.862,-0.00030459,-3050.1,0.85987
17594,11.156,2.1818,0.05,8.9389e-07,8.9327,6.8639e-07,5.1572,3.4332e-12,2.0174e-06,-6.864e-07,-5.1574,0.85999
17595,11.432,2.1818,0,0.00029688,2966.8,9.8752e-05,0.0047288,9.6652e-05,-15.769,-0.00029715,-2974.6,0.89618
17596,11.34,2.0909,0,0.00029939,2991.8,9.9606e-05,0.0046659,9.7434e-05,-16.309,-0.00029966,-2999.9,0.88393
17597,11.34,2.1818,0.05,8.8891e-07,8.883,6.8257e-07,5.1286,4.3688e-12,2.2378e-06,-6.8258e-07,-5.1286,0.88405
17598,11.615,2.1818,0,0.00029201,2918.1,9.7029e-05,0.0049682,9.5241e-05,-13.433,-0.00029224,-2924.8,0.92054
17599,11.523,2.0909,0,0.00029451,2943.1,9.7879e-05,0.0049195,9.6023e-05,-13.943,-0.00029475,-2950,0.90819
17600,11.523,2.1818,0.05,8.8409e-07,8.8348,6.7887e-07,5.1007,3.4807e-12,2.7516e-06,-6.7888e-07,-5.1008,0.90831
17601,11.799,2.1818,0,0.00028715,2869.6,9.5319e-05,0.0052138,9.3818e-05,-11.266,-0.00028734,-2875.2,0.9451
17602,11.707,2.0909,0,0.00028964,2894.4,9.6164e-05,0.0051591,9.46e-05,-11.748,-0.00028984,-2900.3,0.93265
17603,11.707,2.1818,0.05,8.7941e-07,8.788,6.7527e-07,5.0737,3.5013e-12,3.1502e-06,-6.7528e-07,-5.0738,0.93277
17604,11.982,2.1818,0,0.0002823,2821.1,9.3619e-05,0.0054996,9.2387e-05,-9.2552,-0.00028246,-2825.7,0.96985
17605,11.89,2.0909,0,0.00028478,2845.9,9.446e-05,0.0054443,9.3167e-05,-9.7099,-0.00028495,-2850.7,0.9573
17606,11.89,2.1818,0.05,8.7484e-07,8.7424,6.7176e-07,5.0473,3.5209e-12,4.3671e-06,-6.7177e-07,-5.0475,0.95742
17607,12.165,2.1818,0,0.00027747,2772.8,9.193e-05,0.0058295,9.0946e-05,-7.3864,-0.00027759,-2776.4,0.99479
17608,12.074,2.0909,0,0.00027994,2797.4,9.2767e-05,0.0057964,9.1726e-05,-7.8166,-0.00028007,-2801.3,0.98215
17609,12.074,2.1818,0.05,8.7038e-07,8.6978,6.6834e-07,5.0216,3.5401e-12,3.6305e-06,-6.6835e-07,-5.0218,0.98227
17610,12.349,2.1818,0,0.00027264,2724.5,9.0252e-05,0.006255,8.9499e-05,-5.648,-0.00027274,-2727.4,1.0199
17611,12.257,2.0909,0,0.0002751,2749.1,9.1084e-05,0.0062247,9.0278e-05,-6.0559,-0.00027521,-2752.2,1.0072
17612,12.257,2.1818,0.05,8.6602e-07,8.6542,6.6499e-07,4.9965,3.5578e-12,4.5228e-06,-6.65e-07,-4.9965,1.0073
17613,12.532,2.1818,0,0.00026783,2676.4,8.8583e-05,0.0069076,8.8046e-05,-4.029,-0.0002679,-2678.4,1.0452
17614,12.441,2.0909,0,0.00027028,2700.9,8.9412e-05,0.0068792,8.8823e-05,-4.4165,-0.00027036,-2703.1,1.0324
17615,12.441,2.1818,0.05,8.6174e-07,8.6114,6.617e-07,4.9718,3.574e-12,4.5604e-06,-6.6171e-07,-4.9718,1.0325
17616,12.716,2.1818,0,0.00026303,2628.5,8.6925e-05,0.0081353,8.6588e-05,-2.5192,-0.00026307,-2629.7,1.0707
17617,12.624,2.0909,0,0.00026547,2652.9,8.7749e-05,0.0080567,8.7364e-05,-2.8883,-0.00026552,-2654.3,1.0578
17618,12.624,2.1818,0.05,8.5753e-07,8.5694,6.5848e-07,4.9475,3.5891e-12,3.2868e-06,-6.5848e-07,-4.9476,1.0579
17619,12.899,2.1818,0,0.00025824,2580.6,8.5276e-05,0.011899,8.5126e-05,-1.111,-0.00025826,-2581.2,1.0964
17620,12.808,2.0909,0,0.00026068,2605,8.6096e-05,0.011143,8.59e-05,-1.4629,-0.0002607,-2605.7,1.0834
17621,12.808,2.1818,0.05,8.5341e-07,8.5282,6.5531e-07,4.9237,1.7818e-12,2.4324e-06,-6.5532e-07,-4.9238,1.0835
17622,13.083,2.1818,0,0.00025347,2533,8.3667e-05,0.24732,8.3631e-05,-0.024449,-0.00025347,-2532.8,1.1222
17623,12.991,2.0909,0,0.00025589,2557.2,8.4458e-05,0.055089,8.4428e-05,-0.17037,-0.0002559,-2557.2,1.1091
17624,12.991,2.1818,0.05,8.4936e-07,8.4877,6.522e-07,4.9004,3.6127e-12,3.2078e-06,-6.5221e-07,-4.9004,1.1093
17625,13.266,2.1818,0,0.00024871,2485.4,8.2197e-05,1.4627,8.2003e-05,0.00069698,-0.00024869,-2484.7,1.1482
17626,13.175,2.0909,0,0.00025113,2509.5,8.2967e-05,1.14,8.2815e-05,-0.0022994,-0.00025111,-2509,1.1351
17627,13.175,2.1818,0.05,8.4536e-07,8.4478,6.4913e-07,4.8773,3.6237e-12,4.1527e-06,-6.4914e-07,-4.8774,1.1352
17628,13.45,2.1818,0,0.00024397,2438,8.073e-05,2.6272,8.038e-05,0.0030557,-0.00024393,-2436.7,1.1744
17629,13.358,2.0909,0,0.00024638,2462.1,8.1497e-05,2.3136,8.1189e-05,0.0017746,-0.00024634,-2460.9,1.1612
17630,13.358,2.1818,0.05,8.4143e-07,8.4085,6.4611e-07,4.8546,3.6337e-12,5.4068e-06,-6.4612e-07,-4.8547,1.1613
17631,13.633,2.1818,0,0.00023924,2390.8,7.9262e-05,3.7269,7.8766e-05,0.0040083,-0.00023918,-2388.9,1.2008
17632,13.542,2.0909,0,0.00024164,2414.7,8.0027e-05,3.4216,7.9572e-05,0.003126,-0.00024158,-2413,1.1874
17633,13.542,2.1818,0.05,8.3755e-07,8.3697,6.4313e-07,4.8322,3.6428e-12,6.7455e-06,-6.4314e-07,-4.8323,1.1875
17634,13.817,2.1818,0,0.00023453,2343.7,7.7794e-05,4.7678,7.716e-05,0.0045771,-0.00023445,-2341.3,1.2273
17635,13.725,2.0909,0,0.00023692,2367.6,7.8557e-05,4.4693,7.7962e-05,0.0038574,-0.00023684,-2365.3,1.2139
17636,13.725,2.1818,0.05,8.3372e-07,8.3315,6.4019e-07,4.8101,3.6513e-12,7.5732e-06,-6.402e-07,-4.8102,1.214
17637,14,2.1818,0,0.00022984,2296.8,7.6328e-05,5.7562,7.5562e-05,0.0049727,-0.00022974,-2293.9,1.2539
17638,13.909,2.0909,0,0.00023222,2320.6,7.7087e-05,5.4628,7.6361e-05,0.0043532,-0.00023212,-2317.8,1.2405
17639,13.909,2.1818,0.05,8.2994e-07,8.2937,6.3729e-07,4.7883,3.6592e-12,7.8951e-06,-6.373e-07,-4.7884,1.2405
17640,14.184,2.1818,0,0.00022516,2250.1,7.4863e-05,6.6985,7.3972e-05,0.0052902,-0.00022505,-2246.7,1.2807
17641,14.092,2.0909,0,0.00022753,2273.7,7.562e-05,6.4082,7.4767e-05,0.0047008,-0.00022742,-2270.5,1.2672
17642,14.092,2.1818,0.05,8.2621e-07,8.2564,6.3442e-07,4.7668,2.7564e-12,7.66e-06,-6.3443e-07,-4.7669,1.2673
17643,14.367,2.1818,0,0.0002205,2203.5,7.3401e-05,7.6004,7.239e-05,0.005581,-0.00022037,-2199.7,1.3077
17644,14.276,2.0909,0,0.00022286,2227.1,7.4154e-05,7.3115,7.3182e-05,0.0050212,-0.00022273,-2223.4,1.2941
17645,14.276,2.1818,0.05,8.2251e-07,8.2194,6.3158e-07,4.7454,2.7632e-12,7.5976e-06,-6.3158e-07,-4.7455,1.2942
17646,14.551,2.1818,0,0.00021586,2157.1,7.1941e-05,8.4677,7.0815e-05,0.0058271,-0.00021572,-2152.9,1.3348
17647,14.459,2.0909,0,0.00021821,2180.6,7.2691e-05,8.1782,7.1603e-05,0.0053031,-0.00021807,-2176.5,1.3211
17648,14.459,2.1818,0.05,8.1886e-07,8.1829,6.2878e-07,4.7244,1.8623e-12,8.1234e-06,-6.2878e-07,-4.7244,1.3212
17649,14.734,2.1818,0,0.00021124,2110.9,7.0485e-05,9.3058,6.9247e-05,0.0060484,-0.00021108,-2106.2,1.3621
17650,14.642,2.0909,0,0.00021357,2134.3,7.1231e-05,9.0138,7.0032e-05,0.0055281,-0.00021342,-2129.7,1.3483
17651,14.642,2.1818,0.05,8.1524e-07,8.1468,6.26e-07,4.7035,2.7782e-12,6.5084e-06,-6.2601e-07,-4.7036,1.3484
17652,14.918,2.1818,0,0.00020663,2064.9,6.9033e-05,10.12,6.7687e-05,0.0062743,-0.00020646,-2059.8,1.3895
17653,14.826,2.0909,0,0.00020896,2088.1,6.9776e-05,9.8236,6.8469e-05,0.0057541,-0.00020879,-2083.2,1.3757
17654,14.826,2.1818,0.05,8.1166e-07,8.111,6.2325e-07,4.6829,2.7842e-12,5.6637e-06,-6.2326e-07,-4.6829,1.3757
17655,15.101,2.1818,0,0.00020204,2019,6.7585e-05,10.915,6.6134e-05,0.0065057,-0.00020186,-2013.6,1.417
17656,15.009,2.0909,0,0.00020436,2042.2,6.8324e-05,10.612,6.6912e-05,0.0059833,-0.00020418,-2036.8,1.4031
17657,15.009,2.1818,0.05,8.0812e-07,8.0756,6.2053e-07,4.6624,1.8812e-12,4.6383e-06,-6.2053e-07,-4.6625,1.4032
17658,15.285,2.1818,0,0.00019748,1973.4,6.6143e-05,11.697,6.4587e-05,0.006731,-0.00019727,-1967.5,1.4447
17659,15.193,2.0909,0,0.00019978,1996.4,6.6878e-05,11.386,6.5363e-05,0.0062184,-0.00019958,-1990.7,1.4307
17660,15.193,2.1818,0.05,8.0461e-07,8.0406,6.1784e-07,4.6422,1.8868e-12,3.6069e-06,-6.1784e-07,-4.6423,1.4308
17661,15.468,2.1818,0,0.00019293,1927.9,6.4706e-05,12.47,6.3047e-05,0.0069486,-0.00019271,-1921.7,1.4725
17662,15.376,2.0909,0,0.00019522,1950.9,6.5436e-05,12.148,6.382e-05,0.0064325,-0.00019501,-1944.7,1.4585
17663,15.376,2.1818,0.05,8.0114e-07,8.0059,6.1518e-07,4.6222,3.7112e-12,5.1966e-06,-6.1518e-07,-4.6223,1.4586
17664,15.652,2.1818,0,0.0001884,1882.7,6.3275e-05,13.238,6.1514e-05,0.0071734,-0.00018817,-1876,1.5005
17665,15.56,2.0909,0,0.00019068,1905.5,6.4001e-05,12.903,6.2284e-05,0.0066507,-0.00019046,-1899,1.4864
17666,15.56,2.1818,0.05,7.9771e-07,7.9716,6.1254e-07,4.6024,2.8062e-12,4.1562e-06,-6.1254e-07,-4.6024,1.4865
17667,15.835,2.1818,0,0.00018389,1837.6,6.1851e-05,14.008,5.9988e-05,0.0073933,-0.00018364,-1830.5,1.5285
17668,15.743,2.0909,0,0.00018616,1860.3,6.2572e-05,13.657,6.0755e-05,0.0068775,-0.00018592,-1853.4,1.5144
17669,15.743,2.1818,0.05,7.9431e-07,7.9376,6.0993e-07,4.5828,3.7188e-12,2.2942e-06,-6.0994e-07,-4.5828,1.5145
17670,16.019,2.1818,0,0.0001794,1792.7,6.0434e-05,14.783,5.8468e-05,0.0076236,-0.00017914,-1785.3,1.5567
17671,15.927,2.0909,0,0.00018166,1815.3,6.115e-05,14.414,5.9232e-05,0.007085,-0.00018141,-1808.1,1.5425
17672,15.927,2.1818,0.05,7.9094e-07,7.904,6.0734e-07,4.5633,2.3585e-12,2.682e-06,-6.0735e-07,-4.5634,1.5426
17673,16.202,2.1818,0,0.00017493,1748.1,5.9025e-05,15.568,5.6954e-05,0.0078761,-0.00017466,-1740.2,1.585
17674,16.11,2.0909,0,0.00017718,1770.5,5.9735e-05,15.179,5.7715e-05,0.0073295,-0.00017691,-1762.9,1.5708
17675,16.11,2.1818,0.05,7.8761e-07,7.8707,6.0478e-07,4.5441,2.3678e-12,3.5695e-06,-6.0479e-07,-4.5442,1.5708
17676,16.386,2.1818,0,0.00017048,1703.6,5.7623e-05,16.368,5.5446e-05,0.0081215,-0.00017019,-1695.4,1.6135
17677,16.294,2.0909,0,0.00017272,1726,5.8327e-05,15.956,5.6205e-05,0.0075805,-0.00017244,-1717.9,1.5991
17678,16.294,2.1818,0.05,7.8432e-07,7.8377,6.0226e-07,4.5251,2.8298e-12,3.8643e-06,-6.0226e-07,-4.5252,1.5992
17679,16.569,2.1818,0,0.00016605,1659.4,5.623e-05,17.189,5.3944e-05,0.008374,-0.00016575,-1650.7,1.642
17680,16.477,2.0909,0,0.00016828,1681.6,5.6928e-05,16.75,5.47e-05,0.0078137,-0.00016799,-1673.2,1.6276
17681,16.477,2.1818,0.05,7.8106e-07,7.8052,5.9975e-07,4.5063,2.3828e-12,3.4483e-06,-5.9976e-07,-4.5063,1.6277
17682,16.753,2.1818,0,0.00016164,1615.3,5.4847e-05,18.035,5.2447e-05,0.00865,-0.00016133,-1606.2,1.6707
17683,16.661,2.0909,0,0.00016386,1637.5,5.5538e-05,17.567,5.3201e-05,0.0080746,-0.00016355,-1628.6,1.6562
17684,16.661,2.1818,0.05,7.7783e-07,7.7729,5.9727e-07,4.4877,1.9375e-12,5.3093e-06,-5.9728e-07,-4.4877,1.6563
17685,16.936,2.1818,0,0.00015726,1571.5,5.3472e-05,18.912,5.0957e-05,0.0089467,-0.00015693,-1562,1.6994
17686,16.844,2.0909,0,0.00015946,1593.5,5.4158e-05,18.411,5.1708e-05,0.0083529,-0.00015914,-1584.2,1.6849
17687,16.844,2.1818,0.05,7.7464e-07,7.7411,5.9483e-07,4.4693,1.948e-12,7.8807e-06,-5.9483e-07,-4.4693,1.685
17688,17.119,2.1818,0,0.0001529,1527.9,5.2109e-05,19.825,4.9471e-05,0.0092556,-0.00015255,-1517.9,1.7283
17689,17.028,2.0909,0,0.00015509,1549.8,5.2787e-05,19.287,5.0221e-05,0.0086561,-0.00015475,-1540.1,1.7138
17690,17.028,2.1818,0.05,7.715e-07,7.7097,5.9241e-07,4.4511,2.4098e-12,7.8439e-06,-5.9242e-07,-4.4512,1.7138
17691,17.303,2.1818,0,0.00014856,1484.5,5.0756e-05,20.779,4.7991e-05,0.0095738,-0.00014819,-1474,1.7573
17692,17.211,2.0909,0,0.00015073,1506.3,5.1426e-05,20.201,4.8739e-05,0.0089574,-0.00015038,-1496.1,1.7427
17693,17.211,2.1818,0.05,7.684e-07,7.6787,5.9003e-07,4.4333,1.9654e-12,7.7871e-06,-5.9004e-07,-4.4333,1.7427
17694,17.486,2.1818,0,0.00014424,1441.4,4.9414e-05,21.781,4.6516e-05,0.0099138,-0.00014386,-1430.4,1.7863
17695,17.395,2.0909,0,0.0001464,1463,5.0077e-05,21.158,4.7262e-05,0.0092793,-0.00014603,-1452.3,1.7717
17696,17.395,2.1818,0.05,7.6534e-07,7.6481,5.8769e-07,4.4156,1.977e-12,7.1104e-06,-5.8769e-07,-4.4157,1.7718
17697,17.67,2.1818,0,0.00013994,1398.5,4.8085e-05,22.837,4.5046e-05,0.010268,-0.00013954,-1386.9,1.8155
17698,17.578,2.0909,0,0.00014209,1420,4.8739e-05,22.165,4.579e-05,0.0096231,-0.0001417,-1408.7,1.8008
17699,17.578,2.1818,0.05,7.6233e-07,7.6181,5.8538e-07,4.3983,2.4418e-12,9.1285e-06,-5.8538e-07,-4.3983,1.8009
17700,17.853,2.1818,0,0.00013567,1355.8,4.6768e-05,23.953,4.3581e-05,0.010648,-0.00013525,-1343.7,1.8448
17701,17.762,2.0909,0,0.00013781,1377.1,4.7413e-05,23.227,4.4323e-05,0.0099722,-0.0001374,-1365.4,1.83
17702,17.762,2.1818,0.05,7.5937e-07,7.5885,5.831e-07,4.3812,2.4536e-12,9.4798e-06,-5.831e-07,-4.3812,1.8301
17703,18.037,2.1818,0,0.00013143,1313.4,4.5464e-05,25.137,4.212e-05,0.011062,-0.00013098,-1300.6,1.8741
17704,17.945,2.0909,0,0.00013355,1334.6,4.61e-05,24.352,4.286e-05,0.010366,-0.00013312,-1322.2,1.8594
17705,17.945,2.1818,0.05,7.5646e-07,7.5594,5.8087e-07,4.3644,2.0092e-12,1.1666e-05,-5.8087e-07,-4.3644,1.8594
17706,18.22,2.1818,0,0.0001272,1271.2,4.4175e-05,26.395,4.0664e-05,0.011495,-0.00012673,-1257.7,1.9036
17707,18.129,2.0909,0,0.00012931,1292.2,4.4801e-05,25.545,4.1402e-05,0.010784,-0.00012886,-1279.3,1.8888
17708,18.129,2.1818,0.05,7.5361e-07,7.5309,5.7868e-07,4.348,1.575e-12,8.7646e-06,-5.7869e-07,-4.348,1.8888
17709,18.404,2.1818,0,0.00012301,1229.2,4.2901e-05,27.736,3.9211e-05,0.011954,-0.00012251,-1215.1,1.9331
17710,18.312,2.0909,0,0.0001251,1250.1,4.3516e-05,26.814,3.9949e-05,0.011214,-0.00012462,-1236.5,1.9182
17711,18.312,2.1818,0.05,7.5082e-07,7.5031,5.7654e-07,4.3319,2.0436e-12,9.8156e-06,-5.7654e-07,-4.3319,1.9183
17712,18.587,2.1818,0,0.00011883,1187.5,4.1643e-05,29.167,3.7763e-05,0.012455,-0.00011831,-1172.7,1.9627
17713,18.496,2.0909,0,0.00012091,1208.3,4.2246e-05,28.168,3.8499e-05,0.011683,-0.00012041,-1194,1.9478
17714,18.496,2.1818,0.05,7.481e-07,7.4758,5.7445e-07,4.3162,2.0619e-12,8.4966e-06,-5.7445e-07,-4.3162,1.9479
17715,18.771,2.1818,0,0.00011469,1146.1,4.0401e-05,30.697,3.6318e-05,0.013,-0.00011414,-1130.4,1.9924
17716,18.679,2.0909,0,0.00011675,1166.7,4.0992e-05,29.613,3.7053e-05,0.012195,-0.00011622,-1151.6,1.9775
17717,18.679,2.1818,0.05,7.4545e-07,7.4493,5.7241e-07,4.3008,2.0768e-12,1.217e-05,-5.7241e-07,-4.3009,1.9775
17718,18.954,2.1818,0,0.00011057,1104.9,3.9177e-05,32.337,3.4876e-05,0.013585,-0.00010998,-1088.4,2.0221
17719,18.863,2.0909,0,0.00011261,1125.4,3.9755e-05,31.16,3.561e-05,0.012752,-0.00011205,-1109.5,2.0072
17720,18.863,2.1818,0.05,7.4287e-07,7.4236,5.7043e-07,4.286,1.6258e-12,1.1487e-05,-5.7043e-07,-4.286,2.0072
17721,19.138,2.1818,0,0.00010648,1064,3.7972e-05,34.095,3.3436e-05,0.01421,-0.00010586,-1046.6,2.052
17722,19.046,2.0909,0,0.00010851,1084.3,3.8536e-05,32.818,3.417e-05,0.013342,-0.00010791,-1067.5,2.037
17723,19.046,2.1818,0.05,7.4038e-07,7.3987,5.6852e-07,4.2716,1.6257e-12,1.1746e-05,-5.6852e-07,-4.2717,2.037
17724,19.321,2.1818,0,0.00010241,1023.4,3.6787e-05,35.983,3.2e-05,0.014891,-0.00010175,-1005,2.0819
17725,19.229,2.0909,0,0.00010442,1043.5,3.7336e-05,34.596,3.2733e-05,0.01398,-0.00010379,-1025.8,2.0669
17726,19.229,2.1818,0.05,7.3799e-07,7.3748,5.6668e-07,4.2578,2.1051e-12,9.9998e-06,-5.6669e-07,-4.2579,2.0669
17727,19.505,2.1818,0,9.838e-05,983.12,3.5623e-05,38.012,3.0566e-05,0.015626,-9.7678e-05,-963.56,2.1119
17728,19.413,2.0909,0,0.00010037,1003,3.6156e-05,36.505,3.1299e-05,0.01468,-9.97e-05,-984.26,2.0968
17729,19.413,2.1818,0.05,7.357e-07,7.3519,5.6492e-07,4.2446,2.1249e-12,1.4728e-05,-5.6492e-07,-4.2446,2.0968
17730,19.688,2.1818,0,9.4375e-05,943.1,3.448e-05,40.195,2.9133e-05,0.01643,-9.3627e-05,-922.35,2.1419
17731,19.596,2.0909,0,9.6347e-05,962.81,3.4996e-05,38.558,2.9867e-05,0.015425,-9.5633e-05,-942.94,2.1268
17732,19.596,2.1818,0.05,7.3351e-07,7.3301,5.6325e-07,4.232,1.6948e-12,1.2975e-05,-5.6325e-07,-4.232,2.1269
17733,19.872,2.1818,0,9.0402e-05,903.39,3.3362e-05,42.544,2.7702e-05,0.017318,-8.9602e-05,-881.36,2.172
17734,19.78,2.0909,0,9.2353e-05,922.89,3.386e-05,40.766,2.8436e-05,0.016259,-9.1591e-05,-901.82,2.1569
17735,19.78,2.1818,0.05,7.3145e-07,7.3095,5.6166e-07,4.2201,2.1701e-12,1.4532e-05,-5.6166e-07,-4.2201,2.1569
17736,20.055,2.1818,0,8.646e-05,864,3.2268e-05,45.074,2.6271e-05,0.018283,-8.5605e-05,-840.57,2.2022
17737,19.963,2.0909,0,8.8389e-05,883.28,3.2746e-05,43.143,2.7007e-05,0.017172,-8.7576e-05,-860.91,2.187
17738,19.963,2.1818,0.05,7.2953e-07,7.2902,5.6019e-07,4.209,2.186e-12,1.4682e-05,-5.6019e-07,-4.209,2.1871
17739,20.239,2.1818,0,8.2551e-05,824.94,3.1201e-05,47.801,2.4841e-05,0.019345,-8.1634e-05,-799.99,2.2324
17740,20.147,2.0909,0,8.4458e-05,844,3.1658e-05,45.703,2.5578e-05,0.018161,-8.3587e-05,-820.21,2.2172
17741,20.147,2.1818,0.05,7.2775e-07,7.2725,5.5882e-07,4.1988,2.1874e-12,1.6214e-05,-5.5883e-07,-4.1988,2.2173
17742,20.422,2.1818,0,7.8677e-05,786.23,3.0161e-05,50.739,2.3411e-05,0.020525,-7.7691e-05,-759.62,2.2627
17743,20.33,2.0909,0,8.056e-05,805.04,3.0597e-05,48.462,2.415e-05,0.019267,-7.9626e-05,-779.71,2.2475
17744,20.33,2.1818,0.05,7.2615e-07,7.2565,5.5759e-07,4.1895,1.7527e-12,1.6362e-05,-5.5759e-07,-4.1895,2.2475
17745,20.606,2.1818,0,7.4839e-05,747.87,2.9152e-05,53.908,2.198e-05,0.02184,-7.3775e-05,-719.45,2.293
17746,20.514,2.0909,0,7.6696e-05,766.43,2.9564e-05,51.436,2.2721e-05,0.020494,-7.5691e-05,-739.41,2.2778
17747,20.514,2.1818,0.05,7.2473e-07,7.2423,5.565e-07,4.1813,1.784e-12,1.3106e-05,-5.565e-07,-4.1814,2.2778
17748,20.789,2.1818,0,7.1038e-05,709.89,2.8174e-05,57.324,2.0548e-05,0.02331,-6.9889e-05,-679.48,2.3234
17749,20.697,2.0909,0,7.2869e-05,728.18,2.8561e-05,54.642,2.1291e-05,0.021868,-7.1785e-05,-699.31,2.3082
17750,20.697,2.1818,0.05,7.2352e-07,7.2302,5.5557e-07,4.1744,1.554e-12,1.2141e-05,-5.5558e-07,-4.1744,2.3082
17751,20.973,2.1818,0,6.7277e-05,672.3,2.7229e-05,61.009,1.9113e-05,0.024959,-6.6031e-05,-639.71,2.3538
17752,20.881,2.0909,0,6.9079e-05,690.32,2.7589e-05,58.101,1.986e-05,0.023403,-6.7907e-05,-659.42,2.3386
17753,20.881,2.1818,0.05,7.2255e-07,7.2206,5.5483e-07,4.1688,1.7773e-12,1.1629e-05,-5.5483e-07,-4.1688,2.3386
17754,21.156,2.1818,0,6.3558e-05,635.14,2.632e-05,64.982,1.7675e-05,0.026827,-6.2202e-05,-600.14,2.3843
17755,21.064,2.0909,0,6.533e-05,652.85,2.6651e-05,61.831,1.8426e-05,0.025138,-6.4058e-05,-619.72,2.369
17756,21.064,2.1818,0.05,7.2185e-07,7.2135,5.5429e-07,4.1647,1.7881e-12,1.5087e-05,-5.5429e-07,-4.1647,2.369
17757,21.34,2.1818,0,5.9883e-05,598.41,2.5448e-05,69.266,1.6233e-05,0.028953,-5.8402e-05,-560.75,2.4148
17758,21.248,2.0909,0,6.1623e-05,615.8,2.575e-05,65.855,1.6988e-05,0.027112,-6.0237e-05,-580.22,2.3995
17759,21.248,2.1818,0.05,7.2145e-07,7.2095,5.5398e-07,4.1624,1.9936e-12,1.5417e-05,-5.5398e-07,-4.1624,2.3995
17760,21.523,2.1818,0,5.6255e-05,562.16,2.4616e-05,73.883,1.4787e-05,0.031401,-5.4632e-05,-521.56,2.4454
17761,21.431,2.0909,0,5.7961e-05,579.21,2.4886e-05,70.196,1.5547e-05,0.029369,-5.6447e-05,-540.9,2.43
17762,21.431,2.1818,0.05,7.2138e-07,7.2088,5.5393e-07,4.162,1.7531e-12,1.4361e-05,-5.5393e-07,-4.162,2.4301
17763,21.706,2.1818,0,5.2679e-05,526.42,2.3825e-05,78.859,1.3334e-05,0.034253,-5.0892e-05,-482.53,2.4759
17764,21.615,2.0909,0,5.4348e-05,543.1,2.4062e-05,74.877,1.41e-05,0.031993,-5.2685e-05,-501.77,2.4606
17765,21.615,2.1818,0.05,7.217e-07,7.212,5.5418e-07,4.1639,1.4493e-12,1.286e-05,-5.5418e-07,-4.1639,2.4606
17766,21.89,2.1818,0,4.9158e-05,491.24,2.3078e-05,84.218,1.1874e-05,0.037604,-4.7181e-05,-443.68,2.5066
17767,21.798,2.0909,0,5.0788e-05,507.53,2.328e-05,79.925,1.2647e-05,0.035062,-4.8953e-05,-462.81,2.4912
17768,21.798,2.1818,0.05,7.2246e-07,7.2196,5.5476e-07,4.1682,1.6826e-12,1.575e-05,-5.5476e-07,-4.1682,2.4912
17769,22.073,2.1818,0,4.5699e-05,456.68,2.2377e-05,89.985,1.0406e-05,0.041601,-4.3498e-05,-404.97,2.5372
17770,21.982,2.0909,0,4.7286e-05,472.53,2.2543e-05,85.365,1.1187e-05,0.038694,-4.5251e-05,-424.01,2.5219
17771,21.982,2.1818,0.05,7.2371e-07,7.2321,5.5572e-07,4.1754,1.4416e-12,8.051e-06,-5.5572e-07,-4.1754,2.5219
17772,22.257,2.1818,0,4.2309e-05,422.79,2.1723e-05,96.184,8.9279e-06,0.046456,-3.9843e-05,-366.4,2.5679
17773,22.165,2.0909,0,4.3848e-05,438.18,2.1853e-05,91.225,9.7177e-06,0.043072,-4.1577e-05,-385.37,2.5525
17774,22.165,2.1818,0.05,7.2551e-07,7.2501,5.571e-07,4.1859,1.4556e-12,1.0946e-05,-5.5711e-07,-4.1859,2.5526
17775,22.44,2.1818,0,3.8996e-05,389.69,2.1119e-05,102.84,7.4387e-06,0.052493,-3.6214e-05,-327.94,2.5986
17776,22.349,2.0909,0,4.0483e-05,404.55,2.1212e-05,97.53,8.2382e-06,0.048439,-3.7932e-05,-346.85,2.5832
17777,22.349,2.1818,0.05,7.2795e-07,7.2745,5.5898e-07,4.1999,1.2083e-12,1.3631e-05,-5.5898e-07,-4.1999,2.5833
17778,22.624,2.1818,0,3.5773e-05,357.49,2.0565e-05,109.97,5.9367e-06,0.060128,-3.261e-05,-289.56,2.6294
17779,22.532,2.0909,0,3.7202e-05,371.76,2.0622e-05,104.31,6.7468e-06,0.055216,-3.4312e-05,-308.45,2.614
17780,22.532,2.1818,0.05,7.311e-07,7.3059,5.6139e-07,4.2181,1.3488e-12,1.5038e-05,-5.6139e-07,-4.2181,2.614
17781,22.807,2.1818,0,3.2658e-05,326.36,2.0063e-05,117.6,4.4202e-06,0.070372,-2.9027e-05,-251.24,2.6601
17782,22.716,2.0909,0,3.4019e-05,339.95,2.0084e-05,111.58,5.2419e-06,0.063833,-3.0718e-05,-270.12,2.6447
17783,22.716,2.1818,0.05,7.3503e-07,7.3452,5.6441e-07,4.2407,8.3421e-13,1.1692e-05,-5.6441e-07,-4.2407,2.6447
17784,22.991,2.1818,0,2.9674e-05,296.53,1.9612e-05,125.74,2.8875e-06,0.083664,-2.5463e-05,-212.93,2.6909
17785,22.899,2.0909,0,3.0954e-05,309.32,1.9598e-05,119.37,3.7218e-06,0.075941,-2.7144e-05,-231.84,2.6755
17786,22.899,2.1818,0.05,7.398e-07,7.3929,5.6808e-07,4.2683,8.5626e-13,1.4664e-05,-5.6808e-07,-4.2683,2.6755
17787,23.174,2.1818,0,2.6854e-05,268.35,1.9211e-05,134.4,1.3374e-06,0.10622,-2.1912e-05,-174.58,2.7217
17788,23.083,2.0909,0,2.8035e-05,280.16,1.9166e-05,127.68,2.1846e-06,0.090899,-2.3589e-05,-193.56,2.7063
17789,23.083,2.1818,0.05,7.4549e-07,7.4497,5.7244e-07,4.3011,7.3368e-13,1.4686e-05,-5.7244e-07,-4.3011,2.7063
17790,23.358,2.1818,0,2.4245e-05,242.29,1.886e-05,143.58,-2.3232e-07,0.12905,-1.8371e-05,-136.16,2.7525
17791,23.266,2.0909,0,2.5304e-05,252.86,1.8786e-05,136.54,6.296e-07,0.12213,-2.0047e-05,-155.23,2.7371
17792,23.266,2.1818,0.05,7.5212e-07,7.516,5.7754e-07,4.3394,3.8899e-13,1.0903e-05,-5.7754e-07,-4.3394,2.7371
17793,23.541,2.1818,0,2.1918e-05,219.03,1.8556e-05,153.3,-1.8169e-06,0.22475,-1.4836e-05,-97.596,2.7833
17794,23.45,2.0909,0,2.2815e-05,227.99,1.8455e-05,145.92,-9.4727e-07,0.13949,-1.6513e-05,-116.81,2.7679
17795,23.45,2.1818,0.05,7.5969e-07,7.5916,5.8334e-07,4.383,4.9344e-13,6.1886e-06,-5.8334e-07,-4.383,2.7679
17796,23.725,2.1818,0,1.9964e-05,199.5,1.8296e-05,163.46,-3.4299e-06,0.22105,-1.1302e-05,-58.928,2.8141
17797,23.633,2.0909,0,2.0652e-05,206.38,1.8173e-05,155.89,-2.5318e-06,0.32351,-1.2988e-05,-78.238,2.7987
17798,23.633,2.1818,0.05,7.6831e-07,7.6778,5.8997e-07,4.4328,6.8479e-13,7.8522e-06,-5.8997e-07,-4.4328,2.7987
17799,23.817,2.0909,0,1.8925e-05,189.12,1.7936e-05,166.21,-4.1591e-06,0.19701,-9.4647e-06,-39.667,2.8295
17800,23.817,2.1818,0.05,7.8143e-07,7.8089,6.0004e-07,4.5085,7.4537e-13,1.0188e-05,-6.0004e-07,-4.5085,2.8296
17801,23.908,2.1818,0,1.856e-05,185.47,1.8083e-05,173.48,-4.9482e-06,0.43458,-7.9766e-06,-22.32,2.845
17802,3.5419,2,0,0.001241,12402,0.00057688,1859.2,0.00028419,-339.94,-0.0012005,-11495,0.085428
17803,3.4501,1.9091,0,0.0013513,13504,0.00074294,3435.6,0.00022035,-490.97,-0.0012576,-11596,0.078847
17804,3.4501,2,0.05,0.00016711,1670,0.00012832,964.15,-1.2554e-10,-0.0016322,-0.00012832,-964.15,0.079605
17805,3.3584,2,0,0.0021824,21809,0.00099021,2979,0.00051768,-571.46,-0.0021196,-20387,0.074101
17806,3.7254,2,0,0.00090588,9052.5,0.00035261,671.68,0.00026833,38.424,-0.00089213,-8680.8,0.097381
17807,3.6336,1.9091,0,0.00093947,9388.2,0.00041787,1350.7,0.00024562,56.416,-0.00090881,-8617.5,0.090691
17808,3.6336,2,0.05,2.8894e-05,288.74,2.2187e-05,166.7,1.4453e-11,-0.00046564,-2.2187e-05,-166.71,0.09127
17809,3.9088,2,0,0.00076624,7657.1,0.00027202,220.75,0.00024047,-16.275,-0.00076248,-7552.1,0.10986
17810,3.8171,1.9091,0,0.00077904,7785,0.00030425,560.68,0.00022734,-17.207,-0.00076818,-7497.2,0.10303
17811,3.8171,2,0.05,1.8698e-05,186.86,1.4358e-05,107.88,-2.0924e-11,-0.00047185,-1.4358e-05,-107.88,0.10349
17812,4.0923,2,0,0.00068242,6819.5,0.00023021,27.139,0.00021918,-55.761,-0.00068287,-6833.4,0.1228
17813,4.0006,1.9091,0,0.00068854,6880.7,0.00024372,193.55,0.00021687,-8.1992,-0.00068517,-6785.8,0.11583
17814,4.0006,2,0.05,1.248e-05,124.71,9.5831e-06,72.003,-2.5283e-11,-0.00049785,-9.5831e-06,-72.004,0.11621
17815,4.2758,2,0,0.00062601,6255.8,0.00021561,5.5073,0.00019169,-174.26,-0.00062869,-6338.2,0.13618
17816,4.1841,1.9091,0,0.00062913,6287,0.00021223,24.534,0.00020204,-52.007,-0.00062956,-6300.4,0.12906
17817,4.1841,2,0.05,9.3894e-06,93.83,7.2099e-06,54.172,-2.3048e-11,-0.00044435,-7.2099e-06,-54.173,0.12938
17818,4.4593,2,0,0.00058574,5853.4,0.00020576,2.9327,0.00017217,-249.47,-0.00058953,-5972.6,0.14997
17819,4.3676,1.9091,0,0.00058779,5873.8,0.00020196,5.8615,0.00018088,-152.57,-0.00059012,-5945.6,0.14269
17820,4.3676,2,0.05,7.4009e-06,73.958,5.683e-06,42.699,-2.9481e-11,-0.00039143,-5.683e-06,-42.7,0.14297
17821,4.6428,2,0,0.00055554,5551.6,0.00019768,1.7172,0.00015877,-290.65,-0.00055988,-5690.3,0.16414
17822,4.551,1.9091,0,0.00055734,5569.5,0.00019484,2.7465,0.00016545,-218.08,-0.00056067,-5673.9,0.1567
17823,4.551,2,0.05,6.0263e-06,60.222,4.6275e-06,34.769,-2.761e-11,-0.00033307,-4.6275e-06,-34.769,0.15695
17824,4.8263,2,0,0.00053209,5317.3,0.00019081,1.1683,0.00014941,-309.89,-0.00053666,-5464.8,0.17869
17825,4.7345,1.9091,0,0.00053402,5336.5,0.0001888,1.6951,0.00015476,-254.04,-0.00053785,-5458.1,0.17109
17826,4.7345,2,0.05,5.0037e-06,50.003,3.8422e-06,28.869,-2.4157e-11,-0.0002916,-3.8422e-06,-28.869,0.17132
17827,5.0097,2,0,0.00051335,5129.9,0.00018485,0.81753,0.00014278,-315.22,-0.00051796,-5279.8,0.1936
17828,4.918,1.9091,0,0.00051553,5151.7,0.00018347,1.1206,0.00014723,-271.16,-0.00051958,-5281.3,0.18584
17829,4.918,2,0.05,4.2133e-06,42.104,3.2353e-06,24.308,-2.6807e-11,-0.00023048,-3.2353e-06,-24.309,0.18605
17830,5.1932,2,0,0.00049798,4976.3,0.00017958,0.59274,0.00013801,-311.72,-0.00050253,-5124.5,0.20886
17831,5.1015,1.9091,0,0.00050043,5000.8,0.0001787,0.78733,0.00014182,-276.33,-0.00050454,-5132.8,0.20093
17832,5.1015,2,0.05,3.5869e-06,35.844,2.7543e-06,20.694,-1.808e-11,-0.00023482,-2.7543e-06,-20.695,0.20114
17833,5.3767,2,0,0.0004851,4847.6,0.00017488,0.43548,0.00013453,-302.71,-0.00048953,-4991.6,0.22445
17834,5.285,1.9091,0,0.00048778,4874.4,0.00017439,0.5666,0.00013786,-273.93,-0.00049185,-5005.3,0.21637
17835,5.285,2,0.05,3.0837e-06,30.816,2.3679e-06,17.791,-1.1216e-11,-0.00018079,-2.3679e-06,-17.792,0.21657
17836,5.5602,2,0,0.00047408,4737.6,0.00017063,0.32335,0.00013195,-290.3,-0.00047835,-4875.9,0.24038
17837,5.4684,1.9091,0,0.00047694,4766.1,0.00017045,0.41537,0.00013489,-266.76,-0.00048091,-4893.7,0.23213
17838,5.4684,2,0.05,2.6768e-06,26.75,2.0555e-06,15.444,-8.973e-12,-0.00014524,-2.0555e-06,-15.444,0.23233
17839,5.7437,2,0,0.00046449,4641.7,0.00016677,0.24148,0.00013001,-275.93,-0.00046856,-4773.4,0.25662
17840,5.6519,1.9091,0,0.00046747,4671.4,0.00016683,0.30764,0.00013263,-256.63,-0.0004713,-4794.3,0.24822
17841,5.6519,2,0.05,2.347e-06,23.454,1.8022e-06,13.541,-8.0429e-12,-8.7735e-05,-1.8022e-06,-13.541,0.24842
17842,5.9271,2,0,0.00045598,4556.7,0.00016321,0.1811,0.00012851,-260.53,-0.00045985,-4681.3,0.27318
17843,5.8354,1.9091,0,0.00045903,4587.2,0.00016346,0.22958,0.00013086,-244.72,-0.0004627,-4704.5,0.26463
17844,5.8354,2,0.05,2.0798e-06,20.784,1.597e-06,11.999,-5.0068e-12,-9.8176e-05,-1.597e-06,-12,0.26482
17845,6.1106,2,0,0.00044831,4480.1,0.00015991,0.13623,0.00012732,-244.72,-0.00045197,-4597.3,0.29005
17846,6.0189,1.9091,0,0.0004514,4510.9,0.00016031,0.17224,0.00012944,-231.82,-0.0004549,-4622.3,0.28135
17847,6.0189,2,0.05,1.8637e-06,18.624,1.4311e-06,10.753,-6.9216e-12,-6.8906e-05,-1.4311e-06,-10.753,0.28154
17848,6.2941,2,0,0.00044129,4409.9,0.00015683,0.10274,0.00012634,-228.95,-0.00044474,-4519.8,0.30723
17849,6.2024,1.9091,0,0.00044439,4440.9,0.00015735,0.12979,0.00012825,-218.47,-0.0004477,-4546,0.29837
17850,6.2024,2,0.05,1.6893e-06,16.882,1.2972e-06,9.7466,-3.0482e-12,-4.6406e-05,-1.2972e-06,-9.7467,0.29856
17851,6.4776,2,0,0.00043477,4344.7,0.00015393,0.077668,0.0001255,-213.47,-0.00043801,-4447.5,0.3247
17852,6.3858,1.9091,0,0.00043786,4375.6,0.00015454,0.098175,0.00012724,-205.03,-0.00044099,-4474.4,0.3157
17853,6.3858,2,0.05,1.549e-06,15.479,1.1894e-06,8.9367,1.7734e-12,-3.5979e-05,-1.1894e-06,-8.9369,0.31589
17854,6.6611,2,0,0.00042864,4283.4,0.00015117,0.058863,0.00012475,-198.5,-0.00043167,-4379.2,0.34247
17855,6.5693,1.9091,0,0.0004317,4314,0.00015186,0.074542,0.00012633,-191.74,-0.00043464,-4406.7,0.33332
17856,6.5693,2,0.05,1.4362e-06,14.352,1.1028e-06,8.2859,2.4265e-12,-3.2302e-05,-1.1028e-06,-8.286,0.33351
17857,6.8445,2,0,0.0004228,4225.1,0.00014855,0.044742,0.00012404,-184.14,-0.00042563,-4314.1,0.36053
17858,6.7528,1.9091,0,0.00042583,4255.4,0.00014929,0.056821,0.00012549,-178.78,-0.00042859,-4341.9,0.35124
17859,6.7528,2,0.05,1.3456e-06,13.446,1.0332e-06,7.7631,7.4022e-14,-1.3591e-05,-1.0332e-06,-7.7632,0.35143
17860,7.028,2,0,0.00041719,4169,0.00014603,0.034132,0.00012334,-170.46,-0.00041982,-4251.6,0.37888
17861,6.9363,1.9091,0,0.00042019,4199,0.00014682,0.043502,0.00012468,-166.28,-0.00042277,-4279.6,0.36944
17862,6.9363,2,0.05,1.2727e-06,12.718,9.7726e-07,7.3427,4.4314e-12,-1.8687e-05,-9.7727e-07,-7.3429,0.36963
17863,7.2115,2,0,0.00041175,4114.6,0.00014361,0.026159,0.00012264,-157.51,-0.0004142,-4191.1,0.39751
17864,7.1198,1.9091,0,0.00041471,4144.3,0.00014443,0.033474,0.00012389,-154.29,-0.00041712,-4219.2,0.38793
17865,7.1198,2,0.05,1.2139e-06,12.131,9.3215e-07,7.0038,6.121e-12,-1.6893e-05,-9.3216e-07,-7.004,0.38812
17866,7.395,2,0,0.00040644,4061.6,0.00014126,0.020172,0.00012192,-145.31,-0.00040872,-4132.3,0.41642
17867,7.3032,1.9091,0,0.00040937,4090.9,0.00014211,0.025917,0.00012309,-142.87,-0.00041161,-4160.4,0.4067
17868,7.3032,2,0.05,1.1664e-06,11.656,8.9562e-07,6.7293,2.5922e-12,-7.8582e-06,-8.9563e-07,-6.7294,0.40689
17869,7.5785,2,0,0.00040123,4009.5,0.00013898,0.015681,0.00012117,-133.84,-0.00040334,-4074.8,0.4356
17870,7.4867,1.9091,0,0.00040412,4038.5,0.00013985,0.020218,0.00012227,-132.04,-0.00040621,-4102.9,0.42575
17871,7.4867,2,0.05,1.1276e-06,11.268,8.6584e-07,6.5055,4.8831e-12,-8.7454e-06,-8.6585e-07,-6.5057,0.42594
17872,7.7619,2,0,0.00039609,3958.2,0.00013676,0.012321,0.00012038,-123.1,-0.00039805,-4018.3,0.45506
17873,7.6702,1.9091,0,0.00039896,3986.8,0.00013765,0.01592,0.00012143,-121.82,-0.00040089,-4046.3,0.44507
17874,7.6702,2,0.05,1.0957e-06,10.95,8.4138e-07,6.3218,4.5587e-12,-6.3044e-06,-8.4139e-07,-6.3219,0.44526
17875,7.9454,2,0,0.00039101,3907.4,0.0001346,0.0098147,0.00011955,-113.07,-0.00039281,-3962.7,0.47478
17876,7.8537,1.9091,0,0.00039384,3935.7,0.00013549,0.012682,0.00012055,-112.2,-0.00039563,-3990.6,0.46466
17877,7.8537,2,0.05,1.0693e-06,10.686,8.211e-07,6.1694,4.237e-12,-6.7204e-06,-8.2111e-07,-6.1695,0.46485
17878,8.1289,2,0,0.00038597,3857.1,0.00013247,0.0079556,0.00011867,-103.71,-0.00038763,-3907.9,0.49477
17879,8.0372,1.9091,0,0.00038877,3885.1,0.00013337,0.010248,0.00011964,-103.17,-0.00039043,-3935.6,0.48452
17880,8.0372,2,0.05,1.0472e-06,10.465,8.041e-07,6.0417,3.111e-12,-6.2053e-06,-8.0411e-07,-6.0418,0.48471
17881,8.3124,2,0,0.00038096,3807,0.00013039,0.0065865,0.00011775,-94.988,-0.00038249,-3853.6,0.51502
17882,8.2206,1.9091,0,0.00038374,3834.7,0.0001313,0.0084237,0.00011869,-94.714,-0.00038526,-3881.2,0.50464
17883,8.2206,2,0.05,1.0284e-06,10.277,7.897e-07,5.9335,4.2984e-12,-5.7321e-06,-7.8971e-07,-5.9336,0.50483
17884,8.4959,2,0,0.00037597,3757.1,0.00012835,0.0055886,0.00011678,-86.88,-0.00037737,-3799.8,0.53552
17885,8.4041,1.9091,0,0.00037872,3784.6,0.00012925,0.0070641,0.0001177,-86.809,-0.00038012,-3827.2,0.52502
17886,8.4041,2,0.05,1.0123e-06,10.116,7.7735e-07,5.8407,3.679e-12,-5.1444e-06,-7.7736e-07,-5.8408,0.52521
17887,8.6794,2,0,0.00037099,3707.3,0.00012634,0.0048728,0.00011578,-79.347,-0.00037228,-3746.4,0.55628
17888,8.5876,1.9091,0,0.00037372,3734.6,0.00012724,0.0060583,0.00011667,-79.433,-0.00037501,-3773.7,0.54565
17889,8.5876,2,0.05,9.9838e-07,9.9769,7.6663e-07,5.7601,4.8833e-12,-4.2238e-06,-7.6664e-07,-5.7603,0.54584
17890,8.8628,2,0,0.00036602,3657.7,0.00012435,0.004371,0.00011472,-72.354,-0.0003672,-3693.3,0.5773
17891,8.7711,1.9091,0,0.00036873,3684.8,0.00012526,0.0053231,0.0001156,-72.559,-0.00036991,-3720.5,0.56654
17892,8.7711,2,0.05,9.8612e-07,9.8543,7.5721e-07,5.6894,3.275e-12,-1.9363e-06,-7.5722e-07,-5.6895,0.56673
17893,9.0463,2,0,0.00036106,3608.1,0.0001224,0.0040314,0.00011363,-65.868,-0.00036214,-3640.6,0.59855
17894,8.9546,1.9091,0,0.00036375,3635,0.0001233,0.0047944,0.0001145,-66.16,-0.00036484,-3667.7,0.58768
17895,8.9546,2,0.05,9.7521e-07,9.7454,7.4884e-07,5.6264,5.2452e-12,-4.5572e-06,-7.4885e-07,-5.6266,0.58786
17896,9.2298,2,0,0.00035611,3558.6,0.00012047,0.003815,0.0001125,-59.854,-0.00035709,-3588.2,0.62006
17897,9.1381,1.9091,0,0.00035878,3585.4,0.00012137,0.0044242,0.00011335,-60.21,-0.00035977,-3615.1,0.60906
17898,9.1381,2,0.05,9.6541e-07,9.6475,7.4131e-07,5.5699,4.4898e-12,-2.4842e-06,-7.4132e-07,-5.57,0.60924
17899,9.4133,2,0,0.00035116,3509.2,0.00011856,0.0036916,0.00011134,-54.282,-0.00035205,-3536,0.6418
17900,9.3215,1.9091,0,0.00035382,3535.7,0.00011946,0.0041757,0.00011218,-54.682,-0.00035472,-3562.8,0.63069
17901,9.3215,2,0.05,9.5651e-07,9.5585,7.3448e-07,5.5185,4.6304e-12,-2.5968e-06,-7.3448e-07,-5.5187,0.63087
17902,9.5968,2,0,0.00034621,3459.7,0.00011668,0.0036408,0.00011014,-49.12,-0.00034702,-3484,0.66378
17903,9.505,1.9091,0,0.00034886,3486.2,0.00011757,0.0040198,0.00011097,-49.549,-0.00034967,-3510.7,0.65255
17904,9.505,2,0.05,9.4835e-07,9.4769,7.2821e-07,5.4714,3.8113e-12,-3.6664e-06,-7.2822e-07,-5.4716,0.65273
17905,9.7802,2,0,0.00034127,3410.4,0.00011481,0.0036428,0.00010891,-44.34,-0.000342,-3432.3,0.68599
17906,9.6885,1.9091,0,0.0003439,3436.6,0.0001157,0.0039392,0.00010974,-44.785,-0.00034464,-3458.8,0.67465
17907,9.6885,2,0.05,9.4079e-07,9.4014,7.2241e-07,5.4278,4.8117e-12,-1.0232e-06,-7.2241e-07,-5.428,0.67483
17908,9.9637,2,0,0.00033633,3361,0.00011296,0.0036889,0.00010765,-39.914,-0.00033699,-3380.8,0.70843
17909,9.872,1.9091,0,0.00033895,3387.1,0.00011385,0.0039088,0.00010847,-40.365,-0.00033962,-3407.1,0.69698
17910,9.872,2,0.05,9.3374e-07,9.331,7.1699e-07,5.3872,3.98e-12,-1.4109e-06,-7.17e-07,-5.3873,0.69715
17911,10.147,2,0,0.0003314,3311.7,0.00011113,0.0037722,0.00010636,-35.816,-0.00033199,-3329.4,0.7311
17912,10.055,1.9091,0,0.000334,3337.7,0.00011201,0.0039346,0.00010718,-36.267,-0.0003346,-3355.7,0.71954
17913,10.055,2,0.05,9.2712e-07,9.2648,7.1191e-07,5.349,4.0428e-12,-4.5045e-07,-7.1192e-07,-5.3491,0.71971
17914,10.331,2,0,0.00032647,3262.4,0.00010932,0.0038635,0.00010505,-32.022,-0.000327,-3278.3,0.754
17915,10.239,1.9091,0,0.00032906,3288.3,0.00011019,0.003993,0.00010587,-32.467,-0.0003296,-3304.4,0.74232
17916,10.239,2,0.05,9.2087e-07,9.2023,7.0711e-07,5.3129,3.1919e-12,-2.1058e-07,-7.0712e-07,-5.313,0.74249
17917,10.514,2,0,0.00032154,3213.2,0.00010752,0.0039679,0.00010372,-28.509,-0.00032202,-3227.4,0.77711
17918,10.422,1.9091,0,0.00032412,3239,0.00010839,0.0040484,0.00010454,-28.944,-0.0003246,-3253.3,0.76533
17919,10.422,2,0.05,9.1492e-07,9.1429,7.0254e-07,5.2786,5.0712e-12,6.4729e-07,-7.0255e-07,-5.2787,0.7655
17920,10.698,2,0,0.00031662,3164,0.00010573,0.0041065,0.00010237,-25.256,-0.00031704,-3176.6,0.80044
17921,10.606,1.9091,0,0.00031919,3189.7,0.0001066,0.0041451,0.00010318,-25.679,-0.00031962,-3202.5,0.78856
17922,10.606,2,0.05,9.0923e-07,9.086,6.9817e-07,5.2458,5.1096e-12,1.2249e-06,-6.9818e-07,-5.2459,0.78872
17923,10.881,2,0,0.00031171,3115,0.00010396,0.0042804,0.000101,-22.243,-0.00031208,-3126,0.82399
17924,10.789,1.9091,0,0.00031427,3140.5,0.00010483,0.0042805,0.00010181,-22.652,-0.00031465,-3151.8,0.812
17925,10.789,2,0.05,9.0377e-07,9.0315,6.9398e-07,5.2143,4.2469e-12,8.1339e-07,-6.9399e-07,-5.2144,0.81216
17926,11.065,2,0,0.00030681,3065.9,0.00010221,0.0044585,9.9619e-05,-19.451,-0.00030713,-3075.6,0.84774
17927,10.973,1.9091,0,0.00030935,3091.4,0.00010307,0.004459,0.00010043,-19.845,-0.00030968,-3101.3,0.83565
17928,10.973,2,0.05,8.9852e-07,8.979,6.8995e-07,5.184,4.2785e-12,8.6781e-07,-6.8996e-07,-5.1841,0.83581
17929,11.248,2,0,0.00030191,3017,0.00010046,0.0046311,9.8219e-05,-16.863,-0.00030219,-3025.4,0.8717
17930,11.156,1.9091,0,0.00030444,3042.3,0.00010132,0.0046149,9.9025e-05,-17.241,-0.00030473,-3050.9,0.85951
17931,11.156,2,0.05,8.9346e-07,8.9284,6.8606e-07,5.1547,3.4e-12,1.8075e-06,-6.8607e-07,-5.1549,0.85967
17932,11.432,2,0,0.00029702,2968.2,9.8733e-05,0.0048503,9.6807e-05,-14.464,-0.00029726,-2975.4,0.89586
17933,11.34,1.9091,0,0.00029955,2993.4,9.9584e-05,0.0047968,9.761e-05,-14.826,-0.0002998,-3000.8,0.88357
17934,11.34,2,0.05,8.8853e-07,8.8792,6.8228e-07,5.1263,4.3392e-12,2.1488e-06,-6.8229e-07,-5.1265,0.88373
17935,11.615,2,0,0.00029214,2919.4,9.7014e-05,0.0051037,9.5384e-05,-12.238,-0.00029235,-2925.5,0.92023
17936,11.523,1.9091,0,0.00029466,2944.6,9.7861e-05,0.0050616,9.6185e-05,-12.585,-0.00029487,-2950.8,0.90784
17937,11.523,2,0.05,8.8376e-07,8.8315,6.7861e-07,5.0988,3.4562e-12,2.3367e-06,-6.7862e-07,-5.0989,0.90799
17938,11.799,2,0,0.00028728,2870.8,9.5305e-05,0.0053826,9.3951e-05,-10.171,-0.00028745,-2875.9,0.94479
17939,11.707,1.9091,0,0.00028978,2895.8,9.6148e-05,0.0053329,9.475e-05,-10.503,-0.00028996,-2901.1,0.93231
17940,11.707,2,0.05,8.7911e-07,8.7851,6.7504e-07,5.072,4.3898e-12,2.7538e-06,-6.7506e-07,-5.0721,0.93246
17941,11.982,2,0,0.00028242,2822.3,9.3608e-05,0.0057337,9.2509e-05,-8.2511,-0.00028256,-2826.4,0.96954
17942,11.89,1.9091,0,0.00028492,2847.2,9.4447e-05,0.0056828,9.3306e-05,-8.5684,-0.00028506,-2851.5,0.95697
17943,11.89,2,0.05,8.7458e-07,8.7397,6.7157e-07,5.0458,3.5071e-12,3.9478e-06,-6.7157e-07,-5.0459,0.95712
17944,12.165,2,0,0.00027758,2773.9,9.1921e-05,0.0061819,9.106e-05,-6.4654,-0.00027769,-2777.1,0.99449
17945,12.074,1.9091,0,0.00028006,2798.7,9.2756e-05,0.0061534,9.1854e-05,-6.7693,-0.00028018,-2802.1,0.98182
17946,12.074,2,0.05,8.7015e-07,8.6955,6.6816e-07,5.0203,3.5288e-12,3.5219e-06,-6.6817e-07,-5.0204,0.98197
17947,12.349,2,0,0.00027275,2725.6,9.0244e-05,0.0068294,8.9604e-05,-4.803,-0.00027283,-2728,1.0196
17948,12.257,1.9091,0,0.00027522,2750.3,9.1075e-05,0.0068018,9.0396e-05,-5.0947,-0.00027531,-2752.8,1.0069
17949,12.257,2,0.05,8.658e-07,8.6521,6.6482e-07,4.9952,3.5454e-12,4.0205e-06,-6.6484e-07,-4.9953,1.007
17950,12.532,2,0,0.00026793,2677.4,8.8578e-05,0.0079595,8.8144e-05,-3.2538,-0.00026798,-2679,1.0449
17951,12.441,1.9091,0,0.00027039,2702,8.9405e-05,0.0079207,8.8933e-05,-3.5344,-0.00027045,-2703.8,1.0321
17952,12.441,2,0.05,8.6154e-07,8.6095,6.6155e-07,4.9706,3.5657e-12,4.6096e-06,-6.6156e-07,-4.9707,1.0322
17953,12.716,2,0,0.00026312,2629.4,8.6921e-05,0.010603,8.6679e-05,-1.8091,-0.00026315,-2630.3,1.0704
17954,12.624,1.9091,0,0.00026558,2653.9,8.7744e-05,0.010369,8.7466e-05,-2.0795,-0.00026561,-2655,1.0575
17955,12.624,2,0.05,8.5736e-07,8.5676,6.5834e-07,4.9465,3.5827e-12,2.9686e-06,-6.5834e-07,-4.9466,1.0576
17956,12.899,2,0,0.00025833,2581.5,8.5275e-05,0.026629,8.5209e-05,-0.47167,-0.00025834,-2581.8,1.0961
17957,12.808,1.9091,0,0.00026078,2606,8.6094e-05,0.021002,8.5994e-05,-0.72792,-0.00026079,-2606.3,1.0831
17958,12.808,2,0.05,8.5325e-07,8.5266,6.5519e-07,4.9228,3.5969e-12,2.3523e-06,-6.5519e-07,-4.9229,1.0832
17959,13.083,2,0,0.00025355,2533.8,8.3743e-05,0.83026,8.3631e-05,-0.0073114,-0.00025354,-2533.4,1.1219
17960,12.991,1.9091,0,0.00025599,2558.1,8.4526e-05,0.58411,8.4446e-05,-0.015612,-0.00025598,-2557.8,1.1088
17961,12.991,2,0.05,8.4921e-07,8.4862,6.5209e-07,4.8995,3.6102e-12,2.9785e-06,-6.5209e-07,-4.8996,1.109
17962,13.266,2,0,0.00024879,2486.2,8.227e-05,2.0134,8.2002e-05,0.0001556,-0.00024876,-2485.2,1.148
17963,13.175,1.9091,0,0.00025122,2510.4,8.305e-05,1.7669,8.2814e-05,-0.0017628,-0.00025119,-2509.6,1.1348
17964,13.175,2,0.05,8.4522e-07,8.4464,6.4902e-07,4.8765,3.6226e-12,4.1193e-06,-6.4903e-07,-4.8766,1.1349
17965,13.45,2,0,0.00024405,2438.8,8.0797e-05,3.1321,8.0381e-05,0.002115,-0.00024399,-2437.2,1.1741
17966,13.358,1.9091,0,0.00024646,2462.9,8.1574e-05,2.8897,8.119e-05,0.00099213,-0.00024641,-2461.5,1.1609
17967,13.358,2,0.05,8.413e-07,8.4072,6.4601e-07,4.8538,3.6343e-12,5.2776e-06,-6.4602e-07,-4.8539,1.161
17968,13.633,2,0,0.00023932,2391.5,7.9325e-05,4.1889,7.8768e-05,0.0030622,-0.00023925,-2389.4,1.2005
17969,13.542,1.9091,0,0.00024172,2415.6,8.0098e-05,3.9495,7.9573e-05,0.0021981,-0.00024166,-2413.6,1.1871
17970,13.542,2,0.05,8.3743e-07,8.3685,6.4304e-07,4.8315,3.6448e-12,6.11e-06,-6.4305e-07,-4.8316,1.1873
17971,13.817,2,0,0.00023461,2344.4,7.7853e-05,5.1897,7.7163e-05,0.0036624,-0.00023452,-2341.8,1.227
17972,13.725,1.9091,0,0.000237,2368.4,7.8623e-05,4.9521,7.7965e-05,0.0029183,-0.00023691,-2365.9,1.2136
17973,13.725,2,0.05,8.3361e-07,8.3303,6.4011e-07,4.8095,3.6547e-12,7.2628e-06,-6.4011e-07,-4.8096,1.2137
17974,14,2,0,0.00022991,2297.5,7.6383e-05,6.1406,7.5566e-05,0.004085,-0.0002298,-2294.4,1.2537
17975,13.909,1.9091,0,0.00023229,2321.3,7.715e-05,5.9034,7.6364e-05,0.0034241,-0.00023219,-2318.4,1.2402
17976,13.909,2,0.05,8.2984e-07,8.2927,6.3721e-07,4.7877,3.6635e-12,7.7352e-06,-6.3722e-07,-4.7878,1.2403
17977,14.184,2,0,0.00022523,2250.7,7.4914e-05,7.0474,7.3977e-05,0.0044225,-0.00022511,-2247.2,1.2805
17978,14.092,1.9091,0,0.0002276,2274.5,7.5677e-05,6.8092,7.4772e-05,0.0037823,-0.00022749,-2271,1.2669
17979,14.092,2,0.05,8.2611e-07,8.2554,6.3435e-07,4.7662,3.6722e-12,7.3814e-06,-6.3435e-07,-4.7663,1.267
17980,14.367,2,0,0.00022057,2204.1,7.3448e-05,7.916,7.2395e-05,0.0047263,-0.00022043,-2200.2,1.3075
17981,14.276,1.9091,0,0.00022293,2227.8,7.4208e-05,7.6752,7.3187e-05,0.0041112,-0.0002228,-2223.9,1.2938
17982,14.276,2,0.05,8.2241e-07,8.2185,6.3151e-07,4.7449,3.6797e-12,7.5048e-06,-6.3151e-07,-4.745,1.2939
17983,14.551,2,0,0.00021592,2157.7,7.1985e-05,8.7515,7.0821e-05,0.0049819,-0.00021577,-2153.3,1.3346
17984,14.459,1.9091,0,0.00021828,2181.3,7.2741e-05,8.5066,7.161e-05,0.0043974,-0.00021813,-2177,1.3209
17985,14.459,2,0.05,8.1877e-07,8.182,6.2871e-07,4.7239,3.6887e-12,7.6514e-06,-6.2872e-07,-4.7239,1.321
17986,14.734,2,0,0.0002113,2111.5,7.0526e-05,9.5592,6.9254e-05,0.0052081,-0.00021113,-2106.7,1.3619
17987,14.642,1.9091,0,0.00021364,2134.9,7.1278e-05,9.3084,7.004e-05,0.0046242,-0.00021348,-2130.2,1.3481
17988,14.642,2,0.05,8.1516e-07,8.146,6.2594e-07,4.703,1.8776e-12,6.2851e-06,-6.2594e-07,-4.7031,1.3482
17989,14.918,2,0,0.00020669,2065.5,6.9071e-05,10.344,6.7695e-05,0.0054346,-0.00020651,-2060.3,1.3893
17990,14.826,1.9091,0,0.00020902,2088.8,6.9819e-05,10.086,6.8477e-05,0.004849,-0.00020885,-2083.7,1.3754
17991,14.826,2,0.05,8.1158e-07,8.1102,6.2319e-07,4.6824,3.7042e-12,5.1487e-06,-6.232e-07,-4.6825,1.3755
17992,15.101,2,0,0.0002021,2019.6,6.762e-05,11.111,6.6142e-05,0.0056653,-0.00020191,-2014,1.4168
17993,15.009,1.9091,0,0.00020442,2042.8,6.8364e-05,10.843,6.6921e-05,0.0050748,-0.00020423,-2037.3,1.4029
17994,15.009,2,0.05,8.0804e-07,8.0748,6.2047e-07,4.6619,1.8926e-12,4.3579e-06,-6.2048e-07,-4.6621,1.403
17995,15.285,2,0,0.00019753,1973.9,6.6175e-05,11.865,6.4596e-05,0.0058873,-0.00019732,-1968,1.4445
17996,15.193,1.9091,0,0.00019984,1997,6.6914e-05,11.586,6.5373e-05,0.0053045,-0.00019964,-1991.2,1.4305
17997,15.193,2,0.05,8.0454e-07,8.0398,6.1778e-07,4.6417,3.7172e-12,3.5778e-06,-6.1779e-07,-4.6418,1.4306
17998,15.468,2,0,0.00019298,1928.4,6.4735e-05,12.61,6.3057e-05,0.0061003,-0.00019276,-1922.1,1.4723
17999,15.376,1.9091,0,0.00019528,1951.4,6.547e-05,12.318,6.3831e-05,0.0055116,-0.00019506,-1945.2,1.4583
18000,15.376,2,0.05,8.0107e-07,8.0052,6.1512e-07,4.6218,2.813e-12,5.1239e-06,-6.1513e-07,-4.6218,1.4584
18001,15.652,2,0,0.00018845,1883.2,6.3301e-05,13.352,6.1525e-05,0.0063191,-0.00018821,-1876.4,1.5003
18002,15.56,1.9091,0,0.00019073,1906,6.4031e-05,13.044,6.2296e-05,0.0057213,-0.00019051,-1899.5,1.4861
18003,15.56,2,0.05,7.9764e-07,7.9709,6.1248e-07,4.602,2.8175e-12,4.0192e-06,-6.1249e-07,-4.602,1.4862
18004,15.835,2,0,0.00018393,1838.1,6.1874e-05,14.094,5.9999e-05,0.006532,-0.00018369,-1831,1.5283
18005,15.743,1.9091,0,0.00018621,1860.8,6.2599e-05,13.769,6.0767e-05,0.0059385,-0.00018597,-1853.9,1.5142
18006,15.743,2,0.05,7.9424e-07,7.937,6.0988e-07,4.5824,2.8223e-12,2.1454e-06,-6.0988e-07,-4.5824,1.5143
18007,16.019,2,0,0.00017944,1793.2,6.0454e-05,14.841,5.848e-05,0.0067523,-0.00017918,-1785.7,1.5565
18008,15.927,1.9091,0,0.00018171,1815.8,6.1173e-05,14.496,5.9245e-05,0.0061351,-0.00018146,-1808.5,1.5423
18009,15.927,2,0.05,7.9088e-07,7.9033,6.0729e-07,4.5629,3.2838e-12,2.7929e-06,-6.073e-07,-4.563,1.5424
18010,16.202,2,0,0.00017497,1748.5,5.9041e-05,15.598,5.6966e-05,0.0069939,-0.0001747,-1740.6,1.5848
18011,16.11,1.9091,0,0.00017723,1771,5.9755e-05,15.23,5.7729e-05,0.0063666,-0.00017696,-1763.4,1.5705
18012,16.11,2,0.05,7.8754e-07,7.87,6.0473e-07,4.5437,3.2937e-12,2.9665e-06,-6.0474e-07,-4.5438,1.5706
18013,16.386,2,0,0.00017052,1704,5.7637e-05,16.37,5.5459e-05,0.0072313,-0.00017023,-1695.8,1.6133
18014,16.294,1.9091,0,0.00017276,1726.4,5.8345e-05,15.977,5.6219e-05,0.0066049,-0.00017249,-1718.4,1.5989
18015,16.294,2,0.05,7.8425e-07,7.8371,6.022e-07,4.5247,2.8476e-12,3.6279e-06,-6.0221e-07,-4.5248,1.599
18016,16.569,2,0,0.00016609,1659.7,5.6241e-05,17.16,5.3958e-05,0.0074715,-0.00016579,-1651.1,1.6418
18017,16.477,1.9091,0,0.00016832,1682.1,5.6942e-05,16.739,5.4715e-05,0.0068269,-0.00016803,-1673.6,1.6274
18018,16.477,2,0.05,7.8099e-07,7.8045,5.997e-07,4.5059,2.4019e-12,3.5648e-06,-5.9971e-07,-4.506,1.6275
18019,16.753,2,0,0.00016168,1615.7,5.4854e-05,17.975,5.2462e-05,0.0077333,-0.00016137,-1606.6,1.6705
18020,16.661,1.9091,0,0.0001639,1637.9,5.5549e-05,17.522,5.3218e-05,0.0070697,-0.0001636,-1629,1.656
18021,16.661,2,0.05,7.7776e-07,7.7723,5.9722e-07,4.4873,2.4098e-12,4.6128e-06,-5.9723e-07,-4.4874,1.6561
18022,16.936,2,0,0.00015729,1571.8,5.3476e-05,18.819,5.0973e-05,0.0080166,-0.00015696,-1562.4,1.6992
18023,16.844,1.9091,0,0.0001595,1593.9,5.4164e-05,18.331,5.1725e-05,0.0073343,-0.00015918,-1584.7,1.6847
18024,16.844,2,0.05,7.7457e-07,7.7404,5.9478e-07,4.4689,2.8784e-12,7.791e-06,-5.9478e-07,-4.469,1.6848
18025,17.119,2,0,0.00015293,1528.2,5.2109e-05,19.697,4.9488e-05,0.0083108,-0.00015258,-1518.3,1.7281
18026,17.028,1.9091,0,0.00015512,1550.2,5.2789e-05,19.171,5.0239e-05,0.007619,-0.00015479,-1540.5,1.7136
18027,17.028,2,0.05,7.7143e-07,7.709,5.9236e-07,4.4507,2.8874e-12,6.9185e-06,-5.9236e-07,-4.4508,1.7136
18028,17.303,2,0,0.00014858,1484.8,5.0751e-05,20.614,4.8009e-05,0.0086142,-0.00014822,-1474.4,1.7571
18029,17.211,1.9091,0,0.00015077,1506.6,5.1424e-05,20.046,4.8758e-05,0.0079037,-0.00015042,-1496.5,1.7425
18030,17.211,2,0.05,7.6833e-07,7.678,5.8998e-07,4.4328,2.8995e-12,7.1079e-06,-5.8998e-07,-4.4329,1.7426
18031,17.486,2,0,0.00014426,1441.6,4.9406e-05,21.577,4.6535e-05,0.0089382,-0.00014388,-1430.7,1.7862
18032,17.395,1.9091,0,0.00014643,1463.3,5.007e-05,20.962,4.7282e-05,0.0082068,-0.00014607,-1452.7,1.7715
18033,17.395,2,0.05,7.6527e-07,7.6474,5.8763e-07,4.4152,2.4528e-12,6.6025e-06,-5.8763e-07,-4.4153,1.7716
18034,17.67,2,0,0.00013997,1398.7,4.8071e-05,22.59,4.5066e-05,0.0092754,-0.00013957,-1387.3,1.8153
18035,17.578,1.9091,0,0.00014212,1420.2,4.8728e-05,21.924,4.5811e-05,0.0085322,-0.00014174,-1409.1,1.8006
18036,17.578,2,0.05,7.6226e-07,7.6173,5.8532e-07,4.3978,2.472e-12,8.6285e-06,-5.8532e-07,-4.3979,1.8007
18037,17.853,2,0,0.00013569,1356,4.675e-05,23.661,4.3602e-05,0.0096367,-0.00013527,-1344,1.8446
18038,17.762,1.9091,0,0.00013783,1377.4,4.7397e-05,22.939,4.4345e-05,0.0088594,-0.00013743,-1365.8,1.8299
18039,17.762,2,0.05,7.5929e-07,7.5877,5.8304e-07,4.3807,2.0293e-12,9.2101e-06,-5.8304e-07,-4.3808,1.8299
18040,18.037,2,0,0.00013144,1313.5,4.5441e-05,24.795,4.2142e-05,0.010032,-0.000131,-1300.9,1.874
18041,17.945,1.9091,0,0.00013357,1334.8,4.6078e-05,24.012,4.2884e-05,0.0092315,-0.00013314,-1322.6,1.8592
18042,17.945,2,0.05,7.5638e-07,7.5586,5.808e-07,4.3639,2.0393e-12,1.1666e-05,-5.8081e-07,-4.3639,1.8593
18043,18.22,2,0,0.00012721,1271.3,4.4146e-05,26,4.0687e-05,0.010445,-0.00012675,-1258.1,1.9034
18044,18.129,1.9091,0,0.00012933,1292.4,4.4773e-05,25.149,4.1427e-05,0.0096268,-0.00012888,-1279.6,1.8886
18045,18.129,2,0.05,7.5352e-07,7.53,5.7861e-07,4.3475,2.069e-12,8.4977e-06,-5.7861e-07,-4.3475,1.8887
18046,18.404,2,0,0.00012301,1229.3,4.2865e-05,27.282,3.9236e-05,0.010883,-0.00012252,-1215.4,1.9329
18047,18.312,1.9091,0,0.00012511,1250.2,4.3481e-05,26.359,3.9974e-05,0.01003,-0.00012464,-1236.8,1.9181
18048,18.312,2,0.05,7.5073e-07,7.5021,5.7646e-07,4.3313,2.0794e-12,9.3439e-06,-5.7647e-07,-4.3314,1.9181
18049,18.587,2,0,0.00011883,1187.5,4.16e-05,28.651,3.7788e-05,0.011361,-0.00011832,-1172.9,1.9625
18050,18.496,1.9091,0,0.00012092,1208.3,4.2204e-05,27.647,3.8526e-05,0.010475,-0.00012042,-1194.3,1.9477
18051,18.496,2,0.05,7.48e-07,7.4748,5.7437e-07,4.3156,2.5562e-12,8.3034e-06,-5.7437e-07,-4.3156,1.9477
18052,18.771,2,0,0.00011468,1146,4.0351e-05,30.113,3.6345e-05,0.011882,-0.00011414,-1130.7,1.9922
18053,18.679,1.9091,0,0.00011675,1166.7,4.0943e-05,29.022,3.7082e-05,0.01096,-0.00011623,-1151.9,1.9773
18054,18.679,2,0.05,7.4533e-07,7.4482,5.7232e-07,4.3002,2.119e-12,1.2057e-05,-5.7233e-07,-4.3002,1.9774
18055,18.954,2,0,0.00011056,1104.8,3.9119e-05,31.678,3.4904e-05,0.012442,-0.00010998,-1088.6,2.022
18056,18.863,1.9091,0,0.00011261,1125.3,3.9697e-05,30.491,3.5641e-05,0.011487,-0.00011206,-1109.7,2.007
18057,18.863,2,0.05,7.4275e-07,7.4224,5.7034e-07,4.2853,2.1249e-12,1.1062e-05,-5.7034e-07,-4.2853,2.0071
18058,19.138,2,0,0.00010646,1063.8,3.7905e-05,33.355,3.3467e-05,0.013041,-0.00010585,-1046.8,2.0519
18059,19.046,1.9091,0,0.00010849,1084.2,3.8469e-05,32.065,3.4203e-05,0.012048,-0.00010791,-1067.8,2.0368
18060,19.046,2,0.05,7.4025e-07,7.3974,5.6842e-07,4.2709,2.128e-12,1.1915e-05,-5.6842e-07,-4.2709,2.0369
18061,19.321,2,0,0.00010239,1023.2,3.671e-05,35.155,3.2033e-05,0.013695,-0.00010174,-1005.1,2.0818
18062,19.229,1.9091,0,0.0001044,1043.3,3.7258e-05,33.751,3.2768e-05,0.012654,-0.00010379,-1026,2.0667
18063,19.229,2,0.05,7.3784e-07,7.3733,5.6657e-07,4.257,2.1503e-12,1.0399e-05,-5.6657e-07,-4.257,2.0668
18064,19.505,2,0,9.8344e-05,982.76,3.5534e-05,37.088,3.06e-05,0.014401,-9.766e-05,-963.68,2.1117
18065,19.413,1.9091,0,0.00010034,1002.7,3.6067e-05,35.561,3.1336e-05,0.01332,-9.9686e-05,-984.44,2.0967
18066,19.413,2,0.05,7.3553e-07,7.3503,5.648e-07,4.2437,2.1801e-12,1.4405e-05,-5.648e-07,-4.2437,2.0967
18067,19.688,2,0,9.433e-05,942.65,3.4381e-05,39.166,2.917e-05,0.015173,-9.3602e-05,-922.45,2.1418
18068,19.596,1.9091,0,9.6305e-05,962.38,3.4896e-05,37.505,2.9906e-05,0.014031,-9.5612e-05,-943.08,2.1267
18069,19.596,2,0.05,7.3333e-07,7.3283,5.6311e-07,4.231,2.2036e-12,1.3435e-05,-5.6311e-07,-4.231,2.1267
18070,19.872,2,0,9.0346e-05,902.84,3.3249e-05,41.402,2.7741e-05,0.016027,-8.957e-05,-881.41,2.1719
18071,19.78,1.9091,0,9.23e-05,922.36,3.3746e-05,39.595,2.8478e-05,0.014826,-9.1562e-05,-901.92,2.1568
18072,19.78,2,0.05,7.3125e-07,7.3075,5.6151e-07,4.219,2.2258e-12,1.5524e-05,-5.6151e-07,-4.219,2.1568
18073,20.055,2,0,8.6393e-05,863.33,3.2142e-05,43.809,2.6313e-05,0.016958,-8.5564e-05,-840.59,2.2021
18074,19.963,1.9091,0,8.8325e-05,882.64,3.2618e-05,41.843,2.7051e-05,0.015702,-8.7538e-05,-860.97,2.1869
18075,19.963,2,0.05,7.293e-07,7.288,5.6001e-07,4.2077,2.2483e-12,1.5615e-05,-5.6001e-07,-4.2077,2.187
18076,20.239,2,0,8.2472e-05,824.15,3.106e-05,46.401,2.4886e-05,0.017985,-8.1584e-05,-799.96,2.2323
18077,20.147,1.9091,0,8.4381e-05,843.22,3.1515e-05,44.264,2.5626e-05,0.016649,-8.354e-05,-820.21,2.2171
18078,20.147,2,0.05,7.275e-07,7.27,5.5863e-07,4.1973,2.2655e-12,1.6686e-05,-5.5863e-07,-4.1973,2.2172
18079,20.422,2,0,7.8584e-05,785.3,3.0004e-05,49.195,2.3459e-05,0.01913,-7.7631e-05,-759.54,2.2626
18080,20.33,1.9091,0,8.0468e-05,804.13,3.0436e-05,46.871,2.4201e-05,0.017711,-7.9568e-05,-779.66,2.2474
18081,20.33,2,0.05,7.2586e-07,7.2536,5.5737e-07,4.1878,2.0515e-12,1.6855e-05,-5.5737e-07,-4.1879,2.2474
18082,20.606,2,0,7.4731e-05,746.8,2.8977e-05,52.207,2.2032e-05,0.020409,-7.3706e-05,-719.31,2.2929
18083,20.514,1.9091,0,7.659e-05,765.37,2.9385e-05,49.681,2.2775e-05,0.018894,-7.5623e-05,-739.31,2.2777
18084,20.514,2,0.05,7.244e-07,7.239,5.5625e-07,4.1794,2.0751e-12,1.3175e-05,-5.5625e-07,-4.1794,2.2777
18085,20.789,2,0,7.0915e-05,708.66,2.7981e-05,55.455,2.0603e-05,0.021839,-6.9808e-05,-679.29,2.3233
18086,20.697,1.9091,0,7.2746e-05,726.95,2.8362e-05,52.71,2.1349e-05,0.020222,-7.1705e-05,-699.16,2.308
18087,20.697,2,0.05,7.2314e-07,7.2264,5.5528e-07,4.1722,2.0753e-12,1.2147e-05,-5.5528e-07,-4.1722,2.3081
18088,20.973,2,0,6.7137e-05,670.9,2.7016e-05,58.959,1.9172e-05,0.023449,-6.5939e-05,-639.47,2.3537
18089,20.881,1.9091,0,6.8938e-05,688.91,2.737e-05,55.978,1.9922e-05,0.02171,-6.7815e-05,-659.2,2.3385
18090,20.881,2,0.05,7.2211e-07,7.2161,5.5449e-07,4.1662,2.283e-12,1.3519e-05,-5.5449e-07,-4.1663,2.3385
18091,21.156,2,0,6.3399e-05,633.55,2.6086e-05,62.74,1.7739e-05,0.025276,-6.2098e-05,-599.84,2.3842
18092,21.064,1.9091,0,6.5169e-05,651.24,2.6409e-05,59.504,1.8493e-05,0.023397,-6.3953e-05,-619.44,2.3689
18093,21.064,2,0.05,7.2134e-07,7.2084,5.539e-07,4.1618,2.0945e-12,1.571e-05,-5.539e-07,-4.1618,2.3689
18094,21.34,2,0,5.9704e-05,596.63,2.5192e-05,66.819,1.6302e-05,0.027363,-5.8286e-05,-560.4,2.4147
18095,21.248,1.9091,0,6.1442e-05,613.99,2.5484e-05,63.31,1.7061e-05,0.025323,-6.0119e-05,-579.87,2.3994
18096,21.248,2,0.05,7.2086e-07,7.2036,5.5353e-07,4.159,2.0528e-12,1.6896e-05,-5.5353e-07,-4.159,2.3994
18097,21.523,2,0,5.6056e-05,560.18,2.4336e-05,71.222,1.4861e-05,0.029774,-5.4504e-05,-521.15,2.4453
18098,21.431,1.9091,0,5.7758e-05,577.18,2.4594e-05,67.42,1.5625e-05,0.02753,-5.6314e-05,-540.5,2.4299
18099,21.431,2,0.05,7.207e-07,7.202,5.5341e-07,4.1581,2.0304e-12,1.4765e-05,-5.5341e-07,-4.1581,2.43
18100,21.706,2,0,5.2458e-05,524.22,2.3521e-05,75.974,1.3414e-05,0.032586,-5.0751e-05,-482.08,2.4759
18101,21.615,1.9091,0,5.4121e-05,540.84,2.3744e-05,71.858,1.4185e-05,0.030107,-5.2539e-05,-501.31,2.4605
18102,21.615,2,0.05,7.2091e-07,7.2041,5.5357e-07,4.1593,1.7183e-12,1.2198e-05,-5.5357e-07,-4.1593,2.4606
18103,21.89,2,0,4.8915e-05,488.81,2.275e-05,81.102,1.196e-05,0.035898,-4.7028e-05,-443.18,2.5065
18104,21.798,1.9091,0,5.0536e-05,505.01,2.2936e-05,76.652,1.2738e-05,0.033128,-4.8794e-05,-462.29,2.4911
18105,21.798,2,0.05,7.2155e-07,7.2105,5.5406e-07,4.163,1.5023e-12,1.4181e-05,-5.5406e-07,-4.163,2.4912
18106,22.073,2,0,4.5433e-05,454.01,2.2024e-05,86.634,1.0499e-05,0.039857,-4.3334e-05,-404.44,2.5372
18107,21.982,1.9091,0,4.7008e-05,469.76,2.2171e-05,81.832,1.1285e-05,0.036709,-4.5078e-05,-423.45,2.5218
18108,21.982,2,0.05,7.2267e-07,7.2217,5.5492e-07,4.1695,1.7154e-12,9.2933e-06,-5.5492e-07,-4.1695,2.5218
18109,22.257,2,0,4.2018e-05,419.89,2.1346e-05,92.598,9.028e-06,0.044671,-3.9669e-05,-365.85,2.5678
18110,22.165,1.9091,0,4.3544e-05,435.14,2.1454e-05,87.427,9.8233e-06,0.041039,-4.1392e-05,-384.77,2.5524
18111,22.165,2,0.05,7.2435e-07,7.2385,5.5621e-07,4.1791,1.2765e-12,1.1386e-05,-5.5621e-07,-4.1791,2.5525
18112,22.44,2,0,3.8681e-05,386.55,2.0719e-05,99.023,7.5463e-06,0.05066,-3.6033e-05,-327.39,2.5986
18113,22.349,1.9091,0,4.0152e-05,401.24,2.0786e-05,93.468,8.3519e-06,0.046351,-3.7736e-05,-346.24,2.5832
18114,22.349,2,0.05,7.2665e-07,7.2615,5.5798e-07,4.1924,1.2609e-12,1.3916e-05,-5.5798e-07,-4.1924,2.5832
18115,22.624,2,0,3.5435e-05,354.1,2.0143e-05,105.94,6.052e-06,0.058231,-3.2423e-05,-289.03,2.6293
18116,22.532,1.9091,0,3.6843e-05,368.18,2.017e-05,99.988,6.8691e-06,0.053062,-3.4109e-05,-307.84,2.6139
18117,22.532,2,0.05,7.2968e-07,7.2918,5.603e-07,4.2099,1.1696e-12,1.5371e-05,-5.603e-07,-4.2099,2.6139
18118,22.807,2,0,3.2296e-05,322.73,1.9622e-05,113.36,4.5435e-06,0.068389,-2.8837e-05,-250.74,2.66
18119,22.716,1.9091,0,3.3632e-05,336.09,1.9608e-05,107.02,5.3731e-06,0.061597,-3.0508e-05,-269.54,2.6446
18120,22.716,2,0.05,7.3352e-07,7.3301,5.6325e-07,4.232,1.0891e-12,9.8372e-06,-5.6325e-07,-4.232,2.6447
18121,22.991,2,0,2.9288e-05,292.67,1.9155e-05,121.32,3.0187e-06,0.081559,-2.5273e-05,-212.49,2.6908
18122,22.899,1.9091,0,3.054e-05,305.19,1.9102e-05,114.58,3.862e-06,0.073587,-2.6933e-05,-231.31,2.6754
18123,22.899,2,0.05,7.3826e-07,7.3775,5.6689e-07,4.2594,6.6398e-13,1.6846e-05,-5.6689e-07,-4.2594,2.6754
18124,23.174,2,0,2.6445e-05,264.26,1.8742e-05,129.83,1.4764e-06,0.10392,-2.1725e-05,-174.23,2.7216
18125,23.083,1.9091,0,2.7596e-05,275.76,1.8653e-05,122.7,2.3337e-06,0.088378,-2.3379e-05,-193.1,2.7062
18126,23.083,2,0.05,7.4399e-07,7.4347,5.7129e-07,4.2925,7.2967e-13,1.4716e-05,-5.7129e-07,-4.2924,2.7062
18127,23.358,2,0,2.3814e-05,237.98,1.8382e-05,138.89,-8.6162e-08,0.12647,-1.819e-05,-135.9,2.7524
18128,23.266,1.9091,0,2.4838e-05,248.21,1.826e-05,131.4,7.8727e-07,0.11933,-1.9842e-05,-154.88,2.737
18129,23.266,2,0.05,7.5077e-07,7.5025,5.7649e-07,4.3316,5.7915e-13,8.7842e-06,-5.7649e-07,-4.3316,2.737
18130,23.541,2,0,2.1467e-05,214.52,1.8073e-05,148.52,-1.6644e-06,0.22148,-1.4664e-05,-97.45,2.7833
18131,23.45,1.9091,0,2.2325e-05,223.1,1.7921e-05,140.66,-7.8173e-07,0.1363,-1.6316e-05,-116.58,2.7678
18132,23.45,2,0.05,7.586e-07,7.5808,5.8251e-07,4.3768,2.206e-13,5.7955e-06,-5.8251e-07,-4.3768,2.7678
18133,23.725,2,0,1.9497e-05,194.84,1.7814e-05,158.65,-3.2722e-06,0.21583,-1.114e-05,-58.902,2.8141
18134,23.633,1.9091,0,2.0141e-05,201.27,1.7635e-05,150.55,-2.3596e-06,0.31899,-1.2801e-05,-78.132,2.7986
18135,23.633,2,0.05,7.6772e-07,7.6719,5.8952e-07,4.4294,1.8301e-13,9.3704e-06,-5.8952e-07,-4.4294,2.7987
18136,23.817,1.9091,0,1.8401e-05,183.88,1.7401e-05,160.85,-3.982e-06,0.188,-9.2909e-06,-39.701,2.8295
18137,23.817,2,0.05,7.8285e-07,7.8231,6.0113e-07,4.5167,2.6537e-13,9.9715e-06,-6.0113e-07,-4.5166,2.8295
18138,23.908,2,0,1.8076e-05,180.64,1.7595e-05,168.6,-4.7863e-06,0.43282,-7.8183e-06,-22.349,2.8449
18139,3.5419,1.8182,0,0.0010529,10522,0.00058823,2959.3,0.00018188,-93.809,-0.00097037,-8751.4,0.083932
18140,3.4501,1.7273,0,0.0010757,10749,0.00067442,4007,0.0001289,-91.731,-0.00094871,-8188.5,0.077045
18141,3.4501,1.8182,0.05,9.1717e-05,916.53,7.0427e-05,529.16,-2.3751e-10,-0.0024507,-7.0427e-05,-529.16,0.077885
18142,3.3584,1.8182,0,0.0010661,10654,0.00074104,4811.6,4.5596e-05,-413.71,-0.00089034,-7446,0.072084
18143,3.7254,1.8182,0,0.00081309,8125.3,0.00036954,1239.8,0.0002046,0.60553,-0.00078486,-7433.9,0.09619
18144,3.6336,1.7273,0,0.00081797,8174.1,0.00041717,1827.7,0.00017503,8.3568,-0.0007714,-7102.8,0.089289
18145,3.6336,1.8182,0.05,3.0778e-05,307.57,2.3634e-05,177.58,-1.5708e-10,-0.0017825,-2.3634e-05,-177.58,0.089941
18146,3.9088,1.8182,0,0.00070038,6999,0.00027507,526.81,0.00020379,-8.7574,-0.00069003,-6724.6,0.10887
18147,3.8171,1.7273,0,0.00069914,6986.6,0.00030307,875.04,0.00018489,-12.963,-0.00068023,-6513.1,0.10189
18148,3.8171,1.8182,0.05,1.4257e-05,142.47,1.0948e-05,82.256,-8.2337e-11,-0.001078,-1.0948e-05,-82.256,0.10241
18149,4.0923,1.8182,0,0.00063445,6340.2,0.00022575,191.02,0.00019899,-10.003,-0.00063114,-6247.3,0.12196
18150,4.0006,1.7273,0,0.00063176,6313.2,0.00024287,412.66,0.00018727,-5.1221,-0.00062379,-6099.1,0.11486
18151,4.0006,1.8182,0.05,1.0301e-05,102.94,7.9101e-06,59.433,-7.7921e-11,-0.0008573,-7.91e-06,-59.433,0.1153
18152,4.2758,1.8182,0,0.00059033,5899.3,0.00019927,30.087,0.00019001,-39.547,-0.00059046,-5903.7,0.13544
18153,4.1841,1.7273,0,0.00058717,5867.7,0.00020691,151.99,0.00018534,-10.049,-0.00058459,-5795,0.12821
18154,4.1841,1.8182,0.05,8.0273e-06,80.218,6.164e-06,46.314,-6.7691e-11,-0.00065683,-6.164e-06,-46.314,0.12859
18155,4.4593,1.8182,0,0.00055901,5586.2,0.00019113,6.3151,0.00017372,-124.53,-0.0005609,-5644.2,0.1493
18156,4.3676,1.7273,0,0.0005564,5560.1,0.00018756,25.966,0.0001793,-36.107,-0.00055654,-5564.9,0.14194
18157,4.3676,1.8182,0.05,6.4387e-06,64.343,4.9442e-06,37.148,-5.8583e-11,-0.00061081,-4.9441e-06,-37.148,0.14227
18158,4.6428,1.8182,0,0.00053559,5352.2,0.00018599,2.9161,0.0001612,-183.39,-0.00053842,-5440,0.16354
18159,4.551,1.7273,0,0.00053385,5334.8,0.00018188,5.9092,0.00016699,-105.97,-0.00053546,-5383.9,0.15602
18160,4.551,1.8182,0.05,5.3004e-06,52.967,4.07e-06,30.58,-4.7943e-11,-0.00050032,-4.07e-06,-30.581,0.15632
18161,4.8263,1.8182,0,0.00051732,5169.7,0.00018147,1.7322,0.00015243,-216.44,-0.00052063,-5273.6,0.17812
18162,4.7345,1.7273,0,0.00051654,5161.8,0.00017832,2.8009,0.00015728,-155.27,-0.00051895,-5236.2,0.17046
18163,4.7345,1.8182,0.05,4.436e-06,44.33,3.4063e-06,25.594,-3.8037e-11,-0.00040447,-3.4063e-06,-25.594,0.17073
18164,5.0097,1.8182,0,0.00050254,5021.9,0.00017734,1.135,0.00014618,-232.92,-0.00050607,-5133.7,0.19306
18165,4.918,1.7273,0,0.00050264,5022.9,0.00017503,1.6563,0.00015034,-183.83,-0.00050548,-5111.4,0.18524
18166,4.918,1.8182,0.05,3.7602e-06,37.576,2.8873e-06,21.694,-2.6386e-11,-0.00035923,-2.8873e-06,-21.694,0.1855
18167,5.1932,1.8182,0,0.0004902,4898.6,0.00017352,0.78691,0.00014162,-238.9,-0.00049381,-5013.2,0.20834
18168,5.1015,1.7273,0,0.00049105,4907.1,0.00017188,1.086,0.00014528,-198.81,-0.00049411,-5002.9,0.20036
18169,5.1015,1.8182,0.05,3.2205e-06,32.183,2.473e-06,18.581,-3.0708e-11,-0.00031224,-2.473e-06,-18.581,0.20061
18170,5.3767,1.8182,0,0.00047961,4792.8,0.00016997,0.56219,0.00013819,-238.18,-0.0004832,-4907.1,0.22395
18171,5.285,1.7273,0,0.00048107,4807.4,0.00016886,0.74909,0.00014147,-205.04,-0.00048422,-4906.2,0.21581
18172,5.285,1.8182,0.05,2.785e-06,27.831,2.1385e-06,16.068,-1.9798e-11,-0.00022677,-2.1385e-06,-16.068,0.21605
18173,5.5602,1.8182,0,0.00047032,4700,0.00016665,0.4096,0.00013556,-233.19,-0.00047385,-4812,0.23988
18174,5.4684,1.7273,0,0.00047226,4719.3,0.00016596,0.53322,0.00013853,-205.6,-0.00047541,-4818.5,0.23159
18175,5.4684,1.8182,0.05,2.4318e-06,24.302,1.8673e-06,14.03,-1.3905e-11,-0.00017877,-1.8673e-06,-14.031,0.23183
18176,5.7437,1.8182,0,0.00046202,4617,0.00016352,0.3022,0.00013347,-225.47,-0.00046543,-4725.4,0.25613
18177,5.6519,1.7273,0,0.00046431,4639.9,0.00016317,0.38704,0.00013618,-202.44,-0.00046741,-4737.6,0.24769
18178,5.6519,1.8182,0.05,2.1453e-06,21.438,1.6473e-06,12.377,-1.2215e-11,-0.0001607,-1.6473e-06,-12.378,0.24792
18179,5.9271,1.8182,0,0.00045446,4541.5,0.00016056,0.225,0.00013178,-216.04,-0.00045775,-4645.5,0.2727
18180,5.8354,1.7273,0,0.00045701,4566.9,0.00016048,0.28484,0.00013425,-196.8,-0.00046003,-4662,0.2641
18181,5.8354,1.8182,0.05,1.9134e-06,19.121,1.4693e-06,11.039,-9.0014e-12,-9.4374e-05,-1.4693e-06,-11.039,0.26433
18182,6.1106,1.8182,0,0.00044749,4471.8,0.00015775,0.16869,0.00013037,-205.58,-0.00045063,-4570.9,0.28957
18183,6.0189,1.7273,0,0.00045021,4499,0.00015788,0.21177,0.00013262,-189.54,-0.00045313,-4590.6,0.28082
18184,6.0189,1.8182,0.05,1.7264e-06,17.252,1.3256e-06,9.9602,-4.0287e-12,-6.0784e-05,-1.3256e-06,-9.9603,0.28105
18185,6.2941,1.8182,0,0.00044096,4406.6,0.00015506,0.12721,0.00012915,-194.55,-0.00044395,-4500.6,0.30675
18186,6.2024,1.7273,0,0.00044381,4435,0.00015535,0.15877,0.00013121,-181.22,-0.00044661,-4522.7,0.29785
18187,6.2024,1.8182,0.05,1.5761e-06,15.75,1.2103e-06,9.0934,-7.0093e-13,-7.1097e-05,-1.2103e-06,-9.0936,0.29808
18188,6.4776,1.8182,0,0.0004348,4345,0.00015247,0.096443,0.00012807,-183.29,-0.00043762,-4433.7,0.32422
18189,6.3858,1.7273,0,0.00043771,4374.1,0.0001529,0.11989,0.00012996,-172.25,-0.00044038,-4457.6,0.31518
18190,6.3858,1.8182,0.05,1.4559e-06,14.549,1.1179e-06,8.3997,-7.1023e-13,-5.5613e-05,-1.118e-06,-8.3999,0.31541
18191,6.6611,1.8182,0,0.0004289,4286.1,0.00014998,0.07349,0.00012707,-172.02,-0.00043157,-4369.5,0.34199
18192,6.5693,1.7273,0,0.00043186,4315.6,0.00015051,0.091139,0.00012882,-162.93,-0.0004344,-4394.7,0.3328
18193,6.5693,1.8182,0.05,1.3599e-06,13.59,1.0442e-06,7.8459,2.5868e-12,-4.7631e-05,-1.0442e-06,-7.8461,0.33303
18194,6.8445,1.8182,0,0.00042323,4229.3,0.00014756,0.056295,0.00012614,-160.92,-0.00042573,-4307.5,0.36006
18195,6.7528,1.7273,0,0.00042619,4259,0.00014818,0.069734,0.00012775,-153.47,-0.0004286,-4333.6,0.35072
18196,6.7528,1.8182,0.05,1.2833e-06,12.824,9.8542e-07,7.404,3.8334e-12,-3.1517e-05,-9.8543e-07,-7.4042,0.35095
18197,7.028,1.8182,0,0.00041772,4174.3,0.00014522,0.043369,0.00012524,-150.1,-0.00042007,-4247.3,0.3784
18198,6.9363,1.7273,0,0.00042068,4203.9,0.0001459,0.053711,0.00012673,-144.02,-0.00042295,-4274.1,0.36893
18199,6.9363,1.8182,0.05,1.2221e-06,12.212,9.3841e-07,7.0508,5.5498e-12,-2.3766e-05,-9.3842e-07,-7.051,0.36916
18200,7.2115,1.8182,0,0.00041234,4120.5,0.00014293,0.033623,0.00012434,-139.64,-0.00041453,-4188.5,0.39704
18201,7.1198,1.7273,0,0.00041529,4150.1,0.00014367,0.041658,0.00012573,-134.72,-0.00041742,-4215.8,0.38742
18202,7.1198,1.8182,0.05,1.173e-06,11.722,9.0069e-07,6.7673,2.9458e-12,-2.1116e-05,-9.0069e-07,-6.7675,0.38765
18203,7.395,1.8182,0,0.00040706,4067.7,0.0001407,0.026258,0.00012345,-129.6,-0.0004091,-4131,0.41595
18204,7.3032,1.7273,0,0.00041,4097.1,0.00014148,0.032555,0.00012475,-125.64,-0.00041199,-4158.5,0.40619
18205,7.3032,1.8182,0.05,1.1333e-06,11.325,8.7021e-07,6.5385,4.6932e-12,-8.038e-06,-8.7023e-07,-6.5386,0.40642
18206,7.5785,1.8182,0,0.00040185,4015.7,0.00013851,0.020682,0.00012254,-120.02,-0.00040376,-4074.4,0.43513
18207,7.4867,1.7273,0,0.00040477,4044.9,0.00013932,0.025656,0.00012377,-116.85,-0.00040663,-4102,0.42524
18208,7.4867,1.8182,0.05,1.101e-06,11.002,8.454e-07,6.3519,6.638e-12,-8.3699e-06,-8.454e-07,-6.3521,0.42547
18209,7.7619,1.8182,0,0.00039671,3964.3,0.00013637,0.016456,0.00012161,-110.92,-0.00039848,-4018.6,0.45459
18210,7.6702,1.7273,0,0.0003996,3993.2,0.0001372,0.020411,0.00012277,-108.41,-0.00040133,-4046.3,0.44456
18211,7.6702,1.8182,0.05,1.0743e-06,10.736,8.2496e-07,6.1984,4.3622e-12,-7.1017e-06,-8.2497e-07,-6.1985,0.44479
18212,7.9454,1.8182,0,0.00039161,3913.4,0.00013427,0.013252,0.00012065,-102.3,-0.00039325,-3963.5,0.47431
18213,7.8537,1.7273,0,0.00039447,3942,0.00013512,0.016416,0.00012176,-100.34,-0.00039608,-3991.2,0.46415
18214,7.8537,1.8182,0.05,1.0522e-06,10.514,8.0793e-07,6.0704,3.9574e-12,-9.2191e-06,-8.0794e-07,-6.0706,0.46438
18215,8.1289,1.8182,0,0.00038654,3862.7,0.0001322,0.010824,0.00011966,-94.173,-0.00038805,-3908.9,0.4943
18216,8.0372,1.7273,0,0.00038938,3891.1,0.00013306,0.013367,0.00012073,-92.651,-0.00039087,-3936.6,0.48401
18217,8.0372,1.8182,0.05,1.0334e-06,10.327,7.9355e-07,5.9624,5.4266e-12,-6.347e-06,-7.9357e-07,-5.9626,0.48424
18218,8.3124,1.8182,0,0.0003815,3812.3,0.00013016,0.0089869,0.00011864,-86.529,-0.00038289,-3854.9,0.51456
18219,8.2206,1.7273,0,0.00038431,3840.5,0.00013103,0.01104,0.00011967,-85.368,-0.0003857,-3882.5,0.50414
18220,8.2206,1.8182,0.05,1.0174e-06,10.167,7.8125e-07,5.87,4.9853e-12,-4.639e-06,-7.8127e-07,-5.8702,0.50436
18221,8.4959,1.8182,0,0.00037647,3762.1,0.00012815,0.0076019,0.00011758,-79.356,-0.00037776,-3801.2,0.53507
18222,8.4041,1.7273,0,0.00037927,3790.1,0.00012903,0.0092632,0.00011858,-78.486,-0.00038054,-3828.7,0.52452
18223,8.4041,1.8182,0.05,1.0035e-06,10.028,7.7058e-07,5.7899,5.3057e-12,-5.3156e-06,-7.706e-07,-5.79,0.52475
18224,8.6794,1.8182,0,0.00037146,3712.1,0.00012616,0.0065628,0.0001165,-72.638,-0.00037265,-3747.9,0.55583
18225,8.5876,1.7273,0,0.00037424,3739.8,0.00012705,0.0079096,0.00011746,-72.003,-0.00037541,-3775.3,0.54516
18226,8.5876,1.8182,0.05,9.9132e-07,9.9064,7.6121e-07,5.7194,4.7229e-12,-4.3613e-06,-7.6122e-07,-5.7195,0.54538
18227,8.8628,1.8182,0,0.00036647,3662.1,0.00012421,0.0057895,0.00011537,-66.357,-0.00036755,-3694.9,0.57684
18228,8.7711,1.7273,0,0.00036922,3689.6,0.00012509,0.006882,0.00011632,-65.911,-0.00037029,-3722.1,0.56605
18229,8.7711,1.8182,0.05,9.8045e-07,9.7978,7.5286e-07,5.6566,4.9561e-12,-4.3401e-06,-7.5287e-07,-5.6568,0.56627
18230,9.0463,1.8182,0,0.00036148,3612.3,0.00012227,0.0052211,0.00011422,-60.494,-0.00036247,-3642.1,0.59811
18231,8.9546,1.7273,0,0.00036421,3639.5,0.00012316,0.0061064,0.00011515,-60.199,-0.00036519,-3669.3,0.58719
18232,8.9546,1.8182,0.05,9.7066e-07,9.6999,7.4534e-07,5.6002,5.1417e-12,-3.627e-06,-7.4535e-07,-5.6003,0.58741
18233,9.2298,1.8182,0,0.00035649,3562.5,0.00012036,0.0048113,0.00011303,-55.028,-0.0003574,-3589.7,0.61961
18234,9.1381,1.7273,0,0.0003592,3589.6,0.00012124,0.0055262,0.00011394,-54.852,-0.00036011,-3616.7,0.60858
18235,9.1381,1.8182,0.05,9.6174e-07,9.6108,7.3849e-07,5.5487,6.1564e-12,-3.4439e-06,-7.3851e-07,-5.5488,0.6088
18236,9.4133,1.8182,0,0.00035152,3512.7,0.00011847,0.004524,0.00011182,-49.938,-0.00035234,-3537.4,0.64136
18237,9.3215,1.7273,0,0.00035421,3539.6,0.00011935,0.0050991,0.00011271,-49.854,-0.00035503,-3564.3,0.63021
18238,9.3215,1.8182,0.05,9.5354e-07,9.5288,7.3219e-07,5.5014,6.3719e-12,-2.8089e-06,-7.322e-07,-5.5015,0.63043
18239,9.5968,1.8182,0,0.00034654,3463.1,0.00011659,0.0043331,0.00011058,-45.201,-0.00034729,-3485.4,0.66334
18240,9.505,1.7273,0,0.00034922,3489.8,0.00011747,0.0047906,0.00011146,-45.19,-0.00034997,-3512.2,0.65208
18241,9.505,1.8182,0.05,9.4593e-07,9.4528,7.2635e-07,5.4575,5.5617e-12,-4.221e-06,-7.2636e-07,-5.4576,0.65229
18242,9.7802,1.8182,0,0.00034158,3413.4,0.00011474,0.0042157,0.00010931,-40.797,-0.00034225,-3433.6,0.68556
18243,9.6885,1.7273,0,0.00034424,3440,0.00011562,0.0045795,0.00011018,-40.842,-0.00034491,-3460.2,0.67418
18244,9.6885,1.8182,0.05,9.3882e-07,9.3817,7.2089e-07,5.4165,4.7447e-12,-2.9202e-06,-7.209e-07,-5.4166,0.67439
18245,9.9637,1.8182,0,0.00033662,3363.9,0.0001129,0.0041611,0.00010801,-36.705,-0.00033723,-3382.1,0.70801
18246,9.872,1.7273,0,0.00033926,3390.3,0.00011377,0.0044374,0.00010888,-36.792,-0.00033987,-3408.5,0.69652
18247,9.872,1.8182,0.05,9.3212e-07,9.3148,7.1575e-07,5.3778,3.921e-12,-2.4584e-06,-7.1576e-07,-5.378,0.69673
18248,10.147,1.8182,0,0.00033166,3314.3,0.00011107,0.0041588,0.00010669,-32.904,-0.00033221,-3330.7,0.73068
18249,10.055,1.7273,0,0.00033429,3340.6,0.00011195,0.0043692,0.00010755,-33.023,-0.00033484,-3357,0.71908
18250,10.055,1.8182,0.05,9.2578e-07,9.2514,7.1088e-07,5.3412,4.9215e-12,-2.3638e-06,-7.1089e-07,-5.3414,0.71929
18251,10.331,1.8182,0,0.00032671,3264.9,0.00010927,0.0041784,0.00010536,-29.375,-0.0003272,-3279.5,0.75358
18252,10.239,1.7273,0,0.00032933,3291,0.00011014,0.004347,0.00010621,-29.517,-0.00032982,-3305.7,0.74187
18253,10.239,1.8182,0.05,9.1975e-07,9.1912,7.0625e-07,5.3065,4.9656e-12,-1.1776e-06,-7.0626e-07,-5.3066,0.74208
18254,10.514,1.8182,0,0.00032177,3215.5,0.00010748,0.0042237,0.000104,-26.099,-0.00032221,-3228.5,0.7767
18255,10.422,1.7273,0,0.00032438,3241.5,0.00010834,0.0043362,0.00010485,-26.257,-0.00032481,-3254.6,0.76488
18256,10.422,1.8182,0.05,9.1398e-07,9.1335,7.0182e-07,5.2731,4.1222e-12,1.0801e-07,-7.0183e-07,-5.2733,0.76509
18257,10.698,1.8182,0,0.00031684,3166.2,0.0001057,0.0043152,0.00010263,-23.059,-0.00031722,-3177.7,0.80004
18258,10.606,1.7273,0,0.00031943,3192.1,0.00010656,0.0043786,0.00010347,-23.228,-0.00031982,-3203.6,0.78811
18259,10.606,1.8182,0.05,9.0844e-07,9.0781,6.9756e-07,5.2412,5.0874e-12,7.5716e-07,-6.9757e-07,-5.2413,0.78831
18260,10.881,1.8182,0,0.00031191,3117,0.00010393,0.0044535,0.00010124,-20.237,-0.00031225,-3127,0.82359
18261,10.789,1.7273,0,0.00031449,3142.7,0.00010479,0.0044736,0.00010207,-20.414,-0.00031483,-3152.9,0.81156
18262,10.789,1.8182,0.05,9.0309e-07,9.0247,6.9346e-07,5.2103,3.3071e-12,2.9574e-07,-6.9347e-07,-5.2105,0.81176
18263,11.065,1.8182,0,0.00030699,3067.8,0.00010218,0.0046082,9.9834e-05,-17.618,-0.00030729,-3076.6,0.84735
18264,10.973,1.7273,0,0.00030956,3093.5,0.00010304,0.0046235,0.00010067,-17.798,-0.00030986,-3102.3,0.83522
18265,10.973,1.8182,0.05,8.9794e-07,8.9732,6.895e-07,5.1806,6.0735e-12,7.161e-07,-6.8951e-07,-5.1807,0.83541
18266,11.248,1.8182,0,0.00030208,3018.8,0.00010044,0.0047722,9.8418e-05,-15.186,-0.00030234,-3026.3,0.87131
18267,11.156,1.7273,0,0.00030464,3044.3,0.00010129,0.0047662,9.9245e-05,-15.369,-0.0003049,-3051.9,0.85908
18268,11.156,1.8182,0.05,8.9295e-07,8.9233,6.8567e-07,5.1518,3.3823e-12,1.0559e-06,-6.8568e-07,-5.1519,0.85928
18269,11.432,1.8182,0,0.00029719,2969.8,9.8712e-05,0.0049988,9.699e-05,-12.928,-0.0002974,-2976.3,0.89548
18270,11.34,1.7273,0,0.00029973,2995.2,9.956e-05,0.0049523,9.7814e-05,-13.111,-0.00029995,-3001.8,0.88315
18271,11.34,1.8182,0.05,8.8809e-07,8.8748,6.8194e-07,5.1238,4.3151e-12,1.7751e-06,-6.8195e-07,-5.1239,0.88334
18272,11.615,1.8182,0,0.0002923,2921,9.6995e-05,0.0052809,9.5553e-05,-10.83,-0.00029248,-2926.4,0.91985
18273,11.523,1.7273,0,0.00029483,2946.3,9.7839e-05,0.0052445,9.6373e-05,-11.012,-0.00029502,-2951.8,0.90743
18274,11.523,1.8182,0.05,8.8337e-07,8.8276,6.7831e-07,5.0965,5.2597e-12,1.7491e-06,-6.7832e-07,-5.0967,0.90762
18275,11.799,1.8182,0,0.00028742,2872.2,9.529e-05,0.0056225,9.4107e-05,-8.8801,-0.00028757,-2876.7,0.94442
18276,11.707,1.7273,0,0.00028994,2897.4,9.613e-05,0.0055779,9.4924e-05,-9.0603,-0.0002901,-2901.9,0.9319
18277,11.707,1.8182,0.05,8.7876e-07,8.7816,6.7478e-07,5.07,3.4683e-12,2.1151e-06,-6.7479e-07,-5.0701,0.93208
18278,11.982,1.8182,0,0.00028256,2823.6,9.3595e-05,0.0060904,9.2653e-05,-7.0663,-0.00028268,-2827.2,0.96918
18279,11.89,1.7273,0,0.00028507,2848.7,9.4432e-05,0.0060463,9.3467e-05,-7.2443,-0.00028519,-2852.3,0.95657
18280,11.89,1.8182,0.05,8.7426e-07,8.7366,6.7132e-07,5.044,4.4019e-12,3.6334e-06,-6.7133e-07,-5.0441,0.95675
18281,12.165,1.8182,0,0.00027771,2775.2,9.191e-05,0.0067559,9.1194e-05,-5.3778,-0.0002778,-2777.8,0.99413
18282,12.074,1.7273,0,0.00028021,2800.1,9.2743e-05,0.006739,9.2003e-05,-5.5534,-0.0002803,-2802.9,0.98142
18283,12.074,1.8182,0.05,8.6986e-07,8.6926,6.6794e-07,5.0186,3.5183e-12,3.2469e-06,-6.6795e-07,-5.0188,0.9816
18284,12.349,1.8182,0,0.00027287,2726.8,9.0236e-05,0.0078523,8.9728e-05,-3.8046,-0.00027293,-2728.7,1.0193
18285,12.257,1.7273,0,0.00027536,2751.7,9.1065e-05,0.0078408,9.0535e-05,-3.9781,-0.00027542,-2753.6,1.0065
18286,12.257,1.8182,0.05,8.6555e-07,8.6495,6.6463e-07,4.9937,3.5386e-12,3.7211e-06,-6.6464e-07,-4.9939,1.0066
18287,12.532,1.8182,0,0.00026804,2678.6,8.8571e-05,0.010144,8.8259e-05,-2.3379,-0.00026808,-2679.8,1.0446
18288,12.441,1.7273,0,0.00027052,2703.3,8.9397e-05,0.010094,8.9062e-05,-2.5094,-0.00027056,-2704.6,1.0317
18289,12.441,1.8182,0.05,8.6131e-07,8.6071,6.6138e-07,4.9693,3.5582e-12,4.1174e-06,-6.6138e-07,-4.9694,1.0319
18290,12.716,1.8182,0,0.00026323,2630.5,8.6917e-05,0.018242,8.6785e-05,-0.97334,-0.00026325,-2631,1.0701
18291,12.624,1.7273,0,0.0002657,2655.2,8.7739e-05,0.017261,8.7584e-05,-1.1425,-0.00026572,-2655.7,1.0571
18292,12.624,1.8182,0.05,8.5714e-07,8.5655,6.5817e-07,4.9452,3.5806e-12,2.9208e-06,-6.5818e-07,-4.9454,1.0573
18293,12.899,1.8182,0,0.00025844,2582.6,8.5316e-05,0.36252,8.5264e-05,-0.0329,-0.00025843,-2582.4,1.0958
18294,12.808,1.7273,0,0.00026089,2607.1,8.6116e-05,0.22426,8.6078e-05,-0.063669,-0.00026089,-2607,1.0827
18295,12.808,1.8182,0.05,8.5305e-07,8.5246,6.5503e-07,4.9216,5.4139e-12,1.9195e-06,-6.5504e-07,-4.9218,1.0829
18296,13.083,1.8182,0,0.00025366,2534.8,8.3835e-05,1.5383,8.363e-05,-0.0040713,-0.00025363,-2534,1.1216
18297,12.991,1.7273,0,0.0002561,2559.2,8.4628e-05,1.3721,8.4445e-05,-0.0065569,-0.00025608,-2558.6,1.1085
18298,12.991,1.8182,0.05,8.4903e-07,8.4844,6.5194e-07,4.8984,3.6094e-12,2.6568e-06,-6.5195e-07,-4.8986,1.1086
18299,13.266,1.8182,0,0.00024889,2487.2,8.2357e-05,2.6665,8.2002e-05,-0.00026332,-0.00024885,-2485.9,1.1476
18300,13.175,1.7273,0,0.00025132,2511.5,8.3146e-05,2.4987,8.2813e-05,-0.0015573,-0.00025128,-2510.3,1.1344
18301,13.175,1.8182,0.05,8.4506e-07,8.4447,6.489e-07,4.8755,3.6233e-12,3.7946e-06,-6.489e-07,-4.8756,1.1346
18302,13.45,1.8182,0,0.00024414,2439.7,8.0878e-05,3.7312,8.0382e-05,0.0012822,-0.00024408,-2437.9,1.1738
18303,13.358,1.7273,0,0.00024656,2463.9,8.1664e-05,3.562,8.119e-05,0.00034097,-0.0002465,-2462.2,1.1605
18304,13.358,1.8182,0.05,8.4114e-07,8.4056,6.4589e-07,4.8529,4.5454e-12,5.1394e-06,-6.459e-07,-4.8531,1.1607
18305,13.633,1.8182,0,0.00023941,2392.4,7.94e-05,4.7375,7.877e-05,0.0021411,-0.00023933,-2390,1.2002
18306,13.542,1.7273,0,0.00024182,2416.5,8.0182e-05,4.566,7.9575e-05,0.0013407,-0.00024174,-2414.3,1.1868
18307,13.542,1.8182,0.05,8.3729e-07,8.3671,6.4293e-07,4.8307,3.6472e-12,5.9058e-06,-6.4294e-07,-4.8308,1.187
18308,13.817,1.8182,0,0.00023469,2345.3,7.7923e-05,5.6912,7.7166e-05,0.0027191,-0.00023459,-2342.4,1.2267
18309,13.725,1.7273,0,0.00023709,2369.3,7.8702e-05,5.5165,7.7968e-05,0.0019901,-0.000237,-2366.5,1.2132
18310,13.725,1.8182,0.05,8.3348e-07,8.329,6.4e-07,4.8087,3.6583e-12,7.0062e-06,-6.4001e-07,-4.8088,1.2134
18311,14,1.8182,0,0.00022999,2298.3,7.6448e-05,6.5979,7.557e-05,0.0031367,-0.00022988,-2295,1.2534
18312,13.909,1.7273,0,0.00023238,2322.2,7.7222e-05,6.4192,7.6368e-05,0.0024664,-0.00023227,-2319,1.2398
18313,13.909,1.8182,0.05,8.2971e-07,8.2914,6.3711e-07,4.787,3.668e-12,7.3516e-06,-6.3712e-07,-4.7871,1.24
18314,14.184,1.8182,0,0.00022531,2251.5,7.4975e-05,7.4633,7.3982e-05,0.0034725,-0.00022518,-2247.8,1.2802
18315,14.092,1.7273,0,0.00022769,2275.3,7.5746e-05,7.2792,7.4777e-05,0.0028079,-0.00022757,-2271.7,1.2666
18316,14.092,1.8182,0.05,8.2599e-07,8.2542,6.3426e-07,4.7655,3.6778e-12,7.1121e-06,-6.3426e-07,-4.7656,1.2667
18317,14.367,1.8182,0,0.00022064,2204.9,7.3505e-05,8.2925,7.2401e-05,0.003775,-0.0002205,-2200.8,1.3072
18318,14.276,1.7273,0,0.00022301,2228.6,7.4271e-05,8.102,7.3193e-05,0.0031247,-0.00022288,-2224.5,1.2935
18319,14.276,1.8182,0.05,8.223e-07,8.2174,6.3142e-07,4.7442,3.6869e-12,7.3282e-06,-6.3143e-07,-4.7444,1.2936
18320,14.551,1.8182,0,0.000216,2158.5,7.2038e-05,9.0907,7.0828e-05,0.0040262,-0.00021584,-2153.9,1.3343
18321,14.459,1.7273,0,0.00021836,2182.1,7.28e-05,8.8925,7.1617e-05,0.0034008,-0.0002182,-2177.6,1.3206
18322,14.459,1.8182,0.05,8.1866e-07,8.181,6.2863e-07,4.7233,3.6946e-12,7.4647e-06,-6.2864e-07,-4.7233,1.3207
18323,14.734,1.8182,0,0.00021137,2112.2,7.0575e-05,9.8627,6.9262e-05,0.0042471,-0.0002112,-2107.3,1.3616
18324,14.642,1.7273,0,0.00021372,2135.7,7.1333e-05,9.6554,7.0048e-05,0.003616,-0.00021355,-2130.9,1.3478
18325,14.642,1.8182,0.05,8.1506e-07,8.145,6.2586e-07,4.7024,4.6142e-12,6.2905e-06,-6.2587e-07,-4.7025,1.3479
18326,14.918,1.8182,0,0.00020676,2066.1,6.9116e-05,10.613,6.7704e-05,0.0044675,-0.00020657,-2060.8,1.389
18327,14.826,1.7273,0,0.0002091,2089.5,6.987e-05,10.395,6.8486e-05,0.0038304,-0.00020892,-2084.3,1.3751
18328,14.826,1.8182,0.05,8.1149e-07,8.1093,6.2312e-07,4.6818,3.7131e-12,5.1631e-06,-6.2312e-07,-4.6819,1.3752
18329,15.101,1.8182,0,0.00020217,2020.3,6.7662e-05,11.347,6.6152e-05,0.0046893,-0.00020197,-2014.6,1.4165
18330,15.009,1.7273,0,0.00020449,2043.5,6.8411e-05,11.117,6.6932e-05,0.0040425,-0.0002043,-2037.9,1.4026
18331,15.009,1.8182,0.05,8.0795e-07,8.0739,6.204e-07,4.6614,3.7194e-12,4.1961e-06,-6.2041e-07,-4.6615,1.4027
18332,15.285,1.8182,0,0.00019759,1974.6,6.6213e-05,12.068,6.4607e-05,0.0049016,-0.00019738,-1968.5,1.4442
18333,15.193,1.7273,0,0.00019991,1997.7,6.6957e-05,11.824,6.5384e-05,0.0042595,-0.00019971,-1991.8,1.4302
18334,15.193,1.8182,0.05,8.0445e-07,8.0389,6.1771e-07,4.6412,3.7276e-12,3.4223e-06,-6.1772e-07,-4.6413,1.4303
18335,15.468,1.8182,0,0.00019304,1929.1,6.477e-05,12.781,6.3069e-05,0.0051032,-0.00019282,-1922.6,1.4721
18336,15.376,1.7273,0,0.00019535,1952.1,6.5509e-05,12.522,6.3843e-05,0.0044514,-0.00019513,-1945.8,1.458
18337,15.376,1.8182,0.05,8.0099e-07,8.0044,6.1506e-07,4.6213,3.7307e-12,4.837e-06,-6.1506e-07,-4.6214,1.4581
18338,15.652,1.8182,0,0.00018851,1883.8,6.3333e-05,13.491,6.1538e-05,0.0053092,-0.00018827,-1877,1.5
18339,15.56,1.7273,0,0.0001908,1906.7,6.4067e-05,13.214,6.2309e-05,0.004646,-0.00019057,-1900,1.4859
18340,15.56,1.8182,0.05,7.9756e-07,7.9701,6.1242e-07,4.6015,3.7407e-12,3.6198e-06,-6.1243e-07,-4.6016,1.486
18341,15.835,1.8182,0,0.00018399,1838.6,6.1902e-05,14.201,6.0013e-05,0.0055083,-0.00018375,-1831.5,1.5281
18342,15.743,1.7273,0,0.00018628,1861.5,6.2631e-05,13.904,6.0781e-05,0.0048465,-0.00018603,-1854.5,1.5139
18343,15.743,1.8182,0.05,7.9416e-07,7.9361,6.0982e-07,4.5819,3.7382e-12,2.0578e-06,-6.0982e-07,-4.582,1.514
18344,16.019,1.8182,0,0.0001795,1793.7,6.0479e-05,14.916,5.8494e-05,0.0057143,-0.00017924,-1786.2,1.5563
18345,15.927,1.7273,0,0.00018177,1816.4,6.1202e-05,14.597,5.926e-05,0.0050247,-0.00018152,-1809.1,1.542
18346,15.927,1.8182,0.05,7.908e-07,7.9025,6.0723e-07,4.5625,3.7507e-12,1.8502e-06,-6.0724e-07,-4.5626,1.5421
18347,16.202,1.8182,0,0.00017502,1749,5.9062e-05,15.64,5.6982e-05,0.0059406,-0.00017475,-1741.1,1.5846
18348,16.11,1.7273,0,0.00017728,1771.6,5.978e-05,15.297,5.7745e-05,0.0052398,-0.00017702,-1763.9,1.5703
18349,16.11,1.8182,0.05,7.8746e-07,7.8692,6.0467e-07,4.5432,3.7617e-12,2.4587e-06,-6.0468e-07,-4.5433,1.5704
18350,16.386,1.8182,0,0.00017057,1704.5,5.7654e-05,16.378,5.5475e-05,0.0061618,-0.00017029,-1696.3,1.613
18351,16.294,1.7273,0,0.00017282,1727,5.8366e-05,16.008,5.6236e-05,0.0054586,-0.00017254,-1718.9,1.5987
18352,16.294,1.8182,0.05,7.8417e-07,7.8363,6.0214e-07,4.5243,3.3146e-12,2.9083e-06,-6.0215e-07,-4.5243,1.5988
18353,16.569,1.8182,0,0.00016614,1660.2,5.6254e-05,17.133,5.3975e-05,0.0063846,-0.00016584,-1651.6,1.6416
18354,16.477,1.7273,0,0.00016838,1682.6,5.696e-05,16.734,5.4733e-05,0.0056603,-0.00016808,-1674.2,1.6272
18355,16.477,1.8182,0.05,7.8091e-07,7.8037,5.9964e-07,4.5054,2.872e-12,3.0537e-06,-5.9964e-07,-4.5055,1.6273
18356,16.753,1.8182,0,0.00016173,1616.1,5.4863e-05,17.911,5.248e-05,0.0066284,-0.00016141,-1607.1,1.6703
18357,16.661,1.7273,0,0.00016395,1638.4,5.5562e-05,17.479,5.3236e-05,0.0058823,-0.00016365,-1629.6,1.6558
18358,16.661,1.8182,0.05,7.7768e-07,7.7715,5.9716e-07,4.4868,2.8734e-12,4.3463e-06,-5.9717e-07,-4.4869,1.6559
18359,16.936,1.8182,0,0.00015734,1572.3,5.3482e-05,18.717,5.0992e-05,0.0068926,-0.00015701,-1562.8,1.699
18360,16.844,1.7273,0,0.00015955,1594.4,5.4173e-05,18.248,5.1745e-05,0.0061252,-0.00015923,-1585.2,1.6845
18361,16.844,1.8182,0.05,7.7449e-07,7.7396,5.9471e-07,4.4684,2.4351e-12,7.4582e-06,-5.9472e-07,-4.4685,1.6846
18362,17.119,1.8182,0,0.00015297,1528.6,5.211e-05,19.554,4.9508e-05,0.007166,-0.00015263,-1518.7,1.7279
18363,17.028,1.7273,0,0.00015517,1550.6,5.2794e-05,19.046,5.026e-05,0.0063859,-0.00015484,-1541,1.7133
18364,17.028,1.8182,0.05,7.7134e-07,7.7081,5.9229e-07,4.4503,3.362e-12,6.6977e-06,-5.923e-07,-4.4503,1.7134
18365,17.303,1.8182,0,0.00014862,1485.2,5.0748e-05,20.428,4.803e-05,0.0074485,-0.00014826,-1474.9,1.7569
18366,17.211,1.7273,0,0.00015081,1507,5.1424e-05,19.876,4.878e-05,0.0066461,-0.00015046,-1497,1.7423
18367,17.211,1.8182,0.05,7.6824e-07,7.6771,5.8991e-07,4.4324,2.4632e-12,6.8118e-06,-5.8992e-07,-4.4324,1.7424
18368,17.486,1.8182,0,0.0001443,1442,4.9397e-05,21.344,4.6557e-05,0.0077509,-0.00014392,-1431.2,1.786
18369,17.395,1.7273,0,0.00014647,1463.7,5.0065e-05,20.745,4.7305e-05,0.0069232,-0.00014611,-1453.2,1.7713
18370,17.395,1.8182,0.05,7.6518e-07,7.6465,5.8756e-07,4.4147,3.3847e-12,6.4598e-06,-5.8756e-07,-4.4147,1.7714
18371,17.67,1.8182,0,0.00013999,1399,4.8057e-05,22.308,4.509e-05,0.0080642,-0.0001396,-1387.7,1.8151
18372,17.578,1.7273,0,0.00014216,1420.6,4.8717e-05,21.656,4.5835e-05,0.0072225,-0.00014178,-1409.6,1.8004
18373,17.578,1.8182,0.05,7.6216e-07,7.6164,5.8524e-07,4.3973,2.9451e-12,8.5322e-06,-5.8525e-07,-4.3973,1.8005
18374,17.853,1.8182,0,0.00013572,1356.2,4.673e-05,23.325,4.3627e-05,0.0084,-0.0001353,-1344.4,1.8444
18375,17.762,1.7273,0,0.00013786,1377.7,4.738e-05,22.616,4.4371e-05,0.0075212,-0.00013746,-1366.2,1.8297
18376,17.762,1.8182,0.05,7.5919e-07,7.5867,5.8297e-07,4.3802,2.0556e-12,9.1893e-06,-5.8297e-07,-4.3802,1.8298
18377,18.037,1.8182,0,0.00013146,1313.7,4.5415e-05,24.402,4.2168e-05,0.0087696,-0.00013103,-1301.3,1.8738
18378,17.945,1.7273,0,0.00013359,1335,4.6055e-05,23.63,4.2911e-05,0.0078633,-0.00013318,-1323,1.859
18379,17.945,1.8182,0.05,7.5627e-07,7.5575,5.8072e-07,4.3633,2.5217e-12,1.0924e-05,-5.8073e-07,-4.3634,1.8591
18380,18.22,1.8182,0,0.00012723,1271.4,4.4113e-05,25.545,4.0714e-05,0.0091531,-0.00012677,-1258.4,1.9032
18381,18.129,1.7273,0,0.00012935,1292.6,4.4743e-05,24.704,4.1456e-05,0.008227,-0.00012891,-1280,1.8884
18382,18.129,1.8182,0.05,7.5341e-07,7.5289,5.7853e-07,4.3468,2.0946e-12,7.5324e-06,-5.7853e-07,-4.3469,1.8885
18383,18.404,1.8182,0,0.00012302,1229.4,4.2825e-05,26.76,3.9265e-05,0.009561,-0.00012254,-1215.8,1.9328
18384,18.312,1.7273,0,0.00012512,1250.4,4.3443e-05,25.844,4.0005e-05,0.0085972,-0.00012466,-1237.3,1.9179
18385,18.312,1.8182,0.05,7.5061e-07,7.5009,5.7637e-07,4.3306,2.5542e-12,8.3307e-06,-5.7638e-07,-4.3307,1.918
18386,18.587,1.8182,0,0.00011884,1187.5,4.1552e-05,28.055,3.7819e-05,0.01001,-0.00011833,-1173.3,1.9624
18387,18.496,1.7273,0,0.00012093,1208.4,4.2158e-05,27.058,3.8558e-05,0.0090078,-0.00012044,-1194.7,1.9475
18388,18.496,1.8182,0.05,7.4787e-07,7.4735,5.7427e-07,4.3148,2.1297e-12,7.321e-06,-5.7427e-07,-4.3149,1.9475
18389,18.771,1.8182,0,0.00011468,1146,4.0294e-05,29.437,3.6377e-05,0.010497,-0.00011415,-1131,1.9921
18390,18.679,1.7273,0,0.00011675,1166.7,4.0888e-05,28.351,3.7116e-05,0.0094552,-0.00011624,-1152.3,1.9771
18391,18.679,1.8182,0.05,7.452e-07,7.4468,5.7222e-07,4.2994,2.1485e-12,1.1761e-05,-5.7222e-07,-4.2995,1.9772
18392,18.954,1.8182,0,0.00011055,1104.7,3.9052e-05,30.916,3.4939e-05,0.011022,-0.00010999,-1088.9,2.0219
18393,18.863,1.7273,0,0.0001126,1125.2,3.9632e-05,29.733,3.5677e-05,0.0099439,-0.00011207,-1110.1,2.0069
18394,18.863,1.8182,0.05,7.426e-07,7.4209,5.7023e-07,4.2845,2.6081e-12,1.0183e-05,-5.7023e-07,-4.2845,2.0069
18395,19.138,1.8182,0,0.00010644,1063.7,3.7827e-05,32.498,3.3504e-05,0.011587,-0.00010585,-1047,2.0517
18396,19.046,1.7273,0,0.00010848,1084,3.8393e-05,31.21,3.4241e-05,0.010463,-0.00010791,-1068.1,2.0367
18397,19.046,1.8182,0.05,7.4009e-07,7.3958,5.683e-07,4.27,2.16e-12,1.0702e-05,-5.683e-07,-4.27,2.0367
18398,19.321,1.8182,0,0.00010236,1022.9,3.6621e-05,34.195,3.2071e-05,0.012201,-0.00010173,-1005.3,2.0816
18399,19.229,1.7273,0,0.00010438,1043.1,3.7171e-05,32.791,3.2808e-05,0.011026,-0.00010378,-1026.3,2.0666
18400,19.229,1.8182,0.05,7.3767e-07,7.3716,5.6644e-07,4.256,2.6385e-12,9.6989e-06,-5.6644e-07,-4.256,2.0666
18401,19.505,1.8182,0,9.8305e-05,982.37,3.5433e-05,36.016,3.0641e-05,0.012867,-9.7643e-05,-963.87,2.1116
18402,19.413,1.7273,0,0.00010031,1002.4,3.5967e-05,34.487,3.1379e-05,0.011646,-9.9674e-05,-984.67,2.0965
18403,19.413,1.8182,0.05,7.3534e-07,7.3483,5.6465e-07,4.2426,2.2254e-12,1.4534e-05,-5.6465e-07,-4.2426,2.0966
18404,19.688,1.8182,0,9.428e-05,942.15,3.4266e-05,37.972,2.9214e-05,0.013597,-9.3577e-05,-922.59,2.1417
18405,19.596,1.7273,0,9.626e-05,961.94,3.4782e-05,36.306,2.9952e-05,0.012309,-9.5591e-05,-943.27,2.1265
18406,19.596,1.8182,0.05,7.3312e-07,7.3261,5.6294e-07,4.2297,2.2546e-12,1.3701e-05,-5.6295e-07,-4.2298,2.1266
18407,19.872,1.8182,0,9.0284e-05,902.22,3.312e-05,40.075,2.7788e-05,0.014408,-8.9536e-05,-881.51,2.1718
18408,19.78,1.7273,0,9.2243e-05,921.8,3.3617e-05,38.26,2.8527e-05,0.013053,-9.1533e-05,-902.07,2.1566
18409,19.78,1.8182,0.05,7.3101e-07,7.3051,5.6132e-07,4.2176,2.2745e-12,1.4793e-05,-5.6133e-07,-4.2176,2.1567
18410,20.055,1.8182,0,8.6318e-05,862.59,3.1996e-05,42.337,2.6363e-05,0.015293,-8.552e-05,-840.63,2.2019
18411,19.963,1.7273,0,8.8255e-05,881.94,3.2473e-05,40.36,2.7103e-05,0.013875,-8.7499e-05,-861.06,2.1868
18412,19.963,1.8182,0.05,7.2903e-07,7.2853,5.5981e-07,4.2062,2.3064e-12,1.5553e-05,-5.5981e-07,-4.2062,2.1868
18413,20.239,1.8182,0,8.2383e-05,823.26,3.0896e-05,44.772,2.494e-05,0.016269,-8.1529e-05,-799.95,2.2322
18414,20.147,1.7273,0,8.4296e-05,842.38,3.1352e-05,42.62,2.5681e-05,0.014765,-8.349e-05,-820.25,2.217
18415,20.147,1.8182,0.05,7.272e-07,7.2669,5.584e-07,4.1956,2.3089e-12,1.697e-05,-5.584e-07,-4.1956,2.217
18416,20.422,1.8182,0,7.8479e-05,784.25,2.9822e-05,47.395,2.3516e-05,0.017361,-7.7565e-05,-759.47,2.2625
18417,20.33,1.7273,0,8.0368e-05,803.13,3.0254e-05,45.052,2.426e-05,0.015767,-7.9506e-05,-779.64,2.2472
18418,20.33,1.8182,0.05,7.2551e-07,7.2501,5.571e-07,4.1859,2.3181e-12,1.67e-05,-5.5711e-07,-4.1859,2.2473
18419,20.606,1.8182,0,7.4609e-05,745.58,2.8775e-05,50.223,2.2093e-05,0.018585,-7.3628e-05,-719.19,2.2928
18420,20.514,1.7273,0,7.6472e-05,764.19,2.9181e-05,47.672,2.2839e-05,0.016887,-7.5549e-05,-739.23,2.2776
18421,20.514,1.8182,0.05,7.24e-07,7.2351,5.5594e-07,4.1771,2.3487e-12,1.3663e-05,-5.5595e-07,-4.1772,2.2776
18422,20.789,1.8182,0,7.0774e-05,707.25,2.7756e-05,53.271,2.0669e-05,0.019961,-6.9717e-05,-679.1,2.3232
18423,20.697,1.7273,0,7.2609e-05,725.59,2.8136e-05,50.496,2.1418e-05,0.01815,-7.1617e-05,-699.01,2.3079
18424,20.697,1.8182,0.05,7.2269e-07,7.2219,5.5494e-07,4.1696,2.3489e-12,1.2521e-05,-5.5494e-07,-4.1696,2.308
18425,20.973,1.8182,0,6.6976e-05,669.3,2.6768e-05,56.561,1.9243e-05,0.021513,-6.5834e-05,-639.21,2.3536
18426,20.881,1.7273,0,6.8781e-05,687.33,2.7119e-05,53.541,1.9995e-05,0.019569,-6.7713e-05,-658.99,2.3383
18427,20.881,1.8182,0.05,7.216e-07,7.211,5.5409e-07,4.1632,2.3391e-12,1.3515e-05,-5.541e-07,-4.1633,2.3384
18428,21.156,1.8182,0,6.3217e-05,631.73,2.5812e-05,60.112,1.7815e-05,0.023284,-6.1979e-05,-599.51,2.3841
18429,21.064,1.7273,0,6.4989e-05,649.44,2.6132e-05,56.828,1.8572e-05,0.021186,-6.3835e-05,-619.15,2.3688
18430,21.064,1.8182,0.05,7.2074e-07,7.2024,5.5344e-07,4.1583,1.9017e-12,1.6494e-05,-5.5344e-07,-4.1583,2.3688
18431,21.34,1.8182,0,5.9499e-05,594.58,2.4891e-05,63.947,1.6384e-05,0.025311,-5.8152e-05,-560.01,2.4146
18432,21.248,1.7273,0,6.1237e-05,611.95,2.5178e-05,60.378,1.7146e-05,0.023042,-5.9986e-05,-579.51,2.3993
18433,21.248,1.8182,0.05,7.2016e-07,7.1967,5.53e-07,4.155,2.3199e-12,1.6749e-05,-5.53e-07,-4.155,2.3993
18434,21.523,1.8182,0,5.5826e-05,557.87,2.4008e-05,68.091,1.4949e-05,0.027661,-5.4354e-05,-520.69,2.4452
18435,21.431,1.7273,0,5.7527e-05,574.88,2.4259e-05,64.215,1.5716e-05,0.025175,-5.6165e-05,-540.06,2.4298
18436,21.431,1.8182,0.05,7.199e-07,7.194,5.5279e-07,4.1535,1.6265e-12,1.5675e-05,-5.5279e-07,-4.1535,2.4299
18437,21.706,1.8182,0,5.2201e-05,521.65,2.3163e-05,72.57,1.3509e-05,0.030417,-5.0586e-05,-481.56,2.4758
18438,21.615,1.7273,0,5.3863e-05,538.26,2.3378e-05,68.364,1.4283e-05,0.027676,-5.2373e-05,-500.8,2.4604
18439,21.615,1.8182,0.05,7.1999e-07,7.1949,5.5286e-07,4.154,1.965e-12,1.4342e-05,-5.5286e-07,-4.154,2.4605
18440,21.89,1.8182,0,4.863e-05,485.97,2.2362e-05,77.415,1.2063e-05,0.033668,-4.6848e-05,-442.6,2.5064
18441,21.798,1.7273,0,5.0248e-05,502.14,2.2537e-05,72.854,1.2844e-05,0.030622,-4.861e-05,-461.72,2.491
18442,21.798,1.8182,0.05,7.2048e-07,7.1999,5.5324e-07,4.1568,1.5352e-12,1.4447e-05,-5.5324e-07,-4.1568,2.4911
18443,22.073,1.8182,0,4.5119e-05,450.88,2.1605e-05,82.656,1.0609e-05,0.037565,-4.314e-05,-403.82,2.5371
18444,21.982,1.7273,0,4.6689e-05,466.57,2.1739e-05,77.717,1.14e-05,0.034127,-4.4878e-05,-422.82,2.5217
18445,21.982,1.8182,0.05,7.2145e-07,7.2095,5.5398e-07,4.1624,1.5132e-12,8.4438e-06,-5.5398e-07,-4.1624,2.5217
18446,22.257,1.8182,0,4.1675e-05,416.46,2.0897e-05,88.326,9.1472e-06,0.042315,-3.9463e-05,-365.2,2.5678
18447,22.165,1.7273,0,4.3192e-05,431.62,2.0987e-05,82.987,9.9471e-06,0.038379,-4.1177e-05,-384.09,2.5524
18448,22.165,1.8182,0.05,7.2296e-07,7.2246,5.5514e-07,4.1711,1.2965e-12,1.1518e-05,-5.5514e-07,-4.1711,2.5524
18449,22.44,1.8182,0,3.8307e-05,382.81,2.024e-05,94.46,7.6747e-06,0.048231,-3.5816e-05,-326.72,2.5985
18450,22.349,1.7273,0,3.9766e-05,397.39,2.0285e-05,88.702,8.4854e-06,0.043609,-3.7507e-05,-345.53,2.5831
18451,22.349,1.8182,0.05,7.2509e-07,7.2459,5.5678e-07,4.1834,1.2788e-12,1.4179e-05,-5.5678e-07,-4.1834,2.5831
18452,22.624,1.8182,0,3.503e-05,350.06,1.9637e-05,101.09,6.1901e-06,0.055719,-3.2197e-05,-288.37,2.6292
18453,22.532,1.7273,0,3.6423e-05,363.98,1.9636e-05,94.898,7.0129e-06,0.050225,-3.3868e-05,-307.11,2.6138
18454,22.532,1.8182,0.05,7.2796e-07,7.2746,5.5898e-07,4.2,1.1847e-12,1.5243e-05,-5.5898e-07,-4.2,2.6138
18455,22.807,1.8182,0,3.186e-05,318.38,1.9091e-05,108.26,4.6914e-06,0.065766,-2.8607e-05,-250.12,2.66
18456,22.716,1.7273,0,3.3177e-05,331.55,1.9044e-05,101.62,5.5278e-06,0.058651,-3.0259e-05,-268.83,2.6445
18457,22.716,1.8182,0.05,7.3167e-07,7.3117,5.6183e-07,4.2214,8.5883e-13,1.1988e-05,-5.6183e-07,-4.2214,2.6446
18458,22.991,1.8182,0,2.8822e-05,288.02,1.8602e-05,115.98,3.1767e-06,0.078778,-2.5041e-05,-211.94,2.6907
18459,22.899,1.7273,0,3.0051e-05,300.3,1.8511e-05,108.89,4.0278e-06,0.070488,-2.6679e-05,-230.65,2.6753
18460,22.899,1.8182,0.05,7.3634e-07,7.3583,5.6542e-07,4.2483,1.1244e-12,1.4002e-05,-5.6542e-07,-4.2483,2.6753
18461,23.174,1.8182,0,2.595e-05,259.32,1.8172e-05,124.29,1.6442e-06,0.1009,-2.1497e-05,-173.77,2.7215
18462,23.083,1.7273,0,2.7072e-05,270.53,1.8039e-05,116.76,2.5108e-06,0.085065,-2.3125e-05,-192.53,2.7061
18463,23.083,1.8182,0.05,7.4209e-07,7.4158,5.6984e-07,4.2815,7.2637e-13,1.3816e-05,-5.6983e-07,-4.2815,2.7061
18464,23.358,1.8182,0,2.3291e-05,232.75,1.7801e-05,133.19,9.0893e-08,0.1231,-1.7968e-05,-135.57,2.7524
18465,23.266,1.7273,0,2.4281e-05,242.65,1.7629e-05,125.24,9.7519e-07,0.11566,-1.9593e-05,-154.42,2.7369
18466,23.266,1.8182,0.05,7.4903e-07,7.4851,5.7516e-07,4.3215,7.7017e-13,7.4425e-06,-5.7516e-07,-4.3215,2.7369
18467,23.541,1.8182,0,2.0917e-05,209.03,1.7485e-05,142.7,-1.4791e-06,0.21721,-1.4452e-05,-97.256,2.7832
18468,23.45,1.7273,0,2.1737e-05,217.22,1.7279e-05,134.35,-5.8375e-07,0.13215,-1.6076e-05,-116.27,2.7677
18469,23.45,1.8182,0.05,7.5719e-07,7.5667,5.8143e-07,4.3687,5.8323e-13,5.3326e-06,-5.8143e-07,-4.3686,2.7678
18470,23.725,1.8182,0,1.8927e-05,189.14,1.7224e-05,152.77,-3.0803e-06,0.20913,-1.0942e-05,-58.859,2.814
18471,23.633,1.7273,0,1.9526e-05,195.13,1.6988e-05,144.13,-2.1529e-06,0.31314,-1.2574e-05,-77.987,2.7986
18472,23.633,1.8182,0.05,7.6693e-07,7.664,5.8891e-07,4.4248,1.1118e-13,1.0701e-05,-5.889e-07,-4.4248,2.7986
18473,23.817,1.7273,0,1.777e-05,177.58,1.6757e-05,154.4,-3.769e-06,0.17667,-9.0806e-06,-39.733,2.8294
18474,23.817,1.8182,0.05,7.8449e-07,7.8395,6.0239e-07,4.5262,2.1308e-13,9.481e-06,-6.0239e-07,-4.5261,2.8294
18475,23.908,1.8182,0,1.7486e-05,174.74,1.7e-05,162.64,-4.5888e-06,0.43047,-7.6246e-06,-22.379,2.8449
18476,3.5419,1.6364,0,0.00082019,8196.2,0.00049054,2779.1,0.00012198,9.8772,-0.00073684,-6443,0.082293
18477,3.4501,1.5455,0,0.00081468,8141.2,0.00053078,3341.1,8.5017e-05,-8.2259,-0.00070452,-5940.5,0.075164
18478,3.4501,1.6364,0.05,4.9809e-05,497.74,3.8247e-05,287.37,-8.2376e-11,-0.00087158,-3.8247e-05,-287.37,0.076031
18479,3.3584,1.6364,0,0.00073702,7365.2,0.00048082,3084.7,8.2644e-05,93.014,-0.00063586,-5305.5,0.069974
18480,3.7254,1.6364,0,0.00069879,6983.1,0.00034725,1436.9,0.00015518,-6.2257,-0.00066317,-6155,0.094862
18481,3.6336,1.5455,0,0.00068133,6808.6,0.00037054,1816.6,0.00012879,0.17118,-0.00063199,-5716.1,0.087765
18482,3.6336,1.6364,0.05,1.9868e-05,198.54,1.5256e-05,114.63,-1.1189e-10,-0.0011563,-1.5256e-05,-114.63,0.088468
18483,3.9088,1.6364,0,0.0006282,6277.6,0.00026909,747.5,0.00016837,-9.316,-0.00061221,-5874.2,0.10776
18484,3.8171,1.5455,0,0.00061427,6138.5,0.00028641,1021.6,0.00014911,-10.065,-0.00059052,-5567.4,0.10062
18485,3.8171,1.6364,0.05,1.2388e-05,123.79,9.5125e-06,71.473,-1.1912e-10,-0.0012042,-9.5124e-06,-71.473,0.1012
18486,4.0923,1.6364,0,0.00058305,5826.4,0.00022283,364.59,0.00017363,-5.1271,-0.00057605,-5637.9,0.121
18487,4.0006,1.5455,0,0.00057143,5710.3,0.00023466,557.39,0.00015994,-3.987,-0.00055994,-5412.9,0.11378
18488,4.0006,1.6364,0.05,8.855e-06,88.488,6.7995e-06,51.089,-1.0911e-10,-0.00095935,-6.7995e-06,-51.089,0.11427
18489,4.2758,1.6364,0,0.00055236,5519.7,0.00019469,144.08,0.00017436,-8.6577,-0.00054989,-5450.4,0.13459
18490,4.1841,1.5455,0,0.00054294,5425.6,0.0002026,279.4,0.00016468,-5.5477,-0.00053772,-5283.1,0.12726
18491,4.1841,1.6364,0.05,6.8368e-06,68.321,5.2498e-06,39.445,-8.2497e-11,-0.00081113,-5.2498e-06,-39.445,0.12769
18492,4.4593,1.6364,0,0.00053071,5303.4,0.00017893,30.204,0.00017147,-25.874,-0.00053061,-5301,0.14854
18493,4.3676,1.5455,0,0.00052345,5230.9,0.00018268,114.71,0.00016636,-7.8597,-0.00052152,-5176.4,0.14108
18494,4.3676,1.6364,0.05,5.5723e-06,55.685,4.2789e-06,32.15,-7.7743e-11,-0.00078201,-4.2788e-06,-32.15,0.14146
18495,4.6428,1.6364,0,0.00051448,5141.3,0.00017431,6.5027,0.00016269,-80.809,-0.00051569,-5177.9,0.16283
18496,4.551,1.5455,0,0.00050925,5088.9,0.00017139,26.746,0.00016485,-22.372,-0.00050915,-5086.6,0.15523
18497,4.551,1.6364,0.05,4.6247e-06,46.215,3.5512e-06,26.682,-7.1121e-11,-0.00061098,-3.5512e-06,-26.682,0.15558
18498,4.8263,1.6364,0,0.00050168,5013.3,0.00017191,2.931,0.00015499,-124.19,-0.00050362,-5072.7,0.17746
18499,4.7345,1.5455,0,0.00049822,4978.8,0.00016815,6.2914,0.00015865,-65.087,-0.00049918,-5007.8,0.16972
18500,4.7345,1.6364,0.05,3.893e-06,38.903,2.9894e-06,22.461,-6.5757e-11,-0.00046142,-2.9893e-06,-22.461,0.17005
18501,5.0097,1.6364,0,0.00049105,4907.1,0.00016959,1.6954,0.00014932,-150.57,-0.00049341,-4979.8,0.19243
18502,4.918,1.5455,0,0.0004891,4887.7,0.00016661,2.8314,0.00015281,-100.81,-0.00049069,-4935.8,0.18454
18503,4.918,1.6364,0.05,3.3131e-06,33.108,2.544e-06,19.115,-3.6598e-11,-0.00043691,-2.544e-06,-19.115,0.18485
18504,5.1932,1.6364,0,0.00048188,4815.5,0.00016723,1.0929,0.00014507,-165.42,-0.00048446,-4895.5,0.20772
18505,5.1015,1.5455,0,0.00048116,4808.3,0.00016501,1.6283,0.00014832,-123.72,-0.00048311,-4868.1,0.19969
18506,5.1015,1.6364,0.05,2.8473e-06,28.453,2.1864e-06,16.428,-3.988e-11,-0.00035902,-2.1864e-06,-16.428,0.19999
18507,5.3767,1.6364,0,0.0004737,4733.8,0.00016486,0.74493,0.00014178,-172.71,-0.00047639,-4817.4,0.22335
18508,5.285,1.5455,0,0.00047396,4736.4,0.00016326,1.0403,0.00014481,-137.54,-0.00047613,-4803.1,0.21516
18509,5.285,1.6364,0.05,2.471e-06,24.693,1.8974e-06,14.256,-3.0404e-11,-0.00029145,-1.8974e-06,-14.257,0.21545
18510,5.5602,1.6364,0,0.00046624,4659.2,0.00016249,0.52518,0.00013913,-174.97,-0.00046896,-4743.9,0.23929
18511,5.4684,1.5455,0,0.00046726,4669.3,0.00016139,0.70349,0.00014197,-145.18,-0.00046954,-4739.9,0.23095
18512,5.4684,1.6364,0.05,2.1668e-06,21.653,1.6639e-06,12.502,-2.0156e-11,-0.00026554,-1.6639e-06,-12.502,0.23124
18513,5.7437,1.6364,0,0.0004593,4589.8,0.00016013,0.37849,0.00013694,-173.82,-0.000462,-4674.1,0.25555
18514,5.6519,1.5455,0,0.00046089,4605.8,0.00015943,0.49247,0.0001396,-148.55,-0.00046323,-4678,0.24706
18515,5.6519,1.6364,0.05,1.9218e-06,19.204,1.4757e-06,11.088,-1.7294e-11,-0.00020253,-1.4757e-06,-11.088,0.24734
18516,5.9271,1.6364,0,0.00045276,4524.5,0.00015779,0.27711,0.00013509,-170.32,-0.00045541,-4607.1,0.27212
18517,5.8354,1.5455,0,0.00045479,4544.7,0.00015742,0.35299,0.00013756,-148.89,-0.00045713,-4617.1,0.26348
18518,5.8354,1.6364,0.05,1.7253e-06,17.242,1.3248e-06,9.9543,-1.0171e-11,-0.00011252,-1.3248e-06,-9.9544,0.26376
18519,6.1106,1.6364,0,0.00044653,4462.3,0.00015548,0.20537,0.00013347,-165.18,-0.00044911,-4542.5,0.289
18520,6.0189,1.5455,0,0.00044887,4485.6,0.00015537,0.25748,0.00013577,-147.04,-0.00045119,-4557.2,0.28021
18521,6.0189,1.6364,0.05,1.5689e-06,15.679,1.2048e-06,9.052,-7.4427e-12,-6.8467e-05,-1.2048e-06,-9.0521,0.28048
18522,6.2941,1.6364,0,0.00044056,4402.5,0.0001532,0.15375,0.00013203,-158.92,-0.00044304,-4479.7,0.30618
18523,6.2024,1.5455,0,0.00044312,4428.1,0.0001533,0.19046,0.00013416,-143.6,-0.00044538,-4498.1,0.29724
18524,6.2024,1.6364,0.05,1.4452e-06,14.442,1.1097e-06,8.338,-3.6369e-12,-0.00012497,-1.1097e-06,-8.3382,0.29751
18525,6.4776,1.6364,0,0.00043477,4344.7,0.00015094,0.11613,0.00013071,-151.89,-0.00043716,-4418.6,0.32366
18526,6.3858,1.5455,0,0.00043749,4371.9,0.00015121,0.14257,0.0001327,-138.99,-0.00043969,-4439.6,0.31457
18527,6.3858,1.6364,0.05,1.3477e-06,13.468,1.0349e-06,7.7757,-2.5879e-12,-8.3844e-05,-1.0349e-06,-7.7759,0.31484
18528,6.6611,1.6364,0,0.00042915,4288.6,0.00014872,0.088442,0.00012949,-144.37,-0.00043142,-4358.9,0.34143
18529,6.5693,1.5455,0,0.00043197,4316.7,0.00014912,0.10786,0.00013133,-133.55,-0.00043408,-4381.9,0.3322
18530,6.5693,1.6364,0.05,1.2712e-06,12.703,9.761e-07,7.3339,1.314e-12,-6.8216e-05,-9.7611e-07,-7.3342,0.33247
18531,6.8445,1.6364,0,0.00042366,4233.6,0.00014652,0.067892,0.00012834,-136.56,-0.00042581,-4300.2,0.3595
18532,6.7528,1.5455,0,0.00042654,4262.4,0.00014703,0.082406,0.00013005,-127.51,-0.00042856,-4324.7,0.35012
18533,6.7528,1.6364,0.05,1.211e-06,12.102,9.2989e-07,6.9867,3.0135e-12,-4.5571e-05,-9.299e-07,-6.987,0.35039
18534,7.028,1.6364,0,0.00041827,4179.8,0.00014435,0.052533,0.00012723,-128.63,-0.0004203,-4242.6,0.37785
18535,6.9363,1.5455,0,0.00042118,4208.9,0.00014495,0.063554,0.00012883,-121.09,-0.00042311,-4268.1,0.36832
18536,6.9363,1.6364,0.05,1.1635e-06,11.627,8.9341e-07,6.7127,3.3828e-12,-2.6396e-05,-8.9342e-07,-6.7129,0.3686
18537,7.2115,1.6364,0,0.00041296,4126.7,0.00014221,0.040981,0.00012614,-120.71,-0.00041488,-4185.7,0.39648
18538,7.1198,1.5455,0,0.00041589,4156,0.00014288,0.049471,0.00012764,-114.44,-0.00041772,-4212,0.38682
18539,7.1198,1.6364,0.05,1.1257e-06,11.249,8.644e-07,6.4947,5.363e-12,-2.7974e-05,-8.6441e-07,-6.4949,0.38709
18540,7.395,1.6364,0,0.00040771,4074.3,0.0001401,0.032246,0.00012507,-112.89,-0.00040951,-4129.6,0.41539
18541,7.3032,1.5455,0,0.00041065,4103.6,0.00014082,0.038868,0.00012648,-107.7,-0.00041237,-4156.4,0.40559
18542,7.3032,1.6364,0.05,1.0953e-06,10.946,8.4107e-07,6.3194,4.6171e-12,-1.6372e-05,-8.4108e-07,-6.3196,0.40586
18543,7.5785,1.6364,0,0.00040252,4022.4,0.00013801,0.025608,0.000124,-105.24,-0.00040421,-4074,0.43458
18544,7.4867,1.5455,0,0.00040545,4051.7,0.00013877,0.030833,0.00012533,-100.95,-0.00040707,-4101.2,0.42464
18545,7.4867,1.6364,0.05,1.0706e-06,10.698,8.2205e-07,6.1765,5.8944e-12,-1.4322e-05,-8.2206e-07,-6.1767,0.42491
18546,7.7619,1.6364,0,0.00039737,3970.9,0.00013595,0.020544,0.00012293,-97.824,-0.00039894,-4018.9,0.45404
18547,7.6702,1.5455,0,0.00040028,4000.1,0.00013674,0.024705,0.00012419,-94.291,-0.0004018,-4046.4,0.44397
18548,7.6702,1.6364,0.05,1.05e-06,10.493,8.063e-07,6.0582,6.9379e-12,-1.0047e-05,-8.0631e-07,-6.0583,0.44424
18549,7.9454,1.6364,0,0.00039225,3919.8,0.00013391,0.016667,0.00012184,-90.681,-0.00039371,-3964.3,0.47377
18550,7.8537,1.5455,0,0.00039515,3948.7,0.00013472,0.020009,0.00012304,-87.779,-0.00039657,-3991.9,0.46357
18551,7.8537,1.6364,0.05,1.0328e-06,10.321,7.9304e-07,5.9585,5.9414e-12,-1.0564e-05,-7.9304e-07,-5.9587,0.46384
18552,8.1289,1.6364,0,0.00038716,3868.9,0.00013189,0.013691,0.00012073,-83.839,-0.00038852,-3910.1,0.49376
18553,8.0372,1.5455,0,0.00039003,3897.6,0.00013273,0.016392,0.00012188,-81.462,-0.00039135,-3937.7,0.48343
18554,8.0372,1.6364,0.05,1.018e-06,10.173,7.8167e-07,5.8731,5.2774e-12,-9.4685e-06,-7.8169e-07,-5.8733,0.4837
18555,8.3124,1.6364,0,0.00038209,3818.2,0.0001299,0.011402,0.00011961,-77.318,-0.00038334,-3856.3,0.51402
18556,8.2206,1.5455,0,0.00038494,3846.7,0.00013075,0.013598,0.00012071,-75.375,-0.00038617,-3883.9,0.50356
18557,8.2206,1.6364,0.05,1.0051e-06,10.044,7.7178e-07,5.7988,5.8979e-12,-7.2863e-06,-7.7178e-07,-5.7989,0.50382
18558,8.4959,1.6364,0,0.00037703,3767.7,0.00012793,0.0096398,0.00011846,-71.126,-0.00037819,-3802.8,0.53453
18559,8.4041,1.5455,0,0.00037986,3796,0.00012878,0.011432,0.00011953,-69.544,-0.000381,-3830.3,0.52394
18560,8.4041,1.6364,0.05,9.9368e-07,9.9299,7.6301e-07,5.733,6.1437e-12,-5.2375e-06,-7.6303e-07,-5.7331,0.52421
18561,8.6794,1.6364,0,0.00037199,3717.3,0.00012598,0.0082839,0.00011729,-65.269,-0.00037306,-3749.5,0.5553
18562,8.5876,1.5455,0,0.0003748,3745.4,0.00012684,0.0097497,0.00011832,-63.984,-0.00037584,-3777,0.54459
18563,8.5876,1.6364,0.05,9.8344e-07,9.8276,7.5515e-07,5.6739,5.4714e-12,-5.5131e-06,-7.5517e-07,-5.6741,0.54485
18564,8.8628,1.6364,0,0.00036696,3667,0.00012404,0.0072429,0.00011609,-59.744,-0.00036794,-3696.5,0.57632
18565,8.7711,1.5455,0,0.00036974,3694.9,0.00012491,0.0084437,0.0001171,-58.704,-0.00037071,-3723.9,0.56548
18566,8.7711,1.6364,0.05,9.7414e-07,9.7346,7.4801e-07,5.6202,5.713e-12,-4.3666e-06,-7.4802e-07,-5.6204,0.56574
18567,9.0463,1.6364,0,0.00036194,3616.9,0.00012213,0.0064463,0.00011487,-54.547,-0.00036283,-3643.8,0.59758
18568,8.9546,1.5455,0,0.0003647,3644.5,0.000123,0.0074296,0.00011585,-53.707,-0.00036559,-3671.1,0.58663
18569,8.9546,1.6364,0.05,9.6558e-07,9.6492,7.4144e-07,5.5709,6.0063e-12,-4.3306e-06,-7.4145e-07,-5.571,0.58689
18570,9.2298,1.6364,0,0.00035692,3566.8,0.00012024,0.0058412,0.00011363,-49.667,-0.00035774,-3591.3,0.6191
18571,9.1381,1.5455,0,0.00035967,3594.2,0.00012111,0.0066439,0.00011459,-48.993,-0.00036048,-3618.4,0.60802
18572,9.1381,1.6364,0.05,9.5765e-07,9.5699,7.3535e-07,5.5251,6.1048e-12,-4.1977e-06,-7.3537e-07,-5.5253,0.60828
18573,9.4133,1.6364,0,0.00035192,3516.7,0.00011836,0.0053864,0.00011236,-45.096,-0.00035266,-3539.1,0.64085
18574,9.3215,1.5455,0,0.00035464,3544,0.00011923,0.0060398,0.0001133,-44.557,-0.00035538,-3566,0.62966
18575,9.3215,1.6364,0.05,9.5023e-07,9.4957,7.2965e-07,5.4822,6.2953e-12,-3.5168e-06,-7.2966e-07,-5.4825,0.62991
18576,9.5968,1.6364,0,0.00034692,3466.8,0.0001165,0.0050521,0.00011107,-40.819,-0.00034759,-3487,0.66284
18577,9.505,1.5455,0,0.00034962,3493.8,0.00011737,0.0055779,0.000112,-40.391,-0.00035029,-3513.9,0.65153
18578,9.505,1.6364,0.05,9.4324e-07,9.4258,7.2428e-07,5.4419,6.3863e-12,-3.0628e-06,-7.243e-07,-5.4421,0.65178
18579,9.7802,1.6364,0,0.00034192,3416.9,0.00011465,0.0048115,0.00010975,-36.824,-0.00034254,-3435.2,0.68506
18580,9.6885,1.5455,0,0.00034462,3443.8,0.00011553,0.0052351,0.00011067,-36.487,-0.00034522,-3461.9,0.67364
18581,9.6885,1.6364,0.05,9.3661e-07,9.3597,7.192e-07,5.4037,6.5503e-12,-2.1681e-06,-7.1921e-07,-5.4039,0.67389
18582,9.9637,1.6364,0,0.00033694,3367.1,0.00011283,0.0046515,0.00010842,-33.097,-0.00033749,-3383.5,0.70751
18583,9.872,1.5455,0,0.00033961,3393.8,0.0001137,0.0049781,0.00010933,-32.833,-0.00034016,-3410.1,0.69598
18584,9.872,1.6364,0.05,9.3031e-07,9.2967,7.1435e-07,5.3673,6.6012e-12,-2.1923e-06,-7.1437e-07,-5.3675,0.69623
18585,10.147,1.6364,0,0.00033196,3317.3,0.00011101,0.0045597,0.00010707,-29.622,-0.00033246,-3332.1,0.73019
18586,10.055,1.5455,0,0.00033462,3343.9,0.00011188,0.0048122,0.00010796,-29.419,-0.00033511,-3358.5,0.71855
18587,10.055,1.6364,0.05,9.2428e-07,9.2364,7.0973e-07,5.3325,5.7807e-12,-1.2081e-06,-7.0973e-07,-5.3327,0.7188
18588,10.331,1.6364,0,0.00032699,3267.7,0.00010921,0.0045038,0.0001057,-26.385,-0.00032744,-3280.8,0.7531
18589,10.239,1.5455,0,0.00032964,3294.1,0.00011008,0.0047074,0.00010659,-26.231,-0.00033007,-3307.1,0.74135
18590,10.239,1.6364,0.05,9.1849e-07,9.1786,7.0528e-07,5.2992,4.9336e-12,-1.0503e-06,-7.053e-07,-5.2994,0.74159
18591,10.514,1.6364,0,0.00032203,3218.1,0.00010743,0.0044873,0.00010432,-23.371,-0.00032242,-3229.7,0.77622
18592,10.422,1.5455,0,0.00032466,3244.4,0.00010829,0.0046277,0.00010519,-23.258,-0.00032505,-3255.9,0.76437
18593,10.422,1.6364,0.05,9.1292e-07,9.1229,7.0101e-07,5.267,5.9083e-12,-3.5968e-07,-7.0102e-07,-5.2672,0.76461
18594,10.698,1.6364,0,0.00031708,3168.6,0.00010565,0.0045308,0.00010292,-20.567,-0.00031743,-3178.9,0.79957
18595,10.606,1.5455,0,0.0003197,3194.7,0.00010651,0.0046154,0.00010379,-20.487,-0.00032004,-3204.9,0.7876
18596,10.606,1.6364,0.05,9.0754e-07,9.0691,6.9687e-07,5.236,4.1519e-12,6.6867e-07,-6.9688e-07,-5.2361,0.78784
18597,10.881,1.6364,0,0.00031214,3119.2,0.00010389,0.0046352,0.0001015,-17.958,-0.00031244,-3128.2,0.82312
18598,10.789,1.5455,0,0.00031474,3145.2,0.00010475,0.0046707,0.00010237,-17.906,-0.00031504,-3154.1,0.81106
18599,10.789,1.6364,0.05,9.0232e-07,9.017,6.9287e-07,5.2059,5.1044e-12,7.1551e-07,-6.9288e-07,-5.206,0.81129
18600,11.065,1.6364,0,0.00030721,3070,0.00010215,0.0047711,0.00010008,-15.532,-0.00030747,-3077.7,0.84689
18601,10.973,1.5455,0,0.00030979,3095.8,0.000103,0.0047969,0.00010094,-15.502,-0.00031005,-3103.5,0.83472
18602,10.973,1.6364,0.05,8.9727e-07,8.9665,6.8899e-07,5.1768,6.0649e-12,3.1645e-07,-6.89e-07,-5.1769,0.83495
18603,11.248,1.6364,0,0.00030229,3020.8,0.00010041,0.0049344,9.8644e-05,-13.275,-0.00030251,-3027.4,0.87086
18604,11.156,1.5455,0,0.00030486,3046.5,0.00010126,0.0049357,9.9494e-05,-13.264,-0.00030508,-3053.1,0.85859
18605,11.156,1.6364,0.05,8.9237e-07,8.9175,6.8522e-07,5.1484,4.2733e-12,1.06e-06,-6.8523e-07,-5.1486,0.85882
18606,11.432,1.6364,0,0.00029738,2971.7,9.8688e-05,0.005185,9.7199e-05,-11.176,-0.00029756,-2977.3,0.89504
18607,11.34,1.5455,0,0.00029994,2997.3,9.9533e-05,0.0051433,9.8044e-05,-11.18,-0.00030012,-3002.9,0.88267
18608,11.34,1.6364,0.05,8.8758e-07,8.8697,6.8155e-07,5.1208,4.3129e-12,1.9315e-06,-6.8156e-07,-5.121,0.88289
18609,11.615,1.6364,0,0.00029248,2922.8,9.6974e-05,0.0055279,9.5746e-05,-9.2227,-0.00029263,-2927.4,0.91941
18610,11.523,1.5455,0,0.00029502,2948.2,9.7816e-05,0.0054963,9.6586e-05,-9.2398,-0.00029518,-2952.8,0.90695
18611,11.523,1.6364,0.05,8.8292e-07,8.8231,6.7796e-07,5.0939,4.3441e-12,1.8087e-06,-6.7797e-07,-5.0941,0.90717
18612,11.799,1.6364,0,0.00028759,2873.9,9.5272e-05,0.0059877,9.4286e-05,-7.4044,-0.00028772,-2877.6,0.94398
18613,11.707,1.5455,0,0.00029013,2899.3,9.611e-05,0.0059511,9.512e-05,-7.4327,-0.00029025,-2903,0.93143
18614,11.707,1.6364,0.05,8.7836e-07,8.7776,6.7447e-07,5.0677,5.2781e-12,2.2308e-06,-6.7448e-07,-5.0678,0.93165
18615,11.982,1.6364,0,0.00028272,2825.2,9.358e-05,0.00668,9.2819e-05,-5.7109,-0.00028281,-2828.1,0.96875
18616,11.89,1.5455,0,0.00028524,2850.4,9.4415e-05,0.0066534,9.3649e-05,-5.7489,-0.00028534,-2853.3,0.95611
18617,11.89,1.6364,0.05,8.739e-07,8.733,6.7104e-07,5.0419,5.3047e-12,3.7739e-06,-6.7105e-07,-5.0421,0.95632
18618,12.165,1.6364,0,0.00027786,2776.7,9.1898e-05,0.0078025,9.1347e-05,-4.1327,-0.00027793,-2778.7,0.99371
18619,12.074,1.5455,0,0.00028037,2801.8,9.2729e-05,0.007825,9.2172e-05,-4.1792,-0.00028044,-2803.8,0.98097
18620,12.074,1.6364,0.05,8.6954e-07,8.6894,6.677e-07,5.0168,6.2412e-12,3.2749e-06,-6.677e-07,-5.0169,0.98118
18621,12.349,1.6364,0,0.00027301,2728.2,9.0226e-05,0.010013,8.9871e-05,-2.6613,-0.00027306,-2729.6,1.0189
18622,12.257,1.5455,0,0.00027551,2753.2,9.1054e-05,0.010089,9.0691e-05,-2.7156,-0.00027556,-2754.6,1.006
18623,12.257,1.6364,0.05,8.6525e-07,8.6466,6.644e-07,4.992,5.3517e-12,3.6401e-06,-6.6441e-07,-4.9922,1.0062
18624,12.532,1.6364,0,0.00026818,2679.9,8.8564e-05,0.01655,8.839e-05,-1.2912,-0.0002682,-2680.6,1.0442
18625,12.441,1.5455,0,0.00027067,2704.8,8.9389e-05,0.016623,8.9207e-05,-1.3526,-0.00027069,-2705.5,1.0313
18626,12.441,1.6364,0.05,8.6104e-07,8.6045,6.6117e-07,4.9677,4.4683e-12,4.4175e-06,-6.6118e-07,-4.9678,1.0315
18627,12.716,1.6364,0,0.00026336,2631.8,8.6927e-05,0.13444,8.6893e-05,-0.12131,-0.00026336,-2631.8,1.0697
18628,12.624,1.5455,0,0.00026584,2656.6,8.7744e-05,0.10882,8.7708e-05,-0.16392,-0.00026584,-2656.6,1.0567
18629,12.624,1.6364,0.05,8.569e-07,8.5631,6.5798e-07,4.9438,3.581e-12,2.8871e-06,-6.58e-07,-4.9439,1.0569
18630,12.899,1.6364,0,0.00025856,2583.8,8.5428e-05,1.2289,8.5263e-05,-0.0092861,-0.00025854,-2583.2,1.0954
18631,12.808,1.5455,0,0.00026103,2608.5,8.6236e-05,1.1564,8.608e-05,-0.011561,-0.00026101,-2607.9,1.0823
18632,12.808,1.6364,0.05,8.5283e-07,8.5224,6.5486e-07,4.9203,6.3222e-12,2.2631e-06,-6.5487e-07,-4.9205,1.0825
18633,13.083,1.6364,0,0.00025377,2536,8.3942e-05,2.3549,8.3628e-05,-0.0028496,-0.00025373,-2534.8,1.1212
18634,12.991,1.5455,0,0.00025623,2560.5,8.4746e-05,2.2746,8.4442e-05,-0.0040061,-0.00025619,-2559.4,1.1081
18635,12.991,1.6364,0.05,8.4882e-07,8.4823,6.5178e-07,4.8972,3.6101e-12,2.7284e-06,-6.5179e-07,-4.8974,1.1083
18636,13.266,1.6364,0,0.000249,2488.3,8.2456e-05,3.4179,8.2001e-05,-0.00061526,-0.00024894,-2486.6,1.1473
18637,13.175,1.5455,0,0.00025145,2512.7,8.3256e-05,3.3305,8.2812e-05,-0.0015142,-0.00025139,-2511.1,1.134
18638,13.175,1.6364,0.05,8.4486e-07,8.4428,6.4875e-07,4.8744,5.4432e-12,3.7121e-06,-6.4875e-07,-4.8745,1.1342
18639,13.45,1.6364,0,0.00024425,2440.8,8.0971e-05,4.4211,8.0383e-05,0.00054794,-0.00024417,-2438.6,1.1735
18640,13.358,1.5455,0,0.00024668,2465.1,8.1766e-05,4.3266,8.1191e-05,-0.00021758,-0.00024661,-2463,1.1601
18641,13.358,1.6364,0.05,8.4096e-07,8.4038,6.4575e-07,4.8519,4.5475e-12,5.2157e-06,-6.4576e-07,-4.852,1.1603
18642,13.633,1.6364,0,0.00023951,2393.5,7.9487e-05,5.37,7.8772e-05,0.001267,-0.00023942,-2390.8,1.1998
18643,13.542,1.5455,0,0.00024193,2417.7,8.0278e-05,5.2679,7.9577e-05,0.00055473,-0.00024184,-2415,1.1864
18644,13.542,1.6364,0.05,8.3712e-07,8.3654,6.428e-07,4.8297,4.5597e-12,5.8108e-06,-6.4281e-07,-4.8298,1.1866
18645,13.817,1.6364,0,0.00023479,2346.3,7.8004e-05,6.27,7.717e-05,0.0017799,-0.00023468,-2343.1,1.2263
18646,13.725,1.5455,0,0.0002372,2370.4,7.8791e-05,6.1599,7.7971e-05,0.0010958,-0.0002371,-2367.3,1.2129
18647,13.725,1.6364,0.05,8.3332e-07,8.3274,6.3988e-07,4.8078,5.4801e-12,6.9933e-06,-6.3989e-07,-4.8079,1.213
18648,14,1.6364,0,0.00023009,2299.3,7.6524e-05,7.1264,7.5575e-05,0.0021603,-0.00022996,-2295.7,1.253
18649,13.909,1.5455,0,0.00023249,2323.3,7.7306e-05,7.0077,7.6374e-05,0.0015069,-0.00023237,-2319.8,1.2395
18650,13.909,1.6364,0.05,8.2957e-07,8.2899,6.37e-07,4.7861,6.3994e-12,7.5056e-06,-6.3701e-07,-4.7863,1.2396
18651,14.184,1.6364,0,0.0002254,2252.4,7.5045e-05,7.9444,7.3988e-05,0.0024701,-0.00022526,-2248.5,1.2799
18652,14.092,1.5455,0,0.00022779,2276.3,7.5824e-05,7.8163,7.4783e-05,0.0018052,-0.00022766,-2272.4,1.2662
18653,14.092,1.6364,0.05,8.2585e-07,8.2528,6.3415e-07,4.7647,3.6819e-12,7.0992e-06,-6.3416e-07,-4.7648,1.2664
18654,14.367,1.6364,0,0.00022073,2205.8,7.357e-05,8.7289,7.2409e-05,0.0027517,-0.00022058,-2201.4,1.3068
18655,14.276,1.5455,0,0.00022311,2229.6,7.4344e-05,8.5907,7.3201e-05,0.0020885,-0.00022296,-2225.3,1.2931
18656,14.276,1.6364,0.05,8.2217e-07,8.2161,6.3132e-07,4.7435,3.6904e-12,7.0412e-06,-6.3133e-07,-4.7436,1.2933
18657,14.551,1.6364,0,0.00021608,2159.3,7.2099e-05,9.4845,7.0837e-05,0.0029852,-0.00021592,-2154.6,1.334
18658,14.459,1.5455,0,0.00021845,2183,7.2868e-05,9.3352,7.1626e-05,0.0023357,-0.00021829,-2178.3,1.3202
18659,14.459,1.6364,0.05,8.1854e-07,8.1798,6.2853e-07,4.7225,3.7027e-12,7.5108e-06,-6.2854e-07,-4.7226,1.3204
18660,14.734,1.6364,0,0.00021145,2113,7.0631e-05,10.216,6.9272e-05,0.0031887,-0.00021127,-2107.9,1.3612
18661,14.642,1.5455,0,0.00021381,2136.6,7.1396e-05,10.054,7.0058e-05,0.0025253,-0.00021363,-2131.6,1.3474
18662,14.642,1.6364,0.05,8.1494e-07,8.1438,6.2577e-07,4.7018,4.6195e-12,6.2106e-06,-6.2578e-07,-4.7019,1.3476
18663,14.918,1.6364,0,0.00020684,2066.9,6.9168e-05,10.927,6.7715e-05,0.0033906,-0.00020665,-2061.5,1.3887
18664,14.826,1.5455,0,0.00020918,2090.4,6.9928e-05,10.752,6.8498e-05,0.0027156,-0.000209,-2085,1.3748
18665,14.826,1.6364,0.05,8.1137e-07,8.1081,6.2303e-07,4.6812,4.6286e-12,5.4244e-06,-6.2304e-07,-4.6813,1.3749
18666,15.101,1.6364,0,0.00020224,2021,6.771e-05,11.623,6.6164e-05,0.0035944,-0.00020204,-2015.2,1.4162
18667,15.009,1.5455,0,0.00020458,2044.4,6.8465e-05,11.433,6.6944e-05,0.0029043,-0.00020438,-2038.6,1.4023
18668,15.009,1.6364,0.05,8.0784e-07,8.0728,6.2032e-07,4.6608,4.6373e-12,4.279e-06,-6.2033e-07,-4.6609,1.4024
18669,15.285,1.6364,0,0.00019767,1975.3,6.6258e-05,12.307,6.462e-05,0.003788,-0.00019746,-1969.1,1.4439
18670,15.193,1.5455,0,0.00019999,1998.5,6.7008e-05,12.101,6.5397e-05,0.0030985,-0.00019978,-1992.5,1.4299
18671,15.193,1.6364,0.05,8.0435e-07,8.0379,6.1763e-07,4.6406,3.7338e-12,3.6437e-06,-6.1764e-07,-4.6407,1.43
18672,15.468,1.6364,0,0.00019311,1929.8,6.4811e-05,12.984,6.3083e-05,0.0039702,-0.00019289,-1923.3,1.4718
18673,15.376,1.5455,0,0.00019543,1952.9,6.5555e-05,12.76,6.3857e-05,0.0032657,-0.0001952,-1946.5,1.4577
18674,15.376,1.6364,0.05,8.0089e-07,8.0034,6.1498e-07,4.6207,3.7401e-12,4.7786e-06,-6.1498e-07,-4.6208,1.4578
18675,15.652,1.6364,0,0.00018858,1884.5,6.337e-05,13.658,6.1552e-05,0.0041568,-0.00018834,-1877.6,1.4997
18676,15.56,1.5455,0,0.00019088,1907.5,6.4109e-05,13.414,6.2324e-05,0.0034369,-0.00019065,-1900.7,1.4856
18677,15.56,1.6364,0.05,7.9746e-07,7.9691,6.1235e-07,4.6009,3.7448e-12,3.8033e-06,-6.1235e-07,-4.601,1.4857
18678,15.835,1.6364,0,0.00018406,1839.3,6.1935e-05,14.331,6.0028e-05,0.0043341,-0.00018381,-1832.1,1.5278
18679,15.743,1.5455,0,0.00018635,1862.2,6.2669e-05,14.067,6.0798e-05,0.0036129,-0.00018611,-1855.1,1.5136
18680,15.743,1.6364,0.05,7.9407e-07,7.9352,6.0974e-07,4.5813,3.7406e-12,2.0037e-06,-6.0975e-07,-4.5814,1.5137
18681,16.019,1.6364,0,0.00017956,1794.4,6.0508e-05,15.01,5.8511e-05,0.0045192,-0.0001793,-1786.8,1.556
18682,15.927,1.5455,0,0.00018184,1817.2,6.1236e-05,14.721,5.9277e-05,0.003766,-0.00018159,-1809.8,1.5417
18683,15.927,1.6364,0.05,7.907e-07,7.9016,6.0716e-07,4.5619,3.7539e-12,2.1726e-06,-6.0717e-07,-4.562,1.5419
18684,16.202,1.6364,0,0.00017509,1749.6,5.9088e-05,15.696,5.6999e-05,0.0047245,-0.00017481,-1741.7,1.5843
18685,16.11,1.5455,0,0.00017735,1772.3,5.981e-05,15.382,5.7763e-05,0.0039552,-0.00017709,-1764.6,1.57
18686,16.11,1.6364,0.05,7.8737e-07,7.8683,6.046e-07,4.5427,3.7619e-12,2.7386e-06,-6.0461e-07,-4.5428,1.5701
18687,16.386,1.6364,0,0.00017063,1705.1,5.7676e-05,16.396,5.5494e-05,0.0049217,-0.00017034,-1696.9,1.6128
18688,16.294,1.5455,0,0.00017289,1727.7,5.8392e-05,16.053,5.6256e-05,0.004147,-0.00017261,-1719.6,1.5984
18689,16.294,1.6364,0.05,7.8408e-07,7.8354,6.0207e-07,4.5237,3.3221e-12,3.3064e-06,-6.0208e-07,-4.5238,1.5985
18690,16.569,1.6364,0,0.00016619,1660.8,5.6272e-05,17.112,5.3995e-05,0.0051204,-0.0001659,-1652.2,1.6413
18691,16.477,1.5455,0,0.00016844,1683.2,5.6981e-05,16.738,5.4754e-05,0.0043204,-0.00016815,-1674.8,1.6269
18692,16.477,1.6364,0.05,7.8082e-07,7.8028,5.9957e-07,4.5049,3.7857e-12,3.0119e-06,-5.9957e-07,-4.505,1.627
18693,16.753,1.6364,0,0.00016178,1616.7,5.4876e-05,17.848,5.2501e-05,0.0053393,-0.00016147,-1607.7,1.67
18694,16.661,1.5455,0,0.00016401,1639,5.5579e-05,17.441,5.3258e-05,0.0045138,-0.00016371,-1630.2,1.6555
18695,16.661,1.6364,0.05,7.7759e-07,7.7705,5.9709e-07,4.4863,3.3441e-12,4.3931e-06,-5.9709e-07,-4.4864,1.6556
18696,16.936,1.6364,0,0.00015739,1572.8,5.349e-05,18.61,5.1014e-05,0.0055765,-0.00015706,-1563.4,1.6988
18697,16.844,1.5455,0,0.00015961,1595,5.4185e-05,18.166,5.1768e-05,0.0047254,-0.00015929,-1585.8,1.6842
18698,16.844,1.6364,0.05,7.744e-07,7.7386,5.9464e-07,4.4678,3.3541e-12,7.1202e-06,-5.9464e-07,-4.4679,1.6844
18699,17.119,1.6364,0,0.00015302,1529.1,5.2113e-05,19.401,4.9531e-05,0.0058216,-0.00015268,-1519.3,1.7277
18700,17.028,1.5455,0,0.00015522,1551.2,5.2801e-05,18.916,5.0284e-05,0.0049563,-0.00015489,-1541.6,1.7131
18701,17.028,1.6364,0.05,7.7125e-07,7.7071,5.9222e-07,4.4497,3.3639e-12,6.763e-06,-5.9222e-07,-4.4498,1.7132
18702,17.303,1.6364,0,0.00014866,1485.6,5.0746e-05,20.227,4.8055e-05,0.0060741,-0.00014831,-1475.4,1.7567
18703,17.211,1.5455,0,0.00015086,1507.6,5.1426e-05,19.697,4.8805e-05,0.0051824,-0.00015051,-1497.6,1.742
18704,17.211,1.6364,0.05,7.6814e-07,7.6761,5.8983e-07,4.4318,2.9246e-12,6.2466e-06,-5.8984e-07,-4.4318,1.7421
18705,17.486,1.6364,0,0.00014434,1442.4,4.9389e-05,21.091,4.6583e-05,0.0063456,-0.00014397,-1431.7,1.7857
18706,17.395,1.5455,0,0.00014652,1464.2,5.0061e-05,20.513,4.7332e-05,0.0054241,-0.00014616,-1453.8,1.7711
18707,17.395,1.6364,0.05,7.6507e-07,7.6455,5.8748e-07,4.4141,2.4919e-12,5.9064e-06,-5.8748e-07,-4.4141,1.7712
18708,17.67,1.6364,0,0.00014003,1399.3,4.8044e-05,21.999,4.5117e-05,0.0066278,-0.00013964,-1388.2,1.8149
18709,17.578,1.5455,0,0.0001422,1421,4.8707e-05,21.368,4.5864e-05,0.0056868,-0.00014182,-1410.2,1.8002
18710,17.578,1.6364,0.05,7.6205e-07,7.6153,5.8516e-07,4.3967,3.4086e-12,8.4278e-06,-5.8516e-07,-4.3967,1.8003
18711,17.853,1.6364,0,0.00013575,1356.5,4.6709e-05,22.956,4.3655e-05,0.0069301,-0.00013534,-1344.9,1.8442
18712,17.762,1.5455,0,0.0001379,1378.1,4.7363e-05,22.267,4.44e-05,0.0059485,-0.00013751,-1366.8,1.8294
18713,17.762,1.6364,0.05,7.5908e-07,7.5856,5.8288e-07,4.3795,2.5173e-12,8.5272e-06,-5.8288e-07,-4.3796,1.8295
18714,18.037,1.6364,0,0.00013149,1314,4.5387e-05,23.968,4.2198e-05,0.0072633,-0.00013106,-1301.8,1.8736
18715,17.945,1.5455,0,0.00013363,1335.3,4.6031e-05,23.216,4.2942e-05,0.0062493,-0.00013322,-1323.6,1.8588
18716,17.945,1.6364,0.05,7.5615e-07,7.5563,5.8063e-07,4.3626,2.5311e-12,1.0747e-05,-5.8063e-07,-4.3627,1.8589
18717,18.22,1.6364,0,0.00012725,1271.6,4.4078e-05,25.04,4.0746e-05,0.0076107,-0.0001268,-1258.9,1.903
18718,18.129,1.5455,0,0.00012937,1292.8,4.4711e-05,24.219,4.1489e-05,0.0065714,-0.00012894,-1280.6,1.8882
18719,18.129,1.6364,0.05,7.5329e-07,7.5277,5.7843e-07,4.3461,3.0233e-12,7.6361e-06,-5.7843e-07,-4.3461,1.8883
18720,18.404,1.6364,0,0.00012303,1229.5,4.2782e-05,26.179,3.9298e-05,0.0079803,-0.00012257,-1216.2,1.9326
18721,18.312,1.5455,0,0.00012514,1250.6,4.3404e-05,25.283,4.004e-05,0.0068984,-0.0001247,-1237.7,1.9177
18722,18.312,1.6364,0.05,7.5047e-07,7.4996,5.7627e-07,4.3298,2.1302e-12,8.2092e-06,-5.7627e-07,-4.3299,1.9178
18723,18.587,1.6364,0,0.00011884,1187.6,4.1499e-05,27.392,3.7855e-05,0.0083859,-0.00011835,-1173.7,1.9622
18724,18.496,1.5455,0,0.00012094,1208.6,4.2109e-05,26.413,3.8595e-05,0.0072609,-0.00012047,-1195.1,1.9473
18725,18.496,1.6364,0.05,7.4772e-07,7.4721,5.7416e-07,4.314,2.6112e-12,7.6889e-06,-5.7416e-07,-4.314,1.9474
18726,18.771,1.6364,0,0.00011468,1146,4.0231e-05,28.684,3.6415e-05,0.0088307,-0.00011416,-1131.4,1.9919
18727,18.679,1.5455,0,0.00011676,1166.8,4.0829e-05,27.617,3.7154e-05,0.0076595,-0.00011626,-1152.7,1.9769
18728,18.679,1.6364,0.05,7.4504e-07,7.4453,5.721e-07,4.2985,2.1782e-12,1.1766e-05,-5.721e-07,-4.2985,1.977
18729,18.954,1.6364,0,0.00011054,1104.6,3.8979e-05,30.065,3.4979e-05,0.0093091,-0.00010999,-1089.3,2.0217
18730,18.863,1.5455,0,0.0001126,1125.2,3.9563e-05,28.899,3.5718e-05,0.0080972,-0.00011208,-1110.5,2.0067
18731,18.863,1.6364,0.05,7.4243e-07,7.4192,5.7009e-07,4.2835,2.6372e-12,1.1033e-05,-5.701e-07,-4.2835,2.0068
18732,19.138,1.6364,0,0.00010642,1063.5,3.7742e-05,31.541,3.3546e-05,0.0098225,-0.00010585,-1047.3,2.0515
18733,19.046,1.5455,0,0.00010847,1083.9,3.8312e-05,30.269,3.4284e-05,0.0085585,-0.00010792,-1068.4,2.0365
18734,19.046,1.6364,0.05,7.3991e-07,7.394,5.6815e-07,4.2689,2.1785e-12,1.1121e-05,-5.6816e-07,-4.2689,2.0366
18735,19.321,1.6364,0,0.00010233,1022.6,3.6523e-05,33.122,3.2116e-05,0.010387,-0.00010173,-1005.6,2.0814
18736,19.229,1.5455,0,0.00010436,1042.8,3.7077e-05,31.734,3.2855e-05,0.0090645,-0.00010378,-1026.6,2.0664
18737,19.229,1.6364,0.05,7.3746e-07,7.3695,5.6628e-07,4.2548,2.661e-12,1.0116e-05,-5.6628e-07,-4.2548,2.0665
18738,19.505,1.6364,0,9.8266e-05,981.99,3.5321e-05,34.816,3.0689e-05,0.010998,-9.7628e-05,-964.11,2.1114
18739,19.413,1.5455,0,0.00010027,1002,3.5859e-05,33.302,3.1428e-05,0.0096219,-9.9666e-05,-984.97,2.0963
18740,19.413,1.6364,0.05,7.3512e-07,7.3461,5.6448e-07,4.2413,2.269e-12,1.4614e-05,-5.6448e-07,-4.2413,2.0964
18741,19.688,1.6364,0,9.4229e-05,941.64,3.4138e-05,36.634,2.9264e-05,0.011669,-9.3552e-05,-922.79,2.1415
18742,19.596,1.5455,0,9.6217e-05,961.5,3.4658e-05,34.983,3.0004e-05,0.010219,-9.5574e-05,-943.53,2.1264
18743,19.596,1.6364,0.05,7.3287e-07,7.3236,5.6275e-07,4.2283,2.2741e-12,1.3809e-05,-5.6275e-07,-4.2283,2.1264
18744,19.872,1.6364,0,9.022e-05,901.58,3.2976e-05,38.586,2.7842e-05,0.012418,-8.9501e-05,-881.66,2.1716
18745,19.78,1.5455,0,9.2186e-05,921.23,3.3476e-05,36.785,2.8582e-05,0.010894,-9.1505e-05,-902.28,2.1565
18746,19.78,1.6364,0.05,7.3073e-07,7.3023,5.6111e-07,4.216,2.3012e-12,1.636e-05,-5.6111e-07,-4.216,2.1565
18747,20.055,1.6364,0,8.6239e-05,861.79,3.1834e-05,40.684,2.6421e-05,0.013238,-8.5474e-05,-840.72,2.2018
18748,19.963,1.5455,0,8.8183e-05,881.22,3.2314e-05,38.721,2.7162e-05,0.011639,-8.746e-05,-861.22,2.1866
18749,19.963,1.6364,0.05,7.2872e-07,7.2822,5.5957e-07,4.2044,2.3229e-12,1.6294e-05,-5.5957e-07,-4.2044,2.1867
18750,20.239,1.6364,0,8.2287e-05,822.3,3.0714e-05,42.94,2.5001e-05,0.014147,-8.1472e-05,-799.99,2.232
18751,20.147,1.5455,0,8.4208e-05,841.5,3.1173e-05,40.8,2.5744e-05,0.012454,-8.344e-05,-820.35,2.2168
18752,20.147,1.6364,0.05,7.2685e-07,7.2635,5.5813e-07,4.1936,2.3429e-12,1.7308e-05,-5.5813e-07,-4.1936,2.2169
18753,20.422,1.6364,0,7.8366e-05,783.12,2.9618e-05,45.369,2.3582e-05,0.015167,-7.7495e-05,-759.44,2.2623
18754,20.33,1.5455,0,8.0262e-05,802.07,3.0053e-05,43.036,2.4327e-05,0.013371,-7.9443e-05,-779.68,2.2471
18755,20.33,1.6364,0.05,7.2512e-07,7.2462,5.568e-07,4.1836,2.3497e-12,1.7574e-05,-5.568e-07,-4.1836,2.2472
18756,20.606,1.6364,0,7.4477e-05,744.25,2.8548e-05,47.986,2.2163e-05,0.016316,-7.3544e-05,-719.09,2.2927
18757,20.514,1.5455,0,7.6347e-05,762.94,2.8957e-05,45.443,2.2911e-05,0.014406,-7.5472e-05,-739.2,2.2774
18758,20.514,1.6364,0.05,7.2356e-07,7.2306,5.556e-07,4.1746,2.3812e-12,1.5324e-05,-5.556e-07,-4.1746,2.2775
18759,20.789,1.6364,0,7.0621e-05,705.72,2.7504e-05,50.807,2.0744e-05,0.017611,-6.9619e-05,-678.93,2.3231
18760,20.697,1.5455,0,7.2462e-05,724.12,2.7886e-05,48.035,2.1495e-05,0.015575,-7.1525e-05,-698.9,2.3078
18761,20.697,1.6364,0.05,7.2218e-07,7.2168,5.5454e-07,4.1666,2.3865e-12,1.3245e-05,-5.5455e-07,-4.1666,2.3078
18762,20.973,1.6364,0,6.6799e-05,667.53,2.6489e-05,53.85,1.9324e-05,0.01908,-6.572e-05,-638.97,2.3535
18763,20.881,1.5455,0,6.8611e-05,685.64,2.6841e-05,50.83,2.0079e-05,0.016899,-6.7605e-05,-658.8,2.3382
18764,20.881,1.6364,0.05,7.2101e-07,7.2051,5.5364e-07,4.1598,2.1657e-12,1.4155e-05,-5.5364e-07,-4.1599,2.3383
18765,21.156,1.6364,0,6.3015e-05,629.72,2.5504e-05,57.135,1.7902e-05,0.020765,-6.1848e-05,-599.19,2.384
18766,21.064,1.5455,0,6.4794e-05,647.5,2.5825e-05,53.845,1.8661e-05,0.018412,-6.371e-05,-618.89,2.3687
18767,21.064,1.6364,0.05,7.2006e-07,7.1957,5.5292e-07,4.1544,2.3877e-12,1.7722e-05,-5.5292e-07,-4.1544,2.3687
18768,21.34,1.6364,0,5.927e-05,592.29,2.4552e-05,60.686,1.6478e-05,0.022706,-5.8004e-05,-559.61,2.4145
18769,21.248,1.5455,0,6.1015e-05,609.73,2.4839e-05,57.102,1.7242e-05,0.020162,-5.9842e-05,-579.16,2.3992
18770,21.248,1.6364,0.05,7.1938e-07,7.1888,5.5239e-07,4.1505,2.1349e-12,1.7852e-05,-5.524e-07,-4.1505,2.3992
18771,21.523,1.6364,0,5.5568e-05,555.3,2.3635e-05,64.527,1.505e-05,0.024965,-5.4188e-05,-520.21,2.4451
18772,21.431,1.5455,0,5.7275e-05,572.36,2.3886e-05,60.625,1.582e-05,0.022186,-5.6002e-05,-539.62,2.4297
18773,21.431,1.6364,0.05,7.1899e-07,7.1849,5.5209e-07,4.1482,2.3298e-12,1.6364e-05,-5.521e-07,-4.1482,2.4298
18774,21.706,1.6364,0,5.1913e-05,518.77,2.2756e-05,68.686,1.3618e-05,0.027626,-5.0402e-05,-481,2.4757
18775,21.615,1.5455,0,5.3578e-05,535.42,2.2968e-05,64.439,1.4395e-05,0.024573,-5.219e-05,-500.27,2.4603
18776,21.615,1.6364,0.05,7.1894e-07,7.1844,5.5205e-07,4.1479,1.9734e-12,1.3833e-05,-5.5205e-07,-4.1479,2.4603
18777,21.89,1.6364,0,4.8309e-05,482.76,2.1918e-05,73.193,1.2181e-05,0.030784,-4.6645e-05,-441.97,2.5063
18778,21.798,1.5455,0,4.9929e-05,498.95,2.2088e-05,68.574,1.2965e-05,0.027401,-4.8408e-05,-461.11,2.4909
18779,21.798,1.6364,0.05,7.1927e-07,7.1877,5.5231e-07,4.1498,1.5536e-12,1.6341e-05,-5.5231e-07,-4.1498,2.491
18780,22.073,1.6364,0,4.4763e-05,447.32,2.1125e-05,78.084,1.0737e-05,0.034587,-4.292e-05,-403.12,2.537
18781,21.982,1.5455,0,4.6333e-05,463.01,2.125e-05,73.063,1.153e-05,0.030787,-4.4656e-05,-422.13,2.5216
18782,21.982,1.6364,0.05,7.2005e-07,7.1955,5.5291e-07,4.1543,1.5241e-12,9.4286e-06,-5.5291e-07,-4.1544,2.5216
18783,22.257,1.6364,0,4.1282e-05,412.54,2.0379e-05,83.396,9.2852e-06,0.039239,-3.9226e-05,-364.45,2.5677
18784,22.165,1.5455,0,4.2797e-05,427.68,2.0457e-05,77.945,1.0088e-05,0.034917,-4.0935e-05,-383.33,2.5522
18785,22.165,1.6364,0.05,7.2136e-07,7.2086,5.5391e-07,4.1619,1.7636e-12,1.3452e-05,-5.5391e-07,-4.1619,2.5523
18786,22.44,1.6364,0,3.7877e-05,378.51,1.9685e-05,89.17,7.8236e-06,0.04505,-3.5564e-05,-325.95,2.5984
18787,22.349,1.5455,0,3.933e-05,393.03,1.9714e-05,83.261,8.6381e-06,0.040019,-3.7246e-05,-344.72,2.583
18788,22.349,1.6364,0.05,7.2328e-07,7.2278,5.5539e-07,4.173,1.2599e-12,1.4389e-05,-5.5539e-07,-4.173,2.583
18789,22.624,1.6364,0,3.4561e-05,345.38,1.9047e-05,95.449,6.3505e-06,0.052418,-3.1933e-05,-287.6,2.6291
18790,22.532,1.5455,0,3.5945e-05,359.2,1.9025e-05,89.058,7.1779e-06,0.046497,-3.3591e-05,-306.28,2.6137
18791,22.532,1.6364,0.05,7.2594e-07,7.2544,5.5743e-07,4.1883,7.356e-13,1.6404e-05,-5.5743e-07,-4.1883,2.6137
18792,22.807,1.6364,0,3.1353e-05,313.31,1.8468e-05,102.28,4.864e-06,0.062316,-2.8335e-05,-249.38,2.6599
18793,22.716,1.5455,0,3.2656e-05,326.33,1.8393e-05,95.385,5.7057e-06,0.054765,-2.997e-05,-268,2.6444
18794,22.716,1.6364,0.05,7.2947e-07,7.2897,5.6014e-07,4.2087,8.5736e-13,1.1803e-05,-5.6014e-07,-4.2087,2.6445
18795,22.991,1.6364,0,2.8277e-05,282.57,1.7951e-05,109.69,3.3616e-06,0.075128,-2.4766e-05,-211.26,2.6907
18796,22.899,1.5455,0,2.9486e-05,294.65,1.7825e-05,102.29,4.2193e-06,0.066401,-2.6382e-05,-229.86,2.6752
18797,22.899,1.6364,0.05,7.3402e-07,7.3351,5.6364e-07,4.2349,6.7694e-13,1.5071e-05,-5.6364e-07,-4.2349,2.6752
18798,23.174,1.6364,0,2.5367e-05,253.49,1.7498e-05,117.73,1.8414e-06,0.096938,-2.1223e-05,-173.2,2.7215
18799,23.083,1.5455,0,2.6463e-05,264.45,1.7322e-05,109.83,2.716e-06,0.080707,-2.2825e-05,-191.83,2.706
18800,23.083,1.6364,0.05,7.3976e-07,7.3924,5.6804e-07,4.268,9.327e-13,1.3573e-05,-5.6804e-07,-4.268,2.706
18801,23.358,1.6364,0,2.2672e-05,226.56,1.711e-05,126.42,2.9974e-07,0.11869,-1.7702e-05,-135.14,2.7523
18802,23.266,1.5455,0,2.3631e-05,236.14,1.6888e-05,118.03,1.194e-06,0.11085,-1.9297e-05,-153.85,2.7368
18803,23.266,1.6364,0.05,7.4684e-07,7.4632,5.7348e-07,4.3089,2.5995e-13,8.1628e-06,-5.7348e-07,-4.3089,2.7368
18804,23.541,1.6364,0,2.0265e-05,202.51,1.6784e-05,135.79,-1.2597e-06,0.21169,-1.4197e-05,-96.998,2.7831
18805,23.45,1.5455,0,2.1047e-05,210.33,1.6522e-05,126.92,-3.5211e-07,0.12673,-1.579e-05,-115.87,2.7676
18806,23.45,1.6364,0.05,7.5538e-07,7.5486,5.8004e-07,4.3582,4.812e-14,3.6394e-06,-5.8004e-07,-4.3582,2.7677
18807,23.725,1.6364,0,1.825e-05,182.37,1.6522e-05,145.77,-2.8523e-06,0.20059,-1.0704e-05,-58.791,2.8139
18808,23.633,1.5455,0,1.8802e-05,187.89,1.6224e-05,136.56,-1.9102e-06,0.30559,-1.2303e-05,-77.786,2.7985
18809,23.633,1.6364,0.05,7.6586e-07,7.6533,5.8809e-07,4.4187,2.0981e-14,4.4931e-06,-5.8809e-07,-4.4187,2.7985
18810,23.817,1.5455,0,1.7024e-05,170.12,1.5995e-05,146.78,-3.518e-06,0.1625,-8.8305e-06,-39.754,2.8293
18811,23.817,1.6364,0.05,7.8633e-07,7.8579,6.038e-07,4.5368,3.5888e-13,5.4353e-06,-6.038e-07,-4.5367,2.8293
18812,23.908,1.6364,0,1.6782e-05,167.7,1.6291e-05,155.54,-4.3538e-06,0.42737,-7.3929e-06,-22.408,2.8448
18813,3.5419,1.4545,0,0.00065282,6523.7,0.00039518,2261.4,9.1795e-05,-18.173,-0.00058405,-5096.2,0.080571
18814,3.4501,1.3636,0,0.00063341,6329.7,0.0004108,2563.6,6.6706e-05,-21.797,-0.00054922,-4649.6,0.07326
18815,3.4501,1.4545,0.05,3.2709e-05,326.87,2.5117e-05,188.72,-3.4315e-11,-0.00033206,-2.5117e-05,-188.72,0.074128
18816,3.3584,1.4545,0,0.00057231,5719.2,0.00037731,2399.7,5.4992e-05,-22.104,-0.00049199,-4131.9,0.067882
18817,3.7254,1.4545,0,0.00058898,5885.8,0.00030426,1360.4,0.00012272,-3.6552,-0.00055392,-5087.6,0.093426
18818,3.6336,1.3636,0,0.00056104,5606.5,0.00031174,1581.3,0.00010105,-1.714,-0.00051713,-4646.5,0.086162
18819,3.6336,1.4545,0.05,1.9779e-05,197.66,1.5188e-05,114.12,-6.3456e-11,-0.00062494,-1.5188e-05,-114.12,0.086896
18820,3.9088,1.4545,0,0.00055352,5531.4,0.00024903,809.3,0.0001407,-4.6516,-0.00053532,-5084,0.10653
18821,3.8171,1.3636,0,0.0005299,5295.4,0.00025538,988.53,0.00012319,-4.675,-0.00050613,-4733.1,0.099249
18822,3.8171,1.4545,0.05,1.1871e-05,118.63,9.1153e-06,68.489,-7.7978e-11,-0.00073802,-9.1152e-06,-68.489,0.099876
18823,4.0923,1.4545,0,0.00052916,5287.9,0.00021271,459.27,0.000151,-4.3537,-0.00051989,-5045.2,0.11993
18824,4.0006,1.3636,0,0.00051001,5096.6,0.00021771,599.53,0.00013739,-3.9494,-0.00049719,-4772,0.11258
18825,4.0006,1.4545,0.05,8.3895e-06,83.837,6.4421e-06,48.403,-8.1791e-11,-0.0007822,-6.442e-06,-48.403,0.11313
18826,4.2758,1.4545,0,0.0005128,5124.5,0.00018955,242.22,0.00015669,-4.6758,-0.00050832,-5001.3,0.13364
18827,4.1841,1.3636,0,0.00049767,4973.3,0.00019337,350.26,0.00014625,-3.8024,-0.00049083,-4790.6,0.1262
18828,4.1841,1.4545,0.05,6.3124e-06,63.081,4.8472e-06,36.42,-8.3254e-11,-0.00080532,-4.8471e-06,-36.42,0.12668
18829,4.4593,1.4545,0,0.00050129,5009.4,0.00017481,108.81,0.00015946,-6.5516,-0.00049945,-4957.3,0.14766
18830,4.3676,1.3636,0,0.00048971,4893.7,0.00017778,192.25,0.00015163,-4.1979,-0.00048621,-4796.7,0.14011
18831,4.3676,1.4545,0.05,5.0417e-06,50.382,3.8714e-06,29.088,-8.1561e-11,-0.00072119,-3.8714e-06,-29.088,0.14055
18832,4.6428,1.4545,0,0.00049259,4922.5,0.00016596,32.044,0.00015972,-14.895,-0.00049228,-4913.7,0.16202
18833,4.551,1.3636,0,0.00048405,4837.2,0.0001677,92.165,0.00015467,-5.7508,-0.00048251,-4793.2,0.15434
18834,4.551,1.4545,0.05,4.1366e-06,41.338,3.1764e-06,23.866,-6.4105e-11,-0.0005363,-3.1764e-06,-23.866,0.15475
18835,4.8263,1.4545,0,0.00048543,4850.9,0.00016301,7.3918,0.0001561,-44.486,-0.00048604,-4869.3,0.17669
18836,4.7345,1.3636,0,0.00047945,4791.2,0.00016142,31.57,0.0001557,-11.403,-0.00047909,-4780.9,0.16888
18837,4.7345,1.4545,0.05,3.4548e-06,34.524,2.6529e-06,19.933,-6.1679e-11,-0.00060915,-2.6529e-06,-19.933,0.16926
18838,5.0097,1.4545,0,0.0004791,4787.7,0.00016206,3.063,0.00015165,-75.151,-0.00048027,-4823.2,0.19169
18839,4.918,1.3636,0,0.0004752,4748.7,0.00015904,7.8688,0.00015377,-31.765,-0.00047559,-4760.5,0.18374
18840,4.918,1.4545,0.05,2.9209e-06,29.189,2.2429e-06,16.852,-5.2634e-11,-0.00044826,-2.2429e-06,-16.852,0.1841
18841,5.1932,1.4545,0,0.00047319,4728.6,0.00016104,1.6876,0.00014798,-96.441,-0.00047472,-4775.2,0.20702
18842,5.1015,1.3636,0,0.00047096,4706.4,0.00015848,3.0941,0.00015051,-56.804,-0.00047185,-4733,0.19892
18843,5.1015,1.4545,0.05,2.4972e-06,24.955,1.9175e-06,14.408,-4.7822e-11,-0.0005277,-1.9175e-06,-14.407,0.19927
18844,5.3767,1.4545,0,0.00046749,4671.7,0.00015979,1.0497,0.00014497,-110.32,-0.00046925,-4725.3,0.22266
18845,5.285,1.3636,0,0.00046659,4662.6,0.00015785,1.6454,0.00014755,-75.73,-0.0004678,-4699.2,0.21441
18846,5.285,1.4545,0.05,2.1599e-06,21.585,1.6586e-06,12.462,-3.6292e-11,-0.00037574,-1.6586e-06,-12.462,0.21475
18847,5.5602,1.4545,0,0.0004619,4615.9,0.00015834,0.69646,0.00014242,-118.91,-0.0004638,-4673.8,0.23862
18848,5.4684,1.3636,0,0.00046203,4617.1,0.00015694,0.9993,0.00014496,-88.959,-0.00046346,-4660.4,0.23022
18849,5.4684,1.4545,0.05,1.8926e-06,18.913,1.4533e-06,10.92,-2.8315e-11,-0.00028881,-1.4533e-06,-10.92,0.23055
18850,5.7437,1.4545,0,0.00045638,4560.7,0.00015673,0.4808,0.00014021,-123.68,-0.00045835,-4621,0.25488
18851,5.6519,1.3636,0,0.00045729,4569.7,0.00015578,0.65171,0.00014267,-97.83,-0.00045886,-4617.5,0.24634
18852,5.6519,1.4545,0.05,1.6826e-06,16.814,1.292e-06,9.7076,-2.1634e-11,-0.00020759,-1.292e-06,-9.7076,0.24667
18853,5.9271,1.4545,0,0.0004509,4505.9,0.00015501,0.34117,0.00013824,-125.63,-0.0004529,-4567.2,0.27146
18854,5.8354,1.3636,0,0.0004524,4520.9,0.00015442,0.44446,0.0001406,-103.38,-0.00045406,-4571.5,0.26277
18855,5.8354,1.4545,0.05,1.5192e-06,15.182,1.1666e-06,8.7652,-1.6487e-11,-0.00021488,-1.1666e-06,-8.7653,0.26309
18856,6.1106,1.4545,0,0.00044546,4451.5,0.00015319,0.24716,0.00013646,-125.46,-0.00044746,-4512.8,0.28834
18857,6.0189,1.3636,0,0.0004474,4470.9,0.00015291,0.31282,0.00013871,-106.36,-0.00044911,-4523,0.2795
18858,6.0189,1.4545,0.05,1.3937e-06,13.927,1.0702e-06,8.0408,-1.0925e-11,-0.00011391,-1.0702e-06,-8.0409,0.27982
18859,6.2941,1.4545,0,0.00044006,4397.5,0.00015132,0.18207,0.00013483,-123.67,-0.00044203,-4458,0.30553
18860,6.2024,1.3636,0,0.00044232,4420.2,0.00015127,0.22554,0.00013695,-107.33,-0.00044404,-4472.7,0.29654
18861,6.2024,1.4545,0.05,1.2981e-06,12.972,9.9678e-07,7.4894,-7.392e-12,-0.0001456,-9.9679e-07,-7.4896,0.29686
18862,6.4776,1.4545,0,0.00043469,4343.9,0.00014939,0.13606,0.00013332,-120.64,-0.00043661,-4402.9,0.32301
18863,6.3858,1.3636,0,0.00043719,4368.9,0.00014954,0.16585,0.00013532,-106.7,-0.0004389,-4421.2,0.31387
18864,6.3858,1.4545,0.05,1.2258e-06,12.25,9.4128e-07,7.0723,5.8644e-13,-9.5468e-05,-9.4127e-07,-7.0725,0.31419
18865,6.6611,1.4545,0,0.00042936,4290.6,0.00014744,0.10297,0.00013189,-116.68,-0.00043122,-4347.7,0.34078
18866,6.5693,1.3636,0,0.00043202,4317.3,0.00014774,0.12401,0.00013377,-104.82,-0.00043371,-4368.6,0.3315
18867,6.5693,1.4545,0.05,1.1712e-06,11.704,8.9935e-07,6.7573,-2.2099e-12,-5.7523e-05,-8.9935e-07,-6.7575,0.33182
18868,6.8445,1.4545,0,0.00042407,4237.8,0.00014546,0.078847,0.00013054,-112.03,-0.00042586,-4292.6,0.35885
18869,6.7528,1.3636,0,0.00042684,4265.5,0.00014589,0.094119,0.0001323,-101.96,-0.00042848,-4315.5,0.34943
18870,6.7528,1.4545,0.05,1.1298e-06,11.29,8.6753e-07,6.5182,3.0256e-12,-3.1297e-05,-8.6754e-07,-6.5184,0.34974
18871,7.028,1.4545,0,0.00041881,4185.2,0.00014347,0.061038,0.00012924,-106.89,-0.00042052,-4237.6,0.3772
18872,6.9363,1.3636,0,0.00042166,4213.7,0.000144,0.072395,0.0001309,-98.362,-0.00042324,-4262,0.36764
18873,6.9363,1.4545,0.05,1.098e-06,10.972,8.4312e-07,6.3348,3.6395e-12,-2.5793e-05,-8.4313e-07,-6.335,0.36795
18874,7.2115,1.4545,0,0.00041358,4133,0.00014148,0.047753,0.00012797,-101.42,-0.00041521,-4182.7,0.39584
18875,7.1198,1.3636,0,0.00041648,4161.9,0.00014208,0.056382,0.00012954,-94.206,-0.000418,-4208.2,0.38613
18876,7.1198,1.4545,0.05,1.0732e-06,10.724,8.2406e-07,6.1916,5.1144e-12,-2.1805e-05,-8.2407e-07,-6.1918,0.38645
18877,7.395,1.4545,0,0.00040838,4081,0.00013949,0.03775,0.00012674,-95.751,-0.00040993,-4128,0.41475
18878,7.3032,1.3636,0,0.0004113,4110.2,0.00014015,0.04443,0.00012821,-89.659,-0.00041275,-4154.2,0.40491
18879,7.3032,1.4545,0.05,1.0534e-06,10.526,8.0884e-07,6.0772,3.1828e-12,-2.9298e-05,-8.0886e-07,-6.0776,0.40522
18880,7.5785,1.4545,0,0.00040321,4029.3,0.0001375,0.030154,0.00012551,-89.995,-0.00040467,-4073.6,0.43394
18881,7.4867,1.3636,0,0.00040614,4058.6,0.00013821,0.03541,0.00012691,-84.855,-0.00040751,-4100.3,0.42397
18882,7.4867,1.4545,0.05,1.0371e-06,10.364,7.9638e-07,5.9836,7.7659e-12,-1.8467e-05,-7.9639e-07,-5.9839,0.42428
18883,7.7619,1.4545,0,0.00039806,3977.9,0.00013551,0.024345,0.0001243,-84.239,-0.00039943,-4019.3,0.45341
18884,7.6702,1.3636,0,0.00040098,4007.1,0.00013627,0.028536,0.00012563,-79.905,-0.00040228,-4046.4,0.4433
18885,7.6702,1.4545,0.05,1.0235e-06,10.228,7.8588e-07,5.9048,6.8312e-12,-1.4718e-05,-7.859e-07,-5.905,0.44361
18886,7.9454,1.4545,0,0.00039293,3926.6,0.00013354,0.019873,0.00012308,-78.553,-0.00039421,-3965.3,0.47314
18887,7.8537,1.3636,0,0.00039584,3955.7,0.00013432,0.023252,0.00012435,-74.899,-0.00039706,-3992.6,0.4629
18888,7.8537,1.4545,0.05,1.0116e-06,10.109,7.7681e-07,5.8366,5.6893e-12,-1.3338e-05,-7.7682e-07,-5.8368,0.46321
18889,8.1289,1.4545,0,0.00038782,3875.5,0.00013158,0.01641,0.00012186,-72.99,-0.00038901,-3911.5,0.49314
18890,8.0372,1.3636,0,0.00039071,3904.5,0.00013238,0.01916,0.00012308,-69.91,-0.00039186,-3938.9,0.48276
18891,8.0372,1.4545,0.05,1.0012e-06,10.005,7.6878e-07,5.7762,6.3818e-12,-9.2026e-06,-7.6879e-07,-5.7765,0.48307
18892,8.3124,1.4545,0,0.00038272,3824.5,0.00012963,0.013717,0.00012063,-67.594,-0.00038382,-3857.9,0.5134
18893,8.2206,1.3636,0,0.0003856,3853.3,0.00013045,0.015969,0.0001218,-64.995,-0.00038666,-3885.4,0.5029
18894,8.2206,1.4545,0.05,9.9173e-07,9.9105,7.6152e-07,5.7217,5.7666e-12,-8.8707e-06,-7.6153e-07,-5.7219,0.5032
18895,8.4959,1.4545,0,0.00037763,3773.7,0.0001277,0.011614,0.00011939,-62.393,-0.00037865,-3804.5,0.53392
18896,8.4041,1.3636,0,0.00038049,3802.3,0.00012853,0.013469,0.00012052,-60.199,-0.00038148,-3832,0.52329
18897,8.4041,1.4545,0.05,9.8304e-07,9.8236,7.5485e-07,5.6716,5.1006e-12,-7.4216e-06,-7.5486e-07,-5.6718,0.52359
18898,8.6794,1.4545,0,0.00037255,3723,0.00012578,0.0099683,0.00011813,-57.409,-0.0003735,-3751.3,0.55469
18899,8.5876,1.3636,0,0.0003754,3751.4,0.00012662,0.0115,0.00011923,-55.555,-0.00037631,-3778.8,0.54394
18900,8.5876,1.4545,0.05,9.7495e-07,9.7428,7.4864e-07,5.6249,7.3044e-12,-6.4964e-06,-7.4865e-07,-5.6251,0.54424
18901,8.8628,1.4545,0,0.00036749,3672.4,0.00012387,0.0086778,0.00011686,-52.657,-0.00036836,-3698.4,0.57571
18902,8.7711,1.3636,0,0.00037031,3700.5,0.00012472,0.0099442,0.00011792,-51.088,-0.00037115,-3725.8,0.56484
18903,8.7711,1.4545,0.05,9.6734e-07,9.6668,7.4279e-07,5.581,6.6555e-12,-5.6873e-06,-7.4281e-07,-5.5812,0.56514
18904,9.0463,1.4545,0,0.00036244,3621.9,0.00012198,0.007665,0.00011557,-48.143,-0.00036323,-3645.7,0.59699
18905,8.9546,1.3636,0,0.00036523,3649.8,0.00012284,0.008712,0.00011661,-46.814,-0.00036601,-3673,0.58599
18906,8.9546,1.4545,0.05,9.6013e-07,9.5947,7.3725e-07,5.5394,7.6978e-12,-5.7297e-06,-7.3727e-07,-5.5396,0.58629
18907,9.2298,1.4545,0,0.00035739,3571.4,0.00012011,0.0068721,0.00011427,-43.871,-0.00035812,-3593.2,0.6185
18908,9.1381,1.3636,0,0.00036017,3599.2,0.00012097,0.0077353,0.00011528,-42.743,-0.00036088,-3620.4,0.60739
18909,9.1381,1.4545,0.05,9.5325e-07,9.5259,7.3197e-07,5.4997,7.9135e-12,-4.7731e-06,-7.3199e-07,-5.4999,0.60768
18910,9.4133,1.4545,0,0.00035235,3521.1,0.00011825,0.0062537,0.00011294,-39.84,-0.00035301,-3540.9,0.64026
18911,9.3215,1.3636,0,0.00035511,3548.7,0.00011911,0.0069627,0.00011393,-38.881,-0.00035576,-3567.9,0.62903
18912,9.3215,1.4545,0.05,9.4666e-07,9.4601,7.2691e-07,5.4617,6.2941e-12,-4.1343e-06,-7.2693e-07,-5.4619,0.62932
18913,9.5968,1.4545,0,0.00034733,3470.9,0.0001164,0.005777,0.0001116,-36.046,-0.00034792,-3488.7,0.66226
18914,9.505,1.3636,0,0.00035006,3498.2,0.00011726,0.0063527,0.00011257,-35.229,-0.00035065,-3515.7,0.65091
18915,9.505,1.4545,0.05,9.4033e-07,9.3969,7.2205e-07,5.4252,6.3991e-12,-3.7859e-06,-7.2207e-07,-5.4253,0.6512
18916,9.7802,1.4545,0,0.00034231,3420.7,0.00011457,0.0054124,0.00011024,-32.482,-0.00034285,-3436.8,0.68449
18917,9.6885,1.3636,0,0.00034503,3447.9,0.00011543,0.0058794,0.0001112,-31.785,-0.00034556,-3463.7,0.67303
18918,9.6885,1.4545,0.05,9.3423e-07,9.3359,7.1737e-07,5.39,6.5364e-12,-2.5111e-06,-7.1738e-07,-5.3902,0.67331
18919,9.9637,1.4545,0,0.0003373,3370.6,0.00011275,0.0051446,0.00010887,-29.141,-0.00033778,-3385.1,0.70695
18920,9.872,1.3636,0,0.00034,3397.6,0.00011361,0.0055087,0.00010981,-28.545,-0.00034047,-3411.8,0.69538
18921,9.872,1.4545,0.05,9.2834e-07,9.277,7.1285e-07,5.356,6.5845e-12,-2.7495e-06,-7.1286e-07,-5.3562,0.69566
18922,10.147,1.4545,0,0.0003323,3320.7,0.00011094,0.0049612,0.00010748,-26.014,-0.00033273,-3333.6,0.72963
18923,10.055,1.3636,0,0.00033498,3347.5,0.0001118,0.0052437,0.00010841,-25.503,-0.00033541,-3360.2,0.71795
18924,10.055,1.4545,0.05,9.2264e-07,9.2201,7.0847e-07,5.3231,5.7697e-12,-1.4329e-06,-7.0848e-07,-5.3233,0.71823
18925,10.331,1.4545,0,0.00032731,3270.8,0.00010915,0.0048286,0.00010608,-23.09,-0.00032769,-3282.3,0.75255
18926,10.239,1.3636,0,0.00032997,3297.4,0.00011001,0.0050554,0.000107,-22.652,-0.00033035,-3308.7,0.74076
18927,10.239,1.4545,0.05,9.1713e-07,9.1649,7.0423e-07,5.2913,6.7385e-12,-1.2253e-06,-7.0425e-07,-5.2915,0.74103
18928,10.514,1.4545,0,0.00032232,3221,0.00010737,0.0047495,0.00010466,-20.358,-0.00032267,-3231.2,0.77568
18929,10.422,1.3636,0,0.00032498,3247.5,0.00010823,0.004907,0.00010557,-19.983,-0.00032531,-3257.5,0.76378
18930,10.422,1.4545,0.05,9.1177e-07,9.1114,7.0012e-07,5.2604,5.9007e-12,-5.2745e-07,-7.0013e-07,-5.2605,0.76406
18931,10.698,1.4545,0,0.00031735,3171.4,0.00010561,0.0047459,0.00010324,-17.81,-0.00031765,-3180.2,0.79903
18932,10.606,1.3636,0,0.00031999,3197.7,0.00010646,0.0048415,0.00010413,-17.487,-0.00032028,-3206.4,0.78703
18933,10.606,1.4545,0.05,9.0655e-07,9.0593,6.9611e-07,5.2303,6.8689e-12,2.3374e-07,-6.9612e-07,-5.2305,0.7873
18934,10.881,1.4545,0,0.0003124,3121.8,0.00010385,0.0048202,0.0001018,-15.432,-0.00031265,-3129.5,0.82259
18935,10.789,1.3636,0,0.00031502,3148,0.00010471,0.0048613,0.00010269,-15.156,-0.00031527,-3155.5,0.81049
18936,10.789,1.4545,0.05,9.0148e-07,9.0085,6.9222e-07,5.201,6.0162e-12,4.3863e-07,-6.9223e-07,-5.2012,0.81075
18937,11.065,1.4545,0,0.00030745,3072.4,0.00010211,0.004947,0.00010035,-13.216,-0.00030767,-3078.9,0.84636
18938,10.973,1.3636,0,0.00031005,3098.4,0.00010296,0.0049743,0.00010123,-12.979,-0.00031027,-3104.9,0.83416
18939,10.973,1.4545,0.05,8.9654e-07,8.9592,6.8842e-07,5.1725,6.9541e-12,3.1301e-07,-6.8844e-07,-5.1727,0.83442
18940,11.248,1.4545,0,0.00030251,3023,0.00010038,0.0051284,9.8896e-05,-11.15,-0.0003027,-3028.6,0.87034
18941,11.156,1.3636,0,0.0003051,3048.9,0.00010123,0.005129,9.9768e-05,-10.947,-0.00030529,-3054.4,0.85804
18942,11.156,1.4545,0.05,8.9172e-07,8.9111,6.8473e-07,5.1447,5.176e-12,7.4117e-07,-6.8474e-07,-5.1449,0.8583
18943,11.432,1.4545,0,0.00029759,2973.8,9.8661e-05,0.0054378,9.7433e-05,-9.2247,-0.00029774,-2978.4,0.89452
18944,11.34,1.3636,0,0.00030017,2999.6,9.9503e-05,0.0053952,9.8298e-05,-9.0521,-0.00030032,-3004.1,0.88213
18945,11.34,1.4545,0.05,8.8701e-07,8.864,6.8111e-07,5.1175,5.2225e-12,1.7857e-06,-6.8112e-07,-5.1178,0.88238
18946,11.615,1.4545,0,0.00029268,2924.8,9.6952e-05,0.0059038,9.5962e-05,-7.4301,-0.0002928,-2928.5,0.91891
18947,11.523,1.3636,0,0.00029524,2950.4,9.7791e-05,0.0058773,9.682e-05,-7.2838,-0.00029536,-2954,0.90641
18948,11.523,1.4545,0.05,8.8241e-07,8.818,6.7758e-07,5.091,6.1585e-12,1.6483e-06,-6.7759e-07,-5.0912,0.90666
18949,11.799,1.4545,0,0.00028778,2875.8,9.5253e-05,0.0066054,9.4486e-05,-5.7569,-0.00028788,-2878.7,0.94349
18950,11.707,1.3636,0,0.00029033,2901.3,9.6089e-05,0.0065926,9.5338e-05,-5.6342,-0.00029043,-2904.1,0.9309
18951,11.707,1.4545,0.05,8.7791e-07,8.7731,6.7412e-07,5.0651,4.3635e-12,2.1926e-06,-6.7414e-07,-5.0652,0.93115
18952,11.982,1.4545,0,0.0002829,2827,9.3564e-05,0.0077981,9.3005e-05,-4.1964,-0.00028297,-2829.1,0.96826
18953,11.89,1.3636,0,0.00028543,2852.4,9.4397e-05,0.0078426,9.3851e-05,-4.0949,-0.0002855,-2854.4,0.95558
18954,11.89,1.4545,0.05,8.735e-07,8.729,6.7073e-07,5.0396,6.2117e-12,3.3542e-06,-6.7074e-07,-5.0397,0.95583
18955,12.165,1.4545,0,0.00027803,2778.3,9.1885e-05,0.010138,9.1519e-05,-2.7408,-0.00027807,-2779.7,0.99323
18956,12.074,1.3636,0,0.00028055,2803.6,9.2715e-05,0.010372,9.2359e-05,-2.6584,-0.0002806,-2804.9,0.98046
18957,12.074,1.4545,0.05,8.6917e-07,8.6857,6.6741e-07,5.0146,7.1492e-12,3.0426e-06,-6.6742e-07,-5.0148,0.9807
18958,12.349,1.4545,0,0.00027317,2729.8,9.0217e-05,0.016756,9.003e-05,-1.3852,-0.00027319,-2730.5,1.0184
18959,12.257,1.3636,0,0.00027568,2754.9,9.1043e-05,0.017695,9.0865e-05,-1.321,-0.00027571,-2755.6,1.0055
18960,12.257,1.4545,0.05,8.6492e-07,8.6432,6.6414e-07,4.9901,7.1714e-12,3.6168e-06,-6.6416e-07,-4.9903,1.0058
18961,12.532,1.4545,0,0.00026833,2681.5,8.8567e-05,0.098461,8.8529e-05,-0.19262,-0.00026833,-2681.5,1.0437
18962,12.441,1.3636,0,0.00027083,2706.5,8.9393e-05,0.1192,8.9355e-05,-0.16416,-0.00027083,-2706.5,1.0308
18963,12.441,1.4545,0.05,8.6074e-07,8.6014,6.6093e-07,4.966,6.2876e-12,4.1244e-06,-6.6094e-07,-4.9661,1.031
18964,12.716,1.4545,0,0.00026351,2633.3,8.7051e-05,1.1129,8.6901e-05,-0.013431,-0.00026349,-2632.7,1.0692
18965,12.624,1.3636,0,0.000266,2658.1,8.7875e-05,1.1476,8.7721e-05,-0.013973,-0.00026598,-2657.6,1.0562
18966,12.624,1.4545,0.05,8.5662e-07,8.5603,6.5777e-07,4.9422,5.3983e-12,2.8577e-06,-6.5778e-07,-4.9424,1.0564
18967,12.899,1.4545,0,0.0002587,2585.2,8.5557e-05,2.2241,8.526e-05,-0.0049993,-0.00025866,-2584.1,1.0949
18968,12.808,1.3636,0,0.00026118,2610,8.6376e-05,2.2449,8.6076e-05,-0.0056472,-0.00026114,-2608.8,1.0818
18969,12.808,1.4545,0.05,8.5257e-07,8.5198,6.5466e-07,4.9188,4.5047e-12,1.9412e-06,-6.5467e-07,-4.919,1.082
18970,13.083,1.4545,0,0.00025391,2537.3,8.4063e-05,3.2736,8.3627e-05,-0.0022962,-0.00025385,-2535.7,1.1208
18971,12.991,1.3636,0,0.00025637,2562,8.4877e-05,3.2809,8.444e-05,-0.0029208,-0.00025632,-2560.3,1.1076
18972,12.991,1.4545,0.05,8.4858e-07,8.48,6.516e-07,4.8958,5.4305e-12,2.5312e-06,-6.5161e-07,-4.896,1.1078
18973,13.266,1.4545,0,0.00024913,2489.6,8.2569e-05,4.2633,8.2002e-05,-0.00093769,-0.00024906,-2487.4,1.1468
18974,13.175,1.3636,0,0.00025158,2514.1,8.3379e-05,4.2574,8.2812e-05,-0.0015689,-0.00025151,-2512,1.1335
18975,13.175,1.4545,0.05,8.4464e-07,8.4406,6.4858e-07,4.8731,5.4462e-12,3.5227e-06,-6.4859e-07,-4.8732,1.1338
18976,13.45,1.4545,0,0.00024437,2442,8.1076e-05,5.198,8.0385e-05,-0.00010792,-0.00024428,-2439.4,1.173
18977,13.358,1.3636,0,0.00024681,2466.4,8.1881e-05,5.1793,8.1192e-05,-0.00071677,-0.00024672,-2463.8,1.1597
18978,13.358,1.4545,0.05,8.4076e-07,8.4018,6.456e-07,4.8507,5.4598e-12,5.0138e-06,-6.456e-07,-4.8508,1.1599
18979,13.633,1.4545,0,0.00023963,2394.6,7.9585e-05,6.0829,7.8776e-05,0.00044799,-0.00023952,-2391.6,1.1994
18980,13.542,1.3636,0,0.00024206,2418.9,8.0385e-05,6.0515,7.958e-05,-0.00016643,-0.00024196,-2415.9,1.186
18981,13.542,1.4545,0.05,8.3693e-07,8.3635,6.4265e-07,4.8286,3.6528e-12,5.9596e-06,-6.4266e-07,-4.8287,1.1862
18982,13.817,1.4545,0,0.0002349,2347.4,7.8096e-05,6.9232,7.7175e-05,0.00086444,-0.00023478,-2343.9,1.2259
18983,13.725,1.3636,0,0.00023732,2371.6,7.8891e-05,6.879,7.7976e-05,0.00024146,-0.00023721,-2368.1,1.2124
18984,13.725,1.4545,0.05,8.3314e-07,8.3257,6.3974e-07,4.8067,6.3928e-12,6.9683e-06,-6.3975e-07,-4.8069,1.2126
18985,14,1.4545,0,0.0002302,2300.4,7.6609e-05,7.7237,7.5582e-05,0.0011784,-0.00023006,-2296.5,1.2526
18986,13.909,1.3636,0,0.0002326,2324.4,7.74e-05,7.6665,7.6379e-05,0.00056261,-0.00023247,-2320.6,1.239
18987,13.909,1.4545,0.05,8.294e-07,8.2883,6.3687e-07,4.7852,6.4027e-12,7.2169e-06,-6.3688e-07,-4.7853,1.2392
18988,14.184,1.4545,0,0.00022551,2253.5,7.5126e-05,8.4891,7.3996e-05,0.0014395,-0.00022536,-2249.2,1.2795
18989,14.092,1.3636,0,0.0002279,2277.5,7.5911e-05,8.4185,7.4791e-05,0.00079423,-0.00022776,-2273.2,1.2658
18990,14.092,1.4545,0.05,8.2569e-07,8.2513,6.3403e-07,4.7638,3.6869e-12,6.7758e-06,-6.3404e-07,-4.7639,1.266
18991,14.367,1.4545,0,0.00022083,2206.8,7.3645e-05,9.2238,7.2418e-05,0.0016804,-0.00022068,-2202.2,1.3064
18992,14.276,1.3636,0,0.00022322,2230.7,7.4426e-05,9.1394,7.321e-05,0.0010237,-0.00022306,-2226.1,1.2927
18993,14.276,1.4545,0.05,8.2202e-07,8.2146,6.3121e-07,4.7426,4.6051e-12,6.9294e-06,-6.3122e-07,-4.7427,1.2929
18994,14.551,1.4545,0,0.00021618,2160.3,7.2169e-05,9.9323,7.0847e-05,0.0018774,-0.00021601,-2155.3,1.3336
18995,14.459,1.3636,0,0.00021856,2184.1,7.2945e-05,9.8334,7.1636e-05,0.0012245,-0.00021839,-2179.1,1.3198
18996,14.459,1.4545,0.05,8.184e-07,8.1784,6.2843e-07,4.7217,4.6148e-12,7.359e-06,-6.2843e-07,-4.7218,1.32
18997,14.734,1.4545,0,0.00021155,2114,7.0696e-05,10.619,6.9284e-05,0.0020487,-0.00021136,-2108.7,1.3609
18998,14.642,1.3636,0,0.00021391,2137.6,7.1467e-05,10.504,7.007e-05,0.0013733,-0.00021373,-2132.4,1.347
18999,14.642,1.4545,0.05,8.1481e-07,8.1425,6.2567e-07,4.701,4.624e-12,6.1347e-06,-6.2568e-07,-4.7011,1.3472
19000,14.918,1.4545,0,0.00020693,2067.9,6.9229e-05,11.287,6.7727e-05,0.0022213,-0.00020673,-2062.2,1.3883
19001,14.826,1.3636,0,0.00020928,2091.4,6.9995e-05,11.156,6.851e-05,0.0015253,-0.00020909,-2085.8,1.3744
19002,14.826,1.4545,0.05,8.1125e-07,8.1069,6.2293e-07,4.6804,4.6353e-12,5.4894e-06,-6.2294e-07,-4.6806,1.3746
19003,15.101,1.4545,0,0.00020233,2021.9,6.7766e-05,11.94,6.6177e-05,0.0023966,-0.00020213,-2015.9,1.4159
19004,15.009,1.3636,0,0.00020468,2045.3,6.8527e-05,11.793,6.6958e-05,0.0016786,-0.00020447,-2039.4,1.4019
19005,15.009,1.4545,0.05,8.0772e-07,8.0716,6.2022e-07,4.6601,5.5484e-12,4.2253e-06,-6.2023e-07,-4.6602,1.402
19006,15.285,1.4545,0,0.00019775,1976.2,6.6309e-05,12.584,6.4635e-05,0.0025611,-0.00019754,-1969.9,1.4436
19007,15.193,1.3636,0,0.00020009,1999.5,6.7065e-05,12.418,6.5412e-05,0.0018379,-0.00019987,-1993.2,1.4295
19008,15.193,1.4545,0.05,8.0423e-07,8.0367,6.1754e-07,4.6399,3.7414e-12,3.731e-06,-6.1755e-07,-4.6401,1.4297
19009,15.468,1.4545,0,0.0001932,1930.6,6.4858e-05,13.22,6.3099e-05,0.0027142,-0.00019297,-1924,1.4714
19010,15.376,1.3636,0,0.00019552,1953.8,6.5608e-05,13.034,6.3874e-05,0.001971,-0.00019529,-1947.3,1.4573
19011,15.376,1.4545,0.05,8.0077e-07,8.0022,6.1489e-07,4.62,4.6564e-12,4.9602e-06,-6.149e-07,-4.6201,1.4575
19012,15.652,1.4545,0,0.00018866,1885.3,6.3413e-05,13.853,6.1569e-05,0.0028719,-0.00018842,-1878.3,1.4994
19013,15.56,1.3636,0,0.00019097,1908.3,6.4158e-05,13.647,6.2342e-05,0.0021077,-0.00019073,-1901.5,1.4852
19014,15.56,1.4545,0.05,7.9735e-07,7.968,6.1226e-07,4.6003,3.745e-12,3.6822e-06,-6.1227e-07,-4.6004,1.4854
19015,15.835,1.4545,0,0.00018414,1840.1,6.1974e-05,14.487,6.0047e-05,0.0030209,-0.00018389,-1832.8,1.5275
19016,15.743,1.3636,0,0.00018643,1863.1,6.2713e-05,14.257,6.0816e-05,0.0022498,-0.00018619,-1855.9,1.5132
19017,15.743,1.4545,0.05,7.9396e-07,7.9341,6.0966e-07,4.5807,4.6662e-12,2.1014e-06,-6.0966e-07,-4.5808,1.5134
19018,16.019,1.4545,0,0.00017964,1795.1,6.0543e-05,15.125,5.853e-05,0.0031756,-0.00017938,-1787.5,1.5557
19019,15.927,1.3636,0,0.00018192,1818,6.1276e-05,14.87,5.9297e-05,0.002369,-0.00018167,-1810.5,1.5414
19020,15.927,1.4545,0.05,7.906e-07,7.9005,6.0708e-07,4.5613,3.7612e-12,2.4572e-06,-6.0708e-07,-4.5614,1.5415
19021,16.202,1.4545,0,0.00017516,1750.4,5.9118e-05,15.771,5.702e-05,0.0033487,-0.00017488,-1742.4,1.584
19022,16.11,1.3636,0,0.00017743,1773.1,5.9845e-05,15.489,5.7784e-05,0.0025216,-0.00017716,-1765.3,1.5697
19023,16.11,1.4545,0.05,7.8726e-07,7.8672,6.0452e-07,4.5421,3.765e-12,2.5529e-06,-6.0452e-07,-4.5422,1.5698
19024,16.386,1.4545,0,0.0001707,1705.8,5.7701e-05,16.428,5.5516e-05,0.0035141,-0.00017041,-1697.5,1.6125
19025,16.294,1.3636,0,0.00017296,1728.4,5.8422e-05,16.117,5.6278e-05,0.002677,-0.00017268,-1720.3,1.5981
19026,16.294,1.4545,0.05,7.8397e-07,7.8343,6.0199e-07,4.5231,4.2359e-12,3.3293e-06,-6.02e-07,-4.5232,1.5982
19027,16.569,1.4545,0,0.00016626,1661.5,5.6293e-05,17.1,5.4017e-05,0.0036797,-0.00016596,-1652.8,1.641
19028,16.477,1.3636,0,0.00016851,1684,5.7007e-05,16.757,5.4777e-05,0.0028141,-0.00016822,-1675.5,1.6266
19029,16.477,1.4545,0.05,7.8071e-07,7.8017,5.9949e-07,4.5043,3.795e-12,2.4707e-06,-5.9949e-07,-4.5044,1.6267
19030,16.753,1.4545,0,0.00016184,1617.3,5.4892e-05,17.791,5.2525e-05,0.0038631,-0.00016153,-1608.4,1.6697
19031,16.661,1.3636,0,0.00016408,1639.7,5.56e-05,17.414,5.3283e-05,0.0029678,-0.00016378,-1630.9,1.6552
19032,16.661,1.4545,0.05,7.7748e-07,7.7694,5.97e-07,4.4856,3.8041e-12,3.8613e-06,-5.9701e-07,-4.4857,1.6553
19033,16.936,1.4545,0,0.00015745,1573.4,5.3501e-05,18.505,5.1039e-05,0.0040658,-0.00015712,-1564.1,1.6985
19034,16.844,1.3636,0,0.00015967,1595.6,5.4201e-05,18.09,5.1794e-05,0.0031394,-0.00015936,-1586.5,1.6839
19035,16.844,1.4545,0.05,7.7429e-07,7.7375,5.9455e-07,4.4672,3.8194e-12,6.8411e-06,-5.9456e-07,-4.4673,1.6841
19036,17.119,1.4545,0,0.00015307,1529.7,5.2119e-05,19.246,4.9558e-05,0.0042749,-0.00015274,-1519.9,1.7274
19037,17.028,1.3636,0,0.00015529,1551.8,5.2811e-05,18.79,5.0311e-05,0.003329,-0.00015496,-1542.3,1.7128
19038,17.028,1.4545,0.05,7.7113e-07,7.706,5.9213e-07,4.449,3.8296e-12,6.9327e-06,-5.9214e-07,-4.4491,1.7129
19039,17.303,1.4545,0,0.00014872,1486.2,5.0746e-05,20.018,4.8082e-05,0.0044875,-0.00014837,-1476,1.7564
19040,17.211,1.3636,0,0.00015092,1508.2,5.1431e-05,19.517,4.8834e-05,0.0035118,-0.00015058,-1498.3,1.7417
19041,17.211,1.4545,0.05,7.6802e-07,7.6749,5.8974e-07,4.4311,3.3915e-12,6.4489e-06,-5.8975e-07,-4.4312,1.7419
19042,17.486,1.4545,0,0.00014439,1442.9,4.9383e-05,20.825,4.6612e-05,0.0047173,-0.00014402,-1432.3,1.7855
19043,17.395,1.3636,0,0.00014657,1464.7,5.006e-05,20.275,4.7362e-05,0.0037086,-0.00014622,-1454.5,1.7708
19044,17.395,1.4545,0.05,7.6495e-07,7.6442,5.8739e-07,4.4134,2.9426e-12,6.2282e-06,-5.8739e-07,-4.4134,1.7709
19045,17.67,1.4545,0,0.00014007,1399.8,4.8031e-05,21.671,4.5147e-05,0.0049564,-0.00013969,-1388.8,1.8147
19046,17.578,1.3636,0,0.00014225,1421.5,4.8699e-05,21.069,4.5895e-05,0.0039231,-0.00014188,-1410.9,1.7999
19047,17.578,1.4545,0.05,7.6193e-07,7.614,5.8506e-07,4.3959,2.052e-12,8.1869e-06,-5.8507e-07,-4.396,1.8
19048,17.853,1.4545,0,0.00013579,1356.9,4.669e-05,22.563,4.3688e-05,0.0052135,-0.00013539,-1345.5,1.844
19049,17.762,1.3636,0,0.00013795,1378.5,4.7348e-05,21.902,4.4434e-05,0.0041346,-0.00013756,-1367.4,1.8292
19050,17.762,1.4545,0.05,7.5895e-07,7.5842,5.8277e-07,4.3787,2.9871e-12,8.1582e-06,-5.8278e-07,-4.3788,1.8293
19051,18.037,1.4545,0,0.00013152,1314.3,4.536e-05,23.503,4.2233e-05,0.0054996,-0.0001311,-1302.4,1.8733
19052,17.945,1.3636,0,0.00013367,1335.7,4.6009e-05,22.78,4.2977e-05,0.0043833,-0.00013326,-1324.2,1.8585
19053,17.945,1.4545,0.05,7.5601e-07,7.5549,5.8052e-07,4.3618,2.0858e-12,9.7718e-06,-5.8053e-07,-4.3619,1.8586
19054,18.22,1.4545,0,0.00012728,1271.9,4.4042e-05,24.499,4.0782e-05,0.0057976,-0.00012684,-1259.5,1.9028
19055,18.129,1.3636,0,0.00012941,1293.2,4.468e-05,23.707,4.1526e-05,0.0046496,-0.00012899,-1281.2,1.8879
19056,18.129,1.4545,0.05,7.5314e-07,7.5262,5.7831e-07,4.3452,2.5815e-12,7.3196e-06,-5.7832e-07,-4.3453,1.888
19057,18.404,1.4545,0,0.00012306,1229.7,4.2737e-05,25.554,3.9336e-05,0.0061135,-0.0001226,-1216.7,1.9323
19058,18.312,1.3636,0,0.00012517,1250.9,4.3364e-05,24.687,4.0079e-05,0.0049181,-0.00012474,-1238.3,1.9174
19059,18.312,1.4545,0.05,7.5032e-07,7.498,5.7615e-07,4.3289,2.1428e-12,7.6417e-06,-5.7615e-07,-4.329,1.9175
19060,18.587,1.4545,0,0.00011886,1187.8,4.1444e-05,26.676,3.7895e-05,0.0064647,-0.00011838,-1174.2,1.962
19061,18.496,1.3636,0,0.00012096,1208.8,4.206e-05,25.728,3.8636e-05,0.0052178,-0.0001205,-1195.7,1.947
19062,18.496,1.4545,0.05,7.4755e-07,7.4704,5.7403e-07,4.313,2.6254e-12,6.878e-06,-5.7403e-07,-4.3131,1.9471
19063,18.771,1.4545,0,0.00011468,1146,4.0166e-05,27.87,3.6457e-05,0.0068516,-0.00011418,-1131.9,1.9917
19064,18.679,1.3636,0,0.00011677,1166.9,4.0768e-05,26.833,3.7198e-05,0.0055523,-0.00011629,-1153.2,1.9767
19065,18.679,1.4545,0.05,7.4486e-07,7.4434,5.7196e-07,4.2974,2.1845e-12,1.1314e-05,-5.7196e-07,-4.2975,1.9768
19066,18.954,1.4545,0,0.00011053,1104.6,3.8901e-05,29.143,3.5023e-05,0.0072672,-0.00011001,-1089.7,2.0215
19067,18.863,1.3636,0,0.0001126,1125.3,3.9491e-05,28.009,3.5764e-05,0.0059198,-0.0001121,-1111,2.0064
19068,18.863,1.4545,0.05,7.4223e-07,7.4172,5.6994e-07,4.2823,2.178e-12,1.0205e-05,-5.6995e-07,-4.2823,2.0065
19069,19.138,1.4545,0,0.00010641,1063.3,3.7652e-05,30.502,3.3593e-05,0.0077157,-0.00010586,-1047.8,2.0513
19070,19.046,1.3636,0,0.00010846,1083.9,3.8227e-05,29.263,3.4333e-05,0.006308,-0.00010793,-1068.9,2.0363
19071,19.046,1.4545,0.05,7.3969e-07,7.3918,5.6799e-07,4.2676,2.2061e-12,1.0471e-05,-5.6799e-07,-4.2677,2.0364
19072,19.321,1.4545,0,0.00010231,1022.4,3.6418e-05,31.955,3.2166e-05,0.0082091,-0.00010172,-1006,2.0813
19073,19.229,1.3636,0,0.00010434,1042.7,3.6978e-05,30.601,3.2906e-05,0.0067366,-0.00010379,-1027.1,2.0662
19074,19.229,1.4545,0.05,7.3723e-07,7.3672,5.661e-07,4.2534,3.1391e-12,1.0333e-05,-5.661e-07,-4.2535,2.0663
19075,19.505,1.4545,0,9.823e-05,981.62,3.5201e-05,33.51,3.0743e-05,0.008746,-9.7617e-05,-964.43,2.1113
19076,19.413,1.3636,0,0.00010025,1001.8,3.5745e-05,32.031,3.1483e-05,0.0072098,-9.9663e-05,-985.37,2.0961
19077,19.413,1.4545,0.05,7.3486e-07,7.3435,5.6428e-07,4.2398,2.7356e-12,1.4528e-05,-5.6428e-07,-4.2398,2.0962
19078,19.688,1.4545,0,9.418e-05,941.15,3.4002e-05,35.176,2.9321e-05,0.0093396,-9.3532e-05,-923.06,2.1413
19079,19.596,1.3636,0,9.6177e-05,961.1,3.4528e-05,33.561,3.0062e-05,0.0077189,-9.5561e-05,-943.88,2.1262
19080,19.596,1.4545,0.05,7.3259e-07,7.3208,5.6253e-07,4.2267,2.7525e-12,1.4125e-05,-5.6254e-07,-4.2267,2.1263
19081,19.872,1.4545,0,9.0156e-05,900.93,3.2821e-05,36.962,2.7903e-05,0.010003,-8.947e-05,-881.88,2.1714
19082,19.78,1.3636,0,9.2132e-05,920.68,3.3328e-05,35.198,2.8644e-05,0.0083,-9.1482e-05,-902.57,2.1563
19083,19.78,1.4545,0.05,7.3042e-07,7.2992,5.6087e-07,4.2142,2.7728e-12,1.5915e-05,-5.6087e-07,-4.2142,2.1564
19084,20.055,1.4545,0,8.6159e-05,860.99,3.1659e-05,38.879,2.6486e-05,0.010734,-8.5431e-05,-840.89,2.2016
19085,19.963,1.3636,0,8.8113e-05,880.52,3.2145e-05,36.954,2.7228e-05,0.0089448,-8.7426e-05,-861.46,2.1864
19086,19.963,1.4545,0.05,7.2837e-07,7.2787,5.593e-07,4.2024,2.3519e-12,1.5964e-05,-5.593e-07,-4.2024,2.1865
19087,20.239,1.4545,0,8.2189e-05,821.33,3.0517e-05,40.938,2.507e-05,0.011548,-8.1416e-05,-800.09,2.2319
19088,20.147,1.3636,0,8.4121e-05,840.63,3.0982e-05,38.837,2.5815e-05,0.0096524,-8.3393e-05,-820.53,2.2166
19089,20.147,1.4545,0.05,7.2645e-07,7.2595,5.5783e-07,4.1913,2.8178e-12,1.7858e-05,-5.5783e-07,-4.1913,2.2167
19090,20.422,1.4545,0,7.8249e-05,781.95,2.9398e-05,43.152,2.3656e-05,0.012469,-7.7425e-05,-759.47,2.2622
19091,20.33,1.3636,0,8.0156e-05,801.01,2.9839e-05,40.859,2.4403e-05,0.010457,-7.9382e-05,-779.79,2.2469
19092,20.33,1.4545,0.05,7.2468e-07,7.2418,5.5646e-07,4.181,2.6235e-12,1.7948e-05,-5.5646e-07,-4.181,2.247
19093,20.606,1.4545,0,7.4338e-05,742.87,2.8301e-05,45.535,2.2243e-05,0.013512,-7.3459e-05,-719.05,2.2925
19094,20.514,1.3636,0,7.6219e-05,761.67,2.8717e-05,43.032,2.2992e-05,0.011371,-7.5396e-05,-739.23,2.2772
19095,20.514,1.4545,0.05,7.2305e-07,7.2255,5.5521e-07,4.1717,2.8615e-12,1.4947e-05,-5.5522e-07,-4.1717,2.2773
19096,20.789,1.4545,0,7.0459e-05,704.1,2.7229e-05,48.101,2.0829e-05,0.014696,-6.9517e-05,-678.81,2.3229
19097,20.697,1.3636,0,7.2312e-05,722.62,2.7618e-05,45.37,2.1581e-05,0.012412,-7.1433e-05,-698.86,2.3076
19098,20.697,1.4545,0.05,7.2161e-07,7.2111,5.541e-07,4.1633,2.6261e-12,1.3948e-05,-5.5411e-07,-4.1633,2.3077
19099,20.973,1.4545,0,6.6612e-05,665.66,2.6184e-05,50.869,1.9415e-05,0.016047,-6.5601e-05,-638.76,2.3534
19100,20.881,1.3636,0,6.8435e-05,683.88,2.6543e-05,47.888,2.0171e-05,0.013598,-6.7494e-05,-658.67,2.338
19101,20.881,1.4545,0.05,7.2035e-07,7.1986,5.5314e-07,4.1561,2.6197e-12,1.4231e-05,-5.5314e-07,-4.1561,2.3381
19102,21.156,1.4545,0,6.28e-05,627.57,2.5166e-05,53.856,1.8001e-05,0.017607,-6.171e-05,-598.9,2.3838
19103,21.064,1.3636,0,6.4591e-05,645.46,2.5493e-05,50.603,1.8761e-05,0.014967,-6.3581e-05,-618.67,2.3685
19104,21.064,1.4545,0.05,7.1931e-07,7.1882,5.5234e-07,4.1501,2.4468e-12,1.7794e-05,-5.5234e-07,-4.1501,2.3686
19105,21.34,1.4545,0,5.9025e-05,589.84,2.4179e-05,57.085,1.6584e-05,0.019416,-5.7846e-05,-559.22,2.4144
19106,21.248,1.3636,0,6.0781e-05,607.39,2.4472e-05,53.534,1.7349e-05,0.016562,-5.9693e-05,-578.85,2.399
19107,21.248,1.4545,0.05,7.1851e-07,7.1802,5.5173e-07,4.1455,2.1581e-12,1.8458e-05,-5.5173e-07,-4.1455,2.3991
19108,21.523,1.4545,0,5.529e-05,552.52,2.3224e-05,60.58,1.5164e-05,0.021539,-5.401e-05,-519.73,2.4449
19109,21.431,1.3636,0,5.7008e-05,569.69,2.348e-05,56.704,1.5935e-05,0.018422,-5.5831e-05,-539.21,2.4296
19110,21.431,1.4545,0.05,7.1799e-07,7.1749,5.5133e-07,4.1424,2.3456e-12,1.7295e-05,-5.5133e-07,-4.1425,2.4296
19111,21.706,1.4545,0,5.1599e-05,515.64,2.2305e-05,64.37,1.3742e-05,0.024059,-5.0202e-05,-480.42,2.4755
19112,21.615,1.3636,0,5.3275e-05,532.39,2.2521e-05,60.139,1.4519e-05,0.020639,-5.1997e-05,-499.76,2.4602
19113,21.615,1.4545,0.05,7.1778e-07,7.1728,5.5116e-07,4.1412,2.2031e-12,1.4338e-05,-5.5116e-07,-4.1412,2.4602
19114,21.89,1.4545,0,4.7957e-05,479.24,2.1425e-05,68.485,1.2314e-05,0.02707,-4.6423e-05,-441.31,2.5062
19115,21.798,1.3636,0,4.9587e-05,495.53,2.1597e-05,63.868,1.31e-05,0.023288,-4.8191e-05,-460.49,2.4908
19116,21.798,1.4545,0.05,7.1793e-07,7.1743,5.5128e-07,4.1421,1.7646e-12,1.5347e-05,-5.5128e-07,-4.1421,2.4908
19117,22.073,1.4545,0,4.437e-05,443.4,2.0588e-05,72.964,1.0881e-05,0.030723,-4.2676e-05,-402.38,2.5368
19118,21.982,1.3636,0,4.5949e-05,459.17,2.0713e-05,67.926,1.1676e-05,0.026486,-4.4415e-05,-421.41,2.5214
19119,21.982,1.4545,0.05,7.185e-07,7.18,5.5172e-07,4.1454,1.7461e-12,9.3458e-06,-5.5172e-07,-4.1454,2.5215
19120,22.257,1.4545,0,4.0846e-05,408.18,1.9797e-05,77.849,9.4411e-06,0.03522,-3.8961e-05,-363.64,2.5675
19121,22.165,1.3636,0,4.2367e-05,423.38,1.9871e-05,72.352,1.0246e-05,0.030422,-4.067e-05,-382.53,2.5521
19122,22.165,1.4545,0.05,7.1957e-07,7.1907,5.5254e-07,4.1516,1.3014e-12,1.2255e-05,-5.5254e-07,-4.1516,2.5522
19123,22.44,1.4545,0,3.7396e-05,373.7,1.9058e-05,83.185,7.9923e-06,0.040867,-3.5279e-05,-325.08,2.5983
19124,22.349,1.3636,0,3.8852e-05,388.25,1.9078e-05,77.194,8.809e-06,0.035322,-3.6958e-05,-343.84,2.5828
19125,22.349,1.4545,0.05,7.2124e-07,7.2074,5.5382e-07,4.1612,1.2859e-12,1.21e-05,-5.5382e-07,-4.1612,2.5829
19126,22.624,1.4545,0,3.4033e-05,340.09,1.8375e-05,89.027,6.5329e-06,0.048058,-3.1632e-05,-286.71,2.629
19127,22.532,1.3636,0,3.5415e-05,353.9,1.8338e-05,82.505,7.3631e-06,0.041589,-3.3282e-05,-305.35,2.6136
19128,22.532,1.4545,0.05,7.2363e-07,7.2313,5.5566e-07,4.175,9.6849e-13,1.4529e-05,-5.5566e-07,-4.175,2.6136
19129,22.807,1.4545,0,3.0776e-05,307.55,1.7754e-05,95.43,5.0608e-06,0.057747,-2.8021e-05,-248.51,2.6598
19130,22.716,1.3636,0,3.2072e-05,320.5,1.7658e-05,88.346,5.9062e-06,0.049621,-2.9642e-05,-267.05,2.6443
19131,22.716,1.4545,0.05,7.269e-07,7.264,5.5817e-07,4.1939,1.083e-12,1.1894e-05,-5.5817e-07,-4.1939,2.6444
19132,22.991,1.4545,0,2.7651e-05,276.32,1.7199e-05,102.45,3.5735e-06,0.070293,-2.4445e-05,-210.45,2.6906
19133,22.899,1.3636,0,2.8847e-05,288.27,1.7043e-05,94.783,4.4361e-06,0.060978,-2.6041e-05,-228.93,2.6751
19134,22.899,1.4545,0.05,7.3126e-07,7.3075,5.6151e-07,4.219,1.1531e-12,1.433e-05,-5.6151e-07,-4.219,2.6751
19135,23.174,1.4545,0,2.4693e-05,246.76,1.6715e-05,110.14,2.0683e-06,0.091709,-2.0902e-05,-172.5,2.7214
19136,23.083,1.3636,0,2.577e-05,257.52,1.6499e-05,101.88,2.9496e-06,0.074927,-2.2478e-05,-190.98,2.7059
19137,23.083,1.4545,0.05,7.3691e-07,7.364,5.6586e-07,4.2516,7.026e-13,1.3588e-05,-5.6586e-07,-4.2516,2.7059
19138,23.358,1.4545,0,2.1953e-05,219.37,1.6303e-05,118.54,5.414e-07,0.1129,-1.7387e-05,-134.6,2.7522
19139,23.266,1.3636,0,2.2883e-05,228.67,1.6032e-05,109.71,1.4445e-06,0.10449,-1.8951e-05,-153.14,2.7367
19140,23.266,1.4545,0.05,7.4411e-07,7.436,5.7138e-07,4.2932,4.7691e-13,8.8039e-06,-5.7138e-07,-4.2931,2.7367
19141,23.541,1.4545,0,1.9503e-05,194.9,1.5964e-05,127.7,-1.0047e-06,0.20448,-1.3896e-05,-96.656,2.783
19142,23.45,1.3636,0,2.0249e-05,202.35,1.5643e-05,118.3,-8.5412e-08,0.1196,-1.5453e-05,-115.35,2.7675
19143,23.45,1.4545,0.05,7.5305e-07,7.5254,5.7825e-07,4.3448,1.4696e-14,5.1685e-06,-5.7825e-07,-4.3448,2.7676
19144,23.725,1.4545,0,1.7456e-05,174.44,1.5698e-05,137.57,-2.5862e-06,0.18969,-1.0422e-05,-58.684,2.8138
19145,23.633,1.3636,0,1.796e-05,179.47,1.5332e-05,127.74,-1.6291e-06,0.29579,-1.1984e-05,-77.509,2.7984
19146,23.633,1.4545,0.05,7.6444e-07,7.6391,5.8699e-07,4.4104,3.7665e-13,5.7529e-06,-5.8699e-07,-4.4104,2.7984
19147,23.817,1.3636,0,1.6154e-05,161.43,1.5106e-05,137.89,-3.2261e-06,0.14477,-8.5365e-06,-39.755,2.8292
19148,23.817,1.4545,0.05,7.883e-07,7.8775,6.0531e-07,4.5481,-1.0616e-13,5.1606e-06,-6.0531e-07,-4.5481,2.8292
19149,23.908,1.4545,0,1.5957e-05,159.46,1.5459e-05,147.22,-4.0785e-06,0.4232,-7.1201e-06,-22.43,2.8447
19150,3.5419,1.2727,0,0.00052615,5257.8,0.00031674,1803.8,7.5908e-05,-5.7285,-0.00047164,-4119.8,0.078809
19151,3.4501,1.1818,0,0.00050278,5024.3,0.00032173,1978.5,5.6918e-05,-11.129,-0.00043881,-3735.9,0.071362
19152,3.4501,1.2727,0.05,2.5901e-05,258.83,1.9889e-05,149.44,-1.8113e-11,-9.9119e-05,-1.9889e-05,-149.44,0.072219
19153,3.3584,1.2727,0,0.00045052,4502.1,0.00029045,1812.4,5.036e-05,8.3961,-0.00039155,-3311.9,0.065829
19154,3.7254,1.2727,0,0.0004933,4929.6,0.00025663,1162.7,0.00010152,-2.7304,-0.00046312,-4245.2,0.091912
19155,3.6336,1.1818,0,0.00046051,4601.9,0.00025433,1278,8.413e-05,-0.8027,-0.00042525,-3828.1,0.084509
19156,3.6336,1.2727,0.05,1.5859e-05,158.48,1.2178e-05,91.498,-3.6636e-11,-0.00035984,-1.2178e-05,-91.498,0.085261
19157,3.9088,1.2727,0,0.00048162,4812.9,0.00022047,751.82,0.00011989,-3.9162,-0.00046443,-4394.2,0.10521
19158,3.8171,1.1818,0,0.00045213,4518.2,0.00021864,852.79,0.00010459,-4.1102,-0.00043155,-4032.5,0.097801
19159,3.8171,1.2727,0.05,1.1712e-05,117.04,8.9933e-06,67.572,-4.592e-11,-0.00048361,-8.9933e-06,-67.572,0.098463
19160,4.0923,1.2727,0,0.00047585,4755.2,0.00019626,474.65,0.00013264,-3.3357,-0.00046603,-4501.5,0.11876
19161,4.0006,1.1818,0,0.00045121,4509,0.00019509,561.42,0.00011995,-3.0998,-0.00043905,-4203.2,0.1113
19162,4.0006,1.2727,0.05,8.4583e-06,84.524,6.4949e-06,48.8,-5.4151e-11,-0.00056723,-6.4949e-06,-48.8,0.11189
19163,4.2758,1.2727,0,0.00047307,4727.5,0.00018037,291,0.0001412,-3.2868,-0.00046749,-4576.8,0.13258
19164,4.1841,1.1818,0,0.00045335,4530.4,0.00017985,364.61,0.00013093,-2.9738,-0.00044608,-4338.4,0.12504
19165,4.1841,1.2727,0.05,6.3501e-06,63.458,4.8761e-06,36.637,-5.9777e-11,-0.0006291,-4.8761e-06,-36.637,0.12557
19166,4.4593,1.2727,0,0.00047163,4713,0.00016997,170.4,0.00014682,-3.5725,-0.00046855,-4627.2,0.14669
19167,4.3676,1.1818,0,0.00045638,4560.7,0.00017008,233.12,0.00013867,-2.8868,-0.00045201,-4441,0.13905
19168,4.3676,1.2727,0.05,4.9291e-06,49.257,3.785e-06,28.439,-6.2784e-11,-0.00060797,-3.7849e-06,-28.439,0.13954
19169,4.6428,1.2727,0,0.00047045,4701.2,0.00016303,90.8,0.00015035,-4.4691,-0.00046891,-4657.3,0.1611
19170,4.551,1.1818,0,0.00045904,4587.2,0.00016364,144.33,0.00014402,-3.0544,-0.00045646,-4514.8,0.15335
19171,4.551,1.2727,0.05,3.9336e-06,39.309,3.0205e-06,22.695,-6.3356e-11,-0.00058071,-3.0205e-06,-22.695,0.1538
19172,4.8263,1.2727,0,0.00046896,4686.4,0.00015835,38.774,0.00015223,-7.1751,-0.00046841,-4670.4,0.17583
19173,4.7345,1.1818,0,0.00046074,4604.2,0.00015915,83.208,0.0001476,-3.5737,-0.00045932,-4563.7,0.16795
19174,4.7345,1.2727,0.05,3.1989e-06,31.967,2.4564e-06,18.456,-5.6743e-11,-0.000561,-2.4563e-06,-18.456,0.16838
19175,5.0097,1.2727,0,0.00046693,4666.1,0.00015588,11.049,0.00015207,-17.557,-0.00046704,-4669.3,0.19086
19176,4.918,1.1818,0,0.00046128,4609.6,0.00015587,40.721,0.00014978,-5.0311,-0.00046065,-4591.6,0.18285
19177,4.918,1.2727,0.05,2.6396e-06,26.378,2.0269e-06,15.229,-5.2973e-11,-0.00052924,-2.0269e-06,-15.229,0.18326
19178,5.1932,1.2727,0,0.00046429,4639.7,0.00015536,3.67,0.00014992,-37.253,-0.00046485,-4656.4,0.20621
19179,5.1015,1.1818,0,0.00046069,4603.7,0.0001537,13.863,0.00015048,-10.318,-0.00046063,-4601.9,0.19805
19180,5.1015,1.2727,0.05,2.2084e-06,22.069,1.6958e-06,12.742,-4.8877e-11,-0.00050012,-1.6958e-06,-12.741,0.19845
19181,5.3767,1.2727,0,0.00046109,4607.7,0.00015501,1.7712,0.00014748,-54.827,-0.00046197,-4634,0.22187
19182,5.285,1.1818,0,0.0004591,4587.8,0.00015306,4.1124,0.00014925,-24.529,-0.00045944,-4598,0.21357
19183,5.285,1.2727,0.05,1.8765e-06,18.752,1.441e-06,10.827,-4.4139e-11,-0.00040412,-1.4409e-06,-10.827,0.21396
19184,5.5602,1.2727,0,0.0004574,4570.8,0.00015439,1.0198,0.00014519,-68.082,-0.0004585,-4603.9,0.23784
19185,5.4684,1.1818,0,0.00045667,4563.5,0.00015284,1.7834,0.00014725,-40.218,-0.00045731,-4582.6,0.22939
19186,5.4684,1.2727,0.05,1.6243e-06,16.231,1.2472e-06,9.3712,-3.531e-11,-0.00036268,-1.2472e-06,-9.3711,0.22977
19187,5.7437,1.2727,0,0.0004533,4529.9,0.00015347,0.64335,0.00014306,-77.617,-0.00045456,-4567.9,0.25412
19188,5.6519,1.1818,0,0.00045355,4532.3,0.00015236,0.97124,0.00014519,-52.913,-0.00045441,-4558.1,0.24553
19189,5.6519,1.2727,0.05,1.4364e-06,14.354,1.103e-06,8.2873,-2.9025e-11,-0.00026346,-1.103e-06,-8.2873,0.2459
19190,5.9271,1.2727,0,0.0004489,4485.9,0.00015232,0.42934,0.00014107,-84.143,-0.00045027,-4527.2,0.27071
19191,5.8354,1.1818,0,0.00044989,4495.8,0.0001516,0.59362,0.0001432,-62.493,-0.00045091,-4526.4,0.26196
19192,5.8354,1.2727,0.05,1.3e-06,12.991,9.9826e-07,7.5005,-2.2489e-11,-0.00017202,-9.9825e-07,-7.5005,0.26233
19193,6.1106,1.2727,0,0.00044427,4439.6,0.00015098,0.29793,0.0001392,-88.235,-0.0004457,-4482.9,0.2876
19194,6.0189,1.1818,0,0.00044581,4455,0.00015057,0.38885,0.00014129,-69.378,-0.00044694,-4489.1,0.2787
19195,6.0189,1.2727,0.05,1.2037e-06,12.028,9.2428e-07,6.9446,-1.0782e-11,-9.6767e-05,-9.2427e-07,-6.9447,0.27907
19196,6.2941,1.2727,0,0.00043946,4391.6,0.00014949,0.21296,0.00013744,-90.352,-0.00044092,-4435.9,0.30479
19197,6.2024,1.1818,0,0.00044142,4411.2,0.00014934,0.26708,0.00013946,-73.999,-0.00044263,-4447.6,0.29575
19198,6.2024,1.2727,0.05,1.1373e-06,11.365,8.7328e-07,6.5614,-7.1854e-12,-0.00016801,-8.7328e-07,-6.5616,0.29611
19199,6.4776,1.2727,0,0.00043453,4342.3,0.00014788,0.1559,0.00013577,-90.866,-0.000436,-4386.9,0.32227
19200,6.3858,1.1818,0,0.0004368,4365,0.00014794,0.19006,0.00013771,-76.731,-0.00043805,-4402.7,0.31309
19201,6.3858,1.2727,0.05,1.0923e-06,10.916,8.3875e-07,6.302,-5.9754e-13,-0.00012856,-8.3876e-07,-6.3022,0.31345
19202,6.6611,1.2727,0,0.00042951,4292.2,0.00014619,0.11644,0.00013418,-90.088,-0.00043097,-4336.4,0.34005
19203,6.5693,1.1818,0,0.00043201,4317.1,0.00014641,0.13912,0.00013603,-77.901,-0.00043328,-4355.4,0.33072
19204,6.5693,1.2727,0.05,1.0621e-06,10.614,8.1556e-07,6.1277,1.3569e-12,-6.0592e-05,-8.1556e-07,-6.1279,0.33108
19205,6.8445,1.2727,0,0.00042444,4241.5,0.00014442,0.088498,0.00013266,-88.279,-0.00042587,-4284.9,0.35812
19206,6.7528,1.1818,0,0.00042709,4268,0.00014479,0.10423,0.00013442,-77.793,-0.00042836,-4306.3,0.34865
19207,6.7528,1.2727,0.05,1.0416e-06,10.409,7.9983e-07,6.0096,1.8999e-12,-4.6634e-05,-7.9985e-07,-6.0098,0.34901
19208,7.028,1.2727,0,0.00041933,4190.4,0.00014261,0.068307,0.0001312,-85.664,-0.00042072,-4232.5,0.37647
19209,6.9363,1.1818,0,0.00042209,4218,0.00014308,0.07965,0.00013286,-76.655,-0.00042334,-4255.8,0.36686
19210,6.9363,1.2727,0.05,1.0274e-06,10.267,7.8888e-07,5.9273,5.6492e-12,-3.5674e-05,-7.8889e-07,-5.9275,0.36722
19211,7.2115,1.2727,0,0.0004142,4139.1,0.00014075,0.053466,0.00012977,-82.435,-0.00041554,-4179.7,0.39511
19212,7.1198,1.1818,0,0.00041704,4167.5,0.00014131,0.061927,0.00013136,-74.7,-0.00041826,-4204.3,0.38536
19213,7.1198,1.2727,0.05,1.0169e-06,10.162,7.8085e-07,5.8669,5.1617e-12,-3.606e-05,-7.8087e-07,-5.8672,0.38572
19214,7.395,1.2727,0,0.00040906,4087.7,0.00013887,0.042394,0.00012839,-78.754,-0.00041034,-4126.5,0.41403
19215,7.3032,1.1818,0,0.00041194,4116.6,0.0001395,0.048889,0.0001299,-72.116,-0.00041312,-4152.1,0.40414
19216,7.3032,1.2727,0.05,1.0087e-06,10.08,7.7454e-07,5.8196,4.8195e-12,-2.256e-05,-7.7456e-07,-5.8198,0.4045
19217,7.5785,1.2727,0,0.00040391,4036.3,0.00013698,0.034025,0.00012703,-74.756,-0.00040513,-4073.2,0.43323
19218,7.4867,1.1818,0,0.00040682,4065.4,0.00013766,0.039132,0.00012846,-69.059,-0.00040795,-4099.5,0.4232
19219,7.4867,1.2727,0.05,1.0017e-06,10.011,7.6921e-07,5.7795,6.1351e-12,-1.5907e-05,-7.6922e-07,-5.7797,0.42356
19220,7.7619,1.2727,0,0.00039877,3984.9,0.00013508,0.027628,0.00012568,-70.556,-0.00039992,-4019.7,0.4527
19221,7.6702,1.1818,0,0.00040169,4014.1,0.0001358,0.031722,0.00012706,-65.663,-0.00040277,-4046.6,0.44254
19222,7.6702,1.2727,0.05,9.9546e-07,9.9477,7.6438e-07,5.7432,3.6905e-12,-1.4378e-05,-7.644e-07,-5.7434,0.44289
19223,7.9454,1.2727,0,0.00039363,3933.6,0.00013317,0.022688,0.00012435,-66.247,-0.00039471,-3966.3,0.47243
19224,7.8537,1.1818,0,0.00039655,3962.8,0.00013393,0.026022,0.00012566,-62.041,-0.00039757,-3993.4,0.46214
19225,7.8537,1.2727,0.05,9.8949e-07,9.888,7.5979e-07,5.7087,7.4736e-12,-1.1859e-05,-7.5981e-07,-5.709,0.4625
19226,8.1289,1.2727,0,0.0003885,3882.3,0.00013126,0.018841,0.00012302,-61.905,-0.00038951,-3912.9,0.49244
19227,8.0372,1.1818,0,0.00039141,3911.4,0.00013204,0.021588,0.00012428,-58.285,-0.00039237,-3940.2,0.48202
19228,8.0372,1.2727,0.05,9.8363e-07,9.8295,7.553e-07,5.675,6.2048e-12,-1.1771e-05,-7.5532e-07,-5.6752,0.48237
19229,8.3124,1.2727,0,0.00038337,3831.1,0.00012936,0.015821,0.00012169,-57.591,-0.00038432,-3859.6,0.5127
19230,8.2206,1.1818,0,0.00038628,3860.1,0.00013016,0.018104,0.00012291,-54.47,-0.00038717,-3887,0.50215
19231,8.2206,1.2727,0.05,9.7781e-07,9.7713,7.5083e-07,5.6414,6.776e-12,-8.8481e-06,-7.5084e-07,-5.6416,0.5025
19232,8.4959,1.2727,0,0.00037826,3780,0.00012746,0.013437,0.00012036,-53.352,-0.00037914,-3806.4,0.53322
19233,8.4041,1.1818,0,0.00038114,3808.8,0.00012828,0.015345,0.00012154,-50.657,-0.00038198,-3833.9,0.52255
19234,8.4041,1.2727,0.05,9.7197e-07,9.713,7.4635e-07,5.6077,8.0336e-12,-8.2965e-06,-7.4636e-07,-5.608,0.5229
19235,8.6794,1.2727,0,0.00037315,3728.9,0.00012557,0.011544,0.00011902,-49.224,-0.00037397,-3753.3,0.554
19236,8.5876,1.1818,0,0.00037602,3757.6,0.0001264,0.013145,0.00012016,-46.891,-0.0003768,-3780.8,0.54321
19237,8.5876,1.2727,0.05,9.6613e-07,9.6546,7.4186e-07,5.574,7.328e-12,-8.7167e-06,-7.4188e-07,-5.5742,0.54355
19238,8.8628,1.2727,0,0.00036806,3678,0.00012369,0.010034,0.00011767,-45.234,-0.0003688,-3700.4,0.57503
19239,8.7711,1.1818,0,0.0003709,3706.5,0.00012453,0.01138,0.00011878,-43.211,-0.00037162,-3727.9,0.56412
19240,8.7711,1.2727,0.05,9.6028e-07,9.5962,7.3738e-07,5.5403,6.7036e-12,-5.549e-06,-7.3738e-07,-5.5405,0.56445
19241,9.0463,1.2727,0,0.00036297,3627.2,0.00012183,0.0088272,0.00011631,-41.402,-0.00036365,-3647.7,0.59631
19242,8.9546,1.1818,0,0.0003658,3655.4,0.00012267,0.0099571,0.00011739,-39.642,-0.00036645,-3675.1,0.58527
19243,8.9546,1.2727,0.05,9.5446e-07,9.538,7.329e-07,5.5067,8.6799e-12,-6.3238e-06,-7.3291e-07,-5.5069,0.58561
19244,9.2298,1.2727,0,0.00035789,3576.4,0.00011997,0.0078613,0.00011495,-37.74,-0.00035852,-3595.2,0.61784
19245,9.1381,1.1818,0,0.0003607,3604.5,0.00012082,0.0088069,0.000116,-36.206,-0.0003613,-3622.5,0.60668
19246,9.1381,1.2727,0.05,9.4868e-07,9.4802,7.2846e-07,5.4733,7.0857e-12,-4.8295e-06,-7.2847e-07,-5.4735,0.60701
19247,9.4133,1.2727,0,0.00035282,3525.8,0.00011813,0.0070887,0.00011356,-34.256,-0.00035339,-3542.8,0.6396
19248,9.3215,1.1818,0,0.00035561,3553.6,0.00011898,0.0078761,0.0001146,-32.915,-0.00035616,-3570,0.62833
19249,9.3215,1.2727,0.05,9.4295e-07,9.423,7.2406e-07,5.4403,8.0339e-12,-5.1535e-06,-7.2408e-07,-5.4405,0.62866
19250,9.5968,1.2727,0,0.00034777,3475.3,0.00011629,0.0064745,0.00011217,-30.954,-0.00034828,-3490.6,0.6616
19251,9.505,1.1818,0,0.00035053,3502.9,0.00011715,0.007123,0.00011318,-29.779,-0.00035103,-3517.7,0.65022
19252,9.505,1.2727,0.05,9.373e-07,9.3665,7.1972e-07,5.4077,6.4165e-12,-4.6922e-06,-7.1974e-07,-5.4079,0.65054
19253,9.7802,1.2727,0,0.00034272,3424.8,0.00011447,0.0059883,0.00011077,-27.833,-0.00034318,-3438.7,0.68384
19254,9.6885,1.1818,0,0.00034547,3452.3,0.00011533,0.0065201,0.00011176,-26.801,-0.00034591,-3465.6,0.67234
19255,9.6885,1.2727,0.05,9.3174e-07,9.311,7.1545e-07,5.3756,6.4886e-12,-2.5687e-06,-7.1547e-07,-5.3758,0.67266
19256,9.9637,1.2727,0,0.00033768,3374.5,0.00011267,0.0056141,0.00010935,-24.892,-0.0003381,-3386.9,0.70631
19257,9.872,1.1818,0,0.00034041,3401.8,0.00011352,0.0060344,0.00011033,-23.983,-0.00034081,-3413.7,0.6947
19258,9.872,1.2727,0.05,9.2628e-07,9.2564,7.1126e-07,5.3441,6.6129e-12,-2.4755e-06,-7.1127e-07,-5.3443,0.69501
19259,10.147,1.2727,0,0.00033266,3324.3,0.00011087,0.0053385,0.00010793,-22.126,-0.00033303,-3335.3,0.729
19260,10.055,1.1818,0,0.00033537,3351.4,0.00011173,0.0056683,0.00010889,-21.324,-0.00033572,-3362,0.71728
19261,10.055,1.2727,0.05,9.2092e-07,9.2028,7.0714e-07,5.3132,6.6787e-12,-2.1136e-06,-7.0716e-07,-5.3134,0.7176
19262,10.331,1.2727,0,0.00032764,3274.2,0.00010909,0.0051292,0.00010649,-19.529,-0.00032797,-3283.9,0.75192
19263,10.239,1.1818,0,0.00033034,3301.1,0.00010994,0.0053929,0.00010744,-18.82,-0.00033065,-3310.4,0.74009
19264,10.239,1.2727,0.05,9.1567e-07,9.1504,7.0311e-07,5.2829,6.7399e-12,-1.5849e-06,-7.0313e-07,-5.2831,0.7404
19265,10.514,1.2727,0,0.00032264,3224.2,0.00010732,0.0049895,0.00010504,-17.095,-0.00032293,-3232.7,0.77506
19266,10.422,1.1818,0,0.00032532,3250.9,0.00010817,0.0051744,0.00010598,-16.467,-0.00032559,-3259.1,0.76313
19267,10.422,1.2727,0.05,9.1053e-07,9.099,6.9917e-07,5.2532,6.8259e-12,-6.4049e-07,-6.9918e-07,-5.2534,0.76344
19268,10.698,1.2727,0,0.00031765,3174.3,0.00010556,0.004943,0.00010359,-14.816,-0.0003179,-3181.7,0.79842
19269,10.606,1.1818,0,0.00032031,3200.9,0.00010641,0.0050583,0.00010451,-14.259,-0.00032055,-3208,0.78638
19270,10.606,1.2727,0.05,9.0549e-07,9.0487,6.953e-07,5.2242,6.861e-12,3.3477e-07,-6.9532e-07,-5.2243,0.78668
19271,10.881,1.2727,0,0.00031268,3124.6,0.00010381,0.0049979,0.00010212,-12.684,-0.00031289,-3130.9,0.82199
19272,10.789,1.1818,0,0.00031532,3151,0.00010466,0.0050505,0.00010303,-12.19,-0.00031552,-3157.1,0.80985
19273,10.789,1.2727,0.05,9.0056e-07,8.9994,6.9151e-07,5.1957,6.9244e-12,2.0514e-07,-6.9153e-07,-5.1959,0.81015
19274,11.065,1.2727,0,0.00030771,3075,0.00010207,0.0051363,0.00010065,-10.692,-0.00030789,-3080.3,0.84577
19275,10.973,1.1818,0,0.00031033,3101.2,0.00010292,0.0051697,0.00010155,-10.253,-0.00031051,-3106.3,0.83353
19276,10.973,1.2727,0.05,8.9574e-07,8.9512,6.8781e-07,5.1679,6.9681e-12,-1.9723e-07,-6.8782e-07,-5.168,0.83383
19277,11.248,1.2727,0,0.00030276,3025.5,0.00010035,0.0053751,9.9172e-05,-8.8303,-0.00030291,-3029.9,0.86976
19278,11.156,1.1818,0,0.00030537,3051.6,0.00010119,0.005381,0.00010007,-8.4403,-0.00030551,-3055.8,0.85742
19279,11.156,1.2727,0.05,8.9102e-07,8.9041,6.8419e-07,5.1407,6.9982e-12,9.6011e-07,-6.842e-07,-5.1409,0.85771
19280,11.432,1.2727,0,0.00029782,2976.2,9.8633e-05,0.0058174,9.7688e-05,-7.0916,-0.00029794,-2979.7,0.89395
19281,11.34,1.1818,0,0.00030042,3002.1,9.9472e-05,0.00579,9.8573e-05,-6.7455,-0.00030053,-3005.4,0.88151
19282,11.34,1.2727,0.05,8.8639e-07,8.8578,6.8063e-07,5.114,6.1284e-12,1.5563e-06,-6.8065e-07,-5.1141,0.8818
19283,11.615,1.2727,0,0.0002929,2927,9.6927e-05,0.0065614,9.6199e-05,-5.4679,-0.00029299,-2929.7,0.91834
19284,11.523,1.1818,0,0.00029548,2952.7,9.7764e-05,0.0065801,9.7076e-05,-5.1609,-0.00029556,-2955.3,0.90581
19285,11.523,1.2727,0.05,8.8186e-07,8.8125,6.7715e-07,5.0878,7.0687e-12,1.6162e-06,-6.7717e-07,-5.088,0.90609
19286,11.799,1.2727,0,0.00028799,2877.9,9.5232e-05,0.0078638,9.4705e-05,-3.9517,-0.00028805,-2879.9,0.94293
19287,11.707,1.1818,0,0.00029055,2903.5,9.6066e-05,0.0079905,9.5575e-05,-3.6801,-0.00029062,-2905.4,0.93031
19288,11.707,1.2727,0.05,8.7742e-07,8.7681,6.7374e-07,5.0622,6.1924e-12,1.7151e-06,-6.7375e-07,-5.0624,0.93059
19289,11.982,1.2727,0,0.00028309,2829,9.3547e-05,0.010589,9.3208e-05,-2.536,-0.00028314,-2830.2,0.96771
19290,11.89,1.1818,0,0.00028565,2854.5,9.4378e-05,0.011115,9.4071e-05,-2.2969,-0.00028568,-2855.6,0.955
19291,11.89,1.2727,0.05,8.7305e-07,8.7245,6.7039e-07,5.037,6.2203e-12,3.3072e-06,-6.704e-07,-5.0372,0.95527
19292,12.165,1.2727,0,0.00027821,2780.2,9.1872e-05,0.01894,9.1708e-05,-1.218,-0.00027823,-2780.8,0.99269
19293,12.074,1.1818,0,0.00028075,2805.6,9.27e-05,0.021954,9.2563e-05,-1.0104,-0.00028077,-2806.1,0.97988
19294,12.074,1.2727,0.05,8.6877e-07,8.6817,6.671e-07,5.0122,6.2383e-12,2.5879e-06,-6.6711e-07,-5.0125,0.98015
19295,12.349,1.2727,0,0.00027335,2731.6,9.0225e-05,0.16302,9.0187e-05,-0.12075,-0.00027335,-2731.6,1.0178
19296,12.257,1.1818,0,0.00027588,2756.9,9.1067e-05,0.29211,9.1019e-05,-0.065918,-0.00027587,-2756.7,1.005
19297,12.257,1.2727,0.05,8.6455e-07,8.6395,6.6386e-07,4.988,7.1784e-12,3.4781e-06,-6.6388e-07,-4.9881,1.0052
19298,12.532,1.2727,0,0.0002685,2683.2,8.8708e-05,1.219,8.8544e-05,-0.013641,-0.00026848,-2682.6,1.0432
19299,12.441,1.1818,0,0.00027101,2708.3,8.955e-05,1.3768,8.9366e-05,-0.012139,-0.00027099,-2707.6,1.0302
19300,12.441,1.2727,0.05,8.604e-07,8.598,6.6067e-07,4.964,7.1997e-12,4.3041e-06,-6.6068e-07,-4.9642,1.0305
19301,12.716,1.2727,0,0.00026367,2634.9,8.7203e-05,2.3024,8.6896e-05,-0.0059915,-0.00026363,-2633.7,1.0687
19302,12.624,1.1818,0,0.00026617,2659.9,8.804e-05,2.4388,8.7715e-05,-0.0059226,-0.00026613,-2658.6,1.0556
19303,12.624,1.2727,0.05,8.5631e-07,8.5571,6.5753e-07,4.9404,6.3105e-12,3.0689e-06,-6.5754e-07,-4.9406,1.0559
19304,12.899,1.2727,0,0.00025885,2586.7,8.5699e-05,3.3249,8.5256e-05,-0.0033616,-0.0002588,-2585.1,1.0944
19305,12.808,1.1818,0,0.00026134,2611.6,8.653e-05,3.4403,8.6072e-05,-0.0035864,-0.00026128,-2609.9,1.0813
19306,12.808,1.2727,0.05,8.5228e-07,8.5169,6.5444e-07,4.9172,5.4182e-12,1.6098e-06,-6.5445e-07,-4.9173,1.0815
19307,13.083,1.2727,0,0.00025405,2538.8,8.4196e-05,4.2884,8.3625e-05,-0.0020534,-0.00025398,-2536.6,1.1203
19308,12.991,1.1818,0,0.00025653,2563.5,8.5021e-05,4.3837,8.4438e-05,-0.0024054,-0.00025646,-2561.3,1.1071
19309,12.991,1.2727,0.05,8.4832e-07,8.4773,6.514e-07,4.8943,5.4336e-12,2.308e-06,-6.5141e-07,-4.8945,1.1073
19310,13.266,1.2727,0,0.00024927,2491,8.2694e-05,5.1977,8.2002e-05,-0.0012501,-0.00024918,-2488.4,1.1463
19311,13.175,1.1818,0,0.00025174,2515.6,8.3513e-05,5.2738,8.2811e-05,-0.0016947,-0.00025165,-2513,1.133
19312,13.175,1.2727,0.05,8.444e-07,8.4381,6.4839e-07,4.8717,4.5397e-12,3.3706e-06,-6.484e-07,-4.8718,1.1333
19313,13.45,1.2727,0,0.00024451,2443.4,8.1193e-05,6.0576,8.0387e-05,-0.00070459,-0.0002444,-2440.3,1.1725
19314,13.358,1.1818,0,0.00024696,2467.9,8.2007e-05,6.1153,8.1193e-05,-0.0011822,-0.00024685,-2464.8,1.1592
19315,13.358,1.2727,0.05,8.4053e-07,8.3995,6.4542e-07,4.8494,5.4629e-12,4.7082e-06,-6.4543e-07,-4.8495,1.1594
19316,13.633,1.2727,0,0.00023976,2395.9,7.9694e-05,6.8727,7.878e-05,-0.00032091,-0.00023964,-2392.5,1.1989
19317,13.542,1.1818,0,0.0002422,2420.3,8.0503e-05,6.9126,7.9583e-05,-0.00083963,-0.00024208,-2416.9,1.1855
19318,13.542,1.2727,0.05,8.3672e-07,8.3614,6.4249e-07,4.8273,4.5659e-12,5.4864e-06,-6.425e-07,-4.8276,1.1857
19319,13.817,1.2727,0,0.00023503,2348.7,7.8198e-05,7.6479,7.718e-05,-2.1876e-05,-0.0002349,-2344.8,1.2255
19320,13.725,1.1818,0,0.00023746,2372.9,7.9002e-05,7.6703,7.7981e-05,-0.00057629,-0.00023733,-2369.1,1.2119
19321,13.725,1.2727,0.05,8.3294e-07,8.3237,6.3959e-07,4.8056,4.5769e-12,6.4151e-06,-6.396e-07,-4.8057,1.2122
19322,14,1.2727,0,0.00023032,2301.6,7.6705e-05,8.3873,7.5589e-05,0.00020663,-0.00023017,-2297.4,1.2522
19323,13.909,1.1818,0,0.00023274,2325.7,7.7503e-05,8.3926,7.6386e-05,-0.00036215,-0.00023259,-2321.5,1.2385
19324,13.909,1.2727,0.05,8.2921e-07,8.2864,6.3673e-07,4.7841,5.496e-12,6.7823e-06,-6.3674e-07,-4.7842,1.2388
19325,14.184,1.2727,0,0.00022562,2254.7,7.5215e-05,9.0954,7.4005e-05,0.00039838,-0.00022547,-2250.1,1.279
19326,14.092,1.1818,0,0.00022803,2278.7,7.6008e-05,9.0833,7.4799e-05,-0.00021568,-0.00022787,-2274.2,1.2653
19327,14.092,1.2727,0.05,8.2552e-07,8.2495,6.3389e-07,4.7628,4.5952e-12,6.3237e-06,-6.339e-07,-4.7629,1.2655
19328,14.367,1.2727,0,0.00022095,2208,7.3729e-05,9.776,7.2428e-05,0.00058105,-0.00022078,-2203,1.306
19329,14.276,1.1818,0,0.00022334,2231.9,7.4517e-05,9.7466,7.322e-05,-5.779e-05,-0.00022318,-2227,1.2923
19330,14.276,1.2727,0.05,8.2186e-07,8.2129,6.3108e-07,4.7417,5.5176e-12,6.2327e-06,-6.3109e-07,-4.7418,1.2925
19331,14.551,1.2727,0,0.00021629,2161.4,7.2247e-05,10.433,7.0859e-05,0.00072793,-0.00021611,-2156.2,1.3332
19332,14.459,1.1818,0,0.00021867,2185.2,7.303e-05,10.386,7.1648e-05,8.116e-05,-0.0002185,-2180,1.3193
19333,14.459,1.2727,0.05,8.1824e-07,8.1768,6.283e-07,4.7208,4.6155e-12,6.738e-06,-6.2831e-07,-4.7209,1.3195
19334,14.734,1.2727,0,0.00021165,2115.1,7.077e-05,11.07,6.9296e-05,0.00085266,-0.00021146,-2109.5,1.3605
19335,14.642,1.1818,0,0.00021403,2138.8,7.1547e-05,11.005,7.0083e-05,0.00017329,-0.00021384,-2133.3,1.3466
19336,14.642,1.2727,0.05,8.1466e-07,8.141,6.2555e-07,4.7001,5.5385e-12,5.5175e-06,-6.2556e-07,-4.7002,1.3468
19337,14.918,1.2727,0,0.00020703,2068.9,6.9297e-05,11.691,6.7741e-05,0.00098105,-0.00020683,-2063,1.3879
19338,14.826,1.1818,0,0.00020939,2092.5,7.0069e-05,11.607,6.8525e-05,0.00027312,-0.00020919,-2086.7,1.3739
19339,14.826,1.2727,0.05,8.111e-07,8.1054,6.2282e-07,4.6796,5.5454e-12,5.1421e-06,-6.2283e-07,-4.6798,1.3741
19340,15.101,1.2727,0,0.00020243,2022.9,6.783e-05,12.299,6.6193e-05,0.0011145,-0.00020222,-2016.8,1.4155
19341,15.009,1.1818,0,0.00020478,2046.4,6.8597e-05,12.196,6.6974e-05,0.00037677,-0.00020457,-2040.3,1.4014
19342,15.009,1.2727,0.05,8.0758e-07,8.0702,6.2012e-07,4.6593,5.5539e-12,4.059e-06,-6.2013e-07,-4.6594,1.4016
19343,15.285,1.2727,0,0.00019785,1977.2,6.6368e-05,12.898,6.4651e-05,0.0012388,-0.00019763,-1970.7,1.4432
19344,15.193,1.1818,0,0.00020019,2000.5,6.7129e-05,12.774,6.5429e-05,0.00048815,-0.00019997,-1994.1,1.4291
19345,15.193,1.2727,0.05,8.041e-07,8.0354,6.1744e-07,4.6392,3.7407e-12,3.8845e-06,-6.1745e-07,-4.6393,1.4293
19346,15.468,1.2727,0,0.00019329,1931.6,6.4912e-05,13.491,6.3117e-05,0.0013523,-0.00019306,-1924.8,1.471
19347,15.376,1.1818,0,0.00019562,1954.8,6.5668e-05,13.346,6.3892e-05,0.00057552,-0.00019539,-1948.1,1.4569
19348,15.376,1.2727,0.05,8.0065e-07,8.0009,6.1479e-07,4.6193,4.6514e-12,4.816e-06,-6.148e-07,-4.6194,1.4571
19349,15.652,1.2727,0,0.00018875,1886.2,6.3462e-05,14.081,6.1588e-05,0.0014704,-0.00018851,-1879.1,1.499
19350,15.56,1.1818,0,0.00019107,1909.3,6.4213e-05,13.913,6.2361e-05,0.00066722,-0.00019082,-1902.3,1.4848
19351,15.56,1.2727,0.05,7.9722e-07,7.9667,6.1216e-07,4.5995,3.7535e-12,3.7666e-06,-6.1217e-07,-4.5997,1.485
19352,15.835,1.2727,0,0.00018423,1841,6.2019e-05,14.671,6.0067e-05,0.0015796,-0.00018397,-1833.6,1.5271
19353,15.743,1.1818,0,0.00018653,1864,6.2764e-05,14.479,6.0837e-05,0.0007629,-0.00018628,-1856.7,1.5128
19354,15.743,1.2727,0.05,7.9384e-07,7.9329,6.0956e-07,4.58,3.7575e-12,1.949e-06,-6.0957e-07,-4.5801,1.513
19355,16.019,1.2727,0,0.00017972,1796,6.0583e-05,15.265,5.8551e-05,0.0016937,-0.00017946,-1788.3,1.5553
19356,15.927,1.1818,0,0.00018202,1818.9,6.1322e-05,15.047,5.9319e-05,0.00083689,-0.00018176,-1811.4,1.541
19357,15.927,1.2727,0.05,7.9048e-07,7.8993,6.0698e-07,4.5606,5.1255e-12,2.0599e-06,-6.0699e-07,-4.5607,1.5412
19358,16.202,1.2727,0,0.00017524,1751.2,5.9154e-05,15.867,5.7042e-05,0.0018258,-0.00017497,-1743.2,1.5837
19359,16.11,1.1818,0,0.00017752,1774,5.9886e-05,15.621,5.7808e-05,0.00094259,-0.00017725,-1766.2,1.5693
19360,16.11,1.2727,0.05,7.8714e-07,7.866,6.0443e-07,4.5414,3.7656e-12,2.3293e-06,-6.0443e-07,-4.5415,1.5695
19361,16.386,1.2727,0,0.00017078,1706.6,5.7732e-05,16.478,5.5539e-05,0.00195,-0.00017049,-1698.3,1.6121
19362,16.294,1.1818,0,0.00017305,1729.3,5.8459e-05,16.202,5.6302e-05,0.0010505,-0.00017277,-1721.2,1.5977
19363,16.294,1.2727,0.05,7.8385e-07,7.8331,6.019e-07,4.5224,4.6909e-12,2.7894e-06,-6.019e-07,-4.5225,1.5979
19364,16.569,1.2727,0,0.00016634,1662.2,5.6319e-05,17.103,5.4043e-05,0.0020723,-0.00016604,-1653.6,1.6407
19365,16.477,1.1818,0,0.0001686,1684.8,5.7038e-05,16.795,5.4803e-05,0.0011401,-0.00016831,-1676.3,1.6262
19366,16.477,1.2727,0.05,7.8059e-07,7.8005,5.9939e-07,4.5036,4.7e-12,2.6718e-06,-5.994e-07,-4.5037,1.6264
19367,16.753,1.2727,0,0.00016192,1618.1,5.4913e-05,17.745,5.2552e-05,0.0022112,-0.00016161,-1609.1,1.6694
19368,16.661,1.1818,0,0.00016416,1640.5,5.5626e-05,17.402,5.331e-05,0.0012429,-0.00016386,-1631.7,1.6549
19369,16.661,1.2727,0.05,7.7736e-07,7.7682,5.9691e-07,4.4849,3.8068e-12,3.2029e-06,-5.9692e-07,-4.485,1.655
19370,16.936,1.2727,0,0.00015752,1574.1,5.3516e-05,18.408,5.1067e-05,0.0023667,-0.0001572,-1564.8,1.6982
19371,16.844,1.1818,0,0.00015975,1596.4,5.4222e-05,18.027,5.1823e-05,0.0013632,-0.00015944,-1587.3,1.6836
19372,16.844,1.2727,0.05,7.7416e-07,7.7363,5.9446e-07,4.4665,3.8274e-12,6.2387e-06,-5.9446e-07,-4.4666,1.6838
19373,17.119,1.2727,0,0.00015314,1530.3,5.2128e-05,19.094,4.9587e-05,0.0025267,-0.0001528,-1520.7,1.7271
19374,17.028,1.1818,0,0.00015536,1552.5,5.2826e-05,18.673,5.0341e-05,0.0014985,-0.00015503,-1543.1,1.7125
19375,17.028,1.2727,0.05,7.71e-07,7.7047,5.9203e-07,4.4483,2.9134e-12,6.1342e-06,-5.9204e-07,-4.4484,1.7126
19376,17.303,1.2727,0,0.00014878,1486.8,5.0749e-05,19.809,4.8113e-05,0.0026904,-0.00014843,-1476.8,1.7561
19377,17.211,1.1818,0,0.00015099,1508.9,5.144e-05,19.342,4.8866e-05,0.0016249,-0.00015065,-1499.1,1.7414
19378,17.211,1.2727,0.05,7.6789e-07,7.6736,5.8964e-07,4.4303,3.8473e-12,5.9244e-06,-5.8965e-07,-4.4304,1.7416
19379,17.486,1.2727,0,0.00014444,1443.4,4.938e-05,20.554,4.6645e-05,0.0028684,-0.00014408,-1433.1,1.7852
19380,17.395,1.1818,0,0.00014664,1465.4,5.0062e-05,20.04,4.7395e-05,0.001763,-0.00014629,-1455.3,1.7705
19381,17.395,1.2727,0.05,7.6481e-07,7.6429,5.8728e-07,4.4126,2.9433e-12,5.5217e-06,-5.8729e-07,-4.4126,1.7706
19382,17.67,1.2727,0,0.00014013,1400.3,4.8021e-05,21.335,4.5182e-05,0.0030517,-0.00013975,-1389.5,1.8144
19383,17.578,1.1818,0,0.00014231,1422.1,4.8694e-05,20.768,4.593e-05,0.0019163,-0.00014195,-1411.6,1.7996
19384,17.578,1.2727,0.05,7.6178e-07,7.6126,5.8495e-07,4.3951,3.8652e-12,7.685e-06,-5.8496e-07,-4.3952,1.7998
19385,17.853,1.2727,0,0.00013583,1357.4,4.6672e-05,22.156,4.3724e-05,0.0032509,-0.00013544,-1346.2,1.8437
19386,17.762,1.1818,0,0.000138,1379.1,4.7336e-05,21.532,4.4471e-05,0.0020621,-0.00013762,-1368.2,1.8289
19387,17.762,1.2727,0.05,7.5879e-07,7.5827,5.8266e-07,4.3778,3.438e-12,7.3905e-06,-5.8266e-07,-4.3779,1.829
19388,18.037,1.2727,0,0.00013156,1314.7,4.5334e-05,23.02,4.2271e-05,0.0034756,-0.00013116,-1303.1,1.8731
19389,17.945,1.1818,0,0.00013372,1336.3,4.5988e-05,22.334,4.3016e-05,0.0022432,-0.00013332,-1324.9,1.8582
19390,17.945,1.2727,0.05,7.5585e-07,7.5533,5.804e-07,4.3609,2.5399e-12,9.4054e-06,-5.804e-07,-4.3609,1.8583
19391,18.22,1.2727,0,0.00012731,1272.2,4.4007e-05,23.933,4.0822e-05,0.0037079,-0.00012689,-1260.1,1.9025
19392,18.129,1.1818,0,0.00012945,1293.6,4.4651e-05,23.179,4.1567e-05,0.0024377,-0.00012904,-1281.9,1.8876
19393,18.129,1.2727,0.05,7.5297e-07,7.5245,5.7818e-07,4.3442,2.5748e-12,6.7778e-06,-5.7819e-07,-4.3443,1.8878
19394,18.404,1.2727,0,0.00012308,1230,4.2692e-05,24.899,3.9379e-05,0.0039553,-0.00012264,-1217.4,1.9321
19395,18.312,1.1818,0,0.00012521,1251.2,4.3325e-05,24.072,4.0122e-05,0.0026287,-0.00012478,-1239,1.9172
19396,18.312,1.2727,0.05,7.5013e-07,7.4962,5.7601e-07,4.3279,3.0571e-12,7.5933e-06,-5.7601e-07,-4.3279,1.9173
19397,18.587,1.2727,0,0.00011888,1188,4.1389e-05,25.923,3.7939e-05,0.0042332,-0.00011842,-1174.8,1.9617
19398,18.496,1.1818,0,0.00012099,1209.1,4.2011e-05,25.017,3.8682e-05,0.0028489,-0.00012055,-1196.4,1.9468
19399,18.496,1.2727,0.05,7.4736e-07,7.4684,5.7388e-07,4.3119,3.0727e-12,5.9477e-06,-5.7388e-07,-4.3119,1.9469
19400,18.771,1.2727,0,0.0001147,1146.2,4.0099e-05,27.011,3.6504e-05,0.0045427,-0.00011421,-1132.4,1.9914
19401,18.679,1.1818,0,0.00011679,1167.1,4.0708e-05,26.018,3.7246e-05,0.0030952,-0.00011633,-1153.9,1.9764
19402,18.679,1.2727,0.05,7.4465e-07,7.4414,5.718e-07,4.2962,3.553e-12,9.933e-06,-5.718e-07,-4.2963,1.9766
19403,18.954,1.2727,0,0.00011054,1104.6,3.8822e-05,28.169,3.5073e-05,0.0048766,-0.00011003,-1090.2,2.0212
19404,18.863,1.1818,0,0.00011262,1125.4,3.9418e-05,27.081,3.5814e-05,0.0033719,-0.00011213,-1111.6,2.0062
19405,18.863,1.2727,0.05,7.4201e-07,7.415,5.6977e-07,4.281,3.0942e-12,1.0365e-05,-5.6977e-07,-4.2811,2.0063
19406,19.138,1.2727,0,0.0001064,1063.3,3.7559e-05,29.403,3.3646e-05,0.0052382,-0.00010587,-1048.3,2.0511
19407,19.046,1.1818,0,0.00010846,1083.9,3.8141e-05,28.212,3.4387e-05,0.0036616,-0.00010796,-1069.5,2.036
19408,19.046,1.2727,0.05,7.3945e-07,7.3894,5.678e-07,4.2662,2.1904e-12,1.0286e-05,-5.6781e-07,-4.2663,2.0361
19409,19.321,1.2727,0,0.00010229,1022.2,3.631e-05,30.718,3.2222e-05,0.0056394,-0.00010173,-1006.5,2.081
19410,19.229,1.1818,0,0.00010433,1042.6,3.6878e-05,29.415,3.2963e-05,0.0039866,-0.0001038,-1027.6,2.0659
19411,19.229,1.2727,0.05,7.3696e-07,7.3645,5.6589e-07,4.2519,3.1314e-12,9.8818e-06,-5.659e-07,-4.252,2.066
19412,19.505,1.2727,0,9.8199e-05,981.31,3.5077e-05,32.124,3.0802e-05,0.0060769,-9.7613e-05,-964.86,2.111
19413,19.413,1.1818,0,0.00010023,1001.6,3.5628e-05,30.698,3.1543e-05,0.0043486,-9.9669e-05,-985.87,2.0959
19414,19.413,1.2727,0.05,7.3457e-07,7.3406,5.6406e-07,4.2381,2.7299e-12,1.4058e-05,-5.6406e-07,-4.2381,2.096
19415,19.688,1.2727,0,9.4135e-05,940.7,3.3859e-05,33.626,2.9385e-05,0.0065648,-9.3518e-05,-923.43,2.1411
19416,19.596,1.1818,0,9.6143e-05,960.77,3.4393e-05,32.068,3.0126e-05,0.0047385,-9.5558e-05,-944.33,2.126
19417,19.596,1.2727,0.05,7.3227e-07,7.3176,5.6229e-07,4.2248,2.3018e-12,1.39e-05,-5.6229e-07,-4.2248,2.1261
19418,19.872,1.2727,0,9.0096e-05,900.33,3.2658e-05,35.234,2.797e-05,0.0071174,-8.9444e-05,-882.2,2.1712
19419,19.78,1.1818,0,9.2084e-05,920.2,3.3174e-05,33.53,2.8712e-05,0.0051936,-9.1468e-05,-902.98,2.1561
19420,19.78,1.2727,0.05,7.3007e-07,7.2956,5.606e-07,4.2121,2.3389e-12,1.5078e-05,-5.606e-07,-4.2121,2.1562
19421,20.055,1.2727,0,8.6082e-05,860.22,3.1475e-05,36.956,2.6557e-05,0.0077286,-8.5393e-05,-841.15,2.2014
19422,19.963,1.1818,0,8.8049e-05,879.88,3.1971e-05,35.094,2.7301e-05,0.0057019,-8.7399e-05,-861.81,2.1862
19423,19.963,1.2727,0.05,7.2798e-07,7.2748,5.59e-07,4.2001,2.3681e-12,1.5832e-05,-5.59e-07,-4.2001,2.1863
19424,20.239,1.2727,0,8.2094e-05,820.37,3.031e-05,38.802,2.5147e-05,0.0084146,-8.1365e-05,-800.28,2.2317
19425,20.147,1.1818,0,8.4038e-05,839.8,3.0785e-05,36.768,2.5892e-05,0.0062643,-8.3352e-05,-820.81,2.2165
19426,20.147,1.2727,0.05,7.2602e-07,7.2552,5.5749e-07,4.1888,2.3802e-12,1.6715e-05,-5.5749e-07,-4.1888,2.2165
19427,20.422,1.2727,0,7.8133e-05,780.79,2.9165e-05,40.784,2.3738e-05,0.0091982,-7.7359e-05,-759.59,2.262
19428,20.33,1.1818,0,8.0054e-05,799.98,2.9616e-05,38.561,2.4485e-05,0.0069115,-7.9328e-05,-780,2.2467
19429,20.33,1.2727,0.05,7.2418e-07,7.2369,5.5608e-07,4.1782,2.8692e-12,1.7573e-05,-5.5608e-07,-4.1782,2.2468
19430,20.606,1.2727,0,7.4199e-05,741.48,2.804e-05,42.913,2.233e-05,0.010095,-7.3376e-05,-719.09,2.2923
19431,20.514,1.1818,0,7.6095e-05,760.42,2.8467e-05,40.484,2.308e-05,0.0076554,-7.5325e-05,-739.37,2.2771
19432,20.514,1.2727,0.05,7.225e-07,7.22,5.5479e-07,4.1685,2.9026e-12,1.6626e-05,-5.5479e-07,-4.1685,2.2771
19433,20.789,1.2727,0,7.0295e-05,702.46,2.6938e-05,45.203,2.0923e-05,0.011121,-6.9417e-05,-678.77,2.3227
19434,20.697,1.1818,0,7.2163e-05,721.13,2.7338e-05,42.549,2.1676e-05,0.0085173,-7.1345e-05,-698.91,2.3074
19435,20.697,1.2727,0.05,7.2098e-07,7.2048,5.5362e-07,4.1597,2.6525e-12,1.4492e-05,-5.5362e-07,-4.1597,2.3075
19436,20.973,1.2727,0,6.6421e-05,663.75,2.5859e-05,47.669,1.9516e-05,0.012305,-6.5481e-05,-638.62,2.3532
19437,20.881,1.1818,0,6.826e-05,682.13,2.623e-05,44.768,2.0273e-05,0.0095079,-6.7388e-05,-658.64,2.3379
19438,20.881,1.2727,0.05,7.1964e-07,7.1914,5.5259e-07,4.1519,2.4323e-12,1.4674e-05,-5.5259e-07,-4.152,2.3379
19439,21.156,1.2727,0,6.2579e-05,625.35,2.4805e-05,50.329,1.8109e-05,0.013687,-6.157e-05,-598.66,2.3837
19440,21.064,1.1818,0,6.4386e-05,643.42,2.5144e-05,47.158,1.887e-05,0.010669,-6.3454e-05,-618.53,2.3683
19441,21.064,1.2727,0.05,7.1849e-07,7.18,5.5171e-07,4.1454,2.4188e-12,1.6645e-05,-5.5172e-07,-4.1454,2.3684
19442,21.34,1.2727,0,5.8771e-05,587.3,2.3779e-05,53.202,1.6701e-05,0.015305,-5.7684e-05,-558.88,2.4142
19443,21.248,1.1818,0,6.0544e-05,605.02,2.4084e-05,49.735,1.7466e-05,0.012038,-5.9544e-05,-578.61,2.3989
19444,21.248,1.2727,0.05,7.1757e-07,7.1708,5.5101e-07,4.14,2.3817e-12,1.8718e-05,-5.5101e-07,-4.1401,2.3989
19445,21.523,1.2727,0,5.5e-05,549.62,2.2783e-05,56.312,1.529e-05,0.017226,-5.3825e-05,-519.29,2.4448
19446,21.431,1.1818,0,5.6735e-05,566.96,2.305e-05,52.52,1.6062e-05,0.013659,-5.5658e-05,-538.86,2.4294
19447,21.431,1.2727,0.05,7.169e-07,7.1641,5.5049e-07,4.1362,2.3472e-12,1.723e-05,-5.5049e-07,-4.1362,2.4295
19448,21.706,1.2727,0,5.1269e-05,512.34,2.1819e-05,59.686,1.3878e-05,0.019532,-4.9992e-05,-479.87,2.4754
19449,21.615,1.1818,0,5.2963e-05,529.26,2.2045e-05,55.535,1.4656e-05,0.015615,-5.1799e-05,-499.3,2.46
19450,21.615,1.2727,0.05,7.1652e-07,7.1602,5.502e-07,4.134,1.9567e-12,1.3774e-05,-5.502e-07,-4.134,2.4601
19451,21.89,1.2727,0,4.7584e-05,475.51,2.0891e-05,63.357,1.2461e-05,0.022318,-4.6188e-05,-440.65,2.506
19452,21.798,1.1818,0,4.9231e-05,491.97,2.1072e-05,58.811,1.3247e-05,0.017988,-4.7966e-05,-459.92,2.4906
19453,21.798,1.2727,0.05,7.1647e-07,7.1597,5.5016e-07,4.1337,1.7566e-12,1.5891e-05,-5.5016e-07,-4.1337,2.4907
19454,22.073,1.2727,0,4.395e-05,439.2,2.0002e-05,67.361,1.1041e-05,0.025733,-4.2415e-05,-401.62,2.5367
19455,21.982,1.1818,0,4.5545e-05,455.14,2.0135e-05,62.38,1.1836e-05,0.020892,-4.4162e-05,-420.72,2.5213
19456,21.982,1.2727,0.05,7.1681e-07,7.1631,5.5042e-07,4.1356,1.4834e-12,1.025e-05,-5.5042e-07,-4.1356,2.5214
19457,22.257,1.2727,0,4.0376e-05,403.48,1.9158e-05,71.744,9.6139e-06,0.029983,-3.8673e-05,-362.78,2.5674
19458,22.165,1.1818,0,4.1912e-05,418.83,1.9238e-05,66.283,1.0419e-05,0.024516,-4.0389e-05,-381.73,2.552
19459,22.165,1.2727,0.05,7.176e-07,7.1711,5.5103e-07,4.1402,1.2779e-12,1.0899e-05,-5.5103e-07,-4.1402,2.552
19460,22.44,1.2727,0,3.6871e-05,368.46,1.8364e-05,76.558,8.1797e-06,0.035375,-3.4967e-05,-324.15,2.5981
19461,22.349,1.1818,0,3.834e-05,383.13,1.8386e-05,70.571,8.9971e-06,0.029086,-3.6648e-05,-342.93,2.5827
19462,22.349,1.2727,0.05,7.1897e-07,7.1847,5.5208e-07,4.1481,1.2514e-12,1.1374e-05,-5.5208e-07,-4.1481,2.5828
19463,22.624,1.2727,0,3.3451e-05,334.28,1.7626e-05,81.866,6.7363e-06,0.042289,-3.1297e-05,-285.73,2.6289
19464,22.532,1.1818,0,3.4842e-05,348.18,1.7585e-05,75.301,7.5675e-06,0.035002,-3.2944e-05,-304.35,2.6134
19465,22.532,1.2727,0.05,7.2103e-07,7.2053,5.5366e-07,4.16,1.2083e-12,1.45e-05,-5.5366e-07,-4.16,2.6135
19466,22.807,1.2727,0,3.0134e-05,301.14,1.6952e-05,87.737,5.2813e-06,0.051671,-2.7667e-05,-247.51,2.6597
19467,22.716,1.1818,0,3.1434e-05,314.13,1.6843e-05,80.546,6.1284e-06,0.042661,-2.9279e-05,-266,2.6442
19468,22.716,1.2727,0.05,7.2397e-07,7.2347,5.5592e-07,4.177,1.0731e-12,9.856e-06,-5.5592e-07,-4.177,2.6443
19469,22.991,1.2727,0,2.6948e-05,269.3,1.6347e-05,94.248,3.812e-06,0.063852,-2.4078e-05,-209.49,2.6904
19470,22.899,1.1818,0,2.8141e-05,281.21,1.6168e-05,86.389,4.6775e-06,0.053591,-2.5657e-05,-227.87,2.675
19471,22.899,1.2727,0.05,7.2802e-07,7.2752,5.5903e-07,4.2004,1.1258e-12,1.487e-05,-5.5903e-07,-4.2003,2.675
19472,23.174,1.2727,0,2.3929e-05,239.13,1.582e-05,101.48,2.3255e-06,0.08475,-2.053e-05,-171.64,2.7212
19473,23.083,1.1818,0,2.4993e-05,249.76,1.5569e-05,92.92,3.2113e-06,0.067031,-2.208e-05,-189.96,2.7058
19474,23.083,1.2727,0.05,7.3349e-07,7.3298,5.6323e-07,4.2319,6.9691e-13,1.2758e-05,-5.6323e-07,-4.2319,2.7058
19475,23.358,1.2727,0,2.1129e-05,211.15,1.5375e-05,109.49,8.1694e-07,0.10522,-1.7019e-05,-133.91,2.7521
19476,23.266,1.1818,0,2.2037e-05,220.21,1.5055e-05,100.24,1.7272e-06,0.095827,-1.8549e-05,-152.25,2.7366
19477,23.266,1.2727,0.05,7.4072e-07,7.4021,5.6878e-07,4.2736,4.3812e-13,7.6936e-06,-5.6878e-07,-4.2736,2.7366
19478,23.541,1.2727,0,1.8626e-05,186.13,1.5014e-05,118.36,-7.1197e-07,0.19502,-1.3542e-05,-96.204,2.7829
19479,23.45,1.1818,0,1.9336e-05,193.23,1.4632e-05,108.41,2.1782e-07,0.10993,-1.5059e-05,-114.68,2.7674
19480,23.45,1.2727,0.05,7.5007e-07,7.4955,5.7596e-07,4.3275,-5.4585e-14,2.7756e-06,-5.7596e-07,-4.3275,2.7675
19481,23.725,1.2727,0,1.6536e-05,165.25,1.4742e-05,128.07,-2.279e-06,0.1757,-1.0091e-05,-58.52,2.8137
19482,23.633,1.1818,0,1.699e-05,169.78,1.4302e-05,117.57,-1.3072e-06,0.28268,-1.1609e-05,-77.124,2.7982
19483,23.633,1.2727,0.05,7.6251e-07,7.6198,5.8551e-07,4.3993,-1.1395e-13,7.2237e-06,-5.8551e-07,-4.3993,2.7983
19484,23.817,1.1818,0,1.5149e-05,151.38,1.4076e-05,127.6,-2.8897e-06,0.12209,-8.1924e-06,-39.72,2.8291
19485,23.817,1.2727,0.05,7.903e-07,7.8976,6.0685e-07,4.5597,-4.0556e-14,4.6401e-06,-6.0685e-07,-4.5597,2.8291
19486,23.908,1.2727,0,1.4998e-05,149.87,1.4492e-05,137.55,-3.7596e-06,0.41762,-6.8015e-06,-22.439,2.8446
19487,3.5419,1.0909,0,0.00042507,4247.8,0.00025091,1389.6,6.5084e-05,-6.6258,-0.00038396,-3380.5,0.077033
19488,3.4501,1,0,0.00040036,4000.8,0.00025054,1497.5,4.9791e-05,-10.878,-0.00035313,-3038.2,0.069481
19489,3.4501,1.0909,0.05,2.0573e-05,205.59,1.5798e-05,118.7,-6.7315e-12,-7.5959e-05,-1.5798e-05,-118.7,0.070323
19490,3.3584,1.0909,0,0.00035931,3590.6,0.00022636,1370.2,4.4138e-05,1.0715,-0.00031583,-2703.6,0.06382
19491,3.7254,1.0909,0,0.00041154,4112.5,0.00021059,924.9,8.7196e-05,-2.2086,-0.00038792,-3572.1,0.090342
19492,3.6336,1,0,0.00037665,3763.9,0.00020265,975.24,7.2748e-05,-0.77467,-0.00035046,-3180.6,0.082828
19493,3.6336,1.0909,0.05,1.3812e-05,138.02,1.0606e-05,79.686,-2.1327e-11,-0.00020966,-1.0606e-05,-79.686,0.083589
19494,3.9088,1.0909,0,0.00041693,4166.4,0.00018957,634.77,0.00010465,-3.2781,-0.0004025,-3813.9,0.10381
19495,3.8171,1,0,0.00038409,3838.2,0.00018209,678.27,9.135e-05,-3.5111,-0.00036804,-3455.2,0.096293
19496,3.8171,1.0909,0.05,1.1027e-05,110.19,8.4672e-06,63.619,-2.8666e-11,-0.00030238,-8.4672e-06,-63.619,0.096981
19497,4.0923,1.0909,0,0.00042592,4256.3,0.00017645,434.66,0.00011824,-2.7084,-0.00041688,-4023.4,0.11749
19498,4.0006,1,0,0.00039772,3974.5,0.0001705,476.85,0.00010669,-2.5972,-0.00038748,-3715.6,0.10993
19499,4.0006,1.0909,0.05,8.525e-06,85.191,6.5461e-06,49.185,-3.2881e-11,-0.00033232,-6.5461e-06,-49.185,0.11056
19500,4.2758,1.0909,0,0.00043507,4347.7,0.00016826,296.93,0.0001284,-2.562,-0.00042929,-4192.8,0.13142
19501,4.1841,1,0,0.00041212,4118.4,0.00016404,338.31,0.00011869,-2.4516,-0.00040535,-3939.9,0.12379
19502,4.1841,1.0909,0.05,6.5577e-06,65.532,5.0355e-06,37.835,-3.9974e-11,-0.00039383,-5.0355e-06,-37.835,0.12436
19503,4.4593,1.0909,0,0.00044291,4426,0.000163,201.47,0.00013586,-2.4235,-0.00043917,-4323,0.14561
19504,4.3676,1,0,0.00042493,4246.3,0.00016036,241.72,0.0001279,-2.163,-0.00042032,-4121.3,0.13789
19505,4.3676,1.0909,0.05,5.0817e-06,50.781,3.9021e-06,29.319,-3.9174e-11,-0.00041594,-3.9021e-06,-29.319,0.13842
19506,4.6428,1.0909,0,0.00044883,4485.2,0.00015936,133.79,0.00014123,-2.4305,-0.00044644,-4418,0.16009
19507,4.551,1,0,0.00043517,4348.7,0.00015801,172.21,0.00013482,-1.9969,-0.00043202,-4261,0.15226
19508,4.551,1.0909,0.05,3.9767e-06,39.739,3.0536e-06,22.943,-4.5147e-11,-0.0004474,-3.0536e-06,-22.943,0.15276
19509,4.8263,1.0909,0,0.00045278,4524.6,0.00015659,84.516,0.00014499,-2.6153,-0.00045132,-4483.1,0.17486
19510,4.7345,1,0,0.00044272,4424.1,0.00015621,120.41,0.00013993,-1.9086,-0.00044057,-4363.6,0.16691
19511,4.7345,1.0909,0.05,3.1408e-06,31.386,2.4118e-06,18.121,-4.7362e-11,-0.00043159,-2.4117e-06,-18.121,0.16739
19512,5.0097,1.0909,0,0.00045489,4545.8,0.00015427,47.906,0.00014747,-3.1866,-0.00045411,-4523.2,0.18993
19513,4.918,1,0,0.00044775,4474.4,0.00015457,80.606,0.00014358,-1.9393,-0.00044636,-4434.5,0.18185
19514,4.918,1.0909,0.05,2.5023e-06,25.006,1.9215e-06,14.437,-4.8319e-11,-0.00041781,-1.9214e-06,-14.437,0.18231
19515,5.1932,1.0909,0,0.00045542,4551.1,0.00015231,21.184,0.00014882,-5.0351,-0.00045514,-4542.9,0.20531
19516,5.1015,1,0,0.00045062,4503.1,0.00015293,49.398,0.00014607,-2.1806,-0.0004498,-4479.3,0.19709
19517,5.1015,1.0909,0.05,2.0148e-06,20.135,1.5472e-06,11.625,-4.9298e-11,-0.00051386,-1.5471e-06,-11.625,0.19754
19518,5.3767,1.0909,0,0.00045464,4543.3,0.00015115,6.1475,0.0001487,-12.242,-0.00045474,-4546.3,0.22099
19519,5.285,1,0,0.00045169,4513.8,0.0001513,25.035,0.00014756,-2.9998,-0.00045131,-4502.7,0.21263
19520,5.285,1.0909,0.05,1.6479e-06,16.468,1.2654e-06,9.5079,-4.7204e-11,-0.00039547,-1.2654e-06,-9.5078,0.21307
19521,5.5602,1.0909,0,0.0004528,4524.9,0.00015086,2.0963,0.00014718,-25.561,-0.00045319,-4536.6,0.23698
19522,5.4684,1,0,0.0004513,4509.9,0.00014993,8.221,0.00014798,-6.4408,-0.00045127,-4509,0.22847
19523,5.4684,1.0909,0.05,1.3802e-06,13.792,1.0598e-06,7.9629,-4.0261e-11,-0.000429,-1.0598e-06,-7.9628,0.2289
19524,5.7437,1.0909,0,0.00045012,4498.1,0.0001505,1.0144,0.00014532,-37.949,-0.00045074,-4516.5,0.25327
19525,5.6519,1,0,0.00044975,4494.4,0.00014943,2.2604,0.00014691,-16.702,-0.00044999,-4501.5,0.24462
19526,5.6519,1.0909,0.05,1.1942e-06,11.934,9.1699e-07,6.8899,-3.8005e-11,-0.00032453,-9.1697e-07,-6.8898,0.24504
19527,5.9271,1.0909,0,0.00044679,4464.9,0.00014985,0.58403,0.00014341,-47.782,-0.00044758,-4488.3,0.26986
19528,5.8354,1,0,0.00044729,4469.8,0.00014908,0.96429,0.00014519,-28.239,-0.00044774,-4483.3,0.26107
19529,5.8354,1.0909,0.05,1.0738e-06,10.73,8.2453e-07,6.1952,-2.9786e-11,-0.00032058,-8.2452e-07,-6.1952,0.26148
19530,6.1106,1.0909,0,0.00044297,4426.6,0.00014893,0.37014,0.00014154,-55.155,-0.00044387,-4453.8,0.28676
19531,6.0189,1,0,0.00044412,4438.2,0.00014847,0.52638,0.00014338,-37.747,-0.00044474,-4456.7,0.27782
19532,6.0189,1.0909,0.05,1.0027e-06,10.02,7.6998e-07,5.7853,-2.1672e-11,-0.00016385,-7.6998e-07,-5.7854,0.27823
19533,6.2941,1.0909,0,0.00043877,4384.6,0.00014779,0.24961,0.00013973,-60.373,-0.00043976,-4414.4,0.30395
19534,6.2024,1,0,0.00044042,4401.2,0.00014759,0.32569,0.00014156,-45.023,-0.00044117,-4423.4,0.29486
19535,6.2024,1.0909,0.05,9.6581e-07,9.6514,7.4162e-07,5.5722,-6.5329e-12,-0.00015436,-7.4162e-07,-5.5723,0.29528
19536,6.4776,1.0909,0,0.00043428,4339.8,0.00014647,0.17599,0.00013797,-63.754,-0.00043533,-4371.3,0.32144
19537,6.3858,1,0,0.00043632,4360.2,0.00014649,0.21755,0.00013977,-50.285,-0.00043715,-4385,0.31221
19538,6.3858,1.0909,0.05,9.5027e-07,9.4962,7.2969e-07,5.4825,-3.0532e-12,-0.00013768,-7.2969e-07,-5.4827,0.31262
19539,6.6611,1.0909,0,0.00042959,4293,0.00014501,0.1284,0.00013627,-65.593,-0.00043067,-4325.3,0.33923
19540,6.5693,1,0,0.00043191,4316.1,0.0001452,0.15321,0.00013802,-53.81,-0.0004328,-4342.7,0.32985
19541,6.5693,1.0909,0.05,9.4682e-07,9.4617,7.2704e-07,5.4626,-3.2891e-13,-8.0461e-05,-7.2704e-07,-5.4628,0.33026
19542,6.8445,1.0909,0,0.00042475,4244.6,0.00014344,0.096296,0.00013462,-66.155,-0.00042584,-4277.2,0.3573
19543,6.7528,1,0,0.00042728,4269.8,0.00014377,0.11223,0.00013632,-55.866,-0.0004282,-4297.4,0.34778
19544,6.7528,1.0909,0.05,9.4932e-07,9.4866,7.2896e-07,5.477,3.1194e-12,-5.8836e-05,-7.2896e-07,-5.4773,0.34819
19545,7.028,1.0909,0,0.00041981,4195.2,0.00014178,0.07388,0.00013303,-65.677,-0.00042088,-4227.6,0.37566
19546,6.9363,1,0,0.00042248,4221.9,0.00014222,0.084775,0.00013467,-56.702,-0.00042341,-4249.9,0.366
19547,6.9363,1.0909,0.05,9.5406e-07,9.534,7.3259e-07,5.5044,5.853e-12,-3.2853e-05,-7.3261e-07,-5.5046,0.36641
19548,7.2115,1.0909,0,0.00041478,4145,0.00014006,0.057787,0.00013149,-64.368,-0.00041584,-4176.8,0.3943
19549,7.1198,1,0,0.00041756,4172.7,0.00014059,0.065646,0.00013306,-56.541,-0.00041849,-4200.7,0.38451
19550,7.1198,1.0909,0.05,9.5898e-07,9.5832,7.3637e-07,5.5327,4.3392e-12,-4.9938e-05,-7.3639e-07,-5.5331,0.38491
19551,7.395,1.0909,0,0.00040971,4094.3,0.00013829,0.045959,0.00012998,-62.408,-0.00041074,-4125.1,0.41323
19552,7.3032,1,0,0.00041255,4122.7,0.00013889,0.051885,0.00013149,-55.582,-0.00041347,-4150.2,0.40329
19553,7.3032,1.0909,0.05,9.6304e-07,9.6238,7.3949e-07,5.5562,5.832e-12,-1.5184e-05,-7.395e-07,-5.5564,0.40369
19554,7.5785,1.0909,0,0.0004046,4043.3,0.00013648,0.037091,0.0001285,-59.954,-0.00040559,-4072.9,0.43243
19555,7.4867,1,0,0.00040749,4072.1,0.00013714,0.04172,0.00012995,-53.997,-0.00040838,-4098.8,0.42236
19556,7.4867,1.0909,0.05,9.6579e-07,9.6513,7.416e-07,5.572,4.4277e-12,-1.8236e-05,-7.4162e-07,-5.5723,0.42276
19557,7.7619,1.0909,0,0.00039948,3992,0.00013465,0.030329,0.00012704,-57.138,-0.00040042,-4020.3,0.4519
19558,7.6702,1,0,0.00040239,4021.1,0.00013536,0.034046,0.00012844,-51.933,-0.00040325,-4046.8,0.4417
19559,7.6702,1.0909,0.05,9.6714e-07,9.6647,7.4263e-07,5.5798,5.5709e-12,-1.2738e-05,-7.4265e-07,-5.58,0.44209
19560,7.9454,1.0909,0,0.00039434,3940.7,0.0001328,0.025097,0.0001256,-54.069,-0.00039523,-3967.4,0.47164
19561,7.8537,1,0,0.00039726,3969.9,0.00013354,0.028144,0.00012695,-49.516,-0.00039808,-3994.4,0.46131
19562,7.8537,1.0909,0.05,9.6715e-07,9.6648,7.4264e-07,5.5798,4.3325e-12,-1.4879e-05,-7.4266e-07,-5.5801,0.4617
19563,8.1289,1.0909,0,0.00038919,3889.3,0.00013095,0.020999,0.00012418,-50.84,-0.00039003,-3914.4,0.49165
19564,8.0372,1,0,0.00039212,3918.5,0.00013171,0.023533,0.00012548,-46.85,-0.00039289,-3941.7,0.48119
19565,8.0372,1.0909,0.05,9.6599e-07,9.6532,7.4175e-07,5.5731,6.4986e-12,-1.1184e-05,-7.4177e-07,-5.5734,0.48158
19566,8.3124,1.0909,0,0.00038405,3837.8,0.00012908,0.017752,0.00012276,-47.525,-0.00038484,-3861.4,0.51192
19567,8.2206,1,0,0.00038697,3867,0.00012988,0.019881,0.00012401,-44.022,-0.0003877,-3888.8,0.50133
19568,8.2206,1.0909,0.05,9.6383e-07,9.6317,7.401e-07,5.5607,8.645e-12,-8.0707e-06,-7.4011e-07,-5.561,0.50172
19569,8.4959,1.0909,0,0.00037891,3786.5,0.00012722,0.015158,0.00012134,-44.185,-0.00037964,-3808.4,0.53245
19570,8.4041,1,0,0.00038181,3815.5,0.00012803,0.016957,0.00012256,-41.102,-0.0003825,-3835.9,0.52174
19571,8.4041,1.0909,0.05,9.6087e-07,9.6021,7.3782e-07,5.5436,8.9269e-12,-8.5609e-06,-7.3784e-07,-5.5439,0.52212
19572,8.6794,1.0909,0,0.00037377,3735.2,0.00012537,0.013069,0.00011992,-40.866,-0.00037445,-3755.4,0.55324
19573,8.5876,1,0,0.00037666,3764,0.00012619,0.014594,0.00012111,-38.148,-0.0003773,-3783,0.5424
19574,8.5876,1.0909,0.05,9.5728e-07,9.5662,7.3506e-07,5.5229,9.2179e-12,-6.9534e-06,-7.3508e-07,-5.5232,0.54278
19575,8.8628,1.0909,0,0.00036865,3683.9,0.00012351,0.011376,0.00011851,-37.607,-0.00036927,-3702.6,0.57427
19576,8.7711,1,0,0.00037152,3712.6,0.00012434,0.012668,0.00011965,-35.205,-0.0003721,-3730.1,0.56331
19577,8.7711,1.0909,0.05,9.532e-07,9.5254,7.3193e-07,5.4994,8.5066e-12,-5.4604e-06,-7.3195e-07,-5.4996,0.56369
19578,9.0463,1.0909,0,0.00036353,3632.8,0.00012167,0.0099968,0.00011708,-34.434,-0.0003641,-3649.9,0.59556
19579,8.9546,1,0,0.00036638,3661.3,0.0001225,0.011089,0.0001182,-32.306,-0.00036692,-3677.3,0.58448
19580,8.9546,1.0909,0.05,9.4876e-07,9.481,7.2852e-07,5.4738,7.0215e-12,-5.4922e-06,-7.2854e-07,-5.474,0.58486
19581,9.2298,1.0909,0,0.00035842,3581.7,0.00011983,0.0088698,0.00011565,-31.368,-0.00035894,-3597.3,0.61709
19582,9.1381,1,0,0.00036125,3610,0.00012067,0.0097879,0.00011675,-29.479,-0.00036174,-3624.7,0.60589
19583,9.1381,1.0909,0.05,9.4406e-07,9.4341,7.2491e-07,5.4467,7.0993e-12,-4.7277e-06,-7.2493e-07,-5.4469,0.60626
19584,9.4133,1.0909,0,0.00035332,3530.8,0.000118,0.0079477,0.00011422,-28.424,-0.0003538,-3544.9,0.63886
19585,9.3215,1,0,0.00035613,3558.9,0.00011885,0.0087129,0.00011529,-26.744,-0.00035658,-3572.2,0.62755
19586,9.3215,1.0909,0.05,9.3919e-07,9.3855,7.2118e-07,5.4186,6.3158e-12,-4.073e-06,-7.2119e-07,-5.4188,0.62792
19587,9.5968,1.0909,0,0.00034823,3479.9,0.00011618,0.0071958,0.00011277,-25.612,-0.00034866,-3492.7,0.66087
19588,9.505,1,0,0.00035103,3507.8,0.00011703,0.0078234,0.00011382,-24.114,-0.00035143,-3519.8,0.64945
19589,9.505,1.0909,0.05,9.3422e-07,9.3358,7.1736e-07,5.3899,8.2478e-12,-4.0822e-06,-7.1737e-07,-5.3901,0.64981
19590,9.7802,1.0909,0,0.00034316,3429.2,0.00011438,0.006584,0.00011132,-22.936,-0.00034354,-3440.6,0.68312
19591,9.6885,1,0,0.00034593,3456.9,0.00011523,0.0070935,0.00011235,-21.598,-0.00034629,-3467.7,0.67158
19592,9.6885,1.0909,0.05,9.2919e-07,9.2855,7.135e-07,5.3609,8.3507e-12,-3.1945e-06,-7.1351e-07,-5.3611,0.67194
19593,9.9637,1.0909,0,0.0003381,3378.6,0.00011258,0.0060975,0.00010987,-20.4,-0.00033844,-3388.8,0.7056
19594,9.872,1,0,0.00034085,3406.1,0.00011343,0.0064923,0.00011087,-19.202,-0.00034117,-3415.7,0.69394
19595,9.872,1.0909,0.05,9.2416e-07,9.2352,7.0963e-07,5.3318,8.4403e-12,-2.7976e-06,-7.0965e-07,-5.3321,0.6943
19596,10.147,1.0909,0,0.00033305,3328.2,0.0001108,0.0057234,0.0001084,-18.002,-0.00033335,-3337.1,0.7283
19597,10.055,1,0,0.00033578,3355.5,0.00011164,0.0060228,0.00010939,-16.928,-0.00033606,-3363.9,0.71654
19598,10.055,1.0909,0.05,9.1914e-07,9.185,7.0577e-07,5.3029,8.4934e-12,-2.1001e-06,-7.0579e-07,-5.3031,0.71689
19599,10.331,1.0909,0,0.00032801,3277.8,0.00010902,0.0054311,0.00010693,-15.742,-0.00032827,-3285.7,0.75123
19600,10.239,1,0,0.00033072,3304.9,0.00010987,0.0056598,0.0001079,-14.777,-0.00033097,-3312.3,0.73936
19601,10.239,1.0909,0.05,9.1416e-07,9.1353,7.0196e-07,5.2742,8.5761e-12,-1.4544e-06,-7.0197e-07,-5.2744,0.73971
19602,10.514,1.0909,0,0.00032298,3227.6,0.00010726,0.0052292,0.00010545,-13.614,-0.00032321,-3234.4,0.77438
19603,10.422,1,0,0.00032568,3254.5,0.00010811,0.0053722,0.00010641,-12.747,-0.00032589,-3260.9,0.7624
19604,10.422,1.0909,0.05,9.0924e-07,9.0861,6.9817e-07,5.2458,8.6306e-12,-5.7148e-07,-6.982e-07,-5.246,0.76275
19605,10.698,1.0909,0,0.00031797,3177.5,0.00010551,0.0051455,0.00010396,-11.616,-0.00031817,-3183.3,0.79774
19606,10.606,1,0,0.00032065,3204.3,0.00010635,0.0052135,0.00010491,-10.835,-0.00032083,-3209.7,0.78567
19607,10.606,1.0909,0.05,9.0438e-07,9.0376,6.9444e-07,5.2177,6.8783e-12,7.2379e-07,-6.9446e-07,-5.218,0.786
19608,10.881,1.0909,0,0.00031298,3127.6,0.00010377,0.0051974,0.00010247,-9.7403,-0.00031314,-3132.5,0.82132
19609,10.789,1,0,0.00031564,3154.2,0.00010461,0.0052005,0.0001034,-9.037,-0.00031579,-3158.7,0.80914
19610,10.789,1.0909,0.05,8.9959e-07,8.9897,6.9077e-07,5.1901,6.9457e-12,9.9385e-07,-6.9078e-07,-5.1903,0.80948
19611,11.065,1.0909,0,0.000308,3077.8,0.00010203,0.0053884,0.00010097,-7.9825,-0.00030813,-3081.8,0.84511
19612,10.973,1,0,0.00031064,3104.2,0.00010287,0.0053766,0.0001019,-7.3486,-0.00031076,-3107.9,0.83283
19613,10.973,1.0909,0.05,8.9489e-07,8.9427,6.8716e-07,5.163,7.8837e-12,-3.6662e-07,-6.8717e-07,-5.1632,0.83316
19614,11.248,1.0909,0,0.00030303,3028.2,0.00010031,0.0057769,9.9469e-05,-6.3362,-0.00030313,-3031.3,0.86911
19615,11.156,1,0,0.00030565,3054.4,0.00010115,0.0057576,0.00010038,-5.7647,-0.00030575,-3057.3,0.85673
19616,11.156,1.0909,0.05,8.9027e-07,8.8966,6.8361e-07,5.1364,7.0043e-12,1.0528e-06,-6.8363e-07,-5.1365,0.85706
19617,11.432,1.0909,0,0.00029807,2978.7,9.8603e-05,0.0065626,9.7963e-05,-4.795,-0.00029816,-2981.1,0.89331
19618,11.34,1,0,0.00030069,3004.8,9.9439e-05,0.0065772,9.8868e-05,-4.28,-0.00030076,-3006.9,0.88084
19619,11.34,1.0909,0.05,8.8572e-07,8.8511,6.8012e-07,5.1101,7.0491e-12,1.8845e-06,-6.8013e-07,-5.1103,0.88116
19620,11.615,1.0909,0,0.00029314,2929.3,9.6902e-05,0.0081209,9.6455e-05,-3.3529,-0.00029319,-2931,0.91771
19621,11.523,1,0,0.00029573,2955.3,9.7735e-05,0.0084118,9.735e-05,-2.8891,-0.00029578,-2956.7,0.90515
19622,11.523,1.0909,0.05,8.8126e-07,8.8065,6.7669e-07,5.0843,7.086e-12,1.4249e-06,-6.767e-07,-5.0845,0.90546
19623,11.799,1.0909,0,0.00028821,2880.2,9.5211e-05,0.011801,9.4943e-05,-2.005,-0.00028825,-2881.2,0.94231
19624,11.707,1,0,0.0002908,2905.9,9.6042e-05,0.013295,9.5829e-05,-1.5888,-0.00029082,-2906.7,0.92965
19625,11.707,1.0909,0.05,8.7688e-07,8.7627,6.7332e-07,5.059,7.1044e-12,2.137e-06,-6.7334e-07,-5.0593,0.92996
19626,11.982,1.0909,0,0.00028331,2831.1,9.3531e-05,0.027437,9.3427e-05,-0.75483,-0.00028332,-2831.5,0.9671
19627,11.89,1,0,0.00028587,2856.8,9.4362e-05,0.04673,9.4303e-05,-0.39874,-0.00028588,-2856.9,0.95435
19628,11.89,1.0909,0.05,8.7256e-07,8.7196,6.7001e-07,5.0342,7.1339e-12,2.9315e-06,-6.7002e-07,-5.0343,0.95466
19629,12.165,1.0909,0,0.00027842,2782.3,9.1921e-05,0.49549,9.185e-05,-0.036827,-0.00027841,-2782,0.99209
19630,12.074,1,0,0.00028097,2807.8,9.2789e-05,0.81586,9.2678e-05,-0.020443,-0.00028096,-2807.4,0.97924
19631,12.074,1.0909,0.05,8.6832e-07,8.6772,6.6676e-07,5.0097,6.2499e-12,2.5737e-06,-6.6677e-07,-5.0099,0.97954
19632,12.349,1.0909,0,0.00027354,2733.6,9.0402e-05,1.5811,9.019e-05,-0.010256,-0.00027352,-2732.8,1.0173
19633,12.257,1,0,0.00027608,2758.9,9.1265e-05,1.8801,9.1013e-05,-0.0080891,-0.00027605,-2758,1.0043
19634,12.257,1.0909,0.05,8.6414e-07,8.6355,6.6355e-07,4.9856,7.1866e-12,3.5704e-06,-6.6356e-07,-4.9858,1.0046
19635,12.532,1.0909,0,0.00026869,2685,8.8886e-05,2.6205,8.8536e-05,-0.0055341,-0.00026864,-2683.7,1.0426
19636,12.441,1,0,0.00027121,2710.2,8.9741e-05,2.8881,8.9356e-05,-0.0048795,-0.00027116,-2708.8,1.0296
19637,12.441,1.0909,0.05,8.6002e-07,8.5943,6.6039e-07,4.9618,7.2119e-12,4.1144e-06,-6.604e-07,-4.962,1.0299
19638,12.716,1.0909,0,0.00026385,2636.6,8.737e-05,3.5999,8.689e-05,-0.0036115,-0.00026378,-2634.8,1.0681
19639,12.624,1,0,0.00026636,2661.7,8.8219e-05,3.8375,8.7708e-05,-0.0034468,-0.00026629,-2659.8,1.055
19640,12.624,1.0909,0.05,8.5596e-07,8.5537,6.5727e-07,4.9384,5.4127e-12,2.6492e-06,-6.5728e-07,-4.9386,1.0553
19641,12.899,1.0909,0,0.00025902,2588.4,8.5855e-05,4.5226,8.5253e-05,-0.0025936,-0.00025895,-2586.2,1.0939
19642,12.808,1,0,0.00026152,2613.4,8.6698e-05,4.7321,8.6067e-05,-0.0026411,-0.00026144,-2611,1.0807
19643,12.808,1.0909,0.05,8.5196e-07,8.5138,6.542e-07,4.9153,7.2444e-12,1.4783e-06,-6.5421e-07,-4.9155,1.081
19644,13.083,1.0909,0,0.00025422,2540.4,8.4342e-05,5.3931,8.3624e-05,-0.0019892,-0.00025412,-2537.7,1.1197
19645,12.991,1,0,0.0002567,2565.3,8.5178e-05,5.5761,8.4435e-05,-0.0021739,-0.00025661,-2562.5,1.1065
19646,12.991,1.0909,0.05,8.4802e-07,8.4744,6.5117e-07,4.8926,7.2589e-12,2.1904e-06,-6.5118e-07,-4.8928,1.1067
19647,13.266,1.0909,0,0.00024943,2492.6,8.283e-05,6.2158,8.2003e-05,-0.0015708,-0.00024932,-2489.4,1.1458
19648,13.175,1,0,0.0002519,2517.3,8.366e-05,6.3738,8.2812e-05,-0.0018706,-0.00025179,-2514.1,1.1325
19649,13.175,1.0909,0.05,8.4412e-07,8.4354,6.4818e-07,4.8701,6.3629e-12,3.2809e-06,-6.4819e-07,-4.8703,1.1327
19650,13.45,1.0909,0,0.00024466,2444.9,8.1321e-05,6.9952,8.039e-05,-0.0012679,-0.00024454,-2441.4,1.172
19651,13.358,1,0,0.00024712,2469.5,8.2145e-05,7.1295,8.1196e-05,-0.0016224,-0.000247,-2465.9,1.1586
19652,13.358,1.0909,0.05,8.4028e-07,8.397,6.4522e-07,4.8479,5.466e-12,4.6435e-06,-6.4524e-07,-4.8481,1.1589
19653,13.633,1.0909,0,0.0002399,2397.4,7.9814e-05,7.7355,7.8785e-05,-0.0010531,-0.00023977,-2393.5,1.1984
19654,13.542,1,0,0.00024235,2421.9,8.0632e-05,7.847,7.9588e-05,-0.001469,-0.00024222,-2417.9,1.1849
19655,13.542,1.0909,0.05,8.3648e-07,8.359,6.4231e-07,4.826,6.3848e-12,5.5813e-06,-6.4232e-07,-4.8262,1.1852
19656,13.817,1.0909,0,0.00023517,2350.1,7.8311e-05,8.4408,7.7187e-05,-0.0008818,-0.00023502,-2345.8,1.225
19657,13.725,1,0,0.00023761,2374.4,7.9123e-05,8.5302,7.7987e-05,-0.001349,-0.00023746,-2370.2,1.2114
19658,13.725,1.0909,0.05,8.3272e-07,8.3214,6.3942e-07,4.8043,6.3986e-12,6.4582e-06,-6.3943e-07,-4.8045,1.2116
19659,14,1.0909,0,0.00023045,2302.9,7.681e-05,9.1147,7.5597e-05,-0.00075615,-0.0002303,-2298.4,1.2517
19660,13.909,1,0,0.00023288,2327.2,7.7617e-05,9.183,7.6394e-05,-0.0012497,-0.00023272,-2322.6,1.238
19661,13.909,1.0909,0.05,8.29e-07,8.2843,6.3657e-07,4.7829,5.4997e-12,6.6701e-06,-6.3658e-07,-4.783,1.2383
19662,14.184,1.0909,0,0.00022575,2256,7.5314e-05,9.7612,7.4015e-05,-0.00064932,-0.00022559,-2251.1,1.2785
19663,14.092,1,0,0.00022817,2280.1,7.6115e-05,9.8085,7.4809e-05,-0.0012006,-0.000228,-2275.2,1.2648
19664,14.092,1.0909,0.05,8.2532e-07,8.2475,6.3374e-07,4.7616,6.4192e-12,5.9749e-06,-6.3375e-07,-4.7618,1.265
19665,14.367,1.0909,0,0.00022107,2209.2,7.3822e-05,10.384,7.2439e-05,-0.00054035,-0.0002209,-2204,1.3055
19666,14.276,1,0,0.00022348,2233.2,7.4617e-05,10.41,7.3231e-05,-0.0011266,-0.0002233,-2228,1.2917
19667,14.276,1.0909,0.05,8.2167e-07,8.2111,6.3094e-07,4.7406,7.3344e-12,5.9573e-06,-6.3095e-07,-4.7407,1.292
19668,14.551,1.0909,0,0.00021641,2162.6,7.2334e-05,10.986,7.0872e-05,-0.00046085,-0.00021622,-2157.1,1.3327
19669,14.459,1,0,0.00021881,2186.5,7.3124e-05,10.992,7.1661e-05,-0.0010637,-0.00021862,-2181,1.3188
19670,14.459,1.0909,0.05,8.1807e-07,8.175,6.2817e-07,4.7198,4.6192e-12,6.576e-06,-6.2818e-07,-4.7199,1.3191
19671,14.734,1.0909,0,0.00021177,2116.3,7.0851e-05,11.57,6.9311e-05,-0.00039789,-0.00021157,-2110.4,1.36
19672,14.642,1,0,0.00021415,2140,7.1635e-05,11.556,7.0097e-05,-0.0010403,-0.00021395,-2134.2,1.3461
19673,14.642,1.0909,0.05,8.1449e-07,8.1393,6.2542e-07,4.6992,5.5375e-12,5.5647e-06,-6.2543e-07,-4.6993,1.3463
19674,14.918,1.0909,0,0.00020715,2070.1,6.9373e-05,12.141,6.7757e-05,-0.00032674,-0.00020694,-2064,1.3874
19675,14.826,1,0,0.00020952,2093.7,7.0152e-05,12.105,6.854e-05,-0.0010041,-0.00020931,-2087.7,1.3735
19676,14.826,1.0909,0.05,8.1094e-07,8.1038,6.227e-07,4.6787,6.4587e-12,5.2447e-06,-6.2271e-07,-4.6788,1.3737
19677,15.101,1.0909,0,0.00020255,2024.1,6.79e-05,12.7,6.621e-05,-0.00024884,-0.00020233,-2017.7,1.415
19678,15.009,1,0,0.0002049,2047.6,6.8674e-05,12.643,6.6991e-05,-0.00096129,-0.00020469,-2041.3,1.401
19679,15.009,1.0909,0.05,8.0743e-07,8.0687,6.2e-07,4.6584,7.3672e-12,4.651e-06,-6.2001e-07,-4.6586,1.4012
19680,15.285,1.0909,0,0.00019796,1978.3,6.6434e-05,13.251,6.467e-05,-0.00017789,-0.00019773,-1971.6,1.4427
19681,15.193,1,0,0.00020031,2001.7,6.7201e-05,13.172,6.5448e-05,-0.00090767,-0.00020008,-1995.1,1.4286
19682,15.193,1.0909,0.05,8.0395e-07,8.0339,6.1733e-07,4.6383,6.4725e-12,4.2094e-06,-6.1734e-07,-4.6385,1.4288
19683,15.468,1.0909,0,0.0001934,1932.6,6.4973e-05,13.797,6.3136e-05,-0.00011562,-0.00019316,-1925.7,1.4706
19684,15.376,1,0,0.00019573,1956,6.5735e-05,13.695,6.3912e-05,-0.0008777,-0.0001955,-1949.1,1.4564
19685,15.376,1.0909,0.05,8.005e-07,7.9995,6.1468e-07,4.6184,5.5602e-12,5.0389e-06,-6.1469e-07,-4.6186,1.4566
19686,15.652,1.0909,0,0.00018885,1887.2,6.3518e-05,14.341,6.161e-05,-4.9497e-05,-0.0001886,-1880,1.4986
19687,15.56,1,0,0.00019118,1910.4,6.4275e-05,14.215,6.2383e-05,-0.00084285,-0.00019093,-1903.3,1.4843
19688,15.56,1.0909,0.05,7.9708e-07,7.9653,6.1206e-07,4.5987,6.4727e-12,3.4218e-06,-6.1207e-07,-4.5989,1.4846
19689,15.835,1.0909,0,0.00018433,1842,6.207e-05,14.886,6.0089e-05,7.8399e-06,-0.00018407,-1834.5,1.5267
19690,15.743,1,0,0.00018664,1865.1,6.2821e-05,14.734,6.086e-05,-0.00080242,-0.00018638,-1857.7,1.5124
19691,15.743,1.0909,0.05,7.937e-07,7.9315,6.0946e-07,4.5792,6.4753e-12,1.9216e-06,-6.0947e-07,-4.5793,1.5126
19692,16.019,1.0909,0,0.00017982,1797,6.0629e-05,15.434,5.8575e-05,7.0291e-05,-0.00017955,-1789.2,1.5549
19693,15.927,1,0,0.00018212,1820,6.1374e-05,15.255,5.9343e-05,-0.00078481,-0.00018186,-1812.3,1.5406
19694,15.927,1.0909,0.05,7.9034e-07,7.8979,6.0688e-07,4.5598,5.569e-12,2.8416e-06,-6.0689e-07,-4.5599,1.5408
19695,16.202,1.0909,0,0.00017534,1752.2,5.9195e-05,15.988,5.7068e-05,0.0001487,-0.00017506,-1744.1,1.5833
19696,16.11,1,0,0.00017763,1775,5.9934e-05,15.781,5.7833e-05,-0.00073617,-0.00017735,-1767.1,1.5689
19697,16.11,1.0909,0.05,7.8701e-07,7.8647,6.0432e-07,4.5406,4.6706e-12,2.2498e-06,-6.0433e-07,-4.5407,1.5691
19698,16.386,1.0909,0,0.00017087,1707.5,5.7769e-05,16.551,5.5566e-05,0.00021887,-0.00017058,-1699.2,1.6117
19699,16.294,1,0,0.00017315,1730.3,5.8501e-05,16.314,5.6329e-05,-0.00068585,-0.00017287,-1722.1,1.5973
19700,16.294,1.0909,0.05,7.8372e-07,7.8317,6.0179e-07,4.5216,4.2282e-12,2.6325e-06,-6.018e-07,-4.5217,1.5975
19701,16.569,1.0909,0,0.00016643,1663.1,5.635e-05,17.127,5.4071e-05,0.00028577,-0.00016613,-1654.5,1.6403
19702,16.477,1,0,0.00016869,1685.8,5.7075e-05,16.857,5.4832e-05,-0.00065676,-0.0001684,-1677.3,1.6258
19703,16.477,1.0909,0.05,7.8045e-07,7.7991,5.9929e-07,4.5028,3.7778e-12,2.1663e-06,-5.9929e-07,-4.5029,1.626
19704,16.753,1.0909,0,0.000162,1618.9,5.4939e-05,17.717,5.2581e-05,0.00036674,-0.00016169,-1610,1.669
19705,16.661,1,0,0.00016426,1641.4,5.5658e-05,17.413,5.334e-05,-0.00061472,-0.00016395,-1632.7,1.6545
19706,16.661,1.0909,0.05,7.7722e-07,7.7668,5.968e-07,4.4841,3.7912e-12,3.1631e-06,-5.9681e-07,-4.4842,1.6546
19707,16.936,1.0909,0,0.0001576,1574.9,5.3536e-05,18.325,5.1098e-05,0.00046339,-0.00015728,-1565.7,1.6978
19708,16.844,1,0,0.00015984,1597.3,5.4248e-05,17.984,5.1854e-05,-0.00055737,-0.00015953,-1588.2,1.6832
19709,16.844,1.0909,0.05,7.7402e-07,7.7348,5.9435e-07,4.4657,3.8054e-12,5.8395e-06,-5.9435e-07,-4.4658,1.6834
19710,17.119,1.0909,0,0.00015322,1531.1,5.2142e-05,18.955,4.962e-05,0.00056141,-0.00015289,-1521.5,1.7267
19711,17.028,1,0,0.00015545,1553.4,5.2846e-05,18.573,5.0374e-05,-0.00048802,-0.00015512,-1544,1.7121
19712,17.028,1.0909,0.05,7.7086e-07,7.7033,5.9192e-07,4.4474,4.2816e-12,5.3671e-06,-5.9193e-07,-4.4475,1.7123
19713,17.303,1.0909,0,0.00014885,1487.5,5.0757e-05,19.608,4.8147e-05,0.00065845,-0.00014851,-1477.6,1.7558
19714,17.211,1,0,0.00015107,1509.7,5.1453e-05,19.182,4.89e-05,-0.00043033,-0.00015074,-1500,1.7411
19715,17.211,1.0909,0.05,7.6774e-07,7.6721,5.8953e-07,4.4294,3.8387e-12,5.3801e-06,-5.8953e-07,-4.4295,1.7412
19716,17.486,1.0909,0,0.00014451,1444.1,4.9381e-05,20.289,4.6681e-05,0.00076786,-0.00014416,-1433.9,1.7849
19717,17.395,1,0,0.00014672,1466.2,5.0069e-05,19.816,4.7432e-05,-0.00036543,-0.00014637,-1456.2,1.7701
19718,17.395,1.0909,0.05,7.6466e-07,7.6413,5.8716e-07,4.4116,3.851e-12,5.8164e-06,-5.8716e-07,-4.4118,1.7703
19719,17.67,1.0909,0,0.00014019,1401,4.8014e-05,21.001,4.5219e-05,0.00087948,-0.00013982,-1390.3,1.8141
19720,17.578,1,0,0.00014238,1422.9,4.8694e-05,20.477,4.5969e-05,-0.00028893,-0.00014202,-1412.5,1.7993
19721,17.578,1.0909,0.05,7.6162e-07,7.6109,5.8483e-07,4.3941,3.3983e-12,7.8261e-06,-5.8483e-07,-4.3942,1.7994
19722,17.853,1.0909,0,0.00013589,1358,4.6657e-05,21.747,4.3763e-05,0.0010027,-0.00013551,-1347,1.8434
19723,17.762,1,0,0.00013807,1379.8,4.7328e-05,21.167,4.4511e-05,-0.00022409,-0.0001377,-1369.1,1.8285
19724,17.762,1.0909,0.05,7.5862e-07,7.581,5.8252e-07,4.3768,3.4176e-12,6.8489e-06,-5.8253e-07,-4.3769,1.8287
19725,18.037,1.0909,0,0.00013162,1315.2,4.5311e-05,22.531,4.2312e-05,0.0011486,-0.00013122,-1303.8,1.8728
19726,17.945,1,0,0.00013378,1336.9,4.5972e-05,21.891,4.3059e-05,-0.00012704,-0.00013339,-1325.8,1.8579
19727,17.945,1.0909,0.05,7.5567e-07,7.5515,5.8026e-07,4.3598,2.9784e-12,8.678e-06,-5.8026e-07,-4.3599,1.858
19728,18.22,1.0909,0,0.00012736,1272.7,4.3975e-05,23.357,4.0866e-05,0.0012965,-0.00012695,-1260.9,1.9022
19729,18.129,1,0,0.00012951,1294.2,4.4626e-05,22.652,4.1611e-05,-2.2475e-05,-0.00012911,-1282.7,1.8873
19730,18.129,1.0909,0.05,7.5277e-07,7.5226,5.7803e-07,4.3431,2.5647e-12,6.3622e-06,-5.7804e-07,-4.3432,1.8875
19731,18.404,1.0909,0,0.00012312,1230.4,4.2649e-05,24.229,3.9425e-05,0.0014544,-0.00012269,-1218.1,1.9318
19732,18.312,1,0,0.00012526,1251.7,4.329e-05,23.453,4.0169e-05,7.2256e-05,-0.00012485,-1239.9,1.9169
19733,18.312,1.0909,0.05,7.4993e-07,7.4941,5.7585e-07,4.3267,3.4884e-12,6.8485e-06,-5.7586e-07,-4.3268,1.917
19734,18.587,1.0909,0,0.00011891,1188.3,4.1335e-05,25.151,3.7988e-05,0.0016367,-0.00011846,-1175.5,1.9615
19735,18.496,1,0,0.00012103,1209.5,4.1965e-05,24.298,3.8731e-05,0.00019022,-0.0001206,-1197.2,1.9465
19736,18.496,1.0909,0.05,7.4714e-07,7.4663,5.7371e-07,4.3106,3.0714e-12,5.2254e-06,-5.7371e-07,-4.3107,1.9466
19737,18.771,1.0909,0,0.00011472,1146.4,4.0033e-05,26.128,3.6556e-05,0.0018435,-0.00011425,-1133.1,1.9912
19738,18.679,1,0,0.00011683,1167.5,4.0651e-05,25.191,3.7298e-05,0.00032718,-0.00011638,-1154.7,1.9762
19739,18.679,1.0909,0.05,7.4441e-07,7.439,5.7162e-07,4.2949,2.628e-12,9.8949e-06,-5.7162e-07,-4.2949,1.9763
19740,18.954,1.0909,0,0.00011055,1104.7,3.8743e-05,27.164,3.5128e-05,0.0020687,-0.00011006,-1090.9,2.021
19741,18.863,1,0,0.00011264,1125.6,3.9348e-05,26.136,3.587e-05,0.00048773,-0.00011217,-1112.3,2.0059
19742,18.863,1.0909,0.05,7.4176e-07,7.4124,5.6957e-07,4.2795,2.1831e-12,9.3291e-06,-5.6958e-07,-4.2796,2.0061
19743,19.138,1.0909,0,0.0001064,1063.3,3.7466e-05,28.266,3.3704e-05,0.0023135,-0.00010589,-1048.9,2.0509
19744,19.046,1,0,0.00010848,1084,3.8057e-05,27.138,3.4445e-05,0.00065421,-0.00010799,-1070.2,2.0358
19745,19.046,1.0909,0.05,7.3917e-07,7.3866,5.6759e-07,4.2646,2.66e-12,1.0023e-05,-5.676e-07,-4.2647,2.0359
19746,19.321,1.0909,0,0.00010228,1022.1,3.6201e-05,29.437,3.2284e-05,0.0025903,-0.00010175,-1007,2.0808
19747,19.229,1,0,0.00010434,1042.7,3.6778e-05,28.202,3.3025e-05,0.0008442,-0.00010383,-1028.3,2.0657
19748,19.229,1.0909,0.05,7.3667e-07,7.3616,5.6566e-07,4.2502,3.5706e-12,1.0191e-05,-5.6567e-07,-4.2502,2.0658
19749,19.505,1.0909,0,9.8177e-05,981.1,3.4951e-05,30.685,3.0867e-05,0.0028948,-9.7619e-05,-965.39,2.1108
19750,19.413,1,0,0.00010022,1001.5,3.5512e-05,29.332,3.1608e-05,0.001063,-9.9687e-05,-986.5,2.0957
19751,19.413,1.0909,0.05,7.3424e-07,7.3374,5.6381e-07,4.2362,3.1628e-12,1.3249e-05,-5.6381e-07,-4.2363,2.0958
19752,19.688,1.0909,0,9.4099e-05,940.34,3.3714e-05,32.016,2.9454e-05,0.003241,-9.3513e-05,-923.92,2.1409
19753,19.596,1,0,9.6121e-05,960.55,3.4259e-05,30.534,3.0196e-05,0.0012975,-9.5565e-05,-944.92,2.1257
19754,19.596,1.0909,0.05,7.3191e-07,7.3141,5.6201e-07,4.2227,2.7683e-12,1.3443e-05,-5.6202e-07,-4.2228,2.1258
19755,19.872,1.0909,0,9.0044e-05,899.82,3.2493e-05,33.435,2.8043e-05,0.0036396,-8.9428e-05,-882.63,2.171
19756,19.78,1,0,9.2047e-05,919.83,3.302e-05,31.814,2.8786e-05,0.0015882,-9.1464e-05,-903.51,2.1558
19757,19.78,1.0909,0.05,7.2967e-07,7.2917,5.603e-07,4.2098,2.346e-12,1.5111e-05,-5.603e-07,-4.2099,2.1559
19758,20.055,1.0909,0,8.6012e-05,859.53,3.1287e-05,34.952,2.6636e-05,0.0040857,-8.5364e-05,-841.52,2.2012
19759,19.963,1,0,8.7995e-05,879.34,3.1795e-05,33.178,2.7379e-05,0.0019152,-8.7383e-05,-862.28,2.186
19760,19.963,1.0909,0.05,7.2755e-07,7.2705,5.5866e-07,4.1976,2.3463e-12,1.5001e-05,-5.5867e-07,-4.1976,2.1861
19761,20.239,1.0909,0,8.2005e-05,819.49,3.0097e-05,36.573,2.523e-05,0.0045941,-8.1322e-05,-800.58,2.2315
19762,20.147,1,0,8.3966e-05,839.08,3.0585e-05,34.633,2.5976e-05,0.0022855,-8.3323e-05,-821.23,2.2162
19763,20.147,1.0909,0.05,7.2553e-07,7.2503,5.5712e-07,4.186,2.362e-12,1.6193e-05,-5.5712e-07,-4.186,2.2163
19764,20.422,1.0909,0,7.8023e-05,779.69,2.8925e-05,38.309,2.3827e-05,0.0051848,-7.73e-05,-759.83,2.2618
19765,20.33,1,0,7.9961e-05,799.06,2.939e-05,36.187,2.4575e-05,0.0027239,-7.9284e-05,-780.35,2.2465
19766,20.33,1.0909,0.05,7.2365e-07,7.2315,5.5567e-07,4.1751,2.6407e-12,1.7266e-05,-5.5567e-07,-4.1751,2.2466
19767,20.606,1.0909,0,7.4066e-05,740.15,2.7771e-05,40.169,2.2426e-05,0.0058747,-7.3301e-05,-719.24,2.2922
19768,20.514,1,0,7.598e-05,759.27,2.8212e-05,37.848,2.3175e-05,0.0032407,-7.5265e-05,-739.64,2.2769
19769,20.514,1.0909,0.05,7.219e-07,7.214,5.5433e-07,4.165,3.1301e-12,1.589e-05,-5.5433e-07,-4.165,2.2769
19770,20.789,1.0909,0,7.0135e-05,700.87,2.6636e-05,42.165,2.1025e-05,0.0066789,-6.9323e-05,-678.83,2.3226
19771,20.697,1,0,7.2023e-05,719.73,2.7052e-05,39.626,2.1778e-05,0.0038563,-7.1267e-05,-699.1,2.3073
19772,20.697,1.0909,0.05,7.203e-07,7.198,5.531e-07,4.1558,2.3878e-12,1.406e-05,-5.531e-07,-4.1558,2.3073
19773,20.973,1.0909,0,6.6233e-05,661.87,2.5522e-05,44.309,1.9626e-05,0.0076223,-6.5367e-05,-638.6,2.353
19774,20.881,1,0,6.8092e-05,680.45,2.5909e-05,41.532,2.0382e-05,0.00458,-6.729e-05,-658.73,2.3377
19775,20.881,1.0909,0.05,7.1887e-07,7.1837,5.52e-07,4.1475,2.3879e-12,1.3907e-05,-5.52e-07,-4.1475,2.3378
19776,21.156,1.0909,0,6.2359e-05,623.16,2.443e-05,46.617,1.8227e-05,0.0087415,-6.1434e-05,-598.53,2.3835
19777,21.064,1,0,6.4188e-05,641.43,2.4786e-05,43.577,1.8987e-05,0.0054508,-6.3335e-05,-618.53,2.3682
19778,21.064,1.0909,0.05,7.1761e-07,7.1712,5.5104e-07,4.1403,2.6846e-12,1.7815e-05,-5.5104e-07,-4.1403,2.3682
19779,21.34,1.0909,0,5.8515e-05,584.75,2.3362e-05,49.106,1.6827e-05,0.010078,-5.7525e-05,-558.64,2.4141
19780,21.248,1,0,6.0311e-05,602.7,2.3684e-05,45.777,1.7593e-05,0.006502,-5.9402e-05,-578.5,2.3987
19781,21.248,1.0909,0.05,7.1657e-07,7.1607,5.5023e-07,4.1342,2.3719e-12,1.8032e-05,-5.5024e-07,-4.1343,2.3988
19782,21.523,1.0909,0,5.4706e-05,546.68,2.232e-05,51.798,1.5427e-05,0.011695,-5.364e-05,-518.93,2.4446
19783,21.431,1,0,5.6465e-05,564.26,2.2605e-05,48.149,1.6198e-05,0.0077772,-5.5491e-05,-538.64,2.4293
19784,21.431,1.0909,0.05,7.1575e-07,7.1525,5.496e-07,4.1295,2.4081e-12,1.8086e-05,-5.496e-07,-4.1295,2.4293
19785,21.706,1.0909,0,5.0932e-05,508.97,2.1306e-05,54.716,1.4026e-05,0.01367,-4.978e-05,-479.4,2.4752
19786,21.615,1,0,5.2651e-05,526.15,2.1551e-05,50.713,1.4803e-05,0.0093546,-5.1605e-05,-498.95,2.4599
19787,21.615,1.0909,0.05,7.1518e-07,7.1469,5.4917e-07,4.1262,2.1154e-12,1.5561e-05,-5.4917e-07,-4.1263,2.4599
19788,21.89,1.0909,0,4.72e-05,471.67,2.0324e-05,57.891,1.2621e-05,0.0161,-4.5947e-05,-440.05,2.5059
19789,21.798,1,0,4.8873e-05,488.39,2.0525e-05,53.494,1.3407e-05,0.011317,-4.7743e-05,-459.44,2.4905
19790,21.798,1.0909,0.05,7.1491e-07,7.1442,5.4897e-07,4.1247,2.025e-12,1.6776e-05,-5.4897e-07,-4.1247,2.4905
19791,22.073,1.0909,0,4.3514e-05,434.84,1.9378e-05,61.359,1.1214e-05,0.019136,-4.2143e-05,-400.89,2.5366
19792,21.982,1,0,4.5136e-05,451.04,1.9529e-05,56.524,1.2008e-05,0.013774,-4.3907e-05,-420.11,2.5211
19793,21.982,1.0909,0.05,7.15e-07,7.145,5.4903e-07,4.1252,1.2328e-12,1.0453e-05,-5.4903e-07,-4.1252,2.5212
19794,22.257,1.0909,0,3.9882e-05,398.54,1.8472e-05,65.167,9.8023e-06,0.022978,-3.8371e-05,-361.93,2.5673
19795,22.165,1,0,4.1445e-05,414.16,1.8569e-05,59.841,1.0607e-05,0.016911,-4.0101e-05,-380.98,2.5518
19796,22.165,1.0909,0.05,7.155e-07,7.15,5.4941e-07,4.1281,1.4657e-12,1.1101e-05,-5.4941e-07,-4.1281,2.5519
19797,22.44,1.0909,0,3.6314e-05,362.89,1.7613e-05,69.369,8.3847e-06,0.027933,-3.4633e-05,-323.19,2.598
19798,22.349,1,0,3.7809e-05,377.83,1.7649e-05,63.494,9.2008e-06,0.020953,-3.6326e-05,-342.05,2.5826
19799,22.349,1.0909,0.05,7.1651e-07,7.1602,5.5019e-07,4.1339,1.1605e-12,1.0273e-05,-5.5019e-07,-4.1339,2.5826
19800,22.624,1.0909,0,3.2826e-05,328.03,1.6808e-05,74.034,6.9594e-06,0.034387,-3.0933e-05,-284.68,2.6288
19801,22.532,1,0,3.424e-05,342.16,1.6776e-05,67.545,7.7895e-06,0.026301,-3.2587e-05,-303.35,2.6133
19802,22.532,1.0909,0.05,7.1817e-07,7.1768,5.5147e-07,4.1435,6.004e-13,1.2267e-05,-5.5147e-07,-4.1435,2.6134
19803,22.807,1.0909,0,2.9436e-05,294.16,1.6066e-05,79.247,5.5244e-06,0.043266,-2.7276e-05,-246.41,2.6595
19804,22.716,1,0,3.0755e-05,307.34,1.5958e-05,72.07,6.3707e-06,0.033348,-2.8888e-05,-264.89,2.6441
19805,22.716,1.0909,0.05,7.2068e-07,7.2018,5.5339e-07,4.158,1.0181e-12,1.1554e-05,-5.5339e-07,-4.158,2.6441
19806,22.991,1.0909,0,2.6173e-05,261.55,1.5396e-05,85.105,4.0765e-06,0.054874,-2.3665e-05,-208.38,2.6903
19807,22.899,1,0,2.7377e-05,273.58,1.5207e-05,77.17,4.9421e-06,0.043598,-2.5235e-05,-226.7,2.6749
19808,22.899,1.0909,0.05,7.243e-07,7.238,5.5617e-07,4.1789,5.4872e-13,1.4749e-05,-5.5617e-07,-4.1788,2.6749
19809,23.174,1.0909,0,2.3075e-05,230.59,1.481e-05,91.718,2.6127e-06,0.075027,-2.0104e-05,-170.61,2.7211
19810,23.083,1,0,2.414e-05,241.23,1.4534e-05,82.961,3.5003e-06,0.056273,-2.1633e-05,-188.79,2.7056
19811,23.083,1.0909,0.05,7.2941e-07,7.2891,5.601e-07,4.2084,4.2255e-13,1.2758e-05,-5.601e-07,-4.2083,2.7057
19812,23.358,1.0909,0,2.0198e-05,201.84,1.4317e-05,99.193,1.1273e-06,0.094515,-1.6592e-05,-133.04,2.7519
19813,23.266,1,0,2.1092e-05,210.77,1.3954e-05,89.585,2.042e-06,0.083987,-1.8088e-05,-151.17,2.7365
19814,23.266,1.0909,0.05,7.3652e-07,7.3601,5.6556e-07,4.2494,3.2995e-13,6.0366e-06,-5.6556e-07,-4.2494,2.7365
19815,23.541,1.0909,0,1.7624e-05,176.12,1.3923e-05,107.65,-3.7948e-07,0.18195,-1.3128e-05,-95.604,2.7828
19816,23.45,1,0,1.8303e-05,182.9,1.3479e-05,97.169,5.5903e-07,0.096793,-1.46e-05,-113.8,2.7673
19817,23.45,1.0909,0.05,7.4621e-07,7.4569,5.73e-07,4.3053,-1.5044e-14,2.745e-06,-5.73e-07,-4.3053,2.7673
19818,23.725,1.0909,0,1.5479e-05,154.68,1.3639e-05,117.11,-1.9275e-06,0.15693,-9.7038e-06,-58.271,2.8136
19819,23.633,1,0,1.588e-05,158.69,1.3117e-05,105.89,-9.4125e-07,0.26512,-1.117e-05,-76.587,2.7981
19820,23.633,1.0909,0.05,7.5986e-07,7.5934,5.8348e-07,4.384,-2.5326e-14,7.4557e-06,-5.8348e-07,-4.384,2.7982
19821,23.817,1,0,1.3989e-05,139.79,1.2887e-05,115.73,-2.5041e-06,0.092976,-7.7898e-06,-39.622,2.829
19822,23.817,1.0909,0.05,7.9221e-07,7.9166,6.0832e-07,4.5707,2.683e-14,6.2919e-06,-6.0832e-07,-4.5707,2.829
19823,23.908,1.0909,0,1.3891e-05,138.81,1.3375e-05,126.39,-3.3923e-06,0.40938,-6.431e-06,-22.422,2.8445
19824,3.5419,0.90909,0,0.00034189,3416.5,0.00019521,1030,5.7377e-05,-5.6121,-0.00031247,-2784.5,0.075255
19825,3.4501,0.81818,0,0.00031584,3156.3,0.00019132,1095.3,4.4271e-05,-9.5618,-0.00028251,-2464.9,0.067624
19826,3.4501,0.90909,0.05,1.7109e-05,170.98,1.3138e-05,98.713,-1.1464e-12,-9.6169e-06,-1.3138e-05,-98.713,0.068449
19827,3.3584,0.90909,0,0.0002857,2855.1,0.00017417,1012,3.9888e-05,3.0813,-0.00025473,-2210.5,0.061857
19828,3.7254,0.90909,0,0.00034239,3421.6,0.00016899,689.86,7.6891e-05,-2.161,-0.0003254,-3024.8,0.088733
19829,3.6336,0.81818,0,0.00030639,3061.8,0.00015758,699.07,6.4375e-05,-1.2383,-0.00028845,-2652.2,0.081129
19830,3.6336,0.90909,0.05,1.2188e-05,121.79,9.3588e-06,70.318,-1.2014e-11,-0.00012586,-9.3587e-06,-70.318,0.081895
19831,3.9088,0.90909,0,0.00036058,3603.3,0.00015963,494.9,9.3385e-05,-2.8551,-0.00034962,-3331.4,0.10235
19832,3.8171,0.81818,0,0.00032598,3257.6,0.00014848,499.14,8.1617e-05,-3.2201,-0.00031463,-2980.4,0.094738
19833,3.8171,0.90909,0.05,1.0344e-05,103.37,7.9432e-06,59.682,-1.7284e-11,-0.00019079,-7.9432e-06,-59.682,0.095446
19834,4.0923,0.90909,0,0.00038138,3811.2,0.00015603,364.98,0.00010714,-2.3414,-0.00037388,-3616.6,0.11615
19835,4.0006,0.81818,0,0.00035125,3510.1,0.0001468,374.27,9.6677e-05,-2.3462,-0.00034341,-3309,0.1085
19836,4.0006,0.90909,0.05,8.4459e-06,84.401,6.4854e-06,48.729,-1.9724e-11,-0.00022222,-6.4854e-06,-48.729,0.10916
19837,4.2758,0.90909,0,0.00040051,4002.4,0.00015493,273.99,0.00011819,-2.0542,-0.00039517,-3859.3,0.13017
19838,4.1841,0.81818,0,0.00037569,3754.3,0.00014798,289.47,0.00010919,-2.0395,-0.00036995,-3602.1,0.12246
19839,4.1841,0.90909,0.05,6.7355e-06,67.308,5.172e-06,38.86,-2.3399e-11,-0.00024971,-5.172e-06,-38.861,0.12307
19840,4.4593,0.90909,0,0.00041636,4160.8,0.00015467,207.23,0.00012686,-1.7639,-0.00041247,-4054.1,0.14444
19841,4.3676,0.81818,0,0.00039666,3963.8,0.00014983,227.54,0.00011932,-1.6544,-0.00039232,-3845.9,0.13664
19842,4.3676,0.90909,0.05,5.3021e-06,52.985,4.0714e-06,30.591,-2.5161e-11,-0.00026683,-4.0714e-06,-30.591,0.13722
19843,4.6428,0.90909,0,0.00042859,4282.9,0.00015447,155.89,0.00013351,-1.5563,-0.00042575,-4203.6,0.15898
19844,4.551,0.81818,0,0.00041339,4131.1,0.00015135,179.04,0.00012734,-1.3808,-0.00041007,-4039.3,0.15107
19845,4.551,0.90909,0.05,4.144e-06,41.411,3.1821e-06,23.909,-2.757e-11,-0.00030291,-3.1821e-06,-23.909,0.15162
19846,4.8263,0.90909,0,0.00043743,4371.3,0.00015399,114.96,0.0001385,-1.4162,-0.00043538,-4313.3,0.1738
19847,4.7345,0.81818,0,0.00042603,4257.4,0.00015222,139.21,0.00013354,-1.1718,-0.00042351,-4186.6,0.16577
19848,4.7345,0.90909,0.05,3.2222e-06,32.2,2.4742e-06,18.59,-3.0092e-11,-0.00031372,-2.4742e-06,-18.59,0.1663
19849,5.0097,0.90909,0,0.00044334,4430.3,0.00015316,81.544,0.00014213,-1.3571,-0.00044192,-4389.7,0.18891
19850,4.918,0.81818,0,0.00043506,4347.6,0.00015241,105.6,0.00013822,-1.0316,-0.00043318,-4294.3,0.18076
19851,4.918,0.90909,0.05,2.4949e-06,24.932,1.9158e-06,14.394,-2.9034e-11,-0.00032957,-1.9158e-06,-14.394,0.18127
19852,5.1932,0.90909,0,0.00044681,4465,0.00015202,53.97,0.00014465,-1.4101,-0.00044589,-4438.5,0.20431
19853,5.1015,0.81818,0,0.00044104,4407.4,0.000152,76.959,0.00014163,-0.95536,-0.0004397,-4368.9,0.19603
19854,5.1015,0.90909,0.05,1.9279e-06,19.266,1.4804e-06,11.123,-3.9751e-11,-0.00035212,-1.4804e-06,-11.123,0.19652
19855,5.3767,0.90909,0,0.00044831,4480,0.00015064,31.307,0.00014625,-1.6921,-0.00044779,-4465.1,0.22001
19856,5.285,0.81818,0,0.00044454,4442.3,0.00015113,52.581,0.00014401,-0.95571,-0.00044364,-4416.3,0.21159
19857,5.285,0.90909,0.05,1.4957e-06,14.947,1.1485e-06,8.6296,-4.0927e-11,-0.00037468,-1.1485e-06,-8.6296,0.21207
19858,5.5602,0.90909,0,0.00044822,4479.1,0.00014917,13.432,0.00014702,-2.7807,-0.00044804,-4473.8,0.23601
19859,5.4684,0.81818,0,0.00044604,4457.4,0.00014992,32.06,0.00014551,-1.0868,-0.00044551,-4441.8,0.22745
19860,5.4684,0.90909,0.05,1.1807e-06,11.799,9.0665e-07,6.8121,-4.294e-11,-0.00044337,-9.0661e-07,-6.812,0.22793
19861,5.7437,0.90909,0,0.0004469,4465.9,0.00014815,3.2822,0.00014663,-8.1344,-0.00044698,-4468.3,0.25232
19862,5.6519,0.81818,0,0.00044597,4456.6,0.00014853,15.294,0.00014628,-1.6057,-0.00044573,-4449.7,0.24361
19863,5.6519,0.90909,0.05,9.6943e-07,9.6876,7.4442e-07,5.5932,-4.1114e-11,-0.00043555,-7.4438e-07,-5.5931,0.24408
19864,5.9271,0.90909,0,0.00044461,4443.1,0.00014772,1.0534,0.00014513,-18.376,-0.0004449,-4451.7,0.26892
19865,5.8354,0.81818,0,0.00044465,4443.4,0.00014728,3.9308,0.00014617,-4.4825,-0.00044466,-4443.7,0.26007
19866,5.8354,0.90909,0.05,8.4756e-07,8.4698,6.5083e-07,4.89,-3.085e-11,-0.00032247,-6.5082e-07,-4.89,0.26054
19867,6.1106,0.90909,0,0.00044158,4412.8,0.00014713,0.51488,0.00014338,-27.649,-0.00044204,-4426.3,0.28582
19868,6.0189,0.81818,0,0.00044237,4420.7,0.00014671,0.98717,0.00014484,-13.046,-0.00044257,-4426.7,0.27683
19869,6.0189,0.90909,0.05,7.9499e-07,7.9444,6.1046e-07,4.5867,-1.8027e-11,-0.0001465,-6.1045e-07,-4.5867,0.27729
19870,6.2941,0.90909,0,0.00043798,4376.8,0.00014629,0.30383,0.0001416,-34.934,-0.00043856,-4394,0.30303
19871,6.2024,0.81818,0,0.00043935,4390.5,0.00014609,0.44418,0.00014316,-21.585,-0.0004397,-4401,0.29389
19872,6.2024,0.90909,0.05,7.8753e-07,7.8699,6.0473e-07,4.5436,-9.3732e-12,-0.00016973,-6.0473e-07,-4.5438,0.29435
19873,6.4776,0.90909,0,0.00043395,4336.5,0.00014521,0.19875,0.00013982,-40.329,-0.00043462,-4356.5,0.32052
19874,6.3858,0.81818,0,0.00043576,4354.6,0.00014522,0.25609,0.00014142,-28.354,-0.00043623,-4368.6,0.31124
19875,6.3858,0.90909,0.05,8.0386e-07,8.033,6.1726e-07,4.6378,-7.4243e-12,-6.0773e-05,-6.1727e-07,-4.638,0.3117
19876,6.6611,0.90909,0,0.0004296,4293,0.00014396,0.13893,0.00013807,-44.068,-0.00043033,-4314.8,0.33831
19877,6.5693,0.81818,0,0.00043174,4314.4,0.00014414,0.16726,0.00013967,-33.385,-0.00043229,-4330.9,0.32889
19878,6.5693,0.90909,0.05,8.2958e-07,8.2901,6.3701e-07,4.7862,-1.4863e-12,-7.6365e-05,-6.3703e-07,-4.7864,0.32934
19879,6.8445,0.90909,0,0.000425,4247.1,0.00014255,0.10179,0.00013636,-46.397,-0.00042577,-4270.1,0.35639
19880,6.7528,0.81818,0,0.00042739,4271,0.00014287,0.11793,0.00013795,-36.892,-0.00042801,-4289.2,0.34683
19881,6.7528,0.90909,0.05,8.567e-07,8.5611,6.5783e-07,4.9426,1.9351e-12,-3.9196e-05,-6.5785e-07,-4.9429,0.34728
19882,7.028,0.90909,0,0.00042023,4199.4,0.00014103,0.077253,0.00013469,-47.55,-0.00042102,-4223,0.37476
19883,6.9363,0.81818,0,0.0004228,4225.1,0.00014146,0.087621,0.00013625,-39.102,-0.00042345,-4244.5,0.36505
19884,6.9363,0.90909,0.05,8.8136e-07,8.8076,6.7677e-07,5.0849,6.4899e-12,-3.0617e-05,-6.7679e-07,-5.0852,0.3655
19885,7.2115,0.90909,0,0.00041533,4150.5,0.00013942,0.060264,0.00013306,-47.741,-0.00041612,-4174.1,0.39341
19886,7.1198,0.81818,0,0.00041803,4177.4,0.00013994,0.067625,0.00013458,-40.235,-0.0004187,-4197.4,0.38356
19887,7.1198,0.90909,0.05,9.0207e-07,9.0145,6.9267e-07,5.2044,7.0047e-12,-2.2561e-05,-6.9268e-07,-5.2046,0.38401
19888,7.395,0.90909,0,0.00041034,4100.6,0.00013774,0.048053,0.00013146,-47.157,-0.00041112,-4123.9,0.41233
19889,7.3032,0.81818,0,0.00041313,4128.5,0.00013834,0.053713,0.00013294,-40.486,-0.0004138,-4148.5,0.40236
19890,7.3032,0.90909,0.05,9.185e-07,9.1786,7.0528e-07,5.2992,7.9905e-12,-1.375e-05,-7.053e-07,-5.2994,0.4028
19891,7.5785,0.90909,0,0.00040528,4050,0.00013602,0.039008,0.00012989,-45.962,-0.00040604,-4072.8,0.43154
19892,7.4867,0.81818,0,0.00040814,4078.5,0.00013667,0.043622,0.00013133,-40.03,-0.0004088,-4098.4,0.42143
19893,7.4867,0.90909,0.05,9.309e-07,9.3025,7.1481e-07,5.3707,8.9864e-12,-1.8794e-05,-7.1482e-07,-5.371,0.42187
19894,7.7619,0.90909,0,0.00040018,3999,0.00013425,0.03214,0.00012835,-44.298,-0.00040091,-4020.9,0.45102
19895,7.6702,0.81818,0,0.00040307,4027.9,0.00013494,0.036053,0.00012975,-39.017,-0.00040372,-4047.3,0.44077
19896,7.6702,0.90909,0.05,9.3975e-07,9.391,7.216e-07,5.4218,5.9336e-12,-1.5796e-05,-7.2162e-07,-5.4221,0.44121
19897,7.9454,0.90909,0,0.00039504,3947.7,0.00013246,0.026818,0.00012682,-42.283,-0.00039575,-3968.7,0.47077
19898,7.8537,0.81818,0,0.00039796,3976.9,0.00013319,0.03022,0.00012818,-37.577,-0.00039859,-3995.5,0.46039
19899,7.8537,0.90909,0.05,9.456e-07,9.4495,7.261e-07,5.4555,9.8741e-12,-1.2829e-05,-7.2612e-07,-5.4558,0.46083
19900,8.1289,0.90909,0,0.00038989,3896.2,0.00013064,0.022621,0.00012531,-40.019,-0.00039056,-3916.1,0.49078
19901,8.0372,0.81818,0,0.00039282,3925.5,0.0001314,0.025624,0.00012663,-35.818,-0.00039342,-3943.3,0.48028
19902,8.0372,0.90909,0.05,9.4899e-07,9.4833,7.2869e-07,5.475,8.5104e-12,-1.2002e-05,-7.2871e-07,-5.4753,0.48071
19903,8.3124,0.90909,0,0.00038473,3844.7,0.00012882,0.019264,0.00012382,-37.586,-0.00038536,-3863.3,0.51106
19904,8.2206,0.81818,0,0.00038766,3873.9,0.0001296,0.021935,0.0001251,-33.832,-0.00038823,-3890.7,0.50043
19905,8.2206,0.90909,0.05,9.5037e-07,9.4971,7.2976e-07,5.4831,1.069e-11,-8.5978e-06,-7.2978e-07,-5.4833,0.50086
19906,8.4959,0.90909,0,0.00037957,3793.1,0.00012699,0.016547,0.00012232,-35.053,-0.00038016,-3810.5,0.5316
19907,8.4041,0.81818,0,0.00038249,3822.3,0.00012779,0.01893,0.00012357,-31.692,-0.00038302,-3838,0.52084
19908,8.4041,0.90909,0.05,9.5017e-07,9.4951,7.296e-07,5.4819,9.1177e-12,-9.8473e-06,-7.2962e-07,-5.4822,0.52127
19909,8.6794,0.90909,0,0.00037441,3741.5,0.00012516,0.014325,0.00012084,-32.474,-0.00037495,-3757.6,0.55239
19910,8.5876,0.81818,0,0.00037732,3770.6,0.00012597,0.01645,0.00012205,-29.46,-0.00037781,-3785.2,0.54151
19911,8.5876,0.90909,0.05,9.4873e-07,9.4808,7.285e-07,5.4736,9.3409e-12,-7.4379e-06,-7.2851e-07,-5.4739,0.54193
19912,8.8628,0.90909,0,0.00036925,3690,0.00012333,0.012494,0.00011935,-29.891,-0.00036975,-3704.8,0.57344
19913,8.7711,0.81818,0,0.00037215,3718.9,0.00012415,0.014383,0.00012053,-27.184,-0.0003726,-3732.4,0.56243
19914,8.7711,0.90909,0.05,9.4633e-07,9.4568,7.2666e-07,5.4597,8.6575e-12,-6.529e-06,-7.2667e-07,-5.46,0.56285
19915,9.0463,0.90909,0,0.00036411,3638.6,0.00012151,0.010975,0.00011787,-27.338,-0.00036456,-3652.1,0.59473
19916,8.9546,0.81818,0,0.00036698,3667.3,0.00012234,0.012645,0.00011902,-24.903,-0.0003674,-3679.7,0.58361
19917,8.9546,0.90909,0.05,9.4321e-07,9.4256,7.2426e-07,5.4418,9.7329e-12,-5.5099e-06,-7.2428e-07,-5.442,0.58402
19918,9.2298,0.90909,0,0.00035897,3587.2,0.00011969,0.0097085,0.00011638,-24.841,-0.00035938,-3599.6,0.61627
19919,9.1381,0.81818,0,0.00036182,3615.7,0.00012052,0.011176,0.00011751,-22.648,-0.0003622,-3627,0.60503
19920,9.1381,0.90909,0.05,9.3955e-07,9.389,7.2145e-07,5.4206,8.9618e-12,-5.1334e-06,-7.2147e-07,-5.4209,0.60544
19921,9.4133,0.90909,0,0.00035384,3536,0.00011788,0.0086502,0.00011489,-22.418,-0.00035422,-3547.1,0.63805
19922,9.3215,0.81818,0,0.00035668,3564.3,0.00011871,0.0099289,0.00011599,-20.439,-0.00035702,-3574.5,0.6267
19923,9.3215,0.90909,0.05,9.355e-07,9.3485,7.1834e-07,5.3973,7.2876e-12,-4.5277e-06,-7.1836e-07,-5.3975,0.6271
19924,9.5968,0.90909,0,0.00034872,3484.8,0.00011607,0.0077676,0.0001134,-20.084,-0.00034906,-3494.8,0.66007
19925,9.505,0.81818,0,0.00035154,3513,0.00011691,0.0088673,0.00011448,-18.296,-0.00035185,-3522.1,0.6486
19926,9.505,0.90909,0.05,9.3117e-07,9.3053,7.1501e-07,5.3723,7.4158e-12,-3.5795e-06,-7.1503e-07,-5.3726,0.649
19927,9.7802,0.90909,0,0.00034362,3433.8,0.00011428,0.0070336,0.0001119,-17.847,-0.00034392,-3442.7,0.68233
19928,9.6885,0.81818,0,0.00034642,3461.8,0.00011512,0.0079696,0.00011296,-16.23,-0.00034669,-3469.8,0.67074
19929,9.6885,0.90909,0.05,9.2666e-07,9.2602,7.1155e-07,5.3462,8.3979e-12,-3.4539e-06,-7.1157e-07,-5.3465,0.67114
19930,9.9637,0.90909,0,0.00033853,3383,0.00011249,0.0064352,0.0001104,-15.713,-0.0003388,-3390.8,0.70481
19931,9.872,0.81818,0,0.00034131,3410.7,0.00011334,0.0072083,0.00011144,-14.249,-0.00034155,-3417.8,0.69312
19932,9.872,0.90909,0.05,9.2202e-07,9.2139,7.0799e-07,5.3195,6.6565e-12,-3.1401e-06,-7.0801e-07,-5.3198,0.69351
19933,10.147,0.90909,0,0.00033346,3332.3,0.00011072,0.0059631,0.0001089,-13.686,-0.00033369,-3339.1,0.72753
19934,10.055,0.81818,0,0.00033621,3359.8,0.00011156,0.0065913,0.00010992,-12.358,-0.00033642,-3365.9,0.71572
19935,10.055,0.90909,0.05,9.1733e-07,9.167,7.0438e-07,5.2924,9.4497e-12,-1.9949e-06,-7.0441e-07,-5.2927,0.71611
19936,10.331,0.90909,0,0.00032839,3281.7,0.00010895,0.0055916,0.00010739,-11.765,-0.00032859,-3287.5,0.75046
19937,10.239,0.81818,0,0.00033113,3309,0.0001098,0.0060987,0.00010839,-10.56,-0.00033131,-3314.3,0.73855
19938,10.239,0.90909,0.05,9.1262e-07,9.1199,7.0077e-07,5.2652,8.6293e-12,-7.0704e-07,-7.0078e-07,-5.2655,0.73894
19939,10.514,0.90909,0,0.00032335,3231.2,0.0001072,0.0053353,0.00010587,-9.9496,-0.00032352,-3236.2,0.77362
19940,10.422,0.81818,0,0.00032606,3258.4,0.00010804,0.0057082,0.00010686,-8.8557,-0.00032621,-3262.8,0.76161
19941,10.422,0.90909,0.05,9.0791e-07,9.0728,6.9715e-07,5.2381,6.8524e-12,-3.1848e-07,-6.9717e-07,-5.2383,0.76199
19942,10.698,0.90909,0,0.00031832,3181,0.00010545,0.0052374,0.00010436,-8.2379,-0.00031846,-3185.1,0.797
19943,10.606,0.81818,0,0.00032101,3207.9,0.00010629,0.0054907,0.00010533,-7.244,-0.00032113,-3211.5,0.78488
19944,10.606,0.90909,0.05,9.0322e-07,9.0259,6.9355e-07,5.211,7.8117e-12,1.5527e-07,-6.9357e-07,-5.2113,0.78525
19945,10.881,0.90909,0,0.0003133,3130.8,0.00010372,0.0053449,0.00010283,-6.6265,-0.00031341,-3134.1,0.82059
19946,10.789,0.81818,0,0.00031598,3157.6,0.00010456,0.0055003,0.00010379,-5.7231,-0.00031607,-3160.5,0.80837
19947,10.789,0.90909,0.05,8.9857e-07,8.9795,6.8998e-07,5.1842,7.8931e-12,1.0356e-06,-6.9e-07,-5.1844,0.80874
19948,11.065,0.90909,0,0.0003083,3080.9,0.00010199,0.0057249,0.00010131,-5.1115,-0.00030839,-3083.4,0.84439
19949,10.973,0.81818,0,0.00031096,3107.4,0.00010283,0.0058693,0.00010226,-4.2902,-0.00031103,-3109.6,0.83207
19950,10.973,0.90909,0.05,8.9399e-07,8.9337,6.8646e-07,5.1578,7.003e-12,5.9384e-07,-6.8648e-07,-5.158,0.83243
19951,11.248,0.90909,0,0.00030331,3031.1,0.00010028,0.0066094,9.9785e-05,-3.6888,-0.00030338,-3032.9,0.8684
19952,11.156,0.81818,0,0.00030596,3057.5,0.00010111,0.0068837,0.00010072,-2.9422,-0.00030601,-3058.9,0.85598
19953,11.156,0.90909,0.05,8.8947e-07,8.8885,6.8299e-07,5.1317,8.8434e-12,1.0498e-06,-6.8301e-07,-5.1319,0.85634
19954,11.432,0.90909,0,0.00029835,2981.4,9.8572e-05,0.008802,9.8257e-05,-2.3542,-0.00029839,-2982.6,0.89261
19955,11.34,0.81818,0,0.00030097,3007.7,9.9405e-05,0.0099365,9.918e-05,-1.6766,-0.000301,-3008.5,0.8801
19956,11.34,0.90909,0.05,8.85e-07,8.8439,6.7956e-07,5.1059,7.984e-12,1.4354e-06,-6.7958e-07,-5.1061,0.88045
19957,11.615,0.90909,0,0.00029339,2931.9,9.6876e-05,0.016224,9.6727e-05,-1.107,-0.00029341,-2932.5,0.91702
19958,11.523,0.81818,0,0.000296,2958,9.7709e-05,0.028253,9.7638e-05,-0.5022,-0.00029601,-2958.2,0.90441
19959,11.523,0.90909,0.05,8.8061e-07,8.8,6.7619e-07,5.0806,8.0031e-12,1.539e-06,-6.7621e-07,-5.0808,0.90476
19960,11.799,0.90909,0,0.00028846,2882.6,9.5211e-05,0.17683,9.5175e-05,-0.089972,-0.00028846,-2882.6,0.94163
19961,11.707,0.81818,0,0.00029105,2908.5,9.6104e-05,0.66572,9.6013e-05,-0.018824,-0.00029104,-2908.2,0.92893
19962,11.707,0.90909,0.05,8.7628e-07,8.7568,6.7287e-07,5.0556,9.8393e-12,2.2357e-06,-6.7289e-07,-5.0559,0.92927
19963,11.982,0.90909,0,0.00028354,2833.4,9.3669e-05,1.2044,9.3507e-05,-0.012006,-0.00028352,-2832.8,0.96643
19964,11.89,0.81818,0,0.00028612,2859.2,9.4563e-05,1.7072,9.4334e-05,-0.0067811,-0.00028609,-2858.4,0.95364
19965,11.89,0.90909,0.05,8.7202e-07,8.7142,6.696e-07,5.0311,7.1486e-12,3.3968e-06,-6.6961e-07,-5.0312,0.95398
19966,12.165,0.90909,0,0.00027864,2784.5,9.2138e-05,2.2369,9.1839e-05,-0.0060444,-0.0002786,-2783.3,0.99142
19967,12.074,0.81818,0,0.0002812,2810.1,9.3023e-05,2.6953,9.2663e-05,-0.0041454,-0.00028116,-2808.7,0.97855
19968,12.074,0.90909,0.05,8.6783e-07,8.6723,6.6638e-07,5.0068,7.1716e-12,3.0018e-06,-6.6639e-07,-5.0071,0.97888
19969,12.349,0.90909,0,0.00027375,2735.6,9.0607e-05,3.2109,9.0179e-05,-0.0040527,-0.0002737,-2734,1.0166
19970,12.257,0.81818,0,0.0002763,2761.1,9.1484e-05,3.6262,9.1001e-05,-0.0031227,-0.00027624,-2759.3,1.0036
19971,12.257,0.90909,0.05,8.6369e-07,8.6309,6.632e-07,4.983,7.1928e-12,3.7406e-06,-6.6321e-07,-4.9832,1.004
19972,12.532,0.90909,0,0.00026889,2687,8.9078e-05,4.1284,8.8528e-05,-0.0030963,-0.00026882,-2684.9,1.042
19973,12.441,0.81818,0,0.00027142,2712.4,8.9946e-05,4.5035,8.9347e-05,-0.0026203,-0.00027135,-2710.1,1.0289
19974,12.441,0.90909,0.05,8.596e-07,8.5901,6.6006e-07,4.9594,7.2194e-12,3.0995e-06,-6.6008e-07,-4.9596,1.0292
19975,12.716,0.90909,0,0.00026404,2638.6,8.755e-05,4.9932,8.6885e-05,-0.0025485,-0.00026395,-2636.1,1.0675
19976,12.624,0.81818,0,0.00026656,2663.8,8.8411e-05,5.3308,8.7701e-05,-0.0023467,-0.00026647,-2661.1,1.0544
19977,12.624,0.90909,0.05,8.5557e-07,8.5498,6.5697e-07,4.9361,7.2332e-12,1.7569e-06,-6.5698e-07,-4.9364,1.0547
19978,12.899,0.90909,0,0.00025921,2590.3,8.6023e-05,5.8094,8.525e-05,-0.0022209,-0.00025911,-2587.4,1.0932
19979,12.808,0.81818,0,0.00026172,2615.4,8.6877e-05,6.1121,8.6063e-05,-0.0021798,-0.00026161,-2612.3,1.08
19980,12.808,0.90909,0.05,8.516e-07,8.5102,6.5392e-07,4.9132,7.2485e-12,1.2231e-06,-6.5394e-07,-4.9135,1.0803
19981,13.083,0.90909,0,0.00025439,2542.2,8.4499e-05,6.581,8.3623e-05,-0.0020291,-0.00025428,-2538.9,1.1191
19982,12.991,0.81818,0,0.00025689,2567.1,8.5346e-05,6.851,8.4434e-05,-0.0021233,-0.00025677,-2563.7,1.1058
19983,12.991,0.90909,0.05,8.4769e-07,8.4711,6.5092e-07,4.8906,7.2638e-12,1.76e-06,-6.5093e-07,-4.8909,1.1061
19984,13.266,0.90909,0,0.0002496,2494.2,8.2978e-05,7.312,8.2004e-05,-0.0018876,-0.00024947,-2490.6,1.1452
19985,13.175,0.81818,0,0.00025208,2519.1,8.3818e-05,7.5513,8.2812e-05,-0.0021094,-0.00025195,-2515.3,1.1318
19986,13.175,0.90909,0.05,8.4381e-07,8.4323,6.4794e-07,4.8683,7.2763e-12,3.4297e-06,-6.4795e-07,-4.8685,1.1321
19987,13.45,0.90909,0,0.00024482,2446.5,8.1459e-05,8.0062,8.0393e-05,-0.0017874,-0.00024468,-2442.5,1.1714
19988,13.358,0.81818,0,0.00024729,2471.2,8.2293e-05,8.2166,8.1199e-05,-0.0020816,-0.00024715,-2467.1,1.158
19989,13.358,0.90909,0.05,8.3999e-07,8.3941,6.45e-07,4.8462,7.2897e-12,4.5006e-06,-6.4501e-07,-4.8464,1.1583
19990,13.633,0.90909,0,0.00024006,2399,7.9944e-05,8.6671,7.879e-05,-0.0017304,-0.00023991,-2394.6,1.1978
19991,13.542,0.81818,0,0.00024252,2423.5,8.0771e-05,8.85,7.9593e-05,-0.0021036,-0.00024237,-2419.1,1.1843
19992,13.542,0.90909,0.05,8.3621e-07,8.3563,6.421e-07,4.8244,7.2989e-12,5.4319e-06,-6.4211e-07,-4.8246,1.1846
19993,13.817,0.90909,0,0.00023532,2351.6,7.8432e-05,9.2983,7.7195e-05,-0.0016854,-0.00023516,-2346.9,1.2244
19994,13.725,0.81818,0,0.00023777,2376,7.9253e-05,9.455,7.7994e-05,-0.0021312,-0.00023761,-2371.3,1.2108
19995,13.725,0.90909,0.05,8.3246e-07,8.3189,6.3922e-07,4.8028,6.3997e-12,6.5983e-06,-6.3923e-07,-4.803,1.2111
19996,14,0.90909,0,0.0002306,2304.4,7.6925e-05,9.903,7.5607e-05,-0.0016662,-0.00023043,-2299.4,1.2511
19997,13.909,0.81818,0,0.00023303,2328.7,7.7739e-05,10.034,7.6404e-05,-0.0021563,-0.00023286,-2323.7,1.2374
19998,13.909,0.90909,0.05,8.2876e-07,8.2819,6.3638e-07,4.7815,5.4966e-12,6.2418e-06,-6.3639e-07,-4.7816,1.2377
19999,14.184,0.90909,0,0.0002259,2257.4,7.5421e-05,10.484,7.4026e-05,-0.0016538,-0.00022572,-2252.1,1.278
20000,14.092,0.81818,0,0.00022832,2281.6,7.623e-05,10.591,7.482e-05,-0.002219,-0.00022814,-2276.3,1.2642
20001,14.092,0.90909,0.05,8.251e-07,8.2453,6.3356e-07,4.7603,7.3241e-12,5.1942e-06,-6.3358e-07,-4.7605,1.2645
20002,14.367,0.90909,0,0.00022121,2210.6,7.3923e-05,11.045,7.2452e-05,-0.0016296,-0.00022102,-2205.1,1.305
20003,14.276,0.81818,0,0.00022362,2234.7,7.4725e-05,11.129,7.3244e-05,-0.0022446,-0.00022343,-2229.1,1.2912
20004,14.276,0.90909,0.05,8.2146e-07,8.2089,6.3077e-07,4.7393,5.509e-12,5.7817e-06,-6.3078e-07,-4.7395,1.2914
20005,14.551,0.90909,0,0.00021655,2164,7.2429e-05,11.589,7.0886e-05,-0.0016263,-0.00021635,-2158.2,1.3322
20006,14.459,0.81818,0,0.00021895,2188,7.3226e-05,11.649,7.1675e-05,-0.0022746,-0.00021875,-2182.1,1.3183
20007,14.459,0.90909,0.05,8.1786e-07,8.173,6.2801e-07,4.7186,4.607e-12,5.8158e-06,-6.2802e-07,-4.7188,1.3185
20008,14.734,0.90909,0,0.0002119,2117.6,7.094e-05,12.118,6.9327e-05,-0.0016331,-0.00021169,-2111.5,1.3595
20009,14.642,0.81818,0,0.00021429,2141.4,7.1731e-05,12.155,7.0113e-05,-0.0023354,-0.00021408,-2135.3,1.3455
20010,14.642,0.90909,0.05,8.143e-07,8.1373,6.2527e-07,4.698,6.4498e-12,4.1042e-06,-6.2528e-07,-4.6982,1.3458
20011,14.918,0.90909,0,0.00020728,2071.3,6.9456e-05,12.636,6.7774e-05,-0.0016287,-0.00020706,-2065,1.3869
20012,14.826,0.81818,0,0.00020965,2095.1,7.0242e-05,12.649,6.8558e-05,-0.0023806,-0.00020944,-2088.7,1.3729
20013,14.826,0.90909,0.05,8.1076e-07,8.102,6.2255e-07,4.6776,4.6332e-12,4.0965e-06,-6.2257e-07,-4.6778,1.3732
20014,15.101,0.90909,0,0.00020267,2025.3,6.7979e-05,13.144,6.6229e-05,-0.0016135,-0.00020244,-2018.7,1.4145
20015,15.009,0.81818,0,0.00020504,2048.9,6.8758e-05,13.134,6.701e-05,-0.0024149,-0.00020481,-2042.3,1.4005
20016,15.009,0.90909,0.05,8.0725e-07,8.0669,6.1986e-07,4.6574,6.4669e-12,4.7268e-06,-6.1987e-07,-4.6575,1.4007
20017,15.285,0.90909,0,0.00019808,1979.5,6.6507e-05,13.645,6.469e-05,-0.0016041,-0.00019785,-1972.6,1.4423
20018,15.193,0.81818,0,0.00020044,2003,6.7281e-05,13.612,6.5469e-05,-0.0024354,-0.0002002,-1996.2,1.4281
20019,15.193,0.90909,0.05,8.0377e-07,8.0322,6.1719e-07,4.6373,5.5495e-12,5.4669e-06,-6.172e-07,-4.6375,1.4284
20020,15.468,0.90909,0,0.00019352,1933.8,6.5041e-05,14.142,6.3158e-05,-0.0016047,-0.00019327,-1926.7,1.4701
20021,15.376,0.81818,0,0.00019586,1957.2,6.5809e-05,14.085,6.3934e-05,-0.002479,-0.00019562,-1950.2,1.4559
20022,15.376,0.90909,0.05,8.0033e-07,7.9978,6.1455e-07,4.6174,6.4584e-12,5.8492e-06,-6.1456e-07,-4.6176,1.4562
20023,15.652,0.90909,0,0.00018897,1888.4,6.3581e-05,14.638,6.1633e-05,-0.0015987,-0.00018871,-1881,1.4981
20024,15.56,0.81818,0,0.0001913,1911.7,6.4344e-05,14.555,6.2406e-05,-0.0025181,-0.00019105,-1904.4,1.4839
20025,15.56,0.90909,0.05,7.9692e-07,7.9637,6.1193e-07,4.5977,5.5628e-12,4.224e-06,-6.1194e-07,-4.5979,1.4841
20026,15.835,0.90909,0,0.00018444,1843.1,6.2128e-05,15.134,6.0114e-05,-0.0016011,-0.00018418,-1835.5,1.5262
20027,15.743,0.81818,0,0.00018676,1866.3,6.2885e-05,15.026,6.0885e-05,-0.0025484,-0.0001865,-1858.8,1.5119
20028,15.743,0.90909,0.05,7.9353e-07,7.9299,6.0933e-07,4.5782,4.6619e-12,3.3135e-06,-6.0934e-07,-4.5784,1.5121
20029,16.019,0.90909,0,0.00017993,1798.1,6.0682e-05,15.634,5.8601e-05,-0.0016004,-0.00017966,-1790.2,1.5545
20030,15.927,0.81818,0,0.00018224,1821.1,6.1433e-05,15.498,5.937e-05,-0.0026038,-0.00018197,-1813.3,1.5401
20031,15.927,0.90909,0.05,7.9018e-07,7.8963,6.0675e-07,4.5589,5.5577e-12,2.7439e-06,-6.0676e-07,-4.559,1.5403
20032,16.202,0.90909,0,0.00017544,1753.2,5.9243e-05,16.139,5.7095e-05,-0.0015831,-0.00017516,-1745.1,1.5829
20033,16.11,0.81818,0,0.00017774,1776.2,5.9988e-05,15.975,5.7861e-05,-0.0026285,-0.00017746,-1768.1,1.5684
20034,16.11,0.90909,0.05,7.8685e-07,7.863,6.042e-07,4.5397,5.5739e-12,2.3677e-06,-6.042e-07,-4.5398,1.5686
20035,16.386,0.90909,0,0.00017098,1708.6,5.7812e-05,16.652,5.5595e-05,-0.0015771,-0.00017069,-1700.2,1.6113
20036,16.294,0.81818,0,0.00017326,1731.4,5.855e-05,16.458,5.6359e-05,-0.0026528,-0.00017298,-1723.1,1.5969
20037,16.294,0.90909,0.05,7.8355e-07,7.8301,6.0167e-07,4.5207,5.1144e-12,2.4684e-06,-6.0168e-07,-4.5208,1.5971
20038,16.569,0.90909,0,0.00016653,1664.1,5.6387e-05,17.176,5.4101e-05,-0.0015762,-0.00016623,-1655.5,1.6399
20039,16.477,0.81818,0,0.0001688,1686.9,5.7119e-05,16.949,5.4863e-05,-0.0027031,-0.00016851,-1678.3,1.6254
20040,16.477,0.90909,0.05,7.8029e-07,7.7975,5.9916e-07,4.5018,5.5746e-12,1.663e-06,-5.9917e-07,-4.502,1.6256
20041,16.753,0.90909,0,0.0001621,1619.9,5.4971e-05,17.713,5.2613e-05,-0.0015613,-0.00016179,-1611,1.6686
20042,16.661,0.81818,0,0.00016436,1642.5,5.5696e-05,17.452,5.3373e-05,-0.0027386,-0.00016406,-1633.7,1.6541
20043,16.661,0.90909,0.05,7.7705e-07,7.7652,5.9667e-07,4.4832,4.2172e-12,2.5666e-06,-5.9668e-07,-4.4833,1.6542
20044,16.936,0.90909,0,0.00015769,1575.8,5.3562e-05,18.265,5.1131e-05,-0.0015349,-0.00015737,-1566.6,1.6974
20045,16.844,0.81818,0,0.00015994,1598.3,5.428e-05,17.967,5.1889e-05,-0.0027648,-0.00015963,-1589.3,1.6828
20046,16.844,0.90909,0.05,7.7385e-07,7.7332,5.9422e-07,4.4647,4.7224e-12,5.5321e-06,-5.9422e-07,-4.4648,1.683
20047,17.119,0.90909,0,0.00015331,1532,5.2162e-05,18.835,4.9655e-05,-0.0015098,-0.00015298,-1522.5,1.7264
20048,17.028,0.81818,0,0.00015554,1554.4,5.2873e-05,18.498,5.041e-05,-0.0027826,-0.00015522,-1545,1.7117
20049,17.028,0.90909,0.05,7.7068e-07,7.7015,5.9179e-07,4.4464,3.821e-12,4.5887e-06,-5.9179e-07,-4.4465,1.7119
20050,17.303,0.90909,0,0.00014894,1488.4,5.077e-05,19.425,4.8185e-05,-0.0014885,-0.0001486,-1478.6,1.7554
20051,17.211,0.81818,0,0.00015117,1510.6,5.1473e-05,19.046,4.8938e-05,-0.002815,-0.00015083,-1501,1.7407
20052,17.211,0.90909,0.05,7.6756e-07,7.6703,5.8939e-07,4.4284,4.2567e-12,4.9954e-06,-5.8939e-07,-4.4285,1.7408
20053,17.486,0.90909,0,0.00014459,1444.9,4.9387e-05,20.039,4.672e-05,-0.0014609,-0.00014424,-1434.8,1.7845
20054,17.395,0.81818,0,0.00014681,1467.1,5.0082e-05,19.614,4.7471e-05,-0.0028453,-0.00014646,-1457.2,1.7697
20055,17.395,0.90909,0.05,7.6447e-07,7.6394,5.8702e-07,4.4106,3.8128e-12,5.1163e-06,-5.8702e-07,-4.4107,1.7699
20056,17.67,0.90909,0,0.00014027,1401.7,4.8013e-05,20.679,4.526e-05,-0.001436,-0.00013991,-1391.3,1.8137
20057,17.578,0.81818,0,0.00014247,1423.7,4.87e-05,20.205,4.601e-05,-0.0028707,-0.00014212,-1413.5,1.7989
20058,17.578,0.90909,0.05,7.6142e-07,7.609,5.8468e-07,4.393,3.8334e-12,6.6109e-06,-5.8468e-07,-4.3931,1.7991
20059,17.853,0.90909,0,0.00013596,1358.7,4.6648e-05,21.348,4.3806e-05,-0.0014025,-0.00013559,-1347.9,1.843
20060,17.762,0.81818,0,0.00013815,1380.6,4.7326e-05,20.821,4.4555e-05,-0.0029123,-0.00013779,-1370,1.8282
20061,17.762,0.90909,0.05,7.5842e-07,7.579,5.8237e-07,4.3757,3.3916e-12,6.0453e-06,-5.8238e-07,-4.3758,1.8284
20062,18.037,0.90909,0,0.00013168,1315.9,4.5292e-05,22.05,4.2358e-05,-0.0013525,-0.00013129,-1304.7,1.8724
20063,17.945,0.81818,0,0.00013386,1337.6,4.5962e-05,21.465,4.3105e-05,-0.0029282,-0.00013348,-1326.8,1.8575
20064,17.945,0.90909,0.05,7.5546e-07,7.5494,5.8009e-07,4.3586,3.8683e-12,8.6953e-06,-5.801e-07,-4.3587,1.8577
20065,18.22,0.90909,0,0.00012742,1273.3,4.3947e-05,22.786,4.0914e-05,-0.0013072,-0.00012701,-1261.8,1.9019
20066,18.129,0.81818,0,0.00012958,1294.9,4.4606e-05,22.139,4.166e-05,-0.0029457,-0.00012919,-1283.7,1.887
20067,18.129,0.90909,0.05,7.5255e-07,7.5203,5.7786e-07,4.3418,3.4845e-12,7.6302e-06,-5.7787e-07,-4.3419,1.8872
20068,18.404,0.90909,0,0.00012318,1230.9,4.2611e-05,23.561,3.9475e-05,-0.0012592,-0.00012276,-1219,1.9315
20069,18.312,0.81818,0,0.00012532,1252.4,4.3261e-05,22.846,4.022e-05,-0.0029794,-0.00012492,-1240.8,1.9165
20070,18.312,0.90909,0.05,7.4969e-07,7.4917,5.7567e-07,4.3253,2.9748e-12,5.2424e-06,-5.7567e-07,-4.3254,1.9167
20071,18.587,0.90909,0,0.00011895,1188.7,4.1286e-05,24.377,3.8041e-05,-0.001194,-0.00011852,-1176.3,1.9612
20072,18.496,0.81818,0,0.00012109,1210,4.1925e-05,23.589,3.8785e-05,-0.0030011,-0.00012067,-1198.1,1.9462
20073,18.496,0.90909,0.05,7.4689e-07,7.4637,5.7351e-07,4.3091,2.1454e-12,2.0238e-06,-5.7352e-07,-4.3092,1.9463
20074,18.771,0.90909,0,0.00011475,1146.8,3.9971e-05,25.24,3.6612e-05,-0.0011114,-0.0001143,-1133.9,1.9909
20075,18.679,0.81818,0,0.00011687,1167.9,4.0599e-05,24.371,3.7355e-05,-0.003012,-0.00011644,-1155.6,1.9759
20076,18.679,0.90909,0.05,7.4414e-07,7.4363,5.7141e-07,4.2933,2.6075e-12,7.2229e-06,-5.7141e-07,-4.2934,1.976
20077,18.954,0.90909,0,0.00011058,1105,3.8668e-05,26.151,3.5187e-05,-0.0010185,-0.00011011,-1091.7,2.0207
20078,18.863,0.81818,0,0.00011268,1126,3.9283e-05,25.197,3.5929e-05,-0.0030095,-0.00011223,-1113.2,2.0056
20079,18.863,0.90909,0.05,7.4146e-07,7.4095,5.6935e-07,4.2779,2.6137e-12,8.6412e-06,-5.6935e-07,-4.2779,2.0058
20080,19.138,0.90909,0,0.00010642,1063.5,3.7375e-05,27.117,3.3766e-05,-0.00091681,-0.00010593,-1049.6,2.0506
20081,19.046,0.81818,0,0.00010851,1084.3,3.7978e-05,26.067,3.4508e-05,-0.003017,-0.00010804,-1071.1,2.0355
20082,19.046,0.90909,0.05,7.3886e-07,7.3835,5.6735e-07,4.2628,2.6068e-12,8.5559e-06,-5.6735e-07,-4.2629,2.0356
20083,19.321,0.90909,0,0.00010228,1022.1,3.6095e-05,28.14,3.235e-05,-0.00079573,-0.00010178,-1007.8,2.0805
20084,19.229,0.81818,0,0.00010436,1042.8,3.6684e-05,26.988,3.3091e-05,-0.0030119,-0.00010387,-1029.1,2.0654
20085,19.229,0.90909,0.05,7.3632e-07,7.3582,5.654e-07,4.2482,2.1689e-12,8.1105e-06,-5.6541e-07,-4.2483,2.0655
20086,19.505,0.90909,0,9.8168e-05,981.01,3.4827e-05,29.225,3.0937e-05,-0.00065914,-9.7639e-05,-966.07,2.1106
20087,19.413,0.81818,0,0.00010022,1001.5,3.5401e-05,27.962,3.1679e-05,-0.002993,-9.9719e-05,-987.27,2.0954
20088,19.413,0.90909,0.05,7.3387e-07,7.3337,5.6352e-07,4.2341,3.1162e-12,1.3994e-05,-5.6352e-07,-4.2341,2.0955
20089,19.688,0.90909,0,9.4076e-05,940.11,3.3571e-05,30.378,2.9528e-05,-0.0004939,-9.3522e-05,-924.55,2.1406
20090,19.596,0.81818,0,9.6114e-05,960.47,3.4129e-05,28.993,3.027e-05,-0.002976,-9.5588e-05,-945.65,2.1255
20091,19.596,0.90909,0.05,7.3151e-07,7.31,5.617e-07,4.2204,2.7363e-12,1.2231e-05,-5.6171e-07,-4.2205,2.1256
20092,19.872,0.90909,0,9.0005e-05,899.43,3.2328e-05,31.603,2.8122e-05,-0.00029015,-8.9425e-05,-883.21,2.1708
20093,19.78,0.81818,0,9.2024e-05,919.61,3.287e-05,30.086,2.8865e-05,-0.002921,-9.1476e-05,-904.2,2.1556
20094,19.78,0.90909,0.05,7.2923e-07,7.2873,5.5996e-07,4.2073,2.2622e-12,1.3523e-05,-5.5996e-07,-4.2073,2.1557
20095,20.055,0.90909,0,8.5956e-05,858.96,3.1099e-05,32.907,2.672e-05,-5.5937e-05,-8.5349e-05,-842.04,2.201
20096,19.963,0.81818,0,8.7956e-05,878.95,3.1623e-05,31.246,2.7464e-05,-0.0028474,-8.7383e-05,-862.92,2.1858
20097,19.963,0.90909,0.05,7.2706e-07,7.2656,5.5829e-07,4.1948,2.8162e-12,1.4358e-05,-5.5829e-07,-4.1948,2.1859
20098,20.239,0.90909,0,8.1929e-05,818.73,2.9885e-05,34.296,2.532e-05,0.0002251,-8.1292e-05,-801.04,2.2313
20099,20.147,0.81818,0,8.3909e-05,838.51,3.0388e-05,32.478,2.6065e-05,-0.0027564,-8.331e-05,-821.8,2.216
20100,20.147,0.90909,0.05,7.25e-07,7.245,5.5671e-07,4.1829,2.5614e-12,1.6783e-05,-5.5671e-07,-4.1829,2.2161
20101,20.422,0.90909,0,7.7925e-05,778.72,2.8684e-05,35.777,2.3923e-05,0.00056785,-7.7255e-05,-760.21,2.2616
20102,20.33,0.81818,0,7.9884e-05,798.29,2.9167e-05,33.787,2.467e-05,-0.0026211,-7.9256e-05,-780.86,2.2463
20103,20.33,0.90909,0.05,7.2305e-07,7.2255,5.5521e-07,4.1717,3.0782e-12,1.9406e-05,-5.5522e-07,-4.1717,2.2464
20104,20.606,0.90909,0,7.3945e-05,738.94,2.75e-05,37.358,2.2528e-05,0.00098546,-7.3238e-05,-719.55,2.2919
20105,20.514,0.81818,0,7.588e-05,758.28,2.796e-05,35.179,2.3278e-05,-0.0024336,-7.5221e-05,-740.08,2.2766
20106,20.514,0.90909,0.05,7.2124e-07,7.2074,5.5382e-07,4.1612,3.2973e-12,1.6896e-05,-5.5382e-07,-4.1612,2.2767
20107,20.789,0.90909,0,6.9988e-05,699.4,2.6332e-05,39.047,2.1135e-05,0.0014922,-6.9242e-05,-679.05,2.3224
20108,20.697,0.81818,0,7.1899e-05,718.49,2.6767e-05,36.662,2.1887e-05,-0.0021826,-7.1205e-05,-699.46,2.307
20109,20.697,0.90909,0.05,7.1956e-07,7.1906,5.5253e-07,4.1515,2.7827e-12,1.4611e-05,-5.5253e-07,-4.1515,2.3071
20110,20.973,0.90909,0,6.6056e-05,660.1,2.5181e-05,40.856,1.9743e-05,0.0021108,-6.5266e-05,-638.72,2.3528
20111,20.881,0.81818,0,6.7941e-05,678.94,2.5589e-05,38.244,2.0499e-05,-0.0018606,-6.7209e-05,-659.01,2.3375
20112,20.881,0.90909,0.05,7.1803e-07,7.1754,5.5136e-07,4.1427,2.3263e-12,1.2717e-05,-5.5136e-07,-4.1427,2.3376
20113,21.156,0.90909,0,6.2149e-05,621.06,2.4048e-05,42.795,1.8353e-05,0.0028757,-6.131e-05,-598.56,2.3833
20114,21.064,0.81818,0,6.4005e-05,639.61,2.4428e-05,39.934,1.9113e-05,-0.0014285,-6.3232e-05,-618.71,2.368
20115,21.064,0.90909,0.05,7.1667e-07,7.1618,5.5031e-07,4.1348,2e-12,1.5682e-05,-5.5032e-07,-4.1349,2.3681
20116,21.34,0.90909,0,5.827e-05,582.3,2.2936e-05,44.879,1.6963e-05,0.0038211,-5.7376e-05,-558.56,2.4139
20117,21.248,0.81818,0,6.0095e-05,600.53,2.3283e-05,41.743,1.7728e-05,-0.00086308,-5.9276e-05,-578.57,2.3985
20118,21.248,0.90909,0.05,7.1549e-07,7.15,5.4941e-07,4.128,2.2665e-12,1.69e-05,-5.4941e-07,-4.1281,2.3986
20119,21.523,0.90909,0,5.442e-05,543.82,2.1845e-05,47.126,1.5574e-05,0.0050049,-5.3464e-05,-518.72,2.4445
20120,21.431,0.81818,0,5.621e-05,561.71,2.2157e-05,43.684,1.6343e-05,-0.00012613,-5.534e-05,-538.6,2.4291
20121,21.431,0.90909,0.05,7.1452e-07,7.1402,5.4866e-07,4.1224,2.4747e-12,1.9536e-05,-5.4866e-07,-4.1224,2.4291
20122,21.706,0.90909,0,5.0601e-05,505.66,2.0779e-05,49.555,1.4184e-05,0.0065069,-4.9576e-05,-479.06,2.4751
20123,21.615,0.81818,0,5.2354e-05,523.17,2.1052e-05,45.773,1.496e-05,0.00085483,-5.1424e-05,-498.78,2.4597
20124,21.615,0.90909,0.05,7.1376e-07,7.1327,5.4808e-07,4.1181,2.1927e-12,1.5325e-05,-5.4808e-07,-4.1181,2.4598
20125,21.89,0.90909,0,4.6818e-05,467.86,1.9739e-05,52.194,1.2793e-05,0.0084189,-4.5711e-05,-439.57,2.5057
20126,21.798,0.81818,0,4.8527e-05,484.94,1.9968e-05,48.031,1.3576e-05,0.0021549,-4.7531e-05,-459.14,2.4903
20127,21.798,0.90909,0.05,7.1328e-07,7.1278,5.4771e-07,4.1153,1.937e-12,1.7827e-05,-5.4771e-07,-4.1153,2.4904
20128,22.073,0.90909,0,4.3076e-05,430.46,1.8729e-05,55.074,1.14e-05,0.010881,-4.1873e-05,-400.27,2.5364
20129,21.982,0.81818,0,4.4736e-05,447.05,1.891e-05,50.482,1.2192e-05,0.0038711,-4.3662e-05,-419.66,2.521
20130,21.982,0.90909,0.05,7.1309e-07,7.126,5.4756e-07,4.1142,1.8327e-12,1.1554e-05,-5.4756e-07,-4.1142,2.5211
20131,22.257,0.90909,0,3.938e-05,393.53,1.7754e-05,58.237,1.0005e-05,0.014094,-3.8065e-05,-361.16,2.5671
20132,22.165,0.81818,0,4.0983e-05,409.55,1.788e-05,53.16,1.0806e-05,0.0061799,-3.9819e-05,-380.37,2.5517
20133,22.165,0.90909,0.05,7.1326e-07,7.1277,5.477e-07,4.1152,1.2716e-12,1.2217e-05,-5.477e-07,-4.1152,2.5517
20134,22.44,0.90909,0,3.5742e-05,357.17,1.682e-05,61.739,8.6054e-06,0.018364,-3.4289e-05,-322.27,2.5979
20135,22.349,0.81818,0,3.7278e-05,372.52,1.6884e-05,56.108,9.4182e-06,0.0093053,-3.6005e-05,-341.28,2.5824
20136,22.349,0.90909,0.05,7.1388e-07,7.1339,5.4817e-07,4.1188,1.1514e-12,1.1591e-05,-5.4818e-07,-4.1188,2.5825
20137,22.624,0.90909,0,3.2175e-05,321.52,1.5935e-05,65.649,7.2006e-06,0.024071,-3.0551e-05,-283.62,2.6286
20138,22.532,0.81818,0,3.363e-05,336.07,1.5929e-05,59.383,8.0269e-06,0.013625,-3.2224e-05,-302.41,2.6132
20139,22.532,0.90909,0.05,7.1508e-07,7.1459,5.491e-07,4.1257,1.0867e-12,1.4337e-05,-5.491e-07,-4.1257,2.6132
20140,22.807,0.90909,0,2.8697e-05,286.77,1.5108e-05,70.059,5.7882e-06,0.032132,-2.6856e-05,-245.24,2.6594
20141,22.716,0.81818,0,3.0055e-05,300.34,1.5021e-05,63.064,6.6308e-06,0.019528,-2.8481e-05,-263.8,2.6439
20142,22.716,0.90909,0.05,7.1705e-07,7.1655,5.506e-07,4.137,4.6979e-13,8.0144e-06,-5.506e-07,-4.137,2.644
20143,22.991,0.90909,0,2.5338e-05,253.21,1.4353e-05,75.087,4.3656e-06,0.042845,-2.3211e-05,-207.16,2.6902
20144,22.899,0.81818,0,2.6576e-05,265.58,1.4175e-05,67.253,5.2278e-06,0.028495,-2.4785e-05,-225.47,2.6747
20145,22.899,0.90909,0.05,7.2007e-07,7.1958,5.5293e-07,4.1545,2.6792e-13,9.5403e-06,-5.5293e-07,-4.1545,2.6748
20146,23.174,0.90909,0,2.2139e-05,221.23,1.3686e-05,80.881,2.9293e-06,0.061896,-1.9624e-05,-169.4,2.721
20147,23.083,0.81818,0,2.3226e-05,232.1,1.3404e-05,72.092,3.8147e-06,0.039722,-2.1144e-05,-187.49,2.7055
20148,23.083,0.90909,0.05,7.2461e-07,7.2411,5.5641e-07,4.1807,2.7401e-13,1.0706e-05,-5.5641e-07,-4.1806,2.7056
20149,23.358,0.90909,0,1.9158e-05,191.45,1.3122e-05,87.604,1.473e-06,0.080065,-1.6101e-05,-131.97,2.7518
20150,23.266,0.81818,0,2.0057e-05,200.43,1.2729e-05,77.767,2.3881e-06,0.065579,-1.7569e-05,-149.88,2.7363
20151,23.266,0.90909,0.05,7.3133e-07,7.3083,5.6157e-07,4.2194,3.9958e-13,7.0185e-06,-5.6157e-07,-4.2194,2.7364
20152,23.541,0.90909,0,1.6488e-05,164.76,1.2677e-05,95.448,-4.8084e-09,0.16448,-1.2644e-05,-94.804,2.7826
20153,23.45,0.81818,0,1.7146e-05,171.34,1.2173e-05,84.485,9.3886e-07,0.076257,-1.4069e-05,-112.69,2.7672
20154,23.45,0.90909,0.05,7.4116e-07,7.4065,5.6912e-07,4.2762,-9.8059e-15,4.5693e-06,-5.6912e-07,-4.2762,2.7672
20155,23.725,0.90909,0,1.4267e-05,142.57,1.2368e-05,104.54,-1.527e-06,0.1324,-9.2499e-06,-57.894,2.8135
20156,23.633,0.81818,0,1.4614e-05,146.04,1.1757e-05,92.54,-5.2803e-07,0.238,-1.0652e-05,-75.828,2.798
20157,23.633,0.90909,0.05,7.5615e-07,7.5563,5.8063e-07,4.3627,-1.596e-13,5.3187e-06,-5.8063e-07,-4.3626,2.798
20158,23.817,0.81818,0,1.2652e-05,126.43,1.1511e-05,102.04,-2.0629e-06,0.050809,-7.3157e-06,-39.417,2.8288
20159,23.817,0.90909,0.05,7.938e-07,7.9325,6.0954e-07,4.5798,2.0626e-13,6.6651e-06,-6.0954e-07,-4.5798,2.8289
20160,23.908,0.90909,0,1.2614e-05,126.05,1.2085e-05,113.52,-2.9704e-06,0.39895,-5.9994e-06,-22.36,2.8443
20161,3.5419,0.72727,0,0.00027132,2711.3,0.00014724,715.89,5.1161e-05,-6.0036,-0.00025193,-2283.3,0.073481
20162,3.4501,0.63636,0,0.00024325,2430.9,0.00014052,751.07,3.9222e-05,-10.059,-0.00022153,-1969.3,0.06579
20163,3.4501,0.72727,0.05,1.4664e-05,146.54,1.126e-05,84.602,1.7182e-12,2.5045e-06,-1.126e-05,-84.602,0.066598
20164,3.3584,0.72727,0,0.00022321,2230.6,0.00013015,711.67,3.5781e-05,2.6247,-0.00020244,-1787.2,0.059938
20165,3.7254,0.72727,0,0.00028414,2839.5,0.00013251,474.16,6.9077e-05,-2.4839,-0.0002731,-2573.5,0.087095
20166,3.6336,0.63636,0,0.00024725,2470.8,0.00011882,456.88,5.7716e-05,-2.1931,-0.0002363,-2211.3,0.07942
20167,3.6336,0.72727,0.05,1.1106e-05,110.98,8.5277e-06,64.074,-6.6206e-12,-6.246e-05,-8.5277e-06,-64.074,0.080187
20168,3.9088,0.72727,0,0.00031314,3129.2,0.0001328,357.1,8.4901e-05,-2.7803,-0.00030555,-2936.5,0.10083
20169,3.8171,0.63636,0,0.00027793,2777.4,0.00011953,337.04,7.4219e-05,-3.3976,-0.00027068,-2594.8,0.093144
20170,3.8171,0.72727,0.05,9.8103e-06,98.035,7.5331e-06,56.6,-9.9583e-12,-0.00011223,-7.5331e-06,-56.6,0.093868
20171,4.0923,0.72727,0,0.00034352,3432.8,0.00013707,286.06,9.872e-05,-2.0573,-0.00033778,-3281.7,0.11474
20172,4.0006,0.63636,0,0.00031286,3126.4,0.00012597,274.28,8.9171e-05,-2.1782,-0.00030731,-2981.2,0.10701
20173,4.0006,0.72727,0.05,8.3194e-06,83.137,6.3883e-06,47.999,-1.1837e-11,-0.00014155,-6.3883e-06,-47.999,0.10769
20174,4.2758,0.72727,0,0.00037066,3704,0.0001419,235.62,0.00011032,-1.6401,-0.0003661,-3581.3,0.12884
20175,4.1841,0.63636,0,0.0003452,3449.6,0.00013326,232.89,0.00010204,-1.6537,-0.00034067,-3328,0.12105
20176,4.1841,0.72727,0.05,6.8396e-06,68.349,5.252e-06,39.461,-1.2821e-11,-0.00015629,-5.252e-06,-39.461,0.1217
20177,4.4593,0.72727,0,0.00039301,3927.4,0.00014593,195.05,0.0001198,-1.2834,-0.00038934,-3826.8,0.14318
20178,4.3676,0.63636,0,0.00037255,3722.9,0.00013954,199.56,0.00011282,-1.1971,-0.00036877,-3619.7,0.1353
20179,4.3676,0.72727,0.05,5.494e-06,54.902,4.2187e-06,31.697,-1.385e-11,-0.00016041,-4.2187e-06,-31.698,0.13592
20180,4.6428,0.72727,0,0.00041044,4101.6,0.00014878,159.87,0.00012736,-1.0293,-0.0004075,-4019.8,0.15778
20181,4.551,0.63636,0,0.00039443,3941.6,0.00014426,169.32,0.00012161,-0.90629,-0.00039129,-3854.6,0.1498
20182,4.551,0.72727,0.05,4.3338e-06,43.308,3.3278e-06,25.004,-1.4294e-11,-0.00016248,-3.3278e-06,-25.004,0.15039
20183,4.8263,0.72727,0,0.00042343,4231.4,0.00015046,128.43,0.00013325,-0.84521,-0.00042111,-4166.1,0.17264
20184,4.7345,0.63636,0,0.00041121,4109.2,0.00014744,140.88,0.0001286,-0.70087,-0.00040864,-4037.3,0.16454
20185,4.7345,0.72727,0.05,3.3641e-06,33.618,2.5832e-06,19.409,-1.39e-11,-0.00018041,-2.5832e-06,-19.409,0.16512
20186,5.0097,0.72727,0,0.00043263,4323.3,0.00015115,100.25,0.00013771,-0.71979,-0.00043085,-4272.6,0.18778
20187,4.918,0.63636,0,0.00042356,4232.6,0.00014931,114.24,0.00013403,-0.56167,-0.00042151,-4174.6,0.17956
20188,4.918,0.72727,0.05,2.5699e-06,25.681,1.9733e-06,14.827,-1.6056e-11,-0.00020093,-1.9733e-06,-14.827,0.18012
20189,5.1932,0.72727,0,0.0004387,4383.9,0.00015107,75.223,0.00014097,-0.64353,-0.00043738,-4346.2,0.20321
20190,5.1015,0.63636,0,0.0004322,4319,0.00015013,89.741,0.00013812,-0.46881,-0.00043061,-4273.7,0.19486
20191,5.1015,0.72727,0.05,1.9303e-06,19.29,1.4822e-06,11.137,-1.8579e-11,-0.00018856,-1.4822e-06,-11.137,0.19541
20192,5.3767,0.72727,0,0.00044224,4419.3,0.00015042,53.328,0.00014324,-0.61687,-0.00044132,-4392.7,0.21893
20193,5.285,0.63636,0,0.00043783,4375.3,0.00015015,67.713,0.00014108,-0.41323,-0.00043664,-4341.2,0.21045
20194,5.285,0.72727,0.05,1.4265e-06,14.256,1.0954e-06,8.2304,-2.3186e-11,-0.00026447,-1.0954e-06,-8.2305,0.21099
20195,5.5602,0.72727,0,0.00044377,4434.6,0.00014936,34.525,0.00014467,-0.65833,-0.00044318,-4417.6,0.23495
20196,5.4684,0.63636,0,0.00044103,4407.2,0.00014959,48.342,0.0001431,-0.39238,-0.00044019,-4383.1,0.22633
20197,5.4684,0.72727,0.05,1.045e-06,10.443,8.0244e-07,6.0291,-2.7678e-11,-0.00027995,-8.0242e-07,-6.0291,0.22686
20198,5.7437,0.72727,0,0.00044371,4434,0.00014803,18.774,0.00014542,-0.8534,-0.0004434,-4425,0.25127
20199,5.6519,0.63636,0,0.00044229,4419.9,0.00014862,31.681,0.00014435,-0.41579,-0.00044175,-4404.2,0.24251
20200,5.6519,0.72727,0.05,7.7987e-07,7.7933,5.9885e-07,4.4995,-4.0308e-11,-0.00042097,-5.9883e-07,-4.4995,0.24303
20201,5.9271,0.72727,0,0.00044241,4421,0.00014662,6.4711,0.00014552,-1.7851,-0.00044232,-4418.7,0.26788
20202,5.8354,0.63636,0,0.00044204,4417.3,0.00014738,17.706,0.00014495,-0.53133,-0.00044174,-4408.7,0.25898
20203,5.8354,0.72727,0.05,6.3031e-07,6.2988,4.8401e-07,3.6366,-3.676e-11,-0.00024715,-4.8399e-07,-3.6366,0.25949
20204,6.1106,0.72727,0,0.00044014,4398.3,0.0001457,1.1771,0.00014458,-7.245,-0.00044024,-4401.4,0.2848
20205,6.0189,0.63636,0,0.00044059,4402.9,0.000146,6.5725,0.00014498,-1.0532,-0.0004405,-4400.1,0.27575
20206,6.0189,0.72727,0.05,5.8447e-07,5.8407,4.4881e-07,3.3721,-3.2244e-11,-0.00039307,-4.4879e-07,-3.3722,0.27626
20207,6.2941,0.72727,0,0.00043713,4368.3,0.00014503,0.42878,0.00014297,-15.027,-0.00043737,-4375.5,0.30201
20208,6.2024,0.63636,0,0.00043822,4379.2,0.00014495,1.0553,0.00014415,-4.9674,-0.00043829,-4381.2,0.29282
20209,6.2024,0.72727,0.05,6.0696e-07,6.0654,4.6607e-07,3.5018,-1.216e-11,-0.00014129,-4.6606e-07,-3.5019,0.29332
20210,6.4776,0.72727,0,0.00043355,4332.5,0.00014415,0.2323,0.00014127,-21.402,-0.0004339,-4343,0.31951
20211,6.3858,0.63636,0,0.00043514,4348.4,0.0001442,0.34806,0.0001426,-11.706,-0.00043533,-4354,0.31018
20212,6.3858,0.72727,0.05,6.5869e-07,6.5824,5.0579e-07,3.8002,-9.5829e-13,-0.00010765,-5.058e-07,-3.8005,0.31068
20213,6.6611,0.72727,0,0.00042953,4292.4,0.00014305,0.14911,0.00013955,-26.194,-0.00042997,-4305.3,0.33731
20214,6.5693,0.63636,0,0.0004315,4312,0.00014326,0.18751,0.00014094,-17.251,-0.00043179,-4320.5,0.32783
20215,6.5693,0.72727,0.05,7.16e-07,7.1551,5.498e-07,4.1308,3.9387e-12,-8.3846e-05,-5.4981e-07,-4.1312,0.32833
20216,6.8445,0.72727,0,0.00042519,4249,0.00014179,0.10525,0.00013783,-29.581,-0.00042569,-4263.7,0.35539
20217,6.7528,0.63636,0,0.00042745,4271.5,0.00014213,0.12201,0.00013926,-21.393,-0.0004278,-4282.1,0.34578
20218,6.7528,0.72727,0.05,7.6862e-07,7.6809,5.902e-07,4.4344,3.9839e-12,-4.4902e-05,-5.9021e-07,-4.4347,0.34627
20219,7.028,0.72727,0,0.00042061,4203.2,0.00014038,0.078969,0.00013614,-31.77,-0.00042114,-4218.9,0.37376
20220,6.9363,0.63636,0,0.00042307,4227.8,0.00014082,0.087677,0.00013758,-24.296,-0.00042348,-4239.9,0.36401
20221,6.9363,0.72727,0.05,8.1315e-07,8.1259,6.2439e-07,4.6913,8.0479e-12,-2.5011e-05,-6.2441e-07,-4.6916,0.3645
20222,7.2115,0.72727,0,0.00041584,4155.5,0.00013886,0.061813,0.00013447,-32.964,-0.00041639,-4171.8,0.39242
20223,7.1198,0.63636,0,0.00041846,4181.7,0.00013939,0.066964,0.0001359,-26.151,-0.0004189,-4194.7,0.38253
20224,7.1198,0.72727,0.05,8.4914e-07,8.4856,6.5203e-07,4.899,6.6081e-12,-2.4869e-05,-6.5204e-07,-4.8993,0.38302
20225,7.395,0.72727,0,0.00041093,4106.5,0.00013726,0.049884,0.00013282,-33.344,-0.00041149,-4123,0.41136
20226,7.3032,0.63636,0,0.00041367,4133.9,0.00013786,0.053255,0.00013424,-27.138,-0.00041413,-4147.3,0.40133
20227,7.3032,0.72727,0.05,8.7731e-07,8.767,6.7366e-07,5.0615,9.0319e-12,-2.4043e-05,-6.7367e-07,-5.0618,0.40182
20228,7.5785,0.72727,0,0.00040593,4056.5,0.0001356,0.041178,0.00013119,-33.07,-0.00040648,-4072.9,0.43057
20229,7.4867,0.63636,0,0.00040875,4084.7,0.00013625,0.043558,0.00013259,-27.42,-0.00040921,-4098.3,0.42041
20230,7.4867,0.72727,0.05,8.9873e-07,8.9811,6.901e-07,5.1851,7.7413e-12,-1.3869e-05,-6.9012e-07,-5.1854,0.42089
20231,7.7619,0.72727,0,0.00040086,4005.8,0.00013388,0.034578,0.00012958,-32.282,-0.0004014,-4021.9,0.45005
20232,7.6702,0.63636,0,0.00040373,4034.6,0.00013458,0.036351,0.00013096,-27.139,-0.00040419,-4048,0.43976
20233,7.6702,0.72727,0.05,9.1453e-07,9.1389,7.0223e-07,5.2762,9.6938e-12,-1.297e-05,-7.0226e-07,-5.2765,0.44024
20234,7.9454,0.72727,0,0.00039574,3954.7,0.00013213,0.029419,0.00012799,-31.098,-0.00039626,-3970.1,0.46981
20235,7.8537,0.63636,0,0.00039865,3983.7,0.00013286,0.030787,0.00012934,-26.415,-0.00039909,-3996.9,0.45939
20236,7.8537,0.72727,0.05,9.2574e-07,9.251,7.1084e-07,5.3409,9.9789e-12,-1.2325e-05,-7.1087e-07,-5.3412,0.45986
20237,8.1289,0.72727,0,0.00039059,3903.2,0.00013036,0.025287,0.00012642,-29.618,-0.00039109,-3917.9,0.48983
20238,8.0372,0.63636,0,0.00039352,3932.5,0.00013112,0.026363,0.00012774,-25.354,-0.00039394,-3945.1,0.47928
20239,8.0372,0.72727,0.05,9.3327e-07,9.3262,7.1662e-07,5.3843,1.0712e-11,-1.0578e-05,-7.1664e-07,-5.3847,0.47976
20240,8.3124,0.72727,0,0.00038542,3851.6,0.00012857,0.021911,0.00012485,-27.924,-0.00038589,-3865.4,0.51012
20241,8.2206,0.63636,0,0.00038836,3880.9,0.00012935,0.022761,0.00012615,-24.04,-0.00038876,-3892.8,0.49944
20242,8.2206,0.72727,0.05,9.3787e-07,9.3722,7.2015e-07,5.4109,7.2497e-12,-1.0053e-05,-7.2017e-07,-5.4112,0.49991
20243,8.4959,0.72727,0,0.00038024,3799.8,0.00012677,0.019107,0.0001233,-26.085,-0.00038068,-3812.8,0.53067
20244,8.4041,0.63636,0,0.00038317,3829.1,0.00012756,0.019774,0.00012456,-22.546,-0.00038355,-3840.3,0.51986
20245,8.4041,0.72727,0.05,9.4016e-07,9.3952,7.2192e-07,5.4241,7.5227e-12,-8.4871e-06,-7.2194e-07,-5.4245,0.52033
20246,8.6794,0.72727,0,0.00037506,3748,0.00012497,0.01675,0.00012175,-24.157,-0.00037546,-3760,0.55147
20247,8.5876,0.63636,0,0.00037798,3777.2,0.00012577,0.01726,0.00012298,-20.93,-0.00037833,-3787.6,0.54054
20248,8.5876,0.72727,0.05,9.4067e-07,9.4002,7.2231e-07,5.4271,9.5544e-12,-7.4007e-06,-7.2233e-07,-5.4274,0.541
20249,8.8628,0.72727,0,0.00036988,3696.2,0.00012316,0.014747,0.0001202,-22.183,-0.00037025,-3707.3,0.57252
20250,8.7711,0.63636,0,0.00037279,3725.3,0.00012397,0.015121,0.00012141,-19.239,-0.00037311,-3734.9,0.56147
20251,8.7711,0.72727,0.05,9.3979e-07,9.3915,7.2163e-07,5.422,9.6036e-12,-6.8503e-06,-7.2166e-07,-5.4223,0.56193
20252,9.0463,0.72727,0,0.0003647,3644.5,0.00012135,0.013031,0.00011866,-20.198,-0.00036504,-3654.6,0.59383
20253,8.9546,0.63636,0,0.0003676,3673.4,0.00012217,0.013283,0.00011984,-17.513,-0.00036789,-3682.2,0.58266
20254,8.9546,0.72727,0.05,9.3786e-07,9.3722,7.2015e-07,5.4109,9.7899e-12,-5.1631e-06,-7.2017e-07,-5.4112,0.58311
20255,9.2298,0.72727,0,0.00035953,3592.9,0.00011955,0.011553,0.00011712,-18.231,-0.00035984,-3601.9,0.61538
20256,9.1381,0.63636,0,0.00036241,3621.6,0.00012038,0.011693,0.00011828,-15.779,-0.00036268,-3629.5,0.60409
20257,9.1381,0.72727,0.05,9.3514e-07,9.3449,7.1806e-07,5.3951,9.9959e-12,-4.3938e-06,-7.1808e-07,-5.3954,0.60454
20258,9.4133,0.72727,0,0.00035438,3541.3,0.00011775,0.010275,0.00011558,-16.302,-0.00035465,-3549.5,0.63717
20259,9.3215,0.63636,0,0.00035724,3569.9,0.00011858,0.010311,0.00011671,-14.063,-0.00035747,-3576.9,0.62577
20260,9.3215,0.72727,0.05,9.3182e-07,9.3118,7.1551e-07,5.376,1.0051e-11,-3.9553e-06,-7.1553e-07,-5.3763,0.62621
20261,9.5968,0.72727,0,0.00034923,3489.9,0.00011596,0.0091718,0.00011404,-14.426,-0.00034948,-3497.1,0.6592
20262,9.505,0.63636,0,0.00035207,3518.3,0.0001168,0.0091078,0.00011515,-12.38,-0.00035228,-3524.4,0.64768
20263,9.505,0.72727,0.05,9.2807e-07,9.2743,7.1263e-07,5.3544,8.3862e-12,-3.566e-06,-7.1266e-07,-5.3547,0.64812
20264,9.7802,0.72727,0,0.0003441,3438.7,0.00011418,0.0082198,0.0001125,-12.615,-0.00034432,-3444.9,0.68146
20265,9.6885,0.63636,0,0.00034692,3466.8,0.00011502,0.0080644,0.00011358,-10.745,-0.0003471,-3472.2,0.66983
20266,9.6885,0.72727,0.05,9.2402e-07,9.2338,7.0952e-07,5.331,9.3975e-12,-2.5154e-06,-7.0954e-07,-5.3313,0.67027
20267,9.9637,0.72727,0,0.00033899,3387.5,0.0001124,0.0074126,0.00011096,-10.876,-0.00033917,-3392.9,0.70396
20268,9.872,0.63636,0,0.00034178,3415.5,0.00011324,0.0071565,0.00011202,-9.167,-0.00034194,-3420,0.69222
20269,9.872,0.72727,0.05,9.1976e-07,9.1912,7.0625e-07,5.3064,9.4114e-12,-1.9803e-06,-7.0627e-07,-5.3067,0.69265
20270,10.147,0.72727,0,0.00033388,3336.5,0.00011064,0.006747,0.00010941,-9.2148,-0.00033404,-3341.1,0.72668
20271,10.055,0.63636,0,0.00033666,3364.3,0.00011148,0.006399,0.00011046,-7.6515,-0.00033679,-3368.1,0.71484
20272,10.055,0.72727,0.05,9.1536e-07,9.1473,7.0287e-07,5.281,8.6308e-12,-1.4635e-06,-7.0289e-07,-5.2813,0.71526
20273,10.331,0.72727,0,0.0003288,3285.7,0.00010888,0.0062069,0.00010787,-7.633,-0.00032893,-3289.5,0.74963
20274,10.239,0.63636,0,0.00033155,3313.3,0.00010972,0.0057805,0.00010889,-6.2029,-0.00033166,-3316.3,0.73768
20275,10.239,0.72727,0.05,9.1089e-07,9.1026,6.9944e-07,5.2552,8.6881e-12,-9.6138e-07,-6.9946e-07,-5.2555,0.7381
20276,10.514,0.72727,0,0.00032373,3235.1,0.00010713,0.0058285,0.00010632,-6.1316,-0.00032383,-3238.1,0.7728
20277,10.422,0.63636,0,0.00032646,3262.4,0.00010797,0.0053016,0.00010733,-4.8233,-0.00032655,-3264.8,0.76074
20278,10.422,0.72727,0.05,9.0637e-07,9.0574,6.9597e-07,5.2292,1.054e-11,-2.4106e-09,-6.9599e-07,-5.2294,0.76116
20279,10.698,0.72727,0,0.00031868,3184.6,0.0001054,0.0057017,0.00010477,-4.7103,-0.00031876,-3186.9,0.79618
20280,10.606,0.63636,0,0.00032139,3211.7,0.00010623,0.0050928,0.00010577,-3.5132,-0.00032145,-3213.5,0.78403
20281,10.606,0.72727,0.05,9.0184e-07,9.0122,6.9249e-07,5.203,8.7845e-12,1.6017e-07,-6.9251e-07,-5.2033,0.78443
20282,10.881,0.72727,0,0.00031364,3134.2,0.00010367,0.0060019,0.00010322,-3.3675,-0.0003137,-3135.9,0.81978
20283,10.789,0.63636,0,0.00031634,3161.2,0.0001045,0.005424,0.0001042,-2.2724,-0.00031638,-3162.3,0.80753
20284,10.789,0.72727,0.05,8.9733e-07,8.9671,6.8903e-07,5.177,8.8074e-12,8.5665e-07,-6.8905e-07,-5.1773,0.80793
20285,11.065,0.72727,0,0.00030862,3084.1,0.00010195,0.0072753,0.00010167,-2.1014,-0.00030866,-3085.1,0.8436
20286,10.973,0.63636,0,0.0003113,3110.8,0.00010278,0.0076831,0.00010264,-1.1004,-0.00031132,-3111.4,0.83124
20287,10.973,0.72727,0.05,8.9285e-07,8.9224,6.8559e-07,5.1512,8.8457e-12,7.743e-07,-6.8561e-07,-5.1515,0.83164
20288,11.248,0.72727,0,0.00030362,3034.1,0.00010024,0.012936,0.00010012,-0.91263,-0.00030363,-3034.5,0.86762
20289,11.156,0.63636,0,0.00030628,3060.7,0.00010108,0.085446,0.00010106,-0.069181,-0.00030628,-3060.7,0.85516
20290,11.156,0.72727,0.05,8.8843e-07,8.8782,6.8219e-07,5.1257,8.8939e-12,-3.6196e-07,-6.8221e-07,-5.126,0.85555
20291,11.432,0.72727,0,0.00029863,2984.3,9.8573e-05,0.26196,9.8533e-05,-0.036512,-0.00029863,-2984.2,0.89184
20292,11.34,0.63636,0,0.00030128,3010.7,9.9511e-05,1.0672,9.9368e-05,-0.0042552,-0.00030126,-3010.2,0.87929
20293,11.34,0.72727,0.05,8.8404e-07,8.8343,6.7882e-07,5.1004,8.9232e-12,-3.15e-07,-6.7885e-07,-5.1006,0.87967
20294,11.615,0.72727,0,0.00029367,2934.6,9.7018e-05,1.2912,9.6846e-05,-0.0064214,-0.00029365,-2934,0.91626
20295,11.523,0.63636,0,0.00029629,2960.9,9.7948e-05,2.0523,9.7675e-05,-0.001963,-0.00029626,-2959.9,0.90362
20296,11.523,0.72727,0.05,8.7972e-07,8.7911,6.755e-07,5.0754,7.1125e-12,4.8808e-07,-6.7552e-07,-5.0757,0.904
20297,11.799,0.72727,0,0.00028872,2885.2,9.5468e-05,2.2855,9.5164e-05,-0.0034286,-0.00028868,-2884,0.94088
20298,11.707,0.63636,0,0.00029133,2911.3,9.6387e-05,2.9828,9.599e-05,-0.0014498,-0.00029128,-2909.8,0.92815
20299,11.707,0.72727,0.05,8.7545e-07,8.7485,6.7223e-07,5.0508,8.9732e-12,1.3464e-06,-6.7225e-07,-5.0511,0.92852
20300,11.982,0.72727,0,0.00028379,2835.9,9.3919e-05,3.2236,9.349e-05,-0.002487,-0.00028373,-2834.3,0.9657
20301,11.89,0.63636,0,0.00028638,2861.8,9.4828e-05,3.8609,9.4314e-05,-0.0013493,-0.00028631,-2859.9,0.95287
20302,11.89,0.72727,0.05,8.7124e-07,8.7064,6.69e-07,5.0265,7.1696e-12,3.5474e-06,-6.6902e-07,-5.0268,0.95324
20303,12.165,0.72727,0,0.00027887,2786.8,9.2372e-05,4.1079,9.1825e-05,-0.0021337,-0.0002788,-2784.8,0.9907
20304,12.074,0.63636,0,0.00028145,2812.6,9.3271e-05,4.6895,9.2647e-05,-0.0013953,-0.00028137,-2810.2,0.97779
20305,12.074,0.72727,0.05,8.671e-07,8.665,6.6581e-07,5.0026,8.0876e-12,3.6446e-06,-6.6583e-07,-5.0028,0.97815
20306,12.349,0.72727,0,0.00027398,2737.9,9.0826e-05,4.9419,9.0168e-05,-0.0020182,-0.00027389,-2735.4,1.0159
20307,12.257,0.63636,0,0.00027654,2763.5,9.1716e-05,5.4718,9.0988e-05,-0.0015374,-0.00027645,-2760.8,1.0029
20308,12.257,0.72727,0.05,8.63e-07,8.624,6.6267e-07,4.979,8.1231e-12,3.4652e-06,-6.6268e-07,-4.9792,1.0032
20309,12.532,0.72727,0,0.0002691,2689.2,8.9282e-05,5.7292,8.8519e-05,-0.001999,-0.000269,-2686.3,1.0413
20310,12.441,0.63636,0,0.00027165,2714.6,9.0164e-05,6.2112,8.9337e-05,-0.0016904,-0.00027154,-2711.5,1.0282
20311,12.441,0.72727,0.05,8.5895e-07,8.5836,6.5956e-07,4.9556,8.1352e-12,2.8525e-06,-6.5957e-07,-4.9558,1.0285
20312,12.716,0.72727,0,0.00026424,2640.6,8.7741e-05,6.4733,8.6879e-05,-0.0020222,-0.00026413,-2637.4,1.0668
20313,12.624,0.63636,0,0.00026678,2665.9,8.8614e-05,6.9109,8.7694e-05,-0.0018448,-0.00026666,-2662.5,1.0537
20314,12.624,0.72727,0.05,8.5495e-07,8.5436,6.5649e-07,4.9326,7.2463e-12,1.1742e-06,-6.565e-07,-4.9328,1.054
20315,12.899,0.72727,0,0.0002594,2592.2,8.6203e-05,7.1777,8.5247e-05,-0.0020869,-0.00025928,-2588.6,1.0926
20316,12.808,0.63636,0,0.00026192,2617.4,8.7068e-05,7.5741,8.606e-05,-0.0019817,-0.00026179,-2613.6,1.0793
20317,12.808,0.72727,0.05,8.5101e-07,8.5043,6.5346e-07,4.9098,7.2566e-12,1.1334e-06,-6.5348e-07,-4.91,1.0796
20318,13.083,0.72727,0,0.00025458,2544.1,8.4668e-05,7.8457,8.3623e-05,-0.0021887,-0.00025445,-2540.1,1.1185
20319,12.991,0.63636,0,0.00025709,2569.1,8.5525e-05,8.2036,8.4433e-05,-0.0021571,-0.00025695,-2565,1.1051
20320,12.991,0.72727,0.05,8.4713e-07,8.4654,6.5048e-07,4.8874,7.2693e-12,1.3453e-06,-6.505e-07,-4.8876,1.1055
20321,13.266,0.72727,0,0.00024978,2496.1,8.3136e-05,8.4806,8.2007e-05,-0.0022792,-0.00024963,-2491.8,1.1445
20322,13.175,0.63636,0,0.00025227,2521,8.3986e-05,8.8025,8.2814e-05,-0.002329,-0.00025212,-2516.6,1.1311
20323,13.175,0.72727,0.05,8.4327e-07,8.4269,6.4752e-07,4.8652,7.28e-12,2.3255e-06,-6.4753e-07,-4.8654,1.1315
20324,13.45,0.72727,0,0.000245,2448.3,8.1608e-05,9.0856,8.0398e-05,-0.0023693,-0.00024484,-2443.7,1.1708
20325,13.358,0.63636,0,0.00024748,2473.1,8.2451e-05,9.3736,8.1203e-05,-0.0024535,-0.00024732,-2468.4,1.1573
20326,13.358,0.72727,0.05,8.3947e-07,8.3889,6.446e-07,4.8432,7.2879e-12,4.5563e-06,-6.4462e-07,-4.8434,1.1576
20327,13.633,0.72727,0,0.00024023,2400.7,8.0083e-05,9.6634,7.8797e-05,-0.0024747,-0.00024007,-2395.8,1.1972
20328,13.542,0.63636,0,0.0002427,2425.3,8.092e-05,9.9196,7.9599e-05,-0.002606,-0.00024253,-2420.4,1.1836
20329,13.542,0.72727,0.05,8.3571e-07,8.3513,6.4171e-07,4.8215,7.3001e-12,5.0263e-06,-6.4173e-07,-4.8217,1.184
20330,13.817,0.72727,0,0.00023549,2353.2,7.8564e-05,10.217,7.7203e-05,-0.002573,-0.00023531,-2348.1,1.2238
20331,13.725,0.63636,0,0.00023794,2377.8,7.9393e-05,10.443,7.8003e-05,-0.0027466,-0.00023776,-2372.5,1.2101
20332,13.725,0.72727,0.05,8.3198e-07,8.3141,6.3886e-07,4.8,4.578e-12,6.1634e-06,-6.3886e-07,-4.8003,1.2104
20333,14,0.72727,0,0.00023076,2306,7.7048e-05,10.749,7.5617e-05,-0.0026814,-0.00023057,-2300.6,1.2505
20334,13.909,0.63636,0,0.0002332,2330.4,7.7871e-05,10.947,7.6414e-05,-0.0028738,-0.00023302,-2324.9,1.2368
20335,13.909,0.72727,0.05,8.283e-07,8.2773,6.3602e-07,4.7788,5.4878e-12,6.4378e-06,-6.3604e-07,-4.779,1.2371
20336,14.184,0.72727,0,0.00022605,2259,7.5538e-05,11.263,7.4038e-05,-0.0027843,-0.00022586,-2253.3,1.2774
20337,14.092,0.63636,0,0.00022848,2283.3,7.6355e-05,11.432,7.4833e-05,-0.0030278,-0.00022829,-2277.5,1.2636
20338,14.092,0.72727,0.05,8.2465e-07,8.2408,6.3322e-07,4.7577,6.4166e-12,5.62e-06,-6.3323e-07,-4.7579,1.2639
20339,14.367,0.72727,0,0.00022136,2212.1,7.4032e-05,11.76,7.2467e-05,-0.0028665,-0.00022116,-2206.2,1.3044
20340,14.276,0.63636,0,0.00022378,2236.3,7.4843e-05,11.903,7.3258e-05,-0.003137,-0.00022358,-2230.3,1.2906
20341,14.276,0.72727,0.05,8.2102e-07,8.2046,6.3044e-07,4.7368,7.3287e-12,5.5168e-06,-6.3045e-07,-4.737,1.2909
20342,14.551,0.72727,0,0.0002167,2165.5,7.2532e-05,12.243,7.0902e-05,-0.0029631,-0.00021648,-2159.3,1.3316
20343,14.459,0.63636,0,0.0002191,2189.5,7.3336e-05,12.36,7.1691e-05,-0.0032435,-0.00021889,-2183.3,1.3177
20344,14.459,0.72727,0.05,8.1744e-07,8.1687,6.2769e-07,4.7161,5.5104e-12,5.8651e-06,-6.277e-07,-4.7163,1.318
20345,14.734,0.72727,0,0.00021205,2119,7.1037e-05,12.714,6.9344e-05,-0.003065,-0.00021183,-2112.6,1.3589
20346,14.642,0.63636,0,0.00021444,2143,7.1836e-05,12.806,7.0131e-05,-0.0033783,-0.00021422,-2136.5,1.3449
20347,14.642,0.72727,0.05,8.1388e-07,8.1332,6.2496e-07,4.6956,6.4457e-12,4.143e-06,-6.2496e-07,-4.6958,1.3452
20348,14.918,0.72727,0,0.00020742,2072.7,6.9548e-05,13.176,6.7794e-05,-0.0031516,-0.00020719,-2066.1,1.3864
20349,14.826,0.63636,0,0.0002098,2096.6,7.0341e-05,13.243,6.8577e-05,-0.0034938,-0.00020957,-2089.9,1.3723
20350,14.826,0.72727,0.05,8.1035e-07,8.0979,6.2225e-07,4.6752,6.4533e-12,4.5407e-06,-6.2225e-07,-4.6754,1.3726
20351,15.101,0.72727,0,0.00020281,2026.7,6.8064e-05,13.631,6.625e-05,-0.0032244,-0.00020257,-2019.8,1.414
20352,15.009,0.63636,0,0.00020518,2050.4,6.8851e-05,13.673,6.7031e-05,-0.003596,-0.00020495,-2043.5,1.3999
20353,15.009,0.72727,0.05,8.0685e-07,8.0629,6.1956e-07,4.6551,6.4525e-12,4.3776e-06,-6.1957e-07,-4.6552,1.4002
20354,15.285,0.72727,0,0.00019822,1980.8,6.6587e-05,14.081,6.4713e-05,-0.0033007,-0.00019797,-1973.7,1.4417
20355,15.193,0.63636,0,0.00020058,2004.4,6.7368e-05,14.098,6.5491e-05,-0.003683,-0.00020034,-1997.3,1.4276
20356,15.193,0.72727,0.05,8.0338e-07,8.0283,6.1689e-07,4.6351,5.5408e-12,4.3273e-06,-6.1691e-07,-4.6352,1.4278
20357,15.468,0.72727,0,0.00019365,1935.1,6.5116e-05,14.528,6.3182e-05,-0.0033857,-0.0001934,-1927.8,1.4696
20358,15.376,0.63636,0,0.000196,1958.6,6.5891e-05,14.52,6.3958e-05,-0.0037905,-0.00019575,-1951.3,1.4554
20359,15.376,0.72727,0.05,7.9995e-07,7.994,6.1425e-07,4.6152,4.6291e-12,7.6727e-06,-6.1427e-07,-4.6154,1.4556
20360,15.652,0.72727,0,0.0001891,1889.7,6.3651e-05,14.974,6.1658e-05,-0.0034639,-0.00018884,-1882.1,1.4976
20361,15.56,0.63636,0,0.00019144,1913,6.4421e-05,14.94,6.2432e-05,-0.0038942,-0.00019118,-1905.5,1.4833
20362,15.56,0.72727,0.05,7.9654e-07,7.9599,6.1164e-07,4.5956,4.6438e-12,7.055e-06,-6.1165e-07,-4.5957,1.4836
20363,15.835,0.72727,0,0.00018456,1844.4,6.2194e-05,15.42,6.0141e-05,-0.0035501,-0.0001843,-1836.6,1.5258
20364,15.743,0.63636,0,0.00018689,1867.6,6.2957e-05,15.36,6.0912e-05,-0.0039904,-0.00018663,-1859.9,1.5114
20365,15.743,0.72727,0.05,7.9316e-07,7.9261,6.0904e-07,4.5761,6.4471e-12,3.0447e-06,-6.0905e-07,-4.5762,1.5117
20366,16.019,0.72727,0,0.00018005,1799.3,6.0742e-05,15.87,5.863e-05,-0.0036338,-0.00017978,-1791.3,1.554
20367,15.927,0.63636,0,0.00018237,1822.5,6.15e-05,15.783,5.9399e-05,-0.0041096,-0.0001821,-1814.5,1.5396
20368,15.927,0.72727,0.05,7.898e-07,7.8926,6.0647e-07,4.5567,5.5326e-12,1.6538e-06,-6.0648e-07,-4.5569,1.5398
20369,16.202,0.72727,0,0.00017556,1754.4,5.9298e-05,16.325,5.7125e-05,-0.0037033,-0.00017528,-1746.2,1.5824
20370,16.11,0.63636,0,0.00017787,1777.5,6.0049e-05,16.209,5.7891e-05,-0.0041989,-0.00017759,-1769.3,1.5679
20371,16.11,0.72727,0.05,7.8648e-07,7.8593,6.0391e-07,4.5375,5.5479e-12,2.6591e-06,-6.0392e-07,-4.5377,1.5682
20372,16.386,0.72727,0,0.00017109,1709.7,5.7861e-05,16.787,5.5626e-05,-0.0037872,-0.0001708,-1701.3,1.6109
20373,16.294,0.63636,0,0.00017339,1732.7,5.8606e-05,16.641,5.6391e-05,-0.0042922,-0.0001731,-1724.3,1.5964
20374,16.294,0.72727,0.05,7.8318e-07,7.8264,6.0138e-07,4.5185,4.6436e-12,2.7287e-06,-6.0139e-07,-4.5187,1.5966
20375,16.569,0.72727,0,0.00016664,1665.3,5.6432e-05,17.258,5.4134e-05,-0.0038772,-0.00016634,-1656.6,1.6395
20376,16.477,0.63636,0,0.00016892,1688.1,5.717e-05,17.081,5.4896e-05,-0.0044117,-0.00016863,-1679.5,1.6249
20377,16.477,0.72727,0.05,7.7992e-07,7.7938,5.9887e-07,4.4997,5.1284e-12,2.233e-06,-5.9888e-07,-4.4998,1.6251
20378,16.753,0.72727,0,0.00016221,1621,5.5009e-05,17.739,5.2648e-05,-0.0039574,-0.0001619,-1612,1.6682
20379,16.661,0.63636,0,0.00016448,1643.7,5.5741e-05,17.529,5.3408e-05,-0.0045199,-0.00016418,-1634.8,1.6536
20380,16.661,0.72727,0.05,7.7668e-07,7.7614,5.9639e-07,4.481,4.6665e-12,3.1177e-06,-5.964e-07,-4.4811,1.6538
20381,16.936,0.72727,0,0.0001578,1576.9,5.3595e-05,18.234,5.1168e-05,-0.0040315,-0.00015748,-1567.7,1.697
20382,16.844,0.63636,0,0.00016006,1599.5,5.432e-05,17.988,5.1925e-05,-0.0046227,-0.00015975,-1590.4,1.6824
20383,16.844,0.72727,0.05,7.7347e-07,7.7294,5.9393e-07,4.4625,4.6881e-12,5.177e-06,-5.9394e-07,-4.4626,1.6826
20384,17.119,0.72727,0,0.00015341,1533,5.2188e-05,18.744,4.9693e-05,-0.0041109,-0.00015308,-1523.6,1.726
20385,17.028,0.63636,0,0.00015566,1555.5,5.2907e-05,18.46,5.0449e-05,-0.004722,-0.00015533,-1546.2,1.7113
20386,17.028,0.72727,0.05,7.703e-07,7.6977,5.9149e-07,4.4442,4.6665e-12,3.5322e-06,-5.915e-07,-4.4443,1.7115
20387,17.303,0.72727,0,0.00014904,1489.4,5.079e-05,19.27,4.8225e-05,-0.0041994,-0.0001487,-1479.6,1.755
20388,17.211,0.63636,0,0.00015127,1511.7,5.1501e-05,18.947,4.8979e-05,-0.0048388,-0.00015094,-1502.1,1.7402
20389,17.211,0.72727,0.05,7.6718e-07,7.6665,5.8909e-07,4.4262,4.7197e-12,3.3896e-06,-5.891e-07,-4.4263,1.7404
20390,17.486,0.72727,0,0.00014469,1445.9,4.94e-05,19.816,4.6762e-05,-0.0042874,-0.00014434,-1435.9,1.7841
20391,17.395,0.63636,0,0.00014691,1468.1,5.0103e-05,19.449,4.7514e-05,-0.0049586,-0.00014657,-1458.3,1.7693
20392,17.395,0.72727,0.05,7.6408e-07,7.6355,5.8671e-07,4.4083,4.2545e-12,2.8711e-06,-5.8672e-07,-4.4084,1.7695
20393,17.67,0.72727,0,0.00014036,1402.6,4.8018e-05,20.384,4.5305e-05,-0.0043845,-0.00014,-1392.3,1.8133
20394,17.578,0.63636,0,0.00014257,1424.7,4.8714e-05,19.97,4.6055e-05,-0.0050772,-0.00014222,-1414.6,1.7985
20395,17.578,0.72727,0.05,7.6103e-07,7.605,5.8437e-07,4.3907,3.8133e-12,4.8424e-06,-5.8438e-07,-4.3908,1.7987
20396,17.853,0.72727,0,0.00013605,1359.6,4.6645e-05,20.975,4.3853e-05,-0.0044811,-0.00013568,-1348.9,1.8427
20397,17.762,0.63636,0,0.00013825,1381.5,4.7332e-05,20.511,4.4602e-05,-0.0052211,-0.00013789,-1371.2,1.8278
20398,17.762,0.72727,0.05,7.5801e-07,7.5749,5.8205e-07,4.3733,3.8373e-12,5.4312e-06,-5.8206e-07,-4.3734,1.828
20399,18.037,0.72727,0,0.00013176,1316.7,4.5281e-05,21.592,4.2406e-05,-0.0045708,-0.00013138,-1305.8,1.8721
20400,17.945,0.63636,0,0.00013395,1338.5,4.5959e-05,21.073,4.3154e-05,-0.0053481,-0.00013358,-1327.9,1.8572
20401,17.945,0.72727,0.05,7.5504e-07,7.5452,5.7977e-07,4.3562,3.8502e-12,8.1419e-06,-5.7978e-07,-4.3563,1.8573
20402,18.22,0.72727,0,0.00012749,1274,4.3925e-05,22.237,4.0965e-05,-0.0046742,-0.0001271,-1262.8,1.9016
20403,18.129,0.63636,0,0.00012966,1295.7,4.4595e-05,21.66,4.1711e-05,-0.0054832,-0.00012928,-1284.8,1.8866
20404,18.129,0.72727,0.05,7.5212e-07,7.516,5.7753e-07,4.3393,3.4275e-12,3.2666e-06,-5.7754e-07,-4.3394,1.8868
20405,18.404,0.72727,0,0.00012324,1231.6,4.2579e-05,22.913,3.9529e-05,-0.0047853,-0.00012284,-1220,1.9312
20406,18.312,0.63636,0,0.0001254,1253.2,4.3239e-05,22.273,4.0274e-05,-0.0056414,-0.00012501,-1241.9,1.9162
20407,18.312,0.72727,0.05,7.4925e-07,7.4873,5.7533e-07,4.3227,2.9421e-12,2.8332e-06,-5.7533e-07,-4.3228,1.9163
20408,18.587,0.72727,0,0.00011901,1189.3,4.1243e-05,23.623,3.8098e-05,-0.0048917,-0.00011859,-1177.3,1.9608
20409,18.496,0.63636,0,0.00012116,1210.8,4.1892e-05,22.914,3.8842e-05,-0.0057995,-0.00012075,-1199.1,1.9458
20410,18.496,0.72727,0.05,7.4643e-07,7.4591,5.7316e-07,4.3065,3.022e-12,2.9434e-06,-5.7317e-07,-4.3066,1.946
20411,18.771,0.72727,0,0.00011481,1147.3,3.9916e-05,24.369,3.6672e-05,-0.0049921,-0.00011437,-1134.9,1.9906
20412,18.679,0.63636,0,0.00011694,1168.6,4.0555e-05,23.585,3.7415e-05,-0.0059583,-0.00011652,-1156.6,1.9755
20413,18.679,0.72727,0.05,7.4366e-07,7.4315,5.7104e-07,4.2906,2.5888e-12,7.2799e-06,-5.7104e-07,-4.2906,1.9757
20414,18.954,0.72727,0,0.00011062,1105.4,3.8599e-05,25.155,3.525e-05,-0.0051005,-0.00011017,-1092.6,2.0204
20415,18.863,0.63636,0,0.00011274,1126.6,3.9226e-05,24.29,3.5993e-05,-0.0061158,-0.0001123,-1114.2,2.0053
20416,18.863,0.72727,0.05,7.4097e-07,7.4045,5.6897e-07,4.275,3.489e-12,8.1135e-06,-5.6897e-07,-4.2751,2.0055
20417,19.138,0.72727,0,0.00010645,1063.8,3.7292e-05,25.982,3.3833e-05,-0.0052165,-0.00010598,-1050.5,2.0503
20418,19.046,0.63636,0,0.00010855,1084.8,3.7907e-05,25.029,3.4575e-05,-0.006298,-0.00010811,-1072.1,2.0352
20419,19.046,0.72727,0.05,7.3834e-07,7.3783,5.6695e-07,4.2598,2.9939e-12,5.1715e-06,-5.6695e-07,-4.2599,2.0353
20420,19.321,0.72727,0,0.0001023,1022.3,3.5995e-05,26.854,3.2421e-05,-0.0053269,-0.00010182,-1008.6,2.0802
20421,19.229,0.63636,0,0.00010439,1043.2,3.6598e-05,25.806,3.3162e-05,-0.0064819,-0.00010393,-1030.1,2.0651
20422,19.229,0.72727,0.05,7.3578e-07,7.3527,5.6498e-07,4.2451,2.1783e-12,4.3412e-06,-5.6499e-07,-4.2451,2.0652
20423,19.505,0.72727,0,9.8176e-05,981.08,3.4709e-05,27.776,3.1012e-05,-0.0054424,-9.7674e-05,-966.9,2.1103
20424,19.413,0.63636,0,0.00010025,1001.8,3.5298e-05,26.624,3.1754e-05,-0.0066697,-9.9769e-05,-988.22,2.0951
20425,19.413,0.72727,0.05,7.333e-07,7.3279,5.6308e-07,4.2308,3.0261e-12,9.2369e-06,-5.6309e-07,-4.2308,2.0952
20426,19.688,0.72727,0,9.4069e-05,940.04,3.3434e-05,28.749,2.9607e-05,-0.0055525,-9.3547e-05,-925.34,2.1404
20427,19.596,0.63636,0,9.6126e-05,960.59,3.4009e-05,27.484,3.035e-05,-0.0068778,-9.5629e-05,-946.56,2.1252
20428,19.596,0.72727,0.05,7.309e-07,7.304,5.6124e-07,4.2169,2.2171e-12,8.479e-06,-5.6124e-07,-4.217,2.1253
20429,19.872,0.72727,0,8.9983e-05,899.21,3.2171e-05,29.778,2.8207e-05,-0.0056467,-8.944e-05,-883.95,2.1705
20430,19.78,0.63636,0,9.2022e-05,919.59,3.2729e-05,28.39,2.895e-05,-0.0070737,-9.1507e-05,-905.07,2.1553
20431,19.78,0.72727,0.05,7.2859e-07,7.2809,5.5946e-07,4.2036,3.1565e-12,1.0059e-05,-5.5947e-07,-4.2036,2.1554
20432,20.055,0.72727,0,8.5917e-05,858.58,3.0918e-05,30.867,2.6809e-05,-0.0057379,-8.5351e-05,-842.73,2.2007
20433,19.963,0.63636,0,8.7939e-05,878.78,3.146e-05,29.346,2.7553e-05,-0.0072715,-8.7403e-05,-863.74,2.1855
20434,19.963,0.72727,0.05,7.2638e-07,7.2587,5.5776e-07,4.1908,2.9428e-12,1.3585e-05,-5.5777e-07,-4.1909,2.1856
20435,20.239,0.72727,0,8.1872e-05,818.15,2.9678e-05,32.02,2.5416e-05,-0.0058173,-8.128e-05,-801.68,2.231
20436,20.147,0.63636,0,8.3874e-05,838.16,3.0202e-05,30.353,2.6161e-05,-0.007483,-8.3317e-05,-822.58,2.2157
20437,20.147,0.72727,0.05,7.2426e-07,7.2376,5.5614e-07,4.1786,2.7431e-12,1.5652e-05,-5.5615e-07,-4.1787,2.2159
20438,20.422,0.72727,0,7.7847e-05,777.93,2.845e-05,33.242,2.4025e-05,-0.0058655,-7.7228e-05,-760.78,2.2613
20439,20.33,0.63636,0,7.983e-05,797.75,2.8954e-05,31.416,2.4772e-05,-0.0076842,-7.9249e-05,-781.58,2.246
20440,20.33,0.72727,0.05,7.2226e-07,7.2176,5.5461e-07,4.1671,2.5748e-12,1.5749e-05,-5.5461e-07,-4.1671,2.2462
20441,20.606,0.72727,0,7.3843e-05,737.92,2.7235e-05,34.539,2.2637e-05,-0.0058769,-7.3195e-05,-720.05,2.2917
20442,20.514,0.63636,0,7.5805e-05,757.52,2.7718e-05,32.54,2.3386e-05,-0.0078659,-7.5199e-05,-740.73,2.2764
20443,20.514,0.72727,0.05,7.2038e-07,7.1988,5.5316e-07,4.1562,2.5083e-12,1.3251e-05,-5.5316e-07,-4.1562,2.2765
20444,20.789,0.72727,0,6.986e-05,698.12,2.6032e-05,35.917,2.1251e-05,-0.005848,-6.918e-05,-679.47,2.3221
20445,20.697,0.63636,0,7.18e-05,717.5,2.6493e-05,33.727,2.2003e-05,-0.0080274,-7.1166e-05,-700.05,2.3068
20446,20.697,0.72727,0.05,7.1862e-07,7.1813,5.5181e-07,4.1461,2.2869e-12,1.191e-05,-5.5181e-07,-4.1461,2.3069
20447,20.973,0.72727,0,6.5899e-05,658.54,2.4844e-05,37.383,1.9868e-05,-0.0057558,-6.5184e-05,-639.05,2.3526
20448,20.881,0.63636,0,6.7814e-05,677.68,2.528e-05,34.983,2.0623e-05,-0.0081636,-6.7152e-05,-659.51,2.3373
20449,20.881,0.72727,0.05,7.1701e-07,7.1651,5.5057e-07,4.1368,2.172e-12,1.2041e-05,-5.5057e-07,-4.1368,2.3374
20450,21.156,0.72727,0,6.1961e-05,619.18,2.3671e-05,38.945,1.8487e-05,-0.0055737,-6.1206e-05,-598.79,2.3831
20451,21.064,0.63636,0,6.385e-05,638.06,2.408e-05,36.315,1.9245e-05,-0.0082507,-6.3154e-05,-619.13,2.3678
20452,21.064,0.72727,0.05,7.1554e-07,7.1505,5.4944e-07,4.1283,2.1756e-12,1.5674e-05,-5.4945e-07,-4.1283,2.3679
20453,21.34,0.72727,0,5.8045e-05,580.05,2.2514e-05,40.613,1.7108e-05,-0.0052762,-5.7248e-05,-558.68,2.4137
20454,21.248,0.63636,0,5.9906e-05,598.65,2.2892e-05,37.729,1.787e-05,-0.0082648,-5.9175e-05,-578.89,2.3983
20455,21.248,0.72727,0.05,7.1423e-07,7.1374,5.4844e-07,4.1208,2.2965e-12,1.7779e-05,-5.4844e-07,-4.1208,2.3984
20456,21.523,0.72727,0,5.4155e-05,541.17,2.1373e-05,42.4,1.5729e-05,-0.0048129,-5.3309e-05,-518.73,2.4443
20457,21.431,0.63636,0,5.5984e-05,559.45,2.1719e-05,39.233,1.6497e-05,-0.0081824,-5.5213e-05,-538.81,2.4289
20458,21.431,0.72727,0.05,7.131e-07,7.1261,5.4757e-07,4.1143,2.636e-12,1.9912e-05,-5.4758e-07,-4.1143,2.429
20459,21.706,0.72727,0,5.0291e-05,502.56,2.0251e-05,44.321,1.4352e-05,-0.0041191,-4.939e-05,-478.93,2.4749
20460,21.615,0.63636,0,5.2085e-05,520.49,2.0561e-05,40.838,1.5125e-05,-0.0079453,-5.127e-05,-498.87,2.4595
20461,21.615,0.72727,0.05,7.1217e-07,7.1168,5.4686e-07,4.1089,1.8035e-12,1.5128e-05,-5.4686e-07,-4.1089,2.4596
20462,21.89,0.72727,0,4.6456e-05,464.24,1.915e-05,46.395,1.2975e-05,-0.0031188,-4.5493e-05,-439.3,2.5056
20463,21.798,0.63636,0,4.8211e-05,481.78,1.9419e-05,42.557,1.3754e-05,-0.0074958,-4.7346e-05,-459.09,2.4901
20464,21.798,0.72727,0.05,7.1145e-07,7.1096,5.4631e-07,4.1047,1.7435e-12,1.9655e-05,-5.4631e-07,-4.1048,2.4902
20465,22.073,0.72727,0,4.2655e-05,426.26,1.8072e-05,48.648,1.1597e-05,-0.0016851,-4.1619e-05,-399.85,2.5362
20466,21.982,0.63636,0,4.4365e-05,443.35,1.8296e-05,44.408,1.2385e-05,-0.0067523,-4.3443e-05,-419.47,2.5208
20467,21.982,0.72727,0.05,7.1099e-07,7.105,5.4595e-07,4.1021,1.4626e-12,8.5853e-06,-5.4596e-07,-4.1021,2.5209
20468,22.257,0.72727,0,3.8893e-05,388.66,1.7022e-05,51.115,1.0219e-05,0.00037219,-3.777e-05,-360.57,2.567
20469,22.165,0.63636,0,4.055e-05,405.23,1.7194e-05,46.414,1.1016e-05,-0.0055647,-3.9561e-05,-380.02,2.5515
20470,22.165,0.72727,0.05,7.1083e-07,7.1034,5.4583e-07,4.1012,1.6125e-12,1.2009e-05,-5.4583e-07,-4.1012,2.5516
20471,22.44,0.72727,0,3.5178e-05,351.54,1.6005e-05,53.84,8.8395e-06,0.0033315,-3.3951e-05,-321.51,2.5977
20472,22.349,0.63636,0,3.6773e-05,367.48,1.6117e-05,48.608,9.6471e-06,-0.0037324,-3.5704e-05,-340.75,2.5822
20473,22.349,0.72727,0.05,7.1104e-07,7.1055,5.4599e-07,4.1024,1.1803e-12,1.5248e-05,-5.4599e-07,-4.1024,2.5823
20474,22.624,0.72727,0,3.1522e-05,315,1.5027e-05,56.888,7.4569e-06,0.0075526,-3.0166e-05,-282.68,2.6285
20475,22.532,0.63636,0,3.3041e-05,330.18,1.507e-05,51.035,8.2773e-06,-0.00091483,-3.1875e-05,-301.69,2.613
20476,22.532,0.72727,0.05,7.1172e-07,7.1123,5.4652e-07,4.1063,1.1217e-12,1.4167e-05,-5.4652e-07,-4.1063,2.6131
20477,22.807,0.72727,0,2.7943e-05,279.23,1.41e-05,60.348,6.0701e-06,0.013936,-2.6422e-05,-244.12,2.6592
20478,22.716,0.63636,0,2.9367e-05,293.47,1.406e-05,53.759,6.9059e-06,0.0032517,-2.8081e-05,-262.87,2.6438
20479,22.716,0.72727,0.05,7.1305e-07,7.1256,5.4754e-07,4.114,1.072e-13,5.3877e-06,-5.4754e-07,-4.114,2.6438
20480,22.991,0.72727,0,2.4467e-05,244.5,1.3237e-05,64.345,4.6765e-06,0.022737,-2.2729e-05,-205.89,2.69
20481,22.899,0.63636,0,2.5772e-05,257.54,1.31e-05,56.875,5.5313e-06,0.010189,-2.4328e-05,-224.34,2.6746
20482,22.899,0.72727,0.05,7.1531e-07,7.1482,5.4927e-07,4.127,2.0881e-14,8.4909e-06,-5.4927e-07,-4.127,2.6746
20483,23.174,0.72727,0,2.1138e-05,211.23,1.2459e-05,69.057,3.2729e-06,0.039524,-1.9098e-05,-168.05,2.7208
20484,23.083,0.63636,0,2.2285e-05,222.7,1.2204e-05,60.523,4.1512e-06,0.019094,-2.0629e-05,-186.17,2.7054
20485,23.083,0.72727,0.05,7.1898e-07,7.1849,5.5209e-07,4.1482,4.3463e-13,1.1067e-05,-5.5209e-07,-4.1482,2.7054
20486,23.358,0.72727,0,1.8018e-05,180.06,1.179e-05,74.714,1.8531e-06,0.055052,-1.5544e-05,-130.66,2.7517
20487,23.266,0.63636,0,1.8958e-05,189.45,1.1397e-05,64.917,2.7627e-06,0.042053,-1.7e-05,-148.45,2.7362
20488,23.266,0.72727,0.05,7.2491e-07,7.2441,5.5664e-07,4.1824,3.8628e-13,6.0096e-06,-5.5664e-07,-4.1824,2.7362
20489,23.541,0.72727,0,1.5211e-05,152,1.1259e-05,81.626,4.1356e-07,0.13415,-1.2081e-05,-93.743,2.7825
20490,23.45,0.63636,0,1.5875e-05,158.64,1.0714e-05,70.352,1.3567e-06,0.048747,-1.3461e-05,-111.29,2.767
20491,23.45,0.72727,0.05,7.3444e-07,7.3394,5.6396e-07,4.2374,-1.7007e-13,2.9254e-06,-5.6396e-07,-4.2374,2.7671
20492,23.725,0.72727,0,1.2878e-05,128.69,1.0904e-05,90.082,-1.0726e-06,0.091261,-8.7141e-06,-57.324,2.8133
20493,23.633,0.63636,0,1.3178e-05,131.68,1.0197e-05,77.301,-6.3914e-08,0.20315,-1.004e-05,-74.75,2.7979
20494,23.633,0.72727,0.05,7.508e-07,7.5028,5.7652e-07,4.3318,-8.1994e-14,5.1146e-06,-5.7652e-07,-4.3317,2.7979
20495,23.817,0.63636,0,1.1102e-05,110.94,9.9105e-06,86.16,-1.5569e-06,-0.001348,-6.7496e-06,-39.017,2.8287
20496,23.817,0.72727,0.05,7.946e-07,7.9405,6.1016e-07,4.5845,1.6484e-13,8.3935e-06,-6.1016e-07,-4.5845,2.8288
20497,23.908,0.72727,0,1.1136e-05,111.28,1.0591e-05,98.625,-2.4855e-06,0.37537,-5.4929e-06,-22.221,2.8442
20498,3.5419,0.54545,0,0.00021065,2105.1,0.00010589,445.44,4.5597e-05,-7.6096,-0.00019951,-1849.3,0.071713
20499,3.4501,0.45455,0,0.00017936,1792.4,9.6486e-05,457.78,3.3975e-05,-11.909,-0.0001671,-1522.7,0.063977
20500,3.4501,0.54545,0.05,1.3028e-05,130.19,1.0004e-05,75.167,7.0164e-13,3.0438e-05,-1.0004e-05,-75.167,0.064771
20501,3.3584,0.54545,0,0.00016791,1677.9,9.1715e-05,454.35,3.16e-05,2.6744,-0.00015551,-1403.2,0.058059
20502,3.7254,0.54545,0,0.00023633,2361.7,0.00010205,291.38,6.2805e-05,-3.5098,-0.00023005,-2203.9,0.085433
20503,3.6336,0.45455,0,0.00019901,1988.7,8.7261e-05,261.23,5.1955e-05,-4.0413,-0.0001933,-1846.8,0.077701
20504,3.6336,0.54545,0.05,1.0488e-05,104.81,8.0536e-06,60.512,-2.4843e-12,-2.8995e-05,-8.0536e-06,-60.512,0.07847
20505,3.9088,0.54545,0,0.00027514,2749.5,0.00011061,238.53,7.8476e-05,-2.8897,-0.00027033,-2623.7,0.099267
20506,3.8171,0.45455,0,0.00024065,2404.8,9.6844e-05,209.11,6.85e-05,-3.8538,-0.00023645,-2295.1,0.091514
20507,3.8171,0.54545,0.05,9.4759e-06,94.694,7.2763e-06,54.672,-5.8215e-12,-6.4093e-05,-7.2763e-06,-54.672,0.092253
20508,4.0923,0.54545,0,0.00031315,3129.4,0.00012099,212.29,9.2496e-05,-1.7647,-0.00030902,-3018.6,0.11326
20509,4.0006,0.45455,0,0.00028331,2831.1,0.00010938,190.95,8.3704e-05,-1.9911,-0.0002796,-2731.7,0.10546
20510,4.0006,0.54545,0.05,8.2207e-06,82.15,6.3125e-06,47.43,-6.3589e-12,-8.4629e-05,-6.3125e-06,-47.43,0.10617
20511,4.2758,0.54545,0,0.0003463,3460.6,0.00013022,191.7,0.00010455,-1.194,-0.00034265,-3361.3,0.12744
20512,4.1841,0.45455,0,0.00032133,3211.1,0.00012086,178.14,9.6985e-05,-1.2733,-0.00031795,-3118.9,0.11957
20513,4.1841,0.54545,0.05,6.9025e-06,68.977,5.3002e-06,39.824,-6.006e-12,-8.8022e-05,-5.3002e-06,-39.824,0.12025
20514,4.4593,0.54545,0,0.0003735,3732.4,0.00013747,170.77,0.00011463,-0.81947,-0.00037031,-3644.5,0.14184
20515,4.3676,0.45455,0,0.00035315,3529.1,0.00013015,163.49,0.00010828,-0.82623,-0.0003501,-3444.9,0.13389
20516,4.3676,0.54545,0.05,5.6402e-06,56.363,4.331e-06,32.541,-5.4759e-12,-7.9865e-05,-4.331e-06,-32.541,0.13455
20517,4.6428,0.54545,0,0.00039491,3946.3,0.00014269,148.49,0.00012284,-0.59309,-0.00039218,-3870.3,0.15648
20518,4.551,0.45455,0,0.00037871,3784.5,0.00013712,145.91,0.00011763,-0.59401,-0.00037602,-3709.7,0.14843
20519,4.551,0.54545,0.05,4.5028e-06,44.997,3.4576e-06,25.979,-4.8435e-12,-8.0495e-05,-3.4576e-06,-25.979,0.14907
20520,4.8263,0.54545,0,0.00041116,4108.7,0.00014615,125.58,0.00012938,-0.44421,-0.00040888,-4044.7,0.17138
20521,4.7345,0.45455,0,0.00039856,3982.9,0.00014206,126.38,0.00012518,-0.44618,-0.00039627,-3918.4,0.16322
20522,4.7345,0.54545,0.05,3.5164e-06,35.14,2.7002e-06,20.288,-3.1676e-12,-8.3484e-05,-2.7002e-06,-20.288,0.16384
20523,5.0097,0.54545,0,0.00042302,4227.3,0.0001482,103.08,0.00013443,-0.34636,-0.00042118,-4175,0.18655
20524,4.918,0.45455,0,0.00041349,4132,0.00014531,106.25,0.00013113,-0.34823,-0.00041158,-4078.1,0.17828
20525,4.918,0.54545,0.05,2.6832e-06,26.813,2.0603e-06,15.481,-3.1387e-12,-8.3075e-05,-2.0604e-06,-15.481,0.17888
20526,5.1932,0.54545,0,0.00043127,4309.7,0.00014916,81.87,0.00013822,-0.28253,-0.00042983,-4268.4,0.20201
20527,5.1015,0.45455,0,0.00042429,4239.9,0.00014725,86.653,0.00013568,-0.2786,-0.00042275,-4196.1,0.1936
20528,5.1015,0.54545,0.05,1.9931e-06,19.918,1.5305e-06,11.499,-2.1725e-12,-9.0759e-05,-1.5305e-06,-11.499,0.1942
20529,5.3767,0.54545,0,0.00043658,4362.8,0.0001493,62.549,0.00014094,-0.24422,-0.00043549,-4331.3,0.21775
20530,5.285,0.45455,0,0.00043169,4313.9,0.00014817,68.397,0.00013904,-0.22875,-0.00043049,-4279.4,0.20921
20531,5.285,0.54545,0.05,1.4321e-06,14.311,1.0996e-06,8.2622,-6.0356e-12,-0.00012106,-1.0996e-06,-8.2624,0.2098
20532,5.5602,0.54545,0,0.00043953,4392.3,0.00014885,45.448,0.00014277,-0.22797,-0.00043875,-4369.5,0.23379
20533,5.4684,0.45455,0,0.00043635,4360.5,0.00014834,51.963,0.0001414,-0.19432,-0.00043545,-4334.4,0.22511
20534,5.4684,0.54545,0.05,9.8691e-07,9.8623,7.5783e-07,5.6939,-8.1505e-12,-0.00016571,-7.5783e-07,-5.6941,0.22569
20535,5.7437,0.54545,0,0.00044062,4403.1,0.00014798,30.693,0.00014386,-0.23678,-0.00044009,-4387.8,0.25012
20536,5.6519,0.45455,0,0.00043881,4385,0.00014795,37.58,0.00014293,-0.17426,-0.00043816,-4366.2,0.24131
20537,5.6519,0.54545,0.05,6.5175e-07,6.513,5.0047e-07,3.7603,-2.5162e-11,-0.00018333,-5.0046e-07,-3.7603,0.24187
20538,5.9271,0.54545,0,0.00044022,4399.2,0.00014681,18.273,0.00014434,-0.28974,-0.00043991,-4390.2,0.26675
20539,5.8354,0.45455,0,0.00043951,4392.1,0.00014716,25.295,0.00014377,-0.1713,-0.00043908,-4379.5,0.25779
20540,5.8354,0.54545,0.05,4.3838e-07,4.3808,3.3664e-07,2.5292,-3.494e-11,-0.00040699,-3.3661e-07,-2.5292,0.25836
20541,6.1106,0.54545,0,0.00043868,4383.7,0.00014547,8.1626,0.00014432,-0.49086,-0.00043855,-4379.9,0.28367
20542,6.0189,0.45455,0,0.00043884,4385.4,0.00014608,15.048,0.00014406,-0.19833,-0.00043859,-4377.9,0.27457
20543,6.0189,0.54545,0.05,3.7456e-07,3.743,2.8763e-07,2.161,-3.1329e-11,-0.00032819,-2.876e-07,-2.161,0.27513
20544,6.2941,0.54545,0,0.00043623,4359.3,0.00014419,1.4705,0.00014371,-2.1338,-0.00043624,-4359.6,0.30089
20545,6.2024,0.45455,0,0.00043708,4367.8,0.00014482,6.7597,0.00014388,-0.3229,-0.00043697,-4364.6,0.29165
20546,6.2024,0.54545,0.05,4.2913e-07,4.2883,3.2951e-07,2.4757,-1.2942e-11,-0.00021194,-3.2952e-07,-2.4759,0.29221
20547,6.4776,0.54545,0,0.00043309,4327.9,0.00014332,0.33367,0.00014227,-7.5705,-0.00043321,-4331.5,0.31841
20548,6.3858,0.45455,0,0.00043448,4341.8,0.00014355,1.1678,0.0001432,-1.4667,-0.00043449,-4342,0.30902
20549,6.3858,0.54545,0.05,5.2182e-07,5.2146,4.0069e-07,3.0105,-1.8113e-13,-8.5675e-05,-4.007e-07,-3.0108,0.30957
20550,6.6611,0.54545,0,0.00042942,4291.2,0.00014234,0.1668,0.00014066,-12.439,-0.00042962,-4297.3,0.33621
20551,6.5693,0.45455,0,0.00043122,4309.3,0.00014261,0.24722,0.00014181,-5.8046,-0.00043132,-4312,0.32669
20552,6.5693,0.54545,0.05,6.1224e-07,6.1182,4.7011e-07,3.5322,3.4117e-12,-4.8303e-05,-4.7013e-07,-3.5325,0.32723
20553,6.8445,0.54545,0,0.00042533,4250.4,0.00014116,0.10726,0.00013901,-16.093,-0.0004256,-4258.3,0.3543
20554,6.7528,0.45455,0,0.00042746,4271.6,0.00014155,0.13052,0.00014025,-9.6689,-0.00042762,-4276.4,0.34464
20555,6.7528,0.54545,0.05,6.8948e-07,6.89,5.2942e-07,3.9777,6.2862e-12,-4.8814e-05,-5.2944e-07,-3.9782,0.34518
20556,7.028,0.54545,0,0.00042093,4206.4,0.00013984,0.077508,0.00013734,-18.66,-0.00042125,-4215.7,0.37268
20557,6.9363,0.45455,0,0.00042331,4230.1,0.00014032,0.091139,0.00013864,-12.523,-0.00042352,-4236.3,0.36288
20558,6.9363,0.54545,0.05,7.5217e-07,7.5165,5.7756e-07,4.3395,1.0109e-11,-2.2983e-05,-5.7758e-07,-4.3398,0.36342
20559,7.2115,0.54545,0,0.0004163,4160.1,0.00013839,0.059828,0.00013568,-20.309,-0.00041664,-4170.2,0.39135
20560,7.1198,0.45455,0,0.00041886,4185.7,0.00013895,0.072054,0.00013701,-14.485,-0.0004191,-4192.9,0.38141
20561,7.1198,0.54545,0.05,8.0166e-07,8.0111,6.1557e-07,4.625,9.0251e-12,-2.391e-05,-6.1559e-07,-4.6254,0.38194
20562,7.395,0.54545,0,0.00041149,4112.1,0.00013685,0.048126,0.00013402,-21.199,-0.00041185,-4122.6,0.41029
20563,7.3032,0.45455,0,0.00041419,4139,0.00013746,0.060765,0.00013537,-15.699,-0.00041445,-4146.8,0.40021
20564,7.3032,0.54545,0.05,8.3997e-07,8.3939,6.4498e-07,4.846,9.745e-12,-1.8973e-05,-6.45e-07,-4.8464,0.40075
20565,7.5785,0.54545,0,0.00040656,4062.8,0.00013523,0.039783,0.00013237,-21.473,-0.00040692,-4073.4,0.42951
20566,7.4867,0.45455,0,0.00040935,4090.6,0.0001359,0.053101,0.00013372,-16.3,-0.00040962,-4098.7,0.4193
20567,7.4867,0.54545,0.05,8.6906e-07,8.6846,6.6732e-07,5.0139,1.0108e-11,-1.6207e-05,-6.6734e-07,-5.0143,0.41983
20568,7.7619,0.54545,0,0.00040153,4012.5,0.00013356,0.033506,0.00013072,-21.257,-0.00040188,-4023.1,0.449
20569,7.6702,0.45455,0,0.00040438,4041,0.00013426,0.04734,0.00013207,-16.406,-0.00040466,-4049.2,0.43866
20570,7.6702,0.54545,0.05,8.907e-07,8.9009,6.8393e-07,5.1387,1.0221e-11,-1.1947e-05,-6.8397e-07,-5.1391,0.43919
20571,7.9454,0.54545,0,0.00039643,3961.6,0.00013185,0.028592,0.00012909,-20.656,-0.00039678,-3971.8,0.46877
20572,7.8537,0.45455,0,0.00039933,3990.5,0.00013258,0.042674,0.00013043,-16.121,-0.0003996,-3998.6,0.4583
20573,7.8537,0.54545,0.05,9.0639e-07,9.0576,6.9598e-07,5.2292,1.0724e-11,-1.1794e-05,-6.9601e-07,-5.2296,0.45882
20574,8.1289,0.54545,0,0.00039128,3910.1,0.0001301,0.024626,0.00012747,-19.761,-0.00039162,-3920,0.4888
20575,8.0372,0.45455,0,0.00039421,3939.4,0.00013086,0.038696,0.00012879,-15.531,-0.00039447,-3947.1,0.4782
20576,8.0372,0.54545,0.05,9.1735e-07,9.1671,7.044e-07,5.2925,9.2636e-12,-1.0988e-05,-7.0442e-07,-5.2928,0.47872
20577,8.3124,0.54545,0,0.00038611,3858.4,0.00012834,0.02135,0.00012586,-18.647,-0.00038642,-3867.7,0.5091
20578,8.2206,0.45455,0,0.00038905,3887.8,0.00012912,0.035183,0.00012716,-14.708,-0.0003893,-3895.2,0.49837
20579,8.2206,0.54545,0.05,9.2459e-07,9.2395,7.0995e-07,5.3343,1.1e-11,-9.1339e-06,-7.0999e-07,-5.3346,0.49888
20580,8.4959,0.54545,0,0.00038092,3806.5,0.00012656,0.018594,0.00012425,-17.376,-0.00038121,-3815.2,0.52965
20581,8.4041,0.45455,0,0.00038386,3836,0.00012736,0.032009,0.00012553,-13.715,-0.00038409,-3842.8,0.5188
20582,8.4041,0.54545,0.05,9.2893e-07,9.2829,7.1329e-07,5.3593,1.1369e-11,-7.8528e-06,-7.1331e-07,-5.3597,0.51931
20583,8.6794,0.54545,0,0.00037572,3754.6,0.00012478,0.016244,0.00012265,-15.998,-0.00037598,-3762.5,0.55046
20584,8.5876,0.45455,0,0.00037866,3783.9,0.00012558,0.029104,0.0001239,-12.601,-0.00037887,-3790.2,0.53949
20585,8.5876,0.54545,0.05,9.3101e-07,9.3037,7.1489e-07,5.3713,1.3332e-11,-6.7296e-06,-7.1492e-07,-5.3717,0.53999
20586,8.8628,0.54545,0,0.00037051,3702.6,0.00012299,0.014218,0.00012105,-14.555,-0.00037076,-3709.8,0.57153
20587,8.7711,0.45455,0,0.00037344,3731.8,0.0001238,0.026422,0.00012228,-11.406,-0.00037363,-3737.5,0.56043
20588,8.7711,0.54545,0.05,9.3136e-07,9.3071,7.1515e-07,5.3733,1.1599e-11,-5.6475e-06,-7.1518e-07,-5.3737,0.56093
20589,9.0463,0.54545,0,0.00036531,3650.6,0.0001212,0.012454,0.00011946,-13.079,-0.00036553,-3657.1,0.59284
20590,8.9546,0.45455,0,0.00036823,3679.7,0.00012202,0.023933,0.00012066,-10.163,-0.0003684,-3684.8,0.58163
20591,8.9546,0.54545,0.05,9.3037e-07,9.2973,7.144e-07,5.3676,9.884e-12,-5.1052e-06,-7.1443e-07,-5.368,0.58212
20592,9.2298,0.54545,0,0.00036012,3598.7,0.00011941,0.010909,0.00011787,-11.596,-0.00036031,-3604.4,0.6144
20593,9.1381,0.45455,0,0.00036302,3627.7,0.00012024,0.021618,0.00011905,-8.8985,-0.00036317,-3632.1,0.60307
20594,9.1381,0.54545,0.05,9.2838e-07,9.2774,7.1287e-07,5.3562,1.0995e-11,-3.3618e-06,-7.129e-07,-5.3565,0.60356
20595,9.4133,0.54545,0,0.00035493,3546.9,0.00011763,0.0095487,0.00011628,-10.125,-0.0003551,-3551.9,0.6362
20596,9.3215,0.45455,0,0.00035781,3575.7,0.00011846,0.019463,0.00011744,-7.6321,-0.00035794,-3579.5,0.62476
20597,9.3215,0.54545,0.05,9.2564e-07,9.25,7.1077e-07,5.3403,1.0223e-11,-4.3737e-06,-7.1079e-07,-5.3407,0.62524
20598,9.5968,0.54545,0,0.00034976,3495.2,0.00011585,0.0083507,0.00011469,-8.6831,-0.00034991,-3499.5,0.65824
20599,9.505,0.45455,0,0.00035262,3523.8,0.00011668,0.017456,0.00011583,-6.3798,-0.00035273,-3527,0.64669
20600,9.505,0.54545,0.05,9.2235e-07,9.2171,7.0824e-07,5.3213,1.0272e-11,-4.056e-06,-7.0826e-07,-5.3217,0.64716
20601,9.7802,0.54545,0,0.0003446,3443.6,0.00011408,0.0072926,0.00011311,-7.2802,-0.00034472,-3447.3,0.68052
20602,9.6885,0.45455,0,0.00034744,3472,0.00011491,0.01559,0.00011422,-5.1533,-0.00034753,-3474.6,0.66885
20603,9.6885,0.54545,0.05,9.1865e-07,9.1801,7.054e-07,5.3,1.0337e-11,-2.0344e-06,-7.0542e-07,-5.3003,0.66932
20604,9.9637,0.54545,0,0.00033946,3392.2,0.00011232,0.0063681,0.00011153,-5.9245,-0.00033956,-3395.2,0.70303
20605,9.872,0.45455,0,0.00034228,3420.4,0.00011315,0.013847,0.00011262,-3.9613,-0.00034235,-3422.4,0.69125
20606,9.872,0.54545,0.05,9.1467e-07,9.1404,7.0234e-07,5.277,1.0464e-11,-3.1548e-07,-7.0236e-07,-5.2774,0.69171
20607,10.147,0.54545,0,0.00033433,3341,0.00011056,0.0055787,0.00010994,-4.6215,-0.00033441,-3343.3,0.72576
20608,10.055,0.45455,0,0.00033713,3369,0.00011139,0.01224,0.00011102,-2.8101,-0.00033718,-3370.4,0.71388
20609,10.055,0.54545,0.05,9.1049e-07,9.0986,6.9914e-07,5.253,1.0495e-11,-5.0986e-07,-6.9915e-07,-5.2532,0.71434
20610,10.331,0.54545,0,0.00032922,3289.9,0.00010881,0.0049226,0.00010836,-3.3746,-0.00032928,-3291.6,0.74872
20611,10.239,0.45455,0,0.000332,3317.7,0.00010965,0.010749,0.00010942,-1.7037,-0.00033203,-3318.6,0.73673
20612,10.239,0.54545,0.05,9.062e-07,9.0557,6.9584e-07,5.2282,9.6299e-12,-3.3905e-07,-6.9586e-07,-5.2285,0.73718
20613,10.514,0.54545,0,0.00032413,3239.1,0.00010707,0.0044969,0.00010678,-2.1857,-0.00032417,-3240.1,0.7719
20614,10.422,0.45455,0,0.00032689,3266.6,0.00010791,0.0093615,0.00010782,-0.64459,-0.0003269,-3266.9,0.75981
20615,10.422,0.54545,0.05,9.0183e-07,9.0121,6.9248e-07,5.203,1.0586e-11,5.9032e-07,-6.9251e-07,-5.2032,0.76026
20616,10.698,0.54545,0,0.00031905,3188.3,0.00010534,0.0048107,0.0001052,-1.0557,-0.00031907,-3188.9,0.7953
20617,10.606,0.45455,0,0.00032179,3215.7,0.00010622,0.3664,0.00010617,0.0078762,-0.00032179,-3215.5,0.78311
20618,10.606,0.54545,0.05,8.9742e-07,8.968,6.891e-07,5.1775,8.8208e-12,1.0509e-06,-6.8912e-07,-5.1778,0.78355
20619,10.881,0.54545,0,0.000314,3137.8,0.00010363,0.056537,0.00010361,-0.034721,-0.000314,-3137.8,0.81892
20620,10.789,0.45455,0,0.00031672,3165,0.00010463,1.3285,0.00010445,0.0067586,-0.00031669,-3164.3,0.80662
20621,10.789,0.54545,0.05,8.9301e-07,8.9239,6.8571e-07,5.1521,7.9316e-12,1.4714e-06,-6.8573e-07,-5.1524,0.80705
20622,11.065,0.54545,0,0.00030896,3087.5,0.00010204,1.0383,0.00010191,-0.00015954,-0.00030894,-3086.9,0.84274
20623,10.973,0.45455,0,0.00031166,3114.4,0.00010303,2.2428,0.00010274,0.005679,-0.00031162,-3113.3,0.83034
20624,10.973,0.54545,0.05,8.8862e-07,8.88,6.8234e-07,5.1267,8.8904e-12,7.8696e-07,-6.8236e-07,-5.127,0.83077
20625,11.248,0.54545,0,0.00030394,3037.3,0.00010047,1.9995,0.0001002,0.00024879,-0.00030391,-3036.3,0.86677
20626,11.156,0.45455,0,0.00030662,3064.1,0.00010144,3.1103,0.00010103,0.0046256,-0.00030657,-3062.5,0.85428
20627,11.156,0.54545,0.05,8.8426e-07,8.8365,6.79e-07,5.1016,9.8285e-12,-1.4579e-06,-6.7901e-07,-5.1019,0.8547
20628,11.432,0.54545,0,0.00029894,2987.3,9.8893e-05,2.909,9.8506e-05,0.00010632,-0.00029889,-2985.9,0.89101
20629,11.34,0.45455,0,0.0003016,3013.9,9.9857e-05,3.9327,9.9334e-05,0.0036437,-0.00030153,-3012,0.87842
20630,11.34,0.54545,0.05,8.7994e-07,8.7933,6.7567e-07,5.0767,9.8551e-12,-1.9144e-06,-6.757e-07,-5.077,0.87884
20631,11.615,0.54545,0,0.00029396,2937.5,9.7321e-05,3.7688,9.6819e-05,-0.00015007,-0.00029389,-2935.7,0.91544
20632,11.523,0.45455,0,0.0002966,2964,9.8272e-05,4.712,9.7646e-05,0.0027804,-0.00029652,-2961.6,0.90276
20633,11.523,0.54545,0.05,8.7567e-07,8.7506,6.724e-07,5.0521,8.9804e-12,-6.6537e-07,-6.7241e-07,-5.0523,0.90317
20634,11.799,0.54545,0,0.00028899,2887.9,9.5751e-05,4.5814,9.5141e-05,-0.00045262,-0.00028892,-2885.6,0.94008
20635,11.707,0.45455,0,0.00029162,2914.2,9.6691e-05,5.4502,9.5965e-05,0.00194,-0.00029153,-2911.5,0.9273
20636,11.707,0.54545,0.05,8.7146e-07,8.7085,6.6916e-07,5.0277,1.0795e-11,9.9471e-07,-6.6917e-07,-5.028,0.92771
20637,11.982,0.54545,0,0.00028405,2838.5,9.4183e-05,5.3497,9.3471e-05,-0.00074911,-0.00028396,-2835.9,0.9649
20638,11.89,0.45455,0,0.00028666,2864.6,9.5112e-05,6.1498,9.4294e-05,0.0011658,-0.00028656,-2861.6,0.95204
20639,11.89,0.54545,0.05,8.6729e-07,8.6669,6.6596e-07,5.0037,9.0104e-12,3.2364e-06,-6.6598e-07,-5.004,0.95244
20640,12.165,0.54545,0,0.00027912,2789.3,9.2619e-05,6.0764,9.181e-05,-0.0010475,-0.00027902,-2786.3,0.98992
20641,12.074,0.45455,0,0.00028172,2815.3,9.3537e-05,6.8131,9.263e-05,0.00045223,-0.0002816,-2811.8,0.97697
20642,12.074,0.54545,0.05,8.6318e-07,8.6259,6.6281e-07,4.98,9.0169e-12,3.1258e-06,-6.6282e-07,-4.9803,0.97736
20643,12.349,0.54545,0,0.00027422,2740.3,9.1057e-05,6.7645,9.0156e-05,-0.0013381,-0.0002741,-2736.9,1.0151
20644,12.257,0.45455,0,0.0002768,2766.1,9.1965e-05,7.4423,9.0975e-05,-0.00024164,-0.00027667,-2762.4,1.0021
20645,12.257,0.54545,0.05,8.5912e-07,8.5853,6.5969e-07,4.9566,7.2206e-12,3.1388e-06,-6.5971e-07,-4.9568,1.0025
20646,12.532,0.54545,0,0.00026933,2691.5,8.9499e-05,7.4167,8.8511e-05,-0.0015992,-0.0002692,-2687.7,1.0405
20647,12.441,0.45455,0,0.0002719,2717.1,9.0398e-05,8.0402,8.9327e-05,-0.00087169,-0.00027176,-2713.1,1.0274
20648,12.441,0.54545,0.05,8.5511e-07,8.5452,6.5661e-07,4.9334,8.1522e-12,3.0716e-06,-6.5662e-07,-4.9337,1.0278
20649,12.716,0.54545,0,0.00026446,2642.8,8.7944e-05,8.0357,8.6874e-05,-0.0018291,-0.00026433,-2638.8,1.0661
20650,12.624,0.45455,0,0.00026702,2668.3,8.8834e-05,8.6089,8.7688e-05,-0.0014468,-0.00026687,-2664,1.0529
20651,12.624,0.54545,0.05,8.5114e-07,8.5056,6.5357e-07,4.9106,8.1656e-12,1.0511e-06,-6.5358e-07,-4.9108,1.0533
20652,12.899,0.54545,0,0.00025961,2594.4,8.6393e-05,8.6244,8.5245e-05,-0.0020536,-0.00025947,-2590,1.0918
20653,12.808,0.45455,0,0.00026215,2619.7,8.7275e-05,9.1508,8.6056e-05,-0.0019652,-0.000262,-2615.1,1.0785
20654,12.808,0.54545,0.05,8.4723e-07,8.4665,6.5056e-07,4.888,7.2641e-12,7.7611e-07,-6.5058e-07,-4.8883,1.0789
20655,13.083,0.54545,0,0.00025479,2546.1,8.4847e-05,9.1852,8.3624e-05,-0.0022849,-0.00025463,-2541.5,1.1177
20656,12.991,0.45455,0,0.00025731,2571.3,8.572e-05,9.6681,8.4433e-05,-0.0024867,-0.00025714,-2566.5,1.1044
20657,12.991,0.54545,0.05,8.4337e-07,8.4279,6.476e-07,4.8658,9.0926e-12,1.5898e-06,-6.4761e-07,-4.866,1.1047
20658,13.266,0.54545,0,0.00024998,2498,8.3304e-05,9.7206,8.201e-05,-0.0024823,-0.00024981,-2493.2,1.1438
20659,13.175,0.45455,0,0.00025249,2523.1,8.4169e-05,10.163,8.2816e-05,-0.0029773,-0.00025231,-2518,1.1304
20660,13.175,0.54545,0.05,8.3955e-07,8.3897,6.4466e-07,4.8437,8.1932e-12,2.521e-06,-6.4468e-07,-4.8439,1.1307
20661,13.45,0.54545,0,0.00024519,2450.2,8.1766e-05,10.233,8.0404e-05,-0.002664,-0.00024501,-2445,1.1701
20662,13.358,0.45455,0,0.00024768,2475.1,8.2624e-05,10.638,8.1208e-05,-0.003397,-0.0002475,-2469.8,1.1566
20663,13.358,0.54545,0.05,8.3577e-07,8.3519,6.4176e-07,4.8219,7.2919e-12,3.7876e-06,-6.4178e-07,-4.8221,1.1569
20664,13.633,0.54545,0,0.00024042,2402.5,8.0233e-05,10.725,7.8805e-05,-0.0028488,-0.00024023,-2397.1,1.1965
20665,13.542,0.45455,0,0.0002429,2427.3,8.1084e-05,11.094,7.9606e-05,-0.0038246,-0.00024271,-2421.8,1.1829
20666,13.542,0.54545,0.05,8.3204e-07,8.3146,6.3889e-07,4.8003,8.2097e-12,4.9838e-06,-6.3891e-07,-4.8006,1.1833
20667,13.817,0.54545,0,0.00023566,2355,7.8704e-05,11.199,7.7214e-05,-0.0030172,-0.00023547,-2349.4,1.2231
20668,13.725,0.45455,0,0.00023814,2379.7,7.9548e-05,11.534,7.8013e-05,-0.0042222,-0.00023794,-2373.9,1.2094
20669,13.725,0.54545,0.05,8.2834e-07,8.2777,6.3605e-07,4.779,7.3012e-12,4.7911e-06,-6.3607e-07,-4.7792,1.2098
20670,14,0.54545,0,0.00023093,2307.7,7.7181e-05,11.656,7.5629e-05,-0.0031897,-0.00023073,-2301.9,1.2498
20671,13.909,0.45455,0,0.00023339,2332.3,7.8018e-05,11.96,7.6426e-05,-0.004593,-0.00023319,-2326.3,1.2361
20672,13.909,0.54545,0.05,8.2468e-07,8.2411,6.3324e-07,4.7579,7.3068e-12,6.3127e-06,-6.3326e-07,-4.7581,1.2364
20673,14.184,0.54545,0,0.00022622,2260.6,7.5663e-05,12.099,7.4052e-05,-0.0033505,-0.00022601,-2254.6,1.2767
20674,14.092,0.45455,0,0.00022867,2285.1,7.6494e-05,12.373,7.4846e-05,-0.0049751,-0.00022846,-2278.9,1.2629
20675,14.092,0.54545,0.05,8.2105e-07,8.2048,6.3046e-07,4.7369,7.3072e-12,5.5867e-06,-6.3047e-07,-4.7371,1.2632
20676,14.367,0.54545,0,0.00022153,2213.8,7.4151e-05,12.53,7.2483e-05,-0.003485,-0.00022131,-2207.5,1.3038
20677,14.276,0.45455,0,0.00022396,2238.1,7.4975e-05,12.776,7.3274e-05,-0.0053044,-0.00022374,-2231.7,1.2899
20678,14.276,0.54545,0.05,8.1744e-07,8.1688,6.2769e-07,4.7162,7.3173e-12,4.7934e-06,-6.277e-07,-4.7164,1.2902
20679,14.551,0.54545,0,0.00021686,2167.1,7.2644e-05,12.951,7.092e-05,-0.003631,-0.00021663,-2160.6,1.331
20680,14.459,0.45455,0,0.00021928,2191.3,7.3462e-05,13.169,7.1709e-05,-0.0056191,-0.00021905,-2184.7,1.317
20681,14.459,0.54545,0.05,8.1388e-07,8.1332,6.2495e-07,4.6956,6.4255e-12,6.1091e-06,-6.2497e-07,-4.6958,1.3173
20682,14.734,0.54545,0,0.0002122,2120.6,7.1143e-05,13.363,6.9364e-05,-0.0037811,-0.00021197,-2113.9,1.3583
20683,14.642,0.45455,0,0.00021462,2144.7,7.1955e-05,13.554,7.015e-05,-0.0059559,-0.00021438,-2137.9,1.3443
20684,14.642,0.54545,0.05,8.1035e-07,8.0979,6.2224e-07,4.6752,7.3327e-12,5.3918e-06,-6.2225e-07,-4.6754,1.3446
20685,14.918,0.54545,0,0.00020757,2074.3,6.9648e-05,13.769,6.7815e-05,-0.003914,-0.00020733,-2067.4,1.3858
20686,14.826,0.45455,0,0.00020997,2098.3,7.0454e-05,13.934,6.8599e-05,-0.0062666,-0.00020973,-2091.3,1.3717
20687,14.826,0.54545,0.05,8.0684e-07,8.0628,6.1954e-07,4.655,5.52e-12,4.0696e-06,-6.1956e-07,-4.6552,1.372
20688,15.101,0.54545,0,0.00020296,2028.2,6.8159e-05,14.169,6.6273e-05,-0.0040325,-0.00020271,-2021.1,1.4134
20689,15.009,0.45455,0,0.00020535,2052,6.8959e-05,14.309,6.7054e-05,-0.0065594,-0.0002051,-2044.9,1.3993
20690,15.009,0.54545,0.05,8.0336e-07,8.028,6.1687e-07,4.6349,7.351e-12,2.431e-06,-6.1688e-07,-4.6351,1.3996
20691,15.285,0.54545,0,0.00019836,1982.3,6.6676e-05,14.566,6.4737e-05,-0.0041526,-0.00019811,-1975,1.4412
20692,15.193,0.45455,0,0.00020074,2006,6.7471e-05,14.681,6.5516e-05,-0.0068339,-0.00020049,-1998.7,1.427
20693,15.193,0.54545,0.05,7.9991e-07,7.9935,6.1422e-07,4.615,7.3561e-12,3.1891e-06,-6.1424e-07,-4.6152,1.4273
20694,15.468,0.54545,0,0.00019379,1936.6,6.52e-05,14.962,6.3208e-05,-0.0042811,-0.00019353,-1929,1.4691
20695,15.376,0.45455,0,0.00019616,1960.2,6.5988e-05,15.051,6.3984e-05,-0.0071263,-0.0001959,-1952.7,1.4548
20696,15.376,0.54545,0.05,7.9649e-07,7.9594,6.116e-07,4.5953,7.353e-12,8.8147e-06,-6.1161e-07,-4.5954,1.4551
20697,15.652,0.54545,0,0.00018924,1891.1,6.373e-05,15.357,6.1686e-05,-0.0044051,-0.00018897,-1883.3,1.4971
20698,15.56,0.45455,0,0.00019159,1914.6,6.4513e-05,15.42,6.246e-05,-0.0074131,-0.00019133,-1906.8,1.4828
20699,15.56,0.54545,0.05,7.931e-07,7.9255,6.0899e-07,4.5757,7.346e-12,9.603e-06,-6.0901e-07,-4.5759,1.483
20700,15.835,0.54545,0,0.0001847,1845.8,6.2267e-05,15.754,6.017e-05,-0.0045366,-0.00018443,-1837.8,1.5252
20701,15.743,0.45455,0,0.00018705,1869.2,6.3044e-05,15.791,6.0941e-05,-0.0076944,-0.00018677,-1861.2,1.5109
20702,15.743,0.54545,0.05,7.8974e-07,7.8919,6.0641e-07,4.5563,7.3385e-12,1.652e-06,-6.0642e-07,-4.5565,1.5111
20703,16.019,0.54545,0,0.00018019,1800.7,6.0811e-05,16.153,5.866e-05,-0.0046639,-0.00017991,-1792.5,1.5535
20704,15.927,0.45455,0,0.00018252,1824,6.1582e-05,16.164,5.9429e-05,-0.0080003,-0.00018224,-1815.8,1.5391
20705,15.927,0.54545,0.05,7.864e-07,7.8586,6.0385e-07,4.537,5.5341e-12,-4.346e-07,-6.0386e-07,-4.5372,1.5393
20706,16.202,0.54545,0,0.0001757,1755.8,5.9362e-05,16.557,5.7157e-05,-0.0047796,-0.00017541,-1747.4,1.5819
20707,16.11,0.45455,0,0.00017802,1779,6.0127e-05,16.541,5.7924e-05,-0.0082792,-0.00017773,-1770.6,1.5674
20708,16.11,0.54545,0.05,7.8309e-07,7.8254,6.0131e-07,4.5179,5.5403e-12,2.3626e-06,-6.0132e-07,-4.5181,1.5677
20709,16.386,0.54545,0,0.00017122,1711,5.7919e-05,16.967,5.566e-05,-0.0049114,-0.00017093,-1702.5,1.6104
20710,16.294,0.45455,0,0.00017353,1734.1,5.8678e-05,16.923,5.6425e-05,-0.0085656,-0.00017324,-1725.6,1.5959
20711,16.294,0.54545,0.05,7.7981e-07,7.7927,5.9879e-07,4.499,5.5192e-12,3.9632e-06,-5.988e-07,-4.4992,1.5961
20712,16.569,0.54545,0,0.00016677,1666.5,5.6484e-05,17.385,5.417e-05,-0.005052,-0.00016647,-1657.8,1.639
20713,16.477,0.45455,0,0.00016907,1689.5,5.7237e-05,17.311,5.4932e-05,-0.0088848,-0.00016877,-1680.8,1.6244
20714,16.477,0.54545,0.05,7.7656e-07,7.7602,5.963e-07,4.4803,5.5355e-12,4.3353e-06,-5.9631e-07,-4.4804,1.6247
20715,16.753,0.54545,0,0.00016233,1622.2,5.5057e-05,17.812,5.2685e-05,-0.0051861,-0.00016202,-1613.3,1.6677
20716,16.661,0.45455,0,0.00016462,1645.1,5.5803e-05,17.706,5.3445e-05,-0.0091992,-0.00016431,-1636.2,1.6531
20717,16.661,0.54545,0.05,7.7334e-07,7.728,5.9382e-07,4.4617,5.524e-12,4.5417e-06,-5.9383e-07,-4.4619,1.6533
20718,16.936,0.54545,0,0.00015792,1578.1,5.3636e-05,18.249,5.1207e-05,-0.0053175,-0.0001576,-1568.9,1.6966
20719,16.844,0.45455,0,0.0001602,1600.9,5.4377e-05,18.11,5.1965e-05,-0.0095191,-0.00015988,-1591.7,1.6819
20720,16.844,0.54545,0.05,7.7015e-07,7.6961,5.9137e-07,4.4433,5.0722e-12,5.0513e-06,-5.9138e-07,-4.4434,1.6821
20721,17.119,0.54545,0,0.00015353,1534.2,5.2224e-05,18.698,4.9734e-05,-0.0054579,-0.0001532,-1524.8,1.7255
20722,17.028,0.45455,0,0.00015579,1556.9,5.2957e-05,18.525,5.049e-05,-0.0098405,-0.00015547,-1547.5,1.7108
20723,17.028,0.54545,0.05,7.6699e-07,7.6646,5.8895e-07,4.4251,4.6529e-12,3.5823e-06,-5.8896e-07,-4.4252,1.711
20724,17.303,0.54545,0,0.00014915,1490.5,5.0819e-05,19.161,4.8268e-05,-0.0056103,-0.00014882,-1480.8,1.7546
20725,17.211,0.45455,0,0.00015141,1513,5.1545e-05,18.95,4.9022e-05,-0.010195,-0.00015108,-1503.5,1.7398
20726,17.211,0.54545,0.05,7.6388e-07,7.6335,5.8656e-07,4.4071,4.1885e-12,2.6402e-06,-5.8656e-07,-4.4073,1.74
20727,17.486,0.54545,0,0.0001448,1447,4.9422e-05,19.639,4.6807e-05,-0.0057654,-0.00014446,-1437.1,1.7837
20728,17.395,0.45455,0,0.00014704,1469.4,5.0141e-05,19.388,4.7559e-05,-0.010565,-0.0001467,-1459.6,1.7689
20729,17.395,0.54545,0.05,7.6079e-07,7.6027,5.8419e-07,4.3893,4.231e-12,5.3907e-07,-5.842e-07,-4.3895,1.7691
20730,17.67,0.54545,0,0.00014046,1403.7,4.8032e-05,20.134,4.5352e-05,-0.0059359,-0.00014011,-1393.5,1.8129
20731,17.578,0.45455,0,0.0001427,1426,4.8745e-05,19.84,4.6103e-05,-0.010948,-0.00014235,-1416,1.7981
20732,17.578,0.54545,0.05,7.5775e-07,7.5723,5.8186e-07,4.3718,3.7609e-12,1.7124e-06,-5.8186e-07,-4.3719,1.7983
20733,17.853,0.54545,0,0.00013615,1360.6,4.6651e-05,20.647,4.3903e-05,-0.0061158,-0.00013579,-1350.1,1.8423
20734,17.762,0.45455,0,0.00013837,1382.7,4.7356e-05,20.307,4.4651e-05,-0.011375,-0.00013801,-1372.5,1.8274
20735,17.762,0.54545,0.05,7.5475e-07,7.5423,5.7955e-07,4.3545,3.7928e-12,4.5413e-06,-5.7956e-07,-4.3546,1.8276
20736,18.037,0.54545,0,0.00013186,1317.7,4.5278e-05,21.18,4.2459e-05,-0.0062945,-0.00013148,-1306.9,1.8717
20737,17.945,0.45455,0,0.00013406,1339.7,4.5975e-05,20.791,4.3206e-05,-0.011805,-0.0001337,-1329.2,1.8568
20738,17.945,0.54545,0.05,7.5179e-07,7.5127,5.7728e-07,4.3374,3.3249e-12,6.1823e-06,-5.7728e-07,-4.3375,1.857
20739,18.22,0.54545,0,0.00012758,1274.9,4.3914e-05,21.735,4.102e-05,-0.0064916,-0.0001272,-1263.9,1.9012
20740,18.129,0.45455,0,0.00012978,1296.9,4.4602e-05,21.292,4.1766e-05,-0.012266,-0.0001294,-1286.1,1.8862
20741,18.129,0.54545,0.05,7.4888e-07,7.4836,5.7504e-07,4.3206,3.8247e-12,-1.4445e-06,-5.7505e-07,-4.3207,1.8864
20742,18.404,0.54545,0,0.00012333,1232.4,4.2557e-05,22.313,3.9587e-05,-0.0067049,-0.00012293,-1221.1,1.9308
20743,18.312,0.45455,0,0.00012551,1254.2,4.3236e-05,21.813,4.0332e-05,-0.012773,-0.00012512,-1243.2,1.9158
20744,18.312,0.54545,0.05,7.4602e-07,7.455,5.7285e-07,4.3041,3.3794e-12,2.0763e-06,-5.7286e-07,-4.3042,1.916
20745,18.587,0.54545,0,0.00011909,1190.1,4.121e-05,22.917,3.8159e-05,-0.0069245,-0.00011868,-1178.5,1.9605
20746,18.496,0.45455,0,0.00012126,1211.8,4.1879e-05,22.354,3.8903e-05,-0.013306,-0.00012087,-1200.4,1.9454
20747,18.496,0.54545,0.05,7.4321e-07,7.427,5.7069e-07,4.2879,2.9647e-12,4.6496e-06,-5.707e-07,-4.288,1.9456
20748,18.771,0.54545,0,0.00011488,1148,3.9871e-05,23.548,3.6736e-05,-0.0071506,-0.00011446,-1136,1.9902
20749,18.679,0.45455,0,0.00011703,1169.5,4.0531e-05,22.917,3.7479e-05,-0.01387,-0.00011663,-1157.9,1.9752
20750,18.679,0.54545,0.05,7.4046e-07,7.3995,5.6858e-07,4.272,3.3801e-12,8.5866e-06,-5.6858e-07,-4.2721,1.9753
20751,18.954,0.54545,0,0.00011068,1106,3.8541e-05,24.207,3.5318e-05,-0.0073935,-0.00011025,-1093.7,2.0201
20752,18.863,0.45455,0,0.00011282,1127.4,3.919e-05,23.503,3.606e-05,-0.01447,-0.0001124,-1115.5,2.005
20753,18.863,0.54545,0.05,7.3777e-07,7.3726,5.6651e-07,4.2565,2.0607e-12,4.4135e-06,-5.6652e-07,-4.2566,2.0051
20754,19.138,0.54545,0,0.0001065,1064.3,3.7219e-05,24.898,3.3904e-05,-0.0076569,-0.00010606,-1051.6,2.05
20755,19.046,0.45455,0,0.00010863,1085.6,3.7857e-05,24.113,3.4646e-05,-0.015126,-0.0001082,-1073.3,2.0348
20756,19.046,0.54545,0.05,7.3515e-07,7.3464,5.645e-07,4.2414,2.9494e-12,3.8959e-06,-5.645e-07,-4.2415,2.035
20757,19.321,0.54545,0,0.00010234,1022.7,3.5907e-05,25.621,3.2496e-05,-0.0079335,-0.00010188,-1009.7,2.0799
20758,19.229,0.45455,0,0.00010446,1043.9,3.6533e-05,24.75,3.3237e-05,-0.01583,-0.00010402,-1031.3,2.0648
20759,19.229,0.54545,0.05,7.3259e-07,7.3209,5.6254e-07,4.2267,2.9907e-12,2.8561e-06,-5.6254e-07,-4.2267,2.0649
20760,19.505,0.54545,0,9.8206e-05,981.38,3.4604e-05,26.379,3.1092e-05,-0.0082313,-9.773e-05,-967.93,2.11
20761,19.413,0.45455,0,0.00010031,1002.4,3.5218e-05,25.414,3.1833e-05,-0.016583,-9.985e-05,-989.43,2.0948
20762,19.413,0.54545,0.05,7.3012e-07,7.2961,5.6064e-07,4.2124,2.0803e-12,6.6194e-06,-5.6064e-07,-4.2125,2.0949
20763,19.688,0.54545,0,9.4086e-05,940.21,3.331e-05,27.174,2.9692e-05,-0.0085451,-9.3594e-05,-926.33,2.1401
20764,19.596,0.45455,0,9.6172e-05,961.06,3.391e-05,26.107,3.0433e-05,-0.017408,-9.5702e-05,-947.75,2.1249
20765,19.596,0.54545,0.05,7.2772e-07,7.2722,5.588e-07,4.1986,2.0995e-12,7.0662e-06,-5.588e-07,-4.1986,2.125
20766,19.872,0.54545,0,8.9985e-05,899.23,3.2025e-05,28.008,2.8296e-05,-0.0088676,-8.9476e-05,-884.91,2.1703
20767,19.78,0.45455,0,9.2056e-05,919.92,3.2612e-05,26.83,2.9038e-05,-0.01828,-9.157e-05,-906.22,2.155
20768,19.78,0.54545,0.05,7.2541e-07,7.2491,5.5702e-07,4.1852,2.6712e-12,9.9107e-06,-5.5703e-07,-4.1853,2.1551
20769,20.055,0.54545,0,8.5904e-05,858.44,3.075e-05,28.884,2.6905e-05,-0.0092121,-8.5376e-05,-843.64,2.2005
20770,19.963,0.45455,0,8.7958e-05,878.97,3.1321e-05,27.585,2.7647e-05,-0.019219,-8.7456e-05,-864.86,2.1852
20771,19.963,0.54545,0.05,7.2319e-07,7.227,5.5532e-07,4.1725,2.5825e-12,1.0962e-05,-5.5533e-07,-4.1725,2.1853
20772,20.239,0.54545,0,8.184e-05,817.84,2.9485e-05,29.804,2.5517e-05,-0.009576,-8.1293e-05,-802.54,2.2308
20773,20.147,0.45455,0,8.3878e-05,838.2,3.004e-05,28.374,2.6261e-05,-0.020243,-8.3359e-05,-823.66,2.2155
20774,20.147,0.54545,0.05,7.2108e-07,7.2058,5.537e-07,4.1602,2.4574e-12,1.1632e-05,-5.537e-07,-4.1603,2.2156
20775,20.422,0.54545,0,7.7796e-05,777.42,2.8229e-05,30.77,2.4133e-05,-0.0099463,-7.7227e-05,-761.59,2.2611
20776,20.33,0.45455,0,7.9816e-05,797.61,2.8767e-05,29.197,2.4878e-05,-0.021342,-7.9279e-05,-782.62,2.2458
20777,20.33,0.54545,0.05,7.1906e-07,7.1857,5.5215e-07,4.1486,2.4587e-12,1.1919e-05,-5.5215e-07,-4.1487,2.2459
20778,20.606,0.54545,0,7.377e-05,737.19,2.6984e-05,31.786,2.2752e-05,-0.01032,-7.3178e-05,-720.79,2.2915
20779,20.514,0.45455,0,7.5771e-05,757.19,2.7502e-05,30.056,2.3499e-05,-0.022515,-7.5215e-05,-741.72,2.2762
20780,20.514,0.54545,0.05,7.1716e-07,7.1667,5.5069e-07,4.1377,2.2337e-12,1.0956e-05,-5.5069e-07,-4.1377,2.2763
20781,20.789,0.54545,0,6.9763e-05,697.15,2.5748e-05,32.855,2.1374e-05,-0.010695,-6.9146e-05,-680.15,2.3219
20782,20.697,0.45455,0,7.1744e-05,716.95,2.6247e-05,30.954,2.2124e-05,-0.023775,-7.1168e-05,-700.98,2.3066
20783,20.697,0.54545,0.05,7.1538e-07,7.1489,5.4932e-07,4.1274,2.6556e-12,1.0104e-05,-5.4933e-07,-4.1274,2.3067
20784,20.973,0.54545,0,6.5775e-05,657.29,2.4524e-05,33.981,2e-05,-0.011068,-6.5131e-05,-639.65,2.3524
20785,20.881,0.45455,0,6.7734e-05,676.88,2.5e-05,31.892,2.0752e-05,-0.025132,-6.7136e-05,-660.38,2.337
20786,20.881,0.54545,0.05,7.1373e-07,7.1324,5.4805e-07,4.1179,2.0927e-12,1.3075e-05,-5.4806e-07,-4.1179,2.3371
20787,21.156,0.54545,0,6.1806e-05,617.63,2.331e-05,35.167,1.8628e-05,-0.011419,-6.1132e-05,-599.3,2.3829
20788,21.064,0.45455,0,6.3742e-05,636.98,2.3762e-05,32.872,1.9383e-05,-0.026583,-6.312e-05,-619.92,2.3675
20789,21.064,0.54545,0.05,7.1222e-07,7.1172,5.4689e-07,4.1091,2.0132e-12,1.4643e-05,-5.4689e-07,-4.1092,2.3676
20790,21.34,0.54545,0,5.7856e-05,578.16,2.2108e-05,36.421,1.7259e-05,-0.011729,-5.715e-05,-559.09,2.4135
20791,21.248,0.45455,0,5.9768e-05,597.27,2.2533e-05,33.898,1.8018e-05,-0.028125,-5.9119e-05,-579.61,2.3981
20792,21.248,0.54545,0.05,7.1085e-07,7.1036,5.4584e-07,4.1012,2.3799e-12,1.8902e-05,-5.4584e-07,-4.1013,2.3982
20793,21.523,0.54545,0,5.3927e-05,538.89,2.0918e-05,37.747,1.5892e-05,-0.011971,-5.3185e-05,-519.03,2.4441
20794,21.431,0.45455,0,5.5811e-05,557.73,2.1314e-05,34.972,1.6656e-05,-0.029766,-5.5134e-05,-539.43,2.4287
20795,21.431,0.54545,0.05,7.0963e-07,7.0914,5.4491e-07,4.0942,2.2157e-12,1.9809e-05,-5.4491e-07,-4.0943,2.4288
20796,21.706,0.54545,0,5.0019e-05,499.84,1.9741e-05,39.156,1.4528e-05,-0.012098,-4.9238e-05,-479.12,2.4747
20797,21.615,0.45455,0,5.1873e-05,518.37,2.0105e-05,36.099,1.5296e-05,-0.031481,-5.1165e-05,-499.4,2.4593
20798,21.615,0.54545,0.05,7.0859e-07,7.081,5.4411e-07,4.0882,1.917e-12,1.6778e-05,-5.4411e-07,-4.0882,2.4594
20799,21.89,0.54545,0,4.6134e-05,461.02,1.8578e-05,40.658,1.3165e-05,-0.012052,-4.5308e-05,-439.35,2.5054
20800,21.798,0.45455,0,4.7955e-05,479.22,1.8906e-05,37.285,1.3939e-05,-0.033261,-4.7212e-05,-459.5,2.4899
20801,21.798,0.54545,0.05,7.0773e-07,7.0724,5.4345e-07,4.0833,1.5813e-12,1.8322e-05,-5.4345e-07,-4.0833,2.49
20802,22.073,0.54545,0,4.2275e-05,422.46,1.7431e-05,42.269,1.1804e-05,-0.01174,-4.1397e-05,-399.74,2.5361
20803,21.982,0.45455,0,4.4057e-05,440.27,1.7719e-05,38.537,1.2585e-05,-0.035076,-4.3275e-05,-419.75,2.5206
20804,21.982,0.54545,0.05,7.0708e-07,7.0659,5.4295e-07,4.0795,1.519e-12,6.2919e-06,-5.4295e-07,-4.0795,2.5207
20805,22.257,0.54545,0,3.8446e-05,384.2,1.6303e-05,44.011,1.0444e-05,-0.011012,-3.7508e-05,-360.3,2.5668
20806,22.165,0.45455,0,4.0183e-05,401.55,1.6544e-05,39.867,1.1233e-05,-0.036855,-3.9356e-05,-380.15,2.5513
20807,22.165,0.54545,0.05,7.0667e-07,7.0618,5.4263e-07,4.0771,1.2767e-12,1.1174e-05,-5.4263e-07,-4.0771,2.5514
20808,22.44,0.54545,0,3.4653e-05,346.29,1.5197e-05,45.914,9.0847e-06,-0.0096298,-3.3643e-05,-321.05,2.5975
20809,22.349,0.45455,0,3.6335e-05,363.1,1.5384e-05,41.291,9.8837e-06,-0.038499,-3.5456e-05,-340.71,2.5821
20810,22.349,0.54545,0.05,7.0654e-07,7.0605,5.4253e-07,4.0764,1.2879e-12,1.6565e-05,-5.4253e-07,-4.0764,2.5821
20811,22.624,0.54545,0,3.0904e-05,308.83,1.4119e-05,48.025,7.726e-06,-0.0072825,-2.9806e-05,-282.01,2.6283
20812,22.532,0.45455,0,3.252e-05,324.97,1.4242e-05,42.834,8.5362e-06,-0.039788,-3.1579e-05,-301.45,2.6128
20813,22.532,0.54545,0.05,7.0677e-07,7.0629,5.4271e-07,4.0778,9.2224e-13,1.3897e-05,-5.4271e-07,-4.0777,2.6129
20814,22.807,0.54545,0,2.7214e-05,271.95,1.3077e-05,50.411,6.3668e-06,-0.0031478,-2.6003e-05,-243.22,2.6591
20815,22.716,0.45455,0,2.8745e-05,287.26,1.3123e-05,44.535,7.1905e-06,-0.040535,-2.7728e-05,-262.4,2.6436
20816,22.716,0.54545,0.05,7.075e-07,7.0701,5.4327e-07,4.0819,1.3259e-13,5.6897e-06,-5.4327e-07,-4.0819,2.6437
20817,22.991,0.54545,0,2.3605e-05,235.88,1.2083e-05,53.182,5.0056e-06,0.0030091,-2.2246e-05,-204.75,2.6899
20818,22.899,0.45455,0,2.5026e-05,250.09,1.2034e-05,46.456,5.8463e-06,-0.039593,-2.391e-05,-223.61,2.6744
20819,22.899,0.54545,0.05,7.0895e-07,7.0846,5.4439e-07,4.0903,2.7415e-13,9.6243e-06,-5.4439e-07,-4.0903,2.6745
20820,23.174,0.54545,0,2.0114e-05,201,1.1159e-05,56.51,3.6403e-06,0.016598,-1.8548e-05,-166.7,2.7207
20821,23.083,0.45455,0,2.1384e-05,213.7,1.0989e-05,48.698,4.5024e-06,-0.037923,-2.0135e-05,-185.16,2.7052
20822,23.083,0.54545,0.05,7.1155e-07,7.1106,5.4638e-07,4.1053,4.223e-13,9.1328e-06,-5.4638e-07,-4.1053,2.7053
20823,23.358,0.54545,0,1.6807e-05,167.95,1.0336e-05,60.67,2.2653e-06,0.027684,-1.4932e-05,-129.18,2.7515
20824,23.266,0.45455,0,1.7863e-05,178.51,1.0008e-05,51.446,3.1577e-06,-0.024782,-1.6423e-05,-147.14,2.736
20825,23.266,0.54545,0.05,7.1622e-07,7.1572,5.4996e-07,4.1322,1.5892e-13,5.3469e-06,-5.4996e-07,-4.1322,2.7361
20826,23.541,0.54545,0,1.3798e-05,137.89,9.6631e-06,66.116,8.7703e-07,0.10102,-1.143e-05,-92.368,2.7824
20827,23.45,0.45455,0,1.454e-05,145.3,9.1304e-06,55.008,1.8054e-06,-0.028324,-1.28e-05,-109.77,2.7669
20828,23.45,0.54545,0.05,7.2477e-07,7.2427,5.5653e-07,4.1816,-3.0033e-13,1.1698e-06,-5.5653e-07,-4.1816,2.7669
20829,23.725,0.54545,0,1.1288e-05,112.81,9.2119e-06,73.444,-5.5648e-07,0.048499,-8.0754e-06,-56.446,2.8132
20830,23.633,0.45455,0,1.1575e-05,115.67,8.4253e-06,60.038,4.478e-07,0.098078,-9.3211e-06,-73.301,2.7977
20831,23.633,0.54545,0.05,7.4185e-07,7.4134,5.6965e-07,4.2801,-2.213e-13,4.3423e-06,-5.6965e-07,-4.2801,2.7978
20832,23.817,0.45455,0,9.2883e-06,92.819,8.0256e-06,67.51,-9.7943e-07,-0.15022,-6.0577e-06,-38.306,2.8286
20833,23.817,0.54545,0.05,7.9407e-07,7.9353,6.0975e-07,4.5814,1.7504e-13,6.9529e-06,-6.0975e-07,-4.5814,2.8286
20834,23.908,0.54545,0,9.4082e-06,94.017,8.841e-06,81.233,-1.9222e-06,0.36243,-4.8886e-06,-21.926,2.8441
20835,3.5419,0.36364,0,0.00015979,1596.8,7.2062e-05,230.06,3.9933e-05,-11.346,-0.00015469,-1473.7,0.06995
20836,3.4501,0.27273,0,0.00012515,1250.7,6.1338e-05,235.6,2.728e-05,-20.301,-0.00011951,-1123.2,0.062181
20837,3.4501,0.36364,0.05,1.2201e-05,121.93,9.3688e-06,70.394,3.8718e-12,2.1755e-05,-9.3688e-06,-70.394,0.062963
20838,3.3584,0.36364,0,0.00011725,1171.7,5.7511e-05,234.45,2.6863e-05,4.1769,-0.00011148,-1035.3,0.056216
20839,3.7254,0.36364,0,0.00020025,2001.1,7.954e-05,160.09,5.7558e-05,-5.0789,-0.0001971,-1918.5,0.083749
20840,3.6336,0.27273,0,0.00016535,1652.4,6.68e-05,144.01,4.6632e-05,-7.5157,-0.00016251,-1578.9,0.075972
20841,3.6336,0.36364,0.05,1.0369e-05,103.62,7.962e-06,59.823,-2.7073e-13,-4.3108e-06,-7.962e-06,-59.823,0.076743
20842,3.9088,0.36364,0,0.00024747,2472.9,9.4449e-05,152.73,7.3732e-05,-2.9324,-0.00024455,-2394.4,0.097657
20843,3.8171,0.27273,0,0.00021628,2161.3,8.2749e-05,134.98,6.4219e-05,-4.2473,-0.00021372,-2092.5,0.08985
20844,3.8171,0.36364,0.05,9.4404e-06,94.339,7.249e-06,54.466,-1.819e-12,-2.6595e-05,-7.249e-06,-54.467,0.090604
20845,4.0923,0.36364,0,0.00029077,2905.7,0.00010862,152.01,8.8205e-05,-1.4146,-0.0002879,-2827.3,0.11171
20846,4.0006,0.27273,0,0.00026362,2634.4,9.8265e-05,135.04,8.0094e-05,-1.491,-0.00026108,-2565,0.10386
20847,4.0006,0.36364,0.05,8.2757e-06,82.7,6.3547e-06,47.747,-3.8267e-12,-3.8614e-05,-6.3547e-06,-47.747,0.10459
20848,4.2758,0.36364,0,0.00032775,3275.3,0.0001204,147.04,0.00010072,-0.86315,-0.00032502,-3199.7,0.12595
20849,4.1841,0.27273,0,0.00030463,3044.2,0.00011145,131.2,9.3906e-05,-0.62597,-0.00030219,-2976.8,0.11803
20850,4.1841,0.36364,0.05,7.0438e-06,70.389,5.4088e-06,40.639,-1.9313e-12,-3.9651e-05,-5.4088e-06,-40.639,0.11874
20851,4.4593,0.36364,0,0.00035808,3578.4,0.00012956,136.8,0.00011128,-0.59212,-0.00035557,-3508.3,0.1404
20852,4.3676,0.27273,0,0.00033884,3386,0.00012202,122.61,0.00010567,-0.24409,-0.00033659,-3323.2,0.13239
20853,4.3676,0.36364,0.05,5.8381e-06,58.341,4.4829e-06,33.683,-4.114e-13,-3.5811e-05,-4.4829e-06,-33.683,0.13309
20854,4.6428,0.36364,0,0.00038219,3819.2,0.00013634,122.63,0.00011996,-0.45738,-0.00037996,-3756.6,0.15509
20855,4.551,0.27273,0,0.00036653,3662.8,0.00013015,110.46,0.00011543,-0.12256,-0.00036453,-3606.3,0.14698
20856,4.551,0.36364,0.05,4.722e-06,47.188,3.6259e-06,27.244,1.2089e-12,-2.7164e-05,-3.6259e-06,-27.244,0.14766
20857,4.8263,0.36364,0,0.00040078,4005,0.00014112,106.31,0.00012693,-0.37019,-0.00039887,-3951,0.17003
20858,4.7345,0.27273,0,0.00038835,3880.8,0.00013618,96.364,0.00012335,-0.081453,-0.00038662,-3831.8,0.16181
20859,4.7345,0.36364,0.05,3.7292e-06,37.267,2.8636e-06,21.516,1.1094e-12,-2.1028e-05,-2.8636e-06,-21.516,0.16247
20860,5.0097,0.36364,0,0.00041468,4143.9,0.0001443,89.357,0.00013237,-0.30515,-0.00041309,-4098.6,0.18523
20861,4.918,0.27273,0,0.00040507,4047.9,0.00014048,81.693,0.0001296,-0.070069,-0.00040362,-4006.5,0.17689
20862,4.918,0.36364,0.05,2.8714e-06,28.694,2.2049e-06,16.566,4.902e-12,-1.4694e-05,-2.2049e-06,-16.567,0.17754
20863,5.1932,0.36364,0,0.00042466,4243.7,0.00014623,72.901,0.00013649,-0.25165,-0.00042338,-4206.9,0.20071
20864,5.1015,0.27273,0,0.00041747,4171.9,0.00014339,67.435,0.00013441,-0.064683,-0.00041629,-4137.8,0.19225
20865,5.1015,0.36364,0.05,2.1461e-06,21.447,1.648e-06,12.382,6.4235e-12,-1.3557e-05,-1.648e-06,-12.382,0.19289
20866,5.3767,0.36364,0,0.00043143,4311.3,0.00014719,57.655,0.00013949,-0.20691,-0.00043043,-4282.3,0.21648
20867,5.285,0.27273,0,0.00042628,4259.9,0.0001452,54.216,0.00013797,-0.059133,-0.00042534,-4232.5,0.20788
20868,5.285,0.36364,0.05,1.5433e-06,15.422,1.1851e-06,8.904,9.6026e-12,-1.3669e-05,-1.1851e-06,-8.9043,0.20851
20869,5.5602,0.36364,0,0.00043561,4353.1,0.00014743,44.019,0.00014155,-0.1704,-0.00043484,-4331,0.23253
20870,5.4684,0.27273,0,0.00043215,4318.5,0.00014615,42.383,0.0001405,-0.052417,-0.00043141,-4297.2,0.2238
20871,5.4684,0.36364,0.05,1.0497e-06,10.49,8.0603e-07,6.0561,6.5644e-12,-2.2105e-05,-8.0604e-07,-6.0564,0.22442
20872,5.7437,0.36364,0,0.0004377,4374,0.00014713,32.161,0.00014283,-0.14276,-0.00043714,-4357.9,0.24888
20873,5.6519,0.27273,0,0.00043562,4353.2,0.00014644,32.075,0.00014216,-0.045716,-0.00043507,-4337.1,0.24001
20874,5.6519,0.36364,0.05,6.5271e-07,6.5226,5.0119e-07,3.7657,5.0065e-12,-3.6274e-05,-5.0122e-07,-3.7659,0.24062
20875,5.9271,0.36364,0,0.00043813,4378.3,0.00014643,22.093,0.00014348,-0.12599,-0.00043775,-4367.2,0.26552
20876,5.8354,0.27273,0,0.00043718,4368.8,0.00014622,23.3,0.00014311,-0.04087,-0.00043678,-4357.1,0.25651
20877,5.8354,0.36364,0.05,3.4731e-07,3.4707,2.6669e-07,2.0037,-4.5164e-12,-0.00010721,-2.6669e-07,-2.0039,0.25712
20878,6.1106,0.36364,0,0.00043725,4369.5,0.00014545,13.736,0.0001436,-0.12605,-0.00043702,-4362.6,0.28246
20879,6.0189,0.27273,0,0.00043721,4369,0.00014561,15.985,0.00014348,-0.04045,-0.00043693,-4361,0.2733
20880,6.0189,0.36364,0.05,1.7657e-07,1.7645,1.356e-07,1.0187,-3.9571e-11,-0.00042206,-1.3558e-07,-1.0187,0.27391
20881,6.2941,0.36364,0,0.00043534,4350.4,0.00014425,6.976,0.0001433,-0.16748,-0.00043522,-4346.9,0.29968
20882,6.2024,0.27273,0,0.00043602,4357.2,0.00014472,10.012,0.00014339,-0.049449,-0.00043585,-4352.2,0.29039
20883,6.2024,0.36364,0.05,2.4322e-07,2.4305,1.8676e-07,1.4031,-1.2436e-11,-0.00021175,-1.8676e-07,-1.4034,0.29099
20884,6.4776,0.36364,0,0.00043262,4323.2,0.00014294,1.8744,0.00014263,-0.4803,-0.00043259,-4322.5,0.31721
20885,6.3858,0.27273,0,0.00043387,4335.7,0.00014362,5.2551,0.00014291,-0.084237,-0.00043378,-4333.1,0.30777
20886,6.3858,0.36364,0.05,3.793e-07,3.7904,2.9125e-07,2.1882,6.3363e-12,-6.3796e-05,-2.9127e-07,-2.1886,0.30837
20887,6.6611,0.36364,0,0.00042927,4289.7,0.00014183,0.25929,0.00014139,-3.0666,-0.00042932,-4291.2,0.33502
20888,6.5693,0.27273,0,0.00043097,4306.8,0.00014238,1.684,0.00014212,-0.2636,-0.00043095,-4306.1,0.32544
20889,6.5693,0.36364,0.05,4.9947e-07,4.9913,3.8352e-07,2.8815,9.012e-12,-4.1813e-05,-3.8355e-07,-2.8819,0.32604
20890,6.8445,0.36364,0,0.00042544,4251.5,0.00014071,0.12604,0.00013988,-6.0926,-0.00042554,-4254.4,0.35312
20891,6.7528,0.27273,0,0.00042749,4272,0.00014118,0.27325,0.00014092,-1.7066,-0.00042752,-4272.7,0.34341
20892,6.7528,0.36364,0.05,5.9659e-07,5.9618,4.5809e-07,3.4419,8.9233e-12,-1.8648e-05,-4.5812e-07,-3.4422,0.344
20893,7.028,0.36364,0,0.00042123,4209.4,0.00013943,0.092095,0.00013831,-8.3354,-0.00042137,-4213.6,0.37151
20894,6.9363,0.27273,0,0.00042356,4232.6,0.00013997,0.1338,0.00013946,-3.6595,-0.00042362,-4234.4,0.36166
20895,6.9363,0.36364,0.05,6.7302e-07,6.7255,5.1678e-07,3.8828,1.0055e-11,-1.4904e-05,-5.168e-07,-3.8832,0.36224
20896,7.2115,0.36364,0,0.00041675,4164.6,0.00013802,0.077756,0.0001367,-9.861,-0.00041691,-4169.5,0.39018
20897,7.1198,0.27273,0,0.00041927,4189.8,0.00013862,0.099033,0.00013793,-5.0784,-0.00041936,-4192.3,0.38019
20898,7.1198,0.36364,0.05,7.3222e-07,7.3172,5.6224e-07,4.2243,1.006e-11,-1.8492e-05,-5.6227e-07,-4.2248,0.38077
20899,7.395,0.36364,0,0.00041204,4117.6,0.00013651,0.069771,0.00013507,-10.785,-0.00041222,-4122.9,0.40913
20900,7.3032,0.27273,0,0.00041472,4144.4,0.00013716,0.083842,0.00013635,-5.9878,-0.00041482,-4147.3,0.39901
20901,7.3032,0.36364,0.05,7.7745e-07,7.7692,5.9698e-07,4.4854,1.2334e-11,-1.1923e-05,-5.97e-07,-4.4857,0.39959
20902,7.5785,0.36364,0,0.00040717,4068.9,0.00013493,0.064295,0.00013343,-11.218,-0.00040736,-4074.5,0.42836
20903,7.4867,0.27273,0,0.00040997,4096.9,0.00013562,0.075241,0.00013475,-6.4707,-0.00041008,-4100.1,0.41811
20904,7.4867,0.36364,0.05,8.1148e-07,8.1092,6.2311e-07,4.6817,1.2741e-11,-1.2082e-05,-6.2313e-07,-4.6821,0.41868
20905,7.7619,0.36364,0,0.00040219,4019.1,0.00013328,0.059907,0.00013178,-11.256,-0.00040238,-4024.7,0.44787
20906,7.6702,0.27273,0,0.00040507,4047.9,0.000134,0.069567,0.00013312,-6.6066,-0.00040518,-4051.1,0.43748
20907,7.6702,0.36364,0.05,8.3661e-07,8.3603,6.424e-07,4.8266,9.0096e-12,-1.2842e-05,-6.4243e-07,-4.8271,0.43805
20908,7.9454,0.36364,0,0.00039712,3968.4,0.0001316,0.056021,0.00013013,-10.981,-0.0003973,-3973.9,0.46764
20909,7.8537,0.27273,0,0.00040005,3997.7,0.00013234,0.065479,0.00013147,-6.4652,-0.00040016,-4000.9,0.45712
20910,7.8537,0.36364,0.05,8.5471e-07,8.5412,6.563e-07,4.9311,1.2847e-11,-1.0211e-05,-6.5632e-07,-4.9315,0.45769
20911,8.1289,0.36364,0,0.00039198,3917.1,0.00012988,0.052387,0.00012848,-10.463,-0.00039216,-3922.3,0.48768
20912,8.0372,0.27273,0,0.00039495,3946.8,0.00013064,0.062449,0.00012982,-6.1063,-0.00039506,-3949.8,0.47704
20913,8.0372,0.36364,0.05,8.6729e-07,8.6669,6.6596e-07,5.0037,9.4266e-12,-9.1847e-06,-6.6598e-07,-5.004,0.4776
20914,8.3124,0.36364,0,0.00038681,3865.4,0.00012813,0.048904,0.00012683,-9.7622,-0.00038697,-3870.2,0.50799
20915,8.2206,0.27273,0,0.0003898,3895.3,0.00012892,0.060308,0.00012816,-5.5803,-0.00038989,-3898.1,0.49722
20916,8.2206,0.36364,0.05,8.7556e-07,8.7496,6.7231e-07,5.0514,1.3038e-11,-9.1877e-06,-6.7234e-07,-5.0518,0.49777
20917,8.4959,0.36364,0,0.0003816,3813.4,0.00012638,0.045537,0.00012518,-8.9258,-0.00038175,-3817.8,0.52856
20918,8.4041,0.27273,0,0.00038461,3843.4,0.00012717,0.059108,0.00012651,-4.9292,-0.00038469,-3845.9,0.51766
20919,8.4041,0.36364,0.05,8.805e-07,8.7989,6.7609e-07,5.0799,1.1416e-11,-7.7384e-06,-6.7613e-07,-5.0802,0.51821
20920,8.6794,0.36364,0,0.00037639,3761.3,0.00012461,0.042286,0.00012354,-7.9941,-0.00037652,-3765.2,0.54938
20921,8.5876,0.27273,0,0.00037939,3791.3,0.00012541,0.059132,0.00012485,-4.1882,-0.00037946,-3793.4,0.53836
20922,8.5876,0.36364,0.05,8.8286e-07,8.8225,6.7791e-07,5.0935,8.0377e-12,-5.9639e-06,-6.7794e-07,-5.0938,0.5389
20923,8.8628,0.36364,0,0.00037116,3709,0.00012283,0.039166,0.0001219,-6.9994,-0.00037128,-3712.5,0.57045
20924,8.7711,0.27273,0,0.00037416,3739,0.00012365,0.061055,0.00012319,-3.3861,-0.00037422,-3740.7,0.55931
20925,8.7711,0.36364,0.05,8.8325e-07,8.8264,6.7821e-07,5.0957,1.0806e-11,-5.6526e-06,-6.7824e-07,-5.0961,0.55985
20926,9.0463,0.36364,0,0.00036594,3656.8,0.00012106,0.0362,0.00012026,-5.9676,-0.00036604,-3659.8,0.59178
20927,8.9546,0.27273,0,0.00036893,3686.7,0.00012188,0.066513,0.00012153,-2.5474,-0.00036897,-3688,0.58052
20928,8.9546,0.36364,0.05,8.8215e-07,8.8154,6.7737e-07,5.0894,1.1947e-11,-4.5975e-06,-6.774e-07,-5.0898,0.58105
20929,9.2298,0.36364,0,0.00036072,3604.7,0.00011928,0.033425,0.00011862,-4.9192,-0.0003608,-3607.1,0.61335
20930,9.1381,0.27273,0,0.00036369,3634.4,0.00012011,0.080343,0.00011987,-1.6954,-0.00036372,-3635.2,0.60198
20931,9.1381,0.36364,0.05,8.7994e-07,8.7934,6.7568e-07,5.0767,1.204e-11,-3.8979e-06,-6.757e-07,-5.077,0.6025
20932,9.4133,0.36364,0,0.00035551,3552.6,0.00011751,0.030901,0.00011699,-3.8705,-0.00035557,-3554.5,0.63516
20933,9.3215,0.27273,0,0.00035847,3582.2,0.00011835,0.12386,0.00011822,-0.8658,-0.00035848,-3582.6,0.62368
20934,9.3215,0.36364,0.05,8.7691e-07,8.7631,6.7335e-07,5.0592,1.036e-11,-3.1013e-06,-6.7337e-07,-5.0595,0.6242
20935,9.5968,0.36364,0,0.00035031,3500.7,0.00011574,0.028756,0.00011536,-2.834,-0.00035035,-3502.1,0.65722
20936,9.505,0.27273,0,0.00035325,3530.1,0.00011661,0.35773,0.00011654,-0.2305,-0.00035325,-3530,0.64562
20937,9.505,0.36364,0.05,8.7328e-07,8.7268,6.7056e-07,5.0382,1.2162e-11,-3.3097e-06,-6.7058e-07,-5.0386,0.64613
20938,9.7802,0.36364,0,0.00034512,3448.8,0.00011398,0.027374,0.00011374,-1.8192,-0.00034515,-3449.7,0.6795
20939,9.6885,0.27273,0,0.00034805,3478.1,0.00011495,1.043,0.0001148,-0.059139,-0.00034803,-3477.6,0.66779
20940,9.6885,0.36364,0.05,8.6923e-07,8.6863,6.6745e-07,5.0149,1.2246e-11,-1.9796e-06,-6.6748e-07,-5.0152,0.6683
20941,9.9637,0.36364,0,0.00033995,3397.2,0.00011223,0.028832,0.00011211,-0.83518,-0.00033997,-3397.6,0.70202
20942,9.872,0.27273,0,0.00034286,3426.3,0.0001133,1.8456,0.00011305,-0.024179,-0.00034283,-3425.4,0.6902
20943,9.872,0.36364,0.05,8.649e-07,8.643,6.6413e-07,4.9899,1.0471e-11,-2.5103e-07,-6.6414e-07,-4.9902,0.69071
20944,10.147,0.36364,0,0.0003348,3345.7,0.0001105,0.16893,0.00011047,-0.02244,-0.0003348,-3345.6,0.72477
20945,10.055,0.27273,0,0.00033769,3374.6,0.00011166,2.6471,0.00011131,-0.01168,-0.00033765,-3373.3,0.71284
20946,10.055,0.36364,0.05,8.6038e-07,8.5979,6.6065e-07,4.9638,1.0555e-11,-6.9603e-07,-6.6068e-07,-4.9641,0.71334
20947,10.331,0.36364,0,0.00032967,3294.4,0.00010888,1.0524,0.00010874,0.011052,-0.00032965,-3293.9,0.74774
20948,10.239,0.27273,0,0.00033254,3323.1,0.00011002,3.4285,0.00010957,-0.0058974,-0.00033248,-3321.4,0.73571
20949,10.239,0.36364,0.05,8.5576e-07,8.5517,6.571e-07,4.9372,1.0578e-11,4.9961e-07,-6.5713e-07,-4.9375,0.7362
20950,10.514,0.36364,0,0.00032455,3243.3,0.00010726,1.9308,0.00010701,0.011776,-0.00032452,-3242.3,0.77094
20951,10.422,0.27273,0,0.00032741,3271.8,0.00010839,4.1838,0.00010784,-0.0029387,-0.00032733,-3269.7,0.7588
20952,10.422,0.36364,0.05,8.5108e-07,8.505,6.5352e-07,4.9102,1.062e-11,-2.663e-08,-6.5354e-07,-4.9105,0.75929
20953,10.698,0.36364,0,0.00031946,3192.4,0.00010565,2.7723,0.00010528,0.010873,-0.00031941,-3191,0.79435
20954,10.606,0.27273,0,0.00032229,3220.7,0.00010677,4.9105,0.00010611,-0.0013487,-0.00032221,-3218.2,0.78211
20955,10.606,0.36364,0.05,8.4639e-07,8.4581,6.4991e-07,4.8831,9.7578e-12,1.1723e-06,-6.4994e-07,-4.8834,0.78259
20956,10.881,0.36364,0,0.00031438,3141.6,0.00010404,3.5755,0.00010357,0.0096268,-0.00031432,-3139.8,0.81798
20957,10.789,0.27273,0,0.0003172,3169.8,0.00010514,5.6076,0.0001044,-0.00050657,-0.0003171,-3167,0.80564
20958,10.789,0.36364,0.05,8.4173e-07,8.4115,6.4633e-07,4.8562,1.0695e-11,8.9726e-07,-6.4635e-07,-4.8566,0.80611
20959,11.065,0.36364,0,0.00030932,3091.1,0.00010244,4.3407,0.00010186,0.0082856,-0.00030925,-3088.9,0.84181
20960,10.973,0.27273,0,0.00031212,3119.1,0.00010352,6.275,0.00010269,-9.405e-05,-0.00031202,-3115.9,0.82938
20961,10.973,0.36364,0.05,8.3711e-07,8.3654,6.4279e-07,4.8296,1.0777e-11,-1.4672e-07,-6.4281e-07,-4.8299,0.82984
20962,11.248,0.36364,0,0.00030429,3040.8,0.00010084,5.0686,0.00010016,0.0069298,-0.0003042,-3038.2,0.86586
20963,11.156,0.27273,0,0.00030707,3068.6,0.00010191,6.913,0.00010099,-2.5024e-06,-0.00030695,-3065.1,0.85333
20964,11.156,0.36364,0.05,8.3257e-07,8.3199,6.393e-07,4.8034,1.0814e-11,1.6411e-08,-6.3932e-07,-4.8037,0.85378
20965,11.432,0.36364,0,0.00029927,2990.6,9.924e-05,5.7608,9.8474e-05,0.0056443,-0.00029917,-2987.7,0.89011
20966,11.34,0.27273,0,0.00030203,3018.3,0.0001003,7.5224,9.9299e-05,-8.4814e-05,-0.00030191,-3014.5,0.87748
20967,11.34,0.36364,0.05,8.2808e-07,8.275,6.3585e-07,4.7775,9.8594e-12,-1.2242e-06,-6.3587e-07,-4.7777,0.87793
20968,11.615,0.36364,0,0.00029427,2940.7,9.7646e-05,6.4188,9.6792e-05,0.0044246,-0.00029416,-2937.5,0.91456
20969,11.523,0.27273,0,0.00029702,2968.2,9.8694e-05,8.1045,9.7615e-05,-0.00022807,-0.00029688,-2964.1,0.90184
20970,11.523,0.36364,0.05,8.2367e-07,8.231,6.3246e-07,4.752,9.9054e-12,-5.4271e-07,-6.3248e-07,-4.7523,0.90228
20971,11.799,0.36364,0,0.00028929,2890.9,9.6055e-05,7.0443,9.5118e-05,0.003256,-0.00028917,-2887.4,0.93921
20972,11.707,0.27273,0,0.00029203,2918.3,9.7093e-05,8.6605,9.594e-05,-0.00047789,-0.00029188,-2913.9,0.92639
20973,11.707,0.36364,0.05,8.1934e-07,8.1877,6.2914e-07,4.727,1.0824e-11,1.0811e-06,-6.2916e-07,-4.7274,0.92683
20974,11.982,0.36364,0,0.00028434,2841.4,9.4469e-05,7.6392,9.3453e-05,0.0021623,-0.00028421,-2837.6,0.96405
20975,11.89,0.27273,0,0.00028706,2868.6,9.5496e-05,9.1917,9.4273e-05,-0.00076092,-0.0002869,-2864,0.95115
20976,11.89,0.36364,0.05,8.1509e-07,8.1452,6.2588e-07,4.7025,9.023e-12,3.4371e-06,-6.2589e-07,-4.7028,0.95157
20977,12.165,0.36364,0,0.0002794,2792.1,9.2887e-05,8.2053,9.1795e-05,0.0011227,-0.00027926,-2788,0.98908
20978,12.074,0.27273,0,0.0002821,2819.1,9.3905e-05,9.6998,9.2614e-05,-0.0010605,-0.00028194,-2814.2,0.97609
20979,12.074,0.36364,0.05,8.1092e-07,8.1036,6.2267e-07,4.6785,7.2331e-12,2.1569e-06,-6.2269e-07,-4.6787,0.97651
20980,12.349,0.36364,0,0.00027448,2742.9,9.131e-05,8.7448,9.0146e-05,0.00014067,-0.00027433,-2738.5,1.0143
20981,12.257,0.27273,0,0.00027717,2769.8,9.2318e-05,10.186,9.0962e-05,-0.0014011,-0.000277,-2764.7,1.0012
20982,12.257,0.36364,0.05,8.0682e-07,8.0626,6.1953e-07,4.6548,9.9627e-12,3.8028e-06,-6.1955e-07,-4.6551,1.0016
20983,12.532,0.36364,0,0.00026959,2694,8.9737e-05,9.2595,8.8504e-05,-0.00076489,-0.00026943,-2689.4,1.0397
20984,12.441,0.27273,0,0.00027226,2720.8,9.0737e-05,10.653,8.9319e-05,-0.0017266,-0.00027208,-2715.4,1.0265
20985,12.441,0.36364,0.05,8.0279e-07,8.0223,6.1643e-07,4.6316,9.0794e-12,4.12e-06,-6.1645e-07,-4.6318,1.0269
20986,12.716,0.36364,0,0.00026471,2645.3,8.8168e-05,9.7514,8.687e-05,-0.0015988,-0.00026454,-2640.4,1.0653
20987,12.624,0.27273,0,0.00026737,2671.9,8.916e-05,11.1,8.7683e-05,-0.002035,-0.00026718,-2666.3,1.052
20988,12.624,0.36364,0.05,7.9883e-07,7.9828,6.1339e-07,4.6087,8.1696e-12,1.0065e-06,-6.1341e-07,-4.609,1.0524
20989,12.899,0.36364,0,0.00025985,2596.7,8.6605e-05,10.222,8.5244e-05,-0.002391,-0.00025968,-2591.6,1.091
20990,12.808,0.27273,0,0.0002625,2623.2,8.7589e-05,11.531,8.6054e-05,-0.0023209,-0.00026231,-2617.4,1.0777
20991,12.808,0.36364,0.05,7.9494e-07,7.9439,6.104e-07,4.5863,8.1795e-12,1.0912e-06,-6.1043e-07,-4.5865,1.0781
20992,13.083,0.36364,0,0.00025501,2548.4,8.5046e-05,10.674,8.3625e-05,-0.0031535,-0.00025483,-2543,1.117
20993,12.991,0.27273,0,0.00025766,2574.8,8.6024e-05,11.947,8.4434e-05,-0.0026341,-0.00025745,-2568.8,1.1036
20994,12.991,0.36364,0.05,7.9112e-07,7.9058,6.0748e-07,4.5643,8.1864e-12,2.9588e-06,-6.0749e-07,-4.5645,1.104
20995,13.266,0.36364,0,0.0002502,2500.3,8.3493e-05,11.109,8.2014e-05,-0.0038518,-0.00025001,-2494.7,1.1431
20996,13.175,0.27273,0,0.00025283,2526.5,8.4464e-05,12.348,8.282e-05,-0.0029394,-0.00025261,-2520.3,1.1296
20997,13.175,0.36364,0.05,7.8736e-07,7.8681,6.0458e-07,4.5425,7.2843e-12,4.0148e-06,-6.046e-07,-4.5428,1.13
20998,13.45,0.36364,0,0.0002454,2452.3,8.1945e-05,11.528,8.0411e-05,-0.0045055,-0.0002452,-2446.5,1.1694
20999,13.358,0.27273,0,0.00024802,2478.5,8.291e-05,12.737,8.1214e-05,-0.0031924,-0.0002478,-2472.1,1.1558
21000,13.358,0.36364,0.05,7.8365e-07,7.8311,6.0174e-07,4.5212,9.1077e-12,3.8024e-06,-6.0175e-07,-4.5214,1.1562
21001,13.633,0.36364,0,0.00024063,2404.6,8.0403e-05,11.933,7.8814e-05,-0.0051361,-0.00024042,-2398.6,1.1958
21002,13.542,0.27273,0,0.00024323,2430.6,8.1361e-05,13.115,7.9615e-05,-0.0034687,-0.00024301,-2424,1.1822
21003,13.542,0.36364,0.05,7.8001e-07,7.7947,5.9894e-07,4.5001,8.1999e-12,4.4464e-06,-5.9896e-07,-4.5004,1.1825
21004,13.817,0.36364,0,0.00023587,2357.1,7.8866e-05,12.326,7.7225e-05,-0.0057282,-0.00023566,-2350.9,1.2224
21005,13.725,0.27273,0,0.00023846,2383,7.9819e-05,13.483,7.8024e-05,-0.0037283,-0.00023823,-2376.2,1.2087
21006,13.725,0.36364,0.05,7.7641e-07,7.7588,5.9618e-07,4.4794,7.2983e-12,4.8264e-06,-5.9619e-07,-4.4796,1.209
21007,14,0.36364,0,0.00023113,2309.7,7.7335e-05,12.708,7.5643e-05,-0.0063018,-0.00023091,-2303.4,1.2491
21008,13.909,0.27273,0,0.00023372,2335.6,7.8282e-05,13.842,7.6439e-05,-0.0039719,-0.00023348,-2328.6,1.2354
21009,13.909,0.36364,0.05,7.7287e-07,7.7234,5.9346e-07,4.459,7.3025e-12,5.9269e-06,-5.9347e-07,-4.4592,1.2357
21010,14.184,0.36364,0,0.00022642,2262.6,7.581e-05,13.081,7.4068e-05,-0.0068466,-0.00022619,-2256,1.276
21011,14.092,0.27273,0,0.00022899,2288.3,7.6752e-05,14.194,7.4862e-05,-0.0042371,-0.00022875,-2281.2,1.2622
21012,14.092,0.36364,0.05,7.6937e-07,7.6884,5.9077e-07,4.4388,7.3063e-12,5.1814e-06,-5.9079e-07,-4.439,1.2626
21013,14.367,0.36364,0,0.00022172,2215.7,7.429e-05,13.446,7.25e-05,-0.0073513,-0.00022149,-2208.9,1.3031
21014,14.276,0.27273,0,0.00022428,2241.3,7.5228e-05,14.54,7.3292e-05,-0.0044574,-0.00022403,-2234,1.2892
21015,14.276,0.36364,0.05,7.6591e-07,7.6538,5.8812e-07,4.4188,7.3105e-12,4.9352e-06,-5.8813e-07,-4.4191,1.2895
21016,14.551,0.36364,0,0.00021704,2168.9,7.2777e-05,13.804,7.0939e-05,-0.0078525,-0.00021681,-2162,1.3303
21017,14.459,0.27273,0,0.0002196,2194.5,7.3709e-05,14.881,7.1728e-05,-0.0046706,-0.00021934,-2187,1.3163
21018,14.459,0.36364,0.05,7.625e-07,7.6198,5.855e-07,4.3992,6.4042e-12,5.7342e-06,-5.8551e-07,-4.3994,1.3167
21019,14.734,0.36364,0,0.00021239,2122.4,7.127e-05,14.157,6.9385e-05,-0.0083461,-0.00021214,-2115.3,1.3577
21020,14.642,0.27273,0,0.00021493,2147.8,7.2198e-05,15.218,7.0172e-05,-0.0049122,-0.00021467,-2140.2,1.3436
21021,14.642,0.36364,0.05,7.5913e-07,7.5861,5.8291e-07,4.3797,6.4067e-12,5.4566e-06,-5.8293e-07,-4.3799,1.344
21022,14.918,0.36364,0,0.00020775,2076.1,6.9769e-05,14.507,6.7838e-05,-0.0088134,-0.0002075,-2068.8,1.3852
21023,14.826,0.27273,0,0.00021029,2101.4,7.0693e-05,15.552,6.8622e-05,-0.0051324,-0.00021002,-2093.6,1.3711
21024,14.826,0.36364,0.05,7.558e-07,7.5528,5.8035e-07,4.3605,7.3283e-12,1.5839e-06,-5.8037e-07,-4.3607,1.3714
21025,15.101,0.36364,0,0.00020314,2030,6.8275e-05,14.853,6.6297e-05,-0.0092592,-0.00020288,-2022.5,1.4128
21026,15.009,0.27273,0,0.00020566,2055.2,6.9194e-05,15.884,6.7079e-05,-0.0053392,-0.00020539,-2047.2,1.3986
21027,15.009,0.36364,0.05,7.5251e-07,7.5199,5.7783e-07,4.3415,7.321e-12,2.0401e-06,-5.7784e-07,-4.3417,1.3989
21028,15.285,0.36364,0,0.00019854,1984,6.6787e-05,15.199,6.4763e-05,-0.0097031,-0.00019828,-1976.4,1.4406
21029,15.193,0.27273,0,0.00020105,2009.2,6.7702e-05,16.216,6.5543e-05,-0.0055325,-0.00020077,-2001,1.4263
21030,15.193,0.36364,0.05,7.4926e-07,7.4874,5.7533e-07,4.3228,7.3462e-12,3.448e-06,-5.7534e-07,-4.323,1.4266
21031,15.468,0.36364,0,0.00019396,1938.3,6.5306e-05,15.543,6.3236e-05,-0.010151,-0.0001937,-1930.5,1.4685
21032,15.376,0.27273,0,0.00019647,1963.3,6.6216e-05,16.548,6.4013e-05,-0.0057459,-0.00019618,-1955,1.4542
21033,15.376,0.36364,0.05,7.4605e-07,7.4554,5.7287e-07,4.3043,7.3378e-12,6.5394e-06,-5.7288e-07,-4.3044,1.4545
21034,15.652,0.36364,0,0.00018941,1892.8,6.3831e-05,15.889,6.1715e-05,-0.010593,-0.00018913,-1884.8,1.4965
21035,15.56,0.27273,0,0.0001919,1917.7,6.4737e-05,16.881,6.249e-05,-0.0059565,-0.00019161,-1909.2,1.4822
21036,15.56,0.36364,0.05,7.4288e-07,7.4237,5.7043e-07,4.286,6.4199e-12,5.8444e-06,-5.7045e-07,-4.2861,1.4825
21037,15.835,0.36364,0,0.00018487,1847.4,6.2363e-05,16.237,6.0201e-05,-0.011046,-0.00018459,-1839.3,1.5247
21038,15.743,0.27273,0,0.00018736,1872.3,6.3265e-05,17.216,6.0973e-05,-0.0061629,-0.00018706,-1863.6,1.5103
21039,15.743,0.36364,0.05,7.3975e-07,7.3924,5.6803e-07,4.2679,6.3713e-12,2.9525e-06,-5.6804e-07,-4.2681,1.5105
21040,16.019,0.36364,0,0.00018036,1802.3,6.0902e-05,16.588,5.8693e-05,-0.011502,-0.00018007,-1794,1.5529
21041,15.927,0.27273,0,0.00018283,1827.1,6.18e-05,17.553,5.9463e-05,-0.0063993,-0.00018253,-1818.2,1.5385
21042,15.927,0.36364,0.05,7.3665e-07,7.3614,5.6565e-07,4.25,5.968e-12,2.9453e-06,-5.6566e-07,-4.2502,1.5388
21043,16.202,0.36364,0,0.00017586,1757.4,5.9448e-05,16.943,5.7192e-05,-0.011949,-0.00017557,-1748.9,1.5813
21044,16.11,0.27273,0,0.00017833,1782.1,6.0342e-05,17.895,5.796e-05,-0.0066118,-0.00017802,-1773.1,1.5668
21045,16.11,0.36364,0.05,7.3359e-07,7.3308,5.633e-07,4.2324,5.519e-12,2.0988e-06,-5.6331e-07,-4.2325,1.5671
21046,16.386,0.36364,0,0.00017138,1712.7,5.8001e-05,17.303,5.5697e-05,-0.012421,-0.00017108,-1703.9,1.6099
21047,16.294,0.27273,0,0.00017384,1737.2,5.8891e-05,18.241,5.6462e-05,-0.0068299,-0.00017353,-1728.1,1.5953
21048,16.294,0.36364,0.05,7.3057e-07,7.3007,5.6098e-07,4.215,6.4146e-12,4.0561e-06,-5.6099e-07,-4.2151,1.5956
21049,16.569,0.36364,0,0.00016693,1668.1,5.6561e-05,17.669,5.4208e-05,-0.012912,-0.00016662,-1659.2,1.6385
21050,16.477,0.27273,0,0.00016938,1692.6,5.7447e-05,18.592,5.4971e-05,-0.0070829,-0.00016906,-1683.3,1.6239
21051,16.477,0.36364,0.05,7.2759e-07,7.2709,5.587e-07,4.1978,5.0417e-12,2.6005e-06,-5.5871e-07,-4.198,1.6241
21052,16.753,0.36364,0,0.00016249,1623.8,5.5128e-05,18.043,5.2725e-05,-0.01341,-0.00016218,-1614.7,1.6672
21053,16.661,0.27273,0,0.00016493,1648.2,5.6009e-05,18.95,5.3486e-05,-0.0073331,-0.0001646,-1638.7,1.6526
21054,16.661,0.36364,0.05,7.2465e-07,7.2415,5.5644e-07,4.1808,5.9839e-12,5.1345e-06,-5.5645e-07,-4.181,1.6528
21055,16.936,0.36364,0,0.00015808,1579.7,5.3702e-05,18.425,5.1248e-05,-0.013918,-0.00015775,-1570.4,1.6961
21056,16.844,0.27273,0,0.00016051,1604,5.4579e-05,19.315,5.2008e-05,-0.0075886,-0.00016017,-1594.2,1.6814
21057,16.844,0.36364,0.05,7.2176e-07,7.2126,5.5422e-07,4.1641,5.4972e-12,8.9382e-06,-5.5422e-07,-4.1643,1.6816
21058,17.119,0.36364,0,0.00015368,1535.7,5.2284e-05,18.816,4.9778e-05,-0.014452,-0.00015335,-1526.2,1.725
21059,17.028,0.27273,0,0.0001561,1560,5.3157e-05,19.687,5.0535e-05,-0.0078474,-0.00015576,-1550,1.7103
21060,17.028,0.36364,0.05,7.1891e-07,7.1841,5.5203e-07,4.1477,5.0986e-12,6.4905e-06,-5.5204e-07,-4.1478,1.7105
21061,17.303,0.36364,0,0.0001493,1492,5.0873e-05,19.218,4.8313e-05,-0.015022,-0.00014897,-1482.3,1.7541
21062,17.211,0.27273,0,0.00015172,1516.1,5.1741e-05,20.068,4.9069e-05,-0.0081437,-0.00015137,-1506,1.7393
21063,17.211,0.36364,0.05,7.1611e-07,7.1562,5.4988e-07,4.1316,4.1747e-12,2.3454e-06,-5.4989e-07,-4.1317,1.7395
21064,17.486,0.36364,0,0.00014494,1448.4,4.9469e-05,19.63,4.6855e-05,-0.01562,-0.0001446,-1438.5,1.7832
21065,17.395,0.27273,0,0.00014735,1472.5,5.0332e-05,20.458,4.7608e-05,-0.0084543,-0.00014699,-1462.2,1.7684
21066,17.395,0.36364,0.05,7.1336e-07,7.1287,5.4777e-07,4.1157,4.1973e-12,-8.0661e-07,-5.4778e-07,-4.1158,1.7686
21067,17.67,0.36364,0,0.00014061,1405.1,4.8073e-05,20.055,4.5402e-05,-0.016258,-0.00014026,-1395,1.8125
21068,17.578,0.27273,0,0.00014301,1429.1,4.8931e-05,20.858,4.6154e-05,-0.0087831,-0.00014264,-1418.5,1.7976
21069,17.578,0.36364,0.05,7.1067e-07,7.1018,5.457e-07,4.1001,4.2219e-12,9.0668e-07,-5.4571e-07,-4.1003,1.7978
21070,17.853,0.36364,0,0.00013629,1361.9,4.6685e-05,20.494,4.3955e-05,-0.016935,-0.00013593,-1351.6,1.8418
21071,17.762,0.27273,0,0.00013868,1385.8,4.7537e-05,21.269,4.4705e-05,-0.0091547,-0.0001383,-1375.1,1.8269
21072,17.762,0.36364,0.05,7.0803e-07,7.0754,5.4367e-07,4.0849,4.6665e-12,2.6337e-06,-5.4368e-07,-4.085,1.8271
21073,18.037,0.36364,0,0.00013199,1319,4.5304e-05,20.946,4.2514e-05,-0.017647,-0.00013162,-1308.4,1.8713
21074,17.945,0.27273,0,0.00013437,1342.8,4.6151e-05,21.691,4.3263e-05,-0.0095336,-0.00013399,-1331.8,1.8563
21075,17.945,0.36364,0.05,7.0544e-07,7.0495,5.4169e-07,4.07,3.74e-12,3.0997e-06,-5.417e-07,-4.0701,1.8565
21076,18.22,0.36364,0,0.00012771,1276.2,4.393e-05,21.414,4.1078e-05,-0.018417,-0.00012733,-1265.4,1.9008
21077,18.129,0.27273,0,0.00013008,1299.9,4.4771e-05,22.125,4.1825e-05,-0.0099474,-0.00012969,-1288.7,1.8858
21078,18.129,0.36364,0.05,7.0293e-07,7.0244,5.3976e-07,4.0555,3.7432e-12,-3.7906e-07,-5.3976e-07,-4.0556,1.886
21079,18.404,0.36364,0,0.00012345,1233.6,4.2564e-05,21.898,3.9647e-05,-0.019244,-0.00012306,-1222.6,1.9304
21080,18.312,0.27273,0,0.00012581,1257.2,4.3399e-05,22.572,4.0394e-05,-0.010414,-0.00012541,-1245.8,1.9154
21081,18.312,0.36364,0.05,7.0047e-07,6.9999,5.3788e-07,4.0413,2.9562e-12,1.5755e-06,-5.3788e-07,-4.0415,1.9156
21082,18.587,0.36364,0,0.00011921,1191.3,4.1206e-05,22.4,3.8222e-05,-0.020123,-0.00011881,-1179.9,1.9601
21083,18.496,0.27273,0,0.00012156,1214.8,4.2035e-05,23.031,3.8968e-05,-0.010913,-0.00012115,-1203.1,1.945
21084,18.496,0.36364,0.05,6.9809e-07,6.9761,5.3605e-07,4.0276,3.3306e-12,3.905e-06,-5.3605e-07,-4.0277,1.9452
21085,18.771,0.36364,0,0.00011499,1149.1,3.9856e-05,22.919,3.6803e-05,-0.021063,-0.00011458,-1137.4,1.9899
21086,18.679,0.27273,0,0.00011733,1172.5,4.0677e-05,23.504,3.7547e-05,-0.011451,-0.00011691,-1160.5,1.9748
21087,18.679,0.36364,0.05,6.9579e-07,6.9531,5.3428e-07,4.0143,3.365e-12,7.0571e-06,-5.3428e-07,-4.0144,1.975
21088,18.954,0.36364,0,0.00011078,1107.1,3.8513e-05,23.458,3.5388e-05,-0.022078,-0.00011037,-1095.2,2.0197
21089,18.863,0.27273,0,0.00011311,1130.4,3.9327e-05,23.991,3.6132e-05,-0.012037,-0.00011269,-1118.2,2.0046
21090,18.863,0.36364,0.05,6.9357e-07,6.9309,5.3257e-07,4.0015,2.4445e-12,2.1029e-06,-5.3258e-07,-4.0016,2.0048
21091,19.138,0.36364,0,0.0001066,1065.2,3.7178e-05,24.016,3.3979e-05,-0.023179,-0.00010617,-1053,2.0496
21092,19.046,0.27273,0,0.00010892,1088.4,3.7984e-05,24.493,3.4722e-05,-0.012693,-0.00010848,-1076,2.0345
21093,19.046,0.36364,0.05,6.9144e-07,6.9097,5.3094e-07,3.9893,2.3869e-12,2.4601e-06,-5.3094e-07,-3.9893,2.0346
21094,19.321,0.36364,0,0.00010243,1023.6,3.5851e-05,24.595,3.2574e-05,-0.024365,-0.00010199,-1011.1,2.0796
21095,19.229,0.27273,0,0.00010474,1046.7,3.6648e-05,25.009,3.3317e-05,-0.013413,-0.00010429,-1034,2.0644
21096,19.229,0.36364,0.05,6.8941e-07,6.8893,5.2938e-07,3.9775,2.3904e-12,1.4407e-06,-5.2938e-07,-3.9776,2.0646
21097,19.505,0.36364,0,9.8282e-05,982.14,3.4531e-05,25.196,3.1175e-05,-0.025653,-9.7829e-05,-969.31,2.1097
21098,19.413,0.27273,0,0.00010058,1005.1,3.5319e-05,25.54,3.1918e-05,-0.014203,-0.00010012,-992.12,2.0945
21099,19.413,0.36364,0.05,6.8748e-07,6.87,5.2789e-07,3.9664,3.412e-12,6.1014e-06,-5.279e-07,-3.9664,2.0946
21100,19.688,0.36364,0,9.4151e-05,940.86,3.322e-05,25.819,2.978e-05,-0.027046,-9.3685e-05,-927.69,2.1398
21101,19.596,0.27273,0,9.6439e-05,963.73,3.3997e-05,26.085,3.0523e-05,-0.015089,-9.5969e-05,-950.43,2.1245
21102,19.596,0.36364,0.05,6.8565e-07,6.8518,5.2649e-07,3.9559,2.4869e-12,5.0399e-06,-5.265e-07,-3.9559,2.1247
21103,19.872,0.36364,0,9.0037e-05,899.75,3.1915e-05,26.465,2.8389e-05,-0.028548,-8.9558e-05,-886.24,2.17
21104,19.78,0.27273,0,9.2314e-05,922.51,3.2681e-05,26.646,2.9133e-05,-0.016058,-9.1832e-05,-908.9,2.1547
21105,19.78,0.36364,0.05,6.8394e-07,6.8347,5.2518e-07,3.946,2.4962e-12,6.4071e-06,-5.2519e-07,-3.946,2.1548
21106,20.055,0.36364,0,8.5941e-05,858.82,3.0619e-05,27.135,2.7003e-05,-0.030183,-8.5448e-05,-844.95,2.2002
21107,19.963,0.27273,0,8.8206e-05,881.45,3.1373e-05,27.221,2.7748e-05,-0.017131,-8.7712e-05,-867.53,2.1849
21108,19.963,0.36364,0.05,6.8236e-07,6.8189,5.2397e-07,3.9369,2.1582e-12,5.1219e-06,-5.2397e-07,-3.9369,2.185
21109,20.239,0.36364,0,8.1863e-05,818.06,2.933e-05,27.829,2.5622e-05,-0.031963,-8.1354e-05,-803.81,2.2305
21110,20.147,0.27273,0,8.4114e-05,840.56,3.0071e-05,27.811,2.6367e-05,-0.018339,-8.3607e-05,-826.32,2.2152
21111,20.147,0.36364,0.05,6.8091e-07,6.8044,5.2286e-07,3.9285,2.1301e-12,9.8894e-06,-5.2286e-07,-3.9286,2.2153
21112,20.422,0.36364,0,7.7801e-05,777.47,2.8048e-05,28.548,2.4244e-05,-0.033891,-7.7276e-05,-762.82,2.2608
21113,20.33,0.27273,0,8.0038e-05,799.83,2.8775e-05,28.415,2.4991e-05,-0.019681,-7.9517e-05,-785.25,2.2455
21114,20.33,0.36364,0.05,6.7961e-07,6.7914,5.2185e-07,3.921,2.7713e-12,1.3587e-05,-5.2185e-07,-3.921,2.2456
21115,20.606,0.36364,0,7.3755e-05,737.04,2.6774e-05,29.292,2.2871e-05,-0.035984,-7.3214e-05,-721.98,2.2912
21116,20.514,0.27273,0,7.5978e-05,759.26,2.7486e-05,29.032,2.3619e-05,-0.021175,-7.5443e-05,-744.34,2.2759
21117,20.514,0.36364,0.05,6.7845e-07,6.7798,5.2096e-07,3.9143,1.9383e-12,9.9757e-06,-5.2097e-07,-3.9144,2.276
21118,20.789,0.36364,0,6.9726e-05,696.78,2.5507e-05,30.063,2.1501e-05,-0.038267,-6.9167e-05,-681.28,2.3217
21119,20.697,0.27273,0,7.1934e-05,718.84,2.6203e-05,29.662,2.2252e-05,-0.022847,-7.1384e-05,-703.56,2.3063
21120,20.697,0.36364,0.05,6.7746e-07,6.7699,5.202e-07,3.9086,1.873e-12,9.2586e-06,-5.202e-07,-3.9086,2.3064
21121,20.973,0.36364,0,6.5714e-05,656.68,2.4248e-05,30.86,2.0135e-05,-0.040754,-6.5135e-05,-640.73,2.3522
21122,20.881,0.27273,0,6.7904e-05,678.57,2.4925e-05,30.302,2.0889e-05,-0.024734,-6.7338e-05,-662.93,2.3368
21123,20.881,0.36364,0.05,6.7664e-07,6.7617,5.1957e-07,3.9038,1.8285e-12,1.0507e-05,-5.1957e-07,-3.9039,2.3369
21124,21.156,0.36364,0,6.1717e-05,616.75,2.2996e-05,31.684,1.8773e-05,-0.043463,-6.1118e-05,-600.31,2.3827
21125,21.064,0.27273,0,6.3889e-05,638.45,2.3652e-05,30.953,1.9529e-05,-0.026855,-6.3307e-05,-622.42,2.3673
21126,21.064,0.36364,0.05,6.76e-07,6.7553,5.1908e-07,3.9002,2.2229e-12,1.4142e-05,-5.1908e-07,-3.9002,2.3674
21127,21.34,0.36364,0,5.7737e-05,576.97,2.1751e-05,32.536,1.7415e-05,-0.046418,-5.7115e-05,-560.03,2.4133
21128,21.248,0.27273,0,5.9889e-05,598.47,2.2385e-05,31.611,1.8174e-05,-0.029251,-5.9289e-05,-582.06,2.3978
21129,21.248,0.36364,0.05,6.7555e-07,6.7508,5.1874e-07,3.8976,2.6105e-12,2.154e-05,-5.1874e-07,-3.8976,2.398
21130,21.523,0.36364,0,5.3772e-05,537.35,2.0514e-05,33.416,1.606e-05,-0.049638,-5.3127e-05,-519.89,2.4439
21131,21.431,0.27273,0,5.5902e-05,558.64,2.1123e-05,32.276,1.6823e-05,-0.031976,-5.5284e-05,-541.81,2.4284
21132,21.431,0.36364,0.05,6.7531e-07,6.7484,5.1855e-07,3.8962,1.965e-12,1.768e-05,-5.1855e-07,-3.8962,2.4285
21133,21.706,0.36364,0,4.9825e-05,497.9,1.9284e-05,34.327,1.4708e-05,-0.053142,-4.9153e-05,-479.88,2.4745
21134,21.615,0.27273,0,5.193e-05,518.94,1.9865e-05,32.945,1.5476e-05,-0.035062,-5.1291e-05,-501.7,2.4591
21135,21.615,0.36364,0.05,6.7528e-07,6.7481,5.1853e-07,3.896,1.956e-12,1.6988e-05,-5.1853e-07,-3.896,2.4592
21136,21.89,0.36364,0,4.5895e-05,458.63,1.8062e-05,35.272,1.336e-05,-0.056959,-4.5193e-05,-440,2.5052
21137,21.798,0.27273,0,4.7972e-05,479.39,1.8612e-05,33.616,1.4133e-05,-0.038587,-4.7312e-05,-461.71,2.4897
21138,21.798,0.36364,0.05,6.7549e-07,6.7502,5.1869e-07,3.8972,1.3394e-12,1.2992e-05,-5.1869e-07,-3.8972,2.4898
21139,22.073,0.36364,0,4.1983e-05,419.54,1.6848e-05,36.253,1.2015e-05,-0.0611,-4.1249e-05,-400.27,2.5359
21140,21.982,0.27273,0,4.4028e-05,439.98,1.7363e-05,34.285,1.2794e-05,-0.042635,-4.3345e-05,-421.85,2.5204
21141,21.982,0.36364,0.05,6.7594e-07,6.7547,5.1904e-07,3.8999,7.3392e-13,4.7454e-06,-5.1904e-07,-3.8999,2.5205
21142,22.257,0.36364,0,3.8092e-05,380.66,1.5643e-05,37.277,1.0673e-05,-0.065561,-3.7322e-05,-360.68,2.5666
21143,22.165,0.27273,0,4.0099e-05,400.72,1.6118e-05,34.952,1.146e-05,-0.047284,-3.9391e-05,-382.12,2.5511
21144,22.165,0.36364,0.05,6.7667e-07,6.762,5.196e-07,3.9041,1.2632e-12,1.0597e-05,-5.196e-07,-3.9041,2.5512
21145,22.44,0.36364,0,3.4225e-05,342.02,1.4449e-05,38.356,9.3349e-06,-0.0703,-3.3412e-05,-321.25,2.5974
21146,22.349,0.27273,0,3.6187e-05,361.62,1.4876e-05,35.614,1.013e-05,-0.052653,-3.545e-05,-342.52,2.5819
21147,22.349,0.36364,0.05,6.777e-07,6.7724,5.2039e-07,3.91,9.5723e-13,1.1653e-05,-5.2039e-07,-3.91,2.582
21148,22.624,0.36364,0,3.0387e-05,303.66,1.3268e-05,39.507,8.0004e-06,-0.075278,-2.9522e-05,-282,2.6281
21149,22.532,0.27273,0,3.2293e-05,322.71,1.364e-05,36.27,8.8045e-06,-0.05884,-3.1523e-05,-303.07,2.6127
21150,22.532,0.36364,0.05,6.791e-07,6.7863,5.2146e-07,3.9181,8.6828e-13,1.2291e-05,-5.2146e-07,-3.9181,2.6127
21151,22.807,0.36364,0,2.6586e-05,265.68,1.2105e-05,40.761,6.6697e-06,-0.080081,-2.5658e-05,-242.98,2.6589
21152,22.716,0.27273,0,2.8422e-05,284.02,1.2408e-05,36.922,7.4849e-06,-0.066099,-2.7614e-05,-263.78,2.6434
21153,22.716,0.36364,0.05,6.8093e-07,6.8046,5.2287e-07,3.9287,-3.135e-13,2.7985e-06,-5.2287e-07,-3.9287,2.6435
21154,22.991,0.36364,0,2.2837e-05,228.21,1.0967e-05,42.174,5.3426e-06,-0.08494,-2.1826e-05,-204.22,2.6897
21155,22.899,0.27273,0,2.4579e-05,245.62,1.1183e-05,37.581,6.1716e-06,-0.074078,-2.3723e-05,-224.69,2.6742
21156,22.899,0.36364,0.05,6.8337e-07,6.829,5.2474e-07,3.9427,2.8886e-13,1.0445e-05,-5.2474e-07,-3.9427,2.6743
21157,23.174,0.36364,0,1.9165e-05,191.52,9.8671e-06,43.854,4.019e-06,-0.085862,-1.8039e-05,-165.82,2.7205
21158,23.083,0.27273,0,2.0776e-05,207.62,9.9697e-06,38.269,4.8652e-06,-0.084499,-1.9859e-05,-185.85,2.7051
21159,23.083,0.36364,0.05,6.8671e-07,6.8624,5.2731e-07,3.962,3.9987e-13,1.2468e-05,-5.2731e-07,-3.962,2.7051
21160,23.358,0.36364,0,1.562e-05,156.1,8.8324e-06,46.011,2.6965e-06,-0.091333,-1.432e-05,-127.94,2.7514
21161,23.266,0.27273,0,1.7035e-05,170.23,8.7762e-06,39.048,3.5673e-06,-0.090141,-1.6031e-05,-147.35,2.7359
21162,23.266,0.36364,0.05,6.9159e-07,6.9111,5.3106e-07,3.9902,8.2245e-13,1.2283e-05,-5.3106e-07,-3.9901,2.7359
21163,23.541,0.36364,0,1.2312e-05,123.03,7.9196e-06,49.133,1.3735e-06,-0.051365,-1.0715e-05,-90.882,2.7822
21164,23.45,0.27273,0,1.3401e-05,133.91,7.6234e-06,40.06,2.2764e-06,-0.11503,-1.2261e-05,-109.34,2.7667
21165,23.45,0.36364,0.05,6.9987e-07,6.9939,5.3741e-07,4.0379,-4.4487e-13,1.1725e-06,-5.3741e-07,-4.0379,2.7668
21166,23.725,0.36364,0,9.489e-06,94.825,7.2583e-06,54.249,1.6657e-08,-0.16216,-7.3144e-06,-55.245,2.8131
21167,23.633,0.27273,0,9.9906e-06,99.837,6.564e-06,41.753,9.9958e-07,-0.055512,-8.6011e-06,-72.191,2.7976
21168,23.633,0.36364,0.05,7.1857e-07,7.1808,5.5178e-07,4.1458,-3.0691e-13,4.2061e-06,-5.5177e-07,-4.1458,2.7976
21169,23.817,0.27273,0,7.1808e-06,71.758,5.7972e-06,45.55,-3.1605e-07,-0.38323,-5.2081e-06,-37.14,2.8284
21170,23.817,0.36364,0.05,7.8481e-07,7.8427,6.0264e-07,4.528,-2.6103e-13,2.9422e-06,-6.0264e-07,-4.528,2.8285
21171,23.908,0.36364,0,7.3555e-06,73.504,6.7528e-06,60.474,-1.2735e-06,0.16778,-4.1442e-06,-21.402,2.8439
21172,3.5419,0.18182,0,0.00012545,1253.6,5.2421e-05,122.09,3.3424e-05,-20.646,-0.00012311,-1196.8,0.068185
21173,3.4501,0.18182,0.05,1.3482e-05,134.73,1.0353e-05,77.787,2.2859e-12,1.6048e-05,-1.0353e-05,-77.787,0.061168
21174,3.4501,0.090909,0,8.0035e-05,799.8,3.219e-05,59.723,2.1874e-05,-17.785,-7.9039e-05,-776.01,0.060392
21175,3.3584,0.18182,0,7.1191e-05,711.42,2.9377e-05,71.879,1.9902e-05,0.68746,-6.9689e-05,-672.46,0.0544
21176,3.7254,0.18182,0,0.00018021,1800.8,6.8947e-05,110.93,5.3366e-05,-6.1375,-0.00017814,-1745.6,0.08204
21177,3.6336,0.18182,0.05,1.1988e-05,119.8,9.2054e-06,69.166,6.9026e-13,6.9612e-06,-9.2054e-06,-69.166,0.075003
21178,3.6336,0.090909,0,0.00014012,1400.2,5.0345e-05,48.76,4.371e-05,-1.0952,-0.00013924,-1375.7,0.074226
21179,3.9088,0.18182,0,0.0002319,2317.4,8.6052e-05,113.43,7.064e-05,-2.3626,-0.0002298,-2259.7,0.096003
21180,3.8171,0.18182,0.05,1.1074e-05,110.66,8.5033e-06,63.891,-4.6924e-13,-1.9783e-06,-8.5033e-06,-63.891,0.088921
21181,3.8171,0.090909,0,0.00019668,1965.5,6.9607e-05,56.101,6.2047e-05,-0.69856,-0.00019568,-1937.1,0.088151
21182,4.0923,0.18182,0,0.00027714,2769.5,0.00010077,111.78,8.5823e-05,-0.49418,-0.00027508,-2712.2,0.11011
21183,4.0006,0.18182,0.05,9.9537e-06,99.468,7.6432e-06,57.428,-1.9206e-12,-8.4865e-06,-7.6432e-06,-57.428,0.10296
21184,4.0006,0.090909,0,0.00024681,2466.4,8.645e-05,60.116,7.846e-05,0.083127,-0.00024574,-2435.8,0.1022
21185,4.2758,0.18182,0,0.00031547,3152.5,0.00011284,105.07,9.8865e-05,0.084308,-0.00031355,-3098.7,0.1244
21186,4.1841,0.18182,0.05,8.7042e-06,86.982,6.6838e-06,50.219,-1.3412e-13,-6.9346e-06,-6.6838e-06,-50.219,0.11716
21187,4.1841,0.090909,0,0.00028991,2897.1,0.0001006,59.243,9.2723e-05,0.028662,-0.00028885,-2867,0.11642
21188,4.4593,0.18182,0,0.00034711,3468.7,0.00012245,95.075,0.00010983,0.25804,-0.00034539,-3420.1,0.13889
21189,4.3676,0.18182,0.05,7.4242e-06,74.191,5.7009e-06,42.834,1.0497e-12,-2.7733e-06,-5.7009e-06,-42.834,0.13156
21190,4.3676,0.090909,0,0.00032603,3258.1,0.0001122,55.269,0.00010484,0.026996,-0.00032506,-3230.1,0.13083
21191,4.6428,0.18182,0,0.00037258,3723.2,0.00012988,83.379,0.00011882,0.25219,-0.00037108,-3680.7,0.15362
21192,4.551,0.18182,0.05,6.1923e-06,61.881,4.7549e-06,35.727,4.1216e-12,1.1611e-06,-4.755e-06,-35.727,0.14617
21193,4.551,0.090909,0,0.00035556,3553.2,0.00012146,49.503,0.00011487,-0.0054022,-0.0003547,-3528.2,0.14545
21194,4.8263,0.18182,0,0.00039257,3922.9,0.00013547,71.219,0.00012602,0.19731,-0.0003913,-3886.8,0.16859
21195,4.7345,0.18182,0.05,5.0619e-06,50.584,3.8869e-06,29.205,4.3495e-12,4.1988e-06,-3.8869e-06,-29.205,0.16101
21196,4.7345,0.090909,0,0.00037912,3788.6,0.0001287,42.967,0.00012298,-0.018215,-0.00037838,-3767,0.16031
21197,5.0097,0.18182,0,0.00040782,4075.4,0.00013953,59.439,0.00013164,0.13803,-0.00040677,-4045.3,0.18382
21198,4.918,0.18182,0.05,4.0609e-06,40.581,3.1183e-06,23.43,6.2796e-12,7.8892e-06,-3.1183e-06,-23.43,0.17612
21199,4.918,0.090909,0,0.00039744,3971.7,0.00013419,36.346,0.00012935,-0.021049,-0.00039681,-3953.4,0.17542
21200,5.1932,0.18182,0,0.00041906,4187.8,0.00014234,48.558,0.00013589,0.091053,-0.00041822,-4163.2,0.19932
21201,5.1015,0.18182,0.05,3.1986e-06,31.964,2.4562e-06,18.455,9.9556e-12,8.1152e-06,-2.4562e-06,-18.455,0.19148
21202,5.1015,0.090909,0,0.00041127,4109.9,0.00013823,30.069,0.00013423,-0.015125,-0.00041075,-4094.8,0.1908
21203,5.3767,0.18182,0,0.00042698,4266.8,0.00014414,38.845,0.00013898,0.058628,-0.0004263,-4247.2,0.21511
21204,5.285,0.18182,0.05,2.4717e-06,24.7,1.898e-06,14.261,9.8785e-12,8.6789e-06,-1.898e-06,-14.261,0.20713
21205,5.285,0.090909,0,0.00042133,4210.4,0.00014107,24.372,0.00013783,-0.0044135,-0.00042091,-4198.2,0.20645
21206,5.5602,0.18182,0,0.00043215,4318.5,0.00014515,30.4,0.0001411,0.038201,-0.00043163,-4303.2,0.23118
21207,5.4684,0.18182,0.05,1.8696e-06,18.683,1.4356e-06,10.787,9.7074e-12,7.3656e-06,-1.4357e-06,-10.787,0.22306
21208,5.4684,0.090909,0,0.00042826,4279.7,0.00014294,19.361,0.00014037,0.0086493,-0.00042793,-4270,0.22239
21209,5.7437,0.18182,0,0.0004351,4348,0.00014552,23.215,0.00014243,0.025817,-0.0004347,-4336.3,0.24754
21210,5.6519,0.18182,0.05,1.3784e-06,13.774,1.0584e-06,7.9523,1.137e-11,6.6389e-06,-1.0584e-06,-7.9526,0.23928
21211,5.6519,0.090909,0,0.00043264,4323.5,0.00014403,15.061,0.00014203,0.02227,-0.00043239,-4315.9,0.23861
21212,5.9271,0.18182,0,0.00043626,4359.6,0.0001454,17.217,0.00014311,0.017584,-0.00043596,-4350.9,0.26419
21213,5.8354,0.18182,0.05,9.8291e-07,9.8224,7.5474e-07,5.6708,1.4806e-11,4.5693e-06,-7.5477e-07,-5.6711,0.25579
21214,5.8354,0.090909,0,0.00043495,4346.5,0.00014449,11.446,0.00014297,0.035342,-0.00043476,-4340.8,0.25513
21215,6.1106,0.18182,0,0.00043598,4356.7,0.0001449,12.302,0.00014326,0.0098407,-0.00043576,-4350.6,0.28114
21216,6.0189,0.18182,0.05,6.6896e-07,6.685,5.1367e-07,3.8593,1.1085e-11,3.5772e-06,-5.1368e-07,-3.8598,0.27259
21217,6.0189,0.090909,0,0.0004356,4352.9,0.00014445,8.4632,0.00014333,0.047175,-0.00043545,-4348.7,0.27193
21218,6.2941,0.18182,0,0.00043455,4342.5,0.0001441,8.3531,0.00014299,-0.0015391,-0.00043441,-4338.4,0.29838
21219,6.2024,0.18182,0.05,4.2374e-07,4.2345,3.2537e-07,2.4446,1.2653e-11,1.918e-06,-3.2539e-07,-2.445,0.28968
21220,6.2024,0.090909,0,0.00043491,4346.1,0.00014402,6.0484,0.00014322,0.057316,-0.0004348,-4343,0.28903
21221,6.4776,0.18182,0,0.00043223,4319.3,0.00014308,5.2544,0.00014237,-0.023451,-0.00043214,-4316.7,0.31591
21222,6.3858,0.18182,0.05,2.3762e-07,2.3745,1.8245e-07,1.3707,1.2611e-11,-1.3481e-05,-1.8247e-07,-1.3712,0.30707
21223,6.3858,0.090909,0,0.00043316,4328.6,0.00014329,4.1334,0.00014274,0.065289,-0.00043309,-4326.5,0.30643
21224,6.6611,0.18182,0,0.0004292,4289,0.00014188,2.9071,0.00014149,-0.074189,-0.00042915,-4287.6,0.33374
21225,6.5693,0.18182,0.05,1.1119e-07,1.1111,8.5374e-08,0.64136,-8.1982e-12,-0.0001562,-8.5382e-08,-0.64163,0.32475
21226,6.5693,0.090909,0,0.00043058,4302.8,0.00014231,2.6522,0.00014197,0.070114,-0.00043053,-4301.5,0.32411
21227,6.8445,0.18182,0,0.00042562,4253.2,0.00014057,1.2764,0.00014037,-0.22709,-0.0004256,-4252.7,0.35185
21228,6.7528,0.18182,0.05,8.8004e-08,0.87944,6.7589e-08,0.50773,-4.057e-11,-0.00040529,-6.7563e-08,-0.50775,0.34272
21229,6.7528,0.090909,0,0.00042734,4270.5,0.00014115,1.5454,0.00014095,0.068729,-0.00042732,-4269.7,0.34208
21230,7.028,0.18182,0,0.0004216,4213.1,0.0001392,0.48847,0.00013905,-0.70595,-0.00042161,-4213.2,0.37025
21231,6.9363,0.18182,0.05,1.4112e-07,1.4103,1.0837e-07,0.81413,-1.469e-11,-0.00018392,-1.0837e-07,-0.81431,0.36097
21232,6.9363,0.090909,0,0.0004236,4233,0.00013985,0.76896,0.00013975,0.048213,-0.00042358,-4232.6,0.36034
21233,7.2115,0.18182,0,0.00041726,4169.7,0.00013778,0.28466,0.00013757,-1.3386,-0.00041727,-4170.2,0.38893
21234,7.1198,0.18182,0.05,1.9131e-07,1.9118,1.469e-07,1.1036,-5.0845e-12,-0.00016343,-1.4691e-07,-1.1039,0.37951
21235,7.1198,0.090909,0,0.00041945,4191.6,0.00013845,0.33585,0.0001384,-0.05535,-0.00041944,-4191.5,0.37889
21236,7.395,0.18182,0,0.00041266,4123.7,0.00013628,0.22703,0.00013602,-1.7629,-0.00041268,-4124.5,0.40789
21237,7.3032,0.18182,0.05,2.275e-07,2.2734,1.7468e-07,1.3124,-2.3321e-13,-0.00012923,-1.7469e-07,-1.3127,0.39834
21238,7.3032,0.090909,0,0.000415,4147.1,0.00013698,0.22608,0.00013692,-0.26671,-0.000415,-4147.1,0.39772
21239,7.5785,0.18182,0,0.00040787,4075.9,0.00013471,0.20901,0.00013442,-1.9379,-0.0004079,-4076.7,0.42713
21240,7.4867,0.18182,0.05,2.5082e-07,2.5064,1.9259e-07,1.4469,6.3465e-13,-9.1831e-05,-1.926e-07,-1.4472,0.41744
21241,7.4867,0.090909,0,0.00041031,4100.3,0.00013544,0.21984,0.00013536,-0.40503,-0.00041031,-4100.3,0.41682
21242,7.7619,0.18182,0,0.00040293,4026.6,0.00013308,0.20984,0.0001328,-1.8994,-0.00040296,-4027.4,0.44665
21243,7.6702,0.18182,0.05,2.6368e-07,2.6349,2.0246e-07,1.5211,7.1866e-13,-9.1349e-05,-2.0248e-07,-1.5214,0.43682
21244,7.6702,0.090909,0,0.00040544,4051.6,0.00013384,0.2462,0.00013375,-0.43299,-0.00040545,-4051.7,0.43621
21245,7.9454,0.18182,0,0.00039789,3976.2,0.00013141,0.22675,0.00013115,-1.6924,-0.00039792,-3976.9,0.46643
21246,7.8537,0.18182,0.05,2.6836e-07,2.6818,2.0606e-07,1.5482,2.4617e-12,-8.0115e-05,-2.0608e-07,-1.5485,0.45647
21247,7.8537,0.090909,0,0.00040045,4001.7,0.00013219,0.30412,0.0001321,-0.37829,-0.00040045,-4001.7,0.45586
21248,8.1289,0.18182,0,0.00039278,3925.1,0.00012971,0.26631,0.00012949,-1.364,-0.0003928,-3925.6,0.48648
21249,8.0372,0.18182,0.05,2.6681e-07,2.6663,2.0487e-07,1.5392,1.2379e-12,-7.3673e-05,-2.0489e-07,-1.5395,0.47639
21250,8.0372,0.090909,0,0.00039535,3950.8,0.00013051,0.41139,0.00013042,-0.28306,-0.00039535,-3950.7,0.47579
21251,8.3124,0.18182,0,0.00038761,3873.4,0.00012799,0.34997,0.00012781,-0.96961,-0.00038762,-3873.7,0.5068
21252,8.2206,0.18182,0.05,2.6061e-07,2.6043,2.0011e-07,1.5035,3.8336e-12,-7.3058e-05,-2.0013e-07,-1.5038,0.49657
21253,8.2206,0.090909,0,0.00039019,3899.2,0.00012882,0.59093,0.00012872,-0.19072,-0.00039018,-3899,0.49598
21254,8.4959,0.18182,0,0.0003824,3821.4,0.00012627,0.53109,0.00012612,-0.59074,-0.0003824,-3821.4,0.52738
21255,8.4041,0.18182,0.05,2.5104e-07,2.5087,1.9276e-07,1.4482,1.3466e-12,-8.3104e-05,-1.9277e-07,-1.4485,0.51702
21256,8.4041,0.090909,0,0.00038497,3847.1,0.00012712,0.84862,0.00012699,-0.12425,-0.00038496,-3846.7,0.51643
21257,8.6794,0.18182,0,0.00037718,3769.2,0.00012456,0.88449,0.0001244,-0.32535,-0.00037717,-3768.9,0.54821
21258,8.5876,0.18182,0.05,2.391e-07,2.3893,1.8359e-07,1.3793,3.1967e-12,-7.85e-05,-1.8361e-07,-1.3796,0.53773
21259,8.5876,0.090909,0,0.00037973,3794.7,0.00012541,1.1688,0.00012525,-0.08213,-0.00037971,-3794.1,0.53715
21260,8.8628,0.18182,0,0.00037194,3716.8,0.00012287,1.4046,0.00012265,-0.1868,-0.00037192,-3716.2,0.5693
21261,8.7711,0.18182,0.05,2.2558e-07,2.2543,1.7321e-07,1.3013,2.2382e-12,-8.0576e-05,-1.7323e-07,-1.3017,0.55869
21262,8.7711,0.090909,0,0.00037447,3742.1,0.0001237,1.5313,0.00012349,-0.055784,-0.00037444,-3741.3,0.55811
21263,9.0463,0.18182,0,0.0003667,3664.4,0.00012118,2.0189,0.0001209,-0.11796,-0.00036666,-3663.5,0.59064
21264,8.9546,0.18182,0.05,2.1111e-07,2.1097,1.621e-07,1.2179,4.4929e-12,-6.9438e-05,-1.6211e-07,-1.2182,0.57991
21265,8.9546,0.090909,0,0.0003692,3689.4,0.000122,1.9203,0.00012174,-0.038806,-0.00036916,-3688.5,0.57933
21266,9.2298,0.18182,0,0.00036146,3612.1,0.00011951,2.677,0.00011914,-0.080509,-0.00036141,-3610.8,0.61222
21267,9.1381,0.18182,0.05,1.9616e-07,1.9602,1.5062e-07,1.1316,2.3564e-12,-7.5549e-05,-1.5063e-07,-1.1319,0.60137
21268,9.1381,0.090909,0,0.00036392,3636.7,0.00012029,2.3244,0.00011998,-0.027473,-0.00036389,-3635.6,0.6008
21269,9.4133,0.18182,0,0.00035623,3559.8,0.00011784,3.3528,0.00011738,-0.058056,-0.00035617,-3558.2,0.63405
21270,9.3215,0.18182,0.05,1.8108e-07,1.8096,1.3904e-07,1.0446,1.4944e-12,-7.1927e-05,-1.3906e-07,-1.0449,0.62307
21271,9.3215,0.090909,0,0.00035866,3584.1,0.00011859,2.7355,0.00011822,-0.01968,-0.00035861,-3582.8,0.62251
21272,9.5968,0.18182,0,0.00035101,3507.6,0.00011617,4.0317,0.00011563,-0.043555,-0.00035094,-3505.7,0.65611
21273,9.505,0.18182,0.05,1.6616e-07,1.6604,1.2758e-07,0.9585,3.8035e-12,-7.452e-05,-1.2759e-07,-0.95879,0.64502
21274,9.505,0.090909,0,0.0003534,3531.6,0.00011689,3.1477,0.00011647,-0.014204,-0.00035335,-3530,0.64447
21275,9.7802,0.18182,0,0.0003458,3455.6,0.00011451,4.7047,0.00011388,-0.033663,-0.00034572,-3453.3,0.67841
21276,9.6885,0.18182,0.05,1.5158e-07,1.5147,1.1639e-07,0.87439,2.0131e-12,-7.436e-05,-1.164e-07,-0.87468,0.6672
21277,9.6885,0.090909,0,0.00034816,3479.2,0.00011519,3.5566,0.00011472,-0.010291,-0.0003481,-3477.4,0.66666
21278,9.9637,0.18182,0,0.00034061,3403.8,0.00011285,5.3658,0.00011213,-0.026623,-0.00034052,-3401.1,0.70095
21279,9.872,0.18182,0.05,1.3749e-07,1.3739,1.0556e-07,0.79309,1.2288e-12,-7.3634e-05,-1.0558e-07,-0.79338,0.68962
21280,9.872,0.090909,0,0.00034293,3427,0.0001135,3.959,0.00011297,-0.0074769,-0.00034286,-3425,0.68908
21281,10.147,0.18182,0,0.00033544,3352.1,0.0001112,6.011,0.0001104,-0.021447,-0.00033534,-3349.1,0.72371
21282,10.055,0.18182,0.05,1.2398e-07,1.239,9.5199e-08,0.71519,2.3348e-12,-7.022e-05,-9.5208e-08,-0.71545,0.71227
21283,10.055,0.090909,0,0.00033772,3374.9,0.00011181,4.3525,0.00011123,-0.0054321,-0.00033765,-3372.7,0.71174
21284,10.331,0.18182,0,0.00033029,3300.6,0.00010955,6.6375,0.00010867,-0.017561,-0.00033018,-3297.3,0.7467
21285,10.239,0.18182,0.05,1.1113e-07,1.1106,8.5328e-08,0.64105,7.3936e-13,-6.9756e-05,-8.5346e-08,-0.64132,0.73515
21286,10.239,0.090909,0,0.00033253,3323,0.00011013,4.7357,0.0001095,-0.0039563,-0.00033245,-3320.7,0.73462
21287,10.514,0.18182,0,0.00032516,3249.3,0.00010791,7.2438,0.00010694,-0.014579,-0.00032503,-3245.7,0.7699
21288,10.422,0.18182,0.05,9.8966e-08,0.98898,7.5988e-08,0.57086,2.7557e-12,-7.231e-05,-7.6e-08,-0.57112,0.75824
21289,10.422,0.090909,0,0.00032736,3271.4,0.00010846,5.1073,0.00010778,-0.0029283,-0.00032727,-3268.8,0.75773
21290,10.698,0.18182,0,0.00032004,3198.2,0.00010627,7.829,0.00010523,-0.012229,-0.00031991,-3194.3,0.79333
21291,10.606,0.18182,0.05,8.7497e-08,0.87437,6.7179e-08,0.5047,3.7075e-13,-6.5655e-05,-6.7194e-08,-0.50493,0.78156
21292,10.606,0.090909,0,0.00032221,3219.9,0.00010679,5.4669,0.00010606,-0.0021939,-0.00032212,-3217.2,0.78105
21293,10.881,0.18182,0,0.00031495,3147.3,0.00010464,8.3928,0.00010352,-0.01034,-0.00031481,-3143.1,0.81697
21294,10.789,0.18182,0.05,7.6734e-08,0.76681,5.8915e-08,0.44259,1.4638e-13,-7.5917e-05,-5.893e-08,-0.44285,0.8051
21295,10.789,0.090909,0,0.00031708,3168.6,0.00010512,5.8142,0.00010435,-0.0016777,-0.00031698,-3165.7,0.80459
21296,11.065,0.18182,0,0.00030988,3096.7,0.00010301,8.9351,0.00010182,-0.0088255,-0.00030973,-3092.2,0.84082
21297,10.973,0.18182,0.05,6.6674e-08,0.66628,5.1193e-08,0.38456,9.4547e-13,-6.8945e-05,-5.1202e-08,-0.38479,0.82884
21298,10.973,0.090909,0,0.00031198,3117.6,0.00010347,6.1491,0.00010265,-0.0013165,-0.00031187,-3114.5,0.82835
21299,11.248,0.18182,0,0.00030483,3046.2,0.00010138,9.4565,0.00010012,-0.0076099,-0.00030467,-3041.5,0.86488
21300,11.156,0.18182,0.05,5.7298e-08,0.57259,4.3992e-08,0.33047,7.8171e-13,-6.96e-05,-4.4004e-08,-0.3307,0.8528
21301,11.156,0.090909,0,0.00030689,3066.8,0.00010181,6.4719,0.00010095,-0.0011303,-0.00030678,-3063.6,0.85231
21302,11.432,0.18182,0,0.0002998,2995.9,9.9766e-05,9.9576,9.844e-05,-0.0065864,-0.00029963,-2990.9,0.88915
21303,11.34,0.18182,0.05,4.8569e-08,0.48535,3.7287e-08,0.28012,2.6079e-13,-6.7888e-05,-3.7302e-08,-0.28032,0.87696
21304,11.34,0.090909,0,0.00030183,3016.2,0.00010017,6.7828,9.9267e-05,-0.0010459,-0.00030171,-3012.8,0.87648
21305,11.615,0.18182,0,0.00029479,2945.9,9.8154e-05,10.439,9.6763e-05,-0.0057272,-0.00029461,-2940.7,0.91361
21306,11.523,0.18182,0.05,4.0474e-08,0.40446,3.1075e-08,0.23339,5.3555e-13,-8.6029e-05,-3.1083e-08,-0.23364,0.90133
21307,11.523,0.090909,0,0.00029679,2965.8,9.8531e-05,7.0825,9.7588e-05,-0.0009881,-0.00029667,-2962.3,0.90085
21308,11.799,0.18182,0,0.00028981,2896.1,9.6546e-05,10.903,9.5095e-05,-0.0050175,-0.00028962,-2890.6,0.93827
21309,11.707,0.18182,0.05,3.2986e-08,0.32963,2.5326e-08,0.1902,-1.0106e-12,-8.1698e-05,-2.5333e-08,-0.19042,0.92589
21310,11.707,0.090909,0,0.00029177,2915.7,9.6899e-05,7.3713,9.5918e-05,-0.001026,-0.00029164,-2912,0.92542
21311,11.982,0.18182,0,0.00028484,2846.4,9.4945e-05,11.349,9.3434e-05,-0.0044085,-0.00028464,-2840.7,0.96313
21312,11.89,0.18182,0.05,2.6065e-08,0.26047,2.001e-08,0.15029,-5.6848e-13,-7.5486e-05,-2.002e-08,-0.15048,0.95065
21313,11.89,0.090909,0,0.00028677,2865.7,9.5273e-05,7.65,9.4255e-05,-0.0010955,-0.00028664,-2861.9,0.95019
21314,12.165,0.18182,0,0.00027989,2797,9.3349e-05,11.779,9.1781e-05,-0.0038982,-0.00027969,-2791.1,0.98817
21315,12.074,0.18182,0.05,1.9693e-08,0.19679,1.5119e-08,0.11353,-2.1261e-12,-7.2121e-05,-1.5125e-08,-0.1137,0.9756
21316,12.074,0.090909,0,0.00028179,2816,9.3654e-05,7.9193,9.2599e-05,-0.0011901,-0.00028166,-2812,0.97515
21317,12.349,0.18182,0,0.00027497,2747.8,9.1758e-05,12.193,9.0135e-05,-0.0034655,-0.00027476,-2741.7,1.0134
21318,12.257,0.18182,0.05,1.3835e-08,0.13825,1.0621e-08,0.079742,-3.5955e-12,-8.3977e-05,-1.0626e-08,-0.079898,1.0007
21319,12.257,0.090909,0,0.00027684,2766.5,9.2041e-05,8.1797,9.0952e-05,-0.0013357,-0.0002767,-2762.4,1.0003
21320,12.532,0.18182,0,0.00027007,2698.8,9.0174e-05,12.594,8.8497e-05,-0.0030756,-0.00026985,-2692.5,1.0388
21321,12.441,0.18182,0.05,8.4812e-09,0.084754,6.5117e-09,0.048862,-5.6471e-12,-9.9279e-05,-6.5133e-09,-0.049003,1.0261
21322,12.441,0.090909,0,0.00027191,2717.2,9.0434e-05,8.432,8.9312e-05,-0.0014775,-0.00027176,-2713,1.0256
21323,12.716,0.18182,0,0.00026518,2650,8.8595e-05,12.983,8.6867e-05,-0.0027192,-0.00026496,-2643.5,1.0644
21324,12.624,0.18182,0.05,3.7258e-09,0.037232,2.8638e-09,0.021459,-1.4784e-11,-0.0001675,-2.8581e-09,-0.021533,1.0516
21325,12.624,0.090909,0,0.000267,2668.1,8.8834e-05,8.6769,8.7679e-05,-0.0016191,-0.00026685,-2663.8,1.0511
21326,12.899,0.18182,0,0.00026032,2601.4,8.7022e-05,13.36,8.5244e-05,-0.0024123,-0.00026009,-2594.7,1.0902
21327,12.808,0.18182,0.05,1.9829e-09,0.019816,1.5146e-09,0.011312,4.1879e-12,-4.6e-05,-1.5306e-09,-0.011569,1.0773
21328,12.808,0.090909,0,0.00026211,2619.3,8.724e-05,8.9151,8.6053e-05,-0.0017474,-0.00026196,-2614.8,1.0768
21329,13.083,0.18182,0,0.00025548,2553.1,8.5456e-05,13.726,8.3628e-05,-0.0021585,-0.00025525,-2546.2,1.1161
21330,12.991,0.18182,0.05,5.5481e-09,0.055442,4.2523e-09,0.031895,7.614e-12,-1.1764e-05,-4.2681e-09,-0.032124,1.1031
21331,12.991,0.090909,0,0.00025724,2570.6,8.5653e-05,9.1473,8.4435e-05,-0.0019145,-0.00025708,-2566,1.1027
21332,13.266,0.18182,0,0.00025066,2504.9,8.3895e-05,14.083,8.202e-05,-0.0019132,-0.00025042,-2497.8,1.1423
21333,13.175,0.18182,0.05,9.2326e-09,0.092262,7.0811e-09,0.053162,3.1236e-12,-2.9607e-05,-7.0979e-09,-0.053373,1.1292
21334,13.175,0.090909,0,0.00025239,2522.2,8.4073e-05,9.374,8.2825e-05,-0.0020846,-0.00025223,-2517.5,1.1288
21335,13.45,0.18182,0,0.00024586,2456.9,8.234e-05,14.433,8.0419e-05,-0.001688,-0.00024562,-2449.7,1.1686
21336,13.358,0.18182,0.05,1.2625e-08,0.12616,9.6912e-09,0.072739,3.3365e-12,-4.0571e-05,-9.6973e-09,-0.072938,1.1554
21337,13.358,0.090909,0,0.00024757,2474,8.2499e-05,9.5961,8.1221e-05,-0.0022131,-0.0002474,-2469.2,1.155
21338,13.633,0.18182,0,0.00024109,2409.2,8.0792e-05,14.775,7.8825e-05,-0.0014968,-0.00024083,-2401.8,1.195
21339,13.542,0.18182,0.05,1.5706e-08,0.15695,1.2056e-08,0.09052,3.4252e-12,-4.67e-05,-1.2065e-08,-0.090714,1.1817
21340,13.542,0.090909,0,0.00024276,2426,8.0931e-05,9.8141,7.9625e-05,-0.0023725,-0.00024259,-2421,1.1813
21341,13.817,0.18182,0,0.00023633,2361.7,7.925e-05,15.111,7.7239e-05,-0.0013158,-0.00023607,-2354.1,1.2216
21342,13.725,0.18182,0.05,1.8497e-08,0.18484,1.42e-08,0.10664,5.5306e-13,-4.48e-05,-1.4207e-08,-0.1068,1.2083
21343,13.725,0.090909,0,0.00023798,2378.1,7.9371e-05,10.029,7.8035e-05,-0.0025229,-0.00023781,-2373.1,1.2079
21344,14,0.18182,0,0.00023159,2314.3,7.7714e-05,15.441,7.5659e-05,-0.0011627,-0.00023132,-2306.6,1.2484
21345,13.909,0.18182,0.05,2.1005e-08,0.2099,1.6125e-08,0.12109,1.6013e-12,-5.5582e-05,-1.6132e-08,-0.12128,1.235
21346,13.909,0.090909,0,0.00023322,2330.5,7.7816e-05,10.24,7.6453e-05,-0.0026618,-0.00023304,-2325.4,1.2346
21347,14.184,0.18182,0,0.00022687,2267.2,7.6185e-05,15.768,7.4086e-05,-0.0010189,-0.0002266,-2259.3,1.2753
21348,14.092,0.18182,0.05,2.3253e-08,0.23237,1.7852e-08,0.13407,5.6287e-13,-5.7306e-05,-1.7859e-08,-0.13425,1.2618
21349,14.092,0.090909,0,0.00022847,2283.2,7.6269e-05,10.45,7.4878e-05,-0.0028297,-0.00022829,-2277.9,1.2614
21350,14.367,0.18182,0,0.00022218,2220.2,7.4662e-05,16.092,7.252e-05,-0.00086617,-0.0002219,-2212.2,1.3024
21351,14.276,0.18182,0.05,2.5259e-08,0.25242,1.9393e-08,0.14567,-1.4981e-13,-4.691e-05,-1.9399e-08,-0.1458,1.2888
21352,14.276,0.090909,0,0.00022375,2236,7.4728e-05,10.657,7.3309e-05,-0.0029563,-0.00022357,-2230.6,1.2884
21353,14.551,0.18182,0,0.0002175,2173.5,7.3146e-05,16.413,7.0961e-05,-0.00074093,-0.00021722,-2165.3,1.3296
21354,14.459,0.18182,0.05,2.7026e-08,0.27007,2.075e-08,0.15586,-6.409e-13,-5.1724e-05,-2.0755e-08,-0.15599,1.316
21355,14.459,0.090909,0,0.00021905,2189,7.3194e-05,10.864,7.1748e-05,-0.0030813,-0.00021886,-2183.5,1.3156
21356,14.734,0.18182,0,0.00021285,2127,7.1636e-05,16.732,6.9409e-05,-0.00063249,-0.00021256,-2118.6,1.357
21357,14.642,0.18182,0.05,2.858e-08,0.2856,2.1943e-08,0.16481,-2.0955e-12,-7.395e-05,-2.1948e-08,-0.16498,1.3433
21358,14.642,0.090909,0,0.00021437,2142.2,7.1667e-05,11.069,7.0193e-05,-0.0032339,-0.00021418,-2136.7,1.3429
21359,14.918,0.18182,0,0.00020821,2080.7,7.0133e-05,17.051,6.7864e-05,-0.00051739,-0.00020792,-2072.1,1.3845
21360,14.826,0.18182,0.05,2.9935e-08,0.29914,2.2984e-08,0.17263,-2.2562e-12,-8.1401e-05,-2.2989e-08,-0.17279,1.3707
21361,14.826,0.090909,0,0.00020971,2095.7,7.0146e-05,11.275,6.8645e-05,-0.0033666,-0.00020952,-2090,1.3704
21362,15.101,0.18182,0,0.0002036,2034.6,6.8637e-05,17.37,6.6325e-05,-0.00039813,-0.0002033,-2025.8,1.4121
21363,15.009,0.18182,0.05,3.1102e-08,0.3108,2.388e-08,0.17938,-2.7036e-12,-6.6094e-05,-2.3884e-08,-0.1795,1.3983
21364,15.009,0.090909,0,0.00020507,2049.3,6.8632e-05,11.481,6.7104e-05,-0.0034889,-0.00020487,-2043.5,1.3979
21365,15.285,0.18182,0,0.000199,1988.7,6.7147e-05,17.69,6.4793e-05,-0.00028821,-0.0001987,-1979.8,1.4399
21366,15.193,0.18182,0.05,3.209e-08,0.32068,2.464e-08,0.18507,-2.9183e-12,-8.6959e-05,-2.4643e-08,-0.18522,1.426
21367,15.193,0.090909,0,0.00020045,2003.1,6.7125e-05,11.688,6.5569e-05,-0.0035973,-0.00020025,-1997.3,1.4257
21368,15.468,0.18182,0,0.00019443,1942.9,6.5665e-05,18.011,6.3267e-05,-0.00019169,-0.00019412,-1933.9,1.4678
21369,15.376,0.18182,0.05,3.2915e-08,0.32892,2.5273e-08,0.18984,-4.7633e-12,-9.0487e-05,-2.5276e-08,-0.18997,1.4538
21370,15.376,0.090909,0,0.00019585,1957.2,6.5625e-05,11.895,6.4041e-05,-0.0037226,-0.00019565,-1951.2,1.4535
21371,15.652,0.18182,0,0.00018988,1897.4,6.4189e-05,18.335,6.1748e-05,-9.4588e-05,-0.00018956,-1888.2,1.4959
21372,15.56,0.18182,0.05,3.3596e-08,0.33573,2.5796e-08,0.19377,-5.6903e-12,-9.1997e-05,-2.5799e-08,-0.19389,1.4818
21373,15.56,0.090909,0,0.00019127,1911.4,6.4131e-05,12.105,6.2519e-05,-0.0038462,-0.00019106,-1905.3,1.4815
21374,15.835,0.18182,0,0.00018534,1852.1,6.272e-05,18.661,6.0236e-05,-1.1127e-05,-0.00018502,-1842.7,1.5241
21375,15.743,0.18182,0.05,3.4143e-08,0.34119,2.6218e-08,0.19693,-3.7907e-12,-8.5471e-05,-2.6217e-08,-0.19704,1.5099
21376,15.743,0.090909,0,0.00018671,1865.9,6.2644e-05,12.317,6.1004e-05,-0.0039622,-0.0001865,-1859.7,1.5096
21377,16.019,0.18182,0,0.00018083,1807,6.1258e-05,18.991,5.873e-05,6.9399e-05,-0.0001805,-1797.5,1.5523
21378,15.927,0.18182,0.05,3.4577e-08,0.34553,2.655e-08,0.19945,-6.4726e-12,-9.2011e-05,-2.6552e-08,-0.19954,1.5382
21379,15.927,0.090909,0,0.00018218,1820.5,6.1164e-05,12.531,5.9496e-05,-0.0041017,-0.00018196,-1814.2,1.5379
21380,16.202,0.18182,0,0.00017633,1762.1,5.9803e-05,19.326,5.723e-05,0.00016211,-0.000176,-1752.4,1.5808
21381,16.11,0.18182,0.05,3.4917e-08,0.34893,2.6813e-08,0.20141,-7.7341e-12,-9.6829e-05,-2.6811e-08,-0.2015,1.5665
21382,16.11,0.090909,0,0.00017766,1775.3,5.9691e-05,12.748,5.7994e-05,-0.0042138,-0.00017744,-1768.9,1.5662
21383,16.386,0.18182,0,0.00017186,1717.4,5.8354e-05,19.665,5.5737e-05,0.00024094,-0.00017152,-1707.5,1.6093
21384,16.294,0.18182,0.05,3.5176e-08,0.35152,2.7011e-08,0.20291,-1.031e-11,-0.00010665,-2.7011e-08,-0.20299,1.595
21385,16.294,0.090909,0,0.00017316,1730.4,5.8225e-05,12.969,5.6498e-05,-0.0043261,-0.00017293,-1723.9,1.5947
21386,16.569,0.18182,0,0.00016741,1672.9,5.6913e-05,20.01,5.425e-05,0.00030951,-0.00016706,-1662.8,1.6379
21387,16.477,0.18182,0.05,3.5386e-08,0.35361,2.7173e-08,0.20413,-1.0097e-11,-8.6084e-05,-2.7171e-08,-0.20418,1.6236
21388,16.477,0.090909,0,0.00016868,1685.6,5.6765e-05,13.193,5.5009e-05,-0.0044651,-0.00016845,-1679,1.6233
21389,16.753,0.18182,0,0.00016297,1628.6,5.5479e-05,20.361,5.277e-05,0.00038606,-0.00016262,-1618.3,1.6667
21390,16.661,0.18182,0.05,3.5574e-08,0.35549,2.7319e-08,0.20522,-7.7704e-12,-0.00012207,-2.7314e-08,-0.20527,1.6523
21391,16.661,0.090909,0,0.00016422,1641.1,5.5313e-05,13.421,5.3526e-05,-0.0045967,-0.00016399,-1634.3,1.652
21392,16.936,0.18182,0,0.00015856,1584.5,5.4052e-05,20.718,5.1295e-05,0.00046789,-0.0001582,-1574,1.6956
21393,16.844,0.18182,0.05,3.577e-08,0.35745,2.747e-08,0.20636,-1.1734e-11,-0.0001164,-2.7464e-08,-0.2064,1.6811
21394,16.844,0.090909,0,0.00015978,1596.7,5.3867e-05,13.654,5.2049e-05,-0.0047144,-0.00015954,-1589.8,1.6808
21395,17.119,0.18182,0,0.00015417,1540.6,5.2632e-05,21.083,4.9827e-05,0.00053903,-0.0001538,-1529.9,1.7245
21396,17.028,0.18182,0.05,3.6015e-08,0.3599,2.7658e-08,0.20778,-1.1689e-11,-0.00010897,-2.7652e-08,-0.2078,1.71
21397,17.028,0.090909,0,0.00015536,1552.5,5.2428e-05,13.891,5.0578e-05,-0.0048395,-0.00015512,-1545.5,1.7098
21398,17.303,0.18182,0,0.00014979,1496.9,5.122e-05,21.455,4.8364e-05,0.00060069,-0.00014941,-1486,1.7536
21399,17.211,0.18182,0.05,3.6351e-08,0.36326,2.7916e-08,0.20972,-1.163e-11,-0.00012814,-2.791e-08,-0.20974,1.739
21400,17.211,0.090909,0,0.00015096,1508.5,5.0996e-05,14.133,4.9114e-05,-0.0049797,-0.00015071,-1501.4,1.7388
21401,17.486,0.18182,0,0.00014544,1453.3,4.9814e-05,21.835,4.6908e-05,0.00066232,-0.00014505,-1442.3,1.7828
21402,17.395,0.18182,0.05,3.6836e-08,0.3681,2.829e-08,0.21252,-1.1009e-11,-0.00011065,-2.8281e-08,-0.21253,1.7681
21403,17.395,0.090909,0,0.00014658,1464.8,4.957e-05,14.381,4.7656e-05,-0.0051191,-0.00014633,-1457.5,1.7679
21404,17.67,0.18182,0,0.0001411,1410,4.8415e-05,22.223,4.5458e-05,0.00071123,-0.00014071,-1398.8,1.812
21405,17.578,0.18182,0.05,3.7524e-08,0.37498,2.8817e-08,0.21649,-1.3451e-11,-0.0001146,-2.881e-08,-0.2165,1.7974
21406,17.578,0.090909,0,0.00014221,1421.2,4.8152e-05,14.634,4.6203e-05,-0.0052619,-0.00014196,-1413.8,1.7971
21407,17.853,0.18182,0,0.00013678,1366.9,4.7024e-05,22.62,4.4013e-05,0.0007556,-0.00013638,-1355.4,1.8414
21408,17.762,0.18182,0.05,3.848e-08,0.38453,2.9552e-08,0.22201,-1.4183e-11,-0.00012036,-2.9544e-08,-0.22201,1.8267
21409,17.762,0.090909,0,0.00013787,1377.7,4.674e-05,14.893,4.4757e-05,-0.0054269,-0.00013761,-1370.2,1.8265
21410,18.037,0.18182,0,0.00013249,1323.9,4.5639e-05,23.026,4.2575e-05,0.00080173,-0.00013208,-1312.3,1.8708
21411,17.945,0.18182,0.05,3.9767e-08,0.3974,3.054e-08,0.22944,-1.2652e-11,-0.0001068,-3.0533e-08,-0.22944,1.8561
21412,17.945,0.090909,0,0.00013355,1334.5,4.5335e-05,15.159,4.3316e-05,-0.0055754,-0.00013328,-1326.9,1.8559
21413,18.22,0.18182,0,0.00012821,1281.2,4.4262e-05,23.441,4.1142e-05,0.00082787,-0.00012779,-1269.3,1.9004
21414,18.129,0.18182,0.05,4.145e-08,0.41421,3.1832e-08,0.23915,-9.1106e-12,-0.0001221,-3.1825e-08,-0.23915,1.8856
21415,18.129,0.090909,0,0.00012924,1291.5,4.3936e-05,15.43,4.1882e-05,-0.0057306,-0.00012897,-1283.7,1.8854
21416,18.404,0.18182,0,0.00012395,1238.6,4.2891e-05,23.866,3.9715e-05,0.00083625,-0.00012352,-1226.5,1.93
21417,18.312,0.18182,0.05,4.3593e-08,0.43563,3.3478e-08,0.25151,-8.8451e-12,-8.9521e-05,-3.3471e-08,-0.25151,1.9152
21418,18.312,0.090909,0,0.00012495,1248.7,4.2545e-05,15.708,4.0453e-05,-0.0059157,-0.00012468,-1240.7,1.915
21419,18.587,0.18182,0,0.00011971,1196.2,4.1527e-05,24.3,3.8293e-05,0.00083756,-0.00011927,-1183.9,1.9597
21420,18.496,0.18182,0.05,4.6249e-08,0.46217,3.5517e-08,0.26683,-1.0212e-11,-0.00010193,-3.551e-08,-0.26683,1.9448
21421,18.496,0.090909,0,0.00012068,1206,4.1159e-05,15.993,3.903e-05,-0.0060961,-0.0001204,-1197.9,1.9446
21422,18.771,0.18182,0,0.00011548,1154,4.017e-05,24.744,3.6877e-05,0.00082615,-0.00011504,-1141.5,1.9895
21423,18.679,0.18182,0.05,4.9467e-08,0.49433,3.7986e-08,0.2854,-8.6471e-12,-5.4102e-05,-3.7982e-08,-0.2854,1.9746
21424,18.679,0.090909,0,0.00011643,1163.5,3.9781e-05,16.284,3.7613e-05,-0.0062783,-0.00011615,-1155.3,1.9744
21425,18.954,0.18182,0,0.00011128,1112,3.882e-05,25.198,3.5466e-05,0.00078764,-0.00011083,-1099.2,2.0193
21426,18.863,0.18182,0.05,5.329e-08,0.53254,4.0922e-08,0.30746,-5.7492e-12,-6.3064e-05,-4.0919e-08,-0.30746,2.0044
21427,18.863,0.090909,0,0.0001122,1121.2,3.8409e-05,16.581,3.6201e-05,-0.0064624,-0.00011191,-1112.8,2.0042
21428,19.138,0.18182,0,0.00010709,1070.2,3.7476e-05,25.66,3.4061e-05,0.00071591,-0.00010663,-1057.1,2.0493
21429,19.046,0.18182,0.05,5.7757e-08,0.57718,4.4352e-08,0.33323,-5.9098e-12,-4.6699e-05,-4.4349e-08,-0.33324,2.0343
21430,19.046,0.090909,0,0.00010798,1079.1,3.7043e-05,16.886,3.4795e-05,-0.0066664,-0.00010769,-1070.6,2.0341
21431,19.321,0.18182,0,0.00010292,1028.5,3.6139e-05,26.132,3.2661e-05,0.00061342,-0.00010245,-1015.2,2.0793
21432,19.229,0.18182,0.05,6.2898e-08,0.62855,4.83e-08,0.36288,-5.2388e-12,-5.6629e-05,-4.8296e-08,-0.3629,2.0642
21433,19.229,0.090909,0,0.00010379,1037.2,3.5683e-05,17.196,3.3394e-05,-0.0068755,-0.00010348,-1028.5,2.0641
21434,19.505,0.18182,0,9.8768e-05,987,3.4808e-05,26.612,3.1266e-05,0.00046588,-9.8288e-05,-973.42,2.1093
21435,19.413,0.18182,0.05,6.8745e-08,0.68697,5.2788e-08,0.39662,-3.9497e-12,-3.1165e-05,-5.2787e-08,-0.39663,2.0943
21436,19.413,0.090909,0,9.9607e-05,995.38,3.433e-05,17.513,3.1998e-05,-0.0070865,-9.9297e-05,-986.51,2.0941
21437,19.688,0.18182,0,9.4632e-05,945.67,3.3483e-05,27.099,2.9877e-05,0.00026788,-9.4142e-05,-931.83,2.1394
21438,19.596,0.18182,0.05,7.5328e-08,0.75276,5.7843e-08,0.4346,-2.7849e-12,-2.6242e-05,-5.7842e-08,-0.43461,2.1244
21439,19.596,0.090909,0,9.5443e-05,953.77,3.2983e-05,17.836,3.0608e-05,-0.0073156,-9.5128e-05,-944.74,2.1242
21440,19.872,0.18182,0,9.0513e-05,904.5,3.2164e-05,27.594,2.8492e-05,1.5836e-05,-9.0012e-05,-890.39,2.1696
21441,19.78,0.18182,0.05,8.268e-08,0.82623,6.3488e-08,0.47701,-1.3423e-12,-1.705e-05,-6.3488e-08,-0.47703,2.1545
21442,19.78,0.090909,0,9.1297e-05,912.34,3.1642e-05,18.164,2.9223e-05,-0.0075348,-9.0974e-05,-903.12,2.1544
21443,20.055,0.18182,0,8.6409e-05,863.49,3.0851e-05,28.094,2.7112e-05,-0.00031523,-8.5897e-05,-849.1,2.1999
21444,19.963,0.18182,0.05,9.084e-08,0.90777,6.9753e-08,0.52409,-1.1275e-12,-9.1278e-06,-6.9754e-08,-0.52411,2.1847
21445,19.963,0.090909,0,8.7167e-05,871.06,3.0306e-05,18.497,2.7843e-05,-0.0077571,-8.6837e-05,-861.67,2.1846
21446,20.239,0.18182,0,8.2321e-05,822.64,2.9543e-05,28.599,2.5737e-05,-0.00074012,-8.1797e-05,-807.97,2.2302
21447,20.147,0.18182,0.05,9.9845e-08,0.99776,7.6668e-08,0.57605,-2.421e-13,-1.4332e-05,-7.6669e-08,-0.57607,2.215
21448,20.147,0.090909,0,8.3052e-05,829.95,2.8976e-05,18.835,2.6468e-05,-0.007989,-8.2716e-05,-820.38,2.2149
21449,20.422,0.18182,0,7.8248e-05,781.94,2.8241e-05,29.107,2.4367e-05,-0.0012698,-7.7713e-05,-766.98,2.2605
21450,20.33,0.18182,0.05,1.0974e-07,1.0967,8.4267e-08,0.63314,4.0814e-13,-4.3782e-06,-8.4268e-08,-0.63316,2.2453
21451,20.33,0.090909,0,7.8954e-05,789,2.7652e-05,19.176,2.5099e-05,-0.0082058,-7.861e-05,-779.24,2.2452
21452,20.606,0.18182,0,7.419e-05,741.39,2.6943e-05,29.615,2.3001e-05,-0.001927,-7.3642e-05,-726.14,2.2909
21453,20.514,0.18182,0.05,1.2058e-07,1.205,9.2589e-08,0.69567,1.2421e-13,-7.0394e-06,-9.2591e-08,-0.6957,2.2757
21454,20.514,0.090909,0,7.4871e-05,748.2,2.6333e-05,19.519,2.3734e-05,-0.0084108,-7.452e-05,-738.25,2.2756
21455,20.789,0.18182,0,7.0146e-05,700.98,2.5649e-05,30.121,2.164e-05,-0.0027463,-6.9585e-05,-685.43,2.3214
21456,20.697,0.18182,0.05,1.3242e-07,1.3233,1.0168e-07,0.76398,-6.4911e-13,-5.7436e-06,-1.0168e-07,-0.764,2.3062
21457,20.697,0.090909,0,7.0804e-05,707.55,2.5018e-05,19.863,2.2374e-05,-0.0085868,-7.0445e-05,-697.41,2.306
21458,20.973,0.18182,0,6.6115e-05,660.7,2.4359e-05,30.623,2.0283e-05,-0.0037643,-6.5541e-05,-644.86,2.3519
21459,20.881,0.18182,0.05,1.4532e-07,1.4522,1.1159e-07,0.83843,-3.3826e-14,1.6631e-07,-1.1159e-07,-0.83845,2.3366
21460,20.881,0.090909,0,6.6751e-05,667.05,2.3709e-05,20.207,2.1018e-05,-0.0087408,-6.6384e-05,-656.72,2.3365
21461,21.156,0.18182,0,6.2098e-05,620.55,2.3073e-05,31.116,1.8931e-05,-0.0050191,-6.151e-05,-604.41,2.3824
21462,21.064,0.18182,0.05,1.5936e-07,1.5925,1.2237e-07,0.91943,9.2338e-13,6.2777e-06,-1.2237e-07,-0.91944,2.3672
21463,21.064,0.090909,0,6.2713e-05,626.69,2.2404e-05,20.549,1.9668e-05,-0.0088463,-6.2338e-05,-616.17,2.367
21464,21.34,0.18182,0,5.8093e-05,580.53,2.179e-05,31.597,1.7584e-05,-0.0065739,-5.7491e-05,-564.09,2.413
21465,21.248,0.18182,0.05,1.7461e-07,1.7449,1.3408e-07,1.0074,1.8253e-12,1.8853e-05,-1.3408e-07,-1.0074,2.3977
21466,21.248,0.090909,0,5.8689e-05,586.49,2.1104e-05,20.886,1.8323e-05,-0.0088807,-5.8306e-05,-575.77,2.3976
21467,21.523,0.18182,0,5.4101e-05,540.63,2.0509e-05,32.061,1.6241e-05,-0.0084929,-5.3484e-05,-523.89,2.4436
21468,21.431,0.18182,0.05,1.9117e-07,1.9104,1.468e-07,1.103,1.1062e-12,1.1038e-05,-1.468e-07,-1.103,2.4283
21469,21.431,0.090909,0,5.468e-05,546.42,1.9807e-05,21.215,1.6983e-05,-0.0088312,-5.4288e-05,-535.51,2.4282
21470,21.706,0.18182,0,5.012e-05,500.85,1.923e-05,32.502,1.4902e-05,-0.01086,-4.9488e-05,-483.81,2.4743
21471,21.615,0.18182,0.05,2.0913e-07,2.0899,1.6059e-07,1.2066,6.4076e-13,8.9606e-06,-1.6059e-07,-1.2066,2.4589
21472,21.615,0.090909,0,5.0685e-05,506.5,1.8515e-05,21.535,1.5647e-05,-0.0086377,-5.0285e-05,-495.4,2.4588
21473,21.89,0.18182,0,4.615e-05,461.18,1.7951e-05,32.913,1.3569e-05,-0.013801,-4.5502e-05,-443.85,2.505
21474,21.798,0.18182,0.05,2.2862e-07,2.2846,1.7555e-07,1.319,1.7593e-13,5.8888e-06,-1.7555e-07,-1.319,2.4896
21475,21.798,0.090909,0,4.6705e-05,466.73,1.7225e-05,21.84,1.4317e-05,-0.008261,-4.6295e-05,-455.43,2.4895
21476,22.073,0.18182,0,4.2192e-05,421.63,1.6673e-05,33.286,1.2241e-05,-0.017467,-4.1528e-05,-404.01,2.5357
21477,21.982,0.18182,0.05,2.4976e-07,2.4959,1.9178e-07,1.441,1.9663e-13,7.265e-07,-1.9178e-07,-1.441,2.5203
21478,21.982,0.090909,0,4.274e-05,427.1,1.5939e-05,22.126,1.2993e-05,-0.0076218,-4.2321e-05,-415.61,2.5202
21479,22.257,0.18182,0,3.8246e-05,382.19,1.5394e-05,33.61,1.0918e-05,-0.022058,-3.7563e-05,-364.29,2.5664
21480,22.165,0.18182,0.05,2.7271e-07,2.7252,2.094e-07,1.5734,1.149e-12,1.2076e-05,-2.094e-07,-1.5734,2.551
21481,22.165,0.090909,0,3.8791e-05,387.64,1.4656e-05,22.388,1.1675e-05,-0.0066009,-3.8361e-05,-375.96,2.5509
21482,22.44,0.18182,0,3.4311e-05,342.88,1.4113e-05,33.874,9.6009e-06,-0.027846,-3.361e-05,-324.69,2.5972
21483,22.349,0.18182,0.05,2.9765e-07,2.9745,2.2856e-07,1.7173,9.6196e-13,1.2318e-05,-2.2856e-07,-1.7173,2.5818
21484,22.349,0.090909,0,3.4858e-05,348.34,1.3375e-05,22.619,1.0364e-05,-0.0050346,-3.4418e-05,-336.48,2.5817
21485,22.624,0.18182,0,3.039e-05,303.69,1.2829e-05,34.064,8.2909e-06,-0.035261,-2.9667e-05,-285.24,2.628
21486,22.532,0.18182,0.05,3.2482e-07,3.246,2.4942e-07,1.8741,7.0466e-13,1.4014e-05,-2.4942e-07,-1.8741,2.6125
21487,22.532,0.090909,0,3.0945e-05,309.24,1.2097e-05,22.808,9.0609e-06,-0.0026306,-3.0494e-05,-297.2,2.6125
21488,22.807,0.18182,0,2.6484e-05,264.66,1.1542e-05,34.162,6.9889e-06,-0.044712,-2.5737e-05,-245.94,2.6587
21489,22.716,0.18182,0.05,3.5452e-07,3.5427,2.7223e-07,2.0454,3.8382e-13,9.1868e-06,-2.7223e-07,-2.0454,2.6433
21490,22.716,0.090909,0,2.7053e-05,270.34,1.0821e-05,22.946,7.7668e-06,0.00095018,-2.659e-05,-258.14,2.6433
21491,22.991,0.18182,0,2.2597e-05,225.82,1.0249e-05,34.149,5.6964e-06,-0.057568,-2.1822e-05,-206.82,2.6896
21492,22.899,0.18182,0.05,3.8713e-07,3.8687,2.9727e-07,2.2336,6.9016e-13,1.2736e-05,-2.9727e-07,-2.2336,2.6741
21493,22.899,0.090909,0,2.3187e-05,231.71,9.5465e-06,23.018,6.4839e-06,0.006816,-2.271e-05,-219.34,2.6741
21494,23.174,0.18182,0,1.8738e-05,187.25,8.9511e-06,34.005,4.4156e-06,-0.072898,-1.7926e-05,-167.94,2.7204
21495,23.083,0.18182,0.05,4.2323e-07,4.2293,3.2498e-07,2.4418,1.7198e-12,2.1368e-05,-3.2498e-07,-2.4418,2.705
21496,23.083,0.090909,0,1.9354e-05,193.41,8.2742e-06,23.001,5.215e-06,0.015006,-1.886e-05,-180.88,2.7049
21497,23.358,0.18182,0,1.4921e-05,149.11,7.6509e-06,33.725,3.149e-06,-0.10054,-1.4058e-05,-129.39,2.7512
21498,23.266,0.18182,0.05,4.6377e-07,4.6345,3.5612e-07,2.6757,1.2965e-12,1.6297e-05,-3.5612e-07,-2.6757,2.7358
21499,23.266,0.090909,0,1.5566e-05,155.55,7.0041e-06,22.869,3.965e-06,0.033691,-1.505e-05,-142.83,2.7357
21500,23.541,0.18182,0,1.119e-05,111.83,6.3617e-06,33.386,1.9029e-06,-0.11576,-1.0241e-05,-91.361,2.7821
21501,23.45,0.18182,0.05,5.1009e-07,5.0974,3.9169e-07,2.943,-2.6044e-13,3.6853e-06,-3.9169e-07,-2.943,2.7666
21502,23.45,0.090909,0,1.184e-05,118.32,5.7373e-06,22.57,2.7397e-06,0.047491,-1.1293e-05,-105.39,2.7666
21503,23.725,0.18182,0,7.7289e-06,77.236,5.1892e-06,33.703,6.6248e-07,-0.30957,-6.5767e-06,-54.702,2.8129
21504,23.633,0.18182,0.05,5.6831e-07,5.6792,4.364e-07,3.2789,7.3712e-14,7.8244e-06,-4.3639e-07,-3.2789,2.7975
21505,23.633,0.090909,0,8.2294e-06,82.237,4.4843e-06,22.134,1.5573e-06,0.14162,-7.6268e-06,-68.864,2.7974
21506,23.817,0.18182,0.05,6.9291e-07,6.9243,5.3207e-07,3.9978,2.41e-13,7.1234e-06,-5.3207e-07,-3.9978,2.8283
21507,23.817,0.090909,0,4.8816e-06,48.782,3.2853e-06,21.46,4.1952e-07,-0.072561,-4.147e-06,-34.384,2.8283
21508,23.908,0.18182,0,4.8565e-06,48.531,4.1734e-06,34.942,-4.8111e-07,-0.030281,-3.2008e-06,-20.465,2.8438
21509,23.725,0.18182,0.1,7.7289e-06,77.236,6.5767e-06,54.702,-6.6248e-07,0.30957,-5.1892e-06,-33.703,2.8129
21510,23.817,0.27273,0.1,7.1808e-06,71.758,5.2081e-06,37.14,3.1605e-07,0.38323,-5.7972e-06,-45.549,2.8284
21511,23.908,0.18182,0.1,4.8565e-06,48.531,3.2008e-06,20.465,4.811e-07,0.03028,-4.1734e-06,-34.942,2.8438
21512,23.817,0.090909,0.1,4.8816e-06,48.782,4.147e-06,34.384,-4.1952e-07,0.072564,-3.2853e-06,-21.46,2.8283
21513,23.541,0.18182,0.1,1.119e-05,111.83,1.0241e-05,91.361,-1.9029e-06,0.11576,-6.3617e-06,-33.386,2.7821
21514,23.633,0.27273,0.1,9.9906e-06,99.837,8.6011e-06,72.191,-9.9958e-07,0.055511,-6.564e-06,-41.753,2.7976
21515,23.633,0.090909,0.1,8.2294e-06,82.237,7.6268e-06,68.864,-1.5573e-06,-0.14161,-4.4843e-06,-22.134,2.7974
21516,23.358,0.18182,0.1,1.4921e-05,149.11,1.4058e-05,129.39,-3.149e-06,0.10054,-7.6509e-06,-33.725,2.7512
21517,23.45,0.27273,0.1,1.3401e-05,133.91,1.2261e-05,109.34,-2.2764e-06,0.11503,-7.6234e-06,-40.06,2.7667
21518,23.45,0.090909,0.1,1.184e-05,118.32,1.1293e-05,105.39,-2.7397e-06,-0.04749,-5.7373e-06,-22.57,2.7666
21519,23.174,0.18182,0.1,1.8738e-05,187.25,1.7926e-05,167.94,-4.4156e-06,0.0729,-8.9511e-06,-34.005,2.7204
21520,23.266,0.27273,0.1,1.7035e-05,170.23,1.6031e-05,147.35,-3.5673e-06,0.090141,-8.7762e-06,-39.048,2.7359
21521,23.266,0.090909,0.1,1.5566e-05,155.55,1.505e-05,142.83,-3.965e-06,-0.033689,-7.0041e-06,-22.869,2.7357
21522,22.991,0.18182,0.1,2.2597e-05,225.82,2.1822e-05,206.82,-5.6964e-06,0.057568,-1.0249e-05,-34.149,2.6896
21523,23.083,0.27273,0.1,2.0776e-05,207.62,1.9859e-05,185.85,-4.8652e-06,0.0845,-9.9697e-06,-38.269,2.7051
21524,23.083,0.090909,0.1,1.9354e-05,193.41,1.886e-05,180.88,-5.215e-06,-0.015002,-8.2742e-06,-23.001,2.7049
21525,22.807,0.18182,0.1,2.6484e-05,264.66,2.5737e-05,245.94,-6.9889e-06,0.044711,-1.1542e-05,-34.162,2.6587
21526,22.899,0.27273,0.1,2.4579e-05,245.62,2.3723e-05,224.69,-6.1716e-06,0.074079,-1.1183e-05,-37.581,2.6742
21527,22.899,0.090909,0.1,2.3187e-05,231.71,2.271e-05,219.34,-6.4839e-06,-0.0068153,-9.5465e-06,-23.018,2.6741
21528,22.624,0.18182,0.1,3.039e-05,303.69,2.9667e-05,285.24,-8.2909e-06,0.03526,-1.2829e-05,-34.064,2.628
21529,22.716,0.27273,0.1,2.8422e-05,284.02,2.7614e-05,263.78,-7.4849e-06,0.066098,-1.2408e-05,-36.922,2.6434
21530,22.716,0.090909,0.1,2.7053e-05,270.34,2.659e-05,258.14,-7.7668e-06,-0.00095394,-1.0821e-05,-22.946,2.6433
21531,22.44,0.18182,0.1,3.4311e-05,342.88,3.361e-05,324.69,-9.6009e-06,0.027845,-1.4113e-05,-33.874,2.5972
21532,22.532,0.27273,0.1,3.2293e-05,322.71,3.1523e-05,303.07,-8.8045e-06,0.058841,-1.364e-05,-36.27,2.6127
21533,22.532,0.090909,0.1,3.0945e-05,309.24,3.0494e-05,297.2,-9.0609e-06,0.0026351,-1.2097e-05,-22.808,2.6125
21534,22.257,0.18182,0.1,3.8246e-05,382.19,3.7563e-05,364.29,-1.0918e-05,0.022057,-1.5394e-05,-33.61,2.5664
21535,22.349,0.27273,0.1,3.6187e-05,361.62,3.545e-05,342.52,-1.013e-05,0.052653,-1.4876e-05,-35.614,2.5819
21536,22.349,0.090909,0.1,3.4858e-05,348.34,3.4418e-05,336.48,-1.0364e-05,0.0050337,-1.3375e-05,-22.619,2.5817
21537,22.073,0.18182,0.1,4.2192e-05,421.63,4.1528e-05,404.01,-1.2241e-05,0.017465,-1.6673e-05,-33.286,2.5357
21538,22.165,0.27273,0.1,4.0099e-05,400.72,3.9391e-05,382.12,-1.146e-05,0.047282,-1.6118e-05,-34.952,2.5511
21539,22.165,0.090909,0.1,3.8791e-05,387.64,3.8361e-05,375.96,-1.1675e-05,0.0066017,-1.4656e-05,-22.388,2.5509
21540,21.89,0.18182,0.1,4.615e-05,461.18,4.5502e-05,443.85,-1.3569e-05,0.0138,-1.7951e-05,-32.913,2.505
21541,21.982,0.27273,0.1,4.4028e-05,439.98,4.3345e-05,421.85,-1.2794e-05,0.042634,-1.7363e-05,-34.285,2.5204
21542,21.982,0.090909,0.1,4.274e-05,427.1,4.2321e-05,415.61,-1.2993e-05,0.0076198,-1.5939e-05,-22.126,2.5202
21543,21.706,0.18182,0.1,5.012e-05,500.85,4.9488e-05,483.81,-1.4902e-05,0.010859,-1.923e-05,-32.502,2.4743
21544,21.798,0.27273,0.1,4.7972e-05,479.39,4.7312e-05,461.71,-1.4133e-05,0.038587,-1.8612e-05,-33.616,2.4897
21545,21.798,0.090909,0.1,4.6705e-05,466.73,4.6295e-05,455.43,-1.4317e-05,0.0082636,-1.7225e-05,-21.84,2.4895
21546,21.523,0.18182,0.1,5.4101e-05,540.63,5.3484e-05,523.89,-1.6241e-05,0.008492,-2.0509e-05,-32.061,2.4436
21547,21.615,0.27273,0.1,5.193e-05,518.94,5.1291e-05,501.7,-1.5476e-05,0.035062,-1.9865e-05,-32.945,2.4591
21548,21.615,0.090909,0.1,5.0685e-05,506.5,5.0285e-05,495.4,-1.5647e-05,0.008638,-1.8515e-05,-21.535,2.4588
21549,21.34,0.18182,0.1,5.8093e-05,580.53,5.7491e-05,564.09,-1.7584e-05,0.0065742,-2.179e-05,-31.597,2.413
21550,21.431,0.27273,0.1,5.5902e-05,558.64,5.5284e-05,541.81,-1.6823e-05,0.031977,-2.1123e-05,-32.276,2.4284
21551,21.431,0.090909,0.1,5.468e-05,546.42,5.4288e-05,535.51,-1.6983e-05,0.0088332,-1.9807e-05,-21.215,2.4282
21552,21.156,0.18182,0.1,6.2098e-05,620.55,6.151e-05,604.41,-1.8931e-05,0.0050192,-2.3073e-05,-31.116,2.3824
21553,21.248,0.27273,0.1,5.9889e-05,598.47,5.9289e-05,582.06,-1.8174e-05,0.029251,-2.2385e-05,-31.611,2.3978
21554,21.248,0.090909,0.1,5.8689e-05,586.49,5.8306e-05,575.77,-1.8323e-05,0.0088833,-2.1104e-05,-20.886,2.3976
21555,20.973,0.18182,0.1,6.6115e-05,660.7,6.5541e-05,644.86,-2.0283e-05,0.0037632,-2.4359e-05,-30.623,2.3519
21556,21.064,0.27273,0.1,6.3889e-05,638.45,6.3307e-05,622.42,-1.9529e-05,0.026855,-2.3652e-05,-30.953,2.3673
21557,21.064,0.090909,0.1,6.2713e-05,626.69,6.2338e-05,616.17,-1.9668e-05,0.0088474,-2.2404e-05,-20.549,2.367
21558,20.789,0.18182,0.1,7.0146e-05,700.98,6.9585e-05,685.43,-2.164e-05,0.0027447,-2.5649e-05,-30.121,2.3214
21559,20.881,0.27273,0.1,6.7904e-05,678.57,6.7338e-05,662.93,-2.0889e-05,0.024734,-2.4925e-05,-30.302,2.3368
21560,20.881,0.090909,0.1,6.6751e-05,667.05,6.6384e-05,656.72,-2.1018e-05,0.0087399,-2.3709e-05,-20.207,2.3365
21561,20.606,0.18182,0.1,7.419e-05,741.39,7.3642e-05,726.14,-2.3001e-05,0.0019258,-2.6943e-05,-29.615,2.2909
21562,20.697,0.27273,0.1,7.1934e-05,718.84,7.1384e-05,703.56,-2.2252e-05,0.022846,-2.6203e-05,-29.662,2.3063
21563,20.697,0.090909,0.1,7.0804e-05,707.55,7.0445e-05,697.41,-2.2374e-05,0.0085862,-2.5018e-05,-19.863,2.306
21564,20.422,0.18182,0.1,7.8248e-05,781.94,7.7713e-05,766.98,-2.4367e-05,0.0012694,-2.8241e-05,-29.106,2.2605
21565,20.514,0.27273,0.1,7.5978e-05,759.26,7.5443e-05,744.34,-2.3619e-05,0.021176,-2.7486e-05,-29.032,2.2759
21566,20.514,0.090909,0.1,7.4871e-05,748.2,7.452e-05,738.25,-2.3734e-05,0.00841,-2.6333e-05,-19.519,2.2756
21567,20.239,0.18182,0.1,8.2321e-05,822.64,8.1797e-05,807.97,-2.5737e-05,0.00074068,-2.9543e-05,-28.599,2.2302
21568,20.33,0.27273,0.1,8.0038e-05,799.83,7.9517e-05,785.25,-2.4991e-05,0.01968,-2.8775e-05,-28.415,2.2455
21569,20.33,0.090909,0.1,7.8954e-05,789,7.861e-05,779.24,-2.5099e-05,0.0082079,-2.7652e-05,-19.176,2.2452
21570,20.055,0.18182,0.1,8.6409e-05,863.49,8.5897e-05,849.1,-2.7112e-05,0.00031588,-3.0851e-05,-28.094,2.1999
21571,20.147,0.27273,0.1,8.4114e-05,840.56,8.3607e-05,826.32,-2.6367e-05,0.01834,-3.0071e-05,-27.811,2.2152
21572,20.147,0.090909,0.1,8.3052e-05,829.95,8.2716e-05,820.38,-2.6468e-05,0.0079901,-2.8976e-05,-18.835,2.2149
21573,19.872,0.18182,0.1,9.0513e-05,904.5,9.0012e-05,890.39,-2.8492e-05,-1.6519e-05,-3.2164e-05,-27.594,2.1696
21574,19.963,0.27273,0.1,8.8206e-05,881.45,8.7712e-05,867.53,-2.7748e-05,0.017132,-3.1373e-05,-27.221,2.1849
21575,19.963,0.090909,0.1,8.7167e-05,871.06,8.6837e-05,861.67,-2.7843e-05,0.0077567,-3.0306e-05,-18.497,2.1846
21576,19.688,0.18182,0.1,9.4632e-05,945.67,9.4142e-05,931.83,-2.9877e-05,-0.00026855,-3.3483e-05,-27.099,2.1394
21577,19.78,0.27273,0.1,9.2314e-05,922.51,9.1832e-05,908.9,-2.9133e-05,0.016057,-3.2681e-05,-26.646,2.1547
21578,19.78,0.090909,0.1,9.1297e-05,912.34,9.0974e-05,903.12,-2.9223e-05,0.0075341,-3.1642e-05,-18.164,2.1544
21579,19.505,0.18182,0.1,9.8768e-05,987,9.8288e-05,973.42,-3.1266e-05,-0.0004661,-3.4808e-05,-26.612,2.1093
21580,19.596,0.27273,0.1,9.6439e-05,963.73,9.5969e-05,950.43,-3.0523e-05,0.015089,-3.3997e-05,-26.085,2.1245
21581,19.596,0.090909,0.1,9.5443e-05,953.77,9.5128e-05,944.74,-3.0608e-05,0.0073159,-3.2983e-05,-17.836,2.1242
21582,19.321,0.18182,0.1,0.00010292,1028.5,0.00010245,1015.2,-3.2661e-05,-0.00061403,-3.6139e-05,-26.132,2.0793
21583,19.413,0.27273,0.1,0.00010058,1005.1,0.00010012,992.12,-3.1918e-05,0.014203,-3.5319e-05,-25.54,2.0945
21584,19.413,0.090909,0.1,9.9607e-05,995.38,9.9297e-05,986.51,-3.1998e-05,0.0070873,-3.433e-05,-17.513,2.0941
21585,19.138,0.18182,0.1,0.00010709,1070.2,0.00010663,1057.1,-3.4061e-05,-0.00071704,-3.7476e-05,-25.66,2.0493
21586,19.229,0.27273,0.1,0.00010474,1046.7,0.00010429,1034,-3.3317e-05,0.013412,-3.6648e-05,-25.009,2.0644
21587,19.229,0.090909,0.1,0.00010379,1037.2,0.00010348,1028.5,-3.3394e-05,0.0068749,-3.5683e-05,-17.196,2.0641
21588,18.954,0.18182,0.1,0.00011128,1112,0.00011083,1099.2,-3.5466e-05,-0.00078796,-3.882e-05,-25.198,2.0193
21589,19.046,0.27273,0.1,0.00010892,1088.4,0.00010848,1076,-3.4722e-05,0.012691,-3.7984e-05,-24.493,2.0345
21590,19.046,0.090909,0.1,0.00010798,1079.1,0.00010769,1070.6,-3.4795e-05,0.0066657,-3.7043e-05,-16.886,2.0341
21591,18.771,0.18182,0.1,0.00011548,1154,0.00011504,1141.5,-3.6877e-05,-0.00082553,-4.017e-05,-24.744,1.9895
21592,18.863,0.27273,0.1,0.00011311,1130.4,0.00011269,1118.2,-3.6132e-05,0.012038,-3.9327e-05,-23.991,2.0046
21593,18.863,0.090909,0.1,0.0001122,1121.2,0.00011191,1112.8,-3.6201e-05,0.0064627,-3.8409e-05,-16.581,2.0042
21594,18.587,0.18182,0.1,0.00011971,1196.2,0.00011927,1183.9,-3.8293e-05,-0.00083825,-4.1527e-05,-24.3,1.9597
21595,18.679,0.27273,0.1,0.00011733,1172.5,0.00011691,1160.5,-3.7547e-05,0.011452,-4.0677e-05,-23.504,1.9748
21596,18.679,0.090909,0.1,0.00011643,1163.5,0.00011615,1155.3,-3.7613e-05,0.0062789,-3.9781e-05,-16.284,1.9744
21597,18.404,0.18182,0.1,0.00012395,1238.6,0.00012352,1226.5,-3.9715e-05,-0.00083728,-4.2891e-05,-23.866,1.93
21598,18.496,0.27273,0.1,0.00012156,1214.8,0.00012115,1203.1,-3.8968e-05,0.010912,-4.2035e-05,-23.031,1.945
21599,18.496,0.090909,0.1,0.00012068,1206,0.0001204,1197.9,-3.903e-05,0.0060958,-4.1159e-05,-15.993,1.9446
21600,18.22,0.18182,0.1,0.00012821,1281.2,0.00012779,1269.3,-4.1142e-05,-0.00082774,-4.4262e-05,-23.441,1.9004
21601,18.312,0.27273,0.1,0.00012581,1257.2,0.00012541,1245.8,-4.0394e-05,0.010414,-4.3399e-05,-22.572,1.9154
21602,18.312,0.090909,0.1,0.00012495,1248.7,0.00012468,1240.7,-4.0453e-05,0.0059154,-4.2545e-05,-15.708,1.915
21603,18.037,0.18182,0.1,0.00013249,1323.9,0.00013208,1312.3,-4.2575e-05,-0.00080158,-4.5639e-05,-23.026,1.8708
21604,18.129,0.27273,0.1,0.00013008,1299.9,0.00012969,1288.7,-4.1825e-05,0.0099474,-4.4771e-05,-22.125,1.8858
21605,18.129,0.090909,0.1,0.00012924,1291.5,0.00012897,1283.7,-4.1882e-05,0.0057304,-4.3936e-05,-15.43,1.8854
21606,17.853,0.18182,0.1,0.00013678,1366.9,0.00013638,1355.4,-4.4013e-05,-0.0007555,-4.7024e-05,-22.62,1.8414
21607,17.945,0.27273,0.1,0.00013437,1342.8,0.00013399,1331.8,-4.3262e-05,0.0095346,-4.6151e-05,-21.691,1.8563
21608,17.945,0.090909,0.1,0.00013355,1334.5,0.00013328,1326.9,-4.3316e-05,0.0055757,-4.5335e-05,-15.159,1.8559
21609,17.67,0.18182,0.1,0.0001411,1410,0.00014071,1398.8,-4.5458e-05,-0.00071149,-4.8415e-05,-22.223,1.812
21610,17.762,0.27273,0.1,0.00013868,1385.8,0.0001383,1375.1,-4.4705e-05,0.009155,-4.7537e-05,-21.269,1.8269
21611,17.762,0.090909,0.1,0.00013787,1377.7,0.00013761,1370.2,-4.4757e-05,0.0054276,-4.674e-05,-14.893,1.8265
21612,17.486,0.18182,0.1,0.00014544,1453.3,0.00014505,1442.3,-4.6908e-05,-0.00066331,-4.9814e-05,-21.835,1.7828
21613,17.578,0.27273,0.1,0.00014301,1429.1,0.00014264,1418.5,-4.6154e-05,0.0087825,-4.8931e-05,-20.858,1.7976
21614,17.578,0.090909,0.1,0.00014221,1421.2,0.00014196,1413.8,-4.6203e-05,0.0052621,-4.8152e-05,-14.634,1.7971
21615,17.303,0.18182,0.1,0.00014979,1496.9,0.00014941,1486,-4.8364e-05,-0.00060247,-5.122e-05,-21.455,1.7536
21616,17.395,0.27273,0.1,0.00014735,1472.5,0.00014699,1462.2,-4.7608e-05,0.0084533,-5.0332e-05,-20.458,1.7684
21617,17.395,0.090909,0.1,0.00014658,1464.7,0.00014633,1457.5,-4.7656e-05,0.0051178,-4.957e-05,-14.381,1.7679
21618,17.119,0.18182,0.1,0.00015417,1540.6,0.0001538,1529.9,-4.9827e-05,-0.00054006,-5.2632e-05,-21.083,1.7245
21619,17.211,0.27273,0.1,0.00015172,1516.1,0.00015137,1506,-4.9069e-05,0.0081424,-5.1741e-05,-20.068,1.7393
21620,17.211,0.090909,0.1,0.00015096,1508.5,0.00015071,1501.4,-4.9114e-05,0.0049796,-5.0996e-05,-14.133,1.7388
21621,16.936,0.18182,0.1,0.00015856,1584.5,0.0001582,1574,-5.1295e-05,-0.0004674,-5.4052e-05,-20.718,1.6956
21622,17.028,0.27273,0.1,0.0001561,1560,0.00015576,1550,-5.0535e-05,0.0078478,-5.3157e-05,-19.687,1.7103
21623,17.028,0.090909,0.1,0.00015536,1552.5,0.00015512,1545.5,-5.0578e-05,0.0048406,-5.2428e-05,-13.891,1.7098
21624,16.753,0.18182,0.1,0.00016297,1628.6,0.00016262,1618.3,-5.277e-05,-0.00038609,-5.5479e-05,-20.361,1.6667
21625,16.844,0.27273,0.1,0.00016051,1604,0.00016017,1594.2,-5.2008e-05,0.0075887,-5.4579e-05,-19.315,1.6814
21626,16.844,0.090909,0.1,0.00015978,1596.7,0.00015954,1589.8,-5.2049e-05,0.0047174,-5.3867e-05,-13.654,1.6808
21627,16.569,0.18182,0.1,0.00016741,1672.9,0.00016706,1662.8,-5.425e-05,-0.00030982,-5.6913e-05,-20.01,1.6379
21628,16.661,0.27273,0.1,0.00016493,1648.2,0.0001646,1638.7,-5.3486e-05,0.0073328,-5.6009e-05,-18.95,1.6526
21629,16.661,0.090909,0.1,0.00016422,1641.1,0.00016399,1634.3,-5.3526e-05,0.0045963,-5.5313e-05,-13.421,1.652
21630,16.386,0.18182,0.1,0.00017186,1717.4,0.00017152,1707.5,-5.5737e-05,-0.00024097,-5.8354e-05,-19.665,1.6093
21631,16.477,0.27273,0.1,0.00016938,1692.6,0.00016906,1683.3,-5.4971e-05,0.0070827,-5.7447e-05,-18.592,1.6239
21632,16.477,0.090909,0.1,0.00016868,1685.6,0.00016845,1679,-5.5009e-05,0.0044653,-5.6765e-05,-13.193,1.6233
21633,16.202,0.18182,0.1,0.00017633,1762.1,0.000176,1752.4,-5.723e-05,-0.00016259,-5.9802e-05,-19.326,1.5808
21634,16.294,0.27273,0.1,0.00017384,1737.2,0.00017353,1728.1,-5.6462e-05,0.0068304,-5.8891e-05,-18.241,1.5953
21635,16.294,0.090909,0.1,0.00017316,1730.4,0.00017293,1723.9,-5.6498e-05,0.0043268,-5.8225e-05,-12.969,1.5947
21636,16.019,0.18182,0.1,0.00018083,1807,0.0001805,1797.5,-5.873e-05,-7.0001e-05,-6.1258e-05,-18.991,1.5523
21637,16.11,0.27273,0.1,0.00017833,1782.1,0.00017802,1773.1,-5.796e-05,0.0066115,-6.0342e-05,-17.895,1.5668
21638,16.11,0.090909,0.1,0.00017766,1775.3,0.00017744,1768.9,-5.7994e-05,0.0042133,-5.9691e-05,-12.748,1.5662
21639,15.835,0.18182,0.1,0.00018534,1852.1,0.00018502,1842.7,-6.0236e-05,1.0412e-05,-6.272e-05,-18.661,1.5241
21640,15.927,0.27273,0.1,0.00018283,1827.1,0.00018253,1818.2,-5.9463e-05,0.0063989,-6.18e-05,-17.553,1.5385
21641,15.927,0.090909,0.1,0.00018218,1820.5,0.00018196,1814.2,-5.9496e-05,0.0041028,-6.1164e-05,-12.531,1.5379
21642,15.652,0.18182,0.1,0.00018988,1897.4,0.00018956,1888.2,-6.1748e-05,9.3118e-05,-6.4189e-05,-18.335,1.4959
21643,15.743,0.27273,0.1,0.00018736,1872.3,0.00018706,1863.6,-6.0973e-05,0.0061621,-6.3265e-05,-17.216,1.5103
21644,15.743,0.090909,0.1,0.00018671,1865.9,0.0001865,1859.7,-6.1004e-05,0.0039622,-6.2644e-05,-12.317,1.5096
21645,15.468,0.18182,0.1,0.00019443,1942.9,0.00019412,1933.9,-6.3267e-05,0.00019065,-6.5664e-05,-18.011,1.4678
21646,15.56,0.27273,0.1,0.0001919,1917.7,0.00019161,1909.2,-6.249e-05,0.005956,-6.4737e-05,-16.881,1.4822
21647,15.56,0.090909,0.1,0.00019127,1911.4,0.00019106,1905.3,-6.2519e-05,0.0038457,-6.4131e-05,-12.105,1.4815
21648,15.285,0.18182,0.1,0.000199,1988.7,0.0001987,1979.8,-6.4793e-05,0.00028748,-6.7147e-05,-17.69,1.4399
21649,15.376,0.27273,0.1,0.00019647,1963.3,0.00019618,1955,-6.4013e-05,0.0057462,-6.6216e-05,-16.548,1.4542
21650,15.376,0.090909,0.1,0.00019585,1957.2,0.00019565,1951.2,-6.4041e-05,0.0037233,-6.5625e-05,-11.895,1.4535
21651,15.101,0.18182,0.1,0.0002036,2034.6,0.0002033,2025.8,-6.6325e-05,0.00039694,-6.8637e-05,-17.37,1.4121
21652,15.193,0.27273,0.1,0.00020105,2009.2,0.00020077,2001,-6.5543e-05,0.0055318,-6.7702e-05,-16.216,1.4263
21653,15.193,0.090909,0.1,0.00020045,2003.1,0.00020025,1997.3,-6.5569e-05,0.003597,-6.7125e-05,-11.688,1.4257
21654,14.918,0.18182,0.1,0.00020821,2080.7,0.00020792,2072.1,-6.7864e-05,0.00051688,-7.0133e-05,-17.051,1.3845
21655,15.009,0.27273,0.1,0.00020566,2055.2,0.00020539,2047.2,-6.7079e-05,0.005339,-6.9194e-05,-15.884,1.3986
21656,15.009,0.090909,0.1,0.00020507,2049.3,0.00020487,2043.5,-6.7104e-05,0.003489,-6.8632e-05,-11.481,1.3979
21657,14.734,0.18182,0.1,0.00021285,2127,0.00021256,2118.6,-6.9409e-05,0.00063236,-7.1636e-05,-16.732,1.357
21658,14.826,0.27273,0.1,0.00021029,2101.4,0.00021002,2093.6,-6.8622e-05,0.0051328,-7.0693e-05,-15.552,1.3711
21659,14.826,0.090909,0.1,0.00020971,2095.7,0.00020952,2090,-6.8645e-05,0.0033665,-7.0146e-05,-11.275,1.3704
21660,14.551,0.18182,0.1,0.0002175,2173.5,0.00021722,2165.3,-7.0961e-05,0.00074107,-7.3146e-05,-16.413,1.3296
21661,14.642,0.27273,0.1,0.00021493,2147.8,0.00021467,2140.2,-7.0172e-05,0.004912,-7.2198e-05,-15.218,1.3436
21662,14.642,0.090909,0.1,0.00021437,2142.2,0.00021418,2136.7,-7.0193e-05,0.003235,-7.1667e-05,-11.069,1.3429
21663,14.367,0.18182,0.1,0.00022218,2220.2,0.0002219,2212.2,-7.252e-05,0.00086633,-7.4662e-05,-16.092,1.3024
21664,14.459,0.27273,0.1,0.0002196,2194.5,0.00021934,2187,-7.1728e-05,0.0046715,-7.3709e-05,-14.881,1.3163
21665,14.459,0.090909,0.1,0.00021905,2189,0.00021886,2183.5,-7.1748e-05,0.0030811,-7.3194e-05,-10.864,1.3156
21666,14.184,0.18182,0.1,0.00022687,2267.2,0.0002266,2259.3,-7.4086e-05,0.0010177,-7.6185e-05,-15.768,1.2753
21667,14.276,0.27273,0.1,0.00022428,2241.3,0.00022403,2234,-7.3292e-05,0.0044573,-7.5227e-05,-14.54,1.2892
21668,14.276,0.090909,0.1,0.00022375,2236,0.00022357,2230.6,-7.3309e-05,0.0029572,-7.4728e-05,-10.657,1.2884
21669,14,0.18182,0.1,0.00023159,2314.3,0.00023132,2306.6,-7.5659e-05,0.0011616,-7.7714e-05,-15.441,1.2484
21670,14.092,0.27273,0.1,0.00022899,2288.3,0.00022875,2281.2,-7.4862e-05,0.0042366,-7.6752e-05,-14.194,1.2622
21671,14.092,0.090909,0.1,0.00022847,2283.2,0.00022829,2277.9,-7.4878e-05,0.0028295,-7.6269e-05,-10.45,1.2614
21672,13.817,0.18182,0.1,0.00023633,2361.7,0.00023607,2354.1,-7.7239e-05,0.0013156,-7.925e-05,-15.111,1.2216
21673,13.909,0.27273,0.1,0.00023372,2335.6,0.00023348,2328.6,-7.6439e-05,0.0039718,-7.8282e-05,-13.842,1.2354
21674,13.909,0.090909,0.1,0.00023322,2330.5,0.00023304,2325.4,-7.6453e-05,0.0026628,-7.7816e-05,-10.24,1.2346
21675,13.633,0.18182,0.1,0.00024109,2409.2,0.00024083,2401.8,-7.8825e-05,0.0014968,-8.0792e-05,-14.775,1.195
21676,13.725,0.27273,0.1,0.00023846,2383,0.00023823,2376.2,-7.8024e-05,0.0037283,-7.9819e-05,-13.483,1.2087
21677,13.725,0.090909,0.1,0.00023798,2378.1,0.00023781,2373.1,-7.8035e-05,0.0025232,-7.9371e-05,-10.029,1.2079
21678,13.45,0.18182,0.1,0.00024586,2456.9,0.00024562,2449.7,-8.0419e-05,0.0016883,-8.234e-05,-14.433,1.1686
21679,13.542,0.27273,0.1,0.00024323,2430.6,0.00024301,2424,-7.9615e-05,0.0034689,-8.1361e-05,-13.115,1.1822
21680,13.542,0.090909,0.1,0.00024276,2425.9,0.00024259,2421,-7.9625e-05,0.002373,-8.0931e-05,-9.8141,1.1813
21681,13.266,0.18182,0.1,0.00025066,2504.9,0.00025042,2497.8,-8.202e-05,0.0019128,-8.3895e-05,-14.083,1.1423
21682,13.358,0.27273,0.1,0.00024802,2478.5,0.0002478,2472.1,-8.1214e-05,0.0031929,-8.291e-05,-12.737,1.1558
21683,13.358,0.090909,0.1,0.00024757,2474,0.0002474,2469.2,-8.1221e-05,0.0022142,-8.2499e-05,-9.5961,1.155
21684,13.083,0.18182,0.1,0.00025548,2553.1,0.00025525,2546.2,-8.3628e-05,0.0021578,-8.5456e-05,-13.726,1.1161
21685,13.175,0.27273,0.1,0.00025283,2526.5,0.00025261,2520.3,-8.282e-05,0.0029391,-8.4464e-05,-12.348,1.1296
21686,13.175,0.090909,0.1,0.00025239,2522.2,0.00025223,2517.5,-8.2825e-05,0.0020838,-8.4073e-05,-9.374,1.1288
21687,12.899,0.18182,0.1,0.00026032,2601.4,0.00026009,2594.7,-8.5244e-05,0.0024121,-8.7022e-05,-13.36,1.0902
21688,12.991,0.27273,0.1,0.00025766,2574.8,0.00025745,2568.8,-8.4434e-05,0.002634,-8.6024e-05,-11.947,1.1036
21689,12.991,0.090909,0.1,0.00025724,2570.6,0.00025708,2566,-8.4435e-05,0.0019153,-8.5653e-05,-9.1473,1.1027
21690,12.716,0.18182,0.1,0.00026518,2650,0.00026496,2643.5,-8.6867e-05,0.0027188,-8.8595e-05,-12.983,1.0644
21691,12.808,0.27273,0.1,0.0002625,2623.2,0.00026231,2617.4,-8.6054e-05,0.0023206,-8.7589e-05,-11.531,1.0777
21692,12.808,0.090909,0.1,0.00026211,2619.3,0.00026196,2614.8,-8.6053e-05,0.0017472,-8.724e-05,-8.9151,1.0768
21693,12.532,0.18182,0.1,0.00027007,2698.8,0.00026985,2692.5,-8.8497e-05,0.0030756,-9.0174e-05,-12.594,1.0388
21694,12.624,0.27273,0.1,0.00026737,2671.9,0.00026718,2666.3,-8.7683e-05,0.0020353,-8.916e-05,-11.1,1.052
21695,12.624,0.090909,0.1,0.000267,2668.1,0.00026685,2663.8,-8.7679e-05,0.0016183,-8.8834e-05,-8.6769,1.0511
21696,12.349,0.18182,0.1,0.00027497,2747.8,0.00027476,2741.7,-9.0135e-05,0.0034656,-9.1758e-05,-12.193,1.0134
21697,12.441,0.27273,0.1,0.00027226,2720.8,0.00027208,2715.4,-8.9319e-05,0.0017267,-9.0737e-05,-10.653,1.0265
21698,12.441,0.090909,0.1,0.00027191,2717.2,0.00027176,2713,-8.9312e-05,0.0014787,-9.0434e-05,-8.432,1.0256
21699,12.165,0.18182,0.1,0.00027989,2797,0.00027969,2791.1,-9.1781e-05,0.0038983,-9.3349e-05,-11.779,0.98817
21700,12.257,0.27273,0.1,0.00027717,2769.8,0.000277,2764.7,-9.0962e-05,0.0014012,-9.2318e-05,-10.186,1.0012
21701,12.257,0.090909,0.1,0.00027684,2766.5,0.0002767,2762.4,-9.0952e-05,0.0013362,-9.2041e-05,-8.1797,1.0003
21702,11.982,0.18182,0.1,0.00028484,2846.4,0.00028464,2840.7,-9.3434e-05,0.0044085,-9.4945e-05,-11.349,0.96313
21703,12.074,0.27273,0.1,0.0002821,2819.1,0.00028194,2814.2,-9.2614e-05,0.0010608,-9.3905e-05,-9.6998,0.97609
21704,12.074,0.090909,0.1,0.00028179,2816,0.00028166,2812,-9.2599e-05,0.0011898,-9.3654e-05,-7.9193,0.97515
21705,11.799,0.18182,0.1,0.00028981,2896.1,0.00028962,2890.6,-9.5095e-05,0.0050174,-9.6546e-05,-10.903,0.93827
21706,11.89,0.27273,0.1,0.00028706,2868.6,0.0002869,2864,-9.4273e-05,0.00076079,-9.5496e-05,-9.1917,0.95115
21707,11.89,0.090909,0.1,0.00028677,2865.7,0.00028664,2861.9,-9.4255e-05,0.0010968,-9.5273e-05,-7.65,0.95019
21708,11.615,0.18182,0.1,0.00029479,2945.9,0.00029461,2940.7,-9.6763e-05,0.005727,-9.8154e-05,-10.439,0.91361
21709,11.707,0.27273,0.1,0.00029203,2918.3,0.00029188,2913.9,-9.594e-05,0.00047777,-9.7093e-05,-8.6605,0.92639
21710,11.707,0.090909,0.1,0.00029177,2915.7,0.00029164,2912,-9.5918e-05,0.0010254,-9.6899e-05,-7.3713,0.92542
21711,11.432,0.18182,0.1,0.0002998,2995.9,0.00029963,2990.9,-9.844e-05,0.0065865,-9.9766e-05,-9.9576,0.88915
21712,11.523,0.27273,0.1,0.00029702,2968.2,0.00029688,2964.1,-9.7615e-05,0.00022789,-9.8694e-05,-8.1046,0.90184
21713,11.523,0.090909,0.1,0.00029679,2965.8,0.00029667,2962.3,-9.7588e-05,0.00098806,-9.8531e-05,-7.0825,0.90085
21714,11.248,0.18182,0.1,0.00030483,3046.2,0.00030467,3041.5,-0.00010012,0.00761,-0.00010138,-9.4565,0.86488
21715,11.34,0.27273,0.1,0.00030203,3018.3,0.00030191,3014.5,-9.9298e-05,8.5197e-05,-0.0001003,-7.5224,0.87748
21716,11.34,0.090909,0.1,0.00030183,3016.2,0.00030171,3012.8,-9.9267e-05,0.0010459,-0.00010017,-6.7828,0.87648
21717,11.065,0.18182,0.1,0.00030988,3096.7,0.00030973,3092.2,-0.00010182,0.0088251,-0.00010301,-8.9351,0.84082
21718,11.156,0.27273,0.1,0.00030707,3068.6,0.00030695,3065.1,-0.00010099,2.4142e-06,-0.00010191,-6.913,0.85333
21719,11.156,0.090909,0.1,0.00030689,3066.8,0.00030678,3063.6,-0.00010095,0.0011303,-0.00010181,-6.4718,0.85231
21720,10.881,0.18182,0.1,0.00031495,3147.3,0.00031481,3143.1,-0.00010352,0.01034,-0.00010464,-8.3928,0.81697
21721,10.973,0.27273,0.1,0.00031212,3119.1,0.00031202,3115.9,-0.00010269,9.4116e-05,-0.00010352,-6.275,0.82938
21722,10.973,0.090909,0.1,0.00031198,3117.6,0.00031187,3114.5,-0.00010265,0.0013161,-0.00010347,-6.1491,0.82835
21723,10.698,0.18182,0.1,0.00032004,3198.2,0.00031991,3194.3,-0.00010523,0.012229,-0.00010627,-7.829,0.79333
21724,10.789,0.27273,0.1,0.0003172,3169.8,0.0003171,3167,-0.0001044,0.0005064,-0.00010514,-5.6076,0.80564
21725,10.789,0.090909,0.1,0.00031708,3168.6,0.00031698,3165.7,-0.00010435,0.0016782,-0.00010512,-5.8142,0.80459
21726,10.514,0.18182,0.1,0.00032516,3249.3,0.00032503,3245.7,-0.00010694,0.014579,-0.00010791,-7.2438,0.7699
21727,10.606,0.27273,0.1,0.00032229,3220.7,0.00032221,3218.2,-0.00010611,0.0013494,-0.00010677,-4.9105,0.78211
21728,10.606,0.090909,0.1,0.00032221,3219.9,0.00032212,3217.2,-0.00010606,0.002194,-0.00010679,-5.4669,0.78105
21729,10.331,0.18182,0.1,0.00033029,3300.6,0.00033018,3297.3,-0.00010867,0.01756,-0.00010955,-6.6375,0.7467
21730,10.422,0.27273,0.1,0.00032741,3271.8,0.00032733,3269.7,-0.00010784,0.0029383,-0.00010839,-4.1838,0.7588
21731,10.422,0.090909,0.1,0.00032736,3271.4,0.00032727,3268.8,-0.00010778,0.0029286,-0.00010846,-5.1073,0.75773
21732,10.147,0.18182,0.1,0.00033544,3352.1,0.00033534,3349.1,-0.0001104,0.021447,-0.0001112,-6.011,0.72371
21733,10.239,0.27273,0.1,0.00033254,3323.1,0.00033248,3321.4,-0.00010957,0.0058974,-0.00011002,-3.4285,0.73571
21734,10.239,0.090909,0.1,0.00033253,3323,0.00033245,3320.7,-0.0001095,0.0039561,-0.00011013,-4.7357,0.73462
21735,9.9637,0.18182,0.1,0.00034061,3403.8,0.00034052,3401.1,-0.00011213,0.026623,-0.00011285,-5.3658,0.70095
21736,10.055,0.27273,0.1,0.00033769,3374.6,0.00033765,3373.3,-0.00011131,0.01168,-0.00011166,-2.6471,0.71284
21737,10.055,0.090909,0.1,0.00033772,3374.9,0.00033765,3372.7,-0.00011123,0.0054324,-0.00011181,-4.3525,0.71174
21738,9.7802,0.18182,0.1,0.0003458,3455.6,0.00034572,3453.3,-0.00011388,0.033662,-0.00011451,-4.7047,0.67841
21739,9.872,0.27273,0.1,0.00034286,3426.3,0.00034283,3425.4,-0.00011305,0.024179,-0.0001133,-1.8456,0.6902
21740,9.872,0.090909,0.1,0.00034293,3427,0.00034286,3425,-0.00011297,0.0074775,-0.0001135,-3.959,0.68908
21741,9.5968,0.18182,0.1,0.00035101,3507.6,0.00035094,3505.7,-0.00011563,0.043555,-0.00011617,-4.0317,0.65611
21742,9.6885,0.27273,0.1,0.00034805,3478.1,0.00034803,3477.6,-0.0001148,0.059138,-0.00011495,-1.043,0.66779
21743,9.6885,0.090909,0.1,0.00034816,3479.2,0.0003481,3477.4,-0.00011472,0.010291,-0.00011519,-3.5566,0.66666
21744,9.4133,0.18182,0.1,0.00035623,3559.8,0.00035617,3558.2,-0.00011738,0.058056,-0.00011784,-3.3528,0.63405
21745,9.505,0.27273,0.1,0.00035325,3530.1,0.00035325,3530,-0.00011654,0.2305,-0.00011661,-0.35773,0.64562
21746,9.505,0.090909,0.1,0.0003534,3531.6,0.00035335,3530,-0.00011647,0.014203,-0.00011689,-3.1477,0.64447
21747,9.2298,0.18182,0.1,0.00036146,3612.1,0.00036141,3610.8,-0.00011914,0.080509,-0.00011951,-2.677,0.61222
21748,9.3215,0.27273,0.1,0.00035847,3582.2,0.00035848,3582.6,-0.00011822,0.8658,-0.00011835,-0.12386,0.62368
21749,9.3215,0.090909,0.1,0.00035866,3584.1,0.00035861,3582.8,-0.00011822,0.019681,-0.00011859,-2.7355,0.62251
21750,9.0463,0.18182,0.1,0.0003667,3664.4,0.00036666,3663.5,-0.0001209,0.11796,-0.00012118,-2.0189,0.59064
21751,9.1381,0.27273,0.1,0.00036369,3634.4,0.00036372,3635.2,-0.00011987,1.6954,-0.00012011,-0.080343,0.60198
21752,9.1381,0.090909,0.1,0.00036392,3636.7,0.00036389,3635.6,-0.00011998,0.027474,-0.00012029,-2.3244,0.6008
21753,8.8628,0.18182,0.1,0.00037194,3716.8,0.00037192,3716.2,-0.00012265,0.1868,-0.00012287,-1.4046,0.5693
21754,8.9546,0.27273,0.1,0.00036893,3686.7,0.00036897,3688,-0.00012153,2.5474,-0.00012188,-0.066513,0.58052
21755,8.9546,0.090909,0.1,0.0003692,3689.4,0.00036916,3688.5,-0.00012174,0.038807,-0.000122,-1.9203,0.57933
21756,8.6794,0.18182,0.1,0.00037718,3769.2,0.00037717,3768.9,-0.0001244,0.32535,-0.00012456,-0.88449,0.54821
21757,8.7711,0.27273,0.1,0.00037416,3739,0.00037422,3740.7,-0.00012319,3.3861,-0.00012365,-0.061055,0.55931
21758,8.7711,0.090909,0.1,0.00037447,3742.1,0.00037444,3741.3,-0.00012349,0.055784,-0.0001237,-1.5313,0.55811
21759,8.4959,0.18182,0.1,0.0003824,3821.4,0.0003824,3821.4,-0.00012612,0.59074,-0.00012627,-0.53109,0.52738
21760,8.5876,0.27273,0.1,0.00037939,3791.3,0.00037946,3793.4,-0.00012485,4.1882,-0.00012541,-0.059132,0.53836
21761,8.5876,0.090909,0.1,0.00037973,3794.7,0.00037971,3794.1,-0.00012525,0.08213,-0.00012541,-1.1688,0.53715
21762,8.3124,0.18182,0.1,0.00038761,3873.4,0.00038762,3873.7,-0.00012781,0.96961,-0.00012799,-0.34997,0.5068
21763,8.4041,0.27273,0.1,0.00038461,3843.4,0.00038469,3845.9,-0.00012651,4.9292,-0.00012717,-0.059108,0.51766
21764,8.4041,0.090909,0.1,0.00038497,3847.1,0.00038496,3846.7,-0.00012699,0.12425,-0.00012712,-0.84862,0.51643
21765,8.1289,0.18182,0.1,0.00039278,3925.1,0.0003928,3925.6,-0.00012949,1.364,-0.00012971,-0.26631,0.48648
21766,8.2206,0.27273,0.1,0.0003898,3895.3,0.00038989,3898.1,-0.00012816,5.5803,-0.00012892,-0.060308,0.49722
21767,8.2206,0.090909,0.1,0.00039019,3899.2,0.00039018,3899,-0.00012872,0.19072,-0.00012882,-0.59093,0.49598
21768,7.9454,0.18182,0.1,0.00039789,3976.2,0.00039792,3976.9,-0.00013115,1.6924,-0.00013141,-0.22675,0.46643
21769,8.0372,0.27273,0.1,0.00039495,3946.8,0.00039506,3949.8,-0.00012982,6.1063,-0.00013064,-0.062449,0.47704
21770,8.0372,0.090909,0.1,0.00039535,3950.8,0.00039535,3950.7,-0.00013042,0.28306,-0.00013051,-0.41139,0.47579
21771,7.7619,0.18182,0.1,0.00040293,4026.6,0.00040296,4027.4,-0.0001328,1.8994,-0.00013308,-0.20984,0.44665
21772,7.8537,0.27273,0.1,0.00040005,3997.7,0.00040016,4000.9,-0.00013147,6.4652,-0.00013234,-0.065479,0.45712
21773,7.8537,0.090909,0.1,0.00040045,4001.7,0.00040045,4001.7,-0.0001321,0.37829,-0.00013219,-0.30412,0.45586
21774,7.5785,0.18182,0.1,0.00040787,4075.9,0.0004079,4076.7,-0.00013442,1.9379,-0.00013471,-0.20901,0.42713
21775,7.6702,0.27273,0.1,0.00040507,4047.9,0.00040518,4051.1,-0.00013312,6.6066,-0.000134,-0.069566,0.43748
21776,7.6702,0.090909,0.1,0.00040544,4051.6,0.00040545,4051.7,-0.00013375,0.433,-0.00013384,-0.2462,0.43621
21777,7.395,0.18182,0.1,0.00041266,4123.7,0.00041268,4124.5,-0.00013602,1.7629,-0.00013628,-0.22703,0.40789
21778,7.4867,0.27273,0.1,0.00040997,4096.9,0.00041008,4100.1,-0.00013475,6.4707,-0.00013562,-0.075241,0.41811
21779,7.4867,0.090909,0.1,0.00041031,4100.3,0.00041031,4100.3,-0.00013536,0.40504,-0.00013544,-0.21984,0.41682
21780,7.2115,0.18182,0.1,0.00041726,4169.7,0.00041727,4170.2,-0.00013757,1.3386,-0.00013778,-0.28466,0.38893
21781,7.3032,0.27273,0.1,0.00041472,4144.4,0.00041482,4147.3,-0.00013635,5.9878,-0.00013716,-0.083842,0.39901
21782,7.3032,0.090909,0.1,0.000415,4147.1,0.000415,4147.1,-0.00013692,0.26671,-0.00013698,-0.22608,0.39772
21783,7.028,0.18182,0.1,0.0004216,4213.1,0.00042161,4213.2,-0.00013905,0.70595,-0.0001392,-0.48847,0.37025
21784,7.1198,0.27273,0.1,0.00041927,4189.8,0.00041936,4192.3,-0.00013793,5.0784,-0.00013862,-0.099033,0.38019
21785,7.1198,0.090909,0.1,0.00041945,4191.6,0.00041944,4191.5,-0.0001384,0.055351,-0.00013845,-0.33584,0.37889
21786,6.8445,0.18182,0.1,0.00042562,4253.2,0.0004256,4252.7,-0.00014037,0.22709,-0.00014057,-1.2764,0.35185
21787,6.9363,0.27273,0.1,0.00042356,4232.6,0.00042362,4234.4,-0.00013946,3.6595,-0.00013997,-0.1338,0.36166
21788,6.9363,0.090909,0.1,0.0004236,4233,0.00042358,4232.6,-0.00013975,-0.048213,-0.00013985,-0.76896,0.36034
21789,6.6611,0.18182,0.1,0.0004292,4289,0.00042915,4287.6,-0.00014149,0.074189,-0.00014188,-2.9071,0.33374
21790,6.7528,0.27273,0.1,0.00042749,4272,0.00042752,4272.7,-0.00014092,1.7066,-0.00014118,-0.27325,0.34341
21791,6.7528,0.090909,0.1,0.00042734,4270.5,0.00042732,4269.7,-0.00014095,-0.068729,-0.00014115,-1.5454,0.34208
21792,6.4776,0.18182,0.1,0.00043223,4319.3,0.00043214,4316.7,-0.00014237,0.023451,-0.00014308,-5.2544,0.31591
21793,6.5693,0.27273,0.1,0.00043097,4306.8,0.00043095,4306,-0.00014212,0.26361,-0.00014237,-1.684,0.32544
21794,6.5693,0.090909,0.1,0.00043058,4302.8,0.00043053,4301.5,-0.00014197,-0.070114,-0.00014231,-2.6522,0.32411
21795,6.2941,0.18182,0.1,0.00043455,4342.5,0.00043441,4338.4,-0.00014299,0.001539,-0.0001441,-8.3531,0.29838
21796,6.3858,0.27273,0.1,0.00043387,4335.7,0.00043378,4333.1,-0.00014291,0.084237,-0.00014362,-5.2551,0.30777
21797,6.3858,0.090909,0.1,0.00043316,4328.6,0.00043309,4326.5,-0.00014274,-0.065289,-0.00014329,-4.1334,0.30643
21798,6.1106,0.18182,0.1,0.00043598,4356.7,0.00043576,4350.6,-0.00014326,-0.0098408,-0.0001449,-12.302,0.28114
21799,6.2024,0.27273,0.1,0.00043602,4357.2,0.00043585,4352.2,-0.00014339,0.049449,-0.00014472,-10.012,0.29039
21800,6.2024,0.090909,0.1,0.00043491,4346.1,0.0004348,4343,-0.00014322,-0.057316,-0.00014402,-6.0484,0.28903
21801,5.9271,0.18182,0.1,0.00043626,4359.5,0.00043596,4350.9,-0.00014311,-0.017584,-0.0001454,-17.217,0.26419
21802,6.0189,0.27273,0.1,0.00043721,4369,0.00043693,4361,-0.00014348,0.04045,-0.00014561,-15.985,0.2733
21803,6.0189,0.090909,0.1,0.0004356,4352.9,0.00043545,4348.7,-0.00014333,-0.047175,-0.00014445,-8.4632,0.27193
21804,5.7437,0.18182,0.1,0.0004351,4348,0.0004347,4336.3,-0.00014243,-0.025817,-0.00014552,-23.215,0.24754
21805,5.8354,0.27273,0.1,0.00043718,4368.8,0.00043678,4357.1,-0.00014311,0.04087,-0.00014622,-23.3,0.25651
21806,5.8354,0.090909,0.1,0.00043495,4346.5,0.00043476,4340.8,-0.00014297,-0.035342,-0.00014449,-11.446,0.25513
21807,5.5602,0.18182,0.1,0.00043215,4318.5,0.00043163,4303.2,-0.0001411,-0.038201,-0.00014515,-30.4,0.23118
21808,5.6519,0.27273,0.1,0.00043562,4353.2,0.00043507,4337.1,-0.00014216,0.045716,-0.00014643,-32.075,0.24001
21809,5.6519,0.090909,0.1,0.00043264,4323.5,0.00043239,4315.9,-0.00014203,-0.02227,-0.00014403,-15.061,0.23861
21810,5.3767,0.18182,0.1,0.00042698,4266.8,0.0004263,4247.2,-0.00013898,-0.058628,-0.00014414,-38.845,0.21511
21811,5.4684,0.27273,0.1,0.00043215,4318.5,0.00043141,4297.2,-0.0001405,0.052417,-0.00014615,-42.383,0.2238
21812,5.4684,0.090909,0.1,0.00042826,4279.7,0.00042793,4270,-0.00014037,-0.0086493,-0.00014294,-19.361,0.22239
21813,5.1932,0.18182,0.1,0.00041906,4187.8,0.00041822,4163.2,-0.00013589,-0.091053,-0.00014234,-48.558,0.19932
21814,5.285,0.27273,0.1,0.00042628,4259.9,0.00042534,4232.5,-0.00013797,0.059133,-0.0001452,-54.216,0.20788
21815,5.285,0.090909,0.1,0.00042133,4210.4,0.00042091,4198.2,-0.00013783,0.0044135,-0.00014107,-24.372,0.20645
21816,5.0097,0.18182,0.1,0.00040782,4075.4,0.00040677,4045.3,-0.00013164,-0.13803,-0.00013953,-59.439,0.18382
21817,5.1015,0.27273,0.1,0.00041747,4171.9,0.00041629,4137.8,-0.00013441,0.064683,-0.00014339,-67.435,0.19225
21818,5.1015,0.090909,0.1,0.00041127,4109.9,0.00041075,4094.8,-0.00013423,0.015125,-0.00013823,-30.069,0.1908
21819,4.8263,0.18182,0.1,0.00039257,3922.9,0.0003913,3886.8,-0.00012602,-0.19731,-0.00013547,-71.219,0.16859
21820,4.918,0.27273,0.1,0.00040507,4047.9,0.00040362,4006.5,-0.0001296,0.070069,-0.00014048,-81.693,0.17689
21821,4.918,0.090909,0.1,0.00039744,3971.7,0.00039681,3953.4,-0.00012935,0.021049,-0.00013419,-36.346,0.17542
21822,4.6428,0.18182,0.1,0.00037258,3723.2,0.00037108,3680.7,-0.00011882,-0.25219,-0.00012988,-83.379,0.15362
21823,4.7345,0.27273,0.1,0.00038835,3880.8,0.00038662,3831.8,-0.00012335,0.081453,-0.00013618,-96.364,0.16181
21824,4.7345,0.090909,0.1,0.00037912,3788.6,0.00037838,3767,-0.00012298,0.018215,-0.0001287,-42.967,0.16031
21825,4.4593,0.18182,0.1,0.00034711,3468.7,0.00034539,3420.1,-0.00010983,-0.25804,-0.00012245,-95.075,0.13889
21826,4.551,0.27273,0.1,0.00036653,3662.8,0.00036453,3606.3,-0.00011543,0.12256,-0.00013015,-110.46,0.14698
21827,4.551,0.090909,0.1,0.00035556,3553.2,0.0003547,3528.2,-0.00011487,0.0054022,-0.00012146,-49.503,0.14545
21828,4.2758,0.18182,0.1,0.00031547,3152.5,0.00031355,3098.7,-9.8865e-05,-0.084308,-0.00011284,-105.07,0.1244
21829,4.3676,0.27273,0.1,0.00033884,3386,0.00033659,3323.2,-0.00010567,0.24409,-0.00012202,-122.61,0.13239
21830,4.3676,0.090909,0.1,0.00032603,3258.1,0.00032506,3230.1,-0.00010484,-0.026995,-0.0001122,-55.269,0.13083
21831,4.0923,0.18182,0.1,0.00027714,2769.5,0.00027508,2712.2,-8.5823e-05,0.49418,-0.00010077,-111.78,0.11011
21832,4.1841,0.27273,0.1,0.00030463,3044.2,0.00030219,2976.8,-9.3906e-05,0.62597,-0.00011145,-131.2,0.11803
21833,4.1841,0.090909,0.1,0.00028991,2897.1,0.00028885,2867,-9.2723e-05,-0.028662,-0.0001006,-59.243,0.11642
21834,3.9088,0.18182,0.1,0.0002319,2317.4,0.0002298,2259.7,-7.064e-05,2.3626,-8.6052e-05,-113.43,0.096003
21835,4.0006,0.27273,0.1,0.00026362,2634.4,0.00026108,2565,-8.0094e-05,1.491,-9.8265e-05,-135.04,0.10386
21836,4.0006,0.090909,0.1,0.00024681,2466.4,0.00024574,2435.8,-7.846e-05,-0.083127,-8.645e-05,-60.116,0.1022
21837,3.7254,0.18182,0.1,0.00018021,1800.8,0.00017814,1745.6,-5.3366e-05,6.1375,-6.8947e-05,-110.93,0.08204
21838,3.8171,0.27273,0.1,0.00021628,2161.3,0.00021372,2092.5,-6.4219e-05,4.2473,-8.2749e-05,-134.98,0.08985
21839,3.8171,0.090909,0.1,0.00019668,1965.5,0.00019568,1937.1,-6.2047e-05,0.69856,-6.9607e-05,-56.101,0.088151
21840,3.5419,0.18182,0.1,0.00012545,1253.6,0.00012311,1196.8,-3.3424e-05,20.646,-5.2421e-05,-122.09,0.068185
21841,3.6336,0.27273,0.1,0.00016535,1652.4,0.00016251,1578.9,-4.6632e-05,7.5157,-6.68e-05,-144.01,0.075972
21842,3.6336,0.090909,0.1,0.00014012,1400.2,0.00013924,1375.7,-4.371e-05,1.0952,-5.0345e-05,-48.76,0.074226
21843,3.4501,0.27273,0.1,0.00012515,1250.7,0.00011951,1123.2,-2.728e-05,20.301,-6.1338e-05,-235.6,0.062181
21844,3.3584,0.18182,0.1,7.1191e-05,711.42,6.9689e-05,672.46,-1.9902e-05,-0.68746,-2.9377e-05,-71.879,0.0544
21845,3.4501,0.090909,0.1,8.0035e-05,799.8,7.9039e-05,776.01,-2.1874e-05,17.785,-3.219e-05,-59.723,0.060392
21846,23.725,0.36364,0.1,9.489e-06,94.825,7.3144e-06,55.245,-1.6658e-08,0.16216,-7.2583e-06,-54.249,2.8131
21847,23.817,0.45455,0.1,9.2883e-06,92.819,6.0577e-06,38.306,9.7943e-07,0.15022,-8.0256e-06,-67.51,2.8286
21848,23.908,0.36364,0.1,7.3555e-06,73.504,4.1442e-06,21.402,1.2735e-06,-0.16778,-6.7528e-06,-60.474,2.8439
21849,23.541,0.36364,0.1,1.2312e-05,123.03,1.0715e-05,90.882,-1.3735e-06,0.051365,-7.9196e-06,-49.133,2.7822
21850,23.633,0.45455,0.1,1.1575e-05,115.67,9.3211e-06,73.301,-4.478e-07,-0.098079,-8.4253e-06,-60.038,2.7977
21851,23.358,0.36364,0.1,1.562e-05,156.1,1.432e-05,127.94,-2.6965e-06,0.091332,-8.8324e-06,-46.011,2.7514
21852,23.45,0.45455,0.1,1.454e-05,145.3,1.28e-05,109.77,-1.8054e-06,0.028325,-9.1304e-06,-55.008,2.7669
21853,23.174,0.36364,0.1,1.9165e-05,191.52,1.8039e-05,165.82,-4.019e-06,0.085862,-9.8671e-06,-43.854,2.7205
21854,23.266,0.45455,0.1,1.7863e-05,178.51,1.6423e-05,147.14,-3.1577e-06,0.024781,-1.0008e-05,-51.446,2.736
21855,22.991,0.36364,0.1,2.2837e-05,228.21,2.1826e-05,204.22,-5.3426e-06,0.084941,-1.0967e-05,-42.174,2.6897
21856,23.083,0.45455,0.1,2.1384e-05,213.7,2.0135e-05,185.16,-4.5024e-06,0.037924,-1.0989e-05,-48.698,2.7052
21857,22.807,0.36364,0.1,2.6586e-05,265.68,2.5658e-05,242.98,-6.6697e-06,0.080082,-1.2105e-05,-40.761,2.6589
21858,22.899,0.45455,0.1,2.5026e-05,250.09,2.391e-05,223.61,-5.8463e-06,0.039594,-1.2034e-05,-46.456,2.6744
21859,22.624,0.36364,0.1,3.0387e-05,303.66,2.9522e-05,282,-8.0004e-06,0.07528,-1.3268e-05,-39.507,2.6281
21860,22.716,0.45455,0.1,2.8745e-05,287.26,2.7728e-05,262.4,-7.1905e-06,0.040534,-1.3123e-05,-44.535,2.6436
21861,22.44,0.36364,0.1,3.4225e-05,342.02,3.3412e-05,321.25,-9.3349e-06,0.070302,-1.4449e-05,-38.356,2.5974
21862,22.532,0.45455,0.1,3.252e-05,324.97,3.1579e-05,301.45,-8.5362e-06,0.03979,-1.4242e-05,-42.834,2.6128
21863,22.257,0.36364,0.1,3.8092e-05,380.66,3.7322e-05,360.68,-1.0673e-05,0.06556,-1.5643e-05,-37.277,2.5666
21864,22.349,0.45455,0.1,3.6335e-05,363.1,3.5456e-05,340.71,-9.8837e-06,0.038499,-1.5384e-05,-41.291,2.5821
21865,22.073,0.36364,0.1,4.1983e-05,419.54,4.1249e-05,400.27,-1.2015e-05,0.061099,-1.6848e-05,-36.253,2.5359
21866,22.165,0.45455,0.1,4.0183e-05,401.55,3.9356e-05,380.15,-1.1233e-05,0.036853,-1.6544e-05,-39.867,2.5513
21867,21.89,0.36364,0.1,4.5895e-05,458.63,4.5193e-05,440,-1.336e-05,0.05696,-1.8062e-05,-35.272,2.5052
21868,21.982,0.45455,0.1,4.4057e-05,440.27,4.3275e-05,419.75,-1.2585e-05,0.035075,-1.7719e-05,-38.537,2.5206
21869,21.706,0.36364,0.1,4.9825e-05,497.9,4.9153e-05,479.88,-1.4708e-05,0.053144,-1.9284e-05,-34.327,2.4745
21870,21.798,0.45455,0.1,4.7955e-05,479.22,4.7212e-05,459.5,-1.3939e-05,0.033261,-1.8906e-05,-37.285,2.4899
21871,21.523,0.36364,0.1,5.3772e-05,537.35,5.3127e-05,519.89,-1.606e-05,0.04964,-2.0514e-05,-33.416,2.4439
21872,21.615,0.45455,0.1,5.1873e-05,518.37,5.1165e-05,499.4,-1.5296e-05,0.031482,-2.0105e-05,-36.099,2.4593
21873,21.34,0.36364,0.1,5.7737e-05,576.97,5.7115e-05,560.03,-1.7415e-05,0.046419,-2.1751e-05,-32.535,2.4133
21874,21.431,0.45455,0.1,5.5811e-05,557.73,5.5134e-05,539.43,-1.6656e-05,0.029767,-2.1314e-05,-34.972,2.4287
21875,21.156,0.36364,0.1,6.1717e-05,616.75,6.1118e-05,600.31,-1.8773e-05,0.043462,-2.2996e-05,-31.684,2.3827
21876,21.248,0.45455,0.1,5.9768e-05,597.27,5.9119e-05,579.61,-1.8018e-05,0.028126,-2.2533e-05,-33.898,2.3981
21877,20.973,0.36364,0.1,6.5714e-05,656.68,6.5135e-05,640.73,-2.0135e-05,0.040754,-2.4248e-05,-30.86,2.3522
21878,21.064,0.45455,0.1,6.3742e-05,636.98,6.312e-05,619.92,-1.9383e-05,0.026582,-2.3762e-05,-32.872,2.3675
21879,20.789,0.36364,0.1,6.9726e-05,696.78,6.9167e-05,681.28,-2.1501e-05,0.038267,-2.5507e-05,-30.063,2.3217
21880,20.881,0.45455,0.1,6.7734e-05,676.88,6.7136e-05,660.38,-2.0752e-05,0.025132,-2.5e-05,-31.892,2.337
21881,20.606,0.36364,0.1,7.3755e-05,737.04,7.3214e-05,721.98,-2.2871e-05,0.035985,-2.6774e-05,-29.292,2.2912
21882,20.697,0.45455,0.1,7.1744e-05,716.95,7.1168e-05,700.98,-2.2124e-05,0.023775,-2.6247e-05,-30.954,2.3066
21883,20.422,0.36364,0.1,7.7801e-05,777.47,7.7276e-05,762.82,-2.4244e-05,0.033891,-2.8048e-05,-28.548,2.2608
21884,20.514,0.45455,0.1,7.5771e-05,757.19,7.5215e-05,741.72,-2.3499e-05,0.022515,-2.7502e-05,-30.056,2.2762
21885,20.239,0.36364,0.1,8.1863e-05,818.06,8.1354e-05,803.81,-2.5622e-05,0.031963,-2.933e-05,-27.829,2.2305
21886,20.33,0.45455,0.1,7.9816e-05,797.61,7.9279e-05,782.62,-2.4878e-05,0.021341,-2.8767e-05,-29.197,2.2458
21887,20.055,0.36364,0.1,8.5941e-05,858.82,8.5448e-05,844.95,-2.7003e-05,0.030184,-3.0619e-05,-27.135,2.2002
21888,20.147,0.45455,0.1,8.3878e-05,838.2,8.3359e-05,823.66,-2.6261e-05,0.020244,-3.004e-05,-28.374,2.2155
21889,19.872,0.36364,0.1,9.0037e-05,899.75,8.9558e-05,886.24,-2.8389e-05,0.028549,-3.1915e-05,-26.465,2.17
21890,19.963,0.45455,0.1,8.7958e-05,878.97,8.7456e-05,864.86,-2.7647e-05,0.01922,-3.1321e-05,-27.585,2.1852
21891,19.688,0.36364,0.1,9.4151e-05,940.86,9.3685e-05,927.69,-2.978e-05,0.027046,-3.322e-05,-25.819,2.1398
21892,19.78,0.45455,0.1,9.2056e-05,919.92,9.157e-05,906.22,-2.9038e-05,0.01828,-3.2612e-05,-26.83,2.155
21893,19.505,0.36364,0.1,9.8282e-05,982.14,9.7829e-05,969.31,-3.1175e-05,0.025653,-3.4531e-05,-25.196,2.1097
21894,19.596,0.45455,0.1,9.6172e-05,961.06,9.5702e-05,947.75,-3.0433e-05,0.017407,-3.391e-05,-26.107,2.1249
21895,19.321,0.36364,0.1,0.00010243,1023.6,0.00010199,1011.1,-3.2574e-05,0.024366,-3.5851e-05,-24.595,2.0796
21896,19.413,0.45455,0.1,0.00010031,1002.4,9.985e-05,989.43,-3.1833e-05,0.016584,-3.5218e-05,-25.414,2.0948
21897,19.138,0.36364,0.1,0.0001066,1065.2,0.00010617,1053,-3.3979e-05,0.023178,-3.7178e-05,-24.016,2.0496
21898,19.229,0.45455,0.1,0.00010446,1043.9,0.00010402,1031.3,-3.3237e-05,0.01583,-3.6533e-05,-24.75,2.0648
21899,18.954,0.36364,0.1,0.00011078,1107.1,0.00011037,1095.2,-3.5388e-05,0.022078,-3.8513e-05,-23.458,2.0197
21900,19.046,0.45455,0.1,0.00010863,1085.6,0.0001082,1073.3,-3.4646e-05,0.015126,-3.7857e-05,-24.113,2.0348
21901,18.771,0.36364,0.1,0.00011499,1149.1,0.00011458,1137.4,-3.6803e-05,0.021064,-3.9856e-05,-22.919,1.9899
21902,18.863,0.45455,0.1,0.00011282,1127.4,0.0001124,1115.5,-3.606e-05,0.014471,-3.919e-05,-23.503,2.005
21903,18.587,0.36364,0.1,0.00011921,1191.3,0.00011881,1179.9,-3.8222e-05,0.020123,-4.1206e-05,-22.4,1.9601
21904,18.679,0.45455,0.1,0.00011703,1169.5,0.00011663,1157.9,-3.7479e-05,0.01387,-4.0531e-05,-22.917,1.9752
21905,18.404,0.36364,0.1,0.00012345,1233.6,0.00012306,1222.6,-3.9647e-05,0.019243,-4.2564e-05,-21.898,1.9304
21906,18.496,0.45455,0.1,0.00012126,1211.8,0.00012087,1200.4,-3.8903e-05,0.013306,-4.1879e-05,-22.354,1.9454
21907,18.22,0.36364,0.1,0.00012771,1276.2,0.00012733,1265.4,-4.1078e-05,0.018416,-4.393e-05,-21.414,1.9008
21908,18.312,0.45455,0.1,0.00012551,1254.2,0.00012512,1243.2,-4.0332e-05,0.012773,-4.3236e-05,-21.813,1.9158
21909,18.037,0.36364,0.1,0.00013199,1319,0.00013162,1308.4,-4.2514e-05,0.017647,-4.5304e-05,-20.946,1.8713
21910,18.129,0.45455,0.1,0.00012978,1296.9,0.0001294,1286.1,-4.1766e-05,0.012266,-4.4602e-05,-21.292,1.8862
21911,17.853,0.36364,0.1,0.00013629,1361.9,0.00013593,1351.6,-4.3955e-05,0.016936,-4.6685e-05,-20.494,1.8418
21912,17.945,0.45455,0.1,0.00013406,1339.7,0.0001337,1329.2,-4.3206e-05,0.011807,-4.5975e-05,-20.791,1.8568
21913,17.67,0.36364,0.1,0.00014061,1405.1,0.00014026,1395,-4.5402e-05,0.016258,-4.8073e-05,-20.055,1.8125
21914,17.762,0.45455,0.1,0.00013837,1382.7,0.00013801,1372.5,-4.4651e-05,0.011375,-4.7356e-05,-20.307,1.8274
21915,17.486,0.36364,0.1,0.00014494,1448.4,0.0001446,1438.5,-4.6855e-05,0.015619,-4.9469e-05,-19.63,1.7832
21916,17.578,0.45455,0.1,0.0001427,1426,0.00014235,1416,-4.6103e-05,0.010948,-4.8745e-05,-19.84,1.7981
21917,17.303,0.36364,0.1,0.0001493,1492,0.00014897,1482.3,-4.8313e-05,0.015022,-5.0873e-05,-19.218,1.7541
21918,17.395,0.45455,0.1,0.00014704,1469.4,0.0001467,1459.6,-4.7559e-05,0.010564,-5.0141e-05,-19.388,1.7689
21919,17.119,0.36364,0.1,0.00015368,1535.7,0.00015335,1526.2,-4.9778e-05,0.014452,-5.2284e-05,-18.816,1.725
21920,17.211,0.45455,0.1,0.00015141,1513,0.00015108,1503.5,-4.9022e-05,0.010195,-5.1545e-05,-18.95,1.7398
21921,16.936,0.36364,0.1,0.00015808,1579.7,0.00015775,1570.4,-5.1248e-05,0.013918,-5.3702e-05,-18.425,1.6961
21922,17.028,0.45455,0.1,0.00015579,1556.9,0.00015547,1547.5,-5.049e-05,0.0098409,-5.2957e-05,-18.525,1.7108
21923,16.753,0.36364,0.1,0.00016249,1623.8,0.00016218,1614.7,-5.2725e-05,0.01341,-5.5128e-05,-18.043,1.6672
21924,16.844,0.45455,0.1,0.0001602,1600.9,0.00015988,1591.7,-5.1965e-05,0.009519,-5.4377e-05,-18.11,1.6819
21925,16.569,0.36364,0.1,0.00016693,1668.1,0.00016662,1659.2,-5.4208e-05,0.012912,-5.6561e-05,-17.669,1.6385
21926,16.661,0.45455,0.1,0.00016462,1645.1,0.00016431,1636.2,-5.3445e-05,0.0091994,-5.5803e-05,-17.706,1.6531
21927,16.386,0.36364,0.1,0.00017138,1712.7,0.00017108,1703.9,-5.5697e-05,0.012421,-5.8001e-05,-17.303,1.6099
21928,16.477,0.45455,0.1,0.00016907,1689.5,0.00016877,1680.8,-5.4932e-05,0.0088846,-5.7237e-05,-17.311,1.6244
21929,16.202,0.36364,0.1,0.00017586,1757.4,0.00017557,1748.9,-5.7192e-05,0.01195,-5.9448e-05,-16.943,1.5813
21930,16.294,0.45455,0.1,0.00017353,1734.1,0.00017324,1725.6,-5.6425e-05,0.008566,-5.8678e-05,-16.923,1.5959
21931,16.019,0.36364,0.1,0.00018036,1802.3,0.00018007,1794,-5.8693e-05,0.011501,-6.0902e-05,-16.588,1.5529
21932,16.11,0.45455,0.1,0.00017802,1779,0.00017773,1770.6,-5.7924e-05,0.0082791,-6.0127e-05,-16.541,1.5674
21933,15.835,0.36364,0.1,0.00018487,1847.4,0.00018459,1839.3,-6.0201e-05,0.011046,-6.2363e-05,-16.237,1.5247
21934,15.927,0.45455,0.1,0.00018252,1824,0.00018224,1815.8,-5.9429e-05,0.0079999,-6.1582e-05,-16.164,1.5391
21935,15.652,0.36364,0.1,0.00018941,1892.8,0.00018913,1884.8,-6.1715e-05,0.010593,-6.3831e-05,-15.889,1.4965
21936,15.743,0.45455,0.1,0.00018705,1869.2,0.00018677,1861.2,-6.0941e-05,0.0076937,-6.3044e-05,-15.791,1.5109
21937,15.468,0.36364,0.1,0.00019396,1938.3,0.0001937,1930.5,-6.3236e-05,0.010152,-6.5306e-05,-15.543,1.4685
21938,15.56,0.45455,0.1,0.00019159,1914.6,0.00019133,1906.8,-6.246e-05,0.0074138,-6.4513e-05,-15.42,1.4828
21939,15.285,0.36364,0.1,0.00019854,1984,0.00019828,1976.4,-6.4763e-05,0.0097035,-6.6787e-05,-15.199,1.4406
21940,15.376,0.45455,0.1,0.00019616,1960.2,0.0001959,1952.7,-6.3984e-05,0.007127,-6.5988e-05,-15.051,1.4548
21941,15.101,0.36364,0.1,0.00020314,2030,0.00020288,2022.5,-6.6297e-05,0.0092594,-6.8275e-05,-14.853,1.4128
21942,15.193,0.45455,0.1,0.00020074,2006,0.00020049,1998.7,-6.5516e-05,0.0068337,-6.747e-05,-14.681,1.427
21943,14.918,0.36364,0.1,0.00020775,2076.1,0.0002075,2068.8,-6.7838e-05,0.008814,-6.9769e-05,-14.507,1.3852
21944,15.009,0.45455,0.1,0.00020535,2052,0.0002051,2044.9,-6.7054e-05,0.0065594,-6.8959e-05,-14.309,1.3993
21945,14.734,0.36364,0.1,0.00021239,2122.4,0.00021214,2115.3,-6.9385e-05,0.0083463,-7.127e-05,-14.157,1.3577
21946,14.826,0.45455,0.1,0.00020997,2098.3,0.00020973,2091.3,-6.8599e-05,0.0062673,-7.0454e-05,-13.934,1.3717
21947,14.551,0.36364,0.1,0.00021704,2168.9,0.00021681,2162,-7.0939e-05,0.007853,-7.2777e-05,-13.804,1.3303
21948,14.642,0.45455,0.1,0.00021462,2144.7,0.00021438,2137.9,-7.015e-05,0.0059558,-7.1955e-05,-13.554,1.3443
21949,14.367,0.36364,0.1,0.00022172,2215.7,0.00022149,2208.9,-7.25e-05,0.0073518,-7.429e-05,-13.446,1.3031
21950,14.459,0.45455,0.1,0.00021928,2191.3,0.00021905,2184.7,-7.1709e-05,0.0056202,-7.3462e-05,-13.169,1.317
21951,14.184,0.36364,0.1,0.00022642,2262.6,0.00022619,2256,-7.4068e-05,0.006847,-7.581e-05,-13.081,1.276
21952,14.276,0.45455,0.1,0.00022396,2238.1,0.00022374,2231.7,-7.3274e-05,0.0053046,-7.4975e-05,-12.776,1.2899
21953,14,0.36364,0.1,0.00023113,2309.7,0.00023091,2303.4,-7.5643e-05,0.0063024,-7.7335e-05,-12.708,1.2491
21954,14.092,0.45455,0.1,0.00022867,2285.1,0.00022846,2278.9,-7.4846e-05,0.004975,-7.6494e-05,-12.373,1.2629
21955,13.817,0.36364,0.1,0.00023587,2357.1,0.00023566,2350.9,-7.7225e-05,0.0057283,-7.8866e-05,-12.326,1.2224
21956,13.909,0.45455,0.1,0.00023339,2332.3,0.00023319,2326.3,-7.6426e-05,0.0045929,-7.8018e-05,-11.96,1.2361
21957,13.633,0.36364,0.1,0.00024063,2404.6,0.00024042,2398.6,-7.8814e-05,0.0051364,-8.0403e-05,-11.933,1.1958
21958,13.725,0.45455,0.1,0.00023814,2379.7,0.00023794,2373.9,-7.8013e-05,0.0042222,-7.9548e-05,-11.534,1.2094
21959,13.45,0.36364,0.1,0.0002454,2452.3,0.0002452,2446.5,-8.041e-05,0.0045058,-8.1945e-05,-11.528,1.1694
21960,13.542,0.45455,0.1,0.0002429,2427.3,0.00024271,2421.8,-7.9606e-05,0.0038242,-8.1084e-05,-11.094,1.1829
21961,13.266,0.36364,0.1,0.0002502,2500.3,0.00025001,2494.7,-8.2014e-05,0.0038522,-8.3493e-05,-11.109,1.1431
21962,13.358,0.45455,0.1,0.00024768,2475.1,0.0002475,2469.8,-8.1208e-05,0.003397,-8.2624e-05,-10.638,1.1566
21963,13.083,0.36364,0.1,0.00025501,2548.4,0.00025483,2543,-8.3625e-05,0.0031538,-8.5046e-05,-10.674,1.117
21964,13.175,0.45455,0.1,0.00025249,2523.1,0.00025231,2518,-8.2816e-05,0.0029775,-8.4169e-05,-10.163,1.1304
21965,12.899,0.36364,0.1,0.00025985,2596.7,0.00025968,2591.6,-8.5244e-05,0.0023908,-8.6605e-05,-10.222,1.091
21966,12.991,0.45455,0.1,0.00025731,2571.3,0.00025714,2566.5,-8.4433e-05,0.0024866,-8.572e-05,-9.6681,1.1044
21967,12.716,0.36364,0.1,0.00026471,2645.3,0.00026454,2640.4,-8.687e-05,0.0015992,-8.8168e-05,-9.7514,1.0653
21968,12.808,0.45455,0.1,0.00026215,2619.7,0.000262,2615.1,-8.6056e-05,0.0019652,-8.7275e-05,-9.1508,1.0785
21969,12.532,0.36364,0.1,0.00026959,2694,0.00026943,2689.4,-8.8504e-05,0.00076525,-8.9737e-05,-9.2595,1.0397
21970,12.624,0.45455,0.1,0.00026701,2668.3,0.00026687,2664,-8.7688e-05,0.0014469,-8.8834e-05,-8.6089,1.0529
21971,12.349,0.36364,0.1,0.00027448,2742.9,0.00027433,2738.5,-9.0146e-05,-0.00014068,-9.131e-05,-8.7448,1.0143
21972,12.441,0.45455,0.1,0.0002719,2717.1,0.00027176,2713.1,-8.9327e-05,0.00087198,-9.0398e-05,-8.0402,1.0274
21973,12.165,0.36364,0.1,0.0002794,2792.1,0.00027926,2788,-9.1795e-05,-0.0011225,-9.2887e-05,-8.2053,0.98908
21974,12.257,0.45455,0.1,0.0002768,2766.1,0.00027667,2762.4,-9.0975e-05,0.00024155,-9.1965e-05,-7.4423,1.0021
21975,11.982,0.36364,0.1,0.00028434,2841.4,0.00028421,2837.6,-9.3453e-05,-0.0021622,-9.4469e-05,-7.6392,0.96405
21976,12.074,0.45455,0.1,0.00028172,2815.3,0.0002816,2811.8,-9.263e-05,-0.00045227,-9.3537e-05,-6.8131,0.97697
21977,11.799,0.36364,0.1,0.00028929,2890.9,0.00028917,2887.4,-9.5118e-05,-0.0032562,-9.6055e-05,-7.0443,0.93921
21978,11.89,0.45455,0.1,0.00028666,2864.6,0.00028656,2861.6,-9.4294e-05,-0.001166,-9.5112e-05,-6.1498,0.95204
21979,11.615,0.36364,0.1,0.00029427,2940.7,0.00029416,2937.5,-9.6792e-05,-0.0044247,-9.7645e-05,-6.4188,0.91456
21980,11.707,0.45455,0.1,0.00029162,2914.2,0.00029153,2911.5,-9.5965e-05,-0.0019401,-9.669e-05,-5.4502,0.9273
21981,11.432,0.36364,0.1,0.00029927,2990.6,0.00029917,2987.7,-9.8474e-05,-0.0056442,-9.924e-05,-5.7609,0.89011
21982,11.523,0.45455,0.1,0.0002966,2964,0.00029652,2961.6,-9.7645e-05,-0.002781,-9.8272e-05,-4.712,0.90276
21983,11.248,0.36364,0.1,0.00030429,3040.8,0.0003042,3038.2,-0.00010016,-0.0069298,-0.00010084,-5.0686,0.86586
21984,11.34,0.45455,0.1,0.0003016,3013.9,0.00030153,3012,-9.9334e-05,-0.0036439,-9.9857e-05,-3.9327,0.87842
21985,11.065,0.36364,0.1,0.00030932,3091.1,0.00030925,3088.9,-0.00010186,-0.0082851,-0.00010244,-4.3407,0.84181
21986,11.156,0.45455,0.1,0.00030662,3064.1,0.00030657,3062.5,-0.00010103,-0.0046258,-0.00010144,-3.1103,0.85428
21987,10.881,0.36364,0.1,0.00031438,3141.6,0.00031432,3139.8,-0.00010357,-0.0096263,-0.00010404,-3.5755,0.81798
21988,10.973,0.45455,0.1,0.00031166,3114.4,0.00031162,3113.3,-0.00010274,-0.0056788,-0.00010303,-2.2428,0.83034
21989,10.698,0.36364,0.1,0.00031946,3192.4,0.00031941,3191,-0.00010528,-0.010872,-0.00010565,-2.7723,0.79435
21990,10.789,0.45455,0.1,0.00031672,3165,0.00031669,3164.3,-0.00010445,-0.0067584,-0.00010463,-1.3285,0.80662
21991,10.514,0.36364,0.1,0.00032455,3243.3,0.00032452,3242.3,-0.00010701,-0.011776,-0.00010726,-1.9308,0.77094
21992,10.606,0.45455,0.1,0.00032179,3215.7,0.00032179,3215.5,-0.00010617,-0.0078757,-0.00010622,-0.3664,0.78311
21993,10.331,0.36364,0.1,0.00032967,3294.4,0.00032965,3293.9,-0.00010874,-0.011052,-0.00010888,-1.0524,0.74774
21994,10.422,0.45455,0.1,0.00032689,3266.6,0.0003269,3266.9,-0.00010782,0.64459,-0.00010791,-0.0093617,0.75981
21995,10.147,0.36364,0.1,0.0003348,3345.7,0.0003348,3345.6,-0.00011047,0.02244,-0.0001105,-0.16893,0.72477
21996,10.239,0.45455,0.1,0.000332,3317.7,0.00033203,3318.6,-0.00010942,1.7037,-0.00010965,-0.010749,0.73673
21997,9.9637,0.36364,0.1,0.00033995,3397.2,0.00033997,3397.6,-0.00011211,0.83518,-0.00011223,-0.028831,0.70202
21998,10.055,0.45455,0.1,0.00033713,3369,0.00033718,3370.4,-0.00011102,2.8101,-0.00011139,-0.01224,0.71388
21999,9.7802,0.36364,0.1,0.00034512,3448.8,0.00034515,3449.7,-0.00011374,1.8192,-0.00011398,-0.027374,0.6795
22000,9.872,0.45455,0.1,0.00034228,3420.4,0.00034235,3422.4,-0.00011262,3.9613,-0.00011315,-0.013847,0.69125
22001,9.5968,0.36364,0.1,0.00035031,3500.7,0.00035035,3502.1,-0.00011536,2.834,-0.00011574,-0.028756,0.65722
22002,9.6885,0.45455,0.1,0.00034744,3472,0.00034753,3474.6,-0.00011422,5.1533,-0.00011491,-0.01559,0.66885
22003,9.4133,0.36364,0.1,0.00035551,3552.6,0.00035557,3554.5,-0.00011699,3.8705,-0.00011751,-0.0309,0.63516
22004,9.505,0.45455,0.1,0.00035262,3523.8,0.00035273,3527,-0.00011583,6.3798,-0.00011668,-0.017456,0.64669
22005,9.2298,0.36364,0.1,0.00036072,3604.7,0.0003608,3607.1,-0.00011862,4.9192,-0.00011928,-0.033425,0.61335
22006,9.3215,0.45455,0.1,0.00035781,3575.7,0.00035794,3579.5,-0.00011744,7.6321,-0.00011846,-0.019463,0.62476
22007,9.0463,0.36364,0.1,0.00036594,3656.8,0.00036604,3659.8,-0.00012026,5.9676,-0.00012106,-0.0362,0.59178
22008,9.1381,0.45455,0.1,0.00036302,3627.7,0.00036317,3632.1,-0.00011905,8.8985,-0.00012024,-0.021618,0.60307
22009,8.8628,0.36364,0.1,0.00037116,3709,0.00037128,3712.5,-0.0001219,6.9994,-0.00012283,-0.039165,0.57045
22010,8.9546,0.45455,0.1,0.00036823,3679.7,0.0003684,3684.8,-0.00012066,10.163,-0.00012202,-0.023933,0.58163
22011,8.6794,0.36364,0.1,0.00037639,3761.3,0.00037652,3765.2,-0.00012354,7.9941,-0.00012461,-0.042286,0.54938
22012,8.7711,0.45455,0.1,0.00037344,3731.8,0.00037363,3737.5,-0.00012228,11.406,-0.0001238,-0.026422,0.56043
22013,8.4959,0.36364,0.1,0.0003816,3813.4,0.00038175,3817.8,-0.00012518,8.9258,-0.00012638,-0.045537,0.52856
22014,8.5876,0.45455,0.1,0.00037866,3783.9,0.00037887,3790.2,-0.0001239,12.601,-0.00012558,-0.029104,0.53949
22015,8.3124,0.36364,0.1,0.00038681,3865.4,0.00038697,3870.2,-0.00012683,9.7622,-0.00012813,-0.048904,0.50799
22016,8.4041,0.45455,0.1,0.00038386,3836,0.00038409,3842.8,-0.00012553,13.715,-0.00012736,-0.03201,0.5188
22017,8.1289,0.36364,0.1,0.00039198,3917.1,0.00039216,3922.3,-0.00012848,10.463,-0.00012988,-0.052387,0.48768
22018,8.2206,0.45455,0.1,0.00038905,3887.8,0.0003893,3895.1,-0.00012716,14.708,-0.00012912,-0.035183,0.49837
22019,7.9454,0.36364,0.1,0.00039712,3968.4,0.0003973,3973.9,-0.00013013,10.981,-0.0001316,-0.056021,0.46764
22020,8.0372,0.45455,0.1,0.00039421,3939.4,0.00039447,3947.1,-0.00012879,15.531,-0.00013086,-0.038696,0.4782
22021,7.7619,0.36364,0.1,0.00040219,4019.1,0.00040238,4024.7,-0.00013178,11.256,-0.00013328,-0.059907,0.44787
22022,7.8537,0.45455,0.1,0.00039933,3990.5,0.0003996,3998.6,-0.00013043,16.121,-0.00013258,-0.042675,0.4583
22023,7.5785,0.36364,0.1,0.00040717,4068.9,0.00040736,4074.5,-0.00013343,11.218,-0.00013493,-0.064295,0.42836
22024,7.6702,0.45455,0.1,0.00040438,4041,0.00040466,4049.2,-0.00013207,16.406,-0.00013426,-0.04734,0.43866
22025,7.395,0.36364,0.1,0.00041204,4117.6,0.00041222,4122.9,-0.00013507,10.785,-0.00013651,-0.069771,0.40913
22026,7.4867,0.45455,0.1,0.00040935,4090.6,0.00040962,4098.7,-0.00013372,16.3,-0.0001359,-0.053101,0.4193
22027,7.2115,0.36364,0.1,0.00041675,4164.6,0.00041691,4169.5,-0.0001367,9.861,-0.00013802,-0.077756,0.39018
22028,7.3032,0.45455,0.1,0.00041419,4139,0.00041445,4146.8,-0.00013537,15.699,-0.00013746,-0.060765,0.40021
22029,7.028,0.36364,0.1,0.00042123,4209.4,0.00042137,4213.6,-0.00013831,8.3354,-0.00013943,-0.092095,0.37151
22030,7.1198,0.45455,0.1,0.00041886,4185.7,0.0004191,4192.9,-0.00013701,14.485,-0.00013895,-0.072054,0.38141
22031,6.8445,0.36364,0.1,0.00042544,4251.5,0.00042554,4254.4,-0.00013988,6.0926,-0.00014071,-0.12604,0.35312
22032,6.9363,0.45455,0.1,0.00042331,4230.1,0.00042352,4236.3,-0.00013864,12.523,-0.00014032,-0.091139,0.36288
22033,6.6611,0.36364,0.1,0.00042927,4289.7,0.00042932,4291.1,-0.00014139,3.0666,-0.00014183,-0.25929,0.33502
22034,6.7528,0.45455,0.1,0.00042746,4271.6,0.00042762,4276.4,-0.00014025,9.6689,-0.00014155,-0.13052,0.34464
22035,6.4776,0.36364,0.1,0.00043262,4323.2,0.00043259,4322.5,-0.00014263,0.4803,-0.00014294,-1.8744,0.31721
22036,6.5693,0.45455,0.1,0.00043122,4309.3,0.00043132,4312,-0.00014181,5.8046,-0.00014261,-0.24722,0.32669
22037,6.2941,0.36364,0.1,0.00043534,4350.4,0.00043522,4346.9,-0.0001433,0.16748,-0.00014425,-6.9759,0.29968
22038,6.3858,0.45455,0.1,0.00043448,4341.8,0.00043449,4342,-0.0001432,1.4667,-0.00014355,-1.1678,0.30902
22039,6.1106,0.36364,0.1,0.00043725,4369.5,0.00043702,4362.6,-0.0001436,0.12605,-0.00014545,-13.736,0.28246
22040,6.2024,0.45455,0.1,0.00043708,4367.8,0.00043697,4364.6,-0.00014388,0.3229,-0.00014482,-6.7597,0.29165
22041,5.9271,0.36364,0.1,0.00043813,4378.3,0.00043775,4367.2,-0.00014348,0.12599,-0.00014643,-22.093,0.26552
22042,6.0189,0.45455,0.1,0.00043884,4385.4,0.00043859,4377.9,-0.00014406,0.19833,-0.00014608,-15.048,0.27457
22043,5.7437,0.36364,0.1,0.0004377,4374,0.00043714,4357.9,-0.00014283,0.14276,-0.00014713,-32.16,0.24888
22044,5.8354,0.45455,0.1,0.00043951,4392.1,0.00043908,4379.5,-0.00014377,0.1713,-0.00014716,-25.295,0.25779
22045,5.5602,0.36364,0.1,0.00043561,4353.1,0.00043484,4331,-0.00014155,0.1704,-0.00014743,-44.019,0.23253
22046,5.6519,0.45455,0.1,0.00043881,4385,0.00043816,4366.2,-0.00014293,0.17426,-0.00014795,-37.58,0.24131
22047,5.3767,0.36364,0.1,0.00043143,4311.3,0.00043043,4282.3,-0.00013949,0.20691,-0.00014719,-57.655,0.21648
22048,5.4684,0.45455,0.1,0.00043635,4360.5,0.00043545,4334.4,-0.0001414,0.19432,-0.00014834,-51.963,0.22511
22049,5.1932,0.36364,0.1,0.00042466,4243.7,0.00042338,4206.9,-0.00013649,0.25165,-0.00014623,-72.901,0.20071
22050,5.285,0.45455,0.1,0.00043169,4313.9,0.00043049,4279.4,-0.00013904,0.22875,-0.00014817,-68.397,0.20921
22051,5.0097,0.36364,0.1,0.00041468,4143.9,0.00041309,4098.6,-0.00013237,0.30515,-0.0001443,-89.357,0.18523
22052,5.1015,0.45455,0.1,0.00042429,4239.9,0.00042275,4196.1,-0.00013568,0.2786,-0.00014725,-86.653,0.1936
22053,4.8263,0.36364,0.1,0.00040078,4005,0.00039887,3951,-0.00012693,0.37019,-0.00014112,-106.31,0.17003
22054,4.918,0.45455,0.1,0.00041349,4132,0.00041158,4078.1,-0.00013113,0.34823,-0.00014531,-106.25,0.17828
22055,4.6428,0.36364,0.1,0.00038219,3819.2,0.00037996,3756.6,-0.00011996,0.45738,-0.00013634,-122.63,0.15509
22056,4.7345,0.45455,0.1,0.00039856,3982.9,0.00039627,3918.4,-0.00012518,0.44618,-0.00014206,-126.38,0.16322
22057,4.4593,0.36364,0.1,0.00035808,3578.4,0.00035557,3508.3,-0.00011128,0.59212,-0.00012956,-136.8,0.1404
22058,4.551,0.45455,0.1,0.00037871,3784.5,0.00037602,3709.7,-0.00011763,0.59401,-0.00013712,-145.91,0.14843
22059,4.2758,0.36364,0.1,0.00032775,3275.3,0.00032502,3199.7,-0.00010072,0.86315,-0.0001204,-147.04,0.12595
22060,4.3676,0.45455,0.1,0.00035315,3529.1,0.0003501,3444.9,-0.00010828,0.82623,-0.00013015,-163.49,0.13389
22061,4.0923,0.36364,0.1,0.00029077,2905.7,0.0002879,2827.3,-8.8205e-05,1.4146,-0.00010862,-152.01,0.11171
22062,4.1841,0.45455,0.1,0.00032133,3211.1,0.00031795,3118.9,-9.6985e-05,1.2733,-0.00012086,-178.14,0.11957
22063,3.9088,0.36364,0.1,0.00024747,2472.9,0.00024455,2394.4,-7.3732e-05,2.9324,-9.4449e-05,-152.73,0.097657
22064,4.0006,0.45455,0.1,0.00028331,2831.1,0.0002796,2731.7,-8.3704e-05,1.9911,-0.00010938,-190.95,0.10546
22065,3.7254,0.36364,0.1,0.00020025,2001.1,0.0001971,1918.5,-5.7558e-05,5.0789,-7.954e-05,-160.09,0.083749
22066,3.8171,0.45455,0.1,0.00024065,2404.8,0.00023645,2295.1,-6.85e-05,3.8538,-9.6844e-05,-209.11,0.091514
22067,3.5419,0.36364,0.1,0.00015979,1596.8,0.00015469,1473.7,-3.9933e-05,11.346,-7.2062e-05,-230.06,0.06995
22068,3.6336,0.45455,0.1,0.00019901,1988.7,0.0001933,1846.8,-5.1955e-05,4.0413,-8.7261e-05,-261.23,0.077701
22069,3.4501,0.45455,0.1,0.00017936,1792.4,0.0001671,1522.7,-3.3975e-05,11.909,-9.6486e-05,-457.78,0.063977
22070,3.3584,0.36364,0.1,0.00011725,1171.7,0.00011148,1035.3,-2.6863e-05,-4.1769,-5.7511e-05,-234.45,0.056216
22071,23.725,0.54545,0.1,1.1288e-05,112.81,8.0754e-06,56.446,5.5648e-07,-0.0485,-9.2119e-06,-73.444,2.8132
22072,23.817,0.63636,0.1,1.1102e-05,110.94,6.7496e-06,39.017,1.5569e-06,0.0013492,-9.9105e-06,-86.16,2.8287
22073,23.908,0.54545,0.1,9.4082e-06,94.017,4.8886e-06,21.926,1.9222e-06,-0.36243,-8.841e-06,-81.233,2.8441
22074,23.541,0.54545,0.1,1.3798e-05,137.89,1.143e-05,92.368,-8.7703e-07,-0.10102,-9.6631e-06,-66.116,2.7824
22075,23.633,0.63636,0.1,1.3178e-05,131.68,1.004e-05,74.75,6.3912e-08,-0.20315,-1.0197e-05,-77.301,2.7979
22076,23.358,0.54545,0.1,1.6807e-05,167.95,1.4932e-05,129.18,-2.2653e-06,-0.027684,-1.0336e-05,-60.67,2.7515
22077,23.45,0.63636,0.1,1.5875e-05,158.64,1.3461e-05,111.29,-1.3567e-06,-0.048748,-1.0714e-05,-70.352,2.767
22078,23.174,0.54545,0.1,2.0114e-05,201,1.8548e-05,166.7,-3.6403e-06,-0.016599,-1.1159e-05,-56.51,2.7207
22079,23.266,0.63636,0.1,1.8958e-05,189.45,1.7e-05,148.45,-2.7627e-06,-0.042054,-1.1397e-05,-64.917,2.7362
22080,22.991,0.54545,0.1,2.3605e-05,235.88,2.2246e-05,204.75,-5.0056e-06,-0.0030093,-1.2083e-05,-53.182,2.6899
22081,23.083,0.63636,0.1,2.2285e-05,222.7,2.0629e-05,186.17,-4.1512e-06,-0.019093,-1.2204e-05,-60.523,2.7054
22082,22.807,0.54545,0.1,2.7214e-05,271.95,2.6003e-05,243.22,-6.3668e-06,0.0031466,-1.3077e-05,-50.411,2.6591
22083,22.899,0.63636,0.1,2.5772e-05,257.54,2.4328e-05,224.34,-5.5313e-06,-0.01019,-1.31e-05,-56.875,2.6746
22084,22.624,0.54545,0.1,3.0904e-05,308.83,2.9806e-05,282.01,-7.726e-06,0.0072821,-1.4119e-05,-48.025,2.6283
22085,22.716,0.63636,0.1,2.9367e-05,293.47,2.8081e-05,262.87,-6.9059e-06,-0.0032524,-1.406e-05,-53.759,2.6438
22086,22.44,0.54545,0.1,3.4653e-05,346.29,3.3643e-05,321.05,-9.0847e-06,0.0096305,-1.5197e-05,-45.914,2.5975
22087,22.532,0.63636,0.1,3.3041e-05,330.18,3.1875e-05,301.69,-8.2773e-06,0.0009148,-1.507e-05,-51.035,2.613
22088,22.257,0.54545,0.1,3.8446e-05,384.2,3.7508e-05,360.3,-1.0444e-05,0.011011,-1.6303e-05,-44.011,2.5668
22089,22.349,0.63636,0.1,3.6773e-05,367.48,3.5704e-05,340.75,-9.6471e-06,0.0037336,-1.6117e-05,-48.608,2.5822
22090,22.073,0.54545,0.1,4.2275e-05,422.46,4.1397e-05,399.74,-1.1804e-05,0.011738,-1.7431e-05,-42.269,2.5361
22091,22.165,0.63636,0.1,4.055e-05,405.23,3.9561e-05,380.02,-1.1016e-05,0.0055621,-1.7194e-05,-46.414,2.5515
22092,21.89,0.54545,0.1,4.6134e-05,461.02,4.5308e-05,439.35,-1.3165e-05,0.012052,-1.8578e-05,-40.658,2.5054
22093,21.982,0.63636,0.1,4.4365e-05,443.35,4.3443e-05,419.47,-1.2385e-05,0.0067518,-1.8296e-05,-44.408,2.5208
22094,21.706,0.54545,0.1,5.0019e-05,499.84,4.9238e-05,479.12,-1.4528e-05,0.012098,-1.9741e-05,-39.156,2.4747
22095,21.798,0.63636,0.1,4.8211e-05,481.78,4.7346e-05,459.09,-1.3754e-05,0.0074968,-1.9419e-05,-42.557,2.4901
22096,21.523,0.54545,0.1,5.3927e-05,538.89,5.3185e-05,519.03,-1.5892e-05,0.011971,-2.0918e-05,-37.747,2.4441
22097,21.615,0.63636,0.1,5.2085e-05,520.49,5.127e-05,498.87,-1.5125e-05,0.0079445,-2.0561e-05,-40.838,2.4595
22098,21.34,0.54545,0.1,5.7856e-05,578.16,5.715e-05,559.09,-1.7259e-05,0.01173,-2.2108e-05,-36.421,2.4135
22099,21.431,0.63636,0.1,5.5984e-05,559.45,5.5213e-05,538.81,-1.6497e-05,0.0081834,-2.1719e-05,-39.233,2.4289
22100,21.156,0.54545,0.1,6.1806e-05,617.63,6.1132e-05,599.3,-1.8628e-05,0.011418,-2.331e-05,-35.167,2.3829
22101,21.248,0.63636,0.1,5.9906e-05,598.65,5.9175e-05,578.89,-1.787e-05,0.0082658,-2.2892e-05,-37.729,2.3983
22102,20.973,0.54545,0.1,6.5775e-05,657.29,6.5131e-05,639.65,-2e-05,0.011067,-2.4524e-05,-33.981,2.3524
22103,21.064,0.63636,0.1,6.385e-05,638.06,6.3154e-05,619.13,-1.9245e-05,0.0082499,-2.408e-05,-36.315,2.3678
22104,20.789,0.54545,0.1,6.9763e-05,697.15,6.9146e-05,680.15,-2.1374e-05,0.010695,-2.5748e-05,-32.855,2.3219
22105,20.881,0.63636,0.1,6.7814e-05,677.68,6.7152e-05,659.51,-2.0623e-05,0.0081619,-2.528e-05,-34.983,2.3373
22106,20.606,0.54545,0.1,7.377e-05,737.19,7.3178e-05,720.79,-2.2752e-05,0.010319,-2.6984e-05,-31.786,2.2915
22107,20.697,0.63636,0.1,7.18e-05,717.5,7.1166e-05,700.05,-2.2003e-05,0.0080273,-2.6493e-05,-33.727,2.3068
22108,20.422,0.54545,0.1,7.7796e-05,777.42,7.7227e-05,761.59,-2.4133e-05,0.0099455,-2.8229e-05,-30.77,2.2611
22109,20.514,0.63636,0.1,7.5805e-05,757.52,7.5199e-05,740.73,-2.3386e-05,0.0078663,-2.7718e-05,-32.54,2.2764
22110,20.239,0.54545,0.1,8.184e-05,817.84,8.1293e-05,802.53,-2.5517e-05,0.0095761,-2.9485e-05,-29.804,2.2308
22111,20.33,0.63636,0.1,7.983e-05,797.75,7.9249e-05,781.58,-2.4772e-05,0.0076842,-2.8954e-05,-31.416,2.246
22112,20.055,0.54545,0.1,8.5904e-05,858.44,8.5376e-05,843.64,-2.6905e-05,0.0092125,-3.075e-05,-28.884,2.2005
22113,20.147,0.63636,0.1,8.3874e-05,838.16,8.3317e-05,822.58,-2.6161e-05,0.0074838,-3.0202e-05,-30.353,2.2157
22114,19.872,0.54545,0.1,8.9985e-05,899.23,8.9476e-05,884.91,-2.8296e-05,0.0088683,-3.2025e-05,-28.008,2.1703
22115,19.963,0.63636,0.1,8.7939e-05,878.78,8.7403e-05,863.74,-2.7553e-05,0.0072723,-3.146e-05,-29.346,2.1855
22116,19.688,0.54545,0.1,9.4086e-05,940.21,9.3594e-05,926.33,-2.9692e-05,0.0085454,-3.331e-05,-27.174,2.1401
22117,19.78,0.63636,0.1,9.2022e-05,919.59,9.1507e-05,905.07,-2.895e-05,0.0070735,-3.2729e-05,-28.39,2.1553
22118,19.505,0.54545,0.1,9.8205e-05,981.38,9.773e-05,967.93,-3.1092e-05,0.0082312,-3.4604e-05,-26.379,2.11
22119,19.596,0.63636,0.1,9.6126e-05,960.59,9.5629e-05,946.56,-3.035e-05,0.0068776,-3.4009e-05,-27.484,2.1252
22120,19.321,0.54545,0.1,0.00010234,1022.7,0.00010188,1009.7,-3.2496e-05,0.0079339,-3.5907e-05,-25.621,2.0799
22121,19.413,0.63636,0.1,0.00010025,1001.8,9.9769e-05,988.22,-3.1754e-05,0.0066694,-3.5298e-05,-26.624,2.0951
22122,19.138,0.54545,0.1,0.0001065,1064.3,0.00010606,1051.6,-3.3904e-05,0.0076578,-3.7219e-05,-24.898,2.05
22123,19.229,0.63636,0.1,0.00010439,1043.2,0.00010393,1030.1,-3.3162e-05,0.0064811,-3.6598e-05,-25.806,2.0651
22124,18.954,0.54545,0.1,0.00011068,1106,0.00011025,1093.7,-3.5318e-05,0.007394,-3.8541e-05,-24.207,2.0201
22125,19.046,0.63636,0.1,0.00010855,1084.8,0.00010811,1072.1,-3.4575e-05,0.0062975,-3.7907e-05,-25.029,2.0352
22126,18.771,0.54545,0.1,0.00011488,1148,0.00011446,1136,-3.6736e-05,0.00715,-3.9871e-05,-23.548,1.9902
22127,18.863,0.63636,0.1,0.00011274,1126.6,0.0001123,1114.2,-3.5993e-05,0.0061165,-3.9226e-05,-24.29,2.0053
22128,18.587,0.54545,0.1,0.00011909,1190.1,0.00011868,1178.5,-3.8159e-05,0.0069239,-4.121e-05,-22.917,1.9605
22129,18.679,0.63636,0.1,0.00011694,1168.6,0.00011652,1156.6,-3.7415e-05,0.0059577,-4.0555e-05,-23.585,1.9755
22130,18.404,0.54545,0.1,0.00012333,1232.4,0.00012293,1221.1,-3.9587e-05,0.0067051,-4.2557e-05,-22.313,1.9308
22131,18.496,0.63636,0.1,0.00012116,1210.8,0.00012075,1199.1,-3.8842e-05,0.0057983,-4.1892e-05,-22.914,1.9458
22132,18.22,0.54545,0.1,0.00012758,1274.9,0.0001272,1263.9,-4.102e-05,0.0064913,-4.3914e-05,-21.735,1.9012
22133,18.312,0.63636,0.1,0.0001254,1253.2,0.00012501,1241.9,-4.0274e-05,0.005641,-4.3239e-05,-22.273,1.9162
22134,18.037,0.54545,0.1,0.00013186,1317.7,0.00013148,1306.9,-4.2459e-05,0.0062946,-4.5278e-05,-21.18,1.8717
22135,18.129,0.63636,0.1,0.00012966,1295.7,0.00012928,1284.8,-4.1711e-05,0.0054821,-4.4595e-05,-21.66,1.8866
22136,17.853,0.54545,0.1,0.00013615,1360.6,0.00013579,1350.1,-4.3903e-05,0.006116,-4.6651e-05,-20.647,1.8423
22137,17.945,0.63636,0.1,0.00013395,1338.5,0.00013358,1327.9,-4.3154e-05,0.005349,-4.5959e-05,-21.073,1.8572
22138,17.67,0.54545,0.1,0.00014046,1403.7,0.00014011,1393.5,-4.5352e-05,0.005936,-4.8032e-05,-20.134,1.8129
22139,17.762,0.63636,0.1,0.00013825,1381.5,0.00013789,1371.2,-4.4602e-05,0.0052205,-4.7332e-05,-20.511,1.8278
22140,17.486,0.54545,0.1,0.0001448,1447,0.00014446,1437.1,-4.6807e-05,0.0057653,-4.9422e-05,-19.639,1.7837
22141,17.578,0.63636,0.1,0.00014257,1424.7,0.00014222,1414.6,-4.6055e-05,0.0050776,-4.8714e-05,-19.97,1.7985
22142,17.303,0.54545,0.1,0.00014915,1490.5,0.00014882,1480.8,-4.8268e-05,0.0056101,-5.0819e-05,-19.161,1.7546
22143,17.395,0.63636,0.1,0.00014691,1468.1,0.00014657,1458.3,-4.7514e-05,0.0049579,-5.0103e-05,-19.449,1.7693
22144,17.119,0.54545,0.1,0.00015353,1534.2,0.0001532,1524.8,-4.9734e-05,0.0054585,-5.2224e-05,-18.698,1.7255
22145,17.211,0.63636,0.1,0.00015127,1511.7,0.00015094,1502.1,-4.8979e-05,0.004839,-5.1501e-05,-18.947,1.7402
22146,16.936,0.54545,0.1,0.00015792,1578.1,0.0001576,1568.9,-5.1207e-05,0.0053181,-5.3636e-05,-18.249,1.6966
22147,17.028,0.63636,0.1,0.00015566,1555.5,0.00015533,1546.2,-5.0449e-05,0.0047219,-5.2907e-05,-18.46,1.7113
22148,16.753,0.54545,0.1,0.00016233,1622.2,0.00016202,1613.3,-5.2685e-05,0.0051867,-5.5057e-05,-17.812,1.6677
22149,16.844,0.63636,0.1,0.00016006,1599.5,0.00015975,1590.4,-5.1925e-05,0.0046237,-5.432e-05,-17.988,1.6824
22150,16.569,0.54545,0.1,0.00016677,1666.5,0.00016647,1657.8,-5.417e-05,0.0050523,-5.6484e-05,-17.385,1.639
22151,16.661,0.63636,0.1,0.00016448,1643.7,0.00016418,1634.8,-5.3408e-05,0.0045195,-5.5741e-05,-17.529,1.6536
22152,16.386,0.54545,0.1,0.00017122,1711,0.00017093,1702.5,-5.566e-05,0.0049113,-5.7919e-05,-16.967,1.6104
22153,16.477,0.63636,0.1,0.00016892,1688.1,0.00016863,1679.5,-5.4896e-05,0.0044108,-5.717e-05,-17.081,1.6249
22154,16.202,0.54545,0.1,0.0001757,1755.8,0.00017541,1747.4,-5.7157e-05,0.0047793,-5.9362e-05,-16.557,1.5819
22155,16.294,0.63636,0.1,0.00017339,1732.7,0.0001731,1724.3,-5.6391e-05,0.0042915,-5.8606e-05,-16.641,1.5964
22156,16.019,0.54545,0.1,0.00018019,1800.7,0.00017991,1792.5,-5.866e-05,0.0046637,-6.0811e-05,-16.153,1.5535
22157,16.11,0.63636,0.1,0.00017787,1777.5,0.00017759,1769.3,-5.7891e-05,0.0041986,-6.0049e-05,-16.209,1.5679
22158,15.835,0.54545,0.1,0.0001847,1845.8,0.00018443,1837.8,-6.017e-05,0.0045362,-6.2267e-05,-15.754,1.5252
22159,15.927,0.63636,0.1,0.00018237,1822.4,0.0001821,1814.5,-5.9399e-05,0.0041096,-6.15e-05,-15.783,1.5396
22160,15.652,0.54545,0.1,0.00018924,1891.1,0.00018897,1883.3,-6.1686e-05,0.0044047,-6.373e-05,-15.357,1.4971
22161,15.743,0.63636,0.1,0.00018689,1867.6,0.00018663,1859.9,-6.0912e-05,0.0039899,-6.2957e-05,-15.36,1.5114
22162,15.468,0.54545,0.1,0.00019379,1936.6,0.00019353,1929,-6.3208e-05,0.0042814,-6.52e-05,-14.962,1.4691
22163,15.56,0.63636,0.1,0.00019144,1913,0.00019118,1905.5,-6.2432e-05,0.0038939,-6.4421e-05,-14.94,1.4833
22164,15.285,0.54545,0.1,0.00019836,1982.3,0.00019811,1975,-6.4737e-05,0.0041527,-6.6676e-05,-14.566,1.4412
22165,15.376,0.63636,0.1,0.000196,1958.6,0.00019575,1951.3,-6.3958e-05,0.0037911,-6.5891e-05,-14.52,1.4554
22166,15.101,0.54545,0.1,0.00020296,2028.2,0.00020271,2021.1,-6.6273e-05,0.0040321,-6.8159e-05,-14.169,1.4134
22167,15.193,0.63636,0.1,0.00020058,2004.4,0.00020034,1997.3,-6.5491e-05,0.003683,-6.7368e-05,-14.098,1.4276
22168,14.918,0.54545,0.1,0.00020757,2074.3,0.00020733,2067.4,-6.7815e-05,0.0039141,-6.9648e-05,-13.769,1.3858
22169,15.009,0.63636,0.1,0.00020518,2050.4,0.00020495,2043.5,-6.7031e-05,0.0035954,-6.8851e-05,-13.673,1.3999
22170,14.734,0.54545,0.1,0.0002122,2120.6,0.00021197,2113.9,-6.9364e-05,0.0037815,-7.1143e-05,-13.363,1.3583
22171,14.826,0.63636,0.1,0.0002098,2096.6,0.00020957,2089.9,-6.8577e-05,0.0034937,-7.034e-05,-13.243,1.3723
22172,14.551,0.54545,0.1,0.00021686,2167.1,0.00021663,2160.6,-7.092e-05,0.0036316,-7.2644e-05,-12.951,1.331
22173,14.642,0.63636,0.1,0.00021444,2143,0.00021422,2136.5,-7.0131e-05,0.0033781,-7.1836e-05,-12.806,1.3449
22174,14.367,0.54545,0.1,0.00022153,2213.8,0.00022131,2207.5,-7.2483e-05,0.0034857,-7.4151e-05,-12.53,1.3038
22175,14.459,0.63636,0.1,0.0002191,2189.5,0.00021889,2183.3,-7.1691e-05,0.0032437,-7.3336e-05,-12.36,1.3177
22176,14.184,0.54545,0.1,0.00022622,2260.6,0.00022601,2254.6,-7.4052e-05,0.0033502,-7.5663e-05,-12.099,1.2767
22177,14.276,0.63636,0.1,0.00022378,2236.3,0.00022358,2230.3,-7.3258e-05,0.0031377,-7.4843e-05,-11.903,1.2906
22178,14,0.54545,0.1,0.00023093,2307.7,0.00023073,2301.9,-7.5629e-05,0.0031889,-7.7181e-05,-11.656,1.2498
22179,14.092,0.63636,0.1,0.00022848,2283.3,0.00022829,2277.5,-7.4833e-05,0.0030272,-7.6355e-05,-11.432,1.2636
22180,13.817,0.54545,0.1,0.00023566,2355,0.00023547,2349.4,-7.7214e-05,0.0030169,-7.8704e-05,-11.199,1.2231
22181,13.909,0.63636,0.1,0.0002332,2330.4,0.00023302,2324.9,-7.6414e-05,0.0028737,-7.7871e-05,-10.947,1.2368
22182,13.633,0.54545,0.1,0.00024042,2402.5,0.00024023,2397.1,-7.8805e-05,0.0028482,-8.0233e-05,-10.725,1.1965
22183,13.725,0.63636,0.1,0.00023794,2377.8,0.00023776,2372.5,-7.8003e-05,0.0027463,-7.9393e-05,-10.443,1.2101
22184,13.45,0.54545,0.1,0.00024519,2450.2,0.00024501,2445,-8.0404e-05,0.0026634,-8.1766e-05,-10.233,1.1701
22185,13.542,0.63636,0.1,0.0002427,2425.3,0.00024253,2420.4,-7.9599e-05,0.0026063,-8.092e-05,-9.9196,1.1836
22186,13.266,0.54545,0.1,0.00024998,2498,0.00024981,2493.2,-8.201e-05,0.0024821,-8.3304e-05,-9.7206,1.1438
22187,13.358,0.63636,0.1,0.00024748,2473.1,0.00024732,2468.4,-8.1203e-05,0.0024532,-8.2451e-05,-9.3736,1.1573
22188,13.083,0.54545,0.1,0.00025479,2546.1,0.00025463,2541.5,-8.3624e-05,0.0022847,-8.4846e-05,-9.1852,1.1177
22189,13.175,0.63636,0.1,0.00025227,2521,0.00025212,2516.6,-8.2814e-05,0.0023286,-8.3986e-05,-8.8025,1.1311
22190,12.899,0.54545,0.1,0.00025961,2594.4,0.00025947,2590,-8.5245e-05,0.0020536,-8.6393e-05,-8.6244,1.0918
22191,12.991,0.63636,0.1,0.00025709,2569.1,0.00025695,2565,-8.4433e-05,0.0021569,-8.5525e-05,-8.2036,1.1051
22192,12.716,0.54545,0.1,0.00026446,2642.8,0.00026433,2638.8,-8.6874e-05,0.0018288,-8.7944e-05,-8.0357,1.0661
22193,12.808,0.63636,0.1,0.00026192,2617.4,0.00026179,2613.6,-8.6059e-05,0.0019819,-8.7068e-05,-7.5741,1.0793
22194,12.532,0.54545,0.1,0.00026933,2691.5,0.0002692,2687.7,-8.8511e-05,0.0015992,-8.9499e-05,-7.4167,1.0405
22195,12.624,0.63636,0.1,0.00026678,2665.9,0.00026666,2662.5,-8.7694e-05,0.0018443,-8.8614e-05,-6.9109,1.0537
22196,12.349,0.54545,0.1,0.00027422,2740.3,0.0002741,2736.9,-9.0156e-05,0.0013384,-9.1057e-05,-6.7645,1.0151
22197,12.441,0.63636,0.1,0.00027165,2714.6,0.00027154,2711.5,-8.9337e-05,0.0016911,-9.0164e-05,-6.2112,1.0282
22198,12.165,0.54545,0.1,0.00027912,2789.3,0.00027902,2786.3,-9.181e-05,0.0010472,-9.2619e-05,-6.0764,0.98992
22199,12.257,0.63636,0.1,0.00027654,2763.5,0.00027645,2760.8,-9.0988e-05,0.0015373,-9.1716e-05,-5.4718,1.0029
22200,11.982,0.54545,0.1,0.00028405,2838.5,0.00028396,2835.9,-9.3471e-05,0.00074875,-9.4183e-05,-5.3497,0.9649
22201,12.074,0.63636,0.1,0.00028145,2812.6,0.00028137,2810.2,-9.2647e-05,0.0013948,-9.3271e-05,-4.6895,0.97779
22202,11.799,0.54545,0.1,0.00028899,2887.9,0.00028892,2885.6,-9.5141e-05,0.00045242,-9.5751e-05,-4.5814,0.94008
22203,11.89,0.63636,0.1,0.00028638,2861.8,0.00028631,2859.9,-9.4314e-05,0.0013491,-9.4828e-05,-3.8609,0.95287
22204,11.615,0.54545,0.1,0.00029396,2937.5,0.00029389,2935.7,-9.6819e-05,0.00014932,-9.7321e-05,-3.7688,0.91544
22205,11.707,0.63636,0.1,0.00029133,2911.3,0.00029128,2909.8,-9.599e-05,0.0014494,-9.6387e-05,-2.9828,0.92815
22206,11.432,0.54545,0.1,0.00029894,2987.3,0.00029889,2985.9,-9.8506e-05,-0.00010721,-9.8893e-05,-2.909,0.89101
22207,11.523,0.63636,0.1,0.00029629,2960.9,0.00029626,2959.9,-9.7675e-05,0.001962,-9.7948e-05,-2.0523,0.90362
22208,11.248,0.54545,0.1,0.00030394,3037.3,0.00030391,3036.3,-0.0001002,-0.00024927,-0.00010047,-1.9995,0.86677
22209,11.34,0.63636,0.1,0.00030128,3010.7,0.00030126,3010.2,-9.9368e-05,0.0042554,-9.9511e-05,-1.0672,0.87929
22210,11.065,0.54545,0.1,0.00030896,3087.5,0.00030894,3086.9,-0.00010191,0.00015889,-0.00010204,-1.0383,0.84274
22211,11.156,0.63636,0.1,0.00030628,3060.7,0.00030628,3060.7,-0.00010106,0.06918,-0.00010108,-0.085449,0.85516
22212,10.881,0.54545,0.1,0.000314,3137.8,0.000314,3137.8,-0.00010361,0.034721,-0.00010363,-0.056535,0.81892
22213,10.973,0.63636,0.1,0.0003113,3110.8,0.00031132,3111.4,-0.00010264,1.1004,-0.00010278,-0.0076837,0.83124
22214,10.698,0.54545,0.1,0.00031905,3188.3,0.00031907,3188.9,-0.0001052,1.0557,-0.00010534,-0.0048104,0.7953
22215,10.789,0.63636,0.1,0.00031634,3161.2,0.00031638,3162.3,-0.0001042,2.2724,-0.0001045,-0.005424,0.80753
22216,10.514,0.54545,0.1,0.00032413,3239.1,0.00032417,3240.1,-0.00010678,2.1857,-0.00010707,-0.0044966,0.7719
22217,10.606,0.63636,0.1,0.00032139,3211.7,0.00032145,3213.5,-0.00010577,3.5132,-0.00010623,-0.0050928,0.78403
22218,10.331,0.54545,0.1,0.00032922,3289.9,0.00032928,3291.6,-0.00010836,3.3746,-0.00010881,-0.0049227,0.74872
22219,10.422,0.63636,0.1,0.00032646,3262.4,0.00032655,3264.8,-0.00010733,4.8233,-0.00010797,-0.0053017,0.76074
22220,10.147,0.54545,0.1,0.00033433,3341,0.00033441,3343.3,-0.00010994,4.6215,-0.00011056,-0.0055791,0.72576
22221,10.239,0.63636,0.1,0.00033155,3313.2,0.00033166,3316.3,-0.00010889,6.2029,-0.00010972,-0.0057808,0.73768
22222,9.9637,0.54545,0.1,0.00033946,3392.2,0.00033956,3395.2,-0.00011153,5.9245,-0.00011232,-0.006368,0.70303
22223,10.055,0.63636,0.1,0.00033666,3364.3,0.00033679,3368.1,-0.00011046,7.6515,-0.00011148,-0.0063988,0.71484
22224,9.7802,0.54545,0.1,0.0003446,3443.6,0.00034472,3447.3,-0.00011311,7.2802,-0.00011408,-0.0072922,0.68052
22225,9.872,0.63636,0.1,0.00034178,3415.5,0.00034194,3420,-0.00011202,9.167,-0.00011324,-0.0071564,0.69222
22226,9.5968,0.54545,0.1,0.00034976,3495.2,0.00034991,3499.5,-0.00011469,8.6831,-0.00011585,-0.0083507,0.65824
22227,9.6885,0.63636,0.1,0.00034692,3466.8,0.0003471,3472.2,-0.00011358,10.745,-0.00011502,-0.0080644,0.66983
22228,9.4133,0.54545,0.1,0.00035493,3546.9,0.0003551,3551.9,-0.00011628,10.125,-0.00011763,-0.009549,0.6362
22229,9.505,0.63636,0.1,0.00035207,3518.3,0.00035228,3524.4,-0.00011515,12.38,-0.0001168,-0.0091081,0.64768
22230,9.2298,0.54545,0.1,0.00036012,3598.7,0.00036031,3604.4,-0.00011787,11.596,-0.00011941,-0.010908,0.6144
22231,9.3215,0.63636,0.1,0.00035724,3569.9,0.00035747,3576.9,-0.00011671,14.063,-0.00011858,-0.010312,0.62577
22232,9.0463,0.54545,0.1,0.00036531,3650.6,0.00036553,3657.1,-0.00011946,13.079,-0.0001212,-0.012453,0.59284
22233,9.1381,0.63636,0.1,0.00036241,3621.6,0.00036268,3629.5,-0.00011828,15.779,-0.00012038,-0.011693,0.60409
22234,8.8628,0.54545,0.1,0.00037051,3702.6,0.00037076,3709.8,-0.00012105,14.555,-0.00012299,-0.014218,0.57153
22235,8.9546,0.63636,0.1,0.0003676,3673.4,0.00036789,3682.2,-0.00011984,17.513,-0.00012217,-0.013283,0.58266
22236,8.6794,0.54545,0.1,0.00037572,3754.6,0.00037598,3762.5,-0.00012265,15.998,-0.00012478,-0.016245,0.55046
22237,8.7711,0.63636,0.1,0.00037279,3725.3,0.00037311,3734.9,-0.00012141,19.24,-0.00012397,-0.015121,0.56147
22238,8.4959,0.54545,0.1,0.00038092,3806.5,0.00038121,3815.2,-0.00012425,17.376,-0.00012656,-0.018595,0.52965
22239,8.5876,0.63636,0.1,0.00037798,3777.2,0.00037833,3787.6,-0.00012298,20.93,-0.00012577,-0.01726,0.54054
22240,8.3124,0.54545,0.1,0.00038611,3858.4,0.00038642,3867.7,-0.00012586,18.647,-0.00012834,-0.02135,0.5091
22241,8.4041,0.63636,0.1,0.00038317,3829.1,0.00038355,3840.3,-0.00012456,22.546,-0.00012756,-0.019774,0.51986
22242,8.1289,0.54545,0.1,0.00039128,3910.1,0.00039162,3920,-0.00012747,19.761,-0.0001301,-0.024626,0.4888
22243,8.2206,0.63636,0.1,0.00038836,3880.9,0.00038876,3892.8,-0.00012615,24.04,-0.00012935,-0.022761,0.49944
22244,7.9454,0.54545,0.1,0.00039643,3961.6,0.00039678,3971.8,-0.00012909,20.656,-0.00013185,-0.028592,0.46877
22245,8.0372,0.63636,0.1,0.00039352,3932.5,0.00039394,3945.1,-0.00012774,25.354,-0.00013112,-0.026362,0.47928
22246,7.7619,0.54545,0.1,0.00040153,4012.5,0.00040188,4023.1,-0.00013072,21.257,-0.00013356,-0.033506,0.449
22247,7.8537,0.63636,0.1,0.00039865,3983.7,0.00039909,3996.9,-0.00012934,26.415,-0.00013286,-0.030787,0.45939
22248,7.5785,0.54545,0.1,0.00040656,4062.8,0.00040692,4073.4,-0.00013237,21.473,-0.00013523,-0.039783,0.42951
22249,7.6702,0.63636,0.1,0.00040373,4034.6,0.00040419,4048,-0.00013096,27.139,-0.00013458,-0.036351,0.43976
22250,7.395,0.54545,0.1,0.00041149,4112.1,0.00041185,4122.6,-0.00013402,21.199,-0.00013685,-0.048126,0.41029
22251,7.4867,0.63636,0.1,0.00040875,4084.7,0.00040921,4098.3,-0.00013259,27.42,-0.00013625,-0.043558,0.42041
22252,7.2115,0.54545,0.1,0.0004163,4160.1,0.00041664,4170.2,-0.00013568,20.309,-0.00013839,-0.059828,0.39135
22253,7.3032,0.63636,0.1,0.00041367,4133.9,0.00041413,4147.3,-0.00013424,27.138,-0.00013786,-0.053255,0.40133
22254,7.028,0.54545,0.1,0.00042093,4206.4,0.00042125,4215.7,-0.00013734,18.66,-0.00013984,-0.077508,0.37268
22255,7.1198,0.63636,0.1,0.00041846,4181.7,0.0004189,4194.7,-0.0001359,26.151,-0.00013939,-0.066965,0.38253
22256,6.8445,0.54545,0.1,0.00042533,4250.4,0.0004256,4258.3,-0.00013901,16.093,-0.00014116,-0.10726,0.3543
22257,6.9363,0.63636,0.1,0.00042307,4227.8,0.00042348,4239.9,-0.00013758,24.296,-0.00014082,-0.087677,0.36401
22258,6.6611,0.54545,0.1,0.00042942,4291.2,0.00042962,4297.3,-0.00014066,12.439,-0.00014234,-0.16679,0.33621
22259,6.7528,0.63636,0.1,0.00042745,4271.5,0.0004278,4282.1,-0.00013926,21.393,-0.00014213,-0.12201,0.34578
22260,6.4776,0.54545,0.1,0.00043309,4327.9,0.00043321,4331.5,-0.00014227,7.5706,-0.00014332,-0.33367,0.31841
22261,6.5693,0.63636,0.1,0.0004315,4312,0.00043179,4320.5,-0.00014094,17.251,-0.00014326,-0.18751,0.32783
22262,6.2941,0.54545,0.1,0.00043623,4359.3,0.00043624,4359.6,-0.00014371,2.1338,-0.00014419,-1.4705,0.30089
22263,6.3858,0.63636,0.1,0.00043514,4348.4,0.00043533,4354,-0.0001426,11.706,-0.0001442,-0.34806,0.31018
22264,6.1106,0.54545,0.1,0.00043868,4383.7,0.00043855,4379.9,-0.00014432,0.49086,-0.00014547,-8.1625,0.28367
22265,6.2024,0.63636,0.1,0.00043822,4379.2,0.00043829,4381.2,-0.00014415,4.9675,-0.00014495,-1.0553,0.29282
22266,5.9271,0.54545,0.1,0.00044022,4399.2,0.00043991,4390.2,-0.00014434,0.28975,-0.00014681,-18.273,0.26675
22267,6.0189,0.63636,0.1,0.00044059,4402.9,0.0004405,4400.1,-0.00014498,1.0532,-0.000146,-6.5725,0.27575
22268,5.7437,0.54545,0.1,0.00044062,4403.1,0.00044009,4387.8,-0.00014386,0.23678,-0.00014798,-30.693,0.25012
22269,5.8354,0.63636,0.1,0.00044204,4417.3,0.00044174,4408.7,-0.00014495,0.53134,-0.00014738,-17.706,0.25898
22270,5.5602,0.54545,0.1,0.00043953,4392.3,0.00043875,4369.5,-0.00014277,0.22797,-0.00014885,-45.448,0.23379
22271,5.6519,0.63636,0.1,0.00044229,4419.9,0.00044175,4404.2,-0.00014435,0.4158,-0.00014862,-31.681,0.24251
22272,5.3767,0.54545,0.1,0.00043658,4362.8,0.00043549,4331.3,-0.00014094,0.24422,-0.0001493,-62.549,0.21775
22273,5.4684,0.63636,0.1,0.00044103,4407.2,0.00044019,4383.1,-0.0001431,0.39238,-0.00014959,-48.342,0.22633
22274,5.1932,0.54545,0.1,0.00043127,4309.7,0.00042983,4268.4,-0.00013822,0.28253,-0.00014916,-81.87,0.20201
22275,5.285,0.63636,0.1,0.00043783,4375.3,0.00043664,4341.2,-0.00014108,0.41323,-0.00015015,-67.713,0.21045
22276,5.0097,0.54545,0.1,0.00042302,4227.3,0.00042118,4175,-0.00013443,0.34636,-0.0001482,-103.08,0.18655
22277,5.1015,0.63636,0.1,0.0004322,4319,0.00043061,4273.7,-0.00013812,0.46881,-0.00015013,-89.741,0.19486
22278,4.8263,0.54545,0.1,0.00041116,4108.7,0.00040888,4044.7,-0.00012938,0.44421,-0.00014615,-125.58,0.17138
22279,4.918,0.63636,0.1,0.00042356,4232.6,0.00042151,4174.6,-0.00013403,0.56167,-0.00014931,-114.24,0.17956
22280,4.6428,0.54545,0.1,0.00039491,3946.3,0.00039218,3870.3,-0.00012284,0.59309,-0.00014269,-148.49,0.15648
22281,4.7345,0.63636,0.1,0.00041121,4109.2,0.00040864,4037.3,-0.0001286,0.70087,-0.00014744,-140.88,0.16454
22282,4.4593,0.54545,0.1,0.0003735,3732.4,0.00037031,3644.5,-0.00011463,0.81947,-0.00013747,-170.77,0.14184
22283,4.551,0.63636,0.1,0.00039443,3941.6,0.00039129,3854.6,-0.00012161,0.90629,-0.00014426,-169.32,0.1498
22284,4.2758,0.54545,0.1,0.0003463,3460.6,0.00034265,3361.3,-0.00010455,1.194,-0.00013022,-191.7,0.12744
22285,4.3676,0.63636,0.1,0.00037255,3722.9,0.00036877,3619.7,-0.00011282,1.1971,-0.00013954,-199.56,0.1353
22286,4.0923,0.54545,0.1,0.00031315,3129.4,0.00030902,3018.6,-9.2496e-05,1.7647,-0.00012099,-212.29,0.11326
22287,4.1841,0.63636,0.1,0.0003452,3449.6,0.00034067,3328,-0.00010204,1.6537,-0.00013326,-232.89,0.12105
22288,3.9088,0.54545,0.1,0.00027514,2749.5,0.00027033,2623.7,-7.8476e-05,2.8897,-0.00011061,-238.53,0.099267
22289,4.0006,0.63636,0.1,0.00031286,3126.4,0.00030731,2981.2,-8.9171e-05,2.1782,-0.00012597,-274.28,0.10701
22290,3.7254,0.54545,0.1,0.00023633,2361.7,0.00023005,2203.9,-6.2805e-05,3.5098,-0.00010205,-291.38,0.085433
22291,3.8171,0.63636,0.1,0.00027793,2777.4,0.00027068,2594.8,-7.4219e-05,3.3976,-0.00011953,-337.04,0.093144
22292,3.5419,0.54545,0.1,0.00021065,2105.1,0.00019951,1849.3,-4.5597e-05,7.6096,-0.00010589,-445.44,0.071713
22293,3.6336,0.63636,0.1,0.00024725,2470.8,0.0002363,2211.3,-5.7716e-05,2.1931,-0.00011882,-456.88,0.07942
22294,3.4501,0.63636,0.1,0.00024325,2430.9,0.00022153,1969.3,-3.9222e-05,10.059,-0.00014052,-751.07,0.06579
22295,3.3584,0.54545,0.1,0.00016791,1677.9,0.00015551,1403.2,-3.16e-05,-2.6744,-9.1715e-05,-454.35,0.058059
22296,23.725,0.72727,0.1,1.2878e-05,128.69,8.7141e-06,57.324,1.0726e-06,-0.091259,-1.0904e-05,-90.082,2.8133
22297,23.817,0.81818,0.1,1.2652e-05,126.43,7.3157e-06,39.417,2.0629e-06,-0.050807,-1.1511e-05,-102.04,2.8288
22298,23.908,0.72727,0.1,1.1136e-05,111.28,5.4929e-06,22.221,2.4855e-06,-0.37537,-1.0591e-05,-98.625,2.8442
22299,23.541,0.72727,0.1,1.5211e-05,152,1.2081e-05,93.743,-4.1356e-07,-0.13415,-1.1259e-05,-81.626,2.7825
22300,23.633,0.81818,0.1,1.4614e-05,146.04,1.0652e-05,75.828,5.2803e-07,-0.238,-1.1757e-05,-92.54,2.798
22301,23.358,0.72727,0.1,1.8018e-05,180.06,1.5544e-05,130.66,-1.8531e-06,-0.055054,-1.179e-05,-74.714,2.7517
22302,23.45,0.81818,0.1,1.7146e-05,171.34,1.4069e-05,112.69,-9.3887e-07,-0.076257,-1.2173e-05,-84.485,2.7672
22303,23.174,0.72727,0.1,2.1138e-05,211.23,1.9098e-05,168.05,-3.2729e-06,-0.039523,-1.2459e-05,-69.057,2.7208
22304,23.266,0.81818,0.1,2.0057e-05,200.43,1.7569e-05,149.88,-2.3881e-06,-0.065579,-1.2729e-05,-77.767,2.7363
22305,22.991,0.72727,0.1,2.4467e-05,244.5,2.2729e-05,205.89,-4.6765e-06,-0.022737,-1.3237e-05,-64.345,2.69
22306,23.083,0.81818,0.1,2.3226e-05,232.1,2.1144e-05,187.49,-3.8147e-06,-0.039721,-1.3404e-05,-72.092,2.7055
22307,22.807,0.72727,0.1,2.7943e-05,279.23,2.6422e-05,244.12,-6.0701e-06,-0.013936,-1.41e-05,-60.348,2.6592
22308,22.899,0.81818,0.1,2.6576e-05,265.58,2.4785e-05,225.47,-5.2278e-06,-0.028497,-1.4175e-05,-67.253,2.6747
22309,22.624,0.72727,0.1,3.1522e-05,315,3.0166e-05,282.68,-7.4569e-06,-0.0075529,-1.5027e-05,-56.888,2.6285
22310,22.716,0.81818,0.1,3.0055e-05,300.34,2.8481e-05,263.8,-6.6308e-06,-0.019527,-1.5021e-05,-63.064,2.6439
22311,22.44,0.72727,0.1,3.5178e-05,351.54,3.3951e-05,321.51,-8.8395e-06,-0.003331,-1.6005e-05,-53.84,2.5977
22312,22.532,0.81818,0.1,3.363e-05,336.07,3.2224e-05,302.41,-8.0269e-06,-0.013624,-1.5929e-05,-59.383,2.6132
22313,22.257,0.72727,0.1,3.8893e-05,388.66,3.777e-05,360.57,-1.0219e-05,-0.00037247,-1.7022e-05,-51.115,2.567
22314,22.349,0.81818,0.1,3.7278e-05,372.52,3.6005e-05,341.28,-9.4182e-06,-0.0093047,-1.6884e-05,-56.108,2.5824
22315,22.073,0.72727,0.1,4.2655e-05,426.26,4.1619e-05,399.85,-1.1597e-05,0.0016833,-1.8072e-05,-48.648,2.5362
22316,22.165,0.81818,0.1,4.0983e-05,409.55,3.9819e-05,380.37,-1.0806e-05,-0.0061819,-1.788e-05,-53.16,2.5517
22317,21.89,0.72727,0.1,4.6456e-05,464.24,4.5493e-05,439.3,-1.2975e-05,0.0031192,-1.915e-05,-46.395,2.5056
22318,21.982,0.81818,0.1,4.4736e-05,447.05,4.3662e-05,419.66,-1.2192e-05,-0.0038716,-1.891e-05,-50.482,2.521
22319,21.706,0.72727,0.1,5.0291e-05,502.56,4.939e-05,478.93,-1.4352e-05,0.0041191,-2.0251e-05,-44.321,2.4749
22320,21.798,0.81818,0.1,4.8527e-05,484.94,4.7531e-05,459.14,-1.3576e-05,-0.0021543,-1.9968e-05,-48.031,2.4903
22321,21.523,0.72727,0.1,5.4155e-05,541.17,5.3309e-05,518.73,-1.5729e-05,0.0048129,-2.1373e-05,-42.4,2.4443
22322,21.615,0.81818,0.1,5.2354e-05,523.17,5.1424e-05,498.78,-1.496e-05,-0.00085504,-2.1052e-05,-45.773,2.4597
22323,21.34,0.72727,0.1,5.8045e-05,580.05,5.7248e-05,558.68,-1.7108e-05,0.0052776,-2.2514e-05,-40.613,2.4137
22324,21.431,0.81818,0.1,5.621e-05,561.71,5.534e-05,538.6,-1.6343e-05,0.00012697,-2.2157e-05,-43.684,2.4291
22325,21.156,0.72727,0.1,6.1961e-05,619.18,6.1206e-05,598.79,-1.8487e-05,0.0055747,-2.3671e-05,-38.945,2.3831
22326,21.248,0.81818,0.1,6.0095e-05,600.53,5.9276e-05,578.57,-1.7728e-05,0.00086386,-2.3283e-05,-41.743,2.3985
22327,20.973,0.72727,0.1,6.5899e-05,658.54,6.5184e-05,639.05,-1.9868e-05,0.0057543,-2.4844e-05,-37.383,2.3526
22328,21.064,0.81818,0.1,6.4005e-05,639.61,6.3232e-05,618.71,-1.9113e-05,0.0014297,-2.4428e-05,-39.934,2.368
22329,20.789,0.72727,0.1,6.986e-05,698.12,6.918e-05,679.47,-2.1251e-05,0.0058464,-2.6032e-05,-35.917,2.3221
22330,20.881,0.81818,0.1,6.7941e-05,678.94,6.7209e-05,659.01,-2.0499e-05,0.0018592,-2.5589e-05,-38.244,2.3375
22331,20.606,0.72727,0.1,7.3843e-05,737.92,7.3195e-05,720.05,-2.2637e-05,0.0058782,-2.7235e-05,-34.539,2.2917
22332,20.697,0.81818,0.1,7.1899e-05,718.49,7.1205e-05,699.46,-2.1887e-05,0.0021822,-2.6767e-05,-36.662,2.307
22333,20.422,0.72727,0.1,7.7847e-05,777.93,7.7228e-05,760.78,-2.4025e-05,0.0058666,-2.845e-05,-33.242,2.2613
22334,20.514,0.81818,0.1,7.588e-05,758.28,7.5221e-05,740.08,-2.3278e-05,0.0024351,-2.796e-05,-35.179,2.2766
22335,20.239,0.72727,0.1,8.1872e-05,818.15,8.128e-05,801.68,-2.5416e-05,0.005818,-2.9678e-05,-32.02,2.231
22336,20.33,0.81818,0.1,7.9884e-05,798.29,7.9256e-05,780.86,-2.467e-05,0.0026219,-2.9167e-05,-33.787,2.2463
22337,20.055,0.72727,0.1,8.5917e-05,858.58,8.5351e-05,842.73,-2.6809e-05,0.0057391,-3.0918e-05,-30.866,2.2007
22338,20.147,0.81818,0.1,8.3909e-05,838.51,8.331e-05,821.8,-2.6065e-05,0.0027572,-3.0388e-05,-32.478,2.216
22339,19.872,0.72727,0.1,8.9983e-05,899.21,8.944e-05,883.95,-2.8207e-05,0.0056465,-3.2171e-05,-29.778,2.1705
22340,19.963,0.81818,0.1,8.7956e-05,878.95,8.7383e-05,862.92,-2.7464e-05,0.0028484,-3.1623e-05,-31.246,2.1858
22341,19.688,0.72727,0.1,9.4069e-05,940.04,9.3547e-05,925.34,-2.9607e-05,0.0055517,-3.3434e-05,-28.749,2.1404
22342,19.78,0.81818,0.1,9.2024e-05,919.61,9.1476e-05,904.2,-2.8865e-05,0.0029204,-3.287e-05,-30.086,2.1556
22343,19.505,0.72727,0.1,9.8176e-05,981.08,9.7674e-05,966.9,-3.1012e-05,0.0054419,-3.4709e-05,-27.775,2.1103
22344,19.596,0.81818,0.1,9.6114e-05,960.47,9.5588e-05,945.65,-3.027e-05,0.002976,-3.4129e-05,-28.993,2.1255
22345,19.321,0.72727,0.1,0.0001023,1022.3,0.00010182,1008.6,-3.2421e-05,0.0053254,-3.5995e-05,-26.854,2.0802
22346,19.413,0.81818,0.1,0.00010022,1001.5,9.9719e-05,987.27,-3.1679e-05,0.0029933,-3.5401e-05,-27.962,2.0954
22347,19.138,0.72727,0.1,0.00010645,1063.8,0.00010598,1050.5,-3.3833e-05,0.0052144,-3.7292e-05,-25.982,2.0503
22348,19.229,0.81818,0.1,0.00010436,1042.8,0.00010387,1029.1,-3.3091e-05,0.0030108,-3.6684e-05,-26.988,2.0654
22349,18.954,0.72727,0.1,0.00011062,1105.4,0.00011017,1092.6,-3.525e-05,0.0051002,-3.8599e-05,-25.155,2.0204
22350,19.046,0.81818,0.1,0.00010851,1084.3,0.00010804,1071.1,-3.4508e-05,0.0030164,-3.7978e-05,-26.067,2.0355
22351,18.771,0.72727,0.1,0.00011481,1147.3,0.00011437,1134.9,-3.6672e-05,0.0049928,-3.9916e-05,-24.369,1.9906
22352,18.863,0.81818,0.1,0.00011268,1126,0.00011223,1113.2,-3.5929e-05,0.0030112,-3.9283e-05,-25.197,2.0056
22353,18.587,0.72727,0.1,0.00011901,1189.3,0.00011859,1177.3,-3.8098e-05,0.0048903,-4.1243e-05,-23.623,1.9608
22354,18.679,0.81818,0.1,0.00011687,1167.9,0.00011644,1155.6,-3.7355e-05,0.0030117,-4.0599e-05,-24.371,1.9759
22355,18.404,0.72727,0.1,0.00012324,1231.6,0.00012284,1220,-3.9529e-05,0.0047834,-4.2579e-05,-22.913,1.9312
22356,18.496,0.81818,0.1,0.00012109,1210,0.00012067,1198.1,-3.8785e-05,0.0029989,-4.1925e-05,-23.589,1.9462
22357,18.22,0.72727,0.1,0.00012749,1274,0.0001271,1262.8,-4.0965e-05,0.004673,-4.3925e-05,-22.237,1.9016
22358,18.312,0.81818,0.1,0.00012532,1252.4,0.00012492,1240.8,-4.022e-05,0.002979,-4.3261e-05,-22.846,1.9165
22359,18.037,0.72727,0.1,0.00013176,1316.7,0.00013138,1305.8,-4.2406e-05,0.0045706,-4.5281e-05,-21.592,1.8721
22360,18.129,0.81818,0.1,0.00012958,1294.9,0.00012919,1283.7,-4.166e-05,0.0029446,-4.4606e-05,-22.139,1.887
22361,17.853,0.72727,0.1,0.00013605,1359.6,0.00013568,1348.9,-4.3853e-05,0.0044811,-4.6645e-05,-20.975,1.8427
22362,17.945,0.81818,0.1,0.00013386,1337.6,0.00013348,1326.8,-4.3105e-05,0.0029293,-4.5962e-05,-21.465,1.8575
22363,17.67,0.72727,0.1,0.00014036,1402.6,0.00014,1392.3,-4.5305e-05,0.0043842,-4.8018e-05,-20.384,1.8133
22364,17.762,0.81818,0.1,0.00013815,1380.6,0.00013779,1370,-4.4555e-05,0.0029115,-4.7326e-05,-20.821,1.8282
22365,17.486,0.72727,0.1,0.00014469,1445.9,0.00014434,1435.9,-4.6762e-05,0.0042871,-4.94e-05,-19.816,1.7841
22366,17.578,0.81818,0.1,0.00014247,1423.7,0.00014212,1413.5,-4.601e-05,0.002871,-4.87e-05,-20.205,1.7989
22367,17.303,0.72727,0.1,0.00014904,1489.4,0.0001487,1479.6,-4.8225e-05,0.0041991,-5.079e-05,-19.27,1.755
22368,17.395,0.81818,0.1,0.00014681,1467.1,0.00014646,1457.2,-4.7471e-05,0.002845,-5.0082e-05,-19.614,1.7697
22369,17.119,0.72727,0.1,0.00015341,1533,0.00015308,1523.6,-4.9693e-05,0.0041106,-5.2188e-05,-18.744,1.726
22370,17.211,0.81818,0.1,0.00015117,1510.6,0.00015083,1501,-4.8938e-05,0.0028151,-5.1473e-05,-19.046,1.7407
22371,16.936,0.72727,0.1,0.0001578,1576.9,0.00015748,1567.7,-5.1168e-05,0.0040318,-5.3595e-05,-18.234,1.697
22372,17.028,0.81818,0.1,0.00015554,1554.4,0.00015522,1545,-5.041e-05,0.0027823,-5.2873e-05,-18.498,1.7117
22373,16.753,0.72727,0.1,0.00016221,1621,0.0001619,1612,-5.2648e-05,0.0039574,-5.5009e-05,-17.739,1.6682
22374,16.844,0.81818,0.1,0.00015994,1598.3,0.00015963,1589.3,-5.1889e-05,0.0027661,-5.428e-05,-17.967,1.6828
22375,16.569,0.72727,0.1,0.00016664,1665.3,0.00016634,1656.6,-5.4134e-05,0.0038756,-5.6432e-05,-17.258,1.6395
22376,16.661,0.81818,0.1,0.00016436,1642.5,0.00016406,1633.7,-5.3373e-05,0.0027375,-5.5696e-05,-17.452,1.6541
22377,16.386,0.72727,0.1,0.00017109,1709.7,0.0001708,1701.3,-5.5626e-05,0.0037857,-5.7861e-05,-16.787,1.6109
22378,16.477,0.81818,0.1,0.0001688,1686.9,0.00016851,1678.3,-5.4863e-05,0.0027015,-5.7119e-05,-16.949,1.6254
22379,16.202,0.72727,0.1,0.00017556,1754.4,0.00017528,1746.2,-5.7125e-05,0.0037026,-5.9298e-05,-16.325,1.5824
22380,16.294,0.81818,0.1,0.00017326,1731.4,0.00017298,1723.1,-5.6359e-05,0.0026521,-5.855e-05,-16.458,1.5969
22381,16.019,0.72727,0.1,0.00018005,1799.3,0.00017978,1791.3,-5.863e-05,0.0036337,-6.0742e-05,-15.87,1.554
22382,16.11,0.81818,0.1,0.00017774,1776.2,0.00017746,1768.1,-5.7861e-05,0.0026281,-5.9988e-05,-15.975,1.5684
22383,15.835,0.72727,0.1,0.00018456,1844.4,0.0001843,1836.6,-6.0141e-05,0.00355,-6.2193e-05,-15.42,1.5258
22384,15.927,0.81818,0.1,0.00018224,1821.1,0.00018197,1813.3,-5.937e-05,0.0026035,-6.1433e-05,-15.498,1.5401
22385,15.652,0.72727,0.1,0.0001891,1889.7,0.00018884,1882.1,-6.1658e-05,0.0034634,-6.3651e-05,-14.974,1.4976
22386,15.743,0.81818,0.1,0.00018676,1866.3,0.0001865,1858.8,-6.0885e-05,0.0025485,-6.2885e-05,-15.026,1.5119
22387,15.468,0.72727,0.1,0.00019365,1935.1,0.0001934,1927.8,-6.3182e-05,0.0033857,-6.5116e-05,-14.528,1.4696
22388,15.56,0.81818,0.1,0.0001913,1911.7,0.00019105,1904.4,-6.2406e-05,0.0025175,-6.4344e-05,-14.555,1.4839
22389,15.285,0.72727,0.1,0.00019822,1980.8,0.00019797,1973.7,-6.4713e-05,0.0033012,-6.6587e-05,-14.081,1.4417
22390,15.376,0.81818,0.1,0.00019586,1957.2,0.00019562,1950.2,-6.3934e-05,0.0024795,-6.5809e-05,-14.085,1.4559
22391,15.101,0.72727,0.1,0.00020281,2026.7,0.00020257,2019.8,-6.625e-05,0.0032242,-6.8064e-05,-13.631,1.414
22392,15.193,0.81818,0.1,0.00020044,2003,0.0002002,1996.2,-6.5469e-05,0.0024358,-6.7281e-05,-13.612,1.4281
22393,14.918,0.72727,0.1,0.00020742,2072.7,0.00020719,2066.1,-6.7794e-05,0.0031509,-6.9548e-05,-13.176,1.3864
22394,15.009,0.81818,0.1,0.00020504,2048.9,0.00020481,2042.3,-6.701e-05,0.0024146,-6.8758e-05,-13.134,1.4005
22395,14.734,0.72727,0.1,0.00021205,2119,0.00021183,2112.6,-6.9344e-05,0.0030643,-7.1037e-05,-12.714,1.3589
22396,14.826,0.81818,0.1,0.00020965,2095.1,0.00020944,2088.7,-6.8558e-05,0.0023801,-7.0242e-05,-12.649,1.3729
22397,14.551,0.72727,0.1,0.0002167,2165.5,0.00021648,2159.3,-7.0902e-05,0.0029626,-7.2532e-05,-12.243,1.3316
22398,14.642,0.81818,0.1,0.00021429,2141.4,0.00021408,2135.3,-7.0113e-05,0.002335,-7.1731e-05,-12.155,1.3455
22399,14.367,0.72727,0.1,0.00022136,2212.1,0.00022116,2206.2,-7.2467e-05,0.0028667,-7.4032e-05,-11.76,1.3044
22400,14.459,0.81818,0.1,0.00021895,2188,0.00021875,2182.1,-7.1675e-05,0.0022742,-7.3226e-05,-11.649,1.3183
22401,14.184,0.72727,0.1,0.00022605,2259,0.00022586,2253.3,-7.4038e-05,0.0027847,-7.5538e-05,-11.263,1.2774
22402,14.276,0.81818,0.1,0.00022362,2234.7,0.00022343,2229.1,-7.3244e-05,0.0022449,-7.4725e-05,-11.129,1.2912
22403,14,0.72727,0.1,0.00023076,2306,0.00023057,2300.6,-7.5617e-05,0.0026815,-7.7048e-05,-10.749,1.2505
22404,14.092,0.81818,0.1,0.00022832,2281.6,0.00022814,2276.3,-7.482e-05,0.0022184,-7.623e-05,-10.591,1.2642
22405,13.817,0.72727,0.1,0.00023549,2353.2,0.00023531,2348.1,-7.7203e-05,0.0025728,-7.8564e-05,-10.217,1.2238
22406,13.909,0.81818,0.1,0.00023303,2328.7,0.00023286,2323.7,-7.6404e-05,0.0021569,-7.7739e-05,-10.034,1.2374
22407,13.633,0.72727,0.1,0.00024023,2400.7,0.00024007,2395.8,-7.8797e-05,0.0024753,-8.0083e-05,-9.6634,1.1972
22408,13.725,0.81818,0.1,0.00023777,2376,0.00023761,2371.3,-7.7994e-05,0.0021307,-7.9253e-05,-9.455,1.2108
22409,13.45,0.72727,0.1,0.000245,2448.3,0.00024484,2443.7,-8.0398e-05,0.0023699,-8.1608e-05,-9.0856,1.1708
22410,13.542,0.81818,0.1,0.00024252,2423.5,0.00024237,2419.1,-7.9593e-05,0.0021045,-8.0771e-05,-8.85,1.1843
22411,13.266,0.72727,0.1,0.00024978,2496.1,0.00024963,2491.8,-8.2007e-05,0.0022786,-8.3136e-05,-8.4806,1.1445
22412,13.358,0.81818,0.1,0.00024729,2471.2,0.00024715,2467.1,-8.1199e-05,0.0020815,-8.2293e-05,-8.2166,1.158
22413,13.083,0.72727,0.1,0.00025458,2544.1,0.00025445,2540.1,-8.3623e-05,0.0021883,-8.4667e-05,-7.8457,1.1185
22414,13.175,0.81818,0.1,0.00025208,2519.1,0.00025195,2515.3,-8.2812e-05,0.0021094,-8.3818e-05,-7.5513,1.1318
22415,12.899,0.72727,0.1,0.0002594,2592.2,0.00025928,2588.6,-8.5247e-05,0.0020869,-8.6203e-05,-7.1777,1.0926
22416,12.991,0.81818,0.1,0.00025689,2567.1,0.00025677,2563.7,-8.4434e-05,0.0021228,-8.5346e-05,-6.851,1.1058
22417,12.716,0.72727,0.1,0.00026424,2640.6,0.00026413,2637.4,-8.6879e-05,0.0020223,-8.7741e-05,-6.4733,1.0668
22418,12.808,0.81818,0.1,0.00026172,2615.4,0.00026161,2612.3,-8.6063e-05,0.0021798,-8.6877e-05,-6.1121,1.08
22419,12.532,0.72727,0.1,0.0002691,2689.2,0.000269,2686.3,-8.8519e-05,0.0019991,-8.9282e-05,-5.7292,1.0413
22420,12.624,0.81818,0.1,0.00026656,2663.8,0.00026647,2661.1,-8.7701e-05,0.0023464,-8.8411e-05,-5.3308,1.0544
22421,12.349,0.72727,0.1,0.00027398,2737.9,0.00027389,2735.4,-9.0168e-05,0.0020186,-9.0826e-05,-4.9419,1.0159
22422,12.441,0.81818,0.1,0.00027142,2712.4,0.00027135,2710.1,-8.9347e-05,0.0026207,-8.9946e-05,-4.5035,1.0289
22423,12.165,0.72727,0.1,0.00027887,2786.8,0.0002788,2784.8,-9.1825e-05,0.0021334,-9.2372e-05,-4.1079,0.9907
22424,12.257,0.81818,0.1,0.0002763,2761.1,0.00027624,2759.3,-9.1001e-05,0.0031228,-9.1484e-05,-3.6262,1.0036
22425,11.982,0.72727,0.1,0.00028379,2835.9,0.00028373,2834.3,-9.349e-05,0.0024867,-9.3919e-05,-3.2236,0.9657
22426,12.074,0.81818,0.1,0.0002812,2810.1,0.00028116,2808.7,-9.2663e-05,0.0041452,-9.3023e-05,-2.6953,0.97855
22427,11.799,0.72727,0.1,0.00028872,2885.2,0.00028868,2884,-9.5164e-05,0.0034283,-9.5468e-05,-2.2855,0.94088
22428,11.89,0.81818,0.1,0.00028612,2859.2,0.00028609,2858.4,-9.4334e-05,0.0067812,-9.4563e-05,-1.7072,0.95364
22429,11.615,0.72727,0.1,0.00029367,2934.6,0.00029365,2934,-9.6846e-05,0.006421,-9.7018e-05,-1.2912,0.91626
22430,11.707,0.81818,0.1,0.00029105,2908.5,0.00029104,2908.2,-9.6013e-05,0.018823,-9.6104e-05,-0.66572,0.92893
22431,11.432,0.72727,0.1,0.00029863,2984.3,0.00029863,2984.2,-9.8533e-05,0.036513,-9.8573e-05,-0.26196,0.89184
22432,11.523,0.81818,0.1,0.000296,2958,0.00029601,2958.2,-9.7638e-05,0.5022,-9.7709e-05,-0.028253,0.90441
22433,11.248,0.72727,0.1,0.00030362,3034.1,0.00030363,3034.5,-0.00010012,0.91263,-0.00010024,-0.012936,0.86762
22434,11.34,0.81818,0.1,0.00030097,3007.7,0.000301,3008.5,-9.918e-05,1.6766,-9.9405e-05,-0.009937,0.8801
22435,11.065,0.72727,0.1,0.00030862,3084.1,0.00030866,3085.1,-0.00010167,2.1014,-0.00010195,-0.0072758,0.8436
22436,11.156,0.81818,0.1,0.00030596,3057.5,0.00030601,3058.9,-0.00010072,2.9422,-0.00010111,-0.0068839,0.85598
22437,10.881,0.72727,0.1,0.00031364,3134.2,0.0003137,3135.9,-0.00010322,3.3675,-0.00010367,-0.0060025,0.81978
22438,10.973,0.81818,0.1,0.00031096,3107.4,0.00031103,3109.6,-0.00010226,4.2902,-0.00010283,-0.0058697,0.83207
22439,10.698,0.72727,0.1,0.00031868,3184.6,0.00031876,3186.9,-0.00010477,4.7103,-0.0001054,-0.005702,0.79618
22440,10.789,0.81818,0.1,0.00031598,3157.6,0.00031607,3160.5,-0.00010379,5.7231,-0.00010456,-0.0055003,0.80837
22441,10.514,0.72727,0.1,0.00032373,3235.1,0.00032383,3238.1,-0.00010632,6.1316,-0.00010713,-0.005829,0.7728
22442,10.606,0.81818,0.1,0.00032101,3207.9,0.00032113,3211.5,-0.00010533,7.244,-0.00010629,-0.0054909,0.78488
22443,10.331,0.72727,0.1,0.0003288,3285.7,0.00032893,3289.5,-0.00010787,7.633,-0.00010888,-0.0062072,0.74963
22444,10.422,0.81818,0.1,0.00032606,3258.4,0.00032621,3262.8,-0.00010686,8.8557,-0.00010804,-0.0057084,0.76161
22445,10.147,0.72727,0.1,0.00033388,3336.5,0.00033404,3341.1,-0.00010941,9.2148,-0.00011064,-0.0067466,0.72668
22446,10.239,0.81818,0.1,0.00033113,3309,0.00033131,3314.3,-0.00010839,10.56,-0.0001098,-0.0060987,0.73855
22447,9.9637,0.72727,0.1,0.00033899,3387.5,0.00033917,3392.9,-0.00011096,10.876,-0.0001124,-0.0074124,0.70396
22448,10.055,0.81818,0.1,0.00033621,3359.8,0.00033642,3365.9,-0.00010992,12.358,-0.00011156,-0.0065912,0.71572
22449,9.7802,0.72727,0.1,0.0003441,3438.7,0.00034432,3444.9,-0.0001125,12.615,-0.00011418,-0.0082201,0.68146
22450,9.872,0.81818,0.1,0.00034131,3410.7,0.00034155,3417.8,-0.00011144,14.249,-0.00011334,-0.0072086,0.69312
22451,9.5968,0.72727,0.1,0.00034923,3489.9,0.00034948,3497.1,-0.00011404,14.426,-0.00011596,-0.009172,0.6592
22452,9.6885,0.81818,0.1,0.00034642,3461.8,0.00034669,3469.8,-0.00011296,16.23,-0.00011512,-0.0079699,0.67074
22453,9.4133,0.72727,0.1,0.00035438,3541.3,0.00035465,3549.4,-0.00011558,16.302,-0.00011775,-0.010276,0.63717
22454,9.505,0.81818,0.1,0.00035154,3513,0.00035185,3522.1,-0.00011448,18.296,-0.00011691,-0.0088675,0.6486
22455,9.2298,0.72727,0.1,0.00035953,3592.9,0.00035984,3601.9,-0.00011712,18.231,-0.00011955,-0.011553,0.61538
22456,9.3215,0.81818,0.1,0.00035668,3564.3,0.00035702,3574.5,-0.00011599,20.439,-0.00011871,-0.009929,0.6267
22457,9.0463,0.72727,0.1,0.0003647,3644.5,0.00036504,3654.5,-0.00011866,20.198,-0.00012135,-0.013031,0.59383
22458,9.1381,0.81818,0.1,0.00036182,3615.7,0.0003622,3627,-0.00011751,22.648,-0.00012052,-0.011176,0.60503
22459,8.8628,0.72727,0.1,0.00036988,3696.2,0.00037025,3707.3,-0.0001202,22.183,-0.00012316,-0.014747,0.57252
22460,8.9546,0.81818,0.1,0.00036698,3667.3,0.0003674,3679.7,-0.00011902,24.903,-0.00012234,-0.012645,0.58361
22461,8.6794,0.72727,0.1,0.00037506,3748,0.00037546,3760,-0.00012175,24.157,-0.00012497,-0.01675,0.55147
22462,8.7711,0.81818,0.1,0.00037215,3718.9,0.0003726,3732.4,-0.00012053,27.184,-0.00012415,-0.014382,0.56243
22463,8.4959,0.72727,0.1,0.00038024,3799.8,0.00038068,3812.8,-0.0001233,26.085,-0.00012677,-0.019107,0.53067
22464,8.5876,0.81818,0.1,0.00037732,3770.6,0.00037781,3785.2,-0.00012205,29.46,-0.00012597,-0.01645,0.54151
22465,8.3124,0.72727,0.1,0.00038542,3851.6,0.00038589,3865.4,-0.00012485,27.924,-0.00012857,-0.02191,0.51012
22466,8.4041,0.81818,0.1,0.00038249,3822.3,0.00038302,3838,-0.00012357,31.692,-0.00012779,-0.01893,0.52084
22467,8.1289,0.72727,0.1,0.00039059,3903.2,0.00039109,3917.9,-0.00012642,29.618,-0.00013036,-0.025287,0.48983
22468,8.2206,0.81818,0.1,0.00038766,3873.9,0.00038823,3890.7,-0.0001251,33.832,-0.0001296,-0.021935,0.50043
22469,7.9454,0.72727,0.1,0.00039574,3954.7,0.00039626,3970.1,-0.00012799,31.098,-0.00013213,-0.029419,0.46981
22470,8.0372,0.81818,0.1,0.00039282,3925.5,0.00039342,3943.3,-0.00012663,35.818,-0.0001314,-0.025624,0.48028
22471,7.7619,0.72727,0.1,0.00040086,4005.8,0.0004014,4021.9,-0.00012958,32.282,-0.00013388,-0.034578,0.45005
22472,7.8537,0.81818,0.1,0.00039796,3976.9,0.00039859,3995.5,-0.00012818,37.577,-0.00013319,-0.03022,0.46039
22473,7.5785,0.72727,0.1,0.00040593,4056.5,0.00040648,4072.9,-0.00013119,33.07,-0.0001356,-0.041178,0.43057
22474,7.6702,0.81818,0.1,0.00040307,4027.9,0.00040372,4047.3,-0.00012975,39.017,-0.00013494,-0.036053,0.44077
22475,7.395,0.72727,0.1,0.00041093,4106.5,0.00041149,4123,-0.00013282,33.344,-0.00013726,-0.049884,0.41136
22476,7.4867,0.81818,0.1,0.00040814,4078.5,0.0004088,4098.4,-0.00013133,40.03,-0.00013667,-0.043621,0.42143
22477,7.2115,0.72727,0.1,0.00041584,4155.5,0.00041639,4171.8,-0.00013447,32.964,-0.00013886,-0.061813,0.39242
22478,7.3032,0.81818,0.1,0.00041313,4128.5,0.0004138,4148.5,-0.00013294,40.486,-0.00013834,-0.053713,0.40236
22479,7.028,0.72727,0.1,0.00042061,4203.2,0.00042114,4218.9,-0.00013614,31.77,-0.00014038,-0.078969,0.37376
22480,7.1198,0.81818,0.1,0.00041803,4177.4,0.0004187,4197.4,-0.00013458,40.235,-0.00013994,-0.067625,0.38356
22481,6.8445,0.72727,0.1,0.00042519,4249,0.00042569,4263.7,-0.00013783,29.581,-0.00014179,-0.10525,0.35539
22482,6.9363,0.81818,0.1,0.0004228,4225.1,0.00042345,4244.5,-0.00013625,39.103,-0.00014146,-0.08762,0.36505
22483,6.6611,0.72727,0.1,0.00042953,4292.4,0.00042997,4305.3,-0.00013955,26.194,-0.00014305,-0.14911,0.33731
22484,6.7528,0.81818,0.1,0.00042739,4271,0.00042801,4289.2,-0.00013795,36.892,-0.00014287,-0.11793,0.34683
22485,6.4776,0.72727,0.1,0.00043355,4332.5,0.0004339,4343,-0.00014127,21.402,-0.00014415,-0.2323,0.31951
22486,6.5693,0.81818,0.1,0.00043174,4314.4,0.00043229,4330.9,-0.00013967,33.386,-0.00014414,-0.16726,0.32889
22487,6.2941,0.72727,0.1,0.00043713,4368.3,0.00043737,4375.5,-0.00014297,15.027,-0.00014503,-0.42878,0.30201
22488,6.3858,0.81818,0.1,0.00043576,4354.6,0.00043623,4368.6,-0.00014142,28.354,-0.00014522,-0.25609,0.31124
22489,6.1106,0.72727,0.1,0.00044014,4398.3,0.00044024,4401.4,-0.00014458,7.2451,-0.0001457,-1.1771,0.2848
22490,6.2024,0.81818,0.1,0.00043935,4390.5,0.0004397,4401,-0.00014316,21.585,-0.00014609,-0.44417,0.29389
22491,5.9271,0.72727,0.1,0.00044241,4421,0.00044232,4418.7,-0.00014552,1.7851,-0.00014662,-6.4711,0.26788
22492,6.0189,0.81818,0.1,0.00044237,4420.7,0.00044257,4426.7,-0.00014484,13.046,-0.00014671,-0.98717,0.27683
22493,5.7437,0.72727,0.1,0.00044371,4434,0.0004434,4425,-0.00014542,0.8534,-0.00014803,-18.774,0.25127
22494,5.8354,0.81818,0.1,0.00044465,4443.4,0.00044466,4443.7,-0.00014617,4.4826,-0.00014728,-3.9308,0.26007
22495,5.5602,0.72727,0.1,0.00044377,4434.6,0.00044318,4417.6,-0.00014467,0.65833,-0.00014936,-34.525,0.23495
22496,5.6519,0.81818,0.1,0.00044597,4456.6,0.00044573,4449.7,-0.00014628,1.6057,-0.00014853,-15.294,0.24361
22497,5.3767,0.72727,0.1,0.00044224,4419.3,0.00044132,4392.7,-0.00014324,0.61687,-0.00015042,-53.328,0.21893
22498,5.4684,0.81818,0.1,0.00044604,4457.4,0.00044551,4441.8,-0.00014551,1.0868,-0.00014992,-32.06,0.22745
22499,5.1932,0.72727,0.1,0.0004387,4383.9,0.00043738,4346.2,-0.00014097,0.64353,-0.00015107,-75.223,0.20321
22500,5.285,0.81818,0.1,0.00044454,4442.3,0.00044364,4416.3,-0.00014401,0.95572,-0.00015113,-52.581,0.21159
22501,5.0097,0.72727,0.1,0.00043263,4323.3,0.00043085,4272.6,-0.00013771,0.71979,-0.00015115,-100.25,0.18778
22502,5.1015,0.81818,0.1,0.00044104,4407.4,0.0004397,4368.9,-0.00014163,0.95536,-0.000152,-76.959,0.19603
22503,4.8263,0.72727,0.1,0.00042343,4231.4,0.00042111,4166.1,-0.00013325,0.84521,-0.00015046,-128.43,0.17264
22504,4.918,0.81818,0.1,0.00043506,4347.6,0.00043318,4294.3,-0.00013822,1.0316,-0.00015241,-105.6,0.18076
22505,4.6428,0.72727,0.1,0.00041044,4101.6,0.0004075,4019.8,-0.00012736,1.0293,-0.00014878,-159.87,0.15778
22506,4.7345,0.81818,0.1,0.00042603,4257.4,0.00042351,4186.6,-0.00013354,1.1718,-0.00015222,-139.21,0.16577
22507,4.4593,0.72727,0.1,0.00039301,3927.4,0.00038934,3826.8,-0.0001198,1.2834,-0.00014593,-195.05,0.14318
22508,4.551,0.81818,0.1,0.00041339,4131.1,0.00041007,4039.3,-0.00012734,1.3808,-0.00015135,-179.04,0.15107
22509,4.2758,0.72727,0.1,0.00037066,3704,0.0003661,3581.3,-0.00011032,1.6401,-0.0001419,-235.62,0.12884
22510,4.3676,0.81818,0.1,0.00039666,3963.8,0.00039232,3845.9,-0.00011932,1.6544,-0.00014983,-227.54,0.13664
22511,4.0923,0.72727,0.1,0.00034352,3432.8,0.00033778,3281.7,-9.872e-05,2.0573,-0.00013707,-286.06,0.11474
22512,4.1841,0.81818,0.1,0.00037569,3754.3,0.00036995,3602.1,-0.00010919,2.0394,-0.00014798,-289.47,0.12246
22513,3.9088,0.72727,0.1,0.00031314,3129.2,0.00030555,2936.5,-8.4901e-05,2.7803,-0.0001328,-357.1,0.10083
22514,4.0006,0.81818,0.1,0.00035125,3510.1,0.00034341,3309,-9.6677e-05,2.3462,-0.0001468,-374.27,0.1085
22515,3.7254,0.72727,0.1,0.00028414,2839.5,0.0002731,2573.5,-6.9077e-05,2.4839,-0.00013251,-474.16,0.087095
22516,3.8171,0.81818,0.1,0.00032598,3257.6,0.00031463,2980.4,-8.1617e-05,3.2201,-0.00014848,-499.14,0.094738
22517,3.5419,0.72727,0.1,0.00027132,2711.3,0.00025193,2283.3,-5.1161e-05,6.0036,-0.00014724,-715.89,0.073481
22518,3.6336,0.81818,0.1,0.00030639,3061.8,0.00028845,2652.2,-6.4375e-05,1.2383,-0.00015758,-699.07,0.081129
22519,3.4501,0.81818,0.1,0.00031584,3156.3,0.00028251,2464.9,-4.4271e-05,9.5618,-0.00019132,-1095.3,0.067624
22520,3.3584,0.72727,0.1,0.00022321,2230.6,0.00020244,1787.2,-3.5781e-05,-2.6247,-0.00013015,-711.67,0.059938
22521,23.725,0.90909,0.1,1.4267e-05,142.57,9.2499e-06,57.894,1.527e-06,-0.13239,-1.2368e-05,-104.54,2.8135
22522,23.817,1,0.1,1.3989e-05,139.79,7.7898e-06,39.622,2.5041e-06,-0.092974,-1.2887e-05,-115.73,2.829
22523,23.908,0.90909,0.1,1.2614e-05,126.05,5.9994e-06,22.36,2.9704e-06,-0.39894,-1.2085e-05,-113.52,2.8443
22524,23.541,0.90909,0.1,1.6488e-05,164.76,1.2644e-05,94.804,4.8069e-09,-0.16448,-1.2677e-05,-95.448,2.7826
22525,23.633,1,0.1,1.588e-05,158.69,1.117e-05,76.587,9.4125e-07,-0.26512,-1.3117e-05,-105.89,2.7981
22526,23.358,0.90909,0.1,1.9158e-05,191.45,1.6101e-05,131.97,-1.473e-06,-0.080064,-1.3122e-05,-87.604,2.7518
22527,23.45,1,0.1,1.8303e-05,182.9,1.46e-05,113.8,-5.5903e-07,-0.096792,-1.3479e-05,-97.169,2.7673
22528,23.174,0.90909,0.1,2.2139e-05,221.23,1.9624e-05,169.4,-2.9293e-06,-0.061896,-1.3686e-05,-80.881,2.721
22529,23.266,1,0.1,2.1092e-05,210.77,1.8088e-05,151.17,-2.042e-06,-0.083986,-1.3954e-05,-89.585,2.7365
22530,22.991,0.90909,0.1,2.5338e-05,253.21,2.3211e-05,207.16,-4.3656e-06,-0.042846,-1.4353e-05,-75.087,2.6902
22531,23.083,1,0.1,2.414e-05,241.23,2.1633e-05,188.79,-3.5003e-06,-0.056273,-1.4534e-05,-82.961,2.7056
22532,22.807,0.90909,0.1,2.8697e-05,286.77,2.6856e-05,245.24,-5.7882e-06,-0.032133,-1.5108e-05,-70.059,2.6594
22533,22.899,1,0.1,2.7377e-05,273.58,2.5235e-05,226.7,-4.9421e-06,-0.043597,-1.5207e-05,-77.17,2.6749
22534,22.624,0.90909,0.1,3.2175e-05,321.52,3.0551e-05,283.62,-7.2006e-06,-0.02407,-1.5935e-05,-65.649,2.6286
22535,22.716,1,0.1,3.0755e-05,307.34,2.8888e-05,264.89,-6.3707e-06,-0.033348,-1.5958e-05,-72.07,2.6441
22536,22.44,0.90909,0.1,3.5742e-05,357.17,3.4289e-05,322.27,-8.6054e-06,-0.018363,-1.682e-05,-61.739,2.5979
22537,22.532,1,0.1,3.424e-05,342.17,3.2587e-05,303.35,-7.7895e-06,-0.0263,-1.6776e-05,-67.544,2.6133
22538,22.257,0.90909,0.1,3.938e-05,393.53,3.8065e-05,361.16,-1.0005e-05,-0.014095,-1.7754e-05,-58.237,2.5671
22539,22.349,1,0.1,3.7809e-05,377.83,3.6326e-05,342.05,-9.2008e-06,-0.020953,-1.7649e-05,-63.494,2.5826
22540,22.073,0.90909,0.1,4.3076e-05,430.46,4.1873e-05,400.27,-1.14e-05,-0.010882,-1.8729e-05,-55.074,2.5364
22541,22.165,1,0.1,4.1445e-05,414.16,4.0101e-05,380.98,-1.0607e-05,-0.016911,-1.8569e-05,-59.841,2.5518
22542,21.89,0.90909,0.1,4.6818e-05,467.86,4.5711e-05,439.57,-1.2793e-05,-0.0084191,-1.9739e-05,-52.194,2.5057
22543,21.982,1,0.1,4.5136e-05,451.04,4.3907e-05,420.11,-1.2008e-05,-0.013776,-1.9529e-05,-56.524,2.5211
22544,21.706,0.90909,0.1,5.0601e-05,505.66,4.9576e-05,479.06,-1.4184e-05,-0.0065065,-2.0779e-05,-49.555,2.4751
22545,21.798,1,0.1,4.8873e-05,488.39,4.7743e-05,459.44,-1.3407e-05,-0.011317,-2.0525e-05,-53.494,2.4905
22546,21.523,0.90909,0.1,5.442e-05,543.82,5.3464e-05,518.72,-1.5574e-05,-0.0050043,-2.1845e-05,-47.126,2.4445
22547,21.615,1,0.1,5.2651e-05,526.15,5.1605e-05,498.95,-1.4803e-05,-0.0093533,-2.1551e-05,-50.713,2.4599
22548,21.34,0.90909,0.1,5.827e-05,582.3,5.7376e-05,558.56,-1.6963e-05,-0.0038208,-2.2936e-05,-44.879,2.4139
22549,21.431,1,0.1,5.6465e-05,564.26,5.5491e-05,538.64,-1.6198e-05,-0.0077767,-2.2605e-05,-48.149,2.4293
22550,21.156,0.90909,0.1,6.2149e-05,621.06,6.131e-05,598.56,-1.8353e-05,-0.0028747,-2.4048e-05,-42.795,2.3833
22551,21.248,1,0.1,6.0311e-05,602.7,5.9402e-05,578.5,-1.7593e-05,-0.0065019,-2.3684e-05,-45.777,2.3987
22552,20.973,0.90909,0.1,6.6056e-05,660.1,6.5266e-05,638.72,-1.9743e-05,-0.0021096,-2.5181e-05,-40.856,2.3528
22553,21.064,1,0.1,6.4188e-05,641.43,6.3335e-05,618.53,-1.8987e-05,-0.0054489,-2.4786e-05,-43.577,2.3682
22554,20.789,0.90909,0.1,6.9988e-05,699.4,6.9242e-05,679.05,-2.1135e-05,-0.0014926,-2.6332e-05,-39.047,2.3224
22555,20.881,1,0.1,6.8092e-05,680.45,6.729e-05,658.73,-2.0382e-05,-0.0045798,-2.5909e-05,-41.532,2.3377
22556,20.606,0.90909,0.1,7.3945e-05,738.94,7.3238e-05,719.55,-2.2528e-05,-0.00098571,-2.75e-05,-37.358,2.2919
22557,20.697,1,0.1,7.2023e-05,719.73,7.1267e-05,699.1,-2.1778e-05,-0.0038572,-2.7052e-05,-39.626,2.3073
22558,20.422,0.90909,0.1,7.7925e-05,778.72,7.7255e-05,760.21,-2.3923e-05,-0.00056669,-2.8684e-05,-35.777,2.2616
22559,20.514,1,0.1,7.598e-05,759.27,7.5265e-05,739.64,-2.3175e-05,-0.0032402,-2.8212e-05,-37.848,2.2769
22560,20.239,0.90909,0.1,8.1929e-05,818.73,8.1292e-05,801.04,-2.532e-05,-0.0002241,-2.9885e-05,-34.296,2.2313
22561,20.33,1,0.1,7.9961e-05,799.06,7.9284e-05,780.35,-2.4575e-05,-0.0027232,-2.939e-05,-36.187,2.2465
22562,20.055,0.90909,0.1,8.5956e-05,858.96,8.5349e-05,842.04,-2.672e-05,5.6659e-05,-3.1099e-05,-32.907,2.201
22563,20.147,1,0.1,8.3966e-05,839.08,8.3323e-05,821.23,-2.5976e-05,-0.0022848,-3.0585e-05,-34.633,2.2162
22564,19.872,0.90909,0.1,9.0005e-05,899.43,8.9425e-05,883.21,-2.8122e-05,0.00029087,-3.2328e-05,-31.603,2.1708
22565,19.963,1,0.1,8.7995e-05,879.34,8.7383e-05,862.28,-2.7379e-05,-0.001915,-3.1795e-05,-33.178,2.186
22566,19.688,0.90909,0.1,9.4076e-05,940.11,9.3522e-05,924.55,-2.9528e-05,0.00049409,-3.3571e-05,-30.378,2.1406
22567,19.78,1,0.1,9.2047e-05,919.83,9.1464e-05,903.51,-2.8786e-05,-0.0015872,-3.302e-05,-31.814,2.1558
22568,19.505,0.90909,0.1,9.8168e-05,981.01,9.7639e-05,966.07,-3.0937e-05,0.0006599,-3.4827e-05,-29.225,2.1106
22569,19.596,1,0.1,9.6121e-05,960.55,9.5565e-05,944.92,-3.0196e-05,-0.0012979,-3.4259e-05,-30.534,2.1257
22570,19.321,0.90909,0.1,0.00010228,1022.1,0.00010178,1007.8,-3.235e-05,0.00079625,-3.6095e-05,-28.14,2.0805
22571,19.413,1,0.1,0.00010022,1001.5,9.9687e-05,986.5,-3.1608e-05,-0.0010627,-3.5512e-05,-29.332,2.0957
22572,19.138,0.90909,0.1,0.00010642,1063.5,0.00010593,1049.6,-3.3766e-05,0.00091712,-3.7375e-05,-27.117,2.0506
22573,19.229,1,0.1,0.00010434,1042.7,0.00010383,1028.3,-3.3025e-05,-0.00084468,-3.6778e-05,-28.202,2.0657
22574,18.954,0.90909,0.1,0.00011058,1105,0.00011011,1091.7,-3.5187e-05,0.00102,-3.8668e-05,-26.151,2.0207
22575,19.046,1,0.1,0.00010848,1084,0.00010799,1070.2,-3.4445e-05,-0.00065406,-3.8057e-05,-27.138,2.0358
22576,18.771,0.90909,0.1,0.00011475,1146.8,0.0001143,1133.9,-3.6612e-05,0.0011122,-3.9971e-05,-25.24,1.9909
22577,18.863,1,0.1,0.00011264,1125.6,0.00011217,1112.3,-3.587e-05,-0.00048641,-3.9348e-05,-26.136,2.0059
22578,18.587,0.90909,0.1,0.00011895,1188.7,0.00011852,1176.3,-3.8041e-05,0.0011928,-4.1286e-05,-24.377,1.9612
22579,18.679,1,0.1,0.00011683,1167.5,0.00011638,1154.7,-3.7298e-05,-0.00032731,-4.0651e-05,-25.191,1.9762
22580,18.404,0.90909,0.1,0.00012318,1230.9,0.00012276,1219,-3.9475e-05,0.0012585,-4.2611e-05,-23.561,1.9315
22581,18.496,1,0.1,0.00012103,1209.5,0.0001206,1197.2,-3.8731e-05,-0.00019053,-4.1965e-05,-24.298,1.9465
22582,18.22,0.90909,0.1,0.00012742,1273.3,0.00012701,1261.8,-4.0914e-05,0.0013069,-4.3947e-05,-22.786,1.9019
22583,18.312,1,0.1,0.00012526,1251.7,0.00012485,1239.9,-4.0169e-05,-7.2078e-05,-4.329e-05,-23.453,1.9169
22584,18.037,0.90909,0.1,0.00013168,1315.9,0.00013129,1304.7,-4.2358e-05,0.0013527,-4.5292e-05,-22.05,1.8724
22585,18.129,1,0.1,0.00012951,1294.2,0.00012911,1282.7,-4.1611e-05,2.2047e-05,-4.4626e-05,-22.652,1.8873
22586,17.853,0.90909,0.1,0.00013596,1358.7,0.00013559,1347.9,-4.3806e-05,0.0014028,-4.6648e-05,-21.348,1.843
22587,17.945,1,0.1,0.00013378,1336.9,0.00013339,1325.8,-4.3059e-05,0.00012812,-4.5972e-05,-21.891,1.8579
22588,17.67,0.90909,0.1,0.00014027,1401.7,0.00013991,1391.3,-4.526e-05,0.0014358,-4.8013e-05,-20.679,1.8137
22589,17.762,1,0.1,0.00013807,1379.8,0.0001377,1369.1,-4.4511e-05,0.00022358,-4.7328e-05,-21.167,1.8285
22590,17.486,0.90909,0.1,0.00014459,1444.9,0.00014424,1434.8,-4.672e-05,0.0014611,-4.9387e-05,-20.039,1.7845
22591,17.578,1,0.1,0.00014238,1422.9,0.00014202,1412.5,-4.5969e-05,0.00028909,-4.8694e-05,-20.477,1.7993
22592,17.303,0.90909,0.1,0.00014894,1488.4,0.0001486,1478.6,-4.8185e-05,0.0014885,-5.077e-05,-19.425,1.7554
22593,17.395,1,0.1,0.00014672,1466.2,0.00014637,1456.2,-4.7432e-05,0.00036488,-5.0069e-05,-19.816,1.7701
22594,17.119,0.90909,0.1,0.00015331,1532,0.00015298,1522.5,-4.9655e-05,0.00151,-5.2162e-05,-18.835,1.7264
22595,17.211,1,0.1,0.00015107,1509.7,0.00015074,1500,-4.89e-05,0.00043016,-5.1453e-05,-19.182,1.7411
22596,16.936,0.90909,0.1,0.00015769,1575.8,0.00015737,1566.6,-5.1131e-05,0.0015357,-5.3562e-05,-18.265,1.6974
22597,17.028,1,0.1,0.00015545,1553.4,0.00015512,1544,-5.0374e-05,0.0004879,-5.2846e-05,-18.573,1.7121
22598,16.753,0.90909,0.1,0.0001621,1619.9,0.00016179,1611,-5.2613e-05,0.0015615,-5.4971e-05,-17.713,1.6686
22599,16.844,1,0.1,0.00015984,1597.3,0.00015953,1588.2,-5.1854e-05,0.0005582,-5.4248e-05,-17.984,1.6832
22600,16.569,0.90909,0.1,0.00016653,1664.1,0.00016623,1655.5,-5.4101e-05,0.0015751,-5.6387e-05,-17.176,1.6399
22601,16.661,1,0.1,0.00016426,1641.4,0.00016395,1632.7,-5.334e-05,0.00061358,-5.5658e-05,-17.413,1.6545
22602,16.386,0.90909,0.1,0.00017098,1708.6,0.00017069,1700.2,-5.5595e-05,0.0015763,-5.7812e-05,-16.652,1.6113
22603,16.477,1,0.1,0.00016869,1685.8,0.0001684,1677.3,-5.4832e-05,0.00065668,-5.7075e-05,-16.857,1.6258
22604,16.202,0.90909,0.1,0.00017544,1753.2,0.00017516,1745.1,-5.7095e-05,0.0015828,-5.9243e-05,-16.139,1.5829
22605,16.294,1,0.1,0.00017315,1730.3,0.00017287,1722.1,-5.6329e-05,0.00068551,-5.8501e-05,-16.314,1.5973
22606,16.019,0.90909,0.1,0.00017993,1798.1,0.00017966,1790.2,-5.8601e-05,0.0016,-6.0682e-05,-15.634,1.5545
22607,16.11,1,0.1,0.00017763,1775,0.00017735,1767.1,-5.7833e-05,0.00073571,-5.9934e-05,-15.781,1.5689
22608,15.835,0.90909,0.1,0.00018444,1843.1,0.00018418,1835.5,-6.0114e-05,0.001601,-6.2128e-05,-15.134,1.5262
22609,15.927,1,0.1,0.00018212,1820,0.00018186,1812.3,-5.9343e-05,0.00078499,-6.1374e-05,-15.255,1.5406
22610,15.652,0.90909,0.1,0.00018897,1888.4,0.00018871,1881,-6.1633e-05,0.0015986,-6.3581e-05,-14.638,1.4981
22611,15.743,1,0.1,0.00018664,1865.1,0.00018638,1857.7,-6.086e-05,0.00080256,-6.2821e-05,-14.734,1.5124
22612,15.468,0.90909,0.1,0.00019352,1933.8,0.00019327,1926.7,-6.3158e-05,0.0016045,-6.5041e-05,-14.142,1.4701
22613,15.56,1,0.1,0.00019118,1910.4,0.00019093,1903.3,-6.2383e-05,0.00084306,-6.4275e-05,-14.215,1.4843
22614,15.285,0.90909,0.1,0.00019808,1979.5,0.00019785,1972.6,-6.469e-05,0.0016045,-6.6507e-05,-13.645,1.4423
22615,15.376,1,0.1,0.00019573,1956,0.0001955,1949.1,-6.3912e-05,0.00087789,-6.5735e-05,-13.695,1.4564
22616,15.101,0.90909,0.1,0.00020267,2025.3,0.00020244,2018.7,-6.6229e-05,0.0016139,-6.7978e-05,-13.144,1.4145
22617,15.193,1,0.1,0.00020031,2001.7,0.00020008,1995.1,-6.5448e-05,0.00090749,-6.7201e-05,-13.172,1.4286
22618,14.918,0.90909,0.1,0.00020728,2071.3,0.00020706,2065,-6.7774e-05,0.0016287,-6.9456e-05,-12.636,1.3869
22619,15.009,1,0.1,0.0002049,2047.6,0.00020469,2041.3,-6.6991e-05,0.00096182,-6.8674e-05,-12.643,1.401
22620,14.734,0.90909,0.1,0.0002119,2117.6,0.00021169,2111.5,-6.9327e-05,0.0016328,-7.094e-05,-12.118,1.3595
22621,14.826,1,0.1,0.00020952,2093.7,0.00020931,2087.7,-6.854e-05,0.0010041,-7.0152e-05,-12.105,1.3735
22622,14.551,0.90909,0.1,0.00021655,2164,0.00021635,2158.2,-7.0886e-05,0.0016259,-7.2429e-05,-11.589,1.3322
22623,14.642,1,0.1,0.00021415,2140,0.00021395,2134.2,-7.0097e-05,0.00104,-7.1635e-05,-11.555,1.3461
22624,14.367,0.90909,0.1,0.00022121,2210.6,0.00022102,2205.1,-7.2452e-05,0.0016292,-7.3923e-05,-11.045,1.305
22625,14.459,1,0.1,0.00021881,2186.5,0.00021862,2181,-7.1661e-05,0.0010643,-7.3124e-05,-10.992,1.3188
22626,14.184,0.90909,0.1,0.0002259,2257.4,0.00022572,2252.1,-7.4026e-05,0.001653,-7.5421e-05,-10.484,1.278
22627,14.276,1,0.1,0.00022348,2233.2,0.0002233,2228,-7.3231e-05,0.0011267,-7.4617e-05,-10.41,1.2917
22628,14,0.90909,0.1,0.0002306,2304.4,0.00023043,2299.4,-7.5607e-05,0.0016661,-7.6925e-05,-9.903,1.2511
22629,14.092,1,0.1,0.00022817,2280.1,0.000228,2275.2,-7.4809e-05,0.0011999,-7.6115e-05,-9.8085,1.2648
22630,13.817,0.90909,0.1,0.00023532,2351.6,0.00023516,2346.9,-7.7195e-05,0.0016857,-7.8432e-05,-9.2983,1.2244
22631,13.909,1,0.1,0.00023288,2327.2,0.00023272,2322.6,-7.6394e-05,0.0012502,-7.7617e-05,-9.1829,1.238
22632,13.633,0.90909,0.1,0.00024006,2399,0.00023991,2394.6,-7.879e-05,0.0017302,-7.9944e-05,-8.6671,1.1978
22633,13.725,1,0.1,0.00023761,2374.4,0.00023746,2370.2,-7.7987e-05,0.0013493,-7.9123e-05,-8.5302,1.2114
22634,13.45,0.90909,0.1,0.00024482,2446.5,0.00024468,2442.5,-8.0393e-05,0.0017876,-8.1459e-05,-8.0062,1.1714
22635,13.542,1,0.1,0.00024235,2421.9,0.00024222,2417.9,-7.9588e-05,0.0014691,-8.0632e-05,-7.847,1.1849
22636,13.266,0.90909,0.1,0.0002496,2494.2,0.00024947,2490.6,-8.2004e-05,0.0018879,-8.2978e-05,-7.312,1.1452
22637,13.358,1,0.1,0.00024712,2469.5,0.000247,2465.9,-8.1196e-05,0.0016225,-8.2145e-05,-7.1295,1.1586
22638,13.083,0.90909,0.1,0.00025439,2542.2,0.00025428,2538.9,-8.3623e-05,0.002029,-8.4499e-05,-6.581,1.1191
22639,13.175,1,0.1,0.0002519,2517.3,0.00025179,2514.1,-8.2812e-05,0.0018706,-8.366e-05,-6.3738,1.1325
22640,12.899,0.90909,0.1,0.00025921,2590.3,0.00025911,2587.4,-8.525e-05,0.0022204,-8.6023e-05,-5.8094,1.0932
22641,12.991,1,0.1,0.0002567,2565.3,0.00025661,2562.5,-8.4435e-05,0.0021738,-8.5178e-05,-5.5761,1.1065
22642,12.716,0.90909,0.1,0.00026404,2638.6,0.00026395,2636.1,-8.6885e-05,0.0025482,-8.755e-05,-4.9932,1.0675
22643,12.808,1,0.1,0.00026152,2613.4,0.00026144,2611,-8.6067e-05,0.0026407,-8.6698e-05,-4.7321,1.0807
22644,12.532,0.90909,0.1,0.00026889,2687,0.00026882,2684.9,-8.8528e-05,0.0030964,-8.9078e-05,-4.1284,1.042
22645,12.624,1,0.1,0.00026636,2661.7,0.00026629,2659.8,-8.7708e-05,0.003447,-8.8219e-05,-3.8375,1.055
22646,12.349,0.90909,0.1,0.00027375,2735.6,0.0002737,2734,-9.0179e-05,0.0040528,-9.0607e-05,-3.2109,1.0166
22647,12.441,1,0.1,0.00027121,2710.2,0.00027116,2708.8,-8.9356e-05,0.00488,-8.9741e-05,-2.8881,1.0296
22648,12.165,0.90909,0.1,0.00027864,2784.5,0.0002786,2783.3,-9.1839e-05,0.0060447,-9.2138e-05,-2.2369,0.99142
22649,12.257,1,0.1,0.00027608,2758.9,0.00027605,2758,-9.1013e-05,0.0080892,-9.1265e-05,-1.8801,1.0043
22650,11.982,0.90909,0.1,0.00028354,2833.4,0.00028352,2832.8,-9.3507e-05,0.012006,-9.3669e-05,-1.2044,0.96643
22651,12.074,1,0.1,0.00028097,2807.8,0.00028096,2807.4,-9.2678e-05,0.020443,-9.2789e-05,-0.81585,0.97924
22652,11.799,0.90909,0.1,0.00028846,2882.6,0.00028846,2882.6,-9.5175e-05,0.089972,-9.521e-05,-0.17683,0.94163
22653,11.89,1,0.1,0.00028587,2856.8,0.00028588,2856.9,-9.4303e-05,0.39874,-9.4362e-05,-0.04673,0.95435
22654,11.615,0.90909,0.1,0.00029339,2931.9,0.00029341,2932.5,-9.6727e-05,1.107,-9.6876e-05,-0.016224,0.91702
22655,11.707,1,0.1,0.0002908,2905.9,0.00029082,2906.7,-9.5829e-05,1.5888,-9.6042e-05,-0.013295,0.92965
22656,11.432,0.90909,0.1,0.00029835,2981.4,0.00029839,2982.6,-9.8257e-05,2.3542,-9.8572e-05,-0.008802,0.89261
22657,11.523,1,0.1,0.00029573,2955.3,0.00029578,2956.7,-9.735e-05,2.8891,-9.7735e-05,-0.0084117,0.90515
22658,11.248,0.90909,0.1,0.00030331,3031.1,0.00030338,3032.9,-9.9785e-05,3.6888,-0.00010028,-0.0066099,0.8684
22659,11.34,1,0.1,0.00030069,3004.8,0.00030076,3006.9,-9.8868e-05,4.28,-9.9439e-05,-0.0065772,0.88084
22660,11.065,0.90909,0.1,0.0003083,3080.9,0.00030839,3083.4,-0.00010131,5.1115,-0.00010199,-0.005725,0.84439
22661,11.156,1,0.1,0.00030565,3054.4,0.00030575,3057.3,-0.00010038,5.7647,-0.00010115,-0.0057577,0.85673
22662,10.881,0.90909,0.1,0.0003133,3130.8,0.00031341,3134.1,-0.00010283,6.6265,-0.00010372,-0.0053447,0.82059
22663,10.973,1,0.1,0.00031064,3104.2,0.00031076,3107.9,-0.0001019,7.3486,-0.00010287,-0.0053767,0.83283
22664,10.698,0.90909,0.1,0.00031832,3181,0.00031846,3185.1,-0.00010436,8.2379,-0.00010545,-0.0052373,0.797
22665,10.789,1,0.1,0.00031564,3154.2,0.00031579,3158.7,-0.0001034,9.037,-0.00010461,-0.0052002,0.80914
22666,10.514,0.90909,0.1,0.00032335,3231.2,0.00032352,3236.2,-0.00010587,9.9496,-0.0001072,-0.0053353,0.77362
22667,10.606,1,0.1,0.00032065,3204.3,0.00032083,3209.7,-0.00010491,10.835,-0.00010635,-0.0052134,0.78567
22668,10.331,0.90909,0.1,0.00032839,3281.7,0.00032859,3287.5,-0.00010739,11.765,-0.00010895,-0.0055917,0.75046
22669,10.422,1,0.1,0.00032568,3254.5,0.00032589,3260.9,-0.00010641,12.747,-0.00010811,-0.0053724,0.7624
22670,10.147,0.90909,0.1,0.00033346,3332.3,0.00033369,3339.1,-0.0001089,13.686,-0.00011072,-0.0059635,0.72753
22671,10.239,1,0.1,0.00033072,3304.9,0.00033097,3312.3,-0.0001079,14.777,-0.00010987,-0.00566,0.73936
22672,9.9637,0.90909,0.1,0.00033853,3383,0.0003388,3390.8,-0.0001104,15.713,-0.00011249,-0.0064356,0.70481
22673,10.055,1,0.1,0.00033578,3355.5,0.00033606,3363.9,-0.00010939,16.928,-0.00011164,-0.0060229,0.71654
22674,9.7802,0.90909,0.1,0.00034362,3433.8,0.00034392,3442.7,-0.0001119,17.847,-0.00011428,-0.0070339,0.68233
22675,9.872,1,0.1,0.00034085,3406.1,0.00034117,3415.7,-0.00011087,19.202,-0.00011343,-0.0064922,0.69394
22676,9.5968,0.90909,0.1,0.00034872,3484.8,0.00034906,3494.8,-0.0001134,20.084,-0.00011607,-0.0077678,0.66007
22677,9.6885,1,0.1,0.00034593,3456.9,0.00034629,3467.7,-0.00011235,21.598,-0.00011523,-0.0070939,0.67158
22678,9.4133,0.90909,0.1,0.00035384,3536,0.00035422,3547.1,-0.00011489,22.418,-0.00011788,-0.0086501,0.63805
22679,9.505,1,0.1,0.00035103,3507.8,0.00035143,3519.8,-0.00011382,24.114,-0.00011703,-0.0078235,0.64945
22680,9.2298,0.90909,0.1,0.00035897,3587.2,0.00035938,3599.6,-0.00011638,24.841,-0.00011969,-0.0097084,0.61627
22681,9.3215,1,0.1,0.00035613,3558.9,0.00035658,3572.2,-0.00011529,26.744,-0.00011885,-0.0087127,0.62755
22682,9.0463,0.90909,0.1,0.00036411,3638.6,0.00036456,3652.1,-0.00011787,27.338,-0.00012151,-0.010975,0.59473
22683,9.1381,1,0.1,0.00036125,3610,0.00036174,3624.7,-0.00011675,29.479,-0.00012067,-0.0097878,0.60589
22684,8.8628,0.90909,0.1,0.00036925,3690,0.00036975,3704.8,-0.00011935,29.891,-0.00012333,-0.012494,0.57344
22685,8.9546,1,0.1,0.00036638,3661.3,0.00036692,3677.3,-0.0001182,32.306,-0.0001225,-0.011089,0.58448
22686,8.6794,0.90909,0.1,0.00037441,3741.5,0.00037495,3757.6,-0.00012084,32.474,-0.00012516,-0.014325,0.55239
22687,8.7711,1,0.1,0.00037152,3712.6,0.0003721,3730.1,-0.00011965,35.205,-0.00012434,-0.012668,0.56331
22688,8.4959,0.90909,0.1,0.00037957,3793.1,0.00038016,3810.5,-0.00012232,35.053,-0.00012699,-0.016547,0.5316
22689,8.5876,1,0.1,0.00037666,3764,0.0003773,3783,-0.00012111,38.148,-0.00012618,-0.014594,0.5424
22690,8.3124,0.90909,0.1,0.00038473,3844.7,0.00038536,3863.3,-0.00012382,37.586,-0.00012882,-0.019264,0.51106
22691,8.4041,1,0.1,0.00038181,3815.5,0.0003825,3835.9,-0.00012256,41.102,-0.00012803,-0.016957,0.52174
22692,8.1289,0.90909,0.1,0.00038989,3896.2,0.00039056,3916.1,-0.00012531,40.019,-0.00013064,-0.022621,0.49078
22693,8.2206,1,0.1,0.00038697,3867,0.0003877,3888.8,-0.00012401,44.022,-0.00012988,-0.019881,0.50133
22694,7.9454,0.90909,0.1,0.00039504,3947.7,0.00039575,3968.7,-0.00012682,42.283,-0.00013246,-0.026818,0.47077
22695,8.0372,1,0.1,0.00039212,3918.5,0.00039289,3941.7,-0.00012548,46.85,-0.00013171,-0.023532,0.48119
22696,7.7619,0.90909,0.1,0.00040018,3999,0.00040091,4020.9,-0.00012835,44.298,-0.00013425,-0.03214,0.45102
22697,7.8537,1,0.1,0.00039726,3969.9,0.00039808,3994.4,-0.00012695,49.516,-0.00013354,-0.028144,0.46131
22698,7.5785,0.90909,0.1,0.00040528,4050,0.00040604,4072.8,-0.00012989,45.962,-0.00013602,-0.039008,0.43154
22699,7.6702,1,0.1,0.00040239,4021.1,0.00040325,4046.8,-0.00012844,51.933,-0.00013536,-0.034046,0.4417
22700,7.395,0.90909,0.1,0.00041034,4100.6,0.00041112,4123.9,-0.00013146,47.157,-0.00013774,-0.048053,0.41233
22701,7.4867,1,0.1,0.00040749,4072.1,0.00040838,4098.8,-0.00012995,53.997,-0.00013714,-0.04172,0.42236
22702,7.2115,0.90909,0.1,0.00041533,4150.5,0.00041612,4174.1,-0.00013306,47.741,-0.00013942,-0.060263,0.39341
22703,7.3032,1,0.1,0.00041255,4122.7,0.00041347,4150.2,-0.00013149,55.582,-0.00013889,-0.051885,0.40329
22704,7.028,0.90909,0.1,0.00042023,4199.4,0.00042102,4223,-0.00013469,47.55,-0.00014103,-0.077253,0.37476
22705,7.1198,1,0.1,0.00041756,4172.7,0.00041849,4200.6,-0.00013306,56.541,-0.00014059,-0.065646,0.38451
22706,6.8445,0.90909,0.1,0.000425,4247.1,0.00042577,4270.1,-0.00013636,46.397,-0.00014255,-0.10179,0.35639
22707,6.9363,1,0.1,0.00042248,4221.9,0.00042341,4249.9,-0.00013467,56.702,-0.00014222,-0.084775,0.366
22708,6.6611,0.90909,0.1,0.0004296,4293,0.00043033,4314.8,-0.00013807,44.068,-0.00014396,-0.13893,0.33831
22709,6.7528,1,0.1,0.00042728,4269.8,0.0004282,4297.4,-0.00013632,55.866,-0.00014377,-0.11223,0.34778
22710,6.4776,0.90909,0.1,0.00043395,4336.5,0.00043462,4356.5,-0.00013982,40.329,-0.00014521,-0.19875,0.32052
22711,6.5693,1,0.1,0.00043191,4316.1,0.0004328,4342.7,-0.00013802,53.81,-0.0001452,-0.15321,0.32985
22712,6.2941,0.90909,0.1,0.00043798,4376.8,0.00043856,4394,-0.0001416,34.934,-0.00014629,-0.30383,0.30303
22713,6.3858,1,0.1,0.00043632,4360.2,0.00043715,4385,-0.00013977,50.285,-0.00014649,-0.21755,0.31221
22714,6.1106,0.90909,0.1,0.00044158,4412.8,0.00044204,4426.3,-0.00014338,27.649,-0.00014713,-0.51488,0.28582
22715,6.2024,1,0.1,0.00044042,4401.2,0.00044117,4423.4,-0.00014156,45.023,-0.00014759,-0.32569,0.29486
22716,5.9271,0.90909,0.1,0.00044461,4443.1,0.0004449,4451.7,-0.00014513,18.376,-0.00014772,-1.0534,0.26892
22717,6.0189,1,0.1,0.00044412,4438.2,0.00044474,4456.7,-0.00014338,37.747,-0.00014847,-0.52637,0.27782
22718,5.7437,0.90909,0.1,0.0004469,4465.9,0.00044698,4468.3,-0.00014663,8.1345,-0.00014815,-3.2821,0.25232
22719,5.8354,1,0.1,0.00044729,4469.8,0.00044774,4483.3,-0.00014519,28.239,-0.00014908,-0.96428,0.26107
22720,5.5602,0.90909,0.1,0.00044822,4479.1,0.00044804,4473.8,-0.00014702,2.7807,-0.00014917,-13.432,0.23601
22721,5.6519,1,0.1,0.00044975,4494.4,0.00044999,4501.5,-0.00014691,16.703,-0.00014943,-2.2604,0.24462
22722,5.3767,0.90909,0.1,0.00044831,4480,0.00044779,4465.1,-0.00014625,1.6921,-0.00015064,-31.307,0.22001
22723,5.4684,1,0.1,0.0004513,4509.9,0.00045127,4509,-0.00014798,6.4409,-0.00014993,-8.2209,0.22847
22724,5.1932,0.90909,0.1,0.00044681,4465,0.00044589,4438.5,-0.00014465,1.4101,-0.00015202,-53.97,0.20431
22725,5.285,1,0.1,0.00045169,4513.8,0.00045131,4502.7,-0.00014756,2.9999,-0.0001513,-25.035,0.21263
22726,5.0097,0.90909,0.1,0.00044334,4430.3,0.00044192,4389.7,-0.00014213,1.3571,-0.00015316,-81.544,0.18891
22727,5.1015,1,0.1,0.00045062,4503.1,0.0004498,4479.3,-0.00014607,2.1806,-0.00015293,-49.398,0.19709
22728,4.8263,0.90909,0.1,0.00043743,4371.3,0.00043538,4313.3,-0.0001385,1.4162,-0.00015399,-114.96,0.1738
22729,4.918,1,0.1,0.00044775,4474.4,0.00044636,4434.5,-0.00014358,1.9393,-0.00015457,-80.606,0.18185
22730,4.6428,0.90909,0.1,0.00042859,4282.9,0.00042574,4203.6,-0.00013351,1.5563,-0.00015447,-155.89,0.15898
22731,4.7345,1,0.1,0.00044272,4424.1,0.00044057,4363.6,-0.00013993,1.9086,-0.00015621,-120.41,0.16691
22732,4.4593,0.90909,0.1,0.00041636,4160.8,0.00041247,4054.1,-0.00012686,1.7639,-0.00015467,-207.23,0.14444
22733,4.551,1,0.1,0.00043517,4348.7,0.00043202,4261,-0.00013482,1.9969,-0.00015801,-172.21,0.15226
22734,4.2758,0.90909,0.1,0.00040051,4002.4,0.00039517,3859.2,-0.00011819,2.0542,-0.00015493,-273.99,0.13017
22735,4.3676,1,0.1,0.00042493,4246.3,0.00042032,4121.3,-0.0001279,2.163,-0.00016036,-241.72,0.13789
22736,4.0923,0.90909,0.1,0.00038138,3811.2,0.00037388,3616.6,-0.00010714,2.3414,-0.00015603,-364.98,0.11615
22737,4.1841,1,0.1,0.00041212,4118.4,0.00040535,3939.9,-0.00011869,2.4516,-0.00016404,-338.31,0.12379
22738,3.9088,0.90909,0.1,0.00036058,3603.3,0.00034962,3331.4,-9.3385e-05,2.8551,-0.00015963,-494.9,0.10235
22739,4.0006,1,0.1,0.00039772,3974.5,0.00038748,3715.6,-0.00010669,2.5972,-0.0001705,-476.85,0.10993
22740,3.7254,0.90909,0.1,0.00034239,3421.6,0.0003254,3024.8,-7.6891e-05,2.161,-0.00016899,-689.86,0.088733
22741,3.8171,1,0.1,0.00038409,3838.2,0.00036804,3455.2,-9.135e-05,3.5111,-0.00018209,-678.27,0.096293
22742,3.5419,0.90909,0.1,0.00034189,3416.5,0.00031247,2784.5,-5.7377e-05,5.6121,-0.00019521,-1030,0.075255
22743,3.6336,1,0.1,0.00037665,3763.9,0.00035046,3180.6,-7.2748e-05,0.77467,-0.00020265,-975.24,0.082828
22744,3.4501,1,0.1,0.00040036,4000.8,0.00035313,3038.2,-4.9791e-05,10.878,-0.00025054,-1497.5,0.069481
22745,3.3584,0.90909,0.1,0.0002857,2855.1,0.00025473,2210.5,-3.9888e-05,-3.0813,-0.00017417,-1012,0.061857
22746,23.725,1.0909,0.1,1.5479e-05,154.68,9.7038e-06,58.271,1.9275e-06,-0.15693,-1.3639e-05,-117.11,2.8136
22747,23.817,1.1818,0.1,1.5149e-05,151.38,8.1924e-06,39.72,2.8897e-06,-0.12209,-1.4076e-05,-127.6,2.8291
22748,23.908,1.0909,0.1,1.3891e-05,138.81,6.431e-06,22.422,3.3923e-06,-0.40938,-1.3375e-05,-126.39,2.8445
22749,23.541,1.0909,0.1,1.7624e-05,176.12,1.3128e-05,95.604,3.7948e-07,-0.18195,-1.3923e-05,-107.65,2.7828
22750,23.633,1.1818,0.1,1.699e-05,169.78,1.1609e-05,77.124,1.3072e-06,-0.28268,-1.4302e-05,-117.57,2.7982
22751,23.358,1.0909,0.1,2.0198e-05,201.84,1.6592e-05,133.04,-1.1273e-06,-0.094516,-1.4317e-05,-99.193,2.7519
22752,23.45,1.1818,0.1,1.9336e-05,193.23,1.5059e-05,114.68,-2.1782e-07,-0.10993,-1.4632e-05,-108.41,2.7674
22753,23.174,1.0909,0.1,2.3075e-05,230.59,2.0104e-05,170.61,-2.6127e-06,-0.075026,-1.481e-05,-91.718,2.7211
22754,23.266,1.1818,0.1,2.2037e-05,220.21,1.8549e-05,152.25,-1.7272e-06,-0.095827,-1.5055e-05,-100.24,2.7366
22755,22.991,1.0909,0.1,2.6173e-05,261.55,2.3665e-05,208.38,-4.0765e-06,-0.054871,-1.5396e-05,-85.105,2.6903
22756,23.083,1.1818,0.1,2.4993e-05,249.76,2.208e-05,189.96,-3.2113e-06,-0.06703,-1.5569e-05,-92.92,2.7058
22757,22.807,1.0909,0.1,2.9436e-05,294.16,2.7276e-05,246.41,-5.5244e-06,-0.043265,-1.6066e-05,-79.247,2.6595
22758,22.899,1.1818,0.1,2.8141e-05,281.21,2.5657e-05,227.87,-4.6775e-06,-0.053589,-1.6168e-05,-86.389,2.675
22759,22.624,1.0909,0.1,3.2826e-05,328.03,3.0933e-05,284.68,-6.9594e-06,-0.034387,-1.6808e-05,-74.034,2.6288
22760,22.716,1.1818,0.1,3.1434e-05,314.13,2.9279e-05,266,-6.1284e-06,-0.042662,-1.6843e-05,-80.546,2.6442
22761,22.44,1.0909,0.1,3.6314e-05,362.89,3.4633e-05,323.19,-8.3847e-06,-0.027933,-1.7613e-05,-69.369,2.598
22762,22.532,1.1818,0.1,3.4842e-05,348.18,3.2944e-05,304.35,-7.5675e-06,-0.035001,-1.7585e-05,-75.301,2.6134
22763,22.257,1.0909,0.1,3.9882e-05,398.54,3.8371e-05,361.93,-9.8023e-06,-0.022978,-1.8472e-05,-65.167,2.5673
22764,22.349,1.1818,0.1,3.834e-05,383.13,3.6648e-05,342.93,-8.9971e-06,-0.029086,-1.8386e-05,-70.571,2.5827
22765,22.073,1.0909,0.1,4.3514e-05,434.84,4.2143e-05,400.89,-1.1214e-05,-0.019137,-1.9378e-05,-61.359,2.5366
22766,22.165,1.1818,0.1,4.1912e-05,418.83,4.0389e-05,381.73,-1.0419e-05,-0.024516,-1.9238e-05,-66.283,2.552
22767,21.89,1.0909,0.1,4.72e-05,471.67,4.5947e-05,440.05,-1.2621e-05,-0.016101,-2.0324e-05,-57.891,2.5059
22768,21.982,1.1818,0.1,4.5545e-05,455.14,4.4162e-05,420.72,-1.1836e-05,-0.020895,-2.0135e-05,-62.38,2.5213
22769,21.706,1.0909,0.1,5.0932e-05,508.97,4.978e-05,479.4,-1.4026e-05,-0.013668,-2.1306e-05,-54.716,2.4752
22770,21.798,1.1818,0.1,4.9231e-05,491.97,4.7966e-05,459.92,-1.3247e-05,-0.017987,-2.1072e-05,-58.811,2.4906
22771,21.523,1.0909,0.1,5.4706e-05,546.68,5.364e-05,518.93,-1.5427e-05,-0.011694,-2.232e-05,-51.798,2.4446
22772,21.615,1.1818,0.1,5.2963e-05,529.26,5.1799e-05,499.3,-1.4656e-05,-0.015615,-2.2045e-05,-55.535,2.46
22773,21.34,1.0909,0.1,5.8515e-05,584.75,5.7525e-05,558.64,-1.6827e-05,-0.010078,-2.3362e-05,-49.106,2.4141
22774,21.431,1.1818,0.1,5.6735e-05,566.96,5.5658e-05,538.86,-1.6062e-05,-0.013658,-2.305e-05,-52.52,2.4294
22775,21.156,1.0909,0.1,6.2359e-05,623.16,6.1434e-05,598.53,-1.8227e-05,-0.0087406,-2.443e-05,-46.617,2.3835
22776,21.248,1.1818,0.1,6.0544e-05,605.02,5.9544e-05,578.61,-1.7466e-05,-0.012037,-2.4084e-05,-49.735,2.3989
22777,20.973,1.0909,0.1,6.6233e-05,661.87,6.5367e-05,638.6,-1.9626e-05,-0.0076214,-2.5522e-05,-44.309,2.353
22778,21.064,1.1818,0.1,6.4386e-05,643.42,6.3454e-05,618.53,-1.887e-05,-0.010668,-2.5144e-05,-47.158,2.3683
22779,20.789,1.0909,0.1,7.0135e-05,700.87,6.9323e-05,678.83,-2.1025e-05,-0.0066792,-2.6636e-05,-42.165,2.3226
22780,20.881,1.1818,0.1,6.826e-05,682.13,6.7388e-05,658.64,-2.0273e-05,-0.0095083,-2.623e-05,-44.768,2.3379
22781,20.606,1.0909,0.1,7.4066e-05,740.15,7.3301e-05,719.24,-2.2426e-05,-0.0058749,-2.7771e-05,-40.169,2.2922
22782,20.697,1.1818,0.1,7.2163e-05,721.13,7.1345e-05,698.91,-2.1676e-05,-0.0085173,-2.7338e-05,-42.549,2.3074
22783,20.422,1.0909,0.1,7.8023e-05,779.69,7.73e-05,759.83,-2.3827e-05,-0.0051847,-2.8925e-05,-38.309,2.2618
22784,20.514,1.1818,0.1,7.6095e-05,760.42,7.5325e-05,739.37,-2.308e-05,-0.0076554,-2.8467e-05,-40.484,2.2771
22785,20.239,1.0909,0.1,8.2005e-05,819.49,8.1322e-05,800.58,-2.523e-05,-0.0045937,-3.0097e-05,-36.573,2.2315
22786,20.33,1.1818,0.1,8.0054e-05,799.98,7.9328e-05,780,-2.4485e-05,-0.0069113,-2.9616e-05,-38.561,2.2467
22787,20.055,1.0909,0.1,8.6012e-05,859.53,8.5364e-05,841.52,-2.6636e-05,-0.0040855,-3.1287e-05,-34.952,2.2012
22788,20.147,1.1818,0.1,8.4038e-05,839.8,8.3352e-05,820.81,-2.5892e-05,-0.0062634,-3.0785e-05,-36.768,2.2165
22789,19.872,1.0909,0.1,9.0044e-05,899.82,8.9428e-05,882.63,-2.8043e-05,-0.0036392,-3.2493e-05,-33.435,2.171
22790,19.963,1.1818,0.1,8.8049e-05,879.88,8.7399e-05,861.81,-2.7301e-05,-0.0057016,-3.1971e-05,-35.094,2.1862
22791,19.688,1.0909,0.1,9.4099e-05,940.34,9.3513e-05,923.92,-2.9454e-05,-0.0032406,-3.3714e-05,-32.016,2.1409
22792,19.78,1.1818,0.1,9.2084e-05,920.2,9.1468e-05,902.98,-2.8712e-05,-0.0051926,-3.3174e-05,-33.53,2.1561
22793,19.505,1.0909,0.1,9.8177e-05,981.1,9.7619e-05,965.39,-3.0867e-05,-0.0028956,-3.4951e-05,-30.685,2.1108
22794,19.596,1.1818,0.1,9.6143e-05,960.77,9.5558e-05,944.33,-3.0126e-05,-0.0047385,-3.4393e-05,-32.068,2.126
22795,19.321,1.0909,0.1,0.00010228,1022.1,0.00010175,1007,-3.2284e-05,-0.0025909,-3.6201e-05,-29.437,2.0808
22796,19.413,1.1818,0.1,0.00010023,1001.6,9.9669e-05,985.87,-3.1543e-05,-0.0043495,-3.5628e-05,-30.698,2.0959
22797,19.138,1.0909,0.1,0.0001064,1063.3,0.00010589,1048.9,-3.3704e-05,-0.0023142,-3.7465e-05,-28.266,2.0509
22798,19.229,1.1818,0.1,0.00010433,1042.6,0.0001038,1027.6,-3.2963e-05,-0.0039865,-3.6878e-05,-29.415,2.0659
22799,18.954,1.0909,0.1,0.00011055,1104.7,0.00011006,1090.9,-3.5128e-05,-0.0020687,-3.8743e-05,-27.164,2.021
22800,19.046,1.1818,0.1,0.00010846,1083.9,0.00010796,1069.5,-3.4387e-05,-0.0036629,-3.8141e-05,-28.212,2.036
22801,18.771,1.0909,0.1,0.00011472,1146.4,0.00011425,1133.1,-3.6556e-05,-0.0018431,-4.0033e-05,-26.128,1.9912
22802,18.863,1.1818,0.1,0.00011262,1125.4,0.00011213,1111.6,-3.5814e-05,-0.0033715,-3.9418e-05,-27.081,2.0062
22803,18.587,1.0909,0.1,0.00011891,1188.3,0.00011846,1175.5,-3.7988e-05,-0.001636,-4.1335e-05,-25.151,1.9615
22804,18.679,1.1818,0.1,0.00011679,1167.1,0.00011633,1153.9,-3.7246e-05,-0.0030947,-4.0708e-05,-26.018,1.9764
22805,18.404,1.0909,0.1,0.00012312,1230.4,0.00012269,1218.1,-3.9425e-05,-0.0014538,-4.2649e-05,-24.229,1.9318
22806,18.496,1.1818,0.1,0.00012099,1209.1,0.00012055,1196.4,-3.8682e-05,-0.0028499,-4.2011e-05,-25.017,1.9468
22807,18.22,1.0909,0.1,0.00012736,1272.7,0.00012695,1260.9,-4.0866e-05,-0.0012964,-4.3975e-05,-23.357,1.9022
22808,18.312,1.1818,0.1,0.00012521,1251.2,0.00012478,1239,-4.0122e-05,-0.0026292,-4.3325e-05,-24.072,1.9172
22809,18.037,1.0909,0.1,0.00013162,1315.2,0.00013122,1303.8,-4.2312e-05,-0.0011482,-4.5311e-05,-22.531,1.8728
22810,18.129,1.1818,0.1,0.00012945,1293.6,0.00012904,1281.9,-4.1567e-05,-0.0024379,-4.4651e-05,-23.179,1.8876
22811,17.853,1.0909,0.1,0.00013589,1358,0.00013551,1347,-4.3763e-05,-0.0010024,-4.6657e-05,-21.747,1.8434
22812,17.945,1.1818,0.1,0.00013372,1336.3,0.00013332,1324.9,-4.3016e-05,-0.0022423,-4.5988e-05,-22.334,1.8582
22813,17.67,1.0909,0.1,0.00014019,1401,0.00013982,1390.3,-4.5219e-05,-0.0008796,-4.8014e-05,-21.001,1.8141
22814,17.762,1.1818,0.1,0.000138,1379.1,0.00013762,1368.2,-4.4471e-05,-0.0020621,-4.7336e-05,-21.532,1.8289
22815,17.486,1.0909,0.1,0.00014451,1444.1,0.00014416,1433.9,-4.6681e-05,-0.0007684,-4.9381e-05,-20.289,1.7849
22816,17.578,1.1818,0.1,0.00014231,1422.1,0.00014195,1411.6,-4.593e-05,-0.0019164,-4.8694e-05,-20.768,1.7996
22817,17.303,1.0909,0.1,0.00014885,1487.5,0.00014851,1477.6,-4.8147e-05,-0.00065919,-5.0757e-05,-19.608,1.7558
22818,17.395,1.1818,0.1,0.00014664,1465.4,0.00014629,1455.3,-4.7395e-05,-0.0017639,-5.0062e-05,-20.04,1.7705
22819,17.119,1.0909,0.1,0.00015322,1531.1,0.00015289,1521.5,-4.962e-05,-0.00056185,-5.2142e-05,-18.955,1.7267
22820,17.211,1.1818,0.1,0.00015099,1508.9,0.00015065,1499.1,-4.8866e-05,-0.0016254,-5.144e-05,-19.342,1.7414
22821,16.936,1.0909,0.1,0.0001576,1574.9,0.00015728,1565.7,-5.1097e-05,-0.00046339,-5.3536e-05,-18.325,1.6978
22822,17.028,1.1818,0.1,0.00015536,1552.5,0.00015503,1543.1,-5.0341e-05,-0.0014987,-5.2826e-05,-18.673,1.7125
22823,16.753,1.0909,0.1,0.000162,1618.9,0.00016169,1610,-5.2581e-05,-0.0003673,-5.4939e-05,-17.717,1.669
22824,16.844,1.1818,0.1,0.00015975,1596.4,0.00015944,1587.3,-5.1823e-05,-0.0013633,-5.4222e-05,-18.027,1.6836
22825,16.569,1.0909,0.1,0.00016643,1663.1,0.00016613,1654.5,-5.4071e-05,-0.00028589,-5.635e-05,-17.127,1.6403
22826,16.661,1.1818,0.1,0.00016416,1640.5,0.00016386,1631.7,-5.331e-05,-0.0012435,-5.5626e-05,-17.402,1.6549
22827,16.386,1.0909,0.1,0.00017087,1707.5,0.00017058,1699.2,-5.5566e-05,-0.00021852,-5.7769e-05,-16.551,1.6117
22828,16.477,1.1818,0.1,0.0001686,1684.8,0.00016831,1676.3,-5.4803e-05,-0.0011395,-5.7038e-05,-16.795,1.6262
22829,16.202,1.0909,0.1,0.00017534,1752.2,0.00017506,1744.1,-5.7067e-05,-0.00014924,-5.9195e-05,-15.988,1.5833
22830,16.294,1.1818,0.1,0.00017305,1729.3,0.00017277,1721.2,-5.6302e-05,-0.0010507,-5.8459e-05,-16.202,1.5977
22831,16.019,1.0909,0.1,0.00017982,1797,0.00017955,1789.2,-5.8575e-05,-7.0161e-05,-6.0629e-05,-15.434,1.5549
22832,16.11,1.1818,0.1,0.00017752,1774,0.00017725,1766.2,-5.7808e-05,-0.00094307,-5.9886e-05,-15.621,1.5693
22833,15.835,1.0909,0.1,0.00018433,1842,0.00018407,1834.5,-6.0089e-05,-7.4592e-06,-6.207e-05,-14.886,1.5267
22834,15.927,1.1818,0.1,0.00018202,1818.9,0.00018176,1811.4,-5.9319e-05,-0.00083692,-6.1322e-05,-15.047,1.541
22835,15.652,1.0909,0.1,0.00018885,1887.2,0.0001886,1880,-6.161e-05,4.9882e-05,-6.3518e-05,-14.341,1.4986
22836,15.743,1.1818,0.1,0.00018653,1864,0.00018628,1856.7,-6.0837e-05,-0.00076328,-6.2764e-05,-14.479,1.5128
22837,15.468,1.0909,0.1,0.0001934,1932.6,0.00019316,1925.7,-6.3136e-05,0.00011623,-6.4973e-05,-13.797,1.4706
22838,15.56,1.1818,0.1,0.00019107,1909.3,0.00019082,1902.3,-6.2361e-05,-0.00066667,-6.4213e-05,-13.913,1.4848
22839,15.285,1.0909,0.1,0.00019796,1978.3,0.00019773,1971.6,-6.467e-05,0.00017753,-6.6434e-05,-13.251,1.4427
22840,15.376,1.1818,0.1,0.00019562,1954.8,0.00019539,1948.1,-6.3892e-05,-0.00057548,-6.5668e-05,-13.346,1.4569
22841,15.101,1.0909,0.1,0.00020255,2024.1,0.00020233,2017.7,-6.621e-05,0.00024884,-6.79e-05,-12.7,1.415
22842,15.193,1.1818,0.1,0.00020019,2000.5,0.00019997,1994.1,-6.5429e-05,-0.00048835,-6.7129e-05,-12.774,1.4291
22843,14.918,1.0909,0.1,0.00020715,2070.1,0.00020694,2064,-6.7757e-05,0.00032741,-6.9373e-05,-12.141,1.3874
22844,15.009,1.1818,0.1,0.00020478,2046.4,0.00020457,2040.3,-6.6974e-05,-0.00037655,-6.8597e-05,-12.196,1.4014
22845,14.734,1.0909,0.1,0.00021177,2116.3,0.00021157,2110.4,-6.9311e-05,0.00039798,-7.0851e-05,-11.57,1.36
22846,14.826,1.1818,0.1,0.00020939,2092.5,0.00020919,2086.7,-6.8525e-05,-0.0002731,-7.0069e-05,-11.607,1.3739
22847,14.551,1.0909,0.1,0.00021641,2162.6,0.00021622,2157.1,-7.0872e-05,0.00046153,-7.2334e-05,-10.986,1.3327
22848,14.642,1.1818,0.1,0.00021403,2138.8,0.00021384,2133.3,-7.0083e-05,-0.00017396,-7.1547e-05,-11.005,1.3466
22849,14.367,1.0909,0.1,0.00022107,2209.2,0.0002209,2204,-7.2439e-05,0.00054137,-7.3822e-05,-10.384,1.3055
22850,14.459,1.1818,0.1,0.00021867,2185.2,0.0002185,2180,-7.1648e-05,-8.0323e-05,-7.303e-05,-10.386,1.3193
22851,14.184,1.0909,0.1,0.00022575,2256,0.00022559,2251.1,-7.4015e-05,0.00064945,-7.5314e-05,-9.7612,1.2785
22852,14.276,1.1818,0.1,0.00022334,2231.9,0.00022318,2227,-7.322e-05,5.7523e-05,-7.4517e-05,-9.7466,1.2923
22853,14,1.0909,0.1,0.00023045,2302.9,0.0002303,2298.4,-7.5597e-05,0.00075612,-7.681e-05,-9.1147,1.2517
22854,14.092,1.1818,0.1,0.00022803,2278.7,0.00022787,2274.2,-7.4799e-05,0.00021558,-7.6008e-05,-9.0833,1.2653
22855,13.817,1.0909,0.1,0.00023517,2350.1,0.00023502,2345.8,-7.7187e-05,0.00088234,-7.8311e-05,-8.4407,1.225
22856,13.909,1.1818,0.1,0.00023274,2325.7,0.00023259,2321.5,-7.6386e-05,0.00036207,-7.7503e-05,-8.3926,1.2385
22857,13.633,1.0909,0.1,0.0002399,2397.4,0.00023977,2393.5,-7.8785e-05,0.0010537,-7.9814e-05,-7.7355,1.1984
22858,13.725,1.1818,0.1,0.00023746,2372.9,0.00023733,2369.1,-7.7981e-05,0.00057675,-7.9002e-05,-7.6703,1.2119
22859,13.45,1.0909,0.1,0.00024466,2444.9,0.00024454,2441.4,-8.039e-05,0.0012679,-8.1321e-05,-6.9952,1.172
22860,13.542,1.1818,0.1,0.0002422,2420.3,0.00024208,2416.9,-7.9583e-05,0.00083946,-8.0503e-05,-6.9126,1.1855
22861,13.266,1.0909,0.1,0.00024943,2492.6,0.00024932,2489.4,-8.2003e-05,0.0015705,-8.283e-05,-6.2158,1.1458
22862,13.358,1.1818,0.1,0.00024696,2467.9,0.00024685,2464.8,-8.1193e-05,0.0011822,-8.2007e-05,-6.1153,1.1592
22863,13.083,1.0909,0.1,0.00025422,2540.4,0.00025412,2537.7,-8.3624e-05,0.0019891,-8.4342e-05,-5.3931,1.1197
22864,13.175,1.1818,0.1,0.00025174,2515.6,0.00025165,2513,-8.2811e-05,0.0016948,-8.3513e-05,-5.2738,1.133
22865,12.899,1.0909,0.1,0.00025902,2588.4,0.00025895,2586.2,-8.5253e-05,0.0025935,-8.5855e-05,-4.5226,1.0939
22866,12.991,1.1818,0.1,0.00025653,2563.5,0.00025646,2561.3,-8.4438e-05,0.0024054,-8.5021e-05,-4.3837,1.1071
22867,12.716,1.0909,0.1,0.00026385,2636.6,0.00026378,2634.8,-8.689e-05,0.0036115,-8.737e-05,-3.5999,1.0681
22868,12.808,1.1818,0.1,0.00026134,2611.6,0.00026128,2609.9,-8.6072e-05,0.0035859,-8.653e-05,-3.4403,1.0813
22869,12.532,1.0909,0.1,0.00026869,2685,0.00026864,2683.7,-8.8536e-05,0.0055348,-8.8886e-05,-2.6205,1.0426
22870,12.624,1.1818,0.1,0.00026617,2659.9,0.00026613,2658.6,-8.7715e-05,0.0059233,-8.804e-05,-2.4388,1.0556
22871,12.349,1.0909,0.1,0.00027354,2733.6,0.00027352,2732.8,-9.019e-05,0.010256,-9.0402e-05,-1.5811,1.0173
22872,12.441,1.1818,0.1,0.00027101,2708.3,0.00027099,2707.6,-8.9366e-05,0.01214,-8.955e-05,-1.3768,1.0302
22873,12.165,1.0909,0.1,0.00027842,2782.3,0.00027841,2782,-9.185e-05,0.036828,-9.1921e-05,-0.49549,0.99209
22874,12.257,1.1818,0.1,0.00027588,2756.9,0.00027587,2756.7,-9.1019e-05,0.06592,-9.1067e-05,-0.29211,1.005
22875,11.982,1.0909,0.1,0.00028331,2831.1,0.00028332,2831.5,-9.3427e-05,0.75483,-9.3531e-05,-0.027437,0.9671
22876,12.074,1.1818,0.1,0.00028075,2805.6,0.00028077,2806.1,-9.2563e-05,1.0104,-9.27e-05,-0.021954,0.97988
22877,11.799,1.0909,0.1,0.00028821,2880.2,0.00028825,2881.2,-9.4943e-05,2.005,-9.5211e-05,-0.011801,0.94231
22878,11.89,1.1818,0.1,0.00028565,2854.5,0.00028568,2855.6,-9.4071e-05,2.2969,-9.4378e-05,-0.011115,0.955
22879,11.615,1.0909,0.1,0.00029314,2929.3,0.00029319,2931,-9.6455e-05,3.3529,-9.6902e-05,-0.008121,0.91771
22880,11.707,1.1818,0.1,0.00029055,2903.5,0.00029062,2905.4,-9.5575e-05,3.6801,-9.6066e-05,-0.0079907,0.93031
22881,11.432,1.0909,0.1,0.00029807,2978.7,0.00029816,2981.1,-9.7963e-05,4.795,-9.8603e-05,-0.0065625,0.89331
22882,11.523,1.1818,0.1,0.00029548,2952.7,0.00029556,2955.3,-9.7076e-05,5.161,-9.7764e-05,-0.0065808,0.90581
22883,11.248,1.0909,0.1,0.00030303,3028.2,0.00030313,3031.3,-9.9469e-05,6.3362,-0.00010031,-0.0057766,0.86911
22884,11.34,1.1818,0.1,0.00030042,3002.1,0.00030053,3005.4,-9.8573e-05,6.7455,-9.9471e-05,-0.0057898,0.88151
22885,11.065,1.0909,0.1,0.00030799,3077.8,0.00030813,3081.8,-0.00010097,7.9825,-0.00010203,-0.0053885,0.84511
22886,11.156,1.1818,0.1,0.00030537,3051.6,0.00030551,3055.8,-0.00010007,8.4403,-0.00010119,-0.005381,0.85742
22887,10.881,1.0909,0.1,0.00031298,3127.6,0.00031314,3132.5,-0.00010247,9.7403,-0.00010377,-0.0051974,0.82132
22888,10.973,1.1818,0.1,0.00031033,3101.2,0.00031051,3106.3,-0.00010155,10.253,-0.00010292,-0.0051701,0.83353
22889,10.698,1.0909,0.1,0.00031797,3177.5,0.00031817,3183.3,-0.00010396,11.616,-0.00010551,-0.0051451,0.79774
22890,10.789,1.1818,0.1,0.00031532,3151,0.00031552,3157,-0.00010303,12.19,-0.00010466,-0.0050504,0.80985
22891,10.514,1.0909,0.1,0.00032298,3227.6,0.00032321,3234.4,-0.00010545,13.614,-0.00010726,-0.0052291,0.77438
22892,10.606,1.1818,0.1,0.00032031,3200.9,0.00032055,3208,-0.00010451,14.259,-0.00010641,-0.005058,0.78638
22893,10.331,1.0909,0.1,0.00032801,3277.8,0.00032827,3285.7,-0.00010693,15.742,-0.00010902,-0.0054315,0.75123
22894,10.422,1.1818,0.1,0.00032532,3250.9,0.00032559,3259.1,-0.00010598,16.467,-0.00010817,-0.0051744,0.76313
22895,10.147,1.0909,0.1,0.00033305,3328.2,0.00033335,3337.1,-0.0001084,18.002,-0.0001108,-0.0057234,0.7283
22896,10.239,1.1818,0.1,0.00033034,3301.1,0.00033065,3310.4,-0.00010744,18.82,-0.00010994,-0.0053934,0.74009
22897,9.9637,1.0909,0.1,0.0003381,3378.6,0.00033844,3388.8,-0.00010987,20.4,-0.00011258,-0.0060971,0.7056
22898,10.055,1.1818,0.1,0.00033537,3351.4,0.00033572,3362,-0.00010889,21.324,-0.00011173,-0.0056681,0.71728
22899,9.7802,1.0909,0.1,0.00034316,3429.2,0.00034354,3440.6,-0.00011132,22.936,-0.00011438,-0.006584,0.68312
22900,9.872,1.1818,0.1,0.00034041,3401.8,0.00034081,3413.7,-0.00011033,23.983,-0.00011352,-0.0060342,0.6947
22901,9.5968,1.0909,0.1,0.00034823,3479.9,0.00034866,3492.7,-0.00011277,25.612,-0.00011618,-0.007196,0.66087
22902,9.6885,1.1818,0.1,0.00034547,3452.3,0.00034591,3465.6,-0.00011176,26.801,-0.00011533,-0.00652,0.67234
22903,9.4133,1.0909,0.1,0.00035332,3530.8,0.0003538,3544.9,-0.00011422,28.424,-0.000118,-0.0079477,0.63886
22904,9.505,1.1818,0.1,0.00035053,3502.9,0.00035103,3517.7,-0.00011318,29.779,-0.00011715,-0.0071232,0.65022
22905,9.2298,1.0909,0.1,0.00035842,3581.7,0.00035894,3597.3,-0.00011565,31.368,-0.00011983,-0.0088697,0.61709
22906,9.3215,1.1818,0.1,0.00035561,3553.6,0.00035616,3570,-0.0001146,32.915,-0.00011898,-0.0078763,0.62833
22907,9.0463,1.0909,0.1,0.00036353,3632.8,0.0003641,3649.9,-0.00011708,34.434,-0.00012167,-0.0099966,0.59556
22908,9.1381,1.1818,0.1,0.0003607,3604.5,0.0003613,3622.5,-0.000116,36.206,-0.00012082,-0.0088068,0.60668
22909,8.8628,1.0909,0.1,0.00036865,3683.9,0.00036927,3702.6,-0.00011851,37.607,-0.00012351,-0.011376,0.57427
22910,8.9546,1.1818,0.1,0.0003658,3655.4,0.00036645,3675.1,-0.00011739,39.642,-0.00012267,-0.009957,0.58527
22911,8.6794,1.0909,0.1,0.00037377,3735.2,0.00037445,3755.4,-0.00011992,40.866,-0.00012537,-0.013069,0.55324
22912,8.7711,1.1818,0.1,0.0003709,3706.5,0.00037162,3727.9,-0.00011878,43.211,-0.00012453,-0.01138,0.56412
22913,8.4959,1.0909,0.1,0.00037891,3786.5,0.00037964,3808.4,-0.00012134,44.185,-0.00012722,-0.015158,0.53245
22914,8.5876,1.1818,0.1,0.00037602,3757.6,0.0003768,3780.8,-0.00012016,46.891,-0.0001264,-0.013145,0.54321
22915,8.3124,1.0909,0.1,0.00038405,3837.8,0.00038484,3861.4,-0.00012276,47.525,-0.00012908,-0.017752,0.51192
22916,8.4041,1.1818,0.1,0.00038114,3808.8,0.00038198,3833.9,-0.00012154,50.657,-0.00012828,-0.015345,0.52255
22917,8.1289,1.0909,0.1,0.00038919,3889.3,0.00039003,3914.4,-0.00012418,50.84,-0.00013095,-0.020998,0.49165
22918,8.2206,1.1818,0.1,0.00038628,3860.1,0.00038717,3887,-0.00012291,54.47,-0.00013016,-0.018104,0.50215
22919,7.9454,1.0909,0.1,0.00039434,3940.7,0.00039523,3967.4,-0.0001256,54.069,-0.0001328,-0.025097,0.47164
22920,8.0372,1.1818,0.1,0.00039141,3911.4,0.00039237,3940.2,-0.00012428,58.285,-0.00013204,-0.021587,0.48202
22921,7.7619,1.0909,0.1,0.00039948,3992,0.00040042,4020.3,-0.00012704,57.138,-0.00013465,-0.030329,0.4519
22922,7.8537,1.1818,0.1,0.00039655,3962.8,0.00039757,3993.4,-0.00012566,62.041,-0.00013393,-0.026022,0.46214
22923,7.5785,1.0909,0.1,0.0004046,4043.3,0.00040559,4072.9,-0.0001285,59.954,-0.00013648,-0.037091,0.43243
22924,7.6702,1.1818,0.1,0.00040169,4014.1,0.00040277,4046.5,-0.00012706,65.663,-0.0001358,-0.031722,0.44254
22925,7.395,1.0909,0.1,0.00040971,4094.3,0.00041074,4125.1,-0.00012998,62.408,-0.00013829,-0.045959,0.41323
22926,7.4867,1.1818,0.1,0.00040682,4065.4,0.00040795,4099.5,-0.00012846,69.059,-0.00013766,-0.039132,0.4232
22927,7.2115,1.0909,0.1,0.00041478,4145,0.00041584,4176.8,-0.00013149,64.368,-0.00014006,-0.057787,0.3943
22928,7.3032,1.1818,0.1,0.00041194,4116.6,0.00041312,4152.1,-0.0001299,72.116,-0.0001395,-0.048889,0.40414
22929,7.028,1.0909,0.1,0.00041981,4195.2,0.00042088,4227.6,-0.00013303,65.677,-0.00014178,-0.07388,0.37566
22930,7.1198,1.1818,0.1,0.00041704,4167.5,0.00041826,4204.3,-0.00013136,74.701,-0.00014131,-0.061927,0.38536
22931,6.8445,1.0909,0.1,0.00042475,4244.6,0.00042584,4277.2,-0.00013462,66.155,-0.00014344,-0.096296,0.3573
22932,6.9363,1.1818,0.1,0.00042209,4218,0.00042334,4255.8,-0.00013286,76.655,-0.00014308,-0.07965,0.36686
22933,6.6611,1.0909,0.1,0.00042959,4293,0.00043067,4325.3,-0.00013627,65.593,-0.00014501,-0.1284,0.33923
22934,6.7528,1.1818,0.1,0.00042709,4268,0.00042836,4306.3,-0.00013442,77.794,-0.00014479,-0.10423,0.34865
22935,6.4776,1.0909,0.1,0.00043428,4339.8,0.00043533,4371.3,-0.00013797,63.754,-0.00014647,-0.17599,0.32144
22936,6.5693,1.1818,0.1,0.00043201,4317.1,0.00043328,4355.4,-0.00013603,77.901,-0.00014641,-0.13912,0.33072
22937,6.2941,1.0909,0.1,0.00043877,4384.6,0.00043976,4414.4,-0.00013973,60.373,-0.00014779,-0.24961,0.30395
22938,6.3858,1.1818,0.1,0.0004368,4365,0.00043805,4402.7,-0.00013771,76.731,-0.00014794,-0.19006,0.31309
22939,6.1106,1.0909,0.1,0.00044297,4426.6,0.00044387,4453.8,-0.00014154,55.155,-0.00014893,-0.37014,0.28676
22940,6.2024,1.1818,0.1,0.00044142,4411.2,0.00044263,4447.6,-0.00013946,73.999,-0.00014934,-0.26708,0.29575
22941,5.9271,1.0909,0.1,0.00044679,4464.9,0.00044758,4488.3,-0.00014341,47.782,-0.00014985,-0.58403,0.26986
22942,6.0189,1.1818,0.1,0.00044581,4455,0.00044694,4489.1,-0.00014129,69.378,-0.00015057,-0.38885,0.2787
22943,5.7437,1.0909,0.1,0.00045012,4498.1,0.00045074,4516.5,-0.00014532,37.949,-0.0001505,-1.0144,0.25327
22944,5.8354,1.1818,0.1,0.00044989,4495.8,0.00045091,4526.4,-0.0001432,62.493,-0.0001516,-0.59362,0.26196
22945,5.5602,1.0909,0.1,0.0004528,4524.9,0.00045319,4536.6,-0.00014718,25.561,-0.00015086,-2.0962,0.23698
22946,5.6519,1.1818,0.1,0.00045355,4532.3,0.00045441,4558.1,-0.00014519,52.913,-0.00015236,-0.97123,0.24553
22947,5.3767,1.0909,0.1,0.00045464,4543.3,0.00045474,4546.3,-0.0001487,12.242,-0.00015115,-6.1474,0.22099
22948,5.4684,1.1818,0.1,0.00045667,4563.5,0.00045731,4582.6,-0.00014725,40.218,-0.00015284,-1.7834,0.22939
22949,5.1932,1.0909,0.1,0.00045542,4551.1,0.00045514,4542.9,-0.00014882,5.0351,-0.00015231,-21.184,0.20531
22950,5.285,1.1818,0.1,0.0004591,4587.8,0.00045944,4598,-0.00014925,24.529,-0.00015306,-4.1124,0.21357
22951,5.0097,1.0909,0.1,0.00045489,4545.8,0.00045411,4523.2,-0.00014747,3.1866,-0.00015427,-47.906,0.18993
22952,5.1015,1.1818,0.1,0.00046069,4603.7,0.00046063,4601.9,-0.00015048,10.319,-0.0001537,-13.863,0.19805
22953,4.8263,1.0909,0.1,0.00045278,4524.6,0.00045132,4483.1,-0.00014499,2.6154,-0.00015659,-84.516,0.17486
22954,4.918,1.1818,0.1,0.00046128,4609.6,0.00046065,4591.6,-0.00014978,5.0311,-0.00015587,-40.721,0.18285
22955,4.6428,1.0909,0.1,0.00044883,4485.2,0.00044644,4418,-0.00014123,2.4305,-0.00015936,-133.79,0.16009
22956,4.7345,1.1818,0.1,0.00046073,4604.2,0.00045932,4563.7,-0.0001476,3.5737,-0.00015915,-83.208,0.16795
22957,4.4593,1.0909,0.1,0.00044291,4426,0.00043917,4323,-0.00013586,2.4235,-0.000163,-201.47,0.14561
22958,4.551,1.1818,0.1,0.00045904,4587.2,0.00045646,4514.8,-0.00014402,3.0544,-0.00016364,-144.33,0.15335
22959,4.2758,1.0909,0.1,0.00043507,4347.7,0.00042929,4192.8,-0.0001284,2.562,-0.00016826,-296.93,0.13142
22960,4.3676,1.1818,0.1,0.00045638,4560.7,0.00045201,4441,-0.00013867,2.8868,-0.00017008,-233.12,0.13905
22961,4.0923,1.0909,0.1,0.00042592,4256.3,0.00041688,4023.4,-0.00011824,2.7084,-0.00017645,-434.66,0.11749
22962,4.1841,1.1818,0.1,0.00045335,4530.4,0.00044608,4338.4,-0.00013093,2.9738,-0.00017985,-364.61,0.12504
22963,3.9088,1.0909,0.1,0.00041693,4166.4,0.0004025,3813.9,-0.00010465,3.2781,-0.00018957,-634.77,0.10381
22964,4.0006,1.1818,0.1,0.00045121,4509,0.00043905,4203.2,-0.00011995,3.0998,-0.00019509,-561.42,0.1113
22965,3.7254,1.0909,0.1,0.00041154,4112.5,0.00038792,3572.1,-8.7195e-05,2.2086,-0.00021059,-924.9,0.090342
22966,3.8171,1.1818,0.1,0.00045213,4518.2,0.00043155,4032.5,-0.00010459,4.1102,-0.00021864,-852.79,0.097801
22967,3.5419,1.0909,0.1,0.00042507,4247.8,0.00038396,3380.5,-6.5084e-05,6.6258,-0.00025091,-1389.6,0.077033
22968,3.6336,1.1818,0.1,0.00046051,4601.9,0.00042525,3828.1,-8.413e-05,0.80271,-0.00025433,-1278,0.084509
22969,3.4501,1.1818,0.1,0.00050278,5024.3,0.00043881,3735.9,-5.6918e-05,11.129,-0.00032173,-1978.5,0.071362
22970,3.3584,1.0909,0.1,0.00035931,3590.6,0.00031583,2703.6,-4.4138e-05,-1.0715,-0.00022636,-1370.2,0.06382
22971,23.725,1.2727,0.1,1.6536e-05,165.25,1.0091e-05,58.52,2.279e-06,-0.1757,-1.4742e-05,-128.07,2.8137
22972,23.817,1.3636,0.1,1.6154e-05,161.43,8.5365e-06,39.755,3.2261e-06,-0.14477,-1.5106e-05,-137.89,2.8292
22973,23.908,1.2727,0.1,1.4998e-05,149.87,6.8015e-06,22.439,3.7596e-06,-0.41762,-1.4492e-05,-137.55,2.8446
22974,23.541,1.2727,0.1,1.8626e-05,186.13,1.3542e-05,96.204,7.1196e-07,-0.19502,-1.5014e-05,-118.36,2.7829
22975,23.633,1.3636,0.1,1.796e-05,179.47,1.1984e-05,77.509,1.6291e-06,-0.29579,-1.5332e-05,-127.74,2.7984
22976,23.358,1.2727,0.1,2.1129e-05,211.15,1.7019e-05,133.91,-8.1694e-07,-0.10522,-1.5375e-05,-109.49,2.7521
22977,23.45,1.3636,0.1,2.0249e-05,202.35,1.5453e-05,115.35,8.5411e-08,-0.1196,-1.5643e-05,-118.3,2.7675
22978,23.174,1.2727,0.1,2.3929e-05,239.13,2.053e-05,171.64,-2.3255e-06,-0.08475,-1.582e-05,-101.48,2.7212
22979,23.266,1.3636,0.1,2.2883e-05,228.67,1.8951e-05,153.14,-1.4445e-06,-0.10449,-1.6032e-05,-109.71,2.7367
22980,22.991,1.2727,0.1,2.6948e-05,269.3,2.4078e-05,209.49,-3.812e-06,-0.063851,-1.6347e-05,-94.248,2.6904
22981,23.083,1.3636,0.1,2.577e-05,257.52,2.2478e-05,190.98,-2.9496e-06,-0.074927,-1.6499e-05,-101.88,2.7059
22982,22.807,1.2727,0.1,3.0134e-05,301.14,2.7667e-05,247.51,-5.2813e-06,-0.051672,-1.6952e-05,-87.737,2.6597
22983,22.899,1.3636,0.1,2.8847e-05,288.27,2.6041e-05,228.93,-4.4361e-06,-0.060978,-1.7043e-05,-94.783,2.6751
22984,22.624,1.2727,0.1,3.3451e-05,334.28,3.1297e-05,285.73,-6.7363e-06,-0.042289,-1.7626e-05,-81.866,2.6289
22985,22.716,1.3636,0.1,3.2072e-05,320.5,2.9642e-05,267.05,-5.9062e-06,-0.049622,-1.7658e-05,-88.346,2.6443
22986,22.44,1.2727,0.1,3.6871e-05,368.46,3.4967e-05,324.15,-8.1797e-06,-0.035374,-1.8364e-05,-76.558,2.5981
22987,22.532,1.3636,0.1,3.5415e-05,353.9,3.3282e-05,305.35,-7.3631e-06,-0.041588,-1.8338e-05,-82.505,2.6136
22988,22.257,1.2727,0.1,4.0376e-05,403.48,3.8673e-05,362.78,-9.6139e-06,-0.029984,-1.9158e-05,-71.744,2.5674
22989,22.349,1.3636,0.1,3.8852e-05,388.25,3.6958e-05,343.84,-8.809e-06,-0.035323,-1.9078e-05,-77.194,2.5828
22990,22.073,1.2727,0.1,4.395e-05,439.2,4.2415e-05,401.62,-1.1041e-05,-0.025734,-2.0002e-05,-67.361,2.5367
22991,22.165,1.3636,0.1,4.2367e-05,423.38,4.067e-05,382.53,-1.0246e-05,-0.030422,-1.9871e-05,-72.352,2.5521
22992,21.89,1.2727,0.1,4.7584e-05,475.51,4.6188e-05,440.65,-1.2461e-05,-0.022318,-2.0891e-05,-63.357,2.506
22993,21.982,1.3636,0.1,4.5949e-05,459.17,4.4414e-05,421.41,-1.1676e-05,-0.026488,-2.0713e-05,-67.925,2.5214
22994,21.706,1.2727,0.1,5.1269e-05,512.34,4.9992e-05,479.87,-1.3878e-05,-0.019532,-2.1819e-05,-59.686,2.4754
22995,21.798,1.3636,0.1,4.9587e-05,495.53,4.8191e-05,460.49,-1.31e-05,-0.023287,-2.1597e-05,-63.868,2.4908
22996,21.523,1.2727,0.1,5.5e-05,549.62,5.3825e-05,519.29,-1.529e-05,-0.017226,-2.2783e-05,-56.312,2.4448
22997,21.615,1.3636,0.1,5.3275e-05,532.39,5.1997e-05,499.76,-1.4519e-05,-0.020638,-2.2521e-05,-60.139,2.4602
22998,21.34,1.2727,0.1,5.8771e-05,587.3,5.7684e-05,558.88,-1.6701e-05,-0.015304,-2.3779e-05,-53.202,2.4142
22999,21.431,1.3636,0.1,5.7008e-05,569.69,5.5831e-05,539.21,-1.5935e-05,-0.018422,-2.348e-05,-56.704,2.4296
23000,21.156,1.2727,0.1,6.2579e-05,625.35,6.157e-05,598.66,-1.8109e-05,-0.013687,-2.4805e-05,-50.329,2.3837
23001,21.248,1.3636,0.1,6.0781e-05,607.39,5.9693e-05,578.85,-1.7349e-05,-0.01656,-2.4472e-05,-53.534,2.399
23002,20.973,1.2727,0.1,6.6421e-05,663.75,6.5481e-05,638.62,-1.9516e-05,-0.012305,-2.5859e-05,-47.669,2.3532
23003,21.064,1.3636,0.1,6.4591e-05,645.46,6.3581e-05,618.67,-1.8761e-05,-0.014966,-2.5493e-05,-50.603,2.3685
23004,20.789,1.2727,0.1,7.0295e-05,702.46,6.9417e-05,678.77,-2.0923e-05,-0.011121,-2.6938e-05,-45.203,2.3227
23005,20.881,1.3636,0.1,6.8435e-05,683.88,6.7494e-05,658.67,-2.0171e-05,-0.013598,-2.6543e-05,-47.888,2.338
23006,20.606,1.2727,0.1,7.4199e-05,741.48,7.3376e-05,719.09,-2.233e-05,-0.010095,-2.804e-05,-42.913,2.2923
23007,20.697,1.3636,0.1,7.2312e-05,722.62,7.1433e-05,698.86,-2.1581e-05,-0.012412,-2.7618e-05,-45.37,2.3076
23008,20.422,1.2727,0.1,7.8133e-05,780.79,7.7359e-05,759.59,-2.3738e-05,-0.0091982,-2.9165e-05,-40.784,2.262
23009,20.514,1.3636,0.1,7.6219e-05,761.67,7.5396e-05,739.23,-2.2992e-05,-0.011371,-2.8717e-05,-43.032,2.2772
23010,20.239,1.2727,0.1,8.2094e-05,820.37,8.1365e-05,800.28,-2.5147e-05,-0.0084141,-3.031e-05,-38.802,2.2317
23011,20.33,1.3636,0.1,8.0156e-05,801.01,7.9382e-05,779.79,-2.4403e-05,-0.010457,-2.9839e-05,-40.859,2.2469
23012,20.055,1.2727,0.1,8.6082e-05,860.22,8.5393e-05,841.15,-2.6557e-05,-0.0077276,-3.1475e-05,-36.956,2.2014
23013,20.147,1.3636,0.1,8.4121e-05,840.63,8.3393e-05,820.53,-2.5815e-05,-0.0096514,-3.0982e-05,-38.837,2.2166
23014,19.872,1.2727,0.1,9.0096e-05,900.33,8.9444e-05,882.2,-2.797e-05,-0.0071167,-3.2658e-05,-35.234,2.1712
23015,19.963,1.3636,0.1,8.8113e-05,880.52,8.7426e-05,861.46,-2.7228e-05,-0.0089445,-3.2145e-05,-36.954,2.1864
23016,19.688,1.2727,0.1,9.4135e-05,940.7,9.3518e-05,923.43,-2.9385e-05,-0.0065643,-3.3859e-05,-33.626,2.1411
23017,19.78,1.3636,0.1,9.2132e-05,920.68,9.1482e-05,902.57,-2.8644e-05,-0.0082994,-3.3328e-05,-35.198,2.1563
23018,19.505,1.2727,0.1,9.8199e-05,981.31,9.7613e-05,964.86,-3.0802e-05,-0.0060771,-3.5077e-05,-32.124,2.111
23019,19.596,1.3636,0.1,9.6176e-05,961.1,9.5561e-05,943.88,-3.0062e-05,-0.0077176,-3.4528e-05,-33.561,2.1262
23020,19.321,1.2727,0.1,0.00010229,1022.2,0.00010173,1006.5,-3.2222e-05,-0.0056396,-3.631e-05,-30.718,2.081
23021,19.413,1.3636,0.1,0.00010025,1001.8,9.9663e-05,985.37,-3.1483e-05,-0.0072103,-3.5745e-05,-32.031,2.0961
23022,19.138,1.2727,0.1,0.0001064,1063.3,0.00010587,1048.3,-3.3646e-05,-0.0052387,-3.7559e-05,-29.403,2.0511
23023,19.229,1.3636,0.1,0.00010434,1042.7,0.00010379,1027.1,-3.2906e-05,-0.0067361,-3.6978e-05,-30.601,2.0662
23024,18.954,1.2727,0.1,0.00011054,1104.6,0.00011003,1090.2,-3.5073e-05,-0.0048774,-3.8822e-05,-28.169,2.0212
23025,19.046,1.3636,0.1,0.00010846,1083.9,0.00010793,1068.9,-3.4333e-05,-0.0063087,-3.8227e-05,-29.263,2.0363
23026,18.771,1.2727,0.1,0.0001147,1146.2,0.00011421,1132.4,-3.6504e-05,-0.0045423,-4.0099e-05,-27.011,1.9914
23027,18.863,1.3636,0.1,0.0001126,1125.3,0.0001121,1111,-3.5764e-05,-0.0059198,-3.9491e-05,-28.009,2.0064
23028,18.587,1.2727,0.1,0.00011888,1188,0.00011842,1174.8,-3.7939e-05,-0.0042345,-4.1389e-05,-25.923,1.9617
23029,18.679,1.3636,0.1,0.00011677,1166.9,0.00011629,1153.2,-3.7198e-05,-0.0055513,-4.0768e-05,-26.833,1.9767
23030,18.404,1.2727,0.1,0.00012308,1230,0.00012264,1217.4,-3.9379e-05,-0.0039574,-4.2692e-05,-24.899,1.9321
23031,18.496,1.3636,0.1,0.00012096,1208.8,0.0001205,1195.7,-3.8636e-05,-0.0052197,-4.206e-05,-25.728,1.947
23032,18.22,1.2727,0.1,0.00012731,1272.2,0.00012689,1260.1,-4.0822e-05,-0.0037086,-4.4007e-05,-23.933,1.9025
23033,18.312,1.3636,0.1,0.00012517,1250.9,0.00012474,1238.3,-4.0079e-05,-0.0049194,-4.3364e-05,-24.687,1.9174
23034,18.037,1.2727,0.1,0.00013156,1314.7,0.00013116,1303.1,-4.2271e-05,-0.0034752,-4.5334e-05,-23.02,1.8731
23035,18.129,1.3636,0.1,0.00012941,1293.2,0.00012899,1281.2,-4.1526e-05,-0.0046506,-4.468e-05,-23.707,1.8879
23036,17.853,1.2727,0.1,0.00013583,1357.4,0.00013544,1346.2,-4.3724e-05,-0.00325,-4.6672e-05,-22.156,1.8437
23037,17.945,1.3636,0.1,0.00013367,1335.7,0.00013326,1324.2,-4.2977e-05,-0.0043829,-4.6009e-05,-22.78,1.8585
23038,17.67,1.2727,0.1,0.00014013,1400.3,0.00013975,1389.5,-4.5182e-05,-0.0030515,-4.8021e-05,-21.335,1.8144
23039,17.762,1.3636,0.1,0.00013795,1378.5,0.00013756,1367.4,-4.4434e-05,-0.0041344,-4.7348e-05,-21.902,1.8292
23040,17.486,1.2727,0.1,0.00014444,1443.4,0.00014408,1433.1,-4.6645e-05,-0.0028688,-4.938e-05,-20.554,1.7852
23041,17.578,1.3636,0.1,0.00014225,1421.5,0.00014188,1410.9,-4.5895e-05,-0.0039233,-4.8699e-05,-21.069,1.7999
23042,17.303,1.2727,0.1,0.00014878,1486.8,0.00014843,1476.8,-4.8113e-05,-0.0026911,-5.0749e-05,-19.809,1.7561
23043,17.395,1.3636,0.1,0.00014657,1464.7,0.00014622,1454.5,-4.7362e-05,-0.0037088,-5.006e-05,-20.275,1.7708
23044,17.119,1.2727,0.1,0.00015314,1530.3,0.0001528,1520.7,-4.9587e-05,-0.002527,-5.2128e-05,-19.094,1.7271
23045,17.211,1.3636,0.1,0.00015092,1508.2,0.00015058,1498.3,-4.8834e-05,-0.0035117,-5.1431e-05,-19.517,1.7417
23046,16.936,1.2727,0.1,0.00015752,1574.1,0.0001572,1564.8,-5.1067e-05,-0.0023669,-5.3516e-05,-18.408,1.6982
23047,17.028,1.3636,0.1,0.00015529,1551.8,0.00015496,1542.3,-5.0311e-05,-0.0033285,-5.2811e-05,-18.79,1.7128
23048,16.753,1.2727,0.1,0.00016192,1618.1,0.00016161,1609.1,-5.2552e-05,-0.0022113,-5.4913e-05,-17.745,1.6694
23049,16.844,1.3636,0.1,0.00015967,1595.6,0.00015936,1586.5,-5.1794e-05,-0.0031395,-5.4201e-05,-18.09,1.6839
23050,16.569,1.2727,0.1,0.00016634,1662.2,0.00016604,1653.6,-5.4043e-05,-0.0020723,-5.6319e-05,-17.103,1.6407
23051,16.661,1.3636,0.1,0.00016408,1639.7,0.00016378,1630.9,-5.3283e-05,-0.0029677,-5.56e-05,-17.414,1.6552
23052,16.386,1.2727,0.1,0.00017078,1706.6,0.00017049,1698.3,-5.5539e-05,-0.00195,-5.7732e-05,-16.478,1.6121
23053,16.477,1.3636,0.1,0.00016851,1684,0.00016822,1675.5,-5.4777e-05,-0.0028143,-5.7007e-05,-16.757,1.6266
23054,16.202,1.2727,0.1,0.00017524,1751.2,0.00017497,1743.2,-5.7042e-05,-0.0018259,-5.9154e-05,-15.867,1.5837
23055,16.294,1.3636,0.1,0.00017296,1728.4,0.00017268,1720.3,-5.6278e-05,-0.0026769,-5.8422e-05,-16.117,1.5981
23056,16.019,1.2727,0.1,0.00017972,1796,0.00017946,1788.3,-5.8551e-05,-0.0016944,-6.0583e-05,-15.265,1.5553
23057,16.11,1.3636,0.1,0.00017743,1773.1,0.00017716,1765.3,-5.7784e-05,-0.0025217,-5.9845e-05,-15.489,1.5697
23058,15.835,1.2727,0.1,0.00018423,1841,0.00018397,1833.6,-6.0067e-05,-0.0015804,-6.2019e-05,-14.671,1.5271
23059,15.927,1.3636,0.1,0.00018192,1818,0.00018167,1810.5,-5.9297e-05,-0.0023692,-6.1276e-05,-14.87,1.5414
23060,15.652,1.2727,0.1,0.00018875,1886.2,0.00018851,1879.1,-6.1588e-05,-0.0014706,-6.3462e-05,-14.081,1.499
23061,15.743,1.3636,0.1,0.00018643,1863.1,0.00018619,1855.9,-6.0816e-05,-0.0022499,-6.2713e-05,-14.257,1.5132
23062,15.468,1.2727,0.1,0.00019329,1931.6,0.00019306,1924.8,-6.3117e-05,-0.0013523,-6.4912e-05,-13.491,1.471
23063,15.56,1.3636,0.1,0.00019097,1908.3,0.00019073,1901.5,-6.2342e-05,-0.0021076,-6.4158e-05,-13.647,1.4852
23064,15.285,1.2727,0.1,0.00019785,1977.2,0.00019763,1970.7,-6.4651e-05,-0.0012386,-6.6368e-05,-12.898,1.4432
23065,15.376,1.3636,0.1,0.00019552,1953.8,0.00019529,1947.3,-6.3874e-05,-0.0019707,-6.5608e-05,-13.034,1.4573
23066,15.101,1.2727,0.1,0.00020243,2022.9,0.00020222,2016.8,-6.6193e-05,-0.0011145,-6.783e-05,-12.299,1.4155
23067,15.193,1.3636,0.1,0.00020009,1999.5,0.00019987,1993.2,-6.5412e-05,-0.0018377,-6.7065e-05,-12.418,1.4295
23068,14.918,1.2727,0.1,0.00020703,2068.9,0.00020683,2063,-6.7741e-05,-0.00098148,-6.9297e-05,-11.691,1.3879
23069,15.009,1.3636,0.1,0.00020467,2045.3,0.00020447,2039.4,-6.6958e-05,-0.001679,-6.8527e-05,-11.793,1.4019
23070,14.734,1.2727,0.1,0.00021165,2115.1,0.00021146,2109.5,-6.9296e-05,-0.00085341,-7.077e-05,-11.07,1.3605
23071,14.826,1.3636,0.1,0.00020928,2091.4,0.00020909,2085.8,-6.851e-05,-0.0015251,-6.9995e-05,-11.156,1.3744
23072,14.551,1.2727,0.1,0.00021629,2161.4,0.00021611,2156.2,-7.0859e-05,-0.00072846,-7.2247e-05,-10.433,1.3332
23073,14.642,1.3636,0.1,0.00021391,2137.6,0.00021373,2132.4,-7.007e-05,-0.001374,-7.1467e-05,-10.504,1.347
23074,14.367,1.2727,0.1,0.00022095,2208,0.00022078,2203,-7.2428e-05,-0.0005815,-7.3729e-05,-9.776,1.306
23075,14.459,1.3636,0.1,0.00021856,2184.1,0.00021839,2179.1,-7.1636e-05,-0.0012243,-7.2945e-05,-9.8334,1.3198
23076,14.184,1.2727,0.1,0.00022562,2254.7,0.00022547,2250.1,-7.4005e-05,-0.00039888,-7.5215e-05,-9.0953,1.279
23077,14.276,1.3636,0.1,0.00022322,2230.7,0.00022306,2226.1,-7.321e-05,-0.0010237,-7.4426e-05,-9.1394,1.2927
23078,14,1.2727,0.1,0.00023032,2301.6,0.00023017,2297.4,-7.5589e-05,-0.00020678,-7.6705e-05,-8.3873,1.2522
23079,14.092,1.3636,0.1,0.0002279,2277.5,0.00022776,2273.2,-7.4791e-05,-0.00079478,-7.5911e-05,-8.4185,1.2658
23080,13.817,1.2727,0.1,0.00023503,2348.7,0.0002349,2344.8,-7.718e-05,2.1708e-05,-7.8198e-05,-7.6479,1.2255
23081,13.909,1.3636,0.1,0.0002326,2324.4,0.00023247,2320.6,-7.6379e-05,-0.00056257,-7.74e-05,-7.6665,1.239
23082,13.633,1.2727,0.1,0.00023976,2395.9,0.00023964,2392.5,-7.878e-05,0.00032059,-7.9694e-05,-6.8727,1.1989
23083,13.725,1.3636,0.1,0.00023732,2371.6,0.00023721,2368.1,-7.7976e-05,-0.00024089,-7.8891e-05,-6.879,1.2124
23084,13.45,1.2727,0.1,0.00024451,2443.4,0.0002444,2440.3,-8.0387e-05,0.00070438,-8.1193e-05,-6.0575,1.1725
23085,13.542,1.3636,0.1,0.00024206,2418.9,0.00024196,2415.9,-7.958e-05,0.00016623,-8.0385e-05,-6.0515,1.186
23086,13.266,1.2727,0.1,0.00024927,2491,0.00024918,2488.4,-8.2002e-05,0.0012505,-8.2694e-05,-5.1977,1.1463
23087,13.358,1.3636,0.1,0.00024681,2466.4,0.00024672,2463.8,-8.1192e-05,0.0007171,-8.1881e-05,-5.1793,1.1597
23088,13.083,1.2727,0.1,0.00025405,2538.8,0.00025398,2536.6,-8.3625e-05,0.0020536,-8.4196e-05,-4.2884,1.1203
23089,13.175,1.3636,0.1,0.00025158,2514.1,0.00025151,2512,-8.2812e-05,0.0015687,-8.3379e-05,-4.2574,1.1335
23090,12.899,1.2727,0.1,0.00025885,2586.7,0.0002588,2585.1,-8.5256e-05,0.0033613,-8.5699e-05,-3.3249,1.0944
23091,12.991,1.3636,0.1,0.00025637,2562,0.00025632,2560.3,-8.444e-05,0.0029205,-8.4877e-05,-3.2809,1.1076
23092,12.716,1.2727,0.1,0.00026367,2634.9,0.00026363,2633.7,-8.6896e-05,0.0059916,-8.7203e-05,-2.3024,1.0687
23093,12.808,1.3636,0.1,0.00026118,2610,0.00026114,2608.8,-8.6076e-05,0.0056466,-8.6376e-05,-2.2449,1.0818
23094,12.532,1.2727,0.1,0.0002685,2683.2,0.00026848,2682.6,-8.8544e-05,0.013642,-8.8708e-05,-1.219,1.0432
23095,12.624,1.3636,0.1,0.000266,2658.1,0.00026598,2657.6,-8.7721e-05,0.013973,-8.7875e-05,-1.1476,1.0562
23096,12.349,1.2727,0.1,0.00027335,2731.6,0.00027335,2731.6,-9.0187e-05,0.12075,-9.0225e-05,-0.16302,1.0178
23097,12.441,1.3636,0.1,0.00027083,2706.5,0.00027083,2706.5,-8.9355e-05,0.16416,-8.9393e-05,-0.1192,1.0308
23098,12.165,1.2727,0.1,0.00027821,2780.2,0.00027823,2780.8,-9.1708e-05,1.218,-9.1872e-05,-0.01894,0.99269
23099,12.257,1.3636,0.1,0.00027568,2754.9,0.00027571,2755.6,-9.0865e-05,1.321,-9.1043e-05,-0.017695,1.0055
23100,11.982,1.2727,0.1,0.00028309,2829,0.00028314,2830.2,-9.3208e-05,2.536,-9.3547e-05,-0.01059,0.96771
23101,12.074,1.3636,0.1,0.00028055,2803.6,0.0002806,2804.9,-9.2359e-05,2.6584,-9.2715e-05,-0.010373,0.98046
23102,11.799,1.2727,0.1,0.00028799,2877.9,0.00028805,2879.9,-9.4705e-05,3.9517,-9.5232e-05,-0.0078641,0.94293
23103,11.89,1.3636,0.1,0.00028543,2852.4,0.0002855,2854.4,-9.3851e-05,4.0949,-9.4397e-05,-0.0078426,0.95558
23104,11.615,1.2727,0.1,0.0002929,2927,0.00029299,2929.7,-9.6199e-05,5.4679,-9.6927e-05,-0.0065622,0.91834
23105,11.707,1.3636,0.1,0.00029033,2901.3,0.00029043,2904.1,-9.5338e-05,5.6342,-9.6089e-05,-0.0065928,0.9309
23106,11.432,1.2727,0.1,0.00029782,2976.2,0.00029794,2979.7,-9.7688e-05,7.0916,-9.8633e-05,-0.0058179,0.89395
23107,11.523,1.3636,0.1,0.00029524,2950.4,0.00029536,2954,-9.682e-05,7.2838,-9.7791e-05,-0.0058778,0.90641
23108,11.248,1.2727,0.1,0.00030276,3025.5,0.00030291,3029.9,-9.9172e-05,8.8303,-0.00010035,-0.0053751,0.86976
23109,11.34,1.3636,0.1,0.00030017,2999.6,0.00030032,3004.1,-9.8298e-05,9.0521,-9.9503e-05,-0.0053954,0.88213
23110,11.065,1.2727,0.1,0.00030771,3075,0.00030789,3080.3,-0.00010065,10.692,-0.00010207,-0.0051365,0.84577
23111,11.156,1.3636,0.1,0.0003051,3048.9,0.00030529,3054.4,-9.9768e-05,10.947,-0.00010123,-0.0051288,0.85804
23112,10.881,1.2727,0.1,0.00031268,3124.6,0.00031289,3130.9,-0.00010212,12.684,-0.00010381,-0.0049983,0.82199
23113,10.973,1.3636,0.1,0.00031005,3098.4,0.00031027,3104.9,-0.00010123,12.979,-0.00010296,-0.0049747,0.83416
23114,10.698,1.2727,0.1,0.00031765,3174.3,0.0003179,3181.7,-0.00010359,14.816,-0.00010556,-0.004943,0.79842
23115,10.789,1.3636,0.1,0.00031502,3148,0.00031527,3155.5,-0.00010269,15.156,-0.00010471,-0.0048613,0.81049
23116,10.514,1.2727,0.1,0.00032264,3224.2,0.00032293,3232.7,-0.00010504,17.095,-0.00010732,-0.0049893,0.77506
23117,10.606,1.3636,0.1,0.00031999,3197.7,0.00032028,3206.4,-0.00010413,17.487,-0.00010646,-0.0048418,0.78703
23118,10.331,1.2727,0.1,0.00032764,3274.2,0.00032797,3283.9,-0.00010649,19.529,-0.00010909,-0.0051293,0.75192
23119,10.422,1.3636,0.1,0.00032498,3247.5,0.00032531,3257.5,-0.00010557,19.983,-0.00010823,-0.0049071,0.76378
23120,10.147,1.2727,0.1,0.00033266,3324.3,0.00033303,3335.3,-0.00010793,22.126,-0.00011087,-0.0053388,0.729
23121,10.239,1.3636,0.1,0.00032997,3297.4,0.00033035,3308.7,-0.000107,22.652,-0.00011001,-0.0050557,0.74076
23122,9.9637,1.2727,0.1,0.00033768,3374.5,0.0003381,3386.9,-0.00010935,24.892,-0.00011267,-0.0056142,0.70631
23123,10.055,1.3636,0.1,0.00033498,3347.5,0.00033541,3360.2,-0.00010841,25.503,-0.0001118,-0.0052439,0.71795
23124,9.7802,1.2727,0.1,0.00034272,3424.8,0.00034318,3438.7,-0.00011077,27.833,-0.00011447,-0.0059881,0.68384
23125,9.872,1.3636,0.1,0.00034,3397.6,0.00034047,3411.8,-0.00010981,28.545,-0.00011361,-0.0055088,0.69538
23126,9.5968,1.2727,0.1,0.00034777,3475.3,0.00034828,3490.6,-0.00011217,30.954,-0.00011629,-0.0064744,0.6616
23127,9.6885,1.3636,0.1,0.00034503,3447.9,0.00034556,3463.7,-0.0001112,31.785,-0.00011543,-0.0058791,0.67303
23128,9.4133,1.2727,0.1,0.00035282,3525.8,0.00035339,3542.8,-0.00011356,34.256,-0.00011813,-0.007089,0.6396
23129,9.505,1.3636,0.1,0.00035006,3498.2,0.00035065,3515.7,-0.00011257,35.229,-0.00011726,-0.006353,0.65091
23130,9.2298,1.2727,0.1,0.00035789,3576.4,0.00035852,3595.2,-0.00011495,37.74,-0.00011997,-0.0078616,0.61784
23131,9.3215,1.3636,0.1,0.00035511,3548.7,0.00035576,3567.9,-0.00011393,38.881,-0.00011911,-0.0069629,0.62903
23132,9.0463,1.2727,0.1,0.00036297,3627.2,0.00036365,3647.7,-0.00011631,41.402,-0.00012183,-0.0088272,0.59631
23133,9.1381,1.3636,0.1,0.00036017,3599.2,0.00036088,3620.4,-0.00011528,42.743,-0.00012097,-0.0077355,0.60739
23134,8.8628,1.2727,0.1,0.00036806,3678,0.0003688,3700.4,-0.00011767,45.234,-0.00012369,-0.010034,0.57503
23135,8.9546,1.3636,0.1,0.00036523,3649.8,0.00036601,3673,-0.00011661,46.814,-0.00012284,-0.008712,0.58599
23136,8.6794,1.2727,0.1,0.00037315,3728.9,0.00037397,3753.3,-0.00011902,49.224,-0.00012557,-0.011543,0.554
23137,8.7711,1.3636,0.1,0.00037031,3700.5,0.00037115,3725.8,-0.00011792,51.088,-0.00012472,-0.0099439,0.56484
23138,8.4959,1.2727,0.1,0.00037826,3780,0.00037914,3806.4,-0.00012036,53.352,-0.00012746,-0.013437,0.53322
23139,8.5876,1.3636,0.1,0.0003754,3751.4,0.00037631,3778.8,-0.00011923,55.555,-0.00012662,-0.0115,0.54394
23140,8.3124,1.2727,0.1,0.00038337,3831.1,0.00038432,3859.6,-0.00012169,57.591,-0.00012936,-0.015821,0.5127
23141,8.4041,1.3636,0.1,0.00038049,3802.3,0.00038148,3832,-0.00012052,60.199,-0.00012853,-0.013469,0.52329
23142,8.1289,1.2727,0.1,0.0003885,3882.3,0.00038951,3912.9,-0.00012302,61.905,-0.00013126,-0.018841,0.49244
23143,8.2206,1.3636,0.1,0.0003856,3853.3,0.00038666,3885.4,-0.0001218,64.995,-0.00013045,-0.015969,0.5029
23144,7.9454,1.2727,0.1,0.00039363,3933.6,0.00039471,3966.3,-0.00012435,66.247,-0.00013317,-0.022688,0.47243
23145,8.0372,1.3636,0.1,0.00039071,3904.4,0.00039186,3938.9,-0.00012308,69.91,-0.00013238,-0.01916,0.48276
23146,7.7619,1.2727,0.1,0.00039877,3984.9,0.00039992,4019.7,-0.00012568,70.556,-0.00013508,-0.027628,0.4527
23147,7.8537,1.3636,0.1,0.00039584,3955.7,0.00039706,3992.6,-0.00012435,74.899,-0.00013432,-0.023252,0.4629
23148,7.5785,1.2727,0.1,0.00040391,4036.3,0.00040513,4073.2,-0.00012703,74.756,-0.00013698,-0.034026,0.43323
23149,7.6702,1.3636,0.1,0.00040098,4007.1,0.00040228,4046.4,-0.00012563,79.905,-0.00013627,-0.028536,0.4433
23150,7.395,1.2727,0.1,0.00040906,4087.7,0.00041034,4126.5,-0.00012839,78.754,-0.00013887,-0.042394,0.41403
23151,7.4867,1.3636,0.1,0.00040614,4058.6,0.00040751,4100.3,-0.00012691,84.855,-0.00013821,-0.03541,0.42397
23152,7.2115,1.2727,0.1,0.0004142,4139.1,0.00041554,4179.7,-0.00012977,82.435,-0.00014075,-0.053466,0.39511
23153,7.3032,1.3636,0.1,0.0004113,4110.2,0.00041275,4154.2,-0.00012821,89.659,-0.00014015,-0.04443,0.40491
23154,7.028,1.2727,0.1,0.00041933,4190.4,0.00042072,4232.5,-0.0001312,85.665,-0.00014261,-0.068307,0.37647
23155,7.1198,1.3636,0.1,0.00041648,4161.9,0.000418,4208.2,-0.00012954,94.206,-0.00014208,-0.056382,0.38613
23156,6.8445,1.2727,0.1,0.00042444,4241.5,0.00042587,4284.9,-0.00013266,88.279,-0.00014442,-0.088498,0.35812
23157,6.9363,1.3636,0.1,0.00042166,4213.7,0.00042324,4262,-0.0001309,98.362,-0.000144,-0.072395,0.36764
23158,6.6611,1.2727,0.1,0.00042951,4292.1,0.00043097,4336.4,-0.00013418,90.088,-0.00014619,-0.11644,0.34005
23159,6.7528,1.3636,0.1,0.00042684,4265.5,0.00042848,4315.5,-0.0001323,101.96,-0.00014589,-0.094118,0.34943
23160,6.4776,1.2727,0.1,0.00043453,4342.3,0.000436,4386.9,-0.00013577,90.866,-0.00014788,-0.1559,0.32227
23161,6.5693,1.3636,0.1,0.00043202,4317.3,0.00043371,4368.6,-0.00013377,104.82,-0.00014774,-0.12401,0.3315
23162,6.2941,1.2727,0.1,0.00043946,4391.6,0.00044092,4435.9,-0.00013744,90.352,-0.00014949,-0.21296,0.30479
23163,6.3858,1.3636,0.1,0.00043719,4368.9,0.0004389,4421.2,-0.00013532,106.7,-0.00014954,-0.16585,0.31387
23164,6.1106,1.2727,0.1,0.00044427,4439.6,0.0004457,4482.9,-0.0001392,88.235,-0.00015098,-0.29793,0.2876
23165,6.2024,1.3636,0.1,0.00044232,4420.2,0.00044404,4472.7,-0.00013695,107.33,-0.00015127,-0.22554,0.29654
23166,5.9271,1.2727,0.1,0.0004489,4485.9,0.00045027,4527.2,-0.00014107,84.143,-0.00015232,-0.42934,0.27071
23167,6.0189,1.3636,0.1,0.0004474,4470.9,0.00044911,4523,-0.00013871,106.36,-0.00015291,-0.31282,0.2795
23168,5.7437,1.2727,0.1,0.0004533,4529.9,0.00045456,4567.9,-0.00014306,77.617,-0.00015347,-0.64334,0.25412
23169,5.8354,1.3636,0.1,0.0004524,4520.9,0.00045406,4571.5,-0.0001406,103.38,-0.00015442,-0.44446,0.26277
23170,5.5602,1.2727,0.1,0.0004574,4570.8,0.0004585,4603.9,-0.00014519,68.082,-0.00015439,-1.0198,0.23784
23171,5.6519,1.3636,0.1,0.00045729,4569.7,0.00045886,4617.5,-0.00014267,97.83,-0.00015578,-0.65171,0.24634
23172,5.3767,1.2727,0.1,0.00046109,4607.7,0.00046197,4634,-0.00014748,54.828,-0.00015501,-1.7712,0.22187
23173,5.4684,1.3636,0.1,0.00046202,4617.1,0.00046346,4660.4,-0.00014496,88.96,-0.00015694,-0.9993,0.23022
23174,5.1932,1.2727,0.1,0.00046429,4639.7,0.00046485,4656.4,-0.00014992,37.253,-0.00015536,-3.67,0.20621
23175,5.285,1.3636,0.1,0.00046659,4662.6,0.0004678,4699.2,-0.00014755,75.731,-0.00015785,-1.6454,0.21441
23176,5.0097,1.2727,0.1,0.00046693,4666.1,0.00046704,4669.3,-0.00015207,17.557,-0.00015588,-11.049,0.19086
23177,5.1015,1.3636,0.1,0.00047096,4706.4,0.00047185,4732.9,-0.00015051,56.804,-0.00015848,-3.0941,0.19892
23178,4.8263,1.2727,0.1,0.00046896,4686.4,0.00046841,4670.4,-0.00015223,7.1751,-0.00015835,-38.774,0.17583
23179,4.918,1.3636,0.1,0.0004752,4748.7,0.00047559,4760.5,-0.00015377,31.765,-0.00015904,-7.8688,0.18374
23180,4.6428,1.2727,0.1,0.00047045,4701.2,0.00046891,4657.3,-0.00015035,4.4691,-0.00016303,-90.8,0.1611
23181,4.7345,1.3636,0.1,0.00047945,4791.2,0.00047909,4780.9,-0.0001557,11.403,-0.00016142,-31.57,0.16888
23182,4.4593,1.2727,0.1,0.00047163,4713,0.00046855,4627.2,-0.00014682,3.5725,-0.00016997,-170.4,0.14669
23183,4.551,1.3636,0.1,0.00048405,4837.2,0.00048251,4793.2,-0.00015467,5.7508,-0.0001677,-92.165,0.15434
23184,4.2758,1.2727,0.1,0.00047307,4727.5,0.00046749,4576.8,-0.0001412,3.2868,-0.00018037,-291,0.13258
23185,4.3676,1.3636,0.1,0.00048971,4893.7,0.00048621,4796.7,-0.00015163,4.1979,-0.00017778,-192.25,0.14011
23186,4.0923,1.2727,0.1,0.00047585,4755.2,0.00046603,4501.5,-0.00013264,3.3357,-0.00019626,-474.65,0.11876
23187,4.1841,1.3636,0.1,0.00049767,4973.3,0.00049083,4790.6,-0.00014625,3.8024,-0.00019337,-350.26,0.1262
23188,3.9088,1.2727,0.1,0.00048162,4812.9,0.00046442,4394.2,-0.00011989,3.9162,-0.00022047,-751.82,0.10521
23189,4.0006,1.3636,0.1,0.00051001,5096.6,0.00049719,4772,-0.00013739,3.9494,-0.00021771,-599.53,0.11258
23190,3.7254,1.2727,0.1,0.0004933,4929.6,0.00046312,4245.2,-0.00010152,2.7304,-0.00025663,-1162.7,0.091912
23191,3.8171,1.3636,0.1,0.0005299,5295.4,0.00050613,4733.1,-0.00012319,4.675,-0.00025538,-988.53,0.099249
23192,3.5419,1.2727,0.1,0.00052615,5257.8,0.00047164,4119.8,-7.5908e-05,5.7285,-0.00031674,-1803.8,0.078809
23193,3.6336,1.3636,0.1,0.00056104,5606.5,0.00051713,4646.5,-0.00010105,1.714,-0.00031174,-1581.3,0.086162
23194,3.4501,1.3636,0.1,0.00063341,6329.7,0.00054922,4649.6,-6.6706e-05,21.797,-0.0004108,-2563.6,0.07326
23195,3.3584,1.2727,0.1,0.00045052,4502.1,0.00039155,3311.9,-5.036e-05,-8.3961,-0.00029045,-1812.4,0.065829
23196,23.725,1.4545,0.1,1.7456e-05,174.44,1.0422e-05,58.684,2.5862e-06,-0.18969,-1.5698e-05,-137.57,2.8138
23197,23.817,1.5455,0.1,1.7024e-05,170.12,8.8305e-06,39.754,3.518e-06,-0.1625,-1.5995e-05,-146.78,2.8293
23198,23.908,1.4545,0.1,1.5957e-05,159.46,7.1201e-06,22.43,4.0785e-06,-0.4232,-1.5459e-05,-147.22,2.8447
23199,23.541,1.4545,0.1,1.9503e-05,194.9,1.3896e-05,96.656,1.0047e-06,-0.20448,-1.5964e-05,-127.7,2.783
23200,23.633,1.5455,0.1,1.8802e-05,187.89,1.2303e-05,77.786,1.9102e-06,-0.30559,-1.6224e-05,-136.56,2.7985
23201,23.358,1.4545,0.1,2.1953e-05,219.37,1.7387e-05,134.6,-5.414e-07,-0.1129,-1.6303e-05,-118.54,2.7522
23202,23.45,1.5455,0.1,2.1047e-05,210.33,1.579e-05,115.87,3.5211e-07,-0.12673,-1.6522e-05,-126.92,2.7676
23203,23.174,1.4545,0.1,2.4693e-05,246.76,2.0902e-05,172.5,-2.0683e-06,-0.091708,-1.6715e-05,-110.14,2.7214
23204,23.266,1.5455,0.1,2.3631e-05,236.14,1.9297e-05,153.85,-1.1941e-06,-0.11085,-1.6888e-05,-118.03,2.7368
23205,22.991,1.4545,0.1,2.7651e-05,276.32,2.4445e-05,210.45,-3.5735e-06,-0.070293,-1.7199e-05,-102.45,2.6906
23206,23.083,1.5455,0.1,2.6463e-05,264.45,2.2825e-05,191.83,-2.716e-06,-0.080706,-1.7322e-05,-109.83,2.706
23207,22.807,1.4545,0.1,3.0776e-05,307.55,2.8021e-05,248.51,-5.0608e-06,-0.057747,-1.7754e-05,-95.43,2.6598
23208,22.899,1.5455,0.1,2.9486e-05,294.65,2.6382e-05,229.86,-4.2193e-06,-0.066401,-1.7825e-05,-102.29,2.6752
23209,22.624,1.4545,0.1,3.4033e-05,340.09,3.1632e-05,286.71,-6.5329e-06,-0.048057,-1.8375e-05,-89.027,2.629
23210,22.716,1.5455,0.1,3.2656e-05,326.33,2.997e-05,268,-5.7057e-06,-0.054765,-1.8393e-05,-95.385,2.6444
23211,22.44,1.4545,0.1,3.7396e-05,373.7,3.5279e-05,325.08,-7.9923e-06,-0.040868,-1.9058e-05,-83.185,2.5983
23212,22.532,1.5455,0.1,3.5945e-05,359.2,3.3591e-05,306.28,-7.1779e-06,-0.046497,-1.9025e-05,-89.058,2.6137
23213,22.257,1.4545,0.1,4.0846e-05,408.18,3.8961e-05,363.64,-9.4411e-06,-0.03522,-1.9797e-05,-77.849,2.5675
23214,22.349,1.5455,0.1,3.933e-05,393.03,3.7246e-05,344.72,-8.6381e-06,-0.040019,-1.9714e-05,-83.261,2.583
23215,22.073,1.4545,0.1,4.437e-05,443.4,4.2676e-05,402.38,-1.0881e-05,-0.030724,-2.0588e-05,-72.964,2.5368
23216,22.165,1.5455,0.1,4.2797e-05,427.68,4.0935e-05,383.33,-1.0088e-05,-0.034917,-2.0457e-05,-77.945,2.5522
23217,21.89,1.4545,0.1,4.7957e-05,479.24,4.6423e-05,441.31,-1.2314e-05,-0.027071,-2.1425e-05,-68.485,2.5062
23218,21.982,1.5455,0.1,4.6333e-05,463.01,4.4656e-05,422.13,-1.153e-05,-0.030789,-2.125e-05,-73.063,2.5216
23219,21.706,1.4545,0.1,5.1599e-05,515.64,5.0202e-05,480.42,-1.3742e-05,-0.024058,-2.2305e-05,-64.37,2.4755
23220,21.798,1.5455,0.1,4.9929e-05,498.95,4.8408e-05,461.11,-1.2965e-05,-0.0274,-2.2088e-05,-68.573,2.4909
23221,21.523,1.4545,0.1,5.529e-05,552.52,5.401e-05,519.73,-1.5164e-05,-0.021539,-2.3224e-05,-60.58,2.4449
23222,21.615,1.5455,0.1,5.3578e-05,535.42,5.219e-05,500.27,-1.4395e-05,-0.024572,-2.2968e-05,-64.439,2.4603
23223,21.34,1.4545,0.1,5.9025e-05,589.84,5.7846e-05,559.22,-1.6584e-05,-0.019416,-2.4179e-05,-57.085,2.4144
23224,21.431,1.5455,0.1,5.7275e-05,572.36,5.6002e-05,539.62,-1.582e-05,-0.022186,-2.3886e-05,-60.625,2.4297
23225,21.156,1.4545,0.1,6.28e-05,627.57,6.171e-05,598.9,-1.8001e-05,-0.017605,-2.5166e-05,-53.856,2.3838
23226,21.248,1.5455,0.1,6.1015e-05,609.73,5.9842e-05,579.16,-1.7242e-05,-0.02016,-2.4839e-05,-57.102,2.3992
23227,20.973,1.4545,0.1,6.6612e-05,665.66,6.5601e-05,638.76,-1.9415e-05,-0.016047,-2.6184e-05,-50.869,2.3534
23228,21.064,1.5455,0.1,6.4794e-05,647.5,6.371e-05,618.89,-1.8661e-05,-0.018411,-2.5825e-05,-53.845,2.3687
23229,20.789,1.4545,0.1,7.0459e-05,704.1,6.9517e-05,678.81,-2.0829e-05,-0.014696,-2.7229e-05,-48.101,2.3229
23230,20.881,1.5455,0.1,6.8611e-05,685.64,6.7605e-05,658.8,-2.0079e-05,-0.016899,-2.6841e-05,-50.83,2.3382
23231,20.606,1.4545,0.1,7.4338e-05,742.87,7.3459e-05,719.05,-2.2243e-05,-0.013512,-2.8301e-05,-45.535,2.2925
23232,20.697,1.5455,0.1,7.2462e-05,724.12,7.1525e-05,698.9,-2.1495e-05,-0.015575,-2.7886e-05,-48.035,2.3078
23233,20.422,1.4545,0.1,7.8249e-05,781.95,7.7425e-05,759.47,-2.3656e-05,-0.012469,-2.9398e-05,-43.152,2.2622
23234,20.514,1.5455,0.1,7.6347e-05,762.94,7.5472e-05,739.2,-2.2911e-05,-0.014406,-2.8957e-05,-45.443,2.2774
23235,20.239,1.4545,0.1,8.2189e-05,821.33,8.1416e-05,800.09,-2.507e-05,-0.011547,-3.0517e-05,-40.938,2.2319
23236,20.33,1.5455,0.1,8.0262e-05,802.07,7.9443e-05,779.68,-2.4327e-05,-0.013371,-3.0053e-05,-43.036,2.2471
23237,20.055,1.4545,0.1,8.6159e-05,860.99,8.5431e-05,840.89,-2.6486e-05,-0.010733,-3.1659e-05,-38.879,2.2016
23238,20.147,1.5455,0.1,8.4208e-05,841.5,8.344e-05,820.35,-2.5744e-05,-0.012452,-3.1173e-05,-40.8,2.2168
23239,19.872,1.4545,0.1,9.0156e-05,900.93,8.947e-05,881.88,-2.7903e-05,-0.010003,-3.2821e-05,-36.962,2.1714
23240,19.963,1.5455,0.1,8.8183e-05,881.22,8.746e-05,861.22,-2.7162e-05,-0.011638,-3.2314e-05,-38.721,2.1866
23241,19.688,1.4545,0.1,9.418e-05,941.15,9.3532e-05,923.06,-2.9321e-05,-0.0093382,-3.4002e-05,-35.176,2.1413
23242,19.78,1.5455,0.1,9.2186e-05,921.23,9.1505e-05,902.28,-2.8582e-05,-0.010893,-3.3476e-05,-36.785,2.1565
23243,19.505,1.4545,0.1,9.823e-05,981.62,9.7617e-05,964.43,-3.0743e-05,-0.008745,-3.5201e-05,-33.51,2.1113
23244,19.596,1.5455,0.1,9.6217e-05,961.5,9.5574e-05,943.53,-3.0004e-05,-0.010218,-3.4658e-05,-34.983,2.1264
23245,19.321,1.4545,0.1,0.00010231,1022.4,0.00010172,1006,-3.2166e-05,-0.0082089,-3.6418e-05,-31.955,2.0813
23246,19.413,1.5455,0.1,0.00010027,1002,9.9666e-05,984.97,-3.1428e-05,-0.0096215,-3.5859e-05,-33.302,2.0963
23247,19.138,1.4545,0.1,0.00010641,1063.3,0.00010586,1047.8,-3.3593e-05,-0.0077155,-3.7652e-05,-30.502,2.0513
23248,19.229,1.5455,0.1,0.00010436,1042.8,0.00010378,1026.6,-3.2855e-05,-0.0090649,-3.7077e-05,-31.734,2.0664
23249,18.954,1.4545,0.1,0.00011053,1104.6,0.00011001,1089.7,-3.5023e-05,-0.0072672,-3.8901e-05,-29.143,2.0215
23250,19.046,1.5455,0.1,0.00010847,1083.9,0.00010792,1068.4,-3.4284e-05,-0.0085587,-3.8312e-05,-30.269,2.0365
23251,18.771,1.4545,0.1,0.00011468,1146,0.00011418,1131.9,-3.6457e-05,-0.006851,-4.0166e-05,-27.87,1.9917
23252,18.863,1.5455,0.1,0.0001126,1125.2,0.00011208,1110.5,-3.5718e-05,-0.0080974,-3.9563e-05,-28.899,2.0067
23253,18.587,1.4545,0.1,0.00011886,1187.8,0.00011838,1174.2,-3.7895e-05,-0.0064642,-4.1444e-05,-26.676,1.962
23254,18.679,1.5455,0.1,0.00011676,1166.8,0.00011626,1152.7,-3.7154e-05,-0.007659,-4.0829e-05,-27.617,1.9769
23255,18.404,1.4545,0.1,0.00012306,1229.7,0.0001226,1216.7,-3.9336e-05,-0.0061146,-4.2737e-05,-25.554,1.9323
23256,18.496,1.5455,0.1,0.00012094,1208.6,0.00012047,1195.1,-3.8595e-05,-0.007261,-4.2109e-05,-26.413,1.9473
23257,18.22,1.4545,0.1,0.00012728,1271.9,0.00012684,1259.5,-4.0782e-05,-0.005799,-4.4042e-05,-24.499,1.9028
23258,18.312,1.5455,0.1,0.00012514,1250.6,0.0001247,1237.7,-4.004e-05,-0.0068996,-4.3404e-05,-25.283,1.9177
23259,18.037,1.4545,0.1,0.00013152,1314.3,0.0001311,1302.4,-4.2233e-05,-0.0055005,-4.536e-05,-23.503,1.8733
23260,18.129,1.5455,0.1,0.00012937,1292.8,0.00012894,1280.6,-4.1489e-05,-0.0065723,-4.4711e-05,-24.219,1.8882
23261,17.853,1.4545,0.1,0.00013579,1356.9,0.00013539,1345.5,-4.3688e-05,-0.0052137,-4.669e-05,-22.563,1.844
23262,17.945,1.5455,0.1,0.00013363,1335.3,0.00013322,1323.6,-4.2942e-05,-0.0062493,-4.6031e-05,-23.216,1.8588
23263,17.67,1.4545,0.1,0.00014007,1399.8,0.00013969,1388.8,-4.5147e-05,-0.0049565,-4.8031e-05,-21.671,1.8147
23264,17.762,1.5455,0.1,0.0001379,1378.1,0.00013751,1366.8,-4.44e-05,-0.0059479,-4.7363e-05,-22.267,1.8294
23265,17.486,1.4545,0.1,0.00014439,1442.9,0.00014402,1432.3,-4.6612e-05,-0.0047172,-4.9383e-05,-20.825,1.7855
23266,17.578,1.5455,0.1,0.0001422,1421,0.00014182,1410.2,-4.5864e-05,-0.005687,-4.8707e-05,-21.368,1.8002
23267,17.303,1.4545,0.1,0.00014872,1486.2,0.00014837,1476,-4.8082e-05,-0.0044869,-5.0746e-05,-20.018,1.7564
23268,17.395,1.5455,0.1,0.00014652,1464.2,0.00014616,1453.8,-4.7332e-05,-0.0054246,-5.0061e-05,-20.513,1.7711
23269,17.119,1.4545,0.1,0.00015307,1529.7,0.00015274,1519.9,-4.9558e-05,-0.004274,-5.2119e-05,-19.246,1.7274
23270,17.211,1.5455,0.1,0.00015086,1507.6,0.00015051,1497.6,-4.8805e-05,-0.0051826,-5.1426e-05,-19.697,1.742
23271,16.936,1.4545,0.1,0.00015745,1573.4,0.00015712,1564.1,-5.1039e-05,-0.0040651,-5.3501e-05,-18.505,1.6985
23272,17.028,1.5455,0.1,0.00015522,1551.2,0.00015489,1541.6,-5.0284e-05,-0.0049555,-5.2801e-05,-18.916,1.7131
23273,16.753,1.4545,0.1,0.00016184,1617.3,0.00016153,1608.4,-5.2525e-05,-0.003863,-5.4892e-05,-17.791,1.6697
23274,16.844,1.5455,0.1,0.00015961,1595,0.00015929,1585.8,-5.1768e-05,-0.0047249,-5.4185e-05,-18.166,1.6842
23275,16.569,1.4545,0.1,0.00016626,1661.5,0.00016596,1652.8,-5.4017e-05,-0.0036798,-5.6293e-05,-17.1,1.641
23276,16.661,1.5455,0.1,0.00016401,1639,0.00016371,1630.2,-5.3258e-05,-0.0045141,-5.5579e-05,-17.441,1.6555
23277,16.386,1.4545,0.1,0.0001707,1705.8,0.00017041,1697.5,-5.5516e-05,-0.0035142,-5.7701e-05,-16.428,1.6125
23278,16.477,1.5455,0.1,0.00016844,1683.2,0.00016815,1674.8,-5.4754e-05,-0.0043209,-5.6981e-05,-16.738,1.6269
23279,16.202,1.4545,0.1,0.00017516,1750.4,0.00017488,1742.4,-5.702e-05,-0.0033485,-5.9118e-05,-15.771,1.584
23280,16.294,1.5455,0.1,0.00017289,1727.7,0.00017261,1719.6,-5.6256e-05,-0.0041467,-5.8392e-05,-16.053,1.5984
23281,16.019,1.4545,0.1,0.00017964,1795.1,0.00017938,1787.5,-5.853e-05,-0.0031753,-6.0543e-05,-15.125,1.5557
23282,16.11,1.5455,0.1,0.00017735,1772.3,0.00017709,1764.6,-5.7763e-05,-0.0039548,-5.981e-05,-15.382,1.57
23283,15.835,1.4545,0.1,0.00018414,1840.1,0.00018389,1832.8,-6.0046e-05,-0.0030205,-6.1974e-05,-14.487,1.5275
23284,15.927,1.5455,0.1,0.00018184,1817.2,0.00018159,1809.8,-5.9277e-05,-0.0037669,-6.1236e-05,-14.721,1.5417
23285,15.652,1.4545,0.1,0.00018866,1885.3,0.00018842,1878.3,-6.1569e-05,-0.0028716,-6.3413e-05,-13.853,1.4994
23286,15.743,1.5455,0.1,0.00018635,1862.2,0.00018611,1855.1,-6.0798e-05,-0.0036131,-6.2669e-05,-14.067,1.5136
23287,15.468,1.4545,0.1,0.0001932,1930.6,0.00019297,1924,-6.3099e-05,-0.0027138,-6.4858e-05,-13.22,1.4714
23288,15.56,1.5455,0.1,0.00019088,1907.5,0.00019065,1900.7,-6.2324e-05,-0.0034366,-6.4109e-05,-13.414,1.4856
23289,15.285,1.4545,0.1,0.00019775,1976.2,0.00019754,1969.9,-6.4635e-05,-0.0025609,-6.6309e-05,-12.584,1.4436
23290,15.376,1.5455,0.1,0.00019543,1952.9,0.0001952,1946.5,-6.3857e-05,-0.003266,-6.5555e-05,-12.76,1.4577
23291,15.101,1.4545,0.1,0.00020233,2021.9,0.00020213,2015.9,-6.6177e-05,-0.0023969,-6.7766e-05,-11.94,1.4159
23292,15.193,1.5455,0.1,0.00019999,1998.5,0.00019978,1992.5,-6.5397e-05,-0.0030984,-6.7008e-05,-12.101,1.4299
23293,14.918,1.4545,0.1,0.00020693,2067.9,0.00020673,2062.2,-6.7727e-05,-0.0022212,-6.9229e-05,-11.287,1.3883
23294,15.009,1.5455,0.1,0.00020458,2044.4,0.00020438,2038.6,-6.6944e-05,-0.0029047,-6.8465e-05,-11.433,1.4023
23295,14.734,1.4545,0.1,0.00021155,2114,0.00021136,2108.7,-6.9284e-05,-0.0020484,-7.0696e-05,-10.619,1.3609
23296,14.826,1.5455,0.1,0.00020918,2090.4,0.000209,2085,-6.8498e-05,-0.0027149,-6.9928e-05,-10.752,1.3748
23297,14.551,1.4545,0.1,0.00021618,2160.3,0.00021601,2155.3,-7.0847e-05,-0.0018774,-7.2169e-05,-9.9323,1.3336
23298,14.642,1.5455,0.1,0.00021381,2136.6,0.00021363,2131.6,-7.0058e-05,-0.0025255,-7.1396e-05,-10.054,1.3474
23299,14.367,1.4545,0.1,0.00022083,2206.8,0.00022068,2202.2,-7.2418e-05,-0.0016797,-7.3645e-05,-9.2238,1.3064
23300,14.459,1.5455,0.1,0.00021845,2183,0.00021829,2178.3,-7.1626e-05,-0.0023351,-7.2868e-05,-9.3352,1.3202
23301,14.184,1.4545,0.1,0.00022551,2253.5,0.00022536,2249.2,-7.3996e-05,-0.0014395,-7.5126e-05,-8.489,1.2795
23302,14.276,1.5455,0.1,0.00022311,2229.6,0.00022296,2225.3,-7.3201e-05,-0.0020883,-7.4344e-05,-8.5906,1.2931
23303,14,1.4545,0.1,0.0002302,2300.4,0.00023006,2296.5,-7.5582e-05,-0.0011787,-7.6609e-05,-7.7237,1.2526
23304,14.092,1.5455,0.1,0.00022779,2276.3,0.00022766,2272.4,-7.4783e-05,-0.0018057,-7.5824e-05,-7.8163,1.2662
23305,13.817,1.4545,0.1,0.0002349,2347.4,0.00023478,2343.9,-7.7175e-05,-0.00086364,-7.8096e-05,-6.9232,1.2259
23306,13.909,1.5455,0.1,0.00023249,2323.3,0.00023237,2319.8,-7.6374e-05,-0.0015062,-7.7306e-05,-7.0077,1.2395
23307,13.633,1.4545,0.1,0.00023963,2394.6,0.00023952,2391.6,-7.8776e-05,-0.00044729,-7.9585e-05,-6.0829,1.1994
23308,13.725,1.5455,0.1,0.0002372,2370.4,0.0002371,2367.3,-7.7971e-05,-0.0010952,-7.8791e-05,-6.1599,1.2129
23309,13.45,1.4545,0.1,0.00024437,2442,0.00024428,2439.4,-8.0385e-05,0.00010826,-8.1076e-05,-5.198,1.173
23310,13.542,1.5455,0.1,0.00024193,2417.7,0.00024184,2415,-7.9577e-05,-0.00055484,-8.0278e-05,-5.2679,1.1864
23311,13.266,1.4545,0.1,0.00024913,2489.6,0.00024906,2487.4,-8.2001e-05,0.00093742,-8.2569e-05,-4.2633,1.1468
23312,13.358,1.5455,0.1,0.00024668,2465.1,0.00024661,2463,-8.1191e-05,0.00021822,-8.1766e-05,-4.3266,1.1601
23313,13.083,1.4545,0.1,0.00025391,2537.3,0.00025385,2535.7,-8.3627e-05,0.0022955,-8.4063e-05,-3.2736,1.1208
23314,13.175,1.5455,0.1,0.00025145,2512.7,0.00025139,2511.1,-8.2812e-05,0.0015135,-8.3256e-05,-3.3305,1.134
23315,12.899,1.4545,0.1,0.0002587,2585.2,0.00025866,2584.1,-8.526e-05,0.0049988,-8.5557e-05,-2.2241,1.0949
23316,12.991,1.5455,0.1,0.00025623,2560.5,0.00025619,2559.4,-8.4442e-05,0.0040061,-8.4746e-05,-2.2746,1.1081
23317,12.716,1.4545,0.1,0.00026351,2633.3,0.00026349,2632.7,-8.6901e-05,0.013431,-8.7051e-05,-1.1129,1.0692
23318,12.808,1.5455,0.1,0.00026103,2608.5,0.00026101,2607.9,-8.608e-05,0.011561,-8.6236e-05,-1.1564,1.0823
23319,12.532,1.4545,0.1,0.00026833,2681.5,0.00026833,2681.5,-8.8529e-05,0.19262,-8.8567e-05,-0.098461,1.0437
23320,12.624,1.5455,0.1,0.00026584,2656.6,0.00026584,2656.6,-8.7708e-05,0.16393,-8.7744e-05,-0.10882,1.0567
23321,12.349,1.4545,0.1,0.00027317,2729.8,0.00027319,2730.5,-9.003e-05,1.3852,-9.0217e-05,-0.016756,1.0184
23322,12.441,1.5455,0.1,0.00027067,2704.8,0.00027069,2705.5,-8.9207e-05,1.3526,-8.9389e-05,-0.016622,1.0313
23323,12.165,1.4545,0.1,0.00027803,2778.3,0.00027807,2779.7,-9.1519e-05,2.7408,-9.1885e-05,-0.010138,0.99323
23324,12.257,1.5455,0.1,0.00027551,2753.2,0.00027556,2754.6,-9.0691e-05,2.7156,-9.1054e-05,-0.01009,1.006
23325,11.982,1.4545,0.1,0.0002829,2827,0.00028297,2829.1,-9.3005e-05,4.1964,-9.3564e-05,-0.0077981,0.96826
23326,12.074,1.5455,0.1,0.00028037,2801.8,0.00028044,2803.8,-9.2172e-05,4.1792,-9.2729e-05,-0.0078244,0.98097
23327,11.799,1.4545,0.1,0.00028778,2875.8,0.00028788,2878.7,-9.4486e-05,5.7569,-9.5253e-05,-0.0066054,0.94349
23328,11.89,1.5455,0.1,0.00028524,2850.4,0.00028534,2853.3,-9.3649e-05,5.7489,-9.4415e-05,-0.0066533,0.95611
23329,11.615,1.4545,0.1,0.00029268,2924.8,0.0002928,2928.5,-9.5962e-05,7.4301,-9.6952e-05,-0.0059037,0.91891
23330,11.707,1.5455,0.1,0.00029013,2899.3,0.00029025,2903,-9.512e-05,7.4327,-9.611e-05,-0.0059513,0.93143
23331,11.432,1.4545,0.1,0.00029759,2973.8,0.00029774,2978.4,-9.7433e-05,9.2247,-9.8661e-05,-0.005438,0.89452
23332,11.523,1.5455,0.1,0.00029502,2948.2,0.00029518,2952.8,-9.6586e-05,9.2398,-9.7816e-05,-0.0054964,0.90695
23333,11.248,1.4545,0.1,0.00030251,3023,0.0003027,3028.6,-9.8896e-05,11.15,-0.00010038,-0.0051285,0.87034
23334,11.34,1.5455,0.1,0.00029994,2997.3,0.00030012,3002.9,-9.8044e-05,11.18,-9.9533e-05,-0.0051431,0.88267
23335,11.065,1.4545,0.1,0.00030745,3072.4,0.00030767,3078.9,-0.00010035,13.216,-0.00010211,-0.004947,0.84636
23336,11.156,1.5455,0.1,0.00030486,3046.5,0.00030508,3053.1,-9.9494e-05,13.264,-0.00010126,-0.0049355,0.85859
23337,10.881,1.4545,0.1,0.0003124,3121.8,0.00031265,3129.5,-0.0001018,15.432,-0.00010385,-0.0048204,0.82259
23338,10.973,1.5455,0.1,0.00030979,3095.8,0.00031005,3103.5,-0.00010094,15.502,-0.000103,-0.0047972,0.83472
23339,10.698,1.4545,0.1,0.00031735,3171.4,0.00031765,3180.2,-0.00010324,17.81,-0.00010561,-0.0047463,0.79903
23340,10.789,1.5455,0.1,0.00031474,3145.2,0.00031504,3154.1,-0.00010237,17.906,-0.00010475,-0.0046705,0.81106
23341,10.514,1.4545,0.1,0.00032232,3221,0.00032267,3231.2,-0.00010466,20.358,-0.00010737,-0.0047501,0.77568
23342,10.606,1.5455,0.1,0.0003197,3194.7,0.00032004,3204.9,-0.00010379,20.487,-0.00010651,-0.0046159,0.7876
23343,10.331,1.4545,0.1,0.00032731,3270.8,0.00032769,3282.3,-0.00010608,23.09,-0.00010915,-0.0048287,0.75255
23344,10.422,1.5455,0.1,0.00032466,3244.4,0.00032505,3255.9,-0.00010519,23.258,-0.00010829,-0.004628,0.76437
23345,10.147,1.4545,0.1,0.0003323,3320.7,0.00033273,3333.6,-0.00010748,26.014,-0.00011094,-0.0049613,0.72963
23346,10.239,1.5455,0.1,0.00032964,3294.1,0.00033007,3307.1,-0.00010659,26.231,-0.00011008,-0.0047075,0.74135
23347,9.9637,1.4545,0.1,0.0003373,3370.6,0.00033778,3385.1,-0.00010887,29.141,-0.00011275,-0.0051448,0.70695
23348,10.055,1.5455,0.1,0.00033462,3343.9,0.00033511,3358.5,-0.00010796,29.419,-0.00011188,-0.0048122,0.71855
23349,9.7802,1.4545,0.1,0.00034231,3420.7,0.00034285,3436.8,-0.00011024,32.482,-0.00011457,-0.0054124,0.68449
23350,9.872,1.5455,0.1,0.00033961,3393.8,0.00034016,3410.1,-0.00010933,32.833,-0.0001137,-0.0049781,0.69598
23351,9.5968,1.4545,0.1,0.00034733,3470.9,0.00034792,3488.7,-0.0001116,36.046,-0.0001164,-0.0057771,0.66226
23352,9.6885,1.5455,0.1,0.00034462,3443.8,0.00034522,3461.9,-0.00011067,36.487,-0.00011553,-0.0052349,0.67364
23353,9.4133,1.4545,0.1,0.00035235,3521.1,0.00035301,3540.9,-0.00011294,39.84,-0.00011825,-0.0062539,0.64026
23354,9.505,1.5455,0.1,0.00034962,3493.8,0.00035029,3513.9,-0.000112,40.391,-0.00011737,-0.0055782,0.65153
23355,9.2298,1.4545,0.1,0.00035739,3571.4,0.00035812,3593.2,-0.00011427,43.871,-0.00012011,-0.0068722,0.6185
23356,9.3215,1.5455,0.1,0.00035464,3544,0.00035538,3566,-0.0001133,44.557,-0.00011923,-0.0060398,0.62966
23357,9.0463,1.4545,0.1,0.00036244,3621.9,0.00036323,3645.7,-0.00011557,48.143,-0.00012198,-0.0076651,0.59699
23358,9.1381,1.5455,0.1,0.00035967,3594.2,0.00036048,3618.4,-0.00011459,48.993,-0.00012111,-0.006644,0.60802
23359,8.8628,1.4545,0.1,0.00036749,3672.4,0.00036836,3698.4,-0.00011686,52.657,-0.00012387,-0.0086777,0.57571
23360,8.9546,1.5455,0.1,0.0003647,3644.5,0.00036559,3671.1,-0.00011585,53.707,-0.000123,-0.0074294,0.58663
23361,8.6794,1.4545,0.1,0.00037255,3723,0.0003735,3751.3,-0.00011813,57.409,-0.00012578,-0.0099684,0.55469
23362,8.7711,1.5455,0.1,0.00036974,3694.9,0.00037071,3723.9,-0.0001171,58.704,-0.00012491,-0.0084435,0.56548
23363,8.4959,1.4545,0.1,0.00037763,3773.7,0.00037865,3804.5,-0.00011939,62.393,-0.0001277,-0.011615,0.53392
23364,8.5876,1.5455,0.1,0.0003748,3745.4,0.00037584,3777,-0.00011832,63.984,-0.00012684,-0.0097498,0.54459
23365,8.3124,1.4545,0.1,0.00038272,3824.5,0.00038382,3857.9,-0.00012063,67.594,-0.00012963,-0.013717,0.5134
23366,8.4041,1.5455,0.1,0.00037986,3796,0.000381,3830.3,-0.00011953,69.544,-0.00012878,-0.011432,0.52394
23367,8.1289,1.4545,0.1,0.00038782,3875.5,0.00038901,3911.5,-0.00012186,72.99,-0.00013158,-0.01641,0.49314
23368,8.2206,1.5455,0.1,0.00038494,3846.7,0.00038617,3883.9,-0.00012071,75.375,-0.00013075,-0.013598,0.50356
23369,7.9454,1.4545,0.1,0.00039293,3926.6,0.00039421,3965.3,-0.00012308,78.553,-0.00013354,-0.019873,0.47314
23370,8.0372,1.5455,0.1,0.00039003,3897.6,0.00039135,3937.7,-0.00012188,81.462,-0.00013273,-0.016392,0.48343
23371,7.7619,1.4545,0.1,0.00039806,3977.9,0.00039943,4019.3,-0.0001243,84.239,-0.00013551,-0.024345,0.45341
23372,7.8537,1.5455,0.1,0.00039515,3948.7,0.00039657,3991.9,-0.00012304,87.779,-0.00013472,-0.020009,0.46357
23373,7.5785,1.4545,0.1,0.00040321,4029.3,0.00040467,4073.6,-0.00012551,89.995,-0.0001375,-0.030154,0.43394
23374,7.6702,1.5455,0.1,0.00040028,4000.1,0.0004018,4046.4,-0.00012419,94.291,-0.00013674,-0.024705,0.44397
23375,7.395,1.4545,0.1,0.00040838,4081,0.00040993,4128,-0.00012674,95.751,-0.00013949,-0.03775,0.41475
23376,7.4867,1.5455,0.1,0.00040545,4051.7,0.00040707,4101.2,-0.00012533,100.95,-0.00013877,-0.030833,0.42464
23377,7.2115,1.4545,0.1,0.00041358,4133,0.00041521,4182.7,-0.00012797,101.42,-0.00014148,-0.047753,0.39584
23378,7.3032,1.5455,0.1,0.00041065,4103.6,0.00041237,4156.4,-0.00012648,107.7,-0.00014082,-0.038868,0.40559
23379,7.028,1.4545,0.1,0.00041881,4185.2,0.00042052,4237.6,-0.00012924,106.89,-0.00014347,-0.061038,0.3772
23380,7.1198,1.5455,0.1,0.00041589,4156,0.00041772,4212,-0.00012764,114.44,-0.00014288,-0.049471,0.38682
23381,6.8445,1.4545,0.1,0.00042407,4237.8,0.00042586,4292.6,-0.00013054,112.03,-0.00014546,-0.078847,0.35885
23382,6.9363,1.5455,0.1,0.00042118,4208.9,0.00042311,4268.1,-0.00012883,121.09,-0.00014495,-0.063554,0.36832
23383,6.6611,1.4545,0.1,0.00042936,4290.6,0.00043122,4347.7,-0.00013189,116.68,-0.00014744,-0.10297,0.34078
23384,6.7528,1.5455,0.1,0.00042654,4262.4,0.00042856,4324.7,-0.00013005,127.51,-0.00014703,-0.082406,0.35012
23385,6.4776,1.4545,0.1,0.00043469,4343.9,0.00043661,4402.9,-0.00013332,120.64,-0.00014939,-0.13606,0.32301
23386,6.5693,1.5455,0.1,0.00043197,4316.7,0.00043408,4381.9,-0.00013133,133.55,-0.00014912,-0.10786,0.3322
23387,6.2941,1.4545,0.1,0.00044006,4397.5,0.00044203,4458,-0.00013483,123.67,-0.00015132,-0.18207,0.30553
23388,6.3858,1.5455,0.1,0.00043749,4371.9,0.00043968,4439.6,-0.0001327,138.99,-0.00015121,-0.14257,0.31457
23389,6.1106,1.4545,0.1,0.00044546,4451.5,0.00044746,4512.8,-0.00013646,125.46,-0.00015319,-0.24716,0.28834
23390,6.2024,1.5455,0.1,0.00044312,4428.1,0.00044538,4498.1,-0.00013416,143.6,-0.0001533,-0.19046,0.29724
23391,5.9271,1.4545,0.1,0.0004509,4505.9,0.0004529,4567.2,-0.00013824,125.63,-0.00015501,-0.34117,0.27146
23392,6.0189,1.5455,0.1,0.00044887,4485.6,0.00045119,4557.2,-0.00013577,147.04,-0.00015537,-0.25748,0.28021
23393,5.7437,1.4545,0.1,0.00045638,4560.7,0.00045835,4621,-0.00014021,123.68,-0.00015673,-0.4808,0.25488
23394,5.8354,1.5455,0.1,0.00045479,4544.7,0.00045713,4617.1,-0.00013756,148.89,-0.00015742,-0.35299,0.26348
23395,5.5602,1.4545,0.1,0.0004619,4615.9,0.0004638,4673.8,-0.00014242,118.91,-0.00015834,-0.69646,0.23862
23396,5.6519,1.5455,0.1,0.00046089,4605.8,0.00046323,4678,-0.0001396,148.55,-0.00015943,-0.49247,0.24706
23397,5.3767,1.4545,0.1,0.00046749,4671.7,0.00046925,4725.3,-0.00014497,110.32,-0.00015979,-1.0497,0.22266
23398,5.4684,1.5455,0.1,0.00046726,4669.3,0.00046954,4739.9,-0.00014197,145.18,-0.00016139,-0.70348,0.23095
23399,5.1932,1.4545,0.1,0.00047319,4728.6,0.00047472,4775.2,-0.00014798,96.441,-0.00016104,-1.6876,0.20702
23400,5.285,1.5455,0.1,0.00047396,4736.4,0.00047613,4803.1,-0.00014481,137.54,-0.00016326,-1.0403,0.21516
23401,5.0097,1.4545,0.1,0.0004791,4787.7,0.00048027,4823.2,-0.00015165,75.151,-0.00016206,-3.063,0.19169
23402,5.1015,1.5455,0.1,0.00048116,4808.3,0.00048311,4868.1,-0.00014832,123.72,-0.00016501,-1.6283,0.19969
23403,4.8263,1.4545,0.1,0.00048543,4850.9,0.00048604,4869.3,-0.0001561,44.486,-0.00016301,-7.3918,0.17669
23404,4.918,1.5455,0.1,0.0004891,4887.7,0.00049069,4935.8,-0.00015281,100.81,-0.00016661,-2.8314,0.18454
23405,4.6428,1.4545,0.1,0.00049259,4922.5,0.00049228,4913.7,-0.00015972,14.895,-0.00016596,-32.044,0.16202
23406,4.7345,1.5455,0.1,0.00049822,4978.8,0.00049918,5007.8,-0.00015865,65.087,-0.00016815,-6.2914,0.16972
23407,4.4593,1.4545,0.1,0.00050129,5009.4,0.00049945,4957.3,-0.00015946,6.5516,-0.00017481,-108.81,0.14766
23408,4.551,1.5455,0.1,0.00050925,5088.9,0.00050915,5086.6,-0.00016485,22.372,-0.00017139,-26.746,0.15523
23409,4.2758,1.4545,0.1,0.0005128,5124.5,0.00050832,5001.3,-0.00015669,4.6758,-0.00018955,-242.22,0.13364
23410,4.3676,1.5455,0.1,0.00052345,5230.9,0.00052152,5176.4,-0.00016636,7.8597,-0.00018268,-114.71,0.14108
23411,4.0923,1.4545,0.1,0.00052916,5287.9,0.00051989,5045.2,-0.000151,4.3537,-0.00021271,-459.27,0.11993
23412,4.1841,1.5455,0.1,0.00054294,5425.6,0.00053772,5283.1,-0.00016468,5.5477,-0.0002026,-279.4,0.12726
23413,3.9088,1.4545,0.1,0.00055352,5531.4,0.00053532,5084,-0.0001407,4.6516,-0.00024903,-809.3,0.10653
23414,4.0006,1.5455,0.1,0.00057143,5710.3,0.00055994,5412.9,-0.00015994,3.987,-0.00023466,-557.39,0.11378
23415,3.7254,1.4545,0.1,0.00058898,5885.8,0.00055392,5087.6,-0.00012272,3.6552,-0.00030426,-1360.4,0.093426
23416,3.8171,1.5455,0.1,0.00061427,6138.5,0.00059052,5567.4,-0.00014911,10.065,-0.00028641,-1021.6,0.10062
23417,3.5419,1.4545,0.1,0.00065282,6523.7,0.00058405,5096.2,-9.1795e-05,18.173,-0.00039518,-2261.4,0.080571
23418,3.6336,1.5455,0.1,0.00068133,6808.6,0.00063199,5716.1,-0.00012879,-0.17117,-0.00037054,-1816.6,0.087765
23419,3.4501,1.5455,0.1,0.00081468,8141.2,0.00070452,5940.5,-8.5017e-05,8.2259,-0.00053078,-3341.1,0.075164
23420,3.3584,1.4545,0.1,0.00057231,5719.2,0.00049199,4131.9,-5.4992e-05,22.104,-0.00037731,-2399.7,0.067882
23421,23.725,1.6364,0.1,1.825e-05,182.37,1.0704e-05,58.791,2.8523e-06,-0.20059,-1.6522e-05,-145.77,2.8139
23422,23.817,1.7273,0.1,1.777e-05,177.58,9.0806e-06,39.733,3.769e-06,-0.17667,-1.6757e-05,-154.4,2.8294
23423,23.908,1.6364,0.1,1.6782e-05,167.7,7.3929e-06,22.408,4.3538e-06,-0.42737,-1.6291e-05,-155.54,2.8448
23424,23.541,1.6364,0.1,2.0265e-05,202.51,1.4197e-05,96.998,1.2597e-06,-0.21169,-1.6784e-05,-135.79,2.7831
23425,23.633,1.7273,0.1,1.9526e-05,195.13,1.2574e-05,77.987,2.1529e-06,-0.31314,-1.6988e-05,-144.13,2.7986
23426,23.358,1.6364,0.1,2.2672e-05,226.56,1.7702e-05,135.14,-2.9974e-07,-0.11869,-1.711e-05,-126.42,2.7523
23427,23.45,1.7273,0.1,2.1737e-05,217.22,1.6076e-05,116.27,5.8375e-07,-0.13215,-1.7279e-05,-134.35,2.7677
23428,23.174,1.6364,0.1,2.5367e-05,253.49,2.1223e-05,173.2,-1.8414e-06,-0.096937,-1.7498e-05,-117.73,2.7215
23429,23.266,1.7273,0.1,2.4281e-05,242.65,1.9593e-05,154.42,-9.7519e-07,-0.11566,-1.7629e-05,-125.24,2.7369
23430,22.991,1.6364,0.1,2.8277e-05,282.57,2.4766e-05,211.26,-3.3617e-06,-0.075127,-1.7951e-05,-109.69,2.6907
23431,23.083,1.7273,0.1,2.7072e-05,270.53,2.3125e-05,192.53,-2.5108e-06,-0.085065,-1.8039e-05,-116.76,2.7061
23432,22.807,1.6364,0.1,3.1353e-05,313.31,2.8335e-05,249.38,-4.864e-06,-0.062316,-1.8468e-05,-102.28,2.6599
23433,22.899,1.7273,0.1,3.0051e-05,300.3,2.6679e-05,230.65,-4.0278e-06,-0.070488,-1.8511e-05,-108.89,2.6753
23434,22.624,1.6364,0.1,3.4561e-05,345.38,3.1933e-05,287.6,-6.3506e-06,-0.052419,-1.9047e-05,-95.449,2.6291
23435,22.716,1.7273,0.1,3.3177e-05,331.55,3.0259e-05,268.83,-5.5278e-06,-0.058651,-1.9044e-05,-101.62,2.6445
23436,22.44,1.6364,0.1,3.7877e-05,378.51,3.5564e-05,325.95,-7.8236e-06,-0.045051,-1.9685e-05,-89.17,2.5984
23437,22.532,1.7273,0.1,3.6423e-05,363.98,3.3868e-05,307.11,-7.0129e-06,-0.050225,-1.9636e-05,-94.898,2.6138
23438,22.257,1.6364,0.1,4.1282e-05,412.54,3.9226e-05,364.45,-9.2852e-06,-0.03924,-2.0379e-05,-83.396,2.5677
23439,22.349,1.7273,0.1,3.9766e-05,397.39,3.7507e-05,345.53,-8.4854e-06,-0.043608,-2.0285e-05,-88.702,2.5831
23440,22.073,1.6364,0.1,4.4763e-05,447.32,4.292e-05,403.12,-1.0737e-05,-0.034589,-2.1125e-05,-78.084,2.537
23441,22.165,1.7273,0.1,4.3192e-05,431.62,4.1177e-05,384.09,-9.9471e-06,-0.03838,-2.0987e-05,-82.987,2.5524
23442,21.89,1.6364,0.1,4.8309e-05,482.76,4.6645e-05,441.97,-1.2181e-05,-0.030785,-2.1918e-05,-73.193,2.5063
23443,21.982,1.7273,0.1,4.6689e-05,466.57,4.4878e-05,422.82,-1.14e-05,-0.034129,-2.1739e-05,-77.717,2.5217
23444,21.706,1.6364,0.1,5.1913e-05,518.77,5.0402e-05,481,-1.3618e-05,-0.027625,-2.2756e-05,-68.686,2.4757
23445,21.798,1.7273,0.1,5.0248e-05,502.14,4.861e-05,461.72,-1.2844e-05,-0.030621,-2.2537e-05,-72.854,2.491
23446,21.523,1.6364,0.1,5.5568e-05,555.3,5.4188e-05,520.21,-1.505e-05,-0.024965,-2.3635e-05,-64.527,2.4451
23447,21.615,1.7273,0.1,5.3863e-05,538.26,5.2373e-05,500.8,-1.4283e-05,-0.027675,-2.3378e-05,-68.364,2.4604
23448,21.34,1.6364,0.1,5.927e-05,592.29,5.8004e-05,559.61,-1.6478e-05,-0.022705,-2.4552e-05,-60.686,2.4145
23449,21.431,1.7273,0.1,5.7527e-05,574.88,5.6165e-05,540.06,-1.5716e-05,-0.025175,-2.4259e-05,-64.215,2.4298
23450,21.156,1.6364,0.1,6.3015e-05,629.72,6.1848e-05,599.19,-1.7902e-05,-0.020763,-2.5504e-05,-57.135,2.384
23451,21.248,1.7273,0.1,6.1237e-05,611.95,5.9986e-05,579.51,-1.7146e-05,-0.02304,-2.5178e-05,-60.378,2.3993
23452,20.973,1.6364,0.1,6.6799e-05,667.53,6.572e-05,638.97,-1.9324e-05,-0.01908,-2.6489e-05,-53.85,2.3535
23453,21.064,1.7273,0.1,6.4989e-05,649.44,6.3835e-05,619.15,-1.8572e-05,-0.021185,-2.6132e-05,-56.828,2.3688
23454,20.789,1.6364,0.1,7.0621e-05,705.72,6.9619e-05,678.93,-2.0744e-05,-0.017611,-2.7504e-05,-50.807,2.3231
23455,20.881,1.7273,0.1,6.8781e-05,687.33,6.7713e-05,658.99,-1.9995e-05,-0.01957,-2.7119e-05,-53.541,2.3383
23456,20.606,1.6364,0.1,7.4477e-05,744.25,7.3544e-05,719.09,-2.2163e-05,-0.016315,-2.8548e-05,-47.986,2.2927
23457,20.697,1.7273,0.1,7.2609e-05,725.59,7.1617e-05,699.01,-2.1418e-05,-0.018151,-2.8136e-05,-50.496,2.3079
23458,20.422,1.6364,0.1,7.8366e-05,783.12,7.7495e-05,759.44,-2.3582e-05,-0.015166,-2.9618e-05,-45.369,2.2623
23459,20.514,1.7273,0.1,7.6472e-05,764.19,7.5549e-05,739.23,-2.2839e-05,-0.016887,-2.9181e-05,-47.672,2.2776
23460,20.239,1.6364,0.1,8.2287e-05,822.3,8.1472e-05,799.99,-2.5001e-05,-0.014146,-3.0714e-05,-42.94,2.232
23461,20.33,1.7273,0.1,8.0368e-05,803.13,7.9506e-05,779.64,-2.426e-05,-0.015766,-3.0254e-05,-45.052,2.2472
23462,20.055,1.6364,0.1,8.6239e-05,861.79,8.5474e-05,840.72,-2.6421e-05,-0.013237,-3.1834e-05,-40.684,2.2018
23463,20.147,1.7273,0.1,8.4296e-05,842.38,8.349e-05,820.25,-2.5681e-05,-0.014765,-3.1352e-05,-42.62,2.217
23464,19.872,1.6364,0.1,9.022e-05,901.58,8.9501e-05,881.66,-2.7842e-05,-0.012416,-3.2976e-05,-38.586,2.1716
23465,19.963,1.7273,0.1,8.8255e-05,881.94,8.7499e-05,861.06,-2.7103e-05,-0.013873,-3.2473e-05,-40.36,2.1868
23466,19.688,1.6364,0.1,9.4229e-05,941.64,9.3552e-05,922.79,-2.9264e-05,-0.011669,-3.4138e-05,-36.634,2.1415
23467,19.78,1.7273,0.1,9.2243e-05,921.8,9.1533e-05,902.07,-2.8527e-05,-0.013053,-3.3617e-05,-38.26,2.1566
23468,19.505,1.6364,0.1,9.8266e-05,981.99,9.7628e-05,964.11,-3.0689e-05,-0.010998,-3.5321e-05,-34.816,2.1114
23469,19.596,1.7273,0.1,9.626e-05,961.94,9.5591e-05,943.27,-2.9952e-05,-0.012309,-3.4782e-05,-36.306,2.1265
23470,19.321,1.6364,0.1,0.00010233,1022.6,0.00010173,1005.6,-3.2116e-05,-0.010387,-3.6523e-05,-33.122,2.0814
23471,19.413,1.7273,0.1,0.00010031,1002.4,9.9674e-05,984.67,-3.1379e-05,-0.011646,-3.5967e-05,-34.487,2.0965
23472,19.138,1.6364,0.1,0.00010642,1063.5,0.00010585,1047.3,-3.3546e-05,-0.0098234,-3.7742e-05,-31.541,2.0515
23473,19.229,1.7273,0.1,0.00010438,1043.1,0.00010378,1026.3,-3.2808e-05,-0.011027,-3.7171e-05,-32.791,2.0666
23474,18.954,1.6364,0.1,0.00011054,1104.6,0.00010999,1089.3,-3.4979e-05,-0.0093096,-3.8979e-05,-30.065,2.0217
23475,19.046,1.7273,0.1,0.00010848,1084,0.00010791,1068.1,-3.4241e-05,-0.010463,-3.8393e-05,-31.21,2.0367
23476,18.771,1.6364,0.1,0.00011468,1146,0.00011416,1131.4,-3.6415e-05,-0.008831,-4.0231e-05,-28.684,1.9919
23477,18.863,1.7273,0.1,0.0001126,1125.2,0.00011207,1110.1,-3.5677e-05,-0.0099453,-3.9632e-05,-29.733,2.0069
23478,18.587,1.6364,0.1,0.00011884,1187.6,0.00011835,1173.7,-3.7855e-05,-0.008386,-4.1499e-05,-27.392,1.9622
23479,18.679,1.7273,0.1,0.00011675,1166.7,0.00011624,1152.3,-3.7116e-05,-0.0094548,-4.0888e-05,-28.351,1.9771
23480,18.404,1.6364,0.1,0.00012303,1229.5,0.00012257,1216.2,-3.9298e-05,-0.0079805,-4.2782e-05,-26.179,1.9326
23481,18.496,1.7273,0.1,0.00012093,1208.4,0.00012044,1194.7,-3.8558e-05,-0.0090083,-4.2158e-05,-27.058,1.9475
23482,18.22,1.6364,0.1,0.00012725,1271.6,0.0001268,1258.9,-4.0746e-05,-0.0076113,-4.4078e-05,-25.04,1.903
23483,18.312,1.7273,0.1,0.00012512,1250.4,0.00012466,1237.3,-4.0005e-05,-0.0085988,-4.3443e-05,-25.844,1.9179
23484,18.037,1.6364,0.1,0.00013149,1314,0.00013106,1301.8,-4.2198e-05,-0.0072633,-4.5387e-05,-23.968,1.8736
23485,18.129,1.7273,0.1,0.00012935,1292.6,0.00012891,1280,-4.1456e-05,-0.0082278,-4.4743e-05,-24.704,1.8884
23486,17.853,1.6364,0.1,0.00013575,1356.5,0.00013534,1344.9,-4.3655e-05,-0.0069291,-4.6709e-05,-22.956,1.8442
23487,17.945,1.7273,0.1,0.00013359,1335,0.00013318,1323,-4.2911e-05,-0.0078624,-4.6055e-05,-23.63,1.859
23488,17.67,1.6364,0.1,0.00014003,1399.3,0.00013964,1388.2,-4.5117e-05,-0.0066273,-4.8044e-05,-21.999,1.8149
23489,17.762,1.7273,0.1,0.00013786,1377.7,0.00013746,1366.2,-4.4371e-05,-0.0075208,-4.738e-05,-22.616,1.8297
23490,17.486,1.6364,0.1,0.00014434,1442.4,0.00014397,1431.7,-4.6583e-05,-0.0063465,-4.9389e-05,-21.091,1.7857
23491,17.578,1.7273,0.1,0.00014216,1420.6,0.00014178,1409.6,-4.5835e-05,-0.0072221,-4.8717e-05,-21.656,1.8004
23492,17.303,1.6364,0.1,0.00014866,1485.6,0.00014831,1475.4,-4.8055e-05,-0.0060754,-5.0746e-05,-20.227,1.7567
23493,17.395,1.7273,0.1,0.00014647,1463.7,0.00014611,1453.2,-4.7305e-05,-0.0069244,-5.0065e-05,-20.744,1.7713
23494,17.119,1.6364,0.1,0.00015302,1529.1,0.00015268,1519.3,-4.9531e-05,-0.005822,-5.2113e-05,-19.401,1.7277
23495,17.211,1.7273,0.1,0.00015081,1507,0.00015046,1497,-4.878e-05,-0.0066468,-5.1424e-05,-19.876,1.7423
23496,16.936,1.6364,0.1,0.00015739,1572.8,0.00015706,1563.4,-5.1014e-05,-0.005576,-5.349e-05,-18.61,1.6988
23497,17.028,1.7273,0.1,0.00015517,1550.6,0.00015484,1541,-5.026e-05,-0.0063862,-5.2794e-05,-19.046,1.7133
23498,16.753,1.6364,0.1,0.00016178,1616.7,0.00016147,1607.7,-5.2501e-05,-0.0053393,-5.4876e-05,-17.848,1.67
23499,16.844,1.7273,0.1,0.00015955,1594.4,0.00015923,1585.2,-5.1745e-05,-0.0061241,-5.4173e-05,-18.248,1.6845
23500,16.569,1.6364,0.1,0.00016619,1660.8,0.0001659,1652.2,-5.3995e-05,-0.005121,-5.6272e-05,-17.112,1.6413
23501,16.661,1.7273,0.1,0.00016395,1638.4,0.00016365,1629.6,-5.3236e-05,-0.0058832,-5.5562e-05,-17.479,1.6558
23502,16.386,1.6364,0.1,0.00017063,1705.1,0.00017034,1696.9,-5.5494e-05,-0.0049217,-5.7676e-05,-16.396,1.6128
23503,16.477,1.7273,0.1,0.00016838,1682.6,0.00016808,1674.2,-5.4733e-05,-0.0056607,-5.696e-05,-16.734,1.6272
23504,16.202,1.6364,0.1,0.00017509,1749.6,0.00017481,1741.7,-5.6999e-05,-0.004724,-5.9088e-05,-15.697,1.5843
23505,16.294,1.7273,0.1,0.00017282,1727,0.00017254,1718.9,-5.6236e-05,-0.0054593,-5.8366e-05,-16.008,1.5987
23506,16.019,1.6364,0.1,0.00017956,1794.4,0.0001793,1786.8,-5.8511e-05,-0.00452,-6.0508e-05,-15.01,1.556
23507,16.11,1.7273,0.1,0.00017728,1771.6,0.00017702,1763.9,-5.7745e-05,-0.0052401,-5.978e-05,-15.297,1.5703
23508,15.835,1.6364,0.1,0.00018406,1839.3,0.00018381,1832.1,-6.0028e-05,-0.0043356,-6.1935e-05,-14.331,1.5278
23509,15.927,1.7273,0.1,0.00018177,1816.4,0.00018152,1809.1,-5.926e-05,-0.0050268,-6.1202e-05,-14.597,1.542
23510,15.652,1.6364,0.1,0.00018858,1884.5,0.00018834,1877.6,-6.1552e-05,-0.004157,-6.337e-05,-13.658,1.4997
23511,15.743,1.7273,0.1,0.00018628,1861.5,0.00018603,1854.5,-6.0781e-05,-0.004847,-6.2631e-05,-13.904,1.5139
23512,15.468,1.6364,0.1,0.00019311,1929.8,0.00019289,1923.3,-6.3083e-05,-0.0039707,-6.4811e-05,-12.984,1.4718
23513,15.56,1.7273,0.1,0.0001908,1906.7,0.00019057,1900,-6.2309e-05,-0.0046459,-6.4067e-05,-13.214,1.4859
23514,15.285,1.6364,0.1,0.00019767,1975.3,0.00019746,1969.1,-6.462e-05,-0.0037884,-6.6258e-05,-12.307,1.4439
23515,15.376,1.7273,0.1,0.00019535,1952.1,0.00019513,1945.8,-6.3843e-05,-0.0044518,-6.5509e-05,-12.522,1.458
23516,15.101,1.6364,0.1,0.00020224,2021,0.00020204,2015.2,-6.6164e-05,-0.0035945,-6.771e-05,-11.623,1.4162
23517,15.193,1.7273,0.1,0.00019991,1997.7,0.00019971,1991.8,-6.5384e-05,-0.0042596,-6.6957e-05,-11.824,1.4302
23518,14.918,1.6364,0.1,0.00020684,2066.9,0.00020665,2061.5,-6.7715e-05,-0.0033905,-6.9168e-05,-10.927,1.3887
23519,15.009,1.7273,0.1,0.00020449,2043.5,0.0002043,2037.9,-6.6932e-05,-0.0040429,-6.8411e-05,-11.117,1.4026
23520,14.734,1.6364,0.1,0.00021145,2113,0.00021127,2107.9,-6.9272e-05,-0.0031884,-7.0631e-05,-10.216,1.3612
23521,14.826,1.7273,0.1,0.0002091,2089.5,0.00020892,2084.3,-6.8486e-05,-0.0038302,-6.987e-05,-10.395,1.3751
23522,14.551,1.6364,0.1,0.00021608,2159.3,0.00021592,2154.6,-7.0837e-05,-0.0029848,-7.2099e-05,-9.4845,1.334
23523,14.642,1.7273,0.1,0.00021372,2135.7,0.00021355,2130.9,-7.0048e-05,-0.0036164,-7.1333e-05,-9.6554,1.3478
23524,14.367,1.6364,0.1,0.00022073,2205.8,0.00022058,2201.4,-7.2409e-05,-0.0027516,-7.357e-05,-8.7289,1.3068
23525,14.459,1.7273,0.1,0.00021836,2182.1,0.0002182,2177.6,-7.1617e-05,-0.0034,-7.28e-05,-8.8925,1.3206
23526,14.184,1.6364,0.1,0.0002254,2252.4,0.00022526,2248.5,-7.3988e-05,-0.0024703,-7.5045e-05,-7.9444,1.2799
23527,14.276,1.7273,0.1,0.00022301,2228.6,0.00022288,2224.5,-7.3193e-05,-0.0031248,-7.4271e-05,-8.102,1.2935
23528,14,1.6364,0.1,0.00023009,2299.3,0.00022996,2295.7,-7.5575e-05,-0.0021597,-7.6524e-05,-7.1264,1.253
23529,14.092,1.7273,0.1,0.00022769,2275.3,0.00022757,2271.7,-7.4777e-05,-0.0028082,-7.5746e-05,-7.2792,1.2666
23530,13.817,1.6364,0.1,0.00023479,2346.3,0.00023468,2343.1,-7.717e-05,-0.0017794,-7.8004e-05,-6.2699,1.2263
23531,13.909,1.7273,0.1,0.00023238,2322.2,0.00023227,2319,-7.6368e-05,-0.0024662,-7.7222e-05,-6.4192,1.2398
23532,13.633,1.6364,0.1,0.00023951,2393.5,0.00023942,2390.8,-7.8772e-05,-0.0012672,-7.9487e-05,-5.37,1.1998
23533,13.725,1.7273,0.1,0.00023709,2369.3,0.000237,2366.5,-7.7968e-05,-0.0019895,-7.8702e-05,-5.5165,1.2132
23534,13.45,1.6364,0.1,0.00024425,2440.8,0.00024417,2438.6,-8.0383e-05,-0.00054776,-8.0971e-05,-4.4211,1.1735
23535,13.542,1.7273,0.1,0.00024182,2416.5,0.00024174,2414.3,-7.9575e-05,-0.001341,-8.0182e-05,-4.566,1.1868
23536,13.266,1.6364,0.1,0.000249,2488.3,0.00024894,2486.6,-8.2001e-05,0.00061556,-8.2456e-05,-3.4179,1.1473
23537,13.358,1.7273,0.1,0.00024656,2463.9,0.0002465,2462.2,-8.119e-05,-0.00034018,-8.1664e-05,-3.562,1.1605
23538,13.083,1.6364,0.1,0.00025377,2536,0.00025373,2534.8,-8.3628e-05,0.0028496,-8.3942e-05,-2.3549,1.1212
23539,13.175,1.7273,0.1,0.00025132,2511.5,0.00025128,2510.3,-8.2813e-05,0.0015572,-8.3146e-05,-2.4987,1.1344
23540,12.899,1.6364,0.1,0.00025856,2583.8,0.00025854,2583.2,-8.5263e-05,0.0092865,-8.5428e-05,-1.2289,1.0954
23541,12.991,1.7273,0.1,0.0002561,2559.2,0.00025608,2558.6,-8.4445e-05,0.0065569,-8.4628e-05,-1.3721,1.1085
23542,12.716,1.6364,0.1,0.00026336,2631.8,0.00026336,2631.8,-8.6893e-05,0.12131,-8.6927e-05,-0.13444,1.0697
23543,12.808,1.7273,0.1,0.00026089,2607.1,0.00026089,2607,-8.6078e-05,0.063668,-8.6116e-05,-0.22426,1.0827
23544,12.532,1.6364,0.1,0.00026818,2679.9,0.0002682,2680.6,-8.839e-05,1.2912,-8.8564e-05,-0.016549,1.0442
23545,12.624,1.7273,0.1,0.0002657,2655.2,0.00026572,2655.7,-8.7584e-05,1.1425,-8.7739e-05,-0.017261,1.0571
23546,12.349,1.6364,0.1,0.00027301,2728.2,0.00027306,2729.6,-8.9871e-05,2.6613,-9.0226e-05,-0.010013,1.0189
23547,12.441,1.7273,0.1,0.00027052,2703.3,0.00027056,2704.6,-8.9062e-05,2.5094,-8.9397e-05,-0.010094,1.0317
23548,12.165,1.6364,0.1,0.00027786,2776.7,0.00027793,2778.7,-9.1347e-05,4.1327,-9.1898e-05,-0.0078024,0.99371
23549,12.257,1.7273,0.1,0.00027536,2751.7,0.00027542,2753.6,-9.0535e-05,3.9781,-9.1065e-05,-0.0078415,1.0065
23550,11.982,1.6364,0.1,0.00028272,2825.2,0.00028281,2828.1,-9.2819e-05,5.7109,-9.358e-05,-0.0066793,0.96875
23551,12.074,1.7273,0.1,0.00028021,2800.1,0.0002803,2802.9,-9.2003e-05,5.5534,-9.2743e-05,-0.0067388,0.98142
23552,11.799,1.6364,0.1,0.00028759,2873.9,0.00028772,2877.6,-9.4286e-05,7.4044,-9.5272e-05,-0.0059878,0.94398
23553,11.89,1.7273,0.1,0.00028507,2848.7,0.00028519,2852.3,-9.3467e-05,7.2443,-9.4432e-05,-0.0060461,0.95657
23554,11.615,1.6364,0.1,0.00029248,2922.8,0.00029263,2927.4,-9.5746e-05,9.2227,-9.6974e-05,-0.0055282,0.91941
23555,11.707,1.7273,0.1,0.00028994,2897.4,0.0002901,2901.9,-9.4924e-05,9.0603,-9.613e-05,-0.0055787,0.9319
23556,11.432,1.6364,0.1,0.00029738,2971.7,0.00029756,2977.3,-9.7199e-05,11.176,-9.8688e-05,-0.0051848,0.89504
23557,11.523,1.7273,0.1,0.00029483,2946.3,0.00029502,2951.8,-9.6373e-05,11.012,-9.7839e-05,-0.0052446,0.90743
23558,11.248,1.6364,0.1,0.00030229,3020.8,0.00030251,3027.4,-9.8644e-05,13.275,-0.00010041,-0.004934,0.87086
23559,11.34,1.7273,0.1,0.00029973,2995.2,0.00029995,3001.8,-9.7814e-05,13.111,-9.956e-05,-0.0049515,0.88315
23560,11.065,1.6364,0.1,0.00030721,3070,0.00030747,3077.7,-0.00010008,15.532,-0.00010215,-0.0047712,0.84689
23561,11.156,1.7273,0.1,0.00030464,3044.3,0.0003049,3051.9,-9.9245e-05,15.369,-0.00010129,-0.0047664,0.85908
23562,10.881,1.6364,0.1,0.00031214,3119.2,0.00031244,3128.2,-0.0001015,17.958,-0.00010389,-0.0046351,0.82312
23563,10.973,1.7273,0.1,0.00030956,3093.5,0.00030986,3102.3,-0.00010067,17.798,-0.00010304,-0.0046236,0.83522
23564,10.698,1.6364,0.1,0.00031708,3168.6,0.00031743,3178.9,-0.00010292,20.567,-0.00010565,-0.0045307,0.79957
23565,10.789,1.7273,0.1,0.00031449,3142.7,0.00031483,3152.9,-0.00010207,20.414,-0.00010479,-0.0044735,0.81156
23566,10.514,1.6364,0.1,0.00032203,3218.1,0.00032242,3229.7,-0.00010432,23.371,-0.00010743,-0.0044875,0.77622
23567,10.606,1.7273,0.1,0.00031943,3192.1,0.00031982,3203.6,-0.00010347,23.228,-0.00010656,-0.0043788,0.78811
23568,10.331,1.6364,0.1,0.00032699,3267.7,0.00032744,3280.8,-0.0001057,26.385,-0.00010921,-0.0045041,0.7531
23569,10.422,1.7273,0.1,0.00032438,3241.5,0.00032481,3254.6,-0.00010485,26.257,-0.00010834,-0.0043364,0.76488
23570,10.147,1.6364,0.1,0.00033196,3317.3,0.00033246,3332.1,-0.00010707,29.622,-0.00011101,-0.0045596,0.73019
23571,10.239,1.7273,0.1,0.00032933,3291,0.00032982,3305.7,-0.00010621,29.517,-0.00011014,-0.0043472,0.74187
23572,9.9637,1.6364,0.1,0.00033694,3367.1,0.00033749,3383.5,-0.00010842,33.097,-0.00011283,-0.0046512,0.70751
23573,10.055,1.7273,0.1,0.00033429,3340.6,0.00033484,3357,-0.00010755,33.023,-0.00011195,-0.0043689,0.71908
23574,9.7802,1.6364,0.1,0.00034192,3416.9,0.00034254,3435.2,-0.00010975,36.824,-0.00011465,-0.0048113,0.68506
23575,9.872,1.7273,0.1,0.00033926,3390.3,0.00033987,3408.5,-0.00010888,36.792,-0.00011377,-0.0044372,0.69652
23576,9.5968,1.6364,0.1,0.00034692,3466.8,0.00034759,3487,-0.00011107,40.819,-0.0001165,-0.0050522,0.66284
23577,9.6885,1.7273,0.1,0.00034424,3440,0.00034491,3460.2,-0.00011018,40.842,-0.00011562,-0.0045795,0.67418
23578,9.4133,1.6364,0.1,0.00035192,3516.7,0.00035266,3539.1,-0.00011236,45.096,-0.00011836,-0.0053865,0.64085
23579,9.505,1.7273,0.1,0.00034922,3489.8,0.00034997,3512.2,-0.00011146,45.19,-0.00011747,-0.0047909,0.65208
23580,9.2298,1.6364,0.1,0.00035692,3566.8,0.00035774,3591.3,-0.00011363,49.667,-0.00012024,-0.0058412,0.6191
23581,9.3215,1.7273,0.1,0.00035421,3539.6,0.00035503,3564.3,-0.00011271,49.854,-0.00011935,-0.005099,0.63021
23582,9.0463,1.6364,0.1,0.00036194,3616.9,0.00036283,3643.8,-0.00011487,54.547,-0.00012213,-0.0064462,0.59758
23583,9.1381,1.7273,0.1,0.0003592,3589.6,0.00036011,3616.7,-0.00011394,54.852,-0.00012124,-0.0055262,0.60858
23584,8.8628,1.6364,0.1,0.00036696,3667,0.00036794,3696.5,-0.00011609,59.744,-0.00012404,-0.0072427,0.57632
23585,8.9546,1.7273,0.1,0.00036421,3639.5,0.00036519,3669.3,-0.00011515,60.199,-0.00012316,-0.0061063,0.58719
23586,8.6794,1.6364,0.1,0.00037199,3717.3,0.00037306,3749.5,-0.00011729,65.269,-0.00012598,-0.0082839,0.5553
23587,8.7711,1.7273,0.1,0.00036922,3689.6,0.00037029,3722.1,-0.00011632,65.911,-0.00012509,-0.0068819,0.56605
23588,8.4959,1.6364,0.1,0.00037703,3767.7,0.00037819,3802.8,-0.00011846,71.126,-0.00012793,-0.0096397,0.53453
23589,8.5876,1.7273,0.1,0.00037424,3739.8,0.00037541,3775.3,-0.00011746,72.003,-0.00012705,-0.0079095,0.54516
23590,8.3124,1.6364,0.1,0.00038209,3818.2,0.00038334,3856.3,-0.00011961,77.318,-0.0001299,-0.011402,0.51402
23591,8.4041,1.7273,0.1,0.00037927,3790.1,0.00038054,3828.7,-0.00011858,78.486,-0.00012903,-0.0092631,0.52452
23592,8.1289,1.6364,0.1,0.00038716,3868.9,0.00038852,3910.1,-0.00012073,83.839,-0.00013189,-0.013691,0.49376
23593,8.2206,1.7273,0.1,0.00038431,3840.5,0.0003857,3882.5,-0.00011967,85.368,-0.00013103,-0.01104,0.50414
23594,7.9454,1.6364,0.1,0.00039225,3919.8,0.00039371,3964.3,-0.00012184,90.681,-0.00013391,-0.016667,0.47377
23595,8.0372,1.7273,0.1,0.00038938,3891.1,0.00039087,3936.6,-0.00012073,92.651,-0.00013306,-0.013367,0.48401
23596,7.7619,1.6364,0.1,0.00039737,3970.9,0.00039894,4018.9,-0.00012293,97.824,-0.00013595,-0.020544,0.45404
23597,7.8537,1.7273,0.1,0.00039447,3942,0.00039608,3991.2,-0.00012176,100.34,-0.00013512,-0.016416,0.46415
23598,7.5785,1.6364,0.1,0.00040252,4022.4,0.00040421,4074,-0.000124,105.24,-0.00013801,-0.025608,0.43458
23599,7.6702,1.7273,0.1,0.0003996,3993.2,0.00040133,4046.3,-0.00012277,108.41,-0.0001372,-0.020411,0.44456
23600,7.395,1.6364,0.1,0.00040771,4074.3,0.00040951,4129.6,-0.00012507,112.89,-0.0001401,-0.032246,0.41539
23601,7.4867,1.7273,0.1,0.00040477,4044.9,0.00040663,4102,-0.00012377,116.85,-0.00013932,-0.025656,0.42524
23602,7.2115,1.6364,0.1,0.00041296,4126.7,0.00041488,4185.7,-0.00012614,120.71,-0.00014221,-0.040981,0.39648
23603,7.3032,1.7273,0.1,0.00041,4097.1,0.00041199,4158.5,-0.00012475,125.64,-0.00014148,-0.032555,0.40619
23604,7.028,1.6364,0.1,0.00041826,4179.8,0.0004203,4242.6,-0.00012723,128.63,-0.00014435,-0.052533,0.37785
23605,7.1198,1.7273,0.1,0.00041529,4150.1,0.00041742,4215.8,-0.00012573,134.72,-0.00014367,-0.041658,0.38742
23606,6.8445,1.6364,0.1,0.00042366,4233.6,0.00042581,4300.2,-0.00012834,136.56,-0.00014652,-0.067892,0.3595
23607,6.9363,1.7273,0.1,0.00042068,4203.9,0.00042295,4274.1,-0.00012673,144.02,-0.0001459,-0.05371,0.36893
23608,6.6611,1.6364,0.1,0.00042915,4288.6,0.00043142,4358.9,-0.00012949,144.37,-0.00014872,-0.088441,0.34143
23609,6.7528,1.7273,0.1,0.00042619,4259,0.0004286,4333.6,-0.00012775,153.47,-0.00014818,-0.069734,0.35072
23610,6.4776,1.6364,0.1,0.00043477,4344.7,0.00043716,4418.6,-0.00013071,151.89,-0.00015094,-0.11613,0.32366
23611,6.5693,1.7273,0.1,0.00043186,4315.6,0.0004344,4394.7,-0.00012882,162.93,-0.00015051,-0.091139,0.3328
23612,6.2941,1.6364,0.1,0.00044056,4402.5,0.00044304,4479.7,-0.00013203,158.92,-0.0001532,-0.15375,0.30618
23613,6.3858,1.7273,0.1,0.00043771,4374.1,0.00044038,4457.6,-0.00012996,172.25,-0.0001529,-0.11989,0.31518
23614,6.1106,1.6364,0.1,0.00044653,4462.3,0.00044911,4542.5,-0.00013347,165.18,-0.00015548,-0.20537,0.289
23615,6.2024,1.7273,0.1,0.00044381,4435,0.00044661,4522.7,-0.00013121,181.22,-0.00015535,-0.15877,0.29785
23616,5.9271,1.6364,0.1,0.00045276,4524.5,0.00045541,4607.1,-0.00013509,170.32,-0.00015779,-0.27711,0.27212
23617,6.0189,1.7273,0.1,0.00045021,4499,0.00045313,4590.6,-0.00013262,189.54,-0.00015788,-0.21177,0.28082
23618,5.7437,1.6364,0.1,0.0004593,4589.8,0.000462,4674.1,-0.00013694,173.82,-0.00016013,-0.37849,0.25555
23619,5.8354,1.7273,0.1,0.00045701,4566.9,0.00046003,4662,-0.00013425,196.8,-0.00016048,-0.28484,0.2641
23620,5.5602,1.6364,0.1,0.00046624,4659.2,0.00046896,4743.9,-0.00013913,174.97,-0.00016249,-0.52518,0.23929
23621,5.6519,1.7273,0.1,0.00046431,4639.9,0.00046741,4737.6,-0.00013618,202.44,-0.00016317,-0.38704,0.24769
23622,5.3767,1.6364,0.1,0.0004737,4733.8,0.00047639,4817.4,-0.00014178,172.71,-0.00016486,-0.74493,0.22335
23623,5.4684,1.7273,0.1,0.00047226,4719.3,0.00047541,4818.5,-0.00013853,205.6,-0.00016596,-0.53322,0.23159
23624,5.1932,1.6364,0.1,0.00048188,4815.5,0.00048446,4895.5,-0.00014507,165.42,-0.00016723,-1.0929,0.20772
23625,5.285,1.7273,0.1,0.00048107,4807.4,0.00048422,4906.2,-0.00014147,205.05,-0.00016886,-0.74909,0.21581
23626,5.0097,1.6364,0.1,0.00049105,4907.1,0.00049341,4979.8,-0.00014932,150.57,-0.00016959,-1.6954,0.19243
23627,5.1015,1.7273,0.1,0.00049105,4907.1,0.00049411,5002.9,-0.00014528,198.81,-0.00017188,-1.086,0.20036
23628,4.8263,1.6364,0.1,0.00050168,5013.3,0.00050362,5072.7,-0.00015499,124.19,-0.00017191,-2.931,0.17746
23629,4.918,1.7273,0.1,0.00050264,5022.9,0.00050548,5111.4,-0.00015034,183.83,-0.00017503,-1.6563,0.18524
23630,4.6428,1.6364,0.1,0.00051448,5141.3,0.00051569,5177.9,-0.00016269,80.809,-0.00017431,-6.5027,0.16283
23631,4.7345,1.7273,0.1,0.00051654,5161.8,0.00051895,5236.2,-0.00015728,155.27,-0.00017832,-2.8009,0.17046
23632,4.4593,1.6364,0.1,0.0005307,5303.4,0.00053061,5301,-0.00017147,25.874,-0.00017893,-30.204,0.14854
23633,4.551,1.7273,0.1,0.00053385,5334.8,0.00053546,5383.9,-0.00016699,105.97,-0.00018188,-5.9092,0.15602
23634,4.2758,1.6364,0.1,0.00055236,5519.7,0.00054989,5450.4,-0.00017436,8.6577,-0.00019469,-144.08,0.13459
23635,4.3676,1.7273,0.1,0.0005564,5560.1,0.00055654,5564.9,-0.0001793,36.107,-0.00018756,-25.966,0.14194
23636,4.0923,1.6364,0.1,0.00058305,5826.4,0.00057605,5637.9,-0.00017363,5.1271,-0.00022283,-364.59,0.121
23637,4.1841,1.7273,0.1,0.00058717,5867.7,0.00058459,5795,-0.00018534,10.049,-0.00020691,-151.99,0.12821
23638,3.9088,1.6364,0.1,0.0006282,6277.6,0.00061221,5874.2,-0.00016837,9.316,-0.00026909,-747.5,0.10776
23639,4.0006,1.7273,0.1,0.00063176,6313.2,0.00062379,6099.1,-0.00018727,5.1221,-0.00024287,-412.66,0.11486
23640,3.7254,1.6364,0.1,0.00069879,6983.1,0.00066317,6155,-0.00015518,6.2257,-0.00034725,-1436.9,0.094862
23641,3.8171,1.7273,0.1,0.00069914,6986.6,0.00068023,6513.1,-0.00018489,12.963,-0.00030307,-875.04,0.10189
23642,3.5419,1.6364,0.1,0.00082019,8196.2,0.00073684,6443,-0.00012198,-9.8771,-0.00049054,-2779.1,0.082293
23643,3.6336,1.7273,0.1,0.00081797,8174.1,0.0007714,7102.8,-0.00017503,-8.3568,-0.00041717,-1827.7,0.089289
23644,3.4501,1.7273,0.1,0.0010757,10749,0.00094871,8188.5,-0.0001289,91.731,-0.00067442,-4007,0.077045
23645,3.3584,1.6364,0.1,0.00073702,7365.2,0.00063586,5305.5,-8.2644e-05,-93.014,-0.00048082,-3084.7,0.069974
23646,23.725,1.8182,0.1,1.8927e-05,189.14,1.0942e-05,58.859,3.0803e-06,-0.20913,-1.7224e-05,-152.77,2.814
23647,23.817,1.9091,0.1,1.8401e-05,183.88,9.2909e-06,39.701,3.982e-06,-0.188,-1.7401e-05,-160.85,2.8295
23648,23.908,1.8182,0.1,1.7486e-05,174.74,7.6246e-06,22.379,4.5888e-06,-0.43047,-1.7e-05,-162.64,2.8449
23649,23.541,1.8182,0.1,2.0917e-05,209.03,1.4452e-05,97.256,1.4791e-06,-0.21721,-1.7485e-05,-142.7,2.7832
23650,23.633,1.9091,0.1,2.0141e-05,201.27,1.2801e-05,78.132,2.3596e-06,-0.31899,-1.7635e-05,-150.55,2.7986
23651,23.358,1.8182,0.1,2.3291e-05,232.75,1.7968e-05,135.57,-9.0894e-08,-0.1231,-1.7801e-05,-133.19,2.7524
23652,23.45,1.9091,0.1,2.2325e-05,223.1,1.6316e-05,116.58,7.8173e-07,-0.1363,-1.7921e-05,-140.66,2.7678
23653,23.174,1.8182,0.1,2.595e-05,259.32,2.1497e-05,173.77,-1.6442e-06,-0.1009,-1.8172e-05,-124.29,2.7215
23654,23.266,1.9091,0.1,2.4838e-05,248.21,1.9842e-05,154.88,-7.8727e-07,-0.11933,-1.826e-05,-131.4,2.737
23655,22.991,1.8182,0.1,2.8822e-05,288.02,2.5041e-05,211.94,-3.1767e-06,-0.078779,-1.8602e-05,-115.98,2.6907
23656,23.083,1.9091,0.1,2.7596e-05,275.76,2.3379e-05,193.1,-2.3337e-06,-0.088378,-1.8653e-05,-122.7,2.7062
23657,22.807,1.8182,0.1,3.186e-05,318.38,2.8607e-05,250.12,-4.6914e-06,-0.065767,-1.9091e-05,-108.26,2.66
23658,22.899,1.9091,0.1,3.0541e-05,305.19,2.6933e-05,231.31,-3.862e-06,-0.073587,-1.9102e-05,-114.58,2.6754
23659,22.624,1.8182,0.1,3.503e-05,350.06,3.2197e-05,288.37,-6.1901e-06,-0.055719,-1.9637e-05,-101.09,2.6292
23660,22.716,1.9091,0.1,3.3632e-05,336.09,3.0508e-05,269.54,-5.3731e-06,-0.061598,-1.9608e-05,-107.02,2.6446
23661,22.44,1.8182,0.1,3.8307e-05,382.81,3.5816e-05,326.72,-7.6747e-06,-0.048231,-2.024e-05,-94.46,2.5985
23662,22.532,1.9091,0.1,3.6843e-05,368.18,3.4109e-05,307.84,-6.8691e-06,-0.05306,-2.017e-05,-99.988,2.6139
23663,22.257,1.8182,0.1,4.1675e-05,416.46,3.9463e-05,365.2,-9.1472e-06,-0.042315,-2.0897e-05,-88.326,2.5678
23664,22.349,1.9091,0.1,4.0152e-05,401.24,3.7736e-05,346.24,-8.3519e-06,-0.046351,-2.0786e-05,-93.468,2.5832
23665,22.073,1.8182,0.1,4.5119e-05,450.88,4.314e-05,403.82,-1.0609e-05,-0.037566,-2.1605e-05,-82.656,2.5371
23666,22.165,1.9091,0.1,4.3544e-05,435.14,4.1392e-05,384.77,-9.8233e-06,-0.041041,-2.1454e-05,-87.427,2.5524
23667,21.89,1.8182,0.1,4.863e-05,485.97,4.6848e-05,442.6,-1.2063e-05,-0.033668,-2.2362e-05,-77.415,2.5064
23668,21.982,1.9091,0.1,4.7008e-05,469.76,4.5078e-05,423.45,-1.1285e-05,-0.036711,-2.2171e-05,-81.832,2.5218
23669,21.706,1.8182,0.1,5.2201e-05,521.65,5.0586e-05,481.56,-1.3509e-05,-0.030415,-2.3163e-05,-72.57,2.4758
23670,21.798,1.9091,0.1,5.0536e-05,505.01,4.8794e-05,462.29,-1.2738e-05,-0.033127,-2.2936e-05,-76.652,2.4911
23671,21.523,1.8182,0.1,5.5826e-05,557.87,5.4354e-05,520.69,-1.4949e-05,-0.027661,-2.4008e-05,-68.091,2.4452
23672,21.615,1.9091,0.1,5.4121e-05,540.84,5.2539e-05,501.31,-1.4185e-05,-0.030107,-2.3744e-05,-71.858,2.4605
23673,21.34,1.8182,0.1,5.9499e-05,594.58,5.8152e-05,560.01,-1.6384e-05,-0.025311,-2.4891e-05,-63.947,2.4146
23674,21.431,1.9091,0.1,5.7758e-05,577.18,5.6314e-05,540.5,-1.5625e-05,-0.027531,-2.4594e-05,-67.42,2.4299
23675,21.156,1.8182,0.1,6.3217e-05,631.73,6.1979e-05,599.51,-1.7815e-05,-0.023283,-2.5812e-05,-60.112,2.3841
23676,21.248,1.9091,0.1,6.1442e-05,613.99,6.0119e-05,579.87,-1.7061e-05,-0.025323,-2.5484e-05,-63.31,2.3994
23677,20.973,1.8182,0.1,6.6976e-05,669.3,6.5834e-05,639.21,-1.9243e-05,-0.021513,-2.6768e-05,-56.561,2.3536
23678,21.064,1.9091,0.1,6.5169e-05,651.24,6.3953e-05,619.44,-1.8493e-05,-0.023397,-2.6409e-05,-59.504,2.3689
23679,20.789,1.8182,0.1,7.0774e-05,707.25,6.9717e-05,679.1,-2.0669e-05,-0.019962,-2.7756e-05,-53.271,2.3232
23680,20.881,1.9091,0.1,6.8938e-05,688.91,6.7815e-05,659.2,-1.9922e-05,-0.02171,-2.737e-05,-55.978,2.3385
23681,20.606,1.8182,0.1,7.4609e-05,745.58,7.3628e-05,719.19,-2.2093e-05,-0.018586,-2.8775e-05,-50.223,2.2928
23682,20.697,1.9091,0.1,7.2746e-05,726.95,7.1705e-05,699.16,-2.1349e-05,-0.020223,-2.8362e-05,-52.71,2.308
23683,20.422,1.8182,0.1,7.8479e-05,784.25,7.7565e-05,759.47,-2.3516e-05,-0.017361,-2.9822e-05,-47.395,2.2625
23684,20.514,1.9091,0.1,7.659e-05,765.37,7.5623e-05,739.31,-2.2775e-05,-0.018894,-2.9385e-05,-49.681,2.2777
23685,20.239,1.8182,0.1,8.2383e-05,823.26,8.1529e-05,799.95,-2.494e-05,-0.016268,-3.0896e-05,-44.772,2.2322
23686,20.33,1.9091,0.1,8.0468e-05,804.13,7.9568e-05,779.66,-2.4201e-05,-0.01771,-3.0436e-05,-46.871,2.2474
23687,20.055,1.8182,0.1,8.6318e-05,862.59,8.552e-05,840.63,-2.6363e-05,-0.015292,-3.1996e-05,-42.337,2.2019
23688,20.147,1.9091,0.1,8.4381e-05,843.22,8.354e-05,820.21,-2.5626e-05,-0.016648,-3.1515e-05,-44.264,2.2171
23689,19.872,1.8182,0.1,9.0284e-05,902.22,8.9536e-05,881.51,-2.7788e-05,-0.014408,-3.312e-05,-40.075,2.1718
23690,19.963,1.9091,0.1,8.8325e-05,882.64,8.7538e-05,860.97,-2.7051e-05,-0.015701,-3.2618e-05,-41.843,2.1869
23691,19.688,1.8182,0.1,9.428e-05,942.15,9.3577e-05,922.59,-2.9214e-05,-0.013598,-3.4266e-05,-37.972,2.1417
23692,19.78,1.9091,0.1,9.23e-05,922.36,9.1562e-05,901.92,-2.8478e-05,-0.014827,-3.3746e-05,-39.595,2.1568
23693,19.505,1.8182,0.1,9.8305e-05,982.37,9.7643e-05,963.87,-3.0641e-05,-0.012868,-3.5433e-05,-36.016,2.1116
23694,19.596,1.9091,0.1,9.6305e-05,962.38,9.5612e-05,943.08,-2.9906e-05,-0.014032,-3.4896e-05,-37.505,2.1267
23695,19.321,1.8182,0.1,0.00010236,1022.9,0.00010173,1005.3,-3.2071e-05,-0.012202,-3.6621e-05,-34.195,2.0816
23696,19.413,1.9091,0.1,0.00010034,1002.7,9.9686e-05,984.44,-3.1336e-05,-0.01332,-3.6067e-05,-35.561,2.0967
23697,19.138,1.8182,0.1,0.00010644,1063.7,0.00010585,1047,-3.3504e-05,-0.011587,-3.7827e-05,-32.498,2.0517
23698,19.229,1.9091,0.1,0.0001044,1043.3,0.00010379,1026,-3.2768e-05,-0.012655,-3.7258e-05,-33.751,2.0667
23699,18.954,1.8182,0.1,0.00011055,1104.7,0.00010999,1088.9,-3.4939e-05,-0.011024,-3.9052e-05,-30.916,2.0219
23700,19.046,1.9091,0.1,0.00010849,1084.2,0.00010791,1067.8,-3.4203e-05,-0.012047,-3.8469e-05,-32.065,2.0368
23701,18.771,1.8182,0.1,0.00011468,1146,0.00011415,1131,-3.6377e-05,-0.010498,-4.0294e-05,-29.437,1.9921
23702,18.863,1.9091,0.1,0.00011261,1125.3,0.00011206,1109.7,-3.5641e-05,-0.011489,-3.9697e-05,-30.491,2.007
23703,18.587,1.8182,0.1,0.00011884,1187.5,0.00011833,1173.3,-3.7819e-05,-0.01001,-4.1552e-05,-28.055,1.9624
23704,18.679,1.9091,0.1,0.00011675,1166.7,0.00011623,1151.9,-3.7082e-05,-0.01096,-4.0943e-05,-29.022,1.9773
23705,18.404,1.8182,0.1,0.00012302,1229.4,0.00012254,1215.8,-3.9265e-05,-0.009563,-4.2825e-05,-26.76,1.9328
23706,18.496,1.9091,0.1,0.00012092,1208.3,0.00012042,1194.3,-3.8526e-05,-0.010476,-4.2204e-05,-27.647,1.9477
23707,18.22,1.8182,0.1,0.00012723,1271.4,0.00012677,1258.4,-4.0714e-05,-0.0091549,-4.4113e-05,-25.545,1.9032
23708,18.312,1.9091,0.1,0.00012511,1250.2,0.00012464,1236.8,-3.9974e-05,-0.010032,-4.3481e-05,-26.359,1.9181
23709,18.037,1.8182,0.1,0.00013146,1313.7,0.00013103,1301.3,-4.2168e-05,-0.0087696,-4.5415e-05,-24.402,1.8738
23710,18.129,1.9091,0.1,0.00012933,1292.4,0.00012888,1279.6,-4.1427e-05,-0.0096277,-4.4773e-05,-25.149,1.8886
23711,17.853,1.8182,0.1,0.00013572,1356.2,0.0001353,1344.4,-4.3627e-05,-0.0083997,-4.673e-05,-23.325,1.8444
23712,17.945,1.9091,0.1,0.00013357,1334.8,0.00013314,1322.6,-4.2884e-05,-0.0092308,-4.6078e-05,-24.012,1.8592
23713,17.67,1.8182,0.1,0.00013999,1399,0.0001396,1387.7,-4.509e-05,-0.0080638,-4.8057e-05,-22.308,1.8151
23714,17.762,1.9091,0.1,0.00013783,1377.4,0.00013743,1365.8,-4.4345e-05,-0.0088589,-4.7397e-05,-22.939,1.8299
23715,17.486,1.8182,0.1,0.0001443,1442,0.00014392,1431.2,-4.6557e-05,-0.0077508,-4.9397e-05,-21.344,1.786
23716,17.578,1.9091,0.1,0.00014212,1420.2,0.00014174,1409.1,-4.5811e-05,-0.0085322,-4.8728e-05,-21.924,1.8006
23717,17.303,1.8182,0.1,0.00014862,1485.2,0.00014826,1474.9,-4.803e-05,-0.0074491,-5.0748e-05,-20.428,1.7569
23718,17.395,1.9091,0.1,0.00014643,1463.3,0.00014607,1452.7,-4.7282e-05,-0.0082074,-5.007e-05,-20.962,1.7715
23719,17.119,1.8182,0.1,0.00015297,1528.6,0.00015263,1518.7,-4.9508e-05,-0.0071666,-5.211e-05,-19.554,1.7279
23720,17.211,1.9091,0.1,0.00015077,1506.6,0.00015042,1496.5,-4.8758e-05,-0.0079041,-5.1424e-05,-20.046,1.7425
23721,16.936,1.8182,0.1,0.00015734,1572.3,0.00015701,1562.8,-5.0992e-05,-0.0068923,-5.3482e-05,-18.717,1.699
23722,17.028,1.9091,0.1,0.00015512,1550.2,0.00015479,1540.5,-5.0239e-05,-0.0076199,-5.2789e-05,-19.171,1.7136
23723,16.753,1.8182,0.1,0.00016173,1616.1,0.00016141,1607.1,-5.248e-05,-0.0066281,-5.4863e-05,-17.911,1.6703
23724,16.844,1.9091,0.1,0.0001595,1593.9,0.00015918,1584.7,-5.1725e-05,-0.0073334,-5.4164e-05,-18.331,1.6847
23725,16.569,1.8182,0.1,0.00016614,1660.2,0.00016584,1651.6,-5.3975e-05,-0.0063853,-5.6254e-05,-17.133,1.6416
23726,16.661,1.9091,0.1,0.0001639,1637.9,0.0001636,1629,-5.3218e-05,-0.0070701,-5.5549e-05,-17.522,1.656
23727,16.386,1.8182,0.1,0.00017057,1704.5,0.00017029,1696.3,-5.5475e-05,-0.0061629,-5.7654e-05,-16.378,1.613
23728,16.477,1.9091,0.1,0.00016832,1682.1,0.00016803,1673.6,-5.4715e-05,-0.0068271,-5.6942e-05,-16.739,1.6274
23729,16.202,1.8182,0.1,0.00017502,1749,0.00017475,1741.1,-5.6982e-05,-0.0059422,-5.9062e-05,-15.64,1.5846
23730,16.294,1.9091,0.1,0.00017276,1726.4,0.00017249,1718.4,-5.6219e-05,-0.0066056,-5.8345e-05,-15.977,1.5989
23731,16.019,1.8182,0.1,0.0001795,1793.7,0.00017924,1786.2,-5.8494e-05,-0.0057158,-6.0479e-05,-14.916,1.5563
23732,16.11,1.9091,0.1,0.00017723,1771,0.00017696,1763.4,-5.7729e-05,-0.0063665,-5.9755e-05,-15.23,1.5705
23733,15.835,1.8182,0.1,0.00018399,1838.6,0.00018375,1831.5,-6.0013e-05,-0.0055093,-6.1902e-05,-14.201,1.5281
23734,15.927,1.9091,0.1,0.00018171,1815.8,0.00018146,1808.5,-5.9245e-05,-0.0061358,-6.1173e-05,-14.496,1.5423
23735,15.652,1.8182,0.1,0.00018851,1883.8,0.00018827,1877,-6.1538e-05,-0.0053094,-6.3333e-05,-13.491,1.5
23736,15.743,1.9091,0.1,0.00018621,1860.8,0.00018597,1853.9,-6.0767e-05,-0.0059386,-6.2599e-05,-13.769,1.5142
23737,15.468,1.8182,0.1,0.00019304,1929.1,0.00019282,1922.6,-6.3069e-05,-0.005103,-6.477e-05,-12.781,1.4721
23738,15.56,1.9091,0.1,0.00019073,1906,0.00019051,1899.5,-6.2296e-05,-0.0057213,-6.4031e-05,-13.044,1.4861
23739,15.285,1.8182,0.1,0.00019759,1974.6,0.00019738,1968.5,-6.4607e-05,-0.0049018,-6.6213e-05,-12.068,1.4442
23740,15.376,1.9091,0.1,0.00019528,1951.4,0.00019506,1945.2,-6.3831e-05,-0.0055113,-6.547e-05,-12.318,1.4583
23741,15.101,1.8182,0.1,0.00020217,2020.3,0.00020197,2014.6,-6.6152e-05,-0.0046898,-6.7662e-05,-11.347,1.4165
23742,15.193,1.9091,0.1,0.00019984,1997,0.00019964,1991.2,-6.5373e-05,-0.0053054,-6.6914e-05,-11.586,1.4305
23743,14.918,1.8182,0.1,0.00020676,2066.1,0.00020657,2060.8,-6.7704e-05,-0.0044679,-6.9116e-05,-10.613,1.389
23744,15.009,1.9091,0.1,0.00020442,2042.8,0.00020423,2037.3,-6.6921e-05,-0.0050749,-6.8364e-05,-10.843,1.4029
23745,14.734,1.8182,0.1,0.00021137,2112.2,0.0002112,2107.3,-6.9262e-05,-0.0042476,-7.0575e-05,-9.8627,1.3616
23746,14.826,1.9091,0.1,0.00020902,2088.8,0.00020885,2083.7,-6.8477e-05,-0.0048501,-6.9819e-05,-10.086,1.3754
23747,14.551,1.8182,0.1,0.000216,2158.5,0.00021584,2153.9,-7.0828e-05,-0.0040261,-7.2038e-05,-9.0907,1.3343
23748,14.642,1.9091,0.1,0.00021364,2134.9,0.00021348,2130.2,-7.004e-05,-0.0046242,-7.1278e-05,-9.3084,1.3481
23749,14.367,1.8182,0.1,0.00022064,2204.9,0.0002205,2200.8,-7.2401e-05,-0.0037744,-7.3505e-05,-8.2925,1.3072
23750,14.459,1.9091,0.1,0.00021828,2181.3,0.00021813,2177,-7.161e-05,-0.0043972,-7.2741e-05,-8.5066,1.3209
23751,14.184,1.8182,0.1,0.00022531,2251.5,0.00022518,2247.8,-7.3982e-05,-0.0034726,-7.4975e-05,-7.4633,1.2802
23752,14.276,1.9091,0.1,0.00022293,2227.8,0.0002228,2223.9,-7.3187e-05,-0.0041107,-7.4208e-05,-7.6752,1.2938
23753,14,1.8182,0.1,0.00022999,2298.3,0.00022988,2295,-7.557e-05,-0.0031373,-7.6448e-05,-6.5979,1.2534
23754,14.092,1.9091,0.1,0.0002276,2274.5,0.00022749,2271,-7.4772e-05,-0.0037827,-7.5677e-05,-6.8092,1.2669
23755,13.817,1.8182,0.1,0.00023469,2345.3,0.00023459,2342.4,-7.7166e-05,-0.0027189,-7.7923e-05,-5.6912,1.2267
23756,13.909,1.9091,0.1,0.00023229,2321.3,0.00023219,2318.4,-7.6364e-05,-0.0034242,-7.7149e-05,-5.9034,1.2402
23757,13.633,1.8182,0.1,0.00023941,2392.4,0.00023933,2390,-7.877e-05,-0.0021406,-7.94e-05,-4.7375,1.2002
23758,13.725,1.9091,0.1,0.000237,2368.4,0.00023691,2365.9,-7.7965e-05,-0.0029175,-7.8623e-05,-4.9521,1.2136
23759,13.45,1.8182,0.1,0.00024414,2439.7,0.00024408,2437.9,-8.0382e-05,-0.0012818,-8.0878e-05,-3.7312,1.1738
23760,13.542,1.9091,0.1,0.00024172,2415.6,0.00024166,2413.6,-7.9573e-05,-0.0021984,-8.0098e-05,-3.9495,1.1871
23761,13.266,1.8182,0.1,0.00024889,2487.2,0.00024885,2485.9,-8.2002e-05,0.00026371,-8.2357e-05,-2.6665,1.1476
23762,13.358,1.9091,0.1,0.00024646,2462.9,0.00024641,2461.5,-8.119e-05,-0.00099148,-8.1574e-05,-2.8896,1.1609
23763,13.083,1.8182,0.1,0.00025366,2534.8,0.00025363,2534,-8.363e-05,0.0040712,-8.3835e-05,-1.5383,1.1216
23764,13.175,1.9091,0.1,0.00025122,2510.4,0.00025119,2509.6,-8.2814e-05,0.0017633,-8.305e-05,-1.7669,1.1348
23765,12.899,1.8182,0.1,0.00025844,2582.6,0.00025843,2582.4,-8.5264e-05,0.0329,-8.5316e-05,-0.36252,1.0958
23766,12.991,1.9091,0.1,0.00025599,2558.1,0.00025598,2557.8,-8.4446e-05,0.015613,-8.4526e-05,-0.58411,1.1088
23767,12.716,1.8182,0.1,0.00026323,2630.5,0.00026325,2631,-8.6785e-05,0.97334,-8.6917e-05,-0.018242,1.0701
23768,12.808,1.9091,0.1,0.00026078,2606,0.00026079,2606.3,-8.5994e-05,0.72792,-8.6094e-05,-0.021002,1.0831
23769,12.532,1.8182,0.1,0.00026804,2678.6,0.00026808,2679.8,-8.8259e-05,2.3379,-8.8571e-05,-0.010144,1.0446
23770,12.624,1.9091,0.1,0.00026558,2653.9,0.00026561,2655,-8.7466e-05,2.0795,-8.7744e-05,-0.010369,1.0575
23771,12.349,1.8182,0.1,0.00027287,2726.8,0.00027293,2728.7,-8.9728e-05,3.8046,-9.0236e-05,-0.0078528,1.0193
23772,12.441,1.9091,0.1,0.00027039,2702,0.00027045,2703.8,-8.8933e-05,3.5344,-8.9405e-05,-0.0079205,1.0321
23773,12.165,1.8182,0.1,0.00027771,2775.2,0.0002778,2777.8,-9.1194e-05,5.3778,-9.191e-05,-0.0067565,0.99413
23774,12.257,1.9091,0.1,0.00027522,2750.3,0.00027531,2752.8,-9.0396e-05,5.0947,-9.1075e-05,-0.0068019,1.0069
23775,11.982,1.8182,0.1,0.00028256,2823.6,0.00028268,2827.2,-9.2653e-05,7.0663,-9.3595e-05,-0.0060906,0.96918
23776,12.074,1.9091,0.1,0.00028006,2798.7,0.00028018,2802.1,-9.1854e-05,6.7693,-9.2756e-05,-0.0061532,0.98182
23777,11.799,1.8182,0.1,0.00028742,2872.2,0.00028757,2876.7,-9.4107e-05,8.8801,-9.529e-05,-0.0056229,0.94442
23778,11.89,1.9091,0.1,0.00028492,2847.2,0.00028506,2851.5,-9.3306e-05,8.5684,-9.4447e-05,-0.0056826,0.95697
23779,11.615,1.8182,0.1,0.0002923,2921,0.00029248,2926.4,-9.5553e-05,10.83,-9.6995e-05,-0.0052814,0.91985
23780,11.707,1.9091,0.1,0.00028978,2895.8,0.00028996,2901.1,-9.475e-05,10.503,-9.6148e-05,-0.0053333,0.93231
23781,11.432,1.8182,0.1,0.00029719,2969.8,0.0002974,2976.3,-9.699e-05,12.928,-9.8712e-05,-0.0049984,0.89548
23782,11.523,1.9091,0.1,0.00029466,2944.6,0.00029487,2950.8,-9.6185e-05,12.585,-9.7861e-05,-0.0050616,0.90784
23783,11.248,1.8182,0.1,0.00030208,3018.8,0.00030234,3026.3,-9.8418e-05,15.186,-0.00010044,-0.0047721,0.87131
23784,11.34,1.9091,0.1,0.00029955,2993.4,0.0002998,3000.8,-9.761e-05,14.826,-9.9584e-05,-0.0047965,0.88357
23785,11.065,1.8182,0.1,0.00030699,3067.8,0.00030729,3076.6,-9.9834e-05,17.618,-0.00010218,-0.0046085,0.84735
23786,11.156,1.9091,0.1,0.00030444,3042.3,0.00030473,3050.9,-9.9025e-05,17.241,-0.00010132,-0.0046152,0.85951
23787,10.881,1.8182,0.1,0.00031191,3117,0.00031225,3127,-0.00010124,20.237,-0.00010393,-0.0044535,0.82359
23788,10.973,1.9091,0.1,0.00030935,3091.4,0.00030968,3101.3,-0.00010043,19.845,-0.00010307,-0.0044591,0.83565
23789,10.698,1.8182,0.1,0.00031684,3166.2,0.00031722,3177.6,-0.00010263,23.059,-0.0001057,-0.0043153,0.80004
23790,10.789,1.9091,0.1,0.00031427,3140.5,0.00031465,3151.8,-0.00010181,22.652,-0.00010483,-0.0042807,0.812
23791,10.514,1.8182,0.1,0.00032177,3215.5,0.00032221,3228.5,-0.000104,26.099,-0.00010748,-0.0042238,0.7767
23792,10.606,1.9091,0.1,0.00031919,3189.7,0.00031962,3202.5,-0.00010318,25.679,-0.0001066,-0.0041449,0.78856
23793,10.331,1.8182,0.1,0.00032671,3264.9,0.0003272,3279.5,-0.00010536,29.375,-0.00010927,-0.0041785,0.75358
23794,10.422,1.9091,0.1,0.00032412,3239,0.0003246,3253.3,-0.00010454,28.944,-0.00010839,-0.0040484,0.76533
23795,10.147,1.8182,0.1,0.00033166,3314.3,0.00033221,3330.7,-0.00010669,32.904,-0.00011107,-0.0041587,0.73068
23796,10.239,1.9091,0.1,0.00032906,3288.3,0.0003296,3304.4,-0.00010587,32.467,-0.00011019,-0.003993,0.74232
23797,9.9637,1.8182,0.1,0.00033662,3363.8,0.00033723,3382.1,-0.00010801,36.705,-0.0001129,-0.0041608,0.70801
23798,10.055,1.9091,0.1,0.000334,3337.7,0.0003346,3355.7,-0.00010718,36.267,-0.00011201,-0.0039343,0.71954
23799,9.7802,1.8182,0.1,0.00034158,3413.4,0.00034225,3433.6,-0.00010931,40.797,-0.00011474,-0.0042157,0.68556
23800,9.872,1.9091,0.1,0.00033895,3387.1,0.00033962,3407.1,-0.00010847,40.365,-0.00011385,-0.0039084,0.69698
23801,9.5968,1.8182,0.1,0.00034654,3463.1,0.00034729,3485.4,-0.00011058,45.201,-0.00011659,-0.0043332,0.66334
23802,9.6885,1.9091,0.1,0.0003439,3436.6,0.00034464,3458.8,-0.00010974,44.785,-0.0001157,-0.0039392,0.67465
23803,9.4133,1.8182,0.1,0.00035152,3512.7,0.00035234,3537.4,-0.00011182,49.938,-0.00011847,-0.004524,0.64136
23804,9.505,1.9091,0.1,0.00034886,3486.2,0.00034967,3510.7,-0.00011097,49.549,-0.00011757,-0.0040199,0.65255
23805,9.2298,1.8182,0.1,0.00035649,3562.5,0.0003574,3589.7,-0.00011303,55.028,-0.00012036,-0.0048111,0.61961
23806,9.3215,1.9091,0.1,0.00035382,3535.7,0.00035472,3562.8,-0.00011218,54.682,-0.00011946,-0.0041755,0.63069
23807,9.0463,1.8182,0.1,0.00036148,3612.3,0.00036247,3642.1,-0.00011422,60.494,-0.00012227,-0.0052212,0.59811
23808,9.1381,1.9091,0.1,0.00035878,3585.4,0.00035977,3615.1,-0.00011335,60.21,-0.00012137,-0.004424,0.60906
23809,8.8628,1.8182,0.1,0.00036647,3662.1,0.00036755,3694.9,-0.00011537,66.357,-0.00012421,-0.0057896,0.57684
23810,8.9546,1.9091,0.1,0.00036375,3635,0.00036484,3667.7,-0.0001145,66.16,-0.0001233,-0.0047945,0.58768
23811,8.6794,1.8182,0.1,0.00037146,3712.1,0.00037265,3747.9,-0.0001165,72.638,-0.00012616,-0.0065627,0.55583
23812,8.7711,1.9091,0.1,0.00036873,3684.8,0.00036991,3720.5,-0.0001156,72.559,-0.00012526,-0.005323,0.56654
23813,8.4959,1.8182,0.1,0.00037647,3762.1,0.00037776,3801.2,-0.00011758,79.356,-0.00012815,-0.0076017,0.53507
23814,8.5876,1.9091,0.1,0.00037372,3734.6,0.00037501,3773.7,-0.00011667,79.433,-0.00012724,-0.0060584,0.54565
23815,8.3124,1.8182,0.1,0.0003815,3812.3,0.00038289,3854.9,-0.00011864,86.529,-0.00013016,-0.0089868,0.51456
23816,8.4041,1.9091,0.1,0.00037872,3784.6,0.00038012,3827.2,-0.0001177,86.809,-0.00012925,-0.007064,0.52502
23817,8.1289,1.8182,0.1,0.00038654,3862.7,0.00038805,3908.9,-0.00011966,94.173,-0.0001322,-0.010824,0.4943
23818,8.2206,1.9091,0.1,0.00038374,3834.7,0.00038526,3881.2,-0.00011869,94.714,-0.0001313,-0.0084236,0.50464
23819,7.9454,1.8182,0.1,0.00039161,3913.4,0.00039325,3963.5,-0.00012065,102.3,-0.00013427,-0.013252,0.47431
23820,8.0372,1.9091,0.1,0.00038877,3885.1,0.00039043,3935.6,-0.00011964,103.17,-0.00013337,-0.010248,0.48452
23821,7.7619,1.8182,0.1,0.00039671,3964.3,0.00039848,4018.6,-0.00012161,110.92,-0.00013637,-0.016456,0.45459
23822,7.8537,1.9091,0.1,0.00039384,3935.7,0.00039563,3990.6,-0.00012055,112.2,-0.00013549,-0.012682,0.46466
23823,7.5785,1.8182,0.1,0.00040185,4015.7,0.00040376,4074.4,-0.00012254,120.02,-0.00013851,-0.020682,0.43513
23824,7.6702,1.9091,0.1,0.00039896,3986.8,0.00040089,4046.3,-0.00012143,121.82,-0.00013765,-0.01592,0.44507
23825,7.395,1.8182,0.1,0.00040706,4067.7,0.0004091,4131,-0.00012345,129.6,-0.0001407,-0.026258,0.41595
23826,7.4867,1.9091,0.1,0.00040412,4038.5,0.00040621,4102.9,-0.00012227,132.04,-0.00013985,-0.020217,0.42575
23827,7.2115,1.8182,0.1,0.00041234,4120.5,0.00041453,4188.5,-0.00012434,139.64,-0.00014293,-0.033623,0.39704
23828,7.3032,1.9091,0.1,0.00040937,4090.9,0.00041161,4160.4,-0.00012309,142.87,-0.00014211,-0.025917,0.4067
23829,7.028,1.8182,0.1,0.00041772,4174.3,0.00042007,4247.3,-0.00012524,150.1,-0.00014522,-0.043369,0.3784
23830,7.1198,1.9091,0.1,0.00041471,4144.3,0.00041712,4219.2,-0.00012389,154.29,-0.00014443,-0.033474,0.38793
23831,6.8445,1.8182,0.1,0.00042323,4229.3,0.00042573,4307.5,-0.00012614,160.92,-0.00014756,-0.056295,0.36006
23832,6.9363,1.9091,0.1,0.00042019,4199,0.00042277,4279.6,-0.00012468,166.28,-0.00014682,-0.043502,0.36944
23833,6.6611,1.8182,0.1,0.0004289,4286.1,0.00043157,4369.5,-0.00012707,172.02,-0.00014998,-0.07349,0.34199
23834,6.7528,1.9091,0.1,0.00042583,4255.4,0.00042859,4341.9,-0.00012549,178.78,-0.00014929,-0.05682,0.35124
23835,6.4776,1.8182,0.1,0.0004348,4345,0.00043762,4433.7,-0.00012807,183.29,-0.00015247,-0.096443,0.32422
23836,6.5693,1.9091,0.1,0.0004317,4314,0.00043464,4406.7,-0.00012633,191.74,-0.00015186,-0.074542,0.33332
23837,6.2941,1.8182,0.1,0.00044096,4406.6,0.00044395,4500.6,-0.00012915,194.55,-0.00015506,-0.12721,0.30675
23838,6.3858,1.9091,0.1,0.00043786,4375.6,0.00044099,4474.4,-0.00012724,205.03,-0.00015454,-0.098175,0.3157
23839,6.1106,1.8182,0.1,0.00044749,4471.8,0.00045063,4570.9,-0.00013037,205.58,-0.00015775,-0.16869,0.28957
23840,6.2024,1.9091,0.1,0.00044439,4440.9,0.0004477,4546,-0.00012825,218.47,-0.00015735,-0.12979,0.29837
23841,5.9271,1.8182,0.1,0.00045446,4541.5,0.00045774,4645.5,-0.00013178,216.04,-0.00016056,-0.225,0.2727
23842,6.0189,1.9091,0.1,0.0004514,4510.9,0.0004549,4622.3,-0.00012944,231.82,-0.00016031,-0.17224,0.28135
23843,5.7437,1.8182,0.1,0.00046202,4617,0.00046543,4725.4,-0.00013347,225.47,-0.00016352,-0.3022,0.25613
23844,5.8354,1.9091,0.1,0.00045903,4587.2,0.0004627,4704.5,-0.00013086,244.72,-0.00016346,-0.22958,0.26463
23845,5.5602,1.8182,0.1,0.00047032,4700,0.00047385,4812,-0.00013556,233.19,-0.00016665,-0.4096,0.23988
23846,5.6519,1.9091,0.1,0.00046747,4671.4,0.0004713,4794.3,-0.00013263,256.63,-0.00016683,-0.30764,0.24822
23847,5.3767,1.8182,0.1,0.00047961,4792.8,0.0004832,4907.1,-0.00013819,238.18,-0.00016997,-0.56219,0.22395
23848,5.4684,1.9091,0.1,0.00047694,4766.1,0.00048091,4893.7,-0.00013489,266.76,-0.00017045,-0.41537,0.23213
23849,5.1932,1.8182,0.1,0.0004902,4898.6,0.00049381,5013.2,-0.00014162,238.9,-0.00017352,-0.78691,0.20834
23850,5.285,1.9091,0.1,0.00048778,4874.4,0.00049185,5005.3,-0.00013786,273.93,-0.00017439,-0.5666,0.21637
23851,5.0097,1.8182,0.1,0.00050254,5021.9,0.00050607,5133.7,-0.00014618,232.92,-0.00017734,-1.135,0.19306
23852,5.1015,1.9091,0.1,0.00050043,5000.8,0.00050454,5132.8,-0.00014182,276.33,-0.0001787,-0.78733,0.20093
23853,4.8263,1.8182,0.1,0.00051732,5169.7,0.00052063,5273.6,-0.00015243,216.44,-0.00018147,-1.7322,0.17812
23854,4.918,1.9091,0.1,0.00051553,5151.7,0.00051958,5281.3,-0.00014723,271.16,-0.00018347,-1.1206,0.18584
23855,4.6428,1.8182,0.1,0.00053559,5352.2,0.00053842,5440,-0.0001612,183.39,-0.00018599,-2.9161,0.16354
23856,4.7345,1.9091,0.1,0.00053402,5336.5,0.00053785,5458.1,-0.00015476,254.04,-0.0001888,-1.6951,0.17109
23857,4.4593,1.8182,0.1,0.00055901,5586.2,0.0005609,5644.2,-0.00017372,124.53,-0.00019113,-6.3151,0.1493
23858,4.551,1.9091,0.1,0.00055734,5569.5,0.00056067,5673.9,-0.00016545,218.08,-0.00019484,-2.7465,0.1567
23859,4.2758,1.8182,0.1,0.00059033,5899.3,0.00059046,5903.7,-0.00019001,39.547,-0.00019927,-30.087,0.13544
23860,4.3676,1.9091,0.1,0.00058779,5873.8,0.00059012,5945.6,-0.00018088,152.57,-0.00020196,-5.8614,0.14269
23861,4.0923,1.8182,0.1,0.00063445,6340.2,0.00063114,6247.3,-0.00019899,10.003,-0.00022575,-191.02,0.12196
23862,4.1841,1.9091,0.1,0.00062913,6287,0.00062956,6300.4,-0.00020204,52.007,-0.00021223,-24.534,0.12906
23863,3.9088,1.8182,0.1,0.00070038,6999,0.00069003,6724.6,-0.00020379,8.7574,-0.00027507,-526.81,0.10887
23864,4.0006,1.9091,0.1,0.00068854,6880.7,0.00068517,6785.8,-0.00021687,8.1993,-0.00024372,-193.55,0.11583
23865,3.7254,1.8182,0.1,0.00081309,8125.3,0.00078486,7433.9,-0.0002046,-0.60553,-0.00036954,-1239.8,0.09619
23866,3.8171,1.9091,0.1,0.00077904,7785,0.00076818,7497.2,-0.00022734,17.207,-0.00030425,-560.68,0.10303
23867,3.5419,1.8182,0.1,0.0010529,10522,0.00097037,8751.4,-0.00018188,93.809,-0.00058823,-2959.3,0.083932
23868,3.6336,1.9091,0.1,0.00093947,9388.2,0.00090881,8617.5,-0.00024562,-56.416,-0.00041787,-1350.7,0.090691
23869,3.4501,1.9091,0.1,0.0013513,13504,0.0012576,11596,-0.00022035,490.97,-0.00074294,-3435.6,0.078847
23870,3.3584,1.8182,0.1,0.0010661,10654,0.00089034,7446,-4.5596e-05,413.71,-0.00074104,-4811.6,0.072084
23871,23.725,2,0.1,1.9497e-05,194.84,1.114e-05,58.902,3.2722e-06,-0.21583,-1.7814e-05,-158.65,2.8141
23872,23.817,2.0909,0.1,1.8925e-05,189.12,9.4647e-06,39.667,4.1591e-06,-0.19701,-1.7936e-05,-166.21,2.8295
23873,23.908,2,0.1,1.8076e-05,180.64,7.8183e-06,22.349,4.7863e-06,-0.43281,-1.7595e-05,-168.6,2.8449
23874,23.541,2,0.1,2.1467e-05,214.52,1.4664e-05,97.45,1.6644e-06,-0.22148,-1.8073e-05,-148.52,2.7833
23875,23.633,2.0909,0.1,2.0652e-05,206.38,1.2988e-05,78.238,2.5318e-06,-0.32351,-1.8173e-05,-155.89,2.7987
23876,23.358,2,0.1,2.3814e-05,237.98,1.819e-05,135.9,8.6161e-08,-0.12647,-1.8382e-05,-138.89,2.7524
23877,23.45,2.0909,0.1,2.2815e-05,227.99,1.6513e-05,116.81,9.4727e-07,-0.13949,-1.8455e-05,-145.92,2.7679
23878,23.174,2,0.1,2.6445e-05,264.26,2.1725e-05,174.23,-1.4764e-06,-0.10392,-1.8742e-05,-129.83,2.7216
23879,23.266,2.0909,0.1,2.5304e-05,252.86,2.0047e-05,155.23,-6.296e-07,-0.12213,-1.8786e-05,-136.54,2.7371
23880,22.991,2,0.1,2.9288e-05,292.67,2.5273e-05,212.49,-3.0187e-06,-0.081558,-1.9155e-05,-121.32,2.6908
23881,23.083,2.0909,0.1,2.8035e-05,280.16,2.3589e-05,193.56,-2.1846e-06,-0.090899,-1.9166e-05,-127.68,2.7063
23882,22.807,2,0.1,3.2296e-05,322.73,2.8837e-05,250.74,-4.5435e-06,-0.068389,-1.9622e-05,-113.36,2.66
23883,22.899,2.0909,0.1,3.0954e-05,309.32,2.7144e-05,231.84,-3.7218e-06,-0.07594,-1.9598e-05,-119.37,2.6755
23884,22.624,2,0.1,3.5435e-05,354.1,3.2423e-05,289.03,-6.052e-06,-0.05823,-2.0143e-05,-105.94,2.6293
23885,22.716,2.0909,0.1,3.4019e-05,339.95,3.0718e-05,270.12,-5.2419e-06,-0.063834,-2.0084e-05,-111.58,2.6447
23886,22.44,2,0.1,3.8681e-05,386.55,3.6033e-05,327.39,-7.5463e-06,-0.050658,-2.0719e-05,-99.023,2.5986
23887,22.532,2.0909,0.1,3.7202e-05,371.76,3.4312e-05,308.45,-6.7468e-06,-0.055213,-2.0622e-05,-104.31,2.614
23888,22.257,2,0.1,4.2018e-05,419.89,3.9669e-05,365.85,-9.028e-06,-0.044672,-2.1346e-05,-92.598,2.5678
23889,22.349,2.0909,0.1,4.0483e-05,404.55,3.7932e-05,346.85,-8.2382e-06,-0.048439,-2.1212e-05,-97.53,2.5832
23890,22.073,2,0.1,4.5433e-05,454.01,4.3334e-05,404.44,-1.0499e-05,-0.039859,-2.2024e-05,-86.634,2.5372
23891,22.165,2.0909,0.1,4.3848e-05,438.18,4.1577e-05,385.37,-9.7177e-06,-0.043073,-2.1853e-05,-91.225,2.5525
23892,21.89,2,0.1,4.8915e-05,488.81,4.7028e-05,443.18,-1.196e-05,-0.035899,-2.275e-05,-81.102,2.5065
23893,21.982,2.0909,0.1,4.7286e-05,472.53,4.5251e-05,424.01,-1.1187e-05,-0.038694,-2.2543e-05,-85.365,2.5219
23894,21.706,2,0.1,5.2458e-05,524.22,5.0751e-05,482.08,-1.3414e-05,-0.032586,-2.3521e-05,-75.974,2.4759
23895,21.798,2.0909,0.1,5.0788e-05,507.53,4.8953e-05,462.81,-1.2647e-05,-0.035062,-2.328e-05,-79.925,2.4912
23896,21.523,2,0.1,5.6056e-05,560.18,5.4504e-05,521.15,-1.4861e-05,-0.029774,-2.4336e-05,-71.222,2.4453
23897,21.615,2.0909,0.1,5.4348e-05,543.1,5.2685e-05,501.77,-1.41e-05,-0.031993,-2.4062e-05,-74.877,2.4606
23898,21.34,2,0.1,5.9704e-05,596.63,5.8286e-05,560.4,-1.6302e-05,-0.027364,-2.5192e-05,-66.819,2.4147
23899,21.431,2.0909,0.1,5.7961e-05,579.21,5.6447e-05,540.9,-1.5547e-05,-0.02937,-2.4886e-05,-70.196,2.43
23900,21.156,2,0.1,6.3399e-05,633.55,6.2098e-05,599.84,-1.7739e-05,-0.025276,-2.6086e-05,-62.74,2.3842
23901,21.248,2.0909,0.1,6.1623e-05,615.8,6.0237e-05,580.22,-1.6988e-05,-0.027112,-2.575e-05,-65.855,2.3995
23902,20.973,2,0.1,6.7137e-05,670.9,6.5939e-05,639.47,-1.9172e-05,-0.023448,-2.7016e-05,-58.959,2.3537
23903,21.064,2.0909,0.1,6.533e-05,652.85,6.4058e-05,619.72,-1.8426e-05,-0.025138,-2.6651e-05,-61.831,2.369
23904,20.789,2,0.1,7.0915e-05,708.66,6.9808e-05,679.29,-2.0603e-05,-0.021838,-2.7981e-05,-55.455,2.3233
23905,20.881,2.0909,0.1,6.9079e-05,690.32,6.7907e-05,659.42,-1.986e-05,-0.023402,-2.7589e-05,-58.101,2.3386
23906,20.606,2,0.1,7.4731e-05,746.8,7.3706e-05,719.31,-2.2032e-05,-0.020408,-2.8977e-05,-52.207,2.2929
23907,20.697,2.0909,0.1,7.2869e-05,728.18,7.1785e-05,699.31,-2.1291e-05,-0.021868,-2.8561e-05,-54.642,2.3082
23908,20.422,2,0.1,7.8584e-05,785.3,7.7631e-05,759.54,-2.3459e-05,-0.019129,-3.0004e-05,-49.195,2.2626
23909,20.514,2.0909,0.1,7.6696e-05,766.43,7.5691e-05,739.41,-2.2721e-05,-0.020493,-2.9564e-05,-51.436,2.2778
23910,20.239,2,0.1,8.2472e-05,824.15,8.1584e-05,799.96,-2.4886e-05,-0.017984,-3.106e-05,-46.401,2.2323
23911,20.33,2.0909,0.1,8.056e-05,805.04,7.9626e-05,779.71,-2.415e-05,-0.019265,-3.0597e-05,-48.462,2.2475
23912,20.055,2,0.1,8.6393e-05,863.33,8.5564e-05,840.59,-2.6313e-05,-0.016958,-3.2142e-05,-43.809,2.2021
23913,20.147,2.0909,0.1,8.4458e-05,844,8.3587e-05,820.21,-2.5578e-05,-0.018161,-3.1658e-05,-45.703,2.2172
23914,19.872,2,0.1,9.0346e-05,902.84,8.957e-05,881.41,-2.7741e-05,-0.016026,-3.3249e-05,-41.402,2.1719
23915,19.963,2.0909,0.1,8.8389e-05,883.28,8.7576e-05,860.91,-2.7007e-05,-0.017172,-3.2746e-05,-43.143,2.187
23916,19.688,2,0.1,9.433e-05,942.65,9.3602e-05,922.45,-2.917e-05,-0.015173,-3.4381e-05,-39.166,2.1418
23917,19.78,2.0909,0.1,9.2353e-05,922.89,9.1591e-05,901.82,-2.8436e-05,-0.016259,-3.386e-05,-40.766,2.1569
23918,19.505,2,0.1,9.8344e-05,982.76,9.766e-05,963.68,-3.06e-05,-0.014401,-3.5534e-05,-37.088,2.1117
23919,19.596,2.0909,0.1,9.6347e-05,962.81,9.5633e-05,942.94,-2.9867e-05,-0.015426,-3.4996e-05,-38.558,2.1268
23920,19.321,2,0.1,0.00010239,1023.2,0.00010174,1005.1,-3.2033e-05,-0.013694,-3.671e-05,-35.155,2.0818
23921,19.413,2.0909,0.1,0.00010037,1003,9.97e-05,984.26,-3.1299e-05,-0.014679,-3.6156e-05,-36.505,2.0968
23922,19.138,2,0.1,0.00010646,1063.8,0.00010585,1046.8,-3.3467e-05,-0.013041,-3.7905e-05,-33.355,2.0519
23923,19.229,2.0909,0.1,0.00010442,1043.5,0.00010379,1025.8,-3.2733e-05,-0.013981,-3.7336e-05,-34.596,2.0669
23924,18.954,2,0.1,0.00011056,1104.8,0.00010998,1088.6,-3.4904e-05,-0.012441,-3.9119e-05,-31.678,2.022
23925,19.046,2.0909,0.1,0.00010851,1084.3,0.00010791,1067.5,-3.417e-05,-0.013341,-3.8536e-05,-32.817,2.037
23926,18.771,2,0.1,0.00011468,1146,0.00011414,1130.7,-3.6345e-05,-0.011882,-4.0351e-05,-30.113,1.9922
23927,18.863,2.0909,0.1,0.00011261,1125.4,0.00011205,1109.5,-3.561e-05,-0.012752,-3.9755e-05,-31.16,2.0072
23928,18.587,2,0.1,0.00011883,1187.5,0.00011832,1172.9,-3.7788e-05,-0.011361,-4.16e-05,-28.651,1.9625
23929,18.679,2.0909,0.1,0.00011675,1166.7,0.00011622,1151.6,-3.7053e-05,-0.012194,-4.0992e-05,-29.613,1.9775
23930,18.404,2,0.1,0.00012301,1229.3,0.00012252,1215.4,-3.9236e-05,-0.010883,-4.2865e-05,-27.282,1.9329
23931,18.496,2.0909,0.1,0.00012091,1208.3,0.00012041,1194,-3.8499e-05,-0.011683,-4.2246e-05,-28.168,1.9478
23932,18.22,2,0.1,0.00012721,1271.3,0.00012675,1258.1,-4.0687e-05,-0.010445,-4.4146e-05,-26,1.9034
23933,18.312,2.0909,0.1,0.0001251,1250.1,0.00012462,1236.5,-3.9949e-05,-0.011213,-4.3516e-05,-26.814,1.9182
23934,18.037,2,0.1,0.00013144,1313.5,0.000131,1300.9,-4.2142e-05,-0.010032,-4.5441e-05,-24.795,1.874
23935,18.129,2.0909,0.1,0.00012931,1292.2,0.00012886,1279.3,-4.1402e-05,-0.010785,-4.4801e-05,-25.545,1.8888
23936,17.853,2,0.1,0.00013569,1356,0.00013527,1344,-4.3602e-05,-0.0096358,-4.675e-05,-23.661,1.8446
23937,17.945,2.0909,0.1,0.00013355,1334.6,0.00013312,1322.2,-4.286e-05,-0.010365,-4.61e-05,-24.352,1.8594
23938,17.67,2,0.1,0.00013997,1398.7,0.00013957,1387.3,-4.5066e-05,-0.0092753,-4.8071e-05,-22.59,1.8153
23939,17.762,2.0909,0.1,0.00013781,1377.1,0.0001374,1365.4,-4.4323e-05,-0.009972,-4.7413e-05,-23.227,1.83
23940,17.486,2,0.1,0.00014426,1441.6,0.00014388,1430.7,-4.6535e-05,-0.0089389,-4.9406e-05,-21.577,1.7862
23941,17.578,2.0909,0.1,0.00014209,1420,0.0001417,1408.7,-4.579e-05,-0.009624,-4.8739e-05,-22.165,1.8008
23942,17.303,2,0.1,0.00014858,1484.8,0.00014822,1474.4,-4.8009e-05,-0.0086146,-5.0751e-05,-20.614,1.7571
23943,17.395,2.0909,0.1,0.0001464,1463,0.00014603,1452.3,-4.7262e-05,-0.0092795,-5.0077e-05,-21.158,1.7717
23944,17.119,2,0.1,0.00015293,1528.2,0.00015258,1518.3,-4.9488e-05,-0.0083114,-5.2108e-05,-19.697,1.7281
23945,17.211,2.0909,0.1,0.00015073,1506.3,0.00015038,1496.1,-4.8739e-05,-0.0089573,-5.1426e-05,-20.201,1.7427
23946,16.936,2,0.1,0.00015729,1571.8,0.00015696,1562.4,-5.0973e-05,-0.008017,-5.3476e-05,-18.819,1.6992
23947,17.028,2.0909,0.1,0.00015509,1549.8,0.00015475,1540.1,-5.0221e-05,-0.0086566,-5.2787e-05,-19.287,1.7138
23948,16.753,2,0.1,0.00016168,1615.7,0.00016137,1606.6,-5.2462e-05,-0.0077331,-5.4854e-05,-17.975,1.6705
23949,16.844,2.0909,0.1,0.00015946,1593.5,0.00015914,1584.2,-5.1708e-05,-0.0083529,-5.4158e-05,-18.411,1.6849
23950,16.569,2,0.1,0.00016609,1659.7,0.00016579,1651.1,-5.3958e-05,-0.0074714,-5.6241e-05,-17.16,1.6418
23951,16.661,2.0909,0.1,0.00016386,1637.5,0.00016355,1628.6,-5.3201e-05,-0.0080741,-5.5538e-05,-17.567,1.6562
23952,16.386,2,0.1,0.00017052,1704,0.00017023,1695.8,-5.5459e-05,-0.0072311,-5.7637e-05,-16.37,1.6133
23953,16.477,2.0909,0.1,0.00016828,1681.6,0.00016799,1673.2,-5.47e-05,-0.0078151,-5.6928e-05,-16.75,1.6276
23954,16.202,2,0.1,0.00017497,1748.5,0.0001747,1740.6,-5.6966e-05,-0.006993,-5.9041e-05,-15.598,1.5848
23955,16.294,2.0909,0.1,0.00017272,1726,0.00017244,1717.9,-5.6205e-05,-0.0075806,-5.8327e-05,-15.956,1.5991
23956,16.019,2,0.1,0.00017944,1793.2,0.00017918,1785.7,-5.848e-05,-0.0067513,-6.0454e-05,-14.841,1.5565
23957,16.11,2.0909,0.1,0.00017718,1770.5,0.00017691,1762.9,-5.7715e-05,-0.0073283,-5.9735e-05,-15.179,1.5708
23958,15.835,2,0.1,0.00018393,1838.1,0.00018369,1831,-5.9999e-05,-0.0065317,-6.1874e-05,-14.094,1.5283
23959,15.927,2.0909,0.1,0.00018166,1815.3,0.00018141,1808.1,-5.9232e-05,-0.0070851,-6.115e-05,-14.414,1.5425
23960,15.652,2,0.1,0.00018845,1883.2,0.00018821,1876.4,-6.1525e-05,-0.006319,-6.3301e-05,-13.352,1.5003
23961,15.743,2.0909,0.1,0.00018616,1860.3,0.00018592,1853.4,-6.0755e-05,-0.0068783,-6.2572e-05,-13.657,1.5144
23962,15.468,2,0.1,0.00019298,1928.4,0.00019276,1922.1,-6.3057e-05,-0.0061001,-6.4735e-05,-12.61,1.4723
23963,15.56,2.0909,0.1,0.00019068,1905.5,0.00019046,1899,-6.2284e-05,-0.0066508,-6.4001e-05,-12.903,1.4864
23964,15.285,2,0.1,0.00019753,1973.9,0.00019732,1968,-6.4596e-05,-0.0058878,-6.6175e-05,-11.865,1.4445
23965,15.376,2.0909,0.1,0.00019522,1950.9,0.00019501,1944.7,-6.382e-05,-0.0064321,-6.5436e-05,-12.148,1.4585
23966,15.101,2,0.1,0.0002021,2019.6,0.00020191,2014,-6.6142e-05,-0.0056659,-6.762e-05,-11.111,1.4168
23967,15.193,2.0909,0.1,0.00019978,1996.4,0.00019958,1990.7,-6.5363e-05,-0.0062194,-6.6878e-05,-11.386,1.4307
23968,14.918,2,0.1,0.00020669,2065.5,0.00020651,2060.3,-6.7695e-05,-0.0054355,-6.9071e-05,-10.344,1.3893
23969,15.009,2.0909,0.1,0.00020436,2042.2,0.00020418,2036.8,-6.6912e-05,-0.0059829,-6.8324e-05,-10.612,1.4031
23970,14.734,2,0.1,0.0002113,2111.5,0.00021113,2106.7,-6.9254e-05,-0.0052086,-7.0526e-05,-9.5592,1.3619
23971,14.826,2.0909,0.1,0.00020896,2088.1,0.00020879,2083.2,-6.8469e-05,-0.0057549,-6.9776e-05,-9.8236,1.3757
23972,14.551,2,0.1,0.00021592,2157.7,0.00021577,2153.3,-7.0821e-05,-0.0049818,-7.1985e-05,-8.7515,1.3346
23973,14.642,2.0909,0.1,0.00021357,2134.3,0.00021342,2129.7,-7.0032e-05,-0.0055279,-7.1231e-05,-9.0138,1.3483
23974,14.367,2,0.1,0.00022057,2204.1,0.00022043,2200.2,-7.2395e-05,-0.0047261,-7.3448e-05,-7.916,1.3075
23975,14.459,2.0909,0.1,0.00021821,2180.6,0.00021807,2176.5,-7.1603e-05,-0.0053028,-7.2691e-05,-8.1782,1.3211
23976,14.184,2,0.1,0.00022523,2250.7,0.00022511,2247.2,-7.3977e-05,-0.0044222,-7.4914e-05,-7.0474,1.2805
23977,14.276,2.0909,0.1,0.00022286,2227.1,0.00022273,2223.4,-7.3181e-05,-0.0050212,-7.4154e-05,-7.3115,1.2941
23978,14,2,0.1,0.00022991,2297.5,0.0002298,2294.4,-7.5566e-05,-0.0040848,-7.6383e-05,-6.1406,1.2537
23979,14.092,2.0909,0.1,0.00022753,2273.7,0.00022742,2270.5,-7.4767e-05,-0.004701,-7.562e-05,-6.4082,1.2672
23980,13.817,2,0.1,0.00023461,2344.4,0.00023452,2341.8,-7.7163e-05,-0.0036619,-7.7853e-05,-5.1897,1.227
23981,13.909,2.0909,0.1,0.00023222,2320.6,0.00023212,2317.8,-7.6361e-05,-0.004353,-7.7087e-05,-5.4628,1.2405
23982,13.633,2,0.1,0.00023932,2391.5,0.00023925,2389.4,-7.8768e-05,-0.0030621,-7.9325e-05,-4.1889,1.2005
23983,13.725,2.0909,0.1,0.00023692,2367.6,0.00023684,2365.3,-7.7962e-05,-0.0038569,-7.8557e-05,-4.4693,1.2139
23984,13.45,2,0.1,0.00024405,2438.8,0.00024399,2437.2,-8.0381e-05,-0.002115,-8.0797e-05,-3.1321,1.1741
23985,13.542,2.0909,0.1,0.00024164,2414.7,0.00024158,2413,-7.9572e-05,-0.0031254,-8.0027e-05,-3.4216,1.1874
23986,13.266,2,0.1,0.00024879,2486.2,0.00024876,2485.2,-8.2002e-05,-0.00015486,-8.227e-05,-2.0134,1.148
23987,13.358,2.0909,0.1,0.00024638,2462.1,0.00024634,2460.9,-8.1189e-05,-0.0017747,-8.1497e-05,-2.3136,1.1612
23988,13.083,2,0.1,0.00025355,2533.8,0.00025354,2533.4,-8.3631e-05,0.0073121,-8.3743e-05,-0.83026,1.1219
23989,13.175,2.0909,0.1,0.00025113,2509.5,0.00025111,2509,-8.2815e-05,0.0022996,-8.2967e-05,-1.14,1.1351
23990,12.899,2,0.1,0.00025833,2581.5,0.00025834,2581.8,-8.5209e-05,0.47167,-8.5275e-05,-0.026629,1.0961
23991,12.991,2.0909,0.1,0.00025589,2557.2,0.0002559,2557.2,-8.4428e-05,0.17037,-8.4458e-05,-0.05509,1.1091
23992,12.716,2,0.1,0.00026312,2629.4,0.00026315,2630.3,-8.6679e-05,1.8091,-8.6921e-05,-0.010603,1.0704
23993,12.808,2.0909,0.1,0.00026068,2605,0.0002607,2605.7,-8.59e-05,1.4629,-8.6096e-05,-0.011143,1.0834
23994,12.532,2,0.1,0.00026793,2677.4,0.00026798,2679,-8.8144e-05,3.2538,-8.8578e-05,-0.0079593,1.0449
23995,12.624,2.0909,0.1,0.00026547,2652.9,0.00026552,2654.3,-8.7364e-05,2.8883,-8.7749e-05,-0.0080574,1.0578
23996,12.349,2,0.1,0.00027275,2725.6,0.00027283,2728,-8.9604e-05,4.803,-9.0244e-05,-0.0068287,1.0196
23997,12.441,2.0909,0.1,0.00027028,2700.9,0.00027036,2703.1,-8.8823e-05,4.4165,-8.9412e-05,-0.006879,1.0324
23998,12.165,2,0.1,0.00027758,2773.9,0.00027769,2777.1,-9.106e-05,6.4654,-9.1921e-05,-0.0061813,0.99449
23999,12.257,2.0909,0.1,0.0002751,2749.1,0.00027521,2752.2,-9.0278e-05,6.0559,-9.1084e-05,-0.0062243,1.0072
24000,11.982,2,0.1,0.00028242,2822.3,0.00028256,2826.4,-9.2509e-05,8.2511,-9.3608e-05,-0.0057331,0.96954
24001,12.074,2.0909,0.1,0.00027994,2797.4,0.00028007,2801.3,-9.1726e-05,7.8166,-9.2767e-05,-0.0057965,0.98215
24002,11.799,2,0.1,0.00028728,2870.8,0.00028745,2875.9,-9.3951e-05,10.171,-9.5305e-05,-0.0053823,0.94479
24003,11.89,2.0909,0.1,0.00028478,2845.9,0.00028495,2850.7,-9.3167e-05,9.7099,-9.446e-05,-0.0054437,0.9573
24004,11.615,2,0.1,0.00029214,2919.4,0.00029235,2925.5,-9.5384e-05,12.238,-9.7014e-05,-0.0051036,0.92023
24005,11.707,2.0909,0.1,0.00028964,2894.4,0.00028984,2900.3,-9.46e-05,11.748,-9.6164e-05,-0.005159,0.93265
24006,11.432,2,0.1,0.00029702,2968.2,0.00029726,2975.4,-9.6807e-05,14.464,-9.8733e-05,-0.0048504,0.89586
24007,11.523,2.0909,0.1,0.00029451,2943.1,0.00029475,2950,-9.6023e-05,13.943,-9.7879e-05,-0.0049196,0.90819
24008,11.248,2,0.1,0.00030191,3017,0.00030219,3025.4,-9.8219e-05,16.863,-0.00010046,-0.0046312,0.8717
24009,11.34,2.0909,0.1,0.00029939,2991.8,0.00029966,2999.9,-9.7434e-05,16.309,-9.9606e-05,-0.0046662,0.88393
24010,11.065,2,0.1,0.00030681,3065.9,0.00030713,3075.6,-9.9619e-05,19.451,-0.00010221,-0.0044585,0.84774
24011,11.156,2.0909,0.1,0.00030428,3040.7,0.00030459,3050.1,-9.8834e-05,18.862,-0.00010134,-0.0044796,0.85987
24012,10.881,2,0.1,0.00031171,3115,0.00031208,3126,-0.000101,22.243,-0.00010396,-0.0042805,0.82399
24013,10.973,2.0909,0.1,0.00030917,3089.6,0.00030953,3100.3,-0.00010022,21.618,-0.0001031,-0.0043063,0.83601
24014,10.698,2,0.1,0.00031662,3164,0.00031704,3176.6,-0.00010237,25.256,-0.00010573,-0.0041064,0.80044
24015,10.789,2.0909,0.1,0.00031408,3138.6,0.00031449,3150.8,-0.00010159,24.594,-0.00010486,-0.0040985,0.81236
24016,10.514,2,0.1,0.00032154,3213.2,0.00032202,3227.4,-0.00010372,28.509,-0.00010752,-0.0039677,0.77711
24017,10.606,2.0909,0.1,0.00031898,3187.6,0.00031945,3201.5,-0.00010294,27.81,-0.00010664,-0.0039229,0.78893
24018,10.331,2,0.1,0.00032647,3262.4,0.000327,3278.3,-0.00010505,32.022,-0.00010932,-0.0038634,0.754
24019,10.422,2.0909,0.1,0.0003239,3236.8,0.00032442,3252.3,-0.00010427,31.285,-0.00010843,-0.0037757,0.76571
24020,10.147,2,0.1,0.0003314,3311.7,0.00033199,3329.4,-0.00010636,35.816,-0.00011113,-0.003772,0.7311
24021,10.239,2.0909,0.1,0.00032882,3285.9,0.0003294,3303.3,-0.00010558,35.042,-0.00011024,-0.0036581,0.74271
24022,9.9637,2,0.1,0.00033633,3361,0.00033699,3380.8,-0.00010765,39.914,-0.00011296,-0.0036886,0.70843
24023,10.055,2.0909,0.1,0.00033374,3335.1,0.00033439,3354.5,-0.00010686,39.104,-0.00011207,-0.003525,0.71993
24024,9.7802,2,0.1,0.00034127,3410.4,0.000342,3432.3,-0.00010891,44.34,-0.00011481,-0.0036424,0.68599
24025,9.872,2.0909,0.1,0.00033867,3384.4,0.00033939,3405.9,-0.00010812,43.498,-0.00011391,-0.00341,0.69737
24026,9.5968,2,0.1,0.00034621,3459.7,0.00034702,3484,-0.00011014,49.12,-0.00011668,-0.0036408,0.66378
24027,9.6885,2.0909,0.1,0.0003436,3433.7,0.0003444,3457.5,-0.00010935,48.25,-0.00011577,-0.0033363,0.67504
24028,9.4133,2,0.1,0.00035116,3509.2,0.00035205,3536,-0.00011134,54.282,-0.00011856,-0.0036916,0.6418
24029,9.505,2.0909,0.1,0.00034854,3483,0.00034941,3509.4,-0.00011055,53.39,-0.00011765,-0.0032932,0.65295
24030,9.2298,2,0.1,0.00035611,3558.6,0.00035709,3588.2,-0.0001125,59.854,-0.00012047,-0.0038147,0.62006
24031,9.3215,2.0909,0.1,0.00035347,3532.3,0.00035444,3561.4,-0.00011171,58.949,-0.00011955,-0.0033032,0.63109
24032,9.0463,2,0.1,0.00036106,3608.1,0.00036214,3640.6,-0.00011363,65.868,-0.0001224,-0.0040312,0.59855
24033,9.1381,2.0909,0.1,0.00035841,3581.7,0.00035947,3613.7,-0.00011283,64.963,-0.00012148,-0.0033798,0.60947
24034,8.8628,2,0.1,0.00036602,3657.7,0.0003672,3693.3,-0.00011472,72.354,-0.00012435,-0.004371,0.5773
24035,8.9546,2.0909,0.1,0.00036336,3631.1,0.00036452,3666.3,-0.00011392,71.465,-0.00012343,-0.0035467,0.58809
24036,8.6794,2,0.1,0.00037099,3707.3,0.00037228,3746.4,-0.00011578,79.347,-0.00012634,-0.0048729,0.55628
24037,8.7711,2.0909,0.1,0.00036831,3680.5,0.00036958,3719.1,-0.00011496,78.495,-0.00012541,-0.0038337,0.56696
24038,8.4959,2,0.1,0.00037597,3757.1,0.00037737,3799.8,-0.00011678,86.88,-0.00012835,-0.0055888,0.53552
24039,8.5876,2.0909,0.1,0.00037326,3730,0.00037465,3772.3,-0.00011596,86.092,-0.00012742,-0.0042812,0.54607
24040,8.3124,2,0.1,0.00038096,3807,0.00038249,3853.6,-0.00011775,94.988,-0.00013039,-0.0065864,0.51502
24041,8.4041,2.0909,0.1,0.00037823,3779.7,0.00037975,3826,-0.00011691,94.298,-0.00012946,-0.0049419,0.52544
24042,8.1289,2,0.1,0.00038597,3857.1,0.00038763,3907.9,-0.00011867,103.71,-0.00013247,-0.0079556,0.49477
24043,8.2206,2.0909,0.1,0.00038322,3829.5,0.00038487,3880.1,-0.00011781,103.16,-0.00013154,-0.0058861,0.50506
24044,7.9454,2,0.1,0.00039101,3907.4,0.00039281,3962.7,-0.00011955,113.07,-0.0001346,-0.0098148,0.47478
24045,8.0372,2.0909,0.1,0.00038823,3879.6,0.00039002,3934.7,-0.00011866,112.71,-0.00013366,-0.0072065,0.48495
24046,7.7619,2,0.1,0.00039609,3958.2,0.00039805,4018.3,-0.00012038,123.1,-0.00013676,-0.012321,0.45506
24047,7.8537,2.0909,0.1,0.00039327,3930,0.00039522,3990.1,-0.00011945,123.01,-0.00013583,-0.0090259,0.46509
24048,7.5785,2,0.1,0.00040123,4009.5,0.00040334,4074.8,-0.00012117,133.84,-0.00013898,-0.015681,0.4356
24049,7.6702,2.0909,0.1,0.00039837,3981,0.00040048,4046.3,-0.0001202,134.09,-0.00013805,-0.011507,0.4455
24050,7.395,2,0.1,0.00040644,4061.6,0.00040872,4132.3,-0.00012192,145.31,-0.00014126,-0.020172,0.41642
24051,7.4867,2.0909,0.1,0.00040353,4032.6,0.00040582,4103.6,-0.0001209,146,-0.00014033,-0.014865,0.42618
24052,7.2115,2,0.1,0.00041175,4114.6,0.0004142,4191.1,-0.00012264,157.51,-0.00014361,-0.026159,0.39751
24053,7.3032,2.0909,0.1,0.00040879,4085.1,0.00041126,4162.1,-0.00012156,158.76,-0.00014269,-0.019386,0.40714
24054,7.028,2,0.1,0.00041719,4169,0.00041982,4251.6,-0.00012334,170.46,-0.00014603,-0.034132,0.37888
24055,7.1198,2.0909,0.1,0.00041417,4138.8,0.00041683,4222.3,-0.00012218,172.41,-0.00014513,-0.02545,0.38837
24056,6.8445,2,0.1,0.0004228,4225.1,0.00042563,4314.1,-0.00012404,184.14,-0.00014855,-0.044742,0.36053
24057,6.9363,2.0909,0.1,0.00041971,4194.2,0.00042258,4284.6,-0.00012278,186.97,-0.00014767,-0.033563,0.36988
24058,6.6611,2,0.1,0.00042864,4283.4,0.00043167,4379.2,-0.00012475,198.5,-0.00015117,-0.058863,0.34247
24059,6.7528,2.0909,0.1,0.00042548,4251.8,0.00042856,4349.4,-0.00012337,202.42,-0.00015032,-0.044396,0.35168
24060,6.4776,2,0.1,0.00043477,4344.7,0.00043801,4447.5,-0.0001255,213.47,-0.00015393,-0.077668,0.3247
24061,6.5693,2.0909,0.1,0.00043153,4312.3,0.00043483,4417.5,-0.00012399,218.73,-0.00015311,-0.058849,0.33376
24062,6.2941,2,0.1,0.00044129,4409.9,0.00044474,4519.8,-0.00012634,228.95,-0.00015683,-0.10274,0.30723
24063,6.3858,2.0909,0.1,0.00043796,4376.6,0.00044149,4489.7,-0.00012466,235.84,-0.00015606,-0.078121,0.31614
24064,6.1106,2,0.1,0.00044831,4480.1,0.00045197,4597.3,-0.00012732,244.72,-0.00015991,-0.13623,0.29005
24065,6.2024,2.0909,0.1,0.00044488,4445.8,0.00044865,4567.1,-0.00012544,253.61,-0.0001592,-0.10382,0.29881
24066,5.9271,2,0.1,0.00045598,4556.7,0.00045985,4681.3,-0.00012851,260.53,-0.00016321,-0.1811,0.27318
24067,6.0189,2.0909,0.1,0.00045245,4521.3,0.00045645,4651.1,-0.00012638,271.84,-0.00016258,-0.13812,0.28179
24068,5.7437,2,0.1,0.00046449,4641.7,0.00046856,4773.4,-0.00013001,275.93,-0.00016677,-0.24148,0.25662
24069,5.8354,2.0909,0.1,0.00046084,4605.3,0.00046509,4743.4,-0.00012759,290.21,-0.00016624,-0.18396,0.26507
24070,5.5602,2,0.1,0.00047408,4737.6,0.00047835,4875.9,-0.00013195,290.3,-0.00017063,-0.32335,0.24038
24071,5.6519,2.0909,0.1,0.00047032,4700,0.0004748,4846.4,-0.00012919,308.21,-0.00017024,-0.24539,0.24867
24072,5.3767,2,0.1,0.0004851,4847.6,0.00048953,4991.6,-0.00013453,302.71,-0.00017488,-0.43548,0.22445
24073,5.4684,2.0909,0.1,0.00048121,4808.8,0.00048591,4962.9,-0.00013135,325.1,-0.00017466,-0.32825,0.23259
24074,5.1932,2,0.1,0.00049798,4976.3,0.00050253,5124.5,-0.00013801,311.73,-0.00017958,-0.59274,0.20886
24075,5.285,2.0909,0.1,0.00049394,4936,0.00049884,5096.9,-0.0001343,339.77,-0.00017958,-0.44055,0.21684
24076,5.0097,2,0.1,0.00051335,5129.9,0.00051796,5279.8,-0.00014278,315.22,-0.00018485,-0.81753,0.1936
24077,5.1015,2.0909,0.1,0.00050911,5087.6,0.00051415,5253.5,-0.00013838,350.56,-0.00018512,-0.59695,0.20142
24078,4.8263,2,0.1,0.00053209,5317.3,0.00053666,5464.8,-0.00014941,309.89,-0.00019081,-1.1683,0.17869
24079,4.918,2.0909,0.1,0.00052752,5271.6,0.00053264,5439.6,-0.00014408,354.96,-0.00019144,-0.81342,0.18634
24080,4.6428,2,0.1,0.00055554,5551.6,0.00055988,5690.3,-0.00015877,290.65,-0.00019768,-1.7172,0.16414
24081,4.7345,2.0909,0.1,0.00055035,5499.7,0.00055543,5665.3,-0.0001521,349.19,-0.00019873,-1.1577,0.17163
24082,4.4593,2,0.1,0.00058574,5853.4,0.00058953,5972.6,-0.00017217,249.47,-0.00020576,-2.9327,0.14997
24083,4.551,2.0909,0.1,0.00057931,5789.1,0.00058416,5945.1,-0.00016349,327.52,-0.0002073,-1.6201,0.15728
24084,4.2758,2,0.1,0.00062601,6255.8,0.00062869,6338.2,-0.00019169,174.26,-0.00021561,-5.5073,0.13618
24085,4.3676,2.0909,0.1,0.00061713,6167,0.00062137,6301.2,-0.00017987,281.03,-0.00021765,-2.8744,0.14333
24086,4.0923,2,0.1,0.00068242,6819.5,0.00068287,6833.4,-0.00021918,55.762,-0.00023021,-27.139,0.1228
24087,4.1841,2.0909,0.1,0.00066811,6676.5,0.00067116,6770.5,-0.00020375,196.79,-0.0002305,-4.169,0.12978
24088,3.9088,2,0.1,0.00076624,7657.1,0.00076248,7552.1,-0.00024047,16.275,-0.00027202,-220.75,0.10986
24089,4.0006,2.0909,0.1,0.0007406,7400.9,0.00074117,7418.4,-0.00023834,58.745,-0.00024922,-23.005,0.11668
24090,3.7254,2,0.1,0.00090588,9052.5,0.00089213,8680.8,-0.00026833,-38.424,-0.00035261,-671.68,0.097381
24091,3.8171,2.0909,0.1,0.00084895,8483.6,0.0008453,8381.3,-0.0002675,20.173,-0.00029943,-219.76,0.10404
24092,3.5419,2,0.1,0.001241,12402,0.0012005,11495,-0.00028419,339.94,-0.00057688,-1859.2,0.085428
24093,3.6336,2.0909,0.1,0.0010371,10364,0.0010226,9965.3,-0.0003137,-75.399,-0.00039607,-694.26,0.091935
24094,3.4501,2.0909,0.1,0.0014568,14558,0.0014214,13736,-0.00036233,333.43,-0.00064001,-1753,0.080444
24095,3.3584,2,0.1,0.0021824,21809,0.0021196,20387,-0.00051768,571.46,-0.00099021,-2979,0.074101
24096,23.725,2.1818,0.1,1.9964e-05,199.5,1.1302e-05,58.928,3.4299e-06,-0.22105,-1.8296e-05,-163.46,2.8141
24097,23.817,2.2727,0.1,1.9348e-05,193.34,9.6041e-06,39.634,4.302e-06,-0.20403,-1.8366e-05,-170.53,2.8296
24098,23.908,2.1818,0.1,1.856e-05,185.47,7.9766e-06,22.32,4.9482e-06,-0.43457,-1.8083e-05,-173.48,2.845
24099,23.541,2.1818,0.1,2.1918e-05,219.03,1.4836e-05,97.596,1.8169e-06,-0.22475,-1.8556e-05,-153.3,2.7833
24100,23.633,2.2727,0.1,2.1065e-05,210.5,1.3137e-05,78.313,2.6711e-06,-0.32696,-1.8605e-05,-160.19,2.7988
24101,23.358,2.1818,0.1,2.4245e-05,242.29,1.8371e-05,136.16,2.3232e-07,-0.12905,-1.886e-05,-143.58,2.7525
24102,23.45,2.2727,0.1,2.3211e-05,231.95,1.6671e-05,116.99,1.0814e-06,-0.1419,-1.8886e-05,-150.17,2.7679
24103,23.174,2.1818,0.1,2.6854e-05,268.35,2.1912e-05,174.58,-1.3374e-06,-0.10622,-1.9211e-05,-134.4,2.7217
24104,23.266,2.2727,0.1,2.5681e-05,256.63,2.0212e-05,155.51,-5.0153e-07,-0.12424,-1.9211e-05,-140.7,2.7371
24105,22.991,2.1818,0.1,2.9674e-05,296.53,2.5463e-05,212.93,-2.8875e-06,-0.083663,-1.9612e-05,-125.74,2.6909
24106,23.083,2.2727,0.1,2.8393e-05,283.73,2.3758e-05,193.92,-2.0632e-06,-0.092793,-1.9582e-05,-131.72,2.7063
24107,22.807,2.1818,0.1,3.2658e-05,326.36,2.9027e-05,251.24,-4.4202e-06,-0.070372,-2.0063e-05,-117.6,2.6601
24108,22.899,2.2727,0.1,3.1291e-05,312.69,2.7315e-05,232.26,-3.6074e-06,-0.077705,-2.0002e-05,-123.26,2.6755
24109,22.624,2.1818,0.1,3.5773e-05,357.49,3.261e-05,289.56,-5.9367e-06,-0.060127,-2.0565e-05,-109.97,2.6294
24110,22.716,2.2727,0.1,3.4335e-05,343.11,3.0888e-05,270.59,-5.1345e-06,-0.065509,-2.0472e-05,-115.3,2.6448
24111,22.44,2.1818,0.1,3.8996e-05,389.69,3.6214e-05,327.94,-7.4387e-06,-0.052492,-2.1119e-05,-102.84,2.5986
24112,22.532,2.2727,0.1,3.7497e-05,374.71,3.4479e-05,308.94,-6.6465e-06,-0.056825,-2.0992e-05,-107.85,2.614
24113,22.257,2.1818,0.1,4.2309e-05,422.79,3.9843e-05,366.4,-8.9279e-06,-0.046455,-2.1723e-05,-96.184,2.5679
24114,22.349,2.2727,0.1,4.0757e-05,407.29,3.8092e-05,347.36,-8.1447e-06,-0.050005,-2.1563e-05,-100.87,2.5833
24115,22.073,2.1818,0.1,4.5699e-05,456.68,4.3498e-05,404.97,-1.0406e-05,-0.041601,-2.2377e-05,-89.985,2.5372
24116,22.165,2.2727,0.1,4.41e-05,440.7,4.173e-05,385.86,-9.6308e-06,-0.044601,-2.2183e-05,-94.357,2.5526
24117,21.89,2.1818,0.1,4.9158e-05,491.24,4.7181e-05,443.68,-1.1874e-05,-0.037604,-2.3078e-05,-84.218,2.5066
24118,21.982,2.2727,0.1,4.7517e-05,474.84,4.5395e-05,424.49,-1.1106e-05,-0.040192,-2.2851e-05,-88.288,2.5219
24119,21.706,2.1818,0.1,5.2679e-05,526.42,5.0892e-05,482.53,-1.3334e-05,-0.034253,-2.3825e-05,-78.859,2.4759
24120,21.798,2.2727,0.1,5.0998e-05,509.63,4.9087e-05,463.25,-1.2572e-05,-0.036528,-2.3566e-05,-82.639,2.4913
24121,21.523,2.1818,0.1,5.6255e-05,562.16,5.4632e-05,521.56,-1.4787e-05,-0.031402,-2.4616e-05,-73.883,2.4454
24122,21.615,2.2727,0.1,5.4539e-05,545.01,5.2808e-05,502.17,-1.4031e-05,-0.033428,-2.4326e-05,-77.388,2.4607
24123,21.34,2.1818,0.1,5.9883e-05,598.41,5.8402e-05,560.75,-1.6233e-05,-0.028954,-2.5448e-05,-69.266,2.4148
24124,21.431,2.2727,0.1,5.8133e-05,580.93,5.6558e-05,541.26,-1.5482e-05,-0.030774,-2.5129e-05,-72.509,2.4301
24125,21.156,2.1818,0.1,6.3557e-05,635.14,6.2202e-05,600.14,-1.7675e-05,-0.026827,-2.632e-05,-64.982,2.3843
24126,21.248,2.2727,0.1,6.1776e-05,617.34,6.0338e-05,580.52,-1.6928e-05,-0.028484,-2.5972e-05,-67.98,2.3996
24127,20.973,2.1818,0.1,6.7277e-05,672.3,6.6031e-05,639.71,-1.9113e-05,-0.024959,-2.7229e-05,-61.009,2.3538
24128,21.064,2.2727,0.1,6.5466e-05,654.21,6.4147e-05,619.98,-1.837e-05,-0.026477,-2.6855e-05,-63.777,2.3691
24129,20.789,2.1818,0.1,7.1038e-05,709.89,6.9889e-05,679.48,-2.0548e-05,-0.02331,-2.8174e-05,-57.324,2.3234
24130,20.881,2.2727,0.1,6.92e-05,691.52,6.7986e-05,659.62,-1.9808e-05,-0.024711,-2.7774e-05,-59.878,2.3386
24131,20.606,2.1818,0.1,7.4839e-05,747.87,7.3775e-05,719.45,-2.198e-05,-0.02184,-2.9152e-05,-53.908,2.293
24132,20.697,2.2727,0.1,7.2974e-05,729.24,7.1854e-05,699.47,-2.1243e-05,-0.023144,-2.8728e-05,-56.262,2.3082
24133,20.422,2.1818,0.1,7.8677e-05,786.23,7.7691e-05,759.62,-2.3411e-05,-0.020524,-3.0161e-05,-50.739,2.2627
24134,20.514,2.2727,0.1,7.6788e-05,767.35,7.5751e-05,739.52,-2.2676e-05,-0.021731,-2.9715e-05,-52.909,2.2779
24135,20.239,2.1818,0.1,8.2551e-05,824.94,8.1634e-05,799.99,-2.4841e-05,-0.019344,-3.1201e-05,-47.801,2.2324
24136,20.33,2.2727,0.1,8.0639e-05,805.83,7.9676e-05,779.77,-2.4108e-05,-0.020478,-3.0733e-05,-49.798,2.2476
24137,20.055,2.1818,0.1,8.646e-05,864,8.5605e-05,840.57,-2.6271e-05,-0.018283,-3.2268e-05,-45.074,2.2022
24138,20.147,2.2727,0.1,8.4525e-05,844.67,8.3629e-05,820.23,-2.5539e-05,-0.019344,-3.178e-05,-46.913,2.2173
24139,19.872,2.1818,0.1,9.0402e-05,903.39,8.9602e-05,881.36,-2.7702e-05,-0.017317,-3.3362e-05,-42.544,2.172
24140,19.963,2.2727,0.1,8.8446e-05,883.85,8.761e-05,860.89,-2.697e-05,-0.018325,-3.2855e-05,-44.237,2.1871
24141,19.688,2.1818,0.1,9.4375e-05,943.1,9.3627e-05,922.35,-2.9133e-05,-0.01643,-3.448e-05,-40.195,2.1419
24142,19.78,2.2727,0.1,9.24e-05,923.36,9.1618e-05,901.77,-2.8402e-05,-0.017385,-3.3956e-05,-41.752,2.157
24143,19.505,2.1818,0.1,9.838e-05,983.12,9.7678e-05,963.56,-3.0566e-05,-0.015626,-3.5623e-05,-38.012,2.1119
24144,19.596,2.2727,0.1,9.6385e-05,963.18,9.5653e-05,942.85,-2.9834e-05,-0.016524,-3.5082e-05,-39.445,2.1269
24145,19.321,2.1818,0.1,0.00010241,1023.4,0.00010175,1005,-3.2e-05,-0.014891,-3.6787e-05,-35.983,2.0819
24146,19.413,2.2727,0.1,0.0001004,1003.3,9.9714e-05,984.14,-3.1269e-05,-0.015752,-3.6231e-05,-37.302,2.0969
24147,19.138,2.1818,0.1,0.00010648,1064,0.00010586,1046.6,-3.3436e-05,-0.01421,-3.7972e-05,-34.095,2.052
24148,19.229,2.2727,0.1,0.00010445,1043.7,0.0001038,1025.6,-3.2705e-05,-0.01503,-3.7402e-05,-35.308,2.067
24149,18.954,2.1818,0.1,0.00011057,1104.9,0.00010998,1088.4,-3.4876e-05,-0.013584,-3.9177e-05,-32.337,2.0221
24150,19.046,2.2727,0.1,0.00010852,1084.5,0.00010791,1067.3,-3.4143e-05,-0.014367,-3.8594e-05,-33.454,2.0371
24151,18.771,2.1818,0.1,0.00011469,1146.1,0.00011414,1130.4,-3.6318e-05,-0.012999,-4.0401e-05,-30.697,1.9924
24152,18.863,2.2727,0.1,0.00011262,1125.5,0.00011205,1109.3,-3.5584e-05,-0.013756,-3.9805e-05,-31.726,2.0073
24153,18.587,2.1818,0.1,0.00011883,1187.5,0.00011831,1172.7,-3.7763e-05,-0.012455,-4.1643e-05,-29.167,1.9627
24154,18.679,2.2727,0.1,0.00011675,1166.7,0.00011621,1151.4,-3.7029e-05,-0.013178,-4.1035e-05,-30.114,1.9776
24155,18.404,2.1818,0.1,0.00012301,1229.2,0.00012251,1215.1,-3.9211e-05,-0.011954,-4.2901e-05,-27.736,1.9331
24156,18.496,2.2727,0.1,0.00012091,1208.3,0.0001204,1193.7,-3.8476e-05,-0.012647,-4.2282e-05,-28.609,1.9479
24157,18.22,2.1818,0.1,0.0001272,1271.2,0.00012673,1257.7,-4.0664e-05,-0.011496,-4.4175e-05,-26.395,1.9036
24158,18.312,2.2727,0.1,0.00012509,1250.1,0.00012461,1236.2,-3.9927e-05,-0.012159,-4.3546e-05,-27.201,1.9184
24159,18.037,2.1818,0.1,0.00013143,1313.4,0.00013098,1300.6,-4.212e-05,-0.011062,-4.5464e-05,-25.137,1.8741
24160,18.129,2.2727,0.1,0.0001293,1292.1,0.00012884,1279,-4.1382e-05,-0.011713,-4.4825e-05,-25.881,1.8889
24161,17.853,2.1818,0.1,0.00013567,1355.8,0.00013525,1343.7,-4.3581e-05,-0.010648,-4.6768e-05,-23.953,1.8448
24162,17.945,2.2727,0.1,0.00013353,1334.4,0.0001331,1321.9,-4.2841e-05,-0.011276,-4.6119e-05,-24.641,1.8595
24163,17.67,2.1818,0.1,0.00013994,1398.5,0.00013954,1386.9,-4.5046e-05,-0.010269,-4.8085e-05,-22.837,1.8155
24164,17.762,2.2727,0.1,0.00013779,1377,0.00013738,1365.1,-4.4305e-05,-0.010868,-4.7427e-05,-23.474,1.8302
24165,17.486,2.1818,0.1,0.00014424,1441.4,0.00014386,1430.4,-4.6516e-05,-0.0099144,-4.9414e-05,-21.781,1.7863
24166,17.578,2.2727,0.1,0.00014207,1419.8,0.00014168,1408.4,-4.5773e-05,-0.010505,-4.8749e-05,-22.372,1.801
24167,17.303,2.1818,0.1,0.00014856,1484.5,0.00014819,1474,-4.7991e-05,-0.0095736,-5.0756e-05,-20.779,1.7573
24168,17.395,2.2727,0.1,0.00014638,1462.8,0.000146,1452,-4.7245e-05,-0.010146,-5.0083e-05,-21.328,1.7719
24169,17.119,2.1818,0.1,0.0001529,1527.9,0.00015255,1517.9,-4.9471e-05,-0.0092554,-5.2109e-05,-19.825,1.7283
24170,17.211,2.2727,0.1,0.00015071,1506,0.00015035,1495.7,-4.8723e-05,-0.0098109,-5.1428e-05,-20.335,1.7428
24171,16.936,2.1818,0.1,0.00015726,1571.5,0.00015693,1562,-5.0957e-05,-0.008947,-5.3472e-05,-18.912,1.6994
24172,17.028,2.2727,0.1,0.00015506,1549.5,0.00015472,1539.7,-5.0206e-05,-0.0094978,-5.2785e-05,-19.389,1.7139
24173,16.753,2.1818,0.1,0.00016164,1615.3,0.00016133,1606.2,-5.2447e-05,-0.0086497,-5.4847e-05,-18.035,1.6707
24174,16.844,2.2727,0.1,0.00015943,1593.2,0.00015911,1583.9,-5.1694e-05,-0.0091832,-5.4153e-05,-18.482,1.6851
24175,16.569,2.1818,0.1,0.00016605,1659.4,0.00016575,1650.7,-5.3944e-05,-0.0083749,-5.623e-05,-17.189,1.642
24176,16.661,2.2727,0.1,0.00016382,1637.1,0.00016352,1628.2,-5.3188e-05,-0.0088939,-5.5531e-05,-17.609,1.6564
24177,16.386,2.1818,0.1,0.00017048,1703.6,0.00017019,1695.4,-5.5446e-05,-0.0081232,-5.7623e-05,-16.368,1.6135
24178,16.477,2.2727,0.1,0.00016824,1681.2,0.00016795,1672.8,-5.4688e-05,-0.0086243,-5.6918e-05,-16.764,1.6278
24179,16.202,2.1818,0.1,0.00017493,1748.1,0.00017466,1740.2,-5.6954e-05,-0.0078759,-5.9025e-05,-15.568,1.585
24180,16.294,2.2727,0.1,0.00017268,1725.6,0.0001724,1717.6,-5.6193e-05,-0.0083807,-5.8314e-05,-15.943,1.5993
24181,16.019,2.1818,0.1,0.0001794,1792.7,0.00017914,1785.3,-5.8468e-05,-0.0076234,-6.0434e-05,-14.783,1.5567
24182,16.11,2.2727,0.1,0.00017714,1770.1,0.00017687,1762.5,-5.7704e-05,-0.008121,-5.9718e-05,-15.14,1.5709
24183,15.835,2.1818,0.1,0.00018389,1837.6,0.00018364,1830.5,-5.9988e-05,-0.0073944,-6.1851e-05,-14.008,1.5285
24184,15.927,2.2727,0.1,0.00018162,1814.9,0.00018137,1807.7,-5.9222e-05,-0.0078698,-6.113e-05,-14.35,1.5427
24185,15.652,2.1818,0.1,0.0001884,1882.7,0.00018817,1876,-6.1514e-05,-0.0071742,-6.3275e-05,-13.238,1.5005
24186,15.743,2.2727,0.1,0.00018611,1859.9,0.00018588,1853,-6.0745e-05,-0.0076569,-6.255e-05,-13.568,1.5146
24187,15.468,2.1818,0.1,0.00019293,1927.9,0.00019271,1921.7,-6.3047e-05,-0.0069485,-6.4706e-05,-12.47,1.4725
24188,15.56,2.2727,0.1,0.00019063,1905,0.00019041,1898.6,-6.2275e-05,-0.0074242,-6.3976e-05,-12.79,1.4866
24189,15.285,2.1818,0.1,0.00019748,1973.4,0.00019727,1967.5,-6.4587e-05,-0.0067312,-6.6143e-05,-11.697,1.4447
24190,15.376,2.2727,0.1,0.00019517,1950.4,0.00019497,1944.3,-6.3812e-05,-0.0072025,-6.5409e-05,-12.009,1.4587
24191,15.101,2.1818,0.1,0.00020204,2019,0.00020186,2013.6,-6.6134e-05,-0.0065057,-6.7585e-05,-10.915,1.417
24192,15.193,2.2727,0.1,0.00019973,1995.9,0.00019954,1990.3,-6.5355e-05,-0.0069878,-6.6848e-05,-11.222,1.4309
24193,14.918,2.1818,0.1,0.00020663,2064.9,0.00020646,2059.8,-6.7687e-05,-0.0062739,-6.9033e-05,-10.12,1.3895
24194,15.009,2.2727,0.1,0.00020431,2041.7,0.00020413,2036.4,-6.6905e-05,-0.0067517,-6.8292e-05,-10.424,1.4033
24195,14.734,2.1818,0.1,0.00021124,2110.9,0.00021108,2106.2,-6.9247e-05,-0.0060485,-7.0485e-05,-9.3058,1.3621
24196,14.826,2.2727,0.1,0.0002089,2087.6,0.00020874,2082.8,-6.8462e-05,-0.0065262,-6.974e-05,-9.6089,1.3759
24197,14.551,2.1818,0.1,0.00021586,2157.1,0.00021572,2152.9,-7.0815e-05,-0.0058268,-7.1941e-05,-8.4677,1.3348
24198,14.642,2.2727,0.1,0.00021352,2133.7,0.00021337,2129.3,-7.0027e-05,-0.0063058,-7.1193e-05,-8.7721,1.3485
24199,14.367,2.1818,0.1,0.0002205,2203.5,0.00022037,2199.7,-7.239e-05,-0.0055808,-7.3401e-05,-7.6004,1.3077
24200,14.459,2.2727,0.1,0.00021815,2180,0.00021802,2176,-7.1598e-05,-0.006091,-7.265e-05,-7.9084,1.3213
24201,14.184,2.1818,0.1,0.00022516,2250.1,0.00022505,2246.7,-7.3972e-05,-0.0052907,-7.4863e-05,-6.6985,1.2807
24202,14.276,2.2727,0.1,0.0002228,2226.5,0.00022268,2223,-7.3177e-05,-0.0058264,-7.411e-05,-7.0121,1.2943
24203,14,2.1818,0.1,0.00022984,2296.8,0.00022974,2293.9,-7.5562e-05,-0.004973,-7.6328e-05,-5.7562,1.2539
24204,14.092,2.2727,0.1,0.00022747,2273.1,0.00022736,2270.1,-7.4764e-05,-0.0055297,-7.5572e-05,-6.0778,1.2674
24205,13.817,2.1818,0.1,0.00023453,2343.7,0.00023445,2341.3,-7.716e-05,-0.004577,-7.7794e-05,-4.7678,1.2273
24206,13.909,2.2727,0.1,0.00023215,2319.9,0.00023207,2317.4,-7.6358e-05,-0.0052172,-7.7036e-05,-5.0994,1.2407
24207,13.633,2.1818,0.1,0.00023924,2390.8,0.00023918,2388.9,-7.8766e-05,-0.0040073,-7.9262e-05,-3.7269,1.2008
24208,13.725,2.2727,0.1,0.00023685,2366.9,0.00023678,2364.9,-7.796e-05,-0.0047708,-7.8502e-05,-4.0707,1.2141
24209,13.45,2.1818,0.1,0.00024397,2438,0.00024393,2436.7,-8.038e-05,-0.0030552,-8.073e-05,-2.6272,1.1744
24210,13.542,2.2727,0.1,0.00024157,2414,0.00024152,2412.5,-7.9571e-05,-0.0040987,-7.9968e-05,-2.9854,1.1877
24211,13.266,2.1818,0.1,0.00024871,2485.4,0.00024869,2484.7,-8.2003e-05,-0.00069747,-8.2197e-05,-1.4626,1.1482
24212,13.358,2.2727,0.1,0.0002463,2461.3,0.00024627,2460.4,-8.119e-05,-0.0027277,-8.1434e-05,-1.8371,1.1614
24213,13.083,2.1818,0.1,0.00025347,2533,0.00025347,2532.8,-8.3631e-05,0.02445,-8.3667e-05,-0.24731,1.1222
24214,13.175,2.2727,0.1,0.00025105,2508.8,0.00025104,2508.5,-8.2816e-05,0.0037382,-8.2899e-05,-0.62244,1.1353
24215,12.899,2.1818,0.1,0.00025824,2580.6,0.00025826,2581.2,-8.5126e-05,1.111,-8.5276e-05,-0.0119,1.0964
24216,12.991,2.2727,0.1,0.00025582,2556.4,0.00025583,2556.7,-8.436e-05,0.69522,-8.4455e-05,-0.01397,1.1094
24217,12.716,2.1818,0.1,0.00026303,2628.5,0.00026307,2629.7,-8.6588e-05,2.5192,-8.6925e-05,-0.0081357,1.0707
24218,12.808,2.2727,0.1,0.00026059,2604.1,0.00026063,2605.2,-8.5822e-05,2.0769,-8.6099e-05,-0.008298,1.0836
24219,12.532,2.1818,0.1,0.00026783,2676.4,0.0002679,2678.4,-8.8046e-05,4.029,-8.8583e-05,-0.0069082,1.0452
24220,12.624,2.2727,0.1,0.00026538,2652,0.00026544,2653.8,-8.7279e-05,3.5593,-8.7754e-05,-0.006958,1.0581
24221,12.349,2.1818,0.1,0.00027264,2724.5,0.00027274,2727.3,-8.9499e-05,5.648,-9.0252e-05,-0.006255,1.0199
24222,12.441,2.2727,0.1,0.00027019,2700,0.00027028,2702.6,-8.8732e-05,5.1482,-8.9418e-05,-0.0062975,1.0327
24223,12.165,2.1818,0.1,0.00027747,2772.8,0.00027759,2776.4,-9.0946e-05,7.3864,-9.193e-05,-0.0058298,0.99479
24224,12.257,2.2727,0.1,0.00027501,2748.2,0.00027512,2751.6,-9.0179e-05,6.8537,-9.1092e-05,-0.005872,1.0075
24225,11.982,2.1818,0.1,0.0002823,2821.1,0.00028246,2825.7,-9.2387e-05,9.2552,-9.3619e-05,-0.0054996,0.96985
24226,12.074,2.2727,0.1,0.00027984,2796.4,0.00027998,2800.8,-9.1619e-05,8.6864,-9.2776e-05,-0.0055652,0.98242
24227,11.799,2.1818,0.1,0.00028715,2869.6,0.00028734,2875.2,-9.3818e-05,11.266,-9.5319e-05,-0.0052134,0.9451
24228,11.89,2.2727,0.1,0.00028468,2844.8,0.00028486,2850.1,-9.3052e-05,10.658,-9.4471e-05,-0.0052795,0.95758
24229,11.615,2.1818,0.1,0.00029201,2918.1,0.00029224,2924.8,-9.5241e-05,13.433,-9.7029e-05,-0.0049683,0.92054
24230,11.707,2.2727,0.1,0.00028953,2893.3,0.00028974,2899.6,-9.4475e-05,12.783,-9.6177e-05,-0.005031,0.93293
24231,11.432,2.1818,0.1,0.00029688,2966.8,0.00029715,2974.6,-9.6652e-05,15.769,-9.8752e-05,-0.004729,0.89618
24232,11.523,2.2727,0.1,0.00029439,2941.9,0.00029464,2949.4,-9.5888e-05,15.073,-9.7894e-05,-0.0048085,0.90847
24233,11.248,2.1818,0.1,0.00030176,3015.5,0.00030207,3024.6,-9.8051e-05,18.29,-0.00010049,-0.0045089,0.87202
24234,11.34,2.2727,0.1,0.00029926,2990.5,0.00029955,2999.3,-9.7288e-05,17.545,-9.9624e-05,-0.0045572,0.88421
24235,11.065,2.1818,0.1,0.00030665,3064.3,0.000307,3074.8,-9.9436e-05,21.012,-0.00010223,-0.0043226,0.84807
24236,11.156,2.2727,0.1,0.00030414,3039.3,0.00030448,3049.3,-9.8674e-05,20.214,-0.00010137,-0.0043623,0.86016
24237,10.881,2.1818,0.1,0.00031154,3113.2,0.00031194,3125.2,-0.0001008,23.953,-0.00010399,-0.0041206,0.82432
24238,10.973,2.2727,0.1,0.00030902,3088.1,0.00030941,3099.6,-0.00010005,23.099,-0.00010312,-0.0041704,0.83631
24239,10.698,2.1818,0.1,0.00031644,3162.2,0.00031689,3175.7,-0.00010215,27.132,-0.00010577,-0.0039128,0.80078
24240,10.789,2.2727,0.1,0.00031392,3137,0.00031435,3150,-0.0001014,26.219,-0.00010489,-0.0039353,0.81266
24241,10.514,2.1818,0.1,0.00032135,3211.2,0.00032185,3226.4,-0.00010349,30.571,-0.00010755,-0.0037306,0.77745
24242,10.606,2.2727,0.1,0.00031881,3185.9,0.00031931,3200.6,-0.00010273,29.594,-0.00010667,-0.0037238,0.78923
24243,10.331,2.1818,0.1,0.00032626,3260.3,0.00032683,3277.3,-0.00010479,34.29,-0.00010936,-0.0035721,0.75434
24244,10.422,2.2727,0.1,0.00032372,3234.9,0.00032427,3251.4,-0.00010404,33.248,-0.00010847,-0.0035315,0.76602
24245,10.147,2.1818,0.1,0.00033117,3309.4,0.0003318,3328.4,-0.00010608,38.316,-0.00011118,-0.0034154,0.73145
24246,10.239,2.2727,0.1,0.00032862,3284,0.00032924,3302.4,-0.00010533,37.204,-0.00011028,-0.0033583,0.74302
24247,9.9637,2.1818,0.1,0.00033609,3358.6,0.00033679,3379.7,-0.00010734,42.675,-0.00011302,-0.0032538,0.70879
24248,10.055,2.2727,0.1,0.00033353,3333,0.00033422,3353.6,-0.00010659,41.492,-0.00011211,-0.003159,0.72024
24249,9.7802,2.1818,0.1,0.00034101,3407.7,0.00034179,3431.2,-0.00010856,47.395,-0.00011487,-0.0031149,0.68635
24250,9.872,2.2727,0.1,0.00033844,3382.1,0.0003392,3404.9,-0.00010782,46.139,-0.00011396,-0.0029648,0.69769
24251,9.5968,2.1818,0.1,0.00034593,3456.9,0.00034679,3482.9,-0.00010976,52.508,-0.00011675,-0.003004,0.66414
24252,9.6885,2.2727,0.1,0.00034335,3431.2,0.0003442,3456.5,-0.00010902,51.178,-0.00011583,-0.0027973,0.67537
24253,9.4133,2.1818,0.1,0.00035085,3506.1,0.0003518,3534.8,-0.00011092,58.047,-0.00011865,-0.0029251,0.64216
24254,9.505,2.2727,0.1,0.00034827,3480.3,0.0003492,3508.3,-0.00011018,56.643,-0.00011772,-0.0026435,0.65328
24255,9.2298,2.1818,0.1,0.00035578,3555.3,0.00035682,3586.9,-0.00011204,64.049,-0.00012057,-0.0028948,0.62042
24256,9.3215,2.2727,0.1,0.00035318,3529.4,0.00035421,3560.3,-0.00011131,62.572,-0.00011964,-0.0025216,0.63142
24257,9.0463,2.1818,0.1,0.00036071,3604.6,0.00036186,3639.3,-0.00011312,70.552,-0.00012251,-0.0029294,0.59893
24258,9.1381,2.2727,0.1,0.0003581,3578.5,0.00035922,3612.5,-0.00011239,69.007,-0.00012157,-0.0024421,0.6098
24259,8.8628,2.1818,0.1,0.00036564,3653.9,0.0003669,3692,-0.00011416,77.598,-0.00012448,-0.0030527,0.57767
24260,8.9546,2.2727,0.1,0.00036302,3627.7,0.00036425,3665.1,-0.00011343,75.992,-0.00012354,-0.002423,0.58843
24261,8.6794,2.1818,0.1,0.00037058,3703.2,0.00037195,3745.1,-0.00011514,85.233,-0.00012649,-0.0032967,0.55666
24262,8.7711,2.2727,0.1,0.00036794,3676.9,0.00036929,3717.9,-0.00011441,83.576,-0.00012554,-0.0024884,0.5673
24263,8.4959,2.1818,0.1,0.00037553,3752.7,0.00037703,3798.5,-0.00011608,93.504,-0.00012853,-0.0037032,0.5359
24264,8.5876,2.2727,0.1,0.00037287,3726.1,0.00037435,3771.2,-0.00011535,91.809,-0.00012757,-0.0026703,0.54641
24265,8.3124,2.1818,0.1,0.00038049,3802.3,0.00038213,3852.5,-0.00011697,102.46,-0.0001306,-0.0043285,0.5154
24266,8.4041,2.2727,0.1,0.00037781,3775.5,0.00037943,3824.9,-0.00011623,100.75,-0.00012964,-0.0030116,0.52578
24267,8.1289,2.1818,0.1,0.00038547,3852.1,0.00038726,3906.9,-0.00011779,112.16,-0.00013272,-0.0052469,0.49515
24268,8.2206,2.2727,0.1,0.00038277,3825.1,0.00038453,3879.1,-0.00011705,110.45,-0.00013175,-0.0035699,0.50541
24269,7.9454,2.1818,0.1,0.00039049,3902.2,0.00039243,3962.1,-0.00011857,122.65,-0.00013489,-0.0065572,0.47517
24270,8.0372,2.2727,0.1,0.00038776,3874.9,0.00038967,3934,-0.0001178,120.98,-0.00013391,-0.0044222,0.48529
24271,7.7619,2.1818,0.1,0.00039555,3952.8,0.00039766,4018.1,-0.00011928,133.99,-0.00013711,-0.0083904,0.45545
24272,7.8537,2.2727,0.1,0.00039278,3925.1,0.00039487,3989.6,-0.0001185,132.41,-0.00013612,-0.0056699,0.46544
24273,7.5785,2.1818,0.1,0.00040067,4004,0.00040296,4075.1,-0.00011994,146.24,-0.0001394,-0.01092,0.43599
24274,7.6702,2.2727,0.1,0.00039786,3975.9,0.00040013,4046.3,-0.00011913,144.79,-0.0001384,-0.0074483,0.44585
24275,7.395,2.1818,0.1,0.00040588,4056,0.00040836,4133.4,-0.00012054,159.44,-0.00014176,-0.014378,0.41681
24276,7.4867,2.2727,0.1,0.00040302,4027.4,0.00040547,4104.1,-0.0001197,158.21,-0.00014076,-0.009939,0.42653
24277,7.2115,2.1818,0.1,0.00041121,4109.3,0.00041389,4193.3,-0.0001211,173.66,-0.00014421,-0.019068,0.3979
24278,7.3032,2.2727,0.1,0.00040828,4080,0.00041094,4163.6,-0.00012021,172.71,-0.0001432,-0.013381,0.40749
24279,7.028,2.1818,0.1,0.0004167,4164.1,0.00041959,4255.3,-0.00012162,188.91,-0.00014676,-0.025399,0.37928
24280,7.1198,2.2727,0.1,0.00041369,4134,0.00041657,4225,-0.00012067,188.38,-0.00014574,-0.018093,0.38872
24281,6.8445,2.1818,0.1,0.00042239,4221,0.00042551,4319.9,-0.00012212,205.24,-0.00014944,-0.03391,0.36093
24282,6.9363,2.2727,0.1,0.00041929,4190,0.0004224,4288.8,-0.00012109,205.24,-0.00014841,-0.024499,0.37023
24283,6.6611,2.1818,0.1,0.00042837,4280.8,0.00043172,4387.7,-0.00012261,222.65,-0.00015225,-0.045321,0.34287
24284,6.7528,2.2727,0.1,0.00042515,4248.5,0.00042851,4355.8,-0.00012149,223.35,-0.00015122,-0.033162,0.35203
24285,6.4776,2.1818,0.1,0.00043472,4344.2,0.00043832,4459.7,-0.00012314,241.09,-0.00015524,-0.060587,0.3251
24286,6.5693,2.2727,0.1,0.00043136,4310.6,0.00043497,4426.8,-0.0001219,242.71,-0.0001542,-0.044834,0.33412
24287,6.2941,2.1818,0.1,0.00044155,4412.5,0.0004454,4536.9,-0.00012375,260.51,-0.00015843,-0.080981,0.30763
24288,6.3858,2.2727,0.1,0.00043802,4377.2,0.0004419,4502.8,-0.00012235,263.28,-0.0001574,-0.06051,0.31649
24289,6.1106,2.1818,0.1,0.00044902,4487.1,0.00045313,4620.8,-0.0001245,280.74,-0.00016187,-0.1082,0.29045
24290,6.2024,2.2727,0.1,0.00044528,4449.8,0.00044944,4585.3,-0.0001229,284.97,-0.00016084,-0.081518,0.29917
24291,5.9271,2.1818,0.1,0.00045731,4570,0.00046169,4713.2,-0.00012546,301.54,-0.00016561,-0.14453,0.27358
24292,6.0189,2.2727,0.1,0.00045333,4530.2,0.00045778,4676.1,-0.00012363,307.62,-0.00016459,-0.10962,0.28215
24293,5.7437,2.1818,0.1,0.00046668,4663.6,0.00047132,4816.4,-0.00012677,322.52,-0.00016972,-0.193,0.25703
24294,5.8354,2.2727,0.1,0.0004624,4620.8,0.00046714,4777.3,-0.00012464,330.91,-0.0001687,-0.14718,0.26544
24295,5.5602,2.1818,0.1,0.00047745,4771.2,0.00048235,4933.3,-0.00012857,343.07,-0.00017427,-0.25783,0.24079
24296,5.6519,2.2727,0.1,0.00047281,4724.9,0.00047784,4892,-0.00012608,354.37,-0.00017327,-0.19731,0.24904
24297,5.3767,2.1818,0.1,0.00049005,4897.1,0.0004952,5068,-0.00013109,362.31,-0.00017936,-0.34464,0.22487
24298,5.4684,2.2727,0.1,0.00048497,4846.4,0.00049028,5023.8,-0.00012814,377.27,-0.00017839,-0.26427,0.23296
24299,5.1932,2.1818,0.1,0.00050505,5047.1,0.00051042,5225.6,-0.00013463,378.87,-0.00018512,-0.46229,0.20929
24300,5.285,2.2727,0.1,0.00049941,4990.7,0.00050499,5177.8,-0.0001311,398.48,-0.00018418,-0.35353,0.21721
24301,5.0097,2.1818,0.1,0.00052324,5228.8,0.00052877,5412.8,-0.00013962,390.77,-0.00019171,-0.62122,0.19405
24302,5.1015,2.2727,0.1,0.00051686,5165.1,0.00052268,5360.4,-0.00013534,416.35,-0.00019081,-0.47395,0.20181
24303,4.8263,2.1818,0.1,0.00054569,5453.1,0.00055131,5639.4,-0.00014667,395.05,-0.00019936,-0.85185,0.17916
24304,4.918,2.2727,0.1,0.00053831,5379.3,0.0005443,5580.4,-0.00014139,428.43,-0.00019849,-0.63341,0.18675
24305,4.6428,2.1818,0.1,0.00057397,5735.8,0.00057955,5919,-0.00015666,387.34,-0.00020837,-1.1548,0.16465
24306,4.7345,2.2727,0.1,0.00056511,5647.2,0.00057118,5849.9,-0.00015001,431.11,-0.0002075,-0.86494,0.17207
24307,4.4593,2.1818,0.1,0.00061046,6100.4,0.00061576,6272,-0.00017093,361.07,-0.00021922,-1.7796,0.15052
24308,4.551,2.2727,0.1,0.00059924,5988.2,0.00060524,6186.1,-0.0001623,419.13,-0.00021824,-1.1415,0.15776
24309,4.2758,2.1818,0.1,0.00065889,6584.4,0.00066353,6731.2,-0.00019152,306.65,-0.00023263,-2.2454,0.1368
24310,4.3676,2.2727,0.1,0.00064367,6432.2,0.00064931,6615,-0.0001799,384.62,-0.00023132,-1.7662,0.14386
24311,4.0923,2.1818,0.1,0.00072594,7254.4,0.00072914,7353.1,-0.00022178,208.28,-0.00025031,-6.096,0.12352
24312,4.1841,2.2727,0.1,0.00070305,7025.7,0.00070786,7177.5,-0.0002053,316.3,-0.00024766,-1.954,0.13039
24313,3.9088,2.1818,0.1,0.00082324,8226.8,0.00082392,8247.1,-0.00026664,53.01,-0.00027529,-11.921,0.11071
24314,4.0006,2.2727,0.1,0.00078554,7850,0.00078858,7943,-0.00024257,195.4,-0.00026931,-5.5088,0.11739
24315,3.7254,2.1818,0.1,0.00098194,9812.6,0.00097716,9675.9,-0.00031313,-18.785,-0.00034398,-250.55,0.098417
24316,3.8171,2.2727,0.1,0.00090515,9045.3,0.00090508,9043.3,-0.00029728,9.2249,-0.00030026,-13.16,0.1049
24317,3.5419,2.1818,0.1,0.0012715,12706,0.0012569,12306,-0.00038501,-30.592,-0.00047941,-739.83,0.086729
24318,3.6336,2.2727,0.1,0.0010953,10946,0.0010888,10760,-0.00034603,-20.137,-0.00038901,-343.12,0.092998
24319,3.4501,2.2727,0.1,0.0014128,14118,0.0013954,13650,-0.00042008,9.2893,-0.00054124,-901.05,0.081792
24320,3.3584,2.1818,0.1,0.0017151,17139,0.0016906,16475,-0.00051138,-70.496,-0.00066205,-1202.6,0.075803
24321,23.725,2.3636,0.1,2.0333e-05,203.19,1.1429e-05,58.943,3.5545e-06,-0.225,-1.8677e-05,-167.26,2.8142
24322,23.817,2.4545,0.1,1.9672e-05,196.59,9.711e-06,39.606,4.412e-06,-0.2093,-1.8697e-05,-173.84,2.8296
24323,23.908,2.3636,0.1,1.8942e-05,189.28,8.1013e-06,22.295,5.076e-06,-0.43587,-1.8467e-05,-177.33,2.845
24324,23.541,2.3636,0.1,2.2275e-05,222.6,1.4971e-05,97.702,1.9378e-06,-0.2272,-1.8937e-05,-157.07,2.7834
24325,23.633,2.4545,0.1,2.1382e-05,213.68,1.3252e-05,78.366,2.7783e-06,-0.3295,-1.8938e-05,-163.5,2.7988
24326,23.358,2.3636,0.1,2.4587e-05,245.7,1.8513e-05,136.35,3.4835e-07,-0.13097,-1.9238e-05,-147.29,2.7525
24327,23.45,2.4545,0.1,2.3516e-05,235,1.6792e-05,117.12,1.1849e-06,-0.14367,-1.9217e-05,-153.44,2.768
24328,23.174,2.3636,0.1,2.7178e-05,271.59,2.2059e-05,174.85,-1.2269e-06,-0.10792,-1.9583e-05,-138.03,2.7217
24329,23.266,2.4545,0.1,2.5972e-05,259.54,2.0338e-05,155.71,-4.025e-07,-0.12579,-1.9538e-05,-143.9,2.7372
24330,22.991,2.3636,0.1,2.9981e-05,299.6,2.5613e-05,213.27,-2.7828e-06,-0.085222,-1.9974e-05,-129.25,2.6909
24331,23.083,2.4545,0.1,2.8669e-05,286.49,2.3888e-05,194.18,-1.9691e-06,-0.094174,-1.9903e-05,-134.84,2.7064
24332,22.807,2.3636,0.1,3.2948e-05,329.25,2.9178e-05,251.63,-4.3216e-06,-0.071838,-2.0414e-05,-120.98,2.6602
24333,22.899,2.4545,0.1,3.1552e-05,315.3,2.7447e-05,232.58,-3.5185e-06,-0.078988,-2.0314e-05,-126.27,2.6756
24334,22.624,2.3636,0.1,3.6045e-05,360.2,3.2759e-05,289.99,-5.8443e-06,-0.061529,-2.0902e-05,-113.2,2.6294
24335,22.716,2.4545,0.1,3.4581e-05,345.57,3.1019e-05,270.95,-5.051e-06,-0.066725,-2.0773e-05,-118.2,2.6448
24336,22.44,2.3636,0.1,3.9249e-05,392.22,3.636e-05,328.38,-7.3524e-06,-0.053849,-2.1439e-05,-105.9,2.5987
24337,22.532,2.4545,0.1,3.7727e-05,377.01,3.4608e-05,309.32,-6.5683e-06,-0.057996,-2.128e-05,-110.6,2.6141
24338,22.257,2.3636,0.1,4.2543e-05,425.14,3.9983e-05,366.84,-8.8475e-06,-0.047779,-2.2026e-05,-99.067,2.568
24339,22.349,2.4545,0.1,4.0971e-05,409.43,3.8217e-05,347.75,-8.0717e-06,-0.051142,-2.1836e-05,-103.47,2.5833
24340,22.073,2.3636,0.1,4.5915e-05,458.84,4.3631e-05,405.4,-1.0331e-05,-0.042898,-2.2661e-05,-92.686,2.5373
24341,22.165,2.4545,0.1,4.4299e-05,442.68,4.185e-05,386.25,-9.5628e-06,-0.045714,-2.2441e-05,-96.807,2.5526
24342,21.89,2.3636,0.1,4.9356e-05,493.22,4.7305e-05,444.09,-1.1805e-05,-0.038874,-2.3343e-05,-86.737,2.5066
24343,21.982,2.4545,0.1,4.7699e-05,476.66,4.5508e-05,424.86,-1.1043e-05,-0.041283,-2.3093e-05,-90.579,2.522
24344,21.706,2.3636,0.1,5.2859e-05,528.23,5.1007e-05,482.91,-1.3269e-05,-0.035499,-2.4071e-05,-81.197,2.476
24345,21.798,2.4545,0.1,5.1165e-05,511.3,4.9193e-05,463.6,-1.2514e-05,-0.037599,-2.3791e-05,-84.772,2.4913
24346,21.523,2.3636,0.1,5.6418e-05,563.79,5.4738e-05,521.9,-1.4727e-05,-0.032625,-2.4843e-05,-76.044,2.4454
24347,21.615,2.4545,0.1,5.469e-05,546.52,5.2906e-05,502.49,-1.3976e-05,-0.034481,-2.4534e-05,-79.364,2.4607
24348,21.34,2.3636,0.1,6.0029e-05,599.88,5.8498e-05,561.06,-1.6178e-05,-0.030151,-2.5657e-05,-71.255,2.4149
24349,21.431,2.4545,0.1,5.8269e-05,582.29,5.6647e-05,541.54,-1.5432e-05,-0.031807,-2.5321e-05,-74.333,2.4302
24350,21.156,2.3636,0.1,6.3689e-05,636.45,6.2288e-05,600.39,-1.7623e-05,-0.027997,-2.6511e-05,-66.808,2.3844
24351,21.248,2.4545,0.1,6.1899e-05,618.56,6.0419e-05,580.77,-1.6881e-05,-0.029497,-2.6148e-05,-69.658,2.3996
24352,20.973,2.3636,0.1,6.7393e-05,673.47,6.6107e-05,639.92,-1.9065e-05,-0.026104,-2.7404e-05,-62.681,2.3539
24353,21.064,2.4545,0.1,6.5576e-05,655.3,6.422e-05,620.19,-1.8326e-05,-0.02747,-2.7016e-05,-65.316,2.3692
24354,20.789,2.3636,0.1,7.114e-05,710.91,6.9956e-05,679.65,-2.0503e-05,-0.024431,-2.8332e-05,-58.851,2.3235
24355,20.881,2.4545,0.1,6.9297e-05,692.49,6.805e-05,659.8,-1.9767e-05,-0.025683,-2.792e-05,-61.286,2.3387
24356,20.606,2.3636,0.1,7.4928e-05,748.77,7.3834e-05,719.57,-2.1939e-05,-0.022935,-2.9295e-05,-55.299,2.2931
24357,20.697,2.4545,0.1,7.306e-05,730.09,7.191e-05,699.6,-2.1205e-05,-0.024094,-2.8861e-05,-57.546,2.3083
24358,20.422,2.3636,0.1,7.8755e-05,787,7.7741e-05,759.7,-2.3372e-05,-0.021592,-3.0291e-05,-52.004,2.2628
24359,20.514,2.4545,0.1,7.6862e-05,768.09,7.5799e-05,739.61,-2.2641e-05,-0.022666,-2.9835e-05,-54.078,2.278
24360,20.239,2.3636,0.1,8.2618e-05,825.61,8.1676e-05,800.04,-2.4805e-05,-0.020386,-3.1317e-05,-48.947,2.2325
24361,20.33,2.4545,0.1,8.0703e-05,806.47,7.9717e-05,779.83,-2.4075e-05,-0.021384,-3.0841e-05,-50.86,2.2477
24362,20.055,2.3636,0.1,8.6517e-05,864.57,8.564e-05,840.58,-2.6238e-05,-0.019301,-3.2372e-05,-46.112,2.2023
24363,20.147,2.4545,0.1,8.458e-05,845.22,8.3664e-05,820.25,-2.5508e-05,-0.020231,-3.1877e-05,-47.875,2.2174
24364,19.872,2.3636,0.1,9.0449e-05,903.87,8.9631e-05,881.33,-2.767e-05,-0.018311,-3.3455e-05,-43.481,2.1721
24365,19.963,2.4545,0.1,8.8492e-05,884.31,8.7638e-05,860.89,-2.6941e-05,-0.019192,-3.2942e-05,-45.106,2.1872
24366,19.688,2.3636,0.1,9.4414e-05,943.49,9.3649e-05,922.29,-2.9103e-05,-0.017402,-3.4563e-05,-41.039,2.142
24367,19.78,2.4545,0.1,9.2438e-05,923.74,9.1641e-05,901.73,-2.8375e-05,-0.018232,-3.4034e-05,-42.537,2.1571
24368,19.505,2.3636,0.1,9.8411e-05,983.43,9.7694e-05,963.47,-3.0538e-05,-0.016576,-3.5696e-05,-38.771,2.112
24369,19.596,2.4545,0.1,9.6416e-05,963.5,9.567e-05,942.78,-2.9809e-05,-0.017354,-3.5151e-05,-40.152,2.127
24370,19.321,2.3636,0.1,0.00010244,1023.7,0.00010177,1004.8,-3.1974e-05,-0.01582,-3.6851e-05,-36.664,2.082
24371,19.413,2.4545,0.1,0.00010043,1003.6,9.9726e-05,984.05,-3.1245e-05,-0.016563,-3.6292e-05,-37.936,2.097
24372,19.138,2.3636,0.1,0.0001065,1064.2,0.00010586,1046.4,-3.3412e-05,-0.015119,-3.8028e-05,-34.704,2.0521
24373,19.229,2.4545,0.1,0.00010447,1043.9,0.00010381,1025.5,-3.2683e-05,-0.015825,-3.7455e-05,-35.877,2.0671
24374,18.954,2.3636,0.1,0.00011058,1105,0.00010998,1088.2,-3.4852e-05,-0.014474,-3.9226e-05,-32.879,2.0222
24375,19.046,2.4545,0.1,0.00010853,1084.6,0.00010792,1067.2,-3.4122e-05,-0.015145,-3.864e-05,-33.961,2.0372
24376,18.771,2.3636,0.1,0.00011469,1146.2,0.00011413,1130.2,-3.6296e-05,-0.013872,-4.0443e-05,-31.179,1.9925
24377,18.863,2.4545,0.1,0.00011263,1125.5,0.00011205,1109.1,-3.5565e-05,-0.014519,-3.9845e-05,-32.177,2.0074
24378,18.587,2.3636,0.1,0.00011884,1187.5,0.0001183,1172.5,-3.7742e-05,-0.01331,-4.1679e-05,-29.593,1.9628
24379,18.679,2.4545,0.1,0.00011676,1166.8,0.00011621,1151.2,-3.701e-05,-0.013927,-4.1069e-05,-30.514,1.9777
24380,18.404,2.3636,0.1,0.000123,1229.2,0.0001225,1214.9,-3.9192e-05,-0.012794,-4.2931e-05,-28.11,1.9332
24381,18.496,2.4545,0.1,0.00012091,1208.3,0.00012039,1193.5,-3.8458e-05,-0.013382,-4.2311e-05,-28.962,1.948
24382,18.22,2.3636,0.1,0.0001272,1271.1,0.00012672,1257.5,-4.0645e-05,-0.01232,-4.42e-05,-26.722,1.9037
24383,18.312,2.4545,0.1,0.00012509,1250,0.0001246,1236,-3.991e-05,-0.012881,-4.357e-05,-27.51,1.9185
24384,18.037,2.3636,0.1,0.00013142,1313.2,0.00013096,1300.3,-4.2103e-05,-0.011872,-4.5484e-05,-25.42,1.8742
24385,18.129,2.4545,0.1,0.00012929,1292.1,0.00012883,1278.8,-4.1366e-05,-0.012423,-4.4845e-05,-26.15,1.889
24386,17.853,2.3636,0.1,0.00013566,1355.7,0.00013523,1343.4,-4.3565e-05,-0.011444,-4.6783e-05,-24.196,1.8449
24387,17.945,2.4545,0.1,0.00013352,1334.3,0.00013308,1321.7,-4.2826e-05,-0.011975,-4.6135e-05,-24.874,1.8596
24388,17.67,2.3636,0.1,0.00013993,1398.3,0.00013952,1386.6,-4.5031e-05,-0.011053,-4.8096e-05,-23.043,1.8156
24389,17.762,2.4545,0.1,0.00013778,1376.8,0.00013736,1364.8,-4.429e-05,-0.011555,-4.7439e-05,-23.672,1.8303
24390,17.486,2.3636,0.1,0.00014422,1441.2,0.00014383,1430.1,-4.6502e-05,-0.010687,-4.9422e-05,-21.952,1.7865
24391,17.578,2.4545,0.1,0.00014206,1419.6,0.00014166,1408.2,-4.5759e-05,-0.011183,-4.8757e-05,-22.538,1.8011
24392,17.303,2.3636,0.1,0.00014853,1484.3,0.00014817,1473.7,-4.7977e-05,-0.010335,-5.076e-05,-20.917,1.7574
24393,17.395,2.4545,0.1,0.00014636,1462.6,0.00014598,1451.7,-4.7233e-05,-0.010815,-5.0088e-05,-21.464,1.772
24394,17.119,2.3636,0.1,0.00015287,1527.7,0.00015252,1517.6,-4.9458e-05,-0.010005,-5.2109e-05,-19.933,1.7284
24395,17.211,2.4545,0.1,0.00015069,1505.8,0.00015033,1495.5,-4.8711e-05,-0.010471,-5.1431e-05,-20.445,1.743
24396,16.936,2.3636,0.1,0.00015723,1571.2,0.0001569,1561.7,-5.0944e-05,-0.0096872,-5.347e-05,-18.991,1.6996
24397,17.028,2.4545,0.1,0.00015503,1549.3,0.00015469,1539.4,-5.0195e-05,-0.010148,-5.2785e-05,-19.472,1.714
24398,16.753,2.3636,0.1,0.00016162,1615,0.0001613,1605.9,-5.2435e-05,-0.0093818,-5.4841e-05,-18.088,1.6708
24399,16.844,2.4545,0.1,0.00015941,1593,0.00015908,1583.6,-5.1684e-05,-0.0098266,-5.415e-05,-18.541,1.6852
24400,16.569,2.3636,0.1,0.00016602,1659,0.00016572,1650.4,-5.3932e-05,-0.0090987,-5.6222e-05,-17.216,1.6421
24401,16.661,2.4545,0.1,0.0001638,1636.9,0.00016349,1628,-5.3178e-05,-0.00953,-5.5525e-05,-17.645,1.6565
24402,16.386,2.3636,0.1,0.00017045,1703.3,0.00017016,1695,-5.5435e-05,-0.0088383,-5.7613e-05,-16.371,1.6136
24403,16.477,2.4545,0.1,0.00016821,1681,0.00016792,1672.5,-5.4678e-05,-0.0092542,-5.691e-05,-16.778,1.6279
24404,16.202,2.3636,0.1,0.00017489,1747.7,0.00017462,1739.9,-5.6943e-05,-0.0085833,-5.9011e-05,-15.547,1.5852
24405,16.294,2.4545,0.1,0.00017265,1725.3,0.00017237,1717.3,-5.6184e-05,-0.0090046,-5.8303e-05,-15.936,1.5994
24406,16.019,2.3636,0.1,0.00017936,1792.4,0.0001791,1784.9,-5.8458e-05,-0.0083259,-6.0419e-05,-14.738,1.5569
24407,16.11,2.4545,0.1,0.00017711,1769.8,0.00017684,1762.2,-5.7696e-05,-0.0087399,-5.9706e-05,-15.112,1.5711
24408,15.835,2.3636,0.1,0.00018385,1837.2,0.00018361,1830.2,-5.9979e-05,-0.0080918,-6.1833e-05,-13.941,1.5287
24409,15.927,2.4545,0.1,0.00018158,1814.6,0.00018134,1807.4,-5.9213e-05,-0.0084856,-6.1116e-05,-14.302,1.5428
24410,15.652,2.3636,0.1,0.00018836,1882.3,0.00018813,1875.7,-6.1506e-05,-0.0078674,-6.3255e-05,-13.149,1.5006
24411,15.743,2.4545,0.1,0.00018608,1859.5,0.00018585,1852.7,-6.0738e-05,-0.0082684,-6.2533e-05,-13.501,1.5147
24412,15.468,2.3636,0.1,0.00019289,1927.5,0.00019267,1921.3,-6.304e-05,-0.0076396,-6.4683e-05,-12.359,1.4727
24413,15.56,2.4545,0.1,0.0001906,1904.7,0.00019038,1898.3,-6.2268e-05,-0.0080344,-6.3958e-05,-12.703,1.4867
24414,15.285,2.3636,0.1,0.00019743,1973,0.00019723,1967.2,-6.458e-05,-0.0074216,-6.6118e-05,-11.564,1.4449
24415,15.376,2.4545,0.1,0.00019514,1950,0.00019493,1944,-6.3805e-05,-0.0078126,-6.5388e-05,-11.903,1.4588
24416,15.101,2.3636,0.1,0.000202,2018.6,0.00020181,2013.2,-6.6127e-05,-0.0071975,-6.7558e-05,-10.759,1.4172
24417,15.193,2.4545,0.1,0.00019969,1995.6,0.0001995,1990,-6.5349e-05,-0.0075995,-6.6825e-05,-11.096,1.4311
24418,14.918,2.3636,0.1,0.00020659,2064.4,0.00020641,2059.4,-6.7681e-05,-0.0069691,-6.9003e-05,-9.9408,1.3897
24419,15.009,2.4545,0.1,0.00020427,2041.3,0.00020409,2036.1,-6.69e-05,-0.007367,-6.8267e-05,-10.277,1.4035
24420,14.734,2.3636,0.1,0.00021119,2110.4,0.00021103,2105.9,-6.9242e-05,-0.0067504,-7.0452e-05,-9.1027,1.3623
24421,14.826,2.4545,0.1,0.00020886,2087.2,0.0002087,2082.5,-6.8457e-05,-0.0071478,-6.9713e-05,-9.4418,1.376
24422,14.551,2.3636,0.1,0.00021581,2156.6,0.00021567,2152.5,-7.081e-05,-0.0065392,-7.1906e-05,-8.2399,1.335
24423,14.642,2.4545,0.1,0.00021348,2133.3,0.00021333,2129,-7.0022e-05,-0.0069374,-7.1164e-05,-8.5837,1.3487
24424,14.367,2.3636,0.1,0.00022045,2203,0.00022033,2199.3,-7.2386e-05,-0.0063092,-7.3363e-05,-7.3468,1.3079
24425,14.459,2.4545,0.1,0.00021811,2179.6,0.00021797,2175.7,-7.1594e-05,-0.0067374,-7.2618e-05,-7.6978,1.3215
24426,14.184,2.3636,0.1,0.00022511,2249.5,0.000225,2246.3,-7.3969e-05,-0.0060435,-7.4822e-05,-6.4176,1.2809
24427,14.276,2.4545,0.1,0.00022276,2226,0.00022264,2222.6,-7.3174e-05,-0.0064951,-7.4075e-05,-6.7782,1.2945
24428,14,2.3636,0.1,0.00022978,2296.3,0.00022969,2293.5,-7.556e-05,-0.0057622,-7.6284e-05,-5.4467,1.2541
24429,14.092,2.4545,0.1,0.00022742,2272.6,0.00022732,2269.7,-7.4761e-05,-0.0062323,-7.5535e-05,-5.8193,1.2676
24430,13.817,2.3636,0.1,0.00023448,2343.1,0.0002344,2340.9,-7.7158e-05,-0.0054214,-7.7747e-05,-4.4276,1.2275
24431,13.909,2.4545,0.1,0.0002321,2319.4,0.00023202,2317,-7.6356e-05,-0.0059702,-7.6996e-05,-4.8149,1.2409
24432,13.633,2.3636,0.1,0.00023918,2390.2,0.00023913,2388.5,-7.8765e-05,-0.0049325,-7.9211e-05,-3.354,1.201
24433,13.725,2.4545,0.1,0.0002368,2366.4,0.00023674,2364.5,-7.7959e-05,-0.0056027,-7.8459e-05,-3.7584,1.2143
24434,13.45,2.3636,0.1,0.00024391,2437.4,0.00024387,2436.3,-8.038e-05,-0.0040838,-8.0675e-05,-2.2193,1.1746
24435,13.542,2.4545,0.1,0.00024152,2413.5,0.00024147,2412.2,-7.957e-05,-0.0050589,-7.9921e-05,-2.6434,1.1879
24436,13.266,2.3636,0.1,0.00024865,2484.8,0.00024863,2484.2,-8.2003e-05,-0.0014753,-8.2139e-05,-1.0175,1.1485
24437,13.358,2.4545,0.1,0.00024625,2460.8,0.00024622,2460,-8.119e-05,-0.0038612,-8.1384e-05,-1.463,1.1616
24438,13.083,2.3636,0.1,0.0002534,2532.3,0.00025341,2532.4,-8.3598e-05,0.28366,-8.3638e-05,-0.021555,1.1224
24439,13.175,2.4545,0.1,0.00025099,2508.2,0.00025099,2508.1,-8.2816e-05,0.009785,-8.2847e-05,-0.22127,1.1355
24440,12.899,2.3636,0.1,0.00025817,2579.9,0.0002582,2580.7,-8.5059e-05,1.6364,-8.5278e-05,-0.008454,1.0966
24441,12.991,2.4545,0.1,0.00025575,2555.8,0.00025577,2556.3,-8.4304e-05,1.1344,-8.4456e-05,-0.0088451,1.1096
24442,12.716,2.3636,0.1,0.00026295,2627.7,0.00026301,2629.3,-8.6515e-05,3.0946,-8.6928e-05,-0.0069886,1.0709
24443,12.808,2.4545,0.1,0.00026053,2603.5,0.00026057,2604.8,-8.576e-05,2.5601,-8.6102e-05,-0.0070409,1.0838
24444,12.532,2.3636,0.1,0.00026775,2675.6,0.00026783,2678,-8.7968e-05,4.6568,-8.8588e-05,-0.0063244,1.0455
24445,12.624,2.4545,0.1,0.00026532,2651.3,0.00026539,2653.4,-8.7213e-05,4.0869,-8.7757e-05,-0.006359,1.0583
24446,12.349,2.3636,0.1,0.00027256,2723.7,0.00027266,2726.9,-8.9414e-05,6.3327,-9.0258e-05,-0.0059082,1.0202
24447,12.441,2.4545,0.1,0.00027012,2699.3,0.00027021,2702.2,-8.866e-05,5.7237,-8.9423e-05,-0.0059508,1.0329
24448,12.165,2.3636,0.1,0.00027738,2771.9,0.00027752,2775.9,-9.0855e-05,8.133,-9.1938e-05,-0.0056038,0.99503
24449,12.257,2.4545,0.1,0.00027493,2747.4,0.00027506,2751.1,-9.0102e-05,7.4813,-9.1098e-05,-0.0056507,1.0077
24450,11.982,2.3636,0.1,0.00028221,2820.2,0.00028238,2825.2,-9.2287e-05,10.07,-9.3628e-05,-0.0053415,0.97009
24451,12.074,2.4545,0.1,0.00027976,2795.6,0.00027991,2800.3,-9.1536e-05,9.371,-9.2784e-05,-0.0054126,0.98263
24452,11.799,2.3636,0.1,0.00028705,2868.6,0.00028726,2874.6,-9.3711e-05,12.155,-9.533e-05,-0.0050932,0.94535
24453,11.89,2.4545,0.1,0.00028459,2844,0.00028478,2849.6,-9.2961e-05,11.406,-9.448e-05,-0.0051663,0.95779
24454,11.615,2.3636,0.1,0.00029191,2917.1,0.00029215,2924.2,-9.5125e-05,14.404,-9.7042e-05,-0.0048671,0.92079
24455,11.707,2.4545,0.1,0.00028944,2892.4,0.00028967,2899.2,-9.4377e-05,13.599,-9.6188e-05,-0.0049387,0.93315
24456,11.432,2.3636,0.1,0.00029677,2965.6,0.00029705,2974,-9.6526e-05,16.831,-9.8767e-05,-0.0046326,0.89644
24457,11.523,2.4545,0.1,0.00029429,2940.9,0.00029456,2948.8,-9.5781e-05,15.965,-9.7907e-05,-0.0047242,0.90869
24458,11.248,2.3636,0.1,0.00030164,3014.3,0.00030197,3024,-9.7914e-05,19.451,-0.0001005,-0.0044069,0.87228
24459,11.34,2.4545,0.1,0.00029916,2989.5,0.00029947,2998.7,-9.7173e-05,18.52,-9.9638e-05,-0.0044715,0.88444
24460,11.065,2.3636,0.1,0.00030652,3063.1,0.00030689,3074.1,-9.9286e-05,22.284,-0.00010225,-0.004207,0.84833
24461,11.156,2.4545,0.1,0.00030403,3038.2,0.00030438,3048.8,-9.8549e-05,21.282,-0.00010138,-0.0042669,0.86039
24462,10.881,2.3636,0.1,0.0003114,3111.9,0.00031182,3124.5,-0.00010064,25.348,-0.00010402,-0.003983,0.82458
24463,10.973,2.4545,0.1,0.00030891,3086.9,0.00030931,3099,-9.9908e-05,24.27,-0.00010314,-0.0040585,0.83654
24464,10.698,2.3636,0.1,0.00031629,3160.7,0.00031677,3175,-0.00010198,28.665,-0.00010579,-0.0037454,0.80105
24465,10.789,2.4545,0.1,0.00031379,3135.7,0.00031425,3149.4,-0.00010125,27.504,-0.00010491,-0.0038001,0.8129
24466,10.514,2.3636,0.1,0.00032119,3209.6,0.00032172,3225.6,-0.00010329,32.256,-0.00010759,-0.0035255,0.77773
24467,10.606,2.4545,0.1,0.00031868,3184.6,0.00031919,3200,-0.00010257,31.008,-0.0001067,-0.003558,0.78947
24468,10.331,2.3636,0.1,0.00032608,3258.6,0.00032668,3276.5,-0.00010458,36.148,-0.00010939,-0.0033205,0.75462
24469,10.422,2.4545,0.1,0.00032357,3233.5,0.00032415,3250.7,-0.00010387,34.805,-0.0001085,-0.0033281,0.76626
24470,10.147,2.3636,0.1,0.00033098,3307.6,0.00033165,3327.6,-0.00010585,40.367,-0.00011122,-0.0031071,0.73173
24471,10.239,2.4545,0.1,0.00032846,3282.4,0.00032911,3301.7,-0.00010514,38.923,-0.00011032,-0.003109,0.74326
24472,9.9637,2.3636,0.1,0.00033589,3356.6,0.00033663,3378.8,-0.00010708,44.943,-0.00011306,-0.0028781,0.70907
24473,10.055,2.4545,0.1,0.00033336,3331.3,0.00033408,3352.8,-0.00010638,43.392,-0.00011215,-0.0028544,0.72049
24474,9.7802,2.3636,0.1,0.00034079,3405.6,0.00034161,3430.2,-0.00010828,49.91,-0.00011492,-0.0026589,0.68663
24475,9.872,2.4545,0.1,0.00033826,3380.3,0.00033905,3404.1,-0.00010759,48.244,-0.00011401,-0.0025947,0.69794
24476,9.5968,2.3636,0.1,0.0003457,3454.6,0.0003466,3481.9,-0.00010945,55.302,-0.00011681,-0.0024526,0.66443
24477,9.6885,2.4545,0.1,0.00034316,3429.2,0.00034404,3455.6,-0.00010876,53.515,-0.00011588,-0.0023487,0.67562
24478,9.4133,2.3636,0.1,0.0003506,3503.6,0.0003516,3533.8,-0.00011057,61.158,-0.00011871,-0.0022608,0.64245
24479,9.505,2.4545,0.1,0.00034805,3478.1,0.00034902,3507.4,-0.00010989,59.244,-0.00011778,-0.0021018,0.65353
24480,9.2298,2.3636,0.1,0.00035551,3552.6,0.00035661,3585.9,-0.00011166,67.523,-0.00012065,-0.002096,0.62072
24481,9.3215,2.4545,0.1,0.00035295,3527.1,0.00035402,3559.4,-0.00011099,65.475,-0.0001197,-0.0018694,0.63168
24482,9.0463,2.3636,0.1,0.00036041,3601.6,0.00036162,3638.3,-0.0001127,74.441,-0.0001226,-0.0019704,0.59922
24483,9.1381,2.4545,0.1,0.00035785,3576,0.00035902,3611.6,-0.00011203,72.255,-0.00012165,-0.0016578,0.61006
24484,8.8628,2.3636,0.1,0.00036532,3650.7,0.00036665,3691,-0.00011368,81.963,-0.00012459,-0.0019028,0.57797
24485,8.9546,2.4545,0.1,0.00036275,3625,0.00036404,3664.1,-0.00011303,79.636,-0.00012363,-0.0014813,0.58869
24486,8.6794,2.3636,0.1,0.00037024,3699.8,0.00037169,3744,-0.00011462,90.146,-0.00012662,-0.0019177,0.55696
24487,8.7711,2.4545,0.1,0.00036765,3674,0.00036906,3717,-0.00011397,87.674,-0.00012564,-0.0013582,0.56756
24488,8.4959,2.3636,0.1,0.00037516,3749,0.00037674,3797.5,-0.00011549,99.047,-0.00012868,-0.002049,0.53621
24489,8.5876,2.4545,0.1,0.00037256,3723,0.0003741,3770.3,-0.00011486,96.431,-0.00012769,-0.0013137,0.54668
24490,8.3124,2.3636,0.1,0.0003801,3798.3,0.00038183,3851.5,-0.00011631,108.73,-0.00013078,-0.0023418,0.51571
24491,8.4041,2.4545,0.1,0.00037747,3772.1,0.00037917,3824,-0.00011567,105.97,-0.00012978,-0.0013822,0.52605
24492,8.1289,2.3636,0.1,0.00038506,3847.9,0.00038695,3906.1,-0.00011706,119.27,-0.00013293,-0.0028575,0.49546
24493,8.2206,2.4545,0.1,0.00038241,3821.5,0.00038426,3878.3,-0.00011643,116.38,-0.00013192,-0.0016106,0.50568
24494,7.9454,2.3636,0.1,0.00039005,3897.8,0.00039211,3961.5,-0.00011774,130.74,-0.00013514,-0.0036776,0.47548
24495,8.0372,2.4545,0.1,0.00038737,3871.1,0.00038939,3933.4,-0.00011711,127.72,-0.00013411,-0.0020617,0.48556
24496,7.7619,2.3636,0.1,0.00039509,3948.2,0.00039733,4017.8,-0.00011835,143.21,-0.00013741,-0.0049098,0.45576
24497,7.8537,2.4545,0.1,0.00039238,3921.1,0.00039457,3989.2,-0.00011772,140.08,-0.00013636,-0.0028201,0.46571
24498,7.5785,2.3636,0.1,0.0004002,3999.3,0.00040264,4075.3,-0.00011889,156.76,-0.00013976,-0.0067005,0.43631
24499,7.6702,2.4545,0.1,0.00039744,3971.7,0.00039983,4046.2,-0.00011825,153.55,-0.00013869,-0.0039987,0.44612
24500,7.395,2.3636,0.1,0.00040541,4051.3,0.00040806,4134.3,-0.00011937,171.48,-0.00014219,-0.0092436,0.41712
24501,7.4867,2.4545,0.1,0.00040259,4023.1,0.00040519,4104.6,-0.00011871,168.23,-0.0001411,-0.005751,0.42681
24502,7.2115,2.3636,0.1,0.00041075,4104.7,0.00041362,4195.2,-0.00011978,187.43,-0.00014473,-0.012797,0.39822
24503,7.3032,2.4545,0.1,0.00040786,4075.8,0.00041068,4164.7,-0.0001191,184.19,-0.00014361,-0.0082797,0.40776
24504,7.028,2.3636,0.1,0.00041627,4159.9,0.00041938,4258.4,-0.00012014,204.7,-0.00014739,-0.017705,0.37959
24505,7.1198,2.4545,0.1,0.00041328,4130,0.00041634,4227.1,-0.00011942,201.54,-0.00014625,-0.011857,0.389
24506,6.8445,2.3636,0.1,0.00042204,4217.5,0.0004254,4324.7,-0.00012046,223.35,-0.00015019,-0.024426,0.36124
24507,6.9363,2.4545,0.1,0.00041893,4186.4,0.00042224,4292.2,-0.00011969,220.34,-0.00014902,-0.016849,0.37051
24508,6.6611,2.3636,0.1,0.00042813,4278.4,0.00043175,4394.9,-0.00012077,243.41,-0.00015317,-0.033573,0.34318
24509,6.7528,2.4545,0.1,0.00042487,4245.8,0.00042845,4361,-0.00011993,240.68,-0.00015196,-0.023741,0.35231
24510,6.4776,2.3636,0.1,0.00043466,4343.6,0.00043856,4469.9,-0.0001211,264.89,-0.00015636,-0.04596,0.32542
24511,6.5693,2.4545,0.1,0.0004312,4309,0.00043507,4434.3,-0.00012015,262.59,-0.00015511,-0.033188,0.33439
24512,6.2941,2.3636,0.1,0.00044175,4414.5,0.00044594,4551.3,-0.0001215,287.75,-0.0001598,-0.062672,0.30794
24513,6.3858,2.4545,0.1,0.00043805,4377.5,0.00044222,4513.5,-0.00012042,286.07,-0.0001585,-0.046064,0.31677
24514,6.1106,2.3636,0.1,0.0004496,4492.9,0.00045409,4640.6,-0.00012204,311.86,-0.00016355,-0.085155,0.29077
24515,6.2024,2.4545,0.1,0.0004456,4452.9,0.00045007,4600.2,-0.00012078,311.06,-0.00016219,-0.06354,0.29945
24516,5.9271,2.3636,0.1,0.00045843,4581.1,0.00046322,4740.2,-0.00012281,337,-0.00016768,-0.11533,0.2739
24517,6.0189,2.4545,0.1,0.00045404,4537.3,0.00045884,4696.5,-0.00012133,337.39,-0.00016624,-0.087184,0.28243
24518,5.7437,2.3636,0.1,0.00046854,4682.2,0.00047365,4852.9,-0.00012395,362.79,-0.00017225,-0.15574,0.25735
24519,5.8354,2.4545,0.1,0.00046368,4633.6,0.0004688,4805.1,-0.00012217,364.79,-0.00017074,-0.11909,0.26571
24520,5.5602,2.3636,0.1,0.00048034,4800,0.00048576,4982.4,-0.00012564,388.62,-0.00017739,-0.20978,0.24111
24521,5.6519,2.4545,0.1,0.00047487,4745.4,0.00048033,4929.5,-0.00012348,392.74,-0.00017577,-0.16205,0.24932
24522,5.3767,2.3636,0.1,0.00049433,4939.9,0.00050006,5133.5,-0.00012813,413.53,-0.00018321,-0.28185,0.2252
24523,5.4684,2.4545,0.1,0.0004881,4877.6,0.00049389,5074.1,-0.00012548,420.47,-0.00018147,-0.21976,0.23325
24524,5.1932,2.3636,0.1,0.00051121,5108.6,0.00051723,5312.5,-0.00013178,436.11,-0.00018987,-0.37802,0.20963
24525,5.285,2.4545,0.1,0.000504,5036.5,0.0005101,5244.9,-0.00012848,446.77,-0.00018798,-0.29705,0.21751
24526,5.0097,2.3636,0.1,0.00053191,5315.4,0.00053817,5527.7,-0.00013706,454.27,-0.00019759,-0.50576,0.1944
24527,5.1015,2.4545,0.1,0.00052341,5230.5,0.00052981,5449.3,-0.00013292,469.82,-0.00019551,-0.40046,0.20211
24528,4.8263,2.3636,0.1,0.00055768,5572.9,0.00056411,5790.4,-0.00014467,464.92,-0.00020664,-0.67796,0.17954
24529,4.918,2.4545,0.1,0.00054746,5470.8,0.0005541,5697.7,-0.00013941,486.93,-0.00020429,-0.53767,0.18707
24530,4.6428,2.3636,0.1,0.00059029,5898.9,0.00059679,6116.5,-0.00015557,463.55,-0.00021738,-0.90577,0.16506
24531,4.7345,2.4545,0.1,0.0005777,5773,0.00058449,6003.7,-0.00014879,494.11,-0.00021465,-0.72161,0.17241
24532,4.4593,2.3636,0.1,0.00063234,6319,0.00063869,6528.4,-0.00017116,443.54,-0.00023036,-1.2321,0.15097
24533,4.551,2.4545,0.1,0.00061625,6158.3,0.00062305,6386.1,-0.00016227,485.56,-0.00022702,-0.96257,0.15814
24534,4.2758,2.3636,0.1,0.00068773,6872.5,0.00069356,7060.6,-0.00019357,395.13,-0.00024638,-1.7129,0.13731
24535,4.3676,2.4545,0.1,0.00066619,6657.3,0.00067271,6871.5,-0.00018156,452.78,-0.000242,-1.2896,0.14428
24536,4.0923,2.3636,0.1,0.00076271,7621.8,0.00076738,7768,-0.00022608,303.54,-0.00026675,-2.0624,0.12411
24537,4.1841,2.4545,0.1,0.00073203,7315.2,0.00073776,7498.4,-0.00020919,383.42,-0.00026046,-1.7891,0.13088
24538,3.9088,2.3636,0.1,0.00086813,8675.3,0.00087041,8744.2,-0.00027404,145.28,-0.0002941,-5.4027,0.11141
24539,4.0006,2.4545,0.1,0.00082048,8199.2,0.00082455,8324.8,-0.00024887,259.5,-0.00028368,-2.0418,0.11796
24540,3.7254,2.3636,0.1,0.0010215,10208,0.0010194,10148,-0.00033082,3.019,-0.00034732,-121,0.099281
24541,3.8171,2.4545,0.1,0.00094199,9413.4,0.00094281,9438,-0.00030583,56.16,-0.00031418,-6.5361,0.1056
24542,3.5419,2.3636,0.1,0.0012442,12434,0.0012341,12156,-0.00038131,18.133,-0.00045746,-554.09,0.087803
24543,3.6336,2.4545,0.1,0.0011092,11084,0.0011045,10951,-0.00035218,6.228,-0.00038857,-267.17,0.093851
24544,3.4501,2.4545,0.1,0.0013247,13238,0.001311,12865,-0.00039996,9.569,-0.00049764,-724.37,0.082831
24545,3.3584,2.3636,0.1,0.0014765,14755,0.0014578,14256,-0.0004345,38.44,-0.00057036,-982.33,0.077117
24546,23.725,2.5455,0.1,2.0607e-05,205.93,1.1523e-05,58.951,3.6472e-06,-0.22785,-1.896e-05,-170.09,2.8142
24547,23.817,2.6364,0.1,1.9902e-05,198.89,9.7865e-06,39.584,4.4899e-06,-0.21297,-1.8932e-05,-176.19,2.8297
24548,23.908,2.5455,0.1,1.9225e-05,192.12,8.1938e-06,22.275,5.171e-06,-0.43679,-1.8752e-05,-180.19,2.8451
24549,23.541,2.5455,0.1,2.254e-05,225.25,1.5071e-05,97.776,2.0277e-06,-0.22895,-1.922e-05,-159.87,2.7834
24550,23.633,2.6364,0.1,2.1607e-05,215.92,1.3333e-05,78.4,2.8544e-06,-0.33125,-1.9174e-05,-165.84,2.7988
24551,23.358,2.5455,0.1,2.4841e-05,248.24,1.8617e-05,136.48,4.3484e-07,-0.13233,-1.9518e-05,-150.05,2.7526
24552,23.45,2.6364,0.1,2.3733e-05,237.16,1.6877e-05,117.21,1.2584e-06,-0.14488,-1.9452e-05,-155.75,2.768
24553,23.174,2.5455,0.1,2.742e-05,274.01,2.2168e-05,175.05,-1.1443e-06,-0.10914,-1.9859e-05,-140.73,2.7218
24554,23.266,2.6364,0.1,2.6179e-05,261.61,2.0427e-05,155.85,-3.3209e-07,-0.12684,-1.977e-05,-146.17,2.7372
24555,22.991,2.5455,0.1,3.0211e-05,301.9,2.5724e-05,213.51,-2.7045e-06,-0.086329,-2.0244e-05,-131.87,2.691
24556,23.083,2.6364,0.1,2.8866e-05,288.46,2.3979e-05,194.37,-1.9021e-06,-0.095116,-2.0131e-05,-137.06,2.7064
24557,22.807,2.5455,0.1,3.3165e-05,331.42,2.929e-05,251.92,-4.2478e-06,-0.072877,-2.0676e-05,-123.51,2.6602
24558,22.899,2.6364,0.1,3.1738e-05,317.17,2.754e-05,232.8,-3.4551e-06,-0.079863,-2.0536e-05,-128.42,2.6756
24559,22.624,2.5455,0.1,3.6249e-05,362.24,3.287e-05,290.3,-5.7749e-06,-0.06252,-2.1154e-05,-115.61,2.6295
24560,22.716,2.6364,0.1,3.4756e-05,347.32,3.1112e-05,271.2,-4.9914e-06,-0.067552,-2.0987e-05,-120.26,2.6448
24561,22.44,2.5455,0.1,3.944e-05,394.12,3.6468e-05,328.71,-7.2875e-06,-0.054807,-2.168e-05,-108.19,2.5987
24562,22.532,2.6364,0.1,3.7892e-05,378.66,3.47e-05,309.59,-6.5124e-06,-0.058791,-2.1486e-05,-112.56,2.6141
24563,22.257,2.5455,0.1,4.272e-05,426.91,4.0088e-05,367.18,-8.787e-06,-0.048714,-2.2254e-05,-101.24,2.568
24564,22.349,2.6364,0.1,4.1125e-05,410.96,3.8307e-05,348.03,-8.0195e-06,-0.051915,-2.2032e-05,-105.34,2.5834
24565,22.073,2.5455,0.1,4.6079e-05,460.47,4.3731e-05,405.73,-1.0275e-05,-0.043814,-2.2876e-05,-94.723,2.5373
24566,22.165,2.6364,0.1,4.4441e-05,444.11,4.1936e-05,386.53,-9.5141e-06,-0.04647,-2.2626e-05,-98.562,2.5527
24567,21.89,2.5455,0.1,4.9507e-05,494.73,4.7399e-05,444.4,-1.1752e-05,-0.039775,-2.3544e-05,-88.64,2.5067
24568,21.982,2.6364,0.1,4.7831e-05,477.98,4.5589e-05,425.13,-1.0998e-05,-0.042025,-2.3266e-05,-92.224,2.522
24569,21.706,2.5455,0.1,5.2996e-05,529.6,5.1095e-05,483.21,-1.3221e-05,-0.036386,-2.4258e-05,-82.966,2.4761
24570,21.798,2.6364,0.1,5.1286e-05,512.5,4.9269e-05,463.86,-1.2472e-05,-0.038332,-2.3953e-05,-86.306,2.4914
24571,21.523,2.5455,0.1,5.6543e-05,565.04,5.4819e-05,522.16,-1.4681e-05,-0.033496,-2.5016e-05,-77.682,2.4455
24572,21.615,2.6364,0.1,5.48e-05,547.62,5.2976e-05,502.73,-1.3937e-05,-0.035202,-2.4685e-05,-80.787,2.4608
24573,21.34,2.5455,0.1,6.0142e-05,601,5.8572e-05,561.29,-1.6136e-05,-0.031007,-2.5816e-05,-72.766,2.4149
24574,21.431,2.6364,0.1,5.8369e-05,583.28,5.6712e-05,541.76,-1.5395e-05,-0.032515,-2.5459e-05,-75.649,2.4302
24575,21.156,2.5455,0.1,6.3789e-05,637.45,6.2354e-05,600.6,-1.7584e-05,-0.028839,-2.6657e-05,-68.197,2.3844
24576,21.248,2.6364,0.1,6.1988e-05,619.46,6.0477e-05,580.96,-1.6848e-05,-0.030194,-2.6276e-05,-70.87,2.3997
24577,20.973,2.5455,0.1,6.7483e-05,674.36,6.6167e-05,640.1,-1.9028e-05,-0.02693,-2.7537e-05,-63.954,2.3539
24578,21.064,2.6364,0.1,6.5656e-05,656.1,6.4272e-05,620.35,-1.8295e-05,-0.028154,-2.7132e-05,-66.429,2.3692
24579,20.789,2.5455,0.1,7.122e-05,711.71,7.0008e-05,679.79,-2.0469e-05,-0.025239,-2.8453e-05,-60.015,2.3235
24580,20.881,2.6364,0.1,6.9367e-05,693.2,6.8097e-05,659.93,-1.9738e-05,-0.026353,-2.8027e-05,-62.305,2.3388
24581,20.606,2.5455,0.1,7.4998e-05,749.46,7.388e-05,719.68,-2.1907e-05,-0.023726,-2.9405e-05,-56.359,2.2931
24582,20.697,2.6364,0.1,7.3122e-05,730.72,7.1951e-05,699.71,-2.1178e-05,-0.024751,-2.8957e-05,-58.476,2.3084
24583,20.422,2.5455,0.1,7.8815e-05,787.61,7.778e-05,759.78,-2.3343e-05,-0.022363,-3.039e-05,-52.969,2.2628
24584,20.514,2.6364,0.1,7.6917e-05,768.64,7.5835e-05,739.69,-2.2615e-05,-0.023309,-2.9922e-05,-54.925,2.278
24585,20.239,2.5455,0.1,8.267e-05,826.13,8.1709e-05,800.08,-2.4778e-05,-0.021143,-3.1406e-05,-49.823,2.2325
24586,20.33,2.6364,0.1,8.075e-05,806.95,7.9748e-05,779.88,-2.4051e-05,-0.022014,-3.092e-05,-51.63,2.2477
24587,20.055,2.5455,0.1,8.6561e-05,865.01,8.5667e-05,840.6,-2.6212e-05,-0.020041,-3.2452e-05,-46.905,2.2023
24588,20.147,2.6364,0.1,8.4621e-05,845.62,8.3689e-05,820.28,-2.5486e-05,-0.020848,-3.1948e-05,-48.573,2.2175
24589,19.872,2.5455,0.1,9.0486e-05,904.24,8.9653e-05,881.32,-2.7646e-05,-0.019035,-3.3526e-05,-44.198,2.1722
24590,19.963,2.6364,0.1,8.8527e-05,884.66,8.766e-05,860.89,-2.6921e-05,-0.019795,-3.3005e-05,-45.738,2.1873
24591,19.688,2.5455,0.1,9.4445e-05,943.8,9.3667e-05,922.26,-2.9081e-05,-0.01811,-3.4626e-05,-41.685,2.1421
24592,19.78,2.6364,0.1,9.2467e-05,924.03,9.1658e-05,901.71,-2.8355e-05,-0.018822,-3.409e-05,-43.107,2.1571
24593,19.505,2.5455,0.1,9.8436e-05,983.68,9.7707e-05,963.41,-3.0517e-05,-0.01727,-3.5752e-05,-39.353,2.112
24594,19.596,2.6364,0.1,9.644e-05,963.73,9.5683e-05,942.75,-2.9791e-05,-0.017932,-3.5201e-05,-40.665,2.1271
24595,19.321,2.5455,0.1,0.00010246,1023.9,0.00010177,1004.8,-3.1954e-05,-0.0165,-3.6901e-05,-37.185,2.0821
24596,19.413,2.6364,0.1,0.00010044,1003.8,9.9736e-05,983.99,-3.1228e-05,-0.017131,-3.6336e-05,-38.397,2.0971
24597,19.138,2.5455,0.1,0.00010651,1064.4,0.00010587,1046.3,-3.3393e-05,-0.015786,-3.8072e-05,-35.17,2.0522
24598,19.229,2.6364,0.1,0.00010448,1044.1,0.00010381,1025.5,-3.2666e-05,-0.01638,-3.7494e-05,-36.29,2.0671
24599,18.954,2.5455,0.1,0.00011059,1105.1,0.00010999,1088.1,-3.4835e-05,-0.015127,-3.9264e-05,-33.295,2.0223
24600,19.046,2.6364,0.1,0.00010855,1084.7,0.00010792,1067.1,-3.4107e-05,-0.015691,-3.8674e-05,-34.33,2.0373
24601,18.771,2.5455,0.1,0.0001147,1146.2,0.00011413,1130.1,-3.6279e-05,-0.014513,-4.0476e-05,-31.549,1.9926
24602,18.863,2.6364,0.1,0.00011264,1125.6,0.00011205,1109,-3.555e-05,-0.015054,-3.9875e-05,-32.506,2.0075
24603,18.587,2.5455,0.1,0.00011884,1187.6,0.0001183,1172.3,-3.7726e-05,-0.01394,-4.1707e-05,-29.92,1.9629
24604,18.679,2.6364,0.1,0.00011676,1166.8,0.00011621,1151.1,-3.6996e-05,-0.014453,-4.1095e-05,-30.806,1.9777
24605,18.404,2.5455,0.1,0.000123,1229.2,0.00012249,1214.7,-3.9177e-05,-0.013412,-4.2955e-05,-28.398,1.9333
24606,18.496,2.6364,0.1,0.00012091,1208.3,0.00012039,1193.4,-3.8446e-05,-0.013899,-4.2333e-05,-29.219,1.9481
24607,18.22,2.5455,0.1,0.00012719,1271,0.00012671,1257.3,-4.0631e-05,-0.012928,-4.422e-05,-26.974,1.9038
24608,18.312,2.6364,0.1,0.00012509,1250,0.00012459,1235.9,-3.9898e-05,-0.01339,-4.3588e-05,-27.736,1.9185
24609,18.037,2.5455,0.1,0.00013141,1313.2,0.00013095,1300.2,-4.209e-05,-0.012472,-4.55e-05,-25.639,1.8743
24610,18.129,2.6364,0.1,0.00012929,1292,0.00012882,1278.6,-4.1355e-05,-0.012923,-4.486e-05,-26.347,1.8891
24611,17.853,2.5455,0.1,0.00013565,1355.6,0.00013522,1343.2,-4.3552e-05,-0.012033,-4.6796e-05,-24.384,1.845
24612,17.945,2.6364,0.1,0.00013352,1334.3,0.00013307,1321.5,-4.2815e-05,-0.012468,-4.6147e-05,-25.044,1.8597
24613,17.67,2.5455,0.1,0.00013991,1398.2,0.00013951,1386.4,-4.5019e-05,-0.011634,-4.8105e-05,-23.202,1.8157
24614,17.762,2.6364,0.1,0.00013777,1376.7,0.00013735,1364.7,-4.428e-05,-0.012041,-4.7448e-05,-23.817,1.8304
24615,17.486,2.5455,0.1,0.0001442,1441,0.00014382,1429.9,-4.649e-05,-0.011261,-4.9428e-05,-22.084,1.7866
24616,17.578,2.6364,0.1,0.00014205,1419.5,0.00014165,1408,-4.575e-05,-0.011663,-4.8764e-05,-22.66,1.8012
24617,17.303,2.5455,0.1,0.00014852,1484.2,0.00014815,1473.5,-4.7967e-05,-0.010901,-5.0763e-05,-21.025,1.7575
24618,17.395,2.6364,0.1,0.00014635,1462.5,0.00014597,1451.6,-4.7224e-05,-0.011288,-5.0092e-05,-21.565,1.7721
24619,17.119,2.5455,0.1,0.00015285,1527.5,0.0001525,1517.4,-4.9448e-05,-0.010565,-5.2111e-05,-20.017,1.7285
24620,17.211,2.6364,0.1,0.00015067,1505.7,0.00015031,1495.3,-4.8702e-05,-0.010938,-5.1433e-05,-20.525,1.743
24621,16.936,2.5455,0.1,0.00015721,1571,0.00015688,1561.4,-5.0934e-05,-0.01024,-5.3469e-05,-19.054,1.6997
24622,17.028,2.6364,0.1,0.00015502,1549.1,0.00015468,1539.3,-5.0186e-05,-0.010612,-5.2785e-05,-19.534,1.7141
24623,16.753,2.5455,0.1,0.00016159,1614.8,0.00016128,1605.7,-5.2426e-05,-0.0099281,-5.4838e-05,-18.13,1.6709
24624,16.844,2.6364,0.1,0.00015939,1592.8,0.00015906,1583.4,-5.1676e-05,-0.010284,-5.4148e-05,-18.585,1.6853
24625,16.569,2.5455,0.1,0.000166,1658.8,0.0001657,1650.1,-5.3924e-05,-0.0096396,-5.6217e-05,-17.239,1.6423
24626,16.661,2.6364,0.1,0.00016378,1636.7,0.00016347,1627.8,-5.3171e-05,-0.0099834,-5.5521e-05,-17.672,1.6566
24627,16.386,2.5455,0.1,0.00017042,1703,0.00017014,1694.8,-5.5427e-05,-0.0093755,-5.7605e-05,-16.375,1.6137
24628,16.477,2.6364,0.1,0.00016819,1680.8,0.0001679,1672.3,-5.4671e-05,-0.0097039,-5.6904e-05,-16.79,1.628
24629,16.202,2.5455,0.1,0.00017487,1747.5,0.0001746,1739.6,-5.6936e-05,-0.0091168,-5.9002e-05,-15.533,1.5853
24630,16.294,2.6364,0.1,0.00017263,1725.1,0.00017235,1717.1,-5.6177e-05,-0.0094514,-5.8296e-05,-15.932,1.5995
24631,16.019,2.5455,0.1,0.00017933,1792.1,0.00017908,1784.7,-5.8451e-05,-0.0088559,-6.0407e-05,-14.707,1.557
24632,16.11,2.6364,0.1,0.00017708,1769.6,0.00017682,1762,-5.7689e-05,-0.0091839,-5.9697e-05,-15.094,1.5712
24633,15.835,2.5455,0.1,0.00018382,1836.9,0.00018358,1829.9,-5.9972e-05,-0.0086191,-6.182e-05,-13.892,1.5288
24634,15.927,2.6364,0.1,0.00018156,1814.4,0.00018131,1807.2,-5.9208e-05,-0.0089276,-6.1105e-05,-14.269,1.5429
24635,15.652,2.5455,0.1,0.00018833,1882,0.0001881,1875.4,-6.15e-05,-0.008393,-6.324e-05,-13.084,1.5008
24636,15.743,2.6364,0.1,0.00018606,1859.3,0.00018582,1852.5,-6.0732e-05,-0.0087089,-6.2521e-05,-13.453,1.5148
24637,15.468,2.5455,0.1,0.00019285,1927.2,0.00019264,1921,-6.3034e-05,-0.0081654,-6.4666e-05,-12.276,1.4728
24638,15.56,2.6364,0.1,0.00019057,1904.4,0.00019036,1898.1,-6.2263e-05,-0.0084754,-6.3944e-05,-12.641,1.4868
24639,15.285,2.5455,0.1,0.0001974,1972.7,0.0001972,1966.9,-6.4574e-05,-0.007949,-6.6099e-05,-11.464,1.445
24640,15.376,2.6364,0.1,0.00019511,1949.8,0.00019491,1943.8,-6.3801e-05,-0.0082539,-6.5373e-05,-11.827,1.4589
24641,15.101,2.5455,0.1,0.00020197,2018.3,0.00020178,2012.9,-6.6122e-05,-0.0077281,-6.7537e-05,-10.643,1.4173
24642,15.193,2.6364,0.1,0.00019967,1995.3,0.00019948,1989.8,-6.5345e-05,-0.0080437,-6.6808e-05,-11.006,1.4312
24643,14.918,2.5455,0.1,0.00020655,2064.1,0.00020638,2059.2,-6.7676e-05,-0.0075053,-6.898e-05,-9.8064,1.3898
24644,15.009,2.6364,0.1,0.00020424,2041,0.00020407,2035.9,-6.6896e-05,-0.0078156,-6.8249e-05,-10.173,1.4036
24645,14.734,2.5455,0.1,0.00021115,2110.1,0.000211,2105.6,-6.9238e-05,-0.007295,-7.0428e-05,-8.9503,1.3624
24646,14.826,2.6364,0.1,0.00020883,2086.9,0.00020867,2082.2,-6.8454e-05,-0.0076032,-6.9693e-05,-9.3224,1.3761
24647,14.551,2.5455,0.1,0.00021578,2156.3,0.00021564,2152.2,-7.0806e-05,-0.0070967,-7.1879e-05,-8.0686,1.3352
24648,14.642,2.6364,0.1,0.00021345,2133,0.0002133,2128.7,-7.0019e-05,-0.0074031,-7.1142e-05,-8.4489,1.3488
24649,14.367,2.5455,0.1,0.00022041,2202.6,0.00022029,2199,-7.2382e-05,-0.0068858,-7.3334e-05,-7.1559,1.308
24650,14.459,2.6364,0.1,0.00021808,2179.3,0.00021795,2175.5,-7.1591e-05,-0.0072186,-7.2595e-05,-7.5469,1.3216
24651,14.184,2.5455,0.1,0.00022507,2249.2,0.00022496,2246,-7.3966e-05,-0.0066489,-7.4791e-05,-6.2061,1.2811
24652,14.276,2.6364,0.1,0.00022272,2225.7,0.00022261,2222.4,-7.3171e-05,-0.0069986,-7.405e-05,-6.6106,1.2946
24653,14,2.5455,0.1,0.00022974,2295.9,0.00022965,2293.2,-7.5558e-05,-0.0064109,-7.6251e-05,-5.2132,1.2543
24654,14.092,2.6364,0.1,0.00022739,2272.3,0.00022729,2269.5,-7.4759e-05,-0.0067698,-7.5508e-05,-5.6339,1.2677
24655,13.817,2.5455,0.1,0.00023443,2342.7,0.00023436,2340.6,-7.7157e-05,-0.0061364,-7.7711e-05,-4.1709,1.2276
24656,13.909,2.6364,0.1,0.00023207,2319.1,0.00023199,2316.8,-7.6355e-05,-0.0065596,-7.6967e-05,-4.6107,1.241
24657,13.633,2.5455,0.1,0.00023914,2389.7,0.00023909,2388.2,-7.8764e-05,-0.0057613,-7.9172e-05,-3.0725,1.2011
24658,13.725,2.6364,0.1,0.00023677,2366,0.00023671,2364.3,-7.7958e-05,-0.0062793,-7.8428e-05,-3.5341,1.2144
24659,13.45,2.5455,0.1,0.00024386,2436.9,0.00024383,2436,-8.038e-05,-0.0051246,-8.0634e-05,-1.911,1.1748
24660,13.542,2.6364,0.1,0.00024148,2413.1,0.00024144,2411.9,-7.957e-05,-0.0059017,-7.9888e-05,-2.3975,1.188
24661,13.266,2.5455,0.1,0.0002486,2484.3,0.00024859,2483.9,-8.2004e-05,-0.0026615,-8.2094e-05,-0.68048,1.1486
24662,13.358,2.6364,0.1,0.00024621,2460.4,0.00024619,2459.8,-8.119e-05,-0.0050839,-8.1348e-05,-1.1938,1.1617
24663,13.083,2.5455,0.1,0.00025335,2531.8,0.00025336,2532.1,-8.3552e-05,0.63846,-8.3638e-05,-0.0097359,1.1226
24664,13.175,2.6364,0.1,0.00025095,2507.8,0.00025095,2507.8,-8.2805e-05,0.1018,-8.2821e-05,-0.020492,1.1357
24665,12.899,2.5455,0.1,0.00025812,2579.4,0.00025815,2580.4,-8.5008e-05,2.035,-8.528e-05,-0.0070488,1.0968
24666,12.991,2.6364,0.1,0.00025571,2555.3,0.00025573,2556.1,-8.4263e-05,1.4522,-8.4457e-05,-0.0070921,1.1097
24667,12.716,2.5455,0.1,0.0002629,2627.1,0.00026296,2628.9,-8.646e-05,3.5302,-8.6931e-05,-0.0063807,1.0711
24668,12.808,2.6364,0.1,0.00026048,2603,0.00026053,2604.5,-8.5716e-05,2.9081,-8.6104e-05,-0.0064044,1.084
24669,12.532,2.5455,0.1,0.00026769,2675,0.00026778,2677.6,-8.7908e-05,5.1322,-8.8592e-05,-0.0059844,1.0456
24670,12.624,2.6364,0.1,0.00026527,2650.9,0.00026534,2653.1,-8.7165e-05,4.4668,-8.776e-05,-0.0060212,1.0584
24671,12.349,2.5455,0.1,0.00027249,2723.1,0.00027261,2726.5,-8.935e-05,6.8513,-9.0263e-05,-0.005695,1.0203
24672,12.441,2.6364,0.1,0.00027007,2698.8,0.00027017,2701.9,-8.8609e-05,6.1382,-8.9426e-05,-0.0057439,1.033
24673,12.165,2.5455,0.1,0.00027731,2771.2,0.00027746,2775.5,-9.0785e-05,8.6988,-9.1944e-05,-0.0054601,0.99521
24674,12.257,2.6364,0.1,0.00027488,2746.9,0.00027501,2750.8,-9.0046e-05,7.9335,-9.1102e-05,-0.0055137,1.0078
24675,11.982,2.5455,0.1,0.00028214,2819.5,0.00028232,2824.8,-9.2212e-05,10.687,-9.3635e-05,-0.0052367,0.97027
24676,12.074,2.6364,0.1,0.0002797,2795.1,0.00027986,2800,-9.1475e-05,9.8645,-9.2789e-05,-0.0053155,0.98279
24677,11.799,2.5455,0.1,0.00028698,2867.8,0.00028719,2874.2,-9.363e-05,12.83,-9.5338e-05,-0.0050101,0.94553
24678,11.89,2.6364,0.1,0.00028453,2843.3,0.00028473,2849.3,-9.2896e-05,11.944,-9.4487e-05,-0.0050916,0.95795
24679,11.615,2.5455,0.1,0.00029183,2916.3,0.00029208,2923.8,-9.5036e-05,15.141,-9.7052e-05,-0.0047935,0.92098
24680,11.707,2.6364,0.1,0.00028937,2891.7,0.00028961,2898.8,-9.4306e-05,14.187,-9.6195e-05,-0.0048753,0.9333
24681,11.432,2.5455,0.1,0.00029668,2964.8,0.00029698,2973.6,-9.643e-05,17.637,-9.8778e-05,-0.0045607,0.89663
24682,11.523,2.6364,0.1,0.00029422,2940.2,0.0002945,2948.5,-9.5705e-05,16.609,-9.7916e-05,-0.0046644,0.90885
24683,11.248,2.5455,0.1,0.00030155,3013.4,0.00030189,3023.5,-9.781e-05,20.334,-0.00010052,-0.0043294,0.87248
24684,11.34,2.6364,0.1,0.00029908,2988.8,0.0002994,2998.3,-9.7089e-05,19.225,-9.9648e-05,-0.0044092,0.8846
24685,11.065,2.5455,0.1,0.00030642,3062.1,0.00030681,3073.6,-9.9173e-05,23.252,-0.00010227,-0.0041166,0.84853
24686,11.156,2.6364,0.1,0.00030395,3037.4,0.00030432,3048.4,-9.8458e-05,22.054,-0.00010139,-0.0041963,0.86055
24687,10.881,2.5455,0.1,0.0003113,3110.8,0.00031174,3123.9,-0.00010052,26.41,-0.00010403,-0.0038747,0.82478
24688,10.973,2.6364,0.1,0.00030882,3086.1,0.00030924,3098.6,-9.9809e-05,25.117,-0.00010315,-0.0039747,0.8367
24689,10.698,2.5455,0.1,0.00031618,3159.6,0.00031668,3174.4,-0.00010184,29.832,-0.00010581,-0.003613,0.80125
24690,10.789,2.6364,0.1,0.0003137,3134.8,0.00031417,3148.9,-0.00010114,28.435,-0.00010493,-0.0036985,0.81307
24691,10.514,2.5455,0.1,0.00032106,3208.4,0.00032162,3225.1,-0.00010314,33.542,-0.00010761,-0.0033623,0.77793
24692,10.606,2.6364,0.1,0.00031858,3183.6,0.00031911,3199.5,-0.00010245,32.032,-0.00010671,-0.0034337,0.78964
24693,10.331,2.5455,0.1,0.00032595,3257.3,0.00032658,3275.9,-0.00010442,37.566,-0.00010942,-0.0031202,0.75483
24694,10.422,2.6364,0.1,0.00032346,3232.4,0.00032406,3250.2,-0.00010374,35.934,-0.00010852,-0.0031749,0.76643
24695,10.147,2.5455,0.1,0.00033084,3306.1,0.00033154,3326.9,-0.00010567,41.935,-0.00011125,-0.0028623,0.73194
24696,10.239,2.6364,0.1,0.00032835,3281.2,0.00032902,3301.1,-0.00010499,40.17,-0.00011034,-0.0029214,0.74343
24697,9.9637,2.5455,0.1,0.00033573,3355,0.0003365,3378.1,-0.00010688,46.68,-0.0001131,-0.0025798,0.70928
24698,10.055,2.6364,0.1,0.00033324,3330.1,0.00033398,3352.2,-0.00010622,44.772,-0.00011218,-0.0026256,0.72066
24699,9.7802,2.5455,0.1,0.00034063,3403.9,0.00034148,3429.5,-0.00010807,51.838,-0.00011496,-0.0022967,0.68685
24700,9.872,2.6364,0.1,0.00033813,3378.9,0.00033895,3403.5,-0.00010741,49.775,-0.00011404,-0.0023164,0.69812
24701,9.5968,2.5455,0.1,0.00034552,3452.8,0.00034646,3481.1,-0.00010921,57.447,-0.00011685,-0.0020143,0.66464
24702,9.6885,2.6364,0.1,0.00034301,3427.8,0.00034392,3455,-0.00010857,55.217,-0.00011592,-0.0020114,0.6758
24703,9.4133,2.5455,0.1,0.00035041,3501.6,0.00035144,3533,-0.00011031,63.552,-0.00011877,-0.0017319,0.64267
24704,9.505,2.6364,0.1,0.0003479,3476.6,0.0003489,3506.8,-0.00010968,61.142,-0.00011782,-0.0016941,0.65371
24705,9.2298,2.5455,0.1,0.0003553,3550.5,0.00035644,3585.1,-0.00011136,70.2,-0.00012071,-0.001459,0.62094
24706,9.3215,2.6364,0.1,0.00035278,3525.4,0.00035388,3558.7,-0.00011075,67.596,-0.00011975,-0.0013779,0.63186
24707,9.0463,2.5455,0.1,0.00036019,3599.4,0.00036144,3637.5,-0.00011237,77.443,-0.00012268,-0.0012041,0.59945
24708,9.1381,2.6364,0.1,0.00035767,3574.2,0.00035888,3610.9,-0.00011177,74.632,-0.00012171,-0.0010665,0.61025
24709,8.8628,2.5455,0.1,0.00036508,3648.2,0.00036645,3690.2,-0.00011332,85.34,-0.00012468,-0.00098166,0.57819
24710,8.9546,2.6364,0.1,0.00036255,3623,0.00036388,3663.4,-0.00011274,82.306,-0.0001237,-0.00077012,0.58887
24711,8.6794,2.5455,0.1,0.00036997,3697.2,0.00037148,3743.2,-0.00011421,93.953,-0.00012671,-0.00081107,0.55719
24712,8.7711,2.6364,0.1,0.00036743,3671.8,0.00036889,3716.3,-0.00011365,90.682,-0.00012572,-0.00050312,0.56775
24713,8.4959,2.5455,0.1,0.00037487,3746.1,0.00037652,3796.8,-0.00011504,103.35,-0.00012879,-0.00071878,0.53644
24714,8.5876,2.6364,0.1,0.00037233,3720.7,0.00037392,3769.6,-0.00011449,99.829,-0.00012778,-0.00028645,0.54687
24715,8.3124,2.5455,0.1,0.00037979,3795.3,0.0003816,3850.8,-0.0001158,113.62,-0.00013092,-0.00074171,0.51594
24716,8.4041,2.6364,0.1,0.00037723,3769.7,0.00037897,3823.4,-0.00011527,109.82,-0.00012989,-0.00014595,0.52624
24717,8.1289,2.5455,0.1,0.00038473,3844.6,0.0003867,3905.5,-0.00011648,124.82,-0.00013309,-0.00092955,0.49569
24718,8.2206,2.6364,0.1,0.00038215,3818.8,0.00038406,3877.8,-0.00011597,120.75,-0.00013204,-0.00012224,0.50587
24719,7.9454,2.5455,0.1,0.00038971,3894.4,0.00039186,3961.1,-0.00011709,137.06,-0.00013533,-0.0013499,0.47571
24720,8.0372,2.6364,0.1,0.00038709,3868.3,0.00038918,3932.9,-0.0001166,132.7,-0.00013426,-0.00026606,0.48576
24721,7.7619,2.5455,0.1,0.00039473,3944.6,0.00039708,4017.7,-0.00011762,150.43,-0.00013764,-0.0020943,0.45599
24722,7.8537,2.6364,0.1,0.00039208,3918.1,0.00039436,3989,-0.00011714,145.76,-0.00013654,-0.00065022,0.4659
24723,7.5785,2.5455,0.1,0.00039983,3995.6,0.00040238,4075.5,-0.00011807,165.02,-0.00014003,-0.0032861,0.43654
24724,7.6702,2.6364,0.1,0.00039713,3968.6,0.00039962,4046.2,-0.0001176,160.05,-0.0001389,-0.0013712,0.44632
24725,7.395,2.5455,0.1,0.00040504,4047.6,0.00040781,4135,-0.00011844,180.94,-0.00014253,-0.0050911,0.41736
24726,7.4867,2.6364,0.1,0.00040228,4020,0.00040498,4104.9,-0.00011798,175.67,-0.00014136,-0.002561,0.427
24727,7.2115,2.5455,0.1,0.00041039,4101.1,0.0004134,4196.6,-0.00011874,198.29,-0.00014513,-0.0077322,0.39845
24728,7.3032,2.6364,0.1,0.00040754,4072.6,0.00041048,4165.6,-0.00011827,192.73,-0.00014392,-0.0043973,0.40796
24729,7.028,2.5455,0.1,0.00041594,4156.5,0.00041921,4260.8,-0.00011897,217.17,-0.00014788,-0.011509,0.37982
24730,7.1198,2.6364,0.1,0.00041298,4127,0.00041617,4228.6,-0.00011849,211.35,-0.00014662,-0.0071201,0.38919
24731,6.8445,2.5455,0.1,0.00042176,4214.7,0.0004253,4328.5,-0.00011915,237.67,-0.00015079,-0.016825,0.36148
24732,6.9363,2.6364,0.1,0.00041866,4183.7,0.00042212,4294.7,-0.00011864,231.62,-0.00014947,-0.011054,0.3707
24733,6.6611,2.5455,0.1,0.00042794,4276.4,0.00043176,4400.4,-0.00011931,259.86,-0.0001539,-0.024223,0.34342
24734,6.7528,2.6364,0.1,0.00042466,4243.6,0.0004284,4364.8,-0.00011875,253.64,-0.00015251,-0.016639,0.3525
24735,6.4776,2.5455,0.1,0.0004346,4343,0.00043873,4477.9,-0.00011947,283.77,-0.00015725,-0.034434,0.32565
24736,6.5693,2.6364,0.1,0.00043108,4307.8,0.00043513,4439.8,-0.00011885,277.48,-0.00015578,-0.02447,0.33459
24737,6.2941,2.5455,0.1,0.0004419,4415.9,0.00044635,4562.5,-0.0001197,309.38,-0.00016089,-0.048444,0.30818
24738,6.3858,2.6364,0.1,0.00043807,4377.7,0.00044244,4521.4,-0.00011897,303.15,-0.00015932,-0.035356,0.31696
24739,6.1106,2.5455,0.1,0.00045004,4497.3,0.00045482,4656.1,-0.00012007,336.59,-0.00016488,-0.067583,0.29101
24740,6.2024,2.6364,0.1,0.00044582,4455.2,0.00045052,4611.2,-0.00011919,330.62,-0.0001632,-0.050398,0.29964
24741,5.9271,2.5455,0.1,0.0004593,4589.8,0.00046442,4761.4,-0.00012069,365.18,-0.0001693,-0.093647,0.27414
24742,6.0189,2.6364,0.1,0.00045457,4542.6,0.00045962,4711.7,-0.00011959,359.73,-0.00016748,-0.071096,0.28262
24743,5.7437,2.5455,0.1,0.00047001,4696.9,0.00047548,4881.7,-0.0001217,394.75,-0.00017426,-0.12905,0.25759
24744,5.8354,2.6364,0.1,0.00046463,4643.1,0.00047003,4825.8,-0.00012031,390.17,-0.00017226,-0.099497,0.26591
24745,5.5602,2.5455,0.1,0.00048264,4823,0.00048845,5021.2,-0.00012332,424.62,-0.00017985,-0.17702,0.24135
24746,5.6519,2.6364,0.1,0.00047641,4760.9,0.00048218,4957.5,-0.00012153,421.43,-0.00017764,-0.13839,0.24952
24747,5.3767,2.5455,0.1,0.00049777,4974.2,0.00050393,5185.4,-0.00012582,453.75,-0.00018625,-0.24185,0.22545
24748,5.4684,2.6364,0.1,0.00049046,4901.3,0.00049659,5111.8,-0.0001235,452.63,-0.00018377,-0.19156,0.23345
24749,5.1932,2.5455,0.1,0.0005162,5158.4,0.00052268,5381.7,-0.00012962,480.54,-0.00019362,-0.32916,0.20988
24750,5.285,2.6364,0.1,0.00050749,5071.4,0.00051396,5295.2,-0.00012658,482.43,-0.00019082,-0.26406,0.21771
24751,5.0097,2.5455,0.1,0.00053896,5385.9,0.00054574,5619.3,-0.00013526,502.55,-0.00020221,-0.44622,0.19467
24752,5.1015,2.6364,0.1,0.00052842,5280.5,0.00053522,5516.3,-0.00013124,508.73,-0.000199,-0.36255,0.20233
24753,4.8263,2.5455,0.1,0.00056748,5670.9,0.00057448,5911,-0.00014352,516.18,-0.0002123,-0.60167,0.17982
24754,4.918,2.6364,0.1,0.0005545,5541.2,0.00056159,5786.2,-0.00013818,528.42,-0.00020858,-0.49557,0.1873
24755,4.6428,2.5455,0.1,0.00060366,6032.4,0.00061076,6273.5,-0.00015549,516.11,-0.00022429,-0.80936,0.16536
24756,4.7345,2.6364,0.1,0.0005874,5870,0.00059467,6119.6,-0.00014834,536.85,-0.00021988,-0.67267,0.17265
24757,4.4593,2.5455,0.1,0.00065015,6497,0.00065712,6729.5,-0.00017271,494.5,-0.00023866,-1.0691,0.15131
24758,4.551,2.6364,0.1,0.00062935,6289.1,0.00063663,6535.6,-0.00016304,527.16,-0.00023332,-0.90759,0.1584
24759,4.2758,2.5455,0.1,0.00071064,7101.5,0.00071707,7310.4,-0.00019734,439.95,-0.00025608,-1.4469,0.1377
24760,4.3676,2.6364,0.1,0.00068332,6828.5,0.0006903,7059.3,-0.0001841,489.45,-0.0002494,-1.1946,0.14458
24761,4.0923,2.5455,0.1,0.00079025,7897,0.00079539,8058.7,-0.00023243,336.04,-0.00027741,-1.9006,0.12457
24762,4.1841,2.6364,0.1,0.00075323,7527.1,0.00075933,7722.7,-0.00021396,409.82,-0.00026872,-1.5805,0.13123
24763,3.9088,2.5455,0.1,0.00089555,8949.3,0.00089813,9027.4,-0.00028197,160.53,-0.00030363,-2.175,0.11196
24764,4.0006,2.6364,0.1,0.00084385,8432.7,0.00084808,8563.5,-0.0002557,270.07,-0.00029191,-1.9834,0.11838
24765,3.7254,2.5455,0.1,0.0010323,10316,0.0010303,10259,-0.00033489,1.6083,-0.00035021,-113.5,0.099949
24766,3.8171,2.6364,0.1,0.00095973,9590.7,0.00096055,9614.8,-0.00031217,52.13,-0.0003196,-3.7548,0.10611
24767,3.5419,2.5455,0.1,0.0011923,11915,0.0011839,11679,-0.00037087,-2.5413,-0.00043126,-456.32,0.088615
24768,3.6336,2.6364,0.1,0.0011006,10998,0.0010959,10867,-0.00035026,0.37305,-0.00038475,-258.73,0.09447
24769,3.4501,2.6364,0.1,0.001246,12451,0.0012348,12142,-0.00038135,-0.63599,-0.00046059,-596.04,0.083563
24770,3.3584,2.5455,0.1,0.0013337,13327,0.0013191,12932,-0.00040237,-3.1648,-0.00050264,-756.54,0.078065
24771,23.725,2.7273,0.1,2.0788e-05,207.74,1.1586e-05,58.954,3.7086e-06,-0.2297,-1.9147e-05,-171.95,2.8143
24772,23.817,2.8182,0.1,2.004e-05,200.26,9.8315e-06,39.571,4.5364e-06,-0.21513,-1.9071e-05,-177.59,2.8297
24773,23.908,2.7273,0.1,1.9412e-05,193.99,8.2549e-06,22.262,5.2339e-06,-0.43737,-1.8941e-05,-182.08,2.8451
24774,23.541,2.7273,0.1,2.2716e-05,227.01,1.5137e-05,97.823,2.0873e-06,-0.23008,-1.9407e-05,-161.73,2.7834
24775,23.633,2.8182,0.1,2.1741e-05,217.26,1.3381e-05,78.419,2.8998e-06,-0.33227,-1.9314e-05,-167.24,2.7989
24776,23.358,2.7273,0.1,2.501e-05,249.92,1.8687e-05,136.57,4.9225e-07,-0.13321,-1.9704e-05,-151.88,2.7526
24777,23.45,2.8182,0.1,2.3862e-05,238.45,1.6928e-05,117.26,1.3023e-06,-0.14558,-1.9592e-05,-157.13,2.768
24778,23.174,2.7273,0.1,2.7581e-05,275.62,2.2239e-05,175.17,-1.0895e-06,-0.10991,-2.0043e-05,-142.52,2.7218
24779,23.266,2.8182,0.1,2.6302e-05,262.84,2.048e-05,155.93,-2.8996e-07,-0.12746,-1.9908e-05,-147.53,2.7372
24780,22.991,2.7273,0.1,3.0363e-05,303.42,2.5797e-05,213.67,-2.6524e-06,-0.087039,-2.0424e-05,-133.61,2.691
24781,23.083,2.8182,0.1,2.8983e-05,289.63,2.4034e-05,194.48,-1.8619e-06,-0.095664,-2.0267e-05,-138.38,2.7064
24782,22.807,2.7273,0.1,3.3309e-05,332.86,2.9364e-05,252.1,-4.1986e-06,-0.073542,-2.085e-05,-125.18,2.6602
24783,22.899,2.8182,0.1,3.185e-05,318.28,2.7595e-05,232.94,-3.4171e-06,-0.080369,-2.0669e-05,-129.7,2.6756
24784,22.624,2.7273,0.1,3.6385e-05,363.6,3.2944e-05,290.51,-5.7287e-06,-0.063155,-2.1322e-05,-117.22,2.6295
24785,22.716,2.8182,0.1,3.4862e-05,348.38,3.1168e-05,271.35,-4.9556e-06,-0.068032,-2.1116e-05,-121.49,2.6449
24786,22.44,2.7273,0.1,3.9567e-05,395.4,3.6541e-05,328.93,-7.2442e-06,-0.055422,-2.1841e-05,-109.73,2.5988
24787,22.532,2.8182,0.1,3.7991e-05,379.65,3.4755e-05,309.76,-6.4788e-06,-0.059252,-2.1609e-05,-113.74,2.6141
24788,22.257,2.7273,0.1,4.2839e-05,428.1,4.0158e-05,367.4,-8.7465e-06,-0.049314,-2.2407e-05,-102.69,2.568
24789,22.349,2.8182,0.1,4.1217e-05,411.89,3.8361e-05,348.19,-7.9881e-06,-0.052364,-2.215e-05,-106.46,2.5834
24790,22.073,2.7273,0.1,4.6189e-05,461.57,4.3798e-05,405.95,-1.0237e-05,-0.044401,-2.3019e-05,-96.086,2.5374
24791,22.165,2.8182,0.1,4.4527e-05,444.96,4.1988e-05,386.7,-9.4848e-06,-0.04691,-2.2737e-05,-99.618,2.5527
24792,21.89,2.7273,0.1,4.9608e-05,495.74,4.7462e-05,444.61,-1.1717e-05,-0.040354,-2.3679e-05,-89.915,2.5067
24793,21.982,2.8182,0.1,4.791e-05,478.77,4.5638e-05,425.29,-1.097e-05,-0.042457,-2.3371e-05,-93.215,2.522
24794,21.706,2.7273,0.1,5.3089e-05,530.52,5.1154e-05,483.4,-1.3188e-05,-0.036957,-2.4383e-05,-84.153,2.4761
24795,21.798,2.8182,0.1,5.1359e-05,513.23,4.9315e-05,464.01,-1.2446e-05,-0.038757,-2.4051e-05,-87.23,2.4914
24796,21.523,2.7273,0.1,5.6627e-05,565.88,5.4873e-05,522.35,-1.4651e-05,-0.034057,-2.5132e-05,-78.782,2.4455
24797,21.615,2.8182,0.1,5.4866e-05,548.29,5.3019e-05,502.87,-1.3914e-05,-0.035621,-2.4775e-05,-81.646,2.4608
24798,21.34,2.7273,0.1,6.0218e-05,601.76,5.8622e-05,561.45,-1.6107e-05,-0.03156,-2.5923e-05,-73.782,2.415
24799,21.431,2.8182,0.1,5.8429e-05,583.89,5.6752e-05,541.89,-1.5374e-05,-0.032928,-2.5543e-05,-76.444,2.4302
24800,21.156,2.7273,0.1,6.3857e-05,638.13,6.2399e-05,600.74,-1.7558e-05,-0.029382,-2.6755e-05,-69.132,2.3845
24801,21.248,2.8182,0.1,6.2043e-05,620,6.0513e-05,581.08,-1.6827e-05,-0.030601,-2.6353e-05,-71.603,2.3997
24802,20.973,2.7273,0.1,6.7544e-05,674.97,6.6207e-05,640.21,-1.9004e-05,-0.027463,-2.7626e-05,-64.811,2.354
24803,21.064,2.8182,0.1,6.5704e-05,656.59,6.4304e-05,620.45,-1.8276e-05,-0.028554,-2.7203e-05,-67.102,2.3692
24804,20.789,2.7273,0.1,7.1274e-05,712.24,7.0044e-05,679.88,-2.0446e-05,-0.025761,-2.8535e-05,-60.799,2.3236
24805,20.881,2.8182,0.1,6.9411e-05,693.63,6.8125e-05,660.01,-1.972e-05,-0.026746,-2.8091e-05,-62.921,2.3388
24806,20.606,2.7273,0.1,7.5045e-05,749.93,7.3911e-05,719.75,-2.1886e-05,-0.024238,-2.9479e-05,-57.075,2.2932
24807,20.697,2.8182,0.1,7.316e-05,731.1,7.1976e-05,699.77,-2.1161e-05,-0.025136,-2.9016e-05,-59.04,2.3084
24808,20.422,2.7273,0.1,7.8856e-05,788.02,7.7807e-05,759.83,-2.3323e-05,-0.022869,-3.0457e-05,-53.62,2.2629
24809,20.514,2.8182,0.1,7.695e-05,768.97,7.5857e-05,739.74,-2.26e-05,-0.023687,-2.9975e-05,-55.438,2.278
24810,20.239,2.7273,0.1,8.2706e-05,826.49,8.1732e-05,800.12,-2.4759e-05,-0.021636,-3.1466e-05,-50.414,2.2326
24811,20.33,2.8182,0.1,8.0779e-05,807.24,7.9767e-05,779.92,-2.4037e-05,-0.022386,-3.0967e-05,-52.096,2.2477
24812,20.055,2.7273,0.1,8.6591e-05,865.32,8.5686e-05,840.61,-2.6195e-05,-0.020523,-3.2506e-05,-47.441,2.2024
24813,20.147,2.8182,0.1,8.4646e-05,845.87,8.3705e-05,820.3,-2.5473e-05,-0.02121,-3.1991e-05,-48.996,2.2175
24814,19.872,2.7273,0.1,9.0512e-05,904.5,8.9669e-05,881.32,-2.763e-05,-0.019508,-3.3574e-05,-44.682,2.1722
24815,19.963,2.8182,0.1,8.8548e-05,884.87,8.7673e-05,860.9,-2.6908e-05,-0.020151,-3.3044e-05,-46.121,2.1873
24816,19.688,2.7273,0.1,9.4466e-05,944.01,9.3679e-05,922.24,-2.9066e-05,-0.018573,-3.4669e-05,-42.122,2.1421
24817,19.78,2.8182,0.1,9.2484e-05,924.21,9.1668e-05,901.7,-2.8344e-05,-0.01917,-3.4124e-05,-43.453,2.1572
24818,19.505,2.7273,0.1,9.8453e-05,983.85,9.7717e-05,963.37,-3.0502e-05,-0.017724,-3.579e-05,-39.746,2.1121
24819,19.596,2.8182,0.1,9.6454e-05,963.88,9.5691e-05,942.73,-2.978e-05,-0.018274,-3.5231e-05,-40.977,2.1271
24820,19.321,2.7273,0.1,0.00010247,1024,0.00010178,1004.7,-3.1941e-05,-0.016945,-3.6934e-05,-37.538,2.0821
24821,19.413,2.8182,0.1,0.00010046,1003.9,9.9742e-05,983.96,-3.1218e-05,-0.017465,-3.6363e-05,-38.677,2.0971
24822,19.138,2.7273,0.1,0.00010652,1064.5,0.00010587,1046.3,-3.3381e-05,-0.016222,-3.8101e-05,-35.486,2.0522
24823,19.229,2.8182,0.1,0.00010449,1044.2,0.00010382,1025.4,-3.2657e-05,-0.016709,-3.7518e-05,-36.541,2.0672
24824,18.954,2.7273,0.1,0.0001106,1105.2,0.00010999,1088,-3.4823e-05,-0.015557,-3.929e-05,-33.577,2.0224
24825,19.046,2.8182,0.1,0.00010855,1084.8,0.00010792,1067.1,-3.4098e-05,-0.016013,-3.8695e-05,-34.555,2.0373
24826,18.771,2.7273,0.1,0.00011471,1146.3,0.00011413,1130,-3.6268e-05,-0.014935,-4.0498e-05,-31.799,1.9926
24827,18.863,2.8182,0.1,0.00011264,1125.7,0.00011205,1108.9,-3.5542e-05,-0.015371,-3.9893e-05,-32.706,2.0075
24828,18.587,2.7273,0.1,0.00011884,1187.6,0.0001183,1172.2,-3.7716e-05,-0.014354,-4.1725e-05,-30.141,1.9629
24829,18.679,2.8182,0.1,0.00011676,1166.8,0.00011621,1151,-3.6988e-05,-0.014765,-4.111e-05,-30.983,1.9778
24830,18.404,2.7273,0.1,0.000123,1229.2,0.00012249,1214.6,-3.9167e-05,-0.01382,-4.2971e-05,-28.593,1.9333
24831,18.496,2.8182,0.1,0.00012091,1208.3,0.00012038,1193.3,-3.8438e-05,-0.014206,-4.2346e-05,-29.376,1.9481
24832,18.22,2.7273,0.1,0.00012719,1271,0.00012671,1257.2,-4.0622e-05,-0.01333,-4.4233e-05,-27.144,1.9038
24833,18.312,2.8182,0.1,0.00012509,1250,0.00012459,1235.8,-3.9891e-05,-0.013692,-4.3599e-05,-27.874,1.9186
24834,18.037,2.7273,0.1,0.0001314,1313.1,0.00013095,1300,-4.2081e-05,-0.012866,-4.5511e-05,-25.787,1.8744
24835,18.129,2.8182,0.1,0.00012929,1292,0.00012882,1278.5,-4.1348e-05,-0.013221,-4.4869e-05,-26.467,1.8891
24836,17.853,2.7273,0.1,0.00013564,1355.5,0.00013521,1343.1,-4.3544e-05,-0.012423,-4.6804e-05,-24.511,1.845
24837,17.945,2.8182,0.1,0.00013351,1334.2,0.00013307,1321.5,-4.2809e-05,-0.012761,-4.6154e-05,-25.147,1.8597
24838,17.67,2.7273,0.1,0.00013991,1398.1,0.0001395,1386.3,-4.5011e-05,-0.012018,-4.8112e-05,-23.31,1.8158
24839,17.762,2.8182,0.1,0.00013776,1376.7,0.00013734,1364.6,-4.4274e-05,-0.012331,-4.7454e-05,-23.906,1.8304
24840,17.486,2.7273,0.1,0.0001442,1441,0.0001438,1429.7,-4.6483e-05,-0.01164,-4.9432e-05,-22.175,1.7866
24841,17.578,2.8182,0.1,0.00014204,1419.4,0.00014164,1407.9,-4.5744e-05,-0.011948,-4.8768e-05,-22.735,1.8012
24842,17.303,2.7273,0.1,0.00014851,1484,0.00014814,1473.4,-4.7959e-05,-0.011276,-5.0766e-05,-21.099,1.7576
24843,17.395,2.8182,0.1,0.00014634,1462.4,0.00014596,1451.5,-4.7218e-05,-0.011571,-5.0095e-05,-21.627,1.7721
24844,17.119,2.7273,0.1,0.00015284,1527.4,0.00015249,1517.2,-4.9441e-05,-0.010936,-5.2111e-05,-20.075,1.7286
24845,17.211,2.8182,0.1,0.00015066,1505.6,0.0001503,1495.2,-4.8697e-05,-0.011217,-5.1434e-05,-20.575,1.7431
24846,16.936,2.7273,0.1,0.0001572,1570.9,0.00015687,1561.3,-5.0928e-05,-0.010607,-5.3468e-05,-19.098,1.6997
24847,17.028,2.8182,0.1,0.00015501,1549,0.00015467,1539.1,-5.0182e-05,-0.010888,-5.2785e-05,-19.572,1.7142
24848,16.753,2.7273,0.1,0.00016158,1614.7,0.00016126,1605.5,-5.242e-05,-0.010292,-5.4836e-05,-18.159,1.671
24849,16.844,2.8182,0.1,0.00015938,1592.7,0.00015905,1583.3,-5.1671e-05,-0.010558,-5.4147e-05,-18.612,1.6854
24850,16.569,2.7273,0.1,0.00016598,1658.7,0.00016568,1650,-5.3918e-05,-0.010001,-5.6213e-05,-17.255,1.6423
24851,16.661,2.8182,0.1,0.00016377,1636.6,0.00016346,1627.6,-5.3166e-05,-0.010255,-5.5519e-05,-17.689,1.6567
24852,16.386,2.7273,0.1,0.00017041,1702.9,0.00017012,1694.6,-5.5421e-05,-0.0097336,-5.76e-05,-16.378,1.6138
24853,16.477,2.8182,0.1,0.00016818,1680.7,0.00016789,1672.2,-5.4667e-05,-0.0099743,-5.6901e-05,-16.797,1.6281
24854,16.202,2.7273,0.1,0.00017485,1747.3,0.00017458,1739.5,-5.6931e-05,-0.0094727,-5.8996e-05,-15.524,1.5854
24855,16.294,2.8182,0.1,0.00017262,1725,0.00017234,1716.9,-5.6173e-05,-0.0097186,-5.8292e-05,-15.93,1.5996
24856,16.019,2.7273,0.1,0.00017932,1791.9,0.00017906,1784.5,-5.8446e-05,-0.0092102,-6.0399e-05,-14.686,1.5571
24857,16.11,2.8182,0.1,0.00017707,1769.5,0.00017681,1761.9,-5.7686e-05,-0.0094507,-5.9692e-05,-15.083,1.5712
24858,15.835,2.7273,0.1,0.0001838,1836.8,0.00018356,1829.8,-5.9968e-05,-0.0089724,-6.1811e-05,-13.86,1.5289
24859,15.927,2.8182,0.1,0.00018155,1814.2,0.0001813,1807,-5.9204e-05,-0.0091928,-6.1099e-05,-14.249,1.543
24860,15.652,2.7273,0.1,0.00018831,1881.8,0.00018808,1875.2,-6.1495e-05,-0.0087465,-6.323e-05,-13.04,1.5008
24861,15.743,2.8182,0.1,0.00018604,1859.1,0.00018581,1852.4,-6.0729e-05,-0.0089751,-6.2514e-05,-13.425,1.5149
24862,15.468,2.7273,0.1,0.00019283,1927,0.00019262,1920.9,-6.303e-05,-0.0085192,-6.4655e-05,-12.221,1.4729
24863,15.56,2.8182,0.1,0.00019056,1904.3,0.00019034,1897.9,-6.226e-05,-0.0087409,-6.3936e-05,-12.604,1.4869
24864,15.285,2.7273,0.1,0.00019738,1972.4,0.00019718,1966.7,-6.4571e-05,-0.008304,-6.6087e-05,-11.398,1.4451
24865,15.376,2.8182,0.1,0.0001951,1949.6,0.00019489,1943.7,-6.3798e-05,-0.008521,-6.5365e-05,-11.782,1.459
24866,15.101,2.7273,0.1,0.00020195,2018.1,0.00020176,2012.7,-6.6119e-05,-0.0080865,-6.7524e-05,-10.565,1.4174
24867,15.193,2.8182,0.1,0.00019965,1995.1,0.00019946,1989.6,-6.5342e-05,-0.0083127,-6.6799e-05,-10.952,1.4313
24868,14.918,2.7273,0.1,0.00020653,2063.9,0.00020636,2059,-6.7673e-05,-0.0078688,-6.8965e-05,-9.7168,1.3899
24869,15.009,2.8182,0.1,0.00020422,2040.8,0.00020405,2035.8,-6.6893e-05,-0.0080879,-6.8238e-05,-10.11,1.4037
24870,14.734,2.7273,0.1,0.00021113,2109.8,0.00021098,2105.4,-6.9235e-05,-0.0076663,-7.0412e-05,-8.8485,1.3625
24871,14.826,2.8182,0.1,0.00020882,2086.7,0.00020866,2082.1,-6.8452e-05,-0.0078811,-6.9682e-05,-9.2507,1.3762
24872,14.551,2.7273,0.1,0.00021575,2156,0.00021561,2152,-7.0804e-05,-0.0074795,-7.1862e-05,-7.9542,1.3353
24873,14.642,2.8182,0.1,0.00021343,2132.8,0.00021328,2128.6,-7.0017e-05,-0.0076884,-7.113e-05,-8.3679,1.3489
24874,14.367,2.7273,0.1,0.00022039,2202.4,0.00022027,2198.8,-7.238e-05,-0.0072853,-7.3315e-05,-7.0282,1.3081
24875,14.459,2.8182,0.1,0.00021806,2179.1,0.00021793,2175.3,-7.159e-05,-0.0075151,-7.2581e-05,-7.4562,1.3217
24876,14.184,2.7273,0.1,0.00022504,2248.9,0.00022494,2245.8,-7.3964e-05,-0.0070729,-7.4771e-05,-6.0645,1.2812
24877,14.276,2.8182,0.1,0.0002227,2225.5,0.00022259,2222.2,-7.317e-05,-0.0073118,-7.4035e-05,-6.5097,1.2947
24878,14,2.7273,0.1,0.00022972,2295.6,0.00022963,2293,-7.5556e-05,-0.006872,-7.6228e-05,-5.057,1.2544
24879,14.092,2.8182,0.1,0.00022737,2272.1,0.00022727,2269.3,-7.4758e-05,-0.0071067,-7.5492e-05,-5.5223,1.2678
24880,13.817,2.7273,0.1,0.0002344,2342.4,0.00023434,2340.4,-7.7156e-05,-0.0066595,-7.7687e-05,-3.9991,1.2277
24881,13.909,2.8182,0.1,0.00023205,2318.9,0.00023197,2316.6,-7.6354e-05,-0.0069361,-7.695e-05,-4.4877,1.2411
24882,13.633,2.7273,0.1,0.00023911,2389.4,0.00023906,2388,-7.8764e-05,-0.0063978,-7.9147e-05,-2.8838,1.2012
24883,13.725,2.8182,0.1,0.00023674,2365.8,0.00023669,2364.1,-7.7958e-05,-0.0067253,-7.8409e-05,-3.399,1.2145
24884,13.45,2.7273,0.1,0.00024383,2436.6,0.0002438,2435.8,-8.038e-05,-0.0060169,-8.0606e-05,-1.7043,1.1749
24885,13.542,2.8182,0.1,0.00024146,2412.9,0.00024142,2411.8,-7.957e-05,-0.0064907,-7.9868e-05,-2.2493,1.1881
24886,13.266,2.7273,0.1,0.00024857,2483.9,0.00024856,2483.7,-8.2004e-05,-0.0043938,-8.2064e-05,-0.45368,1.1487
24887,13.358,2.8182,0.1,0.00024618,2460.1,0.00024617,2459.6,-8.119e-05,-0.0061147,-8.1327e-05,-1.0312,1.1618
24888,13.083,2.7273,0.1,0.00025332,2531.4,0.00025333,2531.8,-8.352e-05,0.88169,-8.3638e-05,-0.0071546,1.1227
24889,13.175,2.8182,0.1,0.00025093,2507.5,0.00025093,2507.7,-8.2783e-05,0.2655,-8.282e-05,-0.0077334,1.1357
24890,12.899,2.7273,0.1,0.00025808,2579,0.00025812,2580.2,-8.4974e-05,2.3026,-8.5281e-05,-0.0063874,1.0969
24891,12.991,2.8182,0.1,0.00025568,2555.1,0.00025571,2555.9,-8.4238e-05,1.6442,-8.4458e-05,-0.0063692,1.1098
24892,12.716,2.7273,0.1,0.00026286,2626.8,0.00026292,2628.7,-8.6423e-05,3.8226,-8.6933e-05,-0.0060544,1.0712
24893,12.808,2.8182,0.1,0.00026045,2602.7,0.00026051,2604.3,-8.5689e-05,3.118,-8.6105e-05,-0.0060928,1.0841
24894,12.532,2.7273,0.1,0.00026765,2674.6,0.00026774,2677.4,-8.7868e-05,5.4513,-8.8594e-05,-0.005791,1.0457
24895,12.624,2.8182,0.1,0.00026524,2650.6,0.00026532,2652.9,-8.7136e-05,4.696,-8.7762e-05,-0.0058452,1.0585
24896,12.349,2.7273,0.1,0.00027245,2722.6,0.00027257,2726.2,-8.9307e-05,7.1994,-9.0266e-05,-0.0055692,1.0204
24897,12.441,2.8182,0.1,0.00027004,2698.5,0.00027014,2701.7,-8.8577e-05,6.3883,-8.9428e-05,-0.0056328,1.0331
24898,12.165,2.7273,0.1,0.00027727,2770.8,0.00027742,2775.3,-9.0739e-05,9.0788,-9.1948e-05,-0.0053725,0.99533
24899,12.257,2.8182,0.1,0.00027484,2746.5,0.00027498,2750.6,-9.0012e-05,8.2064,-9.1105e-05,-0.0054376,1.0079
24900,11.982,2.7273,0.1,0.00028209,2819,0.00028228,2824.5,-9.2162e-05,11.102,-9.364e-05,-0.0051716,0.9704
24901,12.074,2.8182,0.1,0.00027966,2794.7,0.00027983,2799.8,-9.1439e-05,10.162,-9.2792e-05,-0.0052603,0.98288
24902,11.799,2.7273,0.1,0.00028693,2867.3,0.00028715,2873.9,-9.3575e-05,13.283,-9.5344e-05,-0.0049567,0.94566
24903,11.89,2.8182,0.1,0.00028449,2843,0.0002847,2849.1,-9.2857e-05,12.27,-9.449e-05,-0.0050483,0.95804
24904,11.615,2.7273,0.1,0.00029177,2915.7,0.00029204,2923.5,-9.4977e-05,15.636,-9.7059e-05,-0.0047452,0.92111
24905,11.707,2.8182,0.1,0.00028933,2891.3,0.00028958,2898.6,-9.4264e-05,14.543,-9.62e-05,-0.0048378,0.9334
24906,11.432,2.7273,0.1,0.00029663,2964.2,0.00029693,2973.3,-9.6366e-05,18.179,-9.8786e-05,-0.0045115,0.89676
24907,11.523,2.8182,0.1,0.00029418,2939.8,0.00029447,2948.2,-9.5658e-05,16.998,-9.7921e-05,-0.0046283,0.90895
24908,11.248,2.7273,0.1,0.00030149,3012.8,0.00030184,3023.2,-9.774e-05,20.928,-0.00010053,-0.0042749,0.87261
24909,11.34,2.8182,0.1,0.00029904,2988.3,0.00029937,2998.1,-9.7039e-05,19.651,-9.9655e-05,-0.0043701,0.8847
24910,11.065,2.7273,0.1,0.00030635,3061.4,0.00030675,3073.3,-9.9097e-05,23.903,-0.00010228,-0.0040535,0.84866
24911,11.156,2.8182,0.1,0.0003039,3036.9,0.00030428,3048.1,-9.8403e-05,22.521,-0.0001014,-0.0041522,0.86065
24912,10.881,2.7273,0.1,0.00031123,3110.1,0.00031168,3123.6,-0.00010043,27.126,-0.00010405,-0.0037984,0.82492
24913,10.973,2.8182,0.1,0.00030877,3085.6,0.0003092,3098.3,-9.975e-05,25.63,-0.00010316,-0.0039222,0.8368
24914,10.698,2.7273,0.1,0.0003161,3158.8,0.00031661,3174,-0.00010175,30.62,-0.00010583,-0.0035203,0.80138
24915,10.789,2.8182,0.1,0.00031364,3134.3,0.00031413,3148.7,-0.00010108,28.999,-0.00010494,-0.0036348,0.81317
24916,10.514,2.7273,0.1,0.00032098,3207.6,0.00032155,3224.7,-0.00010304,34.41,-0.00010762,-0.0032488,0.77807
24917,10.606,2.8182,0.1,0.00031852,3183,0.00031906,3199.2,-0.00010238,32.652,-0.00010673,-0.003356,0.78974
24918,10.331,2.7273,0.1,0.00032586,3256.4,0.0003265,3275.5,-0.00010431,38.524,-0.00010944,-0.0029804,0.75496
24919,10.422,2.8182,0.1,0.0003234,3231.8,0.00032401,3249.9,-0.00010366,36.618,-0.00010853,-0.0030794,0.76653
24920,10.147,2.7273,0.1,0.00033075,3305.2,0.00033146,3326.5,-0.00010555,42.995,-0.00011127,-0.0026913,0.73208
24921,10.239,2.8182,0.1,0.00032828,3280.6,0.00032896,3300.8,-0.00010491,40.926,-0.00011035,-0.0028046,0.74354
24922,9.9637,2.7273,0.1,0.00033563,3354,0.00033642,3377.7,-0.00010675,47.855,-0.00011312,-0.0023715,0.70942
24923,10.055,2.8182,0.1,0.00033316,3329.3,0.00033392,3351.9,-0.00010613,45.61,-0.0001122,-0.002483,0.72077
24924,9.7802,2.7273,0.1,0.00034051,3402.8,0.00034139,3429.1,-0.00010792,53.144,-0.00011499,-0.0020439,0.68699
24925,9.872,2.8182,0.1,0.00033805,3378.1,0.00033888,3403.2,-0.00010731,50.705,-0.00011406,-0.002143,0.69822
24926,9.5968,2.7273,0.1,0.0003454,3451.6,0.00034636,3480.6,-0.00010905,58.902,-0.00011689,-0.0017081,0.66479
24927,9.6885,2.8182,0.1,0.00034293,3426.9,0.00034385,3454.7,-0.00010845,56.253,-0.00011594,-0.0018014,0.67591
24928,9.4133,2.7273,0.1,0.00035028,3500.3,0.00035134,3532.5,-0.00011013,65.177,-0.0001188,-0.0013622,0.64282
24929,9.505,2.8182,0.1,0.0003478,3475.6,0.00034882,3506.4,-0.00010956,62.297,-0.00011785,-0.0014402,0.65382
24930,9.2298,2.7273,0.1,0.00035515,3549.1,0.00035632,3584.5,-0.00011116,72.02,-0.00012075,-0.0010138,0.62109
24931,9.3215,2.8182,0.1,0.00035268,3524.4,0.0003538,3558.3,-0.00011061,68.888,-0.00011978,-0.001072,0.63197
24932,9.0463,2.7273,0.1,0.00036003,3597.8,0.00036132,3636.9,-0.00011215,79.487,-0.00012273,-0.00066862,0.59959
24933,9.1381,2.8182,0.1,0.00035755,3573.1,0.00035879,3610.5,-0.00011162,76.081,-0.00012174,-0.00069784,0.61036
24934,8.8628,2.7273,0.1,0.00036491,3646.6,0.00036632,3689.6,-0.00011307,87.642,-0.00012474,-0.00033745,0.57834
24935,8.9546,2.8182,0.1,0.00036243,3621.8,0.00036378,3663,-0.00011256,83.936,-0.00012374,-0.00032674,0.58898
24936,8.6794,2.7273,0.1,0.00036979,3695.4,0.00037134,3742.7,-0.00011393,96.553,-0.00012678,-3.6476e-05,0.55734
24937,8.7711,2.8182,0.1,0.0003673,3670.5,0.00036879,3715.9,-0.00011345,92.52,-0.00012576,2.9896e-05,0.56786
24938,8.4959,2.7273,0.1,0.00037468,3744.2,0.00037637,3796.2,-0.00011472,106.3,-0.00012887,0.00021321,0.53659
24939,8.5876,2.8182,0.1,0.00037218,3719.3,0.00037381,3769.2,-0.00011427,101.91,-0.00012783,0.00035498,0.54698
24940,8.3124,2.7273,0.1,0.00037958,3793.2,0.00038144,3850.3,-0.00011544,116.96,-0.00013101,0.00038115,0.51609
24941,8.4041,2.8182,0.1,0.00037707,3768.1,0.00037886,3823,-0.00011502,112.18,-0.00012995,0.00062625,0.52635
24942,8.1289,2.7273,0.1,0.00038451,3842.4,0.00038653,3905.1,-0.00011609,128.63,-0.00013321,0.00042448,0.49585
24943,8.2206,2.8182,0.1,0.00038198,3817.2,0.00038393,3877.4,-0.00011569,123.43,-0.00013212,0.00080837,0.50598
24944,7.9454,2.7273,0.1,0.00038947,3892,0.00039168,3960.8,-0.00011665,141.4,-0.00013547,0.00028571,0.47586
24945,8.0372,2.8182,0.1,0.00038692,3866.5,0.00038905,3932.6,-0.00011628,135.75,-0.00013435,0.0008572,0.48587
24946,7.7619,2.7273,0.1,0.00039448,3942.1,0.0003969,4017.5,-0.00011712,155.39,-0.0001378,-0.00011494,0.45615
24947,7.8537,2.8182,0.1,0.0003919,3916.3,0.00039423,3988.8,-0.00011678,149.26,-0.00013665,0.00070772,0.46602
24948,7.5785,2.7273,0.1,0.00039958,3993,0.00040221,4075.6,-0.00011751,170.7,-0.00014023,-0.00088548,0.43669
24949,7.6702,2.8182,0.1,0.00039694,3966.7,0.00039948,4046.2,-0.0001172,164.05,-0.00013903,0.00027341,0.44643
24950,7.395,2.7273,0.1,0.00040478,4045,0.00040764,4135.5,-0.00011781,187.46,-0.00014276,-0.0021731,0.41751
24951,7.4867,2.8182,0.1,0.00040208,4018,0.00040484,4105.1,-0.00011752,180.26,-0.00014152,-0.00056462,0.42712
24952,7.2115,2.7273,0.1,0.00041014,4098.5,0.00041325,4197.6,-0.00011802,205.79,-0.00014541,-0.0041774,0.39861
24953,7.3032,2.8182,0.1,0.00040735,4070.7,0.00041036,4166.1,-0.00011776,198,-0.00014411,-0.0019693,0.40807
24954,7.028,2.7273,0.1,0.0004157,4154.2,0.00041908,4262.5,-0.00011816,225.8,-0.00014822,-0.0071701,0.37998
24955,7.1198,2.8182,0.1,0.0004128,4125.1,0.00041607,4229.5,-0.00011792,217.41,-0.00014685,-0.0041614,0.38931
24956,6.8445,2.7273,0.1,0.00042156,4212.7,0.00042522,4331,-0.00011825,247.59,-0.0001512,-0.01152,0.36163
24957,6.9363,2.8182,0.1,0.00041849,4182,0.00042204,4296.2,-0.000118,238.59,-0.00014975,-0.0074432,0.37082
24958,6.6611,2.7273,0.1,0.0004278,4275,0.00043177,4404.2,-0.00011829,271.26,-0.0001544,-0.017731,0.34358
24959,6.7528,2.8182,0.1,0.00042452,4242.3,0.00042837,4367.1,-0.00011803,261.66,-0.00015285,-0.012227,0.35262
24960,6.4776,2.7273,0.1,0.00043455,4342.5,0.00043884,4483.3,-0.00011834,296.86,-0.00015786,-0.026491,0.32581
24961,6.5693,2.8182,0.1,0.000431,4307,0.00043516,4443.2,-0.00011804,286.7,-0.0001562,-0.019081,0.3347
24962,6.2941,2.7273,0.1,0.000442,4416.9,0.00044662,4570.1,-0.00011846,324.39,-0.00016164,-0.038742,0.30833
24963,6.3858,2.8182,0.1,0.00043808,4377.8,0.00044257,4526.2,-0.00011807,313.73,-0.00015983,-0.028782,0.31708
24964,6.1106,2.7273,0.1,0.00045035,4500.4,0.00045532,4666.8,-0.00011871,353.75,-0.0001658,-0.055783,0.29116
24965,6.2024,2.8182,0.1,0.00044596,4456.5,0.0004508,4618,-0.0001182,342.74,-0.00016382,-0.042409,0.29976
24966,5.9271,2.7273,0.1,0.0004599,4595.8,0.00046523,4776.1,-0.00011922,384.72,-0.00017043,-0.079403,0.2743
24967,6.0189,2.8182,0.1,0.00045489,4545.8,0.00046009,4721,-0.00011852,373.56,-0.00016824,-0.061458,0.28274
24968,5.7437,2.7273,0.1,0.00047103,4707.1,0.00047674,4901.6,-0.00012015,416.86,-0.00017564,-0.11207,0.25774
24969,5.8354,2.8182,0.1,0.00046522,4649,0.00047079,4838.6,-0.00011916,405.88,-0.00017319,-0.088011,0.26603
24970,5.5602,2.7273,0.1,0.00048425,4839.1,0.00049032,5048.1,-0.00012172,449.45,-0.00018156,-0.15719,0.24151
24971,5.6519,2.8182,0.1,0.00047738,4770.5,0.00048332,4974.8,-0.00012033,439.14,-0.0001788,-0.12497,0.24964
24972,5.3767,2.7273,0.1,0.00050019,4998.4,0.00050663,5221.5,-0.00012426,481.3,-0.00018835,-0.2194,0.22561
24973,5.4684,2.8182,0.1,0.00049194,4916,0.00049827,5135.1,-0.0001223,472.41,-0.00018519,-0.17639,0.23357
24974,5.1932,2.7273,0.1,0.00051972,5193.6,0.00052651,5429.9,-0.00012821,510.58,-0.0001962,-0.30493,0.21005
24975,5.285,2.8182,0.1,0.00050968,5093.2,0.00051637,5326.4,-0.00012543,504.18,-0.00019257,-0.2478,0.21784
24976,5.0097,2.7273,0.1,0.00054398,5436,0.00055108,5683.3,-0.00013418,534.49,-0.00020537,-0.42182,0.19484
24977,5.1015,2.8182,0.1,0.00053157,5312.1,0.00053861,5557.9,-0.00013027,532.16,-0.00020115,-0.34666,0.20246
24978,4.8263,2.7273,0.1,0.00057447,5740.7,0.00058182,5995.1,-0.00014304,548.82,-0.00021616,-0.57966,0.18001
24979,4.918,2.8182,0.1,0.00055895,5585.7,0.00056629,5841.3,-0.00013756,552.84,-0.0002112,-0.48244,0.18744
24980,4.6428,2.7273,0.1,0.00061317,6127.5,0.00062063,6382.3,-0.00015597,547.28,-0.00022891,-0.78784,0.16557
24981,4.7345,2.8182,0.1,0.00059355,5931.4,0.00060108,6191.5,-0.00014831,560.95,-0.00022305,-0.6657,0.1728
24982,4.4593,2.7273,0.1,0.00066269,6622.3,0.00066999,6866.8,-0.00017461,520.78,-0.00024406,-1.0538,0.15154
24983,4.551,2.8182,0.1,0.0006376,6371.6,0.00064514,6627.7,-0.00016392,548.76,-0.00023708,-0.90435,0.15857
24984,4.2758,2.7273,0.1,0.00072627,7257.6,0.00073293,7474.4,-0.00020109,456.58,-0.00026204,-1.3476,0.13796
24985,4.3676,2.8182,0.1,0.00069396,6934.8,0.00070114,7172.9,-0.00018627,505.25,-0.00025367,-1.1961,0.14477
24986,4.0923,2.7273,0.1,0.00080755,8070,0.00081274,8233,-0.00023796,338.41,-0.00028322,-1.6455,0.12488
24987,4.1841,2.8182,0.1,0.0007659,7653.8,0.0007721,7852.4,-0.00021765,415.76,-0.00027318,-1.484,0.13145
24988,3.9088,2.7273,0.1,0.00090935,9087.3,0.00091178,9160.5,-0.00028739,150.45,-0.00030767,-1.995,0.11233
24989,4.0006,2.8182,0.1,0.00085648,8558.9,0.00086063,8686.8,-0.00026043,263.57,-0.00029574,-1.6903,0.11864
24990,3.7254,2.7273,0.1,0.0010299,10292,0.001028,10236,-0.00033425,0.49729,-0.00034925,-112.2,0.1004
24991,3.8171,2.8182,0.1,0.00096631,9656.5,0.00096691,9674.3,-0.00031557,38.174,-0.00032098,-2.4587,0.10642
24992,3.5419,2.7273,0.1,0.0011555,11547,0.0011481,11339,-0.00036072,2.4929,-0.00041535,-407.99,0.089156
24993,3.6336,2.8182,0.1,0.0010887,10879,0.0010842,10752,-0.00034674,0.25447,-0.00038015,-250.72,0.094844
24994,3.4501,2.8182,0.1,0.0012026,12017,0.0011926,11743,-0.00036991,2.4716,-0.00044128,-533.82,0.083997
24995,3.3584,2.7273,0.1,0.0012554,12546,0.0012434,12216,-0.00038182,5.14,-0.00046749,-638.53,0.078679
24996,23.725,2.9091,0.1,2.0879e-05,208.64,1.1616e-05,58.956,3.7392e-06,-0.23061,-1.924e-05,-172.89,2.8143
24997,23.817,3,0.1,2.0085e-05,200.71,9.8465e-06,39.566,4.5518e-06,-0.21584,-1.9118e-05,-178.06,2.8297
24998,23.908,2.9091,0.1,1.9506e-05,194.92,8.2853e-06,22.255,5.2652e-06,-0.43766,-1.9035e-05,-183.02,2.8451
24999,23.541,2.9091,0.1,2.2804e-05,227.88,1.517e-05,97.845,2.1171e-06,-0.23063,-1.95e-05,-162.65,2.7834
25000,23.633,3,0.1,2.1786e-05,217.71,1.3397e-05,78.426,2.9149e-06,-0.3326,-1.9361e-05,-167.7,2.7989
25001,23.358,2.9091,0.1,2.5094e-05,250.76,1.8721e-05,136.62,5.2089e-07,-0.13364,-1.9797e-05,-152.79,2.7526
25002,23.45,3,0.1,2.3905e-05,238.88,1.6945e-05,117.27,1.3169e-06,-0.14581,-1.9638e-05,-157.59,2.768
25003,23.174,2.9091,0.1,2.7661e-05,276.42,2.2275e-05,175.24,-1.0621e-06,-0.11029,-2.0134e-05,-143.41,2.7218
25004,23.266,3,0.1,2.6343e-05,263.25,2.0497e-05,155.95,-2.7594e-07,-0.12766,-1.9954e-05,-147.98,2.7372
25005,22.991,2.9091,0.1,3.0439e-05,304.18,2.5834e-05,213.75,-2.6264e-06,-0.087384,-2.0513e-05,-134.48,2.691
25006,23.083,3,0.1,2.9023e-05,290.02,2.4052e-05,194.51,-1.8486e-06,-0.095842,-2.0312e-05,-138.82,2.7064
25007,22.807,2.9091,0.1,3.3381e-05,333.58,2.9401e-05,252.2,-4.174e-06,-0.073866,-2.0937e-05,-126.02,2.6603
25008,22.899,3,0.1,3.1887e-05,318.65,2.7614e-05,232.98,-3.4044e-06,-0.080537,-2.0713e-05,-130.13,2.6756
25009,22.624,2.9091,0.1,3.6453e-05,364.27,3.2981e-05,290.61,-5.7056e-06,-0.063464,-2.1406e-05,-118.03,2.6295
25010,22.716,3,0.1,3.4897e-05,348.73,3.1186e-05,271.4,-4.9436e-06,-0.06819,-2.1159e-05,-121.9,2.6449
25011,22.44,2.9091,0.1,3.9631e-05,396.03,3.6577e-05,329.04,-7.2225e-06,-0.05572,-2.1921e-05,-110.49,2.5988
25012,22.532,3,0.1,3.8024e-05,379.97,3.4773e-05,309.81,-6.4676e-06,-0.059402,-2.165e-05,-114.14,2.6141
25013,22.257,2.9091,0.1,4.2899e-05,428.69,4.0193e-05,367.51,-8.7263e-06,-0.049605,-2.2483e-05,-103.41,2.5681
25014,22.349,3,0.1,4.1248e-05,412.2,3.8378e-05,348.25,-7.9776e-06,-0.052511,-2.2189e-05,-106.83,2.5834
25015,22.073,2.9091,0.1,4.6244e-05,462.12,4.3831e-05,406.06,-1.0218e-05,-0.044688,-2.3091e-05,-96.769,2.5374
25016,22.165,3,0.1,4.4556e-05,445.25,4.2005e-05,386.75,-9.475e-06,-0.047053,-2.2774e-05,-99.971,2.5527
25017,21.89,2.9091,0.1,4.9659e-05,496.25,4.7494e-05,444.72,-1.17e-05,-0.040635,-2.3746e-05,-90.554,2.5067
25018,21.982,3,0.1,4.7937e-05,479.04,4.5655e-05,425.35,-1.0961e-05,-0.042599,-2.3406e-05,-93.545,2.5221
25019,21.706,2.9091,0.1,5.3136e-05,530.99,5.1184e-05,483.5,-1.3172e-05,-0.037234,-2.4446e-05,-84.749,2.4761
25020,21.798,3,0.1,5.1383e-05,513.47,4.933e-05,464.06,-1.2438e-05,-0.038896,-2.4083e-05,-87.539,2.4914
25021,21.523,2.9091,0.1,5.6669e-05,566.3,5.4901e-05,522.44,-1.4636e-05,-0.034332,-2.519e-05,-79.335,2.4455
25022,21.615,3,0.1,5.4889e-05,548.51,5.3033e-05,502.92,-1.3906e-05,-0.035758,-2.4806e-05,-81.933,2.4608
25023,21.34,2.9091,0.1,6.0256e-05,602.14,5.8647e-05,561.54,-1.6093e-05,-0.03183,-2.5977e-05,-74.293,2.415
25024,21.431,3,0.1,5.8449e-05,584.09,5.6765e-05,541.93,-1.5366e-05,-0.033064,-2.5571e-05,-76.709,2.4302
25025,21.156,2.9091,0.1,6.3892e-05,638.48,6.2422e-05,600.81,-1.7545e-05,-0.029649,-2.6805e-05,-69.602,2.3845
25026,21.248,3,0.1,6.2061e-05,620.18,6.0525e-05,581.11,-1.682e-05,-0.030735,-2.6379e-05,-71.847,2.3997
25027,20.973,2.9091,0.1,6.7574e-05,675.28,6.6227e-05,640.28,-1.8992e-05,-0.027725,-2.7672e-05,-65.243,2.354
25028,21.064,3,0.1,6.572e-05,656.75,6.4315e-05,620.48,-1.827e-05,-0.028686,-2.7226e-05,-67.327,2.3692
25029,20.789,2.9091,0.1,7.1301e-05,712.52,7.0062e-05,679.93,-2.0435e-05,-0.026018,-2.8576e-05,-61.194,2.3236
25030,20.881,3,0.1,6.9425e-05,693.77,6.8135e-05,660.04,-1.9714e-05,-0.026874,-2.8113e-05,-63.127,2.3388
25031,20.606,2.9091,0.1,7.5069e-05,750.17,7.3927e-05,719.79,-2.1875e-05,-0.024491,-2.9516e-05,-57.435,2.2932
25032,20.697,3,0.1,7.3173e-05,731.22,7.1985e-05,699.8,-2.1156e-05,-0.025264,-2.9035e-05,-59.228,2.3084
25033,20.422,2.9091,0.1,7.8877e-05,788.23,7.7821e-05,759.86,-2.3313e-05,-0.023116,-3.049e-05,-53.948,2.2629
25034,20.514,3,0.1,7.6961e-05,769.08,7.5864e-05,739.76,-2.2595e-05,-0.023812,-2.9993e-05,-55.609,2.278
25035,20.239,2.9091,0.1,8.2724e-05,826.67,8.1744e-05,800.13,-2.475e-05,-0.021878,-3.1497e-05,-50.712,2.2326
25036,20.33,3,0.1,8.0789e-05,807.33,7.9773e-05,779.93,-2.4032e-05,-0.022507,-3.0983e-05,-52.252,2.2477
25037,20.055,2.9091,0.1,8.6607e-05,865.47,8.5696e-05,840.62,-2.6186e-05,-0.02076,-3.2533e-05,-47.711,2.2024
25038,20.147,3,0.1,8.4654e-05,845.96,8.3711e-05,820.31,-2.5468e-05,-0.021331,-3.2005e-05,-49.138,2.2175
25039,19.872,2.9091,0.1,9.0525e-05,904.63,8.9677e-05,881.32,-2.7622e-05,-0.01974,-3.3599e-05,-44.926,2.1722
25040,19.963,3,0.1,8.8555e-05,884.94,8.7677e-05,860.9,-2.6904e-05,-0.020268,-3.3057e-05,-46.249,2.1873
25041,19.688,2.9091,0.1,9.4477e-05,944.12,9.3685e-05,922.23,-2.9058e-05,-0.018801,-3.4691e-05,-42.342,2.1421
25042,19.78,3,0.1,9.249e-05,924.27,9.1672e-05,901.7,-2.834e-05,-0.019286,-3.4136e-05,-43.569,2.1572
25043,19.505,2.9091,0.1,9.8462e-05,983.94,9.7721e-05,963.35,-3.0495e-05,-0.017947,-3.5809e-05,-39.944,2.1121
25044,19.596,3,0.1,9.6459e-05,963.93,9.5694e-05,942.72,-2.9776e-05,-0.018387,-3.5242e-05,-41.081,2.1271
25045,19.321,2.9091,0.1,0.00010248,1024.1,0.00010178,1004.7,-3.1934e-05,-0.017164,-3.6951e-05,-37.716,2.0821
25046,19.413,3,0.1,0.00010046,1003.9,9.9744e-05,983.95,-3.1214e-05,-0.017575,-3.6372e-05,-38.771,2.0971
25047,19.138,2.9091,0.1,0.00010653,1064.5,0.00010587,1046.2,-3.3374e-05,-0.016437,-3.8116e-05,-35.645,2.0522
25048,19.229,3,0.1,0.00010449,1044.2,0.00010382,1025.4,-3.2654e-05,-0.016818,-3.7526e-05,-36.625,2.0672
25049,18.954,2.9091,0.1,0.0001106,1105.3,0.00010999,1088,-3.4817e-05,-0.015767,-3.9303e-05,-33.719,2.0224
25050,19.046,3,0.1,0.00010855,1084.8,0.00010792,1067.1,-3.4095e-05,-0.016119,-3.8702e-05,-34.63,2.0373
25051,18.771,2.9091,0.1,0.00011471,1146.3,0.00011413,1130,-3.6262e-05,-0.015143,-4.0509e-05,-31.926,1.9926
25052,18.863,3,0.1,0.00011265,1125.7,0.00011205,1108.9,-3.5539e-05,-0.015477,-3.9899e-05,-32.773,2.0075
25053,18.587,2.9091,0.1,0.00011884,1187.6,0.0001183,1172.2,-3.7711e-05,-0.01456,-4.1735e-05,-30.253,1.963
25054,18.679,3,0.1,0.00011676,1166.8,0.00011621,1151,-3.6986e-05,-0.014868,-4.1115e-05,-31.043,1.9778
25055,18.404,2.9091,0.1,0.000123,1229.2,0.00012249,1214.6,-3.9162e-05,-0.014022,-4.2979e-05,-28.691,1.9334
25056,18.496,3,0.1,0.00012091,1208.3,0.00012038,1193.3,-3.8436e-05,-0.014308,-4.235e-05,-29.428,1.9482
25057,18.22,2.9091,0.1,0.00012719,1271,0.0001267,1257.2,-4.0617e-05,-0.013529,-4.424e-05,-27.231,1.9038
25058,18.312,3,0.1,0.00012509,1250,0.00012459,1235.8,-3.9889e-05,-0.013791,-4.3603e-05,-27.92,1.9186
25059,18.037,2.9091,0.1,0.0001314,1313.1,0.00013094,1300,-4.2076e-05,-0.013063,-4.5517e-05,-25.862,1.8744
25060,18.129,3,0.1,0.00012929,1292,0.00012881,1278.5,-4.1346e-05,-0.01332,-4.4872e-05,-26.507,1.8891
25061,17.853,2.9091,0.1,0.00013564,1355.5,0.00013521,1343,-4.3539e-05,-0.012617,-4.6809e-05,-24.576,1.8451
25062,17.945,3,0.1,0.00013351,1334.2,0.00013307,1321.4,-4.2807e-05,-0.012858,-4.6157e-05,-25.182,1.8597
25063,17.67,2.9091,0.1,0.0001399,1398.1,0.00013949,1386.2,-4.5007e-05,-0.01221,-4.8115e-05,-23.365,1.8158
25064,17.762,3,0.1,0.00013776,1376.7,0.00013734,1364.6,-4.4272e-05,-0.012427,-4.7456e-05,-23.935,1.8304
25065,17.486,2.9091,0.1,0.00014419,1440.9,0.0001438,1429.7,-4.6479e-05,-0.011829,-4.9435e-05,-22.22,1.7867
25066,17.578,3,0.1,0.00014204,1419.4,0.00014164,1407.9,-4.5742e-05,-0.012042,-4.8769e-05,-22.76,1.8012
25067,17.303,2.9091,0.1,0.0001485,1484,0.00014813,1473.3,-4.7956e-05,-0.011463,-5.0767e-05,-21.136,1.7576
25068,17.395,3,0.1,0.00014634,1462.4,0.00014596,1451.4,-4.7216e-05,-0.011665,-5.0096e-05,-21.647,1.7721
25069,17.119,2.9091,0.1,0.00015284,1527.3,0.00015248,1517.1,-4.9438e-05,-0.011121,-5.2112e-05,-20.105,1.7286
25070,17.211,3,0.1,0.00015066,1505.6,0.0001503,1495.2,-4.8695e-05,-0.011311,-5.1435e-05,-20.591,1.7431
25071,16.936,2.9091,0.1,0.00015719,1570.8,0.00015686,1561.2,-5.0925e-05,-0.01079,-5.3468e-05,-19.12,1.6998
25072,17.028,3,0.1,0.00015501,1549,0.00015466,1539.1,-5.018e-05,-0.01098,-5.2785e-05,-19.585,1.7142
25073,16.753,2.9091,0.1,0.00016157,1614.6,0.00016126,1605.4,-5.2417e-05,-0.010473,-5.4835e-05,-18.175,1.671
25074,16.844,3,0.1,0.00015937,1592.7,0.00015905,1583.3,-5.167e-05,-0.010649,-5.4147e-05,-18.622,1.6854
25075,16.569,2.9091,0.1,0.00016597,1658.6,0.00016567,1649.9,-5.3915e-05,-0.010181,-5.6211e-05,-17.263,1.6424
25076,16.661,3,0.1,0.00016377,1636.5,0.00016346,1627.6,-5.3165e-05,-0.010345,-5.5518e-05,-17.695,1.6567
25077,16.386,2.9091,0.1,0.0001704,1702.8,0.00017011,1694.5,-5.5419e-05,-0.0099123,-5.7597e-05,-16.38,1.6138
25078,16.477,3,0.1,0.00016818,1680.6,0.00016789,1672.2,-5.4665e-05,-0.010064,-5.69e-05,-16.8,1.6281
25079,16.202,2.9091,0.1,0.00017484,1747.2,0.00017457,1739.4,-5.6928e-05,-0.00965,-5.8992e-05,-15.52,1.5854
25080,16.294,3,0.1,0.00017261,1724.9,0.00017234,1716.9,-5.6172e-05,-0.0098082,-5.8291e-05,-15.93,1.5996
25081,16.019,2.9091,0.1,0.00017931,1791.8,0.00017905,1784.4,-5.8444e-05,-0.009387,-6.0396e-05,-14.676,1.5571
25082,16.11,3,0.1,0.00017707,1769.4,0.00017681,1761.9,-5.7684e-05,-0.0095397,-5.969e-05,-15.079,1.5713
25083,15.835,2.9091,0.1,0.00018379,1836.7,0.00018355,1829.7,-5.9965e-05,-0.0091494,-6.1807e-05,-13.844,1.5289
25084,15.927,3,0.1,0.00018154,1814.2,0.0001813,1807,-5.9203e-05,-0.0092809,-6.1097e-05,-14.243,1.543
25085,15.652,2.9091,0.1,0.0001883,1881.7,0.00018807,1875.1,-6.1493e-05,-0.0089234,-6.3225e-05,-13.019,1.5009
25086,15.743,3,0.1,0.00018604,1859.1,0.00018581,1852.4,-6.0728e-05,-0.009064,-6.2512e-05,-13.416,1.5149
25087,15.468,2.9091,0.1,0.00019282,1926.9,0.00019261,1920.8,-6.3028e-05,-0.0086965,-6.465e-05,-12.194,1.4729
25088,15.56,3,0.1,0.00019055,1904.2,0.00019034,1897.9,-6.2259e-05,-0.0088294,-6.3934e-05,-12.592,1.4869
25089,15.285,2.9091,0.1,0.00019737,1972.3,0.00019717,1966.6,-6.4569e-05,-0.0084833,-6.608e-05,-11.365,1.4451
25090,15.376,3,0.1,0.00019509,1949.6,0.00019489,1943.6,-6.3797e-05,-0.0086105,-6.5362e-05,-11.767,1.459
25091,15.101,2.9091,0.1,0.00020193,2017.9,0.00020175,2012.7,-6.6117e-05,-0.0082672,-6.7517e-05,-10.526,1.4175
25092,15.193,3,0.1,0.00019964,1995.1,0.00019946,1989.6,-6.5341e-05,-0.0084029,-6.6795e-05,-10.934,1.4313
25093,14.918,2.9091,0.1,0.00020652,2063.7,0.00020635,2058.9,-6.7672e-05,-0.0080527,-6.8958e-05,-9.672,1.3899
25094,15.009,3,0.1,0.00020422,2040.8,0.00020405,2035.7,-6.6893e-05,-0.0081791,-6.8234e-05,-10.089,1.4037
25095,14.734,2.9091,0.1,0.00021112,2109.7,0.00021097,2105.3,-6.9234e-05,-0.0078547,-7.0403e-05,-8.7976,1.3626
25096,14.826,3,0.1,0.00020881,2086.7,0.00020865,2082,-6.8451e-05,-0.0079747,-6.9678e-05,-9.2268,1.3762
25097,14.551,2.9091,0.1,0.00021574,2155.9,0.0002156,2151.9,-7.0803e-05,-0.0076741,-7.1853e-05,-7.897,1.3353
25098,14.642,3,0.1,0.00021342,2132.7,0.00021328,2128.6,-7.0016e-05,-0.0077846,-7.1125e-05,-8.3409,1.3489
25099,14.367,2.9091,0.1,0.00022038,2202.2,0.00022026,2198.7,-7.2379e-05,-0.0074897,-7.3305e-05,-6.9643,1.3082
25100,14.459,3,0.1,0.00021805,2179,0.00021792,2175.3,-7.1589e-05,-0.0076152,-7.2577e-05,-7.426,1.3217
25101,14.184,2.9091,0.1,0.00022503,2248.8,0.00022493,2245.7,-7.3964e-05,-0.0072909,-7.476e-05,-5.9936,1.2812
25102,14.276,3,0.1,0.0002227,2225.4,0.00022259,2222.2,-7.317e-05,-0.0074177,-7.4031e-05,-6.4761,1.2947
25103,14,2.9091,0.1,0.0002297,2295.4,0.00022962,2292.9,-7.5556e-05,-0.0071119,-7.6217e-05,-4.9787,1.2544
25104,14.092,3,0.1,0.00022736,2272,0.00022727,2269.3,-7.4758e-05,-0.0072216,-7.5487e-05,-5.4851,1.2678
25105,13.817,2.9091,0.1,0.00023439,2342.3,0.00023432,2340.3,-7.7155e-05,-0.0069368,-7.7675e-05,-3.9129,1.2278
25106,13.909,3,0.1,0.00023204,2318.8,0.00023196,2316.6,-7.6353e-05,-0.0070658,-7.6944e-05,-4.4466,1.2411
25107,13.633,2.9091,0.1,0.00023909,2389.3,0.00023905,2387.9,-7.8763e-05,-0.006746,-7.9134e-05,-2.7892,1.2013
25108,13.725,3,0.1,0.00023674,2365.7,0.00023668,2364,-7.7957e-05,-0.0068811,-7.8403e-05,-3.3539,1.2145
25109,13.45,2.9091,0.1,0.00024381,2436.5,0.00024379,2435.7,-8.038e-05,-0.0065461,-8.0592e-05,-1.6005,1.1749
25110,13.542,3,0.1,0.00024145,2412.8,0.00024141,2411.7,-7.957e-05,-0.0067039,-7.9861e-05,-2.1998,1.1881
25111,13.266,2.9091,0.1,0.00024855,2483.8,0.00024854,2483.6,-8.2005e-05,-0.0061257,-8.2049e-05,-0.33905,1.1488
25112,13.358,3,0.1,0.00024618,2460.1,0.00024616,2459.6,-8.119e-05,-0.0065331,-8.1319e-05,-0.97688,1.1618
25113,13.083,2.9091,0.1,0.0002533,2531.2,0.00025332,2531.7,-8.3504e-05,1.0042,-8.3639e-05,-0.0063337,1.1228
25114,13.175,3,0.1,0.00025092,2507.5,0.00025092,2507.6,-8.2776e-05,0.32305,-8.282e-05,-0.0063291,1.1358
25115,12.899,2.9091,0.1,0.00025806,2578.8,0.0002581,2580.1,-8.4956e-05,2.437,-8.5282e-05,-0.0061121,1.0969
25116,12.991,3,0.1,0.00025567,2555,0.0002557,2555.8,-8.423e-05,1.7083,-8.4458e-05,-0.0061648,1.1098
25117,12.716,2.9091,0.1,0.00026284,2626.6,0.00026291,2628.6,-8.6405e-05,3.9694,-8.6934e-05,-0.0059098,1.0713
25118,12.808,3,0.1,0.00026045,2602.7,0.0002605,2604.2,-8.568e-05,3.1882,-8.6105e-05,-0.0059983,1.0841
25119,12.532,2.9091,0.1,0.00026763,2674.4,0.00026772,2677.2,-8.7848e-05,5.6115,-8.8596e-05,-0.0057027,1.0458
25120,12.624,3,0.1,0.00026523,2650.5,0.00026531,2652.8,-8.7126e-05,4.7726,-8.7762e-05,-0.0057904,1.0585
25121,12.349,2.9091,0.1,0.00027243,2722.4,0.00027256,2726.1,-8.9285e-05,7.3743,-9.0268e-05,-0.0055103,1.0205
25122,12.441,3,0.1,0.00027003,2698.4,0.00027013,2701.6,-8.8567e-05,6.4719,-8.9429e-05,-0.0055973,1.0331
25123,12.165,2.9091,0.1,0.00027724,2770.5,0.0002774,2775.1,-9.0715e-05,9.2696,-9.195e-05,-0.0053304,0.99539
25124,12.257,3,0.1,0.00027483,2746.4,0.00027497,2750.6,-9.0001e-05,8.2976,-9.1106e-05,-0.0054133,1.0079
25125,11.982,2.9091,0.1,0.00028207,2818.7,0.00028226,2824.4,-9.2137e-05,11.31,-9.3643e-05,-0.0051393,0.97046
25126,12.074,3,0.1,0.00027965,2794.6,0.00027983,2799.7,-9.1427e-05,10.262,-9.2793e-05,-0.0052422,0.98291
25127,11.799,2.9091,0.1,0.0002869,2867,0.00028713,2873.8,-9.3548e-05,13.511,-9.5347e-05,-0.0049301,0.94572
25128,11.89,3,0.1,0.00028448,2842.9,0.00028469,2849,-9.2844e-05,12.379,-9.4492e-05,-0.0050337,0.95807
25129,11.615,2.9091,0.1,0.00029175,2915.4,0.00029201,2923.3,-9.4947e-05,15.886,-9.7062e-05,-0.0047206,0.92117
25130,11.707,3,0.1,0.00028932,2891.2,0.00028957,2898.5,-9.4249e-05,14.662,-9.6201e-05,-0.004825,0.93343
25131,11.432,2.9091,0.1,0.0002966,2963.9,0.00029691,2973.1,-9.6334e-05,18.452,-9.879e-05,-0.0044862,0.89682
25132,11.523,3,0.1,0.00029417,2939.6,0.00029446,2948.2,-9.5643e-05,17.128,-9.7923e-05,-0.0046159,0.90898
25133,11.248,2.9091,0.1,0.00030146,3012.5,0.00030181,3023,-9.7705e-05,21.227,-0.00010053,-0.0042467,0.87267
25134,11.34,3,0.1,0.00029902,2988.2,0.00029935,2998,-9.7022e-05,19.793,-9.9657e-05,-0.0043568,0.88473
25135,11.065,2.9091,0.1,0.00030632,3061.1,0.00030673,3073.1,-9.9058e-05,24.231,-0.00010228,-0.0040205,0.84872
25136,11.156,3,0.1,0.00030389,3036.8,0.00030426,3048,-9.8385e-05,22.678,-0.0001014,-0.004137,0.86068
25137,10.881,2.9091,0.1,0.00031119,3109.8,0.00031165,3123.4,-0.00010039,27.486,-0.00010405,-0.0037589,0.82498
25138,10.973,3,0.1,0.00030875,3085.4,0.00030918,3098.2,-9.973e-05,25.801,-0.00010316,-0.0039043,0.83683
25139,10.698,2.9091,0.1,0.00031606,3158.5,0.00031658,3173.9,-0.00010171,31.016,-0.00010583,-0.003472,0.80145
25140,10.789,3,0.1,0.00031363,3134.1,0.00031411,3148.6,-0.00010105,29.187,-0.00010494,-0.0036131,0.8132
25141,10.514,2.9091,0.1,0.00032094,3207.2,0.00032152,3224.5,-0.00010299,34.847,-0.00010763,-0.0031894,0.77813
25142,10.606,3,0.1,0.0003185,3182.8,0.00031905,3199.1,-0.00010236,32.86,-0.00010673,-0.003329,0.78977
25143,10.331,2.9091,0.1,0.00032582,3256,0.00032647,3275.3,-0.00010426,39.007,-0.00010945,-0.0029082,0.75503
25144,10.422,3,0.1,0.00032338,3231.6,0.00032399,3249.8,-0.00010363,36.848,-0.00010854,-0.0030468,0.76656
25145,10.147,2.9091,0.1,0.0003307,3304.7,0.00033142,3326.3,-0.00010549,43.529,-0.00011128,-0.0026032,0.73215
25146,10.239,3,0.1,0.00032826,3280.3,0.00032894,3300.7,-0.00010488,41.18,-0.00011036,-0.0027648,0.74357
25147,9.9637,2.9091,0.1,0.00033558,3353.5,0.00033638,3377.4,-0.00010668,48.448,-0.00011313,-0.0022641,0.70949
25148,10.055,3,0.1,0.00033314,3329.1,0.0003339,3351.8,-0.00010609,45.891,-0.0001122,-0.0024345,0.7208
25149,9.7802,2.9091,0.1,0.00034046,3402.2,0.00034134,3428.8,-0.00010784,53.803,-0.00011501,-0.0019136,0.68706
25150,9.872,3,0.1,0.00033802,3377.9,0.00033886,3403.1,-0.00010727,51.017,-0.00011406,-0.002084,0.69826
25151,9.5968,2.9091,0.1,0.00034533,3451,0.00034631,3480.4,-0.00010896,59.638,-0.0001169,-0.0015508,0.66486
25152,9.6885,3,0.1,0.0003429,3426.6,0.00034382,3454.5,-0.00010841,56.6,-0.00011595,-0.00173,0.67594
25153,9.4133,2.9091,0.1,0.00035021,3499.7,0.00035129,3532.2,-0.00011004,65.999,-0.00011882,-0.0011724,0.64289
25154,9.505,3,0.1,0.00034777,3475.3,0.0003488,3506.2,-0.00010951,62.685,-0.00011786,-0.0013538,0.65386
25155,9.2298,2.9091,0.1,0.00035508,3548.4,0.00035627,3584.3,-0.00011106,72.941,-0.00012077,-0.00078483,0.62116
25156,9.3215,3,0.1,0.00035265,3524,0.00035377,3558.2,-0.00011056,69.322,-0.00011979,-0.00096806,0.63201
25157,9.0463,2.9091,0.1,0.00035995,3597,0.00036126,3636.6,-0.00011203,80.522,-0.00012275,-0.00039262,0.59967
25158,9.1381,3,0.1,0.00035752,3572.7,0.00035876,3610.4,-0.00011156,76.568,-0.00012175,-0.00057253,0.61039
25159,8.8628,2.9091,0.1,0.00036482,3645.7,0.00036625,3689.3,-0.00011294,88.808,-0.00012476,-5.83e-06,0.57842
25160,8.9546,3,0.1,0.00036239,3621.4,0.00036375,3662.9,-0.0001125,84.484,-0.00012375,-0.00017612,0.58902
25161,8.6794,2.9091,0.1,0.0003697,3694.4,0.00037127,3742.4,-0.00011379,97.871,-0.00012682,0.00036269,0.55742
25162,8.7711,3,0.1,0.00036726,3670.1,0.00036876,3715.8,-0.00011338,93.139,-0.00012578,0.00021098,0.5679
25163,8.4959,2.9091,0.1,0.00037458,3743.2,0.0003763,3796,-0.00011457,107.79,-0.00012891,0.00069399,0.53666
25164,8.5876,3,0.1,0.00037214,3718.8,0.00037378,3769,-0.0001142,102.61,-0.00012785,0.00057342,0.54702
25165,8.3124,2.9091,0.1,0.00037948,3792.1,0.00038136,3850.1,-0.00011527,118.65,-0.00013106,0.00096005,0.51617
25166,8.4041,3,0.1,0.00037702,3767.6,0.00037882,3822.9,-0.00011494,112.98,-0.00012997,0.00088885,0.52639
25167,8.1289,2.9091,0.1,0.00038439,3841.3,0.00038645,3904.9,-0.00011589,130.56,-0.00013326,0.0011231,0.49592
25168,8.2206,3,0.1,0.00038193,3816.6,0.00038389,3877.3,-0.0001156,124.34,-0.00013214,0.0011251,0.50602
25169,7.9454,2.9091,0.1,0.00038935,3890.8,0.00039159,3960.6,-0.00011642,143.61,-0.00013553,0.0011299,0.47594
25170,8.0372,3,0.1,0.00038686,3865.9,0.00038901,3932.5,-0.00011617,136.79,-0.00013438,0.0012394,0.48591
25171,7.7619,2.9091,0.1,0.00039436,3940.9,0.00039681,4017.5,-0.00011686,157.92,-0.00013788,0.00090668,0.45622
25172,7.8537,3,0.1,0.00039184,3915.7,0.00039418,3988.7,-0.00011667,150.44,-0.00013669,0.0011699,0.46606
25173,7.5785,2.9091,0.1,0.00039945,3991.7,0.00040212,4075.7,-0.00011722,173.6,-0.00014032,0.00035348,0.43677
25174,7.6702,3,0.1,0.00039688,3966.1,0.00039944,4046.2,-0.00011706,165.4,-0.00013908,0.00083332,0.44647
25175,7.395,2.9091,0.1,0.00040465,4043.7,0.00040756,4135.7,-0.00011748,190.79,-0.00014287,-0.00066774,0.41759
25176,7.4867,3,0.1,0.00040202,4017.4,0.0004048,4105.2,-0.00011737,181.81,-0.00014157,0.00011473,0.42716
25177,7.2115,2.9091,0.1,0.00041001,4097.3,0.00041317,4198,-0.00011765,209.62,-0.00014555,-0.0023455,0.39869
25178,7.3032,3,0.1,0.00040728,4070,0.00041031,4166.2,-0.00011759,199.78,-0.00014418,-0.0011432,0.40811
25179,7.028,2.9091,0.1,0.00041558,4153,0.00041902,4263.3,-0.00011775,230.2,-0.00014839,-0.0049371,0.38006
25180,7.1198,3,0.1,0.00041273,4124.5,0.00041603,4229.8,-0.00011772,219.45,-0.00014693,-0.0031554,0.38935
25181,6.8445,2.9091,0.1,0.00042146,4211.6,0.00042518,4332.3,-0.00011778,252.66,-0.00015141,-0.008796,0.36171
25182,6.9363,3,0.1,0.00041844,4181.5,0.00042201,4296.7,-0.00011778,240.95,-0.00014985,-0.0062168,0.37086
25183,6.6611,2.9091,0.1,0.00042773,4274.3,0.00043176,4406.1,-0.00011777,277.09,-0.00015465,-0.014408,0.34365
25184,6.7528,3,0.1,0.00042448,4241.8,0.00042836,4367.8,-0.00011778,264.37,-0.00015297,-0.010732,0.35266
25185,6.4776,2.9091,0.1,0.00043453,4342.3,0.0004389,4486.1,-0.00011777,303.57,-0.00015817,-0.022444,0.32588
25186,6.5693,3,0.1,0.00043098,4306.8,0.00043517,4444.4,-0.00011776,289.82,-0.00015634,-0.017258,0.33474
25187,6.2941,2.9091,0.1,0.00044204,4417.4,0.00044676,4574,-0.00011782,332.08,-0.00016202,-0.033833,0.30841
25188,6.3858,3,0.1,0.00043808,4377.8,0.00044262,4527.8,-0.00011777,317.32,-0.00016,-0.026567,0.31712
25189,6.1106,2.9091,0.1,0.0004505,4501.9,0.00045557,4672.2,-0.00011801,362.54,-0.00016627,-0.049871,0.29124
25190,6.2024,3,0.1,0.00044601,4457,0.00045089,4620.2,-0.00011786,346.84,-0.00016403,-0.039731,0.2998
25191,5.9271,2.9091,0.1,0.00046021,4598.9,0.00046565,4783.5,-0.00011846,394.72,-0.00017101,-0.072375,0.27437
25192,6.0189,3,0.1,0.000455,4546.9,0.00046025,4724.2,-0.00011815,378.24,-0.0001685,-0.058252,0.28278
25193,5.7437,2.9091,0.1,0.00047156,4712.3,0.00047738,4911.8,-0.00011935,428.16,-0.00017635,-0.10389,0.25782
25194,5.8354,3,0.1,0.00046542,4651,0.00047104,4842.9,-0.00011877,411.19,-0.00017351,-0.084237,0.26607
25195,5.5602,2.9091,0.1,0.00048508,4847.4,0.00049128,5061.8,-0.00012091,462.09,-0.00018243,-0.148,0.24159
25196,5.6519,3,0.1,0.0004777,4773.7,0.00048371,4980.6,-0.00011993,445.13,-0.00017919,-0.12065,0.24968
25197,5.3767,2.9091,0.1,0.00050144,5010.9,0.00050802,5240,-0.00012347,495.25,-0.00018942,-0.20968,0.22569
25198,5.4684,3,0.1,0.00049245,4921.1,0.00049884,5143,-0.00012189,479.07,-0.00018567,-0.17166,0.23361
25199,5.1932,2.9091,0.1,0.00052155,5211.9,0.00052849,5454.6,-0.00012752,525.66,-0.00019752,-0.2957,0.21013
25200,5.285,3,0.1,0.00051042,5100.7,0.00051719,5337,-0.00012505,511.48,-0.00019316,-0.24305,0.21788
25201,5.0097,2.9091,0.1,0.00054659,5462.1,0.00055385,5716.2,-0.00013369,550.26,-0.00020698,-0.41489,0.19493
25202,5.1015,3,0.1,0.00053265,5322.9,0.00053977,5572.1,-0.00012996,539.97,-0.00020187,-0.34263,0.2025
25203,4.8263,2.9091,0.1,0.00057811,5777.1,0.00058562,6038.3,-0.0001429,564.45,-0.0002181,-0.57748,0.1801
25204,4.918,3,0.1,0.00056048,5600.9,0.0005679,5860,-0.00013737,560.86,-0.00021208,-0.48031,0.18748
25205,4.6428,2.9091,0.1,0.00061812,6176.9,0.00062573,6438,-0.0001564,561.36,-0.00023122,-0.79198,0.16567
25206,4.7345,3,0.1,0.00059565,5952.4,0.00060327,6215.9,-0.00014834,568.66,-0.00022411,-0.66696,0.17285
25207,4.4593,2.9091,0.1,0.00066914,6686.8,0.00067657,6936,-0.00017586,531.17,-0.00024669,-1.0554,0.15165
25208,4.551,3,0.1,0.00064042,6399.8,0.00064804,6658.8,-0.0001643,555.29,-0.00023832,-0.90936,0.15862
25209,4.2758,2.9091,0.1,0.00073409,7335.9,0.00074081,7554.6,-0.00020333,460.69,-0.00026482,-1.3356,0.1381
25210,4.3676,3,0.1,0.00069756,6970.7,0.0007048,7210.8,-0.00018711,509.36,-0.00025506,-1.1956,0.14483
25211,4.0923,2.9091,0.1,0.00081567,8151.1,0.00082082,8312.5,-0.00024097,334.62,-0.0002857,-1.5139,0.12503
25212,4.1841,3,0.1,0.00077009,7695.6,0.00077629,7894.4,-0.00021901,416.07,-0.00027458,-1.4742,0.13152
25213,3.9088,2.9091,0.1,0.0009147,9140.7,0.00091699,9209.8,-0.00028994,141.34,-0.00030894,-1.4358,0.11252
25214,4.0006,3,0.1,0.00086039,8598,0.00086449,8724.1,-0.00026206,259.66,-0.00029682,-1.5537,0.11873
25215,3.7254,2.9091,0.1,0.0010265,10258,0.0010246,10201,-0.00033317,-0.46831,-0.00034819,-113.27,0.10063
25216,3.8171,3,0.1,0.00096779,9671.2,0.0009683,9686.5,-0.00031664,31.935,-0.00032105,-1.2491,0.10652
25217,3.5419,2.9091,0.1,0.0011368,11360,0.0011297,11163,-0.00035592,0.36078,-0.00040707,-383.97,0.089426
25218,3.6336,3,0.1,0.001084,10832,0.0010795,10706,-0.00034534,-0.026904,-0.00037839,-248.34,0.094969
25219,3.4501,3,0.1,0.0011886,11877,0.001179,11613,-0.00036652,0.55291,-0.00043479,-512.38,0.08414
25220,3.3584,2.9091,0.1,0.0012204,12195,0.0012095,11896,-0.00037348,1.781,-0.00045098,-580.51,0.078981
25221,23.725,3.0909,0.1,2.0879e-05,208.64,1.1616e-05,58.956,3.7392e-06,-0.2306,-1.924e-05,-172.89,2.8143
25222,23.817,3.1818,0.1,2.004e-05,200.26,9.8315e-06,39.571,4.5364e-06,-0.21513,-1.9071e-05,-177.59,2.8297
25223,23.908,3.0909,0.1,1.9506e-05,194.92,8.2853e-06,22.255,5.2652e-06,-0.43766,-1.9035e-05,-183.02,2.8451
25224,23.541,3.0909,0.1,2.2804e-05,227.88,1.517e-05,97.845,2.1171e-06,-0.23063,-1.95e-05,-162.65,2.7834
25225,23.633,3.1818,0.1,2.1741e-05,217.26,1.3381e-05,78.419,2.8998e-06,-0.33227,-1.9314e-05,-167.24,2.7989
25226,23.358,3.0909,0.1,2.5094e-05,250.76,1.8721e-05,136.62,5.2089e-07,-0.13364,-1.9797e-05,-152.79,2.7526
25227,23.45,3.1818,0.1,2.3862e-05,238.45,1.6928e-05,117.26,1.3023e-06,-0.14558,-1.9592e-05,-157.13,2.768
25228,23.174,3.0909,0.1,2.7661e-05,276.42,2.2275e-05,175.24,-1.0621e-06,-0.11029,-2.0134e-05,-143.41,2.7218
25229,23.266,3.1818,0.1,2.6302e-05,262.84,2.048e-05,155.93,-2.8996e-07,-0.12746,-1.9908e-05,-147.53,2.7372
25230,22.991,3.0909,0.1,3.0439e-05,304.18,2.5834e-05,213.75,-2.6264e-06,-0.087385,-2.0513e-05,-134.48,2.691
25231,23.083,3.1818,0.1,2.8983e-05,289.63,2.4034e-05,194.48,-1.8619e-06,-0.095663,-2.0267e-05,-138.38,2.7064
25232,22.807,3.0909,0.1,3.3381e-05,333.58,2.9401e-05,252.2,-4.174e-06,-0.073868,-2.0937e-05,-126.02,2.6603
25233,22.899,3.1818,0.1,3.185e-05,318.28,2.7595e-05,232.94,-3.4171e-06,-0.080371,-2.0669e-05,-129.7,2.6756
25234,22.624,3.0909,0.1,3.6453e-05,364.27,3.2981e-05,290.61,-5.7056e-06,-0.063464,-2.1406e-05,-118.03,2.6295
25235,22.716,3.1818,0.1,3.4862e-05,348.38,3.1168e-05,271.35,-4.9556e-06,-0.068032,-2.1116e-05,-121.49,2.6449
25236,22.44,3.0909,0.1,3.9631e-05,396.03,3.6577e-05,329.04,-7.2225e-06,-0.05572,-2.1921e-05,-110.49,2.5988
25237,22.532,3.1818,0.1,3.7991e-05,379.65,3.4755e-05,309.76,-6.4788e-06,-0.059251,-2.1609e-05,-113.74,2.6141
25238,22.257,3.0909,0.1,4.2899e-05,428.69,4.0193e-05,367.51,-8.7263e-06,-0.049605,-2.2483e-05,-103.41,2.5681
25239,22.349,3.1818,0.1,4.1217e-05,411.89,3.8361e-05,348.19,-7.9881e-06,-0.052363,-2.215e-05,-106.46,2.5834
25240,22.073,3.0909,0.1,4.6244e-05,462.12,4.3831e-05,406.06,-1.0218e-05,-0.044688,-2.3091e-05,-96.769,2.5374
25241,22.165,3.1818,0.1,4.4527e-05,444.96,4.1988e-05,386.7,-9.4848e-06,-0.046909,-2.2737e-05,-99.618,2.5527
25242,21.89,3.0909,0.1,4.9659e-05,496.25,4.7494e-05,444.72,-1.17e-05,-0.040636,-2.3746e-05,-90.554,2.5067
25243,21.982,3.1818,0.1,4.791e-05,478.77,4.5638e-05,425.29,-1.097e-05,-0.042457,-2.3371e-05,-93.215,2.522
25244,21.706,3.0909,0.1,5.3136e-05,530.99,5.1184e-05,483.5,-1.3172e-05,-0.037234,-2.4446e-05,-84.749,2.4761
25245,21.798,3.1818,0.1,5.1359e-05,513.23,4.9315e-05,464.01,-1.2446e-05,-0.038757,-2.4051e-05,-87.23,2.4914
25246,21.523,3.0909,0.1,5.6669e-05,566.3,5.4901e-05,522.44,-1.4636e-05,-0.034331,-2.519e-05,-79.335,2.4455
25247,21.615,3.1818,0.1,5.4866e-05,548.29,5.3019e-05,502.87,-1.3914e-05,-0.03562,-2.4775e-05,-81.646,2.4608
25248,21.34,3.0909,0.1,6.0256e-05,602.14,5.8647e-05,561.54,-1.6093e-05,-0.03183,-2.5977e-05,-74.293,2.415
25249,21.431,3.1818,0.1,5.8429e-05,583.89,5.6752e-05,541.89,-1.5374e-05,-0.032929,-2.5543e-05,-76.444,2.4302
25250,21.156,3.0909,0.1,6.3892e-05,638.48,6.2422e-05,600.81,-1.7545e-05,-0.029648,-2.6805e-05,-69.602,2.3845
25251,21.248,3.1818,0.1,6.2043e-05,620,6.0513e-05,581.08,-1.6827e-05,-0.030601,-2.6353e-05,-71.603,2.3997
25252,20.973,3.0909,0.1,6.7574e-05,675.28,6.6227e-05,640.28,-1.8992e-05,-0.027724,-2.7672e-05,-65.243,2.354
25253,21.064,3.1818,0.1,6.5704e-05,656.59,6.4304e-05,620.45,-1.8276e-05,-0.028553,-2.7203e-05,-67.102,2.3692
25254,20.789,3.0909,0.1,7.1301e-05,712.52,7.0062e-05,679.93,-2.0435e-05,-0.026018,-2.8576e-05,-61.194,2.3236
25255,20.881,3.1818,0.1,6.9411e-05,693.63,6.8125e-05,660.01,-1.972e-05,-0.026746,-2.8091e-05,-62.921,2.3388
25256,20.606,3.0909,0.1,7.5069e-05,750.17,7.3927e-05,719.79,-2.1875e-05,-0.024491,-2.9516e-05,-57.435,2.2932
25257,20.697,3.1818,0.1,7.316e-05,731.1,7.1976e-05,699.77,-2.1161e-05,-0.025136,-2.9016e-05,-59.04,2.3084
25258,20.422,3.0909,0.1,7.8877e-05,788.23,7.7821e-05,759.86,-2.3313e-05,-0.023117,-3.049e-05,-53.948,2.2629
25259,20.514,3.1818,0.1,7.695e-05,768.97,7.5857e-05,739.74,-2.26e-05,-0.023687,-2.9975e-05,-55.438,2.278
25260,20.239,3.0909,0.1,8.2724e-05,826.67,8.1744e-05,800.13,-2.475e-05,-0.021879,-3.1497e-05,-50.712,2.2326
25261,20.33,3.1818,0.1,8.0779e-05,807.24,7.9767e-05,779.92,-2.4037e-05,-0.022385,-3.0967e-05,-52.096,2.2477
25262,20.055,3.0909,0.1,8.6607e-05,865.47,8.5696e-05,840.62,-2.6186e-05,-0.020761,-3.2533e-05,-47.711,2.2024
25263,20.147,3.1818,0.1,8.4646e-05,845.87,8.3705e-05,820.3,-2.5473e-05,-0.02121,-3.1991e-05,-48.996,2.2175
25264,19.872,3.0909,0.1,9.0525e-05,904.63,8.9677e-05,881.32,-2.7622e-05,-0.01974,-3.3599e-05,-44.926,2.1722
25265,19.963,3.1818,0.1,8.8548e-05,884.87,8.7673e-05,860.9,-2.6908e-05,-0.02015,-3.3044e-05,-46.121,2.1873
25266,19.688,3.0909,0.1,9.4477e-05,944.12,9.3685e-05,922.23,-2.9058e-05,-0.018802,-3.4691e-05,-42.342,2.1421
25267,19.78,3.1818,0.1,9.2484e-05,924.21,9.1668e-05,901.7,-2.8344e-05,-0.019172,-3.4124e-05,-43.453,2.1572
25268,19.505,3.0909,0.1,9.8462e-05,983.94,9.7721e-05,963.35,-3.0495e-05,-0.017948,-3.5809e-05,-39.944,2.1121
25269,19.596,3.1818,0.1,9.6454e-05,963.88,9.5691e-05,942.73,-2.978e-05,-0.018274,-3.5231e-05,-40.977,2.1271
25270,19.321,3.0909,0.1,0.00010248,1024.1,0.00010178,1004.7,-3.1934e-05,-0.017165,-3.6951e-05,-37.716,2.0821
25271,19.413,3.1818,0.1,0.00010046,1003.9,9.9742e-05,983.96,-3.1218e-05,-0.017465,-3.6363e-05,-38.677,2.0971
25272,19.138,3.0909,0.1,0.00010653,1064.5,0.00010587,1046.2,-3.3374e-05,-0.016438,-3.8116e-05,-35.645,2.0522
25273,19.229,3.1818,0.1,0.00010449,1044.2,0.00010382,1025.4,-3.2657e-05,-0.016709,-3.7518e-05,-36.541,2.0672
25274,18.954,3.0909,0.1,0.0001106,1105.3,0.00010999,1088,-3.4817e-05,-0.015768,-3.9303e-05,-33.719,2.0224
25275,19.046,3.1818,0.1,0.00010855,1084.8,0.00010792,1067.1,-3.4098e-05,-0.016013,-3.8695e-05,-34.555,2.0373
25276,18.771,3.0909,0.1,0.00011471,1146.3,0.00011413,1130,-3.6262e-05,-0.015143,-4.0509e-05,-31.926,1.9926
25277,18.863,3.1818,0.1,0.00011264,1125.7,0.00011205,1108.9,-3.5542e-05,-0.015372,-3.9893e-05,-32.706,2.0075
25278,18.587,3.0909,0.1,0.00011884,1187.6,0.0001183,1172.2,-3.7711e-05,-0.014559,-4.1735e-05,-30.253,1.963
25279,18.679,3.1818,0.1,0.00011676,1166.8,0.00011621,1151,-3.6988e-05,-0.014764,-4.111e-05,-30.983,1.9778
25280,18.404,3.0909,0.1,0.000123,1229.2,0.00012249,1214.6,-3.9162e-05,-0.014021,-4.2979e-05,-28.691,1.9334
25281,18.496,3.1818,0.1,0.00012091,1208.3,0.00012038,1193.3,-3.8438e-05,-0.014205,-4.2346e-05,-29.376,1.9481
25282,18.22,3.0909,0.1,0.00012719,1271,0.0001267,1257.2,-4.0617e-05,-0.013528,-4.424e-05,-27.231,1.9038
25283,18.312,3.1818,0.1,0.00012509,1250,0.00012459,1235.8,-3.9891e-05,-0.013692,-4.3599e-05,-27.874,1.9186
25284,18.037,3.0909,0.1,0.0001314,1313.1,0.00013094,1300,-4.2076e-05,-0.013062,-4.5517e-05,-25.862,1.8744
25285,18.129,3.1818,0.1,0.00012929,1292,0.00012882,1278.5,-4.1348e-05,-0.01322,-4.4869e-05,-26.467,1.8891
25286,17.853,3.0909,0.1,0.00013564,1355.5,0.00013521,1343,-4.3539e-05,-0.012616,-4.6809e-05,-24.576,1.8451
25287,17.945,3.1818,0.1,0.00013351,1334.2,0.00013307,1321.5,-4.2809e-05,-0.012761,-4.6154e-05,-25.147,1.8597
25288,17.67,3.0909,0.1,0.0001399,1398.1,0.00013949,1386.2,-4.5007e-05,-0.012209,-4.8115e-05,-23.364,1.8158
25289,17.762,3.1818,0.1,0.00013776,1376.7,0.00013734,1364.6,-4.4274e-05,-0.012331,-4.7454e-05,-23.906,1.8304
25290,17.486,3.0909,0.1,0.00014419,1440.9,0.0001438,1429.7,-4.6479e-05,-0.011828,-4.9435e-05,-22.22,1.7867
25291,17.578,3.1818,0.1,0.00014204,1419.4,0.00014164,1407.9,-4.5744e-05,-0.011948,-4.8768e-05,-22.735,1.8012
25292,17.303,3.0909,0.1,0.0001485,1484,0.00014813,1473.3,-4.7956e-05,-0.011463,-5.0767e-05,-21.136,1.7576
25293,17.395,3.1818,0.1,0.00014634,1462.4,0.00014596,1451.5,-4.7218e-05,-0.011571,-5.0095e-05,-21.627,1.7721
25294,17.119,3.0909,0.1,0.00015284,1527.3,0.00015248,1517.1,-4.9438e-05,-0.011121,-5.2112e-05,-20.105,1.7286
25295,17.211,3.1818,0.1,0.00015066,1505.6,0.0001503,1495.2,-4.8697e-05,-0.011218,-5.1434e-05,-20.575,1.7431
25296,16.936,3.0909,0.1,0.00015719,1570.8,0.00015686,1561.2,-5.0925e-05,-0.01079,-5.3468e-05,-19.12,1.6998
25297,17.028,3.1818,0.1,0.00015501,1549,0.00015467,1539.1,-5.0182e-05,-0.010887,-5.2785e-05,-19.572,1.7142
25298,16.753,3.0909,0.1,0.00016157,1614.6,0.00016126,1605.4,-5.2417e-05,-0.010473,-5.4835e-05,-18.175,1.671
25299,16.844,3.1818,0.1,0.00015938,1592.7,0.00015905,1583.3,-5.1671e-05,-0.010558,-5.4147e-05,-18.612,1.6854
25300,16.569,3.0909,0.1,0.00016597,1658.6,0.00016567,1649.9,-5.3915e-05,-0.01018,-5.6211e-05,-17.263,1.6424
25301,16.661,3.1818,0.1,0.00016377,1636.6,0.00016346,1627.6,-5.3166e-05,-0.010254,-5.5519e-05,-17.689,1.6567
25302,16.386,3.0909,0.1,0.0001704,1702.8,0.00017011,1694.5,-5.5419e-05,-0.0099124,-5.7597e-05,-16.38,1.6138
25303,16.477,3.1818,0.1,0.00016818,1680.7,0.00016789,1672.2,-5.4667e-05,-0.0099738,-5.6901e-05,-16.797,1.6281
25304,16.202,3.0909,0.1,0.00017484,1747.2,0.00017457,1739.4,-5.6928e-05,-0.0096511,-5.8992e-05,-15.52,1.5854
25305,16.294,3.1818,0.1,0.00017262,1725,0.00017234,1716.9,-5.6173e-05,-0.0097192,-5.8292e-05,-15.93,1.5996
25306,16.019,3.0909,0.1,0.00017931,1791.8,0.00017905,1784.4,-5.8444e-05,-0.009387,-6.0396e-05,-14.676,1.5571
25307,16.11,3.1818,0.1,0.00017707,1769.5,0.00017681,1761.9,-5.7686e-05,-0.00945,-5.9692e-05,-15.083,1.5712
25308,15.835,3.0909,0.1,0.00018379,1836.7,0.00018355,1829.7,-5.9965e-05,-0.0091489,-6.1807e-05,-13.844,1.5289
25309,15.927,3.1818,0.1,0.00018155,1814.2,0.0001813,1807,-5.9204e-05,-0.0091926,-6.1099e-05,-14.249,1.543
25310,15.652,3.0909,0.1,0.0001883,1881.7,0.00018807,1875.1,-6.1493e-05,-0.0089235,-6.3225e-05,-13.019,1.5009
25311,15.743,3.1818,0.1,0.00018604,1859.1,0.00018581,1852.4,-6.0729e-05,-0.0089748,-6.2514e-05,-13.425,1.5149
25312,15.468,3.0909,0.1,0.00019282,1926.9,0.00019261,1920.8,-6.3028e-05,-0.0086967,-6.465e-05,-12.194,1.4729
25313,15.56,3.1818,0.1,0.00019056,1904.3,0.00019034,1897.9,-6.226e-05,-0.0087412,-6.3936e-05,-12.604,1.4869
25314,15.285,3.0909,0.1,0.00019737,1972.3,0.00019717,1966.6,-6.4569e-05,-0.008483,-6.608e-05,-11.365,1.4451
25315,15.376,3.1818,0.1,0.0001951,1949.6,0.00019489,1943.7,-6.3798e-05,-0.0085211,-6.5365e-05,-11.782,1.459
25316,15.101,3.0909,0.1,0.00020193,2017.9,0.00020175,2012.7,-6.6117e-05,-0.0082672,-6.7517e-05,-10.526,1.4175
25317,15.193,3.1818,0.1,0.00019965,1995.1,0.00019946,1989.6,-6.5342e-05,-0.0083126,-6.6799e-05,-10.952,1.4313
25318,14.918,3.0909,0.1,0.00020652,2063.7,0.00020635,2058.9,-6.7672e-05,-0.0080527,-6.8958e-05,-9.672,1.3899
25319,15.009,3.1818,0.1,0.00020422,2040.8,0.00020405,2035.8,-6.6893e-05,-0.0080878,-6.8238e-05,-10.11,1.4037
25320,14.734,3.0909,0.1,0.00021112,2109.7,0.00021097,2105.3,-6.9234e-05,-0.0078549,-7.0403e-05,-8.7976,1.3626
25321,14.826,3.1818,0.1,0.00020882,2086.7,0.00020866,2082.1,-6.8452e-05,-0.0078813,-6.9682e-05,-9.2507,1.3762
25322,14.551,3.0909,0.1,0.00021574,2155.9,0.0002156,2151.9,-7.0803e-05,-0.0076743,-7.1853e-05,-7.897,1.3353
25323,14.642,3.1818,0.1,0.00021343,2132.8,0.00021328,2128.6,-7.0017e-05,-0.0076884,-7.113e-05,-8.3679,1.3489
25324,14.367,3.0909,0.1,0.00022038,2202.2,0.00022026,2198.7,-7.2379e-05,-0.0074894,-7.3305e-05,-6.9643,1.3082
25325,14.459,3.1818,0.1,0.00021806,2179.1,0.00021793,2175.3,-7.159e-05,-0.0075155,-7.2581e-05,-7.4562,1.3217
25326,14.184,3.0909,0.1,0.00022503,2248.8,0.00022493,2245.7,-7.3964e-05,-0.0072908,-7.476e-05,-5.9936,1.2812
25327,14.276,3.1818,0.1,0.0002227,2225.5,0.00022259,2222.2,-7.317e-05,-0.007311,-7.4035e-05,-6.5097,1.2947
25328,14,3.0909,0.1,0.0002297,2295.4,0.00022962,2292.9,-7.5556e-05,-0.007112,-7.6217e-05,-4.9787,1.2544
25329,14.092,3.1818,0.1,0.00022737,2272.1,0.00022727,2269.3,-7.4758e-05,-0.0071063,-7.5492e-05,-5.5223,1.2678
25330,13.817,3.0909,0.1,0.00023439,2342.3,0.00023432,2340.3,-7.7155e-05,-0.0069366,-7.7675e-05,-3.9129,1.2278
25331,13.909,3.1818,0.1,0.00023205,2318.9,0.00023197,2316.6,-7.6354e-05,-0.0069363,-7.695e-05,-4.4877,1.2411
25332,13.633,3.0909,0.1,0.00023909,2389.3,0.00023905,2387.9,-7.8763e-05,-0.006746,-7.9134e-05,-2.7892,1.2013
25333,13.725,3.1818,0.1,0.00023674,2365.8,0.00023669,2364.1,-7.7958e-05,-0.0067248,-7.8409e-05,-3.399,1.2145
25334,13.45,3.0909,0.1,0.00024381,2436.5,0.00024379,2435.7,-8.038e-05,-0.0065462,-8.0592e-05,-1.6005,1.1749
25335,13.542,3.1818,0.1,0.00024146,2412.9,0.00024142,2411.8,-7.957e-05,-0.0064903,-7.9868e-05,-2.2493,1.1881
25336,13.266,3.0909,0.1,0.00024855,2483.8,0.00024854,2483.6,-8.2005e-05,-0.0061263,-8.2049e-05,-0.33905,1.1488
25337,13.358,3.1818,0.1,0.00024618,2460.1,0.00024617,2459.6,-8.119e-05,-0.006115,-8.1327e-05,-1.0312,1.1618
25338,13.083,3.0909,0.1,0.0002533,2531.2,0.00025332,2531.7,-8.3504e-05,1.0042,-8.3639e-05,-0.0063341,1.1228
25339,13.175,3.1818,0.1,0.00025093,2507.5,0.00025093,2507.7,-8.2783e-05,0.26551,-8.282e-05,-0.0077333,1.1357
25340,12.899,3.0909,0.1,0.00025806,2578.8,0.0002581,2580.1,-8.4956e-05,2.437,-8.5282e-05,-0.006112,1.0969
25341,12.991,3.1818,0.1,0.00025568,2555.1,0.00025571,2555.9,-8.4238e-05,1.6442,-8.4458e-05,-0.0063694,1.1098
25342,12.716,3.0909,0.1,0.00026284,2626.6,0.00026291,2628.6,-8.6405e-05,3.9694,-8.6934e-05,-0.0059097,1.0713
25343,12.808,3.1818,0.1,0.00026045,2602.7,0.00026051,2604.3,-8.5689e-05,3.118,-8.6105e-05,-0.0060927,1.0841
25344,12.532,3.0909,0.1,0.00026763,2674.4,0.00026772,2677.2,-8.7848e-05,5.6115,-8.8596e-05,-0.0057024,1.0458
25345,12.624,3.1818,0.1,0.00026524,2650.6,0.00026532,2652.9,-8.7136e-05,4.696,-8.7762e-05,-0.0058451,1.0585
25346,12.349,3.0909,0.1,0.00027243,2722.4,0.00027256,2726.1,-8.9285e-05,7.3743,-9.0268e-05,-0.0055103,1.0205
25347,12.441,3.1818,0.1,0.00027004,2698.5,0.00027014,2701.7,-8.8577e-05,6.3883,-8.9428e-05,-0.0056323,1.0331
25348,12.165,3.0909,0.1,0.00027724,2770.5,0.0002774,2775.1,-9.0715e-05,9.2696,-9.195e-05,-0.0053307,0.99539
25349,12.257,3.1818,0.1,0.00027484,2746.5,0.00027498,2750.6,-9.0012e-05,8.2064,-9.1105e-05,-0.0054376,1.0079
25350,11.982,3.0909,0.1,0.00028207,2818.7,0.00028226,2824.4,-9.2137e-05,11.31,-9.3643e-05,-0.0051394,0.97046
25351,12.074,3.1818,0.1,0.00027966,2794.7,0.00027983,2799.8,-9.1439e-05,10.162,-9.2792e-05,-0.0052601,0.98288
25352,11.799,3.0909,0.1,0.0002869,2867,0.00028713,2873.8,-9.3548e-05,13.511,-9.5347e-05,-0.0049297,0.94572
25353,11.89,3.1818,0.1,0.00028449,2843,0.0002847,2849.1,-9.2857e-05,12.27,-9.449e-05,-0.0050481,0.95804
25354,11.615,3.0909,0.1,0.00029175,2915.4,0.00029201,2923.3,-9.4947e-05,15.886,-9.7062e-05,-0.0047203,0.92117
25355,11.707,3.1818,0.1,0.00028933,2891.3,0.00028958,2898.6,-9.4264e-05,14.543,-9.62e-05,-0.0048373,0.9334
25356,11.432,3.0909,0.1,0.0002966,2963.9,0.00029691,2973.1,-9.6334e-05,18.452,-9.879e-05,-0.0044861,0.89682
25357,11.523,3.1818,0.1,0.00029418,2939.8,0.00029447,2948.2,-9.5658e-05,16.998,-9.7921e-05,-0.0046278,0.90895
25358,11.248,3.0909,0.1,0.00030146,3012.5,0.00030181,3023,-9.7705e-05,21.227,-0.00010053,-0.0042466,0.87267
25359,11.34,3.1818,0.1,0.00029904,2988.3,0.00029937,2998.1,-9.7039e-05,19.651,-9.9655e-05,-0.0043698,0.8847
25360,11.065,3.0909,0.1,0.00030632,3061.1,0.00030673,3073.1,-9.9058e-05,24.231,-0.00010228,-0.0040207,0.84872
25361,11.156,3.1818,0.1,0.0003039,3036.9,0.00030428,3048.1,-9.8403e-05,22.521,-0.0001014,-0.0041522,0.86065
25362,10.881,3.0909,0.1,0.00031119,3109.8,0.00031165,3123.4,-0.00010039,27.486,-0.00010405,-0.003759,0.82498
25363,10.973,3.1818,0.1,0.00030877,3085.6,0.0003092,3098.3,-9.975e-05,25.63,-0.00010316,-0.0039222,0.8368
25364,10.698,3.0909,0.1,0.00031606,3158.5,0.00031658,3173.9,-0.00010171,31.016,-0.00010583,-0.0034717,0.80145
25365,10.789,3.1818,0.1,0.00031364,3134.3,0.00031413,3148.7,-0.00010108,28.999,-0.00010494,-0.0036346,0.81317
25366,10.514,3.0909,0.1,0.00032094,3207.2,0.00032152,3224.5,-0.00010299,34.847,-0.00010763,-0.0031893,0.77813
25367,10.606,3.1818,0.1,0.00031852,3183,0.00031906,3199.2,-0.00010238,32.652,-0.00010673,-0.0033555,0.78974
25368,10.331,3.0909,0.1,0.00032582,3256,0.00032647,3275.3,-0.00010426,39.007,-0.00010945,-0.0029081,0.75503
25369,10.422,3.1818,0.1,0.0003234,3231.8,0.00032401,3249.9,-0.00010366,36.618,-0.00010853,-0.0030792,0.76653
25370,10.147,3.0909,0.1,0.0003307,3304.7,0.00033142,3326.3,-0.00010549,43.529,-0.00011128,-0.0026031,0.73215
25371,10.239,3.1818,0.1,0.00032828,3280.6,0.00032896,3300.8,-0.00010491,40.926,-0.00011035,-0.0028045,0.74354
25372,9.9637,3.0909,0.1,0.00033558,3353.5,0.00033638,3377.4,-0.00010668,48.448,-0.00011313,-0.0022642,0.70949
25373,10.055,3.1818,0.1,0.00033316,3329.3,0.00033392,3351.9,-0.00010613,45.61,-0.0001122,-0.002483,0.72077
25374,9.7802,3.0909,0.1,0.00034046,3402.2,0.00034134,3428.8,-0.00010784,53.803,-0.00011501,-0.0019136,0.68706
25375,9.872,3.1818,0.1,0.00033805,3378.1,0.00033888,3403.2,-0.00010731,50.705,-0.00011406,-0.0021428,0.69822
25376,9.5968,3.0909,0.1,0.00034533,3451,0.00034631,3480.4,-0.00010896,59.638,-0.0001169,-0.0015505,0.66486
25377,9.6885,3.1818,0.1,0.00034293,3426.9,0.00034385,3454.7,-0.00010845,56.253,-0.00011594,-0.0018014,0.67591
25378,9.4133,3.0909,0.1,0.00035021,3499.7,0.00035129,3532.2,-0.00011004,65.999,-0.00011882,-0.0011721,0.64289
25379,9.505,3.1818,0.1,0.0003478,3475.6,0.00034882,3506.4,-0.00010956,62.297,-0.00011785,-0.0014399,0.65382
25380,9.2298,3.0909,0.1,0.00035508,3548.4,0.00035627,3584.3,-0.00011106,72.941,-0.00012077,-0.00078468,0.62116
25381,9.3215,3.1818,0.1,0.00035268,3524.4,0.0003538,3558.3,-0.00011061,68.888,-0.00011978,-0.0010719,0.63197
25382,9.0463,3.0909,0.1,0.00035995,3597,0.00036126,3636.6,-0.00011203,80.522,-0.00012275,-0.00039286,0.59967
25383,9.1381,3.1818,0.1,0.00035755,3573.1,0.00035879,3610.5,-0.00011162,76.081,-0.00012174,-0.00069775,0.61036
25384,8.8628,3.0909,0.1,0.00036482,3645.7,0.00036625,3689.3,-0.00011294,88.808,-0.00012476,-5.9515e-06,0.57842
25385,8.9546,3.1818,0.1,0.00036243,3621.8,0.00036378,3663,-0.00011256,83.936,-0.00012374,-0.00032699,0.58898
25386,8.6794,3.0909,0.1,0.0003697,3694.4,0.00037127,3742.4,-0.00011379,97.871,-0.00012682,0.00036281,0.55742
25387,8.7711,3.1818,0.1,0.0003673,3670.5,0.00036879,3715.9,-0.00011345,92.52,-0.00012576,2.9862e-05,0.56786
25388,8.4959,3.0909,0.1,0.00037458,3743.2,0.0003763,3796,-0.00011457,107.79,-0.00012891,0.00069396,0.53666
25389,8.5876,3.1818,0.1,0.00037218,3719.3,0.00037381,3769.2,-0.00011427,101.91,-0.00012783,0.0003556,0.54698
25390,8.3124,3.0909,0.1,0.00037948,3792.1,0.00038136,3850.1,-0.00011527,118.65,-0.00013106,0.00096011,0.51617
25391,8.4041,3.1818,0.1,0.00037707,3768.1,0.00037886,3823,-0.00011502,112.18,-0.00012995,0.00062627,0.52635
25392,8.1289,3.0909,0.1,0.00038439,3841.3,0.00038645,3904.9,-0.00011589,130.56,-0.00013326,0.001123,0.49592
25393,8.2206,3.1818,0.1,0.00038198,3817.2,0.00038393,3877.4,-0.00011569,123.43,-0.00013212,0.00080869,0.50598
25394,7.9454,3.0909,0.1,0.00038935,3890.8,0.00039159,3960.6,-0.00011642,143.61,-0.00013553,0.0011296,0.47594
25395,8.0372,3.1818,0.1,0.00038692,3866.5,0.00038905,3932.6,-0.00011628,135.75,-0.00013435,0.00085713,0.48587
25396,7.7619,3.0909,0.1,0.00039436,3940.9,0.00039681,4017.5,-0.00011686,157.92,-0.00013788,0.00090662,0.45622
25397,7.8537,3.1818,0.1,0.0003919,3916.3,0.00039423,3988.8,-0.00011678,149.26,-0.00013665,0.00070772,0.46602
25398,7.5785,3.0909,0.1,0.00039945,3991.7,0.00040212,4075.7,-0.00011722,173.6,-0.00014032,0.00035327,0.43677
25399,7.6702,3.1818,0.1,0.00039694,3966.7,0.00039948,4046.2,-0.0001172,164.05,-0.00013903,0.00027367,0.44643
25400,7.395,3.0909,0.1,0.00040465,4043.7,0.00040756,4135.7,-0.00011748,190.79,-0.00014287,-0.00066805,0.41759
25401,7.4867,3.1818,0.1,0.00040208,4018,0.00040484,4105.1,-0.00011752,180.26,-0.00014152,-0.00056472,0.42712
25402,7.2115,3.0909,0.1,0.00041001,4097.3,0.00041317,4198,-0.00011765,209.62,-0.00014555,-0.0023454,0.39869
25403,7.3032,3.1818,0.1,0.00040735,4070.7,0.00041036,4166.1,-0.00011776,198,-0.00014411,-0.0019692,0.40807
25404,7.028,3.0909,0.1,0.00041558,4153,0.00041902,4263.3,-0.00011775,230.2,-0.00014839,-0.0049371,0.38006
25405,7.1198,3.1818,0.1,0.0004128,4125.1,0.00041607,4229.5,-0.00011792,217.41,-0.00014685,-0.0041613,0.38931
25406,6.8445,3.0909,0.1,0.00042146,4211.6,0.00042518,4332.3,-0.00011778,252.66,-0.00015141,-0.0087963,0.36171
25407,6.9363,3.1818,0.1,0.00041849,4182,0.00042204,4296.2,-0.000118,238.59,-0.00014975,-0.0074431,0.37082
25408,6.6611,3.0909,0.1,0.00042773,4274.3,0.00043176,4406.1,-0.00011777,277.09,-0.00015465,-0.014408,0.34365
25409,6.7528,3.1818,0.1,0.00042452,4242.3,0.00042837,4367.1,-0.00011803,261.66,-0.00015285,-0.012228,0.35262
25410,6.4776,3.0909,0.1,0.00043453,4342.3,0.0004389,4486.1,-0.00011777,303.57,-0.00015817,-0.022444,0.32588
25411,6.5693,3.1818,0.1,0.000431,4307,0.00043516,4443.2,-0.00011804,286.7,-0.0001562,-0.019081,0.3347
25412,6.2941,3.0909,0.1,0.00044204,4417.4,0.00044676,4574,-0.00011782,332.08,-0.00016202,-0.033833,0.30841
25413,6.3858,3.1818,0.1,0.00043808,4377.8,0.00044257,4526.2,-0.00011807,313.73,-0.00015983,-0.028782,0.31708
25414,6.1106,3.0909,0.1,0.0004505,4501.9,0.00045557,4672.2,-0.00011801,362.54,-0.00016627,-0.049871,0.29124
25415,6.2024,3.1818,0.1,0.00044596,4456.5,0.0004508,4618,-0.0001182,342.74,-0.00016382,-0.042409,0.29976
25416,5.9271,3.0909,0.1,0.00046021,4598.9,0.00046565,4783.5,-0.00011846,394.72,-0.00017101,-0.072375,0.27437
25417,6.0189,3.1818,0.1,0.00045489,4545.8,0.00046009,4721,-0.00011852,373.56,-0.00016824,-0.061458,0.28274
25418,5.7437,3.0909,0.1,0.00047156,4712.3,0.00047738,4911.8,-0.00011935,428.16,-0.00017635,-0.10389,0.25782
25419,5.8354,3.1818,0.1,0.00046522,4649,0.00047079,4838.6,-0.00011916,405.88,-0.00017319,-0.088011,0.26603
25420,5.5602,3.0909,0.1,0.00048508,4847.4,0.00049128,5061.8,-0.00012091,462.09,-0.00018243,-0.148,0.24159
25421,5.6519,3.1818,0.1,0.00047738,4770.5,0.00048332,4974.8,-0.00012033,439.14,-0.0001788,-0.12497,0.24964
25422,5.3767,3.0909,0.1,0.00050144,5010.9,0.00050802,5240,-0.00012347,495.25,-0.00018942,-0.20968,0.22569
25423,5.4684,3.1818,0.1,0.00049194,4916,0.00049827,5135.1,-0.0001223,472.41,-0.00018519,-0.17639,0.23357
25424,5.1932,3.0909,0.1,0.00052155,5211.9,0.00052849,5454.6,-0.00012752,525.66,-0.00019752,-0.2957,0.21013
25425,5.285,3.1818,0.1,0.00050968,5093.2,0.00051637,5326.4,-0.00012543,504.18,-0.00019257,-0.2478,0.21784
25426,5.0097,3.0909,0.1,0.00054659,5462.1,0.00055385,5716.2,-0.00013369,550.26,-0.00020698,-0.41489,0.19493
25427,5.1015,3.1818,0.1,0.00053157,5312.1,0.00053861,5557.9,-0.00013027,532.16,-0.00020115,-0.34666,0.20246
25428,4.8263,3.0909,0.1,0.00057811,5777.1,0.00058562,6038.3,-0.0001429,564.45,-0.0002181,-0.57748,0.1801
25429,4.918,3.1818,0.1,0.00055895,5585.7,0.00056629,5841.3,-0.00013756,552.84,-0.0002112,-0.48244,0.18744
25430,4.6428,3.0909,0.1,0.00061812,6176.9,0.00062573,6438,-0.0001564,561.36,-0.00023122,-0.79198,0.16567
25431,4.7345,3.1818,0.1,0.00059355,5931.4,0.00060108,6191.5,-0.00014831,560.95,-0.00022305,-0.66571,0.1728
25432,4.4593,3.0909,0.1,0.00066914,6686.8,0.00067657,6936,-0.00017586,531.17,-0.00024669,-1.0554,0.15165
25433,4.551,3.1818,0.1,0.0006376,6371.6,0.00064514,6627.7,-0.00016392,548.76,-0.00023708,-0.90436,0.15857
25434,4.2758,3.0909,0.1,0.00073409,7335.9,0.00074081,7554.6,-0.00020333,460.69,-0.00026482,-1.3356,0.1381
25435,4.3676,3.1818,0.1,0.00069396,6934.8,0.00070114,7172.9,-0.00018627,505.25,-0.00025367,-1.1961,0.14477
25436,4.0923,3.0909,0.1,0.00081567,8151.1,0.00082082,8312.5,-0.00024097,334.62,-0.0002857,-1.5139,0.12503
25437,4.1841,3.1818,0.1,0.0007659,7653.8,0.0007721,7852.4,-0.00021765,415.76,-0.00027318,-1.484,0.13145
25438,3.9088,3.0909,0.1,0.0009147,9140.7,0.00091699,9209.8,-0.00028994,141.34,-0.00030894,-1.4358,0.11252
25439,4.0006,3.1818,0.1,0.00085648,8558.9,0.00086063,8686.8,-0.00026043,263.57,-0.00029574,-1.6903,0.11864
25440,3.7254,3.0909,0.1,0.0010265,10258,0.0010246,10201,-0.00033317,-0.46831,-0.00034819,-113.27,0.10063
25441,3.8171,3.1818,0.1,0.00096631,9656.5,0.00096692,9674.3,-0.00031557,38.174,-0.00032098,-2.4587,0.10642
25442,3.5419,3.0909,0.1,0.0011368,11360,0.0011297,11163,-0.00035592,0.36078,-0.00040707,-383.97,0.089426
25443,3.6336,3.1818,0.1,0.0010887,10879,0.0010842,10752,-0.00034674,0.25447,-0.00038015,-250.72,0.094844
25444,3.4501,3.1818,0.1,0.0012026,12017,0.0011926,11743,-0.00036991,2.4716,-0.00044128,-533.82,0.083997
25445,3.3584,3.0909,0.1,0.0012204,12195,0.0012095,11896,-0.00037348,1.781,-0.00045098,-580.51,0.078981
25446,23.725,3.2727,0.1,2.0788e-05,207.74,1.1586e-05,58.954,3.7086e-06,-0.2297,-1.9147e-05,-171.95,2.8143
25447,23.817,3.3636,0.1,1.9902e-05,198.89,9.7865e-06,39.584,4.4899e-06,-0.21297,-1.8932e-05,-176.19,2.8297
25448,23.908,3.2727,0.1,1.9412e-05,193.99,8.2549e-06,22.262,5.2339e-06,-0.43737,-1.8941e-05,-182.08,2.8451
25449,23.541,3.2727,0.1,2.2716e-05,227.01,1.5137e-05,97.823,2.0873e-06,-0.23008,-1.9407e-05,-161.73,2.7834
25450,23.633,3.3636,0.1,2.1607e-05,215.92,1.3333e-05,78.4,2.8544e-06,-0.33125,-1.9174e-05,-165.84,2.7988
25451,23.358,3.2727,0.1,2.501e-05,249.92,1.8687e-05,136.57,4.9225e-07,-0.13321,-1.9704e-05,-151.88,2.7526
25452,23.45,3.3636,0.1,2.3733e-05,237.16,1.6877e-05,117.21,1.2584e-06,-0.14488,-1.9452e-05,-155.75,2.768
25453,23.174,3.2727,0.1,2.7581e-05,275.62,2.2239e-05,175.17,-1.0895e-06,-0.10992,-2.0043e-05,-142.52,2.7218
25454,23.266,3.3636,0.1,2.6179e-05,261.61,2.0427e-05,155.85,-3.3209e-07,-0.12684,-1.977e-05,-146.17,2.7372
25455,22.991,3.2727,0.1,3.0363e-05,303.42,2.5797e-05,213.67,-2.6524e-06,-0.087039,-2.0424e-05,-133.61,2.691
25456,23.083,3.3636,0.1,2.8866e-05,288.46,2.3979e-05,194.37,-1.9021e-06,-0.095116,-2.0131e-05,-137.06,2.7064
25457,22.807,3.2727,0.1,3.3309e-05,332.86,2.9364e-05,252.1,-4.1986e-06,-0.073541,-2.085e-05,-125.18,2.6602
25458,22.899,3.3636,0.1,3.1738e-05,317.17,2.754e-05,232.8,-3.4551e-06,-0.079864,-2.0536e-05,-128.42,2.6756
25459,22.624,3.2727,0.1,3.6385e-05,363.6,3.2944e-05,290.51,-5.7287e-06,-0.063154,-2.1322e-05,-117.22,2.6295
25460,22.716,3.3636,0.1,3.4756e-05,347.32,3.1112e-05,271.2,-4.9914e-06,-0.067551,-2.0987e-05,-120.26,2.6448
25461,22.44,3.2727,0.1,3.9567e-05,395.4,3.6541e-05,328.93,-7.2442e-06,-0.055421,-2.1841e-05,-109.73,2.5988
25462,22.532,3.3636,0.1,3.7892e-05,378.66,3.47e-05,309.59,-6.5124e-06,-0.058791,-2.1486e-05,-112.56,2.6141
25463,22.257,3.2727,0.1,4.2839e-05,428.1,4.0158e-05,367.4,-8.7465e-06,-0.049313,-2.2407e-05,-102.69,2.568
25464,22.349,3.3636,0.1,4.1125e-05,410.96,3.8307e-05,348.03,-8.0195e-06,-0.051915,-2.2032e-05,-105.34,2.5834
25465,22.073,3.2727,0.1,4.6189e-05,461.57,4.3798e-05,405.95,-1.0237e-05,-0.044401,-2.3019e-05,-96.086,2.5374
25466,22.165,3.3636,0.1,4.4441e-05,444.11,4.1936e-05,386.53,-9.5141e-06,-0.046471,-2.2626e-05,-98.562,2.5527
25467,21.89,3.2727,0.1,4.9608e-05,495.74,4.7462e-05,444.61,-1.1717e-05,-0.040353,-2.3679e-05,-89.915,2.5067
25468,21.982,3.3636,0.1,4.7831e-05,477.98,4.5589e-05,425.13,-1.0998e-05,-0.042026,-2.3266e-05,-92.224,2.522
25469,21.706,3.2727,0.1,5.3089e-05,530.52,5.1154e-05,483.4,-1.3188e-05,-0.036956,-2.4383e-05,-84.153,2.4761
25470,21.798,3.3636,0.1,5.1286e-05,512.5,4.9269e-05,463.86,-1.2472e-05,-0.038332,-2.3953e-05,-86.306,2.4914
25471,21.523,3.2727,0.1,5.6627e-05,565.88,5.4873e-05,522.35,-1.4651e-05,-0.034057,-2.5132e-05,-78.782,2.4455
25472,21.615,3.3636,0.1,5.48e-05,547.62,5.2976e-05,502.73,-1.3937e-05,-0.035201,-2.4685e-05,-80.787,2.4608
25473,21.34,3.2727,0.1,6.0218e-05,601.76,5.8622e-05,561.45,-1.6107e-05,-0.03156,-2.5923e-05,-73.782,2.415
25474,21.431,3.3636,0.1,5.8369e-05,583.28,5.6712e-05,541.76,-1.5395e-05,-0.032515,-2.5459e-05,-75.649,2.4302
25475,21.156,3.2727,0.1,6.3857e-05,638.13,6.2399e-05,600.74,-1.7558e-05,-0.029382,-2.6755e-05,-69.132,2.3845
25476,21.248,3.3636,0.1,6.1988e-05,619.46,6.0477e-05,580.96,-1.6848e-05,-0.030195,-2.6276e-05,-70.87,2.3997
25477,20.973,3.2727,0.1,6.7544e-05,674.97,6.6207e-05,640.21,-1.9004e-05,-0.027463,-2.7626e-05,-64.811,2.354
25478,21.064,3.3636,0.1,6.5656e-05,656.1,6.4272e-05,620.35,-1.8295e-05,-0.028154,-2.7132e-05,-66.429,2.3692
25479,20.789,3.2727,0.1,7.1274e-05,712.24,7.0044e-05,679.88,-2.0446e-05,-0.025762,-2.8535e-05,-60.799,2.3236
25480,20.881,3.3636,0.1,6.9367e-05,693.2,6.8097e-05,659.93,-1.9738e-05,-0.026353,-2.8027e-05,-62.305,2.3388
25481,20.606,3.2727,0.1,7.5045e-05,749.93,7.3911e-05,719.75,-2.1886e-05,-0.024238,-2.9479e-05,-57.075,2.2932
25482,20.697,3.3636,0.1,7.3122e-05,730.72,7.1951e-05,699.71,-2.1178e-05,-0.02475,-2.8957e-05,-58.476,2.3084
25483,20.422,3.2727,0.1,7.8856e-05,788.02,7.7807e-05,759.83,-2.3323e-05,-0.022868,-3.0457e-05,-53.62,2.2629
25484,20.514,3.3636,0.1,7.6917e-05,768.64,7.5835e-05,739.69,-2.2615e-05,-0.023309,-2.9922e-05,-54.925,2.278
25485,20.239,3.2727,0.1,8.2706e-05,826.49,8.1732e-05,800.12,-2.4759e-05,-0.021635,-3.1466e-05,-50.414,2.2326
25486,20.33,3.3636,0.1,8.075e-05,806.95,7.9748e-05,779.88,-2.4051e-05,-0.022015,-3.092e-05,-51.63,2.2477
25487,20.055,3.2727,0.1,8.6591e-05,865.32,8.5686e-05,840.61,-2.6195e-05,-0.020522,-3.2506e-05,-47.441,2.2024
25488,20.147,3.3636,0.1,8.4621e-05,845.62,8.3689e-05,820.28,-2.5486e-05,-0.020846,-3.1948e-05,-48.573,2.2175
25489,19.872,3.2727,0.1,9.0512e-05,904.5,8.9669e-05,881.32,-2.763e-05,-0.019507,-3.3574e-05,-44.682,2.1722
25490,19.963,3.3636,0.1,8.8527e-05,884.66,8.766e-05,860.89,-2.6921e-05,-0.019795,-3.3005e-05,-45.738,2.1873
25491,19.688,3.2727,0.1,9.4466e-05,944.01,9.3679e-05,922.24,-2.9066e-05,-0.018573,-3.4669e-05,-42.122,2.1421
25492,19.78,3.3636,0.1,9.2467e-05,924.03,9.1658e-05,901.71,-2.8355e-05,-0.018823,-3.409e-05,-43.107,2.1571
25493,19.505,3.2727,0.1,9.8453e-05,983.85,9.7717e-05,963.37,-3.0502e-05,-0.017724,-3.579e-05,-39.746,2.1121
25494,19.596,3.3636,0.1,9.644e-05,963.73,9.5683e-05,942.75,-2.9791e-05,-0.017933,-3.5201e-05,-40.665,2.1271
25495,19.321,3.2727,0.1,0.00010247,1024,0.00010178,1004.7,-3.1941e-05,-0.016945,-3.6934e-05,-37.538,2.0821
25496,19.413,3.3636,0.1,0.00010044,1003.8,9.9736e-05,983.99,-3.1228e-05,-0.01713,-3.6336e-05,-38.397,2.0971
25497,19.138,3.2727,0.1,0.00010652,1064.5,0.00010587,1046.3,-3.3381e-05,-0.016221,-3.8101e-05,-35.486,2.0522
25498,19.229,3.3636,0.1,0.00010448,1044.1,0.00010381,1025.5,-3.2666e-05,-0.01638,-3.7494e-05,-36.29,2.0671
25499,18.954,3.2727,0.1,0.0001106,1105.2,0.00010999,1088,-3.4823e-05,-0.015556,-3.929e-05,-33.577,2.0224
25500,19.046,3.3636,0.1,0.00010855,1084.7,0.00010792,1067.1,-3.4107e-05,-0.01569,-3.8674e-05,-34.33,2.0373
25501,18.771,3.2727,0.1,0.00011471,1146.3,0.00011413,1130,-3.6268e-05,-0.014935,-4.0498e-05,-31.799,1.9926
25502,18.863,3.3636,0.1,0.00011264,1125.6,0.00011205,1109,-3.555e-05,-0.015054,-3.9875e-05,-32.506,2.0075
25503,18.587,3.2727,0.1,0.00011884,1187.6,0.0001183,1172.2,-3.7716e-05,-0.014354,-4.1725e-05,-30.141,1.9629
25504,18.679,3.3636,0.1,0.00011676,1166.8,0.00011621,1151.1,-3.6996e-05,-0.014453,-4.1095e-05,-30.806,1.9777
25505,18.404,3.2727,0.1,0.000123,1229.2,0.00012249,1214.6,-3.9167e-05,-0.01382,-4.2971e-05,-28.593,1.9333
25506,18.496,3.3636,0.1,0.00012091,1208.3,0.00012039,1193.4,-3.8446e-05,-0.0139,-4.2333e-05,-29.219,1.9481
25507,18.22,3.2727,0.1,0.00012719,1271,0.00012671,1257.2,-4.0622e-05,-0.01333,-4.4233e-05,-27.144,1.9038
25508,18.312,3.3636,0.1,0.00012509,1250,0.00012459,1235.9,-3.9898e-05,-0.01339,-4.3588e-05,-27.736,1.9185
25509,18.037,3.2727,0.1,0.0001314,1313.1,0.00013095,1300,-4.2081e-05,-0.012866,-4.5511e-05,-25.787,1.8744
25510,18.129,3.3636,0.1,0.00012929,1292,0.00012882,1278.6,-4.1355e-05,-0.012923,-4.486e-05,-26.347,1.8891
25511,17.853,3.2727,0.1,0.00013564,1355.5,0.00013521,1343.1,-4.3544e-05,-0.012423,-4.6804e-05,-24.511,1.845
25512,17.945,3.3636,0.1,0.00013352,1334.3,0.00013307,1321.5,-4.2815e-05,-0.012468,-4.6147e-05,-25.044,1.8597
25513,17.67,3.2727,0.1,0.00013991,1398.1,0.0001395,1386.3,-4.5011e-05,-0.012018,-4.8112e-05,-23.31,1.8158
25514,17.762,3.3636,0.1,0.00013777,1376.7,0.00013735,1364.7,-4.428e-05,-0.012042,-4.7448e-05,-23.817,1.8304
25515,17.486,3.2727,0.1,0.0001442,1441,0.0001438,1429.7,-4.6483e-05,-0.01164,-4.9432e-05,-22.175,1.7866
25516,17.578,3.3636,0.1,0.00014205,1419.5,0.00014165,1408,-4.575e-05,-0.011662,-4.8764e-05,-22.66,1.8012
25517,17.303,3.2727,0.1,0.00014851,1484,0.00014814,1473.4,-4.7959e-05,-0.011276,-5.0766e-05,-21.099,1.7576
25518,17.395,3.3636,0.1,0.00014635,1462.5,0.00014597,1451.6,-4.7224e-05,-0.011288,-5.0092e-05,-21.565,1.7721
25519,17.119,3.2727,0.1,0.00015284,1527.4,0.00015249,1517.2,-4.9441e-05,-0.010935,-5.2111e-05,-20.075,1.7286
25520,17.211,3.3636,0.1,0.00015067,1505.7,0.00015031,1495.3,-4.8702e-05,-0.010938,-5.1433e-05,-20.525,1.743
25521,16.936,3.2727,0.1,0.0001572,1570.9,0.00015687,1561.3,-5.0928e-05,-0.010607,-5.3468e-05,-19.098,1.6997
25522,17.028,3.3636,0.1,0.00015502,1549.1,0.00015468,1539.3,-5.0186e-05,-0.010611,-5.2785e-05,-19.534,1.7141
25523,16.753,3.2727,0.1,0.00016158,1614.7,0.00016126,1605.5,-5.242e-05,-0.010291,-5.4836e-05,-18.159,1.671
25524,16.844,3.3636,0.1,0.00015939,1592.8,0.00015906,1583.4,-5.1676e-05,-0.010284,-5.4148e-05,-18.585,1.6853
25525,16.569,3.2727,0.1,0.00016598,1658.7,0.00016568,1650,-5.3918e-05,-0.010001,-5.6213e-05,-17.255,1.6423
25526,16.661,3.3636,0.1,0.00016378,1636.7,0.00016347,1627.8,-5.3171e-05,-0.0099832,-5.5521e-05,-17.672,1.6566
25527,16.386,3.2727,0.1,0.00017041,1702.9,0.00017012,1694.6,-5.5421e-05,-0.0097337,-5.76e-05,-16.378,1.6138
25528,16.477,3.3636,0.1,0.00016819,1680.8,0.0001679,1672.3,-5.4671e-05,-0.0097044,-5.6904e-05,-16.79,1.628
25529,16.202,3.2727,0.1,0.00017485,1747.3,0.00017458,1739.5,-5.6931e-05,-0.0094716,-5.8996e-05,-15.524,1.5854
25530,16.294,3.3636,0.1,0.00017263,1725.1,0.00017235,1717.1,-5.6177e-05,-0.009451,-5.8296e-05,-15.932,1.5995
25531,16.019,3.2727,0.1,0.00017932,1791.9,0.00017906,1784.5,-5.8446e-05,-0.0092093,-6.0399e-05,-14.686,1.5571
25532,16.11,3.3636,0.1,0.00017708,1769.6,0.00017682,1762,-5.7689e-05,-0.0091837,-5.9697e-05,-15.094,1.5712
25533,15.835,3.2727,0.1,0.0001838,1836.8,0.00018356,1829.8,-5.9968e-05,-0.0089723,-6.1811e-05,-13.86,1.5289
25534,15.927,3.3636,0.1,0.00018156,1814.4,0.00018131,1807.2,-5.9208e-05,-0.0089269,-6.1105e-05,-14.269,1.5429
25535,15.652,3.2727,0.1,0.00018831,1881.8,0.00018808,1875.2,-6.1495e-05,-0.0087464,-6.323e-05,-13.04,1.5008
25536,15.743,3.3636,0.1,0.00018606,1859.3,0.00018582,1852.5,-6.0732e-05,-0.0087096,-6.2521e-05,-13.453,1.5148
25537,15.468,3.2727,0.1,0.00019283,1927,0.00019262,1920.9,-6.303e-05,-0.0085194,-6.4655e-05,-12.221,1.4729
25538,15.56,3.3636,0.1,0.00019057,1904.4,0.00019036,1898.1,-6.2263e-05,-0.0084748,-6.3944e-05,-12.641,1.4868
25539,15.285,3.2727,0.1,0.00019738,1972.4,0.00019718,1966.7,-6.4571e-05,-0.0083042,-6.6087e-05,-11.398,1.4451
25540,15.376,3.3636,0.1,0.00019511,1949.8,0.00019491,1943.8,-6.3801e-05,-0.0082543,-6.5373e-05,-11.827,1.4589
25541,15.101,3.2727,0.1,0.00020195,2018.1,0.00020176,2012.7,-6.6119e-05,-0.0080864,-6.7524e-05,-10.565,1.4174
25542,15.193,3.3636,0.1,0.00019967,1995.3,0.00019948,1989.8,-6.5345e-05,-0.0080433,-6.6808e-05,-11.006,1.4312
25543,14.918,3.2727,0.1,0.00020653,2063.9,0.00020636,2059,-6.7673e-05,-0.0078689,-6.8965e-05,-9.7168,1.3899
25544,15.009,3.3636,0.1,0.00020424,2041,0.00020407,2035.9,-6.6896e-05,-0.0078156,-6.8249e-05,-10.173,1.4036
25545,14.734,3.2727,0.1,0.00021113,2109.8,0.00021098,2105.4,-6.9235e-05,-0.0076663,-7.0412e-05,-8.8485,1.3625
25546,14.826,3.3636,0.1,0.00020883,2086.9,0.00020867,2082.2,-6.8454e-05,-0.0076031,-6.9693e-05,-9.3223,1.3761
25547,14.551,3.2727,0.1,0.00021575,2156,0.00021561,2152,-7.0804e-05,-0.0074797,-7.1862e-05,-7.9542,1.3353
25548,14.642,3.3636,0.1,0.00021345,2133,0.0002133,2128.7,-7.0019e-05,-0.0074025,-7.1142e-05,-8.4489,1.3488
25549,14.367,3.2727,0.1,0.00022039,2202.4,0.00022027,2198.8,-7.238e-05,-0.0072852,-7.3315e-05,-7.0282,1.3081
25550,14.459,3.3636,0.1,0.00021808,2179.3,0.00021795,2175.5,-7.1591e-05,-0.0072194,-7.2595e-05,-7.5469,1.3216
25551,14.184,3.2727,0.1,0.00022504,2248.9,0.00022494,2245.8,-7.3964e-05,-0.0070717,-7.4771e-05,-6.0645,1.2812
25552,14.276,3.3636,0.1,0.00022272,2225.7,0.00022261,2222.4,-7.3171e-05,-0.0069983,-7.405e-05,-6.6106,1.2946
25553,14,3.2727,0.1,0.00022972,2295.6,0.00022963,2293,-7.5556e-05,-0.0068717,-7.6228e-05,-5.057,1.2544
25554,14.092,3.3636,0.1,0.00022739,2272.3,0.00022729,2269.5,-7.4759e-05,-0.0067692,-7.5508e-05,-5.6339,1.2677
25555,13.817,3.2727,0.1,0.0002344,2342.4,0.00023434,2340.4,-7.7156e-05,-0.0066595,-7.7687e-05,-3.999,1.2277
25556,13.909,3.3636,0.1,0.00023207,2319.1,0.00023199,2316.8,-7.6355e-05,-0.0065596,-7.6967e-05,-4.6106,1.241
25557,13.633,3.2727,0.1,0.00023911,2389.4,0.00023906,2388,-7.8764e-05,-0.006397,-7.9147e-05,-2.8838,1.2012
25558,13.725,3.3636,0.1,0.00023677,2366,0.00023671,2364.3,-7.7958e-05,-0.0062789,-7.8428e-05,-3.5341,1.2144
25559,13.45,3.2727,0.1,0.00024383,2436.6,0.0002438,2435.8,-8.038e-05,-0.0060167,-8.0606e-05,-1.7043,1.1749
25560,13.542,3.3636,0.1,0.00024148,2413.1,0.00024144,2411.9,-7.957e-05,-0.0059013,-7.9888e-05,-2.3975,1.188
25561,13.266,3.2727,0.1,0.00024857,2483.9,0.00024856,2483.7,-8.2004e-05,-0.0043938,-8.2064e-05,-0.45368,1.1487
25562,13.358,3.3636,0.1,0.00024621,2460.4,0.00024619,2459.8,-8.119e-05,-0.0050841,-8.1348e-05,-1.1937,1.1617
25563,13.083,3.2727,0.1,0.00025332,2531.4,0.00025333,2531.8,-8.352e-05,0.8817,-8.3638e-05,-0.0071542,1.1227
25564,13.175,3.3636,0.1,0.00025095,2507.8,0.00025095,2507.8,-8.2805e-05,0.10181,-8.2821e-05,-0.020492,1.1357
25565,12.899,3.2727,0.1,0.00025808,2579,0.00025812,2580.2,-8.4974e-05,2.3026,-8.5281e-05,-0.0063875,1.0969
25566,12.991,3.3636,0.1,0.00025571,2555.3,0.00025573,2556.1,-8.4263e-05,1.4522,-8.4457e-05,-0.0070919,1.1097
25567,12.716,3.2727,0.1,0.00026286,2626.8,0.00026292,2628.7,-8.6423e-05,3.8226,-8.6933e-05,-0.0060543,1.0712
25568,12.808,3.3636,0.1,0.00026048,2603,0.00026053,2604.5,-8.5716e-05,2.9081,-8.6104e-05,-0.0064043,1.084
25569,12.532,3.2727,0.1,0.00026765,2674.6,0.00026774,2677.4,-8.7868e-05,5.4513,-8.8594e-05,-0.0057908,1.0457
25570,12.624,3.3636,0.1,0.00026527,2650.9,0.00026534,2653.1,-8.7165e-05,4.4668,-8.776e-05,-0.0060214,1.0584
25571,12.349,3.2727,0.1,0.00027245,2722.6,0.00027257,2726.2,-8.9307e-05,7.1994,-9.0266e-05,-0.0055688,1.0204
25572,12.441,3.3636,0.1,0.00027007,2698.8,0.00027017,2701.9,-8.8609e-05,6.1382,-8.9426e-05,-0.0057438,1.033
25573,12.165,3.2727,0.1,0.00027727,2770.8,0.00027742,2775.3,-9.0739e-05,9.0788,-9.1948e-05,-0.005372,0.99533
25574,12.257,3.3636,0.1,0.00027488,2746.9,0.00027501,2750.8,-9.0046e-05,7.9335,-9.1102e-05,-0.0055131,1.0078
25575,11.982,3.2727,0.1,0.00028209,2819,0.00028228,2824.5,-9.2162e-05,11.102,-9.364e-05,-0.0051712,0.9704
25576,12.074,3.3636,0.1,0.0002797,2795.1,0.00027986,2800,-9.1475e-05,9.8645,-9.2789e-05,-0.0053152,0.98279
25577,11.799,3.2727,0.1,0.00028693,2867.3,0.00028715,2873.9,-9.3575e-05,13.283,-9.5344e-05,-0.0049564,0.94566
25578,11.89,3.3636,0.1,0.00028453,2843.3,0.00028473,2849.3,-9.2896e-05,11.944,-9.4487e-05,-0.0050915,0.95795
25579,11.615,3.2727,0.1,0.00029177,2915.7,0.00029204,2923.5,-9.4977e-05,15.636,-9.7059e-05,-0.0047446,0.92111
25580,11.707,3.3636,0.1,0.00028937,2891.7,0.00028961,2898.8,-9.4306e-05,14.187,-9.6195e-05,-0.004875,0.9333
25581,11.432,3.2727,0.1,0.00029663,2964.2,0.00029693,2973.3,-9.6366e-05,18.179,-9.8786e-05,-0.0045109,0.89676
25582,11.523,3.3636,0.1,0.00029422,2940.2,0.0002945,2948.5,-9.5705e-05,16.609,-9.7916e-05,-0.0046641,0.90885
25583,11.248,3.2727,0.1,0.00030149,3012.8,0.00030184,3023.2,-9.774e-05,20.928,-0.00010053,-0.0042747,0.87261
25584,11.34,3.3636,0.1,0.00029908,2988.8,0.0002994,2998.3,-9.7089e-05,19.225,-9.9648e-05,-0.0044084,0.8846
25585,11.065,3.2727,0.1,0.00030635,3061.4,0.00030675,3073.3,-9.9097e-05,23.903,-0.00010228,-0.0040534,0.84866
25586,11.156,3.3636,0.1,0.00030395,3037.4,0.00030432,3048.4,-9.8458e-05,22.054,-0.00010139,-0.0041962,0.86055
25587,10.881,3.2727,0.1,0.00031123,3110.1,0.00031168,3123.6,-0.00010043,27.126,-0.00010405,-0.0037982,0.82492
25588,10.973,3.3636,0.1,0.00030882,3086.1,0.00030924,3098.6,-9.981e-05,25.117,-0.00010315,-0.0039745,0.8367
25589,10.698,3.2727,0.1,0.0003161,3158.8,0.00031661,3174,-0.00010175,30.62,-0.00010583,-0.0035198,0.80138
25590,10.789,3.3636,0.1,0.0003137,3134.8,0.00031417,3148.9,-0.00010114,28.435,-0.00010493,-0.0036983,0.81307
25591,10.514,3.2727,0.1,0.00032098,3207.6,0.00032155,3224.7,-0.00010304,34.41,-0.00010762,-0.0032482,0.77807
25592,10.606,3.3636,0.1,0.00031858,3183.6,0.00031911,3199.5,-0.00010245,32.032,-0.00010671,-0.0034335,0.78964
25593,10.331,3.2727,0.1,0.00032586,3256.4,0.0003265,3275.5,-0.00010431,38.524,-0.00010944,-0.0029802,0.75496
25594,10.422,3.3636,0.1,0.00032346,3232.4,0.00032406,3250.2,-0.00010374,35.934,-0.00010852,-0.0031749,0.76643
25595,10.147,3.2727,0.1,0.00033075,3305.2,0.00033146,3326.5,-0.00010555,42.995,-0.00011127,-0.0026913,0.73208
25596,10.239,3.3636,0.1,0.00032835,3281.2,0.00032902,3301.1,-0.00010499,40.17,-0.00011034,-0.0029214,0.74343
25597,9.9637,3.2727,0.1,0.00033563,3354,0.00033642,3377.7,-0.00010675,47.855,-0.00011312,-0.0023713,0.70942
25598,10.055,3.3636,0.1,0.00033324,3330.1,0.00033398,3352.2,-0.00010622,44.772,-0.00011218,-0.0026256,0.72066
25599,9.7802,3.2727,0.1,0.00034051,3402.8,0.00034139,3429.1,-0.00010792,53.144,-0.00011499,-0.0020436,0.68699
25600,9.872,3.3636,0.1,0.00033813,3378.9,0.00033895,3403.5,-0.00010741,49.775,-0.00011404,-0.002316,0.69812
25601,9.5968,3.2727,0.1,0.0003454,3451.6,0.00034636,3480.6,-0.00010905,58.902,-0.00011689,-0.001708,0.66479
25602,9.6885,3.3636,0.1,0.00034301,3427.8,0.00034392,3455,-0.00010857,55.217,-0.00011592,-0.0020115,0.6758
25603,9.4133,3.2727,0.1,0.00035028,3500.3,0.00035134,3532.5,-0.00011013,65.177,-0.0001188,-0.0013621,0.64282
25604,9.505,3.3636,0.1,0.0003479,3476.6,0.0003489,3506.8,-0.00010968,61.142,-0.00011782,-0.0016936,0.65371
25605,9.2298,3.2727,0.1,0.00035515,3549.1,0.00035632,3584.5,-0.00011116,72.02,-0.00012075,-0.0010137,0.62109
25606,9.3215,3.3636,0.1,0.00035278,3525.4,0.00035388,3558.7,-0.00011075,67.596,-0.00011975,-0.0013779,0.63186
25607,9.0463,3.2727,0.1,0.00036003,3597.8,0.00036132,3636.9,-0.00011215,79.487,-0.00012273,-0.00066853,0.59959
25608,9.1381,3.3636,0.1,0.00035767,3574.2,0.00035888,3610.9,-0.00011177,74.632,-0.00012171,-0.001066,0.61025
25609,8.8628,3.2727,0.1,0.00036491,3646.6,0.00036632,3689.6,-0.00011307,87.642,-0.00012474,-0.00033761,0.57834
25610,8.9546,3.3636,0.1,0.00036255,3623,0.00036388,3663.4,-0.00011274,82.306,-0.0001237,-0.00077025,0.58887
25611,8.6794,3.2727,0.1,0.00036979,3695.4,0.00037134,3742.7,-0.00011393,96.553,-0.00012678,-3.6004e-05,0.55734
25612,8.7711,3.3636,0.1,0.00036743,3671.8,0.00036889,3716.3,-0.00011365,90.682,-0.00012572,-0.00050325,0.56775
25613,8.4959,3.2727,0.1,0.00037468,3744.2,0.00037637,3796.2,-0.00011472,106.3,-0.00012887,0.00021389,0.53659
25614,8.5876,3.3636,0.1,0.00037233,3720.7,0.00037392,3769.6,-0.00011449,99.829,-0.00012778,-0.00028583,0.54687
25615,8.3124,3.2727,0.1,0.00037958,3793.2,0.00038144,3850.3,-0.00011544,116.96,-0.00013101,0.00038144,0.51609
25616,8.4041,3.3636,0.1,0.00037723,3769.7,0.00037897,3823.4,-0.00011527,109.82,-0.00012989,-0.00014596,0.52624
25617,8.1289,3.2727,0.1,0.00038451,3842.4,0.00038653,3905.1,-0.00011609,128.63,-0.00013321,0.0004248,0.49585
25618,8.2206,3.3636,0.1,0.00038215,3818.8,0.00038406,3877.8,-0.00011597,120.75,-0.00013204,-0.00012177,0.50587
25619,7.9454,3.2727,0.1,0.00038947,3892,0.00039168,3960.8,-0.00011665,141.4,-0.00013547,0.00028588,0.47586
25620,8.0372,3.3636,0.1,0.00038709,3868.3,0.00038918,3932.9,-0.0001166,132.7,-0.00013426,-0.0002658,0.48576
25621,7.7619,3.2727,0.1,0.00039448,3942.1,0.0003969,4017.5,-0.00011712,155.39,-0.0001378,-0.00011462,0.45615
25622,7.8537,3.3636,0.1,0.00039208,3918.1,0.00039436,3989,-0.00011714,145.76,-0.00013654,-0.00065014,0.4659
25623,7.5785,3.2727,0.1,0.00039958,3993,0.00040221,4075.6,-0.00011751,170.7,-0.00014023,-0.0008851,0.43669
25624,7.6702,3.3636,0.1,0.00039713,3968.6,0.00039962,4046.2,-0.0001176,160.05,-0.0001389,-0.0013711,0.44632
25625,7.395,3.2727,0.1,0.00040478,4045,0.00040764,4135.5,-0.00011781,187.46,-0.00014276,-0.0021728,0.41751
25626,7.4867,3.3636,0.1,0.00040228,4020,0.00040498,4104.9,-0.00011798,175.67,-0.00014136,-0.002561,0.427
25627,7.2115,3.2727,0.1,0.00041014,4098.5,0.00041325,4197.6,-0.00011802,205.79,-0.00014541,-0.0041773,0.39861
25628,7.3032,3.3636,0.1,0.00040754,4072.6,0.00041048,4165.6,-0.00011827,192.73,-0.00014392,-0.004397,0.40796
25629,7.028,3.2727,0.1,0.0004157,4154.2,0.00041908,4262.5,-0.00011816,225.8,-0.00014822,-0.00717,0.37998
25630,7.1198,3.3636,0.1,0.00041298,4127,0.00041617,4228.6,-0.00011849,211.35,-0.00014662,-0.00712,0.38919
25631,6.8445,3.2727,0.1,0.00042156,4212.7,0.00042522,4331,-0.00011825,247.59,-0.0001512,-0.01152,0.36163
25632,6.9363,3.3636,0.1,0.00041866,4183.7,0.00042212,4294.7,-0.00011864,231.62,-0.00014947,-0.011054,0.3707
25633,6.6611,3.2727,0.1,0.0004278,4275,0.00043177,4404.2,-0.00011829,271.26,-0.0001544,-0.017731,0.34358
25634,6.7528,3.3636,0.1,0.00042466,4243.6,0.0004284,4364.8,-0.00011875,253.64,-0.00015251,-0.016639,0.3525
25635,6.4776,3.2727,0.1,0.00043455,4342.5,0.00043884,4483.3,-0.00011834,296.86,-0.00015786,-0.026491,0.32581
25636,6.5693,3.3636,0.1,0.00043108,4307.8,0.00043513,4439.8,-0.00011885,277.48,-0.00015578,-0.02447,0.33459
25637,6.2941,3.2727,0.1,0.000442,4416.9,0.00044662,4570.1,-0.00011846,324.39,-0.00016164,-0.038742,0.30833
25638,6.3858,3.3636,0.1,0.00043807,4377.7,0.00044244,4521.4,-0.00011897,303.15,-0.00015932,-0.035356,0.31696
25639,6.1106,3.2727,0.1,0.00045035,4500.4,0.00045532,4666.8,-0.00011871,353.75,-0.0001658,-0.055783,0.29116
25640,6.2024,3.3636,0.1,0.00044582,4455.2,0.00045052,4611.2,-0.00011919,330.62,-0.0001632,-0.050398,0.29964
25641,5.9271,3.2727,0.1,0.0004599,4595.8,0.00046523,4776.1,-0.00011922,384.72,-0.00017043,-0.079403,0.2743
25642,6.0189,3.3636,0.1,0.00045457,4542.6,0.00045962,4711.7,-0.00011959,359.73,-0.00016748,-0.071096,0.28262
25643,5.7437,3.2727,0.1,0.00047103,4707.1,0.00047674,4901.6,-0.00012015,416.86,-0.00017564,-0.11207,0.25774
25644,5.8354,3.3636,0.1,0.00046463,4643.1,0.00047003,4825.8,-0.00012031,390.17,-0.00017226,-0.099498,0.26591
25645,5.5602,3.2727,0.1,0.00048425,4839.1,0.00049032,5048.1,-0.00012172,449.45,-0.00018156,-0.15719,0.24151
25646,5.6519,3.3636,0.1,0.00047642,4760.9,0.00048218,4957.5,-0.00012153,421.43,-0.00017764,-0.13839,0.24952
25647,5.3767,3.2727,0.1,0.00050019,4998.4,0.00050663,5221.5,-0.00012426,481.3,-0.00018835,-0.2194,0.22561
25648,5.4684,3.3636,0.1,0.00049046,4901.3,0.00049659,5111.8,-0.0001235,452.63,-0.00018377,-0.19156,0.23345
25649,5.1932,3.2727,0.1,0.00051972,5193.6,0.00052651,5429.9,-0.00012821,510.58,-0.0001962,-0.30493,0.21005
25650,5.285,3.3636,0.1,0.00050749,5071.4,0.00051396,5295.2,-0.00012658,482.42,-0.00019082,-0.26406,0.21771
25651,5.0097,3.2727,0.1,0.00054398,5436,0.00055108,5683.3,-0.00013418,534.49,-0.00020537,-0.42182,0.19484
25652,5.1015,3.3636,0.1,0.00052842,5280.5,0.00053522,5516.3,-0.00013124,508.73,-0.000199,-0.36255,0.20233
25653,4.8263,3.2727,0.1,0.00057447,5740.7,0.00058182,5995.1,-0.00014304,548.81,-0.00021616,-0.57966,0.18001
25654,4.918,3.3636,0.1,0.0005545,5541.2,0.00056159,5786.2,-0.00013818,528.42,-0.00020858,-0.49557,0.1873
25655,4.6428,3.2727,0.1,0.00061317,6127.5,0.00062063,6382.3,-0.00015597,547.28,-0.00022891,-0.78784,0.16557
25656,4.7345,3.3636,0.1,0.0005874,5870,0.00059467,6119.6,-0.00014834,536.85,-0.00021988,-0.67267,0.17265
25657,4.4593,3.2727,0.1,0.00066269,6622.3,0.00066999,6866.8,-0.00017461,520.78,-0.00024406,-1.0538,0.15154
25658,4.551,3.3636,0.1,0.00062935,6289.1,0.00063663,6535.6,-0.00016304,527.16,-0.00023332,-0.90759,0.1584
25659,4.2758,3.2727,0.1,0.00072627,7257.6,0.00073293,7474.4,-0.00020109,456.58,-0.00026204,-1.3476,0.13796
25660,4.3676,3.3636,0.1,0.00068332,6828.5,0.0006903,7059.3,-0.0001841,489.45,-0.0002494,-1.1946,0.14458
25661,4.0923,3.2727,0.1,0.00080755,8070,0.00081274,8233,-0.00023796,338.41,-0.00028322,-1.6455,0.12488
25662,4.1841,3.3636,0.1,0.00075323,7527.1,0.00075933,7722.7,-0.00021396,409.82,-0.00026872,-1.5805,0.13123
25663,3.9088,3.2727,0.1,0.00090935,9087.3,0.00091178,9160.5,-0.00028739,150.45,-0.00030767,-1.995,0.11233
25664,4.0006,3.3636,0.1,0.00084385,8432.7,0.00084808,8563.5,-0.0002557,270.07,-0.00029191,-1.9834,0.11838
25665,3.7254,3.2727,0.1,0.0010299,10292,0.001028,10236,-0.00033425,0.49729,-0.00034925,-112.2,0.1004
25666,3.8171,3.3636,0.1,0.00095973,9590.7,0.00096055,9614.8,-0.00031217,52.13,-0.0003196,-3.7548,0.10611
25667,3.5419,3.2727,0.1,0.0011555,11547,0.0011481,11339,-0.00036072,2.4929,-0.00041535,-407.99,0.089156
25668,3.6336,3.3636,0.1,0.0011006,10998,0.0010959,10867,-0.00035026,0.37305,-0.00038475,-258.73,0.09447
25669,3.4501,3.3636,0.1,0.001246,12451,0.0012348,12142,-0.00038135,-0.63598,-0.00046059,-596.03,0.083563
25670,3.3584,3.2727,0.1,0.0012554,12546,0.0012434,12216,-0.00038182,5.14,-0.00046749,-638.53,0.078679
25671,23.725,3.4545,0.1,2.0607e-05,205.93,1.1523e-05,58.951,3.6472e-06,-0.22785,-1.896e-05,-170.09,2.8142
25672,23.817,3.5455,0.1,1.9672e-05,196.59,9.711e-06,39.606,4.412e-06,-0.2093,-1.8697e-05,-173.84,2.8296
25673,23.908,3.4545,0.1,1.9225e-05,192.12,8.1938e-06,22.275,5.171e-06,-0.43679,-1.8752e-05,-180.19,2.8451
25674,23.541,3.4545,0.1,2.254e-05,225.25,1.5071e-05,97.776,2.0277e-06,-0.22895,-1.922e-05,-159.87,2.7834
25675,23.633,3.5455,0.1,2.1382e-05,213.68,1.3252e-05,78.366,2.7783e-06,-0.3295,-1.8938e-05,-163.5,2.7988
25676,23.358,3.4545,0.1,2.4841e-05,248.24,1.8617e-05,136.48,4.3484e-07,-0.13233,-1.9518e-05,-150.05,2.7526
25677,23.45,3.5455,0.1,2.3516e-05,235,1.6792e-05,117.12,1.1849e-06,-0.14367,-1.9217e-05,-153.44,2.768
25678,23.174,3.4545,0.1,2.742e-05,274.01,2.2168e-05,175.05,-1.1443e-06,-0.10914,-1.9859e-05,-140.73,2.7218
25679,23.266,3.5455,0.1,2.5972e-05,259.54,2.0338e-05,155.71,-4.025e-07,-0.12579,-1.9538e-05,-143.9,2.7372
25680,22.991,3.4545,0.1,3.0211e-05,301.9,2.5724e-05,213.51,-2.7045e-06,-0.08633,-2.0244e-05,-131.87,2.691
25681,23.083,3.5455,0.1,2.8669e-05,286.49,2.3888e-05,194.18,-1.9691e-06,-0.094174,-1.9903e-05,-134.84,2.7064
25682,22.807,3.4545,0.1,3.3165e-05,331.42,2.929e-05,251.92,-4.2478e-06,-0.072878,-2.0676e-05,-123.51,2.6602
25683,22.899,3.5455,0.1,3.1552e-05,315.3,2.7447e-05,232.58,-3.5185e-06,-0.07899,-2.0314e-05,-126.27,2.6756
25684,22.624,3.4545,0.1,3.6249e-05,362.24,3.287e-05,290.3,-5.7749e-06,-0.06252,-2.1154e-05,-115.61,2.6295
25685,22.716,3.5455,0.1,3.4581e-05,345.57,3.1019e-05,270.95,-5.051e-06,-0.066725,-2.0773e-05,-118.2,2.6448
25686,22.44,3.4545,0.1,3.944e-05,394.12,3.6468e-05,328.71,-7.2875e-06,-0.054808,-2.168e-05,-108.19,2.5987
25687,22.532,3.5455,0.1,3.7727e-05,377.01,3.4608e-05,309.32,-6.5683e-06,-0.057995,-2.128e-05,-110.6,2.6141
25688,22.257,3.4545,0.1,4.272e-05,426.91,4.0088e-05,367.18,-8.787e-06,-0.048715,-2.2254e-05,-101.24,2.568
25689,22.349,3.5455,0.1,4.0971e-05,409.43,3.8217e-05,347.75,-8.0717e-06,-0.051142,-2.1836e-05,-103.47,2.5833
25690,22.073,3.4545,0.1,4.6079e-05,460.47,4.3731e-05,405.73,-1.0275e-05,-0.043815,-2.2876e-05,-94.723,2.5373
25691,22.165,3.5455,0.1,4.4299e-05,442.68,4.185e-05,386.25,-9.5628e-06,-0.045715,-2.2441e-05,-96.807,2.5526
25692,21.89,3.4545,0.1,4.9507e-05,494.73,4.7399e-05,444.4,-1.1752e-05,-0.039776,-2.3544e-05,-88.64,2.5067
25693,21.982,3.5455,0.1,4.7699e-05,476.66,4.5508e-05,424.86,-1.1043e-05,-0.041282,-2.3093e-05,-90.579,2.522
25694,21.706,3.4545,0.1,5.2996e-05,529.6,5.1095e-05,483.21,-1.3221e-05,-0.036387,-2.4258e-05,-82.966,2.4761
25695,21.798,3.5455,0.1,5.1165e-05,511.3,4.9193e-05,463.6,-1.2514e-05,-0.0376,-2.3791e-05,-84.772,2.4913
25696,21.523,3.4545,0.1,5.6543e-05,565.04,5.4819e-05,522.16,-1.4681e-05,-0.033496,-2.5016e-05,-77.682,2.4455
25697,21.615,3.5455,0.1,5.469e-05,546.52,5.2906e-05,502.49,-1.3976e-05,-0.034482,-2.4534e-05,-79.364,2.4607
25698,21.34,3.4545,0.1,6.0142e-05,601,5.8572e-05,561.29,-1.6136e-05,-0.031007,-2.5816e-05,-72.766,2.4149
25699,21.431,3.5455,0.1,5.8269e-05,582.29,5.6648e-05,541.54,-1.5432e-05,-0.031807,-2.5321e-05,-74.333,2.4302
25700,21.156,3.4545,0.1,6.3789e-05,637.45,6.2354e-05,600.6,-1.7584e-05,-0.02884,-2.6657e-05,-68.197,2.3844
25701,21.248,3.5455,0.1,6.1899e-05,618.56,6.0419e-05,580.77,-1.6881e-05,-0.029499,-2.6148e-05,-69.658,2.3996
25702,20.973,3.4545,0.1,6.7483e-05,674.36,6.6167e-05,640.1,-1.9028e-05,-0.026929,-2.7537e-05,-63.954,2.3539
25703,21.064,3.5455,0.1,6.5576e-05,655.3,6.422e-05,620.19,-1.8326e-05,-0.027471,-2.7016e-05,-65.316,2.3692
25704,20.789,3.4545,0.1,7.122e-05,711.71,7.0008e-05,679.79,-2.0469e-05,-0.025237,-2.8453e-05,-60.015,2.3235
25705,20.881,3.5455,0.1,6.9297e-05,692.49,6.805e-05,659.8,-1.9767e-05,-0.025681,-2.792e-05,-61.286,2.3387
25706,20.606,3.4545,0.1,7.4998e-05,749.46,7.388e-05,719.68,-2.1907e-05,-0.023726,-2.9405e-05,-56.359,2.2931
25707,20.697,3.5455,0.1,7.306e-05,730.09,7.191e-05,699.6,-2.1205e-05,-0.024095,-2.8861e-05,-57.546,2.3083
25708,20.422,3.4545,0.1,7.8815e-05,787.61,7.778e-05,759.78,-2.3343e-05,-0.022363,-3.039e-05,-52.969,2.2628
25709,20.514,3.5455,0.1,7.6862e-05,768.09,7.5799e-05,739.61,-2.2641e-05,-0.022665,-2.9835e-05,-54.078,2.278
25710,20.239,3.4545,0.1,8.267e-05,826.13,8.1709e-05,800.08,-2.4778e-05,-0.021143,-3.1406e-05,-49.823,2.2325
25711,20.33,3.5455,0.1,8.0703e-05,806.47,7.9717e-05,779.83,-2.4075e-05,-0.021385,-3.0841e-05,-50.86,2.2477
25712,20.055,3.4545,0.1,8.6561e-05,865.01,8.5667e-05,840.6,-2.6212e-05,-0.02004,-3.2452e-05,-46.905,2.2023
25713,20.147,3.5455,0.1,8.458e-05,845.22,8.3664e-05,820.25,-2.5508e-05,-0.020231,-3.1877e-05,-47.875,2.2174
25714,19.872,3.4545,0.1,9.0486e-05,904.24,8.9653e-05,881.32,-2.7646e-05,-0.019036,-3.3526e-05,-44.198,2.1722
25715,19.963,3.5455,0.1,8.8492e-05,884.31,8.7638e-05,860.89,-2.6941e-05,-0.019192,-3.2942e-05,-45.106,2.1872
25716,19.688,3.4545,0.1,9.4445e-05,943.8,9.3667e-05,922.26,-2.9081e-05,-0.01811,-3.4626e-05,-41.685,2.1421
25717,19.78,3.5455,0.1,9.2438e-05,923.74,9.1641e-05,901.73,-2.8375e-05,-0.018232,-3.4034e-05,-42.537,2.1571
25718,19.505,3.4545,0.1,9.8436e-05,983.68,9.7707e-05,963.41,-3.0517e-05,-0.01727,-3.5752e-05,-39.353,2.112
25719,19.596,3.5455,0.1,9.6416e-05,963.5,9.567e-05,942.78,-2.9809e-05,-0.017354,-3.5151e-05,-40.152,2.127
25720,19.321,3.4545,0.1,0.00010246,1023.9,0.00010177,1004.8,-3.1954e-05,-0.0165,-3.6901e-05,-37.185,2.0821
25721,19.413,3.5455,0.1,0.00010043,1003.6,9.9726e-05,984.05,-3.1245e-05,-0.016563,-3.6292e-05,-37.936,2.097
25722,19.138,3.4545,0.1,0.00010651,1064.4,0.00010587,1046.3,-3.3393e-05,-0.015786,-3.8072e-05,-35.17,2.0522
25723,19.229,3.5455,0.1,0.00010447,1043.9,0.00010381,1025.5,-3.2683e-05,-0.015825,-3.7455e-05,-35.877,2.0671
25724,18.954,3.4545,0.1,0.00011059,1105.1,0.00010999,1088.1,-3.4835e-05,-0.015127,-3.9264e-05,-33.295,2.0223
25725,19.046,3.5455,0.1,0.00010853,1084.6,0.00010792,1067.2,-3.4122e-05,-0.015145,-3.864e-05,-33.961,2.0372
25726,18.771,3.4545,0.1,0.0001147,1146.2,0.00011413,1130.1,-3.6279e-05,-0.014513,-4.0476e-05,-31.549,1.9926
25727,18.863,3.5455,0.1,0.00011263,1125.5,0.00011205,1109.1,-3.5565e-05,-0.014519,-3.9845e-05,-32.177,2.0074
25728,18.587,3.4545,0.1,0.00011884,1187.6,0.0001183,1172.3,-3.7726e-05,-0.013941,-4.1707e-05,-29.92,1.9629
25729,18.679,3.5455,0.1,0.00011676,1166.8,0.00011621,1151.2,-3.701e-05,-0.013927,-4.1069e-05,-30.514,1.9777
25730,18.404,3.4545,0.1,0.000123,1229.2,0.00012249,1214.7,-3.9177e-05,-0.013414,-4.2955e-05,-28.398,1.9333
25731,18.496,3.5455,0.1,0.00012091,1208.3,0.00012039,1193.5,-3.8458e-05,-0.013383,-4.2311e-05,-28.962,1.948
25732,18.22,3.4545,0.1,0.00012719,1271,0.00012671,1257.3,-4.0631e-05,-0.012929,-4.422e-05,-26.974,1.9038
25733,18.312,3.5455,0.1,0.00012509,1250,0.0001246,1236,-3.991e-05,-0.012882,-4.357e-05,-27.51,1.9185
25734,18.037,3.4545,0.1,0.00013141,1313.2,0.00013095,1300.2,-4.209e-05,-0.012471,-4.55e-05,-25.639,1.8743
25735,18.129,3.5455,0.1,0.00012929,1292.1,0.00012883,1278.8,-4.1366e-05,-0.012423,-4.4845e-05,-26.15,1.889
25736,17.853,3.4545,0.1,0.00013565,1355.6,0.00013522,1343.2,-4.3552e-05,-0.012034,-4.6796e-05,-24.384,1.845
25737,17.945,3.5455,0.1,0.00013352,1334.3,0.00013308,1321.7,-4.2826e-05,-0.011976,-4.6135e-05,-24.874,1.8596
25738,17.67,3.4545,0.1,0.00013991,1398.2,0.00013951,1386.4,-4.5019e-05,-0.011634,-4.8105e-05,-23.202,1.8157
25739,17.762,3.5455,0.1,0.00013778,1376.8,0.00013736,1364.8,-4.429e-05,-0.011555,-4.7439e-05,-23.672,1.8303
25740,17.486,3.4545,0.1,0.0001442,1441,0.00014382,1429.9,-4.649e-05,-0.01126,-4.9428e-05,-22.084,1.7866
25741,17.578,3.5455,0.1,0.00014206,1419.6,0.00014166,1408.2,-4.5759e-05,-0.011183,-4.8757e-05,-22.538,1.8011
25742,17.303,3.4545,0.1,0.00014852,1484.2,0.00014815,1473.5,-4.7967e-05,-0.010901,-5.0763e-05,-21.025,1.7575
25743,17.395,3.5455,0.1,0.00014636,1462.6,0.00014598,1451.7,-4.7233e-05,-0.010814,-5.0088e-05,-21.464,1.772
25744,17.119,3.4545,0.1,0.00015285,1527.5,0.0001525,1517.4,-4.9448e-05,-0.010565,-5.2111e-05,-20.017,1.7285
25745,17.211,3.5455,0.1,0.00015069,1505.8,0.00015033,1495.5,-4.8711e-05,-0.01047,-5.1431e-05,-20.445,1.743
25746,16.936,3.4545,0.1,0.00015721,1571,0.00015688,1561.4,-5.0934e-05,-0.01024,-5.3469e-05,-19.054,1.6997
25747,17.028,3.5455,0.1,0.00015503,1549.3,0.00015469,1539.4,-5.0195e-05,-0.010149,-5.2785e-05,-19.472,1.714
25748,16.753,3.4545,0.1,0.00016159,1614.8,0.00016128,1605.7,-5.2426e-05,-0.009928,-5.4838e-05,-18.13,1.6709
25749,16.844,3.5455,0.1,0.00015941,1593,0.00015908,1583.6,-5.1684e-05,-0.009826,-5.415e-05,-18.541,1.6852
25750,16.569,3.4545,0.1,0.000166,1658.8,0.0001657,1650.1,-5.3924e-05,-0.0096401,-5.6217e-05,-17.239,1.6423
25751,16.661,3.5455,0.1,0.0001638,1636.9,0.00016349,1628,-5.3178e-05,-0.0095296,-5.5525e-05,-17.645,1.6565
25752,16.386,3.4545,0.1,0.00017042,1703,0.00017014,1694.8,-5.5427e-05,-0.0093755,-5.7605e-05,-16.375,1.6137
25753,16.477,3.5455,0.1,0.00016821,1681,0.00016792,1672.5,-5.4678e-05,-0.009254,-5.691e-05,-16.778,1.6279
25754,16.202,3.4545,0.1,0.00017487,1747.5,0.0001746,1739.6,-5.6936e-05,-0.0091174,-5.9002e-05,-15.533,1.5853
25755,16.294,3.5455,0.1,0.00017265,1725.3,0.00017237,1717.3,-5.6184e-05,-0.0090045,-5.8303e-05,-15.936,1.5994
25756,16.019,3.4545,0.1,0.00017933,1792.1,0.00017908,1784.7,-5.8451e-05,-0.008856,-6.0407e-05,-14.707,1.557
25757,16.11,3.5455,0.1,0.00017711,1769.8,0.00017684,1762.2,-5.7696e-05,-0.0087402,-5.9706e-05,-15.112,1.5711
25758,15.835,3.4545,0.1,0.00018382,1836.9,0.00018358,1829.9,-5.9972e-05,-0.0086192,-6.182e-05,-13.892,1.5288
25759,15.927,3.5455,0.1,0.00018158,1814.6,0.00018134,1807.4,-5.9213e-05,-0.0084855,-6.1116e-05,-14.302,1.5428
25760,15.652,3.4545,0.1,0.00018833,1882,0.0001881,1875.4,-6.15e-05,-0.0083932,-6.324e-05,-13.084,1.5008
25761,15.743,3.5455,0.1,0.00018608,1859.5,0.00018585,1852.7,-6.0738e-05,-0.0082691,-6.2533e-05,-13.501,1.5147
25762,15.468,3.4545,0.1,0.00019285,1927.2,0.00019264,1921,-6.3034e-05,-0.0081651,-6.4666e-05,-12.276,1.4728
25763,15.56,3.5455,0.1,0.0001906,1904.7,0.00019038,1898.3,-6.2268e-05,-0.0080343,-6.3958e-05,-12.702,1.4867
25764,15.285,3.4545,0.1,0.0001974,1972.7,0.0001972,1966.9,-6.4574e-05,-0.0079489,-6.6099e-05,-11.464,1.445
25765,15.376,3.5455,0.1,0.00019514,1950,0.00019493,1944,-6.3805e-05,-0.0078124,-6.5388e-05,-11.903,1.4588
25766,15.101,3.4545,0.1,0.00020197,2018.3,0.00020178,2012.9,-6.6122e-05,-0.007728,-6.7537e-05,-10.643,1.4173
25767,15.193,3.5455,0.1,0.00019969,1995.6,0.0001995,1990,-6.5349e-05,-0.0075992,-6.6825e-05,-11.096,1.4311
25768,14.918,3.4545,0.1,0.00020655,2064.1,0.00020638,2059.2,-6.7676e-05,-0.007505,-6.898e-05,-9.8064,1.3898
25769,15.009,3.5455,0.1,0.00020427,2041.3,0.00020409,2036.1,-6.69e-05,-0.0073671,-6.8267e-05,-10.277,1.4035
25770,14.734,3.4545,0.1,0.00021115,2110.1,0.000211,2105.6,-6.9238e-05,-0.0072943,-7.0428e-05,-8.9502,1.3624
25771,14.826,3.5455,0.1,0.00020886,2087.2,0.0002087,2082.5,-6.8457e-05,-0.0071474,-6.9713e-05,-9.4418,1.376
25772,14.551,3.4545,0.1,0.00021578,2156.3,0.00021564,2152.2,-7.0806e-05,-0.0070967,-7.1879e-05,-8.0686,1.3352
25773,14.642,3.5455,0.1,0.00021348,2133.3,0.00021333,2129,-7.0022e-05,-0.0069368,-7.1164e-05,-8.5837,1.3487
25774,14.367,3.4545,0.1,0.00022041,2202.6,0.00022029,2199,-7.2382e-05,-0.0068864,-7.3334e-05,-7.1559,1.308
25775,14.459,3.5455,0.1,0.00021811,2179.6,0.00021797,2175.7,-7.1594e-05,-0.0067379,-7.2618e-05,-7.6978,1.3215
25776,14.184,3.4545,0.1,0.00022507,2249.2,0.00022496,2246,-7.3966e-05,-0.0066492,-7.4791e-05,-6.2061,1.2811
25777,14.276,3.5455,0.1,0.00022276,2226,0.00022264,2222.6,-7.3174e-05,-0.0064948,-7.4075e-05,-6.7782,1.2945
25778,14,3.4545,0.1,0.00022974,2295.9,0.00022965,2293.2,-7.5558e-05,-0.0064107,-7.6251e-05,-5.2132,1.2543
25779,14.092,3.5455,0.1,0.00022742,2272.6,0.00022732,2269.7,-7.4761e-05,-0.0062325,-7.5535e-05,-5.8193,1.2676
25780,13.817,3.4545,0.1,0.00023443,2342.7,0.00023436,2340.6,-7.7157e-05,-0.0061362,-7.7711e-05,-4.1709,1.2276
25781,13.909,3.5455,0.1,0.0002321,2319.4,0.00023202,2317,-7.6356e-05,-0.0059702,-7.6996e-05,-4.8149,1.2409
25782,13.633,3.4545,0.1,0.00023914,2389.7,0.00023909,2388.2,-7.8764e-05,-0.0057614,-7.9172e-05,-3.0725,1.2011
25783,13.725,3.5455,0.1,0.0002368,2366.4,0.00023674,2364.5,-7.7959e-05,-0.0056025,-7.8459e-05,-3.7584,1.2143
25784,13.45,3.4545,0.1,0.00024386,2436.9,0.00024383,2436,-8.038e-05,-0.0051246,-8.0634e-05,-1.911,1.1748
25785,13.542,3.5455,0.1,0.00024152,2413.5,0.00024147,2412.2,-7.957e-05,-0.0050591,-7.9921e-05,-2.6434,1.1879
25786,13.266,3.4545,0.1,0.0002486,2484.3,0.00024859,2483.9,-8.2004e-05,-0.002662,-8.2094e-05,-0.68048,1.1486
25787,13.358,3.5455,0.1,0.00024625,2460.8,0.00024622,2460,-8.119e-05,-0.0038613,-8.1384e-05,-1.463,1.1616
25788,13.083,3.4545,0.1,0.00025335,2531.8,0.00025336,2532.1,-8.3552e-05,0.63846,-8.3638e-05,-0.0097358,1.1226
25789,13.175,3.5455,0.1,0.00025099,2508.2,0.00025099,2508.1,-8.2816e-05,0.0097853,-8.2847e-05,-0.22127,1.1355
25790,12.899,3.4545,0.1,0.00025812,2579.4,0.00025815,2580.4,-8.5008e-05,2.035,-8.528e-05,-0.0070485,1.0968
25791,12.991,3.5455,0.1,0.00025575,2555.8,0.00025577,2556.3,-8.4304e-05,1.1344,-8.4456e-05,-0.0088442,1.1096
25792,12.716,3.4545,0.1,0.0002629,2627.1,0.00026296,2628.9,-8.646e-05,3.5302,-8.6931e-05,-0.0063808,1.0711
25793,12.808,3.5455,0.1,0.00026053,2603.5,0.00026057,2604.8,-8.576e-05,2.5601,-8.6102e-05,-0.0070406,1.0838
25794,12.532,3.4545,0.1,0.00026769,2675,0.00026778,2677.6,-8.7908e-05,5.1322,-8.8592e-05,-0.0059846,1.0456
25795,12.624,3.5455,0.1,0.00026532,2651.3,0.00026539,2653.4,-8.7213e-05,4.0869,-8.7757e-05,-0.0063594,1.0583
25796,12.349,3.4545,0.1,0.00027249,2723.1,0.00027261,2726.5,-8.935e-05,6.8513,-9.0263e-05,-0.0056947,1.0203
25797,12.441,3.5455,0.1,0.00027012,2699.3,0.00027021,2702.2,-8.866e-05,5.7237,-8.9423e-05,-0.0059502,1.0329
25798,12.165,3.4545,0.1,0.00027731,2771.2,0.00027746,2775.5,-9.0785e-05,8.6988,-9.1944e-05,-0.0054598,0.99521
25799,12.257,3.5455,0.1,0.00027493,2747.4,0.00027506,2751.1,-9.0102e-05,7.4813,-9.1098e-05,-0.0056504,1.0077
25800,11.982,3.4545,0.1,0.00028214,2819.5,0.00028232,2824.8,-9.2212e-05,10.687,-9.3635e-05,-0.0052368,0.97027
25801,12.074,3.5455,0.1,0.00027976,2795.6,0.00027991,2800.3,-9.1536e-05,9.371,-9.2784e-05,-0.0054126,0.98263
25802,11.799,3.4545,0.1,0.00028698,2867.8,0.00028719,2874.2,-9.363e-05,12.83,-9.5338e-05,-0.0050099,0.94553
25803,11.89,3.5455,0.1,0.00028459,2844,0.00028478,2849.6,-9.2961e-05,11.406,-9.448e-05,-0.0051661,0.95779
25804,11.615,3.4545,0.1,0.00029183,2916.3,0.00029208,2923.8,-9.5036e-05,15.141,-9.7052e-05,-0.0047935,0.92098
25805,11.707,3.5455,0.1,0.00028944,2892.4,0.00028967,2899.2,-9.4377e-05,13.599,-9.6188e-05,-0.0049382,0.93315
25806,11.432,3.4545,0.1,0.00029668,2964.8,0.00029698,2973.6,-9.643e-05,17.637,-9.8778e-05,-0.0045603,0.89663
25807,11.523,3.5455,0.1,0.00029429,2940.9,0.00029456,2948.8,-9.5781e-05,15.965,-9.7907e-05,-0.0047244,0.90869
25808,11.248,3.4545,0.1,0.00030155,3013.4,0.00030189,3023.5,-9.781e-05,20.334,-0.00010052,-0.0043287,0.87248
25809,11.34,3.5455,0.1,0.00029916,2989.5,0.00029947,2998.7,-9.7173e-05,18.52,-9.9638e-05,-0.0044708,0.88444
25810,11.065,3.4545,0.1,0.00030642,3062.1,0.00030681,3073.6,-9.9173e-05,23.252,-0.00010227,-0.0041165,0.84853
25811,11.156,3.5455,0.1,0.00030403,3038.2,0.00030438,3048.8,-9.8549e-05,21.282,-0.00010138,-0.0042667,0.86039
25812,10.881,3.4545,0.1,0.0003113,3110.8,0.00031174,3123.9,-0.00010052,26.41,-0.00010403,-0.0038745,0.82478
25813,10.973,3.5455,0.1,0.00030891,3086.9,0.00030931,3099,-9.9908e-05,24.27,-0.00010314,-0.0040585,0.83654
25814,10.698,3.4545,0.1,0.00031618,3159.6,0.00031668,3174.4,-0.00010184,29.832,-0.00010581,-0.0036129,0.80125
25815,10.789,3.5455,0.1,0.00031379,3135.7,0.00031425,3149.4,-0.00010125,27.504,-0.00010491,-0.0038,0.8129
25816,10.514,3.4545,0.1,0.00032106,3208.4,0.00032162,3225.1,-0.00010314,33.542,-0.00010761,-0.0033626,0.77793
25817,10.606,3.5455,0.1,0.00031868,3184.6,0.00031919,3200,-0.00010257,31.008,-0.0001067,-0.003558,0.78947
25818,10.331,3.4545,0.1,0.00032595,3257.3,0.00032658,3275.9,-0.00010442,37.566,-0.00010942,-0.0031203,0.75483
25819,10.422,3.5455,0.1,0.00032357,3233.5,0.00032415,3250.7,-0.00010387,34.805,-0.0001085,-0.0033278,0.76626
25820,10.147,3.4545,0.1,0.00033084,3306.1,0.00033154,3326.9,-0.00010567,41.935,-0.00011125,-0.0028622,0.73194
25821,10.239,3.5455,0.1,0.00032846,3282.4,0.00032911,3301.7,-0.00010514,38.923,-0.00011032,-0.0031089,0.74326
25822,9.9637,3.4545,0.1,0.00033573,3355,0.0003365,3378.1,-0.00010688,46.68,-0.0001131,-0.0025796,0.70928
25823,10.055,3.5455,0.1,0.00033336,3331.3,0.00033408,3352.8,-0.00010638,43.392,-0.00011215,-0.0028544,0.72049
25824,9.7802,3.4545,0.1,0.00034063,3403.9,0.00034148,3429.5,-0.00010807,51.838,-0.00011496,-0.0022966,0.68685
25825,9.872,3.5455,0.1,0.00033826,3380.3,0.00033905,3404.1,-0.00010759,48.244,-0.00011401,-0.0025945,0.69794
25826,9.5968,3.4545,0.1,0.00034552,3452.8,0.00034646,3481.1,-0.00010921,57.447,-0.00011685,-0.002014,0.66464
25827,9.6885,3.5455,0.1,0.00034316,3429.2,0.00034404,3455.6,-0.00010876,53.515,-0.00011588,-0.0023487,0.67562
25828,9.4133,3.4545,0.1,0.00035041,3501.6,0.00035144,3533,-0.00011031,63.552,-0.00011877,-0.0017314,0.64267
25829,9.505,3.5455,0.1,0.00034805,3478.1,0.00034902,3507.4,-0.00010989,59.244,-0.00011778,-0.002101,0.65353
25830,9.2298,3.4545,0.1,0.0003553,3550.5,0.00035644,3585.1,-0.00011136,70.2,-0.00012071,-0.0014585,0.62094
25831,9.3215,3.5455,0.1,0.00035295,3527.1,0.00035402,3559.4,-0.00011099,65.475,-0.0001197,-0.0018692,0.63168
25832,9.0463,3.4545,0.1,0.00036019,3599.4,0.00036144,3637.5,-0.00011237,77.443,-0.00012268,-0.0012038,0.59945
25833,9.1381,3.5455,0.1,0.00035785,3576,0.00035902,3611.6,-0.00011203,72.255,-0.00012165,-0.0016574,0.61006
25834,8.8628,3.4545,0.1,0.00036508,3648.2,0.00036645,3690.2,-0.00011332,85.34,-0.00012468,-0.00098176,0.57819
25835,8.9546,3.5455,0.1,0.00036275,3625,0.00036404,3664.1,-0.00011303,79.636,-0.00012363,-0.0014812,0.58869
25836,8.6794,3.4545,0.1,0.00036997,3697.2,0.00037148,3743.2,-0.00011421,93.953,-0.00012671,-0.00081105,0.55719
25837,8.7711,3.5455,0.1,0.00036765,3674,0.00036906,3717,-0.00011397,87.674,-0.00012564,-0.001358,0.56756
25838,8.4959,3.4545,0.1,0.00037487,3746.1,0.00037652,3796.8,-0.00011504,103.35,-0.00012879,-0.00071885,0.53644
25839,8.5876,3.5455,0.1,0.00037256,3723,0.0003741,3770.3,-0.00011486,96.431,-0.00012769,-0.0013134,0.54668
25840,8.3124,3.4545,0.1,0.00037979,3795.3,0.0003816,3850.8,-0.0001158,113.62,-0.00013092,-0.00074154,0.51594
25841,8.4041,3.5455,0.1,0.00037747,3772.1,0.00037917,3824,-0.00011567,105.97,-0.00012978,-0.0013822,0.52605
25842,8.1289,3.4545,0.1,0.00038473,3844.6,0.0003867,3905.5,-0.00011648,124.82,-0.00013309,-0.00092914,0.49569
25843,8.2206,3.5455,0.1,0.00038241,3821.5,0.00038426,3878.3,-0.00011643,116.38,-0.00013192,-0.0016103,0.50568
25844,7.9454,3.4545,0.1,0.00038971,3894.4,0.00039186,3961.1,-0.00011709,137.06,-0.00013533,-0.0013497,0.47571
25845,8.0372,3.5455,0.1,0.00038737,3871.1,0.00038939,3933.4,-0.00011711,127.72,-0.00013411,-0.0020612,0.48556
25846,7.7619,3.4545,0.1,0.00039473,3944.6,0.00039708,4017.7,-0.00011762,150.43,-0.00013764,-0.0020944,0.45599
25847,7.8537,3.5455,0.1,0.00039238,3921.1,0.00039457,3989.2,-0.00011772,140.08,-0.00013636,-0.0028197,0.46571
25848,7.5785,3.4545,0.1,0.00039983,3995.6,0.00040238,4075.5,-0.00011807,165.02,-0.00014003,-0.0032862,0.43654
25849,7.6702,3.5455,0.1,0.00039744,3971.7,0.00039983,4046.2,-0.00011825,153.55,-0.00013869,-0.0039989,0.44612
25850,7.395,3.4545,0.1,0.00040504,4047.6,0.00040781,4135,-0.00011844,180.94,-0.00014253,-0.005091,0.41736
25851,7.4867,3.5455,0.1,0.00040259,4023.1,0.00040519,4104.6,-0.00011871,168.23,-0.0001411,-0.0057508,0.42681
25852,7.2115,3.4545,0.1,0.00041039,4101.1,0.0004134,4196.6,-0.00011874,198.29,-0.00014513,-0.0077319,0.39845
25853,7.3032,3.5455,0.1,0.00040786,4075.8,0.00041068,4164.7,-0.0001191,184.19,-0.00014361,-0.0082795,0.40776
25854,7.028,3.4545,0.1,0.00041594,4156.5,0.00041921,4260.8,-0.00011897,217.17,-0.00014788,-0.011509,0.37982
25855,7.1198,3.5455,0.1,0.00041328,4130,0.00041634,4227.1,-0.00011942,201.53,-0.00014625,-0.011857,0.389
25856,6.8445,3.4545,0.1,0.00042176,4214.7,0.0004253,4328.5,-0.00011915,237.67,-0.00015079,-0.016825,0.36148
25857,6.9363,3.5455,0.1,0.00041893,4186.4,0.00042224,4292.2,-0.00011969,220.34,-0.00014902,-0.016848,0.37051
25858,6.6611,3.4545,0.1,0.00042794,4276.4,0.00043176,4400.4,-0.00011931,259.86,-0.0001539,-0.024223,0.34342
25859,6.7528,3.5455,0.1,0.00042487,4245.8,0.00042845,4361,-0.00011993,240.68,-0.00015196,-0.023741,0.35231
25860,6.4776,3.4545,0.1,0.0004346,4343,0.00043873,4477.9,-0.00011947,283.77,-0.00015725,-0.034434,0.32565
25861,6.5693,3.5455,0.1,0.0004312,4309,0.00043507,4434.3,-0.00012015,262.59,-0.00015511,-0.033188,0.33439
25862,6.2941,3.4545,0.1,0.0004419,4415.9,0.00044635,4562.5,-0.0001197,309.38,-0.00016089,-0.048444,0.30818
25863,6.3858,3.5455,0.1,0.00043805,4377.5,0.00044222,4513.5,-0.00012042,286.07,-0.0001585,-0.046064,0.31677
25864,6.1106,3.4545,0.1,0.00045004,4497.3,0.00045482,4656.1,-0.00012007,336.59,-0.00016488,-0.067584,0.29101
25865,6.2024,3.5455,0.1,0.0004456,4452.9,0.00045007,4600.2,-0.00012078,311.06,-0.00016219,-0.06354,0.29945
25866,5.9271,3.4545,0.1,0.0004593,4589.8,0.00046442,4761.4,-0.00012069,365.18,-0.0001693,-0.093647,0.27414
25867,6.0189,3.5455,0.1,0.00045404,4537.3,0.00045884,4696.5,-0.00012133,337.39,-0.00016624,-0.087184,0.28243
25868,5.7437,3.4545,0.1,0.00047001,4696.9,0.00047548,4881.7,-0.0001217,394.75,-0.00017426,-0.12905,0.25759
25869,5.8354,3.5455,0.1,0.00046368,4633.6,0.0004688,4805.1,-0.00012217,364.79,-0.00017074,-0.11909,0.26571
25870,5.5602,3.4545,0.1,0.00048264,4823,0.00048845,5021.2,-0.00012332,424.62,-0.00017985,-0.17702,0.24135
25871,5.6519,3.5455,0.1,0.00047487,4745.4,0.00048033,4929.5,-0.00012348,392.74,-0.00017577,-0.16205,0.24932
25872,5.3767,3.4545,0.1,0.00049777,4974.2,0.00050393,5185.4,-0.00012582,453.75,-0.00018625,-0.24185,0.22545
25873,5.4684,3.5455,0.1,0.0004881,4877.6,0.00049389,5074.1,-0.00012548,420.47,-0.00018147,-0.21976,0.23325
25874,5.1932,3.4545,0.1,0.0005162,5158.4,0.00052268,5381.7,-0.00012962,480.53,-0.00019362,-0.32916,0.20988
25875,5.285,3.5455,0.1,0.000504,5036.5,0.0005101,5244.9,-0.00012848,446.77,-0.00018798,-0.29705,0.21751
25876,5.0097,3.4545,0.1,0.00053896,5385.9,0.00054574,5619.3,-0.00013526,502.55,-0.00020221,-0.44622,0.19467
25877,5.1015,3.5455,0.1,0.00052341,5230.5,0.00052981,5449.3,-0.00013292,469.82,-0.00019551,-0.40046,0.20211
25878,4.8263,3.4545,0.1,0.00056748,5670.9,0.00057448,5911,-0.00014352,516.18,-0.0002123,-0.60167,0.17982
25879,4.918,3.5455,0.1,0.00054746,5470.9,0.0005541,5697.7,-0.00013941,486.92,-0.00020429,-0.53767,0.18707
25880,4.6428,3.4545,0.1,0.00060366,6032.4,0.00061076,6273.5,-0.00015549,516.11,-0.00022429,-0.80937,0.16536
25881,4.7345,3.5455,0.1,0.0005777,5773,0.00058449,6003.7,-0.00014879,494.11,-0.00021465,-0.72161,0.17241
25882,4.4593,3.4545,0.1,0.00065015,6497,0.00065712,6729.5,-0.00017271,494.5,-0.00023866,-1.0691,0.15131
25883,4.551,3.5455,0.1,0.00061625,6158.3,0.00062305,6386.1,-0.00016227,485.56,-0.00022702,-0.96257,0.15814
25884,4.2758,3.4545,0.1,0.00071064,7101.5,0.00071707,7310.4,-0.00019734,439.94,-0.00025608,-1.4469,0.1377
25885,4.3676,3.5455,0.1,0.00066619,6657.3,0.00067271,6871.5,-0.00018156,452.78,-0.000242,-1.2896,0.14428
25886,4.0923,3.4545,0.1,0.00079025,7897,0.00079539,8058.7,-0.00023243,336.04,-0.00027741,-1.9006,0.12457
25887,4.1841,3.5455,0.1,0.00073203,7315.2,0.00073776,7498.4,-0.00020919,383.42,-0.00026046,-1.7891,0.13088
25888,3.9088,3.4545,0.1,0.00089555,8949.3,0.00089813,9027.4,-0.00028197,160.53,-0.00030363,-2.175,0.11196
25889,4.0006,3.5455,0.1,0.00082048,8199.2,0.00082455,8324.8,-0.00024887,259.5,-0.00028368,-2.0418,0.11796
25890,3.7254,3.4545,0.1,0.0010323,10316,0.0010303,10259,-0.00033489,1.6083,-0.00035021,-113.49,0.099949
25891,3.8171,3.5455,0.1,0.00094199,9413.4,0.00094281,9438,-0.00030583,56.16,-0.00031418,-6.5361,0.1056
25892,3.5419,3.4545,0.1,0.0011923,11915,0.0011839,11679,-0.00037087,-2.5413,-0.00043126,-456.32,0.088615
25893,3.6336,3.5455,0.1,0.0011092,11084,0.0011045,10951,-0.00035218,6.228,-0.00038857,-267.17,0.093851
25894,3.4501,3.5455,0.1,0.0013247,13238,0.001311,12865,-0.00039996,9.569,-0.00049764,-724.37,0.082831
25895,3.3584,3.4545,0.1,0.0013337,13327,0.0013191,12932,-0.00040237,-3.1648,-0.00050264,-756.54,0.078065
25896,23.725,3.6364,0.1,2.0333e-05,203.19,1.1429e-05,58.943,3.5545e-06,-0.225,-1.8677e-05,-167.26,2.8142
25897,23.817,3.7273,0.1,1.9348e-05,193.34,9.6041e-06,39.634,4.302e-06,-0.20403,-1.8366e-05,-170.53,2.8296
25898,23.908,3.6364,0.1,1.8942e-05,189.28,8.1013e-06,22.295,5.076e-06,-0.43587,-1.8467e-05,-177.33,2.845
25899,23.541,3.6364,0.1,2.2275e-05,222.6,1.4971e-05,97.702,1.9378e-06,-0.2272,-1.8937e-05,-157.07,2.7834
25900,23.633,3.7273,0.1,2.1065e-05,210.5,1.3137e-05,78.313,2.6711e-06,-0.32696,-1.8605e-05,-160.19,2.7988
25901,23.358,3.6364,0.1,2.4587e-05,245.7,1.8513e-05,136.35,3.4835e-07,-0.13097,-1.9238e-05,-147.29,2.7525
25902,23.45,3.7273,0.1,2.3211e-05,231.95,1.6671e-05,116.99,1.0814e-06,-0.1419,-1.8886e-05,-150.17,2.7679
25903,23.174,3.6364,0.1,2.7178e-05,271.59,2.2059e-05,174.85,-1.2269e-06,-0.10792,-1.9583e-05,-138.03,2.7217
25904,23.266,3.7273,0.1,2.5681e-05,256.63,2.0212e-05,155.51,-5.0153e-07,-0.12425,-1.9211e-05,-140.7,2.7371
25905,22.991,3.6364,0.1,2.9981e-05,299.6,2.5613e-05,213.27,-2.7828e-06,-0.085223,-1.9974e-05,-129.25,2.6909
25906,23.083,3.7273,0.1,2.8393e-05,283.73,2.3758e-05,193.92,-2.0632e-06,-0.092793,-1.9582e-05,-131.72,2.7063
25907,22.807,3.6364,0.1,3.2948e-05,329.25,2.9178e-05,251.63,-4.3216e-06,-0.071839,-2.0414e-05,-120.98,2.6602
25908,22.899,3.7273,0.1,3.1291e-05,312.69,2.7315e-05,232.26,-3.6074e-06,-0.077705,-2.0002e-05,-123.26,2.6755
25909,22.624,3.6364,0.1,3.6045e-05,360.2,3.2759e-05,289.99,-5.8443e-06,-0.061528,-2.0902e-05,-113.2,2.6294
25910,22.716,3.7273,0.1,3.4335e-05,343.11,3.0888e-05,270.59,-5.1346e-06,-0.065509,-2.0472e-05,-115.3,2.6448
25911,22.44,3.6364,0.1,3.9249e-05,392.22,3.636e-05,328.38,-7.3524e-06,-0.053848,-2.1439e-05,-105.9,2.5987
25912,22.532,3.7273,0.1,3.7497e-05,374.71,3.4479e-05,308.94,-6.6465e-06,-0.056824,-2.0992e-05,-107.85,2.614
25913,22.257,3.6364,0.1,4.2543e-05,425.14,3.9983e-05,366.84,-8.8475e-06,-0.047779,-2.2026e-05,-99.067,2.568
25914,22.349,3.7273,0.1,4.0757e-05,407.29,3.8092e-05,347.36,-8.1447e-06,-0.050005,-2.1563e-05,-100.87,2.5833
25915,22.073,3.6364,0.1,4.5915e-05,458.84,4.3631e-05,405.4,-1.0331e-05,-0.042896,-2.2661e-05,-92.686,2.5373
25916,22.165,3.7273,0.1,4.41e-05,440.7,4.173e-05,385.86,-9.6308e-06,-0.044602,-2.2183e-05,-94.357,2.5526
25917,21.89,3.6364,0.1,4.9356e-05,493.22,4.7305e-05,444.09,-1.1805e-05,-0.038873,-2.3343e-05,-86.737,2.5066
25918,21.982,3.7273,0.1,4.7517e-05,474.84,4.5395e-05,424.49,-1.1106e-05,-0.040191,-2.2851e-05,-88.288,2.5219
25919,21.706,3.6364,0.1,5.2859e-05,528.23,5.1007e-05,482.91,-1.3269e-05,-0.035499,-2.4071e-05,-81.197,2.476
25920,21.798,3.7273,0.1,5.0998e-05,509.63,4.9087e-05,463.25,-1.2572e-05,-0.036528,-2.3566e-05,-82.639,2.4913
25921,21.523,3.6364,0.1,5.6418e-05,563.79,5.4738e-05,521.9,-1.4727e-05,-0.032624,-2.4843e-05,-76.044,2.4454
25922,21.615,3.7273,0.1,5.4539e-05,545.01,5.2808e-05,502.17,-1.4031e-05,-0.03343,-2.4326e-05,-77.388,2.4607
25923,21.34,3.6364,0.1,6.0029e-05,599.88,5.8498e-05,561.06,-1.6178e-05,-0.030151,-2.5657e-05,-71.255,2.4149
25924,21.431,3.7273,0.1,5.8133e-05,580.93,5.6558e-05,541.26,-1.5482e-05,-0.030773,-2.5129e-05,-72.509,2.4301
25925,21.156,3.6364,0.1,6.3689e-05,636.45,6.2288e-05,600.39,-1.7623e-05,-0.027999,-2.6511e-05,-66.808,2.3844
25926,21.248,3.7273,0.1,6.1776e-05,617.34,6.0338e-05,580.52,-1.6928e-05,-0.028485,-2.5972e-05,-67.98,2.3996
25927,20.973,3.6364,0.1,6.7393e-05,673.47,6.6107e-05,639.92,-1.9065e-05,-0.026104,-2.7404e-05,-62.681,2.3539
25928,21.064,3.7273,0.1,6.5466e-05,654.21,6.4147e-05,619.98,-1.837e-05,-0.026478,-2.6855e-05,-63.777,2.3691
25929,20.789,3.6364,0.1,7.1141e-05,710.91,6.9956e-05,679.65,-2.0503e-05,-0.02443,-2.8332e-05,-58.851,2.3235
25930,20.881,3.7273,0.1,6.92e-05,691.52,6.7986e-05,659.62,-1.9808e-05,-0.024711,-2.7774e-05,-59.878,2.3386
25931,20.606,3.6364,0.1,7.4928e-05,748.77,7.3834e-05,719.57,-2.1939e-05,-0.022935,-2.9295e-05,-55.299,2.2931
25932,20.697,3.7273,0.1,7.2974e-05,729.24,7.1854e-05,699.47,-2.1243e-05,-0.023144,-2.8728e-05,-56.262,2.3082
25933,20.422,3.6364,0.1,7.8755e-05,787,7.7741e-05,759.7,-2.3372e-05,-0.021591,-3.0291e-05,-52.004,2.2628
25934,20.514,3.7273,0.1,7.6788e-05,767.35,7.5751e-05,739.52,-2.2676e-05,-0.021731,-2.9715e-05,-52.909,2.2779
25935,20.239,3.6364,0.1,8.2618e-05,825.61,8.1676e-05,800.04,-2.4805e-05,-0.020386,-3.1317e-05,-48.947,2.2325
25936,20.33,3.7273,0.1,8.0639e-05,805.83,7.9676e-05,779.77,-2.4108e-05,-0.020477,-3.0733e-05,-49.798,2.2476
25937,20.055,3.6364,0.1,8.6517e-05,864.57,8.564e-05,840.58,-2.6238e-05,-0.0193,-3.2372e-05,-46.112,2.2023
25938,20.147,3.7273,0.1,8.4525e-05,844.67,8.3629e-05,820.23,-2.5539e-05,-0.019344,-3.178e-05,-46.913,2.2173
25939,19.872,3.6364,0.1,9.0449e-05,903.87,8.9631e-05,881.33,-2.767e-05,-0.018311,-3.3455e-05,-43.481,2.1721
25940,19.963,3.7273,0.1,8.8446e-05,883.85,8.761e-05,860.89,-2.697e-05,-0.018325,-3.2855e-05,-44.237,2.1871
25941,19.688,3.6364,0.1,9.4414e-05,943.49,9.3649e-05,922.29,-2.9103e-05,-0.017401,-3.4563e-05,-41.039,2.142
25942,19.78,3.7273,0.1,9.24e-05,923.36,9.1618e-05,901.77,-2.8402e-05,-0.017384,-3.3956e-05,-41.752,2.157
25943,19.505,3.6364,0.1,9.8411e-05,983.43,9.7694e-05,963.47,-3.0538e-05,-0.016576,-3.5696e-05,-38.771,2.112
25944,19.596,3.7273,0.1,9.6385e-05,963.18,9.5653e-05,942.85,-2.9834e-05,-0.016524,-3.5082e-05,-39.445,2.1269
25945,19.321,3.6364,0.1,0.00010244,1023.7,0.00010177,1004.8,-3.1974e-05,-0.01582,-3.6851e-05,-36.664,2.082
25946,19.413,3.7273,0.1,0.0001004,1003.3,9.9714e-05,984.14,-3.1269e-05,-0.015753,-3.6231e-05,-37.302,2.0969
25947,19.138,3.6364,0.1,0.0001065,1064.2,0.00010586,1046.4,-3.3412e-05,-0.015119,-3.8028e-05,-34.704,2.0521
25948,19.229,3.7273,0.1,0.00010445,1043.7,0.0001038,1025.6,-3.2705e-05,-0.015029,-3.7402e-05,-35.308,2.067
25949,18.954,3.6364,0.1,0.00011058,1105,0.00010998,1088.2,-3.4852e-05,-0.014474,-3.9226e-05,-32.879,2.0222
25950,19.046,3.7273,0.1,0.00010852,1084.5,0.00010791,1067.3,-3.4143e-05,-0.014367,-3.8594e-05,-33.454,2.0371
25951,18.771,3.6364,0.1,0.00011469,1146.2,0.00011413,1130.2,-3.6296e-05,-0.013872,-4.0443e-05,-31.179,1.9925
25952,18.863,3.7273,0.1,0.00011262,1125.5,0.00011205,1109.3,-3.5584e-05,-0.013756,-3.9805e-05,-31.726,2.0073
25953,18.587,3.6364,0.1,0.00011884,1187.5,0.0001183,1172.5,-3.7742e-05,-0.01331,-4.1679e-05,-29.593,1.9628
25954,18.679,3.7273,0.1,0.00011675,1166.7,0.00011621,1151.4,-3.7029e-05,-0.013178,-4.1035e-05,-30.114,1.9776
25955,18.404,3.6364,0.1,0.000123,1229.2,0.0001225,1214.9,-3.9192e-05,-0.012794,-4.2931e-05,-28.11,1.9332
25956,18.496,3.7273,0.1,0.00012091,1208.3,0.0001204,1193.7,-3.8476e-05,-0.012648,-4.2282e-05,-28.609,1.9479
25957,18.22,3.6364,0.1,0.0001272,1271.1,0.00012672,1257.5,-4.0645e-05,-0.01232,-4.42e-05,-26.722,1.9037
25958,18.312,3.7273,0.1,0.00012509,1250.1,0.00012461,1236.2,-3.9927e-05,-0.012159,-4.3546e-05,-27.201,1.9184
25959,18.037,3.6364,0.1,0.00013142,1313.2,0.00013096,1300.3,-4.2103e-05,-0.011873,-4.5484e-05,-25.42,1.8742
25960,18.129,3.7273,0.1,0.0001293,1292.1,0.00012884,1279,-4.1382e-05,-0.011713,-4.4825e-05,-25.881,1.8889
25961,17.853,3.6364,0.1,0.00013566,1355.7,0.00013523,1343.4,-4.3565e-05,-0.011444,-4.6783e-05,-24.196,1.8449
25962,17.945,3.7273,0.1,0.00013353,1334.4,0.0001331,1321.9,-4.2841e-05,-0.011277,-4.6119e-05,-24.641,1.8595
25963,17.67,3.6364,0.1,0.00013993,1398.3,0.00013952,1386.6,-4.5031e-05,-0.011052,-4.8096e-05,-23.043,1.8156
25964,17.762,3.7273,0.1,0.00013779,1377,0.00013738,1365.1,-4.4305e-05,-0.010868,-4.7427e-05,-23.474,1.8302
25965,17.486,3.6364,0.1,0.00014422,1441.2,0.00014383,1430.1,-4.6502e-05,-0.010686,-4.9422e-05,-21.952,1.7865
25966,17.578,3.7273,0.1,0.00014207,1419.8,0.00014168,1408.4,-4.5773e-05,-0.010505,-4.8749e-05,-22.372,1.801
25967,17.303,3.6364,0.1,0.00014853,1484.3,0.00014817,1473.7,-4.7977e-05,-0.010335,-5.076e-05,-20.917,1.7574
25968,17.395,3.7273,0.1,0.00014638,1462.8,0.000146,1452,-4.7245e-05,-0.010146,-5.0083e-05,-21.328,1.7719
25969,17.119,3.6364,0.1,0.00015287,1527.7,0.00015252,1517.6,-4.9458e-05,-0.010006,-5.2109e-05,-19.933,1.7284
25970,17.211,3.7273,0.1,0.00015071,1506,0.00015035,1495.7,-4.8723e-05,-0.0098116,-5.1428e-05,-20.335,1.7428
25971,16.936,3.6364,0.1,0.00015723,1571.2,0.0001569,1561.7,-5.0944e-05,-0.0096872,-5.347e-05,-18.991,1.6996
25972,17.028,3.7273,0.1,0.00015506,1549.5,0.00015472,1539.7,-5.0206e-05,-0.0094976,-5.2785e-05,-19.389,1.7139
25973,16.753,3.6364,0.1,0.00016162,1615,0.0001613,1605.9,-5.2435e-05,-0.0093809,-5.4841e-05,-18.088,1.6708
25974,16.844,3.7273,0.1,0.00015943,1593.2,0.00015911,1583.9,-5.1694e-05,-0.0091834,-5.4153e-05,-18.482,1.6851
25975,16.569,3.6364,0.1,0.00016602,1659,0.00016572,1650.4,-5.3932e-05,-0.0090977,-5.6222e-05,-17.216,1.6421
25976,16.661,3.7273,0.1,0.00016382,1637.1,0.00016352,1628.2,-5.3188e-05,-0.0088932,-5.5531e-05,-17.609,1.6564
25977,16.386,3.6364,0.1,0.00017045,1703.3,0.00017016,1695,-5.5435e-05,-0.008838,-5.7613e-05,-16.371,1.6136
25978,16.477,3.7273,0.1,0.00016824,1681.2,0.00016795,1672.8,-5.4688e-05,-0.0086245,-5.6918e-05,-16.764,1.6278
25979,16.202,3.6364,0.1,0.00017489,1747.7,0.00017462,1739.9,-5.6943e-05,-0.0085829,-5.9011e-05,-15.547,1.5852
25980,16.294,3.7273,0.1,0.00017268,1725.6,0.0001724,1717.6,-5.6193e-05,-0.0083801,-5.8314e-05,-15.943,1.5993
25981,16.019,3.6364,0.1,0.00017936,1792.4,0.0001791,1784.9,-5.8458e-05,-0.0083259,-6.0419e-05,-14.738,1.5569
25982,16.11,3.7273,0.1,0.00017714,1770.1,0.00017687,1762.5,-5.7704e-05,-0.0081211,-5.9718e-05,-15.14,1.5709
25983,15.835,3.6364,0.1,0.00018385,1837.2,0.00018361,1830.2,-5.9979e-05,-0.0080922,-6.1833e-05,-13.941,1.5287
25984,15.927,3.7273,0.1,0.00018162,1814.9,0.00018137,1807.7,-5.9222e-05,-0.0078697,-6.113e-05,-14.35,1.5427
25985,15.652,3.6364,0.1,0.00018836,1882.3,0.00018813,1875.7,-6.1506e-05,-0.0078676,-6.3255e-05,-13.149,1.5006
25986,15.743,3.7273,0.1,0.00018611,1859.9,0.00018588,1853,-6.0745e-05,-0.0076571,-6.255e-05,-13.568,1.5146
25987,15.468,3.6364,0.1,0.00019289,1927.5,0.00019267,1921.3,-6.304e-05,-0.0076395,-6.4683e-05,-12.359,1.4727
25988,15.56,3.7273,0.1,0.00019063,1905,0.00019041,1898.6,-6.2275e-05,-0.0074238,-6.3976e-05,-12.79,1.4866
25989,15.285,3.6364,0.1,0.00019743,1973,0.00019723,1967.2,-6.458e-05,-0.0074212,-6.6118e-05,-11.564,1.4449
25990,15.376,3.7273,0.1,0.00019517,1950.4,0.00019497,1944.3,-6.3812e-05,-0.0072024,-6.5409e-05,-12.009,1.4587
25991,15.101,3.6364,0.1,0.000202,2018.6,0.00020181,2013.2,-6.6127e-05,-0.0071974,-6.7558e-05,-10.759,1.4172
25992,15.193,3.7273,0.1,0.00019973,1995.9,0.00019954,1990.3,-6.5355e-05,-0.0069875,-6.6848e-05,-11.222,1.4309
25993,14.918,3.6364,0.1,0.00020659,2064.4,0.00020641,2059.4,-6.7681e-05,-0.0069691,-6.9003e-05,-9.9408,1.3897
25994,15.009,3.7273,0.1,0.00020431,2041.7,0.00020413,2036.4,-6.6905e-05,-0.0067519,-6.8292e-05,-10.424,1.4033
25995,14.734,3.6364,0.1,0.00021119,2110.4,0.00021103,2105.9,-6.9242e-05,-0.0067501,-7.0452e-05,-9.1027,1.3623
25996,14.826,3.7273,0.1,0.0002089,2087.6,0.00020874,2082.8,-6.8462e-05,-0.0065262,-6.974e-05,-9.6089,1.3759
25997,14.551,3.6364,0.1,0.00021581,2156.6,0.00021567,2152.5,-7.081e-05,-0.0065391,-7.1906e-05,-8.2399,1.335
25998,14.642,3.7273,0.1,0.00021352,2133.7,0.00021337,2129.3,-7.0027e-05,-0.0063056,-7.1193e-05,-8.7721,1.3485
25999,14.367,3.6364,0.1,0.00022045,2203,0.00022033,2199.3,-7.2386e-05,-0.0063088,-7.3363e-05,-7.3468,1.3079
26000,14.459,3.7273,0.1,0.00021815,2180,0.00021802,2176,-7.1598e-05,-0.0060909,-7.265e-05,-7.9084,1.3213
26001,14.184,3.6364,0.1,0.00022511,2249.5,0.000225,2246.3,-7.3969e-05,-0.0060431,-7.4822e-05,-6.4176,1.2809
26002,14.276,3.7273,0.1,0.0002228,2226.5,0.00022268,2223,-7.3177e-05,-0.0058256,-7.411e-05,-7.0121,1.2943
26003,14,3.6364,0.1,0.00022978,2296.3,0.00022969,2293.5,-7.556e-05,-0.0057625,-7.6284e-05,-5.4467,1.2541
26004,14.092,3.7273,0.1,0.00022747,2273.1,0.00022736,2270.1,-7.4764e-05,-0.00553,-7.5572e-05,-6.0777,1.2674
26005,13.817,3.6364,0.1,0.00023448,2343.1,0.0002344,2340.9,-7.7158e-05,-0.0054213,-7.7747e-05,-4.4276,1.2275
26006,13.909,3.7273,0.1,0.00023215,2319.9,0.00023207,2317.4,-7.6358e-05,-0.0052171,-7.7036e-05,-5.0994,1.2407
26007,13.633,3.6364,0.1,0.00023918,2390.2,0.00023913,2388.5,-7.8765e-05,-0.0049323,-7.9211e-05,-3.354,1.201
26008,13.725,3.7273,0.1,0.00023685,2366.9,0.00023678,2364.9,-7.796e-05,-0.0047709,-7.8502e-05,-4.0707,1.2141
26009,13.45,3.6364,0.1,0.00024391,2437.4,0.00024387,2436.3,-8.038e-05,-0.004084,-8.0675e-05,-2.2193,1.1746
26010,13.542,3.7273,0.1,0.00024157,2414,0.00024152,2412.5,-7.9571e-05,-0.0040988,-7.9968e-05,-2.9854,1.1877
26011,13.266,3.6364,0.1,0.00024865,2484.8,0.00024863,2484.2,-8.2003e-05,-0.001475,-8.2139e-05,-1.0175,1.1485
26012,13.358,3.7273,0.1,0.0002463,2461.3,0.00024627,2460.4,-8.119e-05,-0.0027279,-8.1434e-05,-1.837,1.1614
26013,13.083,3.6364,0.1,0.0002534,2532.3,0.00025341,2532.4,-8.3598e-05,0.28366,-8.3638e-05,-0.021553,1.1224
26014,13.175,3.7273,0.1,0.00025105,2508.8,0.00025104,2508.5,-8.2816e-05,0.0037386,-8.2899e-05,-0.62244,1.1353
26015,12.899,3.6364,0.1,0.00025817,2579.9,0.0002582,2580.7,-8.5059e-05,1.6364,-8.5278e-05,-0.0084533,1.0966
26016,12.991,3.7273,0.1,0.00025582,2556.4,0.00025583,2556.7,-8.436e-05,0.69522,-8.4455e-05,-0.013969,1.1094
26017,12.716,3.6364,0.1,0.00026295,2627.7,0.00026301,2629.3,-8.6515e-05,3.0946,-8.6928e-05,-0.0069886,1.0709
26018,12.808,3.7273,0.1,0.00026059,2604.1,0.00026063,2605.2,-8.5822e-05,2.0769,-8.6099e-05,-0.0082978,1.0836
26019,12.532,3.6364,0.1,0.00026775,2675.6,0.00026783,2678,-8.7968e-05,4.6568,-8.8588e-05,-0.006324,1.0455
26020,12.624,3.7273,0.1,0.00026538,2652,0.00026544,2653.8,-8.7279e-05,3.5593,-8.7754e-05,-0.0069576,1.0581
26021,12.349,3.6364,0.1,0.00027256,2723.7,0.00027266,2726.9,-8.9414e-05,6.3327,-9.0258e-05,-0.0059077,1.0202
26022,12.441,3.7273,0.1,0.00027019,2700,0.00027028,2702.6,-8.8732e-05,5.1483,-8.9418e-05,-0.0062969,1.0327
26023,12.165,3.6364,0.1,0.00027738,2771.9,0.00027752,2775.9,-9.0855e-05,8.133,-9.1938e-05,-0.0056039,0.99503
26024,12.257,3.7273,0.1,0.00027501,2748.2,0.00027512,2751.6,-9.0179e-05,6.8537,-9.1092e-05,-0.0058719,1.0075
26025,11.982,3.6364,0.1,0.00028221,2820.2,0.00028238,2825.2,-9.2287e-05,10.07,-9.3628e-05,-0.0053412,0.97009
26026,12.074,3.7273,0.1,0.00027984,2796.4,0.00027998,2800.8,-9.1619e-05,8.6864,-9.2776e-05,-0.0055649,0.98242
26027,11.799,3.6364,0.1,0.00028705,2868.6,0.00028726,2874.6,-9.3711e-05,12.155,-9.533e-05,-0.0050927,0.94535
26028,11.89,3.7273,0.1,0.00028468,2844.8,0.00028486,2850.1,-9.3052e-05,10.659,-9.4471e-05,-0.0052791,0.95758
26029,11.615,3.6364,0.1,0.00029191,2917.1,0.00029215,2924.2,-9.5125e-05,14.404,-9.7042e-05,-0.0048668,0.92079
26030,11.707,3.7273,0.1,0.00028953,2893.3,0.00028974,2899.6,-9.4475e-05,12.783,-9.6177e-05,-0.0050306,0.93293
26031,11.432,3.6364,0.1,0.00029677,2965.6,0.00029705,2974,-9.6526e-05,16.831,-9.8767e-05,-0.0046324,0.89644
26032,11.523,3.7273,0.1,0.00029439,2941.9,0.00029464,2949.4,-9.5888e-05,15.073,-9.7894e-05,-0.0048084,0.90847
26033,11.248,3.6364,0.1,0.00030164,3014.3,0.00030197,3024,-9.7914e-05,19.451,-0.0001005,-0.0044066,0.87228
26034,11.34,3.7273,0.1,0.00029926,2990.5,0.00029955,2999.3,-9.7288e-05,17.545,-9.9624e-05,-0.0045567,0.88421
26035,11.065,3.6364,0.1,0.00030652,3063.1,0.00030689,3074.1,-9.9286e-05,22.284,-0.00010225,-0.004207,0.84833
26036,11.156,3.7273,0.1,0.00030414,3039.3,0.00030448,3049.3,-9.8674e-05,20.214,-0.00010137,-0.004362,0.86016
26037,10.881,3.6364,0.1,0.0003114,3111.9,0.00031182,3124.5,-0.00010064,25.348,-0.00010402,-0.0039831,0.82458
26038,10.973,3.7273,0.1,0.00030902,3088.1,0.00030941,3099.6,-0.00010005,23.099,-0.00010312,-0.00417,0.83631
26039,10.698,3.6364,0.1,0.00031629,3160.7,0.00031677,3175,-0.00010198,28.665,-0.00010579,-0.0037453,0.80105
26040,10.789,3.7273,0.1,0.00031392,3137,0.00031435,3150,-0.0001014,26.219,-0.00010489,-0.0039352,0.81266
26041,10.514,3.6364,0.1,0.00032119,3209.6,0.00032172,3225.6,-0.00010329,32.256,-0.00010759,-0.0035249,0.77773
26042,10.606,3.7273,0.1,0.00031881,3185.9,0.00031931,3200.6,-0.00010273,29.594,-0.00010667,-0.0037233,0.78923
26043,10.331,3.6364,0.1,0.00032608,3258.6,0.00032668,3276.5,-0.00010458,36.148,-0.00010939,-0.00332,0.75462
26044,10.422,3.7273,0.1,0.00032372,3234.9,0.00032427,3251.4,-0.00010404,33.248,-0.00010847,-0.0035311,0.76602
26045,10.147,3.6364,0.1,0.00033098,3307.6,0.00033165,3327.6,-0.00010585,40.367,-0.00011122,-0.0031071,0.73173
26046,10.239,3.7273,0.1,0.00032862,3284,0.00032924,3302.4,-0.00010533,37.204,-0.00011028,-0.0033581,0.74302
26047,9.9637,3.6364,0.1,0.00033589,3356.6,0.00033663,3378.8,-0.00010708,44.943,-0.00011306,-0.0028781,0.70907
26048,10.055,3.7273,0.1,0.00033353,3333,0.00033422,3353.6,-0.00010659,41.492,-0.00011211,-0.003159,0.72024
26049,9.7802,3.6364,0.1,0.00034079,3405.6,0.00034161,3430.2,-0.00010828,49.91,-0.00011492,-0.0026589,0.68663
26050,9.872,3.7273,0.1,0.00033844,3382.1,0.0003392,3404.9,-0.00010782,46.139,-0.00011396,-0.0029646,0.69769
26051,9.5968,3.6364,0.1,0.0003457,3454.6,0.0003466,3481.9,-0.00010945,55.302,-0.00011681,-0.0024522,0.66443
26052,9.6885,3.7273,0.1,0.00034335,3431.2,0.0003442,3456.5,-0.00010902,51.178,-0.00011583,-0.0027973,0.67537
26053,9.4133,3.6364,0.1,0.0003506,3503.6,0.0003516,3533.8,-0.00011057,61.158,-0.00011871,-0.0022603,0.64245
26054,9.505,3.7273,0.1,0.00034827,3480.3,0.0003492,3508.3,-0.00011018,56.643,-0.00011772,-0.0026427,0.65328
26055,9.2298,3.6364,0.1,0.00035551,3552.6,0.00035661,3585.9,-0.00011166,67.523,-0.00012065,-0.0020959,0.62072
26056,9.3215,3.7273,0.1,0.00035318,3529.4,0.00035421,3560.3,-0.00011131,62.572,-0.00011964,-0.0025215,0.63142
26057,9.0463,3.6364,0.1,0.00036041,3601.6,0.00036162,3638.3,-0.0001127,74.441,-0.0001226,-0.0019702,0.59922
26058,9.1381,3.7273,0.1,0.0003581,3578.5,0.00035922,3612.5,-0.00011239,69.007,-0.00012157,-0.0024418,0.6098
26059,8.8628,3.6364,0.1,0.00036532,3650.7,0.00036665,3691,-0.00011368,81.963,-0.00012459,-0.0019024,0.57797
26060,8.9546,3.7273,0.1,0.00036302,3627.7,0.00036425,3665.1,-0.00011343,75.992,-0.00012354,-0.002423,0.58843
26061,8.6794,3.6364,0.1,0.00037024,3699.8,0.00037169,3744,-0.00011462,90.145,-0.00012662,-0.0019172,0.55696
26062,8.7711,3.7273,0.1,0.00036794,3676.9,0.00036929,3717.9,-0.00011441,83.576,-0.00012554,-0.0024879,0.5673
26063,8.4959,3.6364,0.1,0.00037516,3749,0.00037674,3797.5,-0.00011549,99.047,-0.00012868,-0.0020486,0.53621
26064,8.5876,3.7273,0.1,0.00037287,3726.1,0.00037435,3771.2,-0.00011535,91.809,-0.00012757,-0.0026698,0.54641
26065,8.3124,3.6364,0.1,0.0003801,3798.3,0.00038183,3851.5,-0.00011631,108.73,-0.00013078,-0.0023417,0.51571
26066,8.4041,3.7273,0.1,0.00037781,3775.5,0.00037943,3824.9,-0.00011623,100.75,-0.00012964,-0.0030114,0.52578
26067,8.1289,3.6364,0.1,0.00038506,3847.9,0.00038695,3906.1,-0.00011706,119.27,-0.00013293,-0.0028571,0.49546
26068,8.2206,3.7273,0.1,0.00038277,3825.1,0.00038453,3879.1,-0.00011705,110.45,-0.00013175,-0.0035698,0.50541
26069,7.9454,3.6364,0.1,0.00039005,3897.8,0.00039211,3961.5,-0.00011774,130.74,-0.00013514,-0.0036767,0.47548
26070,8.0372,3.7273,0.1,0.00038776,3874.9,0.00038967,3934,-0.0001178,120.98,-0.00013391,-0.0044218,0.48529
26071,7.7619,3.6364,0.1,0.00039509,3948.2,0.00039733,4017.8,-0.00011835,143.21,-0.00013741,-0.0049095,0.45576
26072,7.8537,3.7273,0.1,0.00039278,3925.1,0.00039487,3989.6,-0.0001185,132.41,-0.00013612,-0.0056695,0.46544
26073,7.5785,3.6364,0.1,0.0004002,3999.3,0.00040264,4075.3,-0.00011889,156.76,-0.00013976,-0.0067003,0.43631
26074,7.6702,3.7273,0.1,0.00039786,3975.9,0.00040013,4046.3,-0.00011913,144.79,-0.0001384,-0.0074483,0.44585
26075,7.395,3.6364,0.1,0.00040541,4051.3,0.00040806,4134.3,-0.00011937,171.48,-0.00014219,-0.0092432,0.41712
26076,7.4867,3.7273,0.1,0.00040302,4027.4,0.00040547,4104.1,-0.0001197,158.21,-0.00014076,-0.0099385,0.42653
26077,7.2115,3.6364,0.1,0.00041075,4104.7,0.00041362,4195.2,-0.00011978,187.43,-0.00014473,-0.012797,0.39822
26078,7.3032,3.7273,0.1,0.00040828,4080,0.00041094,4163.6,-0.00012021,172.71,-0.0001432,-0.01338,0.40749
26079,7.028,3.6364,0.1,0.00041627,4159.9,0.00041938,4258.4,-0.00012014,204.7,-0.00014739,-0.017705,0.37959
26080,7.1198,3.7273,0.1,0.00041369,4134,0.00041657,4225,-0.00012067,188.38,-0.00014574,-0.018092,0.38872
26081,6.8445,3.6364,0.1,0.00042204,4217.5,0.0004254,4324.7,-0.00012046,223.35,-0.00015019,-0.024426,0.36124
26082,6.9363,3.7273,0.1,0.00041929,4190,0.0004224,4288.8,-0.00012109,205.24,-0.00014841,-0.024499,0.37023
26083,6.6611,3.6364,0.1,0.00042813,4278.4,0.00043175,4394.9,-0.00012077,243.41,-0.00015317,-0.033573,0.34318
26084,6.7528,3.7273,0.1,0.00042515,4248.6,0.00042851,4355.8,-0.00012149,223.35,-0.00015122,-0.033162,0.35203
26085,6.4776,3.6364,0.1,0.00043466,4343.6,0.00043856,4469.9,-0.0001211,264.89,-0.00015636,-0.04596,0.32542
26086,6.5693,3.7273,0.1,0.00043136,4310.6,0.00043497,4426.8,-0.0001219,242.71,-0.0001542,-0.044834,0.33412
26087,6.2941,3.6364,0.1,0.00044175,4414.5,0.00044594,4551.3,-0.0001215,287.75,-0.0001598,-0.062672,0.30794
26088,6.3858,3.7273,0.1,0.00043802,4377.2,0.0004419,4502.8,-0.00012235,263.28,-0.0001574,-0.06051,0.31649
26089,6.1106,3.6364,0.1,0.0004496,4492.9,0.00045409,4640.6,-0.00012204,311.86,-0.00016355,-0.085155,0.29077
26090,6.2024,3.7273,0.1,0.00044528,4449.8,0.00044944,4585.3,-0.0001229,284.97,-0.00016084,-0.081518,0.29917
26091,5.9271,3.6364,0.1,0.00045843,4581.1,0.00046322,4740.2,-0.00012281,337,-0.00016768,-0.11533,0.2739
26092,6.0189,3.7273,0.1,0.00045333,4530.2,0.00045778,4676.1,-0.00012363,307.62,-0.00016459,-0.10962,0.28215
26093,5.7437,3.6364,0.1,0.00046854,4682.2,0.00047365,4852.9,-0.00012395,362.79,-0.00017225,-0.15574,0.25735
26094,5.8354,3.7273,0.1,0.0004624,4620.8,0.00046714,4777.3,-0.00012464,330.91,-0.0001687,-0.14718,0.26544
26095,5.5602,3.6364,0.1,0.00048034,4800,0.00048576,4982.4,-0.00012564,388.62,-0.00017739,-0.20978,0.24111
26096,5.6519,3.7273,0.1,0.00047281,4724.9,0.00047784,4892,-0.00012608,354.37,-0.00017327,-0.19731,0.24904
26097,5.3767,3.6364,0.1,0.00049433,4939.9,0.00050006,5133.5,-0.00012813,413.53,-0.00018321,-0.28185,0.2252
26098,5.4684,3.7273,0.1,0.00048497,4846.4,0.00049028,5023.8,-0.00012814,377.27,-0.00017839,-0.26427,0.23296
26099,5.1932,3.6364,0.1,0.00051121,5108.6,0.00051723,5312.5,-0.00013178,436.11,-0.00018987,-0.37802,0.20963
26100,5.285,3.7273,0.1,0.00049941,4990.7,0.00050499,5177.8,-0.0001311,398.48,-0.00018418,-0.35353,0.21721
26101,5.0097,3.6364,0.1,0.00053191,5315.4,0.00053817,5527.7,-0.00013706,454.27,-0.00019759,-0.50576,0.1944
26102,5.1015,3.7273,0.1,0.00051686,5165.1,0.00052268,5360.4,-0.00013534,416.35,-0.00019081,-0.47395,0.20181
26103,4.8263,3.6364,0.1,0.00055768,5572.9,0.00056411,5790.4,-0.00014467,464.92,-0.00020664,-0.67796,0.17954
26104,4.918,3.7273,0.1,0.00053831,5379.3,0.0005443,5580.4,-0.00014139,428.43,-0.00019849,-0.63341,0.18675
26105,4.6428,3.6364,0.1,0.00059029,5898.9,0.00059679,6116.5,-0.00015557,463.55,-0.00021738,-0.90578,0.16506
26106,4.7345,3.7273,0.1,0.00056511,5647.2,0.00057118,5849.9,-0.00015001,431.11,-0.0002075,-0.86495,0.17207
26107,4.4593,3.6364,0.1,0.00063234,6319,0.00063869,6528.4,-0.00017116,443.54,-0.00023036,-1.2321,0.15097
26108,4.551,3.7273,0.1,0.00059924,5988.2,0.00060524,6186.1,-0.0001623,419.13,-0.00021824,-1.1415,0.15776
26109,4.2758,3.6364,0.1,0.00068773,6872.5,0.00069356,7060.6,-0.00019357,395.13,-0.00024638,-1.7129,0.13731
26110,4.3676,3.7273,0.1,0.00064367,6432.3,0.00064931,6615,-0.0001799,384.62,-0.00023132,-1.7662,0.14386
26111,4.0923,3.6364,0.1,0.00076271,7621.8,0.00076738,7768,-0.00022608,303.54,-0.00026675,-2.0624,0.12411
26112,4.1841,3.7273,0.1,0.00070305,7025.7,0.00070786,7177.5,-0.0002053,316.3,-0.00024766,-1.954,0.13039
26113,3.9088,3.6364,0.1,0.00086813,8675.3,0.00087041,8744.2,-0.00027404,145.28,-0.0002941,-5.4027,0.11141
26114,4.0006,3.7273,0.1,0.00078554,7850,0.00078858,7943,-0.00024257,195.4,-0.00026931,-5.5088,0.11739
26115,3.7254,3.6364,0.1,0.0010215,10208,0.0010194,10148,-0.00033082,3.0189,-0.00034732,-121,0.099281
26116,3.8171,3.7273,0.1,0.00090515,9045.3,0.00090509,9043.3,-0.00029728,9.2248,-0.00030026,-13.16,0.1049
26117,3.5419,3.6364,0.1,0.0012442,12434,0.0012341,12156,-0.00038131,18.133,-0.00045746,-554.09,0.087803
26118,3.6336,3.7273,0.1,0.0010953,10946,0.0010888,10760,-0.00034603,-20.137,-0.00038901,-343.12,0.092998
26119,3.4501,3.7273,0.1,0.0014128,14118,0.0013954,13650,-0.00042008,9.2893,-0.00054124,-901.04,0.081792
26120,3.3584,3.6364,0.1,0.0014765,14755,0.0014578,14256,-0.0004345,38.44,-0.00057036,-982.33,0.077117
26121,23.725,3.8182,0.1,1.9964e-05,199.5,1.1302e-05,58.928,3.4299e-06,-0.22105,-1.8296e-05,-163.46,2.8141
26122,23.817,3.9091,0.1,1.8925e-05,189.12,9.4647e-06,39.667,4.1591e-06,-0.19701,-1.7936e-05,-166.21,2.8295
26123,23.908,3.8182,0.1,1.856e-05,185.47,7.9766e-06,22.32,4.9482e-06,-0.43457,-1.8083e-05,-173.48,2.845
26124,23.541,3.8182,0.1,2.1918e-05,219.03,1.4836e-05,97.596,1.8169e-06,-0.22475,-1.8556e-05,-153.3,2.7833
26125,23.633,3.9091,0.1,2.0652e-05,206.38,1.2988e-05,78.238,2.5318e-06,-0.32351,-1.8173e-05,-155.89,2.7987
26126,23.358,3.8182,0.1,2.4245e-05,242.29,1.8371e-05,136.16,2.3232e-07,-0.12905,-1.886e-05,-143.58,2.7525
26127,23.45,3.9091,0.1,2.2815e-05,227.99,1.6513e-05,116.81,9.4727e-07,-0.13949,-1.8455e-05,-145.92,2.7679
26128,23.174,3.8182,0.1,2.6854e-05,268.35,2.1912e-05,174.58,-1.3374e-06,-0.10622,-1.9211e-05,-134.4,2.7217
26129,23.266,3.9091,0.1,2.5304e-05,252.86,2.0047e-05,155.23,-6.296e-07,-0.12213,-1.8786e-05,-136.54,2.7371
26130,22.991,3.8182,0.1,2.9674e-05,296.53,2.5463e-05,212.93,-2.8875e-06,-0.083662,-1.9612e-05,-125.74,2.6909
26131,23.083,3.9091,0.1,2.8035e-05,280.16,2.3589e-05,193.56,-2.1846e-06,-0.090897,-1.9166e-05,-127.68,2.7063
26132,22.807,3.8182,0.1,3.2658e-05,326.36,2.9027e-05,251.24,-4.4202e-06,-0.070371,-2.0063e-05,-117.6,2.6601
26133,22.899,3.9091,0.1,3.0954e-05,309.32,2.7144e-05,231.84,-3.7218e-06,-0.07594,-1.9598e-05,-119.37,2.6755
26134,22.624,3.8182,0.1,3.5773e-05,357.49,3.261e-05,289.56,-5.9367e-06,-0.060126,-2.0565e-05,-109.97,2.6294
26135,22.716,3.9091,0.1,3.4019e-05,339.95,3.0718e-05,270.12,-5.2419e-06,-0.063833,-2.0084e-05,-111.58,2.6447
26136,22.44,3.8182,0.1,3.8996e-05,389.69,3.6214e-05,327.94,-7.4387e-06,-0.052492,-2.1119e-05,-102.84,2.5986
26137,22.532,3.9091,0.1,3.7202e-05,371.76,3.4312e-05,308.45,-6.7468e-06,-0.055213,-2.0622e-05,-104.31,2.614
26138,22.257,3.8182,0.1,4.2309e-05,422.79,3.9843e-05,366.4,-8.9279e-06,-0.046456,-2.1723e-05,-96.184,2.5679
26139,22.349,3.9091,0.1,4.0483e-05,404.55,3.7932e-05,346.85,-8.2382e-06,-0.048439,-2.1212e-05,-97.53,2.5832
26140,22.073,3.8182,0.1,4.5699e-05,456.68,4.3498e-05,404.97,-1.0406e-05,-0.041602,-2.2377e-05,-89.985,2.5372
26141,22.165,3.9091,0.1,4.3848e-05,438.18,4.1577e-05,385.37,-9.7177e-06,-0.043073,-2.1853e-05,-91.225,2.5525
26142,21.89,3.8182,0.1,4.9158e-05,491.24,4.7181e-05,443.68,-1.1874e-05,-0.037604,-2.3078e-05,-84.218,2.5066
26143,21.982,3.9091,0.1,4.7286e-05,472.53,4.5251e-05,424.01,-1.1187e-05,-0.038695,-2.2543e-05,-85.365,2.5219
26144,21.706,3.8182,0.1,5.2679e-05,526.42,5.0892e-05,482.53,-1.3334e-05,-0.034255,-2.3825e-05,-78.859,2.4759
26145,21.798,3.9091,0.1,5.0788e-05,507.53,4.8953e-05,462.81,-1.2647e-05,-0.035062,-2.328e-05,-79.925,2.4912
26146,21.523,3.8182,0.1,5.6255e-05,562.16,5.4632e-05,521.56,-1.4787e-05,-0.031403,-2.4616e-05,-73.883,2.4454
26147,21.615,3.9091,0.1,5.4348e-05,543.1,5.2685e-05,501.77,-1.41e-05,-0.031995,-2.4062e-05,-74.877,2.4606
26148,21.34,3.8182,0.1,5.9883e-05,598.41,5.8402e-05,560.75,-1.6233e-05,-0.028953,-2.5448e-05,-69.266,2.4148
26149,21.431,3.9091,0.1,5.7961e-05,579.21,5.6447e-05,540.9,-1.5547e-05,-0.029369,-2.4886e-05,-70.196,2.43
26150,21.156,3.8182,0.1,6.3558e-05,635.14,6.2202e-05,600.14,-1.7675e-05,-0.026826,-2.632e-05,-64.982,2.3843
26151,21.248,3.9091,0.1,6.1623e-05,615.8,6.0237e-05,580.22,-1.6988e-05,-0.027112,-2.575e-05,-65.855,2.3995
26152,20.973,3.8182,0.1,6.7277e-05,672.3,6.6031e-05,639.71,-1.9113e-05,-0.024959,-2.7229e-05,-61.009,2.3538
26153,21.064,3.9091,0.1,6.533e-05,652.85,6.4058e-05,619.72,-1.8426e-05,-0.025137,-2.6651e-05,-61.831,2.369
26154,20.789,3.8182,0.1,7.1038e-05,709.89,6.9889e-05,679.48,-2.0548e-05,-0.023311,-2.8174e-05,-57.324,2.3234
26155,20.881,3.9091,0.1,6.9079e-05,690.32,6.7907e-05,659.42,-1.986e-05,-0.023403,-2.7589e-05,-58.101,2.3386
26156,20.606,3.8182,0.1,7.4839e-05,747.87,7.3775e-05,719.45,-2.198e-05,-0.021841,-2.9152e-05,-53.908,2.293
26157,20.697,3.9091,0.1,7.2869e-05,728.18,7.1785e-05,699.31,-2.1291e-05,-0.021868,-2.8561e-05,-54.642,2.3082
26158,20.422,3.8182,0.1,7.8677e-05,786.23,7.7691e-05,759.62,-2.3411e-05,-0.020525,-3.0161e-05,-50.739,2.2627
26159,20.514,3.9091,0.1,7.6696e-05,766.43,7.5691e-05,739.41,-2.2721e-05,-0.020493,-2.9564e-05,-51.436,2.2778
26160,20.239,3.8182,0.1,8.2551e-05,824.94,8.1634e-05,799.99,-2.4841e-05,-0.019344,-3.1201e-05,-47.801,2.2324
26161,20.33,3.9091,0.1,8.056e-05,805.04,7.9626e-05,779.71,-2.415e-05,-0.019265,-3.0597e-05,-48.462,2.2475
26162,20.055,3.8182,0.1,8.646e-05,864,8.5605e-05,840.57,-2.6271e-05,-0.018282,-3.2268e-05,-45.074,2.2022
26163,20.147,3.9091,0.1,8.4458e-05,844,8.3587e-05,820.21,-2.5578e-05,-0.018162,-3.1658e-05,-45.703,2.2172
26164,19.872,3.8182,0.1,9.0402e-05,903.39,8.9602e-05,881.36,-2.7702e-05,-0.017316,-3.3362e-05,-42.544,2.172
26165,19.963,3.9091,0.1,8.8389e-05,883.28,8.7576e-05,860.91,-2.7007e-05,-0.017171,-3.2746e-05,-43.143,2.187
26166,19.688,3.8182,0.1,9.4375e-05,943.1,9.3627e-05,922.35,-2.9133e-05,-0.01643,-3.448e-05,-40.195,2.1419
26167,19.78,3.9091,0.1,9.2353e-05,922.89,9.1591e-05,901.82,-2.8436e-05,-0.016258,-3.386e-05,-40.766,2.1569
26168,19.505,3.8182,0.1,9.838e-05,983.12,9.7678e-05,963.56,-3.0566e-05,-0.015627,-3.5623e-05,-38.012,2.1119
26169,19.596,3.9091,0.1,9.6347e-05,962.81,9.5633e-05,942.94,-2.9867e-05,-0.015426,-3.4996e-05,-38.558,2.1268
26170,19.321,3.8182,0.1,0.00010241,1023.4,0.00010175,1005,-3.2e-05,-0.014891,-3.6787e-05,-35.983,2.0819
26171,19.413,3.9091,0.1,0.00010037,1003,9.97e-05,984.26,-3.1299e-05,-0.014679,-3.6156e-05,-36.505,2.0968
26172,19.138,3.8182,0.1,0.00010648,1064,0.00010586,1046.6,-3.3436e-05,-0.01421,-3.7972e-05,-34.095,2.052
26173,19.229,3.9091,0.1,0.00010442,1043.5,0.00010379,1025.8,-3.2733e-05,-0.013981,-3.7336e-05,-34.596,2.0669
26174,18.954,3.8182,0.1,0.00011057,1104.9,0.00010998,1088.4,-3.4876e-05,-0.013584,-3.9177e-05,-32.337,2.0221
26175,19.046,3.9091,0.1,0.00010851,1084.3,0.00010791,1067.5,-3.417e-05,-0.013341,-3.8536e-05,-32.817,2.037
26176,18.771,3.8182,0.1,0.00011469,1146.1,0.00011414,1130.4,-3.6318e-05,-0.013,-4.0401e-05,-30.697,1.9924
26177,18.863,3.9091,0.1,0.00011261,1125.4,0.00011205,1109.5,-3.561e-05,-0.012752,-3.9755e-05,-31.16,2.0072
26178,18.587,3.8182,0.1,0.00011883,1187.5,0.00011831,1172.7,-3.7763e-05,-0.012455,-4.1643e-05,-29.167,1.9627
26179,18.679,3.9091,0.1,0.00011675,1166.7,0.00011622,1151.6,-3.7053e-05,-0.012195,-4.0992e-05,-29.613,1.9775
26180,18.404,3.8182,0.1,0.00012301,1229.2,0.00012251,1215.1,-3.9211e-05,-0.011954,-4.2901e-05,-27.736,1.9331
26181,18.496,3.9091,0.1,0.00012091,1208.3,0.00012041,1194,-3.8499e-05,-0.011683,-4.2246e-05,-28.168,1.9478
26182,18.22,3.8182,0.1,0.0001272,1271.2,0.00012673,1257.7,-4.0664e-05,-0.011495,-4.4175e-05,-26.395,1.9036
26183,18.312,3.9091,0.1,0.0001251,1250.1,0.00012462,1236.5,-3.9949e-05,-0.011213,-4.3516e-05,-26.814,1.9182
26184,18.037,3.8182,0.1,0.00013143,1313.4,0.00013098,1300.6,-4.212e-05,-0.011062,-4.5464e-05,-25.137,1.8741
26185,18.129,3.9091,0.1,0.00012931,1292.2,0.00012886,1279.3,-4.1402e-05,-0.010785,-4.4801e-05,-25.545,1.8888
26186,17.853,3.8182,0.1,0.00013567,1355.8,0.00013525,1343.7,-4.3581e-05,-0.010647,-4.6768e-05,-23.953,1.8448
26187,17.945,3.9091,0.1,0.00013355,1334.6,0.00013312,1322.2,-4.286e-05,-0.010365,-4.61e-05,-24.352,1.8594
26188,17.67,3.8182,0.1,0.00013994,1398.5,0.00013954,1386.9,-4.5046e-05,-0.010269,-4.8085e-05,-22.837,1.8155
26189,17.762,3.9091,0.1,0.00013781,1377.2,0.0001374,1365.4,-4.4323e-05,-0.0099722,-4.7413e-05,-23.227,1.83
26190,17.486,3.8182,0.1,0.00014424,1441.4,0.00014386,1430.4,-4.6516e-05,-0.0099143,-4.9414e-05,-21.781,1.7863
26191,17.578,3.9091,0.1,0.00014209,1420,0.0001417,1408.7,-4.579e-05,-0.0096242,-4.8739e-05,-22.165,1.8008
26192,17.303,3.8182,0.1,0.00014856,1484.5,0.00014819,1474,-4.7991e-05,-0.0095739,-5.0756e-05,-20.779,1.7573
26193,17.395,3.9091,0.1,0.0001464,1463,0.00014603,1452.3,-4.7262e-05,-0.0092787,-5.0077e-05,-21.158,1.7717
26194,17.119,3.8182,0.1,0.0001529,1527.9,0.00015255,1517.9,-4.9471e-05,-0.0092558,-5.2109e-05,-19.825,1.7283
26195,17.211,3.9091,0.1,0.00015073,1506.3,0.00015038,1496.1,-4.8739e-05,-0.0089582,-5.1426e-05,-20.201,1.7427
26196,16.936,3.8182,0.1,0.00015726,1571.5,0.00015693,1562,-5.0957e-05,-0.0089471,-5.3472e-05,-18.912,1.6994
26197,17.028,3.9091,0.1,0.00015509,1549.8,0.00015475,1540.1,-5.0221e-05,-0.008656,-5.2787e-05,-19.287,1.7138
26198,16.753,3.8182,0.1,0.00016164,1615.3,0.00016133,1606.2,-5.2447e-05,-0.0086501,-5.4847e-05,-18.035,1.6707
26199,16.844,3.9091,0.1,0.00015946,1593.5,0.00015914,1584.2,-5.1708e-05,-0.0083528,-5.4158e-05,-18.411,1.6849
26200,16.569,3.8182,0.1,0.00016605,1659.4,0.00016575,1650.7,-5.3944e-05,-0.0083755,-5.623e-05,-17.189,1.642
26201,16.661,3.9091,0.1,0.00016386,1637.5,0.00016355,1628.6,-5.3201e-05,-0.008074,-5.5538e-05,-17.567,1.6562
26202,16.386,3.8182,0.1,0.00017048,1703.6,0.00017019,1695.4,-5.5446e-05,-0.0081232,-5.7623e-05,-16.368,1.6135
26203,16.477,3.9091,0.1,0.00016828,1681.6,0.00016799,1673.2,-5.47e-05,-0.0078153,-5.6928e-05,-16.75,1.6276
26204,16.202,3.8182,0.1,0.00017493,1748.1,0.00017466,1740.2,-5.6954e-05,-0.0078758,-5.9025e-05,-15.568,1.585
26205,16.294,3.9091,0.1,0.00017272,1726,0.00017244,1717.9,-5.6205e-05,-0.0075799,-5.8327e-05,-15.956,1.5991
26206,16.019,3.8182,0.1,0.0001794,1792.7,0.00017914,1785.3,-5.8468e-05,-0.0076233,-6.0434e-05,-14.783,1.5567
26207,16.11,3.9091,0.1,0.00017718,1770.5,0.00017691,1762.9,-5.7715e-05,-0.0073297,-5.9735e-05,-15.179,1.5708
26208,15.835,3.8182,0.1,0.00018389,1837.6,0.00018364,1830.5,-5.9988e-05,-0.007394,-6.1851e-05,-14.008,1.5285
26209,15.927,3.9091,0.1,0.00018166,1815.3,0.00018141,1808.1,-5.9232e-05,-0.0070842,-6.115e-05,-14.414,1.5425
26210,15.652,3.8182,0.1,0.0001884,1882.7,0.00018817,1876,-6.1514e-05,-0.0071737,-6.3275e-05,-13.238,1.5005
26211,15.743,3.9091,0.1,0.00018616,1860.3,0.00018592,1853.4,-6.0755e-05,-0.0068784,-6.2572e-05,-13.657,1.5144
26212,15.468,3.8182,0.1,0.00019293,1927.9,0.00019271,1921.7,-6.3047e-05,-0.0069481,-6.4706e-05,-12.47,1.4725
26213,15.56,3.9091,0.1,0.00019068,1905.5,0.00019046,1899,-6.2284e-05,-0.00665,-6.4001e-05,-12.903,1.4864
26214,15.285,3.8182,0.1,0.00019748,1973.4,0.00019727,1967.5,-6.4587e-05,-0.0067312,-6.6143e-05,-11.697,1.4447
26215,15.376,3.9091,0.1,0.00019522,1950.9,0.00019501,1944.7,-6.382e-05,-0.0064322,-6.5436e-05,-12.148,1.4585
26216,15.101,3.8182,0.1,0.00020204,2019,0.00020186,2013.6,-6.6134e-05,-0.0065058,-6.7585e-05,-10.915,1.417
26217,15.193,3.9091,0.1,0.00019978,1996.4,0.00019958,1990.7,-6.5363e-05,-0.0062196,-6.6878e-05,-11.386,1.4307
26218,14.918,3.8182,0.1,0.00020663,2064.9,0.00020646,2059.8,-6.7687e-05,-0.0062741,-6.9033e-05,-10.12,1.3895
26219,15.009,3.9091,0.1,0.00020436,2042.2,0.00020418,2036.8,-6.6912e-05,-0.005983,-6.8324e-05,-10.612,1.4031
26220,14.734,3.8182,0.1,0.00021124,2110.9,0.00021108,2106.2,-6.9247e-05,-0.0060484,-7.0485e-05,-9.3058,1.3621
26221,14.826,3.9091,0.1,0.00020896,2088.1,0.00020879,2083.2,-6.8469e-05,-0.0057544,-6.9776e-05,-9.8236,1.3757
26222,14.551,3.8182,0.1,0.00021586,2157.1,0.00021572,2152.9,-7.0815e-05,-0.0058265,-7.1941e-05,-8.4677,1.3348
26223,14.642,3.9091,0.1,0.00021357,2134.3,0.00021342,2129.7,-7.0032e-05,-0.0055282,-7.1231e-05,-9.0138,1.3483
26224,14.367,3.8182,0.1,0.0002205,2203.5,0.00022037,2199.7,-7.239e-05,-0.0055803,-7.3401e-05,-7.6004,1.3077
26225,14.459,3.9091,0.1,0.00021821,2180.6,0.00021807,2176.5,-7.1603e-05,-0.0053022,-7.2691e-05,-8.1782,1.3211
26226,14.184,3.8182,0.1,0.00022516,2250.1,0.00022505,2246.7,-7.3972e-05,-0.0052907,-7.4863e-05,-6.6985,1.2807
26227,14.276,3.9091,0.1,0.00022286,2227.1,0.00022273,2223.4,-7.3182e-05,-0.0050216,-7.4154e-05,-7.3115,1.2941
26228,14,3.8182,0.1,0.00022984,2296.8,0.00022974,2293.9,-7.5562e-05,-0.004973,-7.6328e-05,-5.7562,1.2539
26229,14.092,3.9091,0.1,0.00022753,2273.7,0.00022742,2270.5,-7.4767e-05,-0.0047008,-7.562e-05,-6.4082,1.2672
26230,13.817,3.8182,0.1,0.00023453,2343.7,0.00023445,2341.3,-7.716e-05,-0.0045772,-7.7794e-05,-4.7678,1.2273
26231,13.909,3.9091,0.1,0.00023222,2320.6,0.00023212,2317.8,-7.6361e-05,-0.004353,-7.7087e-05,-5.4628,1.2405
26232,13.633,3.8182,0.1,0.00023924,2390.8,0.00023918,2388.9,-7.8766e-05,-0.0040077,-7.9262e-05,-3.7268,1.2008
26233,13.725,3.9091,0.1,0.00023692,2367.6,0.00023684,2365.3,-7.7962e-05,-0.0038573,-7.8557e-05,-4.4693,1.2139
26234,13.45,3.8182,0.1,0.00024397,2438,0.00024393,2436.7,-8.038e-05,-0.0030553,-8.073e-05,-2.6272,1.1744
26235,13.542,3.9091,0.1,0.00024164,2414.7,0.00024158,2413,-7.9572e-05,-0.0031253,-8.0027e-05,-3.4216,1.1874
26236,13.266,3.8182,0.1,0.00024871,2485.4,0.00024869,2484.7,-8.2003e-05,-0.00069778,-8.2197e-05,-1.4626,1.1482
26237,13.358,3.9091,0.1,0.00024638,2462.1,0.00024634,2460.9,-8.1189e-05,-0.0017747,-8.1497e-05,-2.3135,1.1612
26238,13.083,3.8182,0.1,0.00025347,2533,0.00025347,2532.8,-8.3631e-05,0.024449,-8.3667e-05,-0.24731,1.1222
26239,13.175,3.9091,0.1,0.00025113,2509.5,0.00025111,2509,-8.2815e-05,0.0023001,-8.2967e-05,-1.14,1.1351
26240,12.899,3.8182,0.1,0.00025824,2580.6,0.00025826,2581.2,-8.5126e-05,1.111,-8.5276e-05,-0.011899,1.0964
26241,12.991,3.9091,0.1,0.00025589,2557.2,0.0002559,2557.2,-8.4428e-05,0.17038,-8.4458e-05,-0.055085,1.1091
26242,12.716,3.8182,0.1,0.00026303,2628.5,0.00026307,2629.7,-8.6588e-05,2.5192,-8.6925e-05,-0.008135,1.0707
26243,12.808,3.9091,0.1,0.00026068,2605,0.0002607,2605.7,-8.59e-05,1.4629,-8.6096e-05,-0.011142,1.0834
26244,12.532,3.8182,0.1,0.00026783,2676.4,0.0002679,2678.4,-8.8046e-05,4.029,-8.8583e-05,-0.0069076,1.0452
26245,12.624,3.9091,0.1,0.00026547,2652.9,0.00026552,2654.3,-8.7364e-05,2.8883,-8.7749e-05,-0.0080565,1.0578
26246,12.349,3.8182,0.1,0.00027264,2724.5,0.00027274,2727.4,-8.9499e-05,5.648,-9.0252e-05,-0.0062548,1.0199
26247,12.441,3.9091,0.1,0.00027028,2700.9,0.00027036,2703.1,-8.8823e-05,4.4165,-8.9412e-05,-0.0068791,1.0324
26248,12.165,3.8182,0.1,0.00027747,2772.8,0.00027759,2776.4,-9.0946e-05,7.3864,-9.193e-05,-0.0058294,0.99479
26249,12.257,3.9091,0.1,0.0002751,2749.1,0.00027521,2752.2,-9.0278e-05,6.0559,-9.1084e-05,-0.0062237,1.0072
26250,11.982,3.8182,0.1,0.0002823,2821.1,0.00028246,2825.7,-9.2387e-05,9.2552,-9.3619e-05,-0.0054993,0.96985
26251,12.074,3.9091,0.1,0.00027994,2797.4,0.00028007,2801.3,-9.1726e-05,7.8166,-9.2767e-05,-0.0057964,0.98215
26252,11.799,3.8182,0.1,0.00028715,2869.6,0.00028734,2875.2,-9.3818e-05,11.266,-9.5319e-05,-0.0052131,0.9451
26253,11.89,3.9091,0.1,0.00028478,2845.9,0.00028495,2850.7,-9.3167e-05,9.7099,-9.446e-05,-0.0054435,0.9573
26254,11.615,3.8182,0.1,0.00029201,2918.1,0.00029224,2924.8,-9.5241e-05,13.433,-9.7029e-05,-0.0049682,0.92054
26255,11.707,3.9091,0.1,0.00028964,2894.4,0.00028984,2900.3,-9.46e-05,11.748,-9.6164e-05,-0.0051587,0.93265
26256,11.432,3.8182,0.1,0.00029688,2966.8,0.00029715,2974.6,-9.6652e-05,15.769,-9.8752e-05,-0.0047287,0.89618
26257,11.523,3.9091,0.1,0.00029451,2943.1,0.00029475,2950,-9.6023e-05,13.943,-9.7879e-05,-0.0049195,0.90819
26258,11.248,3.8182,0.1,0.00030176,3015.5,0.00030207,3024.6,-9.8051e-05,18.29,-0.00010049,-0.0045084,0.87202
26259,11.34,3.9091,0.1,0.00029939,2991.8,0.00029966,2999.9,-9.7434e-05,16.309,-9.9606e-05,-0.0046653,0.88393
26260,11.065,3.8182,0.1,0.00030665,3064.3,0.000307,3074.8,-9.9436e-05,21.012,-0.00010223,-0.0043219,0.84807
26261,11.156,3.9091,0.1,0.00030428,3040.7,0.00030459,3050.1,-9.8834e-05,18.862,-0.00010134,-0.0044795,0.85987
26262,10.881,3.8182,0.1,0.00031154,3113.2,0.00031194,3125.2,-0.0001008,23.953,-0.00010399,-0.0041201,0.82432
26263,10.973,3.9091,0.1,0.00030917,3089.6,0.00030953,3100.3,-0.00010022,21.618,-0.0001031,-0.0043053,0.83601
26264,10.698,3.8182,0.1,0.00031644,3162.2,0.00031689,3175.7,-0.00010215,27.132,-0.00010577,-0.0039125,0.80078
26265,10.789,3.9091,0.1,0.00031408,3138.6,0.00031449,3150.8,-0.00010159,24.594,-0.00010486,-0.0040984,0.81236
26266,10.514,3.8182,0.1,0.00032135,3211.2,0.00032185,3226.4,-0.00010349,30.571,-0.00010755,-0.0037303,0.77745
26267,10.606,3.9091,0.1,0.00031898,3187.6,0.00031945,3201.5,-0.00010294,27.81,-0.00010664,-0.0039225,0.78893
26268,10.331,3.8182,0.1,0.00032626,3260.3,0.00032683,3277.3,-0.00010479,34.29,-0.00010936,-0.0035721,0.75434
26269,10.422,3.9091,0.1,0.0003239,3236.8,0.00032442,3252.3,-0.00010427,31.285,-0.00010843,-0.0037755,0.76571
26270,10.147,3.8182,0.1,0.00033117,3309.4,0.00033181,3328.4,-0.00010608,38.316,-0.00011118,-0.0034153,0.73145
26271,10.239,3.9091,0.1,0.00032882,3285.9,0.0003294,3303.3,-0.00010558,35.042,-0.00011024,-0.0036576,0.74271
26272,9.9637,3.8182,0.1,0.00033609,3358.6,0.00033679,3379.7,-0.00010734,42.675,-0.00011302,-0.0032536,0.70879
26273,10.055,3.9091,0.1,0.00033374,3335.1,0.00033439,3354.5,-0.00010686,39.104,-0.00011207,-0.003525,0.71993
26274,9.7802,3.8182,0.1,0.00034101,3407.7,0.00034179,3431.2,-0.00010856,47.395,-0.00011487,-0.0031146,0.68635
26275,9.872,3.9091,0.1,0.00033867,3384.4,0.00033939,3405.9,-0.00010812,43.498,-0.00011391,-0.0034097,0.69737
26276,9.5968,3.8182,0.1,0.00034593,3456.9,0.00034679,3482.9,-0.00010976,52.508,-0.00011675,-0.0030037,0.66414
26277,9.6885,3.9091,0.1,0.0003436,3433.7,0.0003444,3457.5,-0.00010935,48.25,-0.00011577,-0.0033359,0.67504
26278,9.4133,3.8182,0.1,0.00035085,3506.1,0.0003518,3534.8,-0.00011092,58.047,-0.00011865,-0.0029249,0.64216
26279,9.505,3.9091,0.1,0.00034854,3483,0.00034941,3509.4,-0.00011055,53.39,-0.00011765,-0.003293,0.65295
26280,9.2298,3.8182,0.1,0.00035578,3555.3,0.00035682,3586.9,-0.00011204,64.049,-0.00012057,-0.0028945,0.62042
26281,9.3215,3.9091,0.1,0.00035347,3532.3,0.00035444,3561.4,-0.00011171,58.949,-0.00011955,-0.0033031,0.63109
26282,9.0463,3.8182,0.1,0.00036071,3604.6,0.00036186,3639.3,-0.00011312,70.552,-0.00012251,-0.0029293,0.59893
26283,9.1381,3.9091,0.1,0.00035841,3581.7,0.00035947,3613.7,-0.00011283,64.963,-0.00012148,-0.0033793,0.60947
26284,8.8628,3.8182,0.1,0.00036564,3653.9,0.0003669,3692,-0.00011416,77.598,-0.00012448,-0.0030526,0.57767
26285,8.9546,3.9091,0.1,0.00036336,3631.1,0.00036452,3666.3,-0.00011392,71.465,-0.00012343,-0.0035466,0.58809
26286,8.6794,3.8182,0.1,0.00037058,3703.2,0.00037195,3745.1,-0.00011514,85.233,-0.00012649,-0.0032962,0.55666
26287,8.7711,3.9091,0.1,0.00036831,3680.5,0.00036958,3719.1,-0.00011496,78.495,-0.00012541,-0.0038332,0.56696
26288,8.4959,3.8182,0.1,0.00037553,3752.7,0.00037703,3798.5,-0.00011608,93.504,-0.00012853,-0.003703,0.5359
26289,8.5876,3.9091,0.1,0.00037326,3730,0.00037465,3772.3,-0.00011596,86.092,-0.00012742,-0.0042808,0.54607
26290,8.3124,3.8182,0.1,0.00038049,3802.3,0.00038213,3852.5,-0.00011697,102.46,-0.0001306,-0.0043283,0.5154
26291,8.4041,3.9091,0.1,0.00037823,3779.7,0.00037975,3826,-0.00011691,94.298,-0.00012946,-0.0049417,0.52544
26292,8.1289,3.8182,0.1,0.00038547,3852.1,0.00038726,3906.9,-0.00011779,112.16,-0.00013272,-0.0052468,0.49515
26293,8.2206,3.9091,0.1,0.00038322,3829.5,0.00038487,3880.1,-0.00011781,103.16,-0.00013154,-0.0058857,0.50506
26294,7.9454,3.8182,0.1,0.00039049,3902.2,0.00039243,3962.1,-0.00011857,122.65,-0.00013489,-0.0065572,0.47517
26295,8.0372,3.9091,0.1,0.00038823,3879.6,0.00039002,3934.7,-0.00011866,112.71,-0.00013366,-0.0072063,0.48495
26296,7.7619,3.8182,0.1,0.00039555,3952.8,0.00039766,4018.1,-0.00011928,133.99,-0.00013711,-0.0083904,0.45545
26297,7.8537,3.9091,0.1,0.00039327,3930,0.00039522,3990.1,-0.00011945,123.01,-0.00013583,-0.0090258,0.46509
26298,7.5785,3.8182,0.1,0.00040067,4004,0.00040296,4075.1,-0.00011994,146.24,-0.0001394,-0.01092,0.43599
26299,7.6702,3.9091,0.1,0.00039837,3981,0.00040048,4046.3,-0.0001202,134.09,-0.00013805,-0.011507,0.4455
26300,7.395,3.8182,0.1,0.00040588,4056,0.00040836,4133.4,-0.00012054,159.44,-0.00014176,-0.014377,0.41681
26301,7.4867,3.9091,0.1,0.00040353,4032.6,0.00040582,4103.6,-0.0001209,146,-0.00014033,-0.014865,0.42618
26302,7.2115,3.8182,0.1,0.00041121,4109.3,0.00041389,4193.3,-0.0001211,173.66,-0.00014421,-0.019068,0.3979
26303,7.3032,3.9091,0.1,0.00040879,4085.1,0.00041126,4162.1,-0.00012156,158.76,-0.00014269,-0.019386,0.40714
26304,7.028,3.8182,0.1,0.0004167,4164.1,0.00041959,4255.3,-0.00012162,188.91,-0.00014676,-0.025399,0.37928
26305,7.1198,3.9091,0.1,0.00041417,4138.8,0.00041683,4222.3,-0.00012218,172.41,-0.00014513,-0.02545,0.38837
26306,6.8445,3.8182,0.1,0.00042239,4221,0.00042551,4319.9,-0.00012212,205.24,-0.00014944,-0.03391,0.36093
26307,6.9363,3.9091,0.1,0.00041971,4194.2,0.00042258,4284.6,-0.00012278,186.97,-0.00014767,-0.033562,0.36988
26308,6.6611,3.8182,0.1,0.00042837,4280.8,0.00043172,4387.7,-0.00012261,222.65,-0.00015225,-0.045321,0.34287
26309,6.7528,3.9091,0.1,0.00042548,4251.8,0.00042856,4349.4,-0.00012337,202.42,-0.00015032,-0.044396,0.35168
26310,6.4776,3.8182,0.1,0.00043472,4344.2,0.00043832,4459.7,-0.00012314,241.09,-0.00015524,-0.060587,0.3251
26311,6.5693,3.9091,0.1,0.00043153,4312.3,0.00043483,4417.5,-0.00012399,218.73,-0.00015311,-0.058849,0.33376
26312,6.2941,3.8182,0.1,0.00044155,4412.5,0.0004454,4536.9,-0.00012375,260.5,-0.00015843,-0.080981,0.30763
26313,6.3858,3.9091,0.1,0.00043796,4376.6,0.00044149,4489.7,-0.00012466,235.84,-0.00015606,-0.078121,0.31614
26314,6.1106,3.8182,0.1,0.00044902,4487.1,0.00045313,4620.8,-0.0001245,280.73,-0.00016187,-0.1082,0.29045
26315,6.2024,3.9091,0.1,0.00044488,4445.8,0.00044865,4567.1,-0.00012544,253.61,-0.0001592,-0.10382,0.29881
26316,5.9271,3.8182,0.1,0.00045731,4570,0.00046169,4713.2,-0.00012546,301.54,-0.00016561,-0.14453,0.27358
26317,6.0189,3.9091,0.1,0.00045245,4521.3,0.00045645,4651.1,-0.00012638,271.84,-0.00016258,-0.13812,0.28179
26318,5.7437,3.8182,0.1,0.00046668,4663.6,0.00047133,4816.4,-0.00012677,322.52,-0.00016972,-0.193,0.25703
26319,5.8354,3.9091,0.1,0.00046084,4605.3,0.00046509,4743.4,-0.00012759,290.21,-0.00016624,-0.18396,0.26507
26320,5.5602,3.8182,0.1,0.00047745,4771.2,0.00048235,4933.3,-0.00012857,343.07,-0.00017427,-0.25783,0.24079
26321,5.6519,3.9091,0.1,0.00047032,4700,0.0004748,4846.4,-0.00012919,308.2,-0.00017024,-0.24539,0.24867
26322,5.3767,3.8182,0.1,0.00049005,4897.1,0.0004952,5068,-0.00013109,362.31,-0.00017936,-0.34464,0.22487
26323,5.4684,3.9091,0.1,0.00048121,4808.8,0.00048591,4962.9,-0.00013135,325.1,-0.00017466,-0.32825,0.23259
26324,5.1932,3.8182,0.1,0.00050505,5047.1,0.00051042,5225.6,-0.00013463,378.87,-0.00018512,-0.46229,0.20929
26325,5.285,3.9091,0.1,0.00049394,4936,0.00049884,5096.9,-0.0001343,339.77,-0.00017958,-0.44055,0.21684
26326,5.0097,3.8182,0.1,0.00052324,5228.8,0.00052877,5412.8,-0.00013962,390.77,-0.00019171,-0.62122,0.19405
26327,5.1015,3.9091,0.1,0.00050911,5087.6,0.00051415,5253.5,-0.00013838,350.56,-0.00018512,-0.59695,0.20142
26328,4.8263,3.8182,0.1,0.00054569,5453.1,0.00055131,5639.4,-0.00014667,395.05,-0.00019936,-0.85186,0.17916
26329,4.918,3.9091,0.1,0.00052752,5271.6,0.00053264,5439.6,-0.00014408,354.96,-0.00019144,-0.81342,0.18634
26330,4.6428,3.8182,0.1,0.00057397,5735.8,0.00057955,5919,-0.00015666,387.34,-0.00020837,-1.1548,0.16465
26331,4.7345,3.9091,0.1,0.00055035,5499.7,0.00055543,5665.3,-0.0001521,349.19,-0.00019873,-1.1577,0.17163
26332,4.4593,3.8182,0.1,0.00061046,6100.4,0.00061576,6272,-0.00017093,361.07,-0.00021922,-1.7796,0.15052
26333,4.551,3.9091,0.1,0.00057931,5789.1,0.00058416,5945.1,-0.00016349,327.52,-0.0002073,-1.6201,0.15728
26334,4.2758,3.8182,0.1,0.00065889,6584.4,0.00066353,6731.2,-0.00019152,306.65,-0.00023263,-2.2454,0.1368
26335,4.3676,3.9091,0.1,0.00061713,6167,0.00062137,6301.2,-0.00017987,281.03,-0.00021765,-2.8745,0.14333
26336,4.0923,3.8182,0.1,0.00072594,7254.4,0.00072914,7353.1,-0.00022178,208.28,-0.00025031,-6.096,0.12352
26337,4.1841,3.9091,0.1,0.00066811,6676.5,0.00067116,6770.5,-0.00020375,196.79,-0.0002305,-4.169,0.12978
26338,3.9088,3.8182,0.1,0.00082324,8226.8,0.00082392,8247.1,-0.00026664,53.01,-0.00027529,-11.922,0.11071
26339,4.0006,3.9091,0.1,0.0007406,7400.9,0.00074117,7418.4,-0.00023834,58.744,-0.00024922,-23.006,0.11668
26340,3.7254,3.8182,0.1,0.00098194,9812.7,0.00097716,9675.9,-0.00031313,-18.785,-0.00034398,-250.55,0.098417
26341,3.8171,3.9091,0.1,0.00084895,8483.6,0.0008453,8381.3,-0.0002675,20.173,-0.00029943,-219.76,0.10404
26342,3.5419,3.8182,0.1,0.0012715,12706,0.0012569,12306,-0.00038501,-30.592,-0.00047941,-739.83,0.086729
26343,3.6336,3.9091,0.1,0.0010371,10364,0.0010226,9965.3,-0.0003137,-75.399,-0.00039607,-694.26,0.091935
26344,3.4501,3.9091,0.1,0.0014568,14558,0.0014214,13736,-0.00036233,333.43,-0.00064001,-1753,0.080444
26345,3.3584,3.8182,0.1,0.0017151,17139,0.0016906,16475,-0.00051138,-70.495,-0.00066205,-1202.6,0.075803
26346,23.725,4,0.1,1.9497e-05,194.84,1.114e-05,58.902,3.2722e-06,-0.21583,-1.7814e-05,-158.65,2.8141
26347,23.817,4.0909,0.1,1.8401e-05,183.88,9.2909e-06,39.701,3.982e-06,-0.188,-1.7401e-05,-160.85,2.8295
26348,23.908,4,0.1,1.8076e-05,180.64,7.8183e-06,22.349,4.7863e-06,-0.43281,-1.7595e-05,-168.6,2.8449
26349,23.541,4,0.1,2.1467e-05,214.52,1.4664e-05,97.45,1.6644e-06,-0.22148,-1.8073e-05,-148.52,2.7833
26350,23.633,4.0909,0.1,2.0141e-05,201.27,1.2801e-05,78.133,2.3596e-06,-0.31899,-1.7635e-05,-150.55,2.7986
26351,23.358,4,0.1,2.3814e-05,237.98,1.819e-05,135.9,8.616e-08,-0.12648,-1.8382e-05,-138.89,2.7524
26352,23.45,4.0909,0.1,2.2325e-05,223.1,1.6316e-05,116.58,7.8173e-07,-0.1363,-1.7921e-05,-140.66,2.7678
26353,23.174,4,0.1,2.6445e-05,264.26,2.1725e-05,174.23,-1.4764e-06,-0.10392,-1.8742e-05,-129.83,2.7216
26354,23.266,4.0909,0.1,2.4838e-05,248.21,1.9842e-05,154.88,-7.8727e-07,-0.11933,-1.826e-05,-131.4,2.737
26355,22.991,4,0.1,2.9288e-05,292.67,2.5273e-05,212.49,-3.0187e-06,-0.081558,-1.9155e-05,-121.32,2.6908
26356,23.083,4.0909,0.1,2.7596e-05,275.76,2.3379e-05,193.1,-2.3337e-06,-0.088378,-1.8653e-05,-122.7,2.7062
26357,22.807,4,0.1,3.2296e-05,322.73,2.8837e-05,250.74,-4.5435e-06,-0.068389,-1.9622e-05,-113.36,2.66
26358,22.899,4.0909,0.1,3.0541e-05,305.19,2.6933e-05,231.31,-3.862e-06,-0.073587,-1.9102e-05,-114.58,2.6754
26359,22.624,4,0.1,3.5435e-05,354.1,3.2423e-05,289.03,-6.052e-06,-0.05823,-2.0143e-05,-105.94,2.6293
26360,22.716,4.0909,0.1,3.3632e-05,336.09,3.0508e-05,269.54,-5.3731e-06,-0.061598,-1.9608e-05,-107.02,2.6446
26361,22.44,4,0.1,3.8681e-05,386.55,3.6033e-05,327.39,-7.5463e-06,-0.050658,-2.0719e-05,-99.023,2.5986
26362,22.532,4.0909,0.1,3.6843e-05,368.18,3.4109e-05,307.84,-6.8691e-06,-0.053061,-2.017e-05,-99.988,2.6139
26363,22.257,4,0.1,4.2018e-05,419.89,3.9669e-05,365.85,-9.028e-06,-0.044672,-2.1346e-05,-92.598,2.5678
26364,22.349,4.0909,0.1,4.0152e-05,401.24,3.7736e-05,346.24,-8.3519e-06,-0.046352,-2.0786e-05,-93.468,2.5832
26365,22.073,4,0.1,4.5433e-05,454.01,4.3334e-05,404.44,-1.0499e-05,-0.039858,-2.2024e-05,-86.634,2.5372
26366,22.165,4.0909,0.1,4.3544e-05,435.14,4.1392e-05,384.77,-9.8233e-06,-0.041039,-2.1454e-05,-87.427,2.5524
26367,21.89,4,0.1,4.8915e-05,488.81,4.7028e-05,443.18,-1.196e-05,-0.035899,-2.275e-05,-81.102,2.5065
26368,21.982,4.0909,0.1,4.7008e-05,469.76,4.5078e-05,423.45,-1.1285e-05,-0.036712,-2.2171e-05,-81.832,2.5218
26369,21.706,4,0.1,5.2458e-05,524.22,5.0751e-05,482.08,-1.3414e-05,-0.032587,-2.3521e-05,-75.974,2.4759
26370,21.798,4.0909,0.1,5.0536e-05,505.01,4.8794e-05,462.29,-1.2738e-05,-0.033127,-2.2936e-05,-76.652,2.4911
26371,21.523,4,0.1,5.6056e-05,560.18,5.4504e-05,521.15,-1.4861e-05,-0.029774,-2.4336e-05,-71.222,2.4453
26372,21.615,4.0909,0.1,5.4121e-05,540.84,5.2539e-05,501.31,-1.4185e-05,-0.030107,-2.3744e-05,-71.858,2.4605
26373,21.34,4,0.1,5.9704e-05,596.63,5.8286e-05,560.4,-1.6302e-05,-0.027364,-2.5192e-05,-66.819,2.4147
26374,21.431,4.0909,0.1,5.7758e-05,577.18,5.6314e-05,540.5,-1.5625e-05,-0.027532,-2.4594e-05,-67.42,2.4299
26375,21.156,4,0.1,6.3399e-05,633.55,6.2098e-05,599.84,-1.7739e-05,-0.025276,-2.6086e-05,-62.74,2.3842
26376,21.248,4.0909,0.1,6.1442e-05,613.99,6.0119e-05,579.87,-1.7061e-05,-0.025323,-2.5484e-05,-63.31,2.3994
26377,20.973,4,0.1,6.7137e-05,670.9,6.5939e-05,639.47,-1.9172e-05,-0.023448,-2.7016e-05,-58.959,2.3537
26378,21.064,4.0909,0.1,6.5169e-05,651.24,6.3953e-05,619.44,-1.8493e-05,-0.023396,-2.6409e-05,-59.504,2.3689
26379,20.789,4,0.1,7.0915e-05,708.66,6.9808e-05,679.29,-2.0603e-05,-0.021839,-2.7981e-05,-55.455,2.3233
26380,20.881,4.0909,0.1,6.8938e-05,688.91,6.7815e-05,659.2,-1.9922e-05,-0.02171,-2.737e-05,-55.978,2.3385
26381,20.606,4,0.1,7.4731e-05,746.8,7.3706e-05,719.31,-2.2032e-05,-0.020408,-2.8977e-05,-52.207,2.2929
26382,20.697,4.0909,0.1,7.2746e-05,726.95,7.1705e-05,699.16,-2.1349e-05,-0.020223,-2.8362e-05,-52.71,2.308
26383,20.422,4,0.1,7.8584e-05,785.3,7.7631e-05,759.54,-2.3459e-05,-0.019128,-3.0004e-05,-49.195,2.2626
26384,20.514,4.0909,0.1,7.659e-05,765.37,7.5623e-05,739.31,-2.2775e-05,-0.018894,-2.9385e-05,-49.681,2.2777
26385,20.239,4,0.1,8.2472e-05,824.15,8.1584e-05,799.96,-2.4886e-05,-0.017985,-3.106e-05,-46.401,2.2323
26386,20.33,4.0909,0.1,8.0468e-05,804.13,7.9568e-05,779.66,-2.4201e-05,-0.01771,-3.0436e-05,-46.871,2.2474
26387,20.055,4,0.1,8.6393e-05,863.33,8.5564e-05,840.59,-2.6313e-05,-0.016958,-3.2142e-05,-43.809,2.2021
26388,20.147,4.0909,0.1,8.4381e-05,843.22,8.354e-05,820.21,-2.5626e-05,-0.01665,-3.1515e-05,-44.264,2.2171
26389,19.872,4,0.1,9.0346e-05,902.84,8.957e-05,881.41,-2.7741e-05,-0.016026,-3.3249e-05,-41.402,2.1719
26390,19.963,4.0909,0.1,8.8325e-05,882.64,8.7538e-05,860.97,-2.7051e-05,-0.0157,-3.2618e-05,-41.843,2.1869
26391,19.688,4,0.1,9.433e-05,942.65,9.3602e-05,922.45,-2.917e-05,-0.015173,-3.4381e-05,-39.166,2.1418
26392,19.78,4.0909,0.1,9.23e-05,922.36,9.1562e-05,901.92,-2.8478e-05,-0.014826,-3.3746e-05,-39.595,2.1568
26393,19.505,4,0.1,9.8344e-05,982.76,9.766e-05,963.69,-3.06e-05,-0.0144,-3.5534e-05,-37.088,2.1117
26394,19.596,4.0909,0.1,9.6305e-05,962.38,9.5612e-05,943.08,-2.9906e-05,-0.014032,-3.4896e-05,-37.505,2.1267
26395,19.321,4,0.1,0.00010239,1023.2,0.00010174,1005.1,-3.2033e-05,-0.013694,-3.671e-05,-35.155,2.0818
26396,19.413,4.0909,0.1,0.00010034,1002.7,9.9686e-05,984.44,-3.1336e-05,-0.013319,-3.6067e-05,-35.561,2.0967
26397,19.138,4,0.1,0.00010646,1063.8,0.00010585,1046.8,-3.3467e-05,-0.013041,-3.7905e-05,-33.355,2.0518
26398,19.229,4.0909,0.1,0.0001044,1043.3,0.00010379,1026,-3.2768e-05,-0.012656,-3.7258e-05,-33.751,2.0667
26399,18.954,4,0.1,0.00011056,1104.8,0.00010998,1088.6,-3.4904e-05,-0.012441,-3.9119e-05,-31.678,2.022
26400,19.046,4.0909,0.1,0.00010849,1084.2,0.00010791,1067.8,-3.4203e-05,-0.012046,-3.8469e-05,-32.065,2.0368
26401,18.771,4,0.1,0.00011468,1146,0.00011414,1130.7,-3.6345e-05,-0.011882,-4.0351e-05,-30.113,1.9922
26402,18.863,4.0909,0.1,0.00011261,1125.3,0.00011206,1109.7,-3.5641e-05,-0.011489,-3.9697e-05,-30.491,2.007
26403,18.587,4,0.1,0.00011883,1187.5,0.00011832,1172.9,-3.7788e-05,-0.011361,-4.16e-05,-28.651,1.9625
26404,18.679,4.0909,0.1,0.00011675,1166.7,0.00011623,1151.9,-3.7082e-05,-0.01096,-4.0943e-05,-29.022,1.9773
26405,18.404,4,0.1,0.00012301,1229.3,0.00012252,1215.4,-3.9236e-05,-0.010883,-4.2865e-05,-27.282,1.9329
26406,18.496,4.0909,0.1,0.00012092,1208.3,0.00012042,1194.3,-3.8526e-05,-0.010476,-4.2204e-05,-27.647,1.9477
26407,18.22,4,0.1,0.00012721,1271.3,0.00012675,1258.1,-4.0687e-05,-0.010445,-4.4146e-05,-26,1.9034
26408,18.312,4.0909,0.1,0.00012511,1250.2,0.00012464,1236.8,-3.9974e-05,-0.010031,-4.3481e-05,-26.359,1.9181
26409,18.037,4,0.1,0.00013144,1313.5,0.000131,1300.9,-4.2142e-05,-0.010032,-4.5441e-05,-24.795,1.874
26410,18.129,4.0909,0.1,0.00012933,1292.4,0.00012888,1279.6,-4.1427e-05,-0.0096269,-4.4773e-05,-25.149,1.8886
26411,17.853,4,0.1,0.00013569,1356,0.00013527,1344,-4.3602e-05,-0.0096359,-4.675e-05,-23.661,1.8446
26412,17.945,4.0909,0.1,0.00013357,1334.8,0.00013314,1322.6,-4.2884e-05,-0.0092302,-4.6078e-05,-24.012,1.8592
26413,17.67,4,0.1,0.00013997,1398.7,0.00013957,1387.3,-4.5066e-05,-0.0092755,-4.8071e-05,-22.59,1.8153
26414,17.762,4.0909,0.1,0.00013783,1377.4,0.00013743,1365.8,-4.4345e-05,-0.0088589,-4.7397e-05,-22.939,1.8299
26415,17.486,4,0.1,0.00014426,1441.6,0.00014388,1430.7,-4.6535e-05,-0.0089383,-4.9406e-05,-21.577,1.7862
26416,17.578,4.0909,0.1,0.00014212,1420.2,0.00014174,1409.1,-4.5811e-05,-0.0085324,-4.8728e-05,-21.924,1.8006
26417,17.303,4,0.1,0.00014858,1484.8,0.00014822,1474.4,-4.8009e-05,-0.0086143,-5.0751e-05,-20.614,1.7571
26418,17.395,4.0909,0.1,0.00014643,1463.3,0.00014607,1452.7,-4.7282e-05,-0.0082067,-5.007e-05,-20.962,1.7715
26419,17.119,4,0.1,0.00015293,1528.2,0.00015258,1518.3,-4.9488e-05,-0.0083113,-5.2109e-05,-19.697,1.7281
26420,17.211,4.0909,0.1,0.00015077,1506.6,0.00015042,1496.5,-4.8758e-05,-0.0079037,-5.1424e-05,-20.046,1.7425
26421,16.936,4,0.1,0.00015729,1571.8,0.00015696,1562.4,-5.0973e-05,-0.0080161,-5.3476e-05,-18.819,1.6992
26422,17.028,4.0909,0.1,0.00015512,1550.2,0.00015479,1540.5,-5.0239e-05,-0.0076197,-5.2789e-05,-19.171,1.7136
26423,16.753,4,0.1,0.00016168,1615.7,0.00016137,1606.6,-5.2462e-05,-0.0077326,-5.4854e-05,-17.975,1.6705
26424,16.844,4.0909,0.1,0.0001595,1593.9,0.00015918,1584.7,-5.1725e-05,-0.0073333,-5.4164e-05,-18.331,1.6847
26425,16.569,4,0.1,0.00016609,1659.7,0.00016579,1651.1,-5.3958e-05,-0.0074711,-5.6241e-05,-17.16,1.6418
26426,16.661,4.0909,0.1,0.0001639,1637.9,0.0001636,1629,-5.3218e-05,-0.0070703,-5.5549e-05,-17.522,1.656
26427,16.386,4,0.1,0.00017052,1704,0.00017023,1695.8,-5.5459e-05,-0.0072307,-5.7637e-05,-16.37,1.6133
26428,16.477,4.0909,0.1,0.00016832,1682.1,0.00016803,1673.6,-5.4715e-05,-0.006827,-5.6942e-05,-16.739,1.6274
26429,16.202,4,0.1,0.00017497,1748.5,0.0001747,1740.6,-5.6966e-05,-0.0069938,-5.9041e-05,-15.598,1.5848
26430,16.294,4.0909,0.1,0.00017276,1726.4,0.00017249,1718.4,-5.6219e-05,-0.0066052,-5.8345e-05,-15.977,1.5989
26431,16.019,4,0.1,0.00017944,1793.2,0.00017918,1785.7,-5.848e-05,-0.0067519,-6.0454e-05,-14.841,1.5565
26432,16.11,4.0909,0.1,0.00017723,1771,0.00017696,1763.4,-5.7729e-05,-0.0063671,-5.9755e-05,-15.23,1.5705
26433,15.835,4,0.1,0.00018393,1838.1,0.00018369,1831,-5.9999e-05,-0.0065314,-6.1874e-05,-14.094,1.5283
26434,15.927,4.0909,0.1,0.00018171,1815.8,0.00018146,1808.5,-5.9245e-05,-0.0061348,-6.1173e-05,-14.496,1.5423
26435,15.652,4,0.1,0.00018845,1883.2,0.00018821,1876.4,-6.1525e-05,-0.0063189,-6.3301e-05,-13.352,1.5003
26436,15.743,4.0909,0.1,0.00018621,1860.8,0.00018597,1853.9,-6.0767e-05,-0.005939,-6.2599e-05,-13.769,1.5142
26437,15.468,4,0.1,0.00019298,1928.4,0.00019276,1922.1,-6.3057e-05,-0.0060998,-6.4735e-05,-12.61,1.4723
26438,15.56,4.0909,0.1,0.00019073,1906,0.00019051,1899.5,-6.2296e-05,-0.0057208,-6.4031e-05,-13.044,1.4861
26439,15.285,4,0.1,0.00019753,1973.9,0.00019732,1968,-6.4596e-05,-0.0058879,-6.6175e-05,-11.865,1.4445
26440,15.376,4.0909,0.1,0.00019528,1951.4,0.00019506,1945.2,-6.3831e-05,-0.0055108,-6.547e-05,-12.318,1.4583
26441,15.101,4,0.1,0.0002021,2019.6,0.00020191,2014,-6.6142e-05,-0.0056661,-6.762e-05,-11.111,1.4168
26442,15.193,4.0909,0.1,0.00019984,1997,0.00019964,1991.2,-6.5373e-05,-0.0053059,-6.6914e-05,-11.586,1.4305
26443,14.918,4,0.1,0.00020669,2065.5,0.00020651,2060.3,-6.7695e-05,-0.0054349,-6.9071e-05,-10.344,1.3893
26444,15.009,4.0909,0.1,0.00020442,2042.8,0.00020423,2037.3,-6.6921e-05,-0.0050742,-6.8364e-05,-10.843,1.4029
26445,14.734,4,0.1,0.0002113,2111.5,0.00021113,2106.7,-6.9254e-05,-0.0052084,-7.0526e-05,-9.5592,1.3619
26446,14.826,4.0909,0.1,0.00020902,2088.8,0.00020885,2083.7,-6.8477e-05,-0.0048493,-6.9819e-05,-10.086,1.3754
26447,14.551,4,0.1,0.00021592,2157.7,0.00021577,2153.3,-7.0821e-05,-0.0049818,-7.1985e-05,-8.7515,1.3346
26448,14.642,4.0909,0.1,0.00021364,2134.9,0.00021348,2130.2,-7.004e-05,-0.004624,-7.1278e-05,-9.3084,1.3481
26449,14.367,4,0.1,0.00022057,2204.1,0.00022043,2200.2,-7.2395e-05,-0.0047266,-7.3448e-05,-7.916,1.3075
26450,14.459,4.0909,0.1,0.00021828,2181.3,0.00021813,2177,-7.161e-05,-0.004397,-7.2741e-05,-8.5065,1.3209
26451,14.184,4,0.1,0.00022523,2250.7,0.00022511,2247.2,-7.3977e-05,-0.0044224,-7.4914e-05,-7.0474,1.2805
26452,14.276,4.0909,0.1,0.00022293,2227.8,0.0002228,2223.9,-7.3187e-05,-0.004111,-7.4208e-05,-7.6752,1.2938
26453,14,4,0.1,0.00022991,2297.5,0.0002298,2294.4,-7.5566e-05,-0.0040846,-7.6383e-05,-6.1405,1.2537
26454,14.092,4.0909,0.1,0.0002276,2274.5,0.00022749,2271,-7.4772e-05,-0.0037822,-7.5677e-05,-6.8092,1.2669
26455,13.817,4,0.1,0.00023461,2344.4,0.00023452,2341.8,-7.7163e-05,-0.0036621,-7.7853e-05,-5.1896,1.227
26456,13.909,4.0909,0.1,0.00023229,2321.3,0.00023219,2318.4,-7.6364e-05,-0.0034234,-7.715e-05,-5.9034,1.2402
26457,13.633,4,0.1,0.00023932,2391.5,0.00023925,2389.4,-7.8768e-05,-0.003062,-7.9325e-05,-4.1888,1.2005
26458,13.725,4.0909,0.1,0.000237,2368.4,0.00023691,2365.9,-7.7965e-05,-0.0029176,-7.8623e-05,-4.9521,1.2136
26459,13.45,4,0.1,0.00024405,2438.8,0.00024399,2437.2,-8.0381e-05,-0.0021148,-8.0797e-05,-3.1321,1.1741
26460,13.542,4.0909,0.1,0.00024172,2415.6,0.00024166,2413.6,-7.9573e-05,-0.0021977,-8.0098e-05,-3.9494,1.1871
26461,13.266,4,0.1,0.00024879,2486.2,0.00024876,2485.2,-8.2002e-05,-0.00015421,-8.227e-05,-2.0134,1.148
26462,13.358,4.0909,0.1,0.00024646,2462.9,0.00024641,2461.5,-8.119e-05,-0.0009918,-8.1574e-05,-2.8896,1.1609
26463,13.083,4,0.1,0.00025355,2533.8,0.00025354,2533.4,-8.3631e-05,0.0073126,-8.3743e-05,-0.83024,1.1219
26464,13.175,4.0909,0.1,0.00025122,2510.4,0.00025119,2509.6,-8.2814e-05,0.0017642,-8.305e-05,-1.7669,1.1348
26465,12.899,4,0.1,0.00025833,2581.5,0.00025834,2581.8,-8.5209e-05,0.47168,-8.5275e-05,-0.026627,1.0961
26466,12.991,4.0909,0.1,0.00025599,2558.1,0.00025598,2557.8,-8.4446e-05,0.015612,-8.4526e-05,-0.5841,1.1088
26467,12.716,4,0.1,0.00026312,2629.4,0.00026315,2630.3,-8.6679e-05,1.8091,-8.6921e-05,-0.010602,1.0704
26468,12.808,4.0909,0.1,0.00026078,2606,0.00026079,2606.3,-8.5994e-05,0.72794,-8.6094e-05,-0.021001,1.0831
26469,12.532,4,0.1,0.00026793,2677.4,0.00026798,2679,-8.8144e-05,3.2538,-8.8578e-05,-0.0079591,1.0449
26470,12.624,4.0909,0.1,0.00026558,2653.9,0.00026561,2655,-8.7466e-05,2.0796,-8.7744e-05,-0.010368,1.0575
26471,12.349,4,0.1,0.00027275,2725.6,0.00027283,2728,-8.9604e-05,4.803,-9.0244e-05,-0.0068284,1.0196
26472,12.441,4.0909,0.1,0.00027039,2702,0.00027045,2703.8,-8.8933e-05,3.5344,-8.9405e-05,-0.0079201,1.0321
26473,12.165,4,0.1,0.00027758,2773.9,0.00027769,2777.1,-9.106e-05,6.4654,-9.1921e-05,-0.0061811,0.99449
26474,12.257,4.0909,0.1,0.00027522,2750.3,0.00027531,2752.8,-9.0396e-05,5.0948,-9.1075e-05,-0.0068016,1.0069
26475,11.982,4,0.1,0.00028242,2822.3,0.00028256,2826.4,-9.2509e-05,8.2511,-9.3608e-05,-0.0057332,0.96954
26476,12.074,4.0909,0.1,0.00028006,2798.7,0.00028018,2802.1,-9.1854e-05,6.7693,-9.2756e-05,-0.0061532,0.98182
26477,11.799,4,0.1,0.00028728,2870.8,0.00028745,2875.9,-9.3951e-05,10.171,-9.5305e-05,-0.0053822,0.94479
26478,11.89,4.0909,0.1,0.00028492,2847.2,0.00028506,2851.5,-9.3306e-05,8.5684,-9.4447e-05,-0.0056822,0.95697
26479,11.615,4,0.1,0.00029214,2919.4,0.00029235,2925.5,-9.5384e-05,12.238,-9.7014e-05,-0.0051033,0.92023
26480,11.707,4.0909,0.1,0.00028978,2895.8,0.00028996,2901.1,-9.475e-05,10.503,-9.6148e-05,-0.0053328,0.93231
26481,11.432,4,0.1,0.00029702,2968.2,0.00029726,2975.4,-9.6807e-05,14.464,-9.8733e-05,-0.0048498,0.89586
26482,11.523,4.0909,0.1,0.00029466,2944.6,0.00029487,2950.8,-9.6185e-05,12.585,-9.7861e-05,-0.0050614,0.90784
26483,11.248,4,0.1,0.00030191,3017,0.00030219,3025.4,-9.8219e-05,16.863,-0.00010046,-0.0046307,0.8717
26484,11.34,4.0909,0.1,0.00029955,2993.4,0.0002998,3000.8,-9.761e-05,14.826,-9.9584e-05,-0.0047956,0.88357
26485,11.065,4,0.1,0.00030681,3065.9,0.00030713,3075.6,-9.9619e-05,19.451,-0.00010221,-0.0044581,0.84774
26486,11.156,4.0909,0.1,0.00030444,3042.3,0.00030473,3050.9,-9.9025e-05,17.241,-0.00010132,-0.0046149,0.85951
26487,10.881,4,0.1,0.00031171,3115,0.00031208,3126,-0.000101,22.243,-0.00010396,-0.00428,0.82399
26488,10.973,4.0909,0.1,0.00030935,3091.4,0.00030968,3101.3,-0.00010043,19.845,-0.00010307,-0.0044585,0.83565
26489,10.698,4,0.1,0.00031662,3164,0.00031704,3176.6,-0.00010237,25.256,-0.00010573,-0.0041062,0.80044
26490,10.789,4.0909,0.1,0.00031427,3140.5,0.00031465,3151.8,-0.00010181,22.652,-0.00010483,-0.0042804,0.812
26491,10.514,4,0.1,0.00032154,3213.2,0.00032202,3227.4,-0.00010372,28.509,-0.00010752,-0.0039673,0.77711
26492,10.606,4.0909,0.1,0.00031919,3189.7,0.00031962,3202.5,-0.00010318,25.679,-0.0001066,-0.0041449,0.78856
26493,10.331,4,0.1,0.00032647,3262.4,0.000327,3278.3,-0.00010505,32.022,-0.00010932,-0.0038629,0.754
26494,10.422,4.0909,0.1,0.00032412,3239,0.0003246,3253.3,-0.00010454,28.944,-0.00010839,-0.0040479,0.76533
26495,10.147,4,0.1,0.0003314,3311.7,0.00033199,3329.4,-0.00010636,35.816,-0.00011113,-0.0037717,0.7311
26496,10.239,4.0909,0.1,0.00032906,3288.3,0.0003296,3304.4,-0.00010587,32.467,-0.00011019,-0.0039924,0.74232
26497,9.9637,4,0.1,0.00033633,3361,0.00033699,3380.8,-0.00010765,39.914,-0.00011296,-0.0036885,0.70843
26498,10.055,4.0909,0.1,0.000334,3337.7,0.0003346,3355.7,-0.00010718,36.267,-0.00011201,-0.0039343,0.71954
26499,9.7802,4,0.1,0.00034127,3410.4,0.000342,3432.3,-0.00010891,44.34,-0.00011481,-0.0036421,0.68599
26500,9.872,4.0909,0.1,0.00033895,3387.1,0.00033962,3407.1,-0.00010847,40.365,-0.00011385,-0.0039082,0.69698
26501,9.5968,4,0.1,0.00034621,3459.7,0.00034702,3484,-0.00011014,49.12,-0.00011668,-0.0036405,0.66378
26502,9.6885,4.0909,0.1,0.0003439,3436.6,0.00034464,3458.8,-0.00010974,44.785,-0.0001157,-0.0039388,0.67465
26503,9.4133,4,0.1,0.00035116,3509.2,0.00035205,3536,-0.00011134,54.282,-0.00011856,-0.0036916,0.6418
26504,9.505,4.0909,0.1,0.00034886,3486.2,0.00034967,3510.7,-0.00011097,49.549,-0.00011757,-0.0040194,0.65255
26505,9.2298,4,0.1,0.00035611,3558.6,0.00035709,3588.2,-0.0001125,59.854,-0.00012047,-0.0038144,0.62006
26506,9.3215,4.0909,0.1,0.00035382,3535.7,0.00035472,3562.8,-0.00011218,54.682,-0.00011946,-0.0041752,0.63069
26507,9.0463,4,0.1,0.00036106,3608.1,0.00036214,3640.6,-0.00011363,65.868,-0.0001224,-0.0040307,0.59855
26508,9.1381,4.0909,0.1,0.00035878,3585.4,0.00035977,3615.1,-0.00011335,60.21,-0.00012137,-0.0044235,0.60906
26509,8.8628,4,0.1,0.00036602,3657.7,0.0003672,3693.3,-0.00011472,72.354,-0.00012435,-0.0043705,0.5773
26510,8.9546,4.0909,0.1,0.00036375,3635,0.00036484,3667.7,-0.0001145,66.16,-0.0001233,-0.0047941,0.58768
26511,8.6794,4,0.1,0.00037099,3707.3,0.00037228,3746.4,-0.00011578,79.347,-0.00012634,-0.0048725,0.55628
26512,8.7711,4.0909,0.1,0.00036873,3684.8,0.00036991,3720.5,-0.0001156,72.559,-0.00012526,-0.0053225,0.56654
26513,8.4959,4,0.1,0.00037597,3757.1,0.00037737,3799.8,-0.00011678,86.88,-0.00012835,-0.0055884,0.53552
26514,8.5876,4.0909,0.1,0.00037372,3734.6,0.00037501,3773.7,-0.00011667,79.433,-0.00012724,-0.0060579,0.54565
26515,8.3124,4,0.1,0.00038096,3807,0.00038249,3853.6,-0.00011775,94.988,-0.00013039,-0.0065859,0.51502
26516,8.4041,4.0909,0.1,0.00037872,3784.6,0.00038012,3827.2,-0.0001177,86.809,-0.00012925,-0.0070636,0.52502
26517,8.1289,4,0.1,0.00038597,3857.1,0.00038763,3907.9,-0.00011867,103.71,-0.00013247,-0.007955,0.49477
26518,8.2206,4.0909,0.1,0.00038374,3834.7,0.00038526,3881.2,-0.00011869,94.714,-0.0001313,-0.0084233,0.50464
26519,7.9454,4,0.1,0.00039101,3907.4,0.00039281,3962.7,-0.00011955,113.07,-0.0001346,-0.0098144,0.47478
26520,8.0372,4.0909,0.1,0.00038877,3885.1,0.00039043,3935.6,-0.00011964,103.17,-0.00013337,-0.010248,0.48452
26521,7.7619,4,0.1,0.00039609,3958.2,0.00039805,4018.3,-0.00012038,123.1,-0.00013676,-0.01232,0.45506
26522,7.8537,4.0909,0.1,0.00039384,3935.7,0.00039563,3990.6,-0.00012055,112.2,-0.00013549,-0.012682,0.46466
26523,7.5785,4,0.1,0.00040123,4009.5,0.00040334,4074.8,-0.00012117,133.84,-0.00013898,-0.015681,0.4356
26524,7.6702,4.0909,0.1,0.00039896,3986.8,0.00040089,4046.3,-0.00012143,121.82,-0.00013765,-0.015919,0.44507
26525,7.395,4,0.1,0.00040644,4061.6,0.00040872,4132.3,-0.00012192,145.31,-0.00014126,-0.020171,0.41642
26526,7.4867,4.0909,0.1,0.00040412,4038.5,0.00040621,4102.9,-0.00012227,132.04,-0.00013985,-0.020217,0.42575
26527,7.2115,4,0.1,0.00041175,4114.6,0.0004142,4191.1,-0.00012264,157.51,-0.00014361,-0.026159,0.39751
26528,7.3032,4.0909,0.1,0.00040937,4090.9,0.00041161,4160.4,-0.00012309,142.87,-0.00014211,-0.025917,0.4067
26529,7.028,4,0.1,0.00041719,4169,0.00041982,4251.6,-0.00012334,170.46,-0.00014603,-0.034131,0.37888
26530,7.1198,4.0909,0.1,0.00041471,4144.3,0.00041712,4219.2,-0.00012389,154.29,-0.00014443,-0.033474,0.38793
26531,6.8445,4,0.1,0.0004228,4225.1,0.00042563,4314.1,-0.00012404,184.14,-0.00014855,-0.044742,0.36053
26532,6.9363,4.0909,0.1,0.00042019,4199,0.00042277,4279.6,-0.00012468,166.28,-0.00014682,-0.043501,0.36944
26533,6.6611,4,0.1,0.00042864,4283.4,0.00043167,4379.2,-0.00012475,198.5,-0.00015117,-0.058863,0.34247
26534,6.7528,4.0909,0.1,0.00042583,4255.4,0.00042859,4341.9,-0.00012549,178.78,-0.00014929,-0.05682,0.35124
26535,6.4776,4,0.1,0.00043477,4344.7,0.00043801,4447.5,-0.0001255,213.47,-0.00015393,-0.077668,0.3247
26536,6.5693,4.0909,0.1,0.0004317,4314,0.00043464,4406.7,-0.00012633,191.74,-0.00015186,-0.074542,0.33332
26537,6.2941,4,0.1,0.00044129,4409.9,0.00044474,4519.8,-0.00012634,228.95,-0.00015683,-0.10274,0.30723
26538,6.3858,4.0909,0.1,0.00043786,4375.6,0.00044099,4474.4,-0.00012724,205.03,-0.00015454,-0.098175,0.3157
26539,6.1106,4,0.1,0.00044831,4480.1,0.00045197,4597.3,-0.00012732,244.72,-0.00015991,-0.13623,0.29005
26540,6.2024,4.0909,0.1,0.00044439,4440.9,0.0004477,4546,-0.00012825,218.47,-0.00015735,-0.12979,0.29837
26541,5.9271,4,0.1,0.00045598,4556.7,0.00045985,4681.3,-0.00012851,260.53,-0.00016321,-0.1811,0.27318
26542,6.0189,4.0909,0.1,0.0004514,4510.9,0.0004549,4622.3,-0.00012944,231.82,-0.00016031,-0.17224,0.28135
26543,5.7437,4,0.1,0.00046449,4641.7,0.00046856,4773.4,-0.00013001,275.93,-0.00016677,-0.24148,0.25662
26544,5.8354,4.0909,0.1,0.00045903,4587.2,0.0004627,4704.5,-0.00013086,244.72,-0.00016346,-0.22958,0.26463
26545,5.5602,4,0.1,0.00047408,4737.6,0.00047835,4875.9,-0.00013195,290.3,-0.00017063,-0.32335,0.24038
26546,5.6519,4.0909,0.1,0.00046747,4671.4,0.0004713,4794.3,-0.00013263,256.63,-0.00016683,-0.30764,0.24822
26547,5.3767,4,0.1,0.0004851,4847.6,0.00048953,4991.6,-0.00013453,302.71,-0.00017488,-0.43548,0.22445
26548,5.4684,4.0909,0.1,0.00047694,4766.1,0.00048091,4893.7,-0.00013489,266.76,-0.00017045,-0.41537,0.23213
26549,5.1932,4,0.1,0.00049798,4976.3,0.00050253,5124.5,-0.00013801,311.72,-0.00017958,-0.59274,0.20886
26550,5.285,4.0909,0.1,0.00048778,4874.4,0.00049185,5005.3,-0.00013786,273.93,-0.00017439,-0.5666,0.21637
26551,5.0097,4,0.1,0.00051335,5129.9,0.00051796,5279.8,-0.00014278,315.22,-0.00018485,-0.81753,0.1936
26552,5.1015,4.0909,0.1,0.00050043,5000.8,0.00050454,5132.8,-0.00014182,276.33,-0.0001787,-0.78733,0.20093
26553,4.8263,4,0.1,0.00053209,5317.3,0.00053666,5464.8,-0.00014941,309.89,-0.00019081,-1.1683,0.17869
26554,4.918,4.0909,0.1,0.00051553,5151.7,0.00051958,5281.3,-0.00014723,271.16,-0.00018347,-1.1207,0.18584
26555,4.6428,4,0.1,0.00055554,5551.6,0.00055988,5690.3,-0.00015877,290.65,-0.00019768,-1.7172,0.16414
26556,4.7345,4.0909,0.1,0.00053402,5336.5,0.00053785,5458.1,-0.00015476,254.04,-0.0001888,-1.6951,0.17109
26557,4.4593,4,0.1,0.00058574,5853.4,0.00058953,5972.6,-0.00017217,249.47,-0.00020576,-2.9327,0.14997
26558,4.551,4.0909,0.1,0.00055734,5569.5,0.00056067,5673.9,-0.00016545,218.08,-0.00019484,-2.7465,0.1567
26559,4.2758,4,0.1,0.00062601,6255.8,0.00062869,6338.2,-0.00019169,174.26,-0.00021561,-5.5073,0.13618
26560,4.3676,4.0909,0.1,0.00058779,5873.8,0.00059012,5945.6,-0.00018088,152.57,-0.00020196,-5.8615,0.14269
26561,4.0923,4,0.1,0.00068242,6819.5,0.00068287,6833.4,-0.00021918,55.761,-0.00023021,-27.139,0.1228
26562,4.1841,4.0909,0.1,0.00062913,6287,0.00062956,6300.4,-0.00020204,52.006,-0.00021223,-24.534,0.12906
26563,3.9088,4,0.1,0.00076624,7657.1,0.00076248,7552.1,-0.00024047,16.275,-0.00027202,-220.75,0.10986
26564,4.0006,4.0909,0.1,0.00068854,6880.7,0.00068517,6785.8,-0.00021687,8.1992,-0.00024372,-193.55,0.11583
26565,3.7254,4,0.1,0.00090588,9052.5,0.00089213,8680.8,-0.00026833,-38.424,-0.00035261,-671.68,0.097381
26566,3.8171,4.0909,0.1,0.00077904,7785,0.00076818,7497.2,-0.00022734,17.207,-0.00030425,-560.68,0.10303
26567,3.5419,4,0.1,0.001241,12402,0.0012005,11495,-0.00028419,339.94,-0.00057688,-1859.2,0.085428
26568,3.6336,4.0909,0.1,0.00093947,9388.2,0.00090881,8617.5,-0.00024562,-56.416,-0.00041787,-1350.7,0.090691
26569,3.4501,4.0909,0.1,0.0013513,13504,0.0012576,11596,-0.00022035,490.97,-0.00074294,-3435.6,0.078847
26570,3.3584,4,0.1,0.0021824,21809,0.0021196,20387,-0.00051768,571.46,-0.00099021,-2979,0.074101
26571,23.725,4.1818,0.1,1.8927e-05,189.14,1.0942e-05,58.859,3.0803e-06,-0.20913,-1.7224e-05,-152.77,2.814
26572,23.817,4.2727,0.1,1.777e-05,177.58,9.0806e-06,39.733,3.769e-06,-0.17667,-1.6757e-05,-154.4,2.8294
26573,23.908,4.1818,0.1,1.7486e-05,174.74,7.6246e-06,22.379,4.5888e-06,-0.43047,-1.7e-05,-162.64,2.8449
26574,23.541,4.1818,0.1,2.0917e-05,209.03,1.4452e-05,97.256,1.4791e-06,-0.21721,-1.7485e-05,-142.7,2.7832
26575,23.633,4.2727,0.1,1.9526e-05,195.13,1.2574e-05,77.987,2.1529e-06,-0.31314,-1.6988e-05,-144.13,2.7986
26576,23.358,4.1818,0.1,2.3291e-05,232.75,1.7968e-05,135.57,-9.0895e-08,-0.1231,-1.7801e-05,-133.19,2.7524
26577,23.45,4.2727,0.1,2.1737e-05,217.22,1.6076e-05,116.27,5.8375e-07,-0.13215,-1.7279e-05,-134.35,2.7677
26578,23.174,4.1818,0.1,2.595e-05,259.32,2.1497e-05,173.77,-1.6442e-06,-0.1009,-1.8172e-05,-124.29,2.7215
26579,23.266,4.2727,0.1,2.4281e-05,242.65,1.9593e-05,154.42,-9.7519e-07,-0.11566,-1.7629e-05,-125.24,2.7369
26580,22.991,4.1818,0.1,2.8822e-05,288.02,2.5041e-05,211.94,-3.1767e-06,-0.078778,-1.8602e-05,-115.98,2.6907
26581,23.083,4.2727,0.1,2.7072e-05,270.53,2.3125e-05,192.53,-2.5108e-06,-0.085066,-1.8039e-05,-116.76,2.7061
26582,22.807,4.1818,0.1,3.186e-05,318.38,2.8607e-05,250.12,-4.6914e-06,-0.065767,-1.9091e-05,-108.26,2.66
26583,22.899,4.2727,0.1,3.0051e-05,300.3,2.6679e-05,230.65,-4.0278e-06,-0.070488,-1.8511e-05,-108.89,2.6753
26584,22.624,4.1818,0.1,3.503e-05,350.06,3.2197e-05,288.37,-6.1901e-06,-0.05572,-1.9637e-05,-101.09,2.6292
26585,22.716,4.2727,0.1,3.3177e-05,331.55,3.0259e-05,268.83,-5.5278e-06,-0.058652,-1.9044e-05,-101.62,2.6445
26586,22.44,4.1818,0.1,3.8307e-05,382.81,3.5816e-05,326.72,-7.6747e-06,-0.048232,-2.024e-05,-94.46,2.5985
26587,22.532,4.2727,0.1,3.6423e-05,363.98,3.3868e-05,307.11,-7.013e-06,-0.050225,-1.9636e-05,-94.898,2.6138
26588,22.257,4.1818,0.1,4.1675e-05,416.46,3.9463e-05,365.2,-9.1472e-06,-0.042315,-2.0897e-05,-88.326,2.5678
26589,22.349,4.2727,0.1,3.9766e-05,397.39,3.7507e-05,345.53,-8.4854e-06,-0.043609,-2.0285e-05,-88.702,2.5831
26590,22.073,4.1818,0.1,4.5119e-05,450.88,4.314e-05,403.82,-1.0609e-05,-0.037567,-2.1605e-05,-82.656,2.5371
26591,22.165,4.2727,0.1,4.3192e-05,431.62,4.1177e-05,384.09,-9.9471e-06,-0.038379,-2.0987e-05,-82.987,2.5524
26592,21.89,4.1818,0.1,4.863e-05,485.97,4.6848e-05,442.6,-1.2063e-05,-0.033669,-2.2362e-05,-77.415,2.5064
26593,21.982,4.2727,0.1,4.6689e-05,466.57,4.4878e-05,422.82,-1.14e-05,-0.03413,-2.1739e-05,-77.717,2.5217
26594,21.706,4.1818,0.1,5.2201e-05,521.65,5.0586e-05,481.56,-1.3509e-05,-0.030415,-2.3163e-05,-72.57,2.4758
26595,21.798,4.2727,0.1,5.0248e-05,502.14,4.861e-05,461.72,-1.2844e-05,-0.030621,-2.2537e-05,-72.854,2.491
26596,21.523,4.1818,0.1,5.5826e-05,557.87,5.4354e-05,520.69,-1.4949e-05,-0.027662,-2.4008e-05,-68.091,2.4452
26597,21.615,4.2727,0.1,5.3863e-05,538.26,5.2373e-05,500.8,-1.4283e-05,-0.027676,-2.3378e-05,-68.364,2.4604
26598,21.34,4.1818,0.1,5.9499e-05,594.58,5.8152e-05,560.01,-1.6384e-05,-0.025312,-2.4891e-05,-63.947,2.4146
26599,21.431,4.2727,0.1,5.7527e-05,574.88,5.6165e-05,540.06,-1.5716e-05,-0.025175,-2.4259e-05,-64.215,2.4298
26600,21.156,4.1818,0.1,6.3217e-05,631.73,6.1979e-05,599.51,-1.7815e-05,-0.023283,-2.5812e-05,-60.112,2.3841
26601,21.248,4.2727,0.1,6.1237e-05,611.95,5.9986e-05,579.51,-1.7146e-05,-0.02304,-2.5178e-05,-60.378,2.3993
26602,20.973,4.1818,0.1,6.6976e-05,669.3,6.5834e-05,639.21,-1.9243e-05,-0.021513,-2.6768e-05,-56.561,2.3536
26603,21.064,4.2727,0.1,6.4989e-05,649.44,6.3835e-05,619.15,-1.8572e-05,-0.021187,-2.6132e-05,-56.828,2.3688
26604,20.789,4.1818,0.1,7.0774e-05,707.25,6.9717e-05,679.1,-2.0669e-05,-0.019961,-2.7756e-05,-53.271,2.3232
26605,20.881,4.2727,0.1,6.8781e-05,687.33,6.7713e-05,658.99,-1.9995e-05,-0.01957,-2.7119e-05,-53.541,2.3383
26606,20.606,4.1818,0.1,7.4609e-05,745.58,7.3628e-05,719.19,-2.2093e-05,-0.018587,-2.8775e-05,-50.223,2.2928
26607,20.697,4.2727,0.1,7.2609e-05,725.59,7.1617e-05,699.01,-2.1418e-05,-0.01815,-2.8136e-05,-50.496,2.3079
26608,20.422,4.1818,0.1,7.8479e-05,784.25,7.7565e-05,759.47,-2.3516e-05,-0.017362,-2.9822e-05,-47.395,2.2625
26609,20.514,4.2727,0.1,7.6472e-05,764.19,7.5549e-05,739.23,-2.2839e-05,-0.016888,-2.9181e-05,-47.672,2.2776
26610,20.239,4.1818,0.1,8.2383e-05,823.26,8.1529e-05,799.95,-2.494e-05,-0.016269,-3.0896e-05,-44.772,2.2322
26611,20.33,4.2727,0.1,8.0368e-05,803.13,7.9506e-05,779.64,-2.426e-05,-0.015765,-3.0254e-05,-45.052,2.2472
26612,20.055,4.1818,0.1,8.6318e-05,862.59,8.552e-05,840.63,-2.6363e-05,-0.015292,-3.1996e-05,-42.337,2.2019
26613,20.147,4.2727,0.1,8.4296e-05,842.38,8.349e-05,820.25,-2.5681e-05,-0.014765,-3.1352e-05,-42.62,2.217
26614,19.872,4.1818,0.1,9.0284e-05,902.22,8.9536e-05,881.51,-2.7788e-05,-0.014407,-3.312e-05,-40.075,2.1718
26615,19.963,4.2727,0.1,8.8255e-05,881.94,8.7499e-05,861.06,-2.7103e-05,-0.013873,-3.2473e-05,-40.36,2.1868
26616,19.688,4.1818,0.1,9.428e-05,942.15,9.3577e-05,922.59,-2.9214e-05,-0.013598,-3.4266e-05,-37.972,2.1417
26617,19.78,4.2727,0.1,9.2243e-05,921.8,9.1533e-05,902.07,-2.8527e-05,-0.013053,-3.3617e-05,-38.26,2.1566
26618,19.505,4.1818,0.1,9.8305e-05,982.37,9.7643e-05,963.87,-3.0641e-05,-0.012868,-3.5433e-05,-36.016,2.1116
26619,19.596,4.2727,0.1,9.626e-05,961.94,9.5591e-05,943.27,-2.9952e-05,-0.012309,-3.4782e-05,-36.306,2.1265
26620,19.321,4.1818,0.1,0.00010236,1022.9,0.00010173,1005.3,-3.2071e-05,-0.012202,-3.6621e-05,-34.195,2.0816
26621,19.413,4.2727,0.1,0.00010031,1002.4,9.9674e-05,984.67,-3.1379e-05,-0.011646,-3.5967e-05,-34.487,2.0965
26622,19.138,4.1818,0.1,0.00010644,1063.7,0.00010585,1047,-3.3504e-05,-0.011587,-3.7827e-05,-32.498,2.0517
26623,19.229,4.2727,0.1,0.00010438,1043.1,0.00010378,1026.3,-3.2808e-05,-0.011028,-3.7171e-05,-32.791,2.0666
26624,18.954,4.1818,0.1,0.00011055,1104.7,0.00010999,1088.9,-3.4939e-05,-0.011023,-3.9052e-05,-30.916,2.0219
26625,19.046,4.2727,0.1,0.00010848,1084,0.00010791,1068.1,-3.4241e-05,-0.010463,-3.8393e-05,-31.21,2.0367
26626,18.771,4.1818,0.1,0.00011468,1146,0.00011415,1131,-3.6377e-05,-0.010499,-4.0294e-05,-29.437,1.9921
26627,18.863,4.2727,0.1,0.0001126,1125.2,0.00011207,1110.1,-3.5677e-05,-0.0099454,-3.9632e-05,-29.733,2.0069
26628,18.587,4.1818,0.1,0.00011884,1187.5,0.00011833,1173.3,-3.7819e-05,-0.01001,-4.1552e-05,-28.055,1.9624
26629,18.679,4.2727,0.1,0.00011675,1166.7,0.00011624,1152.3,-3.7116e-05,-0.0094556,-4.0888e-05,-28.351,1.9771
26630,18.404,4.1818,0.1,0.00012302,1229.4,0.00012254,1215.8,-3.9265e-05,-0.0095627,-4.2825e-05,-26.76,1.9328
26631,18.496,4.2727,0.1,0.00012093,1208.4,0.00012044,1194.7,-3.8558e-05,-0.0090082,-4.2158e-05,-27.058,1.9475
26632,18.22,4.1818,0.1,0.00012723,1271.4,0.00012677,1258.4,-4.0714e-05,-0.0091545,-4.4113e-05,-25.545,1.9032
26633,18.312,4.2727,0.1,0.00012512,1250.4,0.00012466,1237.3,-4.0005e-05,-0.0085985,-4.3443e-05,-25.844,1.9179
26634,18.037,4.1818,0.1,0.00013146,1313.7,0.00013103,1301.3,-4.2168e-05,-0.0087688,-4.5415e-05,-24.402,1.8738
26635,18.129,4.2727,0.1,0.00012935,1292.6,0.00012891,1280,-4.1456e-05,-0.0082273,-4.4743e-05,-24.704,1.8884
26636,17.853,4.1818,0.1,0.00013572,1356.2,0.0001353,1344.4,-4.3627e-05,-0.008399,-4.673e-05,-23.325,1.8444
26637,17.945,4.2727,0.1,0.00013359,1335,0.00013318,1323,-4.2911e-05,-0.0078625,-4.6055e-05,-23.63,1.859
26638,17.67,4.1818,0.1,0.00013999,1399,0.0001396,1387.7,-4.509e-05,-0.0080638,-4.8057e-05,-22.308,1.8151
26639,17.762,4.2727,0.1,0.00013786,1377.7,0.00013746,1366.2,-4.4371e-05,-0.0075205,-4.738e-05,-22.616,1.8297
26640,17.486,4.1818,0.1,0.0001443,1442,0.00014392,1431.2,-4.6557e-05,-0.0077509,-4.9397e-05,-21.344,1.786
26641,17.578,4.2727,0.1,0.00014216,1420.6,0.00014178,1409.6,-4.5835e-05,-0.0072223,-4.8717e-05,-21.656,1.8004
26642,17.303,4.1818,0.1,0.00014862,1485.2,0.00014826,1474.9,-4.803e-05,-0.0074483,-5.0748e-05,-20.428,1.7569
26643,17.395,4.2727,0.1,0.00014647,1463.7,0.00014611,1453.2,-4.7305e-05,-0.0069236,-5.0065e-05,-20.744,1.7713
26644,17.119,4.1818,0.1,0.00015297,1528.6,0.00015263,1518.7,-4.9508e-05,-0.0071663,-5.211e-05,-19.554,1.7279
26645,17.211,4.2727,0.1,0.00015081,1507,0.00015046,1497,-4.878e-05,-0.006646,-5.1424e-05,-19.876,1.7423
26646,16.936,4.1818,0.1,0.00015734,1572.3,0.00015701,1562.8,-5.0992e-05,-0.0068929,-5.3482e-05,-18.717,1.699
26647,17.028,4.2727,0.1,0.00015517,1550.6,0.00015484,1541,-5.026e-05,-0.0063865,-5.2794e-05,-19.046,1.7133
26648,16.753,4.1818,0.1,0.00016173,1616.1,0.00016141,1607.1,-5.248e-05,-0.0066288,-5.4863e-05,-17.911,1.6703
26649,16.844,4.2727,0.1,0.00015955,1594.4,0.00015923,1585.2,-5.1745e-05,-0.0061243,-5.4173e-05,-18.248,1.6845
26650,16.569,4.1818,0.1,0.00016614,1660.2,0.00016584,1651.6,-5.3975e-05,-0.0063857,-5.6254e-05,-17.133,1.6416
26651,16.661,4.2727,0.1,0.00016395,1638.4,0.00016365,1629.6,-5.3236e-05,-0.0058837,-5.5562e-05,-17.479,1.6558
26652,16.386,4.1818,0.1,0.00017057,1704.5,0.00017029,1696.3,-5.5475e-05,-0.0061629,-5.7654e-05,-16.378,1.613
26653,16.477,4.2727,0.1,0.00016838,1682.6,0.00016808,1674.2,-5.4733e-05,-0.0056603,-5.696e-05,-16.734,1.6272
26654,16.202,4.1818,0.1,0.00017502,1749,0.00017475,1741.1,-5.6982e-05,-0.0059416,-5.9062e-05,-15.64,1.5846
26655,16.294,4.2727,0.1,0.00017282,1727,0.00017254,1718.9,-5.6236e-05,-0.0054592,-5.8366e-05,-16.008,1.5987
26656,16.019,4.1818,0.1,0.0001795,1793.7,0.00017924,1786.2,-5.8494e-05,-0.0057147,-6.0479e-05,-14.916,1.5563
26657,16.11,4.2727,0.1,0.00017728,1771.6,0.00017702,1763.9,-5.7745e-05,-0.0052396,-5.978e-05,-15.297,1.5703
26658,15.835,4.1818,0.1,0.00018399,1838.6,0.00018375,1831.5,-6.0013e-05,-0.005509,-6.1902e-05,-14.201,1.5281
26659,15.927,4.2727,0.1,0.00018177,1816.4,0.00018152,1809.1,-5.926e-05,-0.0050262,-6.1202e-05,-14.597,1.542
26660,15.652,4.1818,0.1,0.00018851,1883.8,0.00018827,1877,-6.1538e-05,-0.0053094,-6.3333e-05,-13.491,1.5
26661,15.743,4.2727,0.1,0.00018628,1861.5,0.00018603,1854.5,-6.0781e-05,-0.0048474,-6.2631e-05,-13.904,1.5139
26662,15.468,4.1818,0.1,0.00019304,1929.1,0.00019282,1922.6,-6.3069e-05,-0.0051024,-6.477e-05,-12.781,1.4721
26663,15.56,4.2727,0.1,0.0001908,1906.7,0.00019057,1900,-6.2309e-05,-0.004645,-6.4067e-05,-13.214,1.4859
26664,15.285,4.1818,0.1,0.00019759,1974.6,0.00019738,1968.5,-6.4607e-05,-0.0049016,-6.6213e-05,-12.068,1.4442
26665,15.376,4.2727,0.1,0.00019535,1952.1,0.00019513,1945.8,-6.3843e-05,-0.0044513,-6.5509e-05,-12.522,1.458
26666,15.101,4.1818,0.1,0.00020217,2020.3,0.00020197,2014.6,-6.6152e-05,-0.0046894,-6.7662e-05,-11.347,1.4165
26667,15.193,4.2727,0.1,0.00019991,1997.7,0.00019971,1991.8,-6.5384e-05,-0.0042599,-6.6957e-05,-11.824,1.4302
26668,14.918,4.1818,0.1,0.00020676,2066.1,0.00020657,2060.8,-6.7704e-05,-0.004467,-6.9116e-05,-10.613,1.389
26669,15.009,4.2727,0.1,0.00020449,2043.5,0.0002043,2037.9,-6.6932e-05,-0.0040422,-6.8411e-05,-11.117,1.4026
26670,14.734,4.1818,0.1,0.00021137,2112.2,0.0002112,2107.3,-6.9262e-05,-0.0042468,-7.0575e-05,-9.8627,1.3616
26671,14.826,4.2727,0.1,0.0002091,2089.5,0.00020892,2084.3,-6.8486e-05,-0.0038296,-6.987e-05,-10.395,1.3751
26672,14.551,4.1818,0.1,0.000216,2158.5,0.00021584,2153.9,-7.0828e-05,-0.0040257,-7.2038e-05,-9.0907,1.3343
26673,14.642,4.2727,0.1,0.00021372,2135.7,0.00021355,2130.9,-7.0048e-05,-0.0036157,-7.1333e-05,-9.6554,1.3478
26674,14.367,4.1818,0.1,0.00022064,2204.9,0.0002205,2200.8,-7.2401e-05,-0.0037742,-7.3505e-05,-8.2925,1.3072
26675,14.459,4.2727,0.1,0.00021836,2182.1,0.0002182,2177.6,-7.1617e-05,-0.0034002,-7.28e-05,-8.8925,1.3206
26676,14.184,4.1818,0.1,0.00022531,2251.5,0.00022518,2247.8,-7.3982e-05,-0.0034724,-7.4975e-05,-7.4632,1.2802
26677,14.276,4.2727,0.1,0.00022301,2228.6,0.00022288,2224.5,-7.3193e-05,-0.0031243,-7.4271e-05,-8.102,1.2935
26678,14,4.1818,0.1,0.00022999,2298.3,0.00022988,2295,-7.557e-05,-0.0031364,-7.6448e-05,-6.5979,1.2534
26679,14.092,4.2727,0.1,0.00022769,2275.3,0.00022757,2271.7,-7.4777e-05,-0.0028078,-7.5746e-05,-7.2792,1.2666
26680,13.817,4.1818,0.1,0.00023469,2345.3,0.00023459,2342.4,-7.7166e-05,-0.0027181,-7.7923e-05,-5.6912,1.2267
26681,13.909,4.2727,0.1,0.00023238,2322.2,0.00023227,2319,-7.6368e-05,-0.0024655,-7.7222e-05,-6.4191,1.2398
26682,13.633,4.1818,0.1,0.00023941,2392.4,0.00023933,2390,-7.877e-05,-0.0021403,-7.94e-05,-4.7375,1.2002
26683,13.725,4.2727,0.1,0.00023709,2369.3,0.000237,2366.5,-7.7968e-05,-0.0019894,-7.8702e-05,-5.5165,1.2132
26684,13.45,4.1818,0.1,0.00024414,2439.7,0.00024408,2437.9,-8.0382e-05,-0.0012817,-8.0878e-05,-3.7312,1.1738
26685,13.542,4.2727,0.1,0.00024182,2416.5,0.00024174,2414.3,-7.9575e-05,-0.0013403,-8.0182e-05,-4.566,1.1868
26686,13.266,4.1818,0.1,0.00024889,2487.2,0.00024885,2485.9,-8.2002e-05,0.00026354,-8.2357e-05,-2.6665,1.1476
26687,13.358,4.2727,0.1,0.00024656,2463.9,0.0002465,2462.2,-8.119e-05,-0.00034024,-8.1664e-05,-3.5619,1.1605
26688,13.083,4.1818,0.1,0.00025366,2534.8,0.00025363,2534,-8.363e-05,0.0040714,-8.3835e-05,-1.5383,1.1216
26689,13.175,4.2727,0.1,0.00025132,2511.5,0.00025128,2510.3,-8.2813e-05,0.0015574,-8.3146e-05,-2.4986,1.1344
26690,12.899,4.1818,0.1,0.00025844,2582.6,0.00025843,2582.4,-8.5264e-05,0.032902,-8.5316e-05,-0.3625,1.0958
26691,12.991,4.2727,0.1,0.0002561,2559.2,0.00025608,2558.6,-8.4445e-05,0.0065565,-8.4628e-05,-1.3721,1.1085
26692,12.716,4.1818,0.1,0.00026323,2630.5,0.00026325,2631,-8.6785e-05,0.97336,-8.6917e-05,-0.018241,1.0701
26693,12.808,4.2727,0.1,0.00026089,2607.1,0.00026089,2607,-8.6078e-05,0.063675,-8.6116e-05,-0.22424,1.0827
26694,12.532,4.1818,0.1,0.00026804,2678.6,0.00026808,2679.8,-8.8259e-05,2.3379,-8.8571e-05,-0.010143,1.0446
26695,12.624,4.2727,0.1,0.0002657,2655.2,0.00026572,2655.7,-8.7584e-05,1.1425,-8.7739e-05,-0.017259,1.0571
26696,12.349,4.1818,0.1,0.00027287,2726.8,0.00027293,2728.7,-8.9728e-05,3.8046,-9.0236e-05,-0.0078524,1.0193
26697,12.441,4.2727,0.1,0.00027052,2703.3,0.00027056,2704.6,-8.9062e-05,2.5095,-8.9397e-05,-0.010093,1.0317
26698,12.165,4.1818,0.1,0.00027771,2775.2,0.0002778,2777.8,-9.1194e-05,5.3778,-9.191e-05,-0.0067564,0.99413
26699,12.257,4.2727,0.1,0.00027536,2751.7,0.00027542,2753.6,-9.0535e-05,3.9782,-9.1065e-05,-0.0078407,1.0065
26700,11.982,4.1818,0.1,0.00028256,2823.6,0.00028268,2827.2,-9.2653e-05,7.0663,-9.3595e-05,-0.0060901,0.96918
26701,12.074,4.2727,0.1,0.00028021,2800.1,0.0002803,2802.9,-9.2003e-05,5.5535,-9.2743e-05,-0.0067387,0.98142
26702,11.799,4.1818,0.1,0.00028742,2872.2,0.00028757,2876.7,-9.4107e-05,8.8802,-9.529e-05,-0.0056222,0.94442
26703,11.89,4.2727,0.1,0.00028507,2848.7,0.00028519,2852.3,-9.3467e-05,7.2443,-9.4432e-05,-0.0060458,0.95657
26704,11.615,4.1818,0.1,0.0002923,2921,0.00029248,2926.4,-9.5553e-05,10.83,-9.6995e-05,-0.0052809,0.91985
26705,11.707,4.2727,0.1,0.00028994,2897.4,0.0002901,2901.9,-9.4924e-05,9.0603,-9.613e-05,-0.0055779,0.9319
26706,11.432,4.1818,0.1,0.00029719,2969.8,0.0002974,2976.3,-9.699e-05,12.928,-9.8712e-05,-0.0049979,0.89548
26707,11.523,4.2727,0.1,0.00029483,2946.3,0.00029502,2951.8,-9.6373e-05,11.012,-9.7839e-05,-0.0052444,0.90743
26708,11.248,4.1818,0.1,0.00030208,3018.8,0.00030234,3026.3,-9.8418e-05,15.186,-0.00010044,-0.0047714,0.87131
26709,11.34,4.2727,0.1,0.00029973,2995.2,0.00029995,3001.8,-9.7814e-05,13.111,-9.956e-05,-0.0049513,0.88315
26710,11.065,4.1818,0.1,0.00030699,3067.8,0.00030729,3076.6,-9.9834e-05,17.618,-0.00010218,-0.0046081,0.84735
26711,11.156,4.2727,0.1,0.00030464,3044.3,0.0003049,3051.9,-9.9245e-05,15.369,-0.00010129,-0.0047658,0.85908
26712,10.881,4.1818,0.1,0.00031191,3117,0.00031225,3127,-0.00010124,20.237,-0.00010393,-0.0044532,0.82359
26713,10.973,4.2727,0.1,0.00030956,3093.5,0.00030986,3102.3,-0.00010067,17.798,-0.00010304,-0.0046234,0.83522
26714,10.698,4.1818,0.1,0.00031684,3166.2,0.00031722,3177.7,-0.00010263,23.059,-0.0001057,-0.0043151,0.80004
26715,10.789,4.2727,0.1,0.00031449,3142.7,0.00031483,3152.9,-0.00010207,20.414,-0.00010479,-0.0044731,0.81156
26716,10.514,4.1818,0.1,0.00032177,3215.5,0.00032221,3228.5,-0.000104,26.099,-0.00010748,-0.0042236,0.7767
26717,10.606,4.2727,0.1,0.00031943,3192.1,0.00031982,3203.6,-0.00010347,23.228,-0.00010656,-0.0043788,0.78811
26718,10.331,4.1818,0.1,0.00032671,3264.9,0.0003272,3279.5,-0.00010536,29.375,-0.00010927,-0.0041779,0.75358
26719,10.422,4.2727,0.1,0.00032438,3241.5,0.00032481,3254.6,-0.00010485,26.258,-0.00010834,-0.0043358,0.76488
26720,10.147,4.1818,0.1,0.00033166,3314.3,0.00033221,3330.7,-0.00010669,32.904,-0.00011107,-0.0041584,0.73068
26721,10.239,4.2727,0.1,0.00032933,3291,0.00032982,3305.7,-0.00010621,29.517,-0.00011014,-0.0043466,0.74187
26722,9.9637,4.1818,0.1,0.00033662,3363.9,0.00033723,3382.1,-0.00010801,36.705,-0.0001129,-0.0041606,0.70801
26723,10.055,4.2727,0.1,0.00033429,3340.6,0.00033484,3357,-0.00010755,33.023,-0.00011195,-0.0043686,0.71908
26724,9.7802,4.1818,0.1,0.00034158,3413.4,0.00034225,3433.6,-0.00010931,40.797,-0.00011474,-0.0042154,0.68556
26725,9.872,4.2727,0.1,0.00033926,3390.3,0.00033987,3408.5,-0.00010888,36.792,-0.00011377,-0.0044369,0.69652
26726,9.5968,4.1818,0.1,0.00034654,3463.1,0.00034729,3485.4,-0.00011058,45.201,-0.00011659,-0.0043327,0.66334
26727,9.6885,4.2727,0.1,0.00034424,3440,0.00034491,3460.2,-0.00011018,40.842,-0.00011562,-0.0045793,0.67418
26728,9.4133,4.1818,0.1,0.00035152,3512.7,0.00035234,3537.4,-0.00011182,49.938,-0.00011847,-0.0045232,0.64136
26729,9.505,4.2727,0.1,0.00034922,3489.8,0.00034997,3512.2,-0.00011146,45.19,-0.00011747,-0.0047902,0.65208
26730,9.2298,4.1818,0.1,0.00035649,3562.5,0.0003574,3589.7,-0.00011303,55.028,-0.00012036,-0.0048107,0.61961
26731,9.3215,4.2727,0.1,0.00035421,3539.6,0.00035503,3564.3,-0.00011271,49.854,-0.00011935,-0.0050987,0.63021
26732,9.0463,4.1818,0.1,0.00036148,3612.3,0.00036247,3642.1,-0.00011422,60.494,-0.00012227,-0.0052209,0.59811
26733,9.1381,4.2727,0.1,0.0003592,3589.6,0.00036011,3616.7,-0.00011394,54.852,-0.00012124,-0.0055257,0.60858
26734,8.8628,4.1818,0.1,0.00036647,3662.1,0.00036755,3694.9,-0.00011537,66.357,-0.00012421,-0.0057891,0.57684
26735,8.9546,4.2727,0.1,0.00036421,3639.5,0.00036519,3669.3,-0.00011515,60.199,-0.00012316,-0.0061061,0.58719
26736,8.6794,4.1818,0.1,0.00037146,3712.1,0.00037265,3747.9,-0.0001165,72.638,-0.00012616,-0.0065621,0.55583
26737,8.7711,4.2727,0.1,0.00036922,3689.6,0.00037029,3722.1,-0.00011632,65.911,-0.00012509,-0.0068813,0.56605
26738,8.4959,4.1818,0.1,0.00037647,3762.1,0.00037776,3801.2,-0.00011758,79.356,-0.00012815,-0.0076012,0.53507
26739,8.5876,4.2727,0.1,0.00037424,3739.8,0.00037541,3775.3,-0.00011746,72.003,-0.00012705,-0.007909,0.54516
26740,8.3124,4.1818,0.1,0.0003815,3812.3,0.00038289,3854.9,-0.00011864,86.529,-0.00013016,-0.0089865,0.51456
26741,8.4041,4.2727,0.1,0.00037927,3790.1,0.00038054,3828.7,-0.00011858,78.486,-0.00012903,-0.0092624,0.52452
26742,8.1289,4.1818,0.1,0.00038654,3862.7,0.00038805,3908.9,-0.00011966,94.173,-0.0001322,-0.010824,0.4943
26743,8.2206,4.2727,0.1,0.00038431,3840.5,0.0003857,3882.5,-0.00011967,85.368,-0.00013103,-0.011039,0.50414
26744,7.9454,4.1818,0.1,0.00039161,3913.4,0.00039325,3963.5,-0.00012065,102.3,-0.00013427,-0.013252,0.47431
26745,8.0372,4.2727,0.1,0.00038938,3891.1,0.00039087,3936.6,-0.00012073,92.651,-0.00013306,-0.013367,0.48401
26746,7.7619,4.1818,0.1,0.00039671,3964.3,0.00039848,4018.6,-0.00012161,110.92,-0.00013637,-0.016456,0.45459
26747,7.8537,4.2727,0.1,0.00039447,3942,0.00039608,3991.2,-0.00012176,100.34,-0.00013512,-0.016415,0.46415
26748,7.5785,4.1818,0.1,0.00040185,4015.7,0.00040376,4074.4,-0.00012254,120.02,-0.00013851,-0.020682,0.43513
26749,7.6702,4.2727,0.1,0.0003996,3993.2,0.00040133,4046.3,-0.00012277,108.41,-0.0001372,-0.020411,0.44456
26750,7.395,4.1818,0.1,0.00040706,4067.7,0.0004091,4131,-0.00012345,129.6,-0.0001407,-0.026258,0.41595
26751,7.4867,4.2727,0.1,0.00040477,4044.9,0.00040663,4102,-0.00012377,116.85,-0.00013932,-0.025655,0.42524
26752,7.2115,4.1818,0.1,0.00041234,4120.5,0.00041453,4188.5,-0.00012434,139.64,-0.00014293,-0.033623,0.39704
26753,7.3032,4.2727,0.1,0.00041,4097.1,0.00041199,4158.5,-0.00012475,125.64,-0.00014148,-0.032554,0.40619
26754,7.028,4.1818,0.1,0.00041772,4174.3,0.00042007,4247.3,-0.00012524,150.1,-0.00014522,-0.043369,0.3784
26755,7.1198,4.2727,0.1,0.00041529,4150.1,0.00041742,4215.8,-0.00012573,134.72,-0.00014367,-0.041658,0.38742
26756,6.8445,4.1818,0.1,0.00042323,4229.3,0.00042573,4307.5,-0.00012614,160.92,-0.00014756,-0.056295,0.36006
26757,6.9363,4.2727,0.1,0.00042068,4203.9,0.00042295,4274.1,-0.00012673,144.02,-0.0001459,-0.05371,0.36893
26758,6.6611,4.1818,0.1,0.0004289,4286.1,0.00043157,4369.5,-0.00012707,172.02,-0.00014998,-0.073489,0.34199
26759,6.7528,4.2727,0.1,0.00042619,4259,0.0004286,4333.6,-0.00012775,153.47,-0.00014818,-0.069734,0.35072
26760,6.4776,4.1818,0.1,0.0004348,4345,0.00043762,4433.7,-0.00012807,183.29,-0.00015247,-0.096442,0.32422
26761,6.5693,4.2727,0.1,0.00043186,4315.6,0.0004344,4394.7,-0.00012882,162.93,-0.00015051,-0.091139,0.3328
26762,6.2941,4.1818,0.1,0.00044096,4406.6,0.00044395,4500.6,-0.00012915,194.55,-0.00015506,-0.12721,0.30675
26763,6.3858,4.2727,0.1,0.00043771,4374.1,0.00044038,4457.6,-0.00012996,172.25,-0.0001529,-0.11989,0.31518
26764,6.1106,4.1818,0.1,0.00044749,4471.8,0.00045063,4570.9,-0.00013037,205.58,-0.00015775,-0.16869,0.28957
26765,6.2024,4.2727,0.1,0.00044381,4435,0.00044661,4522.7,-0.00013121,181.22,-0.00015535,-0.15877,0.29785
26766,5.9271,4.1818,0.1,0.00045446,4541.5,0.00045775,4645.5,-0.00013178,216.04,-0.00016056,-0.225,0.2727
26767,6.0189,4.2727,0.1,0.00045021,4499,0.00045313,4590.6,-0.00013262,189.54,-0.00015788,-0.21177,0.28082
26768,5.7437,4.1818,0.1,0.00046202,4617,0.00046543,4725.4,-0.00013347,225.47,-0.00016352,-0.3022,0.25613
26769,5.8354,4.2727,0.1,0.00045701,4566.9,0.00046003,4662,-0.00013425,196.8,-0.00016048,-0.28484,0.2641
26770,5.5602,4.1818,0.1,0.00047032,4700,0.00047385,4812,-0.00013556,233.19,-0.00016665,-0.4096,0.23988
26771,5.6519,4.2727,0.1,0.00046431,4639.9,0.00046741,4737.6,-0.00013618,202.44,-0.00016317,-0.38704,0.24769
26772,5.3767,4.1818,0.1,0.00047961,4792.8,0.0004832,4907.1,-0.00013819,238.18,-0.00016997,-0.56219,0.22395
26773,5.4684,4.2727,0.1,0.00047226,4719.3,0.00047541,4818.5,-0.00013853,205.6,-0.00016596,-0.53322,0.23159
26774,5.1932,4.1818,0.1,0.0004902,4898.6,0.00049381,5013.2,-0.00014162,238.9,-0.00017352,-0.78691,0.20834
26775,5.285,4.2727,0.1,0.00048107,4807.4,0.00048422,4906.2,-0.00014147,205.04,-0.00016886,-0.74909,0.21581
26776,5.0097,4.1818,0.1,0.00050254,5021.9,0.00050607,5133.7,-0.00014618,232.92,-0.00017734,-1.135,0.19306
26777,5.1015,4.2727,0.1,0.00049105,4907.1,0.00049411,5002.9,-0.00014528,198.81,-0.00017188,-1.086,0.20036
26778,4.8263,4.1818,0.1,0.00051732,5169.7,0.00052063,5273.6,-0.00015243,216.44,-0.00018147,-1.7322,0.17812
26779,4.918,4.2727,0.1,0.00050264,5022.9,0.00050548,5111.4,-0.00015034,183.83,-0.00017503,-1.6563,0.18524
26780,4.6428,4.1818,0.1,0.00053559,5352.2,0.00053842,5440,-0.0001612,183.39,-0.00018599,-2.9161,0.16354
26781,4.7345,4.2727,0.1,0.00051654,5161.8,0.00051895,5236.2,-0.00015728,155.27,-0.00017832,-2.8009,0.17046
26782,4.4593,4.1818,0.1,0.00055901,5586.2,0.0005609,5644.2,-0.00017372,124.53,-0.00019113,-6.3152,0.1493
26783,4.551,4.2727,0.1,0.00053385,5334.8,0.00053546,5383.9,-0.00016699,105.97,-0.00018188,-5.9093,0.15602
26784,4.2758,4.1818,0.1,0.00059033,5899.3,0.00059046,5903.7,-0.00019001,39.546,-0.00019927,-30.088,0.13544
26785,4.3676,4.2727,0.1,0.0005564,5560.1,0.00055654,5564.9,-0.0001793,36.107,-0.00018756,-25.966,0.14194
26786,4.0923,4.1818,0.1,0.00063445,6340.2,0.00063114,6247.3,-0.00019899,10.003,-0.00022575,-191.02,0.12196
26787,4.1841,4.2727,0.1,0.00058717,5867.7,0.00058459,5795,-0.00018534,10.049,-0.00020691,-151.99,0.12821
26788,3.9088,4.1818,0.1,0.00070038,6999,0.00069003,6724.6,-0.00020379,8.7574,-0.00027507,-526.81,0.10887
26789,4.0006,4.2727,0.1,0.00063176,6313.2,0.00062379,6099.1,-0.00018727,5.1221,-0.00024287,-412.66,0.11486
26790,3.7254,4.1818,0.1,0.00081309,8125.3,0.00078486,7433.9,-0.0002046,-0.60554,-0.00036954,-1239.8,0.09619
26791,3.8171,4.2727,0.1,0.00069914,6986.6,0.00068023,6513.1,-0.00018489,12.963,-0.00030307,-875.04,0.10189
26792,3.5419,4.1818,0.1,0.0010529,10522,0.00097037,8751.4,-0.00018188,93.809,-0.00058823,-2959.3,0.083932
26793,3.6336,4.2727,0.1,0.00081797,8174.1,0.0007714,7102.8,-0.00017503,-8.3568,-0.00041717,-1827.7,0.089289
26794,3.4501,4.2727,0.1,0.0010757,10749,0.00094871,8188.5,-0.0001289,91.731,-0.00067442,-4007,0.077045
26795,3.3584,4.1818,0.1,0.0010661,10654,0.00089034,7446,-4.5596e-05,413.71,-0.00074104,-4811.6,0.072084
26796,23.725,4.3636,0.1,1.825e-05,182.37,1.0704e-05,58.791,2.8523e-06,-0.20059,-1.6522e-05,-145.77,2.8139
26797,23.817,4.4545,0.1,1.7024e-05,170.12,8.8305e-06,39.754,3.518e-06,-0.1625,-1.5995e-05,-146.78,2.8293
26798,23.908,4.3636,0.1,1.6782e-05,167.7,7.3929e-06,22.408,4.3538e-06,-0.42737,-1.6291e-05,-155.54,2.8448
26799,23.541,4.3636,0.1,2.0265e-05,202.51,1.4197e-05,96.998,1.2597e-06,-0.21169,-1.6784e-05,-135.79,2.7831
26800,23.633,4.4545,0.1,1.8802e-05,187.89,1.2303e-05,77.786,1.9102e-06,-0.30559,-1.6224e-05,-136.56,2.7985
26801,23.358,4.3636,0.1,2.2672e-05,226.56,1.7702e-05,135.14,-2.9974e-07,-0.11869,-1.711e-05,-126.42,2.7523
26802,23.45,4.4545,0.1,2.1047e-05,210.33,1.579e-05,115.87,3.521e-07,-0.12673,-1.6522e-05,-126.92,2.7676
26803,23.174,4.3636,0.1,2.5367e-05,253.49,2.1223e-05,173.2,-1.8414e-06,-0.096939,-1.7498e-05,-117.73,2.7215
26804,23.266,4.4545,0.1,2.3631e-05,236.14,1.9297e-05,153.85,-1.1941e-06,-0.11085,-1.6888e-05,-118.03,2.7368
26805,22.991,4.3636,0.1,2.8277e-05,282.57,2.4766e-05,211.26,-3.3617e-06,-0.075128,-1.7951e-05,-109.69,2.6907
26806,23.083,4.4545,0.1,2.6463e-05,264.45,2.2825e-05,191.83,-2.716e-06,-0.080707,-1.7322e-05,-109.83,2.706
26807,22.807,4.3636,0.1,3.1353e-05,313.31,2.8335e-05,249.38,-4.864e-06,-0.062316,-1.8468e-05,-102.28,2.6599
26808,22.899,4.4545,0.1,2.9486e-05,294.65,2.6382e-05,229.86,-4.2193e-06,-0.066401,-1.7825e-05,-102.29,2.6752
26809,22.624,4.3636,0.1,3.4561e-05,345.38,3.1933e-05,287.6,-6.3506e-06,-0.052418,-1.9047e-05,-95.449,2.6291
26810,22.716,4.4545,0.1,3.2656e-05,326.33,2.997e-05,268,-5.7057e-06,-0.054766,-1.8393e-05,-95.385,2.6444
26811,22.44,4.3636,0.1,3.7877e-05,378.51,3.5564e-05,325.95,-7.8236e-06,-0.045051,-1.9685e-05,-89.17,2.5984
26812,22.532,4.4545,0.1,3.5945e-05,359.2,3.3591e-05,306.28,-7.1779e-06,-0.046497,-1.9025e-05,-89.058,2.6137
26813,22.257,4.3636,0.1,4.1282e-05,412.54,3.9226e-05,364.45,-9.2852e-06,-0.03924,-2.0379e-05,-83.396,2.5677
26814,22.349,4.4545,0.1,3.9331e-05,393.03,3.7246e-05,344.72,-8.6381e-06,-0.040019,-1.9714e-05,-83.261,2.583
26815,22.073,4.3636,0.1,4.4763e-05,447.32,4.292e-05,403.12,-1.0737e-05,-0.034589,-2.1125e-05,-78.084,2.537
26816,22.165,4.4545,0.1,4.2797e-05,427.68,4.0935e-05,383.33,-1.0088e-05,-0.034917,-2.0457e-05,-77.945,2.5522
26817,21.89,4.3636,0.1,4.8309e-05,482.76,4.6645e-05,441.97,-1.2181e-05,-0.030785,-2.1918e-05,-73.193,2.5063
26818,21.982,4.4545,0.1,4.6333e-05,463.01,4.4656e-05,422.13,-1.153e-05,-0.030789,-2.125e-05,-73.063,2.5216
26819,21.706,4.3636,0.1,5.1913e-05,518.77,5.0402e-05,481,-1.3618e-05,-0.027626,-2.2756e-05,-68.686,2.4757
26820,21.798,4.4545,0.1,4.9929e-05,498.95,4.8408e-05,461.11,-1.2965e-05,-0.027401,-2.2088e-05,-68.573,2.4909
26821,21.523,4.3636,0.1,5.5568e-05,555.3,5.4188e-05,520.21,-1.505e-05,-0.024965,-2.3635e-05,-64.527,2.4451
26822,21.615,4.4545,0.1,5.3578e-05,535.42,5.219e-05,500.27,-1.4395e-05,-0.024572,-2.2968e-05,-64.439,2.4603
26823,21.34,4.3636,0.1,5.927e-05,592.29,5.8004e-05,559.61,-1.6478e-05,-0.022704,-2.4552e-05,-60.686,2.4145
26824,21.431,4.4545,0.1,5.7275e-05,572.36,5.6002e-05,539.62,-1.582e-05,-0.022185,-2.3886e-05,-60.625,2.4297
26825,21.156,4.3636,0.1,6.3015e-05,629.72,6.1848e-05,599.19,-1.7902e-05,-0.020764,-2.5504e-05,-57.135,2.384
26826,21.248,4.4545,0.1,6.1015e-05,609.73,5.9842e-05,579.16,-1.7242e-05,-0.020161,-2.4839e-05,-57.102,2.3992
26827,20.973,4.3636,0.1,6.6799e-05,667.53,6.572e-05,638.97,-1.9324e-05,-0.019081,-2.6489e-05,-53.85,2.3535
26828,21.064,4.4545,0.1,6.4794e-05,647.5,6.371e-05,618.89,-1.8661e-05,-0.018412,-2.5825e-05,-53.845,2.3687
26829,20.789,4.3636,0.1,7.0621e-05,705.72,6.9619e-05,678.93,-2.0744e-05,-0.017611,-2.7504e-05,-50.807,2.3231
26830,20.881,4.4545,0.1,6.8611e-05,685.64,6.7605e-05,658.8,-2.0079e-05,-0.016899,-2.6841e-05,-50.83,2.3382
26831,20.606,4.3636,0.1,7.4477e-05,744.25,7.3544e-05,719.09,-2.2163e-05,-0.016315,-2.8548e-05,-47.986,2.2927
26832,20.697,4.4545,0.1,7.2462e-05,724.12,7.1525e-05,698.9,-2.1495e-05,-0.015575,-2.7886e-05,-48.035,2.3078
26833,20.422,4.3636,0.1,7.8366e-05,783.12,7.7495e-05,759.44,-2.3582e-05,-0.015166,-2.9618e-05,-45.369,2.2623
26834,20.514,4.4545,0.1,7.6347e-05,762.94,7.5472e-05,739.2,-2.2911e-05,-0.014404,-2.8957e-05,-45.443,2.2774
26835,20.239,4.3636,0.1,8.2287e-05,822.3,8.1472e-05,799.99,-2.5001e-05,-0.014146,-3.0714e-05,-42.94,2.232
26836,20.33,4.4545,0.1,8.0262e-05,802.07,7.9443e-05,779.68,-2.4327e-05,-0.01337,-3.0053e-05,-43.036,2.2471
26837,20.055,4.3636,0.1,8.6239e-05,861.79,8.5474e-05,840.73,-2.6421e-05,-0.013237,-3.1834e-05,-40.684,2.2018
26838,20.147,4.4545,0.1,8.4208e-05,841.5,8.344e-05,820.35,-2.5744e-05,-0.012453,-3.1173e-05,-40.8,2.2168
26839,19.872,4.3636,0.1,9.022e-05,901.58,8.9501e-05,881.66,-2.7842e-05,-0.012417,-3.2976e-05,-38.586,2.1716
26840,19.963,4.4545,0.1,8.8183e-05,881.22,8.746e-05,861.22,-2.7162e-05,-0.011639,-3.2314e-05,-38.72,2.1866
26841,19.688,4.3636,0.1,9.4229e-05,941.64,9.3552e-05,922.79,-2.9264e-05,-0.011669,-3.4138e-05,-36.634,2.1415
26842,19.78,4.4545,0.1,9.2186e-05,921.23,9.1505e-05,902.28,-2.8582e-05,-0.010894,-3.3476e-05,-36.785,2.1565
26843,19.505,4.3636,0.1,9.8266e-05,981.99,9.7628e-05,964.11,-3.0689e-05,-0.010997,-3.5321e-05,-34.816,2.1114
26844,19.596,4.4545,0.1,9.6217e-05,961.5,9.5574e-05,943.53,-3.0004e-05,-0.010218,-3.4658e-05,-34.983,2.1264
26845,19.321,4.3636,0.1,0.00010233,1022.6,0.00010173,1005.6,-3.2116e-05,-0.010386,-3.6523e-05,-33.122,2.0814
26846,19.413,4.4545,0.1,0.00010027,1002,9.9666e-05,984.97,-3.1428e-05,-0.0096212,-3.5859e-05,-33.302,2.0963
26847,19.138,4.3636,0.1,0.00010642,1063.5,0.00010585,1047.3,-3.3546e-05,-0.009824,-3.7742e-05,-31.541,2.0515
26848,19.229,4.4545,0.1,0.00010436,1042.8,0.00010378,1026.6,-3.2855e-05,-0.009065,-3.7077e-05,-31.734,2.0664
26849,18.954,4.3636,0.1,0.00011054,1104.6,0.00010999,1089.3,-3.4979e-05,-0.0093101,-3.8979e-05,-30.065,2.0217
26850,19.046,4.4545,0.1,0.00010847,1083.9,0.00010792,1068.4,-3.4284e-05,-0.0085586,-3.8312e-05,-30.269,2.0365
26851,18.771,4.3636,0.1,0.00011468,1146,0.00011416,1131.4,-3.6415e-05,-0.008831,-4.0231e-05,-28.684,1.9919
26852,18.863,4.4545,0.1,0.0001126,1125.2,0.00011208,1110.5,-3.5718e-05,-0.008097,-3.9563e-05,-28.899,2.0067
26853,18.587,4.3636,0.1,0.00011884,1187.6,0.00011835,1173.7,-3.7855e-05,-0.0083862,-4.1499e-05,-27.392,1.9622
26854,18.679,4.4545,0.1,0.00011676,1166.8,0.00011626,1152.7,-3.7154e-05,-0.0076588,-4.0829e-05,-27.616,1.9769
26855,18.404,4.3636,0.1,0.00012303,1229.5,0.00012257,1216.2,-3.9298e-05,-0.0079804,-4.2782e-05,-26.179,1.9326
26856,18.496,4.4545,0.1,0.00012094,1208.6,0.00012047,1195.1,-3.8595e-05,-0.007262,-4.2109e-05,-26.413,1.9473
26857,18.22,4.3636,0.1,0.00012725,1271.6,0.0001268,1258.9,-4.0746e-05,-0.0076109,-4.4078e-05,-25.04,1.903
26858,18.312,4.4545,0.1,0.00012514,1250.6,0.0001247,1237.7,-4.004e-05,-0.0068989,-4.3404e-05,-25.283,1.9177
26859,18.037,4.3636,0.1,0.00013149,1314,0.00013106,1301.8,-4.2198e-05,-0.0072636,-4.5387e-05,-23.968,1.8736
26860,18.129,4.4545,0.1,0.00012937,1292.8,0.00012894,1280.6,-4.1489e-05,-0.0065719,-4.4711e-05,-24.219,1.8882
26861,17.853,4.3636,0.1,0.00013575,1356.5,0.00013534,1344.9,-4.3655e-05,-0.0069295,-4.6709e-05,-22.956,1.8442
26862,17.945,4.4545,0.1,0.00013363,1335.3,0.00013322,1323.6,-4.2942e-05,-0.0062496,-4.6031e-05,-23.216,1.8588
26863,17.67,4.3636,0.1,0.00014003,1399.3,0.00013964,1388.2,-4.5117e-05,-0.0066272,-4.8044e-05,-21.999,1.8149
26864,17.762,4.4545,0.1,0.0001379,1378.1,0.00013751,1366.8,-4.44e-05,-0.0059471,-4.7363e-05,-22.267,1.8294
26865,17.486,4.3636,0.1,0.00014434,1442.4,0.00014397,1431.7,-4.6583e-05,-0.0063458,-4.9389e-05,-21.091,1.7857
26866,17.578,4.4545,0.1,0.0001422,1421,0.00014182,1410.2,-4.5864e-05,-0.0056873,-4.8707e-05,-21.368,1.8002
26867,17.303,4.3636,0.1,0.00014866,1485.6,0.00014831,1475.4,-4.8055e-05,-0.0060746,-5.0746e-05,-20.227,1.7567
26868,17.395,4.4545,0.1,0.00014652,1464.2,0.00014616,1453.8,-4.7332e-05,-0.0054248,-5.0061e-05,-20.513,1.7711
26869,17.119,4.3636,0.1,0.00015302,1529.1,0.00015268,1519.3,-4.9531e-05,-0.0058219,-5.2113e-05,-19.401,1.7277
26870,17.211,4.4545,0.1,0.00015086,1507.6,0.00015051,1497.6,-4.8805e-05,-0.0051817,-5.1426e-05,-19.697,1.742
26871,16.936,4.3636,0.1,0.00015739,1572.8,0.00015706,1563.4,-5.1014e-05,-0.0055759,-5.349e-05,-18.61,1.6988
26872,17.028,4.4545,0.1,0.00015522,1551.2,0.00015489,1541.6,-5.0284e-05,-0.0049552,-5.2801e-05,-18.916,1.7131
26873,16.753,4.3636,0.1,0.00016178,1616.7,0.00016147,1607.7,-5.2501e-05,-0.0053394,-5.4876e-05,-17.848,1.67
26874,16.844,4.4545,0.1,0.00015961,1595,0.00015929,1585.8,-5.1768e-05,-0.0047244,-5.4185e-05,-18.166,1.6842
26875,16.569,4.3636,0.1,0.00016619,1660.8,0.0001659,1652.2,-5.3995e-05,-0.0051207,-5.6272e-05,-17.112,1.6413
26876,16.661,4.4545,0.1,0.00016401,1639,0.00016371,1630.2,-5.3258e-05,-0.0045141,-5.5579e-05,-17.441,1.6555
26877,16.386,4.3636,0.1,0.00017063,1705.1,0.00017034,1696.9,-5.5494e-05,-0.0049212,-5.7676e-05,-16.396,1.6128
26878,16.477,4.4545,0.1,0.00016844,1683.2,0.00016815,1674.8,-5.4754e-05,-0.0043199,-5.6981e-05,-16.738,1.6269
26879,16.202,4.3636,0.1,0.00017509,1749.6,0.00017481,1741.7,-5.6999e-05,-0.004724,-5.9088e-05,-15.696,1.5843
26880,16.294,4.4545,0.1,0.00017289,1727.7,0.00017261,1719.6,-5.6256e-05,-0.0041465,-5.8392e-05,-16.053,1.5984
26881,16.019,4.3636,0.1,0.00017956,1794.4,0.0001793,1786.8,-5.8511e-05,-0.0045199,-6.0508e-05,-15.01,1.556
26882,16.11,4.4545,0.1,0.00017735,1772.3,0.00017709,1764.6,-5.7763e-05,-0.0039538,-5.981e-05,-15.382,1.57
26883,15.835,4.3636,0.1,0.00018406,1839.3,0.00018381,1832.1,-6.0028e-05,-0.0043357,-6.1935e-05,-14.331,1.5278
26884,15.927,4.4545,0.1,0.00018184,1817.2,0.00018159,1809.8,-5.9277e-05,-0.0037672,-6.1236e-05,-14.721,1.5417
26885,15.652,4.3636,0.1,0.00018858,1884.5,0.00018834,1877.6,-6.1552e-05,-0.0041565,-6.337e-05,-13.657,1.4997
26886,15.743,4.4545,0.1,0.00018635,1862.2,0.00018611,1855.1,-6.0798e-05,-0.0036134,-6.2669e-05,-14.067,1.5136
26887,15.468,4.3636,0.1,0.00019311,1929.8,0.00019289,1923.3,-6.3083e-05,-0.0039699,-6.4811e-05,-12.984,1.4718
26888,15.56,4.4545,0.1,0.00019088,1907.5,0.00019065,1900.7,-6.2324e-05,-0.0034361,-6.4109e-05,-13.414,1.4856
26889,15.285,4.3636,0.1,0.00019767,1975.3,0.00019746,1969.1,-6.462e-05,-0.0037883,-6.6258e-05,-12.307,1.4439
26890,15.376,4.4545,0.1,0.00019543,1952.9,0.0001952,1946.5,-6.3857e-05,-0.0032657,-6.5555e-05,-12.76,1.4577
26891,15.101,4.3636,0.1,0.00020224,2021,0.00020204,2015.2,-6.6164e-05,-0.0035946,-6.771e-05,-11.623,1.4162
26892,15.193,4.4545,0.1,0.00019999,1998.5,0.00019978,1992.5,-6.5397e-05,-0.0030987,-6.7008e-05,-12.101,1.4299
26893,14.918,4.3636,0.1,0.00020684,2066.9,0.00020665,2061.5,-6.7715e-05,-0.0033901,-6.9168e-05,-10.927,1.3887
26894,15.009,4.4545,0.1,0.00020458,2044.4,0.00020438,2038.6,-6.6944e-05,-0.0029043,-6.8465e-05,-11.433,1.4023
26895,14.734,4.3636,0.1,0.00021145,2113,0.00021127,2107.9,-6.9272e-05,-0.0031879,-7.0631e-05,-10.216,1.3612
26896,14.826,4.4545,0.1,0.00020918,2090.4,0.000209,2085,-6.8498e-05,-0.002715,-6.9928e-05,-10.752,1.3748
26897,14.551,4.3636,0.1,0.00021608,2159.3,0.00021592,2154.6,-7.0837e-05,-0.0029846,-7.2099e-05,-9.4845,1.334
26898,14.642,4.4545,0.1,0.00021381,2136.6,0.00021363,2131.6,-7.0058e-05,-0.0025254,-7.1396e-05,-10.054,1.3474
26899,14.367,4.3636,0.1,0.00022073,2205.8,0.00022058,2201.4,-7.2409e-05,-0.0027513,-7.357e-05,-8.7289,1.3068
26900,14.459,4.4545,0.1,0.00021845,2183,0.00021829,2178.3,-7.1626e-05,-0.002335,-7.2868e-05,-9.3352,1.3202
26901,14.184,4.3636,0.1,0.0002254,2252.4,0.00022526,2248.5,-7.3988e-05,-0.0024696,-7.5045e-05,-7.9443,1.2799
26902,14.276,4.4545,0.1,0.00022311,2229.6,0.00022296,2225.3,-7.3201e-05,-0.0020884,-7.4344e-05,-8.5906,1.2931
26903,14,4.3636,0.1,0.00023009,2299.3,0.00022996,2295.7,-7.5575e-05,-0.0021596,-7.6524e-05,-7.1263,1.253
26904,14.092,4.4545,0.1,0.00022779,2276.3,0.00022766,2272.4,-7.4783e-05,-0.0018049,-7.5824e-05,-7.8163,1.2662
26905,13.817,4.3636,0.1,0.00023479,2346.3,0.00023468,2343.1,-7.717e-05,-0.0017794,-7.8004e-05,-6.2699,1.2263
26906,13.909,4.4545,0.1,0.00023249,2323.3,0.00023237,2319.8,-7.6374e-05,-0.0015063,-7.7306e-05,-7.0077,1.2395
26907,13.633,4.3636,0.1,0.00023951,2393.5,0.00023942,2390.8,-7.8772e-05,-0.0012666,-7.9487e-05,-5.3699,1.1998
26908,13.725,4.4545,0.1,0.0002372,2370.4,0.0002371,2367.3,-7.7971e-05,-0.0010945,-7.8791e-05,-6.1599,1.2129
26909,13.45,4.3636,0.1,0.00024425,2440.8,0.00024417,2438.6,-8.0383e-05,-0.00054723,-8.0971e-05,-4.4211,1.1735
26910,13.542,4.4545,0.1,0.00024193,2417.7,0.00024184,2415,-7.9577e-05,-0.00055463,-8.0278e-05,-5.2679,1.1864
26911,13.266,4.3636,0.1,0.000249,2488.3,0.00024894,2486.6,-8.2001e-05,0.00061575,-8.2456e-05,-3.4179,1.1473
26912,13.358,4.4545,0.1,0.00024668,2465.1,0.00024661,2463,-8.1191e-05,0.00021869,-8.1766e-05,-4.3266,1.1601
26913,13.083,4.3636,0.1,0.00025377,2536,0.00025373,2534.8,-8.3628e-05,0.0028492,-8.3942e-05,-2.3549,1.1212
26914,13.175,4.4545,0.1,0.00025145,2512.7,0.00025139,2511.1,-8.2812e-05,0.0015143,-8.3256e-05,-3.3305,1.134
26915,12.899,4.3636,0.1,0.00025856,2583.8,0.00025854,2583.2,-8.5263e-05,0.0092864,-8.5428e-05,-1.2289,1.0954
26916,12.991,4.4545,0.1,0.00025623,2560.5,0.00025619,2559.4,-8.4442e-05,0.0040062,-8.4746e-05,-2.2746,1.1081
26917,12.716,4.3636,0.1,0.00026336,2631.8,0.00026336,2631.8,-8.6893e-05,0.12133,-8.6927e-05,-0.13442,1.0697
26918,12.808,4.4545,0.1,0.00026103,2608.5,0.00026101,2607.9,-8.608e-05,0.011562,-8.6236e-05,-1.1564,1.0823
26919,12.532,4.3636,0.1,0.00026818,2679.9,0.0002682,2680.6,-8.839e-05,1.2912,-8.8564e-05,-0.016548,1.0442
26920,12.624,4.4545,0.1,0.00026584,2656.6,0.00026584,2656.6,-8.7708e-05,0.16394,-8.7744e-05,-0.10881,1.0567
26921,12.349,4.3636,0.1,0.00027301,2728.2,0.00027306,2729.6,-8.9871e-05,2.6613,-9.0226e-05,-0.010012,1.0189
26922,12.441,4.4545,0.1,0.00027067,2704.8,0.00027069,2705.5,-8.9207e-05,1.3527,-8.9389e-05,-0.016622,1.0313
26923,12.165,4.3636,0.1,0.00027786,2776.7,0.00027793,2778.7,-9.1347e-05,4.1327,-9.1898e-05,-0.0078016,0.99371
26924,12.257,4.4545,0.1,0.00027551,2753.2,0.00027556,2754.6,-9.0691e-05,2.7156,-9.1054e-05,-0.010089,1.006
26925,11.982,4.3636,0.1,0.00028272,2825.2,0.00028281,2828.1,-9.2819e-05,5.7109,-9.358e-05,-0.0066794,0.96875
26926,12.074,4.4545,0.1,0.00028037,2801.8,0.00028044,2803.8,-9.2172e-05,4.1792,-9.2729e-05,-0.0078242,0.98097
26927,11.799,4.3636,0.1,0.00028759,2873.9,0.00028772,2877.6,-9.4286e-05,7.4044,-9.5272e-05,-0.0059875,0.94398
26928,11.89,4.4545,0.1,0.00028524,2850.4,0.00028534,2853.3,-9.3649e-05,5.7489,-9.4415e-05,-0.0066526,0.95611
26929,11.615,4.3636,0.1,0.00029248,2922.8,0.00029263,2927.4,-9.5746e-05,9.2227,-9.6974e-05,-0.0055278,0.91941
26930,11.707,4.4545,0.1,0.00029013,2899.3,0.00029025,2903,-9.512e-05,7.4327,-9.611e-05,-0.0059512,0.93143
26931,11.432,4.3636,0.1,0.00029738,2971.7,0.00029756,2977.3,-9.7199e-05,11.176,-9.8688e-05,-0.0051848,0.89504
26932,11.523,4.4545,0.1,0.00029502,2948.2,0.00029518,2952.8,-9.6586e-05,9.2398,-9.7816e-05,-0.0054958,0.90695
26933,11.248,4.3636,0.1,0.00030229,3020.8,0.00030251,3027.4,-9.8644e-05,13.275,-0.00010041,-0.0049338,0.87086
26934,11.34,4.4545,0.1,0.00029994,2997.3,0.00030012,3002.9,-9.8044e-05,11.18,-9.9533e-05,-0.0051428,0.88267
26935,11.065,4.3636,0.1,0.00030721,3070,0.00030747,3077.7,-0.00010008,15.532,-0.00010215,-0.0047708,0.84689
26936,11.156,4.4545,0.1,0.00030486,3046.5,0.00030508,3053.1,-9.9494e-05,13.264,-0.00010126,-0.0049352,0.85859
26937,10.881,4.3636,0.1,0.00031214,3119.2,0.00031244,3128.2,-0.0001015,17.958,-0.00010389,-0.0046348,0.82312
26938,10.973,4.4545,0.1,0.00030979,3095.8,0.00031005,3103.5,-0.00010094,15.502,-0.000103,-0.0047966,0.83472
26939,10.698,4.3636,0.1,0.00031708,3168.6,0.00031743,3178.9,-0.00010292,20.567,-0.00010565,-0.0045305,0.79957
26940,10.789,4.4545,0.1,0.00031474,3145.2,0.00031504,3154.1,-0.00010237,17.906,-0.00010475,-0.0046699,0.81106
26941,10.514,4.3636,0.1,0.00032203,3218.1,0.00032242,3229.7,-0.00010432,23.371,-0.00010743,-0.0044873,0.77622
26942,10.606,4.4545,0.1,0.0003197,3194.7,0.00032004,3204.9,-0.00010379,20.487,-0.00010651,-0.0046154,0.7876
26943,10.331,4.3636,0.1,0.00032699,3267.7,0.00032744,3280.8,-0.0001057,26.385,-0.00010921,-0.0045035,0.7531
26944,10.422,4.4545,0.1,0.00032466,3244.4,0.00032505,3255.9,-0.00010519,23.258,-0.00010829,-0.0046274,0.76437
26945,10.147,4.3636,0.1,0.00033196,3317.3,0.00033246,3332.1,-0.00010707,29.622,-0.00011101,-0.0045591,0.73019
26946,10.239,4.4545,0.1,0.00032964,3294.1,0.00033007,3307.1,-0.00010659,26.231,-0.00011008,-0.0047068,0.74135
26947,9.9637,4.3636,0.1,0.00033694,3367.1,0.00033749,3383.5,-0.00010842,33.097,-0.00011283,-0.0046509,0.70751
26948,10.055,4.4545,0.1,0.00033462,3343.9,0.00033511,3358.5,-0.00010796,29.419,-0.00011188,-0.0048118,0.71855
26949,9.7802,4.3636,0.1,0.00034192,3416.9,0.00034254,3435.2,-0.00010975,36.824,-0.00011465,-0.0048111,0.68506
26950,9.872,4.4545,0.1,0.00033961,3393.8,0.00034016,3410.1,-0.00010933,32.833,-0.0001137,-0.0049778,0.69598
26951,9.5968,4.3636,0.1,0.00034692,3466.8,0.00034759,3487,-0.00011107,40.819,-0.0001165,-0.0050519,0.66284
26952,9.6885,4.4545,0.1,0.00034462,3443.8,0.00034522,3461.9,-0.00011067,36.487,-0.00011553,-0.0052342,0.67364
26953,9.4133,4.3636,0.1,0.00035192,3516.7,0.00035266,3539.1,-0.00011236,45.096,-0.00011836,-0.0053863,0.64085
26954,9.505,4.4545,0.1,0.00034962,3493.8,0.00035029,3513.9,-0.000112,40.391,-0.00011737,-0.0055779,0.65153
26955,9.2298,4.3636,0.1,0.00035692,3566.8,0.00035774,3591.3,-0.00011363,49.667,-0.00012024,-0.0058408,0.6191
26956,9.3215,4.4545,0.1,0.00035464,3544,0.00035538,3566,-0.0001133,44.557,-0.00011923,-0.0060394,0.62966
26957,9.0463,4.3636,0.1,0.00036194,3616.9,0.00036283,3643.8,-0.00011487,54.547,-0.00012213,-0.0064458,0.59758
26958,9.1381,4.4545,0.1,0.00035967,3594.2,0.00036048,3618.4,-0.00011459,48.993,-0.00012111,-0.0066435,0.60802
26959,8.8628,4.3636,0.1,0.00036696,3667,0.00036794,3696.5,-0.00011609,59.744,-0.00012404,-0.0072423,0.57632
26960,8.9546,4.4545,0.1,0.0003647,3644.5,0.00036559,3671.1,-0.00011585,53.707,-0.000123,-0.0074287,0.58663
26961,8.6794,4.3636,0.1,0.00037199,3717.3,0.00037306,3749.5,-0.00011729,65.269,-0.00012598,-0.0082834,0.5553
26962,8.7711,4.4545,0.1,0.00036974,3694.9,0.00037071,3723.9,-0.0001171,58.704,-0.00012491,-0.0084428,0.56548
26963,8.4959,4.3636,0.1,0.00037703,3767.7,0.00037819,3802.8,-0.00011846,71.126,-0.00012793,-0.0096392,0.53453
26964,8.5876,4.4545,0.1,0.0003748,3745.4,0.00037584,3777,-0.00011832,63.984,-0.00012684,-0.0097496,0.54459
26965,8.3124,4.3636,0.1,0.00038209,3818.2,0.00038334,3856.3,-0.00011961,77.318,-0.0001299,-0.011401,0.51402
26966,8.4041,4.4545,0.1,0.00037986,3796,0.000381,3830.3,-0.00011953,69.544,-0.00012878,-0.011431,0.52394
26967,8.1289,4.3636,0.1,0.00038716,3868.9,0.00038852,3910.1,-0.00012073,83.839,-0.00013189,-0.01369,0.49376
26968,8.2206,4.4545,0.1,0.00038494,3846.7,0.00038617,3883.9,-0.00012071,75.375,-0.00013075,-0.013597,0.50356
26969,7.9454,4.3636,0.1,0.00039225,3919.8,0.00039371,3964.3,-0.00012184,90.681,-0.00013391,-0.016666,0.47377
26970,8.0372,4.4545,0.1,0.00039003,3897.6,0.00039135,3937.7,-0.00012188,81.462,-0.00013273,-0.016392,0.48343
26971,7.7619,4.3636,0.1,0.00039737,3970.9,0.00039894,4018.9,-0.00012293,97.824,-0.00013595,-0.020543,0.45404
26972,7.8537,4.4545,0.1,0.00039515,3948.7,0.00039657,3991.9,-0.00012304,87.779,-0.00013472,-0.020008,0.46357
26973,7.5785,4.3636,0.1,0.00040252,4022.4,0.00040421,4074,-0.000124,105.24,-0.00013801,-0.025608,0.43458
26974,7.6702,4.4545,0.1,0.00040028,4000.1,0.0004018,4046.4,-0.00012419,94.291,-0.00013674,-0.024705,0.44397
26975,7.395,4.3636,0.1,0.00040771,4074.3,0.00040951,4129.6,-0.00012507,112.89,-0.0001401,-0.032245,0.41539
26976,7.4867,4.4545,0.1,0.00040545,4051.7,0.00040707,4101.2,-0.00012533,100.95,-0.00013877,-0.030832,0.42464
26977,7.2115,4.3636,0.1,0.00041296,4126.7,0.00041488,4185.7,-0.00012614,120.71,-0.00014221,-0.040981,0.39648
26978,7.3032,4.4545,0.1,0.00041065,4103.6,0.00041237,4156.4,-0.00012648,107.7,-0.00014082,-0.038868,0.40559
26979,7.028,4.3636,0.1,0.00041827,4179.8,0.0004203,4242.6,-0.00012723,128.63,-0.00014435,-0.052532,0.37785
26980,7.1198,4.4545,0.1,0.00041589,4156,0.00041772,4212,-0.00012764,114.44,-0.00014288,-0.04947,0.38682
26981,6.8445,4.3636,0.1,0.00042366,4233.6,0.00042581,4300.2,-0.00012834,136.56,-0.00014652,-0.067892,0.3595
26982,6.9363,4.4545,0.1,0.00042118,4208.9,0.00042311,4268.1,-0.00012883,121.09,-0.00014495,-0.063554,0.36832
26983,6.6611,4.3636,0.1,0.00042915,4288.6,0.00043142,4358.9,-0.00012949,144.37,-0.00014872,-0.088441,0.34143
26984,6.7528,4.4545,0.1,0.00042654,4262.4,0.00042856,4324.7,-0.00013005,127.51,-0.00014703,-0.082406,0.35012
26985,6.4776,4.3636,0.1,0.00043477,4344.7,0.00043716,4418.6,-0.00013071,151.89,-0.00015094,-0.11613,0.32366
26986,6.5693,4.4545,0.1,0.00043197,4316.7,0.00043408,4381.9,-0.00013133,133.55,-0.00014912,-0.10786,0.3322
26987,6.2941,4.3636,0.1,0.00044056,4402.5,0.00044304,4479.7,-0.00013203,158.92,-0.0001532,-0.15375,0.30618
26988,6.3858,4.4545,0.1,0.00043749,4371.9,0.00043969,4439.6,-0.0001327,138.99,-0.00015121,-0.14257,0.31457
26989,6.1106,4.3636,0.1,0.00044653,4462.3,0.00044911,4542.5,-0.00013347,165.18,-0.00015548,-0.20537,0.289
26990,6.2024,4.4545,0.1,0.00044312,4428.1,0.00044538,4498.1,-0.00013416,143.6,-0.0001533,-0.19046,0.29724
26991,5.9271,4.3636,0.1,0.00045276,4524.5,0.00045541,4607.1,-0.00013509,170.32,-0.00015779,-0.27711,0.27212
26992,6.0189,4.4545,0.1,0.00044887,4485.6,0.00045119,4557.2,-0.00013577,147.04,-0.00015537,-0.25748,0.28021
26993,5.7437,4.3636,0.1,0.0004593,4589.8,0.000462,4674.1,-0.00013694,173.82,-0.00016013,-0.37849,0.25555
26994,5.8354,4.4545,0.1,0.00045479,4544.7,0.00045713,4617.1,-0.00013756,148.89,-0.00015742,-0.35299,0.26348
26995,5.5602,4.3636,0.1,0.00046624,4659.2,0.00046896,4743.9,-0.00013913,174.97,-0.00016249,-0.52518,0.23929
26996,5.6519,4.4545,0.1,0.00046089,4605.8,0.00046323,4678,-0.0001396,148.55,-0.00015943,-0.49247,0.24706
26997,5.3767,4.3636,0.1,0.0004737,4733.8,0.00047639,4817.4,-0.00014178,172.71,-0.00016486,-0.74493,0.22335
26998,5.4684,4.4545,0.1,0.00046726,4669.3,0.00046954,4739.9,-0.00014197,145.18,-0.00016139,-0.70349,0.23095
26999,5.1932,4.3636,0.1,0.00048188,4815.5,0.00048446,4895.5,-0.00014507,165.42,-0.00016723,-1.0929,0.20772
27000,5.285,4.4545,0.1,0.00047396,4736.4,0.00047613,4803.1,-0.00014481,137.54,-0.00016326,-1.0403,0.21516
27001,5.0097,4.3636,0.1,0.00049105,4907.1,0.00049341,4979.8,-0.00014932,150.57,-0.00016959,-1.6954,0.19243
27002,5.1015,4.4545,0.1,0.00048116,4808.3,0.00048311,4868.1,-0.00014832,123.72,-0.00016501,-1.6283,0.19969
27003,4.8263,4.3636,0.1,0.00050168,5013.3,0.00050362,5072.7,-0.00015499,124.19,-0.00017191,-2.931,0.17746
27004,4.918,4.4545,0.1,0.0004891,4887.7,0.00049069,4935.8,-0.00015281,100.81,-0.00016661,-2.8314,0.18454
27005,4.6428,4.3636,0.1,0.00051448,5141.3,0.00051569,5177.9,-0.00016269,80.809,-0.00017431,-6.5027,0.16283
27006,4.7345,4.4545,0.1,0.00049822,4978.8,0.00049918,5007.8,-0.00015865,65.086,-0.00016815,-6.2915,0.16972
27007,4.4593,4.3636,0.1,0.00053071,5303.4,0.00053061,5301,-0.00017147,25.874,-0.00017893,-30.204,0.14854
27008,4.551,4.4545,0.1,0.00050925,5088.9,0.00050915,5086.6,-0.00016485,22.371,-0.00017139,-26.746,0.15523
27009,4.2758,4.3636,0.1,0.00055236,5519.7,0.00054989,5450.4,-0.00017436,8.6576,-0.00019469,-144.08,0.13459
27010,4.3676,4.4545,0.1,0.00052345,5230.9,0.00052152,5176.4,-0.00016636,7.8597,-0.00018268,-114.71,0.14108
27011,4.0923,4.3636,0.1,0.00058305,5826.4,0.00057605,5637.9,-0.00017363,5.1271,-0.00022283,-364.59,0.121
27012,4.1841,4.4545,0.1,0.00054294,5425.6,0.00053772,5283.1,-0.00016468,5.5477,-0.0002026,-279.4,0.12726
27013,3.9088,4.3636,0.1,0.0006282,6277.6,0.00061221,5874.2,-0.00016837,9.316,-0.00026909,-747.5,0.10776
27014,4.0006,4.4545,0.1,0.00057143,5710.3,0.00055994,5412.9,-0.00015994,3.987,-0.00023466,-557.39,0.11378
27015,3.7254,4.3636,0.1,0.00069879,6983.1,0.00066317,6155,-0.00015518,6.2257,-0.00034725,-1436.9,0.094862
27016,3.8171,4.4545,0.1,0.00061427,6138.5,0.00059052,5567.4,-0.00014911,10.065,-0.00028641,-1021.6,0.10062
27017,3.5419,4.3636,0.1,0.00082019,8196.2,0.00073684,6443,-0.00012198,-9.8772,-0.00049054,-2779.1,0.082293
27018,3.6336,4.4545,0.1,0.00068133,6808.6,0.00063199,5716.1,-0.00012879,-0.17118,-0.00037054,-1816.6,0.087765
27019,3.4501,4.4545,0.1,0.00081468,8141.2,0.00070452,5940.5,-8.5017e-05,8.2258,-0.00053078,-3341.1,0.075164
27020,3.3584,4.3636,0.1,0.00073702,7365.2,0.00063586,5305.5,-8.2644e-05,-93.014,-0.00048082,-3084.7,0.069974
27021,23.725,4.5455,0.1,1.7456e-05,174.44,1.0422e-05,58.684,2.5862e-06,-0.18969,-1.5698e-05,-137.57,2.8138
27022,23.817,4.6364,0.1,1.6154e-05,161.43,8.5365e-06,39.755,3.2261e-06,-0.14477,-1.5106e-05,-137.89,2.8292
27023,23.908,4.5455,0.1,1.5957e-05,159.46,7.1201e-06,22.43,4.0785e-06,-0.4232,-1.5459e-05,-147.22,2.8447
27024,23.541,4.5455,0.1,1.9503e-05,194.9,1.3896e-05,96.656,1.0047e-06,-0.20448,-1.5964e-05,-127.7,2.783
27025,23.633,4.6364,0.1,1.796e-05,179.47,1.1984e-05,77.509,1.6291e-06,-0.29579,-1.5332e-05,-127.74,2.7984
27026,23.358,4.5455,0.1,2.1953e-05,219.37,1.7387e-05,134.6,-5.4141e-07,-0.1129,-1.6303e-05,-118.54,2.7522
27027,23.45,4.6364,0.1,2.0249e-05,202.35,1.5453e-05,115.35,8.541e-08,-0.1196,-1.5643e-05,-118.3,2.7675
27028,23.174,4.5455,0.1,2.4693e-05,246.76,2.0902e-05,172.5,-2.0683e-06,-0.091708,-1.6715e-05,-110.14,2.7214
27029,23.266,4.6364,0.1,2.2883e-05,228.67,1.8951e-05,153.14,-1.4445e-06,-0.10449,-1.6032e-05,-109.71,2.7367
27030,22.991,4.5455,0.1,2.7651e-05,276.32,2.4445e-05,210.45,-3.5735e-06,-0.070293,-1.7199e-05,-102.45,2.6906
27031,23.083,4.6364,0.1,2.577e-05,257.52,2.2478e-05,190.98,-2.9496e-06,-0.074926,-1.6499e-05,-101.88,2.7059
27032,22.807,4.5455,0.1,3.0776e-05,307.55,2.8021e-05,248.51,-5.0608e-06,-0.057748,-1.7754e-05,-95.43,2.6598
27033,22.899,4.6364,0.1,2.8847e-05,288.27,2.6041e-05,228.93,-4.4361e-06,-0.060978,-1.7043e-05,-94.783,2.6751
27034,22.624,4.5455,0.1,3.4033e-05,340.09,3.1632e-05,286.71,-6.5329e-06,-0.048058,-1.8375e-05,-89.027,2.629
27035,22.716,4.6364,0.1,3.2072e-05,320.5,2.9642e-05,267.05,-5.9062e-06,-0.049622,-1.7658e-05,-88.346,2.6443
27036,22.44,4.5455,0.1,3.7396e-05,373.7,3.5279e-05,325.08,-7.9923e-06,-0.040868,-1.9058e-05,-83.185,2.5983
27037,22.532,4.6364,0.1,3.5415e-05,353.9,3.3282e-05,305.35,-7.3631e-06,-0.041588,-1.8338e-05,-82.505,2.6136
27038,22.257,4.5455,0.1,4.0846e-05,408.18,3.8961e-05,363.64,-9.4411e-06,-0.03522,-1.9797e-05,-77.849,2.5675
27039,22.349,4.6364,0.1,3.8852e-05,388.25,3.6958e-05,343.84,-8.809e-06,-0.035323,-1.9078e-05,-77.194,2.5828
27040,22.073,4.5455,0.1,4.437e-05,443.4,4.2676e-05,402.38,-1.0881e-05,-0.030723,-2.0588e-05,-72.964,2.5368
27041,22.165,4.6364,0.1,4.2367e-05,423.38,4.067e-05,382.53,-1.0246e-05,-0.030422,-1.9871e-05,-72.352,2.5521
27042,21.89,4.5455,0.1,4.7957e-05,479.24,4.6423e-05,441.31,-1.2314e-05,-0.027071,-2.1425e-05,-68.485,2.5062
27043,21.982,4.6364,0.1,4.5949e-05,459.17,4.4415e-05,421.41,-1.1676e-05,-0.026488,-2.0713e-05,-67.925,2.5214
27044,21.706,4.5455,0.1,5.1599e-05,515.64,5.0202e-05,480.42,-1.3742e-05,-0.024058,-2.2305e-05,-64.37,2.4755
27045,21.798,4.6364,0.1,4.9587e-05,495.53,4.8191e-05,460.49,-1.31e-05,-0.023287,-2.1597e-05,-63.868,2.4908
27046,21.523,4.5455,0.1,5.529e-05,552.52,5.401e-05,519.73,-1.5164e-05,-0.021538,-2.3224e-05,-60.58,2.4449
27047,21.615,4.6364,0.1,5.3275e-05,532.39,5.1997e-05,499.76,-1.4519e-05,-0.020637,-2.2521e-05,-60.139,2.4602
27048,21.34,4.5455,0.1,5.9025e-05,589.84,5.7846e-05,559.22,-1.6584e-05,-0.019416,-2.4179e-05,-57.085,2.4144
27049,21.431,4.6364,0.1,5.7008e-05,569.69,5.5831e-05,539.21,-1.5935e-05,-0.018423,-2.348e-05,-56.704,2.4296
27050,21.156,4.5455,0.1,6.28e-05,627.57,6.171e-05,598.9,-1.8001e-05,-0.017606,-2.5166e-05,-53.856,2.3838
27051,21.248,4.6364,0.1,6.0781e-05,607.39,5.9693e-05,578.85,-1.7349e-05,-0.016562,-2.4472e-05,-53.534,2.399
27052,20.973,4.5455,0.1,6.6612e-05,665.66,6.5601e-05,638.76,-1.9415e-05,-0.016046,-2.6184e-05,-50.869,2.3534
27053,21.064,4.6364,0.1,6.4591e-05,645.46,6.3581e-05,618.67,-1.8761e-05,-0.014965,-2.5493e-05,-50.603,2.3685
27054,20.789,4.5455,0.1,7.0459e-05,704.1,6.9517e-05,678.81,-2.0829e-05,-0.014696,-2.7229e-05,-48.101,2.3229
27055,20.881,4.6364,0.1,6.8435e-05,683.88,6.7494e-05,658.67,-2.0171e-05,-0.013598,-2.6543e-05,-47.888,2.338
27056,20.606,4.5455,0.1,7.4338e-05,742.87,7.3459e-05,719.05,-2.2243e-05,-0.013511,-2.8301e-05,-45.535,2.2925
27057,20.697,4.6364,0.1,7.2312e-05,722.62,7.1433e-05,698.86,-2.1581e-05,-0.012412,-2.7618e-05,-45.37,2.3076
27058,20.422,4.5455,0.1,7.8249e-05,781.95,7.7425e-05,759.47,-2.3656e-05,-0.012467,-2.9398e-05,-43.152,2.2622
27059,20.514,4.6364,0.1,7.6219e-05,761.67,7.5396e-05,739.23,-2.2992e-05,-0.01137,-2.8717e-05,-43.032,2.2772
27060,20.239,4.5455,0.1,8.2189e-05,821.33,8.1416e-05,800.09,-2.507e-05,-0.011547,-3.0517e-05,-40.938,2.2319
27061,20.33,4.6364,0.1,8.0156e-05,801.01,7.9382e-05,779.79,-2.4403e-05,-0.010456,-2.9839e-05,-40.859,2.2469
27062,20.055,4.5455,0.1,8.6159e-05,860.99,8.5431e-05,840.89,-2.6486e-05,-0.010734,-3.1659e-05,-38.879,2.2016
27063,20.147,4.6364,0.1,8.4121e-05,840.63,8.3393e-05,820.53,-2.5815e-05,-0.0096526,-3.0982e-05,-38.837,2.2166
27064,19.872,4.5455,0.1,9.0156e-05,900.93,8.947e-05,881.88,-2.7903e-05,-0.010004,-3.2821e-05,-36.962,2.1714
27065,19.963,4.6364,0.1,8.8113e-05,880.52,8.7426e-05,861.46,-2.7228e-05,-0.0089459,-3.2145e-05,-36.954,2.1864
27066,19.688,4.5455,0.1,9.418e-05,941.15,9.3532e-05,923.06,-2.9321e-05,-0.0093386,-3.4002e-05,-35.175,2.1413
27067,19.78,4.6364,0.1,9.2132e-05,920.68,9.1482e-05,902.57,-2.8644e-05,-0.0082999,-3.3328e-05,-35.198,2.1563
27068,19.505,4.5455,0.1,9.823e-05,981.62,9.7617e-05,964.43,-3.0743e-05,-0.0087451,-3.5201e-05,-33.51,2.1113
27069,19.596,4.6364,0.1,9.6177e-05,961.1,9.5561e-05,943.88,-3.0062e-05,-0.0077178,-3.4528e-05,-33.561,2.1262
27070,19.321,4.5455,0.1,0.00010231,1022.4,0.00010172,1006,-3.2166e-05,-0.0082091,-3.6418e-05,-31.955,2.0813
27071,19.413,4.6364,0.1,0.00010025,1001.8,9.9663e-05,985.37,-3.1483e-05,-0.00721,-3.5745e-05,-32.031,2.0961
27072,19.138,4.5455,0.1,0.00010641,1063.3,0.00010586,1047.8,-3.3593e-05,-0.0077149,-3.7652e-05,-30.502,2.0513
27073,19.229,4.6364,0.1,0.00010434,1042.7,0.00010379,1027.1,-3.2906e-05,-0.0067369,-3.6978e-05,-30.601,2.0662
27074,18.954,4.5455,0.1,0.00011053,1104.6,0.00011001,1089.7,-3.5023e-05,-0.0072661,-3.8901e-05,-29.143,2.0215
27075,19.046,4.6364,0.1,0.00010846,1083.9,0.00010793,1068.9,-3.4333e-05,-0.0063075,-3.8227e-05,-29.263,2.0363
27076,18.771,4.5455,0.1,0.00011468,1146,0.00011418,1131.9,-3.6457e-05,-0.0068504,-4.0166e-05,-27.87,1.9917
27077,18.863,4.6364,0.1,0.0001126,1125.3,0.0001121,1111,-3.5764e-05,-0.00592,-3.9491e-05,-28.009,2.0064
27078,18.587,4.5455,0.1,0.00011886,1187.8,0.00011838,1174.2,-3.7895e-05,-0.0064648,-4.1444e-05,-26.676,1.962
27079,18.679,4.6364,0.1,0.00011677,1166.9,0.00011629,1153.2,-3.7198e-05,-0.0055513,-4.0768e-05,-26.833,1.9767
27080,18.404,4.5455,0.1,0.00012306,1229.7,0.0001226,1216.7,-3.9336e-05,-0.006115,-4.2737e-05,-25.554,1.9323
27081,18.496,4.6364,0.1,0.00012096,1208.8,0.0001205,1195.7,-3.8636e-05,-0.0052198,-4.206e-05,-25.728,1.947
27082,18.22,4.5455,0.1,0.00012728,1271.9,0.00012684,1259.5,-4.0782e-05,-0.0057984,-4.4042e-05,-24.499,1.9028
27083,18.312,4.6364,0.1,0.00012517,1250.9,0.00012474,1238.3,-4.0079e-05,-0.004919,-4.3364e-05,-24.687,1.9174
27084,18.037,4.5455,0.1,0.00013152,1314.3,0.0001311,1302.4,-4.2233e-05,-0.0055001,-4.536e-05,-23.503,1.8733
27085,18.129,4.6364,0.1,0.00012941,1293.2,0.00012899,1281.2,-4.1526e-05,-0.0046506,-4.468e-05,-23.707,1.8879
27086,17.853,4.5455,0.1,0.00013579,1356.9,0.00013539,1345.5,-4.3688e-05,-0.0052128,-4.669e-05,-22.563,1.844
27087,17.945,4.6364,0.1,0.00013367,1335.7,0.00013326,1324.2,-4.2977e-05,-0.0043824,-4.6009e-05,-22.78,1.8585
27088,17.67,4.5455,0.1,0.00014007,1399.8,0.00013969,1388.8,-4.5147e-05,-0.0049562,-4.8031e-05,-21.671,1.8147
27089,17.762,4.6364,0.1,0.00013795,1378.5,0.00013756,1367.4,-4.4434e-05,-0.004134,-4.7348e-05,-21.902,1.8292
27090,17.486,4.5455,0.1,0.00014439,1442.9,0.00014402,1432.3,-4.6612e-05,-0.0047184,-4.9383e-05,-20.825,1.7855
27091,17.578,4.6364,0.1,0.00014225,1421.5,0.00014188,1410.9,-4.5895e-05,-0.0039236,-4.8699e-05,-21.069,1.7999
27092,17.303,4.5455,0.1,0.00014872,1486.2,0.00014837,1476,-4.8082e-05,-0.004487,-5.0746e-05,-20.018,1.7564
27093,17.395,4.6364,0.1,0.00014657,1464.7,0.00014622,1454.5,-4.7362e-05,-0.0037089,-5.006e-05,-20.275,1.7708
27094,17.119,4.5455,0.1,0.00015307,1529.7,0.00015274,1519.9,-4.9558e-05,-0.0042729,-5.2119e-05,-19.246,1.7274
27095,17.211,4.6364,0.1,0.00015092,1508.2,0.00015058,1498.3,-4.8834e-05,-0.0035113,-5.1431e-05,-19.517,1.7417
27096,16.936,4.5455,0.1,0.00015745,1573.4,0.00015712,1564.1,-5.1039e-05,-0.0040643,-5.3501e-05,-18.505,1.6985
27097,17.028,4.6364,0.1,0.00015529,1551.8,0.00015496,1542.3,-5.0311e-05,-0.0033282,-5.2811e-05,-18.79,1.7128
27098,16.753,4.5455,0.1,0.00016184,1617.3,0.00016153,1608.4,-5.2525e-05,-0.0038623,-5.4892e-05,-17.791,1.6697
27099,16.844,4.6364,0.1,0.00015967,1595.6,0.00015936,1586.5,-5.1794e-05,-0.0031386,-5.4201e-05,-18.09,1.6839
27100,16.569,4.5455,0.1,0.00016626,1661.5,0.00016596,1652.8,-5.4017e-05,-0.0036791,-5.6293e-05,-17.1,1.641
27101,16.661,4.6364,0.1,0.00016408,1639.7,0.00016378,1630.9,-5.3283e-05,-0.0029677,-5.56e-05,-17.414,1.6552
27102,16.386,4.5455,0.1,0.0001707,1705.8,0.00017041,1697.5,-5.5516e-05,-0.0035136,-5.7701e-05,-16.428,1.6125
27103,16.477,4.6364,0.1,0.00016851,1684,0.00016822,1675.5,-5.4777e-05,-0.0028131,-5.7007e-05,-16.757,1.6266
27104,16.202,4.5455,0.1,0.00017516,1750.4,0.00017488,1742.4,-5.702e-05,-0.0033473,-5.9118e-05,-15.771,1.584
27105,16.294,4.6364,0.1,0.00017296,1728.4,0.00017268,1720.3,-5.6278e-05,-0.0026767,-5.8422e-05,-16.117,1.5981
27106,16.019,4.5455,0.1,0.00017964,1795.1,0.00017938,1787.5,-5.853e-05,-0.0031746,-6.0543e-05,-15.125,1.5557
27107,16.11,4.6364,0.1,0.00017743,1773.1,0.00017716,1765.3,-5.7784e-05,-0.0025207,-5.9845e-05,-15.489,1.5697
27108,15.835,4.5455,0.1,0.00018414,1840.1,0.00018389,1832.8,-6.0047e-05,-0.0030211,-6.1974e-05,-14.487,1.5275
27109,15.927,4.6364,0.1,0.00018192,1818,0.00018167,1810.5,-5.9297e-05,-0.0023691,-6.1276e-05,-14.87,1.5414
27110,15.652,4.5455,0.1,0.00018866,1885.3,0.00018842,1878.3,-6.1569e-05,-0.0028719,-6.3413e-05,-13.853,1.4994
27111,15.743,4.6364,0.1,0.00018643,1863.1,0.00018619,1855.9,-6.0816e-05,-0.0022498,-6.2713e-05,-14.257,1.5132
27112,15.468,4.5455,0.1,0.0001932,1930.6,0.00019297,1924,-6.3099e-05,-0.0027137,-6.4858e-05,-13.22,1.4714
27113,15.56,4.6364,0.1,0.00019097,1908.3,0.00019073,1901.5,-6.2342e-05,-0.002107,-6.4158e-05,-13.646,1.4852
27114,15.285,4.5455,0.1,0.00019775,1976.2,0.00019754,1969.9,-6.4635e-05,-0.002561,-6.6309e-05,-12.584,1.4436
27115,15.376,4.6364,0.1,0.00019552,1953.8,0.00019529,1947.3,-6.3874e-05,-0.0019707,-6.5608e-05,-13.034,1.4573
27116,15.101,4.5455,0.1,0.00020233,2021.9,0.00020213,2015.9,-6.6177e-05,-0.0023967,-6.7766e-05,-11.94,1.4159
27117,15.193,4.6364,0.1,0.00020009,1999.5,0.00019987,1993.2,-6.5412e-05,-0.0018378,-6.7065e-05,-12.418,1.4295
27118,14.918,4.5455,0.1,0.00020693,2067.9,0.00020673,2062.2,-6.7727e-05,-0.0022213,-6.9229e-05,-11.287,1.3883
27119,15.009,4.6364,0.1,0.00020468,2045.3,0.00020447,2039.4,-6.6958e-05,-0.0016784,-6.8527e-05,-11.793,1.4019
27120,14.734,4.5455,0.1,0.00021155,2114,0.00021136,2108.7,-6.9284e-05,-0.002049,-7.0696e-05,-10.618,1.3609
27121,14.826,4.6364,0.1,0.00020928,2091.4,0.00020909,2085.8,-6.851e-05,-0.0015258,-6.9995e-05,-11.156,1.3744
27122,14.551,4.5455,0.1,0.00021618,2160.3,0.00021601,2155.3,-7.0847e-05,-0.0018773,-7.2169e-05,-9.9322,1.3336
27123,14.642,4.6364,0.1,0.00021391,2137.6,0.00021373,2132.4,-7.007e-05,-0.0013734,-7.1467e-05,-10.504,1.347
27124,14.367,4.5455,0.1,0.00022083,2206.8,0.00022068,2202.2,-7.2418e-05,-0.00168,-7.3645e-05,-9.2238,1.3064
27125,14.459,4.6364,0.1,0.00021856,2184.1,0.00021839,2179.1,-7.1636e-05,-0.0012243,-7.2945e-05,-9.8334,1.3198
27126,14.184,4.5455,0.1,0.00022551,2253.5,0.00022536,2249.2,-7.3996e-05,-0.0014397,-7.5126e-05,-8.489,1.2795
27127,14.276,4.6364,0.1,0.00022322,2230.7,0.00022306,2226.1,-7.321e-05,-0.0010236,-7.4426e-05,-9.1394,1.2927
27128,14,4.5455,0.1,0.0002302,2300.4,0.00023006,2296.5,-7.5582e-05,-0.0011782,-7.6609e-05,-7.7236,1.2526
27129,14.092,4.6364,0.1,0.0002279,2277.5,0.00022776,2273.2,-7.4791e-05,-0.00079412,-7.5911e-05,-8.4184,1.2658
27130,13.817,4.5455,0.1,0.0002349,2347.4,0.00023478,2343.9,-7.7175e-05,-0.00086307,-7.8096e-05,-6.9232,1.2259
27131,13.909,4.6364,0.1,0.0002326,2324.4,0.00023247,2320.6,-7.6379e-05,-0.00056212,-7.74e-05,-7.6664,1.239
27132,13.633,4.5455,0.1,0.00023963,2394.6,0.00023952,2391.6,-7.8776e-05,-0.00044697,-7.9585e-05,-6.0829,1.1994
27133,13.725,4.6364,0.1,0.00023732,2371.6,0.00023721,2368.1,-7.7976e-05,-0.00024043,-7.8891e-05,-6.8789,1.2124
27134,13.45,4.5455,0.1,0.00024437,2442,0.00024428,2439.4,-8.0385e-05,0.00010842,-8.1076e-05,-5.198,1.173
27135,13.542,4.6364,0.1,0.00024206,2418.9,0.00024196,2415.9,-7.958e-05,0.00016748,-8.0385e-05,-6.0515,1.186
27136,13.266,4.5455,0.1,0.00024913,2489.6,0.00024906,2487.4,-8.2002e-05,0.0009384,-8.2569e-05,-4.2633,1.1468
27137,13.358,4.6364,0.1,0.00024681,2466.4,0.00024672,2463.8,-8.1192e-05,0.00071729,-8.1881e-05,-5.1793,1.1597
27138,13.083,4.5455,0.1,0.00025391,2537.3,0.00025385,2535.7,-8.3627e-05,0.0022967,-8.4063e-05,-3.2736,1.1208
27139,13.175,4.6364,0.1,0.00025158,2514.1,0.00025151,2512,-8.2812e-05,0.0015695,-8.3379e-05,-4.2574,1.1335
27140,12.899,4.5455,0.1,0.0002587,2585.2,0.00025866,2584.1,-8.526e-05,0.0049996,-8.5557e-05,-2.2241,1.0949
27141,12.991,4.6364,0.1,0.00025637,2562,0.00025632,2560.3,-8.444e-05,0.0029207,-8.4877e-05,-3.2809,1.1076
27142,12.716,4.5455,0.1,0.00026351,2633.3,0.00026349,2632.7,-8.6901e-05,0.013432,-8.7051e-05,-1.1128,1.0692
27143,12.808,4.6364,0.1,0.00026118,2610,0.00026114,2608.8,-8.6076e-05,0.0056472,-8.6376e-05,-2.2449,1.0818
27144,12.532,4.5455,0.1,0.00026833,2681.5,0.00026833,2681.5,-8.8529e-05,0.19265,-8.8567e-05,-0.098449,1.0437
27145,12.624,4.6364,0.1,0.000266,2658.1,0.00026598,2657.6,-8.7721e-05,0.013974,-8.7875e-05,-1.1476,1.0562
27146,12.349,4.5455,0.1,0.00027317,2729.8,0.00027319,2730.5,-9.003e-05,1.3852,-9.0217e-05,-0.016756,1.0184
27147,12.441,4.6364,0.1,0.00027083,2706.5,0.00027083,2706.5,-8.9355e-05,0.16418,-8.9393e-05,-0.11918,1.0308
27148,12.165,4.5455,0.1,0.00027803,2778.3,0.00027807,2779.7,-9.1519e-05,2.7409,-9.1885e-05,-0.010138,0.99323
27149,12.257,4.6364,0.1,0.00027568,2754.9,0.00027571,2755.6,-9.0865e-05,1.321,-9.1043e-05,-0.017695,1.0055
27150,11.982,4.5455,0.1,0.0002829,2827,0.00028297,2829.1,-9.3005e-05,4.1964,-9.3564e-05,-0.007797,0.96826
27151,12.074,4.6364,0.1,0.00028055,2803.6,0.0002806,2804.9,-9.2359e-05,2.6585,-9.2715e-05,-0.010372,0.98046
27152,11.799,4.5455,0.1,0.00028778,2875.8,0.00028788,2878.7,-9.4486e-05,5.7569,-9.5253e-05,-0.0066049,0.94349
27153,11.89,4.6364,0.1,0.00028543,2852.4,0.0002855,2854.4,-9.3851e-05,4.0949,-9.4397e-05,-0.0078417,0.95558
27154,11.615,4.5455,0.1,0.00029268,2924.8,0.0002928,2928.5,-9.5962e-05,7.4301,-9.6952e-05,-0.0059035,0.91891
27155,11.707,4.6364,0.1,0.00029033,2901.3,0.00029043,2904.1,-9.5338e-05,5.6342,-9.6089e-05,-0.0065927,0.9309
27156,11.432,4.5455,0.1,0.00029759,2973.8,0.00029774,2978.4,-9.7433e-05,9.2248,-9.8661e-05,-0.0054371,0.89452
27157,11.523,4.6364,0.1,0.00029524,2950.4,0.00029536,2954,-9.682e-05,7.2839,-9.7791e-05,-0.0058772,0.90641
27158,11.248,4.5455,0.1,0.00030251,3023,0.0003027,3028.6,-9.8896e-05,11.15,-0.00010038,-0.0051281,0.87034
27159,11.34,4.6364,0.1,0.00030017,2999.6,0.00030032,3004.1,-9.8298e-05,9.0521,-9.9503e-05,-0.0053948,0.88213
27160,11.065,4.5455,0.1,0.00030745,3072.4,0.00030767,3078.9,-0.00010035,13.216,-0.00010211,-0.0049465,0.84636
27161,11.156,4.6364,0.1,0.0003051,3048.9,0.00030529,3054.4,-9.9768e-05,10.947,-0.00010123,-0.0051284,0.85804
27162,10.881,4.5455,0.1,0.0003124,3121.8,0.00031265,3129.5,-0.0001018,15.432,-0.00010385,-0.0048194,0.82259
27163,10.973,4.6364,0.1,0.00031005,3098.4,0.00031027,3104.9,-0.00010123,12.979,-0.00010296,-0.0049738,0.83416
27164,10.698,4.5455,0.1,0.00031735,3171.4,0.00031765,3180.2,-0.00010324,17.81,-0.00010561,-0.0047453,0.79903
27165,10.789,4.6364,0.1,0.00031502,3148,0.00031527,3155.5,-0.00010269,15.156,-0.00010471,-0.0048605,0.81049
27166,10.514,4.5455,0.1,0.00032232,3221,0.00032267,3231.2,-0.00010466,20.358,-0.00010737,-0.0047493,0.77568
27167,10.606,4.6364,0.1,0.00031999,3197.7,0.00032028,3206.4,-0.00010413,17.487,-0.00010646,-0.0048412,0.78703
27168,10.331,4.5455,0.1,0.00032731,3270.8,0.00032769,3282.3,-0.00010608,23.09,-0.00010915,-0.004828,0.75255
27169,10.422,4.6364,0.1,0.00032498,3247.5,0.00032531,3257.5,-0.00010557,19.983,-0.00010823,-0.0049064,0.76378
27170,10.147,4.5455,0.1,0.0003323,3320.7,0.00033273,3333.6,-0.00010748,26.014,-0.00011094,-0.0049608,0.72963
27171,10.239,4.6364,0.1,0.00032997,3297.4,0.00033035,3308.7,-0.000107,22.652,-0.00011001,-0.005055,0.74076
27172,9.9637,4.5455,0.1,0.0003373,3370.6,0.00033778,3385.1,-0.00010887,29.141,-0.00011275,-0.0051444,0.70695
27173,10.055,4.6364,0.1,0.00033498,3347.5,0.00033541,3360.2,-0.00010841,25.503,-0.0001118,-0.0052433,0.71795
27174,9.7802,4.5455,0.1,0.00034231,3420.7,0.00034285,3436.8,-0.00011024,32.482,-0.00011457,-0.0054116,0.68449
27175,9.872,4.6364,0.1,0.00034,3397.6,0.00034047,3411.8,-0.00010981,28.545,-0.00011361,-0.0055082,0.69538
27176,9.5968,4.5455,0.1,0.00034733,3470.9,0.00034792,3488.7,-0.0001116,36.046,-0.0001164,-0.0057764,0.66226
27177,9.6885,4.6364,0.1,0.00034503,3447.9,0.00034556,3463.7,-0.0001112,31.785,-0.00011543,-0.0058785,0.67303
27178,9.4133,4.5455,0.1,0.00035235,3521.1,0.00035301,3540.9,-0.00011294,39.84,-0.00011825,-0.0062534,0.64026
27179,9.505,4.6364,0.1,0.00035006,3498.2,0.00035065,3515.7,-0.00011257,35.229,-0.00011726,-0.0063524,0.65091
27180,9.2298,4.5455,0.1,0.00035739,3571.4,0.00035812,3593.2,-0.00011427,43.871,-0.00012011,-0.0068717,0.6185
27181,9.3215,4.6364,0.1,0.00035511,3548.7,0.00035576,3567.9,-0.00011393,38.881,-0.00011911,-0.0069621,0.62903
27182,9.0463,4.5455,0.1,0.00036244,3621.9,0.00036323,3645.7,-0.00011557,48.143,-0.00012198,-0.0076643,0.59699
27183,9.1381,4.6364,0.1,0.00036017,3599.2,0.00036088,3620.4,-0.00011528,42.743,-0.00012097,-0.0077349,0.60739
27184,8.8628,4.5455,0.1,0.00036749,3672.4,0.00036836,3698.4,-0.00011686,52.657,-0.00012387,-0.0086767,0.57571
27185,8.9546,4.6364,0.1,0.00036523,3649.8,0.00036601,3673,-0.00011661,46.814,-0.00012284,-0.0087112,0.58599
27186,8.6794,4.5455,0.1,0.00037255,3723,0.0003735,3751.3,-0.00011813,57.409,-0.00012578,-0.009968,0.55469
27187,8.7711,4.6364,0.1,0.00037031,3700.5,0.00037115,3725.8,-0.00011792,51.088,-0.00012472,-0.0099434,0.56484
27188,8.4959,4.5455,0.1,0.00037763,3773.7,0.00037865,3804.5,-0.00011939,62.393,-0.0001277,-0.011614,0.53392
27189,8.5876,4.6364,0.1,0.0003754,3751.4,0.00037631,3778.8,-0.00011923,55.555,-0.00012662,-0.011499,0.54394
27190,8.3124,4.5455,0.1,0.00038272,3824.5,0.00038382,3857.9,-0.00012063,67.594,-0.00012963,-0.013717,0.5134
27191,8.4041,4.6364,0.1,0.00038049,3802.3,0.00038148,3832,-0.00012052,60.199,-0.00012853,-0.013468,0.52329
27192,8.1289,4.5455,0.1,0.00038782,3875.5,0.00038901,3911.5,-0.00012186,72.99,-0.00013158,-0.01641,0.49314
27193,8.2206,4.6364,0.1,0.0003856,3853.3,0.00038666,3885.4,-0.0001218,64.995,-0.00013045,-0.015969,0.5029
27194,7.9454,4.5455,0.1,0.00039293,3926.6,0.00039421,3965.3,-0.00012308,78.553,-0.00013354,-0.019872,0.47314
27195,8.0372,4.6364,0.1,0.00039071,3904.5,0.00039186,3938.9,-0.00012308,69.91,-0.00013238,-0.019159,0.48276
27196,7.7619,4.5455,0.1,0.00039806,3977.9,0.00039943,4019.3,-0.0001243,84.239,-0.00013551,-0.024345,0.45341
27197,7.8537,4.6364,0.1,0.00039584,3955.7,0.00039706,3992.6,-0.00012435,74.899,-0.00013432,-0.023251,0.4629
27198,7.5785,4.5455,0.1,0.00040321,4029.3,0.00040467,4073.6,-0.00012551,89.995,-0.0001375,-0.030154,0.43394
27199,7.6702,4.6364,0.1,0.00040098,4007.1,0.00040228,4046.4,-0.00012563,79.905,-0.00013627,-0.028535,0.4433
27200,7.395,4.5455,0.1,0.00040838,4081,0.00040993,4128,-0.00012674,95.751,-0.00013949,-0.037749,0.41475
27201,7.4867,4.6364,0.1,0.00040614,4058.6,0.00040751,4100.3,-0.00012691,84.855,-0.00013821,-0.035409,0.42397
27202,7.2115,4.5455,0.1,0.00041358,4133,0.00041521,4182.7,-0.00012797,101.42,-0.00014148,-0.047752,0.39584
27203,7.3032,4.6364,0.1,0.0004113,4110.2,0.00041275,4154.2,-0.00012821,89.659,-0.00014015,-0.04443,0.40491
27204,7.028,4.5455,0.1,0.00041881,4185.2,0.00042052,4237.6,-0.00012924,106.89,-0.00014347,-0.061037,0.3772
27205,7.1198,4.6364,0.1,0.00041648,4161.9,0.000418,4208.2,-0.00012954,94.206,-0.00014208,-0.056382,0.38613
27206,6.8445,4.5455,0.1,0.00042407,4237.8,0.00042586,4292.6,-0.00013054,112.03,-0.00014546,-0.078846,0.35885
27207,6.9363,4.6364,0.1,0.00042166,4213.7,0.00042324,4262,-0.0001309,98.361,-0.000144,-0.072395,0.36764
27208,6.6611,4.5455,0.1,0.00042936,4290.6,0.00043122,4347.7,-0.00013189,116.68,-0.00014744,-0.10297,0.34078
27209,6.7528,4.6364,0.1,0.00042684,4265.5,0.00042848,4315.5,-0.0001323,101.96,-0.00014589,-0.094118,0.34943
27210,6.4776,4.5455,0.1,0.00043469,4343.9,0.00043661,4402.9,-0.00013332,120.64,-0.00014939,-0.13606,0.32301
27211,6.5693,4.6364,0.1,0.00043202,4317.3,0.00043371,4368.6,-0.00013377,104.82,-0.00014774,-0.12401,0.3315
27212,6.2941,4.5455,0.1,0.00044006,4397.5,0.00044203,4458,-0.00013483,123.67,-0.00015132,-0.18207,0.30553
27213,6.3858,4.6364,0.1,0.00043719,4368.9,0.0004389,4421.2,-0.00013532,106.7,-0.00014954,-0.16585,0.31387
27214,6.1106,4.5455,0.1,0.00044546,4451.5,0.00044746,4512.8,-0.00013646,125.46,-0.00015319,-0.24716,0.28834
27215,6.2024,4.6364,0.1,0.00044232,4420.2,0.00044404,4472.7,-0.00013695,107.33,-0.00015127,-0.22554,0.29654
27216,5.9271,4.5455,0.1,0.0004509,4505.9,0.0004529,4567.2,-0.00013824,125.63,-0.00015501,-0.34117,0.27146
27217,6.0189,4.6364,0.1,0.0004474,4470.9,0.00044911,4523,-0.00013871,106.36,-0.00015291,-0.31282,0.2795
27218,5.7437,4.5455,0.1,0.00045638,4560.7,0.00045835,4621,-0.00014021,123.68,-0.00015673,-0.4808,0.25488
27219,5.8354,4.6364,0.1,0.0004524,4520.9,0.00045406,4571.5,-0.0001406,103.38,-0.00015442,-0.44446,0.26277
27220,5.5602,4.5455,0.1,0.0004619,4615.9,0.0004638,4673.8,-0.00014242,118.91,-0.00015834,-0.69646,0.23862
27221,5.6519,4.6364,0.1,0.00045729,4569.7,0.00045886,4617.5,-0.00014267,97.83,-0.00015578,-0.65171,0.24634
27222,5.3767,4.5455,0.1,0.00046749,4671.7,0.00046925,4725.3,-0.00014497,110.32,-0.00015979,-1.0497,0.22266
27223,5.4684,4.6364,0.1,0.00046203,4617.1,0.00046346,4660.4,-0.00014496,88.959,-0.00015694,-0.9993,0.23022
27224,5.1932,4.5455,0.1,0.00047319,4728.6,0.00047472,4775.2,-0.00014798,96.441,-0.00016104,-1.6876,0.20702
27225,5.285,4.6364,0.1,0.00046659,4662.6,0.0004678,4699.2,-0.00014755,75.73,-0.00015785,-1.6454,0.21441
27226,5.0097,4.5455,0.1,0.0004791,4787.7,0.00048027,4823.2,-0.00015165,75.15,-0.00016206,-3.0631,0.19169
27227,5.1015,4.6364,0.1,0.00047096,4706.4,0.00047185,4733,-0.00015051,56.804,-0.00015848,-3.0941,0.19892
27228,4.8263,4.5455,0.1,0.00048543,4850.9,0.00048604,4869.3,-0.0001561,44.486,-0.00016301,-7.3919,0.17669
27229,4.918,4.6364,0.1,0.0004752,4748.7,0.00047559,4760.5,-0.00015377,31.765,-0.00015904,-7.8689,0.18374
27230,4.6428,4.5455,0.1,0.00049259,4922.5,0.00049228,4913.7,-0.00015972,14.895,-0.00016596,-32.044,0.16202
27231,4.7345,4.6364,0.1,0.00047945,4791.2,0.00047909,4780.9,-0.0001557,11.403,-0.00016142,-31.57,0.16888
27232,4.4593,4.5455,0.1,0.00050129,5009.4,0.00049945,4957.3,-0.00015946,6.5516,-0.00017481,-108.81,0.14766
27233,4.551,4.6364,0.1,0.00048405,4837.2,0.00048251,4793.2,-0.00015467,5.7507,-0.0001677,-92.165,0.15434
27234,4.2758,4.5455,0.1,0.0005128,5124.5,0.00050832,5001.3,-0.00015669,4.6758,-0.00018955,-242.22,0.13364
27235,4.3676,4.6364,0.1,0.00048971,4893.7,0.00048621,4796.7,-0.00015163,4.1979,-0.00017778,-192.25,0.14011
27236,4.0923,4.5455,0.1,0.00052916,5287.9,0.00051989,5045.2,-0.000151,4.3536,-0.00021271,-459.27,0.11993
27237,4.1841,4.6364,0.1,0.00049767,4973.3,0.00049083,4790.6,-0.00014625,3.8024,-0.00019337,-350.26,0.1262
27238,3.9088,4.5455,0.1,0.00055352,5531.4,0.00053532,5084,-0.0001407,4.6516,-0.00024903,-809.3,0.10653
27239,4.0006,4.6364,0.1,0.00051001,5096.6,0.00049719,4772,-0.00013739,3.9494,-0.00021771,-599.53,0.11258
27240,3.7254,4.5455,0.1,0.00058898,5885.8,0.00055392,5087.6,-0.00012272,3.6552,-0.00030426,-1360.4,0.093426
27241,3.8171,4.6364,0.1,0.0005299,5295.4,0.00050613,4733.1,-0.00012319,4.675,-0.00025538,-988.54,0.099249
27242,3.5419,4.5455,0.1,0.00065282,6523.7,0.00058405,5096.2,-9.1795e-05,18.173,-0.00039518,-2261.4,0.080571
27243,3.6336,4.6364,0.1,0.00056104,5606.5,0.00051713,4646.5,-0.00010105,1.714,-0.00031174,-1581.3,0.086161
27244,3.4501,4.6364,0.1,0.00063341,6329.7,0.00054922,4649.6,-6.6706e-05,21.797,-0.0004108,-2563.6,0.07326
27245,3.3584,4.5455,0.1,0.00057231,5719.2,0.00049199,4131.9,-5.4992e-05,22.104,-0.00037731,-2399.7,0.067882
27246,23.725,4.7273,0.1,1.6536e-05,165.25,1.0091e-05,58.52,2.279e-06,-0.1757,-1.4742e-05,-128.07,2.8137
27247,23.817,4.8182,0.1,1.5149e-05,151.38,8.1924e-06,39.72,2.8897e-06,-0.12209,-1.4076e-05,-127.6,2.8291
27248,23.908,4.7273,0.1,1.4998e-05,149.87,6.8015e-06,22.439,3.7596e-06,-0.41762,-1.4492e-05,-137.55,2.8446
27249,23.541,4.7273,0.1,1.8626e-05,186.13,1.3542e-05,96.204,7.1196e-07,-0.19502,-1.5014e-05,-118.35,2.7829
27250,23.633,4.8182,0.1,1.699e-05,169.78,1.1609e-05,77.124,1.3072e-06,-0.28268,-1.4302e-05,-117.57,2.7982
27251,23.358,4.7273,0.1,2.1129e-05,211.15,1.7019e-05,133.91,-8.1694e-07,-0.10523,-1.5375e-05,-109.49,2.7521
27252,23.45,4.8182,0.1,1.9336e-05,193.23,1.5059e-05,114.68,-2.1782e-07,-0.10993,-1.4632e-05,-108.41,2.7674
27253,23.174,4.7273,0.1,2.3929e-05,239.13,2.053e-05,171.64,-2.3255e-06,-0.084749,-1.582e-05,-101.48,2.7212
27254,23.266,4.8182,0.1,2.2037e-05,220.21,1.8549e-05,152.25,-1.7272e-06,-0.095827,-1.5055e-05,-100.24,2.7366
27255,22.991,4.7273,0.1,2.6948e-05,269.3,2.4078e-05,209.49,-3.812e-06,-0.063851,-1.6347e-05,-94.248,2.6904
27256,23.083,4.8182,0.1,2.4993e-05,249.76,2.208e-05,189.96,-3.2114e-06,-0.06703,-1.5569e-05,-92.92,2.7058
27257,22.807,4.7273,0.1,3.0134e-05,301.14,2.7667e-05,247.51,-5.2813e-06,-0.051672,-1.6952e-05,-87.737,2.6597
27258,22.899,4.8182,0.1,2.8141e-05,281.21,2.5657e-05,227.87,-4.6775e-06,-0.053589,-1.6168e-05,-86.389,2.675
27259,22.624,4.7273,0.1,3.3451e-05,334.28,3.1297e-05,285.73,-6.7363e-06,-0.04229,-1.7626e-05,-81.866,2.6289
27260,22.716,4.8182,0.1,3.1434e-05,314.13,2.9279e-05,266,-6.1284e-06,-0.04266,-1.6843e-05,-80.546,2.6442
27261,22.44,4.7273,0.1,3.6871e-05,368.46,3.4967e-05,324.15,-8.1797e-06,-0.035373,-1.8364e-05,-76.558,2.5981
27262,22.532,4.8182,0.1,3.4842e-05,348.18,3.2944e-05,304.35,-7.5675e-06,-0.035001,-1.7585e-05,-75.301,2.6134
27263,22.257,4.7273,0.1,4.0376e-05,403.48,3.8673e-05,362.78,-9.6139e-06,-0.029983,-1.9158e-05,-71.743,2.5674
27264,22.349,4.8182,0.1,3.834e-05,383.13,3.6648e-05,342.93,-8.9971e-06,-0.029086,-1.8386e-05,-70.571,2.5827
27265,22.073,4.7273,0.1,4.395e-05,439.2,4.2415e-05,401.62,-1.1041e-05,-0.025735,-2.0002e-05,-67.361,2.5367
27266,22.165,4.8182,0.1,4.1912e-05,418.83,4.0389e-05,381.73,-1.0419e-05,-0.024515,-1.9238e-05,-66.283,2.552
27267,21.89,4.7273,0.1,4.7584e-05,475.51,4.6188e-05,440.65,-1.2461e-05,-0.022318,-2.0891e-05,-63.357,2.506
27268,21.982,4.8182,0.1,4.5545e-05,455.14,4.4162e-05,420.72,-1.1836e-05,-0.020894,-2.0135e-05,-62.38,2.5213
27269,21.706,4.7273,0.1,5.1269e-05,512.34,4.9992e-05,479.87,-1.3878e-05,-0.01953,-2.1819e-05,-59.686,2.4754
27270,21.798,4.8182,0.1,4.9231e-05,491.97,4.7966e-05,459.92,-1.3247e-05,-0.017987,-2.1072e-05,-58.811,2.4906
27271,21.523,4.7273,0.1,5.5e-05,549.62,5.3825e-05,519.29,-1.529e-05,-0.017226,-2.2783e-05,-56.312,2.4448
27272,21.615,4.8182,0.1,5.2963e-05,529.26,5.1799e-05,499.3,-1.4656e-05,-0.015615,-2.2045e-05,-55.535,2.46
27273,21.34,4.7273,0.1,5.8771e-05,587.3,5.7684e-05,558.88,-1.6701e-05,-0.015305,-2.3779e-05,-53.202,2.4142
27274,21.431,4.8182,0.1,5.6735e-05,566.96,5.5658e-05,538.86,-1.6062e-05,-0.013658,-2.305e-05,-52.519,2.4294
27275,21.156,4.7273,0.1,6.2579e-05,625.35,6.157e-05,598.66,-1.8109e-05,-0.013687,-2.4805e-05,-50.329,2.3837
27276,21.248,4.8182,0.1,6.0544e-05,605.02,5.9544e-05,578.61,-1.7466e-05,-0.012038,-2.4084e-05,-49.735,2.3989
27277,20.973,4.7273,0.1,6.6421e-05,663.75,6.5481e-05,638.62,-1.9516e-05,-0.012305,-2.5859e-05,-47.669,2.3532
27278,21.064,4.8182,0.1,6.4386e-05,643.42,6.3454e-05,618.53,-1.887e-05,-0.010668,-2.5144e-05,-47.158,2.3683
27279,20.789,4.7273,0.1,7.0295e-05,702.46,6.9417e-05,678.77,-2.0923e-05,-0.011122,-2.6938e-05,-45.203,2.3227
27280,20.881,4.8182,0.1,6.826e-05,682.13,6.7388e-05,658.64,-2.0273e-05,-0.0095081,-2.623e-05,-44.768,2.3379
27281,20.606,4.7273,0.1,7.4199e-05,741.48,7.3376e-05,719.09,-2.233e-05,-0.010096,-2.804e-05,-42.913,2.2923
27282,20.697,4.8182,0.1,7.2163e-05,721.13,7.1345e-05,698.91,-2.1676e-05,-0.0085177,-2.7338e-05,-42.549,2.3074
27283,20.422,4.7273,0.1,7.8133e-05,780.79,7.7359e-05,759.59,-2.3738e-05,-0.0091982,-2.9165e-05,-40.784,2.262
27284,20.514,4.8182,0.1,7.6095e-05,760.42,7.5325e-05,739.37,-2.308e-05,-0.0076565,-2.8467e-05,-40.484,2.2771
27285,20.239,4.7273,0.1,8.2094e-05,820.37,8.1365e-05,800.28,-2.5147e-05,-0.0084145,-3.031e-05,-38.802,2.2317
27286,20.33,4.8182,0.1,8.0054e-05,799.98,7.9328e-05,780,-2.4485e-05,-0.0069108,-2.9616e-05,-38.561,2.2467
27287,20.055,4.7273,0.1,8.6082e-05,860.22,8.5393e-05,841.15,-2.6557e-05,-0.0077295,-3.1475e-05,-36.956,2.2014
27288,20.147,4.8182,0.1,8.4038e-05,839.8,8.3352e-05,820.81,-2.5892e-05,-0.0062637,-3.0785e-05,-36.768,2.2165
27289,19.872,4.7273,0.1,9.0096e-05,900.33,8.9444e-05,882.2,-2.797e-05,-0.0071179,-3.2658e-05,-35.234,2.1712
27290,19.963,4.8182,0.1,8.8049e-05,879.88,8.7399e-05,861.81,-2.7301e-05,-0.0057028,-3.1971e-05,-35.094,2.1862
27291,19.688,4.7273,0.1,9.4135e-05,940.7,9.3518e-05,923.43,-2.9385e-05,-0.0065645,-3.3859e-05,-33.626,2.1411
27292,19.78,4.8182,0.1,9.2084e-05,920.2,9.1468e-05,902.98,-2.8712e-05,-0.0051925,-3.3174e-05,-33.53,2.1561
27293,19.505,4.7273,0.1,9.8199e-05,981.31,9.7613e-05,964.86,-3.0802e-05,-0.0060769,-3.5077e-05,-32.124,2.111
27294,19.596,4.8182,0.1,9.6143e-05,960.77,9.5558e-05,944.33,-3.0126e-05,-0.0047388,-3.4393e-05,-32.067,2.126
27295,19.321,4.7273,0.1,0.00010229,1022.2,0.00010173,1006.5,-3.2222e-05,-0.0056398,-3.631e-05,-30.718,2.081
27296,19.413,4.8182,0.1,0.00010023,1001.6,9.9669e-05,985.87,-3.1543e-05,-0.0043488,-3.5628e-05,-30.698,2.0959
27297,19.138,4.7273,0.1,0.0001064,1063.3,0.00010587,1048.3,-3.3646e-05,-0.0052388,-3.7559e-05,-29.403,2.0511
27298,19.229,4.8182,0.1,0.00010433,1042.6,0.0001038,1027.6,-3.2963e-05,-0.0039869,-3.6878e-05,-29.415,2.0659
27299,18.954,4.7273,0.1,0.00011054,1104.6,0.00011003,1090.2,-3.5073e-05,-0.0048774,-3.8822e-05,-28.169,2.0212
27300,19.046,4.8182,0.1,0.00010846,1083.9,0.00010796,1069.5,-3.4387e-05,-0.0036621,-3.8141e-05,-28.212,2.036
27301,18.771,4.7273,0.1,0.0001147,1146.2,0.00011421,1132.4,-3.6504e-05,-0.004543,-4.0099e-05,-27.011,1.9914
27302,18.863,4.8182,0.1,0.00011262,1125.4,0.00011213,1111.6,-3.5814e-05,-0.0033717,-3.9418e-05,-27.081,2.0062
27303,18.587,4.7273,0.1,0.00011888,1188,0.00011842,1174.8,-3.7939e-05,-0.0042341,-4.1389e-05,-25.923,1.9617
27304,18.679,4.8182,0.1,0.00011679,1167.1,0.00011633,1153.9,-3.7246e-05,-0.0030951,-4.0708e-05,-26.018,1.9764
27305,18.404,4.7273,0.1,0.00012308,1230,0.00012264,1217.4,-3.9379e-05,-0.0039567,-4.2692e-05,-24.899,1.9321
27306,18.496,4.8182,0.1,0.00012099,1209.1,0.00012055,1196.4,-3.8682e-05,-0.0028491,-4.2011e-05,-25.017,1.9468
27307,18.22,4.7273,0.1,0.00012731,1272.2,0.00012689,1260.1,-4.0822e-05,-0.003709,-4.4007e-05,-23.933,1.9025
27308,18.312,4.8182,0.1,0.00012521,1251.2,0.00012478,1239,-4.0122e-05,-0.0026293,-4.3325e-05,-24.072,1.9172
27309,18.037,4.7273,0.1,0.00013156,1314.7,0.00013116,1303.1,-4.2271e-05,-0.0034752,-4.5334e-05,-23.02,1.8731
27310,18.129,4.8182,0.1,0.00012945,1293.6,0.00012904,1281.9,-4.1567e-05,-0.0024374,-4.4651e-05,-23.179,1.8876
27311,17.853,4.7273,0.1,0.00013583,1357.4,0.00013544,1346.2,-4.3724e-05,-0.00325,-4.6672e-05,-22.155,1.8437
27312,17.945,4.8182,0.1,0.00013372,1336.3,0.00013332,1324.9,-4.3016e-05,-0.002242,-4.5988e-05,-22.334,1.8582
27313,17.67,4.7273,0.1,0.00014013,1400.3,0.00013975,1389.5,-4.5182e-05,-0.0030517,-4.8021e-05,-21.335,1.8144
27314,17.762,4.8182,0.1,0.000138,1379.1,0.00013762,1368.2,-4.4471e-05,-0.0020624,-4.7336e-05,-21.532,1.8289
27315,17.486,4.7273,0.1,0.00014444,1443.4,0.00014408,1433.1,-4.6645e-05,-0.0028681,-4.938e-05,-20.554,1.7852
27316,17.578,4.8182,0.1,0.00014231,1422.1,0.00014195,1411.6,-4.593e-05,-0.0019164,-4.8694e-05,-20.768,1.7996
27317,17.303,4.7273,0.1,0.00014878,1486.8,0.00014843,1476.8,-4.8113e-05,-0.0026907,-5.0749e-05,-19.809,1.7561
27318,17.395,4.8182,0.1,0.00014664,1465.4,0.00014629,1455.3,-4.7395e-05,-0.0017634,-5.0062e-05,-20.04,1.7705
27319,17.119,4.7273,0.1,0.00015314,1530.3,0.0001528,1520.7,-4.9587e-05,-0.0025274,-5.2128e-05,-19.094,1.7271
27320,17.211,4.8182,0.1,0.00015099,1508.9,0.00015065,1499.1,-4.8866e-05,-0.001625,-5.144e-05,-19.342,1.7414
27321,16.936,4.7273,0.1,0.00015752,1574.1,0.0001572,1564.8,-5.1067e-05,-0.0023665,-5.3516e-05,-18.408,1.6982
27322,17.028,4.8182,0.1,0.00015536,1552.5,0.00015503,1543.1,-5.0341e-05,-0.0014981,-5.2826e-05,-18.673,1.7125
27323,16.753,4.7273,0.1,0.00016192,1618.1,0.00016161,1609.1,-5.2552e-05,-0.002211,-5.4913e-05,-17.745,1.6694
27324,16.844,4.8182,0.1,0.00015975,1596.4,0.00015944,1587.3,-5.1823e-05,-0.0013625,-5.4222e-05,-18.027,1.6836
27325,16.569,4.7273,0.1,0.00016634,1662.2,0.00016604,1653.6,-5.4043e-05,-0.0020717,-5.6319e-05,-17.103,1.6407
27326,16.661,4.8182,0.1,0.00016416,1640.5,0.00016386,1631.7,-5.331e-05,-0.0012436,-5.5626e-05,-17.402,1.6549
27327,16.386,4.7273,0.1,0.00017078,1706.6,0.00017049,1698.3,-5.5539e-05,-0.0019492,-5.7732e-05,-16.478,1.6121
27328,16.477,4.8182,0.1,0.0001686,1684.8,0.00016831,1676.3,-5.4803e-05,-0.0011381,-5.7038e-05,-16.795,1.6262
27329,16.202,4.7273,0.1,0.00017524,1751.2,0.00017497,1743.2,-5.7042e-05,-0.001826,-5.9154e-05,-15.867,1.5837
27330,16.294,4.8182,0.1,0.00017305,1729.3,0.00017277,1721.2,-5.6302e-05,-0.0010509,-5.8459e-05,-16.202,1.5977
27331,16.019,4.7273,0.1,0.00017972,1796,0.00017946,1788.3,-5.8551e-05,-0.0016939,-6.0583e-05,-15.265,1.5553
27332,16.11,4.8182,0.1,0.00017752,1774,0.00017725,1766.2,-5.7808e-05,-0.00094264,-5.9886e-05,-15.621,1.5693
27333,15.835,4.7273,0.1,0.00018423,1841,0.00018397,1833.6,-6.0067e-05,-0.0015794,-6.2019e-05,-14.671,1.5271
27334,15.927,4.8182,0.1,0.00018202,1818.9,0.00018176,1811.4,-5.9319e-05,-0.0008363,-6.1322e-05,-15.047,1.541
27335,15.652,4.7273,0.1,0.00018875,1886.2,0.00018851,1879.1,-6.1588e-05,-0.0014695,-6.3462e-05,-14.081,1.499
27336,15.743,4.8182,0.1,0.00018653,1864,0.00018628,1856.7,-6.0837e-05,-0.0007632,-6.2764e-05,-14.479,1.5128
27337,15.468,4.7273,0.1,0.00019329,1931.6,0.00019306,1924.8,-6.3117e-05,-0.0013518,-6.4912e-05,-13.491,1.471
27338,15.56,4.8182,0.1,0.00019107,1909.3,0.00019082,1902.3,-6.2361e-05,-0.00066565,-6.4213e-05,-13.913,1.4848
27339,15.285,4.7273,0.1,0.00019785,1977.2,0.00019763,1970.7,-6.4651e-05,-0.0012387,-6.6368e-05,-12.898,1.4432
27340,15.376,4.8182,0.1,0.00019562,1954.8,0.00019539,1948.1,-6.3892e-05,-0.00057545,-6.5668e-05,-13.346,1.4569
27341,15.101,4.7273,0.1,0.00020243,2022.9,0.00020222,2016.8,-6.6193e-05,-0.0011142,-6.783e-05,-12.299,1.4155
27342,15.193,4.8182,0.1,0.00020019,2000.5,0.00019997,1994.1,-6.5429e-05,-0.00048807,-6.7129e-05,-12.774,1.4291
27343,14.918,4.7273,0.1,0.00020703,2068.9,0.00020683,2063,-6.7741e-05,-0.00098135,-6.9297e-05,-11.691,1.3879
27344,15.009,4.8182,0.1,0.00020478,2046.4,0.00020457,2040.3,-6.6974e-05,-0.00037625,-6.8597e-05,-12.196,1.4014
27345,14.734,4.7273,0.1,0.00021165,2115.1,0.00021146,2109.5,-6.9296e-05,-0.00085292,-7.077e-05,-11.07,1.3605
27346,14.826,4.8182,0.1,0.00020939,2092.5,0.00020919,2086.7,-6.8525e-05,-0.00027311,-7.0069e-05,-11.607,1.3739
27347,14.551,4.7273,0.1,0.00021629,2161.4,0.00021611,2156.2,-7.0859e-05,-0.00072793,-7.2247e-05,-10.433,1.3332
27348,14.642,4.8182,0.1,0.00021403,2138.8,0.00021384,2133.3,-7.0083e-05,-0.00017298,-7.1547e-05,-11.005,1.3466
27349,14.367,4.7273,0.1,0.00022095,2208,0.00022078,2203,-7.2428e-05,-0.00058116,-7.3729e-05,-9.7759,1.306
27350,14.459,4.8182,0.1,0.00021867,2185.2,0.0002185,2180,-7.1648e-05,-8.0549e-05,-7.303e-05,-10.386,1.3193
27351,14.184,4.7273,0.1,0.00022562,2254.7,0.00022547,2250.1,-7.4005e-05,-0.00039804,-7.5215e-05,-9.0953,1.279
27352,14.276,4.8182,0.1,0.00022334,2231.9,0.00022318,2227,-7.322e-05,5.8491e-05,-7.4517e-05,-9.7466,1.2923
27353,14,4.7273,0.1,0.00023032,2301.6,0.00023017,2297.4,-7.5589e-05,-0.0002062,-7.6705e-05,-8.3873,1.2522
27354,14.092,4.8182,0.1,0.00022803,2278.7,0.00022787,2274.2,-7.4799e-05,0.00021582,-7.6008e-05,-9.0833,1.2653
27355,13.817,4.7273,0.1,0.00023503,2348.7,0.0002349,2344.8,-7.718e-05,2.2047e-05,-7.8198e-05,-7.6478,1.2255
27356,13.909,4.8182,0.1,0.00023274,2325.7,0.00023259,2321.5,-7.6386e-05,0.00036197,-7.7503e-05,-8.3925,1.2385
27357,13.633,4.7273,0.1,0.00023976,2395.9,0.00023964,2392.5,-7.878e-05,0.00032198,-7.9694e-05,-6.8727,1.1989
27358,13.725,4.8182,0.1,0.00023746,2372.9,0.00023733,2369.1,-7.7981e-05,0.00057658,-7.9002e-05,-7.6703,1.2119
27359,13.45,4.7273,0.1,0.00024451,2443.4,0.0002444,2440.3,-8.0387e-05,0.00070566,-8.1193e-05,-6.0575,1.1725
27360,13.542,4.8182,0.1,0.0002422,2420.3,0.00024208,2416.9,-7.9583e-05,0.0008409,-8.0503e-05,-6.9126,1.1855
27361,13.266,4.7273,0.1,0.00024927,2491,0.00024918,2488.4,-8.2002e-05,0.0012505,-8.2694e-05,-5.1977,1.1463
27362,13.358,4.8182,0.1,0.00024696,2467.9,0.00024685,2464.8,-8.1193e-05,0.001182,-8.2007e-05,-6.1153,1.1592
27363,13.083,4.7273,0.1,0.00025405,2538.8,0.00025398,2536.6,-8.3625e-05,0.0020534,-8.4196e-05,-4.2884,1.1203
27364,13.175,4.8182,0.1,0.00025174,2515.6,0.00025165,2513,-8.2811e-05,0.001695,-8.3513e-05,-5.2737,1.133
27365,12.899,4.7273,0.1,0.00025885,2586.7,0.0002588,2585.1,-8.5256e-05,0.0033613,-8.5699e-05,-3.3249,1.0944
27366,12.991,4.8182,0.1,0.00025653,2563.5,0.00025646,2561.3,-8.4438e-05,0.002405,-8.5021e-05,-4.3837,1.1071
27367,12.716,4.7273,0.1,0.00026367,2634.9,0.00026363,2633.7,-8.6896e-05,0.0059919,-8.7203e-05,-2.3024,1.0687
27368,12.808,4.8182,0.1,0.00026134,2611.6,0.00026128,2609.9,-8.6072e-05,0.0035862,-8.653e-05,-3.4402,1.0813
27369,12.532,4.7273,0.1,0.0002685,2683.2,0.00026848,2682.6,-8.8544e-05,0.013643,-8.8708e-05,-1.2189,1.0432
27370,12.624,4.8182,0.1,0.00026617,2659.9,0.00026613,2658.6,-8.7715e-05,0.0059232,-8.804e-05,-2.4388,1.0556
27371,12.349,4.7273,0.1,0.00027335,2731.6,0.00027335,2731.6,-9.0187e-05,0.12077,-9.0225e-05,-0.16299,1.0178
27372,12.441,4.8182,0.1,0.00027101,2708.3,0.00027099,2707.6,-8.9366e-05,0.012141,-8.955e-05,-1.3768,1.0302
27373,12.165,4.7273,0.1,0.00027821,2780.2,0.00027823,2780.8,-9.1708e-05,1.2181,-9.1872e-05,-0.018939,0.99269
27374,12.257,4.8182,0.1,0.00027588,2756.9,0.00027587,2756.7,-9.1019e-05,0.065928,-9.1067e-05,-0.29207,1.005
27375,11.982,4.7273,0.1,0.00028309,2829,0.00028314,2830.2,-9.3208e-05,2.5361,-9.3547e-05,-0.010589,0.96771
27376,12.074,4.8182,0.1,0.00028075,2805.6,0.00028077,2806.1,-9.2563e-05,1.0104,-9.27e-05,-0.021952,0.97988
27377,11.799,4.7273,0.1,0.00028799,2877.9,0.00028805,2879.9,-9.4705e-05,3.9517,-9.5232e-05,-0.0078635,0.94293
27378,11.89,4.8182,0.1,0.00028565,2854.5,0.00028568,2855.6,-9.4071e-05,2.2969,-9.4378e-05,-0.011114,0.955
27379,11.615,4.7273,0.1,0.0002929,2927,0.00029299,2929.7,-9.6199e-05,5.468,-9.6927e-05,-0.0065616,0.91834
27380,11.707,4.8182,0.1,0.00029055,2903.5,0.00029062,2905.4,-9.5575e-05,3.6802,-9.6066e-05,-0.0079899,0.93031
27381,11.432,4.7273,0.1,0.00029782,2976.2,0.00029794,2979.7,-9.7688e-05,7.0917,-9.8633e-05,-0.0058176,0.89395
27382,11.523,4.8182,0.1,0.00029548,2952.7,0.00029556,2955.3,-9.7076e-05,5.161,-9.7764e-05,-0.0065806,0.90581
27383,11.248,4.7273,0.1,0.00030276,3025.5,0.00030291,3029.9,-9.9172e-05,8.8303,-0.00010035,-0.0053745,0.86976
27384,11.34,4.8182,0.1,0.00030042,3002.1,0.00030053,3005.4,-9.8573e-05,6.7455,-9.9472e-05,-0.0057893,0.88151
27385,11.065,4.7273,0.1,0.00030771,3075,0.00030789,3080.3,-0.00010065,10.692,-0.00010207,-0.0051358,0.84577
27386,11.156,4.8182,0.1,0.00030537,3051.6,0.00030551,3055.8,-0.00010007,8.4404,-0.00010119,-0.0053802,0.85742
27387,10.881,4.7273,0.1,0.00031268,3124.6,0.00031289,3130.9,-0.00010212,12.684,-0.00010381,-0.0049975,0.82199
27388,10.973,4.8182,0.1,0.00031033,3101.2,0.00031051,3106.3,-0.00010155,10.253,-0.00010292,-0.0051694,0.83353
27389,10.698,4.7273,0.1,0.00031765,3174.3,0.0003179,3181.7,-0.00010359,14.816,-0.00010556,-0.0049426,0.79842
27390,10.789,4.8182,0.1,0.00031532,3151,0.00031552,3157.1,-0.00010303,12.19,-0.00010466,-0.0050496,0.80985
27391,10.514,4.7273,0.1,0.00032264,3224.2,0.00032293,3232.7,-0.00010504,17.095,-0.00010732,-0.0049888,0.77506
27392,10.606,4.8182,0.1,0.00032031,3200.9,0.00032055,3208,-0.00010451,14.259,-0.00010641,-0.0050575,0.78638
27393,10.331,4.7273,0.1,0.00032764,3274.2,0.00032797,3283.9,-0.00010649,19.529,-0.00010909,-0.0051287,0.75192
27394,10.422,4.8182,0.1,0.00032532,3250.9,0.00032559,3259.1,-0.00010598,16.467,-0.00010817,-0.0051741,0.76313
27395,10.147,4.7273,0.1,0.00033266,3324.3,0.00033303,3335.3,-0.00010793,22.126,-0.00011087,-0.0053381,0.729
27396,10.239,4.8182,0.1,0.00033034,3301.1,0.00033065,3310.4,-0.00010744,18.82,-0.00010994,-0.0053928,0.74009
27397,9.9637,4.7273,0.1,0.00033768,3374.5,0.0003381,3386.9,-0.00010935,24.892,-0.00011267,-0.0056133,0.70631
27398,10.055,4.8182,0.1,0.00033537,3351.4,0.00033572,3362,-0.00010889,21.324,-0.00011173,-0.0056675,0.71728
27399,9.7802,4.7273,0.1,0.00034272,3424.8,0.00034318,3438.7,-0.00011077,27.833,-0.00011447,-0.0059877,0.68384
27400,9.872,4.8182,0.1,0.00034041,3401.8,0.00034081,3413.7,-0.00011033,23.983,-0.00011352,-0.0060338,0.6947
27401,9.5968,4.7273,0.1,0.00034777,3475.3,0.00034828,3490.6,-0.00011217,30.954,-0.00011629,-0.006474,0.6616
27402,9.6885,4.8182,0.1,0.00034547,3452.3,0.00034591,3465.6,-0.00011176,26.801,-0.00011533,-0.0065197,0.67234
27403,9.4133,4.7273,0.1,0.00035282,3525.8,0.00035339,3542.8,-0.00011356,34.256,-0.00011813,-0.0070881,0.6396
27404,9.505,4.8182,0.1,0.00035053,3502.9,0.00035103,3517.7,-0.00011318,29.779,-0.00011715,-0.0071224,0.65022
27405,9.2298,4.7273,0.1,0.00035789,3576.4,0.00035852,3595.2,-0.00011495,37.74,-0.00011997,-0.0078607,0.61784
27406,9.3215,4.8182,0.1,0.00035561,3553.6,0.00035616,3570,-0.0001146,32.915,-0.00011898,-0.0078756,0.62833
27407,9.0463,4.7273,0.1,0.00036297,3627.2,0.00036365,3647.7,-0.00011631,41.402,-0.00012183,-0.0088266,0.59631
27408,9.1381,4.8182,0.1,0.0003607,3604.5,0.0003613,3622.5,-0.000116,36.206,-0.00012082,-0.0088061,0.60668
27409,8.8628,4.7273,0.1,0.00036806,3678,0.0003688,3700.4,-0.00011767,45.234,-0.00012369,-0.010034,0.57503
27410,8.9546,4.8182,0.1,0.0003658,3655.4,0.00036645,3675.1,-0.00011739,39.642,-0.00012267,-0.0099566,0.58527
27411,8.6794,4.7273,0.1,0.00037315,3728.9,0.00037397,3753.3,-0.00011902,49.224,-0.00012557,-0.011543,0.554
27412,8.7711,4.8182,0.1,0.0003709,3706.5,0.00037162,3727.9,-0.00011878,43.211,-0.00012453,-0.011379,0.56412
27413,8.4959,4.7273,0.1,0.00037826,3780,0.00037914,3806.4,-0.00012036,53.352,-0.00012746,-0.013436,0.53322
27414,8.5876,4.8182,0.1,0.00037602,3757.6,0.0003768,3780.8,-0.00012016,46.891,-0.0001264,-0.013144,0.54321
27415,8.3124,4.7273,0.1,0.00038337,3831.1,0.00038432,3859.6,-0.00012169,57.591,-0.00012936,-0.015821,0.5127
27416,8.4041,4.8182,0.1,0.00038114,3808.8,0.00038198,3833.9,-0.00012154,50.657,-0.00012828,-0.015345,0.52255
27417,8.1289,4.7273,0.1,0.0003885,3882.3,0.00038951,3912.9,-0.00012302,61.905,-0.00013126,-0.01884,0.49244
27418,8.2206,4.8182,0.1,0.00038628,3860.1,0.00038717,3887,-0.00012291,54.47,-0.00013016,-0.018104,0.50215
27419,7.9454,4.7273,0.1,0.00039363,3933.6,0.00039471,3966.3,-0.00012435,66.247,-0.00013317,-0.022687,0.47243
27420,8.0372,4.8182,0.1,0.00039141,3911.4,0.00039237,3940.2,-0.00012428,58.285,-0.00013204,-0.021587,0.48202
27421,7.7619,4.7273,0.1,0.00039877,3984.9,0.00039992,4019.7,-0.00012568,70.556,-0.00013508,-0.027627,0.4527
27422,7.8537,4.8182,0.1,0.00039655,3962.8,0.00039757,3993.4,-0.00012566,62.041,-0.00013393,-0.026021,0.46214
27423,7.5785,4.7273,0.1,0.00040391,4036.3,0.00040513,4073.2,-0.00012703,74.756,-0.00013698,-0.034025,0.43323
27424,7.6702,4.8182,0.1,0.00040169,4014.1,0.00040277,4046.6,-0.00012706,65.663,-0.0001358,-0.031722,0.44254
27425,7.395,4.7273,0.1,0.00040906,4087.7,0.00041034,4126.5,-0.00012839,78.754,-0.00013887,-0.042393,0.41403
27426,7.4867,4.8182,0.1,0.00040682,4065.4,0.00040795,4099.5,-0.00012846,69.058,-0.00013766,-0.039132,0.4232
27427,7.2115,4.7273,0.1,0.0004142,4139.1,0.00041554,4179.7,-0.00012977,82.435,-0.00014075,-0.053466,0.39511
27428,7.3032,4.8182,0.1,0.00041194,4116.6,0.00041312,4152.1,-0.0001299,72.116,-0.0001395,-0.048888,0.40414
27429,7.028,4.7273,0.1,0.00041933,4190.4,0.00042072,4232.5,-0.0001312,85.664,-0.00014261,-0.068307,0.37647
27430,7.1198,4.8182,0.1,0.00041704,4167.5,0.00041826,4204.3,-0.00013136,74.7,-0.00014131,-0.061926,0.38536
27431,6.8445,4.7273,0.1,0.00042444,4241.5,0.00042587,4284.9,-0.00013266,88.279,-0.00014442,-0.088498,0.35812
27432,6.9363,4.8182,0.1,0.00042209,4218,0.00042334,4255.8,-0.00013286,76.655,-0.00014308,-0.079649,0.36686
27433,6.6611,4.7273,0.1,0.00042951,4292.2,0.00043097,4336.4,-0.00013418,90.087,-0.00014619,-0.11644,0.34005
27434,6.7528,4.8182,0.1,0.00042709,4268,0.00042836,4306.3,-0.00013442,77.793,-0.00014479,-0.10423,0.34865
27435,6.4776,4.7273,0.1,0.00043453,4342.3,0.000436,4386.9,-0.00013577,90.866,-0.00014788,-0.1559,0.32227
27436,6.5693,4.8182,0.1,0.00043201,4317.1,0.00043328,4355.4,-0.00013603,77.901,-0.00014641,-0.13912,0.33072
27437,6.2941,4.7273,0.1,0.00043946,4391.6,0.00044092,4435.9,-0.00013744,90.352,-0.00014949,-0.21296,0.30479
27438,6.3858,4.8182,0.1,0.0004368,4365,0.00043805,4402.7,-0.00013771,76.731,-0.00014794,-0.19006,0.31309
27439,6.1106,4.7273,0.1,0.00044427,4439.6,0.0004457,4482.9,-0.0001392,88.235,-0.00015098,-0.29793,0.2876
27440,6.2024,4.8182,0.1,0.00044142,4411.2,0.00044263,4447.6,-0.00013946,73.999,-0.00014934,-0.26708,0.29575
27441,5.9271,4.7273,0.1,0.0004489,4485.9,0.00045027,4527.2,-0.00014107,84.143,-0.00015232,-0.42934,0.27071
27442,6.0189,4.8182,0.1,0.00044581,4455,0.00044694,4489.1,-0.00014129,69.378,-0.00015057,-0.38885,0.2787
27443,5.7437,4.7273,0.1,0.0004533,4529.9,0.00045456,4567.9,-0.00014306,77.617,-0.00015347,-0.64335,0.25412
27444,5.8354,4.8182,0.1,0.00044989,4495.8,0.00045091,4526.4,-0.0001432,62.492,-0.0001516,-0.59362,0.26196
27445,5.5602,4.7273,0.1,0.0004574,4570.8,0.0004585,4603.9,-0.00014519,68.082,-0.00015439,-1.0198,0.23784
27446,5.6519,4.8182,0.1,0.00045355,4532.3,0.00045441,4558.1,-0.00014519,52.913,-0.00015236,-0.97124,0.24553
27447,5.3767,4.7273,0.1,0.00046109,4607.7,0.00046197,4634,-0.00014748,54.827,-0.00015501,-1.7712,0.22187
27448,5.4684,4.8182,0.1,0.00045667,4563.5,0.00045731,4582.6,-0.00014725,40.218,-0.00015284,-1.7834,0.22939
27449,5.1932,4.7273,0.1,0.00046429,4639.7,0.00046485,4656.4,-0.00014992,37.253,-0.00015536,-3.67,0.20621
27450,5.285,4.8182,0.1,0.0004591,4587.8,0.00045944,4598,-0.00014925,24.529,-0.00015306,-4.1124,0.21357
27451,5.0097,4.7273,0.1,0.00046693,4666.1,0.00046704,4669.3,-0.00015207,17.557,-0.00015588,-11.049,0.19086
27452,5.1015,4.8182,0.1,0.00046069,4603.7,0.00046063,4601.9,-0.00015048,10.318,-0.0001537,-13.863,0.19805
27453,4.8263,4.7273,0.1,0.00046896,4686.4,0.00046841,4670.4,-0.00015223,7.175,-0.00015835,-38.774,0.17583
27454,4.918,4.8182,0.1,0.00046128,4609.6,0.00046065,4591.6,-0.00014978,5.0311,-0.00015587,-40.721,0.18285
27455,4.6428,4.7273,0.1,0.00047045,4701.2,0.00046891,4657.3,-0.00015035,4.4691,-0.00016303,-90.8,0.1611
27456,4.7345,4.8182,0.1,0.00046074,4604.2,0.00045932,4563.7,-0.0001476,3.5737,-0.00015915,-83.209,0.16795
27457,4.4593,4.7273,0.1,0.00047163,4713,0.00046855,4627.2,-0.00014682,3.5725,-0.00016997,-170.4,0.14669
27458,4.551,4.8182,0.1,0.00045904,4587.2,0.00045646,4514.8,-0.00014402,3.0544,-0.00016364,-144.33,0.15335
27459,4.2758,4.7273,0.1,0.00047307,4727.5,0.00046749,4576.8,-0.0001412,3.2867,-0.00018037,-291,0.13258
27460,4.3676,4.8182,0.1,0.00045638,4560.7,0.00045201,4441,-0.00013867,2.8868,-0.00017008,-233.12,0.13905
27461,4.0923,4.7273,0.1,0.00047585,4755.2,0.00046603,4501.5,-0.00013264,3.3357,-0.00019626,-474.65,0.11876
27462,4.1841,4.8182,0.1,0.00045335,4530.4,0.00044608,4338.4,-0.00013093,2.9738,-0.00017985,-364.61,0.12504
27463,3.9088,4.7273,0.1,0.00048162,4812.9,0.00046442,4394.2,-0.00011989,3.9162,-0.00022047,-751.82,0.10521
27464,4.0006,4.8182,0.1,0.00045121,4509,0.00043905,4203.2,-0.00011995,3.0998,-0.00019509,-561.42,0.1113
27465,3.7254,4.7273,0.1,0.0004933,4929.6,0.00046312,4245.2,-0.00010152,2.7304,-0.00025663,-1162.7,0.091912
27466,3.8171,4.8182,0.1,0.00045213,4518.2,0.00043155,4032.5,-0.00010459,4.1102,-0.00021864,-852.79,0.097801
27467,3.5419,4.7273,0.1,0.00052615,5257.8,0.00047164,4119.8,-7.5908e-05,5.7285,-0.00031674,-1803.8,0.078809
27468,3.6336,4.8182,0.1,0.00046051,4601.9,0.00042525,3828.1,-8.413e-05,0.8027,-0.00025433,-1278,0.084509
27469,3.4501,4.8182,0.1,0.00050278,5024.3,0.00043881,3735.9,-5.6918e-05,11.129,-0.00032173,-1978.5,0.071362
27470,3.3584,4.7273,0.1,0.00045052,4502.1,0.00039155,3311.9,-5.036e-05,-8.3961,-0.00029045,-1812.4,0.065829
27471,23.725,4.9091,0.1,1.5479e-05,154.68,9.7038e-06,58.271,1.9275e-06,-0.15693,-1.3639e-05,-117.11,2.8136
27472,23.817,5,0.1,1.3989e-05,139.79,7.7898e-06,39.622,2.504e-06,-0.092973,-1.2886e-05,-115.73,2.829
27473,23.908,4.9091,0.1,1.3891e-05,138.81,6.431e-06,22.422,3.3923e-06,-0.40938,-1.3375e-05,-126.39,2.8445
27474,23.541,4.9091,0.1,1.7624e-05,176.12,1.3128e-05,95.604,3.7948e-07,-0.18195,-1.3923e-05,-107.65,2.7828
27475,23.633,5,0.1,1.588e-05,158.69,1.117e-05,76.587,9.4125e-07,-0.26512,-1.3117e-05,-105.89,2.7981
27476,23.358,4.9091,0.1,2.0198e-05,201.84,1.6592e-05,133.04,-1.1273e-06,-0.094515,-1.4317e-05,-99.193,2.7519
27477,23.45,5,0.1,1.8303e-05,182.9,1.46e-05,113.8,-5.5903e-07,-0.096792,-1.3479e-05,-97.169,2.7673
27478,23.174,4.9091,0.1,2.3075e-05,230.59,2.0104e-05,170.61,-2.6127e-06,-0.075027,-1.481e-05,-91.718,2.7211
27479,23.266,5,0.1,2.1092e-05,210.77,1.8088e-05,151.17,-2.042e-06,-0.083986,-1.3954e-05,-89.585,2.7365
27480,22.991,4.9091,0.1,2.6173e-05,261.55,2.3665e-05,208.38,-4.0765e-06,-0.054872,-1.5396e-05,-85.105,2.6903
27481,23.083,5,0.1,2.414e-05,241.23,2.1633e-05,188.79,-3.5003e-06,-0.056272,-1.4534e-05,-82.961,2.7056
27482,22.807,4.9091,0.1,2.9436e-05,294.16,2.7276e-05,246.41,-5.5244e-06,-0.043263,-1.6066e-05,-79.247,2.6595
27483,22.899,5,0.1,2.7377e-05,273.58,2.5235e-05,226.7,-4.9421e-06,-0.043598,-1.5207e-05,-77.17,2.6749
27484,22.624,4.9091,0.1,3.2826e-05,328.03,3.0933e-05,284.68,-6.9594e-06,-0.034385,-1.6808e-05,-74.034,2.6288
27485,22.716,5,0.1,3.0755e-05,307.34,2.8888e-05,264.89,-6.3707e-06,-0.033345,-1.5958e-05,-72.07,2.6441
27486,22.44,4.9091,0.1,3.6314e-05,362.89,3.4633e-05,323.19,-8.3847e-06,-0.027933,-1.7613e-05,-69.369,2.598
27487,22.532,5,0.1,3.424e-05,342.17,3.2587e-05,303.35,-7.7895e-06,-0.026299,-1.6776e-05,-67.544,2.6133
27488,22.257,4.9091,0.1,3.9882e-05,398.54,3.8371e-05,361.93,-9.8023e-06,-0.022977,-1.8472e-05,-65.167,2.5673
27489,22.349,5,0.1,3.7809e-05,377.83,3.6326e-05,342.05,-9.2008e-06,-0.020953,-1.7649e-05,-63.494,2.5826
27490,22.073,4.9091,0.1,4.3514e-05,434.84,4.2143e-05,400.89,-1.1214e-05,-0.019135,-1.9378e-05,-61.359,2.5366
27491,22.165,5,0.1,4.1445e-05,414.16,4.0101e-05,380.98,-1.0607e-05,-0.016908,-1.8569e-05,-59.841,2.5518
27492,21.89,4.9091,0.1,4.72e-05,471.67,4.5947e-05,440.05,-1.2621e-05,-0.016101,-2.0324e-05,-57.891,2.5059
27493,21.982,5,0.1,4.5136e-05,451.04,4.3907e-05,420.11,-1.2008e-05,-0.013774,-1.9529e-05,-56.524,2.5211
27494,21.706,4.9091,0.1,5.0932e-05,508.97,4.978e-05,479.4,-1.4026e-05,-0.013669,-2.1306e-05,-54.716,2.4752
27495,21.798,5,0.1,4.8873e-05,488.39,4.7743e-05,459.44,-1.3407e-05,-0.011315,-2.0525e-05,-53.494,2.4905
27496,21.523,4.9091,0.1,5.4706e-05,546.68,5.364e-05,518.93,-1.5427e-05,-0.011693,-2.232e-05,-51.798,2.4446
27497,21.615,5,0.1,5.2651e-05,526.15,5.1605e-05,498.95,-1.4803e-05,-0.0093545,-2.1551e-05,-50.713,2.4599
27498,21.34,4.9091,0.1,5.8515e-05,584.75,5.7525e-05,558.64,-1.6827e-05,-0.010078,-2.3362e-05,-49.106,2.4141
27499,21.431,5,0.1,5.6465e-05,564.26,5.5491e-05,538.64,-1.6198e-05,-0.0077741,-2.2605e-05,-48.149,2.4293
27500,21.156,4.9091,0.1,6.2359e-05,623.16,6.1434e-05,598.53,-1.8227e-05,-0.0087413,-2.443e-05,-46.617,2.3835
27501,21.248,5,0.1,6.0311e-05,602.7,5.9402e-05,578.5,-1.7593e-05,-0.0065003,-2.3684e-05,-45.777,2.3987
27502,20.973,4.9091,0.1,6.6233e-05,661.87,6.5367e-05,638.6,-1.9626e-05,-0.0076215,-2.5522e-05,-44.309,2.353
27503,21.064,5,0.1,6.4188e-05,641.43,6.3335e-05,618.53,-1.8987e-05,-0.0054481,-2.4786e-05,-43.577,2.3682
27504,20.789,4.9091,0.1,7.0136e-05,700.87,6.9323e-05,678.83,-2.1025e-05,-0.0066791,-2.6636e-05,-42.165,2.3226
27505,20.881,5,0.1,6.8092e-05,680.45,6.729e-05,658.73,-2.0382e-05,-0.0045788,-2.5909e-05,-41.532,2.3377
27506,20.606,4.9091,0.1,7.4066e-05,740.15,7.3301e-05,719.24,-2.2426e-05,-0.0058756,-2.7771e-05,-40.169,2.2922
27507,20.697,5,0.1,7.2023e-05,719.74,7.1267e-05,699.1,-2.1778e-05,-0.0038556,-2.7052e-05,-39.626,2.3073
27508,20.422,4.9091,0.1,7.8023e-05,779.69,7.73e-05,759.83,-2.3827e-05,-0.0051852,-2.8925e-05,-38.309,2.2618
27509,20.514,5,0.1,7.598e-05,759.27,7.5265e-05,739.64,-2.3175e-05,-0.0032405,-2.8212e-05,-37.848,2.2769
27510,20.239,4.9091,0.1,8.2005e-05,819.49,8.1322e-05,800.59,-2.523e-05,-0.0045931,-3.0097e-05,-36.573,2.2315
27511,20.33,5,0.1,7.9961e-05,799.06,7.9284e-05,780.35,-2.4575e-05,-0.0027219,-2.939e-05,-36.187,2.2465
27512,20.055,4.9091,0.1,8.6012e-05,859.53,8.5364e-05,841.52,-2.6636e-05,-0.004085,-3.1287e-05,-34.952,2.2012
27513,20.147,5,0.1,8.3966e-05,839.08,8.3323e-05,821.23,-2.5976e-05,-0.0022834,-3.0585e-05,-34.633,2.2162
27514,19.872,4.9091,0.1,9.0044e-05,899.82,8.9428e-05,882.63,-2.8043e-05,-0.0036389,-3.2493e-05,-33.435,2.171
27515,19.963,5,0.1,8.7995e-05,879.34,8.7383e-05,862.28,-2.738e-05,-0.0019155,-3.1795e-05,-33.178,2.186
27516,19.688,4.9091,0.1,9.4099e-05,940.34,9.3513e-05,923.92,-2.9454e-05,-0.0032405,-3.3714e-05,-32.016,2.1409
27517,19.78,5,0.1,9.2047e-05,919.83,9.1464e-05,903.51,-2.8786e-05,-0.0015856,-3.302e-05,-31.814,2.1558
27518,19.505,4.9091,0.1,9.8177e-05,981.1,9.7619e-05,965.39,-3.0867e-05,-0.0028953,-3.4951e-05,-30.685,2.1108
27519,19.596,5,0.1,9.6121e-05,960.55,9.5565e-05,944.92,-3.0196e-05,-0.0012981,-3.4259e-05,-30.534,2.1257
27520,19.321,4.9091,0.1,0.00010228,1022.1,0.00010175,1007,-3.2284e-05,-0.0025903,-3.6201e-05,-29.437,2.0808
27521,19.413,5,0.1,0.00010022,1001.5,9.9687e-05,986.5,-3.1608e-05,-0.0010615,-3.5512e-05,-29.332,2.0957
27522,19.138,4.9091,0.1,0.0001064,1063.3,0.00010589,1048.9,-3.3704e-05,-0.0023136,-3.7466e-05,-28.266,2.0509
27523,19.229,5,0.1,0.00010434,1042.7,0.00010383,1028.3,-3.3025e-05,-0.00084294,-3.6778e-05,-28.202,2.0657
27524,18.954,4.9091,0.1,0.00011055,1104.7,0.00011006,1090.9,-3.5128e-05,-0.002068,-3.8743e-05,-27.164,2.021
27525,19.046,5,0.1,0.00010848,1084,0.00010799,1070.2,-3.4445e-05,-0.00065154,-3.8057e-05,-27.138,2.0358
27526,18.771,4.9091,0.1,0.00011472,1146.4,0.00011425,1133.1,-3.6556e-05,-0.0018429,-4.0033e-05,-26.128,1.9912
27527,18.863,5,0.1,0.00011264,1125.6,0.00011217,1112.3,-3.587e-05,-0.00048653,-3.9348e-05,-26.136,2.0059
27528,18.587,4.9091,0.1,0.00011891,1188.3,0.00011846,1175.5,-3.7988e-05,-0.001636,-4.1335e-05,-25.151,1.9615
27529,18.679,5,0.1,0.00011683,1167.5,0.00011638,1154.7,-3.7298e-05,-0.00032627,-4.0651e-05,-25.191,1.9762
27530,18.404,4.9091,0.1,0.00012312,1230.4,0.00012269,1218.1,-3.9425e-05,-0.0014538,-4.2649e-05,-24.228,1.9318
27531,18.496,5,0.1,0.00012103,1209.5,0.0001206,1197.2,-3.8731e-05,-0.00018892,-4.1965e-05,-24.298,1.9465
27532,18.22,4.9091,0.1,0.00012736,1272.7,0.00012695,1260.9,-4.0866e-05,-0.0012956,-4.3975e-05,-23.357,1.9022
27533,18.312,5,0.1,0.00012526,1251.7,0.00012485,1239.9,-4.0169e-05,-7.1953e-05,-4.329e-05,-23.453,1.9169
27534,18.037,4.9091,0.1,0.00013162,1315.2,0.00013122,1303.8,-4.2312e-05,-0.0011475,-4.5311e-05,-22.531,1.8728
27535,18.129,5,0.1,0.00012951,1294.2,0.00012911,1282.7,-4.1611e-05,2.4709e-05,-4.4626e-05,-22.652,1.8873
27536,17.853,4.9091,0.1,0.00013589,1358,0.00013551,1347,-4.3763e-05,-0.0010026,-4.6657e-05,-21.747,1.8434
27537,17.945,5,0.1,0.00013378,1336.9,0.00013339,1325.8,-4.3059e-05,0.0001282,-4.5972e-05,-21.891,1.8579
27538,17.67,4.9091,0.1,0.00014019,1401,0.00013982,1390.3,-4.5219e-05,-0.0008798,-4.8014e-05,-21.001,1.8141
27539,17.762,5,0.1,0.00013807,1379.8,0.0001377,1369.1,-4.4511e-05,0.00022451,-4.7328e-05,-21.167,1.8285
27540,17.486,4.9091,0.1,0.00014451,1444.1,0.00014416,1433.9,-4.6681e-05,-0.00076866,-4.9381e-05,-20.289,1.7849
27541,17.578,5,0.1,0.00014238,1422.9,0.00014202,1412.5,-4.5969e-05,0.00028919,-4.8694e-05,-20.477,1.7993
27542,17.303,4.9091,0.1,0.00014885,1487.5,0.00014851,1477.6,-4.8147e-05,-0.00065875,-5.0757e-05,-19.608,1.7558
27543,17.395,5,0.1,0.00014672,1466.2,0.00014637,1456.2,-4.7432e-05,0.00036555,-5.0069e-05,-19.816,1.7701
27544,17.119,4.9091,0.1,0.00015322,1531.1,0.00015289,1521.5,-4.962e-05,-0.00056057,-5.2142e-05,-18.955,1.7267
27545,17.211,5,0.1,0.00015107,1509.7,0.00015074,1500,-4.89e-05,0.00043207,-5.1453e-05,-19.182,1.7411
27546,16.936,4.9091,0.1,0.0001576,1574.9,0.00015728,1565.7,-5.1098e-05,-0.0004625,-5.3536e-05,-18.325,1.6978
27547,17.028,5,0.1,0.00015545,1553.4,0.00015512,1544,-5.0374e-05,0.00048912,-5.2846e-05,-18.573,1.7121
27548,16.753,4.9091,0.1,0.000162,1618.9,0.00016169,1610,-5.2581e-05,-0.00036682,-5.4939e-05,-17.717,1.669
27549,16.844,5,0.1,0.00015984,1597.3,0.00015953,1588.2,-5.1854e-05,0.00055879,-5.4248e-05,-17.984,1.6832
27550,16.569,4.9091,0.1,0.00016643,1663.1,0.00016613,1654.5,-5.4071e-05,-0.00028503,-5.635e-05,-17.127,1.6403
27551,16.661,5,0.1,0.00016426,1641.4,0.00016395,1632.7,-5.334e-05,0.00061436,-5.5658e-05,-17.413,1.6545
27552,16.386,4.9091,0.1,0.00017087,1707.5,0.00017058,1699.2,-5.5566e-05,-0.00021804,-5.7769e-05,-16.551,1.6117
27553,16.477,5,0.1,0.00016869,1685.8,0.0001684,1677.3,-5.4832e-05,0.00065803,-5.7075e-05,-16.857,1.6258
27554,16.202,4.9091,0.1,0.00017534,1752.2,0.00017506,1744.1,-5.7068e-05,-0.00014894,-5.9195e-05,-15.988,1.5833
27555,16.294,5,0.1,0.00017315,1730.3,0.00017287,1722.1,-5.6329e-05,0.00068605,-5.8501e-05,-16.314,1.5973
27556,16.019,4.9091,0.1,0.00017982,1797,0.00017955,1789.2,-5.8575e-05,-6.9532e-05,-6.0629e-05,-15.434,1.5549
27557,16.11,5,0.1,0.00017763,1775,0.00017735,1767.1,-5.7833e-05,0.00073684,-5.9934e-05,-15.781,1.5689
27558,15.835,4.9091,0.1,0.00018433,1842,0.00018407,1834.5,-6.0089e-05,-7.7022e-06,-6.207e-05,-14.886,1.5267
27559,15.927,5,0.1,0.00018212,1820,0.00018186,1812.3,-5.9343e-05,0.00078647,-6.1374e-05,-15.255,1.5406
27560,15.652,4.9091,0.1,0.00018885,1887.2,0.0001886,1880,-6.161e-05,4.9934e-05,-6.3518e-05,-14.341,1.4986
27561,15.743,5,0.1,0.00018664,1865.1,0.00018638,1857.7,-6.086e-05,0.00080303,-6.2821e-05,-14.734,1.5124
27562,15.468,4.9091,0.1,0.0001934,1932.6,0.00019316,1925.7,-6.3136e-05,0.00011675,-6.4973e-05,-13.797,1.4706
27563,15.56,5,0.1,0.00019118,1910.4,0.00019093,1903.3,-6.2383e-05,0.00084429,-6.4275e-05,-14.215,1.4843
27564,15.285,4.9091,0.1,0.00019796,1978.3,0.00019773,1971.6,-6.467e-05,0.00017788,-6.6434e-05,-13.251,1.4427
27565,15.376,5,0.1,0.00019573,1956,0.0001955,1949.1,-6.3912e-05,0.00087914,-6.5735e-05,-13.695,1.4564
27566,15.101,4.9091,0.1,0.00020255,2024.1,0.00020233,2017.7,-6.621e-05,0.0002491,-6.79e-05,-12.7,1.415
27567,15.193,5,0.1,0.00020031,2001.7,0.00020008,1995.1,-6.5448e-05,0.00090884,-6.7201e-05,-13.172,1.4286
27568,14.918,4.9091,0.1,0.00020715,2070.1,0.00020694,2064,-6.7757e-05,0.00032757,-6.9373e-05,-12.141,1.3874
27569,15.009,5,0.1,0.0002049,2047.6,0.00020469,2041.3,-6.6991e-05,0.00096245,-6.8674e-05,-12.643,1.401
27570,14.734,4.9091,0.1,0.00021177,2116.3,0.00021157,2110.4,-6.9311e-05,0.00039847,-7.0851e-05,-11.57,1.36
27571,14.826,5,0.1,0.00020952,2093.7,0.00020931,2087.7,-6.854e-05,0.001005,-7.0152e-05,-12.105,1.3735
27572,14.551,4.9091,0.1,0.00021641,2162.6,0.00021622,2157.1,-7.0872e-05,0.00046176,-7.2334e-05,-10.986,1.3327
27573,14.642,5,0.1,0.00021415,2140,0.00021395,2134.2,-7.0097e-05,0.0010412,-7.1635e-05,-11.555,1.3461
27574,14.367,4.9091,0.1,0.00022107,2209.2,0.0002209,2204,-7.2439e-05,0.00054176,-7.3822e-05,-10.384,1.3055
27575,14.459,5,0.1,0.00021881,2186.5,0.00021862,2181,-7.1661e-05,0.0010646,-7.3124e-05,-10.992,1.3188
27576,14.184,4.9091,0.1,0.00022575,2256,0.00022559,2251.1,-7.4015e-05,0.00064981,-7.5314e-05,-9.7611,1.2785
27577,14.276,5,0.1,0.00022348,2233.2,0.0002233,2228,-7.3231e-05,0.0011284,-7.4617e-05,-10.41,1.2917
27578,14,4.9091,0.1,0.00023045,2302.9,0.0002303,2298.4,-7.5597e-05,0.00075567,-7.681e-05,-9.1147,1.2517
27579,14.092,5,0.1,0.00022817,2280.1,0.000228,2275.2,-7.4809e-05,0.0012012,-7.6115e-05,-9.8084,1.2648
27580,13.817,4.9091,0.1,0.00023517,2350.1,0.00023502,2345.8,-7.7187e-05,0.00088173,-7.8311e-05,-8.4407,1.225
27581,13.909,5,0.1,0.00023288,2327.2,0.00023272,2322.6,-7.6394e-05,0.0012509,-7.7617e-05,-9.1829,1.238
27582,13.633,4.9091,0.1,0.0002399,2397.4,0.00023977,2393.5,-7.8785e-05,0.0010536,-7.9814e-05,-7.7355,1.1984
27583,13.725,5,0.1,0.00023761,2374.4,0.00023746,2370.2,-7.7987e-05,0.0013496,-7.9123e-05,-8.5302,1.2114
27584,13.45,4.9091,0.1,0.00024466,2444.9,0.00024454,2441.4,-8.039e-05,0.0012679,-8.1321e-05,-6.9952,1.172
27585,13.542,5,0.1,0.00024235,2421.9,0.00024222,2417.9,-7.9588e-05,0.00147,-8.0632e-05,-7.8469,1.1849
27586,13.266,4.9091,0.1,0.00024943,2492.6,0.00024932,2489.4,-8.2003e-05,0.0015704,-8.283e-05,-6.2158,1.1458
27587,13.358,5,0.1,0.00024712,2469.5,0.000247,2465.9,-8.1196e-05,0.0016232,-8.2145e-05,-7.1294,1.1586
27588,13.083,4.9091,0.1,0.00025422,2540.4,0.00025412,2537.7,-8.3624e-05,0.0019891,-8.4342e-05,-5.393,1.1197
27589,13.175,5,0.1,0.0002519,2517.3,0.00025179,2514.1,-8.2812e-05,0.0018715,-8.366e-05,-6.3737,1.1324
27590,12.899,4.9091,0.1,0.00025902,2588.4,0.00025895,2586.2,-8.5253e-05,0.0025934,-8.5855e-05,-4.5226,1.0939
27591,12.991,5,0.1,0.0002567,2565.3,0.00025661,2562.5,-8.4435e-05,0.0021744,-8.5178e-05,-5.576,1.1065
27592,12.716,4.9091,0.1,0.00026385,2636.6,0.00026378,2634.8,-8.689e-05,0.0036114,-8.737e-05,-3.5999,1.0681
27593,12.808,5,0.1,0.00026152,2613.4,0.00026144,2611,-8.6067e-05,0.0026419,-8.6698e-05,-4.7321,1.0807
27594,12.532,4.9091,0.1,0.00026869,2685,0.00026864,2683.7,-8.8536e-05,0.0055352,-8.8886e-05,-2.6204,1.0426
27595,12.624,5,0.1,0.00026636,2661.7,0.00026629,2659.8,-8.7708e-05,0.0034472,-8.8219e-05,-3.8375,1.055
27596,12.349,4.9091,0.1,0.00027354,2733.6,0.00027352,2732.8,-9.019e-05,0.010257,-9.0402e-05,-1.5811,1.0173
27597,12.441,5,0.1,0.00027121,2710.2,0.00027116,2708.8,-8.9356e-05,0.0048811,-8.9741e-05,-2.8881,1.0296
27598,12.165,4.9091,0.1,0.00027842,2782.3,0.00027841,2782,-9.185e-05,0.036832,-9.1921e-05,-0.49544,0.99209
27599,12.257,5,0.1,0.00027608,2758.9,0.00027605,2758,-9.1013e-05,0.0080903,-9.1265e-05,-1.88,1.0043
27600,11.982,4.9091,0.1,0.00028331,2831.1,0.00028332,2831.5,-9.3427e-05,0.75488,-9.3531e-05,-0.027434,0.9671
27601,12.074,5,0.1,0.00028097,2807.8,0.00028096,2807.4,-9.2678e-05,0.020446,-9.2789e-05,-0.8158,0.97924
27602,11.799,4.9091,0.1,0.00028821,2880.2,0.00028825,2881.2,-9.4943e-05,2.0051,-9.5211e-05,-0.0118,0.94231
27603,11.89,5,0.1,0.00028587,2856.8,0.00028588,2856.9,-9.4303e-05,0.39879,-9.4362e-05,-0.046723,0.95435
27604,11.615,4.9091,0.1,0.00029314,2929.3,0.00029319,2931,-9.6455e-05,3.3529,-9.6902e-05,-0.0081206,0.91771
27605,11.707,5,0.1,0.0002908,2905.9,0.00029082,2906.7,-9.5829e-05,1.5889,-9.6042e-05,-0.013294,0.92965
27606,11.432,4.9091,0.1,0.00029807,2978.7,0.00029816,2981.1,-9.7963e-05,4.795,-9.8603e-05,-0.0065622,0.89331
27607,11.523,5,0.1,0.00029573,2955.3,0.00029578,2956.7,-9.735e-05,2.8892,-9.7735e-05,-0.0084112,0.90515
27608,11.248,4.9091,0.1,0.00030303,3028.2,0.00030313,3031.3,-9.9469e-05,6.3362,-0.00010031,-0.0057759,0.86911
27609,11.34,5,0.1,0.00030069,3004.8,0.00030076,3006.9,-9.8868e-05,4.28,-9.9439e-05,-0.0065758,0.88084
27610,11.065,4.9091,0.1,0.000308,3077.8,0.00030813,3081.8,-0.00010097,7.9826,-0.00010203,-0.0053879,0.84511
27611,11.156,5,0.1,0.00030565,3054.4,0.00030575,3057.3,-0.00010038,5.7648,-0.00010115,-0.0057564,0.85673
27612,10.881,4.9091,0.1,0.00031298,3127.6,0.00031314,3132.5,-0.00010247,9.7404,-0.00010377,-0.0051966,0.82132
27613,10.973,5,0.1,0.00031064,3104.2,0.00031076,3107.9,-0.0001019,7.3486,-0.00010287,-0.0053757,0.83283
27614,10.698,4.9091,0.1,0.00031797,3177.5,0.00031817,3183.3,-0.00010396,11.616,-0.00010551,-0.0051441,0.79774
27615,10.789,5,0.1,0.00031564,3154.2,0.00031579,3158.7,-0.0001034,9.0371,-0.00010461,-0.005199,0.80914
27616,10.514,4.9091,0.1,0.00032298,3227.6,0.00032321,3234.4,-0.00010545,13.614,-0.00010726,-0.0052286,0.77438
27617,10.606,5,0.1,0.00032065,3204.3,0.00032083,3209.7,-0.00010491,10.835,-0.00010635,-0.005212,0.78567
27618,10.331,4.9091,0.1,0.00032801,3277.8,0.00032827,3285.7,-0.00010693,15.742,-0.00010902,-0.0054311,0.75123
27619,10.422,5,0.1,0.00032568,3254.5,0.00032589,3260.9,-0.00010641,12.747,-0.00010811,-0.0053714,0.7624
27620,10.147,4.9091,0.1,0.00033305,3328.2,0.00033335,3337.1,-0.0001084,18.002,-0.0001108,-0.005723,0.7283
27621,10.239,5,0.1,0.00033072,3304.9,0.00033097,3312.3,-0.0001079,14.777,-0.00010987,-0.0056591,0.73936
27622,9.9637,4.9091,0.1,0.0003381,3378.6,0.00033844,3388.8,-0.00010987,20.4,-0.00011258,-0.0060969,0.7056
27623,10.055,5,0.1,0.00033578,3355.5,0.00033606,3363.9,-0.00010939,16.928,-0.00011164,-0.0060222,0.71654
27624,9.7802,4.9091,0.1,0.00034316,3429.2,0.00034354,3440.6,-0.00011132,22.936,-0.00011438,-0.0065837,0.68312
27625,9.872,5,0.1,0.00034085,3406.1,0.00034117,3415.7,-0.00011087,19.202,-0.00011343,-0.0064913,0.69394
27626,9.5968,4.9091,0.1,0.00034823,3479.9,0.00034866,3492.7,-0.00011277,25.612,-0.00011618,-0.0071953,0.66087
27627,9.6885,5,0.1,0.00034593,3456.9,0.00034629,3467.7,-0.00011235,21.598,-0.00011523,-0.007093,0.67158
27628,9.4133,4.9091,0.1,0.00035332,3530.8,0.0003538,3544.9,-0.00011422,28.424,-0.000118,-0.0079472,0.63886
27629,9.505,5,0.1,0.00035103,3507.8,0.00035143,3519.8,-0.00011382,24.114,-0.00011703,-0.0078224,0.64945
27630,9.2298,4.9091,0.1,0.00035842,3581.7,0.00035894,3597.3,-0.00011565,31.368,-0.00011983,-0.0088692,0.61709
27631,9.3215,5,0.1,0.00035613,3558.9,0.00035658,3572.2,-0.00011529,26.744,-0.00011885,-0.0087118,0.62755
27632,9.0463,4.9091,0.1,0.00036353,3632.8,0.0003641,3649.9,-0.00011708,34.434,-0.00012167,-0.0099961,0.59556
27633,9.1381,5,0.1,0.00036125,3610,0.00036174,3624.7,-0.00011675,29.479,-0.00012067,-0.0097864,0.60589
27634,8.8628,4.9091,0.1,0.00036865,3683.9,0.00036927,3702.6,-0.00011851,37.607,-0.00012351,-0.011375,0.57427
27635,8.9546,5,0.1,0.00036638,3661.3,0.00036692,3677.3,-0.0001182,32.306,-0.0001225,-0.011088,0.58448
27636,8.6794,4.9091,0.1,0.00037377,3735.2,0.00037445,3755.4,-0.00011992,40.866,-0.00012537,-0.013068,0.55324
27637,8.7711,5,0.1,0.00037152,3712.6,0.0003721,3730.1,-0.00011965,35.205,-0.00012434,-0.012667,0.56331
27638,8.4959,4.9091,0.1,0.00037891,3786.5,0.00037964,3808.4,-0.00012134,44.185,-0.00012722,-0.015158,0.53245
27639,8.5876,5,0.1,0.00037666,3764,0.0003773,3783,-0.00012111,38.148,-0.00012619,-0.014593,0.5424
27640,8.3124,4.9091,0.1,0.00038405,3837.8,0.00038484,3861.4,-0.00012276,47.525,-0.00012908,-0.017752,0.51192
27641,8.4041,5,0.1,0.00038181,3815.5,0.0003825,3835.9,-0.00012256,41.102,-0.00012803,-0.016957,0.52174
27642,8.1289,4.9091,0.1,0.00038919,3889.3,0.00039003,3914.4,-0.00012418,50.84,-0.00013095,-0.020998,0.49165
27643,8.2206,5,0.1,0.00038697,3867,0.0003877,3888.8,-0.00012401,44.022,-0.00012988,-0.01988,0.50133
27644,7.9454,4.9091,0.1,0.00039434,3940.7,0.00039523,3967.4,-0.0001256,54.069,-0.0001328,-0.025097,0.47164
27645,8.0372,5,0.1,0.00039212,3918.5,0.00039289,3941.7,-0.00012548,46.85,-0.00013171,-0.023531,0.48119
27646,7.7619,4.9091,0.1,0.00039948,3992,0.00040042,4020.3,-0.00012704,57.138,-0.00013465,-0.030329,0.4519
27647,7.8537,5,0.1,0.00039726,3969.9,0.00039808,3994.4,-0.00012695,49.515,-0.00013354,-0.028143,0.46131
27648,7.5785,4.9091,0.1,0.0004046,4043.3,0.00040559,4072.9,-0.0001285,59.954,-0.00013648,-0.037091,0.43243
27649,7.6702,5,0.1,0.00040239,4021.1,0.00040325,4046.8,-0.00012844,51.933,-0.00013536,-0.034045,0.4417
27650,7.395,4.9091,0.1,0.00040971,4094.3,0.00041074,4125.1,-0.00012998,62.408,-0.00013829,-0.045958,0.41323
27651,7.4867,5,0.1,0.00040749,4072.1,0.00040838,4098.8,-0.00012995,53.997,-0.00013714,-0.041719,0.42236
27652,7.2115,4.9091,0.1,0.00041478,4145,0.00041584,4176.8,-0.00013149,64.368,-0.00014006,-0.057787,0.3943
27653,7.3032,5,0.1,0.00041255,4122.7,0.00041347,4150.2,-0.00013149,55.582,-0.00013889,-0.051884,0.40329
27654,7.028,4.9091,0.1,0.00041981,4195.2,0.00042088,4227.6,-0.00013303,65.677,-0.00014178,-0.07388,0.37566
27655,7.1198,5,0.1,0.00041756,4172.7,0.00041849,4200.7,-0.00013306,56.541,-0.00014059,-0.065645,0.38451
27656,6.8445,4.9091,0.1,0.00042475,4244.6,0.00042584,4277.2,-0.00013462,66.155,-0.00014344,-0.096295,0.3573
27657,6.9363,5,0.1,0.00042248,4221.9,0.00042341,4249.9,-0.00013467,56.702,-0.00014222,-0.084774,0.366
27658,6.6611,4.9091,0.1,0.00042959,4293,0.00043067,4325.3,-0.00013627,65.593,-0.00014501,-0.1284,0.33923
27659,6.7528,5,0.1,0.00042728,4269.8,0.0004282,4297.4,-0.00013632,55.866,-0.00014377,-0.11223,0.34778
27660,6.4776,4.9091,0.1,0.00043428,4339.8,0.00043533,4371.3,-0.00013797,63.754,-0.00014647,-0.17599,0.32144
27661,6.5693,5,0.1,0.00043191,4316.1,0.0004328,4342.7,-0.00013802,53.81,-0.0001452,-0.1532,0.32985
27662,6.2941,4.9091,0.1,0.00043877,4384.6,0.00043976,4414.4,-0.00013973,60.373,-0.00014779,-0.24961,0.30395
27663,6.3858,5,0.1,0.00043632,4360.2,0.00043715,4385,-0.00013977,50.285,-0.00014649,-0.21755,0.31221
27664,6.1106,4.9091,0.1,0.00044297,4426.6,0.00044387,4453.8,-0.00014154,55.154,-0.00014893,-0.37014,0.28676
27665,6.2024,5,0.1,0.00044042,4401.2,0.00044117,4423.4,-0.00014156,45.022,-0.00014759,-0.32569,0.29486
27666,5.9271,4.9091,0.1,0.00044679,4464.9,0.00044758,4488.3,-0.00014341,47.782,-0.00014985,-0.58403,0.26986
27667,6.0189,5,0.1,0.00044412,4438.2,0.00044474,4456.7,-0.00014338,37.747,-0.00014847,-0.52638,0.27782
27668,5.7437,4.9091,0.1,0.00045012,4498.1,0.00045074,4516.5,-0.00014532,37.949,-0.0001505,-1.0144,0.25327
27669,5.8354,5,0.1,0.00044729,4469.8,0.00044774,4483.3,-0.00014519,28.239,-0.00014908,-0.96429,0.26107
27670,5.5602,4.9091,0.1,0.0004528,4524.9,0.00045319,4536.6,-0.00014718,25.56,-0.00015086,-2.0963,0.23698
27671,5.6519,5,0.1,0.00044975,4494.4,0.00044999,4501.5,-0.00014691,16.702,-0.00014943,-2.2604,0.24462
27672,5.3767,4.9091,0.1,0.00045464,4543.3,0.00045474,4546.3,-0.0001487,12.242,-0.00015115,-6.1476,0.22099
27673,5.4684,5,0.1,0.0004513,4509.9,0.00045127,4509,-0.00014798,6.4407,-0.00014993,-8.2211,0.22847
27674,5.1932,4.9091,0.1,0.00045542,4551.1,0.00045514,4542.9,-0.00014882,5.035,-0.00015231,-21.184,0.20531
27675,5.285,5,0.1,0.00045169,4513.8,0.00045131,4502.7,-0.00014756,2.9998,-0.0001513,-25.035,0.21263
27676,5.0097,4.9091,0.1,0.00045489,4545.8,0.00045411,4523.2,-0.00014747,3.1866,-0.00015427,-47.907,0.18993
27677,5.1015,5,0.1,0.00045062,4503.1,0.0004498,4479.3,-0.00014607,2.1806,-0.00015293,-49.399,0.19709
27678,4.8263,4.9091,0.1,0.00045278,4524.6,0.00045132,4483.1,-0.00014499,2.6153,-0.00015659,-84.516,0.17486
27679,4.918,5,0.1,0.00044775,4474.4,0.00044636,4434.5,-0.00014358,1.9393,-0.00015457,-80.606,0.18185
27680,4.6428,4.9091,0.1,0.00044883,4485.2,0.00044644,4418,-0.00014123,2.4305,-0.00015936,-133.79,0.16009
27681,4.7345,5,0.1,0.00044272,4424.1,0.00044057,4363.6,-0.00013993,1.9086,-0.00015621,-120.41,0.16691
27682,4.4593,4.9091,0.1,0.00044291,4426,0.00043917,4323,-0.00013586,2.4235,-0.000163,-201.47,0.14561
27683,4.551,5,0.1,0.00043517,4348.7,0.00043202,4261,-0.00013482,1.9969,-0.00015801,-172.21,0.15226
27684,4.2758,4.9091,0.1,0.00043507,4347.7,0.00042929,4192.8,-0.0001284,2.562,-0.00016826,-296.93,0.13142
27685,4.3676,5,0.1,0.00042493,4246.3,0.00042032,4121.3,-0.0001279,2.163,-0.00016036,-241.72,0.13789
27686,4.0923,4.9091,0.1,0.00042592,4256.3,0.00041688,4023.4,-0.00011824,2.7084,-0.00017645,-434.66,0.11749
27687,4.1841,5,0.1,0.00041212,4118.4,0.00040535,3939.9,-0.00011869,2.4516,-0.00016404,-338.31,0.12379
27688,3.9088,4.9091,0.1,0.00041693,4166.4,0.0004025,3813.9,-0.00010465,3.2781,-0.00018957,-634.77,0.10381
27689,4.0006,5,0.1,0.00039772,3974.5,0.00038748,3715.6,-0.00010669,2.5972,-0.0001705,-476.85,0.10993
27690,3.7254,4.9091,0.1,0.00041154,4112.5,0.00038792,3572.1,-8.7195e-05,2.2086,-0.00021059,-924.9,0.090342
27691,3.8171,5,0.1,0.00038409,3838.2,0.00036804,3455.2,-9.135e-05,3.5111,-0.00018209,-678.27,0.096293
27692,3.5419,4.9091,0.1,0.00042507,4247.8,0.00038396,3380.5,-6.5084e-05,6.6258,-0.00025091,-1389.6,0.077033
27693,3.6336,5,0.1,0.00037665,3763.9,0.00035046,3180.6,-7.2748e-05,0.77467,-0.00020265,-975.24,0.082828
27694,3.4501,5,0.1,0.00040036,4000.8,0.00035313,3038.2,-4.9791e-05,10.878,-0.00025054,-1497.5,0.069481
27695,3.3584,4.9091,0.1,0.00035931,3590.6,0.00031583,2703.6,-4.4138e-05,-1.0715,-0.00022636,-1370.2,0.06382
27696,23.725,5.0909,0.1,1.4267e-05,142.57,9.2499e-06,57.894,1.527e-06,-0.13239,-1.2368e-05,-104.54,2.8135
27697,23.817,5.1818,0.1,1.2652e-05,126.43,7.3157e-06,39.417,2.0629e-06,-0.050805,-1.1511e-05,-102.04,2.8288
27698,23.908,5.0909,0.1,1.2614e-05,126.05,5.9994e-06,22.36,2.9704e-06,-0.39894,-1.2085e-05,-113.52,2.8443
27699,23.541,5.0909,0.1,1.6488e-05,164.76,1.2644e-05,94.804,4.806e-09,-0.16447,-1.2677e-05,-95.448,2.7826
27700,23.633,5.1818,0.1,1.4614e-05,146.04,1.0652e-05,75.828,5.2803e-07,-0.238,-1.1757e-05,-92.54,2.798
27701,23.358,5.0909,0.1,1.9158e-05,191.45,1.6101e-05,131.97,-1.473e-06,-0.080063,-1.3122e-05,-87.604,2.7518
27702,23.45,5.1818,0.1,1.7146e-05,171.34,1.4069e-05,112.69,-9.3887e-07,-0.076256,-1.2173e-05,-84.485,2.7672
27703,23.174,5.0909,0.1,2.2139e-05,221.23,1.9624e-05,169.4,-2.9293e-06,-0.061894,-1.3686e-05,-80.881,2.721
27704,23.266,5.1818,0.1,2.0057e-05,200.43,1.7569e-05,149.88,-2.3881e-06,-0.065576,-1.2729e-05,-77.767,2.7363
27705,22.991,5.0909,0.1,2.5338e-05,253.21,2.3211e-05,207.16,-4.3656e-06,-0.042845,-1.4353e-05,-75.087,2.6902
27706,23.083,5.1818,0.1,2.3226e-05,232.1,2.1144e-05,187.49,-3.8147e-06,-0.039718,-1.3404e-05,-72.092,2.7055
27707,22.807,5.0909,0.1,2.8697e-05,286.77,2.6856e-05,245.24,-5.7882e-06,-0.032133,-1.5108e-05,-70.059,2.6594
27708,22.899,5.1818,0.1,2.6576e-05,265.58,2.4785e-05,225.47,-5.2278e-06,-0.028496,-1.4175e-05,-67.253,2.6747
27709,22.624,5.0909,0.1,3.2175e-05,321.52,3.0551e-05,283.62,-7.2006e-06,-0.024068,-1.5935e-05,-65.649,2.6286
27710,22.716,5.1818,0.1,3.0055e-05,300.34,2.8481e-05,263.8,-6.6308e-06,-0.019526,-1.5021e-05,-63.063,2.6439
27711,22.44,5.0909,0.1,3.5742e-05,357.17,3.4289e-05,322.27,-8.6054e-06,-0.018362,-1.682e-05,-61.739,2.5979
27712,22.532,5.1818,0.1,3.363e-05,336.07,3.2224e-05,302.41,-8.0269e-06,-0.013624,-1.5929e-05,-59.383,2.6132
27713,22.257,5.0909,0.1,3.938e-05,393.53,3.8065e-05,361.16,-1.0005e-05,-0.014093,-1.7754e-05,-58.237,2.5671
27714,22.349,5.1818,0.1,3.7278e-05,372.52,3.6005e-05,341.28,-9.4182e-06,-0.009303,-1.6884e-05,-56.108,2.5824
27715,22.073,5.0909,0.1,4.3076e-05,430.46,4.1873e-05,400.27,-1.14e-05,-0.01088,-1.8729e-05,-55.074,2.5364
27716,22.165,5.1818,0.1,4.0983e-05,409.55,3.9819e-05,380.37,-1.0806e-05,-0.0061807,-1.788e-05,-53.16,2.5517
27717,21.89,5.0909,0.1,4.6818e-05,467.86,4.5711e-05,439.57,-1.2793e-05,-0.0084168,-1.9739e-05,-52.194,2.5057
27718,21.982,5.1818,0.1,4.4736e-05,447.05,4.3662e-05,419.66,-1.2192e-05,-0.0038716,-1.891e-05,-50.482,2.521
27719,21.706,5.0909,0.1,5.0601e-05,505.66,4.9576e-05,479.06,-1.4184e-05,-0.0065055,-2.0779e-05,-49.555,2.4751
27720,21.798,5.1818,0.1,4.8527e-05,484.94,4.7531e-05,459.14,-1.3576e-05,-0.0021506,-1.9968e-05,-48.031,2.4903
27721,21.523,5.0909,0.1,5.442e-05,543.82,5.3464e-05,518.72,-1.5574e-05,-0.0050032,-2.1845e-05,-47.126,2.4445
27722,21.615,5.1818,0.1,5.2354e-05,523.17,5.1424e-05,498.78,-1.496e-05,-0.0008545,-2.1052e-05,-45.773,2.4597
27723,21.34,5.0909,0.1,5.827e-05,582.3,5.7376e-05,558.56,-1.6963e-05,-0.0038172,-2.2936e-05,-44.879,2.4139
27724,21.431,5.1818,0.1,5.621e-05,561.71,5.534e-05,538.6,-1.6343e-05,0.00012873,-2.2157e-05,-43.684,2.4291
27725,21.156,5.0909,0.1,6.2149e-05,621.06,6.131e-05,598.56,-1.8353e-05,-0.0028715,-2.4048e-05,-42.795,2.3833
27726,21.248,5.1818,0.1,6.0095e-05,600.53,5.9276e-05,578.57,-1.7728e-05,0.00086561,-2.3283e-05,-41.743,2.3985
27727,20.973,5.0909,0.1,6.6056e-05,660.1,6.5266e-05,638.72,-1.9743e-05,-0.0021078,-2.5181e-05,-40.856,2.3528
27728,21.064,5.1818,0.1,6.4005e-05,639.61,6.3232e-05,618.71,-1.9113e-05,0.0014331,-2.4428e-05,-39.934,2.368
27729,20.789,5.0909,0.1,6.9988e-05,699.4,6.9242e-05,679.05,-2.1135e-05,-0.0014902,-2.6332e-05,-39.047,2.3224
27730,20.881,5.1818,0.1,6.7941e-05,678.94,6.7209e-05,659.01,-2.0499e-05,0.0018609,-2.5589e-05,-38.244,2.3375
27731,20.606,5.0909,0.1,7.3945e-05,738.94,7.3238e-05,719.55,-2.2528e-05,-0.00098367,-2.75e-05,-37.358,2.2919
27732,20.697,5.1818,0.1,7.1899e-05,718.5,7.1205e-05,699.46,-2.1887e-05,0.0021862,-2.6767e-05,-36.662,2.307
27733,20.422,5.0909,0.1,7.7925e-05,778.72,7.7255e-05,760.21,-2.3923e-05,-0.00056511,-2.8684e-05,-35.777,2.2616
27734,20.514,5.1818,0.1,7.588e-05,758.28,7.5221e-05,740.08,-2.3278e-05,0.0024374,-2.796e-05,-35.179,2.2766
27735,20.239,5.0909,0.1,8.1929e-05,818.73,8.1292e-05,801.04,-2.532e-05,-0.00022198,-2.9885e-05,-34.296,2.2313
27736,20.33,5.1818,0.1,7.9884e-05,798.29,7.9256e-05,780.86,-2.467e-05,0.0026237,-2.9167e-05,-33.787,2.2463
27737,20.055,5.0909,0.1,8.5956e-05,858.96,8.5349e-05,842.04,-2.672e-05,5.7089e-05,-3.1099e-05,-32.907,2.201
27738,20.147,5.1818,0.1,8.3909e-05,838.51,8.331e-05,821.8,-2.6065e-05,0.0027589,-3.0388e-05,-32.478,2.216
27739,19.872,5.0909,0.1,9.0005e-05,899.43,8.9425e-05,883.21,-2.8122e-05,0.00029172,-3.2328e-05,-31.603,2.1708
27740,19.963,5.1818,0.1,8.7956e-05,878.95,8.7383e-05,862.92,-2.7464e-05,0.0028493,-3.1623e-05,-31.246,2.1858
27741,19.688,5.0909,0.1,9.4076e-05,940.11,9.3522e-05,924.55,-2.9528e-05,0.00049549,-3.3571e-05,-30.378,2.1406
27742,19.78,5.1818,0.1,9.2024e-05,919.61,9.1476e-05,904.2,-2.8865e-05,0.0029242,-3.287e-05,-30.086,2.1556
27743,19.505,5.0909,0.1,9.8168e-05,981.01,9.7639e-05,966.07,-3.0937e-05,0.0006607,-3.4827e-05,-29.225,2.1106
27744,19.596,5.1818,0.1,9.6114e-05,960.47,9.5588e-05,945.65,-3.027e-05,0.0029763,-3.4129e-05,-28.993,2.1255
27745,19.321,5.0909,0.1,0.00010228,1022.1,0.00010178,1007.8,-3.235e-05,0.00079858,-3.6095e-05,-28.14,2.0805
27746,19.413,5.1818,0.1,0.00010022,1001.5,9.9719e-05,987.27,-3.1679e-05,0.002995,-3.5401e-05,-27.962,2.0954
27747,19.138,5.0909,0.1,0.00010642,1063.5,0.00010593,1049.6,-3.3766e-05,0.00092082,-3.7375e-05,-27.117,2.0506
27748,19.229,5.1818,0.1,0.00010436,1042.8,0.00010387,1029.1,-3.3091e-05,0.0030143,-3.6684e-05,-26.988,2.0654
27749,18.954,5.0909,0.1,0.00011058,1105,0.00011011,1091.7,-3.5187e-05,0.0010217,-3.8668e-05,-26.151,2.0207
27750,19.046,5.1818,0.1,0.00010851,1084.3,0.00010804,1071.1,-3.4508e-05,0.003019,-3.7978e-05,-26.067,2.0355
27751,18.771,5.0909,0.1,0.00011475,1146.8,0.0001143,1133.9,-3.6612e-05,0.0011129,-3.9971e-05,-25.24,1.9909
27752,18.863,5.1818,0.1,0.00011268,1126,0.00011223,1113.2,-3.5929e-05,0.003013,-3.9283e-05,-25.196,2.0056
27753,18.587,5.0909,0.1,0.00011895,1188.7,0.00011852,1176.3,-3.8041e-05,0.0011955,-4.1286e-05,-24.377,1.9612
27754,18.679,5.1818,0.1,0.00011687,1167.9,0.00011644,1155.6,-3.7355e-05,0.0030141,-4.0599e-05,-24.371,1.9759
27755,18.404,5.0909,0.1,0.00012318,1230.9,0.00012276,1219,-3.9475e-05,0.0012602,-4.2611e-05,-23.561,1.9315
27756,18.496,5.1818,0.1,0.00012109,1210,0.00012067,1198.1,-3.8785e-05,0.003002,-4.1925e-05,-23.589,1.9462
27757,18.22,5.0909,0.1,0.00012742,1273.3,0.00012701,1261.8,-4.0914e-05,0.0013089,-4.3947e-05,-22.786,1.9019
27758,18.312,5.1818,0.1,0.00012532,1252.4,0.00012492,1240.8,-4.022e-05,0.0029807,-4.3261e-05,-22.846,1.9165
27759,18.037,5.0909,0.1,0.00013168,1315.9,0.00013129,1304.7,-4.2358e-05,0.0013547,-4.5292e-05,-22.05,1.8724
27760,18.129,5.1818,0.1,0.00012958,1294.9,0.00012919,1283.7,-4.166e-05,0.0029479,-4.4606e-05,-22.139,1.887
27761,17.853,5.0909,0.1,0.00013596,1358.7,0.00013559,1347.9,-4.3806e-05,0.001404,-4.6648e-05,-21.348,1.843
27762,17.945,5.1818,0.1,0.00013386,1337.6,0.00013348,1326.8,-4.3105e-05,0.0029309,-4.5962e-05,-21.465,1.8575
27763,17.67,5.0909,0.1,0.00014027,1401.7,0.00013991,1391.3,-4.526e-05,0.001437,-4.8013e-05,-20.679,1.8137
27764,17.762,5.1818,0.1,0.00013815,1380.6,0.00013779,1370,-4.4555e-05,0.0029132,-4.7326e-05,-20.821,1.8282
27765,17.486,5.0909,0.1,0.00014459,1444.9,0.00014424,1434.8,-4.672e-05,0.0014621,-4.9387e-05,-20.039,1.7845
27766,17.578,5.1818,0.1,0.00014247,1423.7,0.00014212,1413.5,-4.601e-05,0.0028713,-4.87e-05,-20.205,1.7989
27767,17.303,5.0909,0.1,0.00014894,1488.4,0.0001486,1478.6,-4.8185e-05,0.0014906,-5.077e-05,-19.425,1.7554
27768,17.395,5.1818,0.1,0.00014681,1467.1,0.00014646,1457.2,-4.7471e-05,0.0028464,-5.0082e-05,-19.614,1.7697
27769,17.119,5.0909,0.1,0.00015331,1532,0.00015298,1522.5,-4.9655e-05,0.0015118,-5.2162e-05,-18.835,1.7264
27770,17.211,5.1818,0.1,0.00015117,1510.6,0.00015083,1501,-4.8938e-05,0.0028176,-5.1473e-05,-19.046,1.7407
27771,16.936,5.0909,0.1,0.00015769,1575.8,0.00015737,1566.6,-5.1131e-05,0.0015366,-5.3562e-05,-18.265,1.6974
27772,17.028,5.1818,0.1,0.00015554,1554.4,0.00015522,1545,-5.041e-05,0.0027844,-5.2873e-05,-18.498,1.7117
27773,16.753,5.0909,0.1,0.0001621,1619.9,0.00016179,1611,-5.2613e-05,0.0015624,-5.4971e-05,-17.713,1.6686
27774,16.844,5.1818,0.1,0.00015994,1598.3,0.00015963,1589.3,-5.1889e-05,0.0027665,-5.428e-05,-17.967,1.6828
27775,16.569,5.0909,0.1,0.00016653,1664.1,0.00016623,1655.5,-5.4101e-05,0.0015764,-5.6387e-05,-17.176,1.6399
27776,16.661,5.1818,0.1,0.00016436,1642.5,0.00016406,1633.7,-5.3373e-05,0.0027401,-5.5696e-05,-17.452,1.6541
27777,16.386,5.0909,0.1,0.00017098,1708.6,0.00017069,1700.2,-5.5595e-05,0.0015777,-5.7812e-05,-16.652,1.6113
27778,16.477,5.1818,0.1,0.0001688,1686.9,0.00016851,1678.3,-5.4863e-05,0.0027032,-5.7119e-05,-16.949,1.6254
27779,16.202,5.0909,0.1,0.00017544,1753.2,0.00017516,1745.1,-5.7095e-05,0.0015842,-5.9243e-05,-16.139,1.5829
27780,16.294,5.1818,0.1,0.00017326,1731.4,0.00017298,1723.1,-5.6359e-05,0.002654,-5.855e-05,-16.458,1.5969
27781,16.019,5.0909,0.1,0.00017993,1798.1,0.00017966,1790.2,-5.8601e-05,0.001602,-6.0682e-05,-15.634,1.5545
27782,16.11,5.1818,0.1,0.00017774,1776.2,0.00017746,1768.1,-5.7861e-05,0.0026305,-5.9988e-05,-15.975,1.5684
27783,15.835,5.0909,0.1,0.00018444,1843.1,0.00018418,1835.5,-6.0114e-05,0.0016032,-6.2128e-05,-15.134,1.5262
27784,15.927,5.1818,0.1,0.00018224,1821.1,0.00018197,1813.3,-5.937e-05,0.0026061,-6.1433e-05,-15.498,1.5401
27785,15.652,5.0909,0.1,0.00018897,1888.4,0.00018871,1881,-6.1633e-05,0.0016003,-6.3581e-05,-14.638,1.4981
27786,15.743,5.1818,0.1,0.00018676,1866.3,0.0001865,1858.8,-6.0885e-05,0.0025502,-6.2885e-05,-15.026,1.5119
27787,15.468,5.0909,0.1,0.00019352,1933.8,0.00019327,1926.7,-6.3158e-05,0.0016065,-6.5041e-05,-14.142,1.4701
27788,15.56,5.1818,0.1,0.0001913,1911.7,0.00019105,1904.4,-6.2406e-05,0.0025194,-6.4344e-05,-14.555,1.4839
27789,15.285,5.0909,0.1,0.00019808,1979.5,0.00019785,1972.6,-6.469e-05,0.0016067,-6.6507e-05,-13.645,1.4423
27790,15.376,5.1818,0.1,0.00019586,1957.2,0.00019562,1950.2,-6.3934e-05,0.0024816,-6.5809e-05,-14.085,1.4559
27791,15.101,5.0909,0.1,0.00020267,2025.3,0.00020244,2018.7,-6.6229e-05,0.0016156,-6.7979e-05,-13.144,1.4145
27792,15.193,5.1818,0.1,0.00020044,2003,0.0002002,1996.2,-6.5469e-05,0.0024382,-6.7281e-05,-13.612,1.4281
27793,14.918,5.0909,0.1,0.00020728,2071.3,0.00020706,2065,-6.7774e-05,0.00163,-6.9456e-05,-12.636,1.3869
27794,15.009,5.1818,0.1,0.00020504,2048.9,0.00020481,2042.3,-6.701e-05,0.0024164,-6.8758e-05,-13.134,1.4005
27795,14.734,5.0909,0.1,0.0002119,2117.6,0.00021169,2111.5,-6.9327e-05,0.0016344,-7.094e-05,-12.118,1.3595
27796,14.826,5.1818,0.1,0.00020965,2095.1,0.00020944,2088.7,-6.8558e-05,0.0023824,-7.0242e-05,-12.649,1.3729
27797,14.551,5.0909,0.1,0.00021655,2164,0.00021635,2158.2,-7.0886e-05,0.0016272,-7.2429e-05,-11.589,1.3322
27798,14.642,5.1818,0.1,0.00021429,2141.4,0.00021408,2135.3,-7.0113e-05,0.0023368,-7.1731e-05,-12.155,1.3455
27799,14.367,5.0909,0.1,0.00022121,2210.6,0.00022102,2205.1,-7.2452e-05,0.0016307,-7.3923e-05,-11.045,1.305
27800,14.459,5.1818,0.1,0.00021895,2188,0.00021875,2182.1,-7.1675e-05,0.0022759,-7.3226e-05,-11.649,1.3183
27801,14.184,5.0909,0.1,0.0002259,2257.4,0.00022572,2252.1,-7.4026e-05,0.0016555,-7.5421e-05,-10.484,1.278
27802,14.276,5.1818,0.1,0.00022362,2234.7,0.00022343,2229.1,-7.3244e-05,0.0022474,-7.4725e-05,-11.129,1.2912
27803,14,5.0909,0.1,0.0002306,2304.4,0.00023043,2299.4,-7.5607e-05,0.0016685,-7.6925e-05,-9.9029,1.2511
27804,14.092,5.1818,0.1,0.00022832,2281.6,0.00022814,2276.3,-7.482e-05,0.0022207,-7.623e-05,-10.591,1.2642
27805,13.817,5.0909,0.1,0.00023532,2351.6,0.00023516,2346.9,-7.7195e-05,0.0016874,-7.8432e-05,-9.2983,1.2244
27806,13.909,5.1818,0.1,0.00023303,2328.7,0.00023286,2323.7,-7.6404e-05,0.0021593,-7.7739e-05,-10.034,1.2374
27807,13.633,5.0909,0.1,0.00024006,2399,0.00023991,2394.6,-7.879e-05,0.0017316,-7.9944e-05,-8.6671,1.1978
27808,13.725,5.1818,0.1,0.00023777,2376,0.00023761,2371.3,-7.7994e-05,0.0021321,-7.9253e-05,-9.4549,1.2108
27809,13.45,5.0909,0.1,0.00024482,2446.5,0.00024468,2442.5,-8.0393e-05,0.0017892,-8.1459e-05,-8.0062,1.1714
27810,13.542,5.1818,0.1,0.00024252,2423.5,0.00024237,2419.1,-7.9593e-05,0.0021063,-8.0771e-05,-8.85,1.1843
27811,13.266,5.0909,0.1,0.0002496,2494.2,0.00024947,2490.6,-8.2004e-05,0.0018897,-8.2978e-05,-7.312,1.1452
27812,13.358,5.1818,0.1,0.00024729,2471.2,0.00024715,2467.1,-8.1199e-05,0.0020834,-8.2293e-05,-8.2165,1.158
27813,13.083,5.0909,0.1,0.00025439,2542.2,0.00025428,2538.9,-8.3623e-05,0.0020307,-8.4499e-05,-6.5809,1.1191
27814,13.175,5.1818,0.1,0.00025208,2519.1,0.00025195,2515.3,-8.2812e-05,0.0021115,-8.3818e-05,-7.5512,1.1318
27815,12.899,5.0909,0.1,0.00025921,2590.3,0.00025911,2587.4,-8.525e-05,0.0022223,-8.6023e-05,-5.8093,1.0932
27816,12.991,5.1818,0.1,0.00025689,2567.1,0.00025677,2563.7,-8.4434e-05,0.0021245,-8.5346e-05,-6.8509,1.1058
27817,12.716,5.0909,0.1,0.00026404,2638.6,0.00026395,2636.1,-8.6885e-05,0.0025498,-8.755e-05,-4.9932,1.0675
27818,12.808,5.1818,0.1,0.00026172,2615.4,0.00026161,2612.3,-8.6063e-05,0.0021818,-8.6877e-05,-6.112,1.08
27819,12.532,5.0909,0.1,0.00026889,2687,0.00026882,2684.9,-8.8528e-05,0.0030974,-8.9078e-05,-4.1284,1.042
27820,12.624,5.1818,0.1,0.00026656,2663.8,0.00026647,2661.1,-8.7701e-05,0.0023475,-8.8411e-05,-5.3307,1.0544
27821,12.349,5.0909,0.1,0.00027375,2735.6,0.0002737,2734,-9.0179e-05,0.0040541,-9.0607e-05,-3.2109,1.0166
27822,12.441,5.1818,0.1,0.00027142,2712.4,0.00027135,2710.1,-8.9347e-05,0.0026224,-8.9946e-05,-4.5034,1.0289
27823,12.165,5.0909,0.1,0.00027864,2784.5,0.0002786,2783.3,-9.1839e-05,0.0060463,-9.2138e-05,-2.2368,0.99142
27824,12.257,5.1818,0.1,0.0002763,2761.1,0.00027624,2759.3,-9.1001e-05,0.0031241,-9.1484e-05,-3.6262,1.0036
27825,11.982,5.0909,0.1,0.00028354,2833.4,0.00028352,2832.8,-9.3507e-05,0.012009,-9.3669e-05,-1.2044,0.96643
27826,12.074,5.1818,0.1,0.0002812,2810.1,0.00028116,2808.7,-9.2663e-05,0.0041467,-9.3023e-05,-2.6952,0.97855
27827,11.799,5.0909,0.1,0.00028846,2882.6,0.00028846,2882.6,-9.5175e-05,0.089993,-9.5211e-05,-0.17679,0.94163
27828,11.89,5.1818,0.1,0.00028612,2859.2,0.00028609,2858.4,-9.4334e-05,0.0067833,-9.4563e-05,-1.7072,0.95364
27829,11.615,5.0909,0.1,0.00029339,2931.9,0.00029341,2932.5,-9.6727e-05,1.107,-9.6876e-05,-0.016222,0.91702
27830,11.707,5.1818,0.1,0.00029105,2908.5,0.00029104,2908.2,-9.6013e-05,0.018827,-9.6104e-05,-0.66566,0.92893
27831,11.432,5.0909,0.1,0.00029835,2981.4,0.00029839,2982.6,-9.8257e-05,2.3543,-9.8572e-05,-0.0088004,0.89261
27832,11.523,5.1818,0.1,0.000296,2958,0.00029601,2958.2,-9.7638e-05,0.50226,-9.7709e-05,-0.028248,0.90441
27833,11.248,5.0909,0.1,0.00030331,3031.1,0.00030338,3032.9,-9.9785e-05,3.6888,-0.00010028,-0.0066078,0.8684
27834,11.34,5.1818,0.1,0.00030097,3007.7,0.000301,3008.5,-9.918e-05,1.6767,-9.9405e-05,-0.0099347,0.8801
27835,11.065,5.0909,0.1,0.0003083,3080.9,0.00030839,3083.4,-0.00010131,5.1115,-0.00010199,-0.0057233,0.84439
27836,11.156,5.1818,0.1,0.00030596,3057.5,0.00030601,3058.9,-0.00010072,2.9423,-0.00010111,-0.0068823,0.85598
27837,10.881,5.0909,0.1,0.0003133,3130.8,0.00031341,3134.1,-0.00010283,6.6265,-0.00010372,-0.0053432,0.82059
27838,10.973,5.1818,0.1,0.00031096,3107.4,0.00031103,3109.6,-0.00010226,4.2902,-0.00010283,-0.0058683,0.83207
27839,10.698,5.0909,0.1,0.00031832,3181,0.00031846,3185.1,-0.00010436,8.238,-0.00010545,-0.0052357,0.797
27840,10.789,5.1818,0.1,0.00031598,3157.6,0.00031607,3160.5,-0.00010379,5.7232,-0.00010456,-0.0054989,0.80837
27841,10.514,5.0909,0.1,0.00032335,3231.2,0.00032352,3236.2,-0.00010587,9.9497,-0.0001072,-0.0053334,0.77362
27842,10.606,5.1818,0.1,0.00032101,3207.9,0.00032113,3211.5,-0.00010533,7.244,-0.00010629,-0.0054892,0.78488
27843,10.331,5.0909,0.1,0.00032839,3281.7,0.00032859,3287.5,-0.00010739,11.765,-0.00010895,-0.0055901,0.75046
27844,10.422,5.1818,0.1,0.00032606,3258.4,0.00032621,3262.8,-0.00010686,8.8557,-0.00010804,-0.0057067,0.76161
27845,10.147,5.0909,0.1,0.00033346,3332.3,0.00033369,3339.1,-0.0001089,13.686,-0.00011072,-0.0059622,0.72753
27846,10.239,5.1818,0.1,0.00033113,3309,0.00033131,3314.3,-0.00010839,10.56,-0.0001098,-0.0060974,0.73855
27847,9.9637,5.0909,0.1,0.00033853,3383,0.0003388,3390.8,-0.0001104,15.714,-0.00011249,-0.0064342,0.70481
27848,10.055,5.1818,0.1,0.00033621,3359.8,0.00033642,3365.9,-0.00010992,12.358,-0.00011156,-0.00659,0.71572
27849,9.7802,5.0909,0.1,0.00034362,3433.8,0.00034392,3442.7,-0.0001119,17.847,-0.00011428,-0.0070324,0.68233
27850,9.872,5.1818,0.1,0.00034131,3410.7,0.00034155,3417.8,-0.00011144,14.249,-0.00011334,-0.0072072,0.69312
27851,9.5968,5.0909,0.1,0.00034872,3484.8,0.00034906,3494.8,-0.0001134,20.084,-0.00011607,-0.0077664,0.66007
27852,9.6885,5.1818,0.1,0.00034642,3461.8,0.00034669,3469.8,-0.00011296,16.23,-0.00011512,-0.0079685,0.67074
27853,9.4133,5.0909,0.1,0.00035384,3536,0.00035422,3547.1,-0.00011489,22.418,-0.00011788,-0.0086486,0.63805
27854,9.505,5.1818,0.1,0.00035154,3513,0.00035185,3522.1,-0.00011448,18.296,-0.00011691,-0.0088662,0.6486
27855,9.2298,5.0909,0.1,0.00035897,3587.2,0.00035938,3599.6,-0.00011638,24.841,-0.00011969,-0.0097066,0.61627
27856,9.3215,5.1818,0.1,0.00035668,3564.3,0.00035702,3574.5,-0.00011599,20.439,-0.00011871,-0.0099273,0.6267
27857,9.0463,5.0909,0.1,0.00036411,3638.6,0.00036456,3652.1,-0.00011787,27.338,-0.00012151,-0.010973,0.59473
27858,9.1381,5.1818,0.1,0.00036182,3615.7,0.0003622,3627,-0.00011751,22.648,-0.00012052,-0.011175,0.60503
27859,8.8628,5.0909,0.1,0.00036925,3690,0.00036975,3704.8,-0.00011935,29.891,-0.00012333,-0.012492,0.57344
27860,8.9546,5.1818,0.1,0.00036698,3667.3,0.0003674,3679.7,-0.00011902,24.903,-0.00012234,-0.012644,0.58361
27861,8.6794,5.0909,0.1,0.00037441,3741.5,0.00037495,3757.6,-0.00012084,32.474,-0.00012516,-0.014324,0.55239
27862,8.7711,5.1818,0.1,0.00037215,3718.9,0.0003726,3732.4,-0.00012053,27.184,-0.00012415,-0.014381,0.56243
27863,8.4959,5.0909,0.1,0.00037957,3793.1,0.00038016,3810.5,-0.00012232,35.053,-0.00012699,-0.016546,0.5316
27864,8.5876,5.1818,0.1,0.00037732,3770.6,0.00037781,3785.2,-0.00012205,29.46,-0.00012597,-0.016449,0.54151
27865,8.3124,5.0909,0.1,0.00038473,3844.7,0.00038536,3863.3,-0.00012382,37.586,-0.00012882,-0.019263,0.51106
27866,8.4041,5.1818,0.1,0.00038249,3822.3,0.00038302,3838,-0.00012357,31.692,-0.00012779,-0.018928,0.52084
27867,8.1289,5.0909,0.1,0.00038989,3896.2,0.00039056,3916.1,-0.00012531,40.019,-0.00013064,-0.022619,0.49078
27868,8.2206,5.1818,0.1,0.00038766,3873.9,0.00038823,3890.7,-0.0001251,33.832,-0.0001296,-0.021934,0.50043
27869,7.9454,5.0909,0.1,0.00039504,3947.7,0.00039575,3968.7,-0.00012682,42.283,-0.00013246,-0.026816,0.47077
27870,8.0372,5.1818,0.1,0.00039282,3925.5,0.00039342,3943.3,-0.00012663,35.818,-0.0001314,-0.025623,0.48028
27871,7.7619,5.0909,0.1,0.00040018,3999,0.00040091,4020.9,-0.00012835,44.298,-0.00013425,-0.032139,0.45102
27872,7.8537,5.1818,0.1,0.00039796,3976.9,0.00039859,3995.5,-0.00012818,37.577,-0.00013319,-0.030219,0.46039
27873,7.5785,5.0909,0.1,0.00040528,4050,0.00040604,4072.8,-0.00012989,45.962,-0.00013602,-0.039007,0.43154
27874,7.6702,5.1818,0.1,0.00040307,4027.9,0.00040372,4047.3,-0.00012975,39.017,-0.00013494,-0.036052,0.44077
27875,7.395,5.0909,0.1,0.00041034,4100.6,0.00041112,4123.9,-0.00013146,47.157,-0.00013774,-0.048051,0.41233
27876,7.4867,5.1818,0.1,0.00040814,4078.5,0.0004088,4098.4,-0.00013133,40.03,-0.00013667,-0.04362,0.42143
27877,7.2115,5.0909,0.1,0.00041533,4150.5,0.00041612,4174.1,-0.00013306,47.741,-0.00013942,-0.060262,0.39341
27878,7.3032,5.1818,0.1,0.00041313,4128.5,0.0004138,4148.5,-0.00013294,40.486,-0.00013834,-0.053712,0.40235
27879,7.028,5.0909,0.1,0.00042023,4199.4,0.00042102,4223,-0.00013469,47.55,-0.00014103,-0.077251,0.37476
27880,7.1198,5.1818,0.1,0.00041803,4177.4,0.0004187,4197.4,-0.00013458,40.235,-0.00013994,-0.067624,0.38356
27881,6.8445,5.0909,0.1,0.000425,4247.1,0.00042577,4270.1,-0.00013636,46.397,-0.00014255,-0.10179,0.35639
27882,6.9363,5.1818,0.1,0.0004228,4225.1,0.00042345,4244.5,-0.00013625,39.102,-0.00014146,-0.087619,0.36505
27883,6.6611,5.0909,0.1,0.0004296,4293,0.00043033,4314.8,-0.00013807,44.068,-0.00014396,-0.13893,0.33831
27884,6.7528,5.1818,0.1,0.00042739,4271,0.00042801,4289.2,-0.00013795,36.892,-0.00014287,-0.11793,0.34683
27885,6.4776,5.0909,0.1,0.00043395,4336.5,0.00043462,4356.5,-0.00013982,40.329,-0.00014521,-0.19875,0.32052
27886,6.5693,5.1818,0.1,0.00043174,4314.4,0.00043229,4330.9,-0.00013967,33.385,-0.00014414,-0.16726,0.32889
27887,6.2941,5.0909,0.1,0.00043798,4376.8,0.00043856,4394,-0.0001416,34.934,-0.00014629,-0.30383,0.30303
27888,6.3858,5.1818,0.1,0.00043576,4354.6,0.00043623,4368.6,-0.00014142,28.354,-0.00014522,-0.25609,0.31124
27889,6.1106,5.0909,0.1,0.00044158,4412.8,0.00044204,4426.3,-0.00014338,27.648,-0.00014713,-0.51488,0.28582
27890,6.2024,5.1818,0.1,0.00043935,4390.5,0.0004397,4401,-0.00014316,21.585,-0.00014609,-0.44418,0.29389
27891,5.9271,5.0909,0.1,0.00044461,4443.1,0.0004449,4451.7,-0.00014513,18.375,-0.00014772,-1.0534,0.26892
27892,6.0189,5.1818,0.1,0.00044237,4420.7,0.00044257,4426.7,-0.00014484,13.046,-0.00014671,-0.98718,0.27683
27893,5.7437,5.0909,0.1,0.0004469,4465.9,0.00044698,4468.3,-0.00014663,8.1343,-0.00014815,-3.2822,0.25232
27894,5.8354,5.1818,0.1,0.00044465,4443.4,0.00044466,4443.7,-0.00014617,4.4824,-0.00014728,-3.9309,0.26007
27895,5.5602,5.0909,0.1,0.00044822,4479.1,0.00044804,4473.8,-0.00014702,2.7807,-0.00014917,-13.432,0.23601
27896,5.6519,5.1818,0.1,0.00044597,4456.6,0.00044573,4449.7,-0.00014628,1.6057,-0.00014853,-15.294,0.24361
27897,5.3767,5.0909,0.1,0.00044831,4480,0.00044779,4465.1,-0.00014625,1.6921,-0.00015064,-31.307,0.22001
27898,5.4684,5.1818,0.1,0.00044604,4457.4,0.00044551,4441.8,-0.00014551,1.0868,-0.00014992,-32.06,0.22745
27899,5.1932,5.0909,0.1,0.00044681,4465,0.00044589,4438.5,-0.00014465,1.4101,-0.00015202,-53.97,0.20431
27900,5.285,5.1818,0.1,0.00044454,4442.3,0.00044364,4416.3,-0.00014401,0.95571,-0.00015113,-52.581,0.21159
27901,5.0097,5.0909,0.1,0.00044334,4430.3,0.00044192,4389.7,-0.00014213,1.3571,-0.00015316,-81.544,0.18891
27902,5.1015,5.1818,0.1,0.00044104,4407.4,0.0004397,4368.9,-0.00014163,0.95536,-0.000152,-76.959,0.19603
27903,4.8263,5.0909,0.1,0.00043743,4371.3,0.00043538,4313.3,-0.0001385,1.4162,-0.00015399,-114.96,0.1738
27904,4.918,5.1818,0.1,0.00043506,4347.6,0.00043318,4294.3,-0.00013822,1.0316,-0.00015241,-105.6,0.18076
27905,4.6428,5.0909,0.1,0.00042859,4282.9,0.00042575,4203.6,-0.00013351,1.5563,-0.00015447,-155.89,0.15898
27906,4.7345,5.1818,0.1,0.00042603,4257.4,0.00042351,4186.6,-0.00013354,1.1718,-0.00015222,-139.21,0.16577
27907,4.4593,5.0909,0.1,0.00041636,4160.8,0.00041247,4054.1,-0.00012686,1.7639,-0.00015467,-207.23,0.14444
27908,4.551,5.1818,0.1,0.00041339,4131.1,0.00041007,4039.3,-0.00012734,1.3808,-0.00015135,-179.04,0.15107
27909,4.2758,5.0909,0.1,0.00040051,4002.4,0.00039517,3859.2,-0.00011819,2.0542,-0.00015493,-273.99,0.13017
27910,4.3676,5.1818,0.1,0.00039666,3963.8,0.00039232,3845.9,-0.00011932,1.6544,-0.00014983,-227.54,0.13664
27911,4.0923,5.0909,0.1,0.00038138,3811.2,0.00037388,3616.6,-0.00010714,2.3414,-0.00015603,-364.98,0.11615
27912,4.1841,5.1818,0.1,0.00037569,3754.3,0.00036995,3602.1,-0.00010919,2.0394,-0.00014798,-289.47,0.12246
27913,3.9088,5.0909,0.1,0.00036058,3603.3,0.00034962,3331.4,-9.3385e-05,2.8551,-0.00015963,-494.9,0.10235
27914,4.0006,5.1818,0.1,0.00035125,3510.1,0.00034341,3309,-9.6677e-05,2.3462,-0.0001468,-374.27,0.1085
27915,3.7254,5.0909,0.1,0.00034239,3421.6,0.0003254,3024.8,-7.6891e-05,2.161,-0.00016899,-689.86,0.088733
27916,3.8171,5.1818,0.1,0.00032598,3257.6,0.00031463,2980.4,-8.1617e-05,3.2201,-0.00014848,-499.14,0.094738
27917,3.5419,5.0909,0.1,0.00034189,3416.5,0.00031247,2784.5,-5.7377e-05,5.6121,-0.00019521,-1030,0.075255
27918,3.6336,5.1818,0.1,0.00030639,3061.8,0.00028845,2652.2,-6.4375e-05,1.2383,-0.00015758,-699.07,0.081129
27919,3.4501,5.1818,0.1,0.00031584,3156.3,0.00028251,2464.9,-4.4271e-05,9.5618,-0.00019132,-1095.3,0.067624
27920,3.3584,5.0909,0.1,0.0002857,2855,0.00025473,2210.5,-3.9887e-05,-3.0813,-0.00017417,-1012,0.061857
27921,23.725,5.2727,0.1,1.2878e-05,128.69,8.7141e-06,57.324,1.0726e-06,-0.091259,-1.0904e-05,-90.082,2.8133
27922,23.817,5.3636,0.1,1.1102e-05,110.94,6.7496e-06,39.017,1.5569e-06,0.0013487,-9.9105e-06,-86.16,2.8287
27923,23.908,5.2727,0.1,1.1136e-05,111.28,5.4929e-06,22.221,2.4855e-06,-0.37537,-1.0591e-05,-98.625,2.8442
27924,23.541,5.2727,0.1,1.5211e-05,152,1.2081e-05,93.743,-4.1356e-07,-0.13415,-1.1259e-05,-81.626,2.7825
27925,23.633,5.3636,0.1,1.3178e-05,131.68,1.004e-05,74.75,6.391e-08,-0.20315,-1.0197e-05,-77.301,2.7979
27926,23.358,5.2727,0.1,1.8018e-05,180.06,1.5544e-05,130.66,-1.8531e-06,-0.05505,-1.179e-05,-74.714,2.7517
27927,23.45,5.3636,0.1,1.5875e-05,158.64,1.3461e-05,111.29,-1.3567e-06,-0.048746,-1.0714e-05,-70.352,2.767
27928,23.174,5.2727,0.1,2.1138e-05,211.23,1.9098e-05,168.05,-3.2729e-06,-0.039519,-1.2459e-05,-69.057,2.7208
27929,23.266,5.3636,0.1,1.8958e-05,189.45,1.7e-05,148.45,-2.7627e-06,-0.042051,-1.1397e-05,-64.917,2.7362
27930,22.991,5.2727,0.1,2.4467e-05,244.5,2.2729e-05,205.89,-4.6765e-06,-0.022734,-1.3237e-05,-64.345,2.69
27931,23.083,5.3636,0.1,2.2285e-05,222.7,2.0629e-05,186.17,-4.1512e-06,-0.019091,-1.2204e-05,-60.523,2.7054
27932,22.807,5.2727,0.1,2.7943e-05,279.23,2.6422e-05,244.12,-6.0701e-06,-0.013935,-1.41e-05,-60.348,2.6592
27933,22.899,5.3636,0.1,2.5772e-05,257.54,2.4328e-05,224.34,-5.5313e-06,-0.010189,-1.31e-05,-56.875,2.6746
27934,22.624,5.2727,0.1,3.1522e-05,315,3.0166e-05,282.68,-7.457e-06,-0.0075532,-1.5027e-05,-56.888,2.6285
27935,22.716,5.3636,0.1,2.9367e-05,293.47,2.8081e-05,262.87,-6.9059e-06,-0.0032516,-1.406e-05,-53.759,2.6438
27936,22.44,5.2727,0.1,3.5178e-05,351.54,3.3951e-05,321.51,-8.8395e-06,-0.0033302,-1.6005e-05,-53.84,2.5977
27937,22.532,5.3636,0.1,3.3041e-05,330.18,3.1875e-05,301.69,-8.2774e-06,0.00091527,-1.507e-05,-51.035,2.613
27938,22.257,5.2727,0.1,3.8893e-05,388.66,3.777e-05,360.57,-1.0219e-05,-0.00037148,-1.7022e-05,-51.115,2.567
27939,22.349,5.3636,0.1,3.6773e-05,367.48,3.5704e-05,340.75,-9.6471e-06,0.0037347,-1.6117e-05,-48.608,2.5822
27940,22.073,5.2727,0.1,4.2655e-05,426.26,4.1619e-05,399.85,-1.1597e-05,0.0016825,-1.8072e-05,-48.648,2.5362
27941,22.165,5.3636,0.1,4.055e-05,405.23,3.9561e-05,380.02,-1.1016e-05,0.0055622,-1.7194e-05,-46.414,2.5515
27942,21.89,5.2727,0.1,4.6456e-05,464.24,4.5493e-05,439.3,-1.2975e-05,0.0031204,-1.915e-05,-46.395,2.5056
27943,21.982,5.3636,0.1,4.4365e-05,443.35,4.3443e-05,419.47,-1.2385e-05,0.0067517,-1.8296e-05,-44.408,2.5208
27944,21.706,5.2727,0.1,5.0291e-05,502.56,4.939e-05,478.93,-1.4352e-05,0.0041223,-2.0251e-05,-44.321,2.4749
27945,21.798,5.3636,0.1,4.8211e-05,481.78,4.7346e-05,459.09,-1.3754e-05,0.0074979,-1.9419e-05,-42.557,2.4901
27946,21.523,5.2727,0.1,5.4155e-05,541.17,5.3309e-05,518.73,-1.5729e-05,0.0048142,-2.1373e-05,-42.4,2.4443
27947,21.615,5.3636,0.1,5.2085e-05,520.49,5.127e-05,498.88,-1.5125e-05,0.0079452,-2.0561e-05,-40.838,2.4595
27948,21.34,5.2727,0.1,5.8045e-05,580.05,5.7248e-05,558.68,-1.7108e-05,0.0052774,-2.2514e-05,-40.613,2.4137
27949,21.431,5.3636,0.1,5.5984e-05,559.45,5.5213e-05,538.81,-1.6497e-05,0.0081834,-2.1719e-05,-39.233,2.4289
27950,21.156,5.2727,0.1,6.1961e-05,619.18,6.1206e-05,598.79,-1.8487e-05,0.0055766,-2.3671e-05,-38.945,2.3831
27951,21.248,5.3636,0.1,5.9906e-05,598.65,5.9175e-05,578.89,-1.787e-05,0.0082648,-2.2892e-05,-37.729,2.3983
27952,20.973,5.2727,0.1,6.5899e-05,658.54,6.5184e-05,639.05,-1.9868e-05,0.0057576,-2.4844e-05,-37.383,2.3526
27953,21.064,5.3636,0.1,6.385e-05,638.06,6.3154e-05,619.13,-1.9245e-05,0.0082519,-2.408e-05,-36.315,2.3678
27954,20.789,5.2727,0.1,6.986e-05,698.12,6.918e-05,679.47,-2.1251e-05,0.0058498,-2.6032e-05,-35.917,2.3221
27955,20.881,5.3636,0.1,6.7814e-05,677.68,6.7152e-05,659.51,-2.0623e-05,0.0081639,-2.528e-05,-34.983,2.3373
27956,20.606,5.2727,0.1,7.3843e-05,737.92,7.3195e-05,720.05,-2.2637e-05,0.0058825,-2.7235e-05,-34.539,2.2917
27957,20.697,5.3636,0.1,7.18e-05,717.5,7.1166e-05,700.05,-2.2003e-05,0.0080292,-2.6493e-05,-33.727,2.3068
27958,20.422,5.2727,0.1,7.7847e-05,777.93,7.7228e-05,760.78,-2.4025e-05,0.0058691,-2.845e-05,-33.242,2.2613
27959,20.514,5.3636,0.1,7.5805e-05,757.52,7.5199e-05,740.73,-2.3386e-05,0.0078681,-2.7718e-05,-32.539,2.2764
27960,20.239,5.2727,0.1,8.1872e-05,818.15,8.128e-05,801.68,-2.5416e-05,0.0058193,-2.9678e-05,-32.02,2.231
27961,20.33,5.3636,0.1,7.983e-05,797.75,7.9249e-05,781.58,-2.4772e-05,0.0076841,-2.8954e-05,-31.416,2.246
27962,20.055,5.2727,0.1,8.5917e-05,858.58,8.5351e-05,842.73,-2.681e-05,0.0057412,-3.0918e-05,-30.866,2.2007
27963,20.147,5.3636,0.1,8.3874e-05,838.16,8.3317e-05,822.58,-2.6161e-05,0.0074859,-3.0202e-05,-30.353,2.2157
27964,19.872,5.2727,0.1,8.9983e-05,899.21,8.944e-05,883.95,-2.8207e-05,0.0056502,-3.2171e-05,-29.778,2.1705
27965,19.963,5.3636,0.1,8.7939e-05,878.78,8.7403e-05,863.74,-2.7553e-05,0.0072737,-3.146e-05,-29.345,2.1855
27966,19.688,5.2727,0.1,9.4069e-05,940.04,9.3547e-05,925.34,-2.9607e-05,0.0055544,-3.3434e-05,-28.749,2.1404
27967,19.78,5.3636,0.1,9.2022e-05,919.59,9.1507e-05,905.07,-2.895e-05,0.0070761,-3.2729e-05,-28.39,2.1553
27968,19.505,5.2727,0.1,9.8176e-05,981.08,9.7674e-05,966.9,-3.1012e-05,0.0054431,-3.4709e-05,-27.775,2.1103
27969,19.596,5.3636,0.1,9.6126e-05,960.59,9.5629e-05,946.56,-3.035e-05,0.0068785,-3.4009e-05,-27.484,2.1252
27970,19.321,5.2727,0.1,0.0001023,1022.3,0.00010182,1008.6,-3.2421e-05,0.0053283,-3.5995e-05,-26.854,2.0802
27971,19.413,5.3636,0.1,0.00010025,1001.8,9.9769e-05,988.22,-3.1754e-05,0.0066714,-3.5298e-05,-26.624,2.0951
27972,19.138,5.2727,0.1,0.00010645,1063.8,0.00010598,1050.5,-3.3833e-05,0.0052168,-3.7292e-05,-25.982,2.0503
27973,19.229,5.3636,0.1,0.00010439,1043.2,0.00010393,1030.1,-3.3162e-05,0.0064829,-3.6598e-05,-25.806,2.0651
27974,18.954,5.2727,0.1,0.00011062,1105.4,0.00011017,1092.6,-3.525e-05,0.0051028,-3.8599e-05,-25.155,2.0204
27975,19.046,5.3636,0.1,0.00010855,1084.8,0.00010811,1072.1,-3.4575e-05,0.006297,-3.7907e-05,-25.029,2.0352
27976,18.771,5.2727,0.1,0.00011481,1147.3,0.00011437,1134.9,-3.6672e-05,0.0049961,-3.9916e-05,-24.369,1.9906
27977,18.863,5.3636,0.1,0.00011274,1126.6,0.0001123,1114.2,-3.5993e-05,0.0061187,-3.9226e-05,-24.29,2.0053
27978,18.587,5.2727,0.1,0.00011901,1189.3,0.00011859,1177.3,-3.8098e-05,0.0048932,-4.1243e-05,-23.623,1.9608
27979,18.679,5.3636,0.1,0.00011694,1168.6,0.00011652,1156.6,-3.7415e-05,0.0059589,-4.0555e-05,-23.585,1.9755
27980,18.404,5.2727,0.1,0.00012324,1231.6,0.00012284,1220,-3.9529e-05,0.0047866,-4.2579e-05,-22.913,1.9312
27981,18.496,5.3636,0.1,0.00012116,1210.8,0.00012075,1199.1,-3.8842e-05,0.0057999,-4.1892e-05,-22.914,1.9458
27982,18.22,5.2727,0.1,0.00012749,1274,0.0001271,1262.8,-4.0965e-05,0.0046761,-4.3925e-05,-22.237,1.9016
27983,18.312,5.3636,0.1,0.0001254,1253.2,0.00012501,1241.9,-4.0274e-05,0.0056429,-4.3239e-05,-22.273,1.9162
27984,18.037,5.2727,0.1,0.00013176,1316.7,0.00013138,1305.8,-4.2406e-05,0.0045735,-4.5281e-05,-21.592,1.8721
27985,18.129,5.3636,0.1,0.00012966,1295.7,0.00012928,1284.8,-4.1711e-05,0.0054832,-4.4595e-05,-21.66,1.8866
27986,17.853,5.2727,0.1,0.00013605,1359.6,0.00013568,1348.9,-4.3853e-05,0.0044832,-4.6645e-05,-20.974,1.8427
27987,17.945,5.3636,0.1,0.00013395,1338.5,0.00013358,1327.9,-4.3154e-05,0.0053499,-4.5959e-05,-21.073,1.8572
27988,17.67,5.2727,0.1,0.00014036,1402.6,0.00014,1392.3,-4.5305e-05,0.0043849,-4.8018e-05,-20.383,1.8133
27989,17.762,5.3636,0.1,0.00013825,1381.5,0.00013789,1371.2,-4.4602e-05,0.0052224,-4.7332e-05,-20.51,1.8278
27990,17.486,5.2727,0.1,0.00014469,1445.9,0.00014434,1435.9,-4.6762e-05,0.0042879,-4.94e-05,-19.816,1.7841
27991,17.578,5.3636,0.1,0.00014257,1424.7,0.00014222,1414.6,-4.6055e-05,0.005079,-4.8714e-05,-19.97,1.7985
27992,17.303,5.2727,0.1,0.00014904,1489.4,0.0001487,1479.6,-4.8225e-05,0.0042009,-5.079e-05,-19.27,1.755
27993,17.395,5.3636,0.1,0.00014691,1468.1,0.00014657,1458.3,-4.7514e-05,0.0049588,-5.0103e-05,-19.449,1.7693
27994,17.119,5.2727,0.1,0.00015341,1533,0.00015308,1523.6,-4.9693e-05,0.0041134,-5.2188e-05,-18.744,1.726
27995,17.211,5.3636,0.1,0.00015127,1511.7,0.00015094,1502.1,-4.8979e-05,0.00484,-5.1501e-05,-18.946,1.7402
27996,16.936,5.2727,0.1,0.0001578,1576.9,0.00015748,1567.7,-5.1168e-05,0.0040335,-5.3595e-05,-18.234,1.697
27997,17.028,5.3636,0.1,0.00015566,1555.5,0.00015533,1546.2,-5.0449e-05,0.0047228,-5.2907e-05,-18.46,1.7113
27998,16.753,5.2727,0.1,0.00016221,1621,0.0001619,1612,-5.2648e-05,0.0039595,-5.5009e-05,-17.739,1.6682
27999,16.844,5.3636,0.1,0.00016006,1599.5,0.00015975,1590.4,-5.1925e-05,0.0046248,-5.432e-05,-17.988,1.6824
28000,16.569,5.2727,0.1,0.00016664,1665.3,0.00016634,1656.6,-5.4134e-05,0.0038787,-5.6432e-05,-17.258,1.6395
28001,16.661,5.3636,0.1,0.00016448,1643.7,0.00016418,1634.8,-5.3408e-05,0.0045217,-5.5741e-05,-17.529,1.6536
28002,16.386,5.2727,0.1,0.00017109,1709.7,0.0001708,1701.3,-5.5626e-05,0.0037878,-5.7861e-05,-16.787,1.6109
28003,16.477,5.3636,0.1,0.00016892,1688.1,0.00016863,1679.5,-5.4896e-05,0.0044124,-5.717e-05,-17.08,1.6249
28004,16.202,5.2727,0.1,0.00017556,1754.4,0.00017528,1746.2,-5.7125e-05,0.0037054,-5.9298e-05,-16.325,1.5824
28005,16.294,5.3636,0.1,0.00017339,1732.7,0.0001731,1724.3,-5.6391e-05,0.0042927,-5.8606e-05,-16.641,1.5964
28006,16.019,5.2727,0.1,0.00018005,1799.3,0.00017978,1791.3,-5.863e-05,0.0036366,-6.0742e-05,-15.87,1.554
28007,16.11,5.3636,0.1,0.00017787,1777.5,0.00017759,1769.3,-5.7892e-05,0.0042009,-6.0049e-05,-16.209,1.5679
28008,15.835,5.2727,0.1,0.00018456,1844.4,0.0001843,1836.6,-6.0141e-05,0.0035521,-6.2194e-05,-15.42,1.5258
28009,15.927,5.3636,0.1,0.00018237,1822.5,0.0001821,1814.5,-5.9399e-05,0.0041103,-6.15e-05,-15.783,1.5396
28010,15.652,5.2727,0.1,0.0001891,1889.7,0.00018884,1882.1,-6.1658e-05,0.0034654,-6.3651e-05,-14.973,1.4976
28011,15.743,5.3636,0.1,0.00018689,1867.6,0.00018663,1859.9,-6.0912e-05,0.0039893,-6.2957e-05,-15.36,1.5114
28012,15.468,5.2727,0.1,0.00019365,1935.1,0.0001934,1927.8,-6.3182e-05,0.0033878,-6.5116e-05,-14.528,1.4696
28013,15.56,5.3636,0.1,0.00019144,1913,0.00019118,1905.5,-6.2432e-05,0.0038939,-6.4421e-05,-14.94,1.4833
28014,15.285,5.2727,0.1,0.00019822,1980.8,0.00019797,1973.7,-6.4713e-05,0.0033035,-6.6587e-05,-14.081,1.4417
28015,15.376,5.3636,0.1,0.000196,1958.6,0.00019575,1951.3,-6.3958e-05,0.0037921,-6.5891e-05,-14.52,1.4554
28016,15.101,5.2727,0.1,0.00020281,2026.7,0.00020257,2019.8,-6.625e-05,0.0032266,-6.8064e-05,-13.631,1.414
28017,15.193,5.3636,0.1,0.00020058,2004.4,0.00020034,1997.3,-6.5491e-05,0.0036844,-6.7368e-05,-14.098,1.4276
28018,14.918,5.2727,0.1,0.00020742,2072.7,0.00020719,2066.1,-6.7794e-05,0.0031537,-6.9548e-05,-13.176,1.3864
28019,15.009,5.3636,0.1,0.00020518,2050.4,0.00020495,2043.5,-6.7031e-05,0.0035966,-6.8851e-05,-13.673,1.3999
28020,14.734,5.2727,0.1,0.00021205,2119,0.00021183,2112.6,-6.9344e-05,0.0030669,-7.1037e-05,-12.714,1.3589
28021,14.826,5.3636,0.1,0.0002098,2096.6,0.00020957,2089.9,-6.8577e-05,0.0034954,-7.0341e-05,-13.243,1.3723
28022,14.551,5.2727,0.1,0.0002167,2165.5,0.00021648,2159.3,-7.0902e-05,0.0029648,-7.2532e-05,-12.243,1.3316
28023,14.642,5.3636,0.1,0.00021444,2143,0.00021422,2136.5,-7.0131e-05,0.0033794,-7.1836e-05,-12.806,1.3449
28024,14.367,5.2727,0.1,0.00022136,2212.1,0.00022116,2206.2,-7.2467e-05,0.0028693,-7.4032e-05,-11.76,1.3044
28025,14.459,5.3636,0.1,0.0002191,2189.5,0.00021889,2183.3,-7.1691e-05,0.0032453,-7.3336e-05,-12.36,1.3177
28026,14.184,5.2727,0.1,0.00022605,2259,0.00022586,2253.3,-7.4038e-05,0.002787,-7.5538e-05,-11.263,1.2774
28027,14.276,5.3636,0.1,0.00022378,2236.3,0.00022358,2230.3,-7.3258e-05,0.0031386,-7.4843e-05,-11.903,1.2906
28028,14,5.2727,0.1,0.00023076,2306,0.00023057,2300.6,-7.5617e-05,0.0026838,-7.7048e-05,-10.749,1.2505
28029,14.092,5.3636,0.1,0.00022848,2283.3,0.00022829,2277.5,-7.4833e-05,0.0030281,-7.6355e-05,-11.432,1.2636
28030,13.817,5.2727,0.1,0.00023549,2353.2,0.00023531,2348.1,-7.7203e-05,0.0025749,-7.8564e-05,-10.217,1.2238
28031,13.909,5.3636,0.1,0.0002332,2330.4,0.00023302,2324.9,-7.6414e-05,0.0028752,-7.7871e-05,-10.946,1.2368
28032,13.633,5.2727,0.1,0.00024023,2400.7,0.00024007,2395.8,-7.8797e-05,0.0024772,-8.0083e-05,-9.6634,1.1972
28033,13.725,5.3636,0.1,0.00023794,2377.8,0.00023776,2372.5,-7.8003e-05,0.0027472,-7.9393e-05,-10.443,1.2101
28034,13.45,5.2727,0.1,0.000245,2448.3,0.00024484,2443.7,-8.0398e-05,0.0023721,-8.1608e-05,-9.0855,1.1708
28035,13.542,5.3636,0.1,0.0002427,2425.3,0.00024253,2420.4,-7.9599e-05,0.0026077,-8.092e-05,-9.9195,1.1836
28036,13.266,5.2727,0.1,0.00024978,2496.1,0.00024963,2491.8,-8.2007e-05,0.0022809,-8.3136e-05,-8.4806,1.1445
28037,13.358,5.3636,0.1,0.00024748,2473.1,0.00024732,2468.4,-8.1203e-05,0.0024542,-8.2451e-05,-9.3736,1.1573
28038,13.083,5.2727,0.1,0.00025458,2544.1,0.00025445,2540.1,-8.3623e-05,0.0021906,-8.4667e-05,-7.8456,1.1185
28039,13.175,5.3636,0.1,0.00025227,2521,0.00025212,2516.6,-8.2814e-05,0.0023298,-8.3986e-05,-8.8024,1.1311
28040,12.899,5.2727,0.1,0.0002594,2592.2,0.00025928,2588.6,-8.5247e-05,0.0020887,-8.6203e-05,-7.1776,1.0926
28041,12.991,5.3636,0.1,0.00025709,2569.1,0.00025695,2565,-8.4433e-05,0.0021576,-8.5525e-05,-8.2035,1.1051
28042,12.716,5.2727,0.1,0.00026424,2640.6,0.00026413,2637.4,-8.6879e-05,0.0020237,-8.7741e-05,-6.4732,1.0668
28043,12.808,5.3636,0.1,0.00026192,2617.4,0.00026179,2613.6,-8.606e-05,0.001983,-8.7068e-05,-7.574,1.0793
28044,12.532,5.2727,0.1,0.0002691,2689.2,0.000269,2686.3,-8.8519e-05,0.0020008,-8.9282e-05,-5.7291,1.0413
28045,12.624,5.3636,0.1,0.00026678,2665.9,0.00026666,2662.5,-8.7694e-05,0.001845,-8.8614e-05,-6.9108,1.0537
28046,12.349,5.2727,0.1,0.00027398,2737.9,0.00027389,2735.4,-9.0168e-05,0.0020202,-9.0826e-05,-4.9418,1.0159
28047,12.441,5.3636,0.1,0.00027165,2714.6,0.00027154,2711.5,-8.9337e-05,0.001692,-9.0164e-05,-6.2111,1.0282
28048,12.165,5.2727,0.1,0.00027887,2786.8,0.0002788,2784.8,-9.1825e-05,0.0021346,-9.2372e-05,-4.1079,0.9907
28049,12.257,5.3636,0.1,0.00027654,2763.5,0.00027645,2760.8,-9.0988e-05,0.0015381,-9.1716e-05,-5.4717,1.0029
28050,11.982,5.2727,0.1,0.00028379,2835.9,0.00028373,2834.3,-9.349e-05,0.0024878,-9.3919e-05,-3.2235,0.9657
28051,12.074,5.3636,0.1,0.00028145,2812.6,0.00028137,2810.2,-9.2647e-05,0.0013953,-9.3271e-05,-4.6894,0.97779
28052,11.799,5.2727,0.1,0.00028872,2885.2,0.00028868,2884,-9.5164e-05,0.0034299,-9.5468e-05,-2.2854,0.94088
28053,11.89,5.3636,0.1,0.00028638,2861.8,0.00028631,2859.9,-9.4314e-05,0.0013497,-9.4828e-05,-3.8608,0.95287
28054,11.615,5.2727,0.1,0.00029367,2934.6,0.00029365,2934,-9.6846e-05,0.0064232,-9.7018e-05,-1.2911,0.91626
28055,11.707,5.3636,0.1,0.00029133,2911.3,0.00029128,2909.8,-9.599e-05,0.0014509,-9.6387e-05,-2.9828,0.92815
28056,11.432,5.2727,0.1,0.00029863,2984.3,0.00029863,2984.2,-9.8533e-05,0.036523,-9.8573e-05,-0.2619,0.89184
28057,11.523,5.3636,0.1,0.00029629,2960.9,0.00029626,2959.9,-9.7675e-05,0.0019637,-9.7948e-05,-2.0522,0.90362
28058,11.248,5.2727,0.1,0.00030362,3034.1,0.00030363,3034.5,-0.00010012,0.9127,-0.00010024,-0.012934,0.86762
28059,11.34,5.3636,0.1,0.00030128,3010.7,0.00030126,3010.2,-9.9368e-05,0.0042559,-9.9511e-05,-1.0671,0.87929
28060,11.065,5.2727,0.1,0.00030862,3084.1,0.00030866,3085.1,-0.00010167,2.1015,-0.00010195,-0.0072744,0.8436
28061,11.156,5.3636,0.1,0.00030628,3060.7,0.00030628,3060.7,-0.00010106,0.069214,-0.00010108,-0.085408,0.85516
28062,10.881,5.2727,0.1,0.00031364,3134.2,0.0003137,3135.9,-0.00010322,3.3676,-0.00010367,-0.0060013,0.81978
28063,10.973,5.3636,0.1,0.0003113,3110.8,0.00031132,3111.4,-0.00010264,1.1005,-0.00010278,-0.0076829,0.83124
28064,10.698,5.2727,0.1,0.00031868,3184.6,0.00031876,3186.9,-0.00010477,4.7104,-0.0001054,-0.0057006,0.79618
28065,10.789,5.3636,0.1,0.00031634,3161.2,0.00031638,3162.3,-0.0001042,2.2724,-0.0001045,-0.0054234,0.80753
28066,10.514,5.2727,0.1,0.00032373,3235.1,0.00032383,3238.1,-0.00010632,6.1317,-0.00010713,-0.0058274,0.7728
28067,10.606,5.3636,0.1,0.00032139,3211.7,0.00032145,3213.5,-0.00010577,3.5133,-0.00010623,-0.0050917,0.78403
28068,10.331,5.2727,0.1,0.0003288,3285.7,0.00032893,3289.5,-0.00010787,7.633,-0.00010888,-0.0062058,0.74963
28069,10.422,5.3636,0.1,0.00032646,3262.4,0.00032655,3264.8,-0.00010733,4.8234,-0.00010797,-0.0053008,0.76074
28070,10.147,5.2727,0.1,0.00033388,3336.5,0.00033404,3341.1,-0.00010941,9.2149,-0.00011064,-0.0067453,0.72668
28071,10.239,5.3636,0.1,0.00033155,3313.2,0.00033166,3316.3,-0.00010889,6.2029,-0.00010972,-0.00578,0.73768
28072,9.9637,5.2727,0.1,0.00033899,3387.5,0.00033917,3392.9,-0.00011096,10.876,-0.0001124,-0.0074111,0.70396
28073,10.055,5.3636,0.1,0.00033666,3364.3,0.00033679,3368.1,-0.00011046,7.6516,-0.00011148,-0.0063978,0.71484
28074,9.7802,5.2727,0.1,0.0003441,3438.7,0.00034432,3444.9,-0.0001125,12.615,-0.00011418,-0.0082188,0.68146
28075,9.872,5.3636,0.1,0.00034178,3415.5,0.00034194,3420,-0.00011202,9.167,-0.00011324,-0.0071557,0.69222
28076,9.5968,5.2727,0.1,0.00034923,3489.9,0.00034948,3497.1,-0.00011404,14.426,-0.00011596,-0.0091706,0.6592
28077,9.6885,5.3636,0.1,0.00034692,3466.8,0.0003471,3472.2,-0.00011358,10.745,-0.00011502,-0.0080635,0.66983
28078,9.4133,5.2727,0.1,0.00035438,3541.3,0.00035465,3549.5,-0.00011558,16.302,-0.00011775,-0.010274,0.63717
28079,9.505,5.3636,0.1,0.00035207,3518.3,0.00035228,3524.4,-0.00011515,12.381,-0.0001168,-0.0091073,0.64768
28080,9.2298,5.2727,0.1,0.00035953,3592.9,0.00035984,3601.9,-0.00011712,18.231,-0.00011955,-0.011552,0.61538
28081,9.3215,5.3636,0.1,0.00035724,3569.9,0.00035747,3576.9,-0.00011671,14.063,-0.00011858,-0.010311,0.62577
28082,9.0463,5.2727,0.1,0.0003647,3644.5,0.00036504,3654.6,-0.00011866,20.198,-0.00012135,-0.01303,0.59383
28083,9.1381,5.3636,0.1,0.00036241,3621.6,0.00036268,3629.5,-0.00011828,15.78,-0.00012038,-0.011692,0.60409
28084,8.8628,5.2727,0.1,0.00036988,3696.2,0.00037025,3707.3,-0.0001202,22.183,-0.00012316,-0.014746,0.57252
28085,8.9546,5.3636,0.1,0.0003676,3673.4,0.00036789,3682.2,-0.00011984,17.513,-0.00012217,-0.013282,0.58266
28086,8.6794,5.2727,0.1,0.00037506,3748,0.00037546,3760,-0.00012175,24.157,-0.00012497,-0.016749,0.55147
28087,8.7711,5.3636,0.1,0.00037279,3725.3,0.00037311,3734.9,-0.00012141,19.24,-0.00012397,-0.01512,0.56147
28088,8.4959,5.2727,0.1,0.00038024,3799.8,0.00038068,3812.8,-0.0001233,26.085,-0.00012677,-0.019106,0.53067
28089,8.5876,5.3636,0.1,0.00037798,3777.2,0.00037833,3787.6,-0.00012298,20.93,-0.00012577,-0.01726,0.54054
28090,8.3124,5.2727,0.1,0.00038542,3851.6,0.00038589,3865.4,-0.00012485,27.924,-0.00012857,-0.021909,0.51012
28091,8.4041,5.3636,0.1,0.00038317,3829.1,0.00038355,3840.3,-0.00012456,22.546,-0.00012756,-0.019773,0.51986
28092,8.1289,5.2727,0.1,0.00039059,3903.2,0.00039109,3917.9,-0.00012642,29.618,-0.00013036,-0.025286,0.48983
28093,8.2206,5.3636,0.1,0.00038836,3880.9,0.00038876,3892.8,-0.00012615,24.04,-0.00012935,-0.02276,0.49944
28094,7.9454,5.2727,0.1,0.00039574,3954.7,0.00039626,3970.1,-0.00012799,31.098,-0.00013213,-0.029418,0.46981
28095,8.0372,5.3636,0.1,0.00039352,3932.5,0.00039394,3945.1,-0.00012774,25.354,-0.00013112,-0.026362,0.47928
28096,7.7619,5.2727,0.1,0.00040086,4005.8,0.0004014,4021.9,-0.00012958,32.282,-0.00013388,-0.034577,0.45005
28097,7.8537,5.3636,0.1,0.00039865,3983.7,0.00039909,3996.9,-0.00012934,26.415,-0.00013286,-0.030787,0.45939
28098,7.5785,5.2727,0.1,0.00040593,4056.5,0.00040648,4072.9,-0.00013119,33.07,-0.0001356,-0.041177,0.43057
28099,7.6702,5.3636,0.1,0.00040373,4034.6,0.00040419,4048,-0.00013096,27.139,-0.00013458,-0.036351,0.43976
28100,7.395,5.2727,0.1,0.00041093,4106.5,0.00041149,4123,-0.00013282,33.344,-0.00013726,-0.049883,0.41136
28101,7.4867,5.3636,0.1,0.00040875,4084.7,0.00040921,4098.3,-0.00013259,27.42,-0.00013625,-0.043557,0.42041
28102,7.2115,5.2727,0.1,0.00041584,4155.5,0.00041639,4171.8,-0.00013447,32.964,-0.00013886,-0.061812,0.39242
28103,7.3032,5.3636,0.1,0.00041367,4133.9,0.00041413,4147.3,-0.00013424,27.138,-0.00013786,-0.053254,0.40133
28104,7.028,5.2727,0.1,0.00042061,4203.2,0.00042114,4218.9,-0.00013614,31.77,-0.00014038,-0.078968,0.37376
28105,7.1198,5.3636,0.1,0.00041846,4181.7,0.0004189,4194.7,-0.0001359,26.15,-0.00013939,-0.066964,0.38253
28106,6.8445,5.2727,0.1,0.00042519,4249,0.00042569,4263.7,-0.00013783,29.581,-0.00014179,-0.10524,0.35539
28107,6.9363,5.3636,0.1,0.00042307,4227.8,0.00042348,4239.9,-0.00013758,24.296,-0.00014082,-0.087677,0.36401
28108,6.6611,5.2727,0.1,0.00042953,4292.4,0.00042997,4305.3,-0.00013955,26.194,-0.00014305,-0.14911,0.33731
28109,6.7528,5.3636,0.1,0.00042745,4271.5,0.0004278,4282.1,-0.00013926,21.393,-0.00014213,-0.122,0.34578
28110,6.4776,5.2727,0.1,0.00043355,4332.5,0.0004339,4343,-0.00014127,21.402,-0.00014415,-0.2323,0.31951
28111,6.5693,5.3636,0.1,0.0004315,4312,0.00043179,4320.5,-0.00014094,17.251,-0.00014326,-0.18751,0.32783
28112,6.2941,5.2727,0.1,0.00043713,4368.3,0.00043737,4375.5,-0.00014297,15.026,-0.00014503,-0.42879,0.30201
28113,6.3858,5.3636,0.1,0.00043514,4348.4,0.00043533,4354,-0.0001426,11.706,-0.0001442,-0.34806,0.31018
28114,6.1106,5.2727,0.1,0.00044014,4398.3,0.00044024,4401.4,-0.00014458,7.245,-0.0001457,-1.1771,0.2848
28115,6.2024,5.3636,0.1,0.00043822,4379.2,0.00043829,4381.2,-0.00014415,4.9674,-0.00014495,-1.0553,0.29282
28116,5.9271,5.2727,0.1,0.00044241,4421,0.00044232,4418.7,-0.00014552,1.7851,-0.00014662,-6.4712,0.26788
28117,6.0189,5.3636,0.1,0.00044059,4402.9,0.0004405,4400.1,-0.00014498,1.0531,-0.000146,-6.5726,0.27575
28118,5.7437,5.2727,0.1,0.00044371,4434,0.0004434,4425,-0.00014542,0.8534,-0.00014803,-18.774,0.25127
28119,5.8354,5.3636,0.1,0.00044204,4417.3,0.00044174,4408.7,-0.00014495,0.53133,-0.00014738,-17.706,0.25898
28120,5.5602,5.2727,0.1,0.00044377,4434.6,0.00044318,4417.6,-0.00014467,0.65833,-0.00014936,-34.525,0.23495
28121,5.6519,5.3636,0.1,0.00044229,4419.9,0.00044175,4404.2,-0.00014435,0.41579,-0.00014862,-31.682,0.24251
28122,5.3767,5.2727,0.1,0.00044224,4419.3,0.00044132,4392.7,-0.00014324,0.61687,-0.00015042,-53.328,0.21893
28123,5.4684,5.3636,0.1,0.00044103,4407.2,0.00044019,4383.1,-0.0001431,0.39238,-0.00014959,-48.342,0.22633
28124,5.1932,5.2727,0.1,0.0004387,4383.9,0.00043738,4346.2,-0.00014097,0.64353,-0.00015107,-75.223,0.20321
28125,5.285,5.3636,0.1,0.00043783,4375.3,0.00043664,4341.2,-0.00014108,0.41323,-0.00015015,-67.713,0.21045
28126,5.0097,5.2727,0.1,0.00043263,4323.3,0.00043085,4272.6,-0.00013771,0.71979,-0.00015115,-100.25,0.18778
28127,5.1015,5.3636,0.1,0.0004322,4319,0.00043061,4273.7,-0.00013812,0.46881,-0.00015013,-89.741,0.19486
28128,4.8263,5.2727,0.1,0.00042343,4231.4,0.00042111,4166.1,-0.00013325,0.84521,-0.00015046,-128.43,0.17264
28129,4.918,5.3636,0.1,0.00042356,4232.6,0.00042151,4174.6,-0.00013403,0.56167,-0.00014931,-114.24,0.17956
28130,4.6428,5.2727,0.1,0.00041044,4101.6,0.0004075,4019.8,-0.00012736,1.0293,-0.00014878,-159.87,0.15778
28131,4.7345,5.3636,0.1,0.00041121,4109.2,0.00040864,4037.3,-0.0001286,0.70087,-0.00014744,-140.88,0.16454
28132,4.4593,5.2727,0.1,0.00039301,3927.4,0.00038934,3826.8,-0.0001198,1.2834,-0.00014593,-195.05,0.14318
28133,4.551,5.3636,0.1,0.00039443,3941.6,0.00039129,3854.6,-0.00012161,0.90629,-0.00014426,-169.32,0.1498
28134,4.2758,5.2727,0.1,0.00037066,3704,0.0003661,3581.3,-0.00011032,1.6401,-0.0001419,-235.62,0.12884
28135,4.3676,5.3636,0.1,0.00037255,3722.9,0.00036877,3619.7,-0.00011282,1.1971,-0.00013954,-199.56,0.1353
28136,4.0923,5.2727,0.1,0.00034352,3432.8,0.00033778,3281.7,-9.872e-05,2.0573,-0.00013707,-286.06,0.11474
28137,4.1841,5.3636,0.1,0.0003452,3449.6,0.00034067,3328,-0.00010204,1.6537,-0.00013326,-232.89,0.12105
28138,3.9088,5.2727,0.1,0.00031314,3129.2,0.00030555,2936.5,-8.4901e-05,2.7803,-0.0001328,-357.1,0.10083
28139,4.0006,5.3636,0.1,0.00031286,3126.4,0.00030731,2981.2,-8.9171e-05,2.1782,-0.00012597,-274.28,0.10701
28140,3.7254,5.2727,0.1,0.00028414,2839.5,0.0002731,2573.5,-6.9077e-05,2.4839,-0.00013251,-474.16,0.087095
28141,3.8171,5.3636,0.1,0.00027793,2777.4,0.00027068,2594.8,-7.4219e-05,3.3976,-0.00011953,-337.04,0.093144
28142,3.5419,5.2727,0.1,0.00027132,2711.3,0.00025193,2283.3,-5.116e-05,6.0036,-0.00014724,-715.89,0.073481
28143,3.6336,5.3636,0.1,0.00024725,2470.8,0.0002363,2211.3,-5.7716e-05,2.1931,-0.00011882,-456.88,0.07942
28144,3.4501,5.3636,0.1,0.00024325,2430.9,0.00022153,1969.3,-3.9222e-05,10.059,-0.00014052,-751.07,0.06579
28145,3.3584,5.2727,0.1,0.00022321,2230.6,0.00020244,1787.2,-3.5781e-05,-2.6247,-0.00013015,-711.67,0.059938
28146,23.725,5.4545,0.1,1.1288e-05,112.81,8.0754e-06,56.446,5.5647e-07,-0.0485,-9.2119e-06,-73.444,2.8132
28147,23.817,5.5455,0.1,9.2883e-06,92.819,6.0577e-06,38.306,9.7943e-07,0.15021,-8.0256e-06,-67.51,2.8286
28148,23.908,5.4545,0.1,9.4082e-06,94.017,4.8886e-06,21.926,1.9222e-06,-0.36243,-8.841e-06,-81.232,2.8441
28149,23.541,5.4545,0.1,1.3798e-05,137.89,1.143e-05,92.368,-8.7703e-07,-0.10101,-9.6631e-06,-66.116,2.7824
28150,23.633,5.5455,0.1,1.1575e-05,115.67,9.3211e-06,73.301,-4.478e-07,-0.098078,-8.4253e-06,-60.038,2.7977
28151,23.358,5.4545,0.1,1.6807e-05,167.95,1.4932e-05,129.18,-2.2653e-06,-0.027683,-1.0336e-05,-60.67,2.7515
28152,23.45,5.5455,0.1,1.454e-05,145.3,1.28e-05,109.77,-1.8054e-06,0.028325,-9.1304e-06,-55.008,2.7669
28153,23.174,5.4545,0.1,2.0114e-05,201,1.8548e-05,166.7,-3.6403e-06,-0.016598,-1.1159e-05,-56.51,2.7207
28154,23.266,5.5455,0.1,1.7863e-05,178.51,1.6423e-05,147.14,-3.1578e-06,0.02478,-1.0008e-05,-51.445,2.736
28155,22.991,5.4545,0.1,2.3605e-05,235.88,2.2246e-05,204.75,-5.0056e-06,-0.0030089,-1.2083e-05,-53.182,2.6899
28156,23.083,5.5455,0.1,2.1384e-05,213.7,2.0135e-05,185.16,-4.5024e-06,0.037922,-1.0989e-05,-48.698,2.7052
28157,22.807,5.4545,0.1,2.7214e-05,271.95,2.6003e-05,243.22,-6.3668e-06,0.0031475,-1.3077e-05,-50.411,2.6591
28158,22.899,5.5455,0.1,2.5026e-05,250.09,2.391e-05,223.61,-5.8463e-06,0.039592,-1.2034e-05,-46.456,2.6744
28159,22.624,5.4545,0.1,3.0904e-05,308.83,2.9806e-05,282.01,-7.726e-06,0.0072835,-1.4119e-05,-48.024,2.6283
28160,22.716,5.5455,0.1,2.8745e-05,287.26,2.7728e-05,262.4,-7.1905e-06,0.040534,-1.3123e-05,-44.535,2.6436
28161,22.44,5.4545,0.1,3.4653e-05,346.29,3.3643e-05,321.05,-9.0847e-06,0.0096313,-1.5197e-05,-45.914,2.5975
28162,22.532,5.5455,0.1,3.252e-05,324.97,3.1579e-05,301.45,-8.5362e-06,0.039789,-1.4242e-05,-42.834,2.6128
28163,22.257,5.4545,0.1,3.8446e-05,384.2,3.7508e-05,360.3,-1.0444e-05,0.011012,-1.6303e-05,-44.011,2.5668
28164,22.349,5.5455,0.1,3.6335e-05,363.1,3.5456e-05,340.71,-9.8837e-06,0.038497,-1.5384e-05,-41.291,2.5821
28165,22.073,5.4545,0.1,4.2275e-05,422.46,4.1397e-05,399.74,-1.1804e-05,0.011739,-1.7431e-05,-42.269,2.5361
28166,22.165,5.5455,0.1,4.0183e-05,401.55,3.9356e-05,380.15,-1.1233e-05,0.036852,-1.6544e-05,-39.867,2.5513
28167,21.89,5.4545,0.1,4.6134e-05,461.02,4.5308e-05,439.35,-1.3165e-05,0.012052,-1.8578e-05,-40.658,2.5054
28168,21.982,5.5455,0.1,4.4057e-05,440.27,4.3275e-05,419.75,-1.2585e-05,0.035074,-1.7719e-05,-38.537,2.5206
28169,21.706,5.4545,0.1,5.0019e-05,499.84,4.9238e-05,479.12,-1.4528e-05,0.012097,-1.9741e-05,-39.156,2.4747
28170,21.798,5.5455,0.1,4.7955e-05,479.22,4.7212e-05,459.5,-1.3939e-05,0.03326,-1.8906e-05,-37.285,2.4899
28171,21.523,5.4545,0.1,5.3927e-05,538.89,5.3185e-05,519.03,-1.5892e-05,0.011971,-2.0918e-05,-37.747,2.4441
28172,21.615,5.5455,0.1,5.1873e-05,518.38,5.1165e-05,499.4,-1.5296e-05,0.031481,-2.0105e-05,-36.099,2.4593
28173,21.34,5.4545,0.1,5.7856e-05,578.16,5.715e-05,559.09,-1.7259e-05,0.011729,-2.2108e-05,-36.421,2.4135
28174,21.431,5.5455,0.1,5.5811e-05,557.73,5.5134e-05,539.43,-1.6656e-05,0.029765,-2.1314e-05,-34.972,2.4287
28175,21.156,5.4545,0.1,6.1806e-05,617.63,6.1132e-05,599.3,-1.8628e-05,0.011417,-2.331e-05,-35.167,2.3829
28176,21.248,5.5455,0.1,5.9768e-05,597.27,5.9119e-05,579.61,-1.8018e-05,0.028125,-2.2533e-05,-33.898,2.3981
28177,20.973,5.4545,0.1,6.5775e-05,657.29,6.5131e-05,639.65,-2e-05,0.011067,-2.4524e-05,-33.981,2.3524
28178,21.064,5.5455,0.1,6.3742e-05,636.98,6.312e-05,619.92,-1.9383e-05,0.026581,-2.3762e-05,-32.872,2.3675
28179,20.789,5.4545,0.1,6.9763e-05,697.15,6.9146e-05,680.15,-2.1374e-05,0.010695,-2.5748e-05,-32.855,2.3219
28180,20.881,5.5455,0.1,6.7734e-05,676.88,6.7136e-05,660.38,-2.0752e-05,0.025131,-2.5e-05,-31.892,2.337
28181,20.606,5.4545,0.1,7.377e-05,737.19,7.3178e-05,720.79,-2.2752e-05,0.010318,-2.6984e-05,-31.786,2.2915
28182,20.697,5.5455,0.1,7.1744e-05,716.95,7.1168e-05,700.98,-2.2124e-05,0.023773,-2.6247e-05,-30.954,2.3066
28183,20.422,5.4545,0.1,7.7796e-05,777.42,7.7227e-05,761.59,-2.4133e-05,0.0099448,-2.8229e-05,-30.77,2.2611
28184,20.514,5.5455,0.1,7.5771e-05,757.19,7.5215e-05,741.72,-2.3499e-05,0.022515,-2.7502e-05,-30.056,2.2762
28185,20.239,5.4545,0.1,8.184e-05,817.84,8.1293e-05,802.54,-2.5517e-05,0.0095769,-2.9485e-05,-29.804,2.2308
28186,20.33,5.5455,0.1,7.9816e-05,797.61,7.9279e-05,782.62,-2.4878e-05,0.02134,-2.8767e-05,-29.197,2.2458
28187,20.055,5.4545,0.1,8.5904e-05,858.44,8.5376e-05,843.64,-2.6905e-05,0.0092138,-3.075e-05,-28.884,2.2005
28188,20.147,5.5455,0.1,8.3878e-05,838.2,8.3359e-05,823.66,-2.6261e-05,0.020245,-3.004e-05,-28.374,2.2155
28189,19.872,5.4545,0.1,8.9985e-05,899.23,8.9476e-05,884.91,-2.8296e-05,0.0088685,-3.2025e-05,-28.008,2.1703
28190,19.963,5.5455,0.1,8.7958e-05,878.97,8.7456e-05,864.86,-2.7647e-05,0.019218,-3.1321e-05,-27.585,2.1852
28191,19.688,5.4545,0.1,9.4086e-05,940.21,9.3594e-05,926.33,-2.9692e-05,0.0085462,-3.331e-05,-27.174,2.1401
28192,19.78,5.5455,0.1,9.2056e-05,919.92,9.157e-05,906.23,-2.9038e-05,0.01828,-3.2612e-05,-26.83,2.155
28193,19.505,5.4545,0.1,9.8206e-05,981.38,9.773e-05,967.93,-3.1092e-05,0.0082329,-3.4604e-05,-26.379,2.11
28194,19.596,5.5455,0.1,9.6172e-05,961.06,9.5702e-05,947.75,-3.0433e-05,0.017408,-3.391e-05,-26.107,2.1249
28195,19.321,5.4545,0.1,0.00010234,1022.7,0.00010188,1009.7,-3.2496e-05,0.0079348,-3.5907e-05,-25.621,2.0799
28196,19.413,5.5455,0.1,0.00010031,1002.4,9.9851e-05,989.43,-3.1833e-05,0.016583,-3.5218e-05,-25.414,2.0948
28197,19.138,5.4545,0.1,0.0001065,1064.3,0.00010606,1051.6,-3.3904e-05,0.0076567,-3.7219e-05,-24.898,2.05
28198,19.229,5.5455,0.1,0.00010446,1043.9,0.00010402,1031.3,-3.3237e-05,0.015829,-3.6533e-05,-24.75,2.0648
28199,18.954,5.4545,0.1,0.00011068,1106,0.00011025,1093.7,-3.5318e-05,0.0073933,-3.8541e-05,-24.207,2.0201
28200,19.046,5.5455,0.1,0.00010863,1085.6,0.0001082,1073.3,-3.4646e-05,0.015125,-3.7857e-05,-24.113,2.0348
28201,18.771,5.4545,0.1,0.00011488,1148,0.00011446,1136,-3.6736e-05,0.0071501,-3.9871e-05,-23.548,1.9902
28202,18.863,5.5455,0.1,0.00011282,1127.4,0.0001124,1115.5,-3.606e-05,0.014469,-3.919e-05,-23.503,2.005
28203,18.587,5.4545,0.1,0.00011909,1190.1,0.00011868,1178.5,-3.8159e-05,0.0069239,-4.121e-05,-22.917,1.9605
28204,18.679,5.5455,0.1,0.00011703,1169.5,0.00011663,1157.9,-3.7479e-05,0.013869,-4.0531e-05,-22.917,1.9752
28205,18.404,5.4545,0.1,0.00012333,1232.4,0.00012293,1221.1,-3.9587e-05,0.0067054,-4.2557e-05,-22.313,1.9308
28206,18.496,5.5455,0.1,0.00012126,1211.8,0.00012087,1200.4,-3.8903e-05,0.013305,-4.1879e-05,-22.354,1.9454
28207,18.22,5.4545,0.1,0.00012758,1274.9,0.0001272,1263.9,-4.102e-05,0.0064911,-4.3914e-05,-21.735,1.9012
28208,18.312,5.5455,0.1,0.00012551,1254.2,0.00012512,1243.2,-4.0332e-05,0.012772,-4.3236e-05,-21.813,1.9158
28209,18.037,5.4545,0.1,0.00013186,1317.7,0.00013148,1306.9,-4.2459e-05,0.0062936,-4.5278e-05,-21.18,1.8717
28210,18.129,5.5455,0.1,0.00012978,1296.9,0.0001294,1286.1,-4.1766e-05,0.012264,-4.4602e-05,-21.292,1.8862
28211,17.853,5.4545,0.1,0.00013615,1360.6,0.00013579,1350.1,-4.3903e-05,0.0061167,-4.6651e-05,-20.647,1.8423
28212,17.945,5.5455,0.1,0.00013406,1339.7,0.0001337,1329.2,-4.3206e-05,0.011806,-4.5975e-05,-20.791,1.8568
28213,17.67,5.4545,0.1,0.00014046,1403.7,0.00014011,1393.5,-4.5352e-05,0.0059384,-4.8032e-05,-20.133,1.8129
28214,17.762,5.5455,0.1,0.00013837,1382.7,0.00013801,1372.5,-4.4651e-05,0.011377,-4.7356e-05,-20.307,1.8274
28215,17.486,5.4545,0.1,0.0001448,1447,0.00014446,1437.1,-4.6807e-05,0.0057668,-4.9422e-05,-19.639,1.7837
28216,17.578,5.5455,0.1,0.0001427,1426,0.00014235,1416,-4.6103e-05,0.01095,-4.8745e-05,-19.84,1.7981
28217,17.303,5.4545,0.1,0.00014915,1490.5,0.00014882,1480.8,-4.8268e-05,0.0056102,-5.0819e-05,-19.161,1.7546
28218,17.395,5.5455,0.1,0.00014704,1469.4,0.0001467,1459.6,-4.7559e-05,0.010564,-5.0141e-05,-19.388,1.7689
28219,17.119,5.4545,0.1,0.00015353,1534.2,0.0001532,1524.8,-4.9734e-05,0.0054576,-5.2224e-05,-18.698,1.7255
28220,17.211,5.5455,0.1,0.00015141,1513,0.00015108,1503.5,-4.9022e-05,0.010195,-5.1545e-05,-18.95,1.7398
28221,16.936,5.4545,0.1,0.00015792,1578.1,0.0001576,1568.9,-5.1207e-05,0.0053185,-5.3636e-05,-18.249,1.6966
28222,17.028,5.5455,0.1,0.00015579,1556.9,0.00015547,1547.5,-5.049e-05,0.0098407,-5.2957e-05,-18.525,1.7108
28223,16.753,5.4545,0.1,0.00016233,1622.2,0.00016202,1613.3,-5.2685e-05,0.0051879,-5.5057e-05,-17.811,1.6677
28224,16.844,5.5455,0.1,0.0001602,1600.9,0.00015988,1591.7,-5.1965e-05,0.0095182,-5.4377e-05,-18.11,1.6819
28225,16.569,5.4545,0.1,0.00016677,1666.5,0.00016647,1657.8,-5.417e-05,0.0050531,-5.6484e-05,-17.385,1.639
28226,16.661,5.5455,0.1,0.00016462,1645.1,0.00016431,1636.2,-5.3445e-05,0.0091997,-5.5803e-05,-17.706,1.6531
28227,16.386,5.4545,0.1,0.00017122,1711,0.00017093,1702.5,-5.566e-05,0.0049119,-5.7919e-05,-16.967,1.6104
28228,16.477,5.5455,0.1,0.00016907,1689.5,0.00016877,1680.8,-5.4932e-05,0.0088837,-5.7237e-05,-17.311,1.6244
28229,16.202,5.4545,0.1,0.0001757,1755.8,0.00017541,1747.4,-5.7157e-05,0.00478,-5.9362e-05,-16.557,1.5819
28230,16.294,5.5455,0.1,0.00017353,1734.1,0.00017324,1725.6,-5.6425e-05,0.0085657,-5.8678e-05,-16.923,1.5959
28231,16.019,5.4545,0.1,0.00018019,1800.7,0.00017991,1792.5,-5.866e-05,0.0046638,-6.0811e-05,-16.153,1.5535
28232,16.11,5.5455,0.1,0.00017802,1779,0.00017773,1770.6,-5.7924e-05,0.0082788,-6.0127e-05,-16.541,1.5674
28233,15.835,5.4545,0.1,0.0001847,1845.8,0.00018443,1837.8,-6.017e-05,0.0045342,-6.2267e-05,-15.753,1.5252
28234,15.927,5.5455,0.1,0.00018252,1824,0.00018224,1815.8,-5.9429e-05,0.0079991,-6.1582e-05,-16.164,1.5391
28235,15.652,5.4545,0.1,0.00018924,1891.1,0.00018897,1883.3,-6.1686e-05,0.0044021,-6.373e-05,-15.357,1.4971
28236,15.743,5.5455,0.1,0.00018705,1869.2,0.00018677,1861.2,-6.0941e-05,0.0076924,-6.3044e-05,-15.791,1.5109
28237,15.468,5.4545,0.1,0.00019379,1936.6,0.00019353,1929,-6.3208e-05,0.0042803,-6.52e-05,-14.962,1.4691
28238,15.56,5.5455,0.1,0.00019159,1914.6,0.00019133,1906.8,-6.246e-05,0.0074121,-6.4513e-05,-15.42,1.4828
28239,15.285,5.4545,0.1,0.00019836,1982.3,0.00019811,1975,-6.4737e-05,0.0041529,-6.6676e-05,-14.566,1.4412
28240,15.376,5.5455,0.1,0.00019616,1960.2,0.0001959,1952.7,-6.3984e-05,0.0071261,-6.5988e-05,-15.051,1.4548
28241,15.101,5.4545,0.1,0.00020296,2028.2,0.00020271,2021.1,-6.6273e-05,0.0040322,-6.8159e-05,-14.169,1.4134
28242,15.193,5.5455,0.1,0.00020074,2006,0.00020049,1998.7,-6.5516e-05,0.0068336,-6.747e-05,-14.681,1.427
28243,14.918,5.4545,0.1,0.00020757,2074.3,0.00020733,2067.4,-6.7815e-05,0.0039141,-6.9648e-05,-13.769,1.3858
28244,15.009,5.5455,0.1,0.00020535,2052,0.0002051,2044.9,-6.7054e-05,0.0065591,-6.8959e-05,-14.309,1.3993
28245,14.734,5.4545,0.1,0.0002122,2120.6,0.00021197,2113.9,-6.9364e-05,0.0037819,-7.1143e-05,-13.363,1.3583
28246,14.826,5.5455,0.1,0.00020997,2098.3,0.00020973,2091.3,-6.8599e-05,0.0062667,-7.0454e-05,-13.934,1.3717
28247,14.551,5.4545,0.1,0.00021686,2167.1,0.00021663,2160.6,-7.092e-05,0.0036322,-7.2644e-05,-12.951,1.331
28248,14.642,5.5455,0.1,0.00021462,2144.7,0.00021438,2137.9,-7.015e-05,0.0059562,-7.1955e-05,-13.554,1.3443
28249,14.367,5.4545,0.1,0.00022153,2213.8,0.00022131,2207.5,-7.2483e-05,0.0034857,-7.4151e-05,-12.53,1.3038
28250,14.459,5.5455,0.1,0.00021928,2191.3,0.00021905,2184.7,-7.1709e-05,0.0056198,-7.3462e-05,-13.169,1.317
28251,14.184,5.4545,0.1,0.00022622,2260.6,0.00022601,2254.6,-7.4052e-05,0.0033498,-7.5663e-05,-12.099,1.2767
28252,14.276,5.5455,0.1,0.00022396,2238.1,0.00022374,2231.7,-7.3274e-05,0.0053039,-7.4975e-05,-12.776,1.2899
28253,14,5.4545,0.1,0.00023093,2307.7,0.00023073,2301.9,-7.5629e-05,0.003189,-7.7181e-05,-11.656,1.2498
28254,14.092,5.5455,0.1,0.00022867,2285.1,0.00022846,2278.9,-7.4846e-05,0.0049748,-7.6494e-05,-12.373,1.2629
28255,13.817,5.4545,0.1,0.00023566,2355,0.00023547,2349.4,-7.7214e-05,0.0030172,-7.8704e-05,-11.199,1.2231
28256,13.909,5.5455,0.1,0.00023339,2332.3,0.00023319,2326.3,-7.6426e-05,0.0045924,-7.8018e-05,-11.96,1.2361
28257,13.633,5.4545,0.1,0.00024042,2402.5,0.00024023,2397.1,-7.8805e-05,0.0028486,-8.0233e-05,-10.725,1.1965
28258,13.725,5.5455,0.1,0.00023814,2379.7,0.00023794,2373.9,-7.8013e-05,0.0042222,-7.9548e-05,-11.534,1.2094
28259,13.45,5.4545,0.1,0.00024519,2450.2,0.00024501,2445,-8.0404e-05,0.0026636,-8.1766e-05,-10.233,1.1701
28260,13.542,5.5455,0.1,0.0002429,2427.3,0.00024271,2421.8,-7.9606e-05,0.0038246,-8.1084e-05,-11.094,1.1829
28261,13.266,5.4545,0.1,0.00024998,2498,0.00024981,2493.2,-8.201e-05,0.0024821,-8.3304e-05,-9.7206,1.1438
28262,13.358,5.5455,0.1,0.00024768,2475.1,0.0002475,2469.8,-8.1208e-05,0.0033969,-8.2624e-05,-10.638,1.1566
28263,13.083,5.4545,0.1,0.00025479,2546.1,0.00025463,2541.5,-8.3624e-05,0.0022845,-8.4846e-05,-9.1851,1.1177
28264,13.175,5.5455,0.1,0.00025249,2523.1,0.00025231,2518,-8.2816e-05,0.0029774,-8.4169e-05,-10.163,1.1304
28265,12.899,5.4545,0.1,0.00025961,2594.4,0.00025947,2590,-8.5245e-05,0.0020536,-8.6393e-05,-8.6243,1.0918
28266,12.991,5.5455,0.1,0.00025731,2571.3,0.00025714,2566.5,-8.4433e-05,0.0024864,-8.572e-05,-9.668,1.1044
28267,12.716,5.4545,0.1,0.00026446,2642.8,0.00026433,2638.8,-8.6874e-05,0.0018291,-8.7944e-05,-8.0357,1.0661
28268,12.808,5.5455,0.1,0.00026215,2619.7,0.000262,2615.1,-8.6056e-05,0.0019656,-8.7275e-05,-9.1507,1.0785
28269,12.532,5.4545,0.1,0.00026933,2691.5,0.0002692,2687.7,-8.8511e-05,0.0015992,-8.9499e-05,-7.4166,1.0405
28270,12.624,5.5455,0.1,0.00026702,2668.3,0.00026687,2664,-8.7688e-05,0.0014468,-8.8834e-05,-8.6088,1.0529
28271,12.349,5.4545,0.1,0.00027422,2740.3,0.0002741,2736.9,-9.0157e-05,0.0013385,-9.1057e-05,-6.7644,1.0151
28272,12.441,5.5455,0.1,0.0002719,2717.1,0.00027176,2713.1,-8.9327e-05,0.00087231,-9.0398e-05,-8.0401,1.0274
28273,12.165,5.4545,0.1,0.00027912,2789.3,0.00027902,2786.3,-9.181e-05,0.0010473,-9.2619e-05,-6.0763,0.98992
28274,12.257,5.5455,0.1,0.0002768,2766.1,0.00027667,2762.4,-9.0975e-05,0.00024201,-9.1965e-05,-7.4422,1.0021
28275,11.982,5.4545,0.1,0.00028405,2838.5,0.00028396,2835.9,-9.3471e-05,0.0007488,-9.4183e-05,-5.3496,0.9649
28276,12.074,5.5455,0.1,0.00028172,2815.3,0.0002816,2811.8,-9.263e-05,-0.00045231,-9.3537e-05,-6.813,0.97697
28277,11.799,5.4545,0.1,0.00028899,2887.9,0.00028892,2885.6,-9.5141e-05,0.00045285,-9.5751e-05,-4.5813,0.94008
28278,11.89,5.5455,0.1,0.00028666,2864.6,0.00028656,2861.6,-9.4294e-05,-0.0011655,-9.5112e-05,-6.1497,0.95204
28279,11.615,5.4545,0.1,0.00029396,2937.5,0.00029389,2935.7,-9.6819e-05,0.00015038,-9.7321e-05,-3.7687,0.91544
28280,11.707,5.5455,0.1,0.00029162,2914.2,0.00029153,2911.5,-9.5965e-05,-0.0019396,-9.6691e-05,-5.4501,0.9273
28281,11.432,5.4545,0.1,0.00029894,2987.3,0.00029889,2985.9,-9.8506e-05,-0.00010689,-9.8893e-05,-2.9089,0.89101
28282,11.523,5.5455,0.1,0.0002966,2964,0.00029652,2961.6,-9.7646e-05,-0.0027804,-9.8272e-05,-4.7119,0.90276
28283,11.248,5.4545,0.1,0.00030394,3037.3,0.00030391,3036.3,-0.0001002,-0.00024968,-0.00010047,-1.9994,0.86677
28284,11.34,5.5455,0.1,0.0003016,3013.9,0.00030153,3012,-9.9334e-05,-0.0036441,-9.9857e-05,-3.9326,0.87842
28285,11.065,5.4545,0.1,0.00030896,3087.5,0.00030894,3086.9,-0.00010191,0.0001591,-0.00010204,-1.0382,0.84274
28286,11.156,5.5455,0.1,0.00030662,3064.1,0.00030657,3062.5,-0.00010103,-0.0046257,-0.00010144,-3.1102,0.85428
28287,10.881,5.4545,0.1,0.000314,3137.8,0.000314,3137.8,-0.00010361,0.034751,-0.00010363,-0.056491,0.81892
28288,10.973,5.5455,0.1,0.00031166,3114.4,0.00031162,3113.3,-0.00010274,-0.0056786,-0.00010303,-2.2427,0.83034
28289,10.698,5.4545,0.1,0.00031905,3188.3,0.00031907,3188.9,-0.0001052,1.0558,-0.00010534,-0.00481,0.7953
28290,10.789,5.5455,0.1,0.00031672,3165,0.00031669,3164.3,-0.00010445,-0.0067582,-0.00010463,-1.3284,0.80662
28291,10.514,5.4545,0.1,0.00032413,3239.1,0.00032417,3240.1,-0.00010678,2.1858,-0.00010707,-0.004496,0.7719
28292,10.606,5.5455,0.1,0.00032179,3215.7,0.00032179,3215.5,-0.00010617,-0.0078751,-0.00010622,-0.36632,0.78311
28293,10.331,5.4545,0.1,0.00032922,3289.9,0.00032928,3291.6,-0.00010836,3.3747,-0.00010881,-0.0049224,0.74872
28294,10.422,5.5455,0.1,0.00032689,3266.6,0.0003269,3266.9,-0.00010782,0.64466,-0.00010791,-0.0093609,0.75981
28295,10.147,5.4545,0.1,0.00033433,3341,0.00033441,3343.3,-0.00010994,4.6216,-0.00011056,-0.0055787,0.72576
28296,10.239,5.5455,0.1,0.000332,3317.7,0.00033203,3318.6,-0.00010942,1.7037,-0.00010965,-0.010749,0.73673
28297,9.9637,5.4545,0.1,0.00033946,3392.2,0.00033956,3395.2,-0.00011153,5.9246,-0.00011232,-0.0063677,0.70303
28298,10.055,5.5455,0.1,0.00033713,3369,0.00033718,3370.4,-0.00011102,2.8102,-0.00011139,-0.01224,0.71388
28299,9.7802,5.4545,0.1,0.0003446,3443.6,0.00034472,3447.3,-0.00011311,7.2803,-0.00011408,-0.0072919,0.68052
28300,9.872,5.5455,0.1,0.00034228,3420.4,0.00034235,3422.4,-0.00011262,3.9614,-0.00011315,-0.013846,0.69125
28301,9.5968,5.4545,0.1,0.00034976,3495.2,0.00034991,3499.5,-0.00011469,8.6832,-0.00011585,-0.0083503,0.65824
28302,9.6885,5.5455,0.1,0.00034744,3472,0.00034753,3474.6,-0.00011422,5.1533,-0.00011491,-0.015589,0.66885
28303,9.4133,5.4545,0.1,0.00035493,3546.9,0.0003551,3551.9,-0.00011628,10.125,-0.00011763,-0.0095486,0.6362
28304,9.505,5.5455,0.1,0.00035262,3523.8,0.00035273,3527,-0.00011583,6.3798,-0.00011668,-0.017455,0.64669
28305,9.2298,5.4545,0.1,0.00036012,3598.7,0.00036031,3604.4,-0.00011787,11.596,-0.00011941,-0.010908,0.6144
28306,9.3215,5.5455,0.1,0.00035781,3575.7,0.00035794,3579.5,-0.00011744,7.6322,-0.00011846,-0.019463,0.62476
28307,9.0463,5.4545,0.1,0.00036531,3650.6,0.00036553,3657.1,-0.00011946,13.079,-0.0001212,-0.012453,0.59284
28308,9.1381,5.5455,0.1,0.00036302,3627.7,0.00036317,3632.1,-0.00011905,8.8986,-0.00012024,-0.021617,0.60307
28309,8.8628,5.4545,0.1,0.00037051,3702.6,0.00037076,3709.8,-0.00012105,14.555,-0.00012299,-0.014217,0.57153
28310,8.9546,5.5455,0.1,0.00036823,3679.7,0.0003684,3684.8,-0.00012066,10.163,-0.00012202,-0.023932,0.58163
28311,8.6794,5.4545,0.1,0.00037572,3754.6,0.00037598,3762.5,-0.00012265,15.998,-0.00012478,-0.016244,0.55046
28312,8.7711,5.5455,0.1,0.00037344,3731.8,0.00037363,3737.5,-0.00012228,11.406,-0.0001238,-0.026421,0.56043
28313,8.4959,5.4545,0.1,0.00038092,3806.5,0.00038121,3815.2,-0.00012425,17.376,-0.00012656,-0.018594,0.52965
28314,8.5876,5.5455,0.1,0.00037866,3783.9,0.00037887,3790.2,-0.0001239,12.601,-0.00012558,-0.029103,0.53949
28315,8.3124,5.4545,0.1,0.00038611,3858.4,0.00038642,3867.7,-0.00012586,18.647,-0.00012834,-0.021349,0.5091
28316,8.4041,5.5455,0.1,0.00038386,3836,0.00038409,3842.8,-0.00012553,13.715,-0.00012736,-0.032009,0.5188
28317,8.1289,5.4545,0.1,0.00039128,3910.1,0.00039162,3920,-0.00012747,19.761,-0.0001301,-0.024625,0.4888
28318,8.2206,5.5455,0.1,0.00038905,3887.8,0.0003893,3895.2,-0.00012716,14.708,-0.00012912,-0.035181,0.49837
28319,7.9454,5.4545,0.1,0.00039643,3961.6,0.00039678,3971.8,-0.00012909,20.656,-0.00013185,-0.028592,0.46877
28320,8.0372,5.5455,0.1,0.00039421,3939.4,0.00039447,3947.1,-0.00012879,15.531,-0.00013086,-0.038695,0.4782
28321,7.7619,5.4545,0.1,0.00040153,4012.5,0.00040188,4023.1,-0.00013072,21.257,-0.00013356,-0.033506,0.449
28322,7.8537,5.5455,0.1,0.00039933,3990.5,0.0003996,3998.6,-0.00013043,16.121,-0.00013258,-0.042674,0.4583
28323,7.5785,5.4545,0.1,0.00040656,4062.8,0.00040692,4073.4,-0.00013237,21.473,-0.00013523,-0.039783,0.42951
28324,7.6702,5.5455,0.1,0.00040438,4041,0.00040466,4049.2,-0.00013207,16.406,-0.00013426,-0.047339,0.43866
28325,7.395,5.4545,0.1,0.00041149,4112.1,0.00041185,4122.6,-0.00013402,21.199,-0.00013685,-0.048126,0.41029
28326,7.4867,5.5455,0.1,0.00040935,4090.6,0.00040962,4098.7,-0.00013372,16.3,-0.0001359,-0.0531,0.4193
28327,7.2115,5.4545,0.1,0.0004163,4160.1,0.00041664,4170.2,-0.00013568,20.309,-0.00013839,-0.059828,0.39135
28328,7.3032,5.5455,0.1,0.00041419,4139,0.00041445,4146.8,-0.00013537,15.699,-0.00013746,-0.060764,0.40021
28329,7.028,5.4545,0.1,0.00042093,4206.4,0.00042125,4215.7,-0.00013734,18.66,-0.00013984,-0.077508,0.37268
28330,7.1198,5.5455,0.1,0.00041886,4185.7,0.0004191,4192.9,-0.00013701,14.485,-0.00013895,-0.072053,0.38141
28331,6.8445,5.4545,0.1,0.00042533,4250.4,0.0004256,4258.3,-0.00013901,16.093,-0.00014116,-0.10726,0.3543
28332,6.9363,5.5455,0.1,0.00042331,4230.1,0.00042352,4236.3,-0.00013864,12.523,-0.00014032,-0.091138,0.36288
28333,6.6611,5.4545,0.1,0.00042942,4291.2,0.00042962,4297.3,-0.00014066,12.438,-0.00014234,-0.1668,0.33621
28334,6.7528,5.5455,0.1,0.00042746,4271.6,0.00042762,4276.4,-0.00014025,9.6688,-0.00014155,-0.13052,0.34464
28335,6.4776,5.4545,0.1,0.00043309,4327.9,0.00043321,4331.5,-0.00014227,7.5705,-0.00014332,-0.33367,0.31841
28336,6.5693,5.5455,0.1,0.00043122,4309.3,0.00043132,4312,-0.00014181,5.8046,-0.00014261,-0.24722,0.32669
28337,6.2941,5.4545,0.1,0.00043623,4359.3,0.00043624,4359.6,-0.00014371,2.1338,-0.00014419,-1.4705,0.30089
28338,6.3858,5.5455,0.1,0.00043448,4341.8,0.00043449,4342,-0.0001432,1.4666,-0.00014355,-1.1678,0.30902
28339,6.1106,5.4545,0.1,0.00043868,4383.7,0.00043855,4379.9,-0.00014432,0.49085,-0.00014547,-8.1626,0.28367
28340,6.2024,5.5455,0.1,0.00043708,4367.8,0.00043697,4364.6,-0.00014388,0.3229,-0.00014482,-6.7598,0.29165
28341,5.9271,5.4545,0.1,0.00044022,4399.2,0.00043991,4390.2,-0.00014434,0.28974,-0.00014681,-18.273,0.26675
28342,6.0189,5.5455,0.1,0.00043884,4385.4,0.00043859,4377.9,-0.00014406,0.19833,-0.00014608,-15.048,0.27457
28343,5.7437,5.4545,0.1,0.00044062,4403.1,0.00044009,4387.8,-0.00014386,0.23678,-0.00014798,-30.693,0.25012
28344,5.8354,5.5455,0.1,0.00043951,4392.1,0.00043908,4379.5,-0.00014377,0.1713,-0.00014716,-25.295,0.25779
28345,5.5602,5.4545,0.1,0.00043953,4392.3,0.00043875,4369.5,-0.00014277,0.22797,-0.00014885,-45.449,0.23379
28346,5.6519,5.5455,0.1,0.00043881,4385,0.00043816,4366.2,-0.00014293,0.17426,-0.00014795,-37.58,0.24131
28347,5.3767,5.4545,0.1,0.00043658,4362.8,0.00043549,4331.3,-0.00014094,0.24422,-0.0001493,-62.549,0.21775
28348,5.4684,5.5455,0.1,0.00043635,4360.5,0.00043545,4334.4,-0.0001414,0.19432,-0.00014834,-51.963,0.22511
28349,5.1932,5.4545,0.1,0.00043127,4309.7,0.00042983,4268.4,-0.00013822,0.28253,-0.00014916,-81.871,0.20201
28350,5.285,5.5455,0.1,0.00043169,4313.9,0.00043049,4279.4,-0.00013904,0.22875,-0.00014817,-68.397,0.20921
28351,5.0097,5.4545,0.1,0.00042302,4227.3,0.00042118,4175,-0.00013443,0.34636,-0.0001482,-103.08,0.18655
28352,5.1015,5.5455,0.1,0.00042429,4239.9,0.00042275,4196.1,-0.00013568,0.27861,-0.00014725,-86.653,0.1936
28353,4.8263,5.4545,0.1,0.00041116,4108.7,0.00040888,4044.7,-0.00012938,0.44421,-0.00014615,-125.58,0.17138
28354,4.918,5.5455,0.1,0.00041349,4132,0.00041158,4078.1,-0.00013113,0.34823,-0.00014531,-106.25,0.17828
28355,4.6428,5.4545,0.1,0.00039491,3946.3,0.00039218,3870.3,-0.00012284,0.59309,-0.00014269,-148.49,0.15648
28356,4.7345,5.5455,0.1,0.00039856,3982.9,0.00039627,3918.4,-0.00012518,0.44618,-0.00014206,-126.38,0.16322
28357,4.4593,5.4545,0.1,0.0003735,3732.4,0.00037031,3644.5,-0.00011463,0.81947,-0.00013747,-170.77,0.14184
28358,4.551,5.5455,0.1,0.00037871,3784.5,0.00037602,3709.7,-0.00011763,0.59401,-0.00013712,-145.91,0.14843
28359,4.2758,5.4545,0.1,0.0003463,3460.6,0.00034265,3361.3,-0.00010455,1.1939,-0.00013022,-191.7,0.12744
28360,4.3676,5.5455,0.1,0.00035315,3529.1,0.0003501,3444.9,-0.00010828,0.82623,-0.00013015,-163.49,0.13389
28361,4.0923,5.4545,0.1,0.00031315,3129.4,0.00030902,3018.6,-9.2496e-05,1.7647,-0.00012099,-212.29,0.11326
28362,4.1841,5.5455,0.1,0.00032133,3211.1,0.00031795,3118.9,-9.6985e-05,1.2732,-0.00012086,-178.14,0.11957
28363,3.9088,5.4545,0.1,0.00027514,2749.5,0.00027033,2623.7,-7.8476e-05,2.8897,-0.00011061,-238.53,0.099267
28364,4.0006,5.5455,0.1,0.00028331,2831.1,0.0002796,2731.7,-8.3704e-05,1.9911,-0.00010938,-190.95,0.10546
28365,3.7254,5.4545,0.1,0.00023633,2361.7,0.00023005,2203.9,-6.2805e-05,3.5098,-0.00010205,-291.38,0.085433
28366,3.8171,5.5455,0.1,0.00024065,2404.8,0.00023645,2295.1,-6.85e-05,3.8538,-9.6844e-05,-209.11,0.091514
28367,3.5419,5.4545,0.1,0.00021065,2105.1,0.00019951,1849.3,-4.5597e-05,7.6096,-0.00010589,-445.44,0.071713
28368,3.6336,5.5455,0.1,0.00019901,1988.7,0.0001933,1846.8,-5.1955e-05,4.0413,-8.7261e-05,-261.23,0.077701
28369,3.4501,5.5455,0.1,0.00017936,1792.4,0.0001671,1522.7,-3.3975e-05,11.909,-9.6486e-05,-457.78,0.063977
28370,3.3584,5.4545,0.1,0.00016791,1677.9,0.00015551,1403.2,-3.16e-05,-2.6744,-9.1715e-05,-454.35,0.058059
28371,23.725,5.6364,0.1,9.489e-06,94.825,7.3144e-06,55.245,-1.6662e-08,0.16215,-7.2583e-06,-54.249,2.8131
28372,23.817,5.7273,0.1,7.1808e-06,71.758,5.2081e-06,37.14,3.1605e-07,0.38323,-5.7972e-06,-45.549,2.8284
28373,23.908,5.6364,0.1,7.3555e-06,73.504,4.1442e-06,21.402,1.2735e-06,-0.16778,-6.7528e-06,-60.474,2.8439
28374,23.541,5.6364,0.1,1.2312e-05,123.03,1.0715e-05,90.882,-1.3735e-06,0.051364,-7.9196e-06,-49.133,2.7822
28375,23.633,5.7273,0.1,9.9906e-06,99.837,8.6011e-06,72.191,-9.9959e-07,0.055507,-6.564e-06,-41.753,2.7976
28376,23.358,5.6364,0.1,1.562e-05,156.1,1.432e-05,127.94,-2.6965e-06,0.091331,-8.8324e-06,-46.011,2.7514
28377,23.45,5.7273,0.1,1.3401e-05,133.91,1.2261e-05,109.34,-2.2764e-06,0.11502,-7.6234e-06,-40.06,2.7667
28378,23.174,5.6364,0.1,1.9165e-05,191.52,1.8039e-05,165.82,-4.019e-06,0.085858,-9.8671e-06,-43.854,2.7205
28379,23.266,5.7273,0.1,1.7035e-05,170.23,1.6031e-05,147.35,-3.5673e-06,0.090139,-8.7762e-06,-39.048,2.7359
28380,22.991,5.6364,0.1,2.2837e-05,228.21,2.1826e-05,204.22,-5.3426e-06,0.084937,-1.0967e-05,-42.174,2.6897
28381,23.083,5.7273,0.1,2.0776e-05,207.62,1.9859e-05,185.85,-4.8652e-06,0.084498,-9.9697e-06,-38.269,2.7051
28382,22.807,5.6364,0.1,2.6586e-05,265.68,2.5658e-05,242.98,-6.6697e-06,0.08008,-1.2105e-05,-40.761,2.6589
28383,22.899,5.7273,0.1,2.4579e-05,245.62,2.3724e-05,224.69,-6.1716e-06,0.074076,-1.1183e-05,-37.581,2.6742
28384,22.624,5.6364,0.1,3.0387e-05,303.66,2.9522e-05,282.01,-8.0004e-06,0.075278,-1.3268e-05,-39.507,2.6281
28385,22.716,5.7273,0.1,2.8422e-05,284.02,2.7614e-05,263.78,-7.4849e-06,0.066098,-1.2408e-05,-36.922,2.6434
28386,22.44,5.6364,0.1,3.4225e-05,342.02,3.3412e-05,321.25,-9.3349e-06,0.070298,-1.4449e-05,-38.356,2.5974
28387,22.532,5.7273,0.1,3.2293e-05,322.71,3.1523e-05,303.07,-8.8045e-06,0.058838,-1.364e-05,-36.269,2.6127
28388,22.257,5.6364,0.1,3.8092e-05,380.66,3.7322e-05,360.68,-1.0673e-05,0.065558,-1.5643e-05,-37.277,2.5666
28389,22.349,5.7273,0.1,3.6187e-05,361.62,3.545e-05,342.52,-1.013e-05,0.05265,-1.4876e-05,-35.613,2.5819
28390,22.073,5.6364,0.1,4.1983e-05,419.54,4.1249e-05,400.27,-1.2015e-05,0.061096,-1.6848e-05,-36.253,2.5359
28391,22.165,5.7273,0.1,4.0099e-05,400.72,3.9391e-05,382.12,-1.146e-05,0.04728,-1.6118e-05,-34.952,2.5511
28392,21.89,5.6364,0.1,4.5895e-05,458.63,4.5193e-05,440,-1.336e-05,0.056958,-1.8062e-05,-35.271,2.5052
28393,21.982,5.7273,0.1,4.4028e-05,439.98,4.3345e-05,421.85,-1.2794e-05,0.042632,-1.7363e-05,-34.285,2.5204
28394,21.706,5.6364,0.1,4.9825e-05,497.9,4.9153e-05,479.88,-1.4708e-05,0.053143,-1.9284e-05,-34.327,2.4745
28395,21.798,5.7273,0.1,4.7972e-05,479.39,4.7312e-05,461.71,-1.4133e-05,0.038587,-1.8612e-05,-33.615,2.4897
28396,21.523,5.6364,0.1,5.3772e-05,537.35,5.3127e-05,519.89,-1.606e-05,0.049637,-2.0514e-05,-33.416,2.4439
28397,21.615,5.7273,0.1,5.193e-05,518.94,5.1291e-05,501.7,-1.5476e-05,0.035061,-1.9865e-05,-32.945,2.4591
28398,21.34,5.6364,0.1,5.7737e-05,576.97,5.7115e-05,560.03,-1.7415e-05,0.046418,-2.1751e-05,-32.535,2.4133
28399,21.431,5.7273,0.1,5.5902e-05,558.64,5.5284e-05,541.81,-1.6823e-05,0.031973,-2.1123e-05,-32.276,2.4284
28400,21.156,5.6364,0.1,6.1717e-05,616.75,6.1118e-05,600.31,-1.8773e-05,0.043462,-2.2996e-05,-31.684,2.3827
28401,21.248,5.7273,0.1,5.9889e-05,598.47,5.9289e-05,582.06,-1.8174e-05,0.02925,-2.2385e-05,-31.611,2.3978
28402,20.973,5.6364,0.1,6.5714e-05,656.68,6.5135e-05,640.73,-2.0136e-05,0.040752,-2.4248e-05,-30.86,2.3522
28403,21.064,5.7273,0.1,6.3889e-05,638.45,6.3307e-05,622.42,-1.9529e-05,0.026853,-2.3652e-05,-30.952,2.3673
28404,20.789,5.6364,0.1,6.9726e-05,696.78,6.9167e-05,681.28,-2.1501e-05,0.038264,-2.5507e-05,-30.063,2.3217
28405,20.881,5.7273,0.1,6.7904e-05,678.57,6.7338e-05,662.93,-2.0889e-05,0.024731,-2.4925e-05,-30.302,2.3368
28406,20.606,5.6364,0.1,7.3755e-05,737.04,7.3214e-05,721.98,-2.2871e-05,0.035983,-2.6774e-05,-29.292,2.2912
28407,20.697,5.7273,0.1,7.1934e-05,718.84,7.1384e-05,703.56,-2.2252e-05,0.022845,-2.6203e-05,-29.661,2.3063
28408,20.422,5.6364,0.1,7.7801e-05,777.47,7.7276e-05,762.82,-2.4244e-05,0.033891,-2.8048e-05,-28.548,2.2608
28409,20.514,5.7273,0.1,7.5978e-05,759.26,7.5443e-05,744.34,-2.3619e-05,0.021174,-2.7486e-05,-29.032,2.2759
28410,20.239,5.6364,0.1,8.1863e-05,818.06,8.1354e-05,803.81,-2.5622e-05,0.031962,-2.933e-05,-27.829,2.2305
28411,20.33,5.7273,0.1,8.0038e-05,799.83,7.9517e-05,785.25,-2.4991e-05,0.019679,-2.8775e-05,-28.415,2.2455
28412,20.055,5.6364,0.1,8.5941e-05,858.82,8.5448e-05,844.95,-2.7003e-05,0.030182,-3.0619e-05,-27.135,2.2002
28413,20.147,5.7273,0.1,8.4114e-05,840.56,8.3607e-05,826.32,-2.6367e-05,0.018338,-3.0071e-05,-27.811,2.2152
28414,19.872,5.6364,0.1,9.0037e-05,899.75,8.9558e-05,886.24,-2.8389e-05,0.028546,-3.1915e-05,-26.465,2.17
28415,19.963,5.7273,0.1,8.8206e-05,881.45,8.7712e-05,867.53,-2.7748e-05,0.01713,-3.1373e-05,-27.221,2.1849
28416,19.688,5.6364,0.1,9.4151e-05,940.86,9.3685e-05,927.69,-2.978e-05,0.027045,-3.322e-05,-25.819,2.1398
28417,19.78,5.7273,0.1,9.2314e-05,922.51,9.1832e-05,908.9,-2.9133e-05,0.016056,-3.2681e-05,-26.646,2.1547
28418,19.505,5.6364,0.1,9.8282e-05,982.14,9.7829e-05,969.31,-3.1175e-05,0.025651,-3.4531e-05,-25.196,2.1097
28419,19.596,5.7273,0.1,9.6439e-05,963.73,9.5969e-05,950.43,-3.0523e-05,0.015089,-3.3997e-05,-26.085,2.1245
28420,19.321,5.6364,0.1,0.00010243,1023.6,0.00010199,1011.1,-3.2574e-05,0.024363,-3.5851e-05,-24.595,2.0796
28421,19.413,5.7273,0.1,0.00010058,1005.1,0.00010012,992.12,-3.1918e-05,0.014201,-3.5319e-05,-25.539,2.0945
28422,19.138,5.6364,0.1,0.0001066,1065.2,0.00010617,1053,-3.3979e-05,0.023178,-3.7178e-05,-24.016,2.0496
28423,19.229,5.7273,0.1,0.00010474,1046.7,0.00010429,1034,-3.3317e-05,0.01341,-3.6648e-05,-25.009,2.0644
28424,18.954,5.6364,0.1,0.00011078,1107.1,0.00011037,1095.2,-3.5388e-05,0.022077,-3.8513e-05,-23.458,2.0197
28425,19.046,5.7273,0.1,0.00010892,1088.4,0.00010848,1076,-3.4722e-05,0.012692,-3.7984e-05,-24.492,2.0345
28426,18.771,5.6364,0.1,0.00011499,1149.1,0.00011458,1137.4,-3.6803e-05,0.021062,-3.9856e-05,-22.919,1.9899
28427,18.863,5.7273,0.1,0.00011311,1130.4,0.00011269,1118.2,-3.6132e-05,0.012035,-3.9327e-05,-23.991,2.0046
28428,18.587,5.6364,0.1,0.00011921,1191.3,0.00011881,1179.9,-3.8222e-05,0.020121,-4.1206e-05,-22.4,1.9601
28429,18.679,5.7273,0.1,0.00011733,1172.5,0.00011691,1160.6,-3.7547e-05,0.011451,-4.0677e-05,-23.504,1.9748
28430,18.404,5.6364,0.1,0.00012345,1233.6,0.00012306,1222.6,-3.9647e-05,0.019242,-4.2564e-05,-21.898,1.9304
28431,18.496,5.7273,0.1,0.00012156,1214.8,0.00012115,1203.1,-3.8968e-05,0.010911,-4.2035e-05,-23.031,1.945
28432,18.22,5.6364,0.1,0.00012771,1276.2,0.00012733,1265.4,-4.1078e-05,0.018415,-4.393e-05,-21.414,1.9008
28433,18.312,5.7273,0.1,0.00012581,1257.2,0.00012541,1245.8,-4.0394e-05,0.010412,-4.3399e-05,-22.571,1.9154
28434,18.037,5.6364,0.1,0.00013199,1319,0.00013162,1308.4,-4.2514e-05,0.017646,-4.5304e-05,-20.946,1.8713
28435,18.129,5.7273,0.1,0.00013008,1299.9,0.00012969,1288.7,-4.1825e-05,0.0099455,-4.4771e-05,-22.125,1.8858
28436,17.853,5.6364,0.1,0.00013629,1361.9,0.00013593,1351.6,-4.3955e-05,0.016936,-4.6685e-05,-20.494,1.8418
28437,17.945,5.7273,0.1,0.00013437,1342.8,0.00013399,1331.8,-4.3263e-05,0.0095335,-4.6151e-05,-21.691,1.8563
28438,17.67,5.6364,0.1,0.00014061,1405.1,0.00014026,1395,-4.5402e-05,0.016259,-4.8073e-05,-20.055,1.8125
28439,17.762,5.7273,0.1,0.00013868,1385.8,0.0001383,1375.1,-4.4705e-05,0.0091552,-4.7537e-05,-21.269,1.8269
28440,17.486,5.6364,0.1,0.00014494,1448.4,0.0001446,1438.5,-4.6855e-05,0.015619,-4.9469e-05,-19.63,1.7832
28441,17.578,5.7273,0.1,0.00014301,1429.1,0.00014264,1418.5,-4.6154e-05,0.0087824,-4.8931e-05,-20.858,1.7976
28442,17.303,5.6364,0.1,0.0001493,1492,0.00014897,1482.3,-4.8313e-05,0.015021,-5.0873e-05,-19.217,1.7541
28443,17.395,5.7273,0.1,0.00014735,1472.5,0.00014699,1462.2,-4.7609e-05,0.0084517,-5.0332e-05,-20.458,1.7684
28444,17.119,5.6364,0.1,0.00015368,1535.7,0.00015335,1526.2,-4.9778e-05,0.014452,-5.2284e-05,-18.816,1.725
28445,17.211,5.7273,0.1,0.00015172,1516.1,0.00015137,1506,-4.9069e-05,0.0081423,-5.1741e-05,-20.068,1.7393
28446,16.936,5.6364,0.1,0.00015808,1579.7,0.00015775,1570.4,-5.1248e-05,0.013917,-5.3702e-05,-18.425,1.6961
28447,17.028,5.7273,0.1,0.0001561,1560,0.00015576,1550,-5.0535e-05,0.0078484,-5.3157e-05,-19.687,1.7103
28448,16.753,5.6364,0.1,0.00016249,1623.8,0.00016218,1614.7,-5.2725e-05,0.013408,-5.5128e-05,-18.043,1.6672
28449,16.844,5.7273,0.1,0.00016051,1604,0.00016017,1594.2,-5.2008e-05,0.0075871,-5.4579e-05,-19.314,1.6814
28450,16.569,5.6364,0.1,0.00016693,1668.1,0.00016662,1659.2,-5.4208e-05,0.01291,-5.6561e-05,-17.669,1.6385
28451,16.661,5.7273,0.1,0.00016493,1648.2,0.0001646,1638.7,-5.3486e-05,0.0073327,-5.6009e-05,-18.95,1.6526
28452,16.386,5.6364,0.1,0.00017138,1712.7,0.00017108,1703.9,-5.5697e-05,0.012419,-5.8001e-05,-17.303,1.6099
28453,16.477,5.7273,0.1,0.00016938,1692.6,0.00016906,1683.3,-5.4971e-05,0.007081,-5.7447e-05,-18.592,1.6239
28454,16.202,5.6364,0.1,0.00017586,1757.4,0.00017557,1748.9,-5.7192e-05,0.011948,-5.9448e-05,-16.943,1.5813
28455,16.294,5.7273,0.1,0.00017384,1737.2,0.00017353,1728.1,-5.6462e-05,0.0068295,-5.8891e-05,-18.241,1.5953
28456,16.019,5.6364,0.1,0.00018036,1802.3,0.00018007,1794,-5.8693e-05,0.0115,-6.0902e-05,-16.588,1.5529
28457,16.11,5.7273,0.1,0.00017833,1782.1,0.00017802,1773.1,-5.796e-05,0.0066102,-6.0342e-05,-17.895,1.5668
28458,15.835,5.6364,0.1,0.00018487,1847.4,0.00018459,1839.3,-6.0201e-05,0.011045,-6.2363e-05,-16.237,1.5247
28459,15.927,5.7273,0.1,0.00018283,1827.1,0.00018253,1818.2,-5.9463e-05,0.0063989,-6.18e-05,-17.553,1.5385
28460,15.652,5.6364,0.1,0.00018941,1892.8,0.00018913,1884.8,-6.1715e-05,0.010593,-6.3831e-05,-15.889,1.4965
28461,15.743,5.7273,0.1,0.00018736,1872.3,0.00018706,1863.6,-6.0973e-05,0.0061638,-6.3265e-05,-17.215,1.5103
28462,15.468,5.6364,0.1,0.00019396,1938.3,0.0001937,1930.5,-6.3236e-05,0.010151,-6.5306e-05,-15.543,1.4685
28463,15.56,5.7273,0.1,0.0001919,1917.7,0.00019161,1909.2,-6.249e-05,0.0059566,-6.4737e-05,-16.881,1.4822
28464,15.285,5.6364,0.1,0.00019854,1984,0.00019828,1976.4,-6.4763e-05,0.0097023,-6.6787e-05,-15.198,1.4406
28465,15.376,5.7273,0.1,0.00019647,1963.3,0.00019618,1955,-6.4013e-05,0.0057458,-6.6216e-05,-16.548,1.4542
28466,15.101,5.6364,0.1,0.00020314,2030,0.00020288,2022.5,-6.6297e-05,0.0092588,-6.8275e-05,-14.853,1.4128
28467,15.193,5.7273,0.1,0.00020105,2009.2,0.00020077,2001,-6.5543e-05,0.0055313,-6.7702e-05,-16.216,1.4263
28468,14.918,5.6364,0.1,0.00020775,2076.1,0.0002075,2068.8,-6.7838e-05,0.008813,-6.9769e-05,-14.506,1.3852
28469,15.009,5.7273,0.1,0.00020566,2055.2,0.00020539,2047.2,-6.7079e-05,0.0053387,-6.9194e-05,-15.884,1.3986
28470,14.734,5.6364,0.1,0.00021239,2122.4,0.00021214,2115.3,-6.9385e-05,0.0083458,-7.127e-05,-14.157,1.3577
28471,14.826,5.7273,0.1,0.00021029,2101.4,0.00021002,2093.6,-6.8622e-05,0.0051322,-7.0693e-05,-15.552,1.3711
28472,14.551,5.6364,0.1,0.00021704,2168.9,0.00021681,2162,-7.0939e-05,0.0078523,-7.2777e-05,-13.804,1.3303
28473,14.642,5.7273,0.1,0.00021493,2147.8,0.00021467,2140.2,-7.0172e-05,0.0049118,-7.2198e-05,-15.218,1.3436
28474,14.367,5.6364,0.1,0.00022172,2215.7,0.00022149,2208.9,-7.25e-05,0.0073508,-7.429e-05,-13.445,1.3031
28475,14.459,5.7273,0.1,0.0002196,2194.5,0.00021934,2187,-7.1728e-05,0.0046708,-7.3709e-05,-14.881,1.3163
28476,14.184,5.6364,0.1,0.00022642,2262.6,0.00022619,2256,-7.4068e-05,0.0068466,-7.581e-05,-13.08,1.276
28477,14.276,5.7273,0.1,0.00022428,2241.3,0.00022403,2234,-7.3292e-05,0.0044568,-7.5228e-05,-14.54,1.2892
28478,14,5.6364,0.1,0.00023113,2309.7,0.00023091,2303.4,-7.5643e-05,0.0063016,-7.7335e-05,-12.708,1.2491
28479,14.092,5.7273,0.1,0.00022899,2288.3,0.00022875,2281.2,-7.4862e-05,0.0042364,-7.6752e-05,-14.194,1.2622
28480,13.817,5.6364,0.1,0.00023587,2357.1,0.00023566,2350.9,-7.7225e-05,0.0057276,-7.8866e-05,-12.326,1.2224
28481,13.909,5.7273,0.1,0.00023372,2335.6,0.00023348,2328.6,-7.6439e-05,0.0039716,-7.8282e-05,-13.842,1.2354
28482,13.633,5.6364,0.1,0.00024063,2404.6,0.00024042,2398.6,-7.8814e-05,0.0051364,-8.0403e-05,-11.933,1.1958
28483,13.725,5.7273,0.1,0.00023846,2383,0.00023823,2376.2,-7.8024e-05,0.0037279,-7.9819e-05,-13.483,1.2087
28484,13.45,5.6364,0.1,0.0002454,2452.3,0.0002452,2446.5,-8.0411e-05,0.0045057,-8.1945e-05,-11.528,1.1694
28485,13.542,5.7273,0.1,0.00024323,2430.6,0.00024301,2424,-7.9615e-05,0.0034689,-8.1361e-05,-13.115,1.1822
28486,13.266,5.6364,0.1,0.0002502,2500.3,0.00025001,2494.7,-8.2014e-05,0.003852,-8.3493e-05,-11.109,1.1431
28487,13.358,5.7273,0.1,0.00024802,2478.5,0.0002478,2472.1,-8.1214e-05,0.0031926,-8.291e-05,-12.737,1.1558
28488,13.083,5.6364,0.1,0.00025501,2548.4,0.00025483,2543,-8.3625e-05,0.0031537,-8.5046e-05,-10.674,1.117
28489,13.175,5.7273,0.1,0.00025283,2526.5,0.00025261,2520.3,-8.282e-05,0.0029389,-8.4464e-05,-12.348,1.1296
28490,12.899,5.6364,0.1,0.00025985,2596.7,0.00025968,2591.6,-8.5244e-05,0.0023911,-8.6605e-05,-10.222,1.091
28491,12.991,5.7273,0.1,0.00025766,2574.8,0.00025745,2568.8,-8.4434e-05,0.0026344,-8.6024e-05,-11.947,1.1036
28492,12.716,5.6364,0.1,0.00026471,2645.3,0.00026454,2640.4,-8.687e-05,0.0015992,-8.8168e-05,-9.7513,1.0653
28493,12.808,5.7273,0.1,0.0002625,2623.2,0.00026231,2617.4,-8.6054e-05,0.0023203,-8.7589e-05,-11.531,1.0777
28494,12.532,5.6364,0.1,0.00026959,2694,0.00026943,2689.4,-8.8504e-05,0.00076543,-8.9737e-05,-9.2594,1.0397
28495,12.624,5.7273,0.1,0.00026737,2671.9,0.00026718,2666.3,-8.7683e-05,0.0020357,-8.916e-05,-11.1,1.052
28496,12.349,5.6364,0.1,0.00027448,2742.9,0.00027433,2738.5,-9.0146e-05,-0.00014004,-9.131e-05,-8.7447,1.0143
28497,12.441,5.7273,0.1,0.00027226,2720.8,0.00027208,2715.4,-8.9319e-05,0.0017271,-9.0737e-05,-10.652,1.0265
28498,12.165,5.6364,0.1,0.0002794,2792.1,0.00027926,2788,-9.1795e-05,-0.0011223,-9.2887e-05,-8.2052,0.98908
28499,12.257,5.7273,0.1,0.00027717,2769.8,0.000277,2764.7,-9.0962e-05,0.0014014,-9.2318e-05,-10.186,1.0012
28500,11.982,5.6364,0.1,0.00028434,2841.4,0.00028421,2837.6,-9.3453e-05,-0.0021617,-9.4469e-05,-7.6391,0.96405
28501,12.074,5.7273,0.1,0.0002821,2819.1,0.00028194,2814.2,-9.2614e-05,0.0010612,-9.3905e-05,-9.6997,0.97609
28502,11.799,5.6364,0.1,0.00028929,2890.9,0.00028917,2887.4,-9.5118e-05,-0.0032555,-9.6055e-05,-7.0442,0.93921
28503,11.89,5.7273,0.1,0.00028706,2868.6,0.0002869,2864,-9.4273e-05,0.00076132,-9.5496e-05,-9.1916,0.95115
28504,11.615,5.6364,0.1,0.00029427,2940.7,0.00029416,2937.5,-9.6792e-05,-0.0044245,-9.7646e-05,-6.4187,0.91456
28505,11.707,5.7273,0.1,0.00029203,2918.3,0.00029188,2913.9,-9.594e-05,0.00047855,-9.7093e-05,-8.6604,0.92639
28506,11.432,5.6364,0.1,0.00029927,2990.6,0.00029917,2987.7,-9.8474e-05,-0.0056441,-9.924e-05,-5.7607,0.89011
28507,11.523,5.7273,0.1,0.00029702,2968.2,0.00029688,2964.1,-9.7615e-05,0.00022817,-9.8694e-05,-8.1044,0.90184
28508,11.248,5.6364,0.1,0.00030429,3040.8,0.0003042,3038.2,-0.00010016,-0.0069294,-0.00010084,-5.0685,0.86586
28509,11.34,5.7273,0.1,0.00030203,3018.3,0.00030191,3014.5,-9.9299e-05,8.5891e-05,-0.0001003,-7.5223,0.87748
28510,11.065,5.6364,0.1,0.00030932,3091.1,0.00030925,3088.9,-0.00010186,-0.0082847,-0.00010244,-4.3406,0.84181
28511,11.156,5.7273,0.1,0.00030707,3068.6,0.00030695,3065.1,-0.00010099,3.2615e-06,-0.00010191,-6.9129,0.85333
28512,10.881,5.6364,0.1,0.00031438,3141.6,0.00031432,3139.8,-0.00010357,-0.0096256,-0.00010404,-3.5754,0.81798
28513,10.973,5.7273,0.1,0.00031212,3119.1,0.00031202,3115.9,-0.00010269,9.5013e-05,-0.00010352,-6.2749,0.82938
28514,10.698,5.6364,0.1,0.00031946,3192.4,0.00031941,3191,-0.00010528,-0.010872,-0.00010565,-2.7722,0.79435
28515,10.789,5.7273,0.1,0.0003172,3169.8,0.0003171,3167,-0.0001044,0.00050767,-0.00010514,-5.6075,0.80564
28516,10.514,5.6364,0.1,0.00032455,3243.3,0.00032452,3242.3,-0.00010701,-0.011775,-0.00010726,-1.9307,0.77094
28517,10.606,5.7273,0.1,0.00032229,3220.7,0.00032221,3218.2,-0.00010611,0.0013497,-0.00010677,-4.9104,0.78211
28518,10.331,5.6364,0.1,0.00032967,3294.4,0.00032965,3293.9,-0.00010874,-0.011051,-0.00010888,-1.0523,0.74774
28519,10.422,5.7273,0.1,0.00032741,3271.8,0.00032733,3269.7,-0.00010784,0.0029395,-0.00010839,-4.1837,0.7588
28520,10.147,5.6364,0.1,0.0003348,3345.7,0.0003348,3345.6,-0.00011047,0.022459,-0.0001105,-0.16886,0.72477
28521,10.239,5.7273,0.1,0.00033254,3323.1,0.00033248,3321.4,-0.00010957,0.0058987,-0.00011002,-3.4284,0.73571
28522,9.9637,5.6364,0.1,0.00033995,3397.2,0.00033997,3397.6,-0.00011211,0.83526,-0.00011223,-0.02883,0.70202
28523,10.055,5.7273,0.1,0.00033769,3374.6,0.00033765,3373.3,-0.00011131,0.011681,-0.00011166,-2.647,0.71284
28524,9.7802,5.6364,0.1,0.00034512,3448.8,0.00034515,3449.7,-0.00011374,1.8193,-0.00011398,-0.027373,0.6795
28525,9.872,5.7273,0.1,0.00034286,3426.3,0.00034283,3425.4,-0.00011305,0.024181,-0.0001133,-1.8455,0.6902
28526,9.5968,5.6364,0.1,0.00035031,3500.7,0.00035035,3502.1,-0.00011536,2.834,-0.00011574,-0.028756,0.65722
28527,9.6885,5.7273,0.1,0.00034805,3478.1,0.00034803,3477.6,-0.0001148,0.059144,-0.00011495,-1.0429,0.66779
28528,9.4133,5.6364,0.1,0.00035551,3552.6,0.00035557,3554.5,-0.00011699,3.8706,-0.00011751,-0.0309,0.63516
28529,9.505,5.7273,0.1,0.00035325,3530.1,0.00035325,3530,-0.00011654,0.23054,-0.00011661,-0.35768,0.64562
28530,9.2298,5.6364,0.1,0.00036072,3604.7,0.0003608,3607.1,-0.00011862,4.9193,-0.00011928,-0.033424,0.61335
28531,9.3215,5.7273,0.1,0.00035847,3582.2,0.00035848,3582.6,-0.00011822,0.86587,-0.00011835,-0.12385,0.62368
28532,9.0463,5.6364,0.1,0.00036594,3656.8,0.00036604,3659.8,-0.00012026,5.9676,-0.00012106,-0.036199,0.59178
28533,9.1381,5.7273,0.1,0.00036369,3634.4,0.00036372,3635.2,-0.00011987,1.6955,-0.00012011,-0.080339,0.60198
28534,8.8628,5.6364,0.1,0.00037116,3709,0.00037128,3712.5,-0.0001219,6.9995,-0.00012283,-0.039165,0.57045
28535,8.9546,5.7273,0.1,0.00036893,3686.7,0.00036897,3688,-0.00012153,2.5475,-0.00012188,-0.066511,0.58052
28536,8.6794,5.6364,0.1,0.00037639,3761.3,0.00037652,3765.2,-0.00012354,7.9942,-0.00012461,-0.042285,0.54938
28537,8.7711,5.7273,0.1,0.00037416,3739,0.00037422,3740.7,-0.00012319,3.3861,-0.00012365,-0.061053,0.55931
28538,8.4959,5.6364,0.1,0.0003816,3813.4,0.00038175,3817.8,-0.00012518,8.9259,-0.00012638,-0.045536,0.52856
28539,8.5876,5.7273,0.1,0.00037939,3791.3,0.00037946,3793.4,-0.00012485,4.1882,-0.00012541,-0.05913,0.53836
28540,8.3124,5.6364,0.1,0.00038681,3865.4,0.00038697,3870.2,-0.00012683,9.7622,-0.00012813,-0.048902,0.50799
28541,8.4041,5.7273,0.1,0.00038461,3843.4,0.00038469,3845.9,-0.00012651,4.9293,-0.00012717,-0.059106,0.51766
28542,8.1289,5.6364,0.1,0.00039198,3917.1,0.00039216,3922.3,-0.00012848,10.463,-0.00012988,-0.052386,0.48768
28543,8.2206,5.7273,0.1,0.0003898,3895.3,0.00038989,3898.1,-0.00012816,5.5803,-0.00012892,-0.060306,0.49722
28544,7.9454,5.6364,0.1,0.00039712,3968.4,0.0003973,3973.9,-0.00013013,10.981,-0.0001316,-0.05602,0.46764
28545,8.0372,5.7273,0.1,0.00039495,3946.8,0.00039506,3949.8,-0.00012982,6.1064,-0.00013064,-0.062448,0.47704
28546,7.7619,5.6364,0.1,0.00040219,4019.1,0.00040238,4024.7,-0.00013178,11.256,-0.00013328,-0.059906,0.44787
28547,7.8537,5.7273,0.1,0.00040005,3997.7,0.00040016,4000.9,-0.00013147,6.4653,-0.00013234,-0.065477,0.45712
28548,7.5785,5.6364,0.1,0.00040717,4068.9,0.00040736,4074.5,-0.00013343,11.218,-0.00013493,-0.064294,0.42836
28549,7.6702,5.7273,0.1,0.00040507,4047.9,0.00040518,4051.1,-0.00013312,6.6067,-0.000134,-0.069565,0.43748
28550,7.395,5.6364,0.1,0.00041204,4117.6,0.00041222,4122.9,-0.00013507,10.785,-0.00013651,-0.06977,0.40913
28551,7.4867,5.7273,0.1,0.00040997,4096.9,0.00041008,4100.1,-0.00013475,6.4708,-0.00013562,-0.07524,0.41811
28552,7.2115,5.6364,0.1,0.00041675,4164.6,0.00041691,4169.5,-0.0001367,9.861,-0.00013802,-0.077754,0.39018
28553,7.3032,5.7273,0.1,0.00041472,4144.4,0.00041482,4147.3,-0.00013635,5.9878,-0.00013716,-0.08384,0.39901
28554,7.028,5.6364,0.1,0.00042123,4209.4,0.00042137,4213.6,-0.00013831,8.3354,-0.00013943,-0.092093,0.37151
28555,7.1198,5.7273,0.1,0.00041927,4189.8,0.00041936,4192.3,-0.00013793,5.0784,-0.00013862,-0.09903,0.38019
28556,6.8445,5.6364,0.1,0.00042544,4251.5,0.00042554,4254.4,-0.00013988,6.0926,-0.00014071,-0.12604,0.35312
28557,6.9363,5.7273,0.1,0.00042356,4232.6,0.00042362,4234.4,-0.00013946,3.6595,-0.00013997,-0.1338,0.36166
28558,6.6611,5.6364,0.1,0.00042927,4289.7,0.00042932,4291.2,-0.00014139,3.0666,-0.00014183,-0.25929,0.33502
28559,6.7528,5.7273,0.1,0.00042749,4272,0.00042752,4272.7,-0.00014092,1.7067,-0.00014118,-0.27325,0.34341
28560,6.4776,5.6364,0.1,0.00043262,4323.2,0.00043259,4322.5,-0.00014263,0.4803,-0.00014294,-1.8744,0.31721
28561,6.5693,5.7273,0.1,0.00043097,4306.8,0.00043095,4306.1,-0.00014212,0.26361,-0.00014238,-1.684,0.32544
28562,6.2941,5.6364,0.1,0.00043534,4350.4,0.00043522,4346.9,-0.0001433,0.16748,-0.00014425,-6.976,0.29968
28563,6.3858,5.7273,0.1,0.00043387,4335.7,0.00043378,4333.1,-0.00014291,0.084239,-0.00014362,-5.2551,0.30777
28564,6.1106,5.6364,0.1,0.00043725,4369.5,0.00043702,4362.6,-0.0001436,0.12605,-0.00014545,-13.736,0.28246
28565,6.2024,5.7273,0.1,0.00043602,4357.2,0.00043585,4352.2,-0.00014339,0.049451,-0.00014472,-10.012,0.29039
28566,5.9271,5.6364,0.1,0.00043813,4378.3,0.00043775,4367.2,-0.00014348,0.12599,-0.00014643,-22.093,0.26552
28567,6.0189,5.7273,0.1,0.00043721,4369,0.00043693,4361,-0.00014348,0.040452,-0.00014561,-15.985,0.2733
28568,5.7437,5.6364,0.1,0.0004377,4374,0.00043714,4357.9,-0.00014283,0.14277,-0.00014713,-32.161,0.24888
28569,5.8354,5.7273,0.1,0.00043718,4368.8,0.00043678,4357.1,-0.00014311,0.040872,-0.00014622,-23.3,0.25651
28570,5.5602,5.6364,0.1,0.00043561,4353.1,0.00043484,4331,-0.00014155,0.1704,-0.00014743,-44.019,0.23253
28571,5.6519,5.7273,0.1,0.00043562,4353.2,0.00043507,4337.1,-0.00014216,0.045717,-0.00014644,-32.075,0.24001
28572,5.3767,5.6364,0.1,0.00043143,4311.3,0.00043043,4282.3,-0.00013949,0.20692,-0.00014719,-57.655,0.21648
28573,5.4684,5.7273,0.1,0.00043215,4318.5,0.00043141,4297.2,-0.0001405,0.052419,-0.00014615,-42.383,0.2238
28574,5.1932,5.6364,0.1,0.00042466,4243.7,0.00042338,4206.9,-0.00013649,0.25165,-0.00014623,-72.901,0.20071
28575,5.285,5.7273,0.1,0.00042628,4259.9,0.00042534,4232.5,-0.00013797,0.059135,-0.0001452,-54.217,0.20788
28576,5.0097,5.6364,0.1,0.00041468,4143.9,0.00041309,4098.6,-0.00013237,0.30515,-0.0001443,-89.358,0.18523
28577,5.1015,5.7273,0.1,0.00041747,4171.9,0.00041629,4137.8,-0.00013441,0.064685,-0.00014339,-67.435,0.19225
28578,4.8263,5.6364,0.1,0.00040078,4005,0.00039887,3951,-0.00012693,0.37019,-0.00014112,-106.31,0.17003
28579,4.918,5.7273,0.1,0.00040507,4047.9,0.00040362,4006.5,-0.0001296,0.070071,-0.00014048,-81.693,0.17689
28580,4.6428,5.6364,0.1,0.00038219,3819.2,0.00037996,3756.6,-0.00011996,0.45738,-0.00013634,-122.63,0.15509
28581,4.7345,5.7273,0.1,0.00038835,3880.8,0.00038662,3831.8,-0.00012335,0.081454,-0.00013618,-96.364,0.16181
28582,4.4593,5.6364,0.1,0.00035808,3578.4,0.00035557,3508.3,-0.00011128,0.59212,-0.00012956,-136.8,0.1404
28583,4.551,5.7273,0.1,0.00036653,3662.8,0.00036453,3606.3,-0.00011543,0.12256,-0.00013015,-110.46,0.14698
28584,4.2758,5.6364,0.1,0.00032775,3275.3,0.00032502,3199.7,-0.00010072,0.86315,-0.0001204,-147.04,0.12595
28585,4.3676,5.7273,0.1,0.00033884,3386,0.00033659,3323.2,-0.00010567,0.24409,-0.00012202,-122.61,0.13239
28586,4.0923,5.6364,0.1,0.00029077,2905.7,0.0002879,2827.3,-8.8205e-05,1.4146,-0.00010862,-152.01,0.11171
28587,4.1841,5.7273,0.1,0.00030463,3044.2,0.00030219,2976.8,-9.3906e-05,0.62597,-0.00011145,-131.2,0.11803
28588,3.9088,5.6364,0.1,0.00024747,2472.9,0.00024455,2394.4,-7.3732e-05,2.9324,-9.4449e-05,-152.73,0.097657
28589,4.0006,5.7273,0.1,0.00026362,2634.4,0.00026108,2565,-8.0094e-05,1.491,-9.8265e-05,-135.04,0.10386
28590,3.7254,5.6364,0.1,0.00020025,2001.1,0.0001971,1918.5,-5.7558e-05,5.0789,-7.954e-05,-160.09,0.083749
28591,3.8171,5.7273,0.1,0.00021628,2161.3,0.00021372,2092.5,-6.4219e-05,4.2473,-8.2749e-05,-134.98,0.08985
28592,3.5419,5.6364,0.1,0.00015979,1596.8,0.00015469,1473.7,-3.9933e-05,11.346,-7.2062e-05,-230.06,0.06995
28593,3.6336,5.7273,0.1,0.00016535,1652.4,0.00016251,1578.9,-4.6632e-05,7.5157,-6.68e-05,-144.01,0.075972
28594,3.4501,5.7273,0.1,0.00012515,1250.7,0.00011951,1123.2,-2.728e-05,20.301,-6.1338e-05,-235.6,0.062181
28595,3.3584,5.6364,0.1,0.00011725,1171.7,0.00011148,1035.3,-2.6863e-05,-4.1769,-5.7511e-05,-234.45,0.056216
28596,23.725,5.8182,0.1,7.7289e-06,77.236,6.5767e-06,54.702,-6.6249e-07,0.30957,-5.1892e-06,-33.703,2.8129
28597,23.817,5.9091,0.1,4.8816e-06,48.782,4.147e-06,34.384,-4.1952e-07,0.072568,-3.2853e-06,-21.46,2.8283
28598,23.908,5.8182,0.1,4.8565e-06,48.531,3.2008e-06,20.465,4.811e-07,0.030287,-4.1734e-06,-34.942,2.8438
28599,23.541,5.8182,0.1,1.119e-05,111.83,1.0241e-05,91.361,-1.9029e-06,0.11575,-6.3617e-06,-33.386,2.7821
28600,23.633,5.9091,0.1,8.2294e-06,82.238,7.6268e-06,68.864,-1.5573e-06,-0.14162,-4.4843e-06,-22.134,2.7974
28601,23.358,5.8182,0.1,1.4921e-05,149.11,1.4058e-05,129.39,-3.149e-06,0.10054,-7.6509e-06,-33.725,2.7512
28602,23.45,5.9091,0.1,1.184e-05,118.32,1.1293e-05,105.39,-2.7397e-06,-0.047493,-5.7373e-06,-22.57,2.7666
28603,23.174,5.8182,0.1,1.8738e-05,187.25,1.7926e-05,167.94,-4.4156e-06,0.0729,-8.9511e-06,-34.005,2.7204
28604,23.266,5.9091,0.1,1.5566e-05,155.55,1.505e-05,142.83,-3.965e-06,-0.033689,-7.0041e-06,-22.869,2.7357
28605,22.991,5.8182,0.1,2.2597e-05,225.82,2.1822e-05,206.82,-5.6964e-06,0.057568,-1.0249e-05,-34.149,2.6896
28606,23.083,5.9091,0.1,1.9354e-05,193.41,1.886e-05,180.88,-5.215e-06,-0.015005,-8.2742e-06,-23,2.7049
28607,22.807,5.8182,0.1,2.6484e-05,264.66,2.5737e-05,245.94,-6.9889e-06,0.04471,-1.1542e-05,-34.162,2.6587
28608,22.899,5.9091,0.1,2.3187e-05,231.71,2.271e-05,219.34,-6.4839e-06,-0.0068173,-9.5464e-06,-23.018,2.6741
28609,22.624,5.8182,0.1,3.039e-05,303.69,2.9667e-05,285.24,-8.2909e-06,0.035259,-1.2829e-05,-34.064,2.628
28610,22.716,5.9091,0.1,2.7053e-05,270.34,2.659e-05,258.14,-7.7668e-06,-0.00095135,-1.0821e-05,-22.946,2.6433
28611,22.44,5.8182,0.1,3.4311e-05,342.88,3.361e-05,324.69,-9.6009e-06,0.027843,-1.4113e-05,-33.874,2.5972
28612,22.532,5.9091,0.1,3.0945e-05,309.24,3.0494e-05,297.2,-9.061e-06,0.0026334,-1.2097e-05,-22.808,2.6125
28613,22.257,5.8182,0.1,3.8246e-05,382.19,3.7563e-05,364.29,-1.0918e-05,0.022054,-1.5394e-05,-33.61,2.5664
28614,22.349,5.9091,0.1,3.4858e-05,348.34,3.4418e-05,336.48,-1.0364e-05,0.0050358,-1.3375e-05,-22.618,2.5817
28615,22.073,5.8182,0.1,4.2192e-05,421.63,4.1528e-05,404.01,-1.2241e-05,0.017463,-1.6673e-05,-33.285,2.5357
28616,22.165,5.9091,0.1,3.8791e-05,387.64,3.8361e-05,375.96,-1.1675e-05,0.0066037,-1.4656e-05,-22.388,2.5509
28617,21.89,5.8182,0.1,4.615e-05,461.18,4.5502e-05,443.85,-1.3569e-05,0.0138,-1.7951e-05,-32.913,2.505
28618,21.982,5.9091,0.1,4.274e-05,427.1,4.2321e-05,415.61,-1.2993e-05,0.0076215,-1.5939e-05,-22.126,2.5202
28619,21.706,5.8182,0.1,5.012e-05,500.85,4.9488e-05,483.81,-1.4902e-05,0.010858,-1.923e-05,-32.502,2.4743
28620,21.798,5.9091,0.1,4.6705e-05,466.73,4.6295e-05,455.43,-1.4317e-05,0.008261,-1.7225e-05,-21.84,2.4895
28621,21.523,5.8182,0.1,5.4101e-05,540.63,5.3484e-05,523.89,-1.6241e-05,0.0084892,-2.0509e-05,-32.061,2.4436
28622,21.615,5.9091,0.1,5.0685e-05,506.5,5.0285e-05,495.4,-1.5647e-05,0.0086393,-1.8515e-05,-21.535,2.4588
28623,21.34,5.8182,0.1,5.8093e-05,580.53,5.7491e-05,564.09,-1.7584e-05,0.0065711,-2.179e-05,-31.597,2.413
28624,21.431,5.9091,0.1,5.468e-05,546.42,5.4288e-05,535.51,-1.6983e-05,0.0088318,-1.9807e-05,-21.215,2.4282
28625,21.156,5.8182,0.1,6.2098e-05,620.55,6.151e-05,604.41,-1.8931e-05,0.0050178,-2.3073e-05,-31.116,2.3824
28626,21.248,5.9091,0.1,5.8689e-05,586.49,5.8306e-05,575.77,-1.8323e-05,0.0088821,-2.1104e-05,-20.885,2.3976
28627,20.973,5.8182,0.1,6.6115e-05,660.7,6.5541e-05,644.86,-2.0283e-05,0.0037616,-2.4359e-05,-30.623,2.3519
28628,21.064,5.9091,0.1,6.2713e-05,626.69,6.2338e-05,616.17,-1.9668e-05,0.0088466,-2.2404e-05,-20.549,2.367
28629,20.789,5.8182,0.1,7.0146e-05,700.98,6.9585e-05,685.43,-2.164e-05,0.0027431,-2.5649e-05,-30.121,2.3214
28630,20.881,5.9091,0.1,6.6751e-05,667.05,6.6384e-05,656.72,-2.1019e-05,0.0087395,-2.3709e-05,-20.207,2.3365
28631,20.606,5.8182,0.1,7.419e-05,741.39,7.3642e-05,726.14,-2.3001e-05,0.0019247,-2.6943e-05,-29.614,2.2909
28632,20.697,5.9091,0.1,7.0804e-05,707.55,7.0445e-05,697.41,-2.2374e-05,0.0085862,-2.5018e-05,-19.863,2.306
28633,20.422,5.8182,0.1,7.8248e-05,781.94,7.7713e-05,766.98,-2.4367e-05,0.001268,-2.8241e-05,-29.106,2.2605
28634,20.514,5.9091,0.1,7.4871e-05,748.2,7.452e-05,738.25,-2.3734e-05,0.008409,-2.6333e-05,-19.519,2.2756
28635,20.239,5.8182,0.1,8.2321e-05,822.64,8.1797e-05,807.97,-2.5737e-05,0.00073881,-2.9543e-05,-28.599,2.2302
28636,20.33,5.9091,0.1,7.8954e-05,789,7.8611e-05,779.24,-2.5099e-05,0.0082048,-2.7652e-05,-19.176,2.2452
28637,20.055,5.8182,0.1,8.6409e-05,863.49,8.5897e-05,849.11,-2.7112e-05,0.00031432,-3.0851e-05,-28.094,2.1999
28638,20.147,5.9091,0.1,8.3052e-05,829.95,8.2716e-05,820.38,-2.6468e-05,0.0079871,-2.8976e-05,-18.835,2.2149
28639,19.872,5.8182,0.1,9.0513e-05,904.5,9.0012e-05,890.39,-2.8492e-05,-1.7752e-05,-3.2164e-05,-27.594,2.1696
28640,19.963,5.9091,0.1,8.7167e-05,871.06,8.6837e-05,861.67,-2.7843e-05,0.0077565,-3.0306e-05,-18.497,2.1846
28641,19.688,5.8182,0.1,9.4632e-05,945.67,9.4142e-05,931.83,-2.9877e-05,-0.00026982,-3.3483e-05,-27.099,2.1394
28642,19.78,5.9091,0.1,9.1297e-05,912.34,9.0974e-05,903.12,-2.9223e-05,0.0075352,-3.1642e-05,-18.164,2.1544
28643,19.505,5.8182,0.1,9.8768e-05,987,9.8288e-05,973.42,-3.1266e-05,-0.00046689,-3.4808e-05,-26.611,2.1093
28644,19.596,5.9091,0.1,9.5443e-05,953.78,9.5128e-05,944.74,-3.0608e-05,0.0073166,-3.2983e-05,-17.836,2.1242
28645,19.321,5.8182,0.1,0.00010292,1028.5,0.00010245,1015.2,-3.2661e-05,-0.00061628,-3.6139e-05,-26.132,2.0793
28646,19.413,5.9091,0.1,9.9607e-05,995.38,9.9297e-05,986.51,-3.1998e-05,0.007088,-3.433e-05,-17.513,2.0941
28647,19.138,5.8182,0.1,0.00010709,1070.2,0.00010663,1057.1,-3.4061e-05,-0.0007186,-3.7476e-05,-25.66,2.0493
28648,19.229,5.9091,0.1,0.00010379,1037.2,0.00010348,1028.5,-3.3394e-05,0.0068741,-3.5683e-05,-17.196,2.0641
28649,18.954,5.8182,0.1,0.00011128,1112,0.00011083,1099.2,-3.5466e-05,-0.00078897,-3.882e-05,-25.197,2.0193
28650,19.046,5.9091,0.1,0.00010798,1079.1,0.00010769,1070.6,-3.4795e-05,0.0066663,-3.7043e-05,-16.885,2.0341
28651,18.771,5.8182,0.1,0.00011548,1154,0.00011504,1141.5,-3.6877e-05,-0.00082738,-4.017e-05,-24.744,1.9895
28652,18.863,5.9091,0.1,0.0001122,1121.2,0.00011191,1112.8,-3.6201e-05,0.0064618,-3.8409e-05,-16.581,2.0042
28653,18.587,5.8182,0.1,0.00011971,1196.2,0.00011927,1183.9,-3.8293e-05,-0.00083894,-4.1527e-05,-24.3,1.9597
28654,18.679,5.9091,0.1,0.00011643,1163.5,0.00011615,1155.3,-3.7613e-05,0.006278,-3.9781e-05,-16.284,1.9744
28655,18.404,5.8182,0.1,0.00012395,1238.6,0.00012352,1226.5,-3.9715e-05,-0.00083836,-4.2891e-05,-23.866,1.93
28656,18.496,5.9091,0.1,0.00012068,1206,0.0001204,1197.9,-3.903e-05,0.0060956,-4.1159e-05,-15.992,1.9446
28657,18.22,5.8182,0.1,0.00012821,1281.2,0.00012779,1269.3,-4.1142e-05,-0.0008298,-4.4262e-05,-23.441,1.9004
28658,18.312,5.9091,0.1,0.00012495,1248.7,0.00012468,1240.7,-4.0453e-05,0.0059138,-4.2545e-05,-15.708,1.915
28659,18.037,5.8182,0.1,0.00013249,1323.9,0.00013208,1312.3,-4.2575e-05,-0.00080354,-4.5639e-05,-23.026,1.8708
28660,18.129,5.9091,0.1,0.00012924,1291.5,0.00012897,1283.7,-4.1882e-05,0.005733,-4.3936e-05,-15.43,1.8854
28661,17.853,5.8182,0.1,0.00013678,1366.9,0.00013638,1355.4,-4.4013e-05,-0.00075694,-4.7024e-05,-22.62,1.8414
28662,17.945,5.9091,0.1,0.00013355,1334.5,0.00013328,1326.9,-4.3317e-05,0.0055749,-4.5335e-05,-15.159,1.8559
28663,17.67,5.8182,0.1,0.0001411,1410,0.00014071,1398.8,-4.5458e-05,-0.00071268,-4.8415e-05,-22.223,1.812
28664,17.762,5.9091,0.1,0.00013787,1377.7,0.00013761,1370.2,-4.4757e-05,0.0054254,-4.674e-05,-14.893,1.8265
28665,17.486,5.8182,0.1,0.00014544,1453.3,0.00014505,1442.3,-4.6908e-05,-0.00066492,-4.9814e-05,-21.835,1.7828
28666,17.578,5.9091,0.1,0.00014221,1421.2,0.00014196,1413.8,-4.6203e-05,0.0052597,-4.8152e-05,-14.634,1.7971
28667,17.303,5.8182,0.1,0.00014979,1496.9,0.00014941,1486,-4.8364e-05,-0.00060368,-5.122e-05,-21.455,1.7536
28668,17.395,5.9091,0.1,0.00014658,1464.8,0.00014633,1457.5,-4.7656e-05,0.0051182,-4.957e-05,-14.381,1.7679
28669,17.119,5.8182,0.1,0.00015417,1540.6,0.0001538,1529.9,-4.9827e-05,-0.00054018,-5.2632e-05,-21.083,1.7245
28670,17.211,5.9091,0.1,0.00015096,1508.5,0.00015071,1501.4,-4.9114e-05,0.0049772,-5.0996e-05,-14.133,1.7388
28671,16.936,5.8182,0.1,0.00015856,1584.5,0.0001582,1574,-5.1295e-05,-0.00046693,-5.4052e-05,-20.718,1.6956
28672,17.028,5.9091,0.1,0.00015536,1552.5,0.00015512,1545.5,-5.0578e-05,0.0048389,-5.2428e-05,-13.891,1.7098
28673,16.753,5.8182,0.1,0.00016297,1628.6,0.00016262,1618.3,-5.277e-05,-0.00038601,-5.5479e-05,-20.361,1.6667
28674,16.844,5.9091,0.1,0.00015978,1596.7,0.00015954,1589.8,-5.2049e-05,0.0047199,-5.3867e-05,-13.653,1.6808
28675,16.569,5.8182,0.1,0.00016741,1672.9,0.00016706,1662.8,-5.425e-05,-0.00031027,-5.6913e-05,-20.01,1.6379
28676,16.661,5.9091,0.1,0.00016422,1641.1,0.00016399,1634.3,-5.3526e-05,0.0045951,-5.5313e-05,-13.421,1.652
28677,16.386,5.8182,0.1,0.00017186,1717.4,0.00017152,1707.5,-5.5737e-05,-0.00024181,-5.8354e-05,-19.665,1.6093
28678,16.477,5.9091,0.1,0.00016868,1685.6,0.00016845,1679,-5.5009e-05,0.0044663,-5.6765e-05,-13.193,1.6233
28679,16.202,5.8182,0.1,0.00017633,1762.1,0.000176,1752.4,-5.723e-05,-0.00016363,-5.9802e-05,-19.326,1.5808
28680,16.294,5.9091,0.1,0.00017316,1730.4,0.00017293,1723.9,-5.6498e-05,0.0043269,-5.8225e-05,-12.969,1.5947
28681,16.019,5.8182,0.1,0.00018083,1807,0.0001805,1797.5,-5.873e-05,-7.017e-05,-6.1258e-05,-18.991,1.5523
28682,16.11,5.9091,0.1,0.00017766,1775.3,0.00017744,1768.9,-5.7994e-05,0.0042142,-5.9691e-05,-12.748,1.5662
28683,15.835,5.8182,0.1,0.00018534,1852.1,0.00018502,1842.7,-6.0236e-05,1.222e-05,-6.272e-05,-18.661,1.5241
28684,15.927,5.9091,0.1,0.00018218,1820.5,0.00018196,1814.2,-5.9496e-05,0.0041019,-6.1164e-05,-12.531,1.5379
28685,15.652,5.8182,0.1,0.00018988,1897.4,0.00018956,1888.2,-6.1748e-05,9.5693e-05,-6.4189e-05,-18.335,1.4959
28686,15.743,5.9091,0.1,0.00018671,1865.9,0.0001865,1859.7,-6.1004e-05,0.003963,-6.2644e-05,-12.317,1.5096
28687,15.468,5.8182,0.1,0.00019443,1942.9,0.00019412,1933.9,-6.3267e-05,0.00019224,-6.5664e-05,-18.011,1.4678
28688,15.56,5.9091,0.1,0.00019127,1911.4,0.00019106,1905.3,-6.2519e-05,0.0038473,-6.4131e-05,-12.105,1.4815
28689,15.285,5.8182,0.1,0.000199,1988.7,0.0001987,1979.8,-6.4793e-05,0.00028772,-6.7147e-05,-17.69,1.4399
28690,15.376,5.9091,0.1,0.00019585,1957.2,0.00019565,1951.2,-6.4041e-05,0.0037251,-6.5625e-05,-11.895,1.4535
28691,15.101,5.8182,0.1,0.0002036,2034.6,0.0002033,2025.8,-6.6325e-05,0.00039679,-6.8637e-05,-17.37,1.4121
28692,15.193,5.9091,0.1,0.00020045,2003.1,0.00020025,1997.3,-6.5569e-05,0.0035973,-6.7125e-05,-11.687,1.4257
28693,14.918,5.8182,0.1,0.00020821,2080.7,0.00020792,2072.1,-6.7864e-05,0.00051697,-7.0133e-05,-17.051,1.3845
28694,15.009,5.9091,0.1,0.00020507,2049.3,0.00020487,2043.5,-6.7104e-05,0.0034895,-6.8632e-05,-11.481,1.3979
28695,14.734,5.8182,0.1,0.00021285,2127,0.00021256,2118.6,-6.9409e-05,0.00063211,-7.1636e-05,-16.732,1.357
28696,14.826,5.9091,0.1,0.00020971,2095.7,0.00020952,2090,-6.8645e-05,0.003368,-7.0146e-05,-11.275,1.3704
28697,14.551,5.8182,0.1,0.0002175,2173.5,0.00021722,2165.3,-7.0961e-05,0.00074087,-7.3146e-05,-16.412,1.3296
28698,14.642,5.9091,0.1,0.00021437,2142.2,0.00021418,2136.7,-7.0193e-05,0.0032339,-7.1667e-05,-11.069,1.3429
28699,14.367,5.8182,0.1,0.00022218,2220.2,0.0002219,2212.2,-7.252e-05,0.00086617,-7.4662e-05,-16.091,1.3024
28700,14.459,5.9091,0.1,0.00021905,2189,0.00021886,2183.5,-7.1748e-05,0.0030811,-7.3194e-05,-10.864,1.3156
28701,14.184,5.8182,0.1,0.00022687,2267.2,0.0002266,2259.3,-7.4086e-05,0.0010174,-7.6185e-05,-15.768,1.2753
28702,14.276,5.9091,0.1,0.00022375,2236,0.00022357,2230.6,-7.3309e-05,0.0029575,-7.4728e-05,-10.657,1.2884
28703,14,5.8182,0.1,0.00023159,2314.3,0.00023132,2306.6,-7.5659e-05,0.0011618,-7.7714e-05,-15.441,1.2484
28704,14.092,5.9091,0.1,0.00022847,2283.2,0.00022829,2277.9,-7.4878e-05,0.0028308,-7.6269e-05,-10.449,1.2614
28705,13.817,5.8182,0.1,0.00023633,2361.7,0.00023607,2354.1,-7.7239e-05,0.0013157,-7.925e-05,-15.11,1.2216
28706,13.909,5.9091,0.1,0.00023322,2330.5,0.00023304,2325.4,-7.6453e-05,0.0026637,-7.7816e-05,-10.24,1.2346
28707,13.633,5.8182,0.1,0.00024109,2409.2,0.00024083,2401.8,-7.8825e-05,0.0014963,-8.0792e-05,-14.775,1.195
28708,13.725,5.9091,0.1,0.00023798,2378.1,0.00023781,2373.1,-7.8035e-05,0.0025234,-7.9371e-05,-10.029,1.2079
28709,13.45,5.8182,0.1,0.00024586,2456.9,0.00024562,2449.7,-8.0419e-05,0.001688,-8.234e-05,-14.432,1.1686
28710,13.542,5.9091,0.1,0.00024276,2426,0.00024259,2421,-7.9625e-05,0.0023744,-8.0931e-05,-9.814,1.1813
28711,13.266,5.8182,0.1,0.00025066,2504.9,0.00025042,2497.8,-8.202e-05,0.0019125,-8.3895e-05,-14.083,1.1423
28712,13.358,5.9091,0.1,0.00024757,2474,0.0002474,2469.2,-8.1221e-05,0.0022136,-8.2499e-05,-9.596,1.155
28713,13.083,5.8182,0.1,0.00025548,2553.1,0.00025525,2546.2,-8.3628e-05,0.0021581,-8.5456e-05,-13.726,1.1161
28714,13.175,5.9091,0.1,0.00025239,2522.2,0.00025223,2517.5,-8.2825e-05,0.0020853,-8.4073e-05,-9.3739,1.1288
28715,12.899,5.8182,0.1,0.00026032,2601.4,0.00026009,2594.7,-8.5244e-05,0.0024119,-8.7022e-05,-13.36,1.0902
28716,12.991,5.9091,0.1,0.00025724,2570.6,0.00025708,2566,-8.4435e-05,0.0019158,-8.5653e-05,-9.1472,1.1027
28717,12.716,5.8182,0.1,0.00026518,2650,0.00026496,2643.5,-8.6867e-05,0.0027188,-8.8595e-05,-12.983,1.0644
28718,12.808,5.9091,0.1,0.00026211,2619.3,0.00026196,2614.8,-8.6053e-05,0.0017477,-8.724e-05,-8.915,1.0768
28719,12.532,5.8182,0.1,0.00027007,2698.8,0.00026985,2692.5,-8.8497e-05,0.0030762,-9.0174e-05,-12.594,1.0388
28720,12.624,5.9091,0.1,0.000267,2668.1,0.00026685,2663.8,-8.7679e-05,0.0016196,-8.8834e-05,-8.6768,1.0511
28721,12.349,5.8182,0.1,0.00027497,2747.8,0.00027476,2741.7,-9.0135e-05,0.0034656,-9.1758e-05,-12.193,1.0134
28722,12.441,5.9091,0.1,0.00027191,2717.2,0.00027176,2713,-8.9312e-05,0.0014792,-9.0434e-05,-8.4319,1.0256
28723,12.165,5.8182,0.1,0.00027989,2797,0.00027969,2791.1,-9.1781e-05,0.0038986,-9.3349e-05,-11.778,0.98817
28724,12.257,5.9091,0.1,0.00027684,2766.5,0.0002767,2762.4,-9.0952e-05,0.0013368,-9.2041e-05,-8.1796,1.0003
28725,11.982,5.8182,0.1,0.00028484,2846.4,0.00028464,2840.7,-9.3434e-05,0.0044089,-9.4945e-05,-11.349,0.96313
28726,12.074,5.9091,0.1,0.00028179,2816,0.00028166,2812,-9.2599e-05,0.0011915,-9.3654e-05,-7.9192,0.97515
28727,11.799,5.8182,0.1,0.00028981,2896.1,0.00028962,2890.6,-9.5095e-05,0.005018,-9.6546e-05,-10.903,0.93827
28728,11.89,5.9091,0.1,0.00028677,2865.7,0.00028664,2861.9,-9.4255e-05,0.0010968,-9.5273e-05,-7.65,0.95019
28729,11.615,5.8182,0.1,0.00029479,2945.9,0.00029461,2940.7,-9.6763e-05,0.0057278,-9.8154e-05,-10.439,0.91361
28730,11.707,5.9091,0.1,0.00029177,2915.7,0.00029164,2912,-9.5918e-05,0.0010264,-9.6899e-05,-7.3712,0.92542
28731,11.432,5.8182,0.1,0.0002998,2995.9,0.00029963,2990.9,-9.844e-05,0.0065872,-9.9766e-05,-9.9575,0.88915
28732,11.523,5.9091,0.1,0.00029679,2965.8,0.00029667,2962.3,-9.7588e-05,0.00098919,-9.8531e-05,-7.0824,0.90085
28733,11.248,5.8182,0.1,0.00030483,3046.2,0.00030467,3041.5,-0.00010012,0.0076111,-0.00010138,-9.4564,0.86488
28734,11.34,5.9091,0.1,0.00030183,3016.2,0.00030171,3012.8,-9.9267e-05,0.0010467,-0.00010017,-6.7827,0.87648
28735,11.065,5.8182,0.1,0.00030988,3096.7,0.00030973,3092.2,-0.00010182,0.0088263,-0.00010301,-8.935,0.84082
28736,11.156,5.9091,0.1,0.00030689,3066.8,0.00030678,3063.6,-0.00010095,0.0011316,-0.00010181,-6.4718,0.85231
28737,10.881,5.8182,0.1,0.00031495,3147.3,0.00031481,3143.1,-0.00010352,0.010341,-0.00010464,-8.3927,0.81697
28738,10.973,5.9091,0.1,0.00031198,3117.6,0.00031187,3114.5,-0.00010265,0.0013175,-0.00010347,-6.1491,0.82835
28739,10.698,5.8182,0.1,0.00032004,3198.2,0.00031991,3194.3,-0.00010523,0.01223,-0.00010627,-7.8289,0.79333
28740,10.789,5.9091,0.1,0.00031708,3168.6,0.00031698,3165.7,-0.00010435,0.0016791,-0.00010512,-5.8141,0.80459
28741,10.514,5.8182,0.1,0.00032516,3249.3,0.00032503,3245.7,-0.00010694,0.014579,-0.00010791,-7.2437,0.7699
28742,10.606,5.9091,0.1,0.00032221,3219.9,0.00032212,3217.2,-0.00010606,0.0021953,-0.00010679,-5.4669,0.78105
28743,10.331,5.8182,0.1,0.00033029,3300.6,0.00033018,3297.3,-0.00010867,0.017561,-0.00010955,-6.6374,0.7467
28744,10.422,5.9091,0.1,0.00032736,3271.4,0.00032727,3268.8,-0.00010778,0.0029295,-0.00010846,-5.1072,0.75773
28745,10.147,5.8182,0.1,0.00033544,3352.1,0.00033534,3349.1,-0.0001104,0.021448,-0.0001112,-6.0109,0.72371
28746,10.239,5.9091,0.1,0.00033253,3323,0.00033245,3320.7,-0.0001095,0.0039572,-0.00011013,-4.7356,0.73462
28747,9.9637,5.8182,0.1,0.00034061,3403.8,0.00034052,3401.1,-0.00011213,0.026624,-0.00011285,-5.3657,0.70095
28748,10.055,5.9091,0.1,0.00033772,3374.9,0.00033765,3372.7,-0.00011123,0.0054336,-0.00011181,-4.3525,0.71174
28749,9.7802,5.8182,0.1,0.0003458,3455.6,0.00034572,3453.3,-0.00011388,0.033663,-0.00011451,-4.7046,0.67841
28750,9.872,5.9091,0.1,0.00034293,3427,0.00034286,3425,-0.00011297,0.0074785,-0.0001135,-3.9589,0.68908
28751,9.5968,5.8182,0.1,0.00035101,3507.6,0.00035094,3505.7,-0.00011563,0.043557,-0.00011617,-4.0316,0.65611
28752,9.6885,5.9091,0.1,0.00034816,3479.2,0.0003481,3477.4,-0.00011472,0.010292,-0.00011519,-3.5565,0.66666
28753,9.4133,5.8182,0.1,0.00035623,3559.8,0.00035617,3558.2,-0.00011738,0.058057,-0.00011784,-3.3527,0.63405
28754,9.505,5.9091,0.1,0.0003534,3531.6,0.00035335,3530,-0.00011647,0.014205,-0.00011689,-3.1476,0.64447
28755,9.2298,5.8182,0.1,0.00036146,3612.1,0.00036141,3610.8,-0.00011914,0.080511,-0.00011951,-2.6769,0.61222
28756,9.3215,5.9091,0.1,0.00035866,3584.1,0.00035861,3582.8,-0.00011822,0.019682,-0.00011859,-2.7354,0.62251
28757,9.0463,5.8182,0.1,0.0003667,3664.4,0.00036666,3663.5,-0.0001209,0.11797,-0.00012118,-2.0189,0.59064
28758,9.1381,5.9091,0.1,0.00036392,3636.7,0.00036389,3635.6,-0.00011998,0.027476,-0.00012029,-2.3243,0.6008
28759,8.8628,5.8182,0.1,0.00037194,3716.8,0.00037192,3716.2,-0.00012265,0.18681,-0.00012287,-1.4045,0.5693
28760,8.9546,5.9091,0.1,0.0003692,3689.4,0.00036916,3688.5,-0.00012174,0.038809,-0.000122,-1.9202,0.57933
28761,8.6794,5.8182,0.1,0.00037718,3769.2,0.00037717,3768.9,-0.0001244,0.32537,-0.00012456,-0.88443,0.54821
28762,8.7711,5.9091,0.1,0.00037447,3742.1,0.00037444,3741.3,-0.00012349,0.055788,-0.0001237,-1.5313,0.55811
28763,8.4959,5.8182,0.1,0.0003824,3821.4,0.0003824,3821.4,-0.00012612,0.59077,-0.00012627,-0.53106,0.52738
28764,8.5876,5.9091,0.1,0.00037973,3794.7,0.00037971,3794.1,-0.00012525,0.082135,-0.00012541,-1.1688,0.53715
28765,8.3124,5.8182,0.1,0.00038761,3873.4,0.00038762,3873.7,-0.00012781,0.96966,-0.00012799,-0.34995,0.5068
28766,8.4041,5.9091,0.1,0.00038497,3847.1,0.00038496,3846.7,-0.00012699,0.12425,-0.00012712,-0.84858,0.51643
28767,8.1289,5.8182,0.1,0.00039278,3925.1,0.0003928,3925.6,-0.00012949,1.3641,-0.00012971,-0.2663,0.48648
28768,8.2206,5.9091,0.1,0.00039019,3899.2,0.00039018,3899,-0.00012872,0.19073,-0.00012882,-0.5909,0.49598
28769,7.9454,5.8182,0.1,0.00039789,3976.2,0.00039792,3976.9,-0.00013115,1.6924,-0.00013141,-0.22674,0.46643
28770,8.0372,5.9091,0.1,0.00039535,3950.8,0.00039535,3950.7,-0.00013042,0.28308,-0.00013051,-0.41136,0.47579
28771,7.7619,5.8182,0.1,0.00040293,4026.6,0.00040296,4027.4,-0.0001328,1.8994,-0.00013308,-0.20983,0.44665
28772,7.8537,5.9091,0.1,0.00040045,4001.7,0.00040045,4001.7,-0.0001321,0.37832,-0.00013219,-0.3041,0.45586
28773,7.5785,5.8182,0.1,0.00040787,4075.9,0.0004079,4076.7,-0.00013442,1.938,-0.00013471,-0.209,0.42713
28774,7.6702,5.9091,0.1,0.00040544,4051.6,0.00040545,4051.7,-0.00013375,0.43302,-0.00013384,-0.24619,0.43621
28775,7.395,5.8182,0.1,0.00041266,4123.7,0.00041268,4124.5,-0.00013602,1.7629,-0.00013628,-0.22702,0.40789
28776,7.4867,5.9091,0.1,0.00041031,4100.3,0.00041031,4100.3,-0.00013536,0.40506,-0.00013544,-0.21983,0.41682
28777,7.2115,5.8182,0.1,0.00041726,4169.7,0.00041727,4170.2,-0.00013757,1.3386,-0.00013778,-0.28465,0.38893
28778,7.3032,5.9091,0.1,0.000415,4147.1,0.000415,4147.1,-0.00013692,0.26673,-0.00013698,-0.22607,0.39772
28779,7.028,5.8182,0.1,0.0004216,4213.1,0.00042161,4213.2,-0.00013905,0.70597,-0.0001392,-0.48845,0.37025
28780,7.1198,5.9091,0.1,0.00041945,4191.6,0.00041944,4191.5,-0.0001384,0.05536,-0.00013845,-0.33582,0.37889
28781,6.8445,5.8182,0.1,0.00042562,4253.2,0.0004256,4252.7,-0.00014037,0.22709,-0.00014057,-1.2763,0.35185
28782,6.9363,5.9091,0.1,0.0004236,4233,0.00042358,4232.6,-0.00013975,-0.048211,-0.00013985,-0.76893,0.36034
28783,6.6611,5.8182,0.1,0.0004292,4289,0.00042915,4287.6,-0.00014149,0.074191,-0.00014188,-2.907,0.33374
28784,6.7528,5.9091,0.1,0.00042734,4270.5,0.00042732,4269.7,-0.00014095,-0.068727,-0.00014115,-1.5454,0.34208
28785,6.4776,5.8182,0.1,0.00043223,4319.3,0.00043214,4316.7,-0.00014237,0.023452,-0.00014308,-5.2543,0.31591
28786,6.5693,5.9091,0.1,0.00043058,4302.8,0.00043053,4301.5,-0.00014197,-0.070113,-0.00014231,-2.6522,0.32411
28787,6.2941,5.8182,0.1,0.00043455,4342.5,0.00043441,4338.4,-0.00014299,0.0015402,-0.0001441,-8.353,0.29838
28788,6.3858,5.9091,0.1,0.00043316,4328.6,0.00043309,4326.5,-0.00014274,-0.065287,-0.00014329,-4.1334,0.30643
28789,6.1106,5.8182,0.1,0.00043598,4356.7,0.00043576,4350.6,-0.00014326,-0.0098392,-0.0001449,-12.302,0.28114
28790,6.2024,5.9091,0.1,0.00043491,4346.1,0.0004348,4343,-0.00014322,-0.057314,-0.00014402,-6.0484,0.28903
28791,5.9271,5.8182,0.1,0.00043626,4359.6,0.00043596,4350.9,-0.00014311,-0.017583,-0.0001454,-17.217,0.26419
28792,6.0189,5.9091,0.1,0.0004356,4352.9,0.00043545,4348.7,-0.00014333,-0.047173,-0.00014445,-8.4632,0.27193
28793,5.7437,5.8182,0.1,0.0004351,4348,0.0004347,4336.3,-0.00014243,-0.025815,-0.00014552,-23.215,0.24754
28794,5.8354,5.9091,0.1,0.00043495,4346.5,0.00043476,4340.8,-0.00014297,-0.03534,-0.00014449,-11.446,0.25513
28795,5.5602,5.8182,0.1,0.00043215,4318.5,0.00043163,4303.2,-0.0001411,-0.038199,-0.00014515,-30.4,0.23118
28796,5.6519,5.9091,0.1,0.00043264,4323.5,0.00043239,4315.9,-0.00014203,-0.022269,-0.00014403,-15.061,0.23861
28797,5.3767,5.8182,0.1,0.00042698,4266.8,0.0004263,4247.2,-0.00013898,-0.058626,-0.00014414,-38.845,0.21511
28798,5.4684,5.9091,0.1,0.00042826,4279.7,0.00042793,4270,-0.00014037,-0.0086474,-0.00014294,-19.361,0.22239
28799,5.1932,5.8182,0.1,0.00041906,4187.8,0.00041822,4163.2,-0.00013589,-0.091051,-0.00014234,-48.558,0.19932
28800,5.285,5.9091,0.1,0.00042133,4210.4,0.00042091,4198.2,-0.00013783,0.0044154,-0.00014107,-24.372,0.20645
28801,5.0097,5.8182,0.1,0.00040782,4075.4,0.00040677,4045.3,-0.00013164,-0.13803,-0.00013953,-59.439,0.18382
28802,5.1015,5.9091,0.1,0.00041127,4109.9,0.00041075,4094.8,-0.00013423,0.015127,-0.00013823,-30.069,0.1908
28803,4.8263,5.8182,0.1,0.00039257,3922.9,0.0003913,3886.8,-0.00012602,-0.19731,-0.00013547,-71.219,0.16859
28804,4.918,5.9091,0.1,0.00039744,3971.7,0.00039681,3953.4,-0.00012935,0.021051,-0.00013419,-36.346,0.17542
28805,4.6428,5.8182,0.1,0.00037258,3723.2,0.00037108,3680.7,-0.00011882,-0.25219,-0.00012988,-83.379,0.15362
28806,4.7345,5.9091,0.1,0.00037912,3788.6,0.00037838,3767,-0.00012298,0.018216,-0.0001287,-42.967,0.16031
28807,4.4593,5.8182,0.1,0.00034711,3468.7,0.00034539,3420.1,-0.00010983,-0.25804,-0.00012245,-95.075,0.13889
28808,4.551,5.9091,0.1,0.00035556,3553.2,0.0003547,3528.2,-0.00011487,0.005404,-0.00012146,-49.503,0.14545
28809,4.2758,5.8182,0.1,0.00031547,3152.5,0.00031355,3098.7,-9.8865e-05,-0.084308,-0.00011284,-105.07,0.1244
28810,4.3676,5.9091,0.1,0.00032603,3258.1,0.00032506,3230.1,-0.00010484,-0.026994,-0.0001122,-55.269,0.13083
28811,4.0923,5.8182,0.1,0.00027714,2769.5,0.00027508,2712.2,-8.5823e-05,0.49418,-0.00010077,-111.78,0.11011
28812,4.1841,5.9091,0.1,0.00028991,2897.1,0.00028885,2867,-9.2723e-05,-0.02866,-0.0001006,-59.243,0.11642
28813,3.9088,5.8182,0.1,0.0002319,2317.4,0.0002298,2259.7,-7.064e-05,2.3626,-8.6052e-05,-113.43,0.096003
28814,4.0006,5.9091,0.1,0.00024681,2466.4,0.00024574,2435.8,-7.846e-05,-0.083126,-8.645e-05,-60.116,0.1022
28815,3.7254,5.8182,0.1,0.00018021,1800.8,0.00017814,1745.6,-5.3366e-05,6.1375,-6.8947e-05,-110.93,0.08204
28816,3.8171,5.9091,0.1,0.00019668,1965.5,0.00019568,1937.1,-6.2047e-05,0.69856,-6.9607e-05,-56.101,0.088151
28817,3.5419,5.8182,0.1,0.00012545,1253.6,0.00012311,1196.8,-3.3424e-05,20.646,-5.2421e-05,-122.09,0.068185
28818,3.6336,5.9091,0.1,0.00014012,1400.2,0.00013924,1375.7,-4.371e-05,1.0952,-5.0345e-05,-48.76,0.074226
28819,3.3584,5.8182,0.1,7.1191e-05,711.42,6.9689e-05,672.46,-1.9902e-05,-0.68746,-2.9377e-05,-71.879,0.0544
28820,3.4501,5.9091,0.1,8.0035e-05,799.8,7.9039e-05,776.01,-2.1874e-05,17.785,-3.219e-05,-59.723,0.060392
28821,0.18235,0.27273,0.1,0.00042737,4270.8,0.0004197,4184.3,-7.9362e-05,434.52,-0.00019899,-464.33,0.00011811
28822,0.27353,0.18182,0.1,0.00044983,4495.2,0.00044701,4417.6,-0.00013876,16.417,-0.00016303,-165.89,0.00020855
28823,0.091176,0.18182,0.1,0.00027406,2738.8,0.00029136,3256.9,-5.9779e-05,618.52,-8.5179e-05,427.68,2.7065e-05
28824,0.18235,0.090909,0.1,0.00038507,3848,0.00037966,3691.6,-0.00012469,-97.914,-0.00013993,-212.37,5.4683e-05
28825,0.18235,0.45455,0.1,0.00049047,4901.3,0.00047278,4846.2,-3.1394e-05,1058,-0.00026396,-689.35,0.00015544
28826,0.27353,0.36364,0.1,0.00046196,4616.4,0.00046256,4791.6,-7.4816e-05,753.99,-0.00020727,-241.23,0.00030019
28827,0.091176,0.36364,0.1,0.00034463,3444,0.00038009,4605.6,-2.0262e-05,1597.5,-0.0001199,848.91,4.3868e-05
28828,0.18235,0.63636,0.1,0.0005507,5503.2,0.00052713,5463.8,-1.4903e-05,1391.2,-0.00030611,-796.86,0.00017812
28829,0.27353,0.54545,0.1,0.00049911,4987.6,0.00049753,5289.8,-4.0477e-05,1247.4,-0.0002443,-283.99,0.00035787
28830,0.091176,0.54545,0.1,0.00040247,4021.9,0.00044548,5477.5,-8.6775e-06,2065.1,-0.00014468,1043.2,5.3083e-05
28831,0.18235,0.81818,0.1,0.00059651,5961,0.00056955,5931,-8.0344e-06,1591.2,-0.00033505,-865.88,0.00019317
28832,0.27353,0.72727,0.1,0.00053614,5357.7,0.00053218,5727,-2.3249e-05,1553.7,-0.00027193,-314.77,0.00039616
28833,0.091176,0.72727,0.1,0.00044391,4436,0.00049144,6065.3,-4.4217e-06,2339.5,-0.00016166,1158.1,5.887e-05
28834,0.18235,1,0.1,0.00063087,6304.3,0.00060189,6282.5,-4.912e-06,1723.2,-0.00035562,-911.83,0.00020375
28835,0.27353,0.90909,0.1,0.00056765,5672.6,0.00056219,6086.3,-1.4468e-05,1753.6,-0.00029235,-334.32,0.00042299
28836,0.091176,0.90909,0.1,0.0004737,4733.7,0.00052432,6478.7,-2.6344e-06,2519.4,-0.00017351,1235.5,6.2765e-05
28837,0.18235,1.1818,0.1,0.00065683,6563.7,0.00062652,6548.8,-3.245e-06,1817,-0.00037078,-944.51,0.0002114
28838,0.27353,1.0909,0.1,0.00059328,5928.7,0.00058687,6374.2,-9.6088e-06,1892.5,-0.00030785,-348.35,0.00044245
28839,0.091176,1.0909,0.1,0.00049563,4952.9,0.00054845,6779.4,-1.7081e-06,2645.8,-0.00018218,1289.8,6.5519e-05
28840,0.18235,1.3636,0.1,0.0006766,6761.4,0.00064539,6752.5,-2.2664e-06,1886.3,-0.00038213,-967.9,0.00021703
28841,0.27353,1.2727,0.1,0.00061384,6134.2,0.00060683,6603.8,-6.7157e-06,1993.9,-0.00031978,-358.34,0.00045684
28842,0.091176,1.2727,0.1,0.000512,5116.5,0.00056642,7002.2,-1.1839e-06,2737.5,-0.00018864,1329,6.7511e-05
28843,0.18235,1.5455,0.1,0.00069174,6912.6,0.0006599,6909.3,-1.6371e-06,1938.7,-0.00039073,-984.72,0.00022117
28844,0.27353,1.4545,0.1,0.00063026,6298.2,0.00062285,6786.8,-4.8664e-06,2070.4,-0.00032907,-365.55,0.00046757
28845,0.091176,1.4545,0.1,0.00052432,5239.6,0.0005799,7168.7,-8.5311e-07,2805.1,-0.00019352,1357.5,6.8962e-05
28846,0.18235,1.7273,0.1,0.0007033,7028.2,0.00067103,7029.8,-1.2042e-06,1978.9,-0.00039723,-996.68,0.00022421
28847,0.27353,1.6364,0.1,0.00064332,6428.7,0.00063565,6932.5,-3.6106e-06,2129.3,-0.00033634,-370.71,0.00047557
28848,0.091176,1.6364,0.1,0.00053358,5332.1,0.00059001,7293,-6.2857e-07,2855.2,-0.00019722,1378.1,7.0015e-05
28849,0.18235,1.9091,0.1,0.00071209,7116,0.00067952,7122,-8.9092e-07,2009.7,-0.00040213,-1005,0.0002264
28850,0.27353,1.8182,0.1,0.00065365,6532,0.00064581,7047.9,-2.7149e-06,2175.1,-0.00034203,-374.35,0.0004815
28851,0.091176,1.8182,0.1,0.00054051,5401.4,0.00059755,7385.4,-4.667e-07,2892.2,-0.00020002,1392.8,7.0771e-05
28852,0.18235,2.0909,0.1,0.00071868,7181.9,0.00068591,7191.8,-6.5784e-07,2033.2,-0.00040578,-1010.7,0.00022797
28853,0.27353,2,0.1,0.00066173,6612.8,0.00065378,7138.5,-2.0554e-06,2210.8,-0.00034645,-376.85,0.00048583
28854,0.091176,2,0.1,0.00054563,5452.5,0.00060311,7453.3,-3.4567e-07,2919.2,-0.00020212,1403.1,7.1303e-05
28855,0.18235,2.2727,0.1,0.00072354,7230.4,0.00069064,7243.6,-4.8412e-07,2050.8,-0.00040845,-1014.5,0.00022906
28856,0.27353,2.1818,0.1,0.00066797,6675.1,0.00065993,7208.5,-1.5646e-06,2238.2,-0.00034984,-378.53,0.00048895
28857,0.091176,2.1818,0.1,0.00054936,5489.8,0.00060713,7502.2,-2.5411e-07,2938.6,-0.00020367,1410.2,7.1669e-05
28858,0.18235,2.4545,0.1,0.000727,7265,0.00069402,7280.7,-3.5809e-07,2063.5,-0.00041033,-1016.9,0.00022979
28859,0.27353,2.3636,0.1,0.00067264,6721.7,0.00066455,7261,-1.2045e-06,2258.8,-0.00035236,-379.6,0.00049113
28860,0.091176,2.3636,0.1,0.000552,5516.2,0.00060997,7536.6,-1.8593e-07,2952.2,-0.00020478,1414.9,7.1913e-05
28861,0.18235,2.6364,0.1,0.0007293,7288,0.00069627,7305.6,-2.7269e-07,2072.1,-0.00041158,-1018.3,0.00023025
28862,0.27353,2.5455,0.1,0.00067596,6755,0.00066784,7298.6,-9.5202e-07,2273.5,-0.00035415,-380.26,0.00049259
28863,0.091176,2.5455,0.1,0.00055379,5534.1,0.00061189,7559.8,-1.3756e-07,2961.3,-0.00020555,1417.9,7.2069e-05
28864,0.18235,2.8182,0.1,0.00073062,7301.1,0.00069756,7320,-2.2331e-07,2077.1,-0.00041229,-1019,0.0002305
28865,0.27353,2.7273,0.1,0.0006781,6776.3,0.00066996,7322.8,-7.92e-07,2283,-0.0003553,-380.64,0.00049348
28866,0.091176,2.7273,0.1,0.00055489,5545.1,0.00061307,7574,-1.0663e-07,2966.8,-0.00020603,1419.6,7.2159e-05
28867,0.18235,3,0.1,0.00073104,7305.4,0.00069798,7324.6,-2.0716e-07,2078.7,-0.00041252,-1019.3,0.00023058
28868,0.27353,2.9091,0.1,0.00067914,6786.7,0.000671,7334.6,-7.1454e-07,2287.6,-0.00035586,-380.8,0.00049391
28869,0.091176,2.9091,0.1,0.00055542,5550.4,0.00061363,7580.7,-9.1588e-08,2969.5,-0.00020626,1420.4,7.2201e-05
28870,0.18235,3.1818,0.1,0.00073062,7301.1,0.00069756,7320,-2.2331e-07,2077.1,-0.00041229,-1019,0.0002305
28871,0.27353,3.0909,0.1,0.00067914,6786.7,0.000671,7334.6,-7.1454e-07,2287.6,-0.00035586,-380.8,0.00049391
28872,0.091176,3.0909,0.1,0.00055542,5550.4,0.00061363,7580.7,-9.1589e-08,2969.5,-0.00020626,1420.4,7.2201e-05
28873,0.18235,3.3636,0.1,0.0007293,7288,0.00069627,7305.6,-2.727e-07,2072.1,-0.00041158,-1018.3,0.00023025
28874,0.27353,3.2727,0.1,0.0006781,6776.3,0.00066996,7322.8,-7.9201e-07,2283,-0.0003553,-380.64,0.00049348
28875,0.091176,3.2727,0.1,0.00055489,5545.1,0.00061307,7574,-1.0664e-07,2966.8,-0.00020603,1419.6,7.2159e-05
28876,0.18235,3.5455,0.1,0.000727,7265,0.00069402,7280.7,-3.581e-07,2063.5,-0.00041033,-1016.9,0.00022979
28877,0.27353,3.4545,0.1,0.00067596,6754.9,0.00066784,7298.6,-9.5203e-07,2273.5,-0.00035415,-380.26,0.00049259
28878,0.091176,3.4545,0.1,0.00055379,5534.1,0.00061189,7559.8,-1.3756e-07,2961.3,-0.00020555,1417.9,7.2069e-05
28879,0.18235,3.7273,0.1,0.00072354,7230.4,0.00069064,7243.6,-4.8413e-07,2050.8,-0.00040845,-1014.5,0.00022906
28880,0.27353,3.6364,0.1,0.00067264,6721.7,0.00066455,7261,-1.2045e-06,2258.8,-0.00035236,-379.6,0.00049113
28881,0.091176,3.6364,0.1,0.000552,5516.2,0.00060997,7536.6,-1.8594e-07,2952.2,-0.00020478,1414.9,7.1913e-05
28882,0.18235,3.9091,0.1,0.00071868,7181.9,0.00068591,7191.8,-6.5786e-07,2033.2,-0.00040578,-1010.7,0.00022797
28883,0.27353,3.8182,0.1,0.00066797,6675.1,0.00065993,7208.5,-1.5646e-06,2238.2,-0.00034984,-378.53,0.00048895
28884,0.091176,3.8182,0.1,0.00054936,5489.8,0.00060713,7502.2,-2.5412e-07,2938.6,-0.00020367,1410.2,7.1669e-05
28885,0.18235,4.0909,0.1,0.00071209,7116,0.00067952,7122,-8.9093e-07,2009.7,-0.00040213,-1005,0.0002264
28886,0.27353,4,0.1,0.00066173,6612.8,0.00065378,7138.5,-2.0554e-06,2210.8,-0.00034645,-376.85,0.00048583
28887,0.091176,4,0.1,0.00054563,5452.5,0.00060311,7453.3,-3.4568e-07,2919.2,-0.00020212,1403.1,7.1303e-05
28888,0.18235,4.2727,0.1,0.0007033,7028.2,0.00067103,7029.8,-1.2042e-06,1978.9,-0.00039723,-996.68,0.00022421
28889,0.27353,4.1818,0.1,0.00065365,6532,0.00064581,7047.9,-2.7149e-06,2175.1,-0.00034203,-374.35,0.0004815
28890,0.091176,4.1818,0.1,0.00054051,5401.4,0.00059755,7385.4,-4.6671e-07,2892.2,-0.00020002,1392.8,7.0771e-05
28891,0.18235,4.4545,0.1,0.00069174,6912.6,0.0006599,6909.3,-1.6371e-06,1938.7,-0.00039073,-984.72,0.00022117
28892,0.27353,4.3636,0.1,0.00064332,6428.7,0.00063565,6932.5,-3.6106e-06,2129.3,-0.00033634,-370.71,0.00047557
28893,0.091176,4.3636,0.1,0.00053358,5332.1,0.00059001,7293,-6.2858e-07,2855.2,-0.00019722,1378.1,7.0015e-05
28894,0.18235,4.6364,0.1,0.0006766,6761.4,0.00064539,6752.5,-2.2664e-06,1886.3,-0.00038213,-967.9,0.00021703
28895,0.27353,4.5455,0.1,0.00063026,6298.2,0.00062285,6786.8,-4.8664e-06,2070.4,-0.00032907,-365.55,0.00046757
28896,0.091176,4.5455,0.1,0.00052432,5239.6,0.0005799,7168.7,-8.5312e-07,2805.1,-0.00019352,1357.5,6.8962e-05
28897,0.18235,4.8182,0.1,0.00065682,6563.7,0.00062652,6548.8,-3.245e-06,1817,-0.00037078,-944.51,0.0002114
28898,0.27353,4.7273,0.1,0.00061384,6134.2,0.00060683,6603.8,-6.7157e-06,1993.9,-0.00031978,-358.34,0.00045684
28899,0.091176,4.7273,0.1,0.000512,5116.5,0.00056642,7002.2,-1.1839e-06,2737.5,-0.00018864,1329,6.7511e-05
28900,0.18235,5,0.1,0.00063087,6304.3,0.00060189,6282.5,-4.9121e-06,1723.2,-0.00035562,-911.83,0.00020375
28901,0.27353,4.9091,0.1,0.00059328,5928.7,0.00058687,6374.2,-9.6088e-06,1892.5,-0.00030785,-348.35,0.00044245
28902,0.091176,4.9091,0.1,0.00049563,4952.9,0.00054845,6779.4,-1.7081e-06,2645.8,-0.00018218,1289.8,6.5519e-05
28903,0.18235,5.1818,0.1,0.00059651,5961,0.00056955,5931,-8.0344e-06,1591.2,-0.00033505,-865.88,0.00019317
28904,0.27353,5.0909,0.1,0.00056765,5672.6,0.00056219,6086.3,-1.4468e-05,1753.6,-0.00029235,-334.32,0.00042299
28905,0.091176,5.0909,0.1,0.0004737,4733.7,0.00052432,6478.7,-2.6344e-06,2519.4,-0.00017351,1235.5,6.2765e-05
28906,0.18235,5.3636,0.1,0.0005507,5503.2,0.00052713,5463.8,-1.4903e-05,1391.2,-0.00030611,-796.86,0.00017812
28907,0.27353,5.2727,0.1,0.00053614,5357.7,0.00053218,5727,-2.3249e-05,1553.7,-0.00027193,-314.77,0.00039616
28908,0.091176,5.2727,0.1,0.00044391,4436,0.00049144,6065.3,-4.4217e-06,2339.5,-0.00016166,1158.1,5.887e-05
28909,0.18235,5.5455,0.1,0.00049047,4901.3,0.00047278,4846.2,-3.1394e-05,1058,-0.00026396,-689.35,0.00015544
28910,0.27353,5.4545,0.1,0.00049911,4987.6,0.00049753,5289.8,-4.0477e-05,1247.4,-0.0002443,-283.99,0.00035787
28911,0.091176,5.4545,0.1,0.00040247,4021.9,0.00044548,5477.5,-8.6775e-06,2065.1,-0.00014468,1043.2,5.3083e-05
28912,0.18235,5.7273,0.1,0.00042737,4270.8,0.0004197,4184.3,-7.9362e-05,434.52,-0.00019899,-464.33,0.00011811
28913,0.27353,5.6364,0.1,0.00046196,4616.4,0.00046256,4791.6,-7.4816e-05,753.99,-0.00020727,-241.23,0.00030019
28914,0.091176,5.6364,0.1,0.00034463,3444,0.00038009,4605.6,-2.0262e-05,1597.5,-0.0001199,848.9,4.3868e-05
28915,0.27353,5.8182,0.1,0.00044983,4495.2,0.00044701,4417.6,-0.00013876,16.417,-0.00016303,-165.89,0.00020855
28916,0.091176,5.8182,0.1,0.00027406,2738.8,0.00029136,3256.9,-5.9779e-05,618.52,-8.5179e-05,427.68,2.7065e-05
28917,0.18235,5.9091,0.1,0.00038507,3848,0.00037966,3691.6,-0.00012469,-97.914,-0.00013993,-212.37,5.4683e-05
28918,0.36471,0.27273,0.1,0.00048141,4810.8,0.00048796,5010.7,-0.00013714,313.89,-0.00016648,93.454,0.00046921
28919,0.45588,0.18182,0.1,0.00051738,5170.2,0.00051629,5141.2,-0.00016202,44.613,-0.00018122,-99.614,0.00064736
28920,0.36471,0.090909,0.1,0.00048339,4830.5,0.00048164,4782.5,-0.00015114,28.084,-0.00017093,-120.63,0.00029757
28921,0.36471,0.45455,0.1,0.00047345,4731.3,0.00048746,5236.4,-8.4128e-05,941.67,-0.00018753,164.73,0.00058408
28922,0.45588,0.36364,0.1,0.00049555,4952.1,0.00050362,5222.5,-0.0001215,525.64,-0.00018485,49.66,0.00083985
28923,0.36471,0.63636,0.1,0.00048773,4873.9,0.00050366,5561.1,-4.9905e-05,1401.8,-0.00021011,198.11,0.00066196
28924,0.45588,0.54545,0.1,0.0004971,4967.6,0.00050873,5443.6,-7.9726e-05,1022.1,-0.0002067,68.128,0.00097525
28925,0.36471,0.81818,0.1,0.00050969,5093.4,0.00052577,5889.6,-3.0636e-05,1708.9,-0.00022924,216.73,0.00071675
28926,0.45588,0.72727,0.1,0.00051073,5103.7,0.00052286,5708.5,-5.2187e-05,1387.8,-0.00022661,77.278,0.001072
28927,0.36471,1,0.1,0.00053183,5314.6,0.00054782,6183,-1.9818e-05,1917.9,-0.00024459,229.12,0.0007566
28928,0.45588,0.90909,0.1,0.0005287,5283.4,0.00054046,5972.2,-3.5009e-05,1648.4,-0.00024334,83.05,0.001143
28929,0.36471,1.1818,0.1,0.00055165,5512.7,0.0005676,6432.4,-1.3496e-05,2066.3,-0.00025686,237.79,0.00078621
28930,0.45588,1.0909,0.1,0.00054704,5466.6,0.00055833,6214.1,-2.4321e-05,1836.3,-0.00025714,86.995,0.001196
28931,0.36471,1.3636,0.1,0.00056859,5682,0.00058455,6640.1,-9.5747e-06,2176.1,-0.00026672,243.98,0.00080848
28932,0.45588,1.2727,0.1,0.00056399,5636,0.00057493,6427,-1.7467e-05,1976,-0.00026851,89.787,0.0012362
28933,0.36471,1.5455,0.1,0.00058278,5823.8,0.00059877,6811.3,-6.9989e-06,2259.8,-0.00027469,248.43,0.0008253
28934,0.45588,1.4545,0.1,0.00057899,5785.9,0.00058967,6610.3,-1.2894e-05,2082.8,-0.00027789,91.797,0.0012669
28935,0.36471,1.7273,0.1,0.0005945,5940.9,0.00061053,6951.3,-5.2176e-06,2324.8,-0.00028115,251.6,0.00083796
28936,0.45588,1.6364,0.1,0.00059192,5915.1,0.00060244,6765.9,-9.7146e-06,2166.4,-0.00028564,93.241,0.0012904
28937,0.36471,1.9091,0.1,0.00060406,6036.5,0.00062013,7064.8,-3.9366e-06,2375.8,-0.00028635,253.83,0.00084742
28938,0.45588,1.8182,0.1,0.00060287,6024.5,0.00061326,6896.3,-7.4242e-06,2232.7,-0.00029203,94.266,0.0013082
28939,0.36471,2.0909,0.1,0.00061174,6113.2,0.00062783,7155.4,-2.995e-06,2415.6,-0.00029051,255.35,0.00085439
28940,0.45588,2,0.1,0.00061197,6115.4,0.00062227,7004,-5.7362e-06,2285.3,-0.00029725,94.979,0.0013216
28941,0.36471,2.2727,0.1,0.00061775,6173.3,0.00063386,7226,-2.3028e-06,2446.2,-0.00029375,256.36,0.00085943
28942,0.45588,2.1818,0.1,0.00061935,6189.2,0.0006296,7090.9,-4.4857e-06,2326.7,-0.00030144,95.463,0.0013315
28943,0.36471,2.4545,0.1,0.00062227,6218.4,0.00063838,7279,-1.8069e-06,2468.8,-0.00029618,257.01,0.00086295
28944,0.45588,2.3636,0.1,0.00062513,6247,0.00063534,7158.8,-3.5748e-06,2358.3,-0.0003047,95.779,0.0013387
28945,0.36471,2.6364,0.1,0.00062542,6249.9,0.00064154,7315.7,-1.4744e-06,2484.4,-0.00029787,257.39,0.00086526
28946,0.45588,2.5455,0.1,0.00062941,6289.7,0.00063958,7208.8,-2.941e-06,2381.2,-0.00030709,95.976,0.0013436
28947,0.36471,2.8182,0.1,0.00062727,6268.4,0.0006434,7337.4,-1.2834e-06,2493.5,-0.00029887,257.6,0.00086657
28948,0.45588,2.7273,0.1,0.00063223,6317.9,0.00064238,7241.8,-2.542e-06,2396.1,-0.00030865,96.088,0.0013467
28949,0.36471,3,0.1,0.00062789,6274.5,0.00064401,7344.5,-1.2212e-06,2496.5,-0.0002992,257.66,0.00086699
28950,0.45588,2.9091,0.1,0.00063363,6331.9,0.00064377,7258.1,-2.3498e-06,2403.4,-0.00030943,96.138,0.0013482
28951,0.36471,3.1818,0.1,0.00062727,6268.4,0.0006434,7337.4,-1.2834e-06,2493.5,-0.00029887,257.6,0.00086657
28952,0.45588,3.0909,0.1,0.00063363,6331.9,0.00064377,7258.1,-2.3498e-06,2403.4,-0.00030943,96.138,0.0013482
28953,0.36471,3.3636,0.1,0.00062542,6249.9,0.00064154,7315.7,-1.4744e-06,2484.4,-0.00029787,257.39,0.00086526
28954,0.45588,3.2727,0.1,0.00063223,6317.9,0.00064238,7241.8,-2.542e-06,2396.1,-0.00030865,96.088,0.0013467
28955,0.36471,3.5455,0.1,0.00062227,6218.4,0.00063838,7279,-1.807e-06,2468.8,-0.00029618,257.01,0.00086295
28956,0.45588,3.4545,0.1,0.00062941,6289.7,0.00063958,7208.8,-2.941e-06,2381.2,-0.00030709,95.976,0.0013436
28957,0.36471,3.7273,0.1,0.00061775,6173.3,0.00063386,7226,-2.3028e-06,2446.2,-0.00029375,256.36,0.00085943
28958,0.45588,3.6364,0.1,0.00062513,6247,0.00063534,7158.8,-3.5748e-06,2358.3,-0.0003047,95.779,0.0013387
28959,0.36471,3.9091,0.1,0.00061174,6113.2,0.00062783,7155.4,-2.9951e-06,2415.6,-0.00029051,255.35,0.00085439
28960,0.45588,3.8182,0.1,0.00061935,6189.2,0.0006296,7090.9,-4.4858e-06,2326.7,-0.00030144,95.463,0.0013315
28961,0.36471,4.0909,0.1,0.00060406,6036.5,0.00062013,7064.8,-3.9366e-06,2375.8,-0.00028635,253.83,0.00084742
28962,0.45588,4,0.1,0.00061197,6115.4,0.00062227,7004,-5.7362e-06,2285.3,-0.00029725,94.979,0.0013216
28963,0.36471,4.2727,0.1,0.0005945,5940.9,0.00061053,6951.3,-5.2176e-06,2324.8,-0.00028115,251.6,0.00083796
28964,0.45588,4.1818,0.1,0.00060287,6024.5,0.00061326,6896.3,-7.4242e-06,2232.7,-0.00029203,94.266,0.0013082
28965,0.36471,4.4545,0.1,0.00058278,5823.8,0.00059877,6811.3,-6.9989e-06,2259.8,-0.00027469,248.43,0.0008253
28966,0.45588,4.3636,0.1,0.00059192,5915.1,0.00060244,6765.9,-9.7147e-06,2166.4,-0.00028564,93.241,0.0012904
28967,0.36471,4.6364,0.1,0.00056859,5682,0.00058455,6640.1,-9.5747e-06,2176.1,-0.00026672,243.98,0.00080848
28968,0.45588,4.5455,0.1,0.00057899,5785.9,0.00058967,6610.3,-1.2894e-05,2082.8,-0.00027789,91.797,0.0012669
28969,0.36471,4.8182,0.1,0.00055165,5512.7,0.0005676,6432.4,-1.3496e-05,2066.3,-0.00025685,237.79,0.00078621
28970,0.45588,4.7273,0.1,0.00056399,5636,0.00057493,6427,-1.7467e-05,1976,-0.00026851,89.787,0.0012362
28971,0.36471,5,0.1,0.00053183,5314.6,0.00054782,6183,-1.9818e-05,1917.9,-0.00024459,229.12,0.0007566
28972,0.45588,4.9091,0.1,0.00054704,5466.6,0.00055833,6214.1,-2.4321e-05,1836.3,-0.00025714,86.995,0.001196
28973,0.36471,5.1818,0.1,0.00050969,5093.4,0.00052577,5889.6,-3.0636e-05,1708.9,-0.00022924,216.73,0.00071675
28974,0.45588,5.0909,0.1,0.0005287,5283.4,0.00054046,5972.2,-3.5009e-05,1648.4,-0.00024334,83.05,0.001143
28975,0.36471,5.3636,0.1,0.00048773,4873.9,0.00050366,5561.1,-4.9905e-05,1401.8,-0.00021011,198.11,0.00066196
28976,0.45588,5.2727,0.1,0.00051073,5103.7,0.00052286,5708.5,-5.2187e-05,1387.8,-0.00022661,77.278,0.001072
28977,0.36471,5.5455,0.1,0.00047345,4731.3,0.00048746,5236.4,-8.4128e-05,941.67,-0.00018753,164.73,0.00058408
28978,0.45588,5.4545,0.1,0.0004971,4967.6,0.00050873,5443.6,-7.9726e-05,1022.1,-0.0002067,68.128,0.00097525
28979,0.36471,5.7273,0.1,0.00048141,4810.8,0.00048796,5010.7,-0.00013714,313.89,-0.00016648,93.454,0.00046921
28980,0.45588,5.6364,0.1,0.00049555,4952.1,0.00050362,5222.5,-0.0001215,525.64,-0.00018485,49.66,0.00083985
28981,0.45588,5.8182,0.1,0.00051738,5170.2,0.00051629,5141.2,-0.00016202,44.613,-0.00018122,-99.614,0.00064736
28982,0.36471,5.9091,0.1,0.00048339,4830.5,0.00048164,4782.5,-0.00015114,28.084,-0.00017093,-120.63,0.00029757
28983,0.54706,0.27273,0.1,0.00052997,5296,0.00053167,5351,-0.00016034,151.49,-0.00018536,-36.521,0.0011121
28984,0.63824,0.18182,0.1,0.00054911,5487.3,0.00054729,5435.7,-0.00017512,7.7865,-0.00019067,-109.05,0.0013939
28985,0.54706,0.090909,0.1,0.00052908,5287.2,0.00052693,5225.3,-0.00016996,-10.895,-0.00018335,-111.44,0.00082664
28986,0.54706,0.45455,0.1,0.00051791,5175.5,0.00052437,5425.9,-0.00011675,608.77,-0.00020386,-45.77,0.0013219
28987,0.63824,0.36364,0.1,0.00052894,5285.8,0.00053347,5436.2,-0.00014517,337.18,-0.0001925,-18.473,0.0016914
28988,0.54706,0.63636,0.1,0.0005195,5191.4,0.00052757,5588.2,-8.1678e-05,1010.6,-0.00022316,-52.452,0.0014756
28989,0.63824,0.54545,0.1,0.00052253,5221.7,0.00053059,5538.9,-0.00010849,737.08,-0.00020925,-19.971,0.0019164
28990,0.54706,0.81818,0.1,0.00052961,5292.5,0.00053748,5790.6,-5.6504e-05,1327.7,-0.0002407,-56.322,0.0015899
28991,0.63824,0.72727,0.1,0.00052536,5249.9,0.00053463,5692.6,-7.9025e-05,1081.8,-0.00022584,-21.25,0.0020868
28992,0.54706,1,0.1,0.00054397,5435.9,0.00055106,6004.1,-3.961e-05,1566,-0.0002559,-59.044,0.0016762
28993,0.63824,0.90909,0.1,0.00053451,5341.4,0.00054368,5873.5,-5.7445e-05,1356.9,-0.00024099,-22.176,0.0022172
28994,0.54706,1.1818,0.1,0.00055949,5591,0.0005658,6209.8,-2.8432e-05,1745,-0.00026879,-60.997,0.0017422
28995,0.63824,1.0909,0.1,0.00054693,5465.5,0.00055554,6062.4,-4.2248e-05,1570.8,-0.00025436,-22.902,0.0023179
28996,0.54706,1.3636,0.1,0.00057449,5740.9,0.00058018,6398.2,-2.0916e-05,1881.8,-0.00027967,-62.395,0.001793
28997,0.63824,1.2727,0.1,0.00056046,5600.7,0.00056844,6246.2,-3.1607e-05,1737.7,-0.00026599,-23.427,0.0023964
28998,0.54706,1.5455,0.1,0.00058822,5878.1,0.00059344,6565.7,-1.5712e-05,1988.7,-0.00028883,-63.393,0.0018323
28999,0.63824,1.4545,0.1,0.00057382,5734.2,0.00058126,6417.7,-2.4054e-05,1869.6,-0.00027605,-23.805,0.0024577
29000,0.54706,1.7273,0.1,0.00060036,5999.4,0.00060524,6711.4,-1.1995e-05,2073.8,-0.00029653,-64.097,0.0018626
29001,0.63824,1.6364,0.1,0.00058631,5859.1,0.00059331,6573,-1.8579e-05,1975.5,-0.0002847,-24.069,0.0025055
29002,0.54706,1.9091,0.1,0.00061083,6104,0.00061546,6835.9,-9.2746e-06,2141.8,-0.00030293,-64.583,0.0018858
29003,0.63824,1.8182,0.1,0.00059757,5971.5,0.00060423,6710.4,-1.4529e-05,2061.2,-0.00029209,-24.249,0.0025427
29004,0.54706,2.0909,0.1,0.00061962,6191.9,0.00062407,6939.8,-7.2593e-06,2196.2,-0.00030819,-64.909,0.0019033
29005,0.63824,2,0.1,0.0006074,6069.8,0.00061381,6828.9,-1.15e-05,2130.6,-0.00029831,-24.367,0.0025714
29006,0.54706,2.2727,0.1,0.00062677,6263.3,0.00063109,7023.8,-5.7762e-06,2238.7,-0.00031239,-65.121,0.0019164
29007,0.63824,2.1818,0.1,0.00061571,6152.9,0.00062193,6928.3,-9.2419e-06,2185.9,-0.00030342,-24.442,0.0025931
29008,0.54706,2.4545,0.1,0.0006323,6318.7,0.00063654,7088.8,-4.7172e-06,2270.6,-0.0003156,-65.254,0.0019257
29009,0.63824,2.3636,0.1,0.00062244,6220.1,0.00062852,7008.2,-7.5972e-06,2228.7,-0.00030748,-24.488,0.0026092
29010,0.54706,2.6364,0.1,0.00063624,6358.1,0.00064042,7134.9,-4.0101e-06,2292.9,-0.00031787,-65.332,0.0019319
29011,0.63824,2.5455,0.1,0.00062754,6271,0.00063352,7068.5,-6.4574e-06,2260,-0.00031051,-24.516,0.0026204
29012,0.54706,2.8182,0.1,0.00063861,6381.7,0.00064275,7162.5,-3.6059e-06,2306,-0.00031922,-65.373,0.0019355
29013,0.63824,2.7273,0.1,0.00063096,6305.3,0.00063688,7108.9,-5.7439e-06,2280.4,-0.00031252,-24.531,0.0026276
29014,0.54706,3,0.1,0.0006394,6389.5,0.00064353,7171.7,-3.4746e-06,2310.4,-0.00031967,-65.385,0.0019367
29015,0.63824,2.9091,0.1,0.00063268,6322.5,0.00063858,7129.2,-5.4016e-06,2290.5,-0.00031352,-24.538,0.0026311
29016,0.54706,3.1818,0.1,0.00063861,6381.7,0.00064275,7162.5,-3.6059e-06,2306,-0.00031922,-65.373,0.0019355
29017,0.63824,3.0909,0.1,0.00063268,6322.5,0.00063858,7129.2,-5.4016e-06,2290.5,-0.00031352,-24.538,0.0026311
29018,0.54706,3.3636,0.1,0.00063624,6358.1,0.00064042,7134.9,-4.0101e-06,2292.9,-0.00031787,-65.332,0.0019319
29019,0.63824,3.2727,0.1,0.00063096,6305.3,0.00063688,7108.9,-5.7439e-06,2280.4,-0.00031252,-24.531,0.0026276
29020,0.54706,3.5455,0.1,0.0006323,6318.7,0.00063654,7088.8,-4.7172e-06,2270.6,-0.0003156,-65.254,0.0019257
29021,0.63824,3.4545,0.1,0.00062754,6271,0.00063352,7068.5,-6.4575e-06,2260,-0.00031051,-24.516,0.0026204
29022,0.54706,3.7273,0.1,0.00062677,6263.3,0.00063109,7023.8,-5.7763e-06,2238.7,-0.00031239,-65.121,0.0019164
29023,0.63824,3.6364,0.1,0.00062244,6220.1,0.00062852,7008.2,-7.5973e-06,2228.7,-0.00030748,-24.488,0.0026092
29024,0.54706,3.9091,0.1,0.00061962,6191.9,0.00062408,6939.8,-7.2593e-06,2196.2,-0.00030819,-64.909,0.0019033
29025,0.63824,3.8182,0.1,0.00061571,6152.9,0.00062193,6928.3,-9.2419e-06,2185.9,-0.00030342,-24.442,0.0025931
29026,0.54706,4.0909,0.1,0.00061083,6104,0.00061546,6835.9,-9.2746e-06,2141.8,-0.00030293,-64.583,0.0018858
29027,0.63824,4,0.1,0.0006074,6069.8,0.00061381,6828.9,-1.15e-05,2130.6,-0.00029831,-24.367,0.0025714
29028,0.54706,4.2727,0.1,0.00060036,5999.4,0.00060524,6711.4,-1.1995e-05,2073.8,-0.00029653,-64.097,0.0018626
29029,0.63824,4.1818,0.1,0.00059757,5971.5,0.00060423,6710.4,-1.4529e-05,2061.2,-0.00029209,-24.249,0.0025427
29030,0.54706,4.4545,0.1,0.00058822,5878.1,0.00059344,6565.7,-1.5712e-05,1988.7,-0.00028883,-63.393,0.0018323
29031,0.63824,4.3636,0.1,0.00058631,5859.1,0.00059331,6573,-1.8579e-05,1975.5,-0.0002847,-24.069,0.0025055
29032,0.54706,4.6364,0.1,0.00057449,5740.9,0.00058018,6398.2,-2.0916e-05,1881.8,-0.00027967,-62.395,0.001793
29033,0.63824,4.5455,0.1,0.00057382,5734.2,0.00058126,6417.7,-2.4054e-05,1869.6,-0.00027605,-23.805,0.0024577
29034,0.54706,4.8182,0.1,0.00055949,5591,0.0005658,6209.8,-2.8432e-05,1745,-0.00026879,-60.997,0.0017422
29035,0.63824,4.7273,0.1,0.00056046,5600.7,0.00056844,6246.2,-3.1607e-05,1737.7,-0.00026599,-23.427,0.0023964
29036,0.54706,5,0.1,0.00054397,5435.9,0.00055106,6004.1,-3.961e-05,1566,-0.0002559,-59.044,0.0016762
29037,0.63824,4.9091,0.1,0.00054693,5465.5,0.00055554,6062.4,-4.2248e-05,1570.8,-0.00025436,-22.902,0.0023179
29038,0.54706,5.1818,0.1,0.00052961,5292.5,0.00053748,5790.6,-5.6504e-05,1327.7,-0.0002407,-56.322,0.0015899
29039,0.63824,5.0909,0.1,0.00053451,5341.4,0.00054368,5873.5,-5.7445e-05,1356.9,-0.00024099,-22.176,0.0022172
29040,0.54706,5.3636,0.1,0.0005195,5191.4,0.00052757,5588.2,-8.1678e-05,1010.6,-0.00022316,-52.452,0.0014756
29041,0.63824,5.2727,0.1,0.00052536,5249.9,0.00053463,5692.6,-7.9025e-05,1081.8,-0.00022584,-21.25,0.0020868
29042,0.54706,5.5455,0.1,0.00051791,5175.5,0.00052437,5425.9,-0.00011675,608.77,-0.00020386,-45.77,0.0013219
29043,0.63824,5.4545,0.1,0.00052253,5221.7,0.00053059,5538.9,-0.00010849,737.08,-0.00020925,-19.971,0.0019164
29044,0.54706,5.7273,0.1,0.00052997,5296,0.00053167,5351,-0.00016034,151.48,-0.00018536,-36.521,0.0011121
29045,0.63824,5.6364,0.1,0.00052894,5285.8,0.00053347,5436.2,-0.00014517,337.18,-0.0001925,-18.473,0.0016914
29046,0.63824,5.8182,0.1,0.00054911,5487.3,0.00054729,5435.7,-0.00017512,7.7865,-0.00019067,-109.05,0.0013939
29047,0.54706,5.9091,0.1,0.00052908,5287.2,0.00052693,5225.3,-0.00016996,-10.895,-0.00018335,-111.44,0.00082664
29048,0.72941,0.27273,0.1,0.00054737,5469.9,0.00054903,5520.5,-0.00017142,107.29,-0.00018629,-4.4068,0.0020768
29049,0.82059,0.18182,0.1,0.00055966,5592.7,0.00055806,5547.3,-0.00017862,12.185,-0.00019374,-101.4,0.0024738
29050,0.72941,0.090909,0.1,0.00054762,5472.4,0.00054607,5428.1,-0.00017624,0.93341,-0.00018813,-88.445,0.0016816
29051,0.72941,0.45455,0.1,0.00053296,5326,0.00053955,5548.1,-0.00013687,465.79,-0.00019779,8.0771,0.0023849
29052,0.82059,0.36364,0.1,0.00054147,5411,0.00054522,5529.4,-0.00015795,246.05,-0.00019079,-0.73068,0.0028742
29053,0.72941,0.63636,0.1,0.00052801,5276.4,0.00053742,5641.6,-0.00010563,809.86,-0.0002119,11.399,0.0026238
29054,0.82059,0.54545,0.1,0.00053284,5324.7,0.00054031,5588.3,-0.00012763,569.64,-0.00020307,2.8348,0.0031922
29055,0.72941,0.81818,0.1,0.00053016,5297.9,0.00054067,5774.2,-7.9813e-05,1112.2,-0.00022611,12.955,0.0028095
29056,0.82059,0.72727,0.1,0.0005307,5303.3,0.00054025,5689,-0.00010038,875.54,-0.00021639,3.8845,0.003444
29057,0.72941,1,0.1,0.00053755,5371.8,0.00054811,5931.4,-6.0037e-05,1362,-0.00023945,13.989,0.0029548
29058,0.82059,0.90909,0.1,0.00053426,5338.9,0.00054459,5820.9,-7.7988e-05,1143.1,-0.00022951,4.5774,0.0036438
29059,0.72941,1.1818,0.1,0.00054806,5476.8,0.00055822,6099,-4.5456e-05,1563.3,-0.00025156,14.676,0.0030692
29060,0.82059,1.0909,0.1,0.00054198,5416.1,0.00055231,5972.3,-6.0539e-05,1367.5,-0.00024188,4.9891,0.003803
29061,0.72941,1.3636,0.1,0.00055995,5595.6,0.00056959,6266.2,-3.4815e-05,1725,-0.00026237,15.165,0.0031595
29062,0.82059,1.2727,0.1,0.00055221,5518.3,0.00056218,6132.2,-4.7269e-05,1553,-0.00025326,5.2734,0.0039302
29063,0.72941,1.5455,0.1,0.00057205,5716.6,0.00058121,6425.6,-2.6997e-05,1855.8,-0.00027192,15.519,0.0032309
29064,0.82059,1.4545,0.1,0.0005636,5632.2,0.00057311,6292,-3.7228e-05,1706.1,-0.00026357,5.4753,0.0040319
29065,0.72941,1.7273,0.1,0.00058363,5832.3,0.00059237,6572.4,-2.1179e-05,1962.5,-0.00028027,15.779,0.0032872
29066,0.82059,1.6364,0.1,0.0005752,5748,0.00058425,6445.2,-2.9592e-05,1833.1,-0.00027281,5.6258,0.0041131
29067,0.72941,1.9091,0.1,0.00059423,5938.2,0.00060263,6703.8,-1.6805e-05,2049.6,-0.00028746,15.967,0.0033312
29068,0.82059,1.8182,0.1,0.00058633,5859.3,0.00059498,6587.2,-2.375e-05,1938.3,-0.00028096,5.7385,0.0041776
29069,0.72941,2.0909,0.1,0.00060356,6031.4,0.0006117,6817.7,-1.3517e-05,2120.1,-0.00029354,16.1,0.0033653
29070,0.82059,2,0.1,0.00059655,5961.4,0.00060486,6714.6,-1.9286e-05,2025,-0.00028802,5.8218,0.0042283
29071,0.72941,2.2727,0.1,0.00061143,6110.1,0.00061937,6912.8,-1.1082e-05,2175.8,-0.00029851,16.191,0.003391
29072,0.82059,2.1818,0.1,0.00060553,6051.2,0.00061357,6824.8,-1.5922e-05,2095,-0.00029397,5.881,0.0042675
29073,0.72941,2.4545,0.1,0.0006177,6172.8,0.0006255,6988,-9.3439e-06,2218,-0.00030238,16.25,0.0034099
29074,0.82059,2.3636,0.1,0.00061303,6126,0.00062087,6915.7,-1.3465e-05,2149.6,-0.00029877,5.9204,0.0042969
29075,0.72941,2.6364,0.1,0.00062227,6218.4,0.00062997,7042.5,-8.1879e-06,2247.6,-0.00030515,16.286,0.0034227
29076,0.82059,2.5455,0.1,0.00061884,6184.1,0.00062654,6985.6,-1.1769e-05,2189.6,-0.0003024,5.9444,0.004318
29077,0.72941,2.8182,0.1,0.00062505,6246.1,0.0006327,7075.5,-7.5302e-06,2265,-0.00030682,16.304,0.0034301
29078,0.82059,2.7273,0.1,0.0006228,6223.7,0.00063042,7033.1,-1.0713e-05,2215.8,-0.00030483,5.9574,0.0043316
29079,0.72941,3,0.1,0.00062598,6255.4,0.00063361,7086.5,-7.3172e-06,2270.8,-0.00030737,16.31,0.0034326
29080,0.82059,2.9091,0.1,0.00062482,6243.8,0.0006324,7057.1,-1.021e-05,2228.8,-0.00030605,5.9628,0.0043383
29081,0.72941,3.1818,0.1,0.00062505,6246.1,0.0006327,7075.5,-7.5302e-06,2265,-0.00030682,16.304,0.0034301
29082,0.82059,3.0909,0.1,0.00062482,6243.8,0.0006324,7057.1,-1.021e-05,2228.8,-0.00030605,5.9628,0.0043383
29083,0.72941,3.3636,0.1,0.00062227,6218.4,0.00062997,7042.5,-8.1879e-06,2247.6,-0.00030515,16.286,0.0034227
29084,0.82059,3.2727,0.1,0.0006228,6223.7,0.00063042,7033.1,-1.0713e-05,2215.8,-0.00030483,5.9574,0.0043316
29085,0.72941,3.5455,0.1,0.0006177,6172.8,0.0006255,6988,-9.344e-06,2218,-0.00030238,16.25,0.0034099
29086,0.82059,3.4545,0.1,0.00061884,6184.1,0.00062654,6985.6,-1.1769e-05,2189.6,-0.0003024,5.9444,0.004318
29087,0.72941,3.7273,0.1,0.00061143,6110.1,0.00061937,6912.8,-1.1082e-05,2175.8,-0.00029851,16.191,0.003391
29088,0.82059,3.6364,0.1,0.00061303,6126,0.00062087,6915.7,-1.3465e-05,2149.6,-0.00029877,5.9204,0.0042969
29089,0.72941,3.9091,0.1,0.00060356,6031.4,0.0006117,6817.7,-1.3517e-05,2120.1,-0.00029354,16.1,0.0033653
29090,0.82059,3.8182,0.1,0.00060553,6051.2,0.00061357,6824.8,-1.5922e-05,2095,-0.00029397,5.881,0.0042675
29091,0.72941,4.0909,0.1,0.00059423,5938.2,0.00060263,6703.8,-1.6805e-05,2049.6,-0.00028746,15.967,0.0033312
29092,0.82059,4,0.1,0.00059655,5961.4,0.00060486,6714.6,-1.9286e-05,2025,-0.00028802,5.8218,0.0042283
29093,0.72941,4.2727,0.1,0.00058363,5832.3,0.00059237,6572.4,-2.1179e-05,1962.5,-0.00028027,15.779,0.0032872
29094,0.82059,4.1818,0.1,0.00058633,5859.3,0.00059498,6587.2,-2.375e-05,1938.3,-0.00028096,5.7385,0.0041776
29095,0.72941,4.4545,0.1,0.00057205,5716.6,0.00058121,6425.6,-2.6997e-05,1855.8,-0.00027192,15.519,0.0032309
29096,0.82059,4.3636,0.1,0.0005752,5748,0.00058425,6445.2,-2.9592e-05,1833.1,-0.00027281,5.6258,0.0041131
29097,0.72941,4.6364,0.1,0.00055995,5595.6,0.00056959,6266.2,-3.4815e-05,1725,-0.00026237,15.165,0.0031595
29098,0.82059,4.5455,0.1,0.0005636,5632.2,0.00057311,6292,-3.7228e-05,1706.1,-0.00026357,5.4753,0.0040319
29099,0.72941,4.8182,0.1,0.00054806,5476.8,0.00055822,6099,-4.5456e-05,1563.3,-0.00025156,14.676,0.0030692
29100,0.82059,4.7273,0.1,0.00055221,5518.3,0.00056218,6132.2,-4.7269e-05,1553,-0.00025326,5.2734,0.0039302
29101,0.72941,5,0.1,0.00053755,5371.8,0.00054811,5931.4,-6.0037e-05,1362,-0.00023945,13.989,0.0029548
29102,0.82059,4.9091,0.1,0.00054198,5416.1,0.00055231,5972.3,-6.0539e-05,1367.5,-0.00024188,4.9891,0.003803
29103,0.72941,5.1818,0.1,0.00053016,5297.9,0.00054067,5774.2,-7.9813e-05,1112.2,-0.00022611,12.955,0.0028095
29104,0.82059,5.0909,0.1,0.00053426,5338.9,0.00054459,5820.9,-7.7988e-05,1143.1,-0.00022951,4.5774,0.0036438
29105,0.72941,5.3636,0.1,0.00052801,5276.4,0.00053742,5641.6,-0.00010563,809.86,-0.0002119,11.399,0.0026238
29106,0.82059,5.2727,0.1,0.0005307,5303.3,0.00054025,5689,-0.00010038,875.54,-0.00021639,3.8845,0.003444
29107,0.72941,5.5455,0.1,0.00053296,5326,0.00053955,5548.1,-0.00013687,465.79,-0.00019779,8.0771,0.0023849
29108,0.82059,5.4545,0.1,0.00053284,5324.7,0.00054031,5588.3,-0.00012763,569.64,-0.00020307,2.8348,0.0031922
29109,0.72941,5.7273,0.1,0.00054737,5469.9,0.00054903,5520.5,-0.00017142,107.29,-0.00018629,-4.4068,0.0020768
29110,0.82059,5.6364,0.1,0.00054147,5411,0.00054522,5529.4,-0.00015795,246.05,-0.00019079,-0.73068,0.0028742
29111,0.82059,5.8182,0.1,0.00055966,5592.7,0.00055806,5547.3,-0.00017862,12.185,-0.00019374,-101.4,0.0024738
29112,0.72941,5.9091,0.1,0.00054762,5472.4,0.00054607,5428.1,-0.00017624,0.9334,-0.00018813,-88.445,0.0016816
29113,0.91176,0.27273,0.1,0.00055338,5530,0.00055425,5556.2,-0.00017629,67.227,-0.0001871,-14,0.0033795
29114,1.0029,0.18182,0.1,0.000559,5586.1,0.00055733,5538.8,-0.00017878,7.9426,-0.00019326,-100.86,0.0038984
29115,0.91176,0.090909,0.1,0.00055229,5519.1,0.00055087,5478,-0.00017849,-2.1263,-0.00018877,-79.363,0.0028804
29116,0.91176,0.45455,0.1,0.00054098,5406.1,0.00054596,5569.4,-0.0001488,349.25,-0.00019597,-5.1567,0.0037851
29117,1.0029,0.36364,0.1,0.00054421,5438.4,0.00054689,5521.6,-0.00016453,176.3,-0.00018868,-5.1876,0.0043977
29118,0.91176,0.63636,0.1,0.00053518,5348.2,0.00054304,5635,-0.0001223,635.91,-0.00020754,-4.5211,0.0041125
29119,1.0029,0.54545,0.1,0.00053668,5363.1,0.00054272,5567.2,-0.00013988,438.46,-0.00019861,-2.8365,0.0048086
29120,0.91176,0.81818,0.1,0.00053457,5342,0.00054406,5734.8,-9.8443e-05,907.26,-0.00021978,-4.435,0.0043765
29121,1.0029,0.72727,0.1,0.00053368,5333.1,0.00054208,5647.8,-0.0001162,701.79,-0.00020992,-2.414,0.0051454
29122,0.91176,1,0.1,0.0005386,5382.2,0.00054871,5861.1,-7.8407e-05,1149.2,-0.00023194,-4.397,0.0045896
29123,1.0029,0.90909,0.1,0.00053522,5348.5,0.00054494,5758,-9.5156e-05,948.51,-0.00022168,-2.1612,0.0054212
29124,0.91176,1.1818,0.1,0.00054613,5457.6,0.00055625,6005.1,-6.232e-05,1357.5,-0.00024357,-4.4022,0.004762
29125,1.0029,1.0909,0.1,0.0005407,5403.3,0.00055094,5890.9,-7.7438e-05,1169.5,-0.00023336,-2.0449,0.005647
29126,0.91176,1.3636,0.1,0.00055591,5555.3,0.00056571,6158,-4.9693e-05,1534.1,-0.00025446,-4.4111,0.0049014
29127,1.0029,1.2727,0.1,0.00054909,5487.1,0.00055935,6038.7,-6.2986e-05,1362.7,-0.00024461,-1.9735,0.0058319
29128,0.91176,1.5455,0.1,0.00056682,5664.3,0.00057618,6311.8,-3.9856e-05,1683.2,-0.00026446,-4.4157,0.0050141
29129,1.0029,1.4545,0.1,0.00055932,5589.4,0.00056934,6193.7,-5.1374e-05,1529.9,-0.00025525,-1.9259,0.0059832
29130,0.91176,1.7273,0.1,0.00057797,5775.7,0.0005869,6460.3,-3.2204e-05,1808.6,-0.0002735,-4.4131,0.0051047
29131,1.0029,1.6364,0.1,0.00057044,5700.5,0.00058009,6348.6,-4.2102e-05,1673.7,-0.00026511,-1.8873,0.0061064
29132,0.91176,1.9091,0.1,0.00058872,5883.1,0.00059724,6598.3,-2.6267e-05,1913.5,-0.00028153,-4.4056,0.0051771
29133,1.0029,1.8182,0.1,0.00058168,5812.8,0.00059094,6497.5,-3.4741e-05,1796.4,-0.00027407,-1.8541,0.0062062
29134,0.91176,2.0909,0.1,0.00059857,5981.6,0.00060676,6721.9,-2.1716e-05,1999.8,-0.00028845,-4.3966,0.0052341
29135,1.0029,2,0.1,0.00059241,5920,0.00060132,6635.3,-2.8974e-05,1899.5,-0.00028202,-1.8262,0.0062861
29136,0.91176,2.2727,0.1,0.00060716,6067.4,0.00061508,6827.8,-1.8316e-05,2068.7,-0.00029423,-4.3892,0.005278
29137,1.0029,2.1818,0.1,0.00060215,6017.4,0.00061076,6757.4,-2.457e-05,1983.8,-0.00028884,-1.8056,0.0063491
29138,0.91176,2.4545,0.1,0.00061417,6137.4,0.0006219,6913.3,-1.5887e-05,2121.2,-0.00029878,-4.3849,0.0053107
29139,1.0029,2.3636,0.1,0.00061049,6100.7,0.00061887,6860.3,-2.1345e-05,2050,-0.00029442,-1.7934,0.0063972
29140,0.91176,2.6364,0.1,0.00061937,6189.4,0.00062697,6976.1,-1.4279e-05,2158,-0.00030207,-4.3837,0.0053332
29141,1.0029,2.5455,0.1,0.00061708,6166.6,0.0006253,6940.6,-1.9132e-05,2098.6,-0.00029868,-1.7884,0.006432
29142,0.91176,2.8182,0.1,0.00062256,6221.3,0.0006301,7014.5,-1.337e-05,2179.7,-0.00030406,-4.384,0.0053464
29143,1.0029,2.7273,0.1,0.00062165,6212.2,0.00062976,6995.7,-1.777e-05,2130.4,-0.00030155,-1.7879,0.0064547
29144,0.91176,3,0.1,0.00062364,6232.1,0.00063115,7027.4,-1.3077e-05,2186.9,-0.00030472,-4.3843,0.0053507
29145,1.0029,2.9091,0.1,0.00062398,6235.5,0.00063205,7023.8,-1.7126e-05,2146.1,-0.00030299,-1.7887,0.0064659
29146,0.91176,3.1818,0.1,0.00062256,6221.3,0.0006301,7014.5,-1.337e-05,2179.7,-0.00030406,-4.384,0.0053464
29147,1.0029,3.0909,0.1,0.00062398,6235.5,0.00063205,7023.8,-1.7126e-05,2146.1,-0.00030299,-1.7887,0.0064659
29148,0.91176,3.3636,0.1,0.00061937,6189.4,0.00062697,6976.1,-1.4279e-05,2158,-0.00030207,-4.3837,0.0053332
29149,1.0029,3.2727,0.1,0.00062165,6212.2,0.00062976,6995.7,-1.777e-05,2130.4,-0.00030155,-1.7879,0.0064547
29150,0.91176,3.5455,0.1,0.00061417,6137.4,0.0006219,6913.3,-1.5887e-05,2121.2,-0.00029878,-4.3849,0.0053107
29151,1.0029,3.4545,0.1,0.00061708,6166.6,0.0006253,6940.6,-1.9132e-05,2098.6,-0.00029868,-1.7884,0.006432
29152,0.91176,3.7273,0.1,0.00060716,6067.4,0.00061508,6827.8,-1.8316e-05,2068.7,-0.00029423,-4.3892,0.005278
29153,1.0029,3.6364,0.1,0.00061049,6100.7,0.00061887,6860.3,-2.1346e-05,2050,-0.00029442,-1.7934,0.0063972
29154,0.91176,3.9091,0.1,0.00059857,5981.6,0.00060676,6721.9,-2.1716e-05,1999.8,-0.00028845,-4.3966,0.0052341
29155,1.0029,3.8182,0.1,0.00060215,6017.4,0.00061076,6757.4,-2.457e-05,1983.8,-0.00028884,-1.8056,0.0063491
29156,0.91176,4.0909,0.1,0.00058872,5883.1,0.00059724,6598.3,-2.6267e-05,1913.5,-0.00028153,-4.4056,0.0051771
29157,1.0029,4,0.1,0.00059241,5920,0.00060132,6635.3,-2.8974e-05,1899.5,-0.00028202,-1.8262,0.0062861
29158,0.91176,4.2727,0.1,0.00057797,5775.7,0.0005869,6460.3,-3.2204e-05,1808.6,-0.0002735,-4.4131,0.0051047
29159,1.0029,4.1818,0.1,0.00058168,5812.8,0.00059094,6497.5,-3.4742e-05,1796.4,-0.00027407,-1.8541,0.0062062
29160,0.91176,4.4545,0.1,0.00056682,5664.3,0.00057618,6311.8,-3.9856e-05,1683.2,-0.00026446,-4.4157,0.0050141
29161,1.0029,4.3636,0.1,0.00057044,5700.5,0.00058009,6348.6,-4.2102e-05,1673.7,-0.00026511,-1.8873,0.0061064
29162,0.91176,4.6364,0.1,0.00055591,5555.3,0.00056571,6158,-4.9693e-05,1534.1,-0.00025446,-4.4111,0.0049014
29163,1.0029,4.5455,0.1,0.00055932,5589.4,0.00056934,6193.7,-5.1374e-05,1529.9,-0.00025525,-1.9259,0.0059832
29164,0.91176,4.8182,0.1,0.00054613,5457.6,0.00055625,6005.1,-6.232e-05,1357.5,-0.00024357,-4.4022,0.0047619
29165,1.0029,4.7273,0.1,0.00054909,5487.1,0.00055935,6038.7,-6.2986e-05,1362.7,-0.00024461,-1.9735,0.0058319
29166,0.91176,5,0.1,0.0005386,5382.2,0.00054871,5861.1,-7.8407e-05,1149.2,-0.00023194,-4.397,0.0045896
29167,1.0029,4.9091,0.1,0.0005407,5403.3,0.00055094,5890.9,-7.7438e-05,1169.5,-0.00023336,-2.0449,0.005647
29168,0.91176,5.1818,0.1,0.00053457,5342,0.00054406,5734.8,-9.8443e-05,907.26,-0.00021978,-4.435,0.0043765
29169,1.0029,5.0909,0.1,0.00053522,5348.5,0.00054494,5758,-9.5156e-05,948.51,-0.00022168,-2.1612,0.0054212
29170,0.91176,5.3636,0.1,0.00053518,5348.2,0.00054304,5635,-0.0001223,635.91,-0.00020754,-4.5211,0.0041125
29171,1.0029,5.2727,0.1,0.00053368,5333.1,0.00054208,5647.8,-0.0001162,701.79,-0.00020992,-2.414,0.0051454
29172,0.91176,5.5455,0.1,0.00054098,5406.1,0.00054596,5569.4,-0.0001488,349.25,-0.00019597,-5.1567,0.0037851
29173,1.0029,5.4545,0.1,0.00053668,5363.1,0.00054272,5567.2,-0.00013988,438.46,-0.00019861,-2.8365,0.0048086
29174,0.91176,5.7273,0.1,0.00055338,5530,0.00055425,5556.2,-0.00017629,67.226,-0.0001871,-14,0.0033795
29175,1.0029,5.6364,0.1,0.00054421,5438.4,0.00054689,5521.6,-0.00016453,176.3,-0.00018868,-5.1876,0.0043977
29176,1.0029,5.8182,0.1,0.000559,5586.1,0.00055733,5538.8,-0.00017878,7.9426,-0.00019326,-100.86,0.0038984
29177,0.91176,5.9091,0.1,0.00055229,5519.1,0.00055087,5478,-0.00017849,-2.1263,-0.00018877,-79.363,0.0028804
29178,1.0941,0.27273,0.1,0.00054958,5492,0.00054998,5504.3,-0.00017709,41.334,-0.00018477,-16.339,0.0050267
29179,1.1853,0.18182,0.1,0.00054991,5495.3,0.00054818,5446,-0.00017574,6.733,-0.00019044,-103.72,0.0056703
29180,1.0941,0.090909,0.1,0.00054704,5466.6,0.00054573,5428.7,-0.00017694,-1.138,-0.00018664,-74.023,0.0044295
29181,1.0941,0.45455,0.1,0.00053968,5393.1,0.00054366,5519.5,-0.00015572,264.63,-0.00019121,-1.9831,0.0055272
29182,1.1853,0.36364,0.1,0.00053844,5380.7,0.00054032,5438.3,-0.00016717,122.47,-0.00018412,-4.8824,0.0062645
29183,1.0941,0.63636,0.1,0.00053495,5345.8,0.00054173,5579.8,-0.00013376,504.45,-0.00020098,-0.58404,0.0059442
29184,1.1853,0.54545,0.1,0.00053309,5327.2,0.00053798,5486.6,-0.00014745,336.55,-0.00019246,-1.6506,0.0067674
29185,1.0941,0.81818,0.1,0.00053416,5337.9,0.0005429,5670.6,-0.00011286,743.4,-0.00021182,-0.09078,0.0062905
29186,1.1853,0.72727,0.1,0.00053126,5309,0.00053855,5566.7,-0.00012763,561.24,-0.00020246,-0.95982,0.0071912
29187,1.0941,1,0.1,0.00053723,5368.6,0.00054712,5787.3,-9.4139e-05,969.16,-0.0002231,0.21169,0.0065779
29188,1.1853,0.90909,0.1,0.00053309,5327.3,0.00054206,5675,-0.00010905,782.85,-0.00021331,-0.56362,0.0075475
29189,1.0941,1.1818,0.1,0.00054364,5432.7,0.00055402,5924.2,-7.8077e-05,1174.9,-0.00023439,0.39334,0.0068161
29190,1.1853,1.0909,0.1,0.00053839,5380.2,0.00054835,5807,-9.2454e-05,992.3,-0.00022457,-0.34589,0.0078467
29191,1.0941,1.3636,0.1,0.00055254,5521.6,0.00056298,6074.4,-6.4667e-05,1358.5,-0.0002454,0.51633,0.0070134
29192,1.1853,1.2727,0.1,0.00054655,5461.7,0.00055697,5956.9,-7.8107e-05,1185.2,-0.00023587,-0.20373,0.0080974
29193,1.0941,1.5455,0.1,0.00056301,5626.2,0.00057327,6230.6,-5.3638e-05,1520.3,-0.00025589,0.60496,0.0071761
29194,1.1853,1.4545,0.1,0.00055677,5563.9,0.00056728,6117.7,-6.593e-05,1359.9,-0.00024694,-0.10634,0.0083068
29195,1.0941,1.7273,0.1,0.00057422,5738.2,0.00058417,6386.1,-4.4667e-05,1661.3,-0.00026568,0.67332,0.0073096
29196,1.1853,1.6364,0.1,0.00056822,5678.3,0.00057861,6282.5,-5.5728e-05,1516.3,-0.00025754,-0.032445,0.0084809
29197,1.0941,1.9091,0.1,0.00058543,5850.3,0.00059504,6534.7,-3.7474e-05,1782.2,-0.00027457,0.72661,0.0074183
29198,1.1853,1.8182,0.1,0.00058013,5797.3,0.00059028,6444.5,-4.7308e-05,1654,-0.00026743,0.026259,0.0086246
29199,1.0941,2.0909,0.1,0.00059604,5956.3,0.00060533,6670.9,-3.1843e-05,1883.4,-0.00028241,0.7659,0.0075054
29200,1.1853,2,0.1,0.00059181,5914,0.00060168,6597.5,-4.0533e-05,1772.2,-0.00027638,0.071536,0.0087417
29201,1.0941,2.2727,0.1,0.00060552,6051,0.00061454,6789.9,-2.7598e-05,1965.1,-0.00028904,0.79123,0.0075736
29202,1.1853,2.1818,0.1,0.00060265,6022.4,0.00061227,6735.6,-3.5293e-05,1870.1,-0.00028418,0.10232,0.0088354
29203,1.0941,2.4545,0.1,0.00061342,6129.9,0.00062224,6887.5,-2.4572e-05,2027.6,-0.00029432,0.80413,0.007625
29204,1.1853,2.3636,0.1,0.00061212,6116.9,0.00062152,6853.6,-3.1462e-05,1947.3,-0.00029062,0.11823,0.0089081
29205,1.0941,2.6364,0.1,0.00061936,6189.3,0.00062805,6960,-2.2588e-05,2071.3,-0.00029816,0.80818,0.0076608
29206,1.1853,2.5455,0.1,0.00061971,6192.9,0.00062898,6946.8,-2.8868e-05,2004,-0.00029557,0.12169,0.0089614
29207,1.0941,2.8182,0.1,0.00062305,6226.3,0.00063167,7004.7,-2.148e-05,2097.2,-0.00030049,0.80798,0.007682
29208,1.1853,2.7273,0.1,0.00062503,6246,0.00063421,7011.3,-2.7304e-05,2040.9,-0.00029892,0.11848,0.0089965
29209,1.0941,3,0.1,0.00062431,6238.8,0.0006329,7019.8,-2.1126e-05,2105.7,-0.00030127,0.8074,0.007689
29210,1.1853,2.9091,0.1,0.00062778,6273.4,0.00063691,7044.3,-2.6579e-05,2059,-0.0003006,0.11488,0.0090139
29211,1.0941,3.1818,0.1,0.00062305,6226.3,0.00063167,7004.7,-2.148e-05,2097.2,-0.00030049,0.80797,0.007682
29212,1.1853,3.0909,0.1,0.00062778,6273.4,0.00063691,7044.3,-2.658e-05,2059,-0.0003006,0.11488,0.0090139
29213,1.0941,3.3636,0.1,0.00061936,6189.3,0.00062805,6960,-2.2588e-05,2071.3,-0.00029816,0.80818,0.0076608
29214,1.1853,3.2727,0.1,0.00062503,6246,0.00063421,7011.3,-2.7304e-05,2040.9,-0.00029892,0.11848,0.0089965
29215,1.0941,3.5455,0.1,0.00061342,6129.9,0.00062224,6887.5,-2.4572e-05,2027.6,-0.00029432,0.80413,0.007625
29216,1.1853,3.4545,0.1,0.00061971,6192.9,0.00062898,6946.8,-2.8868e-05,2004,-0.00029557,0.12169,0.0089614
29217,1.0941,3.7273,0.1,0.00060552,6051,0.00061454,6789.9,-2.7598e-05,1965.1,-0.00028904,0.79123,0.0075736
29218,1.1853,3.6364,0.1,0.00061212,6116.9,0.00062152,6853.6,-3.1462e-05,1947.3,-0.00029062,0.11823,0.0089081
29219,1.0941,3.9091,0.1,0.00059604,5956.3,0.00060533,6670.9,-3.1843e-05,1883.4,-0.00028241,0.7659,0.0075054
29220,1.1853,3.8182,0.1,0.00060265,6022.4,0.00061227,6735.6,-3.5293e-05,1870.1,-0.00028418,0.10232,0.0088354
29221,1.0941,4.0909,0.1,0.00058543,5850.3,0.00059504,6534.7,-3.7474e-05,1782.2,-0.00027457,0.72661,0.0074183
29222,1.1853,4,0.1,0.00059181,5914,0.00060168,6597.5,-4.0533e-05,1772.2,-0.00027638,0.071536,0.0087417
29223,1.0941,4.2727,0.1,0.00057422,5738.2,0.00058417,6386.1,-4.4668e-05,1661.3,-0.00026568,0.67332,0.0073096
29224,1.1853,4.1818,0.1,0.00058013,5797.3,0.00059028,6444.5,-4.7308e-05,1654,-0.00026743,0.026258,0.0086246
29225,1.0941,4.4545,0.1,0.00056301,5626.2,0.00057327,6230.6,-5.3638e-05,1520.3,-0.00025589,0.60496,0.0071761
29226,1.1853,4.3636,0.1,0.00056822,5678.3,0.00057861,6282.5,-5.5728e-05,1516.3,-0.00025754,-0.032445,0.0084809
29227,1.0941,4.6364,0.1,0.00055254,5521.6,0.00056298,6074.4,-6.4667e-05,1358.5,-0.0002454,0.51633,0.0070134
29228,1.1853,4.5455,0.1,0.00055677,5563.9,0.00056728,6117.7,-6.5931e-05,1359.9,-0.00024694,-0.10634,0.0083068
29229,1.0941,4.8182,0.1,0.00054364,5432.7,0.00055402,5924.2,-7.8077e-05,1174.9,-0.00023439,0.39334,0.0068161
29230,1.1853,4.7273,0.1,0.00054655,5461.7,0.00055697,5956.9,-7.8107e-05,1185.2,-0.00023587,-0.20373,0.0080974
29231,1.0941,5,0.1,0.00053723,5368.6,0.00054712,5787.3,-9.4139e-05,969.16,-0.0002231,0.21169,0.0065779
29232,1.1853,4.9091,0.1,0.00053839,5380.2,0.00054835,5807,-9.2454e-05,992.3,-0.00022457,-0.34589,0.0078467
29233,1.0941,5.1818,0.1,0.00053416,5337.9,0.0005429,5670.6,-0.00011286,743.4,-0.00021182,-0.090781,0.0062905
29234,1.1853,5.0909,0.1,0.00053309,5327.3,0.00054206,5675,-0.00010905,782.85,-0.00021331,-0.56362,0.0075475
29235,1.0941,5.3636,0.1,0.00053495,5345.8,0.00054173,5579.8,-0.00013376,504.45,-0.00020098,-0.58404,0.0059442
29236,1.1853,5.2727,0.1,0.00053126,5309,0.00053855,5566.7,-0.00012763,561.24,-0.00020246,-0.95982,0.0071912
29237,1.0941,5.5455,0.1,0.00053968,5393.1,0.00054366,5519.5,-0.00015572,264.63,-0.00019121,-1.9831,0.0055272
29238,1.1853,5.4545,0.1,0.00053309,5327.2,0.00053798,5486.6,-0.00014745,336.55,-0.00019246,-1.6506,0.0067674
29239,1.0941,5.7273,0.1,0.00054958,5492,0.00054998,5504.3,-0.00017709,41.334,-0.00018477,-16.339,0.0050267
29240,1.1853,5.6364,0.1,0.00053844,5380.7,0.00054032,5438.3,-0.00016717,122.47,-0.00018412,-4.8824,0.0062645
29241,1.1853,5.8182,0.1,0.00054991,5495.3,0.00054818,5446,-0.00017574,6.733,-0.00019044,-103.72,0.0056703
29242,1.0941,5.9091,0.1,0.00054704,5466.6,0.00054573,5428.7,-0.00017694,-1.138,-0.00018664,-74.023,0.0044295
29243,1.2765,0.27273,0.1,0.0005386,5382.3,0.00053851,5380,-0.00017456,22.207,-0.00018105,-26.543,0.0070178
29244,1.3676,0.18182,0.1,0.00053401,5336.4,0.00053212,5282.7,-0.00017026,5.3235,-0.00018572,-110.86,0.0077856
29245,1.2765,0.090909,0.1,0.0005342,5338.3,0.00053289,5300.7,-0.00017275,-1.2513,-0.00018234,-73.285,0.0063274
29246,1.2765,0.45455,0.1,0.00053169,5313.3,0.00053465,5405.5,-0.00015906,193.19,-0.00018522,-3.3517,0.0076108
29247,1.3676,0.36364,0.1,0.00052583,5254.7,0.00052696,5288.9,-0.00016675,76.598,-0.00017791,-7.2369,0.0084713
29248,1.2765,0.63636,0.1,0.00052926,5288.9,0.00053481,5473.5,-0.00014134,393.2,-0.00019392,-1.8697,0.0081176
29249,1.3676,0.54545,0.1,0.00052336,5230,0.00052711,5349.2,-0.00015153,250.17,-0.00018516,-2.5448,0.0090652
29250,1.2765,0.81818,0.1,0.00053008,5297.2,0.0005377,5571.1,-0.00012382,600.68,-0.00020395,-1.3864,0.0085494
29251,1.3676,0.72727,0.1,0.00052401,5236.5,0.00053007,5441.6,-0.00013563,439.87,-0.00019439,-1.6685,0.0095778
29252,1.2765,1,0.1,0.00053419,5338.2,0.00054328,5694.7,-0.00010736,806.01,-0.00021478,-1.1036,0.0089166
29253,1.3676,0.90909,0.1,0.00052786,5275,0.00053576,5562.9,-0.00012014,634.75,-0.00020479,-1.2154,0.010019
29254,1.2765,1.1818,0.1,0.00054129,5409.2,0.0005513,5839.7,-9.2492e-05,1002.5,-0.00022604,-0.93546,0.009228
29255,1.3676,1.0909,0.1,0.0005348,5344.4,0.00054402,5709.3,-0.00010569,827.53,-0.00021596,-0.96435,0.010398
29256,1.2765,1.3636,0.1,0.00055082,5504.4,0.00056129,6000.3,-7.9391e-05,1186.5,-0.00023741,-0.82268,0.0094914
29257,1.3676,1.2727,0.1,0.00054441,5440.3,0.00055449,5875.4,-9.2552e-05,1013.7,-0.00022758,-0.80126,0.010723
29258,1.2765,1.5455,0.1,0.00056204,5616.5,0.00057266,6169.8,-6.8049e-05,1355.8,-0.00024859,-0.74129,0.0097132
29259,1.3676,1.4545,0.1,0.00055604,5556.5,0.00056661,6054.8,-8.0792e-05,1190.5,-0.00023933,-0.6892,0.010999
29260,1.2765,1.7273,0.1,0.0005742,5738,0.00058475,6341.2,-5.8398e-05,1508.8,-0.00025929,-0.67732,0.0098987
29261,1.3676,1.6364,0.1,0.00056897,5685.8,0.00057975,6240.6,-7.0424e-05,1355.4,-0.0002509,-0.60335,0.011234
29262,1.2765,1.9091,0.1,0.00058656,5861.6,0.00059694,6507.5,-5.0389e-05,1643.7,-0.00026924,-0.62658,0.010052
29263,1.3676,1.8182,0.1,0.00058248,5820.7,0.00059327,6425.2,-6.1497e-05,1505.6,-0.00026195,-0.53378,0.011431
29264,1.2765,2.0909,0.1,0.00059847,5980.5,0.00060863,6662.3,-4.3989e-05,1758.8,-0.00027815,-0.58983,0.010177
29265,1.3676,2,0.1,0.00059585,5954.4,0.00060654,6601.5,-5.4109e-05,1637.6,-0.00027213,-0.47928,0.011594
29266,1.2765,2.2727,0.1,0.00060928,6088.6,0.00061924,6799.2,-3.9141e-05,1852.4,-0.00028576,-0.56869,0.010277
29267,1.3676,2.1818,0.1,0.00060842,6080,0.00061898,6762.3,-4.8342e-05,1748.3,-0.00028109,-0.445,0.011727
29268,1.2765,2.4545,0.1,0.00061842,6179.9,0.00062822,6912.6,-3.5717e-05,1924.1,-0.00029187,-0.56263,0.010353
29269,1.3676,2.3636,0.1,0.00061952,6190.9,0.00062996,6900.9,-4.4175e-05,1835.7,-0.00028855,-0.43306,0.011831
29270,1.2765,2.6364,0.1,0.00062537,6249.4,0.00063507,6997.6,-3.352e-05,1974.1,-0.00029633,-0.5669,0.010406
29271,1.3676,2.5455,0.1,0.00062852,6280.9,0.00063888,7011,-4.1438e-05,1899.4,-0.00029429,-0.43772,0.011908
29272,1.2765,2.8182,0.1,0.00062972,6292.9,0.00063937,7050.3,-3.2322e-05,2003.4,-0.00029903,-0.57387,0.010438
29273,1.3676,2.7273,0.1,0.00063487,6344.3,0.00064518,7087.6,-3.9858e-05,1940.5,-0.00029818,-0.4497,0.01196
29274,1.2765,3,0.1,0.00063121,6307.7,0.00064084,7068.1,-3.1945e-05,2013.1,-0.00029994,-0.57703,0.010449
29275,1.3676,2.9091,0.1,0.00063815,6377.1,0.00064845,7126.9,-3.9155e-05,1960.4,-0.00030013,-0.45895,0.011985
29276,1.2765,3.1818,0.1,0.00062972,6292.9,0.00063937,7050.3,-3.2322e-05,2003.4,-0.00029903,-0.57387,0.010438
29277,1.3676,3.0909,0.1,0.00063815,6377.1,0.00064845,7126.9,-3.9155e-05,1960.4,-0.00030013,-0.45895,0.011985
29278,1.2765,3.3636,0.1,0.00062537,6249.4,0.00063507,6997.6,-3.352e-05,1974.1,-0.00029633,-0.5669,0.010406
29279,1.3676,3.2727,0.1,0.00063487,6344.3,0.00064518,7087.6,-3.9858e-05,1940.5,-0.00029818,-0.4497,0.01196
29280,1.2765,3.5455,0.1,0.00061842,6179.9,0.00062822,6912.6,-3.5717e-05,1924.1,-0.00029187,-0.56263,0.010353
29281,1.3676,3.4545,0.1,0.00062852,6280.9,0.00063888,7011,-4.1438e-05,1899.4,-0.00029429,-0.43772,0.011908
29282,1.2765,3.7273,0.1,0.00060928,6088.6,0.00061924,6799.2,-3.9141e-05,1852.4,-0.00028576,-0.56869,0.010277
29283,1.3676,3.6364,0.1,0.00061952,6190.9,0.00062996,6900.9,-4.4175e-05,1835.7,-0.00028855,-0.43306,0.011831
29284,1.2765,3.9091,0.1,0.00059847,5980.5,0.00060863,6662.3,-4.3989e-05,1758.8,-0.00027815,-0.58983,0.010177
29285,1.3676,3.8182,0.1,0.00060842,6080,0.00061898,6762.3,-4.8342e-05,1748.3,-0.00028109,-0.445,0.011727
29286,1.2765,4.0909,0.1,0.00058656,5861.6,0.00059694,6507.5,-5.0389e-05,1643.7,-0.00026924,-0.62658,0.010052
29287,1.3676,4,0.1,0.00059585,5954.4,0.00060654,6601.5,-5.4109e-05,1637.6,-0.00027213,-0.47928,0.011594
29288,1.2765,4.2727,0.1,0.0005742,5738,0.00058475,6341.2,-5.8398e-05,1508.8,-0.00025929,-0.67732,0.0098987
29289,1.3676,4.1818,0.1,0.00058248,5820.7,0.00059327,6425.2,-6.1497e-05,1505.6,-0.00026195,-0.53378,0.011431
29290,1.2765,4.4545,0.1,0.00056204,5616.5,0.00057266,6169.8,-6.8049e-05,1355.8,-0.00024859,-0.74129,0.0097132
29291,1.3676,4.3636,0.1,0.00056897,5685.8,0.00057975,6240.6,-7.0424e-05,1355.4,-0.0002509,-0.60335,0.011234
29292,1.2765,4.6364,0.1,0.00055082,5504.4,0.00056129,6000.3,-7.9391e-05,1186.5,-0.00023741,-0.82268,0.0094914
29293,1.3676,4.5455,0.1,0.00055604,5556.5,0.00056661,6054.8,-8.0792e-05,1190.5,-0.00023933,-0.6892,0.010999
29294,1.2765,4.8182,0.1,0.00054129,5409.2,0.0005513,5839.7,-9.2492e-05,1002.5,-0.00022604,-0.93546,0.009228
29295,1.3676,4.7273,0.1,0.00054441,5440.3,0.00055449,5875.4,-9.2552e-05,1013.7,-0.00022758,-0.80126,0.010723
29296,1.2765,5,0.1,0.00053419,5338.2,0.00054328,5694.7,-0.00010736,806.01,-0.00021478,-1.1036,0.0089165
29297,1.3676,4.9091,0.1,0.0005348,5344.4,0.00054402,5709.3,-0.00010569,827.53,-0.00021596,-0.96435,0.010398
29298,1.2765,5.1818,0.1,0.00053008,5297.2,0.0005377,5571.1,-0.00012382,600.68,-0.00020395,-1.3864,0.0085494
29299,1.3676,5.0909,0.1,0.00052786,5275,0.00053576,5562.9,-0.00012014,634.75,-0.00020479,-1.2154,0.010019
29300,1.2765,5.3636,0.1,0.00052926,5288.9,0.00053481,5473.5,-0.00014134,393.2,-0.00019392,-1.8697,0.0081176
29301,1.3676,5.2727,0.1,0.00052401,5236.5,0.00053007,5441.6,-0.00013563,439.87,-0.00019439,-1.6685,0.0095778
29302,1.2765,5.5455,0.1,0.00053169,5313.3,0.00053465,5405.5,-0.00015906,193.19,-0.00018522,-3.3517,0.0076108
29303,1.3676,5.4545,0.1,0.00052336,5230,0.00052711,5349.2,-0.00015153,250.17,-0.00018516,-2.5448,0.0090652
29304,1.2765,5.7273,0.1,0.0005386,5382.3,0.00053851,5380,-0.00017456,22.207,-0.00018105,-26.543,0.0070178
29305,1.3676,5.6364,0.1,0.00052583,5254.7,0.00052696,5288.9,-0.00016675,76.597,-0.00017791,-7.2369,0.0084713
29306,1.3676,5.8182,0.1,0.00053401,5336.4,0.00053212,5282.7,-0.00017026,5.3235,-0.00018572,-110.86,0.0077856
29307,1.2765,5.9091,0.1,0.0005342,5338.3,0.00053289,5300.7,-0.00017275,-1.2513,-0.00018234,-73.285,0.0063274
29308,1.4588,0.27273,0.1,0.00052112,5207.7,0.00052056,5191.5,-0.00016875,12.305,-0.00017626,-44.096,0.0093465
29309,1.55,0.18182,0.1,0.00051176,5114,0.00050966,5054.6,-0.00016247,4.4965,-0.00017918,-121.1,0.010235
29310,1.4588,0.090909,0.1,0.00051459,5142.3,0.00051325,5103.7,-0.00016615,-1.0589,-0.00017605,-75.432,0.0085669
29311,1.4588,0.45455,0.1,0.0005174,5170.4,0.00051943,5232.6,-0.00015949,131.53,-0.00017758,-4.3926,0.01003
29312,1.55,0.36364,0.1,0.00050679,5064.4,0.00050721,5077.3,-0.00016326,39.622,-0.00017031,-13.322,0.01101
29313,1.4588,0.63636,0.1,0.00051804,5176.8,0.0005224,5317.5,-0.00014586,296.47,-0.0001856,-2.1595,0.010628
29314,1.55,0.54545,0.1,0.00050765,5073,0.00051033,5156.3,-0.00015266,174.83,-0.00017641,-3.602,0.011694
29315,1.4588,0.81818,0.1,0.00052176,5214,0.00052816,5433.8,-0.000132,473.57,-0.00019522,-1.4576,0.011148
29316,1.55,0.72727,0.1,0.00051178,5114.3,0.00051657,5270.8,-0.0001408,331.58,-0.00018522,-2.1746,0.012298
29317,1.4588,1,0.1,0.00052849,5281.3,0.00053656,5577.9,-0.00011854,655.82,-0.00020596,-1.0667,0.011601
29318,1.55,0.90909,0.1,0.00051907,5187.2,0.00052571,5417.4,-0.000129,498.16,-0.0001955,-1.5246,0.012829
29319,1.4588,1.1818,0.1,0.00053798,5376.1,0.00054729,5745.4,-0.00010582,838.23,-0.00021749,-0.82867,0.011993
29320,1.55,1.0909,0.1,0.00052933,5289.6,0.0005375,5591.9,-0.00011759,669.89,-0.0002069,-1.163,0.013295
29321,1.4588,1.3636,0.1,0.00054971,5493.3,0.00055988,5930.4,-9.4023e-05,1017.2,-0.0002295,-0.66765,0.012332
29322,1.55,1.2727,0.1,0.00054208,5417.1,0.00055145,5788.9,-0.00010669,843.92,-0.00021913,-0.92988,0.013703
29323,1.4588,1.5455,0.1,0.00056307,5626.8,0.00057377,6126.1,-8.3232e-05,1189.7,-0.00024164,-0.55028,0.012622
29324,1.55,1.4545,0.1,0.00055672,5563.3,0.00056698,6001.5,-9.6311e-05,1017.8,-0.00023187,-0.76958,0.014057
29325,1.4588,1.7273,0.1,0.00057735,5769.5,0.00058832,6325.1,-7.3576e-05,1351.9,-0.00025356,-0.45749,0.01287
29326,1.55,1.6364,0.1,0.00057255,5721.5,0.0005834,6221.8,-8.6564e-05,1187.9,-0.00024476,-0.64771,0.014363
29327,1.4588,1.9091,0.1,0.00059185,5914.4,0.0006029,6519.5,-6.5249e-05,1499.2,-0.00026484,-0.38309,0.013079
29328,1.55,1.8182,0.1,0.00058887,5884.6,0.00060008,6441.6,-7.7707e-05,1349,-0.00025732,-0.54748,0.014624
29329,1.4588,2.0909,0.1,0.00060586,6054.5,0.00061689,6701.5,-5.8466e-05,1627.1,-0.00027507,-0.33064,0.013251
29330,1.55,2,0.1,0.00060498,6045.6,0.00061636,6652.3,-7.0136e-05,1494.2,-0.00026907,-0.47137,0.014844
29331,1.4588,2.2727,0.1,0.00061869,6182.6,0.00062966,6863.7,-5.3343e-05,1731.8,-0.00028388,-0.30586,0.01339
29332,1.55,2.1818,0.1,0.00062016,6197.3,0.00063161,6845.3,-6.4211e-05,1617.1,-0.00027949,-0.42261,0.015026
29333,1.4588,2.4545,0.1,0.00062962,6291.8,0.00064054,6998.7,-4.9822e-05,1811.6,-0.00029097,-0.30548,0.013498
29334,1.55,2.3636,0.1,0.00063363,6331.9,0.00064512,7012.1,-6.0068e-05,1713.6,-0.00028819,-0.40438,0.01517
29335,1.4588,2.6364,0.1,0.00063798,6375.4,0.00064887,7100.2,-4.7665e-05,1866.6,-0.00029614,-0.31884,0.013575
29336,1.55,2.5455,0.1,0.0006446,6441.5,0.00065612,7144.8,-5.7532e-05,1782.7,-0.00029485,-0.41607,0.015279
29337,1.4588,2.8182,0.1,0.00064324,6428,0.00065413,7163.1,-4.6552e-05,1898.5,-0.00029928,-0.33386,0.013621
29338,1.55,2.7273,0.1,0.00065235,6519,0.00066391,7237.1,-5.6212e-05,1826.4,-0.00029935,-0.43941,0.015351
29339,1.4588,3,0.1,0.00064503,6445.9,0.00065592,7184.5,-4.6216e-05,1908.9,-0.00030032,-0.34023,0.013636
29340,1.55,2.9091,0.1,0.00065637,6559.2,0.00066796,7284.4,-5.5684e-05,1847.2,-0.0003016,-0.45586,0.015388
29341,1.4588,3.1818,0.1,0.00064324,6428,0.00065413,7163.1,-4.6552e-05,1898.5,-0.00029928,-0.33386,0.013621
29342,1.55,3.0909,0.1,0.00065637,6559.2,0.00066796,7284.4,-5.5684e-05,1847.2,-0.0003016,-0.45586,0.015388
29343,1.4588,3.3636,0.1,0.00063798,6375.4,0.00064887,7100.2,-4.7665e-05,1866.6,-0.00029614,-0.31884,0.013575
29344,1.55,3.2727,0.1,0.00065235,6519,0.00066391,7237.1,-5.6212e-05,1826.4,-0.00029935,-0.43941,0.015351
29345,1.4588,3.5455,0.1,0.00062962,6291.8,0.00064054,6998.7,-4.9822e-05,1811.6,-0.00029097,-0.30548,0.013498
29346,1.55,3.4545,0.1,0.0006446,6441.5,0.00065612,7144.8,-5.7532e-05,1782.7,-0.00029485,-0.41607,0.015279
29347,1.4588,3.7273,0.1,0.00061869,6182.6,0.00062966,6863.7,-5.3343e-05,1731.8,-0.00028388,-0.30586,0.01339
29348,1.55,3.6364,0.1,0.00063363,6331.9,0.00064512,7012.1,-6.0068e-05,1713.6,-0.00028819,-0.40438,0.01517
29349,1.4588,3.9091,0.1,0.00060586,6054.5,0.00061689,6701.5,-5.8466e-05,1627.1,-0.00027507,-0.33064,0.013251
29350,1.55,3.8182,0.1,0.00062016,6197.3,0.00063161,6845.3,-6.4212e-05,1617.1,-0.00027949,-0.42261,0.015026
29351,1.4588,4.0909,0.1,0.00059185,5914.4,0.0006029,6519.5,-6.525e-05,1499.2,-0.00026484,-0.38309,0.013079
29352,1.55,4,0.1,0.00060498,6045.6,0.00061636,6652.3,-7.0136e-05,1494.2,-0.00026907,-0.47138,0.014844
29353,1.4588,4.2727,0.1,0.00057735,5769.5,0.00058832,6325.1,-7.3576e-05,1351.9,-0.00025356,-0.45749,0.01287
29354,1.55,4.1818,0.1,0.00058887,5884.6,0.00060008,6441.6,-7.7708e-05,1349,-0.00025732,-0.54748,0.014624
29355,1.4588,4.4545,0.1,0.00056307,5626.8,0.00057377,6126.1,-8.3232e-05,1189.7,-0.00024164,-0.55028,0.012622
29356,1.55,4.3636,0.1,0.00057255,5721.5,0.0005834,6221.8,-8.6564e-05,1187.9,-0.00024476,-0.64771,0.014363
29357,1.4588,4.6364,0.1,0.00054971,5493.3,0.00055988,5930.4,-9.4023e-05,1017.2,-0.0002295,-0.66765,0.012332
29358,1.55,4.5455,0.1,0.00055672,5563.3,0.00056698,6001.5,-9.6311e-05,1017.8,-0.00023187,-0.76958,0.014057
29359,1.4588,4.8182,0.1,0.00053798,5376.1,0.00054729,5745.4,-0.00010582,838.23,-0.00021749,-0.82867,0.011993
29360,1.55,4.7273,0.1,0.00054208,5417.1,0.00055145,5788.9,-0.00010669,843.92,-0.00021913,-0.92988,0.013703
29361,1.4588,5,0.1,0.00052849,5281.3,0.00053656,5577.9,-0.00011854,655.82,-0.00020596,-1.0667,0.011601
29362,1.55,4.9091,0.1,0.00052933,5289.6,0.0005375,5591.9,-0.00011759,669.89,-0.0002069,-1.163,0.013295
29363,1.4588,5.1818,0.1,0.00052176,5214,0.00052816,5433.8,-0.000132,473.57,-0.00019522,-1.4576,0.011148
29364,1.55,5.0909,0.1,0.00051907,5187.2,0.00052571,5417.4,-0.000129,498.16,-0.0001955,-1.5246,0.012829
29365,1.4588,5.3636,0.1,0.00051804,5176.8,0.0005224,5317.5,-0.00014586,296.47,-0.0001856,-2.1595,0.010628
29366,1.55,5.2727,0.1,0.00051178,5114.3,0.00051657,5270.8,-0.0001408,331.58,-0.00018522,-2.1746,0.012298
29367,1.4588,5.5455,0.1,0.0005174,5170.4,0.00051943,5232.6,-0.00015949,131.53,-0.00017758,-4.3926,0.01003
29368,1.55,5.4545,0.1,0.00050765,5073,0.00051033,5156.3,-0.00015266,174.83,-0.00017641,-3.602,0.011694
29369,1.4588,5.7273,0.1,0.00052112,5207.7,0.00052056,5191.5,-0.00016875,12.305,-0.00017626,-44.096,0.0093465
29370,1.55,5.6364,0.1,0.00050679,5064.4,0.00050721,5077.3,-0.00016326,39.622,-0.00017031,-13.322,0.01101
29371,1.55,5.8182,0.1,0.00051176,5114,0.00050966,5054.6,-0.00016247,4.4965,-0.00017918,-121.1,0.010235
29372,1.4588,5.9091,0.1,0.00051459,5142.3,0.00051325,5103.7,-0.00016615,-1.0589,-0.00017605,-75.432,0.0085669
29373,1.6412,0.27273,0.1,0.00049735,4970.1,0.00049631,4940.4,-0.00016014,8.0379,-0.00017007,-66.571,0.012001
29374,1.7324,0.18182,0.1,0.00048313,4828,0.00048079,4762,-0.00015245,4.0433,-0.00017072,-133.21,0.013004
29375,1.6412,0.090909,0.1,0.00048843,4881,0.00048702,4840.3,-0.00015731,-0.94684,-0.00016777,-79.554,0.011136
29376,1.6412,0.45455,0.1,0.00049699,4966.5,0.00049813,5001.1,-0.00015709,78,-0.00016849,-7.6903,0.012775
29377,1.7324,0.36364,0.1,0.00048129,4809.5,0.00048106,4803.1,-0.00015579,18.103,-0.00016227,-30.59,0.013866
29378,1.6412,0.63636,0.1,0.0005014,5010.6,0.00050457,5110.1,-0.0001477,209.22,-0.000176,-3.3736,0.013464
29379,1.7324,0.54545,0.1,0.00048595,4856.1,0.00048759,4906.3,-0.00015093,108.71,-0.00016625,-6.4032,0.014643
29380,1.6412,0.81818,0.1,0.00050917,5088.2,0.00051423,5255.3,-0.00013792,355.29,-0.0001855,-2.2239,0.014078
29381,1.7324,0.72727,0.1,0.00049449,4941.5,0.00049795,5051.4,-0.00014351,231.69,-0.00017481,-3.5078,0.015341
29382,1.6412,1,0.1,0.00052004,5196.8,0.00052681,5432.6,-0.0001282,511.09,-0.00019644,-1.6353,0.014623
29383,1.7324,0.90909,0.1,0.0005066,5062.5,0.00051179,5234.5,-0.0001361,366.55,-0.0001852,-2.4032,0.015968
29384,1.6412,1.1818,0.1,0.0005336,5332.4,0.00054183,5636.7,-0.00011862,674.33,-0.00020854,-1.2803,0.015105
29385,1.7324,1.0909,0.1,0.00052186,5215,0.00052863,5450.9,-0.00012876,511.53,-0.00019708,-1.8072,0.016531
29386,1.6412,1.3636,0.1,0.00054927,5489,0.00055871,5861.1,-0.00010913,843.26,-0.0002215,-1.0425,0.01553
29387,1.7324,1.2727,0.1,0.00053962,5392.5,0.00054783,5694.1,-0.00012124,667.01,-0.00021021,-1.4273,0.017032
29388,1.6412,1.5455,0.1,0.00056638,5659.9,0.00057675,6098.2,-9.9779e-05,1015,-0.00023498,-0.87122,0.015901
29389,1.7324,1.4545,0.1,0.00055911,5587.3,0.00056857,5956.2,-0.00011332,832.71,-0.0002243,-1.1642,0.017477
29390,1.6412,1.7273,0.1,0.00058423,5838.2,0.00059526,6339.1,-9.0798e-05,1184.3,-0.00024852,-0.73629,0.016223
29391,1.7324,1.6364,0.1,0.00057956,5791.6,0.00059004,6227.8,-0.00010503,1005.3,-0.00023895,-0.9624,0.017867
29392,1.6412,1.9091,0.1,0.00060213,6017.1,0.0006136,6574.9,-8.2654e-05,1343.5,-0.00026155,-0.63059,0.016499
29393,1.7324,1.8182,0.1,0.00060023,5998.1,0.00061149,6498.9,-9.6806e-05,1177,-0.00025356,-0.80127,0.018206
29394,1.6412,2.0909,0.1,0.00061936,6189.3,0.00063109,6796.1,-7.589e-05,1484.2,-0.00027349,-0.5566,0.01673
29395,1.7324,2,0.1,0.00062043,6200,0.00063223,6758.7,-8.945e-05,1336.3,-0.00026739,-0.66216,0.018497
29396,1.6412,2.2727,0.1,0.00063513,6347,0.00064701,6993.3,-7.0883e-05,1599.3,-0.0002838,-0.51486,0.01692
29397,1.7324,2.1818,0.1,0.00063938,6389.4,0.00065155,6996.5,-8.3747e-05,1471.8,-0.0002797,-0.58282,0.018739
29398,1.6412,2.4545,0.1,0.00064859,6481.4,0.00066058,7157.3,-6.7658e-05,1685.6,-0.00029207,-0.51049,0.017068
29399,1.7324,2.3636,0.1,0.00065618,6557.3,0.0006686,7201.3,-8.0062e-05,1576.2,-0.00028992,-0.57965,0.018935
29400,1.6412,2.6364,0.1,0.0006589,6584.4,0.00067098,7280.4,-6.5897e-05,1743.9,-0.00029806,-0.53419,0.017174
29401,1.7324,2.5455,0.1,0.00066983,6693.6,0.00068243,7363.4,-7.8179e-05,1648.5,-0.00029766,-0.60519,0.019084
29402,1.6412,2.8182,0.1,0.00066538,6649.2,0.00067752,7356.7,-6.5117e-05,1776.8,-0.00030167,-0.56043,0.017239
29403,1.7324,2.7273,0.1,0.00067943,6789.7,0.00069218,7475.3,-7.749e-05,1692.3,-0.0003028,-0.63777,0.019184
29404,1.6412,3,0.1,0.00066759,6671.2,0.00067975,7382.5,-6.4909e-05,1787.4,-0.00030287,-0.57103,0.01726
29405,1.7324,2.9091,0.1,0.00068439,6839.2,0.00069722,7532.3,-7.7343e-05,1712.5,-0.00030535,-0.6611,0.019235
29406,1.6412,3.1818,0.1,0.00066538,6649.2,0.00067752,7356.7,-6.5117e-05,1776.8,-0.00030167,-0.56043,0.017239
29407,1.7324,3.0909,0.1,0.00068439,6839.2,0.00069722,7532.3,-7.7343e-05,1712.5,-0.00030535,-0.6611,0.019235
29408,1.6412,3.3636,0.1,0.0006589,6584.4,0.00067098,7280.4,-6.5897e-05,1743.9,-0.00029806,-0.53419,0.017174
29409,1.7324,3.2727,0.1,0.00067943,6789.7,0.00069218,7475.3,-7.749e-05,1692.3,-0.0003028,-0.63777,0.019184
29410,1.6412,3.5455,0.1,0.00064859,6481.4,0.00066058,7157.3,-6.7658e-05,1685.6,-0.00029207,-0.51049,0.017068
29411,1.7324,3.4545,0.1,0.00066983,6693.6,0.00068243,7363.4,-7.8179e-05,1648.5,-0.00029766,-0.60519,0.019084
29412,1.6412,3.7273,0.1,0.00063513,6347,0.00064701,6993.3,-7.0883e-05,1599.3,-0.0002838,-0.51486,0.01692
29413,1.7324,3.6364,0.1,0.00065618,6557.3,0.0006686,7201.3,-8.0062e-05,1576.2,-0.00028992,-0.57965,0.018935
29414,1.6412,3.9091,0.1,0.00061936,6189.3,0.00063109,6796.1,-7.589e-05,1484.2,-0.00027349,-0.5566,0.01673
29415,1.7324,3.8182,0.1,0.00063938,6389.4,0.00065155,6996.5,-8.3747e-05,1471.8,-0.0002797,-0.58282,0.018739
29416,1.6412,4.0909,0.1,0.00060213,6017.1,0.0006136,6574.9,-8.2654e-05,1343.5,-0.00026155,-0.63059,0.016499
29417,1.7324,4,0.1,0.00062043,6200,0.00063223,6758.7,-8.945e-05,1336.3,-0.00026739,-0.66216,0.018497
29418,1.6412,4.2727,0.1,0.00058423,5838.2,0.00059526,6339.1,-9.0798e-05,1184.3,-0.00024852,-0.73629,0.016223
29419,1.7324,4.1818,0.1,0.00060023,5998.1,0.00061149,6498.9,-9.6806e-05,1177,-0.00025356,-0.80127,0.018206
29420,1.6412,4.4545,0.1,0.00056638,5659.9,0.00057675,6098.2,-9.9779e-05,1015,-0.00023498,-0.87122,0.015901
29421,1.7324,4.3636,0.1,0.00057956,5791.6,0.00059004,6227.8,-0.00010503,1005.3,-0.00023895,-0.9624,0.017867
29422,1.6412,4.6364,0.1,0.00054927,5489,0.00055871,5861.1,-0.00010913,843.26,-0.0002215,-1.0425,0.01553
29423,1.7324,4.5455,0.1,0.00055911,5587.3,0.00056857,5956.2,-0.00011332,832.71,-0.0002243,-1.1642,0.017477
29424,1.6412,4.8182,0.1,0.0005336,5332.4,0.00054183,5636.7,-0.00011862,674.33,-0.00020854,-1.2803,0.015105
29425,1.7324,4.7273,0.1,0.00053962,5392.5,0.00054783,5694.1,-0.00012124,667.01,-0.00021021,-1.4273,0.017032
29426,1.6412,5,0.1,0.00052004,5196.8,0.00052681,5432.6,-0.0001282,511.09,-0.00019644,-1.6353,0.014623
29427,1.7324,4.9091,0.1,0.00052186,5215,0.00052863,5450.9,-0.00012876,511.53,-0.00019708,-1.8072,0.016531
29428,1.6412,5.1818,0.1,0.00050917,5088.2,0.00051423,5255.3,-0.00013792,355.29,-0.0001855,-2.2239,0.014078
29429,1.7324,5.0909,0.1,0.0005066,5062.5,0.00051179,5234.5,-0.0001361,366.55,-0.0001852,-2.4032,0.015968
29430,1.6412,5.3636,0.1,0.0005014,5010.6,0.00050457,5110.1,-0.0001477,209.22,-0.000176,-3.3736,0.013464
29431,1.7324,5.2727,0.1,0.00049449,4941.5,0.00049795,5051.4,-0.00014351,231.69,-0.00017481,-3.5078,0.015341
29432,1.6412,5.5455,0.1,0.00049699,4966.5,0.00049813,5001.1,-0.00015709,78,-0.00016849,-7.6903,0.012775
29433,1.7324,5.4545,0.1,0.00048595,4856.1,0.00048759,4906.3,-0.00015093,108.71,-0.00016625,-6.4032,0.014643
29434,1.6412,5.7273,0.1,0.00049735,4970.1,0.00049631,4940.4,-0.00016014,8.0379,-0.00017007,-66.571,0.012001
29435,1.7324,5.6364,0.1,0.00048129,4809.5,0.00048106,4803.1,-0.00015579,18.103,-0.00016227,-30.59,0.013866
29436,1.7324,5.8182,0.1,0.00048313,4828,0.00048079,4762,-0.00015245,4.0433,-0.00017072,-133.21,0.013004
29437,1.6412,5.9091,0.1,0.00048843,4881,0.00048702,4840.3,-0.00015731,-0.94684,-0.00016777,-79.554,0.011136
29438,1.8235,0.27273,0.1,0.00046704,4667.2,0.00046555,4624.8,-0.00014912,6.4251,-0.00016191,-89.698,0.014966
29439,1.9147,0.18182,0.1,0.0004478,4475,0.00044521,4402.4,-0.00014017,4.0468,-0.00016006,-145.39,0.016074
29440,1.8235,0.090909,0.1,0.00045556,4552.4,0.00045405,4509.2,-0.0001462,-0.82267,-0.00015733,-84.431,0.014017
29441,1.8235,0.45455,0.1,0.00047025,4699.2,0.00047055,4708.6,-0.00015118,37.188,-0.00015852,-17.969,0.01583
29442,1.9147,0.36364,0.1,0.000449,4486.9,0.00044819,4463.6,-0.0001444,11.146,-0.00015348,-57.022,0.017022
29443,1.8235,0.63636,0.1,0.00047915,4788.2,0.00048111,4848.6,-0.00014692,129.81,-0.00016502,-6.2214,0.016614
29444,1.9147,0.54545,0.1,0.00045797,4576.5,0.00045861,4596.1,-0.00014578,54.953,-0.00015509,-14.953,0.017893
29445,1.8235,0.81818,0.1,0.00049216,4918.2,0.00049574,5032.4,-0.00014192,241.22,-0.00017453,-3.7921,0.017326
29446,1.9147,0.72727,0.1,0.00047195,4716.2,0.00047401,4780,-0.00014381,137.94,-0.00016311,-7.0242,0.018691
29447,1.8235,1,0.1,0.00050877,5084.2,0.00051393,5255.2,-0.00013696,364.72,-0.00018586,-2.6895,0.017972
29448,1.9147,0.90909,0.1,0.00049039,4900.5,0.00049386,5010.9,-0.0001419,234.03,-0.00017366,-4.5668,0.019423
29449,1.8235,1.1818,0.1,0.00052828,5279.1,0.00053497,5510.9,-0.00013171,501.72,-0.00019876,-2.0387,0.018556
29450,1.9147,1.0909,0.1,0.00051255,5122,0.00051745,5283.2,-0.00014,343.29,-0.00018613,-3.3103,0.020092
29451,1.8235,1.3636,0.1,0.00054985,5494.7,0.00055801,5791.6,-0.00012574,654.11,-0.00021301,-1.6011,0.01908
29452,1.9147,1.2727,0.1,0.00053746,5370.9,0.00054386,5589.5,-0.00013737,470.91,-0.00020038,-2.5085,0.020702
29453,1.8235,1.5455,0.1,0.00057263,5722.4,0.00058213,6087.8,-0.00011883,821.07,-0.00022828,-1.2802,0.019547
29454,1.9147,1.4545,0.1,0.00056405,5636.6,0.00057199,5920.3,-0.00013327,621.3,-0.00021622,-1.9693,0.021253
29455,1.8235,1.7273,0.1,0.00059583,5954.2,0.00060646,6389,-0.00011122,996.56,-0.00024399,-1.0321,0.019959
29456,1.9147,1.6364,0.1,0.00059126,5908.5,0.0006007,6264.2,-0.0001274,793.5,-0.00023322,-1.5936,0.021745
29457,1.8235,1.9091,0.1,0.00061873,6183,0.00063024,6683.5,-0.00010371,1168.9,-0.00025939,-0.82514,0.020317
29458,1.9147,1.8182,0.1,0.00061822,6177.9,0.00062898,6607.6,-0.00012034,977.49,-0.00025061,-1.2667,0.02218
29459,1.8235,2.0909,0.1,0.00064057,6401.3,0.00065271,6959.2,-9.7325e-05,1323.7,-0.0002736,-0.67572,0.020622
29460,1.9147,2,0.1,0.00064423,6437.9,0.00065602,6936.4,-0.00011348,1154.6,-0.0002673,-1.0783,0.022558
29461,1.8235,2.2727,0.1,0.00066047,6600.1,0.00067305,7203.9,-9.2843e-05,1449.3,-0.00028582,-0.63592,0.020875
29462,1.9147,2.1818,0.1,0.00066844,6679.8,0.00068097,7235.4,-0.00010831,1305,-0.00028212,-0.94229,0.022878
29463,1.8235,2.4545,0.1,0.00067736,6769,0.00069026,7406,-9.0391e-05,1540.5,-0.0002955,-0.66674,0.021074
29464,1.9147,2.3636,0.1,0.00068971,6892.3,0.00070277,7490,-0.00010556,1416.5,-0.0002942,-0.81181,0.023139
29465,1.8235,2.6364,0.1,0.00069022,6897.5,0.00070335,7556.1,-8.9479e-05,1599.1,-0.0003024,-0.70536,0.02122
29466,1.9147,2.5455,0.1,0.00070677,7062.8,0.0007202,7688,-0.00010488,1488.7,-0.00030312,-0.81612,0.023339
29467,1.8235,2.8182,0.1,0.00069825,6977.7,0.00071151,7648.1,-8.935e-05,1630.8,-0.00030649,-0.73767,0.021308
29468,1.9147,2.7273,0.1,0.0007186,7181.1,0.00073226,7821.9,-0.00010526,1529.1,-0.00030888,-0.85911,0.023476
29469,1.8235,3,0.1,0.00070098,7004.9,0.00071429,7679.1,-8.9385e-05,1640.6,-0.00030784,-0.75125,0.021338
29470,1.9147,2.9091,0.1,0.00072463,7241.3,0.0007384,7889,-0.00010572,1546.6,-0.00031168,-0.87592,0.023545
29471,1.8235,3.1818,0.1,0.00069825,6977.7,0.00071151,7648.1,-8.935e-05,1630.8,-0.00030649,-0.73767,0.021308
29472,1.9147,3.0909,0.1,0.00072463,7241.3,0.0007384,7889,-0.00010572,1546.6,-0.00031168,-0.87592,0.023545
29473,1.8235,3.3636,0.1,0.00069022,6897.5,0.00070335,7556.1,-8.9479e-05,1599.1,-0.0003024,-0.70536,0.02122
29474,1.9147,3.2727,0.1,0.0007186,7181.1,0.00073226,7821.9,-0.00010526,1529.1,-0.00030888,-0.85911,0.023476
29475,1.8235,3.5455,0.1,0.00067736,6769,0.00069026,7406,-9.0391e-05,1540.5,-0.0002955,-0.66674,0.021074
29476,1.9147,3.4545,0.1,0.00070677,7062.8,0.0007202,7688,-0.00010488,1488.7,-0.00030312,-0.81612,0.023339
29477,1.8235,3.7273,0.1,0.00066047,6600.2,0.00067305,7203.9,-9.2843e-05,1449.3,-0.00028582,-0.63592,0.020875
29478,1.9147,3.6364,0.1,0.00068971,6892.3,0.00070277,7490,-0.00010556,1416.5,-0.0002942,-0.81181,0.023139
29479,1.8235,3.9091,0.1,0.00064057,6401.3,0.00065271,6959.2,-9.7325e-05,1323.7,-0.0002736,-0.67572,0.020622
29480,1.9147,3.8182,0.1,0.00066844,6679.8,0.00068097,7235.4,-0.00010831,1305,-0.00028212,-0.94229,0.022878
29481,1.8235,4.0909,0.1,0.00061873,6183,0.00063024,6683.5,-0.00010371,1168.9,-0.00025939,-0.82515,0.020317
29482,1.9147,4,0.1,0.00064423,6437.9,0.00065602,6936.4,-0.00011348,1154.6,-0.0002673,-1.0783,0.022558
29483,1.8235,4.2727,0.1,0.00059583,5954.2,0.00060646,6389,-0.00011122,996.56,-0.00024399,-1.0321,0.019959
29484,1.9147,4.1818,0.1,0.00061822,6177.9,0.00062898,6607.6,-0.00012034,977.49,-0.00025061,-1.2667,0.02218
29485,1.8235,4.4545,0.1,0.00057264,5722.4,0.00058213,6087.8,-0.00011883,821.07,-0.00022828,-1.2802,0.019547
29486,1.9147,4.3636,0.1,0.00059126,5908.5,0.0006007,6264.2,-0.0001274,793.5,-0.00023322,-1.5936,0.021745
29487,1.8235,4.6364,0.1,0.00054985,5494.7,0.00055801,5791.6,-0.00012574,654.11,-0.00021301,-1.6011,0.01908
29488,1.9147,4.5455,0.1,0.00056405,5636.6,0.00057199,5920.3,-0.00013327,621.3,-0.00021622,-1.9693,0.021253
29489,1.8235,4.8182,0.1,0.00052828,5279.1,0.00053497,5510.9,-0.00013171,501.72,-0.00019876,-2.0387,0.018556
29490,1.9147,4.7273,0.1,0.00053746,5370.9,0.00054387,5589.5,-0.00013737,470.91,-0.00020038,-2.5085,0.020702
29491,1.8235,5,0.1,0.00050877,5084.2,0.00051393,5255.2,-0.00013696,364.72,-0.00018586,-2.6895,0.017972
29492,1.9147,4.9091,0.1,0.00051255,5122,0.00051745,5283.2,-0.00014,343.29,-0.00018613,-3.3103,0.020092
29493,1.8235,5.1818,0.1,0.00049216,4918.2,0.00049575,5032.4,-0.00014192,241.22,-0.00017453,-3.7921,0.017326
29494,1.9147,5.0909,0.1,0.00049039,4900.5,0.00049386,5010.9,-0.0001419,234.03,-0.00017366,-4.5668,0.019423
29495,1.8235,5.3636,0.1,0.00047915,4788.2,0.00048111,4848.6,-0.00014692,129.81,-0.00016502,-6.2214,0.016614
29496,1.9147,5.2727,0.1,0.00047195,4716.2,0.00047401,4780,-0.00014381,137.94,-0.00016311,-7.0242,0.018691
29497,1.8235,5.5455,0.1,0.00047025,4699.2,0.00047055,4708.6,-0.00015118,37.188,-0.00015852,-17.969,0.01583
29498,1.9147,5.4545,0.1,0.00045797,4576.5,0.00045861,4596.1,-0.00014578,54.953,-0.00015509,-14.953,0.017893
29499,1.8235,5.7273,0.1,0.00046704,4667.2,0.00046555,4624.8,-0.00014912,6.4251,-0.00016191,-89.698,0.014966
29500,1.9147,5.6364,0.1,0.000449,4486.9,0.00044819,4463.6,-0.0001444,11.146,-0.00015348,-57.022,0.017022
29501,1.9147,5.8182,0.1,0.0004478,4475,0.00044521,4402.4,-0.00014017,4.0468,-0.00016006,-145.39,0.016074
29502,1.8235,5.9091,0.1,0.00045556,4552.4,0.00045405,4509.2,-0.0001462,-0.82267,-0.00015733,-84.431,0.014017
29503,2.0059,0.27273,0.1,0.00042978,4294.9,0.00042789,4241.5,-0.0001358,6.1574,-0.00015132,-110.46,0.018219
29504,2.0971,0.18182,0.1,0.00040531,4050.3,0.00040251,3972.5,-0.00012559,4.6459,-0.00014689,-155.41,0.019419
29505,2.0059,0.090909,0.1,0.00041559,4153,0.000414,4107.6,-0.00013279,-0.7267,-0.00014449,-88.651,0.017188
29506,2.0059,0.45455,0.1,0.00043681,4365.1,0.00043634,4351.9,-0.00014042,18.312,-0.00014873,-44.139,0.019174
29507,2.0971,0.36364,0.1,0.00040954,4092.6,0.00040824,4055.7,-0.00013025,9.7329,-0.00014245,-81.898,0.020455
29508,2.0059,0.63636,0.1,0.00045107,4507.6,0.00045179,4529.7,-0.00014291,61.379,-0.00015323,-16.211,0.020057
29509,2.0971,0.54545,0.1,0.00042349,4231.9,0.00042317,4223.3,-0.00013559,25.069,-0.00014445,-41.498,0.021421
29510,2.0059,0.81818,0.1,0.00047072,4703.9,0.0004726,4762.1,-0.00014413,128.26,-0.00016238,-8.9062,0.020876
29511,2.0971,0.72727,0.1,0.00044417,4438.6,0.00044468,4454.7,-0.00014082,55.499,-0.00015116,-22.235,0.022326
29512,2.0059,1,0.1,0.00049489,4945.5,0.00049799,5043.4,-0.00014546,208.79,-0.00017404,-5.9706,0.021634
29513,2.0971,0.90909,0.1,0.00047068,4703.5,0.00047201,4744.6,-0.00014639,98.135,-0.00016133,-14.119,0.023173
29514,2.0059,1.1818,0.1,0.00052253,5221.7,0.000527,5366.6,-0.00014625,308.08,-0.00018782,-4.2769,0.022333
29515,2.0971,1.0909,0.1,0.00050193,5015.9,0.00050422,5086.9,-0.00015208,155.79,-0.00017409,-9.6375,0.023965
29516,2.0059,1.3636,0.1,0.00055241,5520.3,0.00055844,5722.7,-0.00014545,433.92,-0.00020363,-3.1582,0.022974
29517,2.0971,1.2727,0.1,0.0005366,5362.3,0.00054014,5474.6,-0.00015659,239.59,-0.00018936,-6.6439,0.024701
29518,2.0059,1.5455,0.1,0.00058329,5828.9,0.00059103,6100.2,-0.00014229,590.34,-0.00022118,-2.4145,0.023556
29519,2.0971,1.4545,0.1,0.00057314,5727.4,0.00057834,5897.4,-0.00015837,362.07,-0.00020716,-4.5375,0.025379
29520,2.0059,1.7273,0.1,0.00061411,6136.8,0.00062354,6485.2,-0.00013684,772.07,-0.00023984,-1.8672,0.024078
29521,2.0971,1.6364,0.1,0.00060994,6095.2,0.00061714,6340.9,-0.00015633,529.3,-0.00022717,-2.9752,0.025997
29522,2.0059,1.9091,0.1,0.00064403,6435.9,0.00065494,6861.8,-0.00013029,961.92,-0.00025851,-1.5102,0.024538
29523,2.0971,1.8182,0.1,0.0006458,6453.5,0.00065506,6786.3,-0.00015097,730.11,-0.00024843,-2.1666,0.02655
29524,2.0059,2.0909,0.1,0.00067227,6718,0.0006843,7212.7,-0.00012449,1135.7,-0.00027582,-1.3182,0.024936
29525,2.0971,2,0.1,0.00067985,6793.8,0.00069087,7211.8,-0.0001446,934.46,-0.00026915,-1.3313,0.027038
29526,2.0059,2.2727,0.1,0.0006977,6972.2,0.00071055,7520.4,-0.00012089,1273.3,-0.0002905,-1.0946,0.02527
29527,2.0971,2.1818,0.1,0.00071116,7106.7,0.00072346,7594.2,-0.00014008,1106,-0.0002874,-0.94478,0.027456
29528,2.0059,2.4545,0.1,0.00071898,7184.9,0.00073238,7769.6,-0.00011974,1367.1,-0.00030181,-0.94827,0.025536
29529,2.0971,2.3636,0.1,0.00073815,7376.4,0.00075128,7911.1,-0.00013872,1224,-0.00030179,-1.2106,0.027802
29530,2.0059,2.6364,0.1,0.00073489,7343.8,0.00074864,7950.2,-0.00012019,1422.2,-0.0003096,-0.9658,0.025732
29531,2.0971,2.5455,0.1,0.00075909,7585.6,0.00077272,8147.7,-0.00013978,1291.5,-0.00031183,-1.1791,0.028069
29532,2.0059,2.8182,0.1,0.00074462,7441.1,0.00075857,8058.4,-0.00012105,1449.3,-0.00031407,-0.99755,0.025851
29533,2.0971,2.7273,0.1,0.00077303,7725,0.00078696,8300.6,-0.00014159,1323.9,-0.00031794,-1.1253,0.028252
29534,2.0059,3,0.1,0.00074789,7473.7,0.0007619,8094.3,-0.00012145,1457.2,-0.00031552,-1.0018,0.025892
29535,2.0971,2.9091,0.1,0.0007799,7793.6,0.00079395,8374.6,-0.00014281,1336.2,-0.00032079,-1.1167,0.028345
29536,2.0059,3.1818,0.1,0.00074462,7441.1,0.00075857,8058.4,-0.00012105,1449.3,-0.00031407,-0.99755,0.025851
29537,2.0971,3.0909,0.1,0.0007799,7793.6,0.00079395,8374.6,-0.00014281,1336.2,-0.00032079,-1.1167,0.028345
29538,2.0059,3.3636,0.1,0.00073489,7343.8,0.00074864,7950.2,-0.00012019,1422.2,-0.0003096,-0.9658,0.025732
29539,2.0971,3.2727,0.1,0.00077303,7725,0.00078696,8300.6,-0.00014159,1323.9,-0.00031794,-1.1253,0.028252
29540,2.0059,3.5455,0.1,0.00071899,7184.9,0.00073238,7769.6,-0.00011974,1367.1,-0.00030181,-0.94827,0.025536
29541,2.0971,3.4545,0.1,0.00075909,7585.6,0.00077272,8147.7,-0.00013978,1291.5,-0.00031183,-1.1791,0.028069
29542,2.0059,3.7273,0.1,0.0006977,6972.2,0.00071055,7520.4,-0.00012089,1273.3,-0.0002905,-1.0946,0.02527
29543,2.0971,3.6364,0.1,0.00073815,7376.4,0.00075128,7911.1,-0.00013872,1224,-0.00030179,-1.2106,0.027802
29544,2.0059,3.9091,0.1,0.00067227,6718,0.0006843,7212.7,-0.00012449,1135.7,-0.00027582,-1.3182,0.024936
29545,2.0971,3.8182,0.1,0.00071116,7106.7,0.00072346,7594.2,-0.00014008,1106,-0.0002874,-0.94478,0.027456
29546,2.0059,4.0909,0.1,0.00064403,6435.9,0.00065494,6861.8,-0.00013029,961.92,-0.00025851,-1.5102,0.024538
29547,2.0971,4,0.1,0.00067985,6793.8,0.00069087,7211.8,-0.0001446,934.46,-0.00026915,-1.3313,0.027038
29548,2.0059,4.2727,0.1,0.00061411,6136.8,0.00062354,6485.2,-0.00013684,772.07,-0.00023984,-1.8672,0.024078
29549,2.0971,4.1818,0.1,0.0006458,6453.5,0.00065506,6786.3,-0.00015097,730.11,-0.00024843,-2.1666,0.02655
29550,2.0059,4.4545,0.1,0.00058329,5828.9,0.00059103,6100.2,-0.00014229,590.34,-0.00022118,-2.4145,0.023556
29551,2.0971,4.3636,0.1,0.00060994,6095.2,0.00061714,6340.9,-0.00015633,529.3,-0.00022717,-2.9752,0.025997
29552,2.0059,4.6364,0.1,0.00055241,5520.3,0.00055844,5722.7,-0.00014545,433.92,-0.00020363,-3.1582,0.022974
29553,2.0971,4.5455,0.1,0.00057314,5727.4,0.00057834,5897.4,-0.00015837,362.07,-0.00020716,-4.5375,0.025379
29554,2.0059,4.8182,0.1,0.00052253,5221.7,0.000527,5366.6,-0.00014625,308.08,-0.00018782,-4.2769,0.022333
29555,2.0971,4.7273,0.1,0.0005366,5362.3,0.00054014,5474.6,-0.00015659,239.59,-0.00018936,-6.6439,0.024701
29556,2.0059,5,0.1,0.00049489,4945.5,0.00049799,5043.4,-0.00014546,208.79,-0.00017404,-5.9706,0.021634
29557,2.0971,4.9091,0.1,0.00050193,5015.9,0.00050422,5086.9,-0.00015208,155.79,-0.00017409,-9.6375,0.023964
29558,2.0059,5.1818,0.1,0.00047072,4703.9,0.0004726,4762.1,-0.00014413,128.26,-0.00016238,-8.9062,0.020876
29559,2.0971,5.0909,0.1,0.00047068,4703.5,0.00047201,4744.6,-0.00014639,98.135,-0.00016133,-14.119,0.023173
29560,2.0059,5.3636,0.1,0.00045107,4507.6,0.00045179,4529.7,-0.00014291,61.379,-0.00015323,-16.211,0.020057
29561,2.0971,5.2727,0.1,0.00044417,4438.6,0.00044468,4454.7,-0.00014082,55.499,-0.00015116,-22.235,0.022326
29562,2.0059,5.5455,0.1,0.00043681,4365.1,0.00043634,4351.9,-0.00014042,18.312,-0.00014873,-44.139,0.019174
29563,2.0971,5.4545,0.1,0.00042349,4231.9,0.00042317,4223.3,-0.00013559,25.069,-0.00014445,-41.498,0.021421
29564,2.0059,5.7273,0.1,0.00042978,4294.9,0.00042789,4241.5,-0.0001358,6.1574,-0.00015132,-110.46,0.018219
29565,2.0971,5.6364,0.1,0.00040954,4092.6,0.00040824,4055.7,-0.00013025,9.7329,-0.00014245,-81.898,0.020455
29566,2.0971,5.8182,0.1,0.00040531,4050.3,0.00040251,3972.5,-0.00012559,4.646,-0.00014689,-155.41,0.019419
29567,2.0059,5.9091,0.1,0.00041559,4153,0.000414,4107.6,-0.00013279,-0.7267,-0.00014449,-88.651,0.017188
29568,2.1882,0.27273,0.1,0.00038513,3848.7,0.00038293,3787.3,-0.00012019,7.0515,-0.00013794,-126.28,0.021734
29569,2.2794,0.18182,0.1,0.00035521,3549.6,0.00035229,3469.4,-0.00010865,6.1511,-0.00013085,-160.65,0.023012
29570,2.1882,0.090909,0.1,0.00036811,3678.5,0.00036648,3632.2,-0.00011702,-0.58502,-0.00012897,-90.411,0.020622
29571,2.1882,0.45455,0.1,0.00039645,3961.8,0.00039528,3928.8,-0.00012581,13.57,-0.00013799,-77.923,0.022781
29572,2.2794,0.36364,0.1,0.00036273,3624.8,0.00036107,3578.5,-0.00011377,10.765,-0.00012861,-100.74,0.024133
29573,2.1882,0.63636,0.1,0.00041723,4169.5,0.00041662,4152.6,-0.00013295,23.356,-0.0001435,-55.93,0.023768
29574,2.2794,0.54545,0.1,0.00038279,3825.2,0.0003815,3789.5,-0.00012067,16.344,-0.00013427,-85.832,0.0252
29575,2.1882,0.81818,0.1,0.0004452,4449,0.000445,4444,-0.00014184,34.729,-0.00015227,-43.625,0.024703
29576,2.2794,0.72727,0.1,0.00041183,4115.4,0.00041049,4078.3,-0.00012985,18.363,-0.00014434,-90.505,0.026219
29577,2.1882,1,0.1,0.00047911,4787.7,0.00047937,4796.6,-0.00015215,51.594,-0.00016338,-32.767,0.025587
29578,2.2794,0.90909,0.1,0.00044844,4481.3,0.00044687,4437.7,-0.00014129,18.483,-0.00015748,-103.18,0.027194
29579,2.1882,1.1818,0.1,0.0005175,5171.5,0.00051855,5203.8,-0.00016241,87.359,-0.00017683,-20.999,0.026421
29580,2.2794,1.0909,0.1,0.00049125,4909.1,0.00048959,4862.7,-0.000155,19.524,-0.00017222,-109.88,0.028125
29581,2.1882,1.3636,0.1,0.00055873,5583.4,0.0005611,5657.2,-0.00017006,163.53,-0.0001934,-11.793,0.027202
29582,2.2794,1.2727,0.1,0.00053877,5384,0.00053753,5349.4,-0.00017103,25.541,-0.00018679,-92.871,0.029011
29583,2.1882,1.5455,0.1,0.0006009,6004.9,0.00060526,6144.1,-0.00017304,296.25,-0.00021331,-6.364,0.027924
29584,2.2794,1.4545,0.1,0.00058909,5886.8,0.00058919,5891.1,-0.00018745,55.759,-0.00020096,-45.779,0.029845
29585,2.1882,1.7273,0.1,0.0006424,6419.5,0.00064917,6645.7,-0.00017093,483.82,-0.0002358,-3.6,0.028582
29586,2.2794,1.6364,0.1,0.00063981,6393.6,0.00064236,6473,-0.0001954,178.43,-0.00022118,-15.292,0.030618
29587,2.1882,1.9091,0.1,0.00068207,6816,0.00069123,7138.1,-0.00016552,700.83,-0.00025906,-1.9969,0.029171
29588,2.2794,1.8182,0.1,0.00068833,6878.5,0.00069412,7066,-0.00019319,399.2,-0.00024715,-6.239,0.031322
29589,2.1882,2.0909,0.1,0.00071893,7184.4,0.00073001,7593.4,-0.00016019,904.72,-0.00028072,-0.89225,0.029687
29590,2.2794,2,0.1,0.00073371,7332,0.00074249,7632.7,-0.00018685,650.02,-0.000274,-4.7623,0.03195
29591,2.1882,2.2727,0.1,0.00075155,7510.3,0.00076391,7982.9,-0.00015764,1058.8,-0.00029868,-1.0073,0.030125
29592,2.2794,2.1818,0.1,0.00077442,7738.9,0.00078533,8129.5,-0.00018257,857.07,-0.00029714,-3.8307,0.032495
29593,2.1882,2.4545,0.1,0.00077795,7774.1,0.00079107,8285.1,-0.00015822,1152.5,-0.0003118,-1.4206,0.030479
29594,2.2794,2.3636,0.1,0.00080779,8072.3,0.00081997,8518,-0.00018285,983.15,-0.00031391,-1.5613,0.03295
29595,2.1882,2.6364,0.1,0.00079672,7961.7,0.00081027,8492.3,-0.00016042,1198.9,-0.00032017,-1.3368,0.03074
29596,2.2794,2.5455,0.1,0.00083178,8312.1,0.00084453,8782.3,-0.00018586,1040.3,-0.00032453,-1.6475,0.033306
29597,2.1882,2.8182,0.1,0.00080768,8071.2,0.00082143,8610.1,-0.00016245,1217.6,-0.00032466,-1.2472,0.0309
29598,2.2794,2.7273,0.1,0.00084623,8456.4,0.00085922,8935.8,-0.00018891,1060.6,-0.00033025,-1.3939,0.03355
29599,2.1882,3,0.1,0.00081125,8106.9,0.00082506,8647.8,-0.00016323,1222.2,-0.00032606,-1.2344,0.030955
29600,2.2794,2.9091,0.1,0.00085279,8522,0.00086587,9004.2,-0.00019061,1066.2,-0.00033268,-1.2517,0.033674
29601,2.1882,3.1818,0.1,0.00080768,8071.2,0.00082143,8610.1,-0.00016245,1217.6,-0.00032466,-1.2472,0.0309
29602,2.2794,3.0909,0.1,0.00085279,8522,0.00086587,9004.2,-0.00019061,1066.2,-0.00033268,-1.2517,0.033674
29603,2.1882,3.3636,0.1,0.00079672,7961.7,0.00081027,8492.4,-0.00016042,1198.9,-0.00032017,-1.3368,0.03074
29604,2.2794,3.2727,0.1,0.00084623,8456.4,0.00085922,8935.8,-0.00018891,1060.6,-0.00033025,-1.3939,0.03355
29605,2.1882,3.5455,0.1,0.00077795,7774.1,0.00079107,8285.1,-0.00015822,1152.5,-0.0003118,-1.4206,0.030479
29606,2.2794,3.4545,0.1,0.00083178,8312.1,0.00084453,8782.3,-0.00018586,1040.3,-0.00032453,-1.6475,0.033306
29607,2.1882,3.7273,0.1,0.00075155,7510.3,0.00076391,7982.9,-0.00015764,1058.8,-0.00029868,-1.0073,0.030125
29608,2.2794,3.6364,0.1,0.00080779,8072.3,0.00081997,8518,-0.00018285,983.15,-0.00031391,-1.5613,0.03295
29609,2.1882,3.9091,0.1,0.00071893,7184.4,0.00073001,7593.4,-0.00016019,904.72,-0.00028072,-0.89225,0.029687
29610,2.2794,3.8182,0.1,0.00077442,7738.9,0.00078533,8129.5,-0.00018257,857.07,-0.00029714,-3.8307,0.032495
29611,2.1882,4.0909,0.1,0.00068207,6816,0.00069123,7138.1,-0.00016552,700.83,-0.00025906,-1.9969,0.029171
29612,2.2794,4,0.1,0.00073371,7332,0.00074249,7632.7,-0.00018685,650.02,-0.000274,-4.7623,0.03195
29613,2.1882,4.2727,0.1,0.0006424,6419.5,0.00064917,6645.7,-0.00017093,483.82,-0.0002358,-3.6,0.028582
29614,2.2794,4.1818,0.1,0.00068833,6878.5,0.00069412,7066.1,-0.00019319,399.2,-0.00024715,-6.239,0.031322
29615,2.1882,4.4545,0.1,0.0006009,6004.9,0.00060526,6144.1,-0.00017304,296.25,-0.00021331,-6.364,0.027924
29616,2.2794,4.3636,0.1,0.00063981,6393.6,0.00064236,6473,-0.0001954,178.43,-0.00022118,-15.292,0.030618
29617,2.1882,4.6364,0.1,0.00055873,5583.4,0.0005611,5657.2,-0.00017006,163.53,-0.0001934,-11.793,0.027202
29618,2.2794,4.5455,0.1,0.00058909,5886.8,0.00058919,5891.1,-0.00018745,55.759,-0.00020096,-45.779,0.029845
29619,2.1882,4.8182,0.1,0.0005175,5171.5,0.00051855,5203.8,-0.00016241,87.36,-0.00017683,-20.999,0.026421
29620,2.2794,4.7273,0.1,0.00053877,5384,0.00053753,5349.4,-0.00017103,25.541,-0.00018679,-92.87,0.029011
29621,2.1882,5,0.1,0.00047911,4787.8,0.00047937,4796.6,-0.00015215,51.594,-0.00016338,-32.767,0.025587
29622,2.2794,4.9091,0.1,0.00049125,4909.1,0.00048959,4862.7,-0.000155,19.524,-0.00017222,-109.88,0.028125
29623,2.1882,5.1818,0.1,0.0004452,4449,0.000445,4444,-0.00014184,34.729,-0.00015227,-43.625,0.024703
29624,2.2794,5.0909,0.1,0.00044844,4481.3,0.00044687,4437.7,-0.00014129,18.483,-0.00015748,-103.18,0.027194
29625,2.1882,5.3636,0.1,0.00041723,4169.5,0.00041662,4152.6,-0.00013295,23.356,-0.0001435,-55.93,0.023768
29626,2.2794,5.2727,0.1,0.00041183,4115.4,0.00041049,4078.3,-0.00012985,18.363,-0.00014434,-90.505,0.026219
29627,2.1882,5.5455,0.1,0.00039645,3961.8,0.00039528,3928.8,-0.00012581,13.57,-0.00013799,-77.923,0.022781
29628,2.2794,5.4545,0.1,0.00038279,3825.2,0.0003815,3789.5,-0.00012067,16.344,-0.00013427,-85.832,0.0252
29629,2.1882,5.7273,0.1,0.00038513,3848.7,0.00038293,3787.3,-0.00012019,7.0515,-0.00013794,-126.28,0.021734
29630,2.2794,5.6364,0.1,0.00036273,3624.8,0.00036107,3578.5,-0.00011377,10.765,-0.00012861,-100.74,0.024133
29631,2.2794,5.8182,0.1,0.00035521,3549.6,0.00035229,3469.4,-0.00010865,6.1511,-0.00013085,-160.65,0.023012
29632,2.1882,5.9091,0.1,0.00036811,3678.5,0.00036648,3632.2,-0.00011702,-0.58502,-0.00012897,-90.411,0.020622
29633,2.3706,0.27273,0.1,0.00033293,3327,0.00033055,3261.6,-0.0001023,9.3466,-0.00012157,-135.49,0.025478
29634,2.4618,0.18182,0.1,0.00029727,2970.6,0.00029438,2892.7,-8.932e-05,9.7399,-0.0001117,-158.41,0.026815
29635,2.3706,0.090909,0.1,0.0003128,3125.9,0.00031121,3080.9,-9.8896e-05,-0.48381,-0.00011049,-87.592,0.024287
29636,2.3706,0.45455,0.1,0.00034959,3493.5,0.00034775,3442.6,-0.00010867,13.196,-0.0001253,-111.7,0.026618
29637,2.4618,0.36364,0.1,0.00030923,3090.1,0.00030732,3037.9,-9.5115e-05,14.209,-0.00011226,-114.6,0.028022
29638,2.3706,0.63636,0.1,0.00037868,3784.1,0.00037647,3723.4,-0.00011725,13.741,-0.00013653,-131.08,0.027716
29639,2.4618,0.54545,0.1,0.00033756,3373.2,0.00033511,3306.7,-0.00010308,14.275,-0.00012387,-141.92,0.029192
29640,2.3706,0.81818,0.1,0.00041707,4167.8,0.00041403,4084.5,-0.00012796,12.164,-0.00015256,-172.69,0.028777
29641,2.4618,0.72727,0.1,0.00037723,3769.7,0.00037334,3665,-0.00011294,11.247,-0.00014251,-210.96,0.030333
29642,2.3706,1,0.1,0.0004631,4627.8,0.00045911,4518.9,-0.00014086,10.988,-0.00017161,-220.08,0.029804
29643,2.4618,0.90909,0.1,0.00042608,4257.8,0.00042019,4101.5,-0.00012447,9.1556,-0.00016621,-304.42,0.031451
29644,2.3706,1.1818,0.1,0.00051523,5148.8,0.00051066,5023.9,-0.00015651,11.066,-0.00019137,-250.81,0.030796
29645,2.4618,1.0909,0.1,0.00048283,4824.9,0.00047482,4615.2,-0.00013831,8.3412,-0.00019288,-401.66,0.032544
29646,2.3706,1.3636,0.1,0.00057167,5712.8,0.00056747,5597.2,-0.0001757,13.332,-0.00020892,-236.31,0.031745
29647,2.4618,1.2727,0.1,0.00054657,5461.9,0.00053701,5212.3,-0.00015557,8.5239,-0.00021999,-475.53,0.033609
29648,2.3706,1.5455,0.1,0.00062997,6295.3,0.00062764,6230.2,-0.00019868,21.538,-0.0002213,-148.41,0.032642
29649,2.4618,1.4545,0.1,0.00061612,6157,0.00060647,5902.5,-0.00017785,9.4893,-0.00024408,-488.16,0.034635
29650,2.3706,1.7273,0.1,0.00068696,6864.9,0.00068806,6899,-0.00021664,101.46,-0.00023431,-31.284,0.033474
29651,2.4618,1.6364,0.1,0.00068736,6868.8,0.00068029,6677.8,-0.00020628,16.482,-0.00025923,-381.36,0.035606
29652,2.3706,1.9091,0.1,0.00074054,7400.3,0.00074563,7562.6,-0.0002147,346.99,-0.00026215,-9.531,0.034229
29653,2.4618,1.8182,0.1,0.00075566,7551.3,0.00075386,7501.2,-0.00024008,33.097,-0.00026188,-130.7,0.036504
29654,2.3706,2.0909,0.1,0.00078927,7887.3,0.00079763,8167.5,-0.00020909,603.41,-0.00029038,-7.4376,0.034897
29655,2.4618,2,0.1,0.00081773,8171.6,0.00082176,8296.2,-0.00024788,259.4,-0.00028291,-3.8306,0.037315
29656,2.3706,2.2727,0.1,0.00083032,8297.5,0.00084079,8660,-0.0002072,785.85,-0.00031235,-4.2518,0.035471
29657,2.4618,2.1818,0.1,0.00087013,8695.3,0.00087801,8950.8,-0.00024209,534.77,-0.00031317,0.69813,0.038026
29658,2.3706,2.4545,0.1,0.00086091,8603.1,0.00087243,9007.6,-0.00020949,878.43,-0.00032664,-1.7658,0.035938
29659,2.4618,2.3636,0.1,0.00090936,9087.3,0.00091879,9401.1,-0.00024319,670.41,-0.0003331,-5.1468,0.038624
29660,2.3706,2.6364,0.1,0.00088034,8797.3,0.00089225,9216.5,-0.00021311,911.27,-0.00033462,-1.719,0.036284
29661,2.4618,2.5455,0.1,0.0009311,9304.6,0.00094114,9639.8,-0.00024688,713.52,-0.00034207,-1.7243,0.039092
29662,2.3706,2.8182,0.1,0.0008903,8896.9,0.00090233,9320,-0.00021574,919.23,-0.00033827,-1.4061,0.036497
29663,2.4618,2.7273,0.1,0.0009407,9400.5,0.00095089,9740.8,-0.00024916,724.1,-0.00034573,-1.5237,0.039414
29664,2.3706,3,0.1,0.00089328,8926.6,0.00090533,9350.4,-0.00021664,920.32,-0.00033929,-1.2711,0.036568
29665,2.4618,2.9091,0.1,0.00094388,9432.3,0.0009541,9773.6,-0.00025008,725.85,-0.00034683,-1.0944,0.039578
29666,2.3706,3.1818,0.1,0.0008903,8896.9,0.00090233,9320,-0.00021574,919.23,-0.00033827,-1.4061,0.036497
29667,2.4618,3.0909,0.1,0.00094388,9432.3,0.0009541,9773.6,-0.00025008,725.85,-0.00034683,-1.0944,0.039578
29668,2.3706,3.3636,0.1,0.00088034,8797.3,0.00089225,9216.5,-0.00021311,911.27,-0.00033462,-1.719,0.036284
29669,2.4618,3.2727,0.1,0.0009407,9400.5,0.00095089,9740.8,-0.00024916,724.1,-0.00034573,-1.5237,0.039414
29670,2.3706,3.5455,0.1,0.00086091,8603.1,0.00087243,9007.6,-0.00020949,878.43,-0.00032664,-1.7658,0.035938
29671,2.4618,3.4545,0.1,0.0009311,9304.6,0.00094114,9639.8,-0.00024688,713.52,-0.00034207,-1.7243,0.039092
29672,2.3706,3.7273,0.1,0.00083032,8297.5,0.00084079,8660,-0.0002072,785.85,-0.00031235,-4.2518,0.035471
29673,2.4618,3.6364,0.1,0.00090936,9087.3,0.00091879,9401.1,-0.00024319,670.42,-0.0003331,-5.1468,0.038624
29674,2.3706,3.9091,0.1,0.00078927,7887.3,0.00079764,8167.5,-0.00020909,603.41,-0.00029038,-7.4376,0.034897
29675,2.4618,3.8182,0.1,0.00087013,8695.3,0.00087801,8950.8,-0.00024209,534.77,-0.00031317,0.69813,0.038026
29676,2.3706,4.0909,0.1,0.00074054,7400.3,0.00074563,7562.6,-0.0002147,346.99,-0.00026215,-9.5309,0.034229
29677,2.4618,4,0.1,0.00081773,8171.6,0.00082176,8296.2,-0.00024788,259.4,-0.00028291,-3.8306,0.037315
29678,2.3706,4.2727,0.1,0.00068696,6864.9,0.00068806,6899,-0.00021664,101.46,-0.00023431,-31.284,0.033474
29679,2.4618,4.1818,0.1,0.00075566,7551.3,0.00075386,7501.2,-0.00024008,33.097,-0.00026188,-130.7,0.036504
29680,2.3706,4.4545,0.1,0.00062997,6295.3,0.00062764,6230.2,-0.00019868,21.538,-0.0002213,-148.41,0.032642
29681,2.4618,4.3636,0.1,0.00068736,6868.9,0.00068029,6677.8,-0.00020628,16.482,-0.00025923,-381.36,0.035606
29682,2.3706,4.6364,0.1,0.00057167,5712.8,0.00056747,5597.2,-0.0001757,13.332,-0.00020892,-236.31,0.031745
29683,2.4618,4.5455,0.1,0.00061612,6157,0.00060647,5902.5,-0.00017785,9.4893,-0.00024408,-488.16,0.034635
29684,2.3706,4.8182,0.1,0.00051523,5148.8,0.00051066,5023.9,-0.00015651,11.066,-0.00019137,-250.81,0.030796
29685,2.4618,4.7273,0.1,0.00054657,5461.9,0.00053701,5212.3,-0.00015557,8.5239,-0.00021999,-475.52,0.033609
29686,2.3706,5,0.1,0.0004631,4627.8,0.00045911,4518.9,-0.00014086,10.988,-0.00017161,-220.08,0.029804
29687,2.4618,4.9091,0.1,0.00048283,4824.9,0.00047482,4615.2,-0.00013831,8.3412,-0.00019288,-401.66,0.032544
29688,2.3706,5.1818,0.1,0.00041707,4167.8,0.00041403,4084.5,-0.00012796,12.164,-0.00015256,-172.69,0.028777
29689,2.4618,5.0909,0.1,0.00042608,4257.8,0.00042019,4101.5,-0.00012447,9.1556,-0.00016621,-304.42,0.031451
29690,2.3706,5.3636,0.1,0.00037868,3784.1,0.00037647,3723.4,-0.00011725,13.741,-0.00013653,-131.08,0.027716
29691,2.4618,5.2727,0.1,0.00037723,3769.7,0.00037334,3665,-0.00011294,11.247,-0.00014251,-210.96,0.030333
29692,2.3706,5.5455,0.1,0.00034959,3493.5,0.00034775,3442.6,-0.00010867,13.196,-0.0001253,-111.7,0.026618
29693,2.4618,5.4545,0.1,0.00033756,3373.2,0.00033511,3306.7,-0.00010308,14.275,-0.00012387,-141.92,0.029192
29694,2.3706,5.7273,0.1,0.00033293,3327,0.00033055,3261.6,-0.0001023,9.3466,-0.00012157,-135.49,0.025478
29695,2.4618,5.6364,0.1,0.00030923,3090.1,0.00030732,3037.9,-9.5115e-05,14.209,-0.00011226,-114.6,0.028022
29696,2.4618,5.8182,0.1,0.00029727,2970.6,0.00029438,2892.7,-8.932e-05,9.7399,-0.0001117,-158.41,0.026815
29697,2.3706,5.9091,0.1,0.0003128,3125.9,0.00031121,3080.9,-9.8896e-05,-0.48381,-0.00011049,-87.592,0.024287
29698,2.5529,0.27273,0.1,0.0002738,2736.1,0.00027136,2670.7,-8.2116e-05,14.777,-0.00010261,-139.24,0.029412
29699,2.6441,0.18182,0.1,0.00023193,2317.7,0.00022921,2246.5,-6.7594e-05,16.408,-8.9729e-05,-149.91,0.030789
29700,2.5529,0.090909,0.1,0.00024953,2493.6,0.00024813,2454.3,-7.841e-05,0.75954,-8.8835e-05,-77.571,0.028146
29701,2.5529,0.45455,0.1,0.00029842,2982.2,0.00029573,2909.9,-8.9573e-05,14.899,-0.00011183,-152.33,0.030646
29702,2.6441,0.36364,0.1,0.00025222,2520.4,0.00024983,2457.3,-7.4788e-05,18.259,-9.5486e-05,-137.26,0.032078
29703,2.5529,0.63636,0.1,0.00033868,3384.5,0.00033415,3264.5,-9.8817e-05,11.377,-0.00013196,-237.63,0.031859
29704,2.6441,0.54545,0.1,0.00029308,2928.8,0.00028857,2811.2,-8.3929e-05,12.364,-0.00011647,-232.17,0.033353
29705,2.5529,0.81818,0.1,0.00038986,3895.9,0.00038244,3704.1,-0.00010938,8.7206,-0.00015917,-365.33,0.033059
29706,2.6441,0.72727,0.1,0.00034622,3459.8,0.00033798,3251.2,-9.3675e-05,7.8949,-0.00014671,-390.58,0.034625
29707,2.5529,1,0.1,0.00045014,4498.3,0.00043929,4223.2,-0.00012177,7.644,-0.00019101,-512.57,0.034248
29708,2.6441,0.90909,0.1,0.00040893,4086.5,0.00039583,3764.1,-0.00010435,5.918,-0.00018315,-586.11,0.0359
29709,2.5529,1.1818,0.1,0.00051885,5184.9,0.00050467,4829.8,-0.00013713,7.5596,-0.00022522,-654.34,0.035424
29710,2.6441,1.0909,0.1,0.00048106,4807.3,0.00046241,4358.2,-0.00011695,5.1145,-0.00022428,-801.32,0.037179
29711,2.5529,1.3636,0.1,0.00059554,5951.3,0.00057917,5541.4,-0.0001573,7.8138,-0.00025873,-754.25,0.036579
29712,2.6441,1.2727,0.1,0.00056403,5636.4,0.00053979,5060.1,-0.00013297,5.1598,-0.00026911,-1017.8,0.038457
29713,2.5529,1.5455,0.1,0.00067712,6766.5,0.00066141,6367.4,-0.00018424,13.486,-0.00028551,-747.45,0.037696
29714,2.6441,1.4545,0.1,0.00065894,6584.9,0.00063057,5910.3,-0.00015524,6.0612,-0.00031456,-1191.1,0.039721
29715,2.5529,1.7273,0.1,0.00075794,7574.2,0.00074711,7287.6,-0.00022045,17.766,-0.00029709,-558.08,0.038753
29716,2.6441,1.6364,0.1,0.00076544,7649.1,0.00073698,6960.3,-0.00018823,8.6697,-0.00035362,-1234,0.040947
29717,2.5529,1.9091,0.1,0.00083334,8327.7,0.00083003,8235.2,-0.0002622,28.633,-0.00029376,-208.48,0.039726
29718,2.6441,1.8182,0.1,0.00087554,8749.4,0.0008542,8206.4,-0.00023762,2.8468,-0.00037137,-1002.1,0.042104
29719,2.5529,2.0909,0.1,0.00089815,8975.3,0.00090141,9074,-0.00028022,195.76,-0.00030564,4.7424,0.040597
29720,2.6441,2,0.1,0.00096145,9607.9,0.00095386,9394,-0.00030102,-34.682,-0.00034745,-383.51,0.043161
29721,2.5529,2.2727,0.1,0.000948,9473.4,0.00095458,9681.1,-0.00027673,429.51,-0.00033384,0.40299,0.041349
29722,2.6441,2.1818,0.1,0.0010299,10292,0.0010309,10321,-0.00033219,79.574,-0.00034554,-20.738,0.044094
29723,2.5529,2.4545,0.1,0.00097793,9772.5,0.00098562,10019,-0.00027867,519.77,-0.00034855,-5.2802,0.041962
29724,2.6441,2.3636,0.1,0.0010595,10588,0.0010635,10710,-0.00032827,252.85,-0.00036234,-3.1615,0.044879
29725,2.5529,2.6364,0.1,0.00098984,9891.6,0.00099789,10150,-0.00028102,540.68,-0.0003532,-1.6468,0.042416
29726,2.6441,2.5455,0.1,0.0010619,10612,0.0010665,10754,-0.00032558,293.86,-0.00036522,-3.9705,0.04549
29727,2.5529,2.8182,0.1,0.00099277,9920.8,0.0010009,10181,-0.00028171,544.14,-0.0003543,-1.2323,0.042693
29728,2.6441,2.7273,0.1,0.0010541,10534,0.0010591,10687,-0.00032138,314.68,-0.00036345,-1.3668,0.045905
29729,2.5529,3,0.1,0.00099302,9923.4,0.0010011,10184,-0.00028179,544.38,-0.00035437,-0.90394,0.042786
29730,2.6441,2.9091,0.1,0.0010482,10475,0.0010533,10633,-0.00031879,322.98,-0.00036182,-0.36952,0.046115
29731,2.5529,3.1818,0.1,0.00099277,9920.9,0.0010009,10181,-0.00028171,544.14,-0.0003543,-1.2323,0.042693
29732,2.6441,3.0909,0.1,0.0010482,10475,0.0010533,10633,-0.00031879,322.98,-0.00036182,-0.36952,0.046115
29733,2.5529,3.3636,0.1,0.00098984,9891.6,0.00099789,10150,-0.00028102,540.68,-0.0003532,-1.6468,0.042416
29734,2.6441,3.2727,0.1,0.0010541,10534,0.0010591,10687,-0.00032138,314.68,-0.00036345,-1.3668,0.045905
29735,2.5529,3.5455,0.1,0.00097793,9772.5,0.00098562,10019,-0.00027867,519.77,-0.00034856,-5.2802,0.041962
29736,2.6441,3.4545,0.1,0.0010619,10612,0.0010665,10754,-0.00032558,293.86,-0.00036522,-3.9705,0.04549
29737,2.5529,3.7273,0.1,0.000948,9473.4,0.00095458,9681.1,-0.00027673,429.51,-0.00033384,0.40299,0.041349
29738,2.6441,3.6364,0.1,0.0010595,10588,0.0010635,10710,-0.00032827,252.85,-0.00036234,-3.1614,0.044879
29739,2.5529,3.9091,0.1,0.00089815,8975.3,0.00090141,9074,-0.00028022,195.76,-0.00030564,4.7424,0.040597
29740,2.6441,3.8182,0.1,0.0010299,10292,0.0010309,10321,-0.00033219,79.574,-0.00034554,-20.738,0.044094
29741,2.5529,4.0909,0.1,0.00083334,8327.7,0.00083003,8235.2,-0.0002622,28.633,-0.00029376,-208.48,0.039726
29742,2.6441,4,0.1,0.00096145,9607.9,0.00095386,9394,-0.00030102,-34.682,-0.00034745,-383.51,0.043161
29743,2.5529,4.2727,0.1,0.00075794,7574.2,0.00074711,7287.6,-0.00022045,17.766,-0.00029709,-558.08,0.038753
29744,2.6441,4.1818,0.1,0.00087554,8749.4,0.0008542,8206.4,-0.00023762,2.8468,-0.00037137,-1002.1,0.042104
29745,2.5529,4.4545,0.1,0.00067712,6766.5,0.00066141,6367.4,-0.00018424,13.486,-0.00028551,-747.45,0.037696
29746,2.6441,4.3636,0.1,0.00076544,7649.1,0.00073698,6960.3,-0.00018823,8.6697,-0.00035362,-1234,0.040947
29747,2.5529,4.6364,0.1,0.00059554,5951.3,0.00057917,5541.4,-0.0001573,7.8138,-0.00025873,-754.25,0.036579
29748,2.6441,4.5455,0.1,0.00065894,6584.9,0.00063057,5910.3,-0.00015524,6.0612,-0.00031456,-1191.1,0.039721
29749,2.5529,4.8182,0.1,0.00051885,5184.9,0.00050467,4829.8,-0.00013713,7.5596,-0.00022522,-654.34,0.035424
29750,2.6441,4.7273,0.1,0.00056403,5636.4,0.00053979,5060.1,-0.00013297,5.1598,-0.00026911,-1017.8,0.038457
29751,2.5529,5,0.1,0.00045014,4498.3,0.00043929,4223.2,-0.00012177,7.644,-0.00019101,-512.57,0.034248
29752,2.6441,4.9091,0.1,0.00048106,4807.3,0.00046241,4358.2,-0.00011695,5.1145,-0.00022428,-801.32,0.037179
29753,2.5529,5.1818,0.1,0.00038986,3895.9,0.00038244,3704.1,-0.00010938,8.7206,-0.00015917,-365.33,0.033059
29754,2.6441,5.0909,0.1,0.00040893,4086.5,0.00039583,3764.1,-0.00010435,5.918,-0.00018315,-586.11,0.0359
29755,2.5529,5.3636,0.1,0.00033868,3384.5,0.00033415,3264.5,-9.8817e-05,11.377,-0.00013196,-237.63,0.031859
29756,2.6441,5.2727,0.1,0.00034622,3459.8,0.00033798,3251.2,-9.3675e-05,7.895,-0.00014671,-390.58,0.034625
29757,2.5529,5.5455,0.1,0.00029842,2982.2,0.00029573,2909.9,-8.9573e-05,14.899,-0.00011183,-152.33,0.030646
29758,2.6441,5.4545,0.1,0.00029308,2928.8,0.00028857,2811.2,-8.3929e-05,12.364,-0.00011647,-232.17,0.033353
29759,2.5529,5.7273,0.1,0.0002738,2736.1,0.00027136,2670.7,-8.2116e-05,14.777,-0.00010261,-139.24,0.029412
29760,2.6441,5.6364,0.1,0.00025222,2520.4,0.00024983,2457.3,-7.4788e-05,18.259,-9.5486e-05,-137.26,0.032078
29761,2.6441,5.8182,0.1,0.00023193,2317.7,0.00022921,2246.5,-6.7594e-05,16.408,-8.9729e-05,-149.91,0.030789
29762,2.5529,5.9091,0.1,0.00024953,2493.6,0.00024813,2454.3,-7.841e-05,0.75954,-8.8835e-05,-77.571,0.028146
29763,2.7353,0.27273,0.1,0.00021118,2110.4,0.00020837,2038.3,-6.014e-05,20.837,-8.3412e-05,-154.02,0.03349
29764,2.8265,0.18182,0.1,0.00016356,1634.5,0.00016058,1563.9,-4.2746e-05,36.224,-6.8823e-05,-159.71,0.034885
29765,2.7353,0.090909,0.1,0.00017879,1786.6,0.00017767,1755.5,-5.569e-05,2.1014,-6.431e-05,-62.667,0.032154
29766,2.7353,0.45455,0.1,0.0002501,2499.3,0.0002454,2379.1,-6.9482e-05,13.19,-0.00010252,-235.07,0.034817
29767,2.8265,0.36364,0.1,0.00020533,2051.9,0.00020041,1931.4,-5.3644e-05,22.619,-8.839e-05,-238.45,0.036252
29768,2.7353,0.63636,0.1,0.00030563,3054.2,0.00029651,2828.7,-7.897e-05,7.5125,-0.00013515,-414.58,0.03615
29769,2.8265,0.54545,0.1,0.00026633,2661.5,0.00025591,2414,-6.3493e-05,14.167,-0.00012506,-448.39,0.037633
29770,2.7353,0.81818,0.1,0.00037134,3710.9,0.00035611,3346.8,-8.8701e-05,4.6674,-0.00017538,-646.61,0.037498
29771,2.8265,0.72727,0.1,0.00033622,3359.9,0.00031815,2945.2,-7.2468e-05,10.245,-0.00016961,-719.67,0.039041
29772,2.7353,1,0.1,0.00044669,4463.8,0.00042409,3937.6,-9.9538e-05,3.3218,-0.00022154,-913.34,0.038868
29773,2.8265,0.90909,0.1,0.00041446,4141.7,0.00038699,3528.4,-8.1439e-05,8.8317,-0.00022043,-1035.5,0.040487
29774,2.7353,1.1818,0.1,0.0005338,5334.4,0.00050297,4629.3,-0.00011277,2.8495,-0.00027361,-1205.7,0.040258
29775,2.8265,1.0909,0.1,0.00050364,5032.9,0.00046505,4189.2,-9.1262e-05,9.3113,-0.00027848,-1397.4,0.041973
29776,2.7353,1.3636,0.1,0.00063555,6351.1,0.00059672,5470.5,-0.00013087,3.6911,-0.00033051,-1496.4,0.04166
29777,2.8265,1.2727,0.1,0.00060905,6086.3,0.00055745,4974.3,-0.00010351,8.099,-0.00034619,-1815.3,0.043498
29778,2.7353,1.5455,0.1,0.00075421,7536.9,0.00071041,6535.4,-0.00015917,1.7117,-0.00038702,-1710.3,0.043056
29779,2.8265,1.4545,0.1,0.00073824,7377.3,0.00067247,5975.3,-0.00012003,20.748,-0.00042592,-2277.6,0.045052
29780,2.7353,1.7273,0.1,0.00088717,8865.6,0.00084614,7894.6,-0.00020548,-6.859,-0.00042989,-1692.9,0.044413
29781,2.8265,1.6364,0.1,0.00090674,9061.1,0.00082593,7325.6,-0.00015012,-8.0292,-0.00052224,-2804,0.046611
29782,2.7353,1.9091,0.1,0.0010021,10014,0.00097654,9353.9,-0.00027577,-55.417,-0.00042423,-1170.9,0.045687
29783,2.8265,1.8182,0.1,0.0011364,11356,0.0010562,9608.4,-0.00020932,100.2,-0.00061744,-2966.3,0.048129
29784,2.7353,2.0909,0.1,0.0010904,10897,0.0010807,10621,-0.00034305,-76.157,-0.00039465,-463.88,0.046835
29785,2.8265,2,0.1,0.0013138,13129,0.0012762,12278,-0.00031167,347.87,-0.00059572,-1786.4,0.049538
29786,2.7353,2.2727,0.1,0.0011377,11369,0.0011361,11322,-0.00037229,-11.143,-0.00038174,-82.126,0.047824
29787,2.8265,2.1818,0.1,0.0013212,13203,0.00131,12891,-0.00040811,-18.094,-0.00048385,-587.2,0.050776
29788,2.7353,2.4545,0.1,0.0011404,11396,0.0011412,11420,-0.00036971,67.958,-0.00038125,-18.728,0.048623
29789,2.8265,2.3636,0.1,0.0012764,12755,0.0012706,12593,-0.00040214,24.506,-0.00045082,-341.25,0.051801
29790,2.7353,2.6364,0.1,0.001124,11232,0.0011253,11273,-0.00036294,90.374,-0.00037607,-8.2135,0.049204
29791,2.8265,2.5455,0.1,0.0012144,12135,0.0012108,12033,-0.00039028,3.1156,-0.00041801,-205.24,0.052578
29792,2.7353,2.8182,0.1,0.0011078,11071,0.0011096,11124,-0.00035642,108.8,-0.00037105,-1.1368,0.049554
29793,2.8265,2.7273,0.1,0.0011721,11713,0.0011699,11649,-0.00037985,4.7702,-0.00039802,-131.76,0.053095
29794,2.7353,3,0.1,0.0011018,11010,0.0011037,11068,-0.00035398,115.09,-0.00036926,0.27837,0.049672
29795,2.8265,2.9091,0.1,0.001151,11502,0.0011494,11454,-0.00037497,1.0255,-0.00038791,-96.232,0.053353
29796,2.7353,3.1818,0.1,0.0011078,11071,0.0011096,11124,-0.00035642,108.8,-0.00037105,-1.1368,0.049554
29797,2.8265,3.0909,0.1,0.001151,11502,0.0011494,11454,-0.00037497,1.0255,-0.00038791,-96.231,0.053353
29798,2.7353,3.3636,0.1,0.001124,11232,0.0011253,11273,-0.00036294,90.375,-0.00037607,-8.2135,0.049204
29799,2.8265,3.2727,0.1,0.0011721,11713,0.0011699,11649,-0.00037985,4.7702,-0.00039802,-131.76,0.053095
29800,2.7353,3.5455,0.1,0.0011404,11396,0.0011412,11420,-0.00036971,67.959,-0.00038125,-18.728,0.048623
29801,2.8265,3.4545,0.1,0.0012144,12135,0.0012108,12033,-0.00039028,3.1157,-0.00041801,-205.23,0.052578
29802,2.7353,3.7273,0.1,0.0011377,11369,0.0011361,11322,-0.00037229,-11.143,-0.00038174,-82.125,0.047824
29803,2.8265,3.6364,0.1,0.0012764,12755,0.0012706,12593,-0.00040214,24.506,-0.00045082,-341.25,0.051801
29804,2.7353,3.9091,0.1,0.0010904,10897,0.0010807,10621,-0.00034305,-76.157,-0.00039465,-463.88,0.046835
29805,2.8265,3.8182,0.1,0.0013212,13203,0.00131,12891,-0.00040811,-18.094,-0.00048385,-587.2,0.050776
29806,2.7353,4.0909,0.1,0.0010021,10014,0.00097654,9354,-0.00027577,-55.417,-0.00042423,-1170.9,0.045687
29807,2.8265,4,0.1,0.0013138,13129,0.0012762,12278,-0.00031167,347.87,-0.00059572,-1786.4,0.049538
29808,2.7353,4.2727,0.1,0.00088717,8865.6,0.00084614,7894.6,-0.00020548,-6.859,-0.00042989,-1692.9,0.044413
29809,2.8265,4.1818,0.1,0.0011364,11356,0.0010562,9608.4,-0.00020932,100.2,-0.00061744,-2966.3,0.048129
29810,2.7353,4.4545,0.1,0.00075421,7536.9,0.00071041,6535.4,-0.00015917,1.7117,-0.00038702,-1710.3,0.043056
29811,2.8265,4.3636,0.1,0.00090674,9061.1,0.00082593,7325.6,-0.00015012,-8.0292,-0.00052224,-2803.9,0.046611
29812,2.7353,4.6364,0.1,0.00063555,6351.1,0.00059672,5470.5,-0.00013087,3.6912,-0.00033051,-1496.4,0.04166
29813,2.8265,4.5455,0.1,0.00073824,7377.3,0.00067247,5975.3,-0.00012003,20.748,-0.00042592,-2277.6,0.045052
29814,2.7353,4.8182,0.1,0.0005338,5334.4,0.00050297,4629.3,-0.00011277,2.8495,-0.00027361,-1205.7,0.040258
29815,2.8265,4.7273,0.1,0.00060905,6086.3,0.00055745,4974.3,-0.00010351,8.099,-0.00034619,-1815.3,0.043498
29816,2.7353,5,0.1,0.00044669,4463.8,0.00042409,3937.6,-9.9538e-05,3.3218,-0.00022154,-913.34,0.038868
29817,2.8265,4.9091,0.1,0.00050364,5032.9,0.00046505,4189.2,-9.1262e-05,9.3113,-0.00027848,-1397.4,0.041973
29818,2.7353,5.1818,0.1,0.00037134,3710.9,0.00035611,3346.8,-8.8701e-05,4.6674,-0.00017538,-646.61,0.037498
29819,2.8265,5.0909,0.1,0.00041446,4141.7,0.00038699,3528.4,-8.1439e-05,8.8317,-0.00022043,-1035.5,0.040487
29820,2.7353,5.3636,0.1,0.00030563,3054.2,0.00029651,2828.7,-7.897e-05,7.5125,-0.00013515,-414.58,0.03615
29821,2.8265,5.2727,0.1,0.00033622,3359.9,0.00031815,2945.2,-7.2468e-05,10.245,-0.00016961,-719.67,0.039041
29822,2.7353,5.5455,0.1,0.0002501,2499.3,0.0002454,2379.1,-6.9482e-05,13.19,-0.00010252,-235.07,0.034817
29823,2.8265,5.4545,0.1,0.00026633,2661.5,0.00025591,2414,-6.3493e-05,14.167,-0.00012506,-448.39,0.037633
29824,2.7353,5.7273,0.1,0.00021118,2110.4,0.00020837,2038.3,-6.014e-05,20.837,-8.3412e-05,-154.02,0.03349
29825,2.8265,5.6364,0.1,0.00020533,2051.9,0.00020041,1931.4,-5.3644e-05,22.619,-8.839e-05,-238.45,0.036252
29826,2.8265,5.8182,0.1,0.00016356,1634.5,0.00016058,1563.9,-4.2746e-05,36.224,-6.8823e-05,-159.71,0.034885
29827,2.7353,5.9091,0.1,0.00017879,1786.6,0.00017767,1755.5,-5.569e-05,2.1014,-6.431e-05,-62.667,0.032154
29828,2.9176,0.27273,0.1,0.00016315,1630.3,0.00015694,1489.6,-3.6923e-05,32.953,-7.7456e-05,-271.59,0.037662
29829,3.0088,0.18182,0.1,9.5013e-05,949.48,9.3389e-05,907.35,-2.6903e-05,3.5258,-3.8285e-05,-81.995,0.039051
29830,2.9176,0.090909,0.1,0.00010389,1038.2,0.00010272,1010.6,-2.8343e-05,25.878,-4.1624e-05,-73.909,0.036265
29831,2.9176,0.45455,0.1,0.00023004,2298.8,0.00021754,2016.2,-4.8345e-05,18.421,-0.00011686,-496.4,0.039078
29832,3.0088,0.36364,0.1,0.00015494,1548.4,0.00014932,1409.8,-3.9089e-05,-5.7866,-7.0753e-05,-243.7,0.040488
29833,2.9176,0.63636,0.1,0.00030572,3055.1,0.00028409,2579.6,-5.7312e-05,14.488,-0.00016574,-800.21,0.040532
29834,3.0088,0.54545,0.1,0.00021768,2175.3,0.00020583,1900.5,-4.7594e-05,-3.6496,-0.0001097,-470.29,0.041973
29835,2.9176,0.81818,0.1,0.0003883,3880.3,0.00035544,3175,-6.5406e-05,12.907,-0.00022087,-1155.2,0.042036
29836,3.0088,0.72727,0.1,0.00028292,2827.2,0.00026326,2387.8,-5.5026e-05,-3.5948,-0.00015203,-732.43,0.04352
29837,2.9176,1,0.1,0.00048107,4807.3,0.00043465,3830.3,-7.3314e-05,13.687,-0.00028392,-1568.8,0.0436
29838,3.0088,0.90909,0.1,0.00035341,3531.6,0.00032417,2896,-6.1789e-05,-3.9603,-0.00019927,-1036.9,0.045143
29839,2.9176,1.1818,0.1,0.00059018,5897.7,0.00052718,4591.7,-8.212e-05,13.639,-0.00035858,-2063.6,0.045228
29840,3.0088,1.0909,0.1,0.0004333,4330,0.00039212,3455.6,-6.8037e-05,-1.9094,-0.00025425,-1401,0.04685
29841,2.9176,1.3636,0.1,0.00072593,7254.2,0.00064253,5549.2,-9.2779e-05,24.344,-0.00045082,-2665.9,0.046918
29842,3.0088,1.2727,0.1,0.00052935,5289.8,0.00047295,4111.6,-7.5494e-05,-9.2297,-0.00032094,-1853.5,0.048648
29843,2.9176,1.5455,0.1,0.00091152,9108.9,0.00080129,6865.5,-0.00011107,10.353,-0.00057436,-3470.6,0.048659
29844,3.0088,1.4545,0.1,0.00065465,6542,0.00057684,4959.8,-8.0402e-05,21.504,-0.00041065,-2459.8,0.050538
29845,2.9176,1.7273,0.1,0.0011732,11724,0.0010452,9108.8,-0.00015404,98.389,-0.00071894,-4146.1,0.050424
29846,3.0088,1.6364,0.1,0.0008217,8211.3,0.00072183,6136.3,-0.00010753,-95.101,-0.00051655,-3168.3,0.052514
29847,2.9176,1.9091,0.1,0.001441,14400,0.001347,12467,-0.00024521,503.48,-0.00078012,-3515.7,0.05215
29848,3.0088,1.8182,0.1,0.0011559,11551,0.00097938,8282.5,-6.7019e-05,420.2,-0.00078569,-4979.7,0.054557
29849,2.9176,2.0909,0.1,0.0015236,15225,0.0014895,14428,-0.00038528,341.69,-0.00066038,-1725.3,0.053698
29850,3.0088,2,0.1,0.002266,22644,0.0022043,21250,-0.00054092,624.03,-0.0010205,-2979.1,0.056547
29851,2.9176,2.2727,0.1,0.0014518,14508,0.001437,14105,-0.00043779,18.849,-0.00054557,-791.01,0.05501
29852,3.0088,2.1818,0.1,0.0017482,17470,0.0017252,16842,-0.00052373,-54.961,-0.00066935,-1149,0.05823
29853,2.9176,2.4545,0.1,0.0013476,13466,0.0013374,13184,-0.00041561,12.954,-0.00049178,-559.33,0.05602
29854,3.0088,2.3636,0.1,0.0014957,14947,0.0014791,14501,-0.00044563,39.2,-0.00056899,-887.67,0.059525
29855,2.9176,2.6364,0.1,0.001261,12601,0.0012537,12397,-0.00039604,1.2108,-0.00044948,-400.27,0.056731
29856,3.0088,2.5455,0.1,0.0013454,13444,0.0013334,13115,-0.0004123,-1.7207,-0.00049655,-634.8,0.060457
29857,2.9176,2.8182,0.1,0.001214,12132,0.0012083,11969,-0.00038426,3.2244,-0.00042765,-322.81,0.057151
29858,3.0088,2.7273,0.1,0.0012637,12629,0.0012545,12372,-0.00039137,5.6375,-0.00045911,-503.32,0.06106
29859,2.9176,3,0.1,0.001199,11981,0.0011937,11831,-0.00038077,1.0801,-0.00042043,-296.86,0.05729
29860,3.0088,2.9091,0.1,0.0012273,12264,0.0012193,12040,-0.00038286,2.1514,-0.00044163,-439.41,0.061355
29861,2.9176,3.1818,0.1,0.001214,12132,0.0012083,11969,-0.00038426,3.2244,-0.00042765,-322.81,0.057151
29862,3.0088,3.0909,0.1,0.0012273,12264,0.0012193,12040,-0.00038286,2.1514,-0.00044163,-439.41,0.061355
29863,2.9176,3.3636,0.1,0.001261,12601,0.0012537,12397,-0.00039604,1.2108,-0.00044948,-400.27,0.056731
29864,3.0088,3.2727,0.1,0.0012637,12629,0.0012545,12372,-0.00039137,5.6375,-0.00045911,-503.32,0.06106
29865,2.9176,3.5455,0.1,0.0013476,13466,0.0013374,13184,-0.00041561,12.954,-0.00049178,-559.33,0.05602
29866,3.0088,3.4545,0.1,0.0013454,13444,0.0013334,13115,-0.0004123,-1.7207,-0.00049655,-634.8,0.060457
29867,2.9176,3.7273,0.1,0.0014518,14508,0.001437,14105,-0.00043779,18.849,-0.00054557,-791.01,0.05501
29868,3.0088,3.6364,0.1,0.0014957,14947,0.0014791,14501,-0.00044563,39.2,-0.00056899,-887.67,0.059525
29869,2.9176,3.9091,0.1,0.0015236,15225,0.0014895,14428,-0.00038528,341.69,-0.00066038,-1725.3,0.053698
29870,3.0088,3.8182,0.1,0.0017482,17470,0.0017252,16842,-0.00052373,-54.961,-0.00066935,-1149,0.05823
29871,2.9176,4.0909,0.1,0.001441,14400,0.001347,12467,-0.00024521,503.48,-0.00078012,-3515.6,0.05215
29872,3.0088,4,0.1,0.002266,22644,0.0022043,21250,-0.00054092,624.03,-0.0010205,-2979.1,0.056547
29873,2.9176,4.2727,0.1,0.0011732,11724,0.0010452,9108.8,-0.00015404,98.389,-0.00071894,-4146.1,0.050424
29874,3.0088,4.1818,0.1,0.0011559,11551,0.00097938,8282.5,-6.702e-05,420.2,-0.00078569,-4979.6,0.054557
29875,2.9176,4.4545,0.1,0.00091152,9108.9,0.00080129,6865.5,-0.00011107,10.354,-0.00057436,-3470.6,0.048659
29876,3.0088,4.3636,0.1,0.0008217,8211.3,0.00072183,6136.4,-0.00010753,-95.101,-0.00051655,-3168.3,0.052514
29877,2.9176,4.6364,0.1,0.00072593,7254.2,0.00064253,5549.2,-9.2779e-05,24.344,-0.00045082,-2665.9,0.046918
29878,3.0088,4.5455,0.1,0.00065465,6542,0.00057684,4959.8,-8.0402e-05,21.504,-0.00041065,-2459.8,0.050538
29879,2.9176,4.8182,0.1,0.00059018,5897.7,0.00052718,4591.7,-8.212e-05,13.639,-0.00035858,-2063.6,0.045228
29880,3.0088,4.7273,0.1,0.00052935,5289.8,0.00047295,4111.6,-7.5494e-05,-9.2297,-0.00032094,-1853.5,0.048648
29881,2.9176,5,0.1,0.00048107,4807.3,0.00043465,3830.3,-7.3314e-05,13.687,-0.00028392,-1568.8,0.0436
29882,3.0088,4.9091,0.1,0.0004333,4330,0.00039212,3455.6,-6.8037e-05,-1.9094,-0.00025425,-1401,0.04685
29883,2.9176,5.1818,0.1,0.0003883,3880.3,0.00035544,3175,-6.5406e-05,12.907,-0.00022087,-1155.2,0.042036
29884,3.0088,5.0909,0.1,0.00035341,3531.6,0.00032417,2896,-6.1789e-05,-3.9603,-0.00019927,-1036.9,0.045143
29885,2.9176,5.3636,0.1,0.00030572,3055.1,0.00028409,2579.6,-5.7312e-05,14.489,-0.00016574,-800.21,0.040532
29886,3.0088,5.2727,0.1,0.00028292,2827.2,0.00026326,2387.8,-5.5026e-05,-3.5948,-0.00015203,-732.43,0.04352
29887,2.9176,5.5455,0.1,0.00023004,2298.8,0.00021754,2016.2,-4.8345e-05,18.421,-0.00011686,-496.4,0.039078
29888,3.0088,5.4545,0.1,0.00021768,2175.3,0.00020583,1900.5,-4.7594e-05,-3.6496,-0.0001097,-470.29,0.041973
29889,2.9176,5.7273,0.1,0.00016315,1630.3,0.00015694,1489.6,-3.6923e-05,32.953,-7.7456e-05,-271.59,0.037662
29890,3.0088,5.6364,0.1,0.00015494,1548.4,0.00014932,1409.8,-3.9089e-05,-5.7866,-7.0753e-05,-243.7,0.040488
29891,3.0088,5.8182,0.1,9.5013e-05,949.48,9.3389e-05,907.35,-2.6903e-05,3.5258,-3.8285e-05,-81.995,0.039051
29892,2.9176,5.9091,0.1,0.00010389,1038.2,0.00010272,1010.6,-2.8343e-05,25.878,-4.1624e-05,-73.909,0.036265
29893,3.2667,3.7273,0.1,0.0017961,17948,0.0017679,17193,-0.00052685,-49.246,-0.00070498,-1387.6,0.071485
29894,3.1833,3.8182,0.1,0.0019874,19860,0.0019584,19065,-0.0005975,-138.42,-0.00076426,-1391.4,0.066393
29895,3.2667,3.9091,0.1,0.002407,24054,0.0023544,22867,-0.00059305,721.12,-0.0010515,-2723.2,0.069836
29896,3.2667,3.5455,0.1,0.0014907,14897,0.0014704,14357,-0.00043694,25.43,-0.00057982,-1048.1,0.072671
29897,3.1833,3.6364,0.1,0.0015837,15826,0.0015621,15255,-0.00046132,51.604,-0.00061841,-1128.6,0.067825
29898,3.2667,3.3636,0.1,0.0013447,13438,0.0013291,13016,-0.00040285,2.5683,-0.00051089,-809.21,0.073477
29899,3.1833,3.4545,0.1,0.0013954,13944,0.001379,13499,-0.00041772,-0.045336,-0.00053085,-850.06,0.068824
29900,3.2667,3.1818,0.1,0.0012733,12724,0.0012603,12370,-0.00038541,4.2854,-0.00047722,-685.53,0.073946
29901,3.1833,3.2727,0.1,0.0012962,12953,0.0012831,12597,-0.00039267,5.902,-0.00048509,-688.49,0.069462
29902,3.2667,3,0.1,0.0012519,12511,0.0012397,12176,-0.00038046,2.8424,-0.00046688,-646.47,0.0741
29903,3.1833,3.0909,0.1,0.0012535,12527,0.001242,12211,-0.00038271,3.0095,-0.00046462,-612.39,0.069774
29904,3.2667,2.8182,0.1,0.0012733,12724,0.0012603,12370,-0.00038541,4.2854,-0.00047722,-685.53,0.073946
29905,3.1833,2.9091,0.1,0.0012535,12527,0.001242,12211,-0.00038271,3.0095,-0.00046462,-612.39,0.069774
29906,3.2667,2.6364,0.1,0.0013447,13438,0.0013291,13016,-0.00040285,2.5684,-0.00051089,-809.22,0.073477
29907,3.1833,2.7273,0.1,0.0012962,12953,0.0012831,12597,-0.00039267,5.9019,-0.00048509,-688.49,0.069462
29908,3.2667,2.4545,0.1,0.0014907,14897,0.0014704,14357,-0.00043694,25.43,-0.00057982,-1048.1,0.072671
29909,3.1833,2.5455,0.1,0.0013954,13944,0.001379,13499,-0.00041772,-0.045315,-0.00053085,-850.06,0.068824
29910,3.2667,2.2727,0.1,0.0017961,17948,0.0017679,17193,-0.00052685,-49.246,-0.00070498,-1387.6,0.071485
29911,3.1833,2.3636,0.1,0.0015837,15826,0.0015621,15255,-0.00046132,51.604,-0.00061841,-1128.6,0.067825
29912,3.1833,2.1818,0.1,0.0019874,19860,0.0019584,19065,-0.0005975,-138.42,-0.00076426,-1391.4,0.066393
29913,3.2667,2.0909,0.1,0.002407,24054,0.0023544,22867,-0.00059304,721.12,-0.0010515,-2723.2,0.069836
29914,3.1,3.7273,0.1,0.0018115,18102,0.0017839,17363,-0.0005327,-43.033,-0.00070829,-1362.4,0.063103
29915,3.1,3.9091,0.1,0.0024624,24607,0.0024098,23438,-0.00060199,808.85,-0.0010766,-2757.4,0.061461
29916,3.1,3.5455,0.1,0.001499,14980,0.0014798,14467,-0.00044225,25.025,-0.00057849,-998.61,0.06428
29917,3.1,3.3636,0.1,0.0013496,13487,0.0013354,13099,-0.00040757,3.1458,-0.00050746,-747.42,0.06508
29918,3.1,3.1818,0.1,0.0012769,12761,0.0012654,12442,-0.00038999,4.455,-0.00047294,-618.74,0.065545
29919,3.1,3,0.1,0.0012552,12543,0.0012444,12245,-0.00038498,3.025,-0.00046234,-578.17,0.065697
29920,3.1,2.8182,0.1,0.0012769,12761,0.0012653,12442,-0.00038999,4.455,-0.00047294,-618.74,0.065545
29921,3.1,2.6364,0.1,0.0013496,13487,0.0013354,13099,-0.00040757,3.1458,-0.00050746,-747.42,0.06508
29922,3.1,2.4545,0.1,0.001499,14980,0.0014798,14467,-0.00044225,25.025,-0.00057849,-998.61,0.06428
29923,3.1,2.2727,0.1,0.0018115,18102,0.0017839,17363,-0.0005327,-43.033,-0.00070829,-1362.4,0.063103
29924,3.1,2.0909,0.1,0.0024624,24607,0.0024098,23438,-0.00060199,808.84,-0.0010766,-2757.4,0.061461
29925,3.2667,5.7273,0.1,7.94e-05,793.45,7.4872e-05,683.8,-1.8532e-05,-18.004,-3.9716e-05,-177.18,0.048436
29926,3.2667,5.9091,0.1,2.8668e-05,286.48,2.8024e-05,269.53,-8.1138e-06,-1.9927,-1.1823e-05,-29.865,0.046612
29927,3.2667,5.8182,0.05,2.0753e-05,207.39,1.5936e-05,119.74,1.3036e-13,8.2938e-07,-1.5936e-05,-119.74,0.047368
29928,3.2667,5.5455,0.1,0.00012501,1249.2,0.00011552,1033.2,-2.4721e-05,-20.511,-6.8143e-05,-346.77,0.050296
29929,3.2667,5.6364,0.05,4.4227e-05,441.97,3.3961e-05,255.17,1.0752e-12,-9.7382e-07,-3.3961e-05,-255.17,0.049215
29930,3.2667,5.3636,0.1,0.00017081,1707,0.00015493,1360.3,-2.9021e-05,-21.839,-9.9006e-05,-547.68,0.052202
29931,3.2667,5.4545,0.05,6.7496e-05,674.5,5.1829e-05,389.42,2.6446e-12,-6.2523e-07,-5.1829e-05,-389.42,0.051104
29932,3.2667,5.1818,0.1,0.00022088,2207.2,0.00019698,1700.7,-3.2681e-05,-24.908,-0.00013404,-786.52,0.054165
29933,3.2667,5.2727,0.05,9.2671e-05,926.07,7.116e-05,534.67,3.1004e-12,-6.1746e-07,-7.116e-05,-534.67,0.053044
29934,3.2667,5,0.1,0.00027867,2784.8,0.00024468,2080.6,-3.6022e-05,-28.456,-0.00017545,-1076,0.056189
29935,3.2667,5.0909,0.05,0.00012108,1210,9.2973e-05,698.57,3.1089e-12,-4.8296e-07,-9.2973e-05,-698.57,0.055044
29936,3.2667,4.8182,0.1,0.00034923,3489.9,0.00030223,2532.6,-3.9792e-05,-37.212,-0.00022655,-1440.4,0.058282
29937,3.2667,4.9091,0.05,0.00015466,1545.5,0.00011876,892.32,3.1159e-12,-5.1017e-07,-0.00011876,-892.32,0.057109
29938,3.2667,4.6364,0.1,0.00044305,4427.5,0.00037766,3119.9,-4.3148e-05,-41.908,-0.0002958,-1940.2,0.060449
29939,3.2667,4.7273,0.05,0.00019676,1966.2,0.00015109,1135.2,4.5307e-12,-5.8101e-07,-0.00015109,-1135.2,0.059247
29940,3.2667,4.4545,0.1,0.00056608,5656.9,0.00047979,3921.2,-5.5297e-05,-99.251,-0.00038113,-2547.4,0.062699
29941,3.2667,4.5455,0.05,0.00025307,2529,0.00019433,1460.1,-2.0708e-12,-6.4095e-05,-0.00019433,-1460.1,0.061462
29942,3.2667,4.2727,0.1,0.00086994,8693.4,0.00070236,5501.2,-4.0931e-05,-83.568,-0.00063071,-4515,0.065035
29943,3.2667,4.3636,0.05,0.00034304,3428,0.00026341,1979.2,1.6164e-11,0.00012569,-0.00026341,-1979.2,0.063765
29944,3.2667,4.0909,0.1,0.001744,17428,0.0016153,15208,-0.00019504,1605.3,-0.00099922,-4437,0.067516
29945,3.2667,4.1818,0.05,0.00056946,5690.7,0.00043728,3285.5,-1.0809e-10,-0.00093394,-0.00043728,-3285.5,0.066158
29946,3.1833,4,0.1,0.0025102,25085,0.0024617,24654,-0.00042085,2996,-0.0011964,-2831.3,0.064397
29947,3.2667,4,0.05,0.00049247,4921.3,0.00037815,2841.3,5.4491e-10,0.0069256,-0.00037815,-2841.3,0.068709
29948,3.1,4.0909,0.1,0.0018149,18137,0.0016847,15924,-0.00020123,1754.2,-0.0010356,-4515,0.059122
29949,3.1,4,0.05,0.0005269,5265.4,0.00040459,3040,5.6694e-10,0.0068028,-0.00040459,-3039.9,0.060348
29950,3.1,4.2727,0.1,0.00095479,9541.3,0.0007874,6297,-6.2874e-05,-91.596,-0.00067231,-4670.6,0.056652
29951,3.1,4.1818,0.05,0.0006189,6184.7,0.00047524,3570.7,-1.1609e-10,-0.00095721,-0.00047524,-3570.7,0.057809
29952,3.1,4.4545,0.1,0.00064505,6446.1,0.000561,4708.7,-7.9612e-05,-104.61,-0.00041371,-2614.9,0.054382
29953,3.1,4.3636,0.05,0.00038211,3818.5,0.00029341,2204.6,1.1743e-11,0.00012647,-0.00029341,-2204.6,0.055472
29954,3.1,4.6364,0.1,0.00051957,5192.1,0.00045699,3895.8,-6.7611e-05,-45.835,-0.000326,-1987.3,0.052249
29955,3.1,4.5455,0.05,0.00028745,2872.5,0.00022073,1658.4,-7.2393e-12,-7.7807e-05,-0.00022073,-1658.4,0.053272
29956,3.1,4.8182,0.1,0.00042186,4215.7,0.00037747,3272.8,-6.3538e-05,-40.756,-0.00025406,-1472.2,0.050248
29957,3.1,4.7273,0.05,0.00022691,2267.5,0.00017424,1309.1,1.7822e-12,-2.4669e-07,-0.00017424,-1309.1,0.051208
29958,3.1,5,0.1,0.00034616,3459.2,0.00031423,2766.1,-5.8155e-05,-31.903,-0.00020053,-1101.7,0.04837
29959,3.1,4.9091,0.05,0.0001809,1807.8,0.00013891,1043.7,1.7524e-12,-3.7247e-07,-0.00013891,-1043.7,0.049272
29960,3.1,5.1818,0.1,0.00028164,2814.5,0.00025912,2312.7,-5.2465e-05,-28.391,-0.00015649,-810,0.046605
29961,3.1,5.0909,0.05,0.00014348,1433.8,0.00011017,827.79,3.5716e-12,-5.5677e-07,-0.00011017,-827.79,0.047453
29962,3.1,5.3636,0.1,0.000223,2228.5,0.00020781,1880.1,-4.5797e-05,-25.401,-0.00011831,-570.27,0.044942
29963,3.1,5.2727,0.05,0.00011115,1110.7,8.5349e-05,641.28,1.7649e-12,-5.4463e-07,-8.5349e-05,-641.28,0.045742
29964,3.1,5.5455,0.1,0.00016643,1663.2,0.00015709,1440.5,-3.7888e-05,-24.474,-8.3524e-05,-367.36,0.043369
29965,3.1,5.4545,0.05,8.1842e-05,817.86,6.2845e-05,472.19,1.7346e-12,-5.6642e-07,-6.2845e-05,-472.19,0.044127
29966,3.1,5.7273,0.1,0.00010703,1069.5,0.00010235,952.25,-2.7235e-05,-21.435,-4.9999e-05,-192.48,0.04187
29967,3.1,5.6364,0.05,5.4102e-05,540.65,4.1544e-05,312.14,1.2272e-12,3.3626e-06,-4.1544e-05,-312.14,0.042593
29968,3.1,5.9091,0.1,3.877e-05,387.44,3.8124e-05,371.09,-1.0756e-05,3.8255,-1.5761e-05,-33.784,0.040424
29969,3.1,5.8182,0.05,2.5221e-05,252.04,1.9367e-05,145.51,1.3558e-12,4.2709e-06,-1.9367e-05,-145.51,0.041123
29970,3.2667,0.27273,0.1,7.94e-05,793.45,7.4872e-05,683.8,-1.8532e-05,-18.004,-3.9716e-05,-177.18,0.048436
29971,3.2667,0.090909,0.1,2.8668e-05,286.48,2.8024e-05,269.53,-8.1138e-06,-1.9927,-1.1823e-05,-29.865,0.046612
29972,3.2667,0.18182,0.05,2.0753e-05,207.39,1.5936e-05,119.74,-4.6207e-13,1.3022e-06,-1.5936e-05,-119.74,0.047368
29973,3.2667,0.45455,0.1,0.00012501,1249.2,0.00011552,1033.2,-2.4721e-05,-20.511,-6.8143e-05,-346.77,0.050296
29974,3.2667,0.36364,0.05,4.4227e-05,441.97,3.3961e-05,255.17,-1.5009e-12,6.4921e-07,-3.3961e-05,-255.17,0.049215
29975,3.2667,0.63636,0.1,0.00017081,1707,0.00015493,1360.3,-2.9021e-05,-21.839,-9.9006e-05,-547.68,0.052202
29976,3.2667,0.54545,0.05,6.7496e-05,674.5,5.1829e-05,389.42,-2.626e-12,7.8154e-07,-5.1829e-05,-389.42,0.051104
29977,3.2667,0.81818,0.1,0.00022088,2207.2,0.00019698,1700.7,-3.2681e-05,-24.908,-0.00013404,-786.52,0.054165
29978,3.2667,0.72727,0.05,9.2671e-05,926.07,7.116e-05,534.67,-2.9588e-12,7.2037e-07,-7.116e-05,-534.67,0.053044
29979,3.2667,1,0.1,0.00027867,2784.8,0.00024468,2080.6,-3.6022e-05,-28.456,-0.00017545,-1076,0.056189
29980,3.2667,0.90909,0.05,0.00012108,1210,9.2973e-05,698.57,-4.0883e-12,4.8296e-07,-9.2973e-05,-698.57,0.055044
29981,3.2667,1.1818,0.1,0.00034923,3489.9,0.00030223,2532.6,-3.9792e-05,-37.212,-0.00022655,-1440.4,0.058282
29982,3.2667,1.0909,0.05,0.00015466,1545.5,0.00011876,892.32,-3.6002e-12,-3.6251e-06,-0.00011876,-892.32,0.057109
29983,3.2667,1.3636,0.1,0.00044305,4427.5,0.00037766,3119.9,-4.3148e-05,-41.908,-0.0002958,-1940.2,0.060449
29984,3.2667,1.2727,0.05,0.00019676,1966.2,0.00015109,1135.2,-4.4739e-12,-3.6924e-06,-0.00015109,-1135.2,0.059247
29985,3.2667,1.5455,0.1,0.00056608,5656.9,0.00047979,3921.2,-5.5297e-05,-99.251,-0.00038113,-2547.4,0.062699
29986,3.2667,1.4545,0.05,0.00025307,2529,0.00019433,1460.1,2.0817e-12,7.657e-05,-0.00019433,-1460.1,0.061462
29987,3.2667,1.7273,0.1,0.00086994,8693.4,0.00070236,5501.2,-4.0931e-05,-83.567,-0.00063071,-4515,0.065035
29988,3.2667,1.6364,0.05,0.00034304,3428,0.00026341,1979.2,-1.3142e-11,-0.00013116,-0.00026341,-1979.2,0.063765
29989,3.2667,1.9091,0.1,0.001744,17428,0.0016153,15208,-0.00019504,1605.3,-0.00099922,-4437,0.067516
29990,3.2667,1.8182,0.05,0.00056946,5690.7,0.00043728,3285.5,9.9766e-11,0.00097931,-0.00043728,-3285.5,0.066158
29991,3.1833,2,0.1,0.0025102,25085,0.0024617,24654,-0.00042084,2996,-0.0011964,-2831.3,0.064397
29992,3.2667,2,0.05,0.00049247,4921.3,0.00037815,2841.3,-5.5578e-10,-0.0069297,-0.00037815,-2841.3,0.068709
29993,3.1,1.9091,0.1,0.0018149,18137,0.0016847,15924,-0.00020123,1754.2,-0.0010356,-4515,0.059122
29994,3.1,2,0.05,0.0005269,5265.4,0.00040459,3040,-5.8002e-10,-0.0068517,-0.00040459,-3040,0.060348
29995,3.1,1.7273,0.1,0.00095479,9541.3,0.0007874,6297,-6.2874e-05,-91.596,-0.00067231,-4670.6,0.056652
29996,3.1,1.8182,0.05,0.0006189,6184.7,0.00047524,3570.7,1.2121e-10,0.0010205,-0.00047524,-3570.7,0.057809
29997,3.1,1.5455,0.1,0.00064505,6446.1,0.000561,4708.7,-7.9611e-05,-104.61,-0.00041371,-2614.9,0.054382
29998,3.1,1.6364,0.05,0.00038211,3818.5,0.00029341,2204.6,-9.1495e-12,-0.00015167,-0.00029341,-2204.6,0.055472
29999,3.1,1.3636,0.1,0.00051957,5192.1,0.00045699,3895.8,-6.7611e-05,-45.835,-0.000326,-1987.3,0.052249
30000,3.1,1.4545,0.05,0.00028745,2872.5,0.00022073,1658.4,6.316e-12,7.2161e-05,-0.00022073,-1658.4,0.053272
30001,3.1,1.1818,0.1,0.00042186,4215.7,0.00037747,3272.8,-6.3538e-05,-40.756,-0.00025406,-1472.2,0.050248
30002,3.1,1.2727,0.05,0.00022691,2267.5,0.00017424,1309.1,-3.5939e-12,3.7003e-07,-0.00017424,-1309.1,0.051208
30003,3.1,1,0.1,0.00034616,3459.2,0.00031423,2766.1,-5.8155e-05,-31.903,-0.00020053,-1101.7,0.04837
30004,3.1,1.0909,0.05,0.0001809,1807.8,0.00013891,1043.7,-1.782e-12,4.9662e-07,-0.00013891,-1043.7,0.049272
30005,3.1,0.81818,0.1,0.00028164,2814.5,0.00025912,2312.7,-5.2465e-05,-28.391,-0.00015649,-810,0.046605
30006,3.1,0.90909,0.05,0.00014348,1433.8,0.00011017,827.79,-3.5882e-12,4.1758e-07,-0.00011017,-827.79,0.047453
30007,3.1,0.63636,0.1,0.000223,2228.5,0.00020781,1880.1,-4.5797e-05,-25.401,-0.00011831,-570.27,0.044942
30008,3.1,0.72727,0.05,0.00011115,1110.7,8.5349e-05,641.28,-3.5514e-12,5.4463e-07,-8.5349e-05,-641.28,0.045742
30009,3.1,0.45455,0.1,0.00016643,1663.2,0.00015709,1440.5,-3.7888e-05,-24.474,-8.3524e-05,-367.36,0.043369
30010,3.1,0.54545,0.05,8.1842e-05,817.86,6.2845e-05,472.19,-3.5198e-12,1.1328e-06,-6.2845e-05,-472.19,0.044127
30011,3.1,0.27273,0.1,0.00010703,1069.5,0.00010235,952.25,-2.7235e-05,-21.435,-4.9999e-05,-192.48,0.04187
30012,3.1,0.36364,0.05,5.4102e-05,540.65,4.1544e-05,312.14,-1.2637e-12,9.1996e-07,-4.1544e-05,-312.14,0.042593
30013,3.1,0.090909,0.1,3.877e-05,387.44,3.8124e-05,371.09,-1.0756e-05,3.8255,-1.5761e-05,-33.784,0.040424
30014,3.1,0.18182,0.05,2.5221e-05,252.04,1.9367e-05,145.51,-1.4337e-12,-4.9241e-06,-1.9367e-05,-145.51,0.041123
30015,3.3584,6,0.1,3.4967e-05,349.42,3.5129e-05,356.21,-9.174e-06,23.334,-1.3304e-05,-7.6942,0.052596
30016,3.2667,6,0.05,6.3768e-06,63.724,4.8966e-06,36.791,3.0207e-13,4.2324e-06,-4.8966e-06,-36.791,0.045549
30017,3.5419,6,0.1,0.00010023,1001.6,9.9815e-05,989.84,-3.1932e-05,-0.053738,-3.4991e-05,-23.038,0.06641
30018,3.4501,6,0.05,4.4784e-06,44.753,3.4389e-06,25.838,-3.239e-21,-2.3573e-06,-3.4389e-06,-25.838,0.059373
30019,3.7254,6,0.1,0.00016141,1613,0.0001609,1598.2,-5.2102e-05,-2.1808,-5.5417e-05,-27.083,0.080301
30020,3.6336,6,0.05,1.1834e-05,118.26,9.0873e-06,68.278,1.909e-12,2.8405e-07,-9.0873e-06,-68.278,0.073243
30021,3.9088,6,0.1,0.00021527,2151.2,0.00021477,2136.9,-6.967e-05,-0.27,-7.3361e-05,-28.002,0.094304
30022,3.8171,6,0.05,1.5325e-05,153.15,1.1768e-05,88.42,1.8358e-12,-1.4478e-06,-1.1768e-05,-88.42,0.0872
30023,4.0923,6,0.1,0.00026232,2621.3,0.00026187,2608.3,-8.5208e-05,0.53085,-8.8794e-05,-26.415,0.10845
30024,4.0006,6,0.05,1.6929e-05,169.18,1.3e-05,97.675,1.8187e-12,-1.9536e-06,-1.3e-05,-97.675,0.10128
30025,4.2758,6,0.1,0.00030247,3022.6,0.00030208,3011.3,-9.8547e-05,1.1829,-0.00010184,-23.543,0.12278
30026,4.1841,6,0.05,1.7202e-05,171.9,1.3209e-05,99.249,1.8351e-12,-2.1052e-14,-1.3209e-05,-99.249,0.11552
30027,4.4593,6,0.1,0.00033593,3357,0.0003356,3347.5,-0.00010973,1.4939,-0.00011262,-20.28,0.13731
30028,4.3676,6,0.05,1.666e-05,166.48,1.2793e-05,96.119,-2.7135e-21,-1.1908e-06,-1.2793e-05,-96.119,0.12995
30029,4.6428,6,0.1,0.00036314,3628.9,0.00036287,3621.1,-0.00011886,1.5916,-0.00012134,-17.063,0.15206
30030,4.551,6,0.05,1.5658e-05,156.47,1.2024e-05,90.341,3.5653e-14,-1.9163e-14,-1.2024e-05,-90.341,0.14459
30031,4.8263,6,0.1,0.00038473,3844.7,0.00038452,3838.4,-0.00012613,1.5337,-0.00012822,-14.129,0.16706
30032,4.7345,6,0.05,1.4458e-05,144.48,1.1102e-05,83.415,-3.606e-12,5.3449e-07,-1.1102e-05,-83.415,0.15947
30033,5.0097,6,0.1,0.00040142,4011.4,0.00040124,4006.3,-0.00013178,1.3842,-0.0001335,-11.572,0.18231
30034,4.918,6,0.05,1.3234e-05,132.25,1.0162e-05,76.352,-7.1989e-12,2.1688e-07,-1.0162e-05,-76.352,0.1746
30035,5.1932,6,0.1,0.00041391,4136.3,0.00041377,4132.2,-0.00013603,1.1877,-0.00013744,-9.4078,0.19784
30036,5.1015,6,0.05,1.2095e-05,120.86,9.2873e-06,69.781,-7.2038e-12,1.468e-06,-9.2873e-06,-69.781,0.18999
30037,5.3767,6,0.1,0.00042289,4226,0.00042278,4222.7,-0.0001391,0.97584,-0.00014024,-7.6142,0.21364
30038,5.285,6,0.05,1.1102e-05,110.95,8.5251e-06,64.055,-1.0869e-11,1.6114e-06,-8.5251e-06,-64.054,0.20565
30039,5.5602,6,0.1,0.00042896,4286.7,0.00042887,4284,-0.00014119,0.76854,-0.00014211,-6.1512,0.22973
30040,5.4684,6,0.05,1.0283e-05,102.75,7.8958e-06,59.326,-7.2383e-12,1.8344e-06,-7.8957e-06,-59.325,0.2216
30041,5.7437,6,0.1,0.00043266,4323.6,0.00043258,4321.4,-0.00014248,0.57749,-0.00014322,-4.9744,0.2461
30042,5.6519,6,0.05,9.6404e-06,96.337,7.4026e-06,55.62,-1.4509e-11,1.7862e-06,-7.4026e-06,-55.62,0.23783
30043,5.9271,6,0.1,0.00043442,4341.2,0.00043436,4339.4,-0.00014313,0.40857,-0.00014372,-4.041,0.26277
30044,5.8354,6,0.05,9.1663e-06,91.6,7.0386e-06,52.885,-1.452e-11,1.5619e-06,-7.0386e-06,-52.885,0.25436
30045,6.1106,6,0.1,0.00043464,4343.4,0.00043459,4341.9,-0.00014324,0.26386,-0.00014372,-3.3131,0.27973
30046,6.0189,6,0.05,8.8436e-06,88.375,6.7908e-06,51.024,-1.0901e-11,1.6059e-06,-6.7908e-06,-51.023,0.27117
30047,6.2941,6,0.1,0.00043361,4333.1,0.00043357,4331.8,-0.00014294,0.14309,-0.00014333,-2.7578,0.29698
30048,6.2024,6,0.05,8.6522e-06,86.462,6.6438e-06,49.919,-1.4541e-11,1.5118e-06,-6.6438e-06,-49.919,0.28828
30049,6.4776,6,0.1,0.0004316,4313.1,0.00043156,4311.9,-0.00014231,0.044655,-0.00014263,-2.3471,0.31453
30050,6.3858,6,0.05,8.5709e-06,85.65,6.5814e-06,49.45,-1.455e-11,1.428e-06,-6.5814e-06,-49.45,0.30568
30051,6.6611,6,0.1,0.00042881,4285.2,0.00042878,4284.1,-0.00014141,-0.033736,-0.00014168,-2.0573,0.33236
30052,6.5693,6,0.05,8.5798e-06,85.739,6.5882e-06,49.501,-1.4552e-11,1.4924e-06,-6.5882e-06,-49.501,0.32337
30053,6.8445,6,0.1,0.00042541,4251.2,0.00042538,4250.2,-0.0001403,-0.094613,-0.00014054,-1.8685,0.35048
30054,6.7528,6,0.05,8.6603e-06,86.543,6.65e-06,49.966,-1.4552e-11,1.3115e-06,-6.65e-06,-49.965,0.34135
30055,7.028,6,0.1,0.00042153,4212.4,0.0004215,4211.5,-0.00013903,-0.14049,-0.00013925,-1.7638,0.36889
30056,6.9363,6,0.05,8.7961e-06,87.9,6.7543e-06,50.75,-1.4551e-11,1.375e-06,-6.7543e-06,-50.749,0.35961
30057,7.2115,6,0.1,0.00041728,4169.9,0.00041725,4169,-0.00013763,-0.17374,-0.00013784,-1.7287,0.38758
30058,7.1198,6,0.05,8.9732e-06,89.671,6.8904e-06,51.772,-1.4551e-11,1.4378e-06,-6.8903e-06,-51.771,0.37816
30059,7.395,6,0.1,0.00041274,4124.6,0.00041271,4123.6,-0.00013613,-0.19652,-0.00013634,-1.751,0.40656
30060,7.3032,6,0.05,9.1798e-06,91.735,7.049e-06,52.963,-1.4553e-11,1.5048e-06,-7.0489e-06,-52.963,0.397
30061,7.5785,6,0.1,0.00040798,4077,0.00040795,4076,-0.00013456,-0.21077,-0.00013478,-1.82,0.42581
30062,7.4867,6,0.05,9.4059e-06,93.994,7.2226e-06,54.268,-1.455e-11,1.5656e-06,-7.2225e-06,-54.267,0.41611
30063,7.7619,6,0.1,0.00040306,4027.8,0.00040303,4026.8,-0.00013293,-0.21817,-0.00013316,-1.9267,0.44533
30064,7.6702,6,0.05,9.6434e-06,96.368,7.405e-06,55.638,-1.0912e-11,1.4506e-06,-7.405e-06,-55.638,0.4355
30065,7.9454,6,0.1,0.00039802,3977.4,0.00039798,3976.3,-0.00013126,-0.22017,-0.00013151,-2.0632,0.46513
30066,7.8537,6,0.05,9.886e-06,98.792,7.5912e-06,57.038,-1.0912e-11,1.6496e-06,-7.5912e-06,-57.037,0.45516
30067,8.1289,6,0.1,0.00039288,3926.1,0.00039284,3924.9,-0.00012956,-0.21798,-0.00012983,-2.2231,0.4852
30068,8.0372,6,0.05,1.0128e-05,101.21,7.7774e-06,58.436,-1.4547e-11,1.5322e-06,-7.7773e-06,-58.436,0.4751
30069,8.3124,6,0.1,0.00038768,3874.1,0.00038764,3872.8,-0.00012783,-0.21261,-0.00012812,-2.4006,0.50553
30070,8.2206,6,0.05,1.0367e-05,103.59,7.9603e-06,59.811,-1.0912e-11,1.5638e-06,-7.9603e-06,-59.81,0.49529
30071,8.4959,6,0.1,0.00038244,3821.7,0.00038239,3820.3,-0.00012609,-0.20488,-0.00012641,-2.5912,0.52612
30072,8.4041,6,0.05,1.0598e-05,105.9,8.1377e-06,61.144,-1.0913e-11,1.7066e-06,-8.1377e-06,-61.143,0.51576
30073,8.6794,6,0.1,0.00037717,3769.1,0.00037712,3767.6,-0.00012434,-0.19546,-0.00012469,-2.7908,0.54696
30074,8.5876,6,0.05,1.0819e-05,108.12,8.3079e-06,62.423,-1.0912e-11,1.7996e-06,-8.3079e-06,-62.422,0.53647
30075,8.8628,6,0.1,0.00037188,3716.3,0.00037183,3714.7,-0.00012259,-0.18489,-0.00012296,-2.9963,0.56806
30076,8.7711,6,0.05,1.103e-05,110.22,8.4697e-06,63.638,-1.091e-11,1.7386e-06,-8.4696e-06,-63.637,0.55745
30077,9.0463,6,0.1,0.00036659,3663.4,0.00036653,3661.7,-0.00012083,-0.17358,-0.00012123,-3.205,0.58942
30078,8.9546,6,0.05,1.1229e-05,112.21,8.6221e-06,64.783,-1.2734e-11,2.2326e-06,-8.6221e-06,-64.783,0.57868
30079,9.2298,6,0.1,0.0003613,3610.5,0.00036124,3608.7,-0.00011907,-0.16188,-0.00011951,-3.4148,0.61101
30080,9.1381,6,0.05,1.1414e-05,114.06,8.7648e-06,65.855,-1.0913e-11,1.9319e-06,-8.7648e-06,-65.855,0.60015
30081,9.4133,6,0.1,0.00035602,3557.7,0.00035595,3555.8,-0.00011732,-0.15004,-0.00011778,-3.6238,0.63285
30082,9.3215,6,0.05,1.1587e-05,115.79,8.8975e-06,66.852,-1.0915e-11,1.8978e-06,-8.8974e-06,-66.852,0.62187
30083,9.5968,6,0.1,0.00035075,3505,0.00035068,3503.1,-0.00011557,-0.13827,-0.00011606,-3.831,0.65493
30084,9.505,6,0.05,1.1747e-05,117.39,9.02e-06,67.773,-1.0915e-11,2.1058e-06,-9.02e-06,-67.773,0.64383
30085,9.7802,6,0.1,0.00034549,3452.5,0.00034542,3450.4,-0.00011382,-0.12672,-0.00011434,-4.0351,0.67725
30086,9.6885,6,0.05,1.1893e-05,118.85,9.1326e-06,68.619,-1.2732e-11,2.1632e-06,-9.1326e-06,-68.619,0.66603
30087,9.9637,6,0.1,0.00034025,3400.2,0.00034018,3398,-0.00011208,-0.11549,-0.00011263,-4.2354,0.6998
30088,9.872,6,0.05,1.2027e-05,120.19,9.2355e-06,69.392,-1.2731e-11,2.2089e-06,-9.2354e-06,-69.391,0.68846
30089,10.147,6,0.1,0.00033503,3348,0.00033495,3345.7,-0.00011035,-0.10467,-0.00011092,-4.4314,0.72257
30090,10.055,6,0.05,1.2149e-05,121.4,9.3288e-06,70.093,-1.0914e-11,2.2785e-06,-9.3288e-06,-70.093,0.71113
30091,10.331,6,0.1,0.00032983,3296,0.00032975,3293.7,-0.00010862,-0.094286,-0.00010923,-4.6228,0.74558
30092,10.239,6,0.05,1.2259e-05,122.5,9.4131e-06,70.726,-1.0914e-11,2.4361e-06,-9.4131e-06,-70.726,0.73402
30093,10.514,6,0.1,0.00032465,3244.3,0.00032457,3241.8,-0.0001069,-0.084389,-0.00010753,-4.8093,0.7688
30094,10.422,6,0.05,1.2357e-05,123.48,9.4886e-06,71.294,-1.0914e-11,2.5052e-06,-9.4886e-06,-71.294,0.75713
30095,10.698,6,0.1,0.00031949,3192.7,0.00031941,3190.2,-0.00010519,-0.075012,-0.00010585,-4.9909,0.79224
30096,10.606,6,0.05,1.2445e-05,124.36,9.5559e-06,71.799,-9.0948e-12,2.6761e-06,-9.5558e-06,-71.799,0.78046
30097,10.881,6,0.1,0.00031436,3141.4,0.00031427,3138.8,-0.00010349,-0.066161,-0.00010417,-5.1676,0.8159
30098,10.789,6,0.05,1.2522e-05,125.13,9.6152e-06,72.245,-1.0914e-11,2.6831e-06,-9.6152e-06,-72.245,0.80401
30099,11.065,6,0.1,0.00030924,3090.3,0.00030915,3087.6,-0.00010179,-0.057807,-0.00010249,-5.3395,0.83976
30100,10.973,6,0.05,1.2589e-05,125.81,9.6672e-06,72.636,-1.0914e-11,2.7425e-06,-9.6672e-06,-72.635,0.82778
30101,11.248,6,0.1,0.00030415,3039.4,0.00030406,3036.6,-0.0001001,-0.049929,-0.00010083,-5.5067,0.86384
30102,11.156,6,0.05,1.2648e-05,126.39,9.7121e-06,72.973,-1.0914e-11,2.6827e-06,-9.7121e-06,-72.973,0.85175
30103,11.432,6,0.1,0.00029908,2988.8,0.00029899,2985.9,-9.842e-05,-0.04255,-9.9169e-05,-5.6694,0.88812
30104,11.34,6,0.05,1.2698e-05,126.89,9.7505e-06,73.262,-1.0914e-11,3.0447e-06,-9.7505e-06,-73.261,0.87593
30105,11.615,6,0.1,0.00029404,2938.4,0.00029394,2935.4,-9.6747e-05,-0.035636,-9.7518e-05,-5.828,0.9126
30106,11.523,6,0.05,1.274e-05,127.31,9.7827e-06,73.503,-9.0949e-12,3.3381e-06,-9.7827e-06,-73.503,0.90031
30107,11.799,6,0.1,0.00028902,2888.2,0.00028891,2885.2,-9.5081e-05,-0.029145,-9.5874e-05,-5.9826,0.93728
30108,11.707,6,0.05,1.2774e-05,127.65,9.8091e-06,73.702,-1.0914e-11,2.6228e-06,-9.8091e-06,-73.701,0.92489
30109,11.982,6,0.1,0.00028402,2838.2,0.00028391,2835.1,-9.3423e-05,-0.023073,-9.4236e-05,-6.1336,0.96215
30110,11.89,6,0.05,1.2802e-05,127.93,9.83e-06,73.859,-7.2759e-12,3.3976e-06,-9.83e-06,-73.859,0.94966
30111,12.165,6,0.1,0.00027904,2788.5,0.00027893,2785.3,-9.1773e-05,-0.017381,-9.2606e-05,-6.2812,0.98721
30112,12.074,6,0.05,1.2822e-05,128.13,9.8459e-06,73.978,-9.0949e-12,2.8015e-06,-9.8459e-06,-73.978,0.97463
30113,12.349,6,0.1,0.00027408,2738.9,0.00027397,2735.7,-9.013e-05,-0.012047,-9.0983e-05,-6.4258,1.0125
30114,12.257,6,0.05,1.2837e-05,128.28,9.857e-06,74.062,-9.0949e-12,3.3393e-06,-9.857e-06,-74.062,0.99979
30115,12.532,6,0.1,0.00026915,2689.6,0.00026904,2686.3,-8.8494e-05,-0.0070655,-8.9367e-05,-6.5676,1.0379
30116,12.441,6,0.05,1.2845e-05,128.37,9.8637e-06,74.112,-7.2758e-12,3.8147e-06,-9.8637e-06,-74.112,1.0251
30117,12.716,6,0.1,0.00026424,2640.5,0.00026412,2637.2,-8.6866e-05,-0.002411,-8.7758e-05,-6.7071,1.0635
30118,12.624,6,0.05,1.2849e-05,128.4,9.8662e-06,74.131,-9.0949e-12,3.6359e-06,-9.8662e-06,-74.131,1.0507
30119,12.899,6,0.1,0.00025935,2591.7,0.00025923,2588.2,-8.5245e-05,0.0019612,-8.6156e-05,-6.8445,1.0893
30120,12.808,6,0.05,1.2847e-05,128.38,9.8648e-06,74.12,-9.0949e-12,3.5167e-06,-9.8648e-06,-74.12,1.0764
30121,13.083,6,0.1,0.00025448,2543,0.00025436,2539.5,-8.3631e-05,0.0060831,-8.4561e-05,-6.98,1.1153
30122,12.991,6,0.05,1.284e-05,128.31,9.8598e-06,74.082,-9.0949e-12,3.2779e-06,-9.8597e-06,-74.082,1.1022
30123,13.266,6,0.1,0.00024963,2494.6,0.00024951,2491,-8.2025e-05,0.0099436,-8.2973e-05,-7.1141,1.1414
30124,13.175,6,0.05,1.2829e-05,128.2,9.8513e-06,74.019,-7.276e-12,3.814e-06,-9.8512e-06,-74.018,1.1283
30125,13.45,6,0.1,0.00024481,2446.4,0.00024468,2442.7,-8.0425e-05,0.013579,-8.1392e-05,-7.247,1.1677
30126,13.358,6,0.05,1.2814e-05,128.05,9.8395e-06,73.93,-7.2761e-12,3.9925e-06,-9.8395e-06,-73.93,1.1545
30127,13.633,6,0.1,0.00024,2398.4,0.00023988,2394.7,-7.8833e-05,0.017025,-7.9818e-05,-7.3789,1.1942
30128,13.542,6,0.05,1.2795e-05,127.86,9.8247e-06,73.819,-7.276e-12,4.7102e-06,-9.8247e-06,-73.819,1.1809
30129,13.817,6,0.1,0.00023522,2350.6,0.00023509,2346.8,-7.7248e-05,0.020283,-7.825e-05,-7.5103,1.2208
30130,13.725,6,0.05,1.2772e-05,127.63,9.8071e-06,73.687,-7.276e-12,4.1111e-06,-9.8071e-06,-73.686,1.2074
30131,14,6,0.1,0.00023046,2303,0.00023033,2299.2,-7.567e-05,0.023389,-7.669e-05,-7.6413,1.2476
30132,13.909,6,0.05,1.2745e-05,127.36,9.7867e-06,73.534,-7.2759e-12,3.8147e-06,-9.7867e-06,-73.533,1.2341
30133,14.184,6,0.1,0.00022571,2255.6,0.00022558,2251.7,-7.4098e-05,0.02635,-7.5136e-05,-7.7722,1.2745
30134,14.092,6,0.05,1.2715e-05,127.06,9.7637e-06,73.361,-7.2762e-12,4.828e-06,-9.7637e-06,-73.361,1.261
30135,14.367,6,0.1,0.00022099,2208.4,0.00022086,2204.5,-7.2534e-05,0.02917,-7.359e-05,-7.9034,1.3016
30136,14.276,6,0.05,1.2682e-05,126.73,9.7383e-06,73.17,-7.2759e-12,4.7685e-06,-9.7383e-06,-73.169,1.288
30137,14.551,6,0.1,0.00021629,2161.5,0.00021616,2157.4,-7.0976e-05,0.031896,-7.205e-05,-8.0349,1.3289
30138,14.459,6,0.05,1.2646e-05,126.37,9.7105e-06,72.961,-5.4573e-12,3.4572e-06,-9.7104e-06,-72.96,1.3152
30139,14.734,6,0.1,0.00021162,2114.7,0.00021148,2110.6,-6.9425e-05,0.034539,-7.0517e-05,-8.1672,1.3562
30140,14.642,6,0.05,1.2607e-05,125.98,9.6804e-06,72.735,-5.4573e-12,3.7491e-06,-9.6803e-06,-72.734,1.3425
30141,14.918,6,0.1,0.00020696,2068.1,0.00020681,2064,-6.7881e-05,0.037097,-6.8991e-05,-8.3004,1.3838
30142,14.826,6,0.05,1.2565e-05,125.56,9.6481e-06,72.492,-5.4573e-12,5.0003e-06,-9.648e-06,-72.492,1.37
30143,15.101,6,0.1,0.00020232,2021.8,0.00020217,2017.6,-6.6343e-05,0.039586,-6.7471e-05,-8.4347,1.4114
30144,15.009,6,0.05,1.252e-05,125.11,9.6136e-06,72.233,-7.2759e-12,5.361e-06,-9.6136e-06,-72.233,1.3976
30145,15.285,6,0.1,0.0001977,1975.6,0.00019755,1971.4,-6.4812e-05,0.042035,-6.5959e-05,-8.5704,1.4392
30146,15.193,6,0.05,1.2472e-05,124.64,9.5771e-06,71.959,-5.4565e-12,4.9512e-06,-9.5771e-06,-71.958,1.4253
30147,15.468,6,0.1,0.0001931,1929.7,0.00019295,1925.3,-6.3288e-05,0.044466,-6.4453e-05,-8.7077,1.4672
30148,15.376,6,0.05,1.2422e-05,124.13,9.5385e-06,71.669,-3.638e-12,5.0707e-06,-9.5385e-06,-71.668,1.4532
30149,15.652,6,0.1,0.00018852,1883.9,0.00018837,1879.5,-6.177e-05,0.046881,-6.2954e-05,-8.8468,1.4952
30150,15.56,6,0.05,1.2369e-05,123.61,9.4979e-06,71.363,-5.4569e-12,5.3093e-06,-9.4979e-06,-71.363,1.4811
30151,15.835,6,0.1,0.00018397,1838.4,0.00018381,1833.9,-6.0259e-05,0.049306,-6.1462e-05,-8.9879,1.5234
30152,15.743,6,0.05,1.2314e-05,123.05,9.4553e-06,71.043,-5.4575e-12,4.8924e-06,-9.4553e-06,-71.043,1.5093
30153,16.019,6,0.1,0.00017943,1793,0.00017927,1788.5,-5.8754e-05,0.051748,-5.9976e-05,-9.1312,1.5517
30154,15.927,6,0.05,1.2255e-05,122.47,9.4106e-06,70.708,-4.5474e-12,5.0071e-06,-9.4106e-06,-70.707,1.5375
30155,16.202,6,0.1,0.00017491,1747.9,0.00017475,1743.3,-5.7256e-05,0.054212,-5.8498e-05,-9.277,1.5801
30156,16.11,6,0.05,1.2195e-05,121.86,9.3639e-06,70.357,-5.4569e-12,4.9525e-06,-9.3639e-06,-70.357,1.5659
30157,16.386,6,0.1,0.00017041,1702.9,0.00017025,1698.2,-5.5764e-05,0.056736,-5.7026e-05,-9.4252,1.6087
30158,16.294,6,0.05,1.2131e-05,121.23,9.3151e-06,69.99,-5.4576e-12,5.4244e-06,-9.3151e-06,-69.99,1.5944
30159,16.569,6,0.1,0.00016593,1658.2,0.00016577,1653.4,-5.4278e-05,0.059332,-5.556e-05,-9.5762,1.6373
30160,16.477,6,0.05,1.2065e-05,120.56,9.2643e-06,69.608,-5.4576e-12,4.465e-06,-9.2642e-06,-69.608,1.623
30161,16.753,6,0.1,0.00016147,1613.6,0.00016131,1608.8,-5.2798e-05,0.062,-5.4102e-05,-9.7301,1.6661
30162,16.661,6,0.05,1.1996e-05,119.87,9.2112e-06,69.21,-4.5474e-12,6.4377e-06,-9.2112e-06,-69.209,1.6517
30163,16.936,6,0.1,0.00015703,1569.3,0.00015686,1564.3,-5.1325e-05,0.064761,-5.265e-05,-9.8871,1.695
30164,16.844,6,0.05,1.1924e-05,119.15,9.1559e-06,68.794,-4.5467e-12,4.3515e-06,-9.1559e-06,-68.794,1.6805
30165,17.119,6,0.1,0.00015261,1525.1,0.00015244,1520.1,-4.9858e-05,0.067642,-5.1204e-05,-10.047,1.724
30166,17.028,6,0.05,1.1849e-05,118.41,9.0984e-06,68.362,-3.6379e-12,6.6761e-06,-9.0983e-06,-68.361,1.7095
30167,17.303,6,0.1,0.00014821,1481.1,0.00014804,1476,-4.8397e-05,0.070664,-4.9766e-05,-10.211,1.7531
30168,17.211,6,0.05,1.1771e-05,117.62,9.0384e-06,67.911,-4.5474e-12,5.186e-06,-9.0383e-06,-67.911,1.7385
30169,17.486,6,0.1,0.00014383,1437.3,0.00014365,1432.1,-4.6942e-05,0.073836,-4.8333e-05,-10.377,1.7823
30170,17.395,6,0.05,1.1689e-05,116.81,8.9758e-06,67.441,-4.5465e-12,5.9086e-06,-8.9758e-06,-67.441,1.7676
30171,17.67,6,0.1,0.00013947,1393.7,0.00013928,1388.4,-4.5494e-05,0.077188,-4.6908e-05,-10.548,1.8115
30172,17.578,6,0.05,1.1604e-05,115.96,8.9107e-06,66.951,-3.637e-12,5.1265e-06,-8.9106e-06,-66.951,1.7969
30173,17.853,6,0.1,0.00013512,1350.3,0.00013494,1344.9,-4.4051e-05,0.080735,-4.5489e-05,-10.722,1.8409
30174,17.762,6,0.05,1.1516e-05,115.08,8.8427e-06,66.44,-3.6379e-12,6.6247e-06,-8.8427e-06,-66.44,1.8262
30175,18.037,6,0.1,0.00013079,1307,0.00013061,1301.6,-4.2614e-05,0.08449,-4.4076e-05,-10.899,1.8704
30176,17.945,6,0.05,1.1423e-05,114.15,8.7717e-06,65.907,-3.6369e-12,6.7529e-06,-8.7717e-06,-65.907,1.8556
30177,18.22,6,0.1,0.00012649,1264,0.0001263,1258.5,-4.1183e-05,0.088495,-4.267e-05,-11.08,1.8999
30178,18.129,6,0.05,1.1327e-05,113.19,8.6976e-06,65.351,-3.6358e-12,6.5063e-06,-8.6976e-06,-65.351,1.8851
30179,18.404,6,0.1,0.0001222,1221.1,0.000122,1215.5,-3.9758e-05,0.092771,-4.127e-05,-11.265,1.9295
30180,18.312,6,0.05,1.1226e-05,112.18,8.6202e-06,64.769,-3.6368e-12,5.3746e-06,-8.6202e-06,-64.769,1.9147
30181,18.587,6,0.1,0.00011793,1178.4,0.00011773,1172.7,-3.8339e-05,0.097335,-3.9876e-05,-11.453,1.9593
30182,18.496,6,0.05,1.1121e-05,111.13,8.5392e-06,64.16,-2.7284e-12,5.365e-06,-8.5392e-06,-64.16,1.9444
30183,18.771,6,0.1,0.00011367,1135.9,0.00011347,1130.1,-3.6925e-05,0.10222,-3.8488e-05,-11.645,1.9891
30184,18.679,6,0.05,1.101e-05,110.02,8.4544e-06,63.523,-1.8189e-12,1.5379e-05,-8.4544e-06,-63.523,1.9741
30185,18.954,6,0.1,0.00010944,1093.6,0.00010923,1087.7,-3.5517e-05,0.10746,-3.7107e-05,-11.84,2.0189
30186,18.863,6,0.05,1.0894e-05,108.87,8.3655e-06,62.855,-1.8176e-12,6.3186e-06,-8.3655e-06,-62.855,2.004
30187,19.138,6,0.1,0.00010522,1051.4,0.00010501,1045.4,-3.4114e-05,0.11309,-3.5731e-05,-12.038,2.0489
30188,19.046,6,0.05,1.0773e-05,107.65,8.2722e-06,62.154,-3.6393e-12,-2.7532e-06,-8.2722e-06,-62.154,2.0339
30189,19.321,6,0.1,0.00010102,1009.5,0.0001008,1003.3,-3.2717e-05,0.11914,-3.4362e-05,-12.239,2.0789
30190,19.229,6,0.05,1.0645e-05,106.38,8.1742e-06,61.418,-2.7284e-12,1.0253e-05,-8.1742e-06,-61.418,2.0638
30191,19.505,6,0.1,9.6831e-05,967.64,9.6615e-05,961.42,-3.1325e-05,0.12567,-3.2998e-05,-12.443,2.109
30192,19.413,6,0.05,1.0511e-05,105.04,8.0711e-06,60.643,-1.8172e-12,5.856e-06,-8.0711e-06,-60.643,2.0939
30193,19.688,6,0.1,9.2663e-05,925.99,9.2443e-05,919.66,-2.9939e-05,0.1327,-3.164e-05,-12.649,2.1391
30194,19.596,6,0.05,1.037e-05,103.62,7.9626e-06,59.828,-1.8136e-12,7.5258e-06,-7.9626e-06,-59.828,2.124
30195,19.872,6,0.1,8.8511e-05,884.5,8.8288e-05,878.07,-2.8558e-05,0.14028,-3.0288e-05,-12.856,2.1693
30196,19.78,6,0.05,1.0221e-05,102.14,7.8482e-06,58.968,-9.0755e-13,6.1559e-06,-7.8482e-06,-58.968,2.1542
30197,20.055,6,0.1,8.4376e-05,843.17,8.4148e-05,836.64,-2.7182e-05,0.14848,-2.894e-05,-13.065,2.1996
30198,19.963,6,0.05,1.0063e-05,100.56,7.7275e-06,58.061,-9.0937e-13,8.0477e-06,-7.7275e-06,-58.061,2.1844
30199,20.239,6,0.1,8.0256e-05,802.01,8.0024e-05,795.36,-2.5811e-05,0.15735,-2.7599e-05,-13.275,2.2299
30200,20.147,6,0.05,9.8972e-06,98.904,7.5999e-06,57.102,-9.0506e-13,8.5192e-06,-7.5998e-06,-57.102,2.2147
30201,20.422,6,0.1,7.6152e-05,761,7.5916e-05,754.25,-2.4445e-05,0.16695,-2.6262e-05,-13.484,2.2602
30202,20.33,6,0.05,9.7214e-06,97.147,7.4648e-06,56.088,7.1112e-15,5.9407e-06,-7.4648e-06,-56.088,2.245
30203,20.606,6,0.1,7.2064e-05,720.14,7.1824e-05,713.28,-2.3085e-05,0.17735,-2.493e-05,-13.691,2.2907
30204,20.514,6,0.05,9.5351e-06,95.285,7.3218e-06,55.013,-9.0935e-13,7.272e-06,-7.3218e-06,-55.013,2.2754
30205,20.789,6,0.1,6.799e-05,679.43,6.7746e-05,672.47,-2.1729e-05,0.18864,-2.3604e-05,-13.896,2.3211
30206,20.697,6,0.05,9.3374e-06,93.31,7.17e-06,53.873,-2.6146e-15,7.362e-06,-7.17e-06,-53.873,2.3059
30207,20.973,6,0.1,6.3932e-05,638.88,6.3684e-05,631.81,-2.0379e-05,0.20093,-2.2282e-05,-14.098,2.3516
30208,20.881,6,0.05,9.1275e-06,91.212,7.0088e-06,52.661,3.0701e-15,6.5867e-06,-7.0088e-06,-52.661,2.3364
30209,21.156,6,0.1,5.9889e-05,598.47,5.9636e-05,591.3,-1.9033e-05,0.21432,-2.0964e-05,-14.293,2.3822
30210,21.064,6,0.05,8.9041e-06,88.979,6.8372e-06,51.372,4.515e-13,9.897e-06,-6.8372e-06,-51.372,2.3669
30211,21.34,6,0.1,5.5861e-05,558.22,5.5604e-05,550.95,-1.7693e-05,0.22895,-1.9651e-05,-14.482,2.4128
30212,21.248,6,0.05,8.666e-06,86.6,6.6544e-06,49.999,9.0944e-13,8.9103e-06,-6.6544e-06,-49.999,2.3975
30213,21.523,6,0.1,5.1847e-05,518.12,5.1586e-05,510.75,-1.6358e-05,0.24498,-1.8341e-05,-14.66,2.4434
30214,21.431,6,0.05,8.412e-06,84.062,6.4594e-06,48.533,9.1725e-13,5.8993e-06,-6.4594e-06,-48.533,2.4281
30215,21.706,6,0.1,4.785e-05,478.17,4.7584e-05,470.71,-1.5028e-05,0.26261,-1.7036e-05,-14.826,2.4741
30216,21.615,6,0.05,8.1404e-06,81.348,6.2508e-06,46.966,9.0941e-13,1.0072e-05,-6.2508e-06,-46.966,2.4587
30217,21.89,6,0.1,4.3868e-05,438.38,4.3598e-05,430.83,-1.3705e-05,0.28207,-1.5735e-05,-14.976,2.5048
30218,21.798,6,0.05,7.8495e-06,78.441,6.0274e-06,45.288,9.0443e-13,6.1566e-06,-6.0274e-06,-45.288,2.4894
30219,22.073,6,0.1,3.9904e-05,398.76,3.963e-05,391.14,-1.2387e-05,0.30369,-1.4438e-05,-15.106,2.5355
30220,21.982,6,0.05,7.5372e-06,75.32,5.7876e-06,43.486,4.5494e-13,9.9628e-06,-5.7876e-06,-43.486,2.5201
30221,22.257,6,0.1,3.5957e-05,359.33,3.5679e-05,351.63,-1.1077e-05,0.32787,-1.3145e-05,-15.21,2.5662
30222,22.165,6,0.05,7.2011e-06,71.961,5.5296e-06,41.547,6.8813e-13,6.9643e-06,-5.5296e-06,-41.547,2.5508
30223,22.44,6,0.1,3.2032e-05,320.09,3.1749e-05,312.35,-9.7743e-06,0.35513,-1.1855e-05,-15.282,2.597
30224,22.349,6,0.05,6.8383e-06,68.336,5.251e-06,39.454,1.3674e-12,1.1561e-05,-5.251e-06,-39.454,2.5816
30225,22.624,6,0.1,2.8129e-05,281.1,2.7842e-05,273.3,-8.481e-06,0.38625,-1.057e-05,-15.312,2.6278
30226,22.532,6,0.05,6.4452e-06,64.408,4.9491e-06,37.186,1.3713e-12,7.692e-06,-4.9491e-06,-37.186,2.6124
30227,22.807,6,0.1,2.4254e-05,242.37,2.3963e-05,234.56,-7.1987e-06,0.42219,-9.2896e-06,-15.288,2.6586
30228,22.716,6,0.05,6.0174e-06,60.132,4.6206e-06,34.717,1.1452e-12,8.1782e-06,-4.6206e-06,-34.718,2.6432
30229,22.991,6,0.1,2.0413e-05,203.99,2.0117e-05,196.18,-5.9301e-06,0.46486,-8.0138e-06,-15.191,2.6894
30230,22.899,6,0.05,5.549e-06,55.452,4.261e-06,32.015,1.5837e-12,8.1921e-06,-4.261e-06,-32.015,2.674
30231,23.174,6,0.1,1.6616e-05,166.05,1.6315e-05,158.26,-4.6796e-06,0.51519,-6.7436e-06,-14.994,2.7202
30232,23.083,6,0.05,5.0322e-06,50.287,3.8641e-06,29.033,1.1274e-12,1.0203e-05,-3.8641e-06,-29.033,2.7048
30233,23.358,6,0.1,1.2878e-05,128.69,1.2571e-05,120.99,-3.4537e-06,0.58448,-5.4788e-06,-14.632,2.7511
30234,23.266,6,0.05,4.4552e-06,44.522,3.4211e-06,25.705,1.1597e-12,1.0968e-05,-3.4211e-06,-25.705,2.7356
30235,23.541,6,0.1,9.2297e-06,92.233,8.9134e-06,84.656,-2.2651e-06,0.6648,-4.2235e-06,-14.05,2.7819
30236,23.45,6,0.05,3.8002e-06,37.976,2.9181e-06,21.925,6.5913e-13,8.756e-06,-2.9181e-06,-21.925,2.7665
30237,23.725,6,0.1,5.6994e-06,56.955,5.3813e-06,49.93,-1.1464e-06,0.88337,-2.9326e-06,-12.537,2.8128
30238,23.633,6,0.05,3.0326e-06,30.305,2.3286e-06,17.497,9.301e-13,1.1069e-05,-2.3287e-06,-17.497,2.7973
30239,23.908,6,0.1,2.3895e-06,23.879,2.1156e-06,18.519,-2.6174e-07,0.65676,-1.4941e-06,-8.6027,2.8436
30240,23.817,6,0.05,2.0433e-06,20.419,1.569e-06,11.789,7.3201e-13,1.1924e-05,-1.569e-06,-11.789,2.8282
30241,24,5.9091,0.1,2.3216e-06,23.2,1.3363e-06,5.8544,2.3975e-07,-2.3844,-2.15e-06,-20.34,2.8591
30242,24,6,0.05,7.8533e-07,7.8478,6.0303e-07,4.5309,3.9119e-12,3.8091e-05,-6.0303e-07,-4.531,2.859
30243,24,5.7273,0.1,5.3329e-06,53.292,2.425e-06,6.8914,1.216e-06,-2.193,-5.1945e-06,-50.359,2.8593
30244,24,5.8182,0.05,6.991e-07,6.9862,5.3683e-07,4.0335,1.4976e-12,1.6884e-05,-5.3683e-07,-4.0335,2.8592
30245,24,5.5455,0.1,7.7624e-06,77.571,3.2575e-06,7.143,2.0025e-06,-2.2863,-7.6367e-06,-74.711,2.8594
30246,24,5.6364,0.05,8.0178e-07,8.0123,6.1567e-07,4.6259,8.7662e-13,1.2386e-05,-6.1567e-07,-4.6259,2.8593
30247,24,5.3636,0.1,9.6963e-06,96.896,3.9106e-06,7.2241,2.6293e-06,-2.4032,-9.5783e-06,-94.126,2.8596
30248,24,5.4545,0.05,8.9074e-07,8.9012,6.8397e-07,5.1391,5.5317e-13,7.8733e-06,-6.8397e-07,-5.1391,2.8595
30249,24,5.1818,0.1,1.1324e-05,113.16,4.4519e-06,7.233,3.1647e-06,-2.4383,-1.1212e-05,-110.46,2.8597
30250,24,5.2727,0.05,9.3887e-07,9.3822,7.2094e-07,5.4168,2.0034e-15,4.6419e-06,-7.2094e-07,-5.4168,2.8596
30251,24,5,0.1,1.272e-05,127.11,4.9124e-06,7.2024,3.6254e-06,-2.468,-1.2611e-05,-124.46,2.8598
30252,24,5.0909,0.05,9.607e-07,9.6004,7.377e-07,5.5428,-5.0281e-14,1.5092e-06,-7.377e-07,-5.5428,2.8597
30253,24,4.8182,0.1,1.3926e-05,139.16,5.3085e-06,7.1573,4.0249e-06,-2.4878,-1.3821e-05,-136.58,2.8599
30254,24,4.9091,0.05,9.6435e-07,9.6368,7.405e-07,5.5638,1.2124e-13,3.9754e-07,-7.405e-07,-5.5638,2.8599
30255,24,4.6364,0.1,1.4971e-05,149.6,5.6504e-06,7.1059,4.3715e-06,-2.5032,-1.4869e-05,-147.07,2.86
30256,24,4.7273,0.05,9.5529e-07,9.5463,7.3354e-07,5.5115,-1.0049e-13,1.0375e-06,-7.3354e-07,-5.5115,2.86
30257,24,4.4545,0.1,1.5873e-05,158.62,5.9448e-06,7.054,4.6712e-06,-2.5149,-1.5774e-05,-156.13,2.8601
30258,24,4.5455,0.05,9.3754e-07,9.3689,7.1991e-07,5.4091,-8.8391e-14,-6.2873e-07,-7.1991e-07,-5.4091,2.8601
30259,24,4.2727,0.1,1.6645e-05,166.34,6.1966e-06,7.0047,4.9284e-06,-2.5241,-1.6549e-05,-163.89,2.8602
30260,24,4.3636,0.05,9.1421e-07,9.1358,7.02e-07,5.2746,-7.0315e-15,2.8222e-07,-7.02e-07,-5.2746,2.8602
30261,24,4.0909,0.1,1.7299e-05,172.88,6.4093e-06,6.9598,5.1461e-06,-2.5313,-1.7205e-05,-170.47,2.8603
30262,24,4.1818,0.05,8.8786e-07,8.8725,6.8177e-07,5.1225,-7.3632e-13,-6.1032e-06,-6.8177e-07,-5.1225,2.8603
30263,24,3.9091,0.1,1.7842e-05,178.3,6.5856e-06,6.9206,5.3269e-06,-2.5369,-1.7749e-05,-175.92,2.8604
30264,24,4,0.05,8.6067e-07,8.6008,6.6089e-07,4.9657,-4.5291e-13,-2.9028e-07,-6.6089e-07,-4.9657,2.8603
30265,24,3.7273,0.1,1.8279e-05,182.67,6.7276e-06,6.8878,5.4727e-06,-2.5412,-1.8187e-05,-180.31,2.8604
30266,24,3.8182,0.05,8.3458e-07,8.3401,6.4086e-07,4.8152,-4.025e-13,-3.3584e-06,-6.4086e-07,-4.8152,2.8604
30267,24,3.5455,0.1,1.8615e-05,186.03,6.8366e-06,6.8619,5.5847e-06,-2.5444,-1.8524e-05,-183.69,2.8605
30268,24,3.6364,0.05,8.1132e-07,8.1076,6.2299e-07,4.6809,-4.8352e-13,-4.2958e-07,-6.2299e-07,-4.6809,2.8604
30269,24,3.3636,0.1,1.8853e-05,188.4,6.9137e-06,6.8432,5.664e-06,-2.5466,-1.8763e-05,-186.08,2.8605
30270,24,3.4545,0.05,7.9238e-07,7.9183,6.0845e-07,4.5716,-6.9186e-14,-7.816e-06,-6.0845e-07,-4.5716,2.8605
30271,24,3.1818,0.1,1.8995e-05,189.82,6.9598e-06,6.8319,5.7114e-06,-2.5479,-1.8905e-05,-187.51,2.8605
30272,24,3.2727,0.05,7.79e-07,7.7846,5.9818e-07,4.4945,-7.7157e-14,-5.5795e-07,-5.9818e-07,-4.4945,2.8605
30273,24,3,0.1,1.9042e-05,190.29,6.9751e-06,6.8282,5.7271e-06,-2.5483,-1.8952e-05,-187.98,2.8605
30274,24,3.0909,0.05,7.7208e-07,7.7154,5.9286e-07,4.4545,4.4173e-13,7.5277e-06,-5.9286e-07,-4.4545,2.8605
30275,24,2.8182,0.1,1.8995e-05,189.82,6.9598e-06,6.8319,5.7114e-06,-2.5479,-1.8905e-05,-187.51,2.8605
30276,24,2.9091,0.05,7.7208e-07,7.7155,5.9286e-07,4.4545,4.6424e-13,3.8898e-06,-5.9286e-07,-4.4545,2.8605
30277,24,2.6364,0.1,1.8853e-05,188.4,6.9137e-06,6.8432,5.664e-06,-2.5466,-1.8763e-05,-186.08,2.8605
30278,24,2.7273,0.05,7.79e-07,7.7846,5.9818e-07,4.4945,6.3266e-14,7.9767e-06,-5.9818e-07,-4.4945,2.8605
30279,24,2.4545,0.1,1.8615e-05,186.03,6.8366e-06,6.8619,5.5847e-06,-2.5444,-1.8524e-05,-183.69,2.8605
30280,24,2.5455,0.05,7.9238e-07,7.9183,6.0845e-07,4.5717,5.2604e-13,4.4673e-06,-6.0845e-07,-4.5716,2.8605
30281,24,2.2727,0.1,1.8279e-05,182.67,6.7276e-06,6.8878,5.4727e-06,-2.5412,-1.8187e-05,-180.31,2.8604
30282,24,2.3636,0.05,8.1132e-07,8.1076,6.2299e-07,4.6809,1.4271e-13,7.9874e-06,-6.2299e-07,-4.6809,2.8604
30283,24,2.0909,0.1,1.7842e-05,178.3,6.5856e-06,6.9206,5.3269e-06,-2.5369,-1.7749e-05,-175.92,2.8604
30284,24,2.1818,0.05,8.3459e-07,8.3401,6.4086e-07,4.8152,1.2561e-13,1.4032e-06,-6.4086e-07,-4.8152,2.8604
30285,24,1.9091,0.1,1.7299e-05,172.88,6.4093e-06,6.9598,5.1461e-06,-2.5313,-1.7205e-05,-170.47,2.8603
30286,24,2,0.05,8.6068e-07,8.6009,6.6089e-07,4.9657,8.3926e-13,7.7186e-06,-6.6089e-07,-4.9657,2.8603
30287,24,1.7273,0.1,1.6645e-05,166.34,6.1966e-06,7.0047,4.9284e-06,-2.5241,-1.6549e-05,-163.89,2.8602
30288,24,1.8182,0.05,8.8787e-07,8.8725,6.8177e-07,5.1226,5.3309e-13,7.8953e-06,-6.8177e-07,-5.1226,2.8603
30289,24,1.5455,0.1,1.5873e-05,158.62,5.9448e-06,7.054,4.6712e-06,-2.5149,-1.5774e-05,-156.13,2.8601
30290,24,1.6364,0.05,9.1422e-07,9.1359,7.02e-07,5.2746,8.6146e-13,7.7398e-06,-7.02e-07,-5.2746,2.8602
30291,24,1.3636,0.1,1.4971e-05,149.6,5.6504e-06,7.1059,4.3715e-06,-2.5032,-1.4869e-05,-147.07,2.86
30292,24,1.4545,0.05,9.3754e-07,9.369,7.1992e-07,5.4092,3.4834e-13,4.9381e-06,-7.1992e-07,-5.4092,2.8601
30293,24,1.1818,0.1,1.3926e-05,139.16,5.3086e-06,7.1573,4.0249e-06,-2.4878,-1.3821e-05,-136.58,2.8599
30294,24,1.2727,0.05,9.5529e-07,9.5463,7.3355e-07,5.5116,6.0541e-13,5.2204e-06,-7.3355e-07,-5.5116,2.86
30295,24,1,0.1,1.272e-05,127.11,4.9124e-06,7.2024,3.6254e-06,-2.468,-1.2611e-05,-124.46,2.8598
30296,24,1.0909,0.05,9.6435e-07,9.6369,7.405e-07,5.5639,4.0819e-13,6.0206e-06,-7.405e-07,-5.5639,2.8599
30297,24,0.81818,0.1,1.1324e-05,113.16,4.4519e-06,7.233,3.1647e-06,-2.4383,-1.1212e-05,-110.46,2.8597
30298,24,0.90909,0.05,9.6071e-07,9.6004,7.377e-07,5.5428,6.9513e-13,9.3909e-06,-7.377e-07,-5.5428,2.8597
30299,24,0.63636,0.1,9.6963e-06,96.896,3.9106e-06,7.2241,2.6293e-06,-2.4032,-9.5783e-06,-94.126,2.8596
30300,24,0.72727,0.05,9.3887e-07,9.3823,7.2094e-07,5.4169,5.7532e-13,8.1404e-06,-7.2094e-07,-5.4169,2.8596
30301,24,0.45455,0.1,7.7624e-06,77.571,3.2575e-06,7.143,2.0025e-06,-2.2863,-7.6367e-06,-74.712,2.8594
30302,24,0.54545,0.05,8.9074e-07,8.9012,6.8398e-07,5.1391,7.6688e-13,8.3121e-06,-6.8398e-07,-5.1391,2.8595
30303,24,0.27273,0.1,5.3329e-06,53.292,2.425e-06,6.8914,1.216e-06,-2.193,-5.1945e-06,-50.359,2.8593
30304,24,0.36364,0.05,8.0179e-07,8.0123,6.1567e-07,4.6259,1.0467e-13,5.0708e-06,-6.1567e-07,-4.6259,2.8593
30305,24,0.090909,0.1,2.3216e-06,23.2,1.3363e-06,5.8544,2.3975e-07,-2.3845,-2.15e-06,-20.34,2.8591
30306,24,0.18182,0.05,6.991e-07,6.9862,5.3683e-07,4.0335,7.6132e-13,5.8976e-06,-5.3683e-07,-4.0335,2.8592
30307,2.3842e-15,0.27273,0.1,0.00018887,1887.4,0.00024895,3657.1,4.6801e-06,1821.8,-8.6399e-06,1721.7,0
30308,7.9472e-16,0.090909,0.1,0.00014042,1403.2,0.00014108,1545,-5.3188e-06,445.08,-6.9246e-05,-35.245,0
30309,1.6109e-15,0.18182,0.05,1.4449e-05,144.39,1.1095e-05,83.365,-5.4526e-12,-0.00032627,-1.1095e-05,-83.366,0
30310,3.9736e-15,0.45455,0.1,0.00026701,2668.3,0.00035493,5252.9,3.2727e-06,2610.7,-3.573e-06,2559.3,0
30311,3.2219e-15,0.36364,0.05,9.7951e-06,97.883,7.5214e-06,56.513,-2.936e-11,-0.0004536,-7.5214e-06,-56.513,0
30312,5.563e-15,0.63636,0.1,0.00030884,3086.3,0.00041095,6087.6,2.2818e-06,3017.1,-1.8651e-06,2985.9,0
30313,4.8328e-15,0.54545,0.05,9.0545e-06,90.482,6.9527e-06,52.24,-1.7332e-11,-0.00036966,-6.9527e-06,-52.24,0
30314,7.1525e-15,0.81818,0.1,0.00033583,3356,0.00044679,6617.4,1.4542e-06,3271.3,-1.1693e-06,3251.6,0
30315,6.4438e-15,0.72727,0.05,8.0898e-06,80.842,6.212e-06,46.674,-1.0156e-11,-0.00026403,-6.212e-06,-46.675,0
30316,8.7419e-15,1,0.1,0.0003542,3539.5,0.00047118,6977.9,9.9199e-07,3445.1,-7.9182e-07,3431.7,0
30317,8.0547e-15,0.90909,0.05,6.9469e-06,69.421,5.3343e-06,40.08,-7.3388e-12,-0.00029411,-5.3344e-06,-40.081,0
30318,1.0331e-14,1.1818,0.1,0.00036724,3669.9,0.00048851,7234,7.0252e-07,3568.9,-5.5439e-07,3559.4,0
30319,9.6657e-15,1.0909,0.05,5.8718e-06,58.677,4.5088e-06,33.877,-5.2874e-12,-0.00028316,-4.5088e-06,-33.878,0
30320,1.1921e-14,1.3636,0.1,0.00037666,3764,0.00050101,7419,5.0472e-07,3658.3,-3.9168e-07,3651.6,0
30321,1.1277e-14,1.2727,0.05,4.8918e-06,48.884,3.7563e-06,28.223,-3.5772e-12,-0.00021161,-3.7563e-06,-28.223,0
30322,1.351e-14,1.5455,0.1,0.00038347,3832.1,0.00051007,7552.8,3.6417e-07,3723.1,-2.7492e-07,3718.3,0
30323,1.2888e-14,1.4545,0.05,3.9876e-06,39.848,3.0619e-06,23.006,-2.2869e-12,-0.00020012,-3.062e-06,-23.007,0
30324,1.51e-14,1.7273,0.1,0.00038837,3881,0.00051656,7648.9,2.6143e-07,3769.6,-1.8955e-07,3766.2,0
30325,1.4498e-14,1.6364,0.05,3.1535e-06,31.513,2.4215e-06,18.194,-1.2207e-12,-0.00025264,-2.4215e-06,-18.194,0
30326,1.6689e-14,1.9091,0.1,0.00039182,3915.5,0.00052116,7716.8,1.856e-07,3802.4,-1.2714e-07,3800.1,0
30327,1.6109e-14,1.8182,0.05,2.3911e-06,23.894,1.836e-06,13.795,-3.0381e-13,-0.00018555,-1.8361e-06,-13.796,0
30328,1.8279e-14,2.0909,0.1,0.00039422,3939.5,0.00052433,7763.7,1.2987e-07,3825.1,-8.2117e-08,3823.5,0
30329,1.772e-14,2,0.05,1.7079e-06,17.067,1.3114e-06,9.8534,5.0244e-13,-0.000118,-1.3114e-06,-9.8538,0
30330,1.9868e-14,2.2727,0.1,0.00039583,3955.5,0.00052647,7795.3,8.9521e-08,3840.3,-5.0329e-08,3839.2,0
30331,1.9331e-14,2.1818,0.05,1.1148e-06,11.14,8.5598e-07,6.4314,1.264e-12,-0.00017383,-8.5601e-07,-6.4319,0
30332,2.1457e-14,2.4545,0.1,0.00039687,3965.9,0.00052785,7815.7,6.0967e-08,3850.1,-2.8407e-08,3849.4,0
30333,2.0942e-14,2.3636,0.05,6.2362e-07,6.2319,4.7886e-07,3.5978,2.3299e-12,-0.0001052,-4.7887e-07,-3.5982,0
30334,2.3047e-14,2.6364,0.1,0.0003975,3972.3,0.00052869,7828.2,4.1388e-08,3856.1,-1.3577e-08,3855.7,0
30335,2.2553e-14,2.5455,0.05,2.4564e-07,2.4547,1.8862e-07,1.417,4.3077e-12,-9.043e-05,-1.8863e-07,-1.4174,0
30336,2.4636e-14,2.8182,0.1,0.00039784,3975.7,0.00052914,7834.8,2.8902e-08,3859.2,-3.9474e-09,3859,0
30337,2.4164e-14,2.7273,0.05,2.5681e-08,0.25663,1.9728e-08,0.14818,-1.533e-11,-0.000218,-1.9711e-08,-0.14815,0
30338,2.6226e-14,3,0.1,0.00039795,3976.7,0.00052928,7836.8,2.4023e-08,3860.2,-2.3198e-11,3860,0
30339,2.5775e-14,2.9091,0.05,1.4445e-07,1.4435,1.1092e-07,0.83344,-1.5937e-12,-1.2071e-05,-1.1092e-07,-0.83343,0
30340,2.7815e-14,3.1818,0.1,0.00039784,3975.7,0.00052914,7834.8,2.8902e-08,3859.2,-3.948e-09,3859,0
30341,2.7386e-14,3.0909,0.05,1.4445e-07,1.4436,1.1092e-07,0.83349,1.6078e-12,1.2151e-05,-1.1092e-07,-0.83338,0
30342,2.9405e-14,3.3636,0.1,0.0003975,3972.3,0.00052869,7828.2,4.1389e-08,3856.1,-1.3577e-08,3855.7,0
30343,2.8997e-14,3.2727,0.05,2.5682e-08,0.25664,1.9712e-08,0.14821,1.5645e-11,0.00028443,-1.9729e-08,-0.14813,0
30344,3.0994e-14,3.5455,0.1,0.00039687,3965.9,0.00052785,7815.7,6.0967e-08,3850.1,-2.8408e-08,3849.4,0
30345,3.0608e-14,3.4545,0.05,2.4564e-07,2.4547,1.8863e-07,1.4174,-4.4843e-12,-3.2993e-05,-1.8861e-07,-1.4171,0
30346,3.2583e-14,3.7273,0.1,0.00039583,3955.5,0.00052647,7795.3,8.9522e-08,3840.3,-5.033e-08,3839.2,0
30347,3.2219e-14,3.6364,0.05,6.2362e-07,6.2319,4.7887e-07,3.5981,-2.4892e-12,0.00010398,-4.7885e-07,-3.5979,0
30348,3.4173e-14,3.9091,0.1,0.00039422,3939.5,0.00052433,7763.7,1.2987e-07,3825.1,-8.2117e-08,3823.5,0
30349,3.383e-14,3.8182,0.05,1.1148e-06,11.14,8.56e-07,6.4318,-1.5717e-12,0.0001725,-8.5599e-07,-6.4314,0
30350,3.5762e-14,4.0909,0.1,0.00039182,3915.5,0.00052116,7716.8,1.856e-07,3802.4,-1.2714e-07,3800.1,0
30351,3.5441e-14,4,0.05,1.7079e-06,17.067,1.3114e-06,9.8539,-7.0645e-13,0.0002396,-1.3114e-06,-9.8533,0
30352,3.7352e-14,4.2727,0.1,0.00038837,3881,0.00051656,7648.9,2.6143e-07,3769.6,-1.8955e-07,3766.2,0
30353,3.7052e-14,4.1818,0.05,2.3911e-06,23.894,1.8361e-06,13.796,6.3885e-14,0.00018374,-1.836e-06,-13.795,0
30354,3.8941e-14,4.4545,0.1,0.00038347,3832.1,0.00051007,7552.8,3.6417e-07,3723.1,-2.7492e-07,3718.3,0
30355,3.8663e-14,4.3636,0.05,3.1535e-06,31.513,2.4215e-06,18.194,9.3964e-13,0.0002519,-2.4215e-06,-18.194,0
30356,4.0531e-14,4.6364,0.1,0.00037666,3764,0.00050101,7419,5.0472e-07,3658.3,-3.9168e-07,3651.6,0
30357,4.0274e-14,4.5455,0.05,3.9876e-06,39.848,3.062e-06,23.007,1.9528e-12,0.00025955,-3.0619e-06,-23.006,0
30358,4.212e-14,4.8182,0.1,0.00036724,3669.9,0.00048851,7234,7.0252e-07,3568.9,-5.5439e-07,3559.4,0
30359,4.1885e-14,4.7273,0.05,4.8918e-06,48.884,3.7563e-06,28.223,3.454e-12,0.00020415,-3.7563e-06,-28.223,0
30360,4.371e-14,5,0.1,0.0003542,3539.5,0.00047118,6977.9,9.9199e-07,3445.1,-7.9183e-07,3431.7,0
30361,4.3495e-14,4.9091,0.05,5.8718e-06,58.677,4.5088e-06,33.878,4.6431e-12,0.00022023,-4.5088e-06,-33.877,0
30362,4.5299e-14,5.1818,0.1,0.00033583,3356,0.00044679,6617.4,1.4541e-06,3271.3,-1.1693e-06,3251.6,0
30363,4.5106e-14,5.0909,0.05,6.9469e-06,69.421,5.3344e-06,40.081,6.7925e-12,0.0002355,-5.3343e-06,-40.08,0
30364,4.6888e-14,5.3636,0.1,0.00030884,3086.3,0.00041095,6087.6,2.2818e-06,3017.1,-1.8652e-06,2985.9,0
30365,4.6717e-14,5.2727,0.05,8.0898e-06,80.842,6.212e-06,46.675,9.5581e-12,0.00031619,-6.212e-06,-46.674,0
30366,4.8478e-14,5.5455,0.1,0.00026701,2668.3,0.00035493,5252.9,3.2727e-06,2610.7,-3.573e-06,2559.3,0
30367,4.8328e-14,5.4545,0.05,9.0545e-06,90.482,6.9527e-06,52.24,1.546e-11,0.00036278,-6.9527e-06,-52.24,0
30368,5.0067e-14,5.7273,0.1,0.00018887,1887.4,0.00024895,3657.1,4.6801e-06,1821.8,-8.6399e-06,1721.7,0
30369,4.9939e-14,5.6364,0.05,9.7951e-06,97.883,7.5214e-06,56.513,3.0393e-11,0.0004799,-7.5214e-06,-56.513,0
30370,5.1657e-14,5.9091,0.1,0.00014042,1403.2,0.00014108,1545,-5.3189e-06,445.08,-6.9246e-05,-35.245,0
30371,5.155e-14,5.8182,0.05,1.4449e-05,144.39,1.1095e-05,83.366,7.1935e-12,0.00029485,-1.1095e-05,-83.365,0
30372,23.908,0,0.1,2.3895e-06,23.879,2.1156e-06,18.519,-2.6174e-07,0.65676,-1.4941e-06,-8.6027,2.8436
30373,24,0,0.05,7.8533e-07,7.8478,6.0303e-07,4.5309,2.9723e-12,2.5273e-05,-6.0303e-07,-4.531,2.859
30374,23.725,0,0.1,5.6994e-06,56.955,5.3813e-06,49.93,-1.1464e-06,0.88337,-2.9326e-06,-12.537,2.8128
30375,23.817,0,0.05,2.0433e-06,20.419,1.569e-06,11.789,8.0292e-13,6.6248e-06,-1.569e-06,-11.789,2.8282
30376,23.541,0,0.1,9.2297e-06,92.233,8.9134e-06,84.656,-2.2651e-06,0.6648,-4.2235e-06,-14.05,2.7819
30377,23.633,0,0.05,3.0326e-06,30.305,2.3287e-06,17.497,3.975e-13,1.1744e-05,-2.3287e-06,-17.497,2.7973
30378,23.358,0,0.1,1.2878e-05,128.69,1.2571e-05,120.99,-3.4537e-06,0.58448,-5.4788e-06,-14.632,2.7511
30379,23.45,0,0.05,3.8002e-06,37.976,2.9181e-06,21.925,3.328e-13,9.7393e-06,-2.9181e-06,-21.925,2.7665
30380,23.174,0,0.1,1.6616e-05,166.04,1.6315e-05,158.26,-4.6796e-06,0.51519,-6.7436e-06,-14.994,2.7202
30381,23.266,0,0.05,4.4552e-06,44.522,3.4211e-06,25.705,3.7886e-14,9.5017e-06,-3.4211e-06,-25.705,2.7356
30382,22.991,0,0.1,2.0413e-05,203.99,2.0117e-05,196.18,-5.9301e-06,0.46486,-8.0138e-06,-15.192,2.6894
30383,23.083,0,0.05,5.0322e-06,50.287,3.8641e-06,29.033,-4.2433e-13,9.4286e-06,-3.8641e-06,-29.033,2.7048
30384,22.807,0,0.1,2.4254e-05,242.37,2.3963e-05,234.56,-7.1986e-06,0.42219,-9.2896e-06,-15.288,2.6586
30385,22.899,0,0.05,5.549e-06,55.452,4.261e-06,32.015,3.308e-13,1.0434e-05,-4.261e-06,-32.015,2.674
30386,22.624,0,0.1,2.8129e-05,281.1,2.7842e-05,273.3,-8.481e-06,0.38625,-1.057e-05,-15.312,2.6278
30387,22.716,0,0.05,6.0174e-06,60.133,4.6206e-06,34.718,4.5006e-13,7.4316e-06,-4.6206e-06,-34.718,2.6432
30388,22.44,0,0.1,3.2032e-05,320.09,3.1749e-05,312.34,-9.7743e-06,0.35513,-1.1855e-05,-15.282,2.597
30389,22.532,0,0.05,6.4452e-06,64.408,4.9491e-06,37.186,8.5185e-16,1.082e-05,-4.9491e-06,-37.186,2.6124
30390,22.257,0,0.1,3.5957e-05,359.33,3.5679e-05,351.63,-1.1077e-05,0.32787,-1.3145e-05,-15.21,2.5662
30391,22.349,0,0.05,6.8383e-06,68.336,5.251e-06,39.454,2.1379e-13,8.1989e-06,-5.251e-06,-39.454,2.5816
30392,22.073,0,0.1,3.9904e-05,398.76,3.963e-05,391.14,-1.2387e-05,0.30369,-1.4438e-05,-15.106,2.5355
30393,22.165,0,0.05,7.2011e-06,71.961,5.5296e-06,41.547,6.636e-13,8.7509e-06,-5.5296e-06,-41.547,2.5508
30394,21.89,0,0.1,4.3868e-05,438.38,4.3598e-05,430.83,-1.3705e-05,0.28207,-1.5735e-05,-14.976,2.5048
30395,21.982,0,0.05,7.5372e-06,75.32,5.7876e-06,43.486,9.0923e-13,5.5572e-06,-5.7876e-06,-43.486,2.5201
30396,21.706,0,0.1,4.785e-05,478.17,4.7584e-05,470.71,-1.5028e-05,0.26261,-1.7036e-05,-14.826,2.4741
30397,21.798,0,0.05,7.8495e-06,78.441,6.0275e-06,45.288,2.3727e-13,8.1478e-06,-6.0275e-06,-45.288,2.4894
30398,21.523,0,0.1,5.1847e-05,518.12,5.1586e-05,510.75,-1.6358e-05,0.24498,-1.8341e-05,-14.66,2.4434
30399,21.615,0,0.05,8.1404e-06,81.348,6.2508e-06,46.966,4.5479e-13,7.5339e-06,-6.2508e-06,-46.966,2.4587
30400,21.34,0,0.1,5.5861e-05,558.22,5.5604e-05,550.95,-1.7693e-05,0.22895,-1.9651e-05,-14.482,2.4128
30401,21.431,0,0.05,8.412e-06,84.062,6.4594e-06,48.533,4.5866e-13,7.5725e-06,-6.4594e-06,-48.533,2.4281
30402,21.156,0,0.1,5.9889e-05,598.47,5.9636e-05,591.3,-1.9033e-05,0.21433,-2.0964e-05,-14.294,2.3822
30403,21.248,0,0.05,8.666e-06,86.601,6.6544e-06,49.999,9.1302e-13,8.5828e-06,-6.6544e-06,-49.999,2.3975
30404,20.973,0,0.1,6.3932e-05,638.88,6.3684e-05,631.81,-2.0378e-05,0.20093,-2.2282e-05,-14.098,2.3516
30405,21.064,0,0.05,8.9041e-06,88.979,6.8372e-06,51.372,9.0609e-13,7.3898e-06,-6.8372e-06,-51.372,2.3669
30406,20.789,0,0.1,6.799e-05,679.43,6.7746e-05,672.47,-2.1729e-05,0.18864,-2.3604e-05,-13.896,2.3211
30407,20.881,0,0.05,9.1275e-06,91.212,7.0088e-06,52.661,1.3581e-12,5.5762e-06,-7.0088e-06,-52.661,2.3364
30408,20.606,0,0.1,7.2064e-05,720.14,7.1824e-05,713.28,-2.3085e-05,0.17735,-2.493e-05,-13.691,2.2907
30409,20.697,0,0.05,9.3375e-06,93.31,7.17e-06,53.873,1.8215e-12,7.4132e-06,-7.17e-06,-53.873,2.3059
30410,20.422,0,0.1,7.6152e-05,761,7.5916e-05,754.25,-2.4445e-05,0.16695,-2.6262e-05,-13.484,2.2602
30411,20.514,0,0.05,9.5351e-06,95.285,7.3218e-06,55.013,1.8239e-12,7.3727e-06,-7.3218e-06,-55.013,2.2754
30412,20.239,0,0.1,8.0256e-05,802.01,8.0024e-05,795.36,-2.5811e-05,0.15735,-2.7599e-05,-13.275,2.2299
30413,20.33,0,0.05,9.7214e-06,97.147,7.4648e-06,56.088,1.3641e-12,6.6159e-06,-7.4648e-06,-56.088,2.245
30414,20.055,0,0.1,8.4376e-05,843.17,8.4148e-05,836.64,-2.7182e-05,0.14848,-2.894e-05,-13.065,2.1996
30415,20.147,0,0.05,9.8973e-06,98.904,7.5999e-06,57.102,2.2736e-12,8.3136e-06,-7.5999e-06,-57.102,2.2147
30416,19.872,0,0.1,8.8511e-05,884.5,8.8288e-05,878.07,-2.8558e-05,0.14028,-3.0287e-05,-12.857,2.1693
30417,19.963,0,0.05,1.0063e-05,100.56,7.7275e-06,58.061,2.7283e-12,6.7084e-06,-7.7275e-06,-58.061,2.1844
30418,19.688,0,0.1,9.2663e-05,925.99,9.2443e-05,919.66,-2.9939e-05,0.1327,-3.164e-05,-12.649,2.1391
30419,19.78,0,0.05,1.0221e-05,102.14,7.8482e-06,58.968,2.7283e-12,6.4364e-06,-7.8482e-06,-58.968,2.1542
30420,19.505,0,0.1,9.6831e-05,967.64,9.6615e-05,961.42,-3.1325e-05,0.12567,-3.2998e-05,-12.443,2.109
30421,19.596,0,0.05,1.037e-05,103.63,7.9626e-06,59.828,1.8189e-12,7.688e-06,-7.9626e-06,-59.828,2.124
30422,19.321,0,0.1,0.00010102,1009.5,0.0001008,1003.3,-3.2717e-05,0.11915,-3.4362e-05,-12.239,2.0789
30423,19.413,0,0.05,1.0511e-05,105.04,8.0711e-06,60.643,3.6346e-12,8.2245e-06,-8.0711e-06,-60.643,2.0939
30424,19.138,0,0.1,0.00010522,1051.4,0.00010501,1045.4,-3.4114e-05,0.11309,-3.5731e-05,-12.038,2.0489
30425,19.229,0,0.05,1.0645e-05,106.38,8.1742e-06,61.418,1.8174e-12,5.7551e-06,-8.1742e-06,-61.418,2.0638
30426,18.954,0,0.1,0.00010944,1093.6,0.00010923,1087.7,-3.5517e-05,0.10746,-3.7107e-05,-11.84,2.0189
30427,19.046,0,0.05,1.0773e-05,107.65,8.2722e-06,62.154,3.6393e-12,7.2825e-06,-8.2722e-06,-62.154,2.0339
30428,18.771,0,0.1,0.00011367,1135.9,0.00011347,1130.1,-3.6925e-05,0.10222,-3.8488e-05,-11.645,1.9891
30429,18.863,0,0.05,1.0894e-05,108.87,8.3655e-06,62.855,3.6392e-12,7.5915e-06,-8.3655e-06,-62.855,2.004
30430,18.587,0,0.1,0.00011793,1178.4,0.00011773,1172.7,-3.8339e-05,0.097335,-3.9876e-05,-11.453,1.9593
30431,18.679,0,0.05,1.101e-05,110.03,8.4544e-06,63.523,3.6379e-12,7.4392e-06,-8.4544e-06,-63.523,1.9741
30432,18.404,0,0.1,0.0001222,1221.1,0.000122,1215.5,-3.9758e-05,0.092772,-4.127e-05,-11.265,1.9295
30433,18.496,0,0.05,1.1121e-05,111.13,8.5392e-06,64.16,3.6379e-12,5.1749e-06,-8.5392e-06,-64.16,1.9444
30434,18.22,0,0.1,0.00012649,1264,0.0001263,1258.5,-4.1183e-05,0.088497,-4.267e-05,-11.08,1.8999
30435,18.312,0,0.05,1.1226e-05,112.18,8.6202e-06,64.769,5.4569e-12,7.886e-06,-8.6202e-06,-64.769,1.9147
30436,18.037,0,0.1,0.00013079,1307,0.00013061,1301.6,-4.2614e-05,0.084491,-4.4076e-05,-10.899,1.8704
30437,18.129,0,0.05,1.1327e-05,113.19,8.6977e-06,65.351,5.4569e-12,4.9971e-06,-8.6977e-06,-65.351,1.8851
30438,17.853,0,0.1,0.00013512,1350.3,0.00013494,1344.9,-4.4051e-05,0.080737,-4.5489e-05,-10.722,1.8409
30439,17.945,0,0.05,1.1423e-05,114.16,8.7717e-06,65.907,4.5474e-12,8.9402e-06,-8.7718e-06,-65.908,1.8556
30440,17.67,0,0.1,0.00013947,1393.7,0.00013928,1388.4,-4.5494e-05,0.077192,-4.6908e-05,-10.548,1.8115
30441,17.762,0,0.05,1.1516e-05,115.08,8.8427e-06,66.44,4.5474e-12,5.5427e-06,-8.8427e-06,-66.441,1.8262
30442,17.486,0,0.1,0.00014383,1437.3,0.00014365,1432.1,-4.6942e-05,0.073839,-4.8333e-05,-10.378,1.7823
30443,17.578,0,0.05,1.1604e-05,115.96,8.9107e-06,66.951,5.456e-12,8.8729e-06,-8.9107e-06,-66.951,1.7969
30444,17.303,0,0.1,0.00014821,1481.1,0.00014804,1476,-4.8397e-05,0.070667,-4.9766e-05,-10.211,1.7531
30445,17.395,0,0.05,1.1689e-05,116.81,8.9758e-06,67.441,5.456e-12,4.4625e-06,-8.9759e-06,-67.441,1.7676
30446,17.119,0,0.1,0.00015261,1525.1,0.00015244,1520.1,-4.9858e-05,0.067646,-5.1204e-05,-10.047,1.724
30447,17.211,0,0.05,1.1771e-05,117.63,9.0384e-06,67.911,5.4569e-12,8.1058e-06,-9.0384e-06,-67.911,1.7385
30448,16.936,0,0.1,0.00015703,1569.3,0.00015686,1564.3,-5.1325e-05,0.064761,-5.265e-05,-9.8872,1.695
30449,17.028,0,0.05,1.1849e-05,118.41,9.0984e-06,68.362,5.4569e-12,-4.7688e-06,-9.0984e-06,-68.362,1.7095
30450,16.753,0,0.1,0.00016147,1613.6,0.00016131,1608.8,-5.2798e-05,0.062001,-5.4102e-05,-9.7302,1.6661
30451,16.844,0,0.05,1.1924e-05,119.16,9.156e-06,68.794,7.2759e-12,1.5437e-05,-9.156e-06,-68.794,1.6805
30452,16.569,0,0.1,0.00016593,1658.2,0.00016577,1653.4,-5.4278e-05,0.059333,-5.556e-05,-9.5763,1.6373
30453,16.661,0,0.05,1.1996e-05,119.87,9.2112e-06,69.21,6.365e-12,3.5699e-06,-9.2112e-06,-69.21,1.6517
30454,16.386,0,0.1,0.00017041,1702.9,0.00017025,1698.2,-5.5764e-05,0.056737,-5.7026e-05,-9.4253,1.6087
30455,16.477,0,0.05,1.2065e-05,120.56,9.2643e-06,69.608,6.3657e-12,5.9601e-06,-9.2643e-06,-69.608,1.623
30456,16.202,0,0.1,0.00017491,1747.9,0.00017475,1743.3,-5.7256e-05,0.054212,-5.8498e-05,-9.277,1.5801
30457,16.294,0,0.05,1.2131e-05,121.23,9.3152e-06,69.99,6.3664e-12,4.8819e-06,-9.3152e-06,-69.991,1.5944
30458,16.019,0,0.1,0.00017943,1793,0.00017927,1788.5,-5.8754e-05,0.051749,-5.9976e-05,-9.1313,1.5517
30459,16.11,0,0.05,1.2195e-05,121.86,9.3639e-06,70.357,7.2765e-12,5.0661e-06,-9.3639e-06,-70.357,1.5659
30460,15.835,0,0.1,0.00018397,1838.4,0.00018381,1833.9,-6.0259e-05,0.049308,-6.1462e-05,-8.988,1.5234
30461,15.927,0,0.05,1.2255e-05,122.47,9.4106e-06,70.708,7.2753e-12,4.7728e-06,-9.4106e-06,-70.708,1.5375
30462,15.652,0,0.1,0.00018852,1883.9,0.00018837,1879.5,-6.177e-05,0.046882,-6.2954e-05,-8.8469,1.4952
30463,15.743,0,0.05,1.2314e-05,123.05,9.4553e-06,71.043,6.367e-12,3.521e-06,-9.4553e-06,-71.043,1.5093
30464,15.468,0,0.1,0.0001931,1929.7,0.00019295,1925.3,-6.3288e-05,0.044467,-6.4453e-05,-8.7078,1.4672
30465,15.56,0,0.05,1.2369e-05,123.61,9.4979e-06,71.364,7.2764e-12,6.0241e-06,-9.4979e-06,-71.364,1.4811
30466,15.285,0,0.1,0.0001977,1975.6,0.00019755,1971.4,-6.4812e-05,0.042036,-6.5959e-05,-8.5705,1.4392
30467,15.376,0,0.05,1.2422e-05,124.13,9.5385e-06,71.669,7.2754e-12,5.3642e-06,-9.5385e-06,-71.669,1.4532
30468,15.101,0,0.1,0.00020232,2021.8,0.00020217,2017.6,-6.6343e-05,0.039586,-6.7471e-05,-8.4348,1.4114
30469,15.193,0,0.05,1.2472e-05,124.64,9.5771e-06,71.959,9.0954e-12,3.5761e-06,-9.5771e-06,-71.959,1.4253
30470,14.918,0,0.1,0.00020696,2068.1,0.00020681,2064,-6.7881e-05,0.037096,-6.8991e-05,-8.3004,1.3838
30471,15.009,0,0.05,1.252e-05,125.11,9.6136e-06,72.233,7.2768e-12,5.6026e-06,-9.6136e-06,-72.233,1.3976
30472,14.734,0,0.1,0.00021162,2114.7,0.00021148,2110.6,-6.9425e-05,0.034539,-7.0517e-05,-8.1672,1.3562
30473,14.826,0,0.05,1.2565e-05,125.56,9.6481e-06,72.492,7.2759e-12,4.4735e-06,-9.6481e-06,-72.492,1.37
30474,14.551,0,0.1,0.00021629,2161.5,0.00021616,2157.4,-7.0976e-05,0.031898,-7.205e-05,-8.035,1.3289
30475,14.642,0,0.05,1.2607e-05,125.98,9.6804e-06,72.735,7.2767e-12,2.9236e-06,-9.6804e-06,-72.735,1.3425
30476,14.367,0,0.1,0.00022099,2208.4,0.00022086,2204.5,-7.2534e-05,0.029171,-7.359e-05,-7.9034,1.3016
30477,14.459,0,0.05,1.2646e-05,126.37,9.7105e-06,72.961,1.0914e-11,5.3103e-06,-9.7105e-06,-72.961,1.3152
30478,14.184,0,0.1,0.00022571,2255.6,0.00022558,2251.7,-7.4098e-05,0.026351,-7.5136e-05,-7.7723,1.2745
30479,14.276,0,0.05,1.2682e-05,126.73,9.7383e-06,73.17,7.2762e-12,4.4728e-06,-9.7383e-06,-73.17,1.288
30480,14,0,0.1,0.00023046,2303,0.00023033,2299.2,-7.567e-05,0.02339,-7.669e-05,-7.6414,1.2476
30481,14.092,0,0.05,1.2715e-05,127.07,9.7637e-06,73.361,7.2759e-12,3.6954e-06,-9.7638e-06,-73.361,1.261
30482,13.817,0,0.1,0.00023522,2350.6,0.00023509,2346.8,-7.7248e-05,0.020283,-7.825e-05,-7.5104,1.2208
30483,13.909,0,0.05,1.2745e-05,127.36,9.7867e-06,73.534,9.0952e-12,4.6511e-06,-9.7867e-06,-73.534,1.2341
30484,13.633,0,0.1,0.00024,2398.4,0.00023988,2394.7,-7.8833e-05,0.017025,-7.9818e-05,-7.379,1.1942
30485,13.725,0,0.05,1.2772e-05,127.63,9.8071e-06,73.687,9.0949e-12,4.5895e-06,-9.8071e-06,-73.687,1.2074
30486,13.45,0,0.1,0.00024481,2446.4,0.00024468,2442.7,-8.0425e-05,0.013579,-8.1392e-05,-7.247,1.1677
30487,13.542,0,0.05,1.2795e-05,127.86,9.8248e-06,73.819,9.0949e-12,3.8743e-06,-9.8248e-06,-73.82,1.1809
30488,13.266,0,0.1,0.00024963,2494.6,0.00024951,2491,-8.2025e-05,0.009944,-8.2973e-05,-7.1141,1.1414
30489,13.358,0,0.05,1.2814e-05,128.05,9.8395e-06,73.93,7.276e-12,4.0521e-06,-9.8396e-06,-73.931,1.1545
30490,13.083,0,0.1,0.00025448,2543,0.00025436,2539.5,-8.3631e-05,0.0060833,-8.4561e-05,-6.98,1.1153
30491,13.175,0,0.05,1.2829e-05,128.2,9.8513e-06,74.019,7.2759e-12,3.2782e-06,-9.8513e-06,-74.019,1.1283
30492,12.899,0,0.1,0.00025935,2591.7,0.00025923,2588.2,-8.5245e-05,0.0019614,-8.6156e-05,-6.8445,1.0893
30493,12.991,0,0.05,1.284e-05,128.31,9.8598e-06,74.082,1.0914e-11,3.8144e-06,-9.8598e-06,-74.083,1.1022
30494,12.716,0,0.1,0.00026424,2640.5,0.00026412,2637.2,-8.6866e-05,-0.0024105,-8.7758e-05,-6.7071,1.0635
30495,12.808,0,0.05,1.2847e-05,128.38,9.8648e-06,74.12,9.0949e-12,3.159e-06,-9.8648e-06,-74.121,1.0764
30496,12.532,0,0.1,0.00026915,2689.6,0.00026904,2686.3,-8.8494e-05,-0.007065,-8.9367e-05,-6.5677,1.0379
30497,12.624,0,0.05,1.2849e-05,128.4,9.8662e-06,74.131,1.0914e-11,3.2182e-06,-9.8662e-06,-74.131,1.0507
30498,12.349,0,0.1,0.00027408,2738.9,0.00027397,2735.7,-9.013e-05,-0.012047,-9.0983e-05,-6.4258,1.0125
30499,12.441,0,0.05,1.2845e-05,128.37,9.8637e-06,74.112,1.0914e-11,4.1127e-06,-9.8637e-06,-74.112,1.0251
30500,12.165,0,0.1,0.00027904,2788.5,0.00027893,2785.3,-9.1773e-05,-0.017382,-9.2606e-05,-6.2813,0.98721
30501,12.257,0,0.05,1.2837e-05,128.28,9.8571e-06,74.062,1.0914e-11,3.6358e-06,-9.8571e-06,-74.062,0.99979
30502,11.982,0,0.1,0.00028402,2838.2,0.00028391,2835.1,-9.3423e-05,-0.023074,-9.4236e-05,-6.1336,0.96215
30503,12.074,0,0.05,1.2822e-05,128.13,9.8459e-06,73.978,1.0914e-11,2.0842e-06,-9.846e-06,-73.979,0.97463
30504,11.799,0,0.1,0.00028902,2888.2,0.00028891,2885.2,-9.5081e-05,-0.029144,-9.5874e-05,-5.9827,0.93728
30505,11.89,0,0.05,1.2802e-05,127.93,9.8301e-06,73.859,1.0914e-11,4.1722e-06,-9.8301e-06,-73.859,0.94966
30506,11.615,0,0.1,0.00029404,2938.4,0.00029394,2935.4,-9.6747e-05,-0.035635,-9.7518e-05,-5.8281,0.9126
30507,11.707,0,0.05,1.2774e-05,127.66,9.8091e-06,73.702,1.0914e-11,2.682e-06,-9.8091e-06,-73.702,0.92489
30508,11.432,0,0.1,0.00029908,2988.8,0.00029899,2985.9,-9.842e-05,-0.04255,-9.9169e-05,-5.6695,0.88812
30509,11.523,0,0.05,1.274e-05,127.31,9.7827e-06,73.503,1.0914e-11,3.2743e-06,-9.7827e-06,-73.504,0.90031
30510,11.248,0,0.1,0.00030415,3039.4,0.00030406,3036.6,-0.0001001,-0.049929,-0.00010083,-5.5067,0.86384
30511,11.34,0,0.05,1.2698e-05,126.89,9.7505e-06,73.262,1.2733e-11,3.7548e-06,-9.7505e-06,-73.262,0.87593
30512,11.065,0,0.1,0.00030924,3090.3,0.00030915,3087.6,-0.00010179,-0.057807,-0.00010249,-5.3395,0.83976
30513,11.156,0,0.05,1.2648e-05,126.39,9.7122e-06,72.973,1.0914e-11,3.0988e-06,-9.7122e-06,-72.974,0.85175
30514,10.881,0,0.1,0.00031436,3141.4,0.00031427,3138.8,-0.00010349,-0.06616,-0.00010417,-5.1677,0.8159
30515,10.973,0,0.05,1.259e-05,125.81,9.6672e-06,72.635,1.0914e-11,2.5621e-06,-9.6672e-06,-72.636,0.82778
30516,10.698,0,0.1,0.00031949,3192.7,0.00031941,3190.2,-0.00010519,-0.075012,-0.00010585,-4.991,0.79224
30517,10.789,0,0.05,1.2522e-05,125.13,9.6153e-06,72.245,1.2732e-11,2.9128e-06,-9.6153e-06,-72.246,0.80401
30518,10.514,0,0.1,0.00032465,3244.3,0.00032457,3241.8,-0.0001069,-0.08439,-0.00010753,-4.8094,0.7688
30519,10.606,0,0.05,1.2445e-05,124.36,9.5559e-06,71.799,1.0914e-11,2.5542e-06,-9.5559e-06,-71.799,0.78046
30520,10.331,0,0.1,0.00032983,3296,0.00032975,3293.7,-0.00010862,-0.094287,-0.00010923,-4.6229,0.74558
30521,10.422,0,0.05,1.2357e-05,123.48,9.4886e-06,71.294,1.0914e-11,2.4505e-06,-9.4887e-06,-71.294,0.75713
30522,10.147,0,0.1,0.00033503,3348,0.00033495,3345.7,-0.00011035,-0.10467,-0.00011092,-4.4315,0.72257
30523,10.239,0,0.05,1.2259e-05,122.5,9.4131e-06,70.726,1.0914e-11,2.6203e-06,-9.4131e-06,-70.727,0.73402
30524,9.9637,0,0.1,0.00034025,3400.2,0.00034018,3398,-0.00011208,-0.11549,-0.00011263,-4.2354,0.6998
30525,10.055,0,0.05,1.2149e-05,121.41,9.3288e-06,70.093,1.2734e-11,2.2514e-06,-9.3289e-06,-70.094,0.71113
30526,9.7802,0,0.1,0.00034549,3452.5,0.00034542,3450.4,-0.00011382,-0.12672,-0.00011434,-4.0351,0.67725
30527,9.872,0,0.05,1.2027e-05,120.19,9.2355e-06,69.392,1.2732e-11,2.1899e-06,-9.2355e-06,-69.392,0.68846
30528,9.5968,0,0.1,0.00035075,3505,0.00035068,3503.1,-0.00011557,-0.13827,-0.00011606,-3.831,0.65493
30529,9.6885,0,0.05,1.1893e-05,118.85,9.1327e-06,68.619,1.4551e-11,2.2475e-06,-9.1327e-06,-68.619,0.66603
30530,9.4133,0,0.1,0.00035602,3557.7,0.00035595,3555.8,-0.00011732,-0.15004,-0.00011778,-3.6239,0.63285
30531,9.505,0,0.05,1.1747e-05,117.39,9.0201e-06,67.773,1.4549e-11,1.6628e-06,-9.0201e-06,-67.774,0.64383
30532,9.2298,0,0.1,0.0003613,3610.5,0.00036124,3608.7,-0.00011907,-0.16188,-0.00011951,-3.4148,0.61101
30533,9.3215,0,0.05,1.1587e-05,115.79,8.8975e-06,66.852,1.273e-11,2.2576e-06,-8.8975e-06,-66.853,0.62187
30534,9.0463,0,0.1,0.00036659,3663.4,0.00036653,3661.7,-0.00012083,-0.17358,-0.00012123,-3.205,0.58942
30535,9.1381,0,0.05,1.1414e-05,114.07,8.7648e-06,65.855,1.4551e-11,2.0019e-06,-8.7649e-06,-65.856,0.60015
30536,8.8628,0,0.1,0.00037188,3716.3,0.00037183,3714.7,-0.00012259,-0.18489,-0.00012296,-2.9963,0.56806
30537,8.9546,0,0.05,1.1229e-05,112.21,8.6221e-06,64.783,1.2729e-11,1.9381e-06,-8.6222e-06,-64.784,0.57868
30538,8.6794,0,0.1,0.00037717,3769.1,0.00037712,3767.6,-0.00012434,-0.19546,-0.00012469,-2.7908,0.54696
30539,8.7711,0,0.05,1.103e-05,110.22,8.4697e-06,63.638,1.4553e-11,1.9568e-06,-8.4697e-06,-63.638,0.55745
30540,8.4959,0,0.1,0.00038244,3821.7,0.00038239,3820.3,-0.00012609,-0.20488,-0.00012641,-2.5912,0.52612
30541,8.5876,0,0.05,1.0819e-05,108.12,8.3079e-06,62.423,1.4548e-11,1.6574e-06,-8.308e-06,-62.423,0.53647
30542,8.3124,0,0.1,0.00038768,3874.1,0.00038764,3872.8,-0.00012783,-0.21261,-0.00012812,-2.4006,0.50553
30543,8.4041,0,0.05,1.0598e-05,105.9,8.1377e-06,61.144,1.4547e-11,1.7978e-06,-8.1378e-06,-61.144,0.51576
30544,8.1289,0,0.1,0.00039288,3926.1,0.00039284,3924.9,-0.00012956,-0.21798,-0.00012983,-2.2231,0.4852
30545,8.2206,0,0.05,1.0367e-05,103.6,7.9603e-06,59.811,1.4552e-11,1.4973e-06,-7.9603e-06,-59.811,0.49529
30546,7.9454,0,0.1,0.00039802,3977.4,0.00039798,3976.3,-0.00013126,-0.22017,-0.00013151,-2.0632,0.46513
30547,8.0372,0,0.05,1.0128e-05,101.21,7.7774e-06,58.436,1.4547e-11,1.6161e-06,-7.7774e-06,-58.436,0.4751
30548,7.7619,0,0.1,0.00040306,4027.8,0.00040303,4026.8,-0.00013293,-0.21817,-0.00013316,-1.9267,0.44534
30549,7.8537,0,0.05,9.886e-06,98.792,7.5912e-06,57.037,1.4549e-11,1.2584e-06,-7.5913e-06,-57.038,0.45516
30550,7.5785,0,0.1,0.00040798,4077,0.00040795,4076,-0.00013456,-0.21077,-0.00013478,-1.82,0.42581
30551,7.6702,0,0.05,9.6435e-06,96.368,7.405e-06,55.638,1.455e-11,1.3532e-06,-7.405e-06,-55.639,0.4355
30552,7.395,0,0.1,0.00041274,4124.6,0.00041271,4123.6,-0.00013613,-0.19652,-0.00013634,-1.751,0.40656
30553,7.4867,0,0.05,9.4059e-06,93.994,7.2226e-06,54.267,1.455e-11,1.1971e-06,-7.2226e-06,-54.268,0.41611
30554,7.2115,0,0.1,0.00041728,4169.9,0.00041725,4169,-0.00013763,-0.17374,-0.00013784,-1.7288,0.38758
30555,7.3032,0,0.05,9.1798e-06,91.735,7.049e-06,52.963,1.4547e-11,9.0027e-07,-7.049e-06,-52.964,0.397
30556,7.028,0,0.1,0.00042153,4212.4,0.0004215,4211.5,-0.00013903,-0.14049,-0.00013925,-1.7638,0.36889
30557,7.1198,0,0.05,8.9733e-06,89.671,6.8904e-06,51.771,1.4553e-11,1.0486e-06,-6.8904e-06,-51.772,0.37816
30558,6.8445,0,0.1,0.00042541,4251.2,0.00042538,4250.2,-0.0001403,-0.094614,-0.00014054,-1.8685,0.35048
30559,6.9363,0,0.05,8.7962e-06,87.901,6.7543e-06,50.749,1.4551e-11,9.4952e-07,-6.7544e-06,-50.75,0.35961
30560,6.6611,0,0.1,0.00042881,4285.2,0.00042878,4284.1,-0.00014141,-0.033738,-0.00014168,-2.0573,0.33236
30561,6.7528,0,0.05,8.6603e-06,86.543,6.65e-06,49.966,1.4552e-11,6.8525e-07,-6.6501e-06,-49.966,0.34135
30562,6.4776,0,0.1,0.0004316,4313.1,0.00043156,4311.9,-0.00014231,0.044653,-0.00014263,-2.3471,0.31453
30563,6.5693,0,0.05,8.5798e-06,85.739,6.5882e-06,49.501,1.4553e-11,6.534e-07,-6.5883e-06,-49.502,0.32337
30564,6.2941,0,0.1,0.00043361,4333.1,0.00043357,4331.8,-0.00014294,0.14309,-0.00014333,-2.7578,0.29698
30565,6.3858,0,0.05,8.571e-06,85.651,6.5814e-06,49.45,1.455e-11,4.9421e-07,-6.5815e-06,-49.451,0.30568
30566,6.1106,0,0.1,0.00043464,4343.4,0.00043459,4341.9,-0.00014324,0.26385,-0.00014372,-3.3132,0.27973
30567,6.2024,0,0.05,8.6522e-06,86.463,6.6438e-06,49.919,1.4546e-11,-9.0842e-08,-6.6439e-06,-49.919,0.28828
30568,5.9271,0,0.1,0.00043442,4341.2,0.00043436,4339.4,-0.00014313,0.40856,-0.00014372,-4.041,0.26277
30569,6.0189,0,0.05,8.8437e-06,88.376,6.7908e-06,51.024,1.0901e-11,-1.7498e-07,-6.7909e-06,-51.024,0.27117
30570,5.7437,0,0.1,0.00043266,4323.6,0.00043258,4321.4,-0.00014248,0.57748,-0.00014322,-4.9744,0.2461
30571,5.8354,0,0.05,9.1664e-06,91.6,7.0386e-06,52.885,1.4529e-11,-1.619e-07,-7.0386e-06,-52.886,0.25436
30572,5.5602,0,0.1,0.00042896,4286.7,0.00042887,4284,-0.00014119,0.76853,-0.00014211,-6.1512,0.22973
30573,5.6519,0,0.05,9.6404e-06,96.337,7.4026e-06,55.62,1.4521e-11,-2.6213e-07,-7.4026e-06,-55.621,0.23783
30574,5.3767,0,0.1,0.00042289,4226,0.00042278,4222.7,-0.0001391,0.97584,-0.00014024,-7.6142,0.21364
30575,5.4684,0,0.05,1.0283e-05,102.76,7.8958e-06,59.326,7.2383e-12,-2.5288e-07,-7.8958e-06,-59.326,0.2216
30576,5.1932,0,0.1,0.00041391,4136.3,0.00041377,4132.2,-0.00013603,1.1877,-0.00013744,-9.4078,0.19784
30577,5.285,0,0.05,1.1102e-05,110.95,8.5251e-06,64.055,7.193e-12,-4.7212e-07,-8.5252e-06,-64.055,0.20565
30578,5.0097,0,0.1,0.00040142,4011.4,0.00040124,4006.3,-0.00013178,1.3842,-0.0001335,-11.572,0.18231
30579,5.1015,0,0.05,1.2095e-05,120.87,9.2873e-06,69.781,7.2286e-12,-7.042e-07,-9.2874e-06,-69.782,0.18999
30580,4.8263,0,0.1,0.00038473,3844.7,0.00038452,3838.4,-0.00012613,1.5337,-0.00012822,-14.129,0.16706
30581,4.918,0,0.05,1.3234e-05,132.25,1.0162e-05,76.352,7.1989e-12,-3.2531e-07,-1.0162e-05,-76.352,0.1746
30582,4.6428,0,0.1,0.00036314,3628.9,0.00036287,3621.1,-0.00011886,1.5916,-0.00012134,-17.063,0.15206
30583,4.7345,0,0.05,1.4458e-05,144.48,1.1102e-05,83.416,-1.2801e-14,-5.3448e-07,-1.1102e-05,-83.416,0.15947
30584,4.4593,0,0.1,0.00033593,3357,0.0003356,3347.5,-0.00010973,1.4938,-0.00011262,-20.28,0.13731
30585,4.551,0,0.05,1.5658e-05,156.47,1.2024e-05,90.341,1.7805e-12,1.4283e-06,-1.2024e-05,-90.341,0.14459
30586,4.2758,0,0.1,0.00030247,3022.6,0.00030208,3011.3,-9.8547e-05,1.1829,-0.00010184,-23.543,0.12278
30587,4.3676,0,0.05,1.666e-05,166.48,1.2793e-05,96.119,-2.7135e-21,1.4129e-06,-1.2793e-05,-96.119,0.12995
30588,4.0923,0,0.1,0.00026232,2621.3,0.00026187,2608.3,-8.5208e-05,0.53084,-8.8794e-05,-26.415,0.10845
30589,4.1841,0,0.05,1.7202e-05,171.9,1.3209e-05,99.249,-2.8019e-21,1.9389e-06,-1.3209e-05,-99.249,0.11552
30590,3.9088,0,0.1,0.00021527,2151.2,0.00021477,2136.9,-6.967e-05,-0.27,-7.3361e-05,-28.002,0.094304
30591,4.0006,0,0.05,1.6929e-05,169.18,1.3e-05,97.675,-1.8187e-12,2.3862e-06,-1.3e-05,-97.675,0.10128
30592,3.7254,0,0.1,0.00016141,1613,0.0001609,1598.2,-5.2102e-05,-2.1808,-5.5417e-05,-27.083,0.080301
30593,3.8171,0,0.05,1.5325e-05,153.15,1.1768e-05,88.42,-1.8136e-12,1.7565e-06,-1.1768e-05,-88.42,0.0872
30594,3.5419,0,0.1,0.00010023,1001.6,9.9815e-05,989.84,-3.1932e-05,-0.053743,-3.4991e-05,-23.038,0.06641
30595,3.6336,0,0.05,1.1834e-05,118.26,9.0873e-06,68.278,-1.8546e-12,9.5952e-07,-9.0873e-06,-68.278,0.073243
30596,3.3584,0,0.1,3.4967e-05,349.42,3.5129e-05,356.21,-9.174e-06,23.334,-1.3304e-05,-7.6942,0.052596
30597,3.4501,0,0.05,4.4784e-06,44.753,3.4389e-06,25.838,-1.0939e-12,-3.3654e-06,-3.4389e-06,-25.838,0.059373
30598,3.2667,0,0.05,6.3768e-06,63.724,4.8966e-06,36.791,-3.7677e-13,-4.5741e-06,-4.8966e-06,-36.791,0.045549
30599,3.0088,-6.4763e-31,0.1,4.5047e-05,450.16,4.5186e-05,457.33,-1.1616e-05,30.534,-1.7415e-05,-13.039,0.037636
30600,3.1,-6.6725e-31,0.05,8.44e-06,84.342,6.4809e-06,48.695,-3.8607e-13,-5.1459e-06,-6.4809e-06,-48.695,0.039694
30601,2.8265,-6.0838e-31,0.1,0.00012839,1283.1,0.00012761,1260.7,-4.052e-05,-2.4845,-4.5678e-05,-41.242,0.033511
30602,2.9176,0,0.05,8.8604e-06,88.543,6.8037e-06,51.12,2.6057e-13,1.7773e-06,-6.8037e-06,-51.12,0.035545
30603,2.6441,-5.6913e-31,0.1,0.00020514,2050,0.00020408,2019.5,-6.546e-05,-5.6822,-7.1952e-05,-54.465,0.029471
30604,2.7353,0,0.05,2.1631e-05,216.16,1.661e-05,124.8,-1.6917e-12,-1.3655e-06,-1.661e-05,-124.8,0.031454
30605,2.4618,-5.2988e-31,0.1,0.00027277,2725.8,0.0002716,2692.3,-8.7211e-05,-3.6428,-9.503e-05,-62.396,0.025561
30606,2.5529,0,0.05,2.9739e-05,297.18,2.2836e-05,171.58,2.1719e-14,3.2169e-06,-2.2836e-05,-171.58,0.027471
30607,2.2794,-4.9063e-31,0.1,0.00033256,3323.3,0.00033134,3288.3,-0.0001067,-2.9945,-0.00011511,-66.196,0.021828
30608,2.3706,0,0.05,3.5802e-05,357.77,2.7492e-05,206.56,-3.6846e-12,6.105e-08,-2.7492e-05,-206.56,0.023643
30609,2.0971,-4.5138e-31,0.1,0.00038463,3843.6,0.00038339,3808,-0.00012376,-2.5126,-0.00013246,-67.817,0.018309
30610,2.1882,0,0.05,4.052e-05,404.92,3.1115e-05,233.78,6.3094e-15,2.4361e-06,-3.1115e-05,-233.78,0.02001
30611,1.9147,-4.1213e-31,0.1,0.00042915,4288.6,0.0004279,4252.5,-0.0001384,-2.4527,-0.00014724,-68.885,0.01504
30612,2.0059,0,0.05,4.4545e-05,445.15,3.4205e-05,257,-7.2554e-21,-5.4515e-14,-3.4205e-05,-257,0.016611
30613,1.7324,-3.7288e-31,0.1,0.00046643,4661.1,0.00046515,4624.1,-0.00015064,-2.6798,-0.00015967,-70.479,0.012049
30614,1.8235,0,0.05,4.8344e-05,483.11,3.7122e-05,278.92,3.6371e-12,-5.9164e-14,-3.7122e-05,-278.92,0.013476
30615,1.55,-3.3363e-31,0.1,0.00049677,4964.3,0.00049543,4925.6,-0.00016054,-3.1417,-0.00016991,-73.488,0.0093622
30616,1.6412,0,0.05,5.2288e-05,522.52,4.015e-05,301.67,-3.6634e-15,-6.1462e-08,-4.015e-05,-301.67,0.010633
30617,1.3676,-2.9438e-31,0.1,0.0005204,5200.4,0.00051896,5158.7,-0.00016814,-3.8046,-0.00017811,-78.755,0.0069986
30618,1.4588,0,0.05,5.6671e-05,566.32,4.3516e-05,326.96,7.2648e-12,-3.7599e-08,-4.3516e-05,-326.96,0.0081048
30619,1.1853,-2.5513e-31,0.1,0.00053725,5368.8,0.00053564,5322.5,-0.00017334,-4.5759,-0.00018434,-87.204,0.0049736
30620,1.2765,0,0.05,6.1743e-05,617.01,4.7411e-05,356.23,7.262e-12,-9.3482e-08,-4.7411e-05,-356.23,0.005908
30621,1.0029,-2.1588e-31,0.1,0.00054675,5463.7,0.00054488,5410.1,-0.00017591,-5.668,-0.00018851,-100.34,0.0032976
30622,1.0941,0,0.05,6.7753e-05,677.06,5.2026e-05,390.9,7.2591e-12,-1.6985e-07,-5.2026e-05,-390.9,0.0040557
30623,0.82059,-1.7663e-31,0.1,0.00054734,5469.6,0.0005451,5405.5,-0.00017518,-6.4328,-0.00019031,-120.08,0.001976
30624,0.91176,0,0.05,7.4969e-05,749.18,5.7567e-05,432.54,1.4513e-11,-1.9717e-07,-5.7567e-05,-432.54,0.0025559
30625,0.63824,-1.3738e-31,0.1,0.00053552,5351.5,0.00053264,5269.7,-0.00016986,-8.5986,-0.00018896,-152.09,0.0010075
30626,0.72941,0,0.05,8.3865e-05,838.07,6.4398e-05,483.86,1.4509e-11,-2.1518e-07,-6.4398e-05,-483.86,0.0014106
30627,0.45588,-9.8125e-32,0.1,0.00050384,5034.9,0.00049987,4923.6,-0.00015697,-11.583,-0.00018275,-205.3,0.00038298
30628,0.54706,0,0.05,9.5039e-05,949.74,7.2978e-05,548.33,1.4696e-11,6.8519e-06,-7.2978e-05,-548.33,0.00061429
30629,0.27353,-5.8875e-32,0.1,0.00042826,4279.6,0.00042197,4114.1,-0.00012385,13.054,-0.00016872,-324.07,8.5818e-05
30630,0.36471,0,0.05,0.00011068,1106,8.4985e-05,638.55,1.4503e-11,-6.9966e-06,-8.4985e-05,-638.55,0.00014963
30631,0.091176,-1.9625e-32,0.1,0.0002567,2565.2,0.0002329,2006.2,-5.2368e-05,-137.14,-0.00014538,-835.99,2.7749e-05
30632,0.18235,0,0.05,0.00014214,1420.4,0.00010915,820.08,2.9104e-11,6.6757e-05,-0.00010915,-820.08,2.2631e-05
30633,0,0,0.05,0.00019136,1912.3,0.00014694,1104.1,4.6079e-12,-0.00056305,-0.00014694,-1104.1,0
30634,0.091176,6,0.1,0.0002567,2565.2,0.0002329,2006.2,-5.2368e-05,-137.14,-0.00014538,-835.99,2.7749e-05
30635,5.2451e-14,6,0.05,0.00019136,1912.3,0.00014694,1104.1,-4.6104e-12,0.00053408,-0.00014694,-1104.1,0
30636,0.27353,6,0.1,0.00042826,4279.6,0.00042197,4114.1,-0.00012385,13.054,-0.00016872,-324.07,8.5818e-05
30637,0.18235,6,0.05,0.00014214,1420.4,0.00010915,820.08,-2.9103e-11,-6.3896e-05,-0.00010915,-820.08,2.2631e-05
30638,0.45588,6,0.1,0.00050384,5034.9,0.00049987,4923.6,-0.00015697,-11.583,-0.00018275,-205.3,0.00038298
30639,0.36471,6,0.05,0.00011068,1106,8.4985e-05,638.55,-1.8149e-11,8.984e-06,-8.4985e-05,-638.55,0.00014963
30640,0.63824,6,0.1,0.00053552,5351.5,0.00053264,5269.7,-0.00016986,-8.5986,-0.00018896,-152.09,0.0010075
30641,0.54706,6,0.05,9.5039e-05,949.74,7.2978e-05,548.33,-1.4508e-11,-6.3753e-06,-7.2978e-05,-548.33,0.00061429
30642,0.82059,6,0.1,0.00054734,5469.6,0.0005451,5405.5,-0.00017518,-6.4328,-0.00019031,-120.08,0.001976
30643,0.72941,6,0.05,8.3865e-05,838.07,6.4398e-05,483.86,-1.4518e-11,2.1518e-07,-6.4398e-05,-483.86,0.0014106
30644,1.0029,6,0.1,0.00054675,5463.7,0.00054488,5410.1,-0.00017591,-5.668,-0.00018851,-100.34,0.0032976
30645,0.91176,6,0.05,7.4969e-05,749.18,5.7567e-05,432.54,-1.0877e-11,1.9717e-07,-5.7567e-05,-432.54,0.0025559
30646,1.1853,6,0.1,0.00053725,5368.8,0.00053564,5322.5,-0.00017334,-4.5759,-0.00018434,-87.204,0.0049736
30647,1.0941,6,0.05,6.7753e-05,677.06,5.2026e-05,390.9,-1.0889e-11,1.6985e-07,-5.2026e-05,-390.9,0.0040557
30648,1.3676,6,0.1,0.0005204,5200.4,0.00051896,5158.7,-0.00016814,-3.8046,-0.00017811,-78.755,0.0069986
30649,1.2765,6,0.05,6.1743e-05,617.01,4.7411e-05,356.23,-7.262e-12,9.3482e-08,-4.7411e-05,-356.23,0.005908
30650,1.55,6,0.1,0.00049677,4964.3,0.00049543,4925.6,-0.00016054,-3.1417,-0.00016991,-73.488,0.0093622
30651,1.4588,6,0.05,5.6671e-05,566.32,4.3516e-05,326.96,-7.2692e-12,3.7598e-08,-4.3516e-05,-326.96,0.0081048
30652,1.7324,6,0.1,0.00046643,4661.1,0.00046515,4624.1,-0.00015064,-2.6798,-0.00015967,-70.479,0.012049
30653,1.6412,6,0.05,5.2288e-05,522.52,4.015e-05,301.67,-7.2723e-12,3.0731e-08,-4.015e-05,-301.67,0.010633
30654,1.9147,6,0.1,0.00042915,4288.6,0.0004279,4252.5,-0.0001384,-2.4527,-0.00014724,-68.885,0.01504
30655,1.8235,6,0.05,4.8344e-05,483.11,3.7122e-05,278.92,-3.6355e-12,-5.9164e-14,-3.7122e-05,-278.92,0.013476
30656,2.0971,6,0.1,0.00038463,3843.6,0.00038339,3808,-0.00012376,-2.5126,-0.00013246,-67.817,0.018309
30657,2.0059,6,0.05,4.4545e-05,445.15,3.4205e-05,257,-3.637e-12,-5.4515e-14,-3.4205e-05,-257,0.016611
30658,2.2794,6,0.1,0.00033256,3323.3,0.00033134,3288.3,-0.0001067,-2.9945,-0.00011511,-66.196,0.021828
30659,2.1882,6,0.05,4.052e-05,404.92,3.1115e-05,233.78,1.8119e-12,-2.6464e-08,-3.1115e-05,-233.78,0.02001
30660,2.4618,6,0.1,0.00027277,2725.8,0.0002716,2692.3,-8.7211e-05,-3.6428,-9.503e-05,-62.396,0.025561
30661,2.3706,6,0.05,3.5802e-05,357.77,2.7492e-05,206.56,1.8674e-12,-4.3815e-14,-2.7492e-05,-206.56,0.023643
30662,2.6441,6,0.1,0.00020514,2050,0.00020408,2019.5,-6.546e-05,-5.6822,-7.1952e-05,-54.465,0.029471
30663,2.5529,6,0.05,2.9739e-05,297.18,2.2836e-05,171.58,3.6054e-12,-3.6394e-14,-2.2836e-05,-171.58,0.027471
30664,2.8265,6,0.1,0.00012839,1283.1,0.00012761,1260.7,-4.052e-05,-2.4845,-4.5678e-05,-41.242,0.033511
30665,2.7353,6,0.05,2.1631e-05,216.16,1.661e-05,124.8,4.2743e-13,-8.545e-07,-1.661e-05,-124.8,0.031454
30666,3.0088,6,0.1,4.5047e-05,450.16,4.5186e-05,457.33,-1.1616e-05,30.534,-1.7415e-05,-13.039,0.037636
30667,2.9176,6,0.05,8.8604e-06,88.543,6.8037e-06,51.12,4.4766e-13,4.0853e-07,-6.8037e-06,-51.12,0.035545
30668,3.1,6,0.05,8.44e-06,84.342,6.4809e-06,48.695,3.3317e-13,3.3994e-06,-6.4809e-06,-48.695,0.039694
30669,2.8265,6,0,0.00012839,1283.1,4.5678e-05,41.242,4.052e-05,2.4845,-0.00012761,-1260.7,0.033511
30670,3.0088,6,0,4.5047e-05,450.16,1.7415e-05,13.039,1.1616e-05,-30.534,-4.5186e-05,-457.33,0.037636
30671,2.6441,6,0,0.00020514,2050,7.1952e-05,54.465,6.546e-05,5.6822,-0.00020408,-2019.5,0.029471
30672,2.4618,6,0,0.00027277,2725.8,9.503e-05,62.396,8.7211e-05,3.6428,-0.0002716,-2692.3,0.025561
30673,2.2794,6,0,0.00033256,3323.3,0.00011511,66.196,0.0001067,2.9945,-0.00033134,-3288.3,0.021828
30674,2.0971,6,0,0.00038463,3843.6,0.00013246,67.817,0.00012376,2.5126,-0.00038339,-3808,0.018309
30675,1.9147,6,0,0.00042915,4288.6,0.00014724,68.885,0.0001384,2.4527,-0.0004279,-4252.5,0.01504
30676,1.7324,6,0,0.00046643,4661.1,0.00015967,70.479,0.00015064,2.6798,-0.00046515,-4624.1,0.012049
30677,1.55,6,0,0.00049677,4964.3,0.00016991,73.488,0.00016054,3.1417,-0.00049543,-4925.6,0.0093622
30678,1.3676,6,0,0.0005204,5200.4,0.00017811,78.755,0.00016814,3.8046,-0.00051896,-5158.7,0.0069986
30679,1.1853,6,0,0.00053725,5368.8,0.00018434,87.204,0.00017334,4.5759,-0.00053564,-5322.5,0.0049736
30680,1.0029,6,0,0.00054675,5463.7,0.00018851,100.34,0.00017591,5.668,-0.00054488,-5410.1,0.0032976
30681,0.82059,6,0,0.00054734,5469.6,0.00019031,120.08,0.00017518,6.4328,-0.0005451,-5405.5,0.001976
30682,0.63824,6,0,0.00053552,5351.5,0.00018896,152.09,0.00016986,8.5985,-0.00053264,-5269.7,0.0010075
30683,0.45588,6,0,0.00050383,5034.9,0.00018275,205.3,0.00015697,11.583,-0.00049987,-4923.6,0.00038298
30684,0.27353,6,0,0.00042826,4279.6,0.00016872,324.07,0.00012385,-13.054,-0.00042197,-4114.1,8.5818e-05
30685,0.091176,6,0,0.0002567,2565.2,0.00014538,835.99,5.2368e-05,137.14,-0.0002329,-2006.2,2.7749e-05
30686,3.1,5.9091,0,3.877e-05,387.44,1.5761e-05,33.784,1.0756e-05,-3.8255,-3.8124e-05,-371.09,0.040424
30687,5.1657e-14,5.9091,0,0.00014042,1403.2,6.9246e-05,35.246,5.3188e-06,-445.08,-0.00014108,-1545,0
30688,0.27353,-5.8875e-32,0,0.00042826,4279.6,0.00016872,324.07,0.00012385,-13.054,-0.00042197,-4114.1,8.5818e-05
30689,0.091176,-1.9625e-32,0,0.0002567,2565.2,0.00014538,835.99,5.2368e-05,137.14,-0.0002329,-2006.2,2.7749e-05
30690,0.45588,-9.8125e-32,0,0.00050384,5034.9,0.00018275,205.3,0.00015697,11.583,-0.00049987,-4923.6,0.00038298
30691,0.63824,-1.3738e-31,0,0.00053552,5351.5,0.00018896,152.09,0.00016986,8.5986,-0.00053264,-5269.7,0.0010075
30692,0.82059,-1.7663e-31,0,0.00054734,5469.6,0.00019031,120.08,0.00017518,6.4328,-0.0005451,-5405.5,0.001976
30693,1.0029,-2.1588e-31,0,0.00054675,5463.7,0.00018851,100.34,0.00017591,5.668,-0.00054488,-5410.1,0.0032976
30694,1.1853,-2.5513e-31,0,0.00053725,5368.8,0.00018434,87.203,0.00017334,4.5759,-0.00053564,-5322.5,0.0049736
30695,1.3676,-2.9438e-31,0,0.0005204,5200.4,0.00017811,78.755,0.00016814,3.8046,-0.00051896,-5158.7,0.0069986
30696,1.55,-3.3363e-31,0,0.00049677,4964.3,0.00016991,73.488,0.00016054,3.1417,-0.00049543,-4925.6,0.0093622
30697,1.7324,-3.7288e-31,0,0.00046643,4661.1,0.00015967,70.479,0.00015064,2.6798,-0.00046515,-4624.1,0.012049
30698,1.9147,-4.1213e-31,0,0.00042915,4288.6,0.00014724,68.885,0.0001384,2.4527,-0.0004279,-4252.5,0.01504
30699,2.0971,-4.5138e-31,0,0.00038463,3843.6,0.00013246,67.817,0.00012376,2.5126,-0.00038339,-3808,0.018309
30700,2.2794,-4.9063e-31,0,0.00033256,3323.3,0.00011511,66.196,0.0001067,2.9945,-0.00033134,-3288.3,0.021828
30701,2.4618,-5.2988e-31,0,0.00027277,2725.8,9.503e-05,62.396,8.7211e-05,3.6428,-0.0002716,-2692.3,0.025561
30702,2.6441,-5.6913e-31,0,0.00020514,2050,7.1952e-05,54.465,6.546e-05,5.6822,-0.00020408,-2019.5,0.029471
30703,2.8265,-6.0838e-31,0,0.00012839,1283.1,4.5678e-05,41.242,4.052e-05,2.4845,-0.00012761,-1260.7,0.033511
30704,3.0088,-6.4763e-31,0,4.5047e-05,450.16,1.7415e-05,13.039,1.1616e-05,-30.534,-4.5186e-05,-457.33,0.037636
30705,3.1,0.090909,0,3.877e-05,387.44,1.5761e-05,33.784,1.0756e-05,-3.8255,-3.8124e-05,-371.09,0.040424
30706,7.9472e-16,0.090909,0,0.00014042,1403.2,6.9246e-05,35.244,5.3189e-06,-445.08,-0.00014108,-1545,0
30707,3.5419,0,0,0.00010023,1001.6,3.4991e-05,23.038,3.1932e-05,0.053741,-9.9815e-05,-989.84,0.06641
30708,3.3584,0,0,3.4967e-05,349.42,1.3304e-05,7.6942,9.174e-06,-23.334,-3.5129e-05,-356.21,0.052596
30709,3.7254,0,0,0.00016141,1613,5.5417e-05,27.083,5.2102e-05,2.1808,-0.0001609,-1598.2,0.080301
30710,3.9088,0,0,0.00021527,2151.2,7.3361e-05,28.002,6.967e-05,0.27,-0.00021477,-2136.9,0.094304
30711,4.0923,0,0,0.00026232,2621.3,8.8794e-05,26.415,8.5208e-05,-0.53084,-0.00026187,-2608.3,0.10845
30712,4.2758,0,0,0.00030247,3022.6,0.00010184,23.543,9.8547e-05,-1.1829,-0.00030208,-3011.3,0.12278
30713,4.4593,0,0,0.00033593,3357,0.00011262,20.28,0.00010973,-1.4938,-0.0003356,-3347.5,0.13731
30714,4.6428,0,0,0.00036314,3628.9,0.00012134,17.063,0.00011886,-1.5916,-0.00036287,-3621.1,0.15206
30715,4.8263,0,0,0.00038473,3844.7,0.00012822,14.129,0.00012613,-1.5337,-0.00038452,-3838.4,0.16706
30716,5.0097,0,0,0.00040142,4011.4,0.0001335,11.572,0.00013178,-1.3842,-0.00040124,-4006.3,0.18231
30717,5.1932,0,0,0.00041391,4136.3,0.00013744,9.4078,0.00013603,-1.1877,-0.00041377,-4132.2,0.19784
30718,5.3767,0,0,0.00042289,4226,0.00014024,7.6142,0.0001391,-0.97584,-0.00042278,-4222.7,0.21364
30719,5.5602,0,0,0.00042896,4286.7,0.00014211,6.1512,0.00014119,-0.76853,-0.00042887,-4284,0.22973
30720,5.7437,0,0,0.00043266,4323.6,0.00014322,4.9744,0.00014248,-0.57748,-0.00043258,-4321.4,0.2461
30721,5.9271,0,0,0.00043442,4341.2,0.00014372,4.041,0.00014313,-0.40856,-0.00043436,-4339.4,0.26277
30722,6.1106,0,0,0.00043464,4343.4,0.00014372,3.3132,0.00014324,-0.26386,-0.00043459,-4341.9,0.27973
30723,6.2941,0,0,0.00043361,4333.1,0.00014333,2.7578,0.00014294,-0.14309,-0.00043357,-4331.8,0.29698
30724,6.4776,0,0,0.0004316,4313.1,0.00014263,2.3471,0.00014231,-0.044653,-0.00043156,-4311.9,0.31453
30725,6.6611,0,0,0.00042881,4285.2,0.00014168,2.0573,0.00014141,0.033738,-0.00042878,-4284.1,0.33236
30726,6.8445,0,0,0.00042541,4251.2,0.00014054,1.8685,0.0001403,0.094614,-0.00042538,-4250.2,0.35048
30727,7.028,0,0,0.00042153,4212.4,0.00013925,1.7638,0.00013903,0.14049,-0.0004215,-4211.5,0.36889
30728,7.2115,0,0,0.00041728,4169.9,0.00013784,1.7288,0.00013763,0.17374,-0.00041725,-4169,0.38758
30729,7.395,0,0,0.00041274,4124.6,0.00013634,1.751,0.00013613,0.19652,-0.00041271,-4123.6,0.40656
30730,7.5785,0,0,0.00040798,4077,0.00013478,1.82,0.00013456,0.21077,-0.00040795,-4076,0.42581
30731,7.7619,0,0,0.00040306,4027.8,0.00013316,1.9267,0.00013293,0.21817,-0.00040303,-4026.8,0.44534
30732,7.9454,0,0,0.00039802,3977.4,0.00013151,2.0632,0.00013126,0.22017,-0.00039798,-3976.3,0.46513
30733,8.1289,0,0,0.00039288,3926.1,0.00012983,2.2231,0.00012956,0.21798,-0.00039284,-3924.9,0.4852
30734,8.3124,0,0,0.00038768,3874.1,0.00012812,2.4006,0.00012783,0.21261,-0.00038764,-3872.8,0.50553
30735,8.4959,0,0,0.00038244,3821.7,0.00012641,2.5912,0.00012609,0.20488,-0.00038239,-3820.3,0.52612
30736,8.6794,0,0,0.00037717,3769.1,0.00012469,2.7909,0.00012434,0.19546,-0.00037712,-3767.6,0.54696
30737,8.8628,0,0,0.00037188,3716.3,0.00012296,2.9963,0.00012259,0.18489,-0.00037183,-3714.7,0.56806
30738,9.0463,0,0,0.00036659,3663.4,0.00012123,3.205,0.00012083,0.17358,-0.00036653,-3661.7,0.58942
30739,9.2298,0,0,0.0003613,3610.5,0.00011951,3.4148,0.00011907,0.16188,-0.00036124,-3608.7,0.61101
30740,9.4133,0,0,0.00035602,3557.7,0.00011778,3.6239,0.00011732,0.15004,-0.00035595,-3555.8,0.63285
30741,9.5968,0,0,0.00035075,3505,0.00011606,3.831,0.00011557,0.13827,-0.00035068,-3503.1,0.65493
30742,9.7802,0,0,0.00034549,3452.5,0.00011434,4.0351,0.00011382,0.12672,-0.00034542,-3450.4,0.67725
30743,9.9637,0,0,0.00034025,3400.2,0.00011263,4.2354,0.00011208,0.11549,-0.00034018,-3398,0.6998
30744,10.147,0,0,0.00033503,3348,0.00011092,4.4315,0.00011035,0.10467,-0.00033495,-3345.7,0.72257
30745,10.331,0,0,0.00032983,3296,0.00010923,4.6229,0.00010862,0.094287,-0.00032975,-3293.7,0.74558
30746,10.514,0,0,0.00032465,3244.3,0.00010753,4.8094,0.0001069,0.08439,-0.00032457,-3241.8,0.7688
30747,10.698,0,0,0.00031949,3192.7,0.00010585,4.991,0.00010519,0.075012,-0.00031941,-3190.2,0.79224
30748,10.881,0,0,0.00031436,3141.4,0.00010417,5.1677,0.00010349,0.066161,-0.00031427,-3138.8,0.8159
30749,11.065,0,0,0.00030924,3090.3,0.00010249,5.3395,0.00010179,0.057807,-0.00030915,-3087.6,0.83976
30750,11.248,0,0,0.00030415,3039.4,0.00010083,5.5067,0.0001001,0.049929,-0.00030406,-3036.6,0.86384
30751,11.432,0,0,0.00029908,2988.8,9.9169e-05,5.6695,9.842e-05,0.042551,-0.00029899,-2985.9,0.88812
30752,11.615,0,0,0.00029404,2938.4,9.7518e-05,5.8281,9.6747e-05,0.035636,-0.00029394,-2935.4,0.9126
30753,11.799,0,0,0.00028902,2888.2,9.5874e-05,5.9827,9.5081e-05,0.029145,-0.00028891,-2885.2,0.93728
30754,11.982,0,0,0.00028402,2838.2,9.4236e-05,6.1336,9.3423e-05,0.023074,-0.00028391,-2835.1,0.96215
30755,12.165,0,0,0.00027904,2788.5,9.2606e-05,6.2813,9.1773e-05,0.017381,-0.00027893,-2785.3,0.98721
30756,12.349,0,0,0.00027408,2738.9,9.0983e-05,6.4258,9.013e-05,0.012048,-0.00027397,-2735.7,1.0125
30757,12.532,0,0,0.00026915,2689.6,8.9367e-05,6.5677,8.8494e-05,0.0070665,-0.00026904,-2686.3,1.0379
30758,12.716,0,0,0.00026424,2640.5,8.7758e-05,6.7072,8.6866e-05,0.0024114,-0.00026412,-2637.2,1.0635
30759,12.899,0,0,0.00025935,2591.7,8.6156e-05,6.8445,8.5245e-05,-0.0019612,-0.00025923,-2588.2,1.0893
30760,13.083,0,0,0.00025448,2543,8.4561e-05,6.9801,8.3631e-05,-0.0060834,-0.00025436,-2539.5,1.1153
30761,13.266,0,0,0.00024963,2494.6,8.2973e-05,7.1141,8.2025e-05,-0.009944,-0.00024951,-2491,1.1414
30762,13.45,0,0,0.00024481,2446.4,8.1392e-05,7.247,8.0425e-05,-0.013579,-0.00024468,-2442.7,1.1677
30763,13.633,0,0,0.00024,2398.4,7.9818e-05,7.379,7.8833e-05,-0.017024,-0.00023988,-2394.7,1.1942
30764,13.817,0,0,0.00023522,2350.6,7.825e-05,7.5104,7.7248e-05,-0.020282,-0.00023509,-2346.8,1.2208
30765,14,0,0,0.00023046,2303,7.669e-05,7.6414,7.567e-05,-0.023388,-0.00023033,-2299.2,1.2476
30766,14.184,0,0,0.00022571,2255.6,7.5136e-05,7.7723,7.4098e-05,-0.026349,-0.00022558,-2251.7,1.2745
30767,14.367,0,0,0.00022099,2208.4,7.359e-05,7.9035,7.2534e-05,-0.029171,-0.00022086,-2204.5,1.3016
30768,14.551,0,0,0.00021629,2161.5,7.205e-05,8.035,7.0976e-05,-0.031898,-0.00021616,-2157.4,1.3289
30769,14.734,0,0,0.00021162,2114.7,7.0517e-05,8.1672,6.9425e-05,-0.034539,-0.00021148,-2110.6,1.3562
30770,14.918,0,0,0.00020696,2068.1,6.8991e-05,8.3004,6.7881e-05,-0.037096,-0.00020681,-2064,1.3838
30771,15.101,0,0,0.00020232,2021.8,6.7471e-05,8.4348,6.6343e-05,-0.039585,-0.00020217,-2017.6,1.4114
30772,15.285,0,0,0.0001977,1975.6,6.5959e-05,8.5705,6.4812e-05,-0.042034,-0.00019755,-1971.4,1.4392
30773,15.468,0,0,0.0001931,1929.7,6.4453e-05,8.7078,6.3288e-05,-0.044464,-0.00019295,-1925.3,1.4672
30774,15.652,0,0,0.00018852,1883.9,6.2954e-05,8.8469,6.177e-05,-0.046881,-0.00018837,-1879.5,1.4952
30775,15.835,0,0,0.00018397,1838.4,6.1462e-05,8.988,6.0259e-05,-0.049308,-0.00018381,-1833.9,1.5234
30776,16.019,0,0,0.00017943,1793,5.9976e-05,9.1313,5.8754e-05,-0.051749,-0.00017927,-1788.5,1.5517
30777,16.202,0,0,0.00017491,1747.9,5.8498e-05,9.277,5.7256e-05,-0.054211,-0.00017475,-1743.3,1.5801
30778,16.386,0,0,0.00017041,1702.9,5.7026e-05,9.4253,5.5764e-05,-0.056736,-0.00017025,-1698.2,1.6087
30779,16.569,0,0,0.00016593,1658.2,5.556e-05,9.5763,5.4278e-05,-0.059333,-0.00016577,-1653.4,1.6373
30780,16.753,0,0,0.00016147,1613.6,5.4102e-05,9.7302,5.2798e-05,-0.062,-0.00016131,-1608.8,1.6661
30781,16.936,0,0,0.00015703,1569.3,5.265e-05,9.8872,5.1325e-05,-0.064762,-0.00015686,-1564.3,1.695
30782,17.119,0,0,0.00015261,1525.1,5.1204e-05,10.047,4.9858e-05,-0.067646,-0.00015244,-1520.1,1.724
30783,17.303,0,0,0.00014821,1481.1,4.9766e-05,10.211,4.8397e-05,-0.070665,-0.00014804,-1476,1.7531
30784,17.486,0,0,0.00014383,1437.3,4.8333e-05,10.378,4.6942e-05,-0.073836,-0.00014365,-1432.1,1.7823
30785,17.67,0,0,0.00013947,1393.7,4.6908e-05,10.548,4.5494e-05,-0.07719,-0.00013928,-1388.4,1.8115
30786,17.853,0,0,0.00013512,1350.3,4.5489e-05,10.722,4.4051e-05,-0.080736,-0.00013494,-1344.9,1.8409
30787,18.037,0,0,0.00013079,1307,4.4076e-05,10.899,4.2614e-05,-0.084489,-0.00013061,-1301.6,1.8704
30788,18.22,0,0,0.00012649,1264,4.267e-05,11.08,4.1183e-05,-0.088494,-0.0001263,-1258.5,1.8999
30789,18.404,0,0,0.0001222,1221.1,4.127e-05,11.265,3.9758e-05,-0.09277,-0.000122,-1215.5,1.9295
30790,18.587,0,0,0.00011793,1178.4,3.9876e-05,11.453,3.8339e-05,-0.097335,-0.00011773,-1172.7,1.9593
30791,18.771,0,0,0.00011367,1135.9,3.8488e-05,11.645,3.6925e-05,-0.10222,-0.00011347,-1130.1,1.9891
30792,18.954,0,0,0.00010944,1093.6,3.7107e-05,11.84,3.5517e-05,-0.10746,-0.00010923,-1087.7,2.0189
30793,19.138,0,0,0.00010522,1051.4,3.5731e-05,12.038,3.4114e-05,-0.11309,-0.00010501,-1045.4,2.0489
30794,19.321,0,0,0.00010102,1009.5,3.4362e-05,12.239,3.2717e-05,-0.11914,-0.0001008,-1003.3,2.0789
30795,19.505,0,0,9.6831e-05,967.64,3.2998e-05,12.443,3.1325e-05,-0.12567,-9.6615e-05,-961.42,2.109
30796,19.688,0,0,9.2663e-05,925.99,3.164e-05,12.649,2.9939e-05,-0.1327,-9.2443e-05,-919.66,2.1391
30797,19.872,0,0,8.8511e-05,884.5,3.0288e-05,12.857,2.8558e-05,-0.14028,-8.8288e-05,-878.07,2.1693
30798,20.055,0,0,8.4376e-05,843.17,2.894e-05,13.065,2.7182e-05,-0.14848,-8.4148e-05,-836.64,2.1996
30799,20.239,0,0,8.0256e-05,802.01,2.7599e-05,13.275,2.5811e-05,-0.15735,-8.0024e-05,-795.36,2.2299
30800,20.422,0,0,7.6152e-05,761,2.6262e-05,13.484,2.4445e-05,-0.16695,-7.5916e-05,-754.25,2.2602
30801,20.606,0,0,7.2064e-05,720.14,2.493e-05,13.691,2.3085e-05,-0.17735,-7.1824e-05,-713.28,2.2907
30802,20.789,0,0,6.799e-05,679.43,2.3604e-05,13.896,2.1729e-05,-0.18865,-6.7746e-05,-672.47,2.3211
30803,20.973,0,0,6.3932e-05,638.88,2.2282e-05,14.098,2.0378e-05,-0.20094,-6.3684e-05,-631.81,2.3516
30804,21.156,0,0,5.9889e-05,598.47,2.0964e-05,14.294,1.9033e-05,-0.21433,-5.9636e-05,-591.3,2.3822
30805,21.34,0,0,5.5861e-05,558.22,1.9651e-05,14.482,1.7693e-05,-0.22896,-5.5604e-05,-550.95,2.4128
30806,21.523,0,0,5.1847e-05,518.12,1.8341e-05,14.66,1.6358e-05,-0.24498,-5.1586e-05,-510.75,2.4434
30807,21.706,0,0,4.785e-05,478.17,1.7036e-05,14.826,1.5028e-05,-0.26261,-4.7584e-05,-470.71,2.4741
30808,21.89,0,0,4.3868e-05,438.38,1.5735e-05,14.976,1.3705e-05,-0.28207,-4.3598e-05,-430.83,2.5048
30809,22.073,0,0,3.9904e-05,398.76,1.4438e-05,15.106,1.2387e-05,-0.30369,-3.963e-05,-391.14,2.5355
30810,22.257,0,0,3.5957e-05,359.33,1.3145e-05,15.21,1.1077e-05,-0.32787,-3.5679e-05,-351.63,2.5662
30811,22.44,0,0,3.2032e-05,320.09,1.1855e-05,15.282,9.7743e-06,-0.35513,-3.1749e-05,-312.34,2.597
30812,22.624,0,0,2.8129e-05,281.1,1.057e-05,15.312,8.481e-06,-0.38625,-2.7842e-05,-273.3,2.6278
30813,22.807,0,0,2.4254e-05,242.37,9.2896e-06,15.288,7.1986e-06,-0.42219,-2.3963e-05,-234.56,2.6586
30814,22.991,0,0,2.0413e-05,203.99,8.0138e-06,15.192,5.9301e-06,-0.46486,-2.0117e-05,-196.18,2.6894
30815,23.174,0,0,1.6616e-05,166.04,6.7436e-06,14.994,4.6796e-06,-0.51519,-1.6315e-05,-158.26,2.7202
30816,23.358,0,0,1.2878e-05,128.69,5.4788e-06,14.632,3.4537e-06,-0.58448,-1.2571e-05,-120.99,2.7511
30817,23.541,0,0,9.2297e-06,92.233,4.2235e-06,14.05,2.2651e-06,-0.6648,-8.9134e-06,-84.655,2.7819
30818,23.725,0,0,5.6994e-06,56.955,2.9326e-06,12.537,1.1464e-06,-0.88337,-5.3813e-06,-49.93,2.8128
30819,23.908,0,0,2.3895e-06,23.879,1.4941e-06,8.6027,2.6174e-07,-0.65676,-2.1156e-06,-18.519,2.8436
30820,3.2667,0.090909,0,2.8668e-05,286.48,1.1823e-05,29.865,8.1138e-06,1.9927,-2.8024e-05,-269.53,0.046612
30821,24,0.090909,0,2.3216e-06,23.2,2.15e-06,20.34,-2.3975e-07,2.3845,-1.3363e-06,-5.8544,2.8591
30822,5.0067e-14,5.7273,0,0.00018887,1887.4,8.6399e-06,-1721.7,-4.6801e-06,-1821.8,-0.00024895,-3657.1,0
30823,4.8478e-14,5.5455,0,0.00026701,2668.3,3.573e-06,-2559.3,-3.2727e-06,-2610.7,-0.00035493,-5252.9,0
30824,4.6888e-14,5.3636,0,0.00030884,3086.3,1.8651e-06,-2985.9,-2.2818e-06,-3017.1,-0.00041095,-6087.6,0
30825,4.5299e-14,5.1818,0,0.00033583,3356,1.1693e-06,-3251.6,-1.4542e-06,-3271.3,-0.00044679,-6617.4,0
30826,4.371e-14,5,0,0.0003542,3539.5,7.9183e-07,-3431.7,-9.9199e-07,-3445.1,-0.00047118,-6977.9,0
30827,4.212e-14,4.8182,0,0.00036724,3669.9,5.5439e-07,-3559.4,-7.0252e-07,-3568.9,-0.00048851,-7234,0
30828,4.0531e-14,4.6364,0,0.00037666,3764,3.9168e-07,-3651.6,-5.0472e-07,-3658.3,-0.00050101,-7419,0
30829,3.8941e-14,4.4545,0,0.00038347,3832.1,2.7492e-07,-3718.3,-3.6417e-07,-3723.1,-0.00051007,-7552.8,0
30830,3.7352e-14,4.2727,0,0.00038837,3881,1.8955e-07,-3766.2,-2.6143e-07,-3769.6,-0.00051656,-7648.9,0
30831,3.5762e-14,4.0909,0,0.00039182,3915.5,1.2714e-07,-3800.1,-1.856e-07,-3802.4,-0.00052116,-7716.8,0
30832,3.4173e-14,3.9091,0,0.00039422,3939.5,8.2117e-08,-3823.5,-1.2987e-07,-3825.1,-0.00052433,-7763.7,0
30833,3.2583e-14,3.7273,0,0.00039583,3955.5,5.033e-08,-3839.2,-8.9522e-08,-3840.3,-0.00052647,-7795.3,0
30834,3.0994e-14,3.5455,0,0.00039687,3965.9,2.8408e-08,-3849.4,-6.0967e-08,-3850.1,-0.00052785,-7815.7,0
30835,2.9405e-14,3.3636,0,0.0003975,3972.3,1.3577e-08,-3855.7,-4.1389e-08,-3856.1,-0.00052869,-7828.2,0
30836,2.7815e-14,3.1818,0,0.00039784,3975.7,3.9478e-09,-3859,-2.8902e-08,-3859.2,-0.00052914,-7834.8,0
30837,2.6226e-14,3,0,0.00039795,3976.7,2.3198e-11,-3860,-2.4023e-08,-3860.2,-0.00052928,-7836.8,0
30838,2.4636e-14,2.8182,0,0.00039784,3975.7,3.9476e-09,-3859,-2.8902e-08,-3859.2,-0.00052914,-7834.8,0
30839,2.3047e-14,2.6364,0,0.0003975,3972.3,1.3577e-08,-3855.7,-4.1388e-08,-3856.1,-0.00052869,-7828.2,0
30840,2.1457e-14,2.4545,0,0.00039687,3965.9,2.8408e-08,-3849.4,-6.0967e-08,-3850.1,-0.00052785,-7815.7,0
30841,1.9868e-14,2.2727,0,0.00039583,3955.5,5.033e-08,-3839.2,-8.9521e-08,-3840.3,-0.00052647,-7795.3,0
30842,1.8279e-14,2.0909,0,0.00039422,3939.5,8.2117e-08,-3823.5,-1.2987e-07,-3825.1,-0.00052433,-7763.7,0
30843,1.6689e-14,1.9091,0,0.00039182,3915.5,1.2714e-07,-3800.1,-1.856e-07,-3802.4,-0.00052116,-7716.8,0
30844,1.51e-14,1.7273,0,0.00038837,3881,1.8955e-07,-3766.2,-2.6143e-07,-3769.6,-0.00051656,-7648.9,0
30845,1.351e-14,1.5455,0,0.00038347,3832.1,2.7492e-07,-3718.3,-3.6417e-07,-3723.1,-0.00051007,-7552.8,0
30846,1.1921e-14,1.3636,0,0.00037666,3764,3.9168e-07,-3651.6,-5.0472e-07,-3658.3,-0.00050102,-7419,0
30847,1.0331e-14,1.1818,0,0.00036724,3669.9,5.5439e-07,-3559.4,-7.0252e-07,-3568.9,-0.00048851,-7234,0
30848,8.7419e-15,1,0,0.0003542,3539.5,7.9183e-07,-3431.7,-9.9199e-07,-3445.1,-0.00047118,-6977.9,0
30849,7.1525e-15,0.81818,0,0.00033583,3356,1.1693e-06,-3251.6,-1.4541e-06,-3271.3,-0.00044679,-6617.4,0
30850,5.563e-15,0.63636,0,0.00030884,3086.3,1.8652e-06,-2985.9,-2.2818e-06,-3017.1,-0.00041095,-6087.6,0
30851,3.9736e-15,0.45455,0,0.00026701,2668.3,3.573e-06,-2559.3,-3.2727e-06,-2610.7,-0.00035493,-5252.9,0
30852,2.3842e-15,0.27273,0,0.00018887,1887.4,8.6399e-06,-1721.7,-4.6801e-06,-1821.8,-0.00024895,-3657.1,0
30853,24,0.27273,0,5.3329e-06,53.292,5.1945e-06,50.359,-1.216e-06,2.193,-2.425e-06,-6.8914,2.8593
30854,24,0.45455,0,7.7624e-06,77.571,7.6367e-06,74.712,-2.0025e-06,2.2863,-3.2575e-06,-7.143,2.8594
30855,24,0.63636,0,9.6963e-06,96.896,9.5783e-06,94.126,-2.6293e-06,2.4032,-3.9106e-06,-7.2241,2.8596
30856,24,0.81818,0,1.1324e-05,113.16,1.1212e-05,110.46,-3.1647e-06,2.4383,-4.4519e-06,-7.233,2.8597
30857,24,1,0,1.272e-05,127.11,1.2611e-05,124.46,-3.6254e-06,2.468,-4.9124e-06,-7.2024,2.8598
30858,24,1.1818,0,1.3926e-05,139.16,1.3821e-05,136.58,-4.0249e-06,2.4878,-5.3086e-06,-7.1573,2.8599
30859,24,1.3636,0,1.4971e-05,149.6,1.4869e-05,147.07,-4.3715e-06,2.5032,-5.6504e-06,-7.1059,2.86
30860,24,1.5455,0,1.5873e-05,158.62,1.5774e-05,156.13,-4.6712e-06,2.5149,-5.9448e-06,-7.054,2.8601
30861,24,1.7273,0,1.6645e-05,166.34,1.6549e-05,163.89,-4.9284e-06,2.5241,-6.1966e-06,-7.0047,2.8602
30862,24,1.9091,0,1.7299e-05,172.88,1.7205e-05,170.47,-5.1461e-06,2.5313,-6.4093e-06,-6.9598,2.8603
30863,24,2.0909,0,1.7842e-05,178.3,1.7749e-05,175.92,-5.3269e-06,2.5369,-6.5856e-06,-6.9206,2.8604
30864,24,2.2727,0,1.8279e-05,182.67,1.8187e-05,180.31,-5.4727e-06,2.5412,-6.7276e-06,-6.8878,2.8604
30865,24,2.4545,0,1.8615e-05,186.03,1.8524e-05,183.69,-5.5847e-06,2.5444,-6.8366e-06,-6.8619,2.8605
30866,24,2.6364,0,1.8853e-05,188.4,1.8763e-05,186.08,-5.664e-06,2.5466,-6.9137e-06,-6.8432,2.8605
30867,24,2.8182,0,1.8995e-05,189.82,1.8905e-05,187.51,-5.7114e-06,2.5479,-6.9598e-06,-6.8319,2.8605
30868,24,3,0,1.9042e-05,190.29,1.8952e-05,187.98,-5.7271e-06,2.5483,-6.975e-06,-6.8281,2.8605
30869,24,3.1818,0,1.8995e-05,189.82,1.8905e-05,187.51,-5.7114e-06,2.5479,-6.9598e-06,-6.8319,2.8605
30870,24,3.3636,0,1.8853e-05,188.4,1.8763e-05,186.08,-5.664e-06,2.5466,-6.9137e-06,-6.8432,2.8605
30871,24,3.5455,0,1.8615e-05,186.03,1.8524e-05,183.69,-5.5847e-06,2.5444,-6.8366e-06,-6.8619,2.8605
30872,24,3.7273,0,1.8279e-05,182.67,1.8187e-05,180.31,-5.4727e-06,2.5412,-6.7276e-06,-6.8878,2.8604
30873,24,3.9091,0,1.7842e-05,178.3,1.7749e-05,175.92,-5.3269e-06,2.5369,-6.5856e-06,-6.9206,2.8604
30874,24,4.0909,0,1.7299e-05,172.88,1.7205e-05,170.47,-5.1461e-06,2.5313,-6.4093e-06,-6.9598,2.8603
30875,24,4.2727,0,1.6645e-05,166.34,1.6549e-05,163.89,-4.9284e-06,2.5241,-6.1966e-06,-7.0047,2.8602
30876,24,4.4545,0,1.5873e-05,158.62,1.5774e-05,156.13,-4.6712e-06,2.5149,-5.9448e-06,-7.054,2.8601
30877,24,4.6364,0,1.4971e-05,149.6,1.4869e-05,147.07,-4.3715e-06,2.5032,-5.6504e-06,-7.1059,2.86
30878,24,4.8182,0,1.3926e-05,139.16,1.3821e-05,136.58,-4.0249e-06,2.4878,-5.3085e-06,-7.1572,2.8599
30879,24,5,0,1.272e-05,127.11,1.2611e-05,124.46,-3.6254e-06,2.468,-4.9124e-06,-7.2024,2.8598
30880,24,5.1818,0,1.1324e-05,113.16,1.1212e-05,110.46,-3.1647e-06,2.4383,-4.4519e-06,-7.233,2.8597
30881,24,5.3636,0,9.6963e-06,96.896,9.5783e-06,94.126,-2.6293e-06,2.4032,-3.9106e-06,-7.2241,2.8596
30882,24,5.5455,0,7.7624e-06,77.571,7.6367e-06,74.711,-2.0025e-06,2.2863,-3.2575e-06,-7.143,2.8594
30883,24,5.7273,0,5.3329e-06,53.292,5.1945e-06,50.359,-1.216e-06,2.193,-2.425e-06,-6.8914,2.8593
30884,24,5.9091,0,2.3216e-06,23.2,2.15e-06,20.34,-2.3975e-07,2.3845,-1.3363e-06,-5.8544,2.8591
30885,23.908,6,0,2.3895e-06,23.879,1.4941e-06,8.6027,2.6174e-07,-0.65675,-2.1156e-06,-18.519,2.8436
30886,23.725,6,0,5.6994e-06,56.955,2.9326e-06,12.537,1.1464e-06,-0.88337,-5.3813e-06,-49.93,2.8128
30887,23.541,6,0,9.2297e-06,92.233,4.2235e-06,14.05,2.2651e-06,-0.6648,-8.9134e-06,-84.656,2.7819
30888,23.358,6,0,1.2878e-05,128.69,5.4788e-06,14.632,3.4537e-06,-0.58448,-1.2571e-05,-120.99,2.7511
30889,23.174,6,0,1.6616e-05,166.05,6.7436e-06,14.994,4.6796e-06,-0.51518,-1.6315e-05,-158.26,2.7202
30890,22.991,6,0,2.0413e-05,203.99,8.0138e-06,15.191,5.9301e-06,-0.46485,-2.0117e-05,-196.18,2.6894
30891,22.807,6,0,2.4254e-05,242.37,9.2896e-06,15.288,7.1987e-06,-0.42219,-2.3963e-05,-234.56,2.6586
30892,22.624,6,0,2.8129e-05,281.1,1.057e-05,15.312,8.481e-06,-0.38625,-2.7842e-05,-273.3,2.6278
30893,22.44,6,0,3.2032e-05,320.09,1.1855e-05,15.282,9.7743e-06,-0.35513,-3.1749e-05,-312.35,2.597
30894,22.257,6,0,3.5957e-05,359.33,1.3145e-05,15.21,1.1077e-05,-0.32787,-3.5679e-05,-351.63,2.5662
30895,22.073,6,0,3.9904e-05,398.76,1.4438e-05,15.106,1.2387e-05,-0.30369,-3.963e-05,-391.14,2.5355
30896,21.89,6,0,4.3868e-05,438.38,1.5735e-05,14.976,1.3705e-05,-0.28207,-4.3598e-05,-430.83,2.5048
30897,21.706,6,0,4.785e-05,478.17,1.7036e-05,14.826,1.5028e-05,-0.26261,-4.7584e-05,-470.71,2.4741
30898,21.523,6,0,5.1847e-05,518.12,1.8341e-05,14.66,1.6358e-05,-0.24498,-5.1586e-05,-510.75,2.4434
30899,21.34,6,0,5.5861e-05,558.22,1.9651e-05,14.482,1.7693e-05,-0.22895,-5.5604e-05,-550.95,2.4128
30900,21.156,6,0,5.9889e-05,598.47,2.0964e-05,14.293,1.9033e-05,-0.21432,-5.9636e-05,-591.3,2.3822
30901,20.973,6,0,6.3932e-05,638.88,2.2282e-05,14.098,2.0379e-05,-0.20093,-6.3684e-05,-631.81,2.3516
30902,20.789,6,0,6.799e-05,679.43,2.3604e-05,13.896,2.1729e-05,-0.18864,-6.7746e-05,-672.47,2.3211
30903,20.606,6,0,7.2064e-05,720.14,2.493e-05,13.691,2.3085e-05,-0.17735,-7.1824e-05,-713.28,2.2907
30904,20.422,6,0,7.6152e-05,761,2.6262e-05,13.484,2.4445e-05,-0.16695,-7.5916e-05,-754.25,2.2602
30905,20.239,6,0,8.0256e-05,802.01,2.7599e-05,13.275,2.5811e-05,-0.15735,-8.0024e-05,-795.36,2.2299
30906,20.055,6,0,8.4376e-05,843.17,2.894e-05,13.065,2.7182e-05,-0.14848,-8.4148e-05,-836.64,2.1996
30907,19.872,6,0,8.8511e-05,884.5,3.0288e-05,12.856,2.8558e-05,-0.14028,-8.8288e-05,-878.07,2.1693
30908,19.688,6,0,9.2663e-05,925.99,3.164e-05,12.649,2.9939e-05,-0.1327,-9.2443e-05,-919.66,2.1391
30909,19.505,6,0,9.6831e-05,967.64,3.2998e-05,12.443,3.1325e-05,-0.12567,-9.6615e-05,-961.42,2.109
30910,19.321,6,0,0.00010102,1009.5,3.4362e-05,12.239,3.2717e-05,-0.11914,-0.0001008,-1003.3,2.0789
30911,19.138,6,0,0.00010522,1051.4,3.5731e-05,12.038,3.4114e-05,-0.11309,-0.00010501,-1045.4,2.0489
30912,18.954,6,0,0.00010944,1093.6,3.7107e-05,11.84,3.5517e-05,-0.10746,-0.00010923,-1087.7,2.0189
30913,18.771,6,0,0.00011367,1135.9,3.8488e-05,11.645,3.6925e-05,-0.10222,-0.00011347,-1130.1,1.9891
30914,18.587,6,0,0.00011793,1178.4,3.9876e-05,11.453,3.8339e-05,-0.097334,-0.00011773,-1172.7,1.9593
30915,18.404,6,0,0.0001222,1221.1,4.127e-05,11.265,3.9758e-05,-0.09277,-0.000122,-1215.5,1.9295
30916,18.22,6,0,0.00012649,1264,4.267e-05,11.08,4.1183e-05,-0.088494,-0.0001263,-1258.5,1.8999
30917,18.037,6,0,0.00013079,1307,4.4076e-05,10.899,4.2614e-05,-0.08449,-0.00013061,-1301.6,1.8704
30918,17.853,6,0,0.00013512,1350.3,4.5489e-05,10.722,4.4051e-05,-0.080734,-0.00013494,-1344.9,1.8409
30919,17.67,6,0,0.00013947,1393.7,4.6908e-05,10.548,4.5494e-05,-0.077187,-0.00013928,-1388.4,1.8115
30920,17.486,6,0,0.00014383,1437.3,4.8333e-05,10.377,4.6942e-05,-0.073836,-0.00014365,-1432.1,1.7823
30921,17.303,6,0,0.00014821,1481.1,4.9766e-05,10.211,4.8397e-05,-0.070664,-0.00014804,-1476,1.7531
30922,17.119,6,0,0.00015261,1525.1,5.1204e-05,10.047,4.9858e-05,-0.067641,-0.00015244,-1520.1,1.724
30923,16.936,6,0,0.00015703,1569.3,5.265e-05,9.8871,5.1325e-05,-0.064761,-0.00015686,-1564.3,1.695
30924,16.753,6,0,0.00016147,1613.6,5.4102e-05,9.7302,5.2798e-05,-0.062,-0.00016131,-1608.8,1.6661
30925,16.569,6,0,0.00016593,1658.2,5.556e-05,9.5763,5.4278e-05,-0.059331,-0.00016577,-1653.4,1.6373
30926,16.386,6,0,0.00017041,1702.9,5.7026e-05,9.4253,5.5764e-05,-0.056736,-0.00017025,-1698.2,1.6087
30927,16.202,6,0,0.00017491,1747.9,5.8498e-05,9.277,5.7256e-05,-0.054212,-0.00017475,-1743.3,1.5801
30928,16.019,6,0,0.00017943,1793,5.9976e-05,9.1313,5.8754e-05,-0.051747,-0.00017927,-1788.5,1.5517
30929,15.835,6,0,0.00018397,1838.4,6.1462e-05,8.9879,6.0259e-05,-0.049305,-0.00018381,-1833.9,1.5234
30930,15.652,6,0,0.00018852,1883.9,6.2954e-05,8.8468,6.177e-05,-0.04688,-0.00018837,-1879.5,1.4952
30931,15.468,6,0,0.0001931,1929.7,6.4453e-05,8.7077,6.3288e-05,-0.044465,-0.00019295,-1925.3,1.4672
30932,15.285,6,0,0.0001977,1975.6,6.5959e-05,8.5704,6.4812e-05,-0.042035,-0.00019755,-1971.4,1.4392
30933,15.101,6,0,0.00020232,2021.8,6.7471e-05,8.4347,6.6343e-05,-0.039585,-0.00020217,-2017.6,1.4114
30934,14.918,6,0,0.00020696,2068.1,6.8991e-05,8.3004,6.7881e-05,-0.037095,-0.00020681,-2064,1.3838
30935,14.734,6,0,0.00021162,2114.7,7.0517e-05,8.1672,6.9425e-05,-0.034539,-0.00021148,-2110.6,1.3562
30936,14.551,6,0,0.00021629,2161.5,7.205e-05,8.035,7.0976e-05,-0.031897,-0.00021616,-2157.4,1.3289
30937,14.367,6,0,0.00022099,2208.4,7.359e-05,7.9034,7.2534e-05,-0.02917,-0.00022086,-2204.5,1.3016
30938,14.184,6,0,0.00022571,2255.6,7.5136e-05,7.7722,7.4098e-05,-0.02635,-0.00022558,-2251.7,1.2745
30939,14,6,0,0.00023046,2303,7.669e-05,7.6413,7.567e-05,-0.023389,-0.00023033,-2299.2,1.2476
30940,13.817,6,0,0.00023522,2350.6,7.825e-05,7.5103,7.7248e-05,-0.020281,-0.00023509,-2346.8,1.2208
30941,13.633,6,0,0.00024,2398.4,7.9818e-05,7.3789,7.8833e-05,-0.017023,-0.00023988,-2394.7,1.1942
30942,13.45,6,0,0.00024481,2446.4,8.1392e-05,7.247,8.0425e-05,-0.013579,-0.00024468,-2442.7,1.1677
30943,13.266,6,0,0.00024963,2494.6,8.2973e-05,7.1141,8.2025e-05,-0.0099439,-0.00024951,-2491,1.1414
30944,13.083,6,0,0.00025448,2543,8.4561e-05,6.98,8.3631e-05,-0.006083,-0.00025436,-2539.5,1.1153
30945,12.899,6,0,0.00025935,2591.7,8.6156e-05,6.8445,8.5245e-05,-0.0019609,-0.00025923,-2588.2,1.0893
30946,12.716,6,0,0.00026424,2640.5,8.7758e-05,6.7071,8.6866e-05,0.0024115,-0.00026412,-2637.2,1.0635
30947,12.532,6,0,0.00026915,2689.6,8.9367e-05,6.5676,8.8494e-05,0.0070663,-0.00026904,-2686.3,1.0379
30948,12.349,6,0,0.00027408,2738.9,9.0983e-05,6.4258,9.013e-05,0.012048,-0.00027397,-2735.7,1.0125
30949,12.165,6,0,0.00027904,2788.5,9.2606e-05,6.2812,9.1773e-05,0.017381,-0.00027893,-2785.3,0.98721
30950,11.982,6,0,0.00028402,2838.2,9.4236e-05,6.1336,9.3423e-05,0.023074,-0.00028391,-2835.1,0.96215
30951,11.799,6,0,0.00028902,2888.2,9.5874e-05,5.9826,9.5081e-05,0.029145,-0.00028891,-2885.2,0.93728
30952,11.615,6,0,0.00029404,2938.4,9.7518e-05,5.828,9.6747e-05,0.035636,-0.00029394,-2935.4,0.9126
30953,11.432,6,0,0.00029908,2988.8,9.9169e-05,5.6694,9.842e-05,0.042551,-0.00029899,-2985.9,0.88812
30954,11.248,6,0,0.00030415,3039.4,0.00010083,5.5067,0.0001001,0.049929,-0.00030406,-3036.6,0.86384
30955,11.065,6,0,0.00030924,3090.3,0.00010249,5.3395,0.00010179,0.057807,-0.00030915,-3087.6,0.83976
30956,10.881,6,0,0.00031436,3141.4,0.00010417,5.1676,0.00010349,0.066161,-0.00031427,-3138.8,0.8159
30957,10.698,6,0,0.00031949,3192.7,0.00010585,4.9909,0.00010519,0.075012,-0.00031941,-3190.2,0.79224
30958,10.514,6,0,0.00032465,3244.3,0.00010753,4.8093,0.0001069,0.08439,-0.00032457,-3241.8,0.7688
30959,10.331,6,0,0.00032983,3296,0.00010923,4.6228,0.00010862,0.094287,-0.00032975,-3293.7,0.74558
30960,10.147,6,0,0.00033503,3348,0.00011092,4.4314,0.00011035,0.10467,-0.00033495,-3345.7,0.72257
30961,9.9637,6,0,0.00034025,3400.2,0.00011263,4.2354,0.00011208,0.11549,-0.00034018,-3398,0.6998
30962,9.7802,6,0,0.00034549,3452.5,0.00011434,4.0351,0.00011382,0.12672,-0.00034542,-3450.4,0.67725
30963,9.5968,6,0,0.00035075,3505,0.00011606,3.831,0.00011557,0.13827,-0.00035068,-3503.1,0.65493
30964,9.4133,6,0,0.00035602,3557.7,0.00011778,3.6239,0.00011732,0.15004,-0.00035595,-3555.8,0.63285
30965,9.2298,6,0,0.0003613,3610.5,0.00011951,3.4148,0.00011907,0.16188,-0.00036124,-3608.7,0.61101
30966,9.0463,6,0,0.00036659,3663.4,0.00012123,3.205,0.00012083,0.17358,-0.00036653,-3661.7,0.58942
30967,8.8628,6,0,0.00037188,3716.3,0.00012296,2.9963,0.00012259,0.18489,-0.00037183,-3714.7,0.56806
30968,8.6794,6,0,0.00037717,3769.1,0.00012469,2.7908,0.00012434,0.19546,-0.00037712,-3767.6,0.54696
30969,8.4959,6,0,0.00038244,3821.7,0.00012641,2.5912,0.00012609,0.20488,-0.00038239,-3820.3,0.52612
30970,8.3124,6,0,0.00038768,3874.1,0.00012812,2.4006,0.00012783,0.21261,-0.00038764,-3872.8,0.50553
30971,8.1289,6,0,0.00039288,3926.1,0.00012983,2.2231,0.00012956,0.21798,-0.00039284,-3924.9,0.4852
30972,7.9454,6,0,0.00039802,3977.4,0.00013151,2.0632,0.00013126,0.22017,-0.00039798,-3976.3,0.46513
30973,7.7619,6,0,0.00040306,4027.8,0.00013316,1.9267,0.00013293,0.21817,-0.00040303,-4026.8,0.44533
30974,7.5785,6,0,0.00040798,4077,0.00013478,1.82,0.00013456,0.21077,-0.00040795,-4076,0.42581
30975,7.395,6,0,0.00041274,4124.6,0.00013634,1.751,0.00013613,0.19652,-0.00041271,-4123.6,0.40656
30976,7.2115,6,0,0.00041728,4169.9,0.00013784,1.7287,0.00013763,0.17374,-0.00041725,-4169,0.38758
30977,7.028,6,0,0.00042153,4212.4,0.00013925,1.7638,0.00013903,0.14049,-0.0004215,-4211.5,0.36889
30978,6.8445,6,0,0.00042541,4251.2,0.00014054,1.8685,0.0001403,0.094613,-0.00042538,-4250.2,0.35048
30979,6.6611,6,0,0.00042881,4285.2,0.00014168,2.0573,0.00014141,0.033736,-0.00042878,-4284.1,0.33236
30980,6.4776,6,0,0.0004316,4313.1,0.00014263,2.3471,0.00014231,-0.044655,-0.00043156,-4311.9,0.31453
30981,6.2941,6,0,0.00043361,4333.1,0.00014333,2.7578,0.00014294,-0.14309,-0.00043357,-4331.8,0.29698
30982,6.1106,6,0,0.00043464,4343.4,0.00014372,3.3131,0.00014324,-0.26386,-0.00043459,-4341.9,0.27973
30983,5.9271,6,0,0.00043442,4341.2,0.00014372,4.041,0.00014313,-0.40857,-0.00043436,-4339.4,0.26277
30984,5.7437,6,0,0.00043266,4323.6,0.00014322,4.9744,0.00014248,-0.57749,-0.00043258,-4321.4,0.2461
30985,5.5602,6,0,0.00042896,4286.7,0.00014211,6.1512,0.00014119,-0.76854,-0.00042887,-4284,0.22973
30986,5.3767,6,0,0.00042289,4226,0.00014024,7.6142,0.0001391,-0.97584,-0.00042278,-4222.7,0.21364
30987,5.1932,6,0,0.00041391,4136.3,0.00013744,9.4078,0.00013603,-1.1877,-0.00041377,-4132.2,0.19784
30988,5.0097,6,0,0.00040142,4011.4,0.0001335,11.572,0.00013178,-1.3842,-0.00040124,-4006.3,0.18231
30989,4.8263,6,0,0.00038473,3844.7,0.00012822,14.129,0.00012613,-1.5337,-0.00038452,-3838.4,0.16706
30990,4.6428,6,0,0.00036314,3628.9,0.00012134,17.063,0.00011886,-1.5916,-0.00036287,-3621.1,0.15206
30991,4.4593,6,0,0.00033593,3357,0.00011262,20.28,0.00010973,-1.4939,-0.0003356,-3347.5,0.13731
30992,4.2758,6,0,0.00030247,3022.6,0.00010184,23.543,9.8547e-05,-1.1829,-0.00030208,-3011.3,0.12278
30993,4.0923,6,0,0.00026232,2621.3,8.8794e-05,26.415,8.5208e-05,-0.53085,-0.00026187,-2608.3,0.10845
30994,3.9088,6,0,0.00021527,2151.2,7.3361e-05,28.002,6.967e-05,0.27,-0.00021477,-2136.9,0.094304
30995,3.7254,6,0,0.00016141,1613,5.5417e-05,27.083,5.2102e-05,2.1808,-0.0001609,-1598.2,0.080301
30996,3.5419,6,0,0.00010023,1001.6,3.4991e-05,23.038,3.1932e-05,0.053738,-9.9815e-05,-989.84,0.06641
30997,3.3584,6,0,3.4967e-05,349.42,1.3304e-05,7.6942,9.174e-06,-23.334,-3.5129e-05,-356.21,0.052596
30998,3.2667,5.9091,0,2.8668e-05,286.48,1.1823e-05,29.865,8.1138e-06,1.9927,-2.8024e-05,-269.53,0.046612
30999,3.1,1.7273,0,0.00095479,9541.3,0.00067231,4670.6,6.2874e-05,91.596,-0.0007874,-6297,0.056652
31000,3.1,1.9091,0,0.0018149,18137,0.0010356,4515,0.00020123,-1754.2,-0.0016847,-15924,0.059122
31001,3.1,1.5455,0,0.00064505,6446.1,0.00041371,2614.9,7.9611e-05,104.61,-0.000561,-4708.7,0.054382
31002,3.1,1.3636,0,0.00051957,5192.1,0.000326,1987.3,6.7611e-05,45.835,-0.00045699,-3895.8,0.052249
31003,3.1,1.1818,0,0.00042186,4215.7,0.00025406,1472.2,6.3538e-05,40.756,-0.00037747,-3272.8,0.050248
31004,3.1,1,0,0.00034616,3459.2,0.00020053,1101.7,5.8155e-05,31.903,-0.00031423,-2766.1,0.04837
31005,3.1,0.81818,0,0.00028164,2814.5,0.00015649,810,5.2465e-05,28.391,-0.00025912,-2312.7,0.046605
31006,3.1,0.63636,0,0.000223,2228.5,0.00011831,570.27,4.5797e-05,25.401,-0.00020781,-1880.1,0.044942
31007,3.1,0.45455,0,0.00016643,1663.2,8.3524e-05,367.36,3.7888e-05,24.474,-0.00015709,-1440.5,0.043369
31008,3.1,0.27273,0,0.00010703,1069.5,4.9999e-05,192.48,2.7235e-05,21.435,-0.00010235,-952.25,0.04187
31009,3.1833,2,0,0.0025102,25085,0.0011964,2831.3,0.00042085,-2996,-0.0024617,-24654,0.064397
31010,3.2667,0.27273,0,7.94e-05,793.45,3.9716e-05,177.18,1.8532e-05,18.004,-7.4872e-05,-683.8,0.048436
31011,3.2667,0.45455,0,0.00012501,1249.2,6.8143e-05,346.77,2.4721e-05,20.511,-0.00011552,-1033.2,0.050296
31012,3.2667,0.63636,0,0.00017081,1707,9.9006e-05,547.68,2.9021e-05,21.839,-0.00015493,-1360.3,0.052202
31013,3.2667,0.81818,0,0.00022088,2207.2,0.00013404,786.52,3.2681e-05,24.908,-0.00019698,-1700.7,0.054165
31014,3.2667,1,0,0.00027867,2784.8,0.00017545,1076,3.6022e-05,28.456,-0.00024468,-2080.6,0.056189
31015,3.2667,1.1818,0,0.00034923,3489.9,0.00022655,1440.4,3.9792e-05,37.212,-0.00030223,-2532.6,0.058282
31016,3.2667,1.3636,0,0.00044305,4427.5,0.0002958,1940.2,4.3148e-05,41.908,-0.00037766,-3119.9,0.060449
31017,3.2667,1.5455,0,0.00056608,5656.9,0.00038113,2547.4,5.5297e-05,99.251,-0.00047979,-3921.2,0.062699
31018,3.2667,1.7273,0,0.00086994,8693.4,0.00063071,4515,4.0931e-05,83.568,-0.00070236,-5501.2,0.065035
31019,3.2667,1.9091,0,0.001744,17428,0.00099922,4437,0.00019504,-1605.3,-0.0016153,-15208,0.067516
31020,3.1,4.2727,0,0.00095479,9541.3,0.00067231,4670.6,6.2874e-05,91.596,-0.0007874,-6297,0.056652
31021,3.1,4.0909,0,0.0018149,18137,0.0010356,4515,0.00020123,-1754.2,-0.0016847,-15924,0.059122
31022,3.1,4.4545,0,0.00064505,6446.1,0.00041371,2614.9,7.9612e-05,104.61,-0.000561,-4708.7,0.054382
31023,3.1,4.6364,0,0.00051957,5192.1,0.000326,1987.3,6.7611e-05,45.835,-0.00045699,-3895.8,0.052249
31024,3.1,4.8182,0,0.00042186,4215.7,0.00025406,1472.2,6.3538e-05,40.756,-0.00037747,-3272.8,0.050248
31025,3.1,5,0,0.00034616,3459.2,0.00020053,1101.7,5.8155e-05,31.903,-0.00031423,-2766.1,0.04837
31026,3.1,5.1818,0,0.00028164,2814.5,0.00015649,810,5.2465e-05,28.391,-0.00025912,-2312.7,0.046605
31027,3.1,5.3636,0,0.000223,2228.5,0.00011831,570.27,4.5797e-05,25.401,-0.00020781,-1880.1,0.044942
31028,3.1,5.5455,0,0.00016643,1663.2,8.3524e-05,367.36,3.7888e-05,24.474,-0.00015709,-1440.5,0.043369
31029,3.1,5.7273,0,0.00010703,1069.5,4.9999e-05,192.48,2.7235e-05,21.435,-0.00010235,-952.25,0.04187
31030,3.1833,4,0,0.0025102,25085,0.0011964,2831.3,0.00042084,-2996,-0.0024617,-24654,0.064397
31031,3.2667,5.7273,0,7.94e-05,793.45,3.9716e-05,177.18,1.8532e-05,18.004,-7.4872e-05,-683.8,0.048436
31032,3.2667,5.5455,0,0.00012501,1249.2,6.8143e-05,346.77,2.4721e-05,20.511,-0.00011552,-1033.2,0.050296
31033,3.2667,5.3636,0,0.00017081,1707,9.9006e-05,547.68,2.9021e-05,21.839,-0.00015493,-1360.3,0.052202
31034,3.2667,5.1818,0,0.00022088,2207.2,0.00013404,786.52,3.2681e-05,24.908,-0.00019698,-1700.7,0.054165
31035,3.2667,5,0,0.00027867,2784.8,0.00017545,1076,3.6022e-05,28.456,-0.00024468,-2080.6,0.056189
31036,3.2667,4.8182,0,0.00034923,3489.9,0.00022655,1440.4,3.9792e-05,37.212,-0.00030223,-2532.6,0.058282
31037,3.2667,4.6364,0,0.00044305,4427.5,0.0002958,1940.2,4.3148e-05,41.908,-0.00037766,-3119.9,0.060449
31038,3.2667,4.4545,0,0.00056608,5656.9,0.00038113,2547.4,5.5297e-05,99.251,-0.00047979,-3921.2,0.062699
31039,3.2667,4.2727,0,0.00086994,8693.4,0.00063071,4515,4.0931e-05,83.567,-0.00070236,-5501.2,0.065035
31040,3.2667,4.0909,0,0.001744,17428,0.00099922,4437,0.00019504,-1605.3,-0.0016153,-15208,0.067516
