Node Numbers,X Locations (inches),Y Locations (inches),Z Locations (inches),Equivalent Elastic Strains (in/in),Equivalent Stress (psi),Max Principal Elastic Strain (in/in),Max Principal Stress (psi),Middle Principal Elastic Strain (in/in),Middle Principal Stress (psi),Min Principal Elastic Strain (in/in),Min Principal Stress (psi),Total Deformation (in)
1,18.324,3.4668,0,0.00027985,2796.5,0.00014848,751.51,6.1197e-05,95.711,-0.0002596,-2314.6,1.4244
2,17.877,2.5102,0,0.0002943,2941,0.00011997,431.35,9.7695e-05,264.02,-0.00028211,-2589.7,1.3662
3,17.36,3.8827,0,0.0002122,2120.5,9.0129e-05,202.86,5.3465e-05,-72.62,-0.00020864,-2041.9,1.2992
4,18.713,3.7467,0,0.00018005,1799.2,8.2165e-05,266.08,4.3822e-05,-22.012,-0.00017416,-1659.8,1.4757
5,19.074,2.8938,0,0.00014661,1465.1,5.7576e-05,63.838,3.8228e-05,-81.531,-0.00014637,-1468.5,1.5247
6,17.218,2.1649,0,0.00018988,1897.5,8.8769e-05,245.03,3.8494e-05,-132.72,-0.00018512,-1812.9,1.2819
7,16.998,4.9194,0,0.0001427,1426,6.253e-05,222.39,4.0754e-05,58.775,-0.00013721,-1278.4,1.2511
8,17.273,1.5951,0,0.00020788,2077.4,0.00015354,995.86,-9.4802e-06,-229,-0.00016569,-1402.7,1.2879
9,8.7521,3.1491,0,0.0003618,3615.5,0.00012971,38.586,0.0001052,-145.56,-0.00036327,-3665.5,0.38043
10,10.582,3.0628,0,0.00031815,3179.3,0.00011186,53.81,9.821e-05,-48.752,-0.00031794,-3175.6,0.54176
11,18.298,2.7428,0,0.00027824,2780.5,0.00013747,557.19,6.1845e-05,-11.058,-0.00026455,-2463.5,1.4213
12,17.926,3.3121,0,0.00028662,2864.2,0.00014026,612.21,7.0276e-05,86.417,-0.00027109,-2478.4,1.3726
13,22.152,1.7943,0,3.8442e-05,384.15,1.4025e-05,14.06,1.1685e-05,-3.524,-3.8232e-05,-378.58,1.9483
14,21.848,3.7615,0,4.6969e-05,469.36,1.5974e-05,-4.9543,1.4234e-05,-18.028,-4.7346e-05,-480.72,1.9056
15,19.97,4.4179,0,6.9834e-05,697.86,2.9145e-05,76.884,1.9535e-05,4.6812,-6.8166e-05,-654.27,1.6459
16,19.199,3.9485,0,0.00011388,1138,5.4325e-05,228.52,2.9172e-05,39.539,-0.00010813,-992.1,1.5412
17,20.306,1.3241,0,6.2928e-05,628.85,2.2351e-05,24.364,2.0308e-05,9.0108,-6.2346e-05,-612.02,1.6924
18,16.473,1.0306,0,0.00015797,1578.6,7.3845e-05,295.48,4.1245e-05,50.534,-0.00015065,-1391.3,1.1874
19,1.8279,1.9895,0,0.00055522,5548.3,0.00031412,1102.8,3.6369e-05,-984.14,-0.00052292,-5186.4,0.017309
20,3.6472,1.9855,0,0.00048296,4826.3,0.00018435,-181.76,9.7704e-05,-832.79,-0.00049692,-5300.5,0.068951
21,5.408,1.8462,0,0.00044916,4488.5,0.00016391,63.8,0.00012702,-213.37,-0.00045106,-4556.8,0.15
22,7.174,1.593,0,0.00040238,4021,0.0001367,-22.16,0.00012409,-116.91,-0.00040466,-4089.7,0.25875
23,8.9789,1.5106,0,0.00036448,3642.3,0.00012442,15.092,0.00011462,-58.564,-0.00036516,-3663.5,0.39671
24,10.722,1.5384,0,0.00031803,3178.1,0.00010743,18.695,0.00010246,-18.656,-0.00031802,-3177.9,0.55285
25,12.603,1.5165,0,0.00026933,2691.4,9.1684e-05,53.084,8.8994e-05,32.873,-0.00026786,-2648.4,0.74278
26,14.447,1.5744,0,0.00019572,1955.9,6.702e-05,32.183,6.3416e-05,5.1056,-0.00019507,-1937.1,0.94757
27,16.455,2.1274,0,0.00019006,1899.3,7.0482e-05,91.313,5.7815e-05,-3.866,-0.00018839,-1853.8,1.1872
28,1.9107,4.0187,0,0.00055326,5528.8,0.00031301,1085.4,3.4709e-05,-1005.7,-0.00052138,-5183.9,0.018996
29,15.575,4.7252,0,0.00018931,1891.8,6.8708e-05,86.274,5.9763e-05,19.064,-0.00018743,-1838.3,1.0781
30,13.875,4.6534,0,0.00022811,2279.5,8.0872e-05,59.879,7.1234e-05,-12.541,-0.00022722,-2255,0.881
31,12.091,4.576,0,0.0002794,2792.1,9.5401e-05,25.823,8.914e-05,-21.222,-0.00027929,-2789.5,0.6883
32,10.272,4.5439,0,0.00033262,3323.9,0.00011287,18.105,0.00010616,-32.339,-0.00033284,-3330.8,0.50997
33,8.2643,4.5263,0,0.00039368,3934.1,0.00014026,129.99,0.00012422,9.5095,-0.00039117,-3862.9,0.33887
34,5.9724,3.9484,0,0.00041387,4135.8,0.00015616,49.849,0.000107,-319.46,-0.00041721,-4258.2,0.18293
35,3.8879,4.0015,0,0.0004747,4743.7,0.00018267,-177.85,9.3335e-05,-849.06,-0.00048859,-5221.4,0.078573
36,17.459,4.429,0,0.00017968,1795.5,0.00012286,783.16,9.6384e-06,-67.518,-0.00015168,-1279.6,1.3104
37,17.366,2.9835,0,0.00025037,2502,9.54e-05,181.92,7.7456e-05,47.103,-0.0002462,-2384.7,1.301
38,18.796,3.1463,0,0.00019026,1901.3,6.7087e-05,-8.784,5.4575e-05,-102.8,-0.00019199,-1955.4,1.4874
39,16.777,3.9642,0,0.00020271,2025.7,7.9753e-05,186.16,6.193e-05,52.241,-0.00019833,-1903.2,1.2261
40,15.36,3.5863,0,0.00018871,1885.8,7.1668e-05,61.819,5.1677e-05,-88.386,-0.00018871,-1894.6,1.0549
41,16.735,3.1414,0,0.00019535,1952.2,7.8118e-05,158.26,5.5407e-05,-12.386,-0.00019231,-1873.6,1.2219
42,19.745,2.2439,0,8.4932e-05,848.74,3.4177e-05,24.15,1.9375e-05,-87.064,-8.5454e-05,-874.71,1.6157
43,13.945,3.1984,0,0.00023375,2335.9,8.4042e-05,57.453,7.0594e-05,-43.591,-0.00023335,-2327.3,0.89138
44,15.609,2.5984,0,0.00021298,2128.4,9.3295e-05,283.52,5.6168e-05,4.5562,-0.00020671,-1970.6,1.0849
45,12.316,3.053,0,0.00027699,2768,9.3154e-05,28.119,9.1027e-05,12.138,-0.0002763,-2747.8,0.71426
46,7.3088,2.8558,0,0.00041428,4139.9,0.00015515,156.31,0.00011932,-112.88,-0.00041288,-4111.7,0.27046
47,7.3088,2.8558,0.1,0.00041428,4139.9,0.00041288,4111.7,-0.00011932,112.88,-0.00015515,-156.31,0.27046
48,12.316,3.053,0.1,0.00027699,2768,0.0002763,2747.8,-9.1027e-05,-12.138,-9.3154e-05,-28.119,0.71426
49,15.609,2.5984,0.1,0.00021298,2128.4,0.00020671,1970.6,-5.6168e-05,-4.5562,-9.3295e-05,-283.52,1.0849
50,13.945,3.1984,0.1,0.00023375,2335.9,0.00023335,2327.3,-7.0594e-05,43.591,-8.4042e-05,-57.453,0.89138
51,19.745,2.2439,0.1,8.4932e-05,848.74,8.5454e-05,874.71,-1.9375e-05,87.064,-3.4177e-05,-24.15,1.6157
52,16.735,3.1414,0.1,0.00019535,1952.2,0.00019231,1873.6,-5.5407e-05,12.386,-7.8118e-05,-158.26,1.2219
53,15.36,3.5863,0.1,0.00018871,1885.8,0.00018871,1894.6,-5.1677e-05,88.386,-7.1668e-05,-61.819,1.0549
54,16.777,3.9642,0.1,0.00020271,2025.7,0.00019833,1903.2,-6.193e-05,-52.241,-7.9753e-05,-186.16,1.2261
55,18.796,3.1463,0.1,0.00019026,1901.3,0.00019199,1955.4,-5.4575e-05,102.8,-6.7087e-05,8.784,1.4874
56,17.366,2.9835,0.1,0.00025037,2502,0.0002462,2384.7,-7.7456e-05,-47.103,-9.54e-05,-181.92,1.301
57,17.459,4.429,0.1,0.00017968,1795.5,0.00015168,1279.6,-9.6384e-06,67.518,-0.00012286,-783.16,1.3104
58,3.8879,4.0015,0.1,0.0004747,4743.7,0.00048859,5221.4,-9.3335e-05,849.06,-0.00018267,177.85,0.078573
59,5.9724,3.9484,0.1,0.00041387,4135.8,0.00041721,4258.2,-0.000107,319.46,-0.00015616,-49.849,0.18293
60,8.2643,4.5263,0.1,0.00039368,3934.1,0.00039117,3862.9,-0.00012422,-9.5095,-0.00014026,-129.99,0.33887
61,10.272,4.5439,0.1,0.00033262,3323.9,0.00033284,3330.8,-0.00010616,32.339,-0.00011287,-18.105,0.50997
62,12.091,4.576,0.1,0.0002794,2792.1,0.00027929,2789.5,-8.914e-05,21.222,-9.5401e-05,-25.823,0.6883
63,13.875,4.6534,0.1,0.00022811,2279.5,0.00022722,2255,-7.1234e-05,12.541,-8.0872e-05,-59.879,0.881
64,15.575,4.7252,0.1,0.00018931,1891.8,0.00018743,1838.3,-5.9763e-05,-19.064,-6.8708e-05,-86.274,1.0781
65,1.9107,4.0187,0.1,0.00055326,5528.8,0.00052138,5183.9,-3.4709e-05,1005.7,-0.00031301,-1085.4,0.018996
66,16.455,2.1274,0.1,0.00019006,1899.3,0.00018839,1853.8,-5.7815e-05,3.866,-7.0482e-05,-91.313,1.1872
67,14.447,1.5744,0.1,0.00019572,1955.9,0.00019507,1937.1,-6.3416e-05,-5.1055,-6.702e-05,-32.183,0.94757
68,12.603,1.5165,0.1,0.00026933,2691.4,0.00026786,2648.4,-8.8994e-05,-32.873,-9.1684e-05,-53.084,0.74278
69,10.722,1.5384,0.1,0.00031803,3178.1,0.00031802,3177.9,-0.00010246,18.656,-0.00010743,-18.695,0.55285
70,8.9789,1.5106,0.1,0.00036448,3642.3,0.00036516,3663.5,-0.00011462,58.564,-0.00012442,-15.092,0.39671
71,7.174,1.593,0.1,0.00040238,4021,0.00040466,4089.7,-0.00012409,116.91,-0.0001367,22.16,0.25875
72,5.408,1.8462,0.1,0.00044916,4488.5,0.00045106,4556.8,-0.00012702,213.37,-0.00016391,-63.8,0.15
73,3.6472,1.9855,0.1,0.00048296,4826.3,0.00049692,5300.5,-9.7704e-05,832.79,-0.00018435,181.76,0.068951
74,1.8279,1.9895,0.1,0.00055522,5548.3,0.00052292,5186.4,-3.6369e-05,984.14,-0.00031412,-1102.8,0.017309
75,16.473,1.0306,0.1,0.00015797,1578.6,0.00015065,1391.3,-4.1245e-05,-50.534,-7.3845e-05,-295.48,1.1874
76,20.306,1.3241,0.1,6.2928e-05,628.85,6.2346e-05,612.02,-2.0308e-05,-9.0107,-2.2351e-05,-24.364,1.6924
77,19.199,3.9485,0.1,0.00011388,1138,0.00010813,992.1,-2.9172e-05,-39.539,-5.4325e-05,-228.52,1.5412
78,19.97,4.4179,0.1,6.9834e-05,697.86,6.8166e-05,654.27,-1.9535e-05,-4.6812,-2.9145e-05,-76.884,1.6459
79,21.848,3.7615,0.1,4.6969e-05,469.36,4.7346e-05,480.72,-1.4234e-05,18.028,-1.5974e-05,4.9543,1.9056
80,22.152,1.7943,0.1,3.8442e-05,384.15,3.8232e-05,378.58,-1.1685e-05,3.524,-1.4025e-05,-14.06,1.9483
81,17.926,3.3121,0.1,0.00028662,2864.2,0.00027109,2478.4,-7.0276e-05,-86.417,-0.00014026,-612.21,1.3726
82,18.298,2.7428,0.1,0.00027824,2780.5,0.00026455,2463.5,-6.1845e-05,11.058,-0.00013747,-557.19,1.4213
83,10.582,3.0628,0.1,0.00031815,3179.3,0.00031794,3175.6,-9.821e-05,48.752,-0.00011186,-53.81,0.54176
84,8.7521,3.1491,0.1,0.0003618,3615.5,0.00036327,3665.5,-0.0001052,145.56,-0.00012971,-38.586,0.38043
85,17.273,1.5951,0.1,0.00020788,2077.4,0.00016569,1402.7,9.4802e-06,229,-0.00015354,-995.86,1.2879
86,16.998,4.9194,0.1,0.0001427,1426,0.00013721,1278.4,-4.0754e-05,-58.775,-6.253e-05,-222.39,1.2511
87,17.218,2.1649,0.1,0.00018988,1897.5,0.00018512,1812.9,-3.8494e-05,132.72,-8.8769e-05,-245.03,1.2819
88,19.074,2.8938,0.1,0.00014661,1465.1,0.00014637,1468.5,-3.8228e-05,81.531,-5.7576e-05,-63.838,1.5247
89,18.713,3.7467,0.1,0.00018005,1799.2,0.00017416,1659.8,-4.3822e-05,22.012,-8.2165e-05,-266.08,1.4757
90,17.36,3.8827,0.1,0.0002122,2120.5,0.00020864,2041.9,-5.3465e-05,72.62,-9.0129e-05,-202.86,1.2992
91,17.877,2.5102,0.1,0.0002943,2941,0.00028211,2589.7,-9.7695e-05,-264.02,-0.00011997,-431.35,1.3662
92,18.324,3.4668,0.1,0.00027985,2796.5,0.0002596,2314.6,-6.1197e-05,-95.711,-0.00014848,-751.51,1.4244
93,18.167,1,0.1,0.0001008,1007.3,0.00010505,1138.4,-2.2412e-05,180.74,-3.476e-05,87.963,1.4009
94,18.167,1.5,0.1,0.0001983,1981.6,0.00020682,2245.5,-4.3373e-05,365.57,-6.8636e-05,175.76,1.4019
95,18.167,2,0.1,0.00045619,4558.7,0.00048059,5311.6,-9.2302e-05,1007.1,-0.00015509,535.33,1.4029
96,18,2,0.1,0.00048193,4816,0.00047278,4664.8,-0.00010156,349.47,-0.00021867,-530.44,1.3811
97,18,1.5,0.1,0.00025062,2504.5,0.00021745,1854.2,-2.448e-05,36.388,-0.00016276,-1002.6,1.3793
98,18,1,0.1,0.00015977,1596.6,0.00015495,1512,-3.016e-05,121.18,-7.7097e-05,-231.49,1.3771
99,18.167,5,0.1,0.0001068,1067.3,0.00011281,1258.7,-1.8376e-05,273.06,-3.8054e-05,125.21,1.4
100,18.167,4.5,0.1,0.00016932,1692,0.00017783,1965.6,-3.0274e-05,402.02,-6.1239e-05,169.36,1.4012
101,18.167,4,0.1,0.00051479,5144.4,0.00052963,5610.9,-0.00012205,714.49,-0.00018385,250.12,1.4025
102,18,4,0.1,0.00047809,4777.6,0.00047673,4823.1,-0.0001035,463.45,-0.00020303,-284.38,1.3807
103,18,4.5,0.1,0.00026187,2616.9,0.00022478,1892.2,-2.3578e-05,26.09,-0.00017333,-1099.1,1.3786
104,18,5,0.1,0.0001154,1153.2,0.00011862,1274.7,-1.9322e-05,238.32,-4.6711e-05,32.528,1.3763
105,18.167,6,0.1,4.8717e-05,486.84,5.2578e-05,601.96,-9.8777e-06,132.7,-1.4326e-05,99.276,1.398
106,20.111,6,0.1,5.4999e-05,549.61,5.2859e-05,490.27,-1.6602e-05,-31.629,-2.349e-05,-83.381,1.6636
107,22.056,6,0.1,3.9477e-05,394.5,3.8554e-05,369.87,-1.1329e-05,-4.9294,-1.6228e-05,-41.741,1.933
108,24,6,0.1,2.4638e-05,246.21,2.4113e-05,252.25,-1.5757e-06,59.237,-1.2791e-05,-25.029,2.2053
109,24,4,0.1,2.5935e-05,259.17,2.556e-05,272.14,-1.2107e-06,70.999,-1.3366e-05,-20.33,2.2067
110,24,2,0.1,2.3602e-05,235.85,2.2336e-05,229.19,-4.5335e-07,57.958,-1.3468e-05,-39.831,2.2069
111,1.7484e-14,2,0.1,0.00039287,3926,0.00052374,7774.6,8.4379e-06,3902.8,-5.7017e-06,3796.6,0
112,3.4968e-14,4,0.1,0.00039547,3951.9,0.0005269,7817.1,8.4263e-06,3921.5,-6.2652e-06,3811.1,0
113,3.937e-14,6,0.1,0.00035748,3572.4,0.00046299,6686.6,5.3479e-06,3248,-2.8467e-05,2993.9,0
114,2,6,0.1,0.00054706,5466.8,0.00052655,5229.7,-6.6618e-05,772.91,-0.00028531,-870.22,0.017792
115,4,6,0.1,0.00050977,5094.2,0.00052404,5551.3,-0.00011721,733.14,-0.00018553,219.85,0.075803
116,6,6,0.1,0.00044137,4410.7,0.00044556,4538.7,-0.00012954,217.62,-0.00015271,43.565,0.17542
117,8,6,0.1,0.0003914,3911.3,0.00039279,3959.1,-0.00011442,148.16,-0.00014016,-45.237,0.31064
118,10,6,0.1,0.00035619,3559.5,0.00035532,3540.2,-0.00010632,71.517,-0.00012965,-103.71,0.47739
119,12,6,0.1,0.00027975,2795.6,0.00028035,2813,-9.1527e-05,18.9,-9.1927e-05,15.889,0.67238
120,14,6,0.1,0.00022393,2237.7,0.00022243,2196.1,-6.9615e-05,1.7269,-8.0855e-05,-82.73,0.88965
121,16,6,0.1,0.0001746,1744.7,0.00016786,1555.9,-5.3834e-05,-109.79,-7.3612e-05,-258.39,1.1246
122,17,6,0.1,9.9379e-05,993.1,9.5457e-05,902.61,-2.2826e-05,13.871,-4.7211e-05,-169.34,1.2473
123,18,6,0.1,4.4806e-05,447.75,4.9633e-05,601.53,-3.4657e-06,202.57,-1.4819e-05,117.27,1.3718
124,24,0,0.1,2.1435e-05,214.2,2.1385e-05,224.65,-2.3937e-06,45.984,-1.0219e-05,-12.816,2.2061
125,22.056,0,0.1,3.9513e-05,394.85,3.9042e-05,382.28,-1.168e-05,1.1762,-1.5166e-05,-25.014,1.9339
126,20.111,0,0.1,5.3121e-05,530.85,5.1543e-05,486.76,-1.622e-05,-22.382,-2.1681e-05,-63.411,1.6646
127,18.167,0,0.1,6.6758e-05,667.12,6.5865e-05,653.69,-1.4848e-05,47.246,-2.9241e-05,-60.899,1.3992
128,18,0,0.1,9.8275e-05,982.08,0.00010188,1107.2,-1.6816e-05,215.35,-3.8205e-05,54.642,1.3725
129,16.2,2.5113e-30,0.1,0.00012354,1234.5,0.00012444,1295.8,-2.1347e-05,200.44,-5.361e-05,-41.964,1.1511
130,14.4,2.2323e-30,0.1,0.0002028,2026.6,0.00020005,1960.8,-5.501e-05,44.426,-8.2267e-05,-160.37,0.93758
131,12.6,1.9532e-30,0.1,0.00027108,2709,0.00027032,2686.8,-8.8416e-05,-8.647,-9.1996e-05,-35.543,0.7368
132,10.8,1.6742e-30,0.1,0.00031935,3191.3,0.00031968,3201.1,-0.00010371,19.953,-0.00010639,-0.18219,0.55341
133,9,1.3952e-30,0.1,0.00036899,3687.3,0.00036893,3686,-0.00011882,21.196,-0.00012477,-23.506,0.39064
134,7.2,1.1161e-30,0.1,0.00042103,4207.4,0.00042193,4234,-0.00013651,38.079,-0.00013956,15.136,0.25166
135,5.4,8.371e-31,0.1,0.0004794,4790.7,0.00048218,4877.3,-0.00014301,179.86,-0.00016715,-1.5063,0.14003
136,3.6,5.5806e-31,0.1,0.00052332,5229.6,0.0005378,5685.7,-0.00012507,705.11,-0.00018719,238.31,0.059727
137,1.8,2.7903e-31,0.1,0.00054362,5432.5,0.00052412,5178.4,-7.5119e-05,675.91,-0.00027892,-855.4,0.013814
138,0,0,0.1,0.00034284,3426,0.00044438,6423.7,5.7771e-06,3128.1,-2.7166e-05,2880.6,0
139,1.8,2.7903e-31,0,0.00054362,5432.5,0.00027892,855.4,7.5119e-05,-675.91,-0.00052412,-5178.4,0.013814
140,3.6,5.5806e-31,0,0.00052332,5229.6,0.00018719,-238.31,0.00012507,-705.11,-0.0005378,-5685.7,0.059727
141,5.4,8.371e-31,0,0.0004794,4790.7,0.00016715,1.5063,0.00014301,-179.86,-0.00048218,-4877.3,0.14003
142,7.2,1.1161e-30,0,0.00042103,4207.4,0.00013956,-15.136,0.00013651,-38.079,-0.00042193,-4234,0.25166
143,9,1.3952e-30,0,0.00036899,3687.3,0.00012477,23.506,0.00011882,-21.196,-0.00036893,-3686,0.39064
144,10.8,1.6742e-30,0,0.00031935,3191.3,0.00010639,0.18219,0.00010371,-19.953,-0.00031968,-3201.1,0.55341
145,12.6,1.9532e-30,0,0.00027108,2709,9.1996e-05,35.543,8.8416e-05,8.647,-0.00027032,-2686.8,0.7368
146,14.4,2.2323e-30,0,0.0002028,2026.6,8.2267e-05,160.37,5.501e-05,-44.426,-0.00020005,-1960.8,0.93758
147,16.2,2.5113e-30,0,0.00012354,1234.5,5.361e-05,41.964,2.1347e-05,-200.44,-0.00012444,-1295.8,1.1511
148,18,0,0,9.8275e-05,982.08,3.8205e-05,-54.642,1.6816e-05,-215.35,-0.00010188,-1107.2,1.3725
149,0,0,0,0.00034284,3426,2.7166e-05,-2880.6,-5.7771e-06,-3128.1,-0.00044438,-6423.7,0
150,20.111,0,0,5.3121e-05,530.85,2.1681e-05,63.411,1.622e-05,22.382,-5.1543e-05,-486.76,1.6646
151,22.056,0,0,3.9513e-05,394.85,1.5166e-05,25.014,1.168e-05,-1.1761,-3.9042e-05,-382.28,1.9339
152,18.167,0,0,6.6758e-05,667.12,2.9241e-05,60.899,1.4848e-05,-47.246,-6.5865e-05,-653.69,1.3992
153,24,0,0,2.1435e-05,214.2,1.0219e-05,12.816,2.3936e-06,-45.984,-2.1385e-05,-224.65,2.2061
154,17,6,0,9.9379e-05,993.1,4.7211e-05,169.34,2.2826e-05,-13.871,-9.5457e-05,-902.61,1.2473
155,16,6,0,0.0001746,1744.7,7.3612e-05,258.39,5.3834e-05,109.79,-0.00016786,-1555.9,1.1246
156,14,6,0,0.00022393,2237.7,8.0855e-05,82.73,6.9615e-05,-1.7269,-0.00022243,-2196.1,0.88965
157,12,6,0,0.00027975,2795.6,9.1927e-05,-15.889,9.1527e-05,-18.9,-0.00028035,-2813,0.67238
158,10,6,0,0.00035619,3559.5,0.00012965,103.71,0.00010632,-71.517,-0.00035532,-3540.2,0.47739
159,8,6,0,0.0003914,3911.3,0.00014016,45.237,0.00011442,-148.16,-0.00039279,-3959.1,0.31064
160,6,6,0,0.00044137,4410.7,0.00015271,-43.565,0.00012954,-217.62,-0.00044556,-4538.7,0.17542
161,4,6,0,0.00050977,5094.2,0.00018553,-219.85,0.00011721,-733.14,-0.00052404,-5551.3,0.075803
162,2,6,0,0.00054706,5466.8,0.00028531,870.22,6.6618e-05,-772.91,-0.00052655,-5229.7,0.017792
163,18,6,0,4.4806e-05,447.75,1.4819e-05,-117.27,3.4657e-06,-202.57,-4.9633e-05,-601.53,1.3718
164,3.937e-14,6,0,0.00035748,3572.4,2.8467e-05,-2993.9,-5.3479e-06,-3248,-0.00046299,-6686.6,0
165,3.4968e-14,4,0,0.00039547,3951.9,6.2652e-06,-3811.1,-8.4263e-06,-3921.5,-0.0005269,-7817.1,0
166,1.7484e-14,2,0,0.00039287,3926,5.7017e-06,-3796.6,-8.4379e-06,-3902.8,-0.00052374,-7774.6,0
167,24,2,0,2.3602e-05,235.85,1.3468e-05,39.831,4.5335e-07,-57.958,-2.2336e-05,-229.19,2.2069
168,24,4,0,2.5935e-05,259.17,1.3366e-05,20.33,1.2107e-06,-70.999,-2.5559e-05,-272.14,2.2067
169,24,6,0,2.4638e-05,246.21,1.2791e-05,25.029,1.5757e-06,-59.237,-2.4113e-05,-252.25,2.2053
170,22.056,6,0,3.9477e-05,394.5,1.6228e-05,41.741,1.1329e-05,4.9294,-3.8554e-05,-369.87,1.933
171,20.111,6,0,5.4999e-05,549.61,2.349e-05,83.381,1.6602e-05,31.629,-5.2859e-05,-490.27,1.6636
172,18.167,6,0,4.8717e-05,486.84,1.4326e-05,-99.276,9.8777e-06,-132.7,-5.2578e-05,-601.96,1.398
173,18,4.5,0,0.00026187,2616.9,0.00017333,1099.1,2.3578e-05,-26.09,-0.00022478,-1892.2,1.3786
174,18,5,0,0.0001154,1153.2,4.6711e-05,-32.528,1.9322e-05,-238.32,-0.00011862,-1274.7,1.3763
175,18,4,0,0.00047809,4777.6,0.00020303,284.38,0.0001035,-463.45,-0.00047673,-4823.1,1.3807
176,18.167,5,0,0.0001068,1067.3,3.8054e-05,-125.21,1.8376e-05,-273.06,-0.00011281,-1258.7,1.4
177,18.167,4.5,0,0.00016932,1692,6.1239e-05,-169.36,3.0274e-05,-402.02,-0.00017783,-1965.6,1.4012
178,18.167,4,0,0.00051479,5144.4,0.00018385,-250.12,0.00012205,-714.49,-0.00052963,-5610.9,1.4025
179,18,1.5,0,0.00025062,2504.5,0.00016276,1002.6,2.448e-05,-36.388,-0.00021745,-1854.2,1.3793
180,18,1,0,0.00015977,1596.6,7.7097e-05,231.49,3.016e-05,-121.18,-0.00015495,-1512,1.3771
181,18,2,0,0.00048193,4816,0.00021867,530.44,0.00010156,-349.47,-0.00047278,-4664.8,1.3811
182,18.167,1,0,0.0001008,1007.3,3.476e-05,-87.963,2.2412e-05,-180.74,-0.00010505,-1138.4,1.4009
183,18.167,1.5,0,0.0001983,1981.6,6.8636e-05,-175.76,4.3373e-05,-365.57,-0.00020682,-2245.5,1.4019
184,18.167,2,0,0.00045619,4558.7,0.00015509,-535.33,9.2302e-05,-1007.1,-0.00048059,-5311.6,1.4029
185,18.125,3.3894,0,0.00028176,2815.6,0.00014322,673.22,6.5746e-05,91.141,-0.0002642,-2388,1.3984
186,18.56,3.3065,0,0.00023294,2327.8,0.00010159,324.82,6.3712e-05,40.231,-0.00022543,-2132.2,1.4558
187,18.324,3.4668,0.05,1.0306e-05,102.99,7.9138e-06,59.461,9.6017e-14,2.5473e-06,-7.9138e-06,-59.461,1.4244
188,18.245,3.7334,0,0.00038371,3834.4,0.00013712,32.451,0.00011156,-159.57,-0.00038551,-3894.4,1.4136
189,18.088,2.6265,0,0.0002841,2839,0.00012679,479.75,8.046e-05,131.66,-0.00027209,-2517.3,1.3936
190,17.622,2.7468,0,0.00027198,2717.9,0.00010693,301.01,8.8042e-05,159.07,-0.00026387,-2485.1,1.3335
191,17.877,2.5102,0.05,1.4808e-05,147.98,1.1371e-05,85.435,1.4336e-12,1.8168e-05,-1.1371e-05,-85.435,1.3662
192,17.939,2.2551,0,0.00038592,3856.5,0.00016781,469.55,9.9773e-05,-41.623,-0.00037608,-3617,1.3738
193,17.409,4.1558,0,0.00019159,1914.6,0.00010485,480.68,3.1605e-05,-69.67,-0.00017857,-1648.9,1.3049
194,17.363,3.4331,0,0.00022844,2282.9,9.0492e-05,175.32,6.5415e-05,-13.104,-0.0002251,-2195.9,1.3003
195,17.068,3.9234,0,0.00020647,2063.3,8.3906e-05,186.73,5.7988e-05,-8.0065,-0.00020274,-1967,1.2625
196,17.36,3.8827,0.05,7.6555e-06,76.502,5.8785e-06,44.169,-9.2748e-22,1.4653e-05,-5.8785e-06,-44.169,1.2992
197,17.68,3.9413,0,0.0003448,3445.6,0.00014568,236.87,7.9213e-05,-262.56,-0.00034251,-3431.2,1.3397
198,18.956,3.8476,0,0.00014615,1460.5,6.8068e-05,245.97,3.5913e-05,4.3768,-0.00014038,-1320.2,1.5084
199,18.754,3.4465,0,0.00017898,1788.6,6.6777e-05,69.672,5.2197e-05,-39.876,-0.00017822,-1771.1,1.4816
200,18.713,3.7467,0.05,2.3734e-05,237.17,1.8224e-05,136.93,-6.0626e-13,6.3574e-07,-1.8224e-05,-136.93,1.4757
201,18.44,3.8733,0,0.00034495,3447.2,0.00011689,-113.1,9.8144e-05,-253.99,-0.00035098,-3628.6,1.4391
202,19.137,3.4212,0,0.0001274,1273.1,5.1155e-05,110.15,3.642e-05,-0.55899,-0.00012518,-1214.7,1.533
203,18.935,3.0201,0,0.00016799,1678.7,5.7374e-05,-9.7216,5.1234e-05,-55.859,-0.00016905,-1711,1.506
204,19.409,2.5689,0,0.00011523,1151.5,4.3303e-05,24.658,3.1135e-05,-66.767,-0.00011567,-1169.8,1.5701
205,19.074,2.8938,0.05,1.3237e-05,132.28,1.0165e-05,76.372,7.2485e-13,5.7645e-06,-1.0165e-05,-76.372,1.5247
206,18.62,2.4469,0,0.00029388,2936.8,9.7956e-05,-298.69,6.7432e-05,-528.04,-0.00030727,-3343.4,1.4638
207,17.245,1.88,0,0.00019531,1951.8,0.00012082,617.92,1.4651e-05,-179.78,-0.00017522,-1606.4,1.285
208,16.836,2.1462,0,0.00018615,1860.2,7.5663e-05,138.4,4.9372e-05,-59.146,-0.00018401,-1812.7,1.2343
209,17.292,2.5742,0,0.00021877,2186.2,9.09e-05,204.58,5.8437e-05,-39.338,-0.00021494,-2093.4,1.2916
210,17.218,2.1649,0.05,1.2651e-05,126.42,9.7141e-06,72.988,1.5741e-12,1.216e-05,-9.7141e-06,-72.988,1.2819
211,17.609,2.0825,0,0.00033533,3351,0.00015288,381.42,7.0477e-05,-237.71,-0.00032856,-3235.9,1.3312
212,16.286,4.8223,0,0.00016387,1637.6,6.3843e-05,140.99,5.0284e-05,39.11,-0.00016057,-1545.2,1.1638
213,17.229,4.6742,0,0.00015782,1577.1,9.1616e-05,494.68,2.5268e-05,-3.8302,-0.00014344,-1271.5,1.2807
214,16.887,4.4418,0,0.0001715,1713.8,7.0064e-05,196.18,5.143e-05,56.172,-0.00016678,-1583.4,1.2388
215,16.998,4.9194,0.05,1.1307e-05,112.99,8.6821e-06,65.234,3.2614e-13,9.9736e-06,-8.6821e-06,-65.234,1.2511
216,16.999,5.4597,0,0.00012081,1207.3,5.3877e-05,188.4,3.2767e-05,29.793,-0.00011632,-1090.4,1.2493
217,17.499,4.9597,0,0.00012011,1200.3,4.5669e-05,27.676,3.1685e-05,-77.394,-0.00012061,-1221.7,1.3136
218,16.873,1.3128,0,0.00017827,1781.5,0.00011148,629.07,1.8023e-05,-73.145,-0.0001581,-1396.5,1.2374
219,17.273,1.5951,0.05,1.8701e-05,186.88,1.436e-05,107.9,4.8457e-12,4.0334e-05,-1.436e-05,-107.9,1.2879
220,17.637,1.5476,0,0.00021694,2167.9,0.00014932,932.86,7.4463e-06,-133.1,-0.00018268,-1561.7,1.3335
221,9.6671,3.1059,0,0.00033975,3395.2,0.00011466,0.13838,0.00010782,-51.188,-0.00034059,-3420.4,0.45828
222,8.8655,2.3298,0,0.000363,3627.5,0.00012645,22.236,0.00011045,-98.036,-0.00036414,-3663.9,0.38932
223,8.5082,3.8377,0,0.00037708,3768.2,0.00012796,31.472,0.00012135,-18.141,-0.00037683,-3761.3,0.35999
224,8.0304,3.0024,0,0.0003878,3875.3,0.00014223,95.964,0.00011226,-129.26,-0.00038787,-3887,0.32343
225,8.7521,3.1491,0.05,8.1509e-06,81.453,6.2589e-06,47.027,-1.3276e-21,5.3835e-06,-6.2589e-06,-47.027,0.3804
226,10.652,2.3006,0,0.00031781,3176,0.00010782,22.562,0.00010195,-21.548,-0.00031777,-3175.2,0.54788
227,10.427,3.8033,0,0.00032526,3250.4,0.00011178,31.561,0.00010268,-36.82,-0.0003253,-3252.5,0.52646
228,11.449,3.0579,0,0.00029752,2973.2,0.00010214,38.208,9.4968e-05,-15.682,-0.0002971,-2961.6,0.62578
229,10.582,3.0628,0.05,3.0129e-06,30.108,2.3135e-06,17.383,-4.9073e-22,4.6726e-06,-2.3135e-06,-17.383,0.54174
230,18.112,3.0275,0,0.00028231,2821.2,0.00013878,584.1,6.6052e-05,37.62,-0.00026773,-2470.3,1.3969
231,18.547,2.9446,0,0.00023261,2324.5,9.6136e-05,228.04,6.4096e-05,-12.702,-0.00022801,-2207.5,1.4542
232,18.298,2.7428,0.05,7.4616e-06,74.565,5.7296e-06,43.05,-1.989e-13,5.771e-05,-5.7296e-06,-43.05,1.4213
233,18.233,2.3714,0,0.00035566,3554.2,0.00011555,-219.97,0.0001002,-335.34,-0.00036497,-3830.4,1.4123
234,17.646,3.1478,0,0.00026782,2676.3,0.00011763,395.58,7.3851e-05,66.651,-0.00025843,-2430,1.3366
235,17.926,3.3121,0.05,9.1824e-06,91.761,7.051e-06,52.978,2.8535e-13,2.3802e-05,-7.051e-06,-52.978,1.3725
236,17.963,3.6561,0,0.00037779,3775.3,0.00016773,418.88,8.7074e-05,-187.13,-0.00037018,-3622.7,1.3768
237,22,2.7779,0,4.2687e-05,426.57,1.4541e-05,1.1038,1.3416e-05,-7.3446,-4.2787e-05,-429.63,1.9271
238,21.229,1.5592,0,5.0501e-05,504.66,1.775e-05,15.922,1.6283e-05,4.8947,-5.0138e-05,-494.16,1.8198
239,22.152,1.7943,0.05,1.9168e-06,19.155,1.4719e-06,11.059,9.7994e-13,1.1411e-05,-1.4719e-06,-11.059,1.9482
240,22.104,0.89713,0,3.8806e-05,387.79,1.3947e-05,14.663,1.2207e-05,1.5927,-3.8513e-05,-379.5,1.9412
241,23.076,1.8971,0,3.0548e-05,305.27,1.3562e-05,25.556,6.2103e-06,-29.68,-3.024e-05,-303.56,2.0774
242,20.909,4.0897,0,5.8045e-05,580.05,2.1882e-05,30.873,1.7309e-05,-3.4842,-5.7502e-05,-565.59,1.7752
243,20.796,3.0027,0,6.5751e-05,657.05,2.5022e-05,9.1934,1.6734e-05,-53.076,-6.6275e-05,-676.78,1.76
244,21.848,3.7615,0.05,1.6399e-06,16.388,1.2593e-06,9.4616,1.4903e-12,1.2068e-05,-1.2593e-06,-9.4616,1.9056
245,22.924,3.8808,0,3.5989e-05,359.65,1.3841e-05,1.4565,8.55e-06,-38.295,-3.6451e-05,-376.41,2.0559
246,21.952,4.8808,0,4.3142e-05,431.12,1.5221e-05,11.783,1.3642e-05,-0.085198,-4.293e-05,-425.15,1.9195
247,19.585,4.1832,0,9.1367e-05,913.04,4.0626e-05,144.37,2.5188e-05,28.379,-8.7874e-05,-821.12,1.5934
248,19.857,3.3309,0,7.6056e-05,760.04,2.8479e-05,26.609,2.1716e-05,-24.21,-7.5888e-05,-757.56,1.631
249,19.97,4.4179,0.05,6.2946e-06,62.903,4.8335e-06,36.317,1.8311e-12,1.2203e-05,-4.8335e-06,-36.317,1.6459
250,20.041,5.209,0,6.2272e-05,622.29,2.5289e-05,72.409,1.9057e-05,25.579,-6.0473e-05,-571.97,1.6548
251,19.068,4.709,0,8.3233e-05,831.75,3.0782e-05,-45.328,1.732e-05,-146.48,-8.6033e-05,-923.03,1.5226
252,19.199,3.9485,0.05,1.0024e-05,100.17,7.6969e-06,57.831,2.87e-13,5.9701e-06,-7.6969e-06,-57.831,1.5412
253,18.683,4.2242,0,0.00013278,1326.9,4.6778e-05,-53.094,3.3732e-05,-151.12,-0.00013599,-1426.3,1.4711
254,20.025,1.784,0,7.385e-05,737.99,2.8263e-05,24.249,1.9841e-05,-39.034,-7.3898e-05,-743.35,1.654
255,20.306,1.3241,0.05,1.2612e-06,12.603,9.6845e-07,7.2765,-1.1157e-13,2.3705e-06,-9.6844e-07,-7.2765,1.6923
256,20.209,0.66203,0,5.7957e-05,579.17,2.107e-05,36.78,1.9197e-05,22.71,-5.6932e-05,-549.3,1.6786
257,19.236,1.162,0,7.6814e-05,767.61,2.8405e-05,-32.929,1.6855e-05,-119.71,-7.9042e-05,-840.24,1.5459
258,15.46,1.3025,0,0.00017147,1713.5,6.4879e-05,122.11,5.3617e-05,37.485,-0.0001686,-1632.1,1.0657
259,16.464,1.579,0,0.00016851,1684,6.4216e-05,133.68,5.3176e-05,50.731,-0.00016522,-1590.2,1.1876
260,16.473,1.0306,0.05,1.3486e-05,134.77,1.0356e-05,77.808,-1.2984e-13,2.3279e-06,-1.0356e-05,-77.808,1.1874
261,16.336,0.51528,0,0.0001398,1397.1,6.2855e-05,162.17,3.1418e-05,-74.041,-0.0001368,-1337.9,1.1693
262,17.236,1.0153,0,0.00015365,1535.4,7.2347e-05,240.01,3.4361e-05,-45.397,-0.00014834,-1418.1,1.2816
263,2.7376,1.9875,0,0.00051608,5157.2,0.00024913,459.73,6.7134e-05,-907.74,-0.00050991,-5243.4,0.038795
264,1.8693,3.0041,0,0.00055288,5525,0.00031339,1092.8,3.421e-05,-1004.9,-0.00052065,-5173.9,0.018367
265,1.8279,1.9895,0.05,1.2848e-05,128.39,9.8658e-06,74.128,-1.1613e-13,-1.5724e-14,-9.8658e-06,-74.128,0.017276
266,1.814,0.99476,0,0.00054655,5461.8,0.00029625,977.08,5.3475e-05,-847.08,-0.00052098,-5163.3,0.01602
267,0.91396,1.9948,0,0.00046737,4670.4,0.00015702,-1368.6,1.6382e-05,-2425.3,-0.00052285,-6476.9,0.0043261
268,4.5276,1.9159,0,0.00046568,4653.6,0.0001741,-59.183,0.00011226,-523.86,-0.00047386,-4927.7,0.1059
269,3.7675,2.9935,0,0.0004777,4773.7,0.00018343,-180.41,9.4528e-05,-848.37,-0.00049168,-5252.9,0.074465
270,3.6472,1.9855,0.05,1.0492e-05,104.84,8.0562e-06,60.531,-7.8843e-13,-1.284e-14,-8.0562e-06,-60.531,0.068921
271,3.6236,0.99275,0,0.00050217,5018.3,0.00018567,-210.78,0.00011067,-774.29,-0.00051655,-5487,0.065451
272,6.291,1.7196,0,0.00042546,4251.7,0.00014825,5.3725,0.00012747,-150.74,-0.00042772,-4322.2,0.2011
273,5.6902,2.8973,0,0.0004314,4311,0.00015985,55.416,0.00011714,-265.49,-0.00043407,-4407,0.16732
274,5.408,1.8462,0.05,4.5009e-06,44.978,3.4562e-06,25.968,-7.3311e-22,-5.5083e-15,-3.4562e-06,-25.968,0.14997
275,5.404,0.92311,0,0.0004642,4638.8,0.00016551,32.501,0.00013499,-196.83,-0.00046657,-4716.7,0.14622
276,8.0764,1.5518,0,0.00038343,3831.6,0.00013048,-4.152,0.00011943,-87.12,-0.00038491,-3876.6,0.32456
277,7.2414,2.2244,0,0.00040818,4079,0.00014496,59.868,0.00012263,-107.94,-0.00040874,-4100.4,0.26511
278,7.174,1.593,0.05,8.197e-06,81.913,6.2942e-06,47.292,-1.3351e-21,2.7285e-10,-6.2942e-06,-47.292,0.25873
279,7.187,0.79652,0,0.00041159,4113.1,0.00013737,-24.31,0.00013097,-72.423,-0.00041322,-4161.2,0.25609
280,9.8503,1.5245,0,0.00034115,3409.1,0.00011586,16.395,0.00010851,-38.833,-0.00034149,-3420,0.4722
281,8.9789,1.5106,0.05,5.9405e-06,59.364,4.5616e-06,34.274,3.761e-14,8.0545e-08,-4.5616e-06,-34.274,0.39668
282,8.9894,0.75528,0,0.00036654,3662.8,0.00012362,11.939,0.00011754,-33.721,-0.00036689,-3673.5,0.39433
283,11.662,1.5275,0,0.00029367,2934.7,9.8974e-05,31.502,9.6308e-05,11.471,-0.00029293,-2913.1,0.64521
284,10.722,1.5384,0.05,5.6386e-06,56.347,4.3298e-06,32.532,8.7707e-13,4.5849e-06,-4.3298e-06,-32.532,0.55283
285,10.761,0.7692,0,0.0003186,3183.8,0.00010586,1.5461,0.00010406,-11.969,-0.00031877,-3189,0.55372
286,13.525,1.5455,0,0.00023244,2322.8,7.9351e-05,42.626,7.6129e-05,18.421,-0.00023139,-2292.2,0.84314
287,12.459,2.2847,0,0.00027305,2728.6,9.1636e-05,34.721,9.0696e-05,27.654,-0.00027198,-2697.4,0.72895
288,12.603,1.5165,0.05,2.1122e-06,21.108,1.6219e-06,12.186,1.0821e-13,1.2462e-06,-1.6219e-06,-12.186,0.74276
289,12.601,0.75827,0,0.00027014,2699.5,9.1798e-05,44.004,8.8685e-05,20.612,-0.00026903,-2667.1,0.74029
290,14.196,2.3864,0,0.00021444,2142.9,7.455e-05,37.445,6.776e-05,-13.572,-0.00021398,-2130.5,0.91981
291,15.028,2.0864,0,0.00020341,2032.7,7.8761e-05,147.36,6.0667e-05,11.403,-0.00020037,-1949.9,1.0159
292,14.447,1.5744,0.05,5.9812e-06,59.771,4.5928e-06,34.509,-9.7421e-22,3.2734e-06,-4.5928e-06,-34.509,0.94755
293,14.424,0.78718,0,0.00019894,1988,7.278e-05,82.275,6.1015e-05,-6.1274,-0.0001975,-1948.5,0.94305
294,16.595,2.6344,0,0.00019199,1918.5,7.2305e-05,109.79,5.8098e-05,3.0507,-0.00018984,-1859.9,1.2047
295,16.032,2.3629,0,0.0002005,2003.6,8.0625e-05,177.92,5.7538e-05,4.4516,-0.00019683,-1906.8,1.1358
296,16.455,2.1274,0.05,1.1839e-05,118.31,9.0912e-06,68.308,5.0584e-13,5.427e-08,-9.0912e-06,-68.308,1.1871
297,2.8993,4.0101,0,0.00051109,5107.4,0.00024774,453.03,6.41e-05,-926.78,-0.00050497,-5202.5,0.043674
298,1.9107,4.0187,0.05,1.2967e-05,129.58,9.9572e-06,74.815,-1.3169e-13,2.5685e-05,-9.9572e-06,-74.815,0.018962
299,1.9554,5.0094,0,0.00054787,5474.9,0.0002989,975.88,4.883e-05,-903.06,-0.00052188,-5191.1,0.018902
300,0.95536,4.0094,0,0.00046765,4673.2,0.00015653,-1386.2,1.5837e-05,-2443.3,-0.00052373,-6497.4,0.0047548
301,14.725,4.6893,0,0.00020871,2085.6,7.4787e-05,73.049,6.55e-05,3.2748,-0.00020732,-2046.6,0.97809
302,15.468,4.1557,0,0.00018895,1888.2,6.9941e-05,72.186,5.5956e-05,-32.888,-0.00018806,-1866.3,1.0667
303,15.575,4.7252,0.05,1.6517e-06,16.506,1.2683e-06,9.5297,1.602e-12,-4.6592e-07,-1.2683e-06,-9.5297,1.0781
304,15.788,5.3626,0,0.00018122,1811,7.012e-05,164.52,5.7268e-05,67.956,-0.00017707,-1692.8,1.1015
305,12.983,4.6147,0,0.00025373,2535.5,8.809e-05,42.499,8.0213e-05,-16.682,-0.00025323,-2522.1,0.78262
306,13.91,3.9259,0,0.00023071,2305.5,8.1536e-05,51.742,7.1676e-05,-22.339,-0.00023012,-2289.9,0.88662
307,13.875,4.6534,0.05,2.2346e-06,22.33,1.7159e-06,12.892,3.4125e-12,1.0641e-06,-1.7159e-06,-12.892,0.88098
308,13.938,5.3267,0,0.00022591,2257.5,8.0707e-05,70.124,7.0489e-05,-6.6511,-0.00022473,-2224.8,0.88567
309,11.181,4.56,0,0.00030598,3057.7,0.00010377,19.207,9.799e-05,-24.213,-0.00030604,-3059.9,0.59662
310,12.204,3.8145,0,0.0002779,2777.1,9.3713e-05,22.73,9.0391e-05,-2.2286,-0.00027754,-2766.7,0.70183
311,12.091,4.576,0.05,2.0646e-06,20.632,1.5853e-06,11.912,1.0016e-13,2.2946e-06,-1.5853e-06,-11.912,0.68828
312,12.046,5.288,0,0.00027949,2793,9.3596e-05,4.4585,9.0332e-05,-20.069,-0.00027975,-2800.7,0.68081
313,9.268,4.5351,0,0.0003624,3621.5,0.00012609,70.5,0.00011501,-12.803,-0.00036134,-3591.9,0.42081
314,10.272,4.5439,0.05,4.3948e-06,43.917,3.3746e-06,25.356,-1.123e-13,1.9244e-05,-3.3746e-06,-25.356,0.50995
315,10.136,5.2719,0,0.00034402,3437.8,0.00011828,38.546,0.00010898,-31.353,-0.00034384,-3433.7,0.49423
316,7.1184,4.2373,0,0.00040305,4027.7,0.00014231,45.583,0.00012128,-112.4,-0.00040395,-4058.8,0.25578
317,8.2643,4.5263,0.05,8.3765e-06,83.708,6.4321e-06,48.329,-1.3644e-21,6.871e-07,-6.4321e-06,-48.329,0.33884
318,8.1322,5.2631,0,0.00039243,3921.6,0.00014013,87.033,0.00011932,-69.344,-0.0003919,-3910.4,0.32542
319,4.9301,3.9749,0,0.00044399,4436.8,0.00016939,-64.126,0.00010002,-585.41,-0.00045273,-4738.5,0.12582
320,6.6406,3.4021,0,0.00041385,4135.6,0.00015431,92.981,0.00011443,-206.68,-0.00041497,-4184.3,0.22522
321,5.9724,3.9484,0.05,7.0699e-06,70.65,5.4288e-06,40.79,-1.1515e-21,-8.6521e-15,-5.4288e-06,-40.79,0.1829
322,5.9862,4.9742,0,0.00042735,4270.6,0.00015222,-13.501,0.00012047,-252,-0.00043137,-4398.3,0.1806
323,3.8879,4.0015,0.05,8.282e-06,82.763,6.3596e-06,47.783,-1.349e-21,-1.0136e-14,-6.3596e-06,-47.783,0.078542
324,3.9439,5.0008,0,0.00049137,4910.3,0.00018397,-199.78,0.00010466,-795.68,-0.00050558,-5380.8,0.078361
325,17.459,4.429,0.05,1.4259e-05,142.49,1.0949e-05,82.269,2.6584e-13,2.23e-06,-1.0949e-05,-82.269,1.3104
326,17.73,4.4645,0,0.00020792,2077.8,0.00013818,866.66,1.6598e-05,-46.879,-0.00017831,-1511.3,1.3445
327,17.051,3.0624,0,0.0002226,2224.5,8.6551e-05,168.53,6.6437e-05,17.398,-0.00021905,-2127.7,1.2613
328,17.366,2.9835,0.05,3.7878e-06,37.852,2.9086e-06,21.854,1.6832e-12,3.8485e-06,-2.9086e-06,-21.854,1.301
329,18.796,3.1463,0.05,3.7044e-06,37.018,2.8445e-06,21.372,1.2443e-12,4.18e-06,-2.8445e-06,-21.372,1.4873
330,16.069,3.7752,0,0.0001953,1951.7,7.4261e-05,113.1,5.7983e-05,-9.21,-0.00019325,-1896.9,1.1396
331,16.756,3.5528,0,0.00019871,1985.7,7.7783e-05,163.54,5.962e-05,27.078,-0.00019512,-1886.9,1.2241
332,16.777,3.9642,0.05,1.0042e-05,100.35,7.7111e-06,57.938,-1.6356e-21,2.735e-06,-7.7111e-06,-57.938,1.2261
333,14.653,3.3923,0,0.00021107,2109.3,7.756e-05,57.416,6.1333e-05,-64.508,-0.00021093,-2110.2,0.97217
334,15.485,3.0923,0,0.00020075,2006.1,8.2198e-05,170.53,5.4192e-05,-39.89,-0.00019769,-1932.5,1.0701
335,15.36,3.5863,0.05,6.0419e-06,60.377,4.6394e-06,34.859,-9.8409e-22,3.9556e-06,-4.6394e-06,-34.859,1.0549
336,16.172,2.8699,0,0.00020372,2035.8,8.5106e-05,216.37,5.6069e-05,-1.7947,-0.00019919,-1919.7,1.1529
337,16.735,3.1414,0.05,1.3706e-05,136.96,1.0524e-05,79.076,1.337e-13,9.1381e-06,-1.0524e-05,-79.076,1.2219
338,19.745,2.2439,0.05,5.7947e-06,57.907,4.4496e-06,33.433,1.4703e-12,1.2321e-05,-4.4496e-06,-33.433,1.6157
339,18.956,1.8719,0,0.00013392,1338.2,5.079e-05,-80.432,2.4755e-05,-276.05,-0.0001389,-1505.7,1.5084
340,13.13,3.1257,0,0.00025529,2551.1,8.7803e-05,36.814,8.1582e-05,-9.9316,-0.0002548,-2537.4,0.80115
341,13.945,3.1984,0.05,9.2667e-06,92.603,7.1156e-06,53.464,5.2157e-13,3.8284e-06,-7.1156e-06,-53.464,0.89136
342,15.609,2.5984,0.05,1.8586e-05,185.74,1.4272e-05,107.23,1.1715e-12,1.3304e-05,-1.4272e-05,-107.23,1.0849
343,12.316,3.053,0.05,1.6608e-06,16.597,1.2753e-06,9.582,-2.7051e-22,2.2342e-05,-1.2753e-06,-9.582,0.71424
344,7.3088,2.8558,0.05,1.4027e-05,140.17,1.0771e-05,80.926,-2.2846e-21,3.5312e-05,-1.0771e-05,-80.926,0.27044
345,6.6406,3.4021,0.1,0.00041385,4135.6,0.00041497,4184.3,-0.00011443,206.68,-0.00015431,-92.981,0.22522
346,7.2414,2.2244,0.1,0.00040818,4079,0.00040874,4100.4,-0.00012263,107.94,-0.00014496,-59.868,0.26511
347,8.0304,3.0024,0.1,0.0003878,3875.3,0.00038787,3887,-0.00011226,129.26,-0.00014223,-95.964,0.32343
348,13.13,3.1257,0.1,0.00025529,2551.1,0.0002548,2537.4,-8.1582e-05,9.9316,-8.7803e-05,-36.814,0.80115
349,12.204,3.8145,0.1,0.0002779,2777.1,0.00027754,2766.7,-9.0391e-05,2.2286,-9.3713e-05,-22.73,0.70183
350,12.459,2.2847,0.1,0.00027305,2728.6,0.00027198,2697.4,-9.0696e-05,-27.654,-9.1636e-05,-34.721,0.72895
351,11.449,3.0579,0.1,0.00029752,2973.2,0.0002971,2961.6,-9.4968e-05,15.682,-0.00010214,-38.208,0.62578
352,16.172,2.8699,0.1,0.00020372,2035.8,0.00019919,1919.7,-5.6069e-05,1.7947,-8.5106e-05,-216.37,1.1529
353,15.485,3.0923,0.1,0.00020075,2006.1,0.00019769,1932.5,-5.4192e-05,39.89,-8.2198e-05,-170.53,1.0701
354,16.032,2.3629,0.1,0.0002005,2003.6,0.00019683,1906.8,-5.7538e-05,-4.4516,-8.0625e-05,-177.92,1.1358
355,15.028,2.0864,0.1,0.00020341,2032.7,0.00020037,1949.9,-6.0667e-05,-11.403,-7.8761e-05,-147.36,1.0159
356,14.653,3.3923,0.1,0.00021107,2109.3,0.00021093,2110.2,-6.1333e-05,64.508,-7.756e-05,-57.416,0.97217
357,13.91,3.9259,0.1,0.00023071,2305.5,0.00023012,2289.9,-7.1676e-05,22.339,-8.1536e-05,-51.742,0.88662
358,14.196,2.3864,0.1,0.00021444,2142.9,0.00021398,2130.5,-6.776e-05,13.572,-7.455e-05,-37.445,0.91981
359,20.025,1.784,0.1,7.385e-05,737.99,7.3898e-05,743.35,-1.9841e-05,39.034,-2.8263e-05,-24.249,1.654
360,19.857,3.3309,0.1,7.6056e-05,760.04,7.5888e-05,757.56,-2.1716e-05,24.21,-2.8479e-05,-26.608,1.631
361,20.796,3.0027,0.1,6.5751e-05,657.05,6.6275e-05,676.78,-1.6734e-05,53.076,-2.5022e-05,-9.1934,1.76
362,19.409,2.5689,0.1,0.00011523,1151.5,0.00011567,1169.8,-3.1135e-05,66.767,-4.3303e-05,-24.658,1.5701
363,18.956,1.8719,0.1,0.00013392,1338.2,0.0001389,1505.7,-2.4755e-05,276.05,-5.079e-05,80.432,1.5084
364,16.756,3.5528,0.1,0.00019871,1985.7,0.00019512,1886.9,-5.962e-05,-27.078,-7.7783e-05,-163.54,1.2241
365,17.051,3.0624,0.1,0.0002226,2224.5,0.00021905,2127.7,-6.6437e-05,-17.398,-8.6551e-05,-168.53,1.2613
366,16.595,2.6344,0.1,0.00019199,1918.5,0.00018984,1859.9,-5.8098e-05,-3.0507,-7.2305e-05,-109.79,1.2047
367,16.069,3.7752,0.1,0.0001953,1951.7,0.00019325,1896.9,-5.7983e-05,9.21,-7.4261e-05,-113.1,1.1396
368,15.468,4.1557,0.1,0.00018895,1888.2,0.00018806,1866.3,-5.5956e-05,32.888,-6.9941e-05,-72.186,1.0667
369,16.887,4.4418,0.1,0.0001715,1713.8,0.00016678,1583.4,-5.143e-05,-56.172,-7.0064e-05,-196.18,1.2388
370,17.068,3.9234,0.1,0.00020647,2063.3,0.00020274,1967,-5.7988e-05,8.0065,-8.3906e-05,-186.73,1.2625
371,18.547,2.9446,0.1,0.00023261,2324.5,0.00022801,2207.5,-6.4096e-05,12.702,-9.6136e-05,-228.04,1.4542
372,18.935,3.0201,0.1,0.00016799,1678.7,0.00016905,1711,-5.1234e-05,55.859,-5.7374e-05,9.7216,1.506
373,18.754,3.4465,0.1,0.00017898,1788.6,0.00017822,1771.1,-5.2197e-05,39.876,-6.6777e-05,-69.672,1.4816
374,18.56,3.3065,0.1,0.00023294,2327.8,0.00022543,2132.2,-6.3712e-05,-40.231,-0.00010159,-324.82,1.4558
375,17.646,3.1478,0.1,0.00026782,2676.3,0.00025843,2430,-7.3851e-05,-66.651,-0.00011763,-395.58,1.3366
376,17.292,2.5742,0.1,0.00021877,2186.2,0.00021494,2093.4,-5.8437e-05,39.338,-9.09e-05,-204.58,1.2916
377,17.363,3.4331,0.1,0.00022844,2282.9,0.0002251,2195.9,-6.5415e-05,13.104,-9.0492e-05,-175.32,1.3003
378,17.622,2.7468,0.1,0.00027198,2717.9,0.00026387,2485.1,-8.8042e-05,-159.07,-0.00010693,-301.01,1.3335
379,17.229,4.6742,0.1,0.00015782,1577.1,0.00014344,1271.5,-2.5268e-05,3.8302,-9.1616e-05,-494.68,1.2807
380,17.409,4.1558,0.1,0.00019159,1914.6,0.00017857,1648.9,-3.1605e-05,69.67,-0.00010485,-480.68,1.3049
381,17.73,4.4645,0.1,0.00020792,2077.8,0.00017831,1511.3,-1.6598e-05,46.879,-0.00013818,-866.66,1.3445
382,4.9301,3.9749,0.1,0.00044399,4436.8,0.00045273,4738.5,-0.00010002,585.41,-0.00016939,64.126,0.12582
383,2.8993,4.0101,0.1,0.00051109,5107.4,0.00050497,5202.5,-6.41e-05,926.78,-0.00024774,-453.03,0.043674
384,3.7675,2.9935,0.1,0.0004777,4773.7,0.00049168,5252.9,-9.4528e-05,848.37,-0.00018343,180.41,0.074465
385,3.9439,5.0008,0.1,0.00049137,4910.3,0.00050558,5380.8,-0.00010466,795.68,-0.00018397,199.78,0.078361
386,7.1184,4.2373,0.1,0.00040305,4027.7,0.00040395,4058.8,-0.00012128,112.4,-0.00014231,-45.583,0.25578
387,5.6902,2.8973,0.1,0.0004314,4311,0.00043407,4407,-0.00011714,265.49,-0.00015985,-55.416,0.16732
388,5.9862,4.9742,0.1,0.00042735,4270.6,0.00043137,4398.3,-0.00012047,252,-0.00015222,13.501,0.1806
389,9.268,4.5351,0.1,0.0003624,3621.5,0.00036134,3591.9,-0.00011501,12.803,-0.00012609,-70.5,0.42081
390,8.5082,3.8377,0.1,0.00037708,3768.2,0.00037683,3761.3,-0.00012135,18.141,-0.00012796,-31.472,0.35999
391,8.1322,5.2631,0.1,0.00039243,3921.6,0.0003919,3910.4,-0.00011932,69.344,-0.00014013,-87.033,0.32542
392,11.181,4.56,0.1,0.00030598,3057.7,0.00030604,3059.9,-9.799e-05,24.213,-0.00010377,-19.207,0.59662
393,10.427,3.8033,0.1,0.00032526,3250.4,0.0003253,3252.5,-0.00010268,36.82,-0.00011178,-31.561,0.52646
394,10.136,5.2719,0.1,0.00034402,3437.8,0.00034384,3433.7,-0.00010898,31.353,-0.00011828,-38.546,0.49423
395,12.983,4.6147,0.1,0.00025373,2535.5,0.00025323,2522.1,-8.0213e-05,16.682,-8.809e-05,-42.499,0.78262
396,12.046,5.288,0.1,0.00027949,2793,0.00027975,2800.7,-9.0332e-05,20.069,-9.3596e-05,-4.4585,0.68081
397,14.725,4.6893,0.1,0.00020871,2085.6,0.00020732,2046.6,-6.55e-05,-3.2748,-7.4787e-05,-73.049,0.97809
398,13.938,5.3267,0.1,0.00022591,2257.5,0.00022473,2224.8,-7.0489e-05,6.6511,-8.0707e-05,-70.124,0.88567
399,16.286,4.8223,0.1,0.00016387,1637.6,0.00016057,1545.2,-5.0284e-05,-39.11,-6.3843e-05,-140.99,1.1638
400,15.788,5.3626,0.1,0.00018122,1811,0.00017707,1692.8,-5.7268e-05,-67.956,-7.012e-05,-164.52,1.1015
401,1.8693,3.0041,0.1,0.00055288,5525,0.00052065,5173.9,-3.421e-05,1004.9,-0.00031339,-1092.8,0.018367
402,0.95536,4.0094,0.1,0.00046765,4673.2,0.00052373,6497.4,-1.5837e-05,2443.3,-0.00015653,1386.2,0.0047548
403,1.9554,5.0094,0.1,0.00054787,5474.9,0.00052188,5191.1,-4.883e-05,903.06,-0.0002989,-975.88,0.018902
404,16.464,1.579,0.1,0.00016851,1684,0.00016522,1590.2,-5.3176e-05,-50.731,-6.4216e-05,-133.68,1.1876
405,16.836,2.1462,0.1,0.00018615,1860.2,0.00018401,1812.7,-4.9372e-05,59.146,-7.5663e-05,-138.4,1.2343
406,13.525,1.5455,0.1,0.00023244,2322.8,0.00023139,2292.2,-7.6129e-05,-18.421,-7.9351e-05,-42.626,0.84314
407,15.46,1.3025,0.1,0.00017147,1713.5,0.0001686,1632.1,-5.3617e-05,-37.485,-6.4879e-05,-122.11,1.0657
408,14.424,0.78718,0.1,0.00019894,1988,0.0001975,1948.5,-6.1015e-05,6.1274,-7.278e-05,-82.275,0.94305
409,11.662,1.5275,0.1,0.00029367,2934.7,0.00029293,2913.1,-9.6308e-05,-11.471,-9.8974e-05,-31.502,0.64521
410,12.601,0.75827,0.1,0.00027014,2699.5,0.00026903,2667.1,-8.8685e-05,-20.612,-9.1798e-05,-44.004,0.74029
411,9.8503,1.5245,0.1,0.00034115,3409.1,0.00034149,3420,-0.00010851,38.833,-0.00011586,-16.395,0.4722
412,10.652,2.3006,0.1,0.00031781,3176,0.00031777,3175.2,-0.00010195,21.548,-0.00010782,-22.562,0.54788
413,10.761,0.7692,0.1,0.0003186,3183.8,0.00031877,3189,-0.00010406,11.969,-0.00010586,-1.5461,0.55372
414,8.0764,1.5518,0.1,0.00038343,3831.6,0.00038491,3876.6,-0.00011943,87.12,-0.00013048,4.152,0.32456
415,8.8655,2.3298,0.1,0.000363,3627.5,0.00036414,3663.9,-0.00011045,98.036,-0.00012645,-22.236,0.38932
416,8.9894,0.75528,0.1,0.00036654,3662.8,0.00036689,3673.5,-0.00011754,33.721,-0.00012362,-11.939,0.39433
417,6.291,1.7196,0.1,0.00042546,4251.7,0.00042772,4322.2,-0.00012747,150.74,-0.00014825,-5.3725,0.2011
418,7.187,0.79652,0.1,0.00041159,4113.1,0.00041322,4161.2,-0.00013097,72.423,-0.00013737,24.31,0.25609
419,4.5276,1.9159,0.1,0.00046568,4653.6,0.00047386,4927.7,-0.00011226,523.86,-0.0001741,59.183,0.1059
420,5.404,0.92311,0.1,0.0004642,4638.8,0.00046657,4716.7,-0.00013499,196.83,-0.00016551,-32.501,0.14622
421,2.7376,1.9875,0.1,0.00051608,5157.2,0.00050991,5243.4,-6.7134e-05,907.74,-0.00024913,-459.73,0.038795
422,3.6236,0.99275,0.1,0.00050217,5018.3,0.00051655,5487,-0.00011067,774.29,-0.00018567,210.78,0.065451
423,0.91396,1.9948,0.1,0.00046737,4670.4,0.00052285,6476.9,-1.6382e-05,2425.3,-0.00015702,1368.6,0.0043261
424,1.814,0.99476,0.1,0.00054655,5461.8,0.00052098,5163.3,-5.3475e-05,847.08,-0.00029625,-977.08,0.01602
425,16.873,1.3128,0.1,0.00017827,1781.5,0.0001581,1396.5,-1.8023e-05,73.145,-0.00011148,-629.07,1.2374
426,17.236,1.0153,0.1,0.00015365,1535.4,0.00014834,1418.1,-3.4361e-05,45.397,-7.2347e-05,-240.01,1.2816
427,16.336,0.51528,0.1,0.0001398,1397.1,0.0001368,1337.9,-3.1418e-05,74.041,-6.2855e-05,-162.17,1.1693
428,21.229,1.5592,0.1,5.0501e-05,504.66,5.0138e-05,494.16,-1.6283e-05,-4.8946,-1.775e-05,-15.922,1.8198
429,19.236,1.162,0.1,7.6814e-05,767.61,7.9042e-05,840.24,-1.6855e-05,119.71,-2.8405e-05,32.929,1.5459
430,20.209,0.66203,0.1,5.7957e-05,579.17,5.6932e-05,549.3,-1.9197e-05,-22.71,-2.107e-05,-36.78,1.6786
431,19.585,4.1832,0.1,9.1367e-05,913.04,8.7874e-05,821.12,-2.5188e-05,-28.379,-4.0626e-05,-144.37,1.5934
432,19.137,3.4212,0.1,0.0001274,1273.1,0.00012518,1214.7,-3.642e-05,0.55899,-5.1155e-05,-110.15,1.533
433,18.956,3.8476,0.1,0.00014615,1460.5,0.00014038,1320.2,-3.5913e-05,-4.3768,-6.8068e-05,-245.97,1.5084
434,18.683,4.2242,0.1,0.00013278,1326.9,0.00013599,1426.3,-3.3732e-05,151.12,-4.6778e-05,53.094,1.4711
435,20.909,4.0897,0.1,5.8045e-05,580.05,5.7502e-05,565.59,-1.7309e-05,3.4842,-2.1882e-05,-30.873,1.7752
436,19.068,4.709,0.1,8.3233e-05,831.75,8.6033e-05,923.03,-1.732e-05,146.48,-3.0782e-05,45.328,1.5226
437,20.041,5.209,0.1,6.2272e-05,622.29,6.0473e-05,571.97,-1.9057e-05,-25.579,-2.5289e-05,-72.409,1.6548
438,22,2.7779,0.1,4.2687e-05,426.57,4.2787e-05,429.63,-1.3416e-05,7.3446,-1.4541e-05,-1.1038,1.9271
439,21.952,4.8808,0.1,4.3142e-05,431.12,4.293e-05,425.15,-1.3642e-05,0.0852,-1.5221e-05,-11.783,1.9195
440,22.924,3.8808,0.1,3.5989e-05,359.65,3.6451e-05,376.41,-8.55e-06,38.295,-1.3841e-05,-1.4565,2.0559
441,23.076,1.8971,0.1,3.0548e-05,305.27,3.024e-05,303.56,-6.2103e-06,29.68,-1.3562e-05,-25.556,2.0774
442,22.104,0.89713,0.1,3.8806e-05,387.79,3.8513e-05,379.5,-1.2207e-05,-1.5927,-1.3947e-05,-14.663,1.9412
443,18.112,3.0275,0.1,0.00028231,2821.2,0.00026773,2470.3,-6.6052e-05,-37.62,-0.00013878,-584.1,1.3969
444,18.125,3.3894,0.1,0.00028176,2815.6,0.0002642,2388,-6.5746e-05,-91.141,-0.00014322,-673.22,1.3984
445,17.963,3.6561,0.1,0.00037779,3775.3,0.00037018,3622.7,-8.7074e-05,187.13,-0.00016773,-418.88,1.3768
446,18.088,2.6265,0.1,0.0002841,2839,0.00027209,2517.3,-8.046e-05,-131.66,-0.00012679,-479.75,1.3936
447,18.233,2.3714,0.1,0.00035566,3554.2,0.00036497,3830.4,-0.0001002,335.34,-0.00011555,219.97,1.4123
448,9.6671,3.1059,0.1,0.00033975,3395.2,0.00034059,3420.4,-0.00010782,51.188,-0.00011466,-0.13838,0.45828
449,17.245,1.88,0.1,0.00019531,1951.8,0.00017522,1606.4,-1.4651e-05,179.78,-0.00012082,-617.92,1.285
450,17.637,1.5476,0.1,0.00021694,2167.9,0.00018268,1561.7,-7.4463e-06,133.1,-0.00014932,-932.86,1.3335
451,17.499,4.9597,0.1,0.00012011,1200.3,0.00012061,1221.7,-3.1685e-05,77.394,-4.5669e-05,-27.676,1.3136
452,16.999,5.4597,0.1,0.00012081,1207.3,0.00011632,1090.4,-3.2767e-05,-29.793,-5.3877e-05,-188.4,1.2493
453,17.609,2.0825,0.1,0.00033533,3351,0.00032856,3235.9,-7.0477e-05,237.71,-0.00015288,-381.42,1.3312
454,18.62,2.4469,0.1,0.00029388,2936.8,0.00030727,3343.4,-6.7432e-05,528.04,-9.7956e-05,298.69,1.4638
455,18.44,3.8733,0.1,0.00034495,3447.2,0.00035098,3628.6,-9.8144e-05,253.99,-0.00011689,113.1,1.4391
456,17.68,3.9413,0.1,0.0003448,3445.6,0.00034251,3431.2,-7.9213e-05,262.56,-0.00014568,-236.87,1.3397
457,17.939,2.2551,0.1,0.00038592,3856.5,0.00037608,3617,-9.9773e-05,41.623,-0.00016781,-469.55,1.3738
458,18.245,3.7334,0.1,0.00038371,3834.4,0.00038551,3894.4,-0.00011156,159.57,-0.00013712,-32.451,1.4136
459,18.167,1.25,0.1,0.00014952,1494.2,0.00015594,1691.9,-3.3111e-05,271.51,-5.1478e-05,133.51,1.4014
460,18.167,0.5,0.1,8.3302e-05,832.44,8.5433e-05,895.88,-2.3287e-05,79.005,-2.732e-05,48.698,1.4001
461,18.167,1,0.05,4.297e-06,42.94,3.2995e-06,24.791,1.2279e-12,1.2754e-05,-3.2995e-06,-24.791,1.4009
462,18.167,1.75,0.1,0.00032214,3219.2,0.00033903,3743.4,-6.425e-05,713.3,-0.00011077,363.73,1.4024
463,18.167,1.5,0.05,1.0867e-05,108.59,8.3445e-06,62.697,-1.1449e-12,-1.5096e-05,-8.3445e-06,-62.697,1.4018
464,18.083,2,0.1,0.00043047,4301.7,0.00044584,4756.5,-0.00011792,520.58,-0.00013505,391.91,1.392
465,18.167,2,0.05,1.2584e-05,125.75,9.6627e-06,72.602,8.3712e-12,1.7348e-07,-9.6627e-06,-72.602,1.4029
466,18,1.75,0.1,0.00034844,3482,0.0003321,3161.7,-6.2518e-05,196.69,-0.0001782,-672.5,1.3803
467,18,2,0.05,2.7721e-05,277.02,2.1287e-05,159.94,-1.2115e-12,1.1157e-05,-2.1287e-05,-159.94,1.3811
468,18,1.25,0.1,0.00020339,2032.5,0.00018618,1682.9,-3.0097e-05,57.92,-0.00011713,-596.02,1.3782
469,18,1.5,0.05,3.1882e-05,318.6,2.4481e-05,183.94,2.2281e-12,1.0841e-05,-2.4481e-05,-183.94,1.3793
470,18,0.5,0.1,0.00012619,1261,0.00012703,1299.2,-2.9727e-05,121.39,-5.0028e-05,-31.146,1.3748
471,18,1,0.05,3.1876e-05,318.54,2.4477e-05,183.91,2.5857e-12,7.823e-06,-2.4477e-05,-183.91,1.3771
472,18.167,4.75,0.1,0.00013775,1376.6,0.00014506,1610.2,-2.427e-05,337.96,-4.9439e-05,148.84,1.4006
473,18.167,5.5,0.1,7.7423e-05,773.69,8.2407e-05,928.2,-1.3884e-05,204.71,-2.6148e-05,112.56,1.399
474,18.167,5,0.05,1.0358e-05,103.51,7.9534e-06,59.759,1.4187e-12,9.8015e-06,-7.9534e-06,-59.759,1.4
475,18.167,4.25,0.1,0.00033656,3363.2,0.00034894,3752.3,-7.4271e-05,572.47,-0.00011964,231.56,1.4018
476,18.167,4.5,0.05,1.7227e-05,172.16,1.3229e-05,99.394,-1.2906e-12,-2.1083e-14,-1.3229e-05,-99.394,1.4011
477,18.083,4,0.1,0.00043932,4390.1,0.00045462,4852.2,-0.00011077,604.02,-0.00014689,332.67,1.3915
478,18.167,4,0.05,3.4368e-05,343.44,2.639e-05,198.29,4.3945e-12,3.1883e-07,-2.639e-05,-198.29,1.4025
479,18,4.25,0.1,0.00033676,3365.2,0.00032524,3165.9,-6.0027e-05,271.17,-0.00016618,-526.46,1.3797
480,18,4,0.05,9.5952e-06,95.885,7.3679e-06,55.359,-1.5628e-21,-2.7284e-06,-7.3679e-06,-55.36,1.3807
481,18,4.75,0.1,0.00018685,1867.2,0.0001713,1580.4,-2.2064e-05,127.59,-0.00010901,-525.66,1.3775
482,18,4.5,0.05,5.1878e-05,518.42,3.9836e-05,299.31,-3.1583e-12,-3.8428e-06,-3.9836e-05,-299.31,1.3786
483,18,5.5,0.1,7.7362e-05,773.09,8.1759e-05,920.36,-1.0713e-05,225.56,-2.9079e-05,87.566,1.3741
484,18,5,0.05,1.8804e-05,187.91,1.4439e-05,108.49,9.8497e-13,-2.3012e-14,-1.4439e-05,-108.49,1.3763
485,19.139,6,0.1,5.0473e-05,504.38,5.1609e-05,537.79,-1.5462e-05,33.837,-1.5576e-05,32.98,1.5303
486,18.167,6,0.05,3.7323e-07,3.7297,2.866e-07,2.1534,-1.2436e-12,1.7995e-05,-2.8659e-07,-2.1534,1.3979
487,21.083,6,0.1,4.6949e-05,469.17,4.5466e-05,428.26,-1.4015e-05,-18.653,-1.9568e-05,-60.377,1.7978
488,20.111,6,0.05,1.1614e-06,11.606,8.9179e-07,6.7006,-4.0729e-13,-2.2416e-07,-8.9179e-07,-6.7006,1.6636
489,23.028,6,0.1,3.1851e-05,318.29,3.1322e-05,310.97,-6.4958e-06,26.827,-1.4454e-05,-32.97,2.0689
490,22.056,6,0.05,1.7719e-06,17.707,1.3606e-06,10.223,1.9208e-12,1.5033e-05,-1.3606e-06,-10.223,1.933
491,24,5,0.1,2.5202e-05,251.84,2.4783e-05,261.8,-1.4372e-06,64.787,-1.2981e-05,-21.951,2.2061
492,24,6,0.05,1.3606e-06,13.596,1.0447e-06,7.8498,-1.5553e-12,3.0977e-06,-1.0447e-06,-7.8497,2.2053
493,24,3,0.1,2.469e-05,246.73,2.3894e-05,250.26,-8.2976e-07,64.495,-1.3365e-05,-29.692,2.207
494,24,4,0.05,1.3076e-06,13.067,1.0041e-06,7.5441,4.6171e-13,7.4852e-06,-1.0041e-06,-7.5441,2.2067
495,24,1,0.1,2.2206e-05,221.91,2.1668e-05,225.47,-1.4801e-06,51.545,-1.1595e-05,-24.45,2.2066
496,24,2,0.05,1.8698e-06,18.685,1.4358e-06,10.788,9.0847e-13,1.4505e-05,-1.4358e-06,-10.788,2.2069
497,2.6226e-14,3,0.1,0.00039404,3937.7,0.0005253,7795.7,2.6591e-06,3868.8,-1.9151e-07,3847.4,0
498,8.7419e-15,1,0.1,0.0003597,3594.5,0.00047702,7046.2,7.538e-06,3518.7,-9.8248e-06,3388.2,0
499,1.772e-14,2,0.05,1.3196e-05,131.87,1.0133e-05,76.135,-6.4015e-21,-1.6149e-14,-1.0133e-05,-76.135,0
500,4.371e-14,5,0.1,0.00036746,3672.1,0.00048714,7193.2,7.4855e-06,3589.3,-1.0165e-05,3456.6,0
501,3.5441e-14,4,0.05,1.8482e-05,184.69,1.4192e-05,106.63,-3.0103e-21,-2.2618e-14,-1.4192e-05,-106.63,0
502,1,6,0.1,0.00043699,4366.9,0.0004843,5879.5,-3.1749e-05,2002.1,-0.0001453,1148.9,0.0042673
503,5.2451e-14,6,0.05,0.00013716,1370.6,0.00010532,791.34,-2.234e-20,-1.6785e-13,-0.00010532,-791.34,0
504,3,6,0.1,0.00052548,5251.2,0.0005246,5385.3,-9.2116e-05,751.52,-0.00023452,-318.46,0.041415
505,2,6,0.05,2.7293e-05,272.74,2.0957e-05,157.47,5.162e-12,-3.3401e-14,-2.0957e-05,-157.47,0.017761
506,5,6,0.1,0.00047367,4733.4,0.00048336,5034.2,-0.00012421,469.16,-0.00016685,148.72,0.12068
507,4,6,0.05,9.2174e-06,92.11,7.0778e-06,53.18,-1.5013e-21,-1.128e-14,-7.0778e-06,-53.18,0.075771
508,7,6,0.1,0.00041629,4160,0.00041915,4248.8,-0.00012344,171.94,-0.00014496,10.26,0.2391
509,6,6,0.05,1.4068e-05,140.58,1.0802e-05,81.165,-2.2913e-21,8.1487e-12,-1.0802e-05,-81.165,0.17539
510,9,6,0.1,0.00037237,3721.1,0.00037305,3742.1,-0.00011757,55.784,-0.00012671,-12.895,0.39004
511,8,6,0.05,1.3639e-05,136.29,1.0473e-05,78.688,-7.4285e-15,3.057e-09,-1.0473e-05,-78.688,0.31061
512,11,6,0.1,0.0003179,3176.8,0.00031783,3176.6,-9.9124e-05,43.714,-0.00011059,-42.403,0.57179
513,10,6,0.05,1.1434e-05,114.26,8.7798e-06,65.968,1.0502e-12,9.1771e-06,-8.7798e-06,-65.968,0.47737
514,13,6,0.1,0.0002518,2516.3,0.00025138,2504.5,-8.0575e-05,10.281,-8.638e-05,-33.334,0.77855
515,12,6,0.05,6.6315e-06,66.269,5.0921e-06,38.26,-1.0801e-21,4.2196e-06,-5.0921e-06,-38.26,0.67236
516,15,6,0.1,0.00019895,1988.2,0.00019493,1874.3,-6.1952e-05,-55.737,-7.6789e-05,-167.22,1.0052
517,14,6,0.05,6.2351e-06,62.308,4.7878e-06,35.974,-1.0156e-21,9.528e-06,-4.7878e-06,-35.974,0.88963
518,16.5,6,0.1,0.0001334,1333.1,0.00012874,1207.3,-3.8357e-05,-48.16,-5.7464e-05,-191.72,1.1856
519,16,6,0.05,1.6731e-05,167.2,1.2848e-05,96.532,1.3519e-12,1.002e-05,-1.2848e-05,-96.532,1.1246
520,17.5,6,0.1,7.1693e-05,716.43,7.2212e-05,749.57,-1.3119e-05,108.43,-3.0709e-05,-23.742,1.3094
521,17,6,0.05,6.6492e-06,66.446,5.1057e-06,38.363,3.7335e-12,1.5259e-05,-5.1057e-06,-38.363,1.2473
522,18,6,0.05,3.9264e-06,39.237,3.015e-06,22.654,-1.9263e-12,-1.0192e-05,-3.015e-06,-22.654,1.3718
523,23.028,0,0.1,3.0296e-05,302.75,3.0178e-05,303.2,-7.1688e-06,22.59,-1.2526e-05,-17.661,2.0698
524,24,0,0.05,2.6328e-06,26.31,2.0217e-06,15.19,2.8003e-12,2.4248e-05,-2.0217e-06,-15.19,2.2061
525,21.083,0,0.1,4.6306e-05,462.74,4.5283e-05,434.45,-1.3946e-05,-10.575,-1.8418e-05,-44.171,1.7988
526,22.056,0,0.05,1.9895e-06,19.881,1.5277e-06,11.478,8.2829e-13,1.1173e-05,-1.5277e-06,-11.478,1.9339
527,19.139,0,0.1,5.5763e-05,557.24,5.519e-05,543.82,-1.5342e-05,13.871,-2.2138e-05,-37.193,1.5315
528,20.111,0,0.05,3.5522e-06,35.497,2.7276e-06,20.494,9.8119e-13,9.2987e-06,-2.7276e-06,-20.494,1.6646
529,18.167,0,0.05,4.7025e-06,46.993,3.611e-06,27.131,-9.6161e-13,-1.8617e-05,-3.611e-06,-27.131,1.3992
530,17.1,2.6508e-30,0.1,0.00010802,1079.4,0.00011147,1188.8,-2.4467e-05,167.44,-3.8838e-05,59.452,1.261
531,18,2.7903e-30,0.05,6.4511e-06,64.467,4.9537e-06,37.22,-3.4644e-13,1.7867e-05,-4.9537e-06,-37.22,1.3725
532,15.3,2.3718e-30,0.1,0.00016116,1610.5,0.00016064,1616.3,-3.792e-05,124.38,-6.6593e-05,-91.062,1.0432
533,16.2,0,0.05,1.8132e-05,181.2,1.3923e-05,104.61,-1.2301e-13,1.6136e-06,-1.3923e-05,-104.61,1.1511
534,13.5,2.0927e-30,0.1,0.00023654,2363.8,0.00023507,2322.9,-7.3383e-05,5.3463,-8.5344e-05,-84.527,0.83519
535,14.4,0,0.05,1.5355e-05,153.44,1.1791e-05,88.591,3.9958e-13,3.2398e-05,-1.1791e-05,-88.591,0.93756
536,11.7,1.8137e-30,0.1,0.00029521,2950.1,0.000295,2943.9,-9.6313e-05,3.7703,-9.8937e-05,-15.949,0.64276
537,12.6,0,0.05,2.5703e-06,25.685,1.9737e-06,14.829,-4.1865e-22,1.1646e-06,-1.9737e-06,-14.829,0.73678
538,9.9,1.5347e-30,0.1,0.00034412,3438.8,0.00034426,3443.2,-0.00011151,18.71,-0.00011529,-9.6638,0.46922
539,10.8,0,0.05,6.542e-06,65.375,5.0235e-06,37.744,2.8174e-13,6.5624e-06,-5.0235e-06,-37.744,0.55339
540,8.1,1.2556e-30,0.1,0.00039497,3947,0.00039541,3959.8,-0.00012911,18.759,-0.0001307,6.8719,0.31799
541,9,0,0.05,5.8133e-06,58.093,4.4639e-06,33.54,-4.4701e-21,3.585e-06,-4.4639e-06,-33.54,0.39061
542,6.3,9.7661e-31,0.1,0.00044932,4490.1,0.00045132,4550.1,-0.00014057,102.86,-0.00015181,18.443,0.19217
543,7.2,0,0.05,2.283e-06,22.814,1.7531e-06,13.172,-3.7185e-22,3.814e-06,-1.7531e-06,-13.172,0.25163
544,4.5,6.9758e-31,0.1,0.00049998,4996.3,0.00050883,5272.8,-0.00013289,451.16,-0.00017717,118.43,0.095759
545,5.4,0,0.05,5.8519e-06,58.479,4.4936e-06,33.763,-2.6447e-13,4.3237e-07,-4.4936e-06,-33.763,0.14
546,2.7,4.1855e-31,0.1,0.00053063,5302.7,0.0005302,5426.3,-0.00010008,690.6,-0.00023231,-302.89,0.032386
547,3.6,0,0.05,6.9185e-06,69.137,5.3125e-06,39.916,-1.1269e-21,-8.4668e-15,-5.3125e-06,-39.916,0.059695
548,0.9,1.3952e-31,0.1,0.00042834,4280.4,0.0004736,5721,-3.5127e-05,1898.6,-0.00014193,1096.1,0.0032969
549,1.8,0,0.05,2.6136e-05,261.18,2.0069e-05,150.79,1.0941e-11,-3.1985e-14,-2.0069e-05,-150.79,0.013784
550,0,0,0.05,0.00013126,1311.6,0.00010079,757.28,-2.1379e-20,-1.6063e-13,-0.00010079,-757.28,0
551,2.7,4.1855e-31,0,0.00053063,5302.7,0.00023231,302.89,0.00010008,-690.6,-0.0005302,-5426.3,0.032386
552,0.9,1.3952e-31,0,0.00042834,4280.4,0.00014193,-1096.1,3.5127e-05,-1898.6,-0.0004736,-5721,0.0032969
553,4.5,6.9758e-31,0,0.00049998,4996.3,0.00017717,-118.43,0.00013289,-451.16,-0.00050883,-5272.8,0.095759
554,6.3,9.7661e-31,0,0.00044932,4490.1,0.00015181,-18.443,0.00014057,-102.86,-0.00045132,-4550.1,0.19217
555,8.1,1.2556e-30,0,0.00039497,3947,0.0001307,-6.8719,0.00012911,-18.759,-0.00039541,-3959.8,0.31799
556,9.9,1.5347e-30,0,0.00034412,3438.8,0.00011529,9.6638,0.00011151,-18.71,-0.00034426,-3443.2,0.46922
557,11.7,1.8137e-30,0,0.00029521,2950.1,9.8937e-05,15.949,9.6313e-05,-3.7703,-0.000295,-2943.9,0.64276
558,13.5,2.0927e-30,0,0.00023654,2363.8,8.5344e-05,84.527,7.3383e-05,-5.3463,-0.00023507,-2322.9,0.83519
559,15.3,2.3718e-30,0,0.00016116,1610.5,6.6593e-05,91.062,3.792e-05,-124.38,-0.00016064,-1616.3,1.0432
560,17.1,2.6508e-30,0,0.00010802,1079.4,3.8838e-05,-59.452,2.4467e-05,-167.44,-0.00011147,-1188.8,1.261
561,18,0.5,0,0.00012619,1261,5.0028e-05,31.146,2.9727e-05,-121.39,-0.00012703,-1299.2,1.3748
562,8.7419e-15,1,0,0.0003597,3594.5,9.8248e-06,-3388.2,-7.538e-06,-3518.7,-0.00047702,-7046.2,0
563,21.083,0,0,4.6306e-05,462.74,1.8418e-05,44.171,1.3946e-05,10.575,-4.5283e-05,-434.45,1.7988
564,19.139,0,0,5.5763e-05,557.24,2.2138e-05,37.193,1.5342e-05,-13.871,-5.519e-05,-543.82,1.5315
565,23.028,0,0,3.0296e-05,302.75,1.2526e-05,17.661,7.1687e-06,-22.59,-3.0178e-05,-303.2,2.0698
566,18.167,0.5,0,8.3302e-05,832.44,2.732e-05,-48.698,2.3287e-05,-79.005,-8.5433e-05,-895.88,1.4001
567,24,1,0,2.2206e-05,221.91,1.1595e-05,24.45,1.4801e-06,-51.545,-2.1668e-05,-225.47,2.2066
568,16.5,6,0,0.0001334,1333.1,5.7464e-05,191.72,3.8357e-05,48.16,-0.00012874,-1207.3,1.1856
569,17.5,6,0,7.1693e-05,716.43,3.0709e-05,23.742,1.3119e-05,-108.43,-7.2212e-05,-749.57,1.3094
570,15,6,0,0.00019895,1988.2,7.6789e-05,167.22,6.1952e-05,55.737,-0.00019493,-1874.3,1.0052
571,13,6,0,0.0002518,2516.3,8.638e-05,33.334,8.0575e-05,-10.281,-0.00025138,-2504.5,0.77855
572,11,6,0,0.0003179,3176.8,0.00011059,42.403,9.9124e-05,-43.714,-0.00031783,-3176.6,0.57179
573,9,6,0,0.00037237,3721.1,0.00012671,12.895,0.00011757,-55.784,-0.00037305,-3742.1,0.39004
574,7,6,0,0.00041629,4160,0.00014496,-10.26,0.00012344,-171.94,-0.00041915,-4248.8,0.2391
575,5,6,0,0.00047367,4733.4,0.00016685,-148.72,0.00012421,-469.16,-0.00048336,-5034.2,0.12068
576,3,6,0,0.00052548,5251.2,0.00023452,318.46,9.2116e-05,-751.52,-0.0005246,-5385.3,0.041415
577,1,6,0,0.00043699,4366.9,0.0001453,-1148.9,3.1749e-05,-2002.1,-0.0004843,-5879.5,0.0042673
578,18,5.5,0,7.7362e-05,773.09,2.9079e-05,-87.566,1.0713e-05,-225.56,-8.1759e-05,-920.36,1.3741
579,4.371e-14,5,0,0.00036746,3672.1,1.0165e-05,-3456.6,-7.4855e-06,-3589.3,-0.00048714,-7193.2,0
580,2.6226e-14,3,0,0.00039404,3937.7,1.9151e-07,-3847.4,-2.6591e-06,-3868.8,-0.0005253,-7795.7,0
581,24,3,0,2.469e-05,246.73,1.3365e-05,29.692,8.2976e-07,-64.495,-2.3894e-05,-250.26,2.207
582,24,5,0,2.5202e-05,251.84,1.2981e-05,21.951,1.4372e-06,-64.787,-2.4783e-05,-261.8,2.2061
583,23.028,6,0,3.1851e-05,318.29,1.4454e-05,32.97,6.4958e-06,-26.827,-3.1322e-05,-310.97,2.0689
584,21.083,6,0,4.6949e-05,469.17,1.9568e-05,60.377,1.4015e-05,18.653,-4.5466e-05,-428.26,1.7978
585,19.139,6,0,5.0473e-05,504.38,1.5576e-05,-32.98,1.5462e-05,-33.837,-5.1609e-05,-537.79,1.5303
586,18.167,5.5,0,7.7423e-05,773.69,2.6148e-05,-112.56,1.3884e-05,-204.71,-8.2407e-05,-928.2,1.399
587,18,4.75,0,0.00018685,1867.2,0.00010901,525.66,2.2064e-05,-127.59,-0.0001713,-1580.4,1.3775
588,18,4.25,0,0.00033676,3365.2,0.00016618,526.46,6.0027e-05,-271.17,-0.00032524,-3165.9,1.3797
589,18.083,4,0,0.00043932,4390.1,0.00014689,-332.67,0.00011077,-604.02,-0.00045462,-4852.2,1.3915
590,18.167,4.75,0,0.00013775,1376.6,4.9439e-05,-148.84,2.427e-05,-337.96,-0.00014506,-1610.2,1.4006
591,18.167,4.25,0,0.00033656,3363.2,0.00011964,-231.56,7.4271e-05,-572.47,-0.00034894,-3752.3,1.4018
592,18,1.25,0,0.00020339,2032.5,0.00011713,596.02,3.0097e-05,-57.92,-0.00018618,-1682.9,1.3782
593,18,1.75,0,0.00034844,3482,0.0001782,672.5,6.2518e-05,-196.69,-0.0003321,-3161.7,1.3803
594,18.083,2,0,0.00043047,4301.7,0.00013505,-391.91,0.00011792,-520.58,-0.00044584,-4756.5,1.392
595,18.167,1.25,0,0.00014952,1494.2,5.1478e-05,-133.51,3.3111e-05,-271.51,-0.00015594,-1691.9,1.4014
596,18.167,1.75,0,0.00032214,3219.2,0.00011077,-363.73,6.425e-05,-713.3,-0.00033903,-3743.4,1.4024
