Node Number	X Location (in)	Y Location (in)	Z Location (in)	Equivalent (von-Mises) Stress (psi)
1	2.7052	3.1452	0.	8230.5
2	1.7916	3.0567	0.	8827.
3	0.94542	3.6106	0.	7141.7
4	3.206	2.1322	0.	5421.
5	3.4551	3.3132	0.	5678.7
6	2.6884	2.5513	0.	8109.5
7	2.1801	3.2396	0.	12496
8	16.574	3.0798	0.	1867.1
9	4.6283	3.9062	0.	4281.6
10	2.1873	2.5942	0.	11293
11	2.3708	2.7303	0.	10847
12	3.8606	1.5508	0.	4321.9
13	3.8606	1.5508	0.1	4321.9
14	2.3708	2.7303	0.1	10847
15	2.1873	2.5942	0.1	11293
16	4.6283	3.9062	0.1	4281.6
17	16.574	3.0798	0.1	1867.1
18	2.1801	3.2396	0.1	12496
19	2.6884	2.5513	0.1	8109.5
20	3.4551	3.3132	0.1	5678.7
21	3.206	2.1322	0.1	5421.
22	0.94542	3.6106	0.1	7141.7
23	1.7916	3.0567	0.1	8827.
24	2.7052	3.1452	0.1	8230.5
25	2.1667	1.	0.1	5396.4
26	2.1667	1.5	0.1	9024.2
27	2.1667	2.	0.1	20003
28	2.	2.	0.1	23433
29	2.	1.5	0.1	11302
30	2.	1.	0.1	8667.8
31	2.1667	5.	0.1	6779.9
32	2.1667	4.5	0.1	9469.4
33	2.1667	4.	0.1	23059
34	2.	4.	0.1	15235
35	2.	4.5	0.1	11464
36	2.	5.	0.1	4550.6
37	2.1667	6.	0.1	4704.
38	5.8056	6.	0.1	3229.1
39	9.4444	6.	0.1	2819.2
40	16.722	6.	0.1	1737.9
41	24.	6.	0.1	951.61
42	24.	3.	0.1	958.55
43	2.6226e-014	3.	0.1	3540.9
44	3.937e-014	6.	0.1	1921.4
45	1.	6.	0.1	3925.4
46	2.	6.	0.1	3196.6
47	24.	0.	0.1	916.48
48	18.178	0.	0.1	1650.9
49	12.356	0.	0.1	2630.7
50	7.9889	0.	0.1	2756.5
51	5.0778	0.	0.1	3568.2
52	2.1667	0.	0.1	4270.
53	2.	0.	0.1	3778.1
54	0.	0.	0.1	2450.5
55	2.	0.	0.	3778.1
56	0.	0.	0.	2450.5
57	5.0778	0.	0.	3568.2
58	7.9889	0.	0.	2756.5
59	12.356	0.	0.	2630.7
60	18.178	0.	0.	1650.9
61	2.1667	0.	0.	4270.
62	24.	0.	0.	916.48
63	1.	6.	0.	3925.4
64	2.	6.	0.	3196.6
65	3.937e-014	6.	0.	1921.4
66	2.6226e-014	3.	0.	3540.9
67	24.	3.	0.	958.55
68	24.	6.	0.	951.61
69	16.722	6.	0.	1737.9
70	9.4444	6.	0.	2819.2
71	5.8056	6.	0.	3229.1
72	2.1667	6.	0.	4704.
73	2.	4.5	0.	11464
74	2.	5.	0.	4550.6
75	2.	4.	0.	15235
76	2.1667	5.	0.	6779.9
77	2.1667	4.5	0.	9469.4
78	2.1667	4.	0.	23059
79	2.	1.5	0.	11302
80	2.	1.	0.	8667.8
81	2.	2.	0.	23433
82	2.1667	1.	0.	5396.4
83	2.1667	1.5	0.	9024.2
84	2.1667	2.	0.	20003
85	3.0801	3.2292	0.	6943.8
86	2.6968	2.8482	0.	8108.3
87	2.4426	3.1924	0.	10348
88	2.7052	3.1452	5.e-002	845.39
89	2.4359	3.5726	0.	15273
90	1.3685	3.3337	0.	7899.5
91	1.9858	3.1481	0.	10615
92	1.9894	2.8254	0.	10020
93	1.7916	3.0567	5.e-002	634.4
94	1.8958	2.5284	0.	14834
95	0.94542	3.6106	5.e-002	194.56
96	0.97271	4.8053	0.	5444.5
97	0.47271	3.3053	0.	5255.4
98	1.4727	4.0553	0.	8607.
99	1.4727	4.3053	0.	5504.1
100	1.4727	3.8053	0.	11069
101	1.4727	2.5553	0.	8497.4
102	3.3306	2.7227	0.	5485.2
103	2.9472	2.3417	0.	6762.3
104	3.5333	1.8415	0.	4860.9
105	3.206	2.1322	5.e-002	235.81
106	2.6864	1.8161	0.	6944.2
107	4.0417	3.6097	0.	4949.9
108	3.4551	3.3132	5.e-002	207.55
109	2.8109	3.9066	0.	7258.1
110	2.5296	2.6408	0.	9439.2
111	2.6884	2.5513	5.e-002	423.01
112	2.4275	2.2756	0.	14020
113	2.2755	2.985	0.	11555
114	2.1801	3.2396	5.e-002	464.82
115	2.0901	3.6198	0.	13683
116	16.574	3.0798	5.e-002	56.732
117	12.281	1.5399	0.	2305.8
118	14.465	1.5399	0.	2220.9
119	17.376	1.5399	0.	1722.8
120	20.287	3.0399	0.	1412.5
121	16.648	4.5399	0.	1799.5
122	4.2445	2.7285	0.	4226.6
123	4.6283	3.9062	5.e-002	390.54
124	6.3086	1.9531	0.	3515.2
125	5.2169	4.9531	0.	3745.
126	3.3975	4.4531	0.	5406.6
127	2.279	2.6622	0.	10996
128	2.1873	2.5942	5.e-002	784.62
129	2.177	2.2971	0.	15596
130	2.3708	2.7303	5.e-002	397.96
131	3.8606	1.5508	5.e-002	202.84
132	4.4692	0.77541	0.	3937.1
133	3.0136	1.2754	0.	4762.8
134	4.2445	2.7285	0.1	4226.6
135	3.5333	1.8415	0.1	4860.9
136	3.0136	1.2754	0.1	4762.8
137	4.4692	0.77541	0.1	3937.1
138	2.279	2.6622	0.1	10996
139	2.2755	2.985	0.1	11555
140	2.5296	2.6408	0.1	9439.2
141	1.9894	2.8254	0.1	10020
142	2.177	2.2971	0.1	15596
143	4.0417	3.6097	0.1	4949.9
144	3.3975	4.4531	0.1	5406.6
145	5.2169	4.9531	0.1	3745.
146	6.3086	1.9531	0.1	3515.2
147	16.648	4.5399	0.1	1799.5
148	20.287	3.0399	0.1	1412.5
149	17.376	1.5399	0.1	1722.8
150	14.465	1.5399	0.1	2220.9
151	12.281	1.5399	0.1	2305.8
152	1.9858	3.1481	0.1	10615
153	2.4426	3.1924	0.1	10348
154	2.0901	3.6198	0.1	13683
155	2.9472	2.3417	0.1	6762.3
156	2.6968	2.8482	0.1	8108.3
157	2.4275	2.2756	0.1	14020
158	3.3306	2.7227	0.1	5485.2
159	3.0801	3.2292	0.1	6943.8
160	2.8109	3.9066	0.1	7258.1
161	2.6864	1.8161	0.1	6944.2
162	1.3685	3.3337	0.1	7899.5
163	1.4727	2.5553	0.1	8497.4
164	1.4727	3.8053	0.1	11069
165	1.4727	4.0553	0.1	8607.
166	1.4727	4.3053	0.1	5504.1
167	0.47271	3.3053	0.1	5255.4
168	0.97271	4.8053	0.1	5444.5
169	1.8958	2.5284	0.1	14834
170	2.4359	3.5726	0.1	15273
171	2.1667	1.25	0.1	7180.
172	2.1667	0.5	0.1	4794.9
173	2.1667	1.	5.e-002	574.7
174	2.1667	1.75	0.1	14049
175	2.1667	1.5	5.e-002	937.95
176	2.0833	2.	0.1	20073
177	2.1667	2.	5.e-002	1646.9
178	2.	1.75	0.1	17230
179	2.	2.	5.e-002	1823.9
180	2.	1.25	0.1	9943.
181	2.	1.5	5.e-002	2070.
182	1.	2.	0.1	5796.1
183	2.	0.5	0.1	6128.1
184	2.	1.	5.e-002	557.18
185	2.1667	4.75	0.1	8103.9
186	2.1667	5.5	0.1	5689.1
187	2.1667	5.	5.e-002	1064.2
188	2.1667	4.25	0.1	16202
189	2.1667	4.5	5.e-002	288.38
190	2.0833	4.	0.1	17744
191	2.1667	4.	5.e-002	910.41
192	2.	4.25	0.1	12116
193	2.	4.	5.e-002	2078.7
194	2.	4.75	0.1	7972.1
195	2.	4.5	5.e-002	1411.8
196	2.	5.5	0.1	3490.3
197	2.	5.	5.e-002	810.15
198	3.9861	6.	0.1	3703.5
199	2.1667	6.	5.e-002	321.93
200	7.625	6.	0.1	3004.8
201	5.8056	6.	5.e-002	464.92
202	13.083	6.	0.1	2277.5
203	8.7167	3.	0.1	2783.2
204	9.4444	6.	5.e-002	139.02
205	20.361	6.	0.1	1343.
206	16.722	6.	5.e-002	150.77
207	24.	4.5	0.1	951.79
208	24.	6.	5.e-002	94.626
209	24.	1.5	0.1	933.68
210	24.	3.	5.e-002	22.994
211	3.9339e-014	4.5	0.1	2706.4
212	1.3113e-014	1.5	0.1	2870.
213	2.6581e-014	3.	5.e-002	691.09
214	0.5	6.	0.1	2793.
215	5.2451e-014	6.	5.e-002	192.14
216	1.5	6.	0.1	3406.3
217	1.	6.	5.e-002	210.3
218	2.	6.	5.e-002	631.77
219	21.089	0.	0.1	1264.9
220	24.	0.	5.e-002	147.34
221	15.267	0.	0.1	2014.7
222	18.178	0.	5.e-002	16.637
223	10.172	0.	0.1	2679.4
224	12.356	0.	5.e-002	76.103
225	6.5333	0.	0.1	3137.2
226	7.9889	0.	5.e-002	141.47
227	3.6222	0.	0.1	3687.3
228	5.0778	0.	5.e-002	266.27
229	2.1667	0.	5.e-002	563.38
230	1.	1.8804e-030	0.1	2910.3
231	2.	3.7609e-030	5.e-002	580.3
232	0.	0.	5.e-002	939.4
233	1.	1.8804e-030	0.	2910.3
234	2.	0.5	0.	6128.1
235	1.3113e-014	1.5	0.	2870.
236	6.5333	0.	0.	3137.2
237	3.6222	0.	0.	3687.3
238	10.172	0.	0.	2679.4
239	8.7167	3.	0.	2783.2
240	15.267	0.	0.	2014.7
241	21.089	0.	0.	1264.9
242	2.1667	0.5	0.	4794.9
243	24.	1.5	0.	933.68
244	1.5	6.	0.	3406.3
245	0.5	6.	0.	2793.
246	2.	5.5	0.	3490.3
247	3.9339e-014	4.5	0.	2706.4
248	1.	2.	0.	5796.1
249	24.	4.5	0.	951.79
250	20.361	6.	0.	1343.
251	13.083	6.	0.	2277.5
252	7.625	6.	0.	3004.8
253	3.9861	6.	0.	3703.5
254	2.1667	5.5	0.	5689.1
255	2.	4.75	0.	7972.1
256	2.	4.25	0.	12116
257	2.0833	4.	0.	17744
258	2.1667	4.75	0.	8103.9
259	2.1667	4.25	0.	16202
260	2.	1.25	0.	9943.
261	2.	1.75	0.	17230
262	2.0833	2.	0.	20073
263	2.1667	1.25	0.	7180.
264	2.1667	1.75	0.	14049
