Node Number	X Location (in)	Y Location (in)	Z Location (in)	Middle Principal Stress (psi)
1	2.6893	3.2987	0.	-473.73
2	1.8649	3.2373	0.	-272.14
3	0.99215	3.7407	0.	316.04
4	3.7989	3.4062	0.	-549.14
5	3.3666	1.6941	0.	-171.48
6	2.6409	2.2825	0.	1224.7
7	2.1334	3.5106	0.	1517.9
8	17.697	2.9833	0.	-12.756
9	10.112	3.296	0.	-523.96
10	6.7341	1.672	0.	-100.7
11	4.9103	4.5514	0.	-242.68
12	4.9103	4.5514	0.1	242.68
13	6.7341	1.672	0.1	100.7
14	10.112	3.296	0.1	523.96
15	17.697	2.9833	0.1	12.756
16	2.1334	3.5106	0.1	-1517.9
17	2.6409	2.2825	0.1	-1224.7
18	3.3666	1.6941	0.1	171.48
19	3.7989	3.4062	0.1	549.14
20	0.99215	3.7407	0.1	-316.04
21	1.8649	3.2373	0.1	272.14
22	2.6893	3.2987	0.1	473.73
23	2.1667	1.	0.1	1147.5
24	2.1667	1.5	0.1	634.86
25	2.1667	2.	0.1	-737.5
26	2.	2.	0.1	7538.7
27	2.	1.5	0.1	3875.7
28	2.	1.	0.1	2662.3
29	2.1667	5.	0.1	865.25
30	2.1667	4.5	0.1	1522.8
31	2.1667	4.	0.1	3813.
32	2.	4.	0.1	4484.5
33	2.	4.5	0.1	2592.3
34	2.	5.	0.1	1161.4
35	2.1667	6.	0.1	81.849
36	5.5781	6.	0.1	353.25
37	10.354	6.	0.1	249.92
38	17.177	6.	0.1	64.63
39	24.	6.	0.1	88.467
40	24.	3.	0.1	194.91
41	2.6226e-014	3.	0.1	3638.2
42	3.937e-014	6.	0.1	1742.
43	1.	6.	0.1	-255.37
44	2.	6.	0.1	2267.3
45	24.	0.	0.1	316.1
46	18.542	0.	0.1	9.889
47	13.083	0.	0.1	117.29
48	7.625	0.	0.1	386.07
49	4.8958	0.	0.1	-248.86
50	2.1667	0.	0.1	495.02
51	2.	0.	0.1	1112.8
52	0.	0.	0.1	2735.7
53	2.	0.	0.	-1112.8
54	0.	0.	0.	-2735.7
55	4.8958	0.	0.	248.86
56	7.625	0.	0.	-386.07
57	13.083	0.	0.	-117.29
58	18.542	0.	0.	-9.889
59	2.1667	0.	0.	-495.02
60	24.	0.	0.	-316.1
61	1.	6.	0.	255.37
62	2.	6.	0.	-2267.3
63	3.937e-014	6.	0.	-1742.
64	2.6226e-014	3.	0.	-3638.2
65	24.	3.	0.	-194.91
66	24.	6.	0.	-88.467
67	17.177	6.	0.	-64.63
68	10.354	6.	0.	-249.92
69	5.5781	6.	0.	-353.25
70	2.1667	6.	0.	-81.849
71	2.	4.5	0.	-2592.3
72	2.	5.	0.	-1161.4
73	2.	4.	0.	-4484.5
74	2.1667	5.	0.	-865.25
75	2.1667	4.5	0.	-1522.8
76	2.1667	4.	0.	-3813.
77	2.	1.5	0.	-3875.7
78	2.	1.	0.	-2662.3
79	2.	2.	0.	-7538.7
80	2.1667	1.	0.	-1147.5
81	2.1667	1.5	0.	-634.86
82	2.1667	2.	0.	737.5
83	3.2441	3.3525	0.	-492.56
84	2.6651	2.7906	0.	573.
85	2.4114	3.4047	0.	560.24
86	2.6893	3.2987	5.e-002	1.6218e-004
87	2.428	3.6494	0.	-1417.1
88	1.4285	3.489	0.	459.28
89	2.2529	2.7599	0.	517.04
90	1.9992	3.374	0.	629.98
91	1.8649	3.2373	5.e-002	1.9862e-004
92	1.9325	2.6187	0.	-3797.9
93	0.99215	3.7407	5.e-002	1.1735e-004
94	0.99607	4.8703	0.	242.85
95	0.49607	3.3703	0.	-1647.8
96	1.4961	4.1203	0.	-1576.1
97	1.4961	4.3703	0.	-621.69
98	1.4961	3.8703	0.	-1664.7
99	1.4961	2.6203	0.	-2449.4
100	1.4961	2.8703	0.	-4146.6
101	3.5828	2.5502	0.	-269.22
102	5.2665	2.5391	0.	-335.28
103	4.3546	3.9788	0.	-158.76
104	3.7989	3.4062	5.e-002	5.8693e-005
105	2.9828	3.9531	0.	-935.31
106	3.0038	1.9883	0.	541.21
107	3.3666	1.6941	5.e-002	7.6005e-005
108	4.1312	0.84706	0.	44.145
109	2.7666	1.3471	0.	-464.93
110	2.6409	2.2825	5.e-002	3.6333e-005
111	2.4038	1.8913	0.	367.99
112	2.4038	2.1413	0.	1104.4
113	2.1334	3.5106	5.e-002	1.2441e-004
114	2.0667	3.7553	0.	-1313.7
115	13.904	3.1397	0.	-203.62
116	17.697	2.9833	5.e-002	4.7216e-005
117	18.119	1.4917	0.	-10.151
118	20.848	2.9917	0.	-101.72
119	17.437	4.4917	0.	-32.751
120	8.4232	2.484	0.	-208.17
121	7.5113	3.9237	0.	-328.09
122	10.112	3.296	5.e-002	4.1249e-005
123	11.598	1.648	0.	-278.57
124	10.233	4.648	0.	-348.9
125	6.7341	1.672	5.e-002	-6.3171e-006
126	5.815	0.836	0.	75.478
127	7.1796	0.836	0.	-242.56
128	4.9103	4.5514	5.e-002	3.6194e-005
129	5.2442	5.2757	0.	-297.3
130	3.5385	4.7757	0.	-581.49
131	7.5113	3.9237	0.1	328.09
132	4.3546	3.9788	0.1	158.76
133	3.5385	4.7757	0.1	581.49
134	5.2442	5.2757	0.1	297.3
135	8.4232	2.484	0.1	208.17
136	5.2665	2.5391	0.1	335.28
137	7.1796	0.836	0.1	242.56
138	5.815	0.836	0.1	-75.478
139	13.904	3.1397	0.1	203.62
140	10.233	4.648	0.1	348.9
141	11.598	1.648	0.1	278.57
142	17.437	4.4917	0.1	32.751
143	20.848	2.9917	0.1	101.72
144	18.119	1.4917	0.1	10.151
145	1.9992	3.374	0.1	-629.98
146	2.4114	3.4047	0.1	-560.24
147	2.0667	3.7553	0.1	1313.7
148	3.0038	1.9883	0.1	-541.21
149	2.2529	2.7599	0.1	-517.04
150	2.6651	2.7906	0.1	-573.
151	2.4038	1.8913	0.1	-367.99
152	2.4038	2.1413	0.1	-1104.4
153	3.5828	2.5502	0.1	269.22
154	2.7666	1.3471	0.1	464.93
155	4.1312	0.84706	0.1	-44.145
156	3.2441	3.3525	0.1	492.56
157	2.9828	3.9531	0.1	935.31
158	1.4285	3.489	0.1	-459.28
159	1.4961	2.8703	0.1	4146.6
160	1.4961	2.6203	0.1	2449.4
161	1.4961	3.8703	0.1	1664.7
162	1.4961	4.1203	0.1	1576.1
163	1.4961	4.3703	0.1	621.69
164	0.49607	3.3703	0.1	1647.8
165	0.99607	4.8703	0.1	-242.85
166	1.9325	2.6187	0.1	3797.9
167	2.428	3.6494	0.1	1417.1
168	2.1667	1.25	0.1	725.2
169	2.1667	0.5	0.1	689.29
170	2.1667	1.	5.e-002	-3.307e-005
171	2.1667	1.75	0.1	-175.27
172	2.1667	1.5	5.e-002	-1.7082e-005
173	2.0833	2.	0.1	3002.9
174	2.1667	2.	5.e-002	2.1734e-004
175	2.	1.75	0.1	5733.7
176	2.	2.	5.e-002	-1.7825e-013
177	2.	1.25	0.1	3260.1
178	2.	1.5	5.e-002	2.4373e-004
179	1.	2.	0.1	3212.4
180	2.	0.5	0.1	1914.1
181	2.	1.	5.e-002	-7.7999e-014
182	2.1667	4.75	0.1	1194.8
183	2.1667	5.5	0.1	483.02
184	2.1667	5.	5.e-002	8.77e-007
185	2.1667	4.25	0.1	2715.4
186	2.1667	4.5	5.e-002	-3.6722e-005
187	2.0833	4.	0.1	4589.5
188	2.1667	4.	5.e-002	7.3896e-005
189	2.	4.25	0.1	2880.4
190	2.	4.	5.e-002	1.4466e-004
191	2.	4.75	0.1	1874.1
192	2.	4.5	5.e-002	-6.5422e-006
193	2.	5.5	0.1	1896.6
194	2.	5.	5.e-002	-6.1035e-005
195	3.8724	6.	0.1	214.4
196	2.1667	6.	5.e-002	-1.2164e-004
197	7.9661	6.	0.1	317.09
198	5.5781	6.	5.e-002	2.7304e-007
199	13.766	6.	0.1	155.78
200	10.354	6.	5.e-002	8.4408e-005
201	20.589	6.	0.1	76.441
202	17.177	6.	5.e-002	4.2934e-005
203	24.	4.5	0.1	134.47
204	24.	6.	5.e-002	3.5297e-005
205	24.	1.5	0.1	261.66
206	24.	3.	5.e-002	2.3892e-005
207	3.9339e-014	4.5	0.1	2690.2
208	1.3113e-014	1.5	0.1	3104.6
209	2.6581e-014	3.	5.e-002	2.351e-005
210	0.5	6.	0.1	834.39
211	5.2451e-014	6.	5.e-002	-2.997e-005
212	1.5	6.	0.1	1073.7
213	1.	6.	5.e-002	4.522e-006
214	2.	6.	5.e-002	4.5003e-006
215	21.271	0.	0.1	169.38
216	24.	0.	5.e-002	-2.278e-005
217	15.813	0.	0.1	59.239
218	18.542	0.	5.e-002	1.5063e-005
219	10.354	0.	0.1	235.66
220	13.083	0.	5.e-002	8.9296e-005
221	6.2604	0.	0.1	66.173
222	7.625	0.	5.e-002	7.6604e-005
223	3.5313	0.	0.1	123.37
224	4.8958	0.	5.e-002	-2.7012e-006
225	2.1667	0.	5.e-002	-1.269e-013
226	1.	1.8804e-030	0.1	1838.1
227	2.	3.7609e-030	5.e-002	4.1525e-006
228	0.	0.	5.e-002	1.2414e-005
229	1.	1.8804e-030	0.	-1838.1
230	2.	0.5	0.	-1914.1
231	1.3113e-014	1.5	0.	-3104.6
232	6.2604	0.	0.	-66.173
233	3.5313	0.	0.	-123.37
234	10.354	0.	0.	-235.66
235	15.813	0.	0.	-59.239
236	21.271	0.	0.	-169.38
237	2.1667	0.5	0.	-689.29
238	24.	1.5	0.	-261.66
239	1.5	6.	0.	-1073.7
240	0.5	6.	0.	-834.39
241	2.	5.5	0.	-1896.6
242	3.9339e-014	4.5	0.	-2690.2
243	1.	2.	0.	-3212.4
244	24.	4.5	0.	-134.47
245	20.589	6.	0.	-76.441
246	13.766	6.	0.	-155.78
247	7.9661	6.	0.	-317.09
248	3.8724	6.	0.	-214.4
249	2.1667	5.5	0.	-483.02
250	2.	4.75	0.	-1874.1
251	2.	4.25	0.	-2880.4
252	2.0833	4.	0.	-4589.5
253	2.1667	4.75	0.	-1194.8
254	2.1667	4.25	0.	-2715.4
255	2.	1.25	0.	-3260.1
256	2.	1.75	0.	-5733.7
257	2.0833	2.	0.	-3002.9
258	2.1667	1.25	0.	-725.2
259	2.1667	1.75	0.	175.27
