Node Numbers,X Locations (inches),Y Locations (inches),Z Locations (inches),Equivalent Elastic Strains (in/in),Equivalent Stress (psi),Max Principal Elastic Strain (in/in),Max Principal Stress (psi),Middle Principal Elastic Strain (in/in),Middle Principal Stress (psi),Min Principal Elastic Strain (in/in),Min Principal Stress (psi),Total Deformation (in)
1,7.1971,2.1593,0,9.7248e-05,971.81,3.5917e-05,-19.81,2.3532e-05,-112.86,-9.917e-05,-1034.8,0.070498
2,6.25,3.3305,0,0.00012555,1254.6,4.615e-05,68.617,3.9682e-05,20.025,-0.00012397,-1209.6,0.052881
3,7.1431,1.6487,0,8.4468e-05,844.1,3.2401e-05,-19.313,1.801e-05,-127.44,-8.6443e-05,-912.26,0.069311
4,3.7575,3.2711,0,0.00013004,1299.5,5.3301e-05,20.218,2.6173e-05,-183.62,-0.00013162,-1369.2,0.01924
5,7.4247,3.5963,0,9.082e-05,907.57,3.196e-05,-57.93,2.1074e-05,-139.72,-9.3905e-05,-1003.6,0.074725
6,4.4701,0.56755,0,9.1594e-05,915.31,4.4754e-05,179.14,2.0921e-05,0.068739,-8.7221e-05,-812.47,0.025004
7,6.5649,0.48026,0,5.8546e-05,585.06,2.6518e-05,91.643,1.5139e-05,6.15,-5.6412e-05,-531.46,0.0573
8,4.6148,4.6718,0,0.00011627,1161.9,5.4435e-05,190.32,2.7486e-05,-12.171,-0.00011191,-1059.5,0.02745
9,6.7439,4.7259,0,8.9173e-05,891.12,4.1018e-05,118.84,1.9783e-05,-40.71,-8.6766e-05,-841.27,0.060594
10,6.3545,5.0672,0,6.203e-05,619.87,2.7876e-05,87.898,1.5549e-05,-4.7209,-6.0093e-05,-573.07,0.052807
11,6.6894,2.7985,0,0.00011668,1166,4.4114e-05,23.736,3.0931e-05,-75.32,-0.00011724,-1188.6,0.060891
12,4.5974,1.4275,0,0.00011692,1168.4,5.741e-05,216.5,2.4905e-05,-27.729,-0.00011178,-1054.7,0.027654
13,4.6931,5.4019,0,8.3722e-05,836.64,3.9475e-05,147.3,2.0278e-05,3.0645,-8.0225e-05,-752.08,0.027156
14,6.5467,5.46,0,6.1357e-05,613.14,2.7893e-05,96.893,1.5756e-05,5.6999,-5.91e-05,-556.74,0.055876
15,3.6185,1.0711,0,0.00011108,1110,4.0946e-05,29.812,3.2007e-05,-37.354,-0.00011105,-1112.2,0.017063
16,3.5137,2.2394,0,0.00012603,1259.4,5.5456e-05,58.329,2.1834e-05,-194.3,-0.00012643,-1308.3,0.016788
17,3.801,5.1993,0,0.00010219,1021.2,3.3825e-05,1.9487,3.3729e-05,1.2291,-0.00010214,-1019.6,0.018333
18,2.8107,4.7052,0,0.00011822,1181.4,4.469e-05,-37.566,2.5411e-05,-182.42,-0.0001213,-1284.7,0.010433
19,1.3022,4.7549,0,0.00014131,1412.1,7.733e-05,255.45,1.2477e-05,-231.83,-0.00013445,-1335.8,0.0022144
20,1.1564,1.1926,0,0.00014198,1418.8,7.7785e-05,262.92,1.303e-05,-223.62,-0.0001349,-1335.1,0.0017439
21,2.3272,1.1499,0,0.00012709,1270,4.7598e-05,-49.861,2.7223e-05,-202.95,-0.0001307,-1389.5,0.0070973
22,7.5981,0.68768,0,6.8155e-05,681.08,2.4059e-05,8.344,2.0577e-05,-17.818,-6.8279e-05,-685.44,0.0779
23,8.5122,1.1945,0,6.7074e-05,670.28,2.263e-05,-12.449,2.0144e-05,-31.127,-6.7796e-05,-691.87,0.097409
24,9.8923,1.2315,0,5.8049e-05,580.08,2.0478e-05,4.4438,1.7299e-05,-19.445,-5.8267e-05,-587.22,0.12851
25,11.179,1.2214,0,4.8262e-05,482.29,1.6423e-05,-0.46587,1.504e-05,-10.858,-4.8446e-05,-487.87,0.1595
26,12.398,1.2145,0,3.9659e-05,396.31,1.3112e-05,-0.83137,1.297e-05,-1.9026,-3.9705e-05,-397.68,0.19033
27,13.603,1.2205,0,3.2191e-05,321.69,1.0891e-05,2.9042,1.0436e-05,-0.51838,-3.215e-05,-320.49,0.22197
28,14.773,1.2088,0,2.5565e-05,255.47,8.9409e-06,5.5023,8.0829e-06,-0.94412,-2.5481e-05,-253.13,0.25357
29,15.95,1.208,0,1.9723e-05,197.09,7.1166e-06,6.9245,6.1064e-06,-0.6655,-1.9606e-05,-193.86,0.28608
30,17.105,1.2082,0,1.471e-05,147,5.54e-06,7.8863,4.4022e-06,-0.66301,-1.4569e-05,-143.2,0.31849
31,18.249,1.2043,0,1.0495e-05,104.88,4.1817e-06,8.3631,2.9909e-06,-0.58381,-1.0334e-05,-100.7,0.35096
32,19.398,1.1907,0,7.0344e-06,70.296,3.0415e-06,8.4243,1.8379e-06,-0.61908,-6.8578e-06,-65.955,0.38384
33,20.551,1.1946,0,4.3214e-06,43.184,2.1353e-06,8.4042,9.3473e-07,-0.6165,-4.1176e-06,-38.578,0.41701
34,21.7,1.1933,0,2.392e-06,23.904,1.4619e-06,8.173,2.9156e-07,-0.62036,-2.1389e-06,-18.882,0.4502
35,22.849,1.1959,0,1.2443e-06,12.434,1.0027e-06,7.5947,-9.3288e-08,-0.6399,-9.0101e-07,-6.7088,0.48342
36,1.29,3.5825,0,0.00014797,1478.7,8.6203e-05,303.47,4.8364e-06,-307.88,-0.00013824,-1382.9,0.0023286
37,1.229,2.3809,0,0.00014881,1487.1,8.6415e-05,302.29,5.1917e-06,-308,-0.00013919,-1392.8,0.0021179
38,22.843,2.3945,0,1.5763e-06,15.752,1.3423e-06,10.591,-2.3657e-07,-1.2717,-1.0364e-06,-7.281,0.483
39,22.843,3.6001,0,1.5774e-06,15.764,1.3432e-06,10.595,-2.3728e-07,-1.2804,-1.037e-06,-7.2894,0.48272
40,22.844,4.8066,0,1.2471e-06,12.463,1.0019e-06,7.5558,-9.125e-08,-0.65736,-9.0673e-07,-6.7846,0.48244
41,21.691,4.8073,0,2.4058e-06,24.041,1.4642e-06,8.1239,2.9662e-07,-0.64861,-2.1553e-06,-19.072,0.44909
42,20.541,4.7957,0,4.3399e-06,43.369,2.1419e-06,8.4391,9.4369e-07,-0.56388,-4.1352e-06,-38.725,0.41592
43,19.392,4.7957,0,7.0343e-06,70.295,3.0502e-06,8.5051,1.8294e-06,-0.66753,-6.856e-06,-65.926,0.38285
44,18.261,4.8175,0,1.0466e-05,104.59,4.1491e-06,8.1197,2.9996e-06,-0.51679,-1.031e-05,-100.52,0.35046
45,17.1,4.8139,0,1.473e-05,147.2,5.5404e-06,7.792,4.4105e-06,-0.69738,-1.4591e-05,-143.47,0.31751
46,15.943,4.8097,0,1.9752e-05,197.39,7.1199e-06,6.8076,6.1161e-06,-0.73465,-1.9638e-05,-194.24,0.28504
47,14.776,4.8021,0,2.5589e-05,255.72,8.9376e-06,5.4674,8.1073e-06,-0.77141,-2.5504e-05,-253.31,0.25284
48,13.6,4.7969,0,3.2226e-05,322.04,1.0925e-05,2.9068,1.0409e-05,-0.96502,-3.2191e-05,-321.05,0.22105
49,12.401,4.7915,0,3.9798e-05,397.71,1.3235e-05,1.0219,1.3055e-05,-0.32724,-3.9786e-05,-397.36,0.1896
50,11.186,4.7856,0,4.7839e-05,478.06,1.5774e-05,-4.6944,1.538e-05,-7.6553,-4.8049e-05,-484.23,0.15885
51,9.9345,4.7937,0,5.812e-05,580.8,2.1302e-05,9.5856,1.6397e-05,-27.27,-5.8333e-05,-588.76,0.12867
52,8.4349,4.7599,0,6.6629e-05,665.83,2.2938e-05,-8.8824,1.954e-05,-34.413,-6.7329e-05,-687.11,0.094962
53,7.5845,5.2888,0,6.6781e-05,667.35,2.2773e-05,-3.8955,2.0426e-05,-21.529,-6.7196e-05,-679.89,0.0766
54,2.5239,3.4865,0,0.00012223,1221.5,4.9252e-05,-78.312,1.6473e-05,-324.6,-0.00012721,-1404.2,0.0088314
55,2.4079,2.2976,0,0.00012185,1217.6,5.01e-05,-79.578,1.4249e-05,-348.95,-0.00012688,-1409.3,0.0080245
56,8.6625,3.6136,0,6.6605e-05,665.59,2.4915e-05,-8.5245,1.6025e-05,-75.315,-6.7779e-05,-704.99,0.10061
57,8.3164,2.429,0,6.928e-05,692.32,2.5794e-05,-33.916,1.4468e-05,-119.01,-7.1488e-05,-764.85,0.093422
58,9.7728,2.3981,0,5.7859e-05,578.19,2.0491e-05,-0.70318,1.6622e-05,-29.777,-5.8322e-05,-592.88,0.12592
59,11.071,2.4095,0,4.845e-05,484.17,1.6649e-05,-0.8021,1.4787e-05,-14.791,-4.87e-05,-491.81,0.15699
60,12.334,2.4119,0,3.988e-05,398.53,1.3274e-05,-1.0168,1.2876e-05,-4.0102,-3.9965e-05,-401.03,0.18877
61,13.563,2.4156,0,3.227e-05,322.48,1.091e-05,2.3642,1.0425e-05,-1.2786,-3.225e-05,-321.92,0.22093
62,14.758,2.416,0,2.5597e-05,255.79,8.9985e-06,5.8979,8.0493e-06,-1.2337,-2.551e-05,-253.39,0.25315
63,15.931,2.4167,0,1.9791e-05,197.78,7.2357e-06,7.7349,6.0361e-06,-1.278,-1.9666e-05,-194.39,0.28547
64,17.086,2.4179,0,1.4801e-05,147.91,5.6825e-06,8.9093,4.3292e-06,-1.2588,-1.4645e-05,-143.82,0.31784
65,18.229,2.4053,0,1.0589e-05,105.82,4.3616e-06,9.7575,2.8849e-06,-1.3375,-1.0402e-05,-101.17,0.35023
66,19.387,2.3877,0,7.1475e-06,71.426,3.2431e-06,10.147,1.7341e-06,-1.1916,-6.9273e-06,-66.27,0.38335
67,20.537,2.39,0,4.4736e-06,44.705,2.373e-06,10.429,8.1356e-07,-1.2877,-4.2013e-06,-38.967,0.41641
68,21.689,2.392,0,2.6172e-06,26.154,1.7395e-06,10.584,1.6955e-07,-1.2121,-2.2499e-06,-19.391,0.44965
69,21.686,3.598,0,2.6218e-06,26.2,1.7391e-06,10.56,1.7327e-07,-1.2058,-2.2563e-06,-19.46,0.44928
70,20.529,3.5949,0,4.4895e-06,44.864,2.3796e-06,10.442,8.178e-07,-1.2926,-4.2172e-06,-39.124,0.41591
71,19.387,3.5951,0,7.1356e-06,71.307,3.2443e-06,10.19,1.7246e-06,-1.2278,-6.9142e-06,-66.137,0.38307
72,18.237,3.6166,0,1.0583e-05,105.75,4.3642e-06,9.8336,2.8812e-06,-1.3095,-1.0393e-05,-101.05,0.35018
73,17.096,3.6363,0,1.4763e-05,147.52,5.6851e-06,9.1397,4.3109e-06,-1.1857,-1.46e-05,-143.28,0.31784
74,15.937,3.625,0,1.9762e-05,197.48,7.2522e-06,8.0549,6.0103e-06,-1.2767,-1.963e-05,-193.93,0.28537
75,14.761,3.6129,0,2.5608e-05,255.91,8.9914e-06,5.8513,8.0674e-06,-1.0919,-2.552e-05,-253.46,0.25295
76,13.552,3.6122,0,3.2345e-05,323.22,1.0945e-05,2.1893,1.0415e-05,-1.7944,-3.2336e-05,-323.01,0.22037
77,12.334,3.6049,0,3.9957e-05,399.29,1.3317e-05,-0.0033613,1.2964e-05,-2.657,-4.0001e-05,-400.61,0.18849
78,9.815,3.5954,0,5.7854e-05,578.14,2.0789e-05,3.3417,1.6473e-05,-29.092,-5.8224e-05,-590.33,0.12662
79,11.083,3.5971,0,4.8022e-05,479.89,1.6094e-05,-4.681,1.4998e-05,-12.916,-4.8316e-05,-488.63,0.15701
80,7.1609,4.2084,0,8.4912e-05,848.53,3.1646e-05,-57.719,1.6092e-05,-174.59,-8.8258e-05,-958.63,0.06915
81,4.7913,0.99947,0,7.7267e-05,772.13,4.3208e-05,246.6,1.6395e-05,45.135,-7.0305e-05,-606.3,0.029289
82,4.6187,2.2058,0,0.00013976,1396.6,5.0176e-05,57.552,4.4497e-05,14.882,-0.00013848,-1359.9,0.02863
83,4.8817,5.0356,0,7.3307e-05,732.56,4.1451e-05,212.07,1.2237e-05,-7.4243,-6.7314e-05,-605.15,0.029926
84,4.1478,4.1364,0,0.00011834,1182.6,4.279e-05,-63.209,2.655e-05,-185.23,-0.00012209,-1302.1,0.022905
85,6.3424,0.89258,0,5.4636e-05,545.98,2.656e-05,105.32,1.2592e-05,0.3714,-5.2076e-05,-485.52,0.053508
86,6.7179,1.2167,0,8.4579e-05,845.21,3.7402e-05,111.24,2.1506e-05,-8.2023,-8.2191e-05,-787.34,0.06087
87,5.7822,2.614,0,0.00016875,1686.3,9.9848e-05,509.78,2.0635e-05,-85.404,-0.00015345,-1393.4,0.045279
88,5.9562,2.2916,0,0.00012107,1209.9,6.9619e-05,506.63,3.4269e-05,241.02,-0.00010615,-814,0.047957
89,4.9398,3.0795,0,0.00015924,1591.3,7.0872e-05,271.21,4.5688e-05,81.989,-0.00015239,-1406.3,0.032945
90,7.5054,2.9697,0,9.4398e-05,943.33,4.5e-05,61.315,1.1072e-05,-193.6,-9.4027e-05,-983.28,0.076536
91,7.5054,2.9697,0.1,9.4398e-05,943.33,9.4027e-05,983.28,-1.1072e-05,193.6,-4.5e-05,-61.315,0.076536
92,4.9398,3.0795,0.1,0.00015924,1591.3,0.00015239,1406.3,-4.5688e-05,-81.989,-7.0872e-05,-271.21,0.032945
93,5.9562,2.2916,0.1,0.00012107,1209.9,0.00010615,814,-3.4269e-05,-241.02,-6.9619e-05,-506.63,0.047957
94,5.7822,2.614,0.1,0.00016875,1686.3,0.00015345,1393.4,-2.0635e-05,85.404,-9.9848e-05,-509.78,0.045279
95,6.7179,1.2167,0.1,8.4579e-05,845.21,8.2191e-05,787.34,-2.1506e-05,8.2023,-3.7402e-05,-111.24,0.06087
96,6.3424,0.89258,0.1,5.4636e-05,545.98,5.2076e-05,485.52,-1.2592e-05,-0.3714,-2.656e-05,-105.32,0.053508
97,4.1478,4.1364,0.1,0.00011834,1182.6,0.00012209,1302.1,-2.655e-05,185.23,-4.279e-05,63.209,0.022905
98,4.8817,5.0356,0.1,7.3307e-05,732.56,6.7314e-05,605.15,-1.2237e-05,7.4243,-4.1451e-05,-212.07,0.029926
99,4.6187,2.2058,0.1,0.00013976,1396.6,0.00013848,1359.9,-4.4497e-05,-14.882,-5.0176e-05,-57.552,0.02863
100,4.7913,0.99947,0.1,7.7267e-05,772.13,7.0305e-05,606.3,-1.6395e-05,-45.135,-4.3208e-05,-246.6,0.029289
101,7.1609,4.2084,0.1,8.4912e-05,848.53,8.8258e-05,958.63,-1.6092e-05,174.59,-3.1646e-05,57.719,0.06915
102,11.083,3.5971,0.1,4.8022e-05,479.89,4.8316e-05,488.63,-1.4998e-05,12.916,-1.6094e-05,4.681,0.15701
103,9.815,3.5954,0.1,5.7854e-05,578.14,5.8224e-05,590.33,-1.6473e-05,29.092,-2.0789e-05,-3.3417,0.12662
104,12.334,3.6049,0.1,3.9957e-05,399.29,4.0001e-05,400.61,-1.2964e-05,2.657,-1.3317e-05,0.0033613,0.18849
105,13.552,3.6122,0.1,3.2345e-05,323.22,3.2336e-05,323.01,-1.0415e-05,1.7944,-1.0945e-05,-2.1893,0.22037
106,14.761,3.6129,0.1,2.5608e-05,255.91,2.552e-05,253.46,-8.0674e-06,1.0919,-8.9914e-06,-5.8513,0.25295
107,15.937,3.625,0.1,1.9762e-05,197.48,1.963e-05,193.93,-6.0103e-06,1.2767,-7.2522e-06,-8.0549,0.28537
108,17.096,3.6363,0.1,1.4763e-05,147.52,1.46e-05,143.28,-4.3109e-06,1.1857,-5.6851e-06,-9.1397,0.31784
109,18.237,3.6166,0.1,1.0583e-05,105.75,1.0393e-05,101.05,-2.8812e-06,1.3095,-4.3642e-06,-9.8336,0.35018
110,19.387,3.5951,0.1,7.1356e-06,71.307,6.9142e-06,66.137,-1.7246e-06,1.2278,-3.2443e-06,-10.19,0.38307
111,20.529,3.5949,0.1,4.4895e-06,44.864,4.2172e-06,39.124,-8.178e-07,1.2926,-2.3796e-06,-10.442,0.41591
112,21.686,3.598,0.1,2.6218e-06,26.2,2.2563e-06,19.46,-1.7327e-07,1.2058,-1.7391e-06,-10.56,0.44928
113,21.689,2.392,0.1,2.6172e-06,26.154,2.2499e-06,19.391,-1.6955e-07,1.2121,-1.7395e-06,-10.584,0.44965
114,20.537,2.39,0.1,4.4736e-06,44.705,4.2013e-06,38.967,-8.1356e-07,1.2877,-2.373e-06,-10.429,0.41641
115,19.387,2.3877,0.1,7.1475e-06,71.426,6.9273e-06,66.27,-1.7341e-06,1.1916,-3.2431e-06,-10.147,0.38335
116,18.229,2.4053,0.1,1.0589e-05,105.82,1.0402e-05,101.17,-2.8849e-06,1.3375,-4.3616e-06,-9.7575,0.35023
117,17.086,2.4179,0.1,1.4801e-05,147.91,1.4645e-05,143.82,-4.3292e-06,1.2588,-5.6825e-06,-8.9093,0.31784
118,15.931,2.4167,0.1,1.9791e-05,197.78,1.9666e-05,194.39,-6.0361e-06,1.278,-7.2357e-06,-7.7349,0.28547
119,14.758,2.416,0.1,2.5597e-05,255.79,2.551e-05,253.39,-8.0493e-06,1.2337,-8.9985e-06,-5.8979,0.25315
120,13.563,2.4156,0.1,3.227e-05,322.48,3.225e-05,321.92,-1.0425e-05,1.2786,-1.091e-05,-2.3642,0.22093
121,12.334,2.4119,0.1,3.988e-05,398.53,3.9965e-05,401.03,-1.2876e-05,4.0102,-1.3274e-05,1.0168,0.18877
122,11.071,2.4095,0.1,4.845e-05,484.17,4.87e-05,491.81,-1.4787e-05,14.791,-1.6649e-05,0.8021,0.15699
123,9.7728,2.3981,0.1,5.7859e-05,578.19,5.8322e-05,592.88,-1.6622e-05,29.777,-2.0491e-05,0.70318,0.12592
124,8.3164,2.429,0.1,6.928e-05,692.32,7.1488e-05,764.85,-1.4468e-05,119.01,-2.5794e-05,33.916,0.093422
125,8.6625,3.6136,0.1,6.6605e-05,665.59,6.7779e-05,704.99,-1.6025e-05,75.315,-2.4915e-05,8.5245,0.10061
126,2.4079,2.2976,0.1,0.00012185,1217.6,0.00012688,1409.3,-1.4249e-05,348.95,-5.01e-05,79.578,0.0080245
127,2.5239,3.4865,0.1,0.00012223,1221.5,0.00012721,1404.2,-1.6473e-05,324.6,-4.9252e-05,78.312,0.0088314
128,7.5845,5.2888,0.1,6.6781e-05,667.35,6.7196e-05,679.89,-2.0426e-05,21.529,-2.2773e-05,3.8955,0.0766
129,8.4349,4.7599,0.1,6.6629e-05,665.83,6.7329e-05,687.11,-1.954e-05,34.413,-2.2938e-05,8.8824,0.094962
130,9.9345,4.7937,0.1,5.812e-05,580.8,5.8333e-05,588.76,-1.6397e-05,27.27,-2.1302e-05,-9.5856,0.12867
131,11.186,4.7856,0.1,4.7839e-05,478.06,4.8049e-05,484.23,-1.538e-05,7.6553,-1.5774e-05,4.6944,0.15885
132,12.401,4.7915,0.1,3.9798e-05,397.71,3.9786e-05,397.36,-1.3055e-05,0.32724,-1.3235e-05,-1.0219,0.1896
133,13.6,4.7969,0.1,3.2226e-05,322.04,3.2191e-05,321.05,-1.0409e-05,0.96502,-1.0925e-05,-2.9068,0.22105
134,14.776,4.8021,0.1,2.5589e-05,255.72,2.5504e-05,253.31,-8.1073e-06,0.77141,-8.9376e-06,-5.4674,0.25284
135,15.943,4.8097,0.1,1.9752e-05,197.39,1.9638e-05,194.24,-6.1161e-06,0.73465,-7.1199e-06,-6.8076,0.28504
136,17.1,4.8139,0.1,1.473e-05,147.2,1.4591e-05,143.47,-4.4105e-06,0.69738,-5.5404e-06,-7.792,0.31751
137,18.261,4.8175,0.1,1.0466e-05,104.59,1.031e-05,100.52,-2.9996e-06,0.51679,-4.1491e-06,-8.1197,0.35046
138,19.392,4.7957,0.1,7.0343e-06,70.295,6.856e-06,65.926,-1.8294e-06,0.66753,-3.0502e-06,-8.5051,0.38285
139,20.541,4.7957,0.1,4.3399e-06,43.369,4.1352e-06,38.725,-9.4369e-07,0.56388,-2.1419e-06,-8.4391,0.41592
140,21.691,4.8073,0.1,2.4058e-06,24.041,2.1553e-06,19.072,-2.9662e-07,0.64861,-1.4642e-06,-8.1238,0.44909
141,22.844,4.8066,0.1,1.2471e-06,12.463,9.0673e-07,6.7846,9.125e-08,0.65736,-1.0019e-06,-7.5558,0.48244
142,22.843,3.6001,0.1,1.5774e-06,15.764,1.037e-06,7.2894,2.3728e-07,1.2804,-1.3432e-06,-10.595,0.48272
143,22.843,2.3945,0.1,1.5763e-06,15.752,1.0364e-06,7.281,2.3657e-07,1.2717,-1.3423e-06,-10.591,0.483
144,1.229,2.3809,0.1,0.00014881,1487.1,0.00013919,1392.8,-5.1917e-06,308,-8.6415e-05,-302.29,0.0021179
145,1.29,3.5825,0.1,0.00014797,1478.7,0.00013824,1382.9,-4.8364e-06,307.88,-8.6203e-05,-303.47,0.0023286
146,22.849,1.1959,0.1,1.2443e-06,12.434,9.0101e-07,6.7088,9.3288e-08,0.6399,-1.0027e-06,-7.5947,0.48342
147,21.7,1.1933,0.1,2.392e-06,23.904,2.1389e-06,18.882,-2.9157e-07,0.62036,-1.4619e-06,-8.173,0.4502
148,20.551,1.1946,0.1,4.3214e-06,43.184,4.1176e-06,38.578,-9.3473e-07,0.6165,-2.1353e-06,-8.4042,0.41701
149,19.398,1.1907,0.1,7.0344e-06,70.296,6.8578e-06,65.955,-1.8379e-06,0.61908,-3.0415e-06,-8.4243,0.38384
150,18.249,1.2043,0.1,1.0495e-05,104.88,1.0334e-05,100.7,-2.9909e-06,0.58381,-4.1817e-06,-8.3631,0.35096
151,17.105,1.2082,0.1,1.471e-05,147,1.4569e-05,143.2,-4.4022e-06,0.66301,-5.54e-06,-7.8863,0.31849
152,15.95,1.208,0.1,1.9723e-05,197.09,1.9606e-05,193.86,-6.1064e-06,0.6655,-7.1166e-06,-6.9245,0.28608
153,14.773,1.2088,0.1,2.5565e-05,255.47,2.5481e-05,253.13,-8.0829e-06,0.94412,-8.9409e-06,-5.5023,0.25357
154,13.603,1.2205,0.1,3.2191e-05,321.69,3.215e-05,320.49,-1.0436e-05,0.51838,-1.0891e-05,-2.9042,0.22197
155,12.398,1.2145,0.1,3.9659e-05,396.31,3.9705e-05,397.68,-1.297e-05,1.9026,-1.3112e-05,0.83137,0.19033
156,11.179,1.2214,0.1,4.8262e-05,482.29,4.8446e-05,487.87,-1.504e-05,10.858,-1.6423e-05,0.46587,0.1595
157,9.8923,1.2315,0.1,5.8049e-05,580.08,5.8267e-05,587.22,-1.7299e-05,19.445,-2.0478e-05,-4.4438,0.12851
158,8.5122,1.1945,0.1,6.7074e-05,670.28,6.7796e-05,691.87,-2.0144e-05,31.127,-2.263e-05,12.449,0.097409
159,7.5981,0.68768,0.1,6.8155e-05,681.08,6.8279e-05,685.44,-2.0577e-05,17.818,-2.4059e-05,-8.344,0.0779
160,2.3272,1.1499,0.1,0.00012709,1270,0.0001307,1389.5,-2.7223e-05,202.95,-4.7598e-05,49.861,0.0070973
161,1.1564,1.1926,0.1,0.00014198,1418.8,0.0001349,1335.1,-1.303e-05,223.62,-7.7785e-05,-262.92,0.0017439
162,1.3022,4.7549,0.1,0.00014131,1412.1,0.00013445,1335.8,-1.2477e-05,231.83,-7.733e-05,-255.45,0.0022144
163,2.8107,4.7052,0.1,0.00011822,1181.4,0.0001213,1284.7,-2.5411e-05,182.42,-4.469e-05,37.566,0.010433
164,3.801,5.1993,0.1,0.00010219,1021.2,0.00010214,1019.6,-3.3729e-05,-1.2291,-3.3825e-05,-1.9487,0.018333
165,3.5137,2.2394,0.1,0.00012603,1259.4,0.00012643,1308.3,-2.1834e-05,194.3,-5.5456e-05,-58.329,0.016788
166,3.6185,1.0711,0.1,0.00011108,1110,0.00011105,1112.2,-3.2007e-05,37.354,-4.0946e-05,-29.812,0.017063
167,6.5467,5.46,0.1,6.1357e-05,613.14,5.91e-05,556.74,-1.5756e-05,-5.6999,-2.7893e-05,-96.893,0.055876
168,4.6931,5.4019,0.1,8.3722e-05,836.64,8.0225e-05,752.08,-2.0278e-05,-3.0645,-3.9475e-05,-147.3,0.027156
169,4.5974,1.4275,0.1,0.00011692,1168.4,0.00011178,1054.7,-2.4905e-05,27.729,-5.741e-05,-216.5,0.027654
170,6.6894,2.7985,0.1,0.00011668,1166,0.00011724,1188.6,-3.0931e-05,75.32,-4.4114e-05,-23.736,0.060891
171,6.3545,5.0672,0.1,6.203e-05,619.87,6.0093e-05,573.07,-1.5549e-05,4.7209,-2.7876e-05,-87.898,0.052807
172,6.7439,4.7259,0.1,8.9173e-05,891.12,8.6766e-05,841.27,-1.9783e-05,40.71,-4.1018e-05,-118.84,0.060594
173,4.6148,4.6718,0.1,0.00011627,1161.9,0.00011191,1059.5,-2.7486e-05,12.171,-5.4435e-05,-190.32,0.02745
174,6.5649,0.48026,0.1,5.8546e-05,585.06,5.6412e-05,531.46,-1.5139e-05,-6.15,-2.6518e-05,-91.643,0.0573
175,4.4701,0.56755,0.1,9.1594e-05,915.31,8.7221e-05,812.47,-2.0921e-05,-0.068739,-4.4754e-05,-179.14,0.025004
176,7.4247,3.5963,0.1,9.082e-05,907.57,9.3905e-05,1003.6,-2.1074e-05,139.72,-3.196e-05,57.93,0.074725
177,3.7575,3.2711,0.1,0.00013004,1299.5,0.00013162,1369.2,-2.6173e-05,183.62,-5.3301e-05,-20.218,0.01924
178,7.1431,1.6487,0.1,8.4468e-05,844.1,8.6443e-05,912.26,-1.801e-05,127.44,-3.2401e-05,19.313,0.069311
179,6.25,3.3305,0.1,0.00012555,1254.6,0.00012397,1209.6,-3.9682e-05,-20.025,-4.615e-05,-68.617,0.052881
180,7.1971,2.1593,0.1,9.7248e-05,971.81,9.917e-05,1034.8,-2.3532e-05,112.86,-3.5917e-05,19.81,0.070498
181,5.6467,5.5,0.1,3.3797e-05,337.74,3.6986e-05,452.66,3.582e-08,175.03,-1.3058e-05,76.652,0.038871
182,5.6467,5,0.1,0.00011354,1134.6,0.00010345,937.25,-1.4888e-05,48.1,-6.6627e-05,-340.64,0.039899
183,5.6467,4.5,0.1,0.00012532,1252.4,0.00011291,974.44,-2.2283e-05,-41.316,-7.333e-05,-424.86,0.041018
184,5.6467,4,0.1,0.0002359,2357.4,0.00024196,2556.7,-5.2844e-05,341.7,-8.7813e-05,78.955,0.042051
185,5.48,4,0.1,0.00025639,2562.2,0.00026021,2704.8,-5.6906e-05,322.18,-0.00010049,-5.3283,0.039504
186,5.48,4.5,0.1,0.00016966,1695.5,0.00014535,1229.7,-1.3571e-05,35.567,-0.00011293,-710.94,0.038321
187,5.48,5,0.1,0.00011378,1137,0.00010337,941.53,-1.3064e-05,66.718,-6.7694e-05,-343.75,0.03701
188,5.48,5.5,0.1,3.0198e-05,301.77,3.3633e-05,429.23,2.1831e-06,192.93,-1.161e-05,89.295,0.035799
189,5.6467,0.5,0.1,2.8961e-05,289.41,3.1852e-05,399.05,1.5434e-06,171.33,-1.1493e-05,73.375,0.040017
190,5.6467,1,0.1,9.6951e-05,968.84,8.7954e-05,799.54,-1.109e-05,55.364,-5.7846e-05,-295.94,0.040798
191,5.6467,1.5,0.1,0.00011457,1144.9,0.00010146,866.39,-1.6667e-05,-21.192,-7.053e-05,-425.9,0.041668
192,5.6467,2,0.1,0.00025755,2573.7,0.00027181,3039.6,-4.0591e-05,692.29,-9.4472e-05,287.45,0.042499
193,5.48,2,0.1,0.00030121,3010,0.00030127,3107.3,-5.1132e-05,459.52,-0.00013444,-166.44,0.039915
194,5.48,1.5,0.1,0.00017392,1738,0.00015269,1309.3,-2.0438e-05,8.5416,-0.00011002,-664.55,0.038719
195,5.48,1,0.1,0.00010633,1062.5,0.00010092,977.78,-1.3717e-05,116.43,-5.7105e-05,-209.57,0.037464
196,5.48,0.5,0.1,4.4345e-05,443.14,4.8498e-05,581.38,-2.8008e-06,195.94,-1.5944e-05,97.189,0.03628
197,5.6467,6,0.1,3.3944e-05,339.2,3.5859e-05,412.83,-2.1549e-06,127.21,-1.404e-05,37.911,0.037916
198,6.7938,6,0.1,5.1585e-05,515.49,5.2e-05,527.75,-1.6214e-05,15.214,-1.6995e-05,9.349,0.059829
199,7.9408,6,0.1,6.5408e-05,653.63,6.4691e-05,633.52,-2.0271e-05,-4.8472,-2.42e-05,-34.366,0.083055
200,9.0879,6,0.1,6.4887e-05,648.42,6.3649e-05,615.27,-1.8867e-05,-4.7305,-2.5992e-05,-58.262,0.10797
201,10.235,6,0.1,5.5997e-05,559.58,5.6114e-05,563.18,-1.7594e-05,9.3732,-1.9107e-05,-1.9968,0.13454
202,11.382,6,0.1,4.8152e-05,481.19,4.8067e-05,478.81,-1.5329e-05,2.4861,-1.6604e-05,-7.0924,0.16259
203,12.529,6,0.1,3.9414e-05,393.86,3.9268e-05,389.75,-1.2491e-05,0.85907,-1.379e-05,-8.8979,0.19189
204,13.676,6,0.1,3.2118e-05,320.96,3.1953e-05,316.29,-1.0159e-05,-0.12218,-1.1345e-05,-9.034,0.2222
205,14.823,6,0.1,2.5519e-05,255.01,2.5344e-05,250.13,-7.9528e-06,-0.049976,-9.2042e-06,-9.453,0.25334
206,15.97,6,0.1,1.9757e-05,197.43,1.9565e-05,192.13,-6.0413e-06,-0.26162,-7.3349e-06,-9.9811,0.28513
207,17.118,6,0.1,1.4722e-05,147.12,1.4521e-05,141.69,-4.3596e-06,-0.16384,-5.6917e-06,-10.173,0.31742
208,18.265,6,0.1,1.048e-05,104.73,1.0272e-05,99.278,-2.9624e-06,-0.15728,-4.2785e-06,-10.046,0.35007
209,19.412,6,0.1,6.982e-06,69.772,6.7435e-06,63.833,-1.7966e-06,-0.3349,-3.1418e-06,-10.442,0.38297
210,20.559,6,0.1,4.2844e-06,42.814,4.0194e-06,36.692,-9.0958e-07,-0.34291,-2.2197e-06,-10.187,0.41602
211,21.706,6,0.1,2.3031e-06,23.015,2.004e-06,16.887,-2.7528e-07,-0.23856,-1.4778e-06,-9.2741,0.44917
212,22.853,6,0.1,1.0411e-06,10.404,6.962e-07,4.3739,7.6429e-08,-0.28282,-8.9016e-07,-7.5454,0.48235
213,24,6,0.1,4.5962e-07,4.5931,1.6458e-07,-0.25721,1.0494e-07,-0.70534,-4.7435e-07,-5.0579,0.51554
214,24,4.8,0.1,8.2954e-07,8.2897,4.2685e-07,2.2553,2.1102e-07,0.63363,-7.684e-07,-6.7253,0.51587
215,24,3.6,0.1,1.2368e-06,12.36,6.0359e-07,3.1681,3.5893e-07,1.3298,-1.15e-06,-10.008,0.51618
216,24,2.4,0.1,1.2383e-06,12.374,6.0355e-07,3.1624,3.5985e-07,1.3313,-1.1516e-06,-10.025,0.51646
217,24,1.2,0.1,8.28e-07,8.2743,4.25e-07,2.2372,2.1132e-07,0.63171,-7.6742e-07,-6.7222,0.5167
218,1.049e-14,1.2,0.1,9.9382e-05,993.13,0.00013242,1964.3,9.0019e-07,976.1,-4.0192e-07,966.32,0
219,2.0981e-14,2.4,0.1,0.000104,1039.3,0.00013864,2057.6,7.0261e-07,1021.1,-4.9659e-08,1015.5,0
220,3.1471e-14,3.6,0.1,0.0001044,1043.3,0.00013913,2063.9,5.6081e-07,1022.7,-2.2344e-08,1018.3,0
221,4.1961e-14,4.8,0.1,9.911e-05,990.41,0.00013212,1960.8,1.3581e-06,978.34,-7.2358e-07,962.7,0
222,24,0,0.1,4.6153e-07,4.6121,1.6395e-07,-0.25709,1.0788e-07,-0.67841,-4.76e-07,-5.0654,0.51692
223,22.853,0,0.1,1.0426e-06,10.419,6.9589e-07,4.3724,7.8919e-08,-0.26328,-8.9222e-07,-7.56,0.48373
224,21.706,0,0.1,2.2937e-06,22.921,1.9985e-06,16.863,-2.7718e-07,-0.23536,-1.468e-06,-9.1825,0.45055
225,20.559,0,0.1,4.2713e-06,42.684,4.0133e-06,36.715,-9.1255e-07,-0.29631,-2.2012e-06,-9.9787,0.4174
226,19.412,0,0.1,7.0112e-06,70.064,6.7734e-06,64.15,-1.8022e-06,-0.28372,-3.1533e-06,-10.436,0.38435
227,18.265,0,0.1,1.0486e-05,104.78,1.0266e-05,99.039,-2.9538e-06,-0.28696,-4.3078e-06,-10.46,0.35145
228,17.118,0,0.1,1.4715e-05,147.05,1.4517e-05,141.7,-4.3702e-06,-0.20873,-5.6729e-06,-9.9968,0.3188
229,15.97,0,0.1,1.9733e-05,197.2,1.9549e-05,192.09,-6.0493e-06,-0.24122,-7.2997e-06,-9.6361,0.28651
230,14.823,0,0.1,2.553e-05,255.12,2.5348e-05,250.04,-7.9438e-06,-0.1,-9.2335e-06,-9.7903,0.25472
231,13.676,0,0.1,3.2108e-05,320.86,3.1945e-05,316.27,-1.0141e-05,0.047053,-1.135e-05,-9.0341,0.22358
232,12.529,0,0.1,3.9424e-05,393.96,3.9279e-05,389.92,-1.246e-05,1.1717,-1.3822e-05,-9.0627,0.19327
233,11.382,0,0.1,4.7455e-05,474.22,4.7447e-05,474.08,-1.5168e-05,3.6178,-1.6156e-05,-3.8122,0.16397
234,10.235,0,0.1,5.6193e-05,561.54,5.6102e-05,558.89,-1.8439e-05,-1.1909,-1.8828e-05,-4.1094,0.13591
235,9.0879,0,0.1,6.553e-05,654.85,6.4518e-05,626.16,-2.0515e-05,-12.747,-2.4614e-05,-43.549,0.10932
236,7.9408,0,0.1,6.6089e-05,660.44,6.5366e-05,640.44,-2.0187e-05,-2.3711,-2.4705e-05,-36.314,0.084412
237,6.7938,0,0.1,5.043e-05,503.96,5.1157e-05,525.35,-1.554e-05,24.215,-1.6285e-05,18.62,0.061208
238,5.6467,0,0.1,3.2039e-05,320.17,3.3821e-05,386.72,-2.5988e-06,113.07,-1.3041e-05,34.612,0.039297
239,5.48,0,0.1,4.5851e-05,458.2,4.7844e-05,555.58,-1.9125e-07,194.66,-2.0763e-05,40.086,0.035157
240,4.384,1.844e-30,0.1,7.2871e-05,728.21,7.3745e-05,757.26,-1.9074e-05,59.855,-2.6811e-05,1.7186,0.023082
241,3.288,1.383e-30,0.1,0.00011954,1194.6,0.00011859,1167.7,-3.7646e-05,-6.2546,-4.3017e-05,-46.61,0.012773
242,2.192,9.2202e-31,0.1,0.00014125,1411.5,0.00014335,1476,-3.9532e-05,101.91,-4.9118e-05,29.884,0.0052623
243,1.096,4.6101e-31,0.1,0.00014191,1418.2,0.00013831,1345.6,-3.1235e-05,71.726,-6.506e-05,-182.43,0.0011249
244,0,0,0.1,7.6365e-05,763.12,9.7604e-05,1390.8,2.8205e-07,659.58,-7.7312e-06,599.37,0
245,3.937e-14,6,0.1,7.508e-05,750.29,9.7577e-05,1413.6,9.4054e-07,687.48,-5.2162e-06,641.22,0
246,1.096,6,0.1,0.00013956,1394.6,0.0001352,1293.3,-3.3537e-05,25.496,-6.3612e-05,-200.48,0.0011413
247,2.192,6,0.1,0.00014402,1439.2,0.0001437,1434.6,-4.0987e-05,46.93,-5.4047e-05,-51.193,0.0052381
248,3.288,6,0.1,0.0001125,1124.2,0.00011226,1118.5,-3.4184e-05,18.175,-4.0361e-05,-28.238,0.012646
249,4.384,6,0.1,7.2719e-05,726.69,7.4752e-05,788.35,-1.8935e-05,84.425,-2.4732e-05,40.868,0.022773
250,5.48,6,0.1,4.5105e-05,450.74,4.7512e-05,542.86,-3.4047e-06,160.29,-1.862e-05,45.966,0.034655
251,4.384,6,0,7.2719e-05,726.69,2.4732e-05,-40.868,1.8935e-05,-84.425,-7.4752e-05,-788.35,0.022773
252,3.288,6,0,0.0001125,1124.2,4.0361e-05,28.238,3.4184e-05,-18.175,-0.00011226,-1118.5,0.012646
253,2.192,6,0,0.00014402,1439.2,5.4047e-05,51.193,4.0987e-05,-46.93,-0.0001437,-1434.6,0.0052381
254,1.096,6,0,0.00013956,1394.6,6.3612e-05,200.48,3.3537e-05,-25.496,-0.0001352,-1293.3,0.0011413
255,5.48,6,0,4.5105e-05,450.74,1.862e-05,-45.966,3.4047e-06,-160.29,-4.7512e-05,-542.86,0.034655
256,3.937e-14,6,0,7.508e-05,750.29,5.2162e-06,-641.22,-9.4054e-07,-687.48,-9.7577e-05,-1413.6,0
257,1.096,4.6101e-31,0,0.00014191,1418.2,6.506e-05,182.43,3.1235e-05,-71.726,-0.00013831,-1345.6,0.0011249
258,2.192,9.2202e-31,0,0.00014125,1411.5,4.9118e-05,-29.884,3.9532e-05,-101.91,-0.00014335,-1476,0.0052623
259,3.288,1.383e-30,0,0.00011954,1194.6,4.3017e-05,46.61,3.7646e-05,6.2546,-0.00011859,-1167.7,0.012773
260,4.384,1.844e-30,0,7.2871e-05,728.21,2.6811e-05,-1.7186,1.9074e-05,-59.855,-7.3745e-05,-757.26,0.023082
261,5.48,0,0,4.5851e-05,458.2,2.0763e-05,-40.086,1.9125e-07,-194.66,-4.7844e-05,-555.58,0.035157
262,0,0,0,7.6365e-05,763.12,7.7312e-06,-599.37,-2.8205e-07,-659.58,-9.7604e-05,-1390.8,0
263,6.7938,0,0,5.043e-05,503.96,1.6285e-05,-18.62,1.554e-05,-24.215,-5.1157e-05,-525.35,0.061208
264,7.9408,0,0,6.6089e-05,660.44,2.4705e-05,36.314,2.0187e-05,2.3711,-6.5366e-05,-640.44,0.084412
265,9.0879,0,0,6.553e-05,654.85,2.4614e-05,43.549,2.0515e-05,12.747,-6.4518e-05,-626.16,0.10932
266,10.235,0,0,5.6193e-05,561.54,1.8828e-05,4.1094,1.8439e-05,1.1909,-5.6102e-05,-558.89,0.13591
267,11.382,0,0,4.7455e-05,474.22,1.6156e-05,3.8122,1.5168e-05,-3.6178,-4.7447e-05,-474.08,0.16397
268,12.529,0,0,3.9424e-05,393.96,1.3822e-05,9.0627,1.246e-05,-1.1717,-3.9279e-05,-389.92,0.19327
269,13.676,0,0,3.2108e-05,320.86,1.135e-05,9.0341,1.0141e-05,-0.047053,-3.1945e-05,-316.27,0.22358
270,14.823,0,0,2.553e-05,255.12,9.2335e-06,9.7903,7.9438e-06,0.1,-2.5348e-05,-250.04,0.25472
271,15.97,0,0,1.9733e-05,197.2,7.2997e-06,9.6361,6.0493e-06,0.24122,-1.9549e-05,-192.09,0.28651
272,17.118,0,0,1.4715e-05,147.05,5.6729e-06,9.9968,4.3702e-06,0.20873,-1.4517e-05,-141.7,0.3188
273,18.265,0,0,1.0486e-05,104.78,4.3078e-06,10.46,2.9538e-06,0.28696,-1.0266e-05,-99.039,0.35145
274,19.412,0,0,7.0112e-06,70.064,3.1533e-06,10.436,1.8022e-06,0.28372,-6.7734e-06,-64.15,0.38435
275,20.559,0,0,4.2713e-06,42.684,2.2012e-06,9.9787,9.1255e-07,0.29631,-4.0133e-06,-36.715,0.4174
276,21.706,0,0,2.2937e-06,22.921,1.468e-06,9.1825,2.7718e-07,0.23536,-1.9985e-06,-16.863,0.45055
277,22.853,0,0,1.0426e-06,10.419,8.9222e-07,7.56,-7.8919e-08,0.26328,-6.9589e-07,-4.3724,0.48373
278,5.6467,0,0,3.2039e-05,320.17,1.3041e-05,-34.612,2.5988e-06,-113.07,-3.3821e-05,-386.72,0.039297
279,24,0,0,4.6153e-07,4.6121,4.76e-07,5.0654,-1.0787e-07,0.67842,-1.6395e-07,0.25709,0.51692
280,4.1961e-14,4.8,0,9.911e-05,990.41,7.2358e-07,-962.7,-1.3581e-06,-978.34,-0.00013212,-1960.8,0
281,3.1471e-14,3.6,0,0.0001044,1043.3,2.2344e-08,-1018.3,-5.6081e-07,-1022.7,-0.00013913,-2063.9,0
282,2.0981e-14,2.4,0,0.000104,1039.3,4.9659e-08,-1015.5,-7.0261e-07,-1021.1,-0.00013864,-2057.6,0
283,1.049e-14,1.2,0,9.9382e-05,993.13,4.0192e-07,-966.32,-9.0019e-07,-976.1,-0.00013242,-1964.3,0
284,24,1.2,0,8.28e-07,8.2743,7.6742e-07,6.7222,-2.1132e-07,-0.63171,-4.25e-07,-2.2372,0.5167
285,24,2.4,0,1.2383e-06,12.374,1.1516e-06,10.025,-3.5985e-07,-1.3313,-6.0355e-07,-3.1624,0.51646
286,24,3.6,0,1.2368e-06,12.36,1.15e-06,10.008,-3.5893e-07,-1.3298,-6.0359e-07,-3.168,0.51618
287,24,4.8,0,8.2954e-07,8.2897,7.684e-07,6.7253,-2.1102e-07,-0.63363,-4.2685e-07,-2.2553,0.51587
288,24,6,0,4.5962e-07,4.5931,4.7435e-07,5.0579,-1.0494e-07,0.70535,-1.6458e-07,0.25721,0.51554
289,22.853,6,0,1.0411e-06,10.404,8.9016e-07,7.5454,-7.643e-08,0.28282,-6.962e-07,-4.3739,0.48235
290,21.706,6,0,2.3031e-06,23.015,1.4778e-06,9.2741,2.7528e-07,0.23856,-2.004e-06,-16.887,0.44917
291,20.559,6,0,4.2844e-06,42.814,2.2197e-06,10.187,9.0958e-07,0.34291,-4.0194e-06,-36.692,0.41602
292,19.412,6,0,6.982e-06,69.772,3.1418e-06,10.442,1.7966e-06,0.3349,-6.7435e-06,-63.833,0.38297
293,18.265,6,0,1.048e-05,104.73,4.2785e-06,10.046,2.9624e-06,0.15728,-1.0272e-05,-99.278,0.35007
294,17.118,6,0,1.4722e-05,147.12,5.6917e-06,10.173,4.3596e-06,0.16384,-1.4521e-05,-141.69,0.31742
295,15.97,6,0,1.9757e-05,197.43,7.3349e-06,9.9811,6.0413e-06,0.26162,-1.9565e-05,-192.13,0.28513
296,14.823,6,0,2.5519e-05,255.01,9.2042e-06,9.453,7.9528e-06,0.049975,-2.5344e-05,-250.13,0.25334
297,13.676,6,0,3.2118e-05,320.96,1.1345e-05,9.034,1.0159e-05,0.12218,-3.1953e-05,-316.29,0.2222
298,12.529,6,0,3.9414e-05,393.86,1.379e-05,8.8979,1.2491e-05,-0.85907,-3.9268e-05,-389.75,0.19189
299,11.382,6,0,4.8152e-05,481.19,1.6604e-05,7.0924,1.5329e-05,-2.4861,-4.8067e-05,-478.81,0.16259
300,10.235,6,0,5.5997e-05,559.58,1.9107e-05,1.9968,1.7594e-05,-9.3732,-5.6114e-05,-563.18,0.13454
301,9.0879,6,0,6.4887e-05,648.42,2.5992e-05,58.262,1.8867e-05,4.7305,-6.3649e-05,-615.27,0.10797
302,7.9408,6,0,6.5408e-05,653.63,2.42e-05,34.366,2.0271e-05,4.8472,-6.4691e-05,-633.52,0.083055
303,6.7938,6,0,5.1585e-05,515.49,1.6995e-05,-9.349,1.6214e-05,-15.214,-5.2e-05,-527.75,0.059829
304,5.6467,6,0,3.3944e-05,339.2,1.404e-05,-37.911,2.1549e-06,-127.21,-3.5859e-05,-412.83,0.037916
305,5.48,1.5,0,0.00017392,1738,0.00011002,664.55,2.0438e-05,-8.5416,-0.00015269,-1309.3,0.038719
306,5.48,1,0,0.00010633,1062.5,5.7105e-05,209.57,1.3717e-05,-116.43,-0.00010092,-977.78,0.037464
307,5.48,0.5,0,4.4345e-05,443.14,1.5944e-05,-97.189,2.8008e-06,-195.94,-4.8498e-05,-581.38,0.03628
308,5.48,2,0,0.00030121,3010,0.00013444,166.44,5.1132e-05,-459.52,-0.00030127,-3107.3,0.039915
309,5.6467,0.5,0,2.8961e-05,289.41,1.1493e-05,-73.375,-1.5434e-06,-171.33,-3.1852e-05,-399.05,0.040017
310,5.6467,1,0,9.6951e-05,968.84,5.7846e-05,295.94,1.109e-05,-55.364,-8.7954e-05,-799.54,0.040798
311,5.6467,1.5,0,0.00011457,1144.9,7.053e-05,425.9,1.6667e-05,21.192,-0.00010146,-866.39,0.041668
312,5.6467,2,0,0.00025755,2573.7,9.4472e-05,-287.45,4.0591e-05,-692.29,-0.00027181,-3039.6,0.042499
313,5.48,4.5,0,0.00016966,1695.5,0.00011293,710.94,1.3571e-05,-35.567,-0.00014535,-1229.7,0.038321
314,5.48,5,0,0.00011378,1137,6.7694e-05,343.75,1.3064e-05,-66.718,-0.00010337,-941.53,0.03701
315,5.48,5.5,0,3.0198e-05,301.77,1.161e-05,-89.295,-2.1831e-06,-192.93,-3.3633e-05,-429.23,0.035799
316,5.48,4,0,0.00025639,2562.2,0.00010049,5.3283,5.6906e-05,-322.18,-0.00026021,-2704.8,0.039504
317,5.6467,5.5,0,3.3797e-05,337.74,1.3058e-05,-76.652,-3.582e-08,-175.03,-3.6986e-05,-452.66,0.038871
318,5.6467,5,0,0.00011354,1134.6,6.6627e-05,340.64,1.4888e-05,-48.1,-0.00010345,-937.25,0.039899
319,5.6467,4.5,0,0.00012532,1252.4,7.333e-05,424.86,2.2283e-05,41.316,-0.00011291,-974.44,0.041018
320,5.6467,4,0,0.0002359,2357.4,8.7813e-05,-78.955,5.2844e-05,-341.7,-0.00024196,-2556.7,0.042051
321,7.1701,1.904,0,9.0721e-05,906.58,3.326e-05,-26.313,2.1648e-05,-113.56,-9.2785e-05,-973.37,0.069916
322,6.9432,2.4789,0,0.00010663,1065.6,3.934e-05,-3.1123,2.7662e-05,-90.858,-0.00010796,-1109.9,0.065645
323,7.7568,2.2941,0,8.2745e-05,826.88,3.0693e-05,-28.083,1.8698e-05,-118.21,-8.4864e-05,-896.34,0.081711
324,6.5766,2.2254,0,0.0001077,1076.2,4.6215e-05,194.18,3.5064e-05,110.39,-0.00010227,-921.48,0.058791
325,7.1971,2.1593,0.05,3.5553e-06,35.528,2.73e-06,20.512,1.7946e-13,1.3131e-06,-2.73e-06,-20.512,0.070491
326,6.8374,3.4634,0,0.00010784,1077.6,3.9037e-05,5.214,3.0102e-05,-61.923,-0.00010864,-1104.4,0.063412
327,6.4697,3.0645,0,0.00011956,1194.7,4.3839e-05,36.465,3.5274e-05,-27.889,-0.00011928,-1189.2,0.056872
328,5.5949,3.205,0,0.00013889,1387.9,5.2579e-05,125.35,4.5852e-05,74.804,-0.00013542,-1287.2,0.042287
329,6.25,3.3305,0.05,1.3507e-06,13.498,1.0372e-06,7.7931,8.8516e-13,-1.02e-05,-1.0372e-06,-7.7931,0.052873
330,5.9483,3.6653,0,0.00017795,1778.3,6.304e-05,-34.778,4.8025e-05,-147.6,-0.00018078,-1866.8,0.047511
331,7.8276,1.4216,0,7.5559e-05,755.07,2.7483e-05,-16.125,1.8981e-05,-80.006,-7.6991e-05,-801.1,0.083017
332,6.9305,1.4327,0,8.4027e-05,839.69,3.3356e-05,34.347,2.1036e-05,-58.222,-8.4049e-05,-847.79,0.065089
333,7.1431,1.6487,0.05,5.7032e-06,56.993,4.3794e-06,32.905,1.873e-13,1.2221e-06,-4.3794e-06,-32.905,0.069303
334,6.3949,1.8243,0,0.00016409,1639.7,5.1594e-05,-242.36,3.6024e-05,-359.35,-0.00017401,-1937.5,0.055286
335,3.6356,2.7552,0,0.0001279,1278.2,5.4022e-05,36.592,2.4322e-05,-186.56,-0.00012898,-1338.4,0.018028
336,3.1407,3.3788,0,0.00012611,1260.2,5.127e-05,-29.097,2.1324e-05,-254.1,-0.00012941,-1386.6,0.013577
337,3.9526,3.7038,0,0.00012297,1228.9,4.6419e-05,-33.72,2.7078e-05,-179.04,-0.00012595,-1328.8,0.021117
338,4.3486,3.1753,0,0.00014327,1431.7,5.0637e-05,59.69,4.705e-05,32.734,-0.00014167,-1385.3,0.025589
339,3.7575,3.2711,0.05,3.7661e-06,37.635,2.8919e-06,21.729,6.0923e-14,1.4685e-05,-2.8919e-06,-21.729,0.019233
340,8.0436,3.6049,0,7.856e-05,785.06,2.8335e-05,-33.992,1.8521e-05,-107.74,-8.0711e-05,-853.33,0.08739
341,7.2928,3.9023,0,8.7601e-05,875.4,3.1263e-05,-61.877,1.8953e-05,-154.38,-9.0912e-05,-979.85,0.071945
342,7.4651,3.283,0,9.2292e-05,922.29,3.8458e-05,1.5328,1.6071e-05,-166.68,-9.3943e-05,-993.28,0.075646
343,7.4247,3.5963,0.05,8.7574e-07,8.7514,6.7246e-07,5.0526,8.8973e-13,7.8086e-06,-6.7246e-07,-5.0526,0.074717
344,4.0443,0.8193,0,9.9915e-05,998.46,3.7789e-05,66.45,3.083e-05,14.161,-9.8441e-05,-957.13,0.020933
345,4.6307,0.78351,0,8.2747e-05,826.89,4.2607e-05,202.55,1.8702e-05,22.932,-7.7433e-05,-699.39,0.027129
346,4.4701,0.56755,0.05,8.4917e-06,84.858,6.5206e-06,48.993,4.5304e-13,-1.0392e-14,-6.5206e-06,-48.993,0.024998
347,4.427,0.28377,0,8.1643e-05,815.87,3.5347e-05,85.438,2.0033e-05,-29.627,-8.0083e-05,-781.86,0.024061
348,4.975,0.53377,0,6.4307e-05,642.62,2.2396e-05,-18.782,1.7452e-05,-55.928,-6.5497e-05,-679.17,0.030545
349,7.0815,0.58397,0,6.1865e-05,618.22,2.2817e-05,31.426,1.9197e-05,4.2275,-6.1213e-05,-599.94,0.067452
350,6.4537,0.68642,0,5.6452e-05,564.14,2.6452e-05,97.831,1.3844e-05,3.096,-5.4135e-05,-507.67,0.055402
351,6.5649,0.48026,0.05,5.0223e-06,50.188,3.8565e-06,28.976,-8.1802e-22,-6.1463e-15,-3.8565e-06,-28.976,0.057292
352,6.6793,0.24013,0,5.3817e-05,537.8,2.0664e-05,30.968,1.5603e-05,-7.0577,-5.3309e-05,-524.83,0.05925
353,6.1058,0.49013,0,4.1821e-05,417.92,1.3515e-05,-32.122,1.1326e-05,-48.565,-4.3169e-05,-458.02,0.048599
354,4.2079,4.9356,0,0.00010844,1083.6,4.3928e-05,94.612,3.0376e-05,-7.2092,-0.00010659,-1036.3,0.02271
355,4.7482,4.8537,0,9.2095e-05,920.32,4.26e-05,161.05,2.3795e-05,19.756,-8.8202e-05,-821.74,0.028718
356,4.3813,4.4041,0,0.00011707,1169.9,4.8427e-05,62.157,2.7061e-05,-98.378,-0.00011686,-1179.7,0.025186
357,4.6148,4.6718,0.05,1.7792e-05,177.8,1.3662e-05,102.65,-2.8979e-21,3.6631e-06,-1.3662e-05,-102.65,0.027443
358,5.0474,4.5859,0,0.00012936,1292.7,6.8824e-05,339.01,2.7029e-05,24.977,-0.00012028,-1081.8,0.032694
359,6.5492,4.8966,0,7.4666e-05,746.14,3.2025e-05,85.175,1.9576e-05,-8.3643,-7.2918e-05,-703.33,0.056709
360,7.1642,5.0074,0,7.7433e-05,773.8,3.0705e-05,48.528,2.1073e-05,-23.844,-7.6759e-05,-758.91,0.068475
361,6.9524,4.4672,0,8.6862e-05,868.02,3.5649e-05,25.432,1.8573e-05,-102.87,-8.7464e-05,-899.6,0.064872
362,6.7439,4.7259,0.05,1.3841e-05,138.31,1.0628e-05,79.855,1.1415e-12,1.5868e-06,-1.0628e-05,-79.855,0.060586
363,6.1953,4.613,0,9.8175e-05,981.07,4.6694e-05,193.11,2.5032e-05,30.347,-9.3355e-05,-859.16,0.050531
364,6.4506,5.2636,0,6.1606e-05,615.63,2.7795e-05,91.721,1.5672e-05,0.63604,-5.9527e-05,-564.38,0.054341
365,6.3545,5.0672,0.05,1.4294e-06,14.284,1.0976e-06,8.2468,2.5255e-14,8.4743e-08,-1.0976e-06,-8.2468,0.052798
366,6.0006,5.0336,0,8.0238e-05,801.82,4.1845e-05,173.65,1.4681e-05,-30.454,-7.5828e-05,-710.5,0.046304
367,6.2358,2.7063,0,0.0001406,1405,6.9303e-05,246.64,2.8002e-05,-63.688,-0.00013489,-1287.6,0.052857
368,7.0974,2.8841,0,0.00010438,1043.1,4.2233e-05,25.064,2.2927e-05,-119.99,-0.00010524,-1083,0.068536
369,6.6894,2.7985,0.05,9.2323e-06,92.26,7.0893e-06,53.266,-4.9411e-13,-3.0396e-06,-7.0893e-06,-53.266,0.060883
370,4.108,1.2493,0,0.00011299,1129.2,4.6311e-05,101.62,3.0963e-05,-13.701,-0.00011105,-1080.8,0.022088
371,4.6943,1.2135,0,9.4309e-05,942.44,4.7121e-05,207.6,2.1826e-05,17.542,-8.903e-05,-815.39,0.028508
372,4.608,1.8167,0,0.00012774,1276.5,5.3427e-05,134.27,3.4911e-05,-4.8443,-0.00012497,-1206.1,0.028199
373,4.5974,1.4275,0.05,1.5923e-05,159.12,1.2227e-05,91.866,-2.5934e-21,-1.3858e-06,-1.2227e-05,-91.866,0.027647
374,5.0387,1.4638,0,0.000132,1319.1,7.2018e-05,352.63,2.4538e-05,-4.1152,-0.0001224,-1108.2,0.033008
375,4.2471,5.3006,0,9.0869e-05,908.06,3.5149e-05,63.35,2.6929e-05,1.5895,-8.9606e-05,-874.01,0.022599
376,4.7874,5.2188,0,7.7937e-05,778.84,4.0053e-05,176.61,1.6312e-05,-1.7732,-7.3415e-05,-675.94,0.028539
377,4.6931,5.4019,0.05,8.0932e-06,80.876,6.2146e-06,46.694,-2.2526e-13,-9.9044e-15,-6.2146e-06,-46.694,0.02715
378,4.5386,5.701,0,7.6346e-05,762.94,2.8234e-05,24.144,2.2183e-05,-21.319,-7.6197e-05,-760.51,0.024951
379,5.0866,5.451,0,5.4641e-05,546.03,1.806e-05,-27.215,1.5472e-05,-46.663,-5.5871e-05,-582.71,0.03144
380,7.0656,5.3744,0,6.26e-05,625.57,2.3697e-05,34.211,1.858e-05,-4.2422,-6.2002e-05,-609.7,0.066081
381,6.5467,5.46,0.05,5.2875e-06,52.839,4.0602e-06,30.506,-8.6122e-22,-3.5135e-06,-4.0602e-06,-30.506,0.055867
382,6.6702,5.73,0,5.5836e-05,557.98,2.1954e-05,40.091,1.6021e-05,-4.4855,-5.5097e-05,-538.84,0.057848
383,6.0967,5.48,0,4.5038e-05,450.07,1.4658e-05,-33.586,1.211e-05,-52.735,-4.6476e-05,-492.92,0.047318
384,3.5661,1.6552,0,0.00011789,1178,4.8052e-05,42.95,2.6663e-05,-117.76,-0.00011833,-1207.2,0.017032
385,2.9729,1.1105,0,0.00011901,1189.3,4.4167e-05,-10.816,2.9697e-05,-119.53,-0.00012085,-1250.7,0.011574
386,3.6185,1.0711,0.05,5.4702e-06,54.664,4.2004e-06,31.56,-8.9097e-22,6.4753e-07,-4.2004e-06,-31.56,0.017055
387,3.4533,0.53553,0,0.00011518,1151.1,3.9497e-05,19.541,3.7283e-05,2.9071,-0.00011479,-1139.7,0.014974
388,2.9608,2.2685,0,0.00012387,1237.8,5.2663e-05,-11.486,1.812e-05,-271.03,-0.00012662,-1358.5,0.012035
389,4.0662,2.2226,0,0.00013136,1312.7,5.1641e-05,49.117,3.3373e-05,-88.147,-0.00013149,-1326.8,0.02231
390,3.5137,2.2394,0.05,6.191e-06,61.867,4.7539e-06,35.719,-1.4268e-13,-1.0829e-06,-4.7539e-06,-35.719,0.016781
391,3.3058,4.9522,0,0.00011002,1099.4,3.9229e-05,-18.019,2.9565e-05,-90.63,-0.00011168,-1151.9,0.014186
392,3.801,5.1993,0.05,5.2069e-06,52.034,3.9983e-06,30.042,-5.5491e-14,-6.9823e-07,-3.9983e-06,-30.042,0.018326
393,3.5445,5.5997,0,0.00010721,1071.3,3.7051e-05,14.778,3.3889e-05,-8.9799,-0.00010709,-1068.2,0.015457
394,2.0564,4.73,0,0.00012912,1290.3,6.0942e-05,108.43,1.9011e-05,-206.62,-0.00012787,-1310.2,0.0055569
395,2.6673,4.0958,0,0.00011981,1197.2,4.6946e-05,-58.126,2.063e-05,-255.86,-0.00012392,-1341.9,0.0096925
396,3.4792,4.4208,0,0.00011795,1178.7,4.2516e-05,-59.588,2.7033e-05,-175.92,-0.00012152,-1292.1,0.01614
397,2.8107,4.7052,0.05,3.3005e-06,32.982,2.5344e-06,19.042,-5.3758e-22,1.1508e-06,-2.5344e-06,-19.042,0.010425
398,2.5013,5.3526,0,0.00013056,1304.7,4.3493e-05,-37.329,3.8958e-05,-71.407,-0.00013238,-1358.8,0.0077892
399,1.2961,4.1687,0,0.00014441,1443.1,8.1758e-05,279.4,8.474e-06,-271.23,-0.00013615,-1357.9,0.0022946
400,1.3022,4.7549,0.05,3.0056e-06,30.035,2.3079e-06,17.341,1.0728e-12,9.5365e-07,-2.3079e-06,-17.341,0.0022059
401,1.1991,5.3774,0,0.00013938,1392.9,7.0463e-05,227.9,2.2404e-05,-133.19,-0.00013421,-1310,0.0017108
402,0.65109,4.7774,0,0.0001185,1184.2,3.8683e-05,-356.21,5.489e-06,-605.61,-0.00013287,-1645.2,0.00055859
403,1.7418,1.1713,0,0.00013386,1337.7,6.2689e-05,106.51,2.0109e-05,-213.42,-0.00013278,-1362.2,0.0039581
404,1.1927,1.7867,0,0.00014509,1449.9,8.2091e-05,282.54,8.8508e-06,-267.76,-0.00013678,-1362,0.0019456
405,1.1564,1.1926,0.05,2.4192e-06,24.175,1.8577e-06,13.958,-3.9404e-22,-2.9606e-15,-1.8577e-06,-13.958,0.0017355
406,1.1262,0.5963,0,0.00014098,1408.8,7.1365e-05,222.24,2.1581e-05,-151.81,-0.000136,-1335.8,0.001489
407,0.57822,1.1963,0,0.00011886,1187.8,3.8932e-05,-352.91,5.6961e-06,-602.63,-0.00013313,-1645.7,0.00044134
408,2.3676,1.7237,0,0.00012417,1240.8,4.8844e-05,-64.753,2.0563e-05,-277.25,-0.00012861,-1398.1,0.0076163
409,2.3272,1.1499,0.05,1.832e-06,18.308,1.4068e-06,10.57,-2.984e-22,8.6399e-07,-1.4068e-06,-10.57,0.0070894
410,2.2596,0.57496,0,0.00013403,1339.3,4.8332e-05,-40.064,3.3328e-05,-152.8,-0.00013695,-1432.2,0.0062729
411,8.0551,0.94109,0,6.7525e-05,674.78,2.3071e-05,-4.1063,2.0561e-05,-22.961,-6.7965e-05,-688.12,0.087534
412,7.158,0.95217,0,7.5774e-05,757.22,2.9105e-05,47.578,2.2325e-05,-3.363,-7.4893e-05,-733.83,0.06925
413,7.5981,0.68768,0.05,2.6102e-06,26.084,2.0043e-06,15.059,-4.2514e-22,-8.1206e-07,-2.0043e-06,-15.059,0.077893
414,7.7695,0.34384,0,6.7066e-05,670.2,2.3658e-05,16.892,2.1083e-05,-2.4582,-6.6799e-05,-662.77,0.081159
415,9.2022,1.213,0,6.2554e-05,625.11,2.1457e-05,-4.731,1.8816e-05,-24.573,-6.3029e-05,-639.53,0.11266
416,8.4143,1.8117,0,6.8059e-05,680.12,2.409e-05,-24.1,1.7382e-05,-74.498,-6.9596e-05,-728.02,0.095483
417,8.5122,1.1945,0.05,1.0743e-06,10.736,8.2496e-07,6.1984,-1.06e-14,-8.0354e-08,-8.2496e-07,-6.1984,0.097402
418,8.8,0.59725,0,6.6201e-05,661.55,2.242e-05,6.5204,2.1472e-05,-0.60815,-6.6097e-05,-658.57,0.10338
419,10.536,1.2264,0,5.3151e-05,531.14,1.8449e-05,1.9776,1.6169e-05,-15.156,-5.3354e-05,-537.53,0.14379
420,9.8325,1.8148,0,5.7926e-05,578.86,2.0478e-05,1.8171,1.6943e-05,-24.741,-5.827e-05,-589.86,0.12727
421,9.8923,1.2315,0.05,7.8022e-07,7.7968,5.9911e-07,4.5015,3.8127e-15,7.4093e-07,-5.9911e-07,-4.5015,0.12851
422,10.064,0.61573,0,5.7097e-05,570.58,1.9644e-05,4.2087,1.7863e-05,-9.1714,-5.717e-05,-572.94,0.13225
423,11.789,1.218,0,4.3957e-05,439.27,1.4752e-05,-0.76456,1.4018e-05,-6.278,-4.4074e-05,-442.76,0.17476
424,11.125,1.8155,0,4.8342e-05,483.09,1.6536e-05,-0.63684,1.4901e-05,-12.916,-4.8561e-05,-489.75,0.15829
425,11.179,1.2214,0.05,7.6419e-07,7.6366,5.868e-07,4.409,1.1942e-15,7.0079e-07,-5.868e-07,-4.409,0.15949
426,11.281,0.61071,0,4.7833e-05,478,1.581e-05,-1.9333,1.5566e-05,-3.7604,-4.793e-05,-480.85,0.16178
427,13.001,1.2175,0,3.5922e-05,358.97,1.1956e-05,0.69233,1.1746e-05,-0.88443,-3.5925e-05,-359.07,0.20603
428,12.366,1.8132,0,3.9752e-05,397.25,1.3186e-05,-0.98017,1.2915e-05,-3.0166,-3.982e-05,-399.24,0.18959
429,12.398,1.2145,0.05,5.9922e-07,5.988,4.6012e-07,3.4572,-9.7599e-23,1.0156e-06,-4.6012e-07,-3.4572,0.19033
430,12.464,0.60726,0,3.9505e-05,394.78,1.339e-05,3.5376,1.2762e-05,-1.1806,-3.9463e-05,-393.58,0.19184
431,14.188,1.2146,0,2.8875e-05,288.56,9.9137e-06,4.1856,9.2598e-06,-0.72754,-2.8814e-05,-286.8,0.23768
432,13.583,1.818,0,3.2205e-05,321.83,1.0877e-05,2.459,1.0431e-05,-0.8924,-3.2177e-05,-321.03,0.22149
433,13.603,1.2205,0.05,5.0549e-07,5.0514,3.8816e-07,2.9165,1.1284e-13,1.0032e-06,-3.8816e-07,-2.9164,0.22197
434,13.64,0.61023,0,3.2115e-05,320.93,1.1091e-05,5.7476,1.0288e-05,-0.28318,-3.2018e-05,-318.15,0.22282
435,15.362,1.2084,0,2.2642e-05,226.26,8.0269e-06,6.1997,7.0947e-06,-0.80424,-2.2542e-05,-223.48,0.26975
436,14.765,1.8124,0,2.5551e-05,255.33,8.9428e-06,5.4978,8.0666e-06,-1.0852,-2.5469e-05,-253.06,0.25339
437,14.773,1.2088,0.05,4.6273e-07,4.6241,3.5532e-07,2.6697,1.2601e-13,1.7557e-06,-3.5532e-07,-2.6697,0.25357
438,14.798,0.60439,0,2.5511e-05,254.94,9.0561e-06,7.413,8.0132e-06,-0.42343,-2.5383e-05,-251.35,0.25418
439,16.528,1.2081,0,1.7214e-05,172.02,6.3267e-06,7.3934,5.2543e-06,-0.66415,-1.7086e-05,-168.52,0.30223
440,15.941,1.8123,0,1.9723e-05,197.09,7.146e-06,7.1036,6.0716e-06,-0.96943,-1.9606e-05,-193.9,0.2858
441,15.95,1.208,0.05,3.9873e-07,3.9845,3.0617e-07,2.3005,1.2029e-14,2.0529e-06,-3.0617e-07,-2.3005,0.28608
442,15.96,0.604,0,1.9693e-05,196.8,7.1776e-06,8.0507,6.0781e-06,-0.21058,-1.9547e-05,-192.75,0.28632
443,17.677,1.2063,0,1.26e-05,125.91,4.859e-06,8.1107,3.6965e-06,-0.62348,-1.245e-05,-121.94,0.33468
444,17.096,1.8131,0,1.472e-05,147.09,5.5801e-06,8.1639,4.3659e-06,-0.95908,-1.4576e-05,-143.28,0.31818
445,17.105,1.2082,0.05,3.4892e-07,3.4868,2.6793e-07,2.0131,2.3641e-13,2.0788e-06,-2.6793e-07,-2.0131,0.31848
446,17.111,0.60412,0,1.4677e-05,146.67,5.5751e-06,8.7058,4.3868e-06,-0.22291,-1.4512e-05,-142.22,0.31866
447,18.823,1.1975,0,8.7609e-06,87.548,3.6095e-06,8.378,2.4144e-06,-0.60154,-8.5939e-06,-83.314,0.36737
448,18.239,1.8048,0,1.0506e-05,104.98,4.2406e-06,8.8273,2.9382e-06,-0.95854,-1.0338e-05,-100.71,0.35061
449,18.249,1.2043,0.05,2.9385e-07,2.9365,2.2564e-07,1.6954,2.0574e-13,2.3879e-06,-2.2564e-07,-1.6954,0.35096
450,18.257,0.60214,0,1.0454e-05,104.47,4.2135e-06,9.1768,2.9727e-06,-0.14574,-1.0269e-05,-99.639,0.35122
451,19.974,1.1926,0,5.6721e-06,56.682,2.5863e-06,8.3987,1.3863e-06,-0.61792,-5.4856e-06,-52.251,0.40041
452,19.392,1.7892,0,7.0548e-06,70.5,3.1124e-06,9.0606,1.7863e-06,-0.9027,-6.863e-06,-65.891,0.38361
453,19.398,1.1907,0.05,2.3757e-07,2.3741,1.8243e-07,1.3707,1.79e-13,2.5809e-06,-1.8243e-07,-1.3707,0.38384
454,19.405,0.59536,0,6.9843e-06,69.795,3.0651e-06,9.187,1.8204e-06,-0.16528,-6.7836e-06,-64.812,0.3841
455,21.125,1.1939,0,3.3472e-06,33.449,1.7972e-06,8.2782,6.1311e-07,-0.61866,-3.1269e-06,-28.719,0.4336
456,20.544,1.7923,0,4.3612e-06,43.582,2.2255e-06,9.2018,8.7449e-07,-0.94947,-4.1312e-06,-38.56,0.41672
457,20.551,1.1946,0.05,1.7801e-07,1.7789,1.3669e-07,1.027,1.4012e-13,2.6113e-06,-1.3669e-07,-1.027,0.41701
458,20.555,0.59728,0,4.2573e-06,42.543,2.1363e-06,8.9514,9.2394e-07,-0.15781,-4.0338e-06,-37.409,0.41721
459,22.275,1.1946,0,1.8013e-06,18,1.2323e-06,7.8837,9.9002e-08,-0.63116,-1.5198e-06,-12.794,0.4668
460,21.695,1.7926,0,2.4713e-06,24.696,1.576e-06,9.1927,2.3089e-07,-0.91371,-2.17e-06,-18.953,0.44993
461,21.7,1.1933,0.05,1.212e-07,1.2111,9.3064e-08,0.69925,1.8474e-13,2.755e-06,-9.3064e-08,-0.69924,0.4502
462,21.703,0.59665,0,2.3014e-06,22.998,1.4324e-06,8.4335,2.8464e-07,-0.19048,-2.0365e-06,-17.63,0.45038
463,22.846,1.7952,0,1.3887e-06,13.878,1.1569e-06,8.9762,-1.6456e-07,-0.95299,-9.5351e-07,-6.8809,0.48321
464,22.849,1.1959,0.05,7.8236e-08,0.78182,6.0076e-08,0.45139,2.0374e-13,3.0358e-06,-6.0076e-08,-0.45139,0.48341
465,22.851,0.59793,0,1.1046e-06,11.039,9.1752e-07,7.3525,-8.5817e-08,-0.18615,-7.6881e-07,-5.3179,0.48357
466,23.425,1.1979,0,1.0204e-06,10.197,8.7998e-07,7.1204,-1.5318e-07,-0.64242,-6.5706e-07,-4.4283,0.50006
467,1.2595,2.9817,0,0.00014826,1481.6,8.6307e-05,302.87,4.8625e-06,-309.08,-0.00013856,-1386.7,0.0022362
468,1.9069,3.5345,0,0.00013444,1343.5,6.7667e-05,112.13,1.0678e-05,-316.07,-0.00013269,-1393.2,0.0050697
469,1.29,3.5825,0.05,2.835e-06,28.33,2.1769e-06,16.357,-1.6552e-13,-3.4695e-15,-2.1769e-06,-16.357,0.0023195
470,0.64498,3.5913,0,0.0001241,1240.2,4.3091e-05,-357.6,2.0832e-06,-665.72,-0.00013861,-1722.8,0.00058363
471,1.8184,2.3392,0,0.00013484,1347.4,6.8254e-05,111.33,9.7214e-06,-328.46,-0.00013303,-1401.1,0.0046101
472,1.229,2.3809,0.05,1.7398e-06,17.386,1.336e-06,10.038,-2.8338e-22,-2.1292e-15,-1.336e-06,-10.038,0.0021087
473,0.6145,2.3904,0,0.00012438,1243,4.3204e-05,-356.8,2.2219e-06,-664.73,-0.00013887,-1724.8,0.00053064
474,22.843,2.9973,0,1.5651e-06,15.641,1.3335e-06,10.523,-2.3655e-07,-1.2732,-1.0278e-06,-7.2182,0.48286
475,22.266,2.3932,0,2.0731e-06,20.717,1.5409e-06,10.587,-3.3812e-08,-1.2441,-1.6428e-06,-13.334,0.46632
476,22.843,2.3945,0.05,7.5337e-08,0.75285,5.785e-08,0.43466,1.8735e-13,2.7636e-06,-5.785e-08,-0.43466,0.48299
477,23.422,2.3972,0,1.3989e-06,13.979,1.2465e-06,10.305,-2.9928e-07,-1.3095,-8.1845e-07,-5.2104,0.49972
478,22.844,4.2033,0,1.3902e-06,13.892,1.1567e-06,8.9562,-1.6388e-07,-0.96595,-9.5642e-07,-6.9208,0.48258
479,22.265,3.599,0,2.0756e-06,20.741,1.5412e-06,10.577,-3.2323e-08,-1.2455,-1.6463e-06,-13.372,0.466
480,22.843,3.6001,0.05,7.586e-08,0.75808,5.8251e-08,0.43768,1.7603e-13,2.7817e-06,-5.8251e-08,-0.43768,0.48272
481,23.422,3.6,0,1.3988e-06,13.978,1.2462e-06,10.298,-2.9925e-07,-1.3137,-8.1872e-07,-5.2168,0.49945
482,22.267,4.807,0,1.8096e-06,18.083,1.233e-06,7.8396,1.0255e-07,-0.65398,-1.5309e-06,-12.927,0.46576
483,22.844,4.8066,0.05,7.9082e-08,0.79028,6.0725e-08,0.45627,1.8734e-13,3.0881e-06,-6.0725e-08,-0.45627,0.48244
484,23.422,4.8033,0,1.0227e-06,10.22,8.8024e-07,7.1038,-1.5204e-07,-0.65232,-6.6099e-07,-4.4764,0.49915
485,22.849,5.4033,0,1.1057e-06,11.049,9.1641e-07,7.3282,-8.3627e-08,-0.18567,-7.7208e-07,-5.3584,0.4824
486,21.116,4.8015,0,3.3634e-06,33.611,1.8016e-06,8.271,6.2011e-07,-0.60656,-3.1438e-06,-28.887,0.4325
487,21.688,4.2026,0,2.4804e-06,24.786,1.5769e-06,9.1557,2.353e-07,-0.92454,-2.1814e-06,-19.083,0.44919
488,21.691,4.8073,0.05,1.227e-07,1.2262,9.4219e-08,0.70793,2.0583e-13,2.9783e-06,-9.4219e-08,-0.70792,0.44908
489,21.698,5.4037,0,2.3121e-06,23.105,1.4379e-06,8.45,2.8619e-07,-0.20326,-2.0468e-06,-17.732,0.44913
490,19.967,4.7957,0,5.6816e-06,56.776,2.594e-06,8.4566,1.3865e-06,-0.61582,-5.4935e-06,-52.31,0.39937
491,20.535,4.1953,0,4.3776e-06,43.746,2.2315e-06,9.2209,8.8107e-07,-0.9258,-4.1473e-06,-38.707,0.41592
492,20.541,4.7957,0.05,1.7471e-07,1.7459,1.3416e-07,1.008,1.719e-13,2.4976e-06,-1.3416e-07,-1.008,0.41592
493,20.55,5.3979,0,4.2729e-06,42.7,2.149e-06,9.0737,9.2682e-07,-0.10912,-4.0457e-06,-37.47,0.41598
494,18.826,4.8066,0,8.7465e-06,87.404,3.5979e-06,8.2996,2.4145e-06,-0.59219,-8.5813e-06,-83.211,0.36663
495,19.389,4.1954,0,7.0484e-06,70.436,3.117e-06,9.1204,1.7774e-06,-0.94494,-6.8552e-06,-65.807,0.38297
496,19.392,4.7957,0.05,2.3339e-07,2.3323,1.7922e-07,1.3466,1.4424e-13,2.2944e-06,-1.7922e-07,-1.3466,0.38284
497,19.402,5.3978,0,6.9705e-06,69.657,3.0643e-06,9.2352,1.8134e-06,-0.16343,-6.7684e-06,-64.644,0.38291
498,17.68,4.8157,0,1.2595e-05,125.87,4.843e-06,7.9428,3.7051e-06,-0.60711,-1.2449e-05,-121.98,0.33394
499,18.249,4.217,0,1.0488e-05,104.81,4.226e-06,8.7459,2.9409e-06,-0.90941,-1.0322e-05,-100.56,0.35033
500,18.261,4.8175,0.05,2.9121e-07,2.9101,2.2362e-07,1.6802,1.044e-13,2.2367e-06,-2.2362e-07,-1.6802,0.35045
501,18.263,5.4088,0,1.0437e-05,104.3,4.1824e-06,8.8467,2.9815e-06,-0.17597,-1.026e-05,-99.667,0.35027
502,16.522,4.8118,0,1.7238e-05,172.27,6.3283e-06,7.2858,5.2634e-06,-0.7159,-1.7113e-05,-168.84,0.30122
503,17.098,4.2251,0,1.4711e-05,147.01,5.5822e-06,8.2365,4.3612e-06,-0.93787,-1.4565e-05,-143.14,0.31769
504,17.1,4.8139,0.05,3.5412e-07,3.5388,2.7192e-07,2.0431,1.6329e-13,1.8611e-06,-2.7192e-07,-2.0431,0.31751
505,17.109,5.4069,0,1.4691e-05,146.81,5.586e-06,8.7564,4.3852e-06,-0.26553,-1.4526e-05,-142.36,0.31748
506,15.36,4.8059,0,2.2668e-05,226.53,8.027e-06,6.124,7.1117e-06,-0.75285,-2.2569e-05,-223.76,0.26887
507,15.94,4.2173,0,1.9724e-05,197.11,7.1573e-06,7.215,6.0637e-06,-1.0022,-1.9606e-05,-193.87,0.28523
508,15.943,4.8097,0.05,4.0854e-07,4.0825,3.1371e-07,2.3571,4.6631e-14,1.4293e-06,-3.1371e-07,-2.3571,0.28504
509,15.957,5.4049,0,1.972e-05,197.07,7.1981e-06,8.174,6.0784e-06,-0.23883,-1.9572e-05,-192.96,0.28511
510,14.188,4.7995,0,2.8905e-05,288.85,9.9294e-06,4.1738,9.2584e-06,-0.86769,-2.8846e-05,-287.17,0.23685
511,14.769,4.2075,0,2.5569e-05,255.51,8.938e-06,5.46,8.0877e-06,-0.92905,-2.5486e-05,-253.19,0.25293
512,14.776,4.8021,0.05,4.6551e-07,4.6519,3.5745e-07,2.6858,-8.4368e-15,1.466e-06,-3.5745e-07,-2.6858,0.25283
513,14.8,5.401,0,2.552e-05,255.02,9.0416e-06,7.2396,8.0299e-06,-0.36164,-2.5394e-05,-251.5,0.25312
514,13.001,4.7942,0,3.6009e-05,359.84,1.2026e-05,1.562,1.1784e-05,-0.26091,-3.5986e-05,-359.19,0.2052
515,13.576,4.2045,0,3.2258e-05,322.36,1.0911e-05,2.3675,1.0412e-05,-1.3784,-3.224e-05,-321.85,0.22075
516,13.6,4.7969,0.05,5.1225e-07,5.1189,3.9334e-07,2.9554,-3.1754e-15,1.1856e-06,-3.9334e-07,-2.9554,0.22105
517,13.638,5.3984,0,3.2138e-05,321.16,1.1106e-05,5.755,1.0284e-05,-0.42311,-3.2043e-05,-318.45,0.22166
518,11.794,4.7886,0,4.3816e-05,437.86,1.4469e-05,-2.1001,1.425e-05,-3.7458,-4.3915e-05,-440.78,0.17406
519,12.368,4.1982,0,3.9856e-05,398.28,1.3266e-05,0.43674,1.3e-05,-1.5642,-3.9875e-05,-398.84,0.18909
520,12.401,4.7915,0.05,6.295e-07,6.2907,4.8338e-07,3.6319,-1.0253e-22,1.1714e-06,-4.8338e-07,-3.6319,0.18959
521,12.465,5.3958,0,3.9569e-05,395.41,1.3428e-05,4.3289,1.2826e-05,-0.19299,-3.9496e-05,-393.33,0.19078
522,10.56,4.7896,0,5.295e-05,529.14,1.852e-05,2.3106,1.5895e-05,-17.413,-5.3179e-05,-536.41,0.14355
523,11.135,4.1914,0,4.7913e-05,478.8,1.5926e-05,-4.75,1.5182e-05,-10.336,-4.8167e-05,-486.32,0.15798
524,11.186,4.7856,0.05,4.9349e-07,4.9315,3.7894e-07,2.8472,-1.5177e-13,1.0723e-06,-3.7894e-07,-2.8472,0.15884
525,11.284,5.3928,0,4.7964e-05,479.31,1.5982e-05,-0.35392,1.5536e-05,-3.708,-4.8032e-05,-481.33,0.16077
526,9.1847,4.7768,0,6.2357e-05,623.14,2.2015e-05,-0.43821,1.8066e-05,-30.107,-6.2824e-05,-637.88,0.11146
527,9.8747,4.1945,0,5.7984e-05,579.44,2.1041e-05,6.4273,1.6438e-05,-28.16,-5.8276e-05,-589.53,0.1277
528,9.9345,4.7937,0.05,5.6627e-07,5.6588,4.3482e-07,3.2671,3.3919e-13,6.3774e-07,-4.3482e-07,-3.2671,0.12866
529,10.085,5.3968,0,5.7044e-05,570.05,2.0205e-05,5.7904,1.6992e-05,-18.351,-5.7219e-05,-575.94,0.13165
530,8.0097,5.0243,0,6.6639e-05,665.93,2.2368e-05,-10.05,2.0425e-05,-24.652,-6.7217e-05,-683.16,0.085687
531,8.5487,4.1868,0,6.6517e-05,664.72,2.3901e-05,-8.8938,1.7741e-05,-55.181,-6.7486e-05,-695.54,0.097841
532,7.7979,4.4841,0,7.5461e-05,754.09,2.7232e-05,-33.748,1.7657e-05,-105.69,-7.7575e-05,-821.23,0.081766
533,8.4349,4.7599,0.05,1.4301e-06,14.292,1.0982e-06,8.2512,3.348e-13,3.4007e-06,-1.0982e-06,-8.2512,0.094955
534,8.7614,5.3799,0,6.5611e-05,655.66,2.272e-05,11.581,2.0898e-05,-2.1082,-6.5439e-05,-650.81,0.10147
535,7.5845,5.2888,0.05,2.0518e-06,20.504,1.5755e-06,11.838,-4.3334e-13,1.2999e-09,-1.5755e-06,-11.838,0.076593
536,7.7626,5.6444,0,6.6063e-05,660.17,2.3349e-05,14.207,2.0464e-05,-7.4754,-6.5922e-05,-656.54,0.079831
537,2.4659,2.892,0,0.00012198,1219,4.9603e-05,-79.496,1.5399e-05,-336.49,-0.00012701,-1406.5,0.0084681
538,2.5239,3.4865,0.05,3.1314e-06,31.293,2.4045e-06,18.067,9.0554e-13,1.517e-05,-2.4045e-06,-18.067,0.0088233
539,2.4079,2.2976,0.05,2.4995e-06,24.978,1.9193e-06,14.421,-8.945e-14,3.8501e-07,-1.9193e-06,-14.421,0.0080165
540,8.4894,3.0213,0,6.7897e-05,678.5,2.5293e-05,-21.682,1.5276e-05,-96.943,-6.9601e-05,-734.68,0.097058
541,9.2387,3.6045,0,6.2195e-05,621.52,2.2821e-05,-2.8273,1.6262e-05,-52.107,-6.2983e-05,-647.52,0.11341
542,8.6625,3.6136,0.05,2.2738e-06,22.722,1.746e-06,13.118,3.0414e-13,6.2296e-07,-1.746e-06,-13.118,0.10061
543,9.0446,2.4135,0,6.3528e-05,634.84,2.312e-05,-17.483,1.5561e-05,-74.276,-6.4898e-05,-678.81,0.10934
544,7.9109,2.6993,0,8.1613e-05,815.56,3.5377e-05,13.55,1.2735e-05,-156.57,-8.2703e-05,-873.66,0.084857
545,8.3164,2.429,0.05,1.8743e-06,18.73,1.4392e-06,10.814,-9.633e-14,-3.6197e-07,-1.4392e-06,-10.814,0.093415
546,10.422,2.4038,0,5.3145e-05,531.08,1.8562e-05,-0.81357,1.5707e-05,-22.27,-5.3505e-05,-542.3,0.14123
547,9.7939,2.9967,0,5.7855e-05,578.15,2.0631e-05,1.2463,1.6557e-05,-29.365,-5.8272e-05,-591.6,0.12633
548,9.7728,2.3981,0.05,6.2326e-07,6.2283,4.7859e-07,3.5959,-5.6416e-15,5.9876e-07,-4.7859e-07,-3.5959,0.12591
549,11.703,2.4107,0,4.4163e-05,441.32,1.496e-05,-0.92304,1.3833e-05,-9.3899,-4.4332e-05,-446.42,0.1727
550,11.077,3.0033,0,4.8223e-05,481.89,1.6371e-05,-2.7445,1.4882e-05,-13.936,-4.8497e-05,-490.14,0.15705
551,11.071,2.4095,0.05,6.5931e-07,6.5886,5.0627e-07,3.8039,-1.9866e-15,6.5748e-07,-5.0627e-07,-3.8039,0.15698
552,12.948,2.4137,0,3.6074e-05,360.49,1.1907e-05,-0.71353,1.1835e-05,-1.2578,-3.6107e-05,-361.48,0.20471
553,12.334,3.0084,0,3.9898e-05,398.7,1.329e-05,-0.55162,1.2907e-05,-3.4292,-3.9965e-05,-400.69,0.18867
554,12.334,2.4119,0.05,6.4218e-07,6.4174,4.9312e-07,3.7051,7.5269e-15,1.2258e-06,-4.9312e-07,-3.7051,0.18876
555,14.16,2.4158,0,2.8933e-05,289.13,9.9538e-06,4.1295,9.237e-06,-1.256,-2.888e-05,-287.65,0.23694
556,13.557,3.0139,0,3.2283e-05,322.6,1.0904e-05,2.1055,1.0421e-05,-1.529,-3.2271e-05,-322.3,0.22069
557,13.563,2.4156,0.05,5.1835e-07,5.1799,3.9803e-07,2.9906,2.9953e-15,1.2104e-06,-3.9803e-07,-2.9906,0.22093
558,15.345,2.4163,0,2.2693e-05,226.78,8.1169e-06,6.8155,7.0427e-06,-1.2559,-2.2588e-05,-223.89,0.26924
559,14.76,3.0144,0,2.5574e-05,255.56,8.9689e-06,5.6787,8.0591e-06,-1.1571,-2.549e-05,-253.23,0.25309
560,14.758,2.416,0.05,4.7207e-07,4.7174,3.6249e-07,2.7236,3.1749e-15,1.4519e-06,-3.6249e-07,-2.7236,0.25315
561,16.509,2.4173,0,1.7295e-05,172.83,6.4589e-06,8.321,5.1826e-06,-1.2685,-1.7155e-05,-169.11,0.3016
562,15.934,3.0208,0,1.9745e-05,197.32,7.2163e-06,7.6874,6.0238e-06,-1.273,-1.9621e-05,-193.96,0.28545
563,15.931,2.4167,0.05,4.0403e-07,4.0375,3.1024e-07,2.3311,1.1845e-13,1.8199e-06,-3.1024e-07,-2.3311,0.28547
564,17.657,2.4116,0,1.2693e-05,126.85,5.0218e-06,9.3316,3.607e-06,-1.2983,-1.2523e-05,-122.49,0.33399
565,17.091,3.0271,0,1.4749e-05,147.39,5.6555e-06,8.8122,4.3204e-06,-1.2192,-1.4594e-05,-143.34,0.31786
566,17.086,2.4179,0.05,3.4949e-07,3.4925,2.6837e-07,2.0164,1.1692e-13,1.8249e-06,-2.6837e-07,-2.0164,0.31783
567,18.808,2.3965,0,8.8656e-06,88.595,3.8021e-06,9.95,2.3095e-06,-1.2648,-8.6645e-06,-83.719,0.36676
568,18.233,3.0109,0,1.0552e-05,105.45,4.3341e-06,9.5787,2.8834e-06,-1.3207,-1.0369e-05,-100.9,0.35022
569,18.229,2.4053,0.05,2.9333e-07,2.9312,2.2524e-07,1.6924,1.2192e-13,2.0336e-06,-2.2524e-07,-1.6923,0.35023
570,19.962,2.3889,0,5.8046e-06,58.006,2.8079e-06,10.287,1.2738e-06,-1.2401,-5.5641e-06,-52.617,0.39986
571,19.387,2.9914,0,7.109e-06,71.041,3.2164e-06,9.9635,1.7298e-06,-1.2068,-6.8938e-06,-66.001,0.38322
572,19.387,2.3877,0.05,2.3769e-07,2.3753,1.8252e-07,1.3714,1.4409e-13,2.4789e-06,-1.8252e-07,-1.3714,0.38335
573,21.113,2.391,0,3.533e-06,35.306,2.0562e-06,10.506,4.9147e-07,-1.2505,-3.2255e-06,-29.178,0.43302
574,20.533,2.9925,0,4.4525e-06,44.494,2.3526e-06,10.258,8.1611e-07,-1.2869,-4.186e-06,-38.871,0.41617
575,20.537,2.39,0.05,1.8246e-07,1.8233,1.4011e-07,1.0527,1.1122e-13,2.6001e-06,-1.4011e-07,-1.0527,0.41641
576,21.688,2.995,0,2.5964e-06,25.946,1.7212e-06,10.435,1.7178e-07,-1.2061,-2.2353e-06,-19.292,0.44947
577,21.689,2.392,0.05,1.2132e-07,1.2124,9.316e-08,0.69997,1.4306e-13,2.5474e-06,-9.316e-08,-0.69997,0.44965
578,21.107,3.5964,0,3.5434e-06,35.41,2.0593e-06,10.5,4.9546e-07,-1.2498,-3.2366e-06,-29.291,0.43258
579,21.686,3.598,0.05,1.2049e-07,1.2041,9.2522e-08,0.69518,1.7301e-13,2.7245e-06,-9.2522e-08,-0.69518,0.44928
580,19.958,3.595,0,5.8069e-06,58.029,2.8118e-06,10.315,1.2712e-06,-1.2607,-5.5655e-06,-52.629,0.39947
581,20.529,3.5949,0.05,1.8129e-07,1.8117,1.3921e-07,1.046,1.1517e-13,2.1847e-06,-1.3921e-07,-1.046,0.4159
582,18.812,3.6059,0,8.8565e-06,88.504,3.8042e-06,10.011,2.3029e-06,-1.2689,-8.6537e-06,-83.592,0.3666
583,19.387,3.5951,0.05,2.3345e-07,2.3329,1.7926e-07,1.3469,1.1185e-13,2.2812e-06,-1.7926e-07,-1.3469,0.38307
584,17.666,3.6264,0,1.2671e-05,126.62,5.0245e-06,9.4853,3.596e-06,-1.2478,-1.2497e-05,-122.16,0.33397
585,18.237,3.6166,0.05,2.9107e-07,2.9087,2.2351e-07,1.6794,5.4621e-14,1.9481e-06,-2.2351e-07,-1.6793,0.35017
586,16.517,3.6306,0,1.7261e-05,172.49,6.4685e-06,8.5957,5.1606e-06,-1.2312,-1.7115e-05,-168.6,0.30155
587,17.096,3.6363,0.05,3.5233e-07,3.5209,2.7054e-07,2.0328,1.0997e-13,1.6541e-06,-2.7054e-07,-2.0328,0.31784
588,15.349,3.6189,0,2.2684e-05,226.68,8.1216e-06,6.9513,7.0388e-06,-1.1842,-2.2575e-05,-223.69,0.26908
589,15.937,3.625,0.05,4.1289e-07,4.126,3.1705e-07,2.3822,5.2736e-14,1.7553e-06,-3.1705e-07,-2.3822,0.28536
590,14.157,3.6125,0,2.8976e-05,289.56,9.9679e-06,4.018,9.2411e-06,-1.4429,-2.8928e-05,-288.23,0.23656
591,14.761,3.6129,0.05,4.7383e-07,4.735,3.6384e-07,2.7338,-4.3466e-15,1.4003e-06,-3.6384e-07,-2.7338,0.25295
592,12.943,3.6086,0,3.6149e-05,361.24,1.1971e-05,-0.10546,1.1848e-05,-1.0295,-3.6168e-05,-361.81,0.20429
593,13.552,3.6122,0.05,5.1899e-07,5.1863,3.9852e-07,2.9943,1.1037e-13,1.1557e-06,-3.9852e-07,-2.9943,0.22036
594,11.708,3.601,0,4.3988e-05,439.58,1.4701e-05,-2.3721,1.3984e-05,-7.7611,-4.4158e-05,-444.62,0.17258
595,12.334,3.6049,0.05,6.2639e-07,6.2596,4.8099e-07,3.614,-5.225e-15,9.4482e-07,-4.8099e-07,-3.614,0.18848
596,10.449,3.5962,0,5.293e-05,528.93,1.8441e-05,-0.67275,1.5735e-05,-21.006,-5.3269e-05,-539.48,0.1416
597,9.815,3.5954,0.05,7.0156e-08,0.70107,5.3871e-08,0.40477,2.3103e-14,4.3437e-07,-5.3871e-08,-0.40476,0.12661
598,11.083,3.5971,0.05,4.1675e-07,4.1646,3.2001e-07,2.4045,3.7793e-15,8.6246e-07,-3.2001e-07,-2.4045,0.15701
599,7.1609,4.2084,0.05,6.587e-06,65.825,5.058e-06,38.004,1.4726e-14,4.9368e-08,-5.058e-06,-38.004,0.069142
600,6.4038,4.1042,0,0.00015764,1575.3,5.1053e-05,-133.53,4.1332e-05,-206.56,-0.0001633,-1744.1,0.054952
601,4.7913,0.99947,0.05,7.932e-07,7.9265,6.0908e-07,4.5764,-1.2919e-22,-1.9722e-06,-6.0908e-07,-4.5764,0.029283
602,5.1356,0.99973,0,8.9545e-05,894.83,4.8015e-05,212,1.5535e-05,-32.051,-8.395e-05,-779.54,0.033332
603,4.7792,2.6426,0,0.0001452,1451,5.6092e-05,131.08,4.5972e-05,55.043,-0.00014188,-1356.4,0.030813
604,4.6187,2.2058,0.05,7.5449e-06,75.397,5.7935e-06,43.53,3.352e-13,1.1676e-06,-5.7935e-06,-43.53,0.028622
605,5.0493,2.1029,0,0.0002192,2190.4,8.9888e-05,93.805,4.9926e-05,-206.45,-0.00021956,-2231.3,0.034021
606,4.8817,5.0356,0.05,1.0755e-06,10.748,8.2587e-07,6.2052,8.7434e-13,2.211e-06,-8.2587e-07,-6.2052,0.02992
607,5.1809,5.0178,0,8.888e-05,888.18,5.1008e-05,251.13,1.2524e-05,-38.023,-8.1649e-05,-745.6,0.03344
608,4.1478,4.1364,0.05,1.0645e-05,106.38,8.1742e-06,61.418,4.0998e-13,5.732e-07,-8.1742e-06,-61.418,0.022898
609,4.8139,4.0682,0,0.00018601,1858.8,6.6721e-05,-65.911,4.5918e-05,-222.22,-0.00019042,-1998,0.030601
610,6.5302,1.0546,0,6.8712e-05,686.65,3.0253e-05,95.294,1.8205e-05,4.7661,-6.6561e-05,-632.13,0.0572
611,6.3424,0.89258,0.05,1.1516e-06,11.508,8.8429e-07,6.6442,-2.7007e-14,-4.52e-15,-8.8429e-07,-6.6442,0.053499
612,5.9946,0.94629,0,6.9709e-05,696.61,3.7733e-05,167.05,1.1551e-05,-29.675,-6.5255e-05,-606.77,0.047108
613,6.7179,1.2167,0.05,1.0197e-05,101.9,7.8297e-06,58.83,-9.2656e-14,-6.2368e-06,-7.8297e-06,-58.83,0.060862
614,6.1823,1.3583,0,8.9191e-05,891.3,4.3815e-05,192.29,2.1716e-05,26.248,-8.4305e-05,-770.35,0.051029
615,5.8692,2.4528,0,0.0001433,1432,8.2051e-05,488.05,2.9608e-05,94.008,-0.00012927,-1099.8,0.046613
616,5.361,2.8467,0,0.00016292,1628.1,8.4767e-05,386.04,3.3716e-05,2.4604,-0.00015288,-1399.6,0.038869
617,5.7822,2.614,0.05,2.7828e-05,278.09,2.1368e-05,160.55,2.9523e-13,1.2383e-06,-2.1368e-05,-160.55,0.045271
618,5.6311,2.307,0,0.00022951,2293.5,0.00011305,307.33,3.5971e-05,-271.8,-0.00022335,-2220.2,0.042664
619,5.9562,2.2916,0.05,7.4963e-06,74.911,5.7562e-06,43.25,-4.4394e-13,3.2242e-06,-5.7562e-06,-43.25,0.047948
620,5.8014,2.1458,0,0.00018519,1850.6,7.8185e-05,80.583,3.8037e-05,-221.07,-0.00018573,-1902.4,0.045245
621,4.9398,3.0795,0.05,6.3598e-06,63.555,4.8836e-06,36.693,-9.6341e-14,2.1557e-06,-4.8836e-06,-36.693,0.032937
622,5.2099,3.5397,0,0.00020558,2054.3,8.408e-05,126.23,5.098e-05,-122.48,-0.00020438,-2041.1,0.036371
623,7.5054,2.9697,0.05,5.4095e-06,54.058,4.1538e-06,31.21,-2.1237e-13,-1.6488e-06,-4.1538e-06,-31.21,0.076528
624,7.9109,2.6993,0.1,8.1613e-05,815.56,8.2703e-05,873.66,-1.2735e-05,156.57,-3.5377e-05,-13.55,0.084857
625,7.0974,2.8841,0.1,0.00010438,1043.1,0.00010524,1083,-2.2927e-05,119.99,-4.2233e-05,-25.064,0.068536
626,7.4651,3.283,0.1,9.2292e-05,922.29,9.3943e-05,993.28,-1.6071e-05,166.68,-3.8458e-05,-1.5328,0.075646
627,5.361,2.8467,0.1,0.00016292,1628.1,0.00015288,1399.6,-3.3716e-05,-2.4604,-8.4767e-05,-386.04,0.038869
628,4.7792,2.6426,0.1,0.0001452,1451,0.00014188,1356.4,-4.5972e-05,-55.043,-5.6092e-05,-131.08,0.030813
629,4.3486,3.1753,0.1,0.00014327,1431.7,0.00014167,1385.3,-4.705e-05,-32.734,-5.0637e-05,-59.69,0.025589
630,5.5949,3.205,0.1,0.00013889,1387.9,0.00013542,1287.2,-4.5852e-05,-74.804,-5.2579e-05,-125.35,0.042287
631,5.2099,3.5397,0.1,0.00020558,2054.3,0.00020438,2041.1,-5.098e-05,122.48,-8.408e-05,-126.23,0.036371
632,5.8692,2.4528,0.1,0.0001433,1432,0.00012927,1099.8,-2.9608e-05,-94.008,-8.2051e-05,-488.05,0.046613
633,6.5766,2.2254,0.1,0.0001077,1076.2,0.00010227,921.48,-3.5064e-05,-110.39,-4.6215e-05,-194.18,0.058791
634,5.8014,2.1458,0.1,0.00018519,1850.6,0.00018573,1902.4,-3.8037e-05,221.07,-7.8185e-05,-80.583,0.045245
635,6.2358,2.7063,0.1,0.0001406,1405,0.00013489,1287.6,-2.8002e-05,63.688,-6.9303e-05,-246.64,0.052857
636,5.6311,2.307,0.1,0.00022951,2293.5,0.00022335,2220.2,-3.5971e-05,271.8,-0.00011305,-307.33,0.042664
637,6.5302,1.0546,0.1,6.8712e-05,686.65,6.6561e-05,632.13,-1.8205e-05,-4.7661,-3.0253e-05,-95.294,0.0572
638,7.158,0.95217,0.1,7.5774e-05,757.22,7.4893e-05,733.83,-2.2325e-05,3.363,-2.9105e-05,-47.578,0.06925
639,6.9305,1.4327,0.1,8.4027e-05,839.69,8.4049e-05,847.79,-2.1036e-05,58.222,-3.3356e-05,-34.347,0.065089
640,6.1823,1.3583,0.1,8.9191e-05,891.3,8.4305e-05,770.35,-2.1716e-05,-26.248,-4.3815e-05,-192.29,0.051029
641,6.4537,0.68642,0.1,5.6452e-05,564.14,5.4135e-05,507.67,-1.3844e-05,-3.096,-2.6452e-05,-97.831,0.055402
642,5.9946,0.94629,0.1,6.9709e-05,696.61,6.5255e-05,606.77,-1.1551e-05,29.675,-3.7733e-05,-167.05,0.047108
643,3.4792,4.4208,0.1,0.00011795,1178.7,0.00012152,1292.1,-2.7033e-05,175.92,-4.2516e-05,59.588,0.01614
644,4.3813,4.4041,0.1,0.00011707,1169.9,0.00011686,1179.7,-2.7061e-05,98.378,-4.8427e-05,-62.157,0.025186
645,3.9526,3.7038,0.1,0.00012297,1228.9,0.00012595,1328.8,-2.7078e-05,179.04,-4.6419e-05,33.72,0.021117
646,4.8139,4.0682,0.1,0.00018601,1858.8,0.00019042,1998,-4.5918e-05,222.22,-6.6721e-05,65.911,0.030601
647,4.7874,5.2188,0.1,7.7937e-05,778.84,7.3415e-05,675.94,-1.6312e-05,1.7732,-4.0053e-05,-176.61,0.028539
648,4.7482,4.8537,0.1,9.2095e-05,920.32,8.8202e-05,821.74,-2.3795e-05,-19.756,-4.26e-05,-161.05,0.028718
649,5.1809,5.0178,0.1,8.888e-05,888.18,8.1649e-05,745.6,-1.2524e-05,38.023,-5.1008e-05,-251.13,0.03344
650,4.0662,2.2226,0.1,0.00013136,1312.7,0.00013149,1326.8,-3.3373e-05,88.147,-5.1641e-05,-49.117,0.02231
651,4.608,1.8167,0.1,0.00012774,1276.5,0.00012497,1206.1,-3.4911e-05,4.8443,-5.3427e-05,-134.27,0.028199
652,5.0493,2.1029,0.1,0.0002192,2190.4,0.00021956,2231.3,-4.9926e-05,206.45,-8.9888e-05,-93.805,0.034021
653,4.6943,1.2135,0.1,9.4309e-05,942.44,8.903e-05,815.39,-2.1826e-05,-17.542,-4.7121e-05,-207.6,0.028508
654,4.6307,0.78351,0.1,8.2747e-05,826.89,7.7433e-05,699.39,-1.8702e-05,-22.932,-4.2607e-05,-202.55,0.027129
655,5.1356,0.99973,0.1,8.9545e-05,894.83,8.395e-05,779.54,-1.5535e-05,32.051,-4.8015e-05,-212,0.033332
656,7.7979,4.4841,0.1,7.5461e-05,754.09,7.7575e-05,821.23,-1.7657e-05,105.69,-2.7232e-05,33.748,0.081766
657,6.9524,4.4672,0.1,8.6862e-05,868.02,8.7464e-05,899.6,-1.8573e-05,102.87,-3.5649e-05,-25.432,0.064872
658,7.2928,3.9023,0.1,8.7601e-05,875.4,9.0912e-05,979.85,-1.8953e-05,154.38,-3.1263e-05,61.877,0.071945
659,6.4038,4.1042,0.1,0.00015764,1575.3,0.0001633,1744.1,-4.1332e-05,206.56,-5.1053e-05,133.53,0.054952
660,10.449,3.5962,0.1,5.293e-05,528.93,5.3269e-05,539.48,-1.5735e-05,21.006,-1.8441e-05,0.67275,0.1416
661,11.708,3.601,0.1,4.3988e-05,439.58,4.4158e-05,444.62,-1.3984e-05,7.7611,-1.4701e-05,2.3721,0.17258
662,11.077,3.0033,0.1,4.8223e-05,481.89,4.8497e-05,490.14,-1.4882e-05,13.936,-1.6371e-05,2.7445,0.15705
663,11.135,4.1914,0.1,4.7913e-05,478.8,4.8167e-05,486.32,-1.5182e-05,10.336,-1.5926e-05,4.75,0.15798
664,9.7939,2.9967,0.1,5.7855e-05,578.15,5.8272e-05,591.6,-1.6557e-05,29.365,-2.0631e-05,-1.2463,0.12633
665,9.2387,3.6045,0.1,6.2195e-05,621.52,6.2983e-05,647.52,-1.6262e-05,52.107,-2.2821e-05,2.8273,0.11341
666,9.8747,4.1945,0.1,5.7984e-05,579.44,5.8276e-05,589.53,-1.6438e-05,28.16,-2.1041e-05,-6.4273,0.1277
667,12.943,3.6086,0.1,3.6149e-05,361.24,3.6168e-05,361.81,-1.1848e-05,1.0295,-1.1971e-05,0.10547,0.20429
668,12.334,3.0084,0.1,3.9898e-05,398.7,3.9965e-05,400.69,-1.2907e-05,3.4292,-1.329e-05,0.55162,0.18867
669,12.368,4.1982,0.1,3.9856e-05,398.28,3.9875e-05,398.84,-1.3e-05,1.5642,-1.3266e-05,-0.43674,0.18909
670,14.157,3.6125,0.1,2.8976e-05,289.56,2.8928e-05,288.23,-9.2411e-06,1.4429,-9.9679e-06,-4.018,0.23656
671,13.557,3.0139,0.1,3.2283e-05,322.6,3.2271e-05,322.3,-1.0421e-05,1.529,-1.0904e-05,-2.1055,0.22069
672,13.576,4.2045,0.1,3.2258e-05,322.36,3.224e-05,321.85,-1.0412e-05,1.3784,-1.0911e-05,-2.3675,0.22075
673,15.349,3.6189,0.1,2.2684e-05,226.68,2.2575e-05,223.69,-7.0388e-06,1.1842,-8.1216e-06,-6.9513,0.26908
674,14.76,3.0144,0.1,2.5574e-05,255.56,2.549e-05,253.23,-8.0591e-06,1.1571,-8.9689e-06,-5.6787,0.25309
675,14.769,4.2075,0.1,2.5569e-05,255.51,2.5486e-05,253.19,-8.0877e-06,0.92905,-8.938e-06,-5.46,0.25293
676,16.517,3.6306,0.1,1.7261e-05,172.49,1.7115e-05,168.6,-5.1606e-06,1.2312,-6.4685e-06,-8.5957,0.30155
677,15.934,3.0208,0.1,1.9745e-05,197.32,1.9621e-05,193.96,-6.0238e-06,1.273,-7.2163e-06,-7.6874,0.28545
678,15.94,4.2173,0.1,1.9724e-05,197.11,1.9606e-05,193.87,-6.0637e-06,1.0022,-7.1573e-06,-7.215,0.28523
679,17.666,3.6264,0.1,1.2671e-05,126.62,1.2497e-05,122.16,-3.596e-06,1.2478,-5.0245e-06,-9.4853,0.33397
680,17.091,3.0271,0.1,1.4749e-05,147.39,1.4594e-05,143.34,-4.3204e-06,1.2192,-5.6555e-06,-8.8122,0.31786
681,17.098,4.2251,0.1,1.4711e-05,147.01,1.4565e-05,143.14,-4.3612e-06,0.93787,-5.5822e-06,-8.2365,0.31769
682,18.812,3.6059,0.1,8.8565e-06,88.504,8.6537e-06,83.592,-2.3029e-06,1.2689,-3.8042e-06,-10.011,0.3666
683,18.233,3.0109,0.1,1.0552e-05,105.45,1.0369e-05,100.9,-2.8834e-06,1.3207,-4.334e-06,-9.5787,0.35022
684,18.249,4.217,0.1,1.0488e-05,104.81,1.0322e-05,100.56,-2.9409e-06,0.90941,-4.226e-06,-8.7459,0.35033
685,19.958,3.595,0.1,5.8069e-06,58.029,5.5655e-06,52.629,-1.2712e-06,1.2607,-2.8118e-06,-10.315,0.39947
686,19.387,2.9914,0.1,7.109e-06,71.041,6.8938e-06,66.001,-1.7298e-06,1.2068,-3.2164e-06,-9.9635,0.38322
687,19.389,4.1954,0.1,7.0484e-06,70.436,6.8552e-06,65.807,-1.7774e-06,0.94494,-3.117e-06,-9.1204,0.38297
688,21.107,3.5964,0.1,3.5434e-06,35.41,3.2366e-06,29.291,-4.9546e-07,1.2498,-2.0593e-06,-10.5,0.43258
689,20.533,2.9925,0.1,4.4525e-06,44.494,4.186e-06,38.871,-8.1611e-07,1.2869,-2.3526e-06,-10.258,0.41617
690,20.535,4.1953,0.1,4.3776e-06,43.746,4.1473e-06,38.707,-8.8107e-07,0.9258,-2.2315e-06,-9.2209,0.41592
691,21.688,2.995,0.1,2.5964e-06,25.946,2.2353e-06,19.292,-1.7178e-07,1.2061,-1.7212e-06,-10.435,0.44947
692,21.688,4.2026,0.1,2.4804e-06,24.786,2.1814e-06,19.083,-2.353e-07,0.92454,-1.5769e-06,-9.1557,0.44919
693,22.265,3.599,0.1,2.0756e-06,20.741,1.6463e-06,13.372,3.2323e-08,1.2455,-1.5412e-06,-10.577,0.466
694,21.113,2.391,0.1,3.533e-06,35.306,3.2255e-06,29.178,-4.9147e-07,1.2505,-2.0562e-06,-10.506,0.43302
695,22.266,2.3932,0.1,2.0731e-06,20.717,1.6428e-06,13.334,3.3812e-08,1.2441,-1.5409e-06,-10.587,0.46632
696,21.695,1.7926,0.1,2.4713e-06,24.696,2.17e-06,18.953,-2.3089e-07,0.91371,-1.576e-06,-9.1927,0.44993
697,19.962,2.3889,0.1,5.8046e-06,58.006,5.5641e-06,52.617,-1.2738e-06,1.2401,-2.8079e-06,-10.287,0.39986
698,20.544,1.7923,0.1,4.3612e-06,43.582,4.1312e-06,38.56,-8.7449e-07,0.94947,-2.2255e-06,-9.2018,0.41672
699,18.808,2.3965,0.1,8.8656e-06,88.595,8.6645e-06,83.719,-2.3095e-06,1.2648,-3.8021e-06,-9.95,0.36676
700,19.392,1.7892,0.1,7.0548e-06,70.5,6.863e-06,65.891,-1.7863e-06,0.9027,-3.1124e-06,-9.0606,0.38361
701,17.657,2.4116,0.1,1.2693e-05,126.85,1.2523e-05,122.49,-3.607e-06,1.2983,-5.0218e-06,-9.3316,0.33399
702,18.239,1.8048,0.1,1.0506e-05,104.98,1.0338e-05,100.71,-2.9382e-06,0.95854,-4.2406e-06,-8.8273,0.35061
703,16.509,2.4173,0.1,1.7295e-05,172.83,1.7155e-05,169.11,-5.1826e-06,1.2685,-6.4589e-06,-8.321,0.3016
704,17.096,1.8131,0.1,1.472e-05,147.09,1.4576e-05,143.28,-4.3659e-06,0.95908,-5.5801e-06,-8.1639,0.31818
705,15.345,2.4163,0.1,2.2693e-05,226.78,2.2588e-05,223.89,-7.0427e-06,1.2559,-8.1169e-06,-6.8155,0.26924
706,15.941,1.8123,0.1,1.9723e-05,197.09,1.9606e-05,193.9,-6.0716e-06,0.96943,-7.146e-06,-7.1036,0.2858
707,14.16,2.4158,0.1,2.8933e-05,289.13,2.888e-05,287.65,-9.237e-06,1.256,-9.9538e-06,-4.1295,0.23694
708,14.765,1.8124,0.1,2.5551e-05,255.33,2.5469e-05,253.06,-8.0666e-06,1.0852,-8.9428e-06,-5.4978,0.25339
709,12.948,2.4137,0.1,3.6074e-05,360.49,3.6107e-05,361.48,-1.1835e-05,1.2578,-1.1907e-05,0.71353,0.20471
710,13.583,1.818,0.1,3.2205e-05,321.83,3.2177e-05,321.03,-1.0431e-05,0.8924,-1.0877e-05,-2.459,0.22149
711,11.703,2.4107,0.1,4.4163e-05,441.32,4.4332e-05,446.42,-1.3833e-05,9.3899,-1.496e-05,0.92304,0.1727
712,12.366,1.8132,0.1,3.9752e-05,397.25,3.982e-05,399.24,-1.2915e-05,3.0166,-1.3186e-05,0.98017,0.18959
713,10.422,2.4038,0.1,5.3145e-05,531.08,5.3505e-05,542.3,-1.5707e-05,22.27,-1.8562e-05,0.81357,0.14123
714,11.125,1.8155,0.1,4.8342e-05,483.09,4.8561e-05,489.75,-1.4901e-05,12.916,-1.6536e-05,0.63684,0.15829
715,9.0446,2.4135,0.1,6.3528e-05,634.84,6.4898e-05,678.81,-1.5561e-05,74.276,-2.312e-05,17.483,0.10934
716,9.8325,1.8148,0.1,5.7926e-05,578.86,5.827e-05,589.86,-1.6943e-05,24.741,-2.0478e-05,-1.8171,0.12727
717,8.4894,3.0213,0.1,6.7897e-05,678.5,6.9601e-05,734.68,-1.5276e-05,96.943,-2.5293e-05,21.682,0.097058
718,8.4143,1.8117,0.1,6.8059e-05,680.12,6.9596e-05,728.02,-1.7382e-05,74.498,-2.409e-05,24.1,0.095483
719,7.7568,2.2941,0.1,8.2745e-05,826.88,8.4864e-05,896.34,-1.8698e-05,118.21,-3.0693e-05,28.083,0.081711
720,8.5487,4.1868,0.1,6.6517e-05,664.72,6.7486e-05,695.54,-1.7741e-05,55.181,-2.3901e-05,8.8938,0.097841
721,8.0436,3.6049,0.1,7.856e-05,785.06,8.0711e-05,853.33,-1.8521e-05,107.74,-2.8335e-05,33.992,0.08739
722,2.4659,2.892,0.1,0.00012198,1219,0.00012701,1406.5,-1.5399e-05,336.49,-4.9603e-05,79.496,0.0084681
723,1.8184,2.3392,0.1,0.00013484,1347.4,0.00013303,1401.1,-9.7214e-06,328.46,-6.8254e-05,-111.33,0.0046101
724,2.3676,1.7237,0.1,0.00012417,1240.8,0.00012861,1398.1,-2.0563e-05,277.25,-4.8844e-05,64.753,0.0076163
725,2.9608,2.2685,0.1,0.00012387,1237.8,0.00012662,1358.5,-1.812e-05,271.03,-5.2663e-05,11.486,0.012035
726,1.9069,3.5345,0.1,0.00013444,1343.5,0.00013269,1393.2,-1.0678e-05,316.07,-6.7667e-05,-112.13,0.0050697
727,2.6673,4.0958,0.1,0.00011981,1197.2,0.00012392,1341.9,-2.063e-05,255.86,-4.6946e-05,58.126,0.0096925
728,3.1407,3.3788,0.1,0.00012611,1260.2,0.00012941,1386.6,-2.1324e-05,254.1,-5.127e-05,29.097,0.013577
729,8.0097,5.0243,0.1,6.6639e-05,665.93,6.7217e-05,683.16,-2.0425e-05,24.652,-2.2368e-05,10.05,0.085687
730,7.0656,5.3744,0.1,6.26e-05,625.57,6.2002e-05,609.7,-1.858e-05,4.2422,-2.3697e-05,-34.211,0.066081
731,7.1642,5.0074,0.1,7.7433e-05,773.8,7.6759e-05,758.91,-2.1073e-05,23.844,-3.0705e-05,-48.528,0.068475
732,7.7626,5.6444,0.1,6.6063e-05,660.17,6.5922e-05,656.54,-2.0464e-05,7.4754,-2.3349e-05,-14.207,0.079831
733,9.1847,4.7768,0.1,6.2357e-05,623.14,6.2824e-05,637.88,-1.8066e-05,30.107,-2.2015e-05,0.43821,0.11146
734,8.7614,5.3799,0.1,6.5611e-05,655.66,6.5439e-05,650.81,-2.0898e-05,2.1082,-2.272e-05,-11.581,0.10147
735,10.56,4.7896,0.1,5.295e-05,529.14,5.3179e-05,536.41,-1.5895e-05,17.413,-1.852e-05,-2.3106,0.14355
736,10.085,5.3968,0.1,5.7044e-05,570.05,5.7219e-05,575.94,-1.6992e-05,18.351,-2.0205e-05,-5.7904,0.13165
737,11.794,4.7886,0.1,4.3816e-05,437.86,4.3915e-05,440.78,-1.425e-05,3.7458,-1.4469e-05,2.1001,0.17406
738,11.284,5.3928,0.1,4.7964e-05,479.31,4.8032e-05,481.33,-1.5536e-05,3.708,-1.5982e-05,0.35392,0.16077
739,13.001,4.7942,0.1,3.6009e-05,359.84,3.5986e-05,359.19,-1.1784e-05,0.26091,-1.2026e-05,-1.562,0.2052
740,12.465,5.3958,0.1,3.9569e-05,395.41,3.9496e-05,393.33,-1.2826e-05,0.19299,-1.3428e-05,-4.3289,0.19078
741,14.188,4.7995,0.1,2.8905e-05,288.85,2.8846e-05,287.17,-9.2584e-06,0.86769,-9.9294e-06,-4.1738,0.23685
742,13.638,5.3984,0.1,3.2138e-05,321.16,3.2043e-05,318.45,-1.0284e-05,0.42311,-1.1106e-05,-5.755,0.22166
743,15.36,4.8059,0.1,2.2668e-05,226.53,2.2569e-05,223.76,-7.1117e-06,0.75285,-8.027e-06,-6.124,0.26887
744,14.8,5.401,0.1,2.552e-05,255.02,2.5394e-05,251.5,-8.0299e-06,0.36164,-9.0416e-06,-7.2396,0.25312
745,16.522,4.8118,0.1,1.7238e-05,172.27,1.7113e-05,168.84,-5.2634e-06,0.7159,-6.3283e-06,-7.2858,0.30122
746,15.957,5.4049,0.1,1.972e-05,197.07,1.9572e-05,192.96,-6.0784e-06,0.23883,-7.1981e-06,-8.174,0.28511
747,17.68,4.8157,0.1,1.2595e-05,125.87,1.2449e-05,121.98,-3.7051e-06,0.60711,-4.843e-06,-7.9428,0.33394
748,17.109,5.4069,0.1,1.4691e-05,146.81,1.4526e-05,142.36,-4.3852e-06,0.26553,-5.586e-06,-8.7564,0.31748
749,18.826,4.8066,0.1,8.7465e-06,87.404,8.5813e-06,83.211,-2.4145e-06,0.59219,-3.5979e-06,-8.2996,0.36663
750,18.263,5.4088,0.1,1.0437e-05,104.3,1.026e-05,99.667,-2.9815e-06,0.17597,-4.1824e-06,-8.8467,0.35027
751,19.967,4.7957,0.1,5.6816e-06,56.776,5.4935e-06,52.31,-1.3865e-06,0.61582,-2.594e-06,-8.4566,0.39937
752,19.402,5.3978,0.1,6.9705e-06,69.657,6.7684e-06,64.644,-1.8134e-06,0.16343,-3.0643e-06,-9.2352,0.38291
753,21.116,4.8015,0.1,3.3634e-06,33.611,3.1438e-06,28.887,-6.2011e-07,0.60656,-1.8016e-06,-8.271,0.4325
754,20.55,5.3979,0.1,4.2729e-06,42.7,4.0457e-06,37.47,-9.2682e-07,0.10912,-2.149e-06,-9.0737,0.41598
755,22.267,4.807,0.1,1.8096e-06,18.083,1.5309e-06,12.927,-1.0255e-07,0.65398,-1.233e-06,-7.8396,0.46576
756,21.698,5.4037,0.1,2.3121e-06,23.105,2.0468e-06,17.732,-2.8619e-07,0.20326,-1.4379e-06,-8.45,0.44913
757,22.844,4.2033,0.1,1.3902e-06,13.892,9.5642e-07,6.9208,1.6388e-07,0.96595,-1.1567e-06,-8.9562,0.48258
758,22.849,5.4033,0.1,1.1057e-06,11.049,7.7208e-07,5.3584,8.3626e-08,0.18567,-9.1641e-07,-7.3282,0.4824
759,23.422,4.8033,0.1,1.0227e-06,10.22,6.6099e-07,4.4764,1.5204e-07,0.65232,-8.8024e-07,-7.1038,0.49915
760,22.843,2.9973,0.1,1.5651e-06,15.641,1.0278e-06,7.2182,2.3655e-07,1.2732,-1.3335e-06,-10.523,0.48286
761,23.422,3.6,0.1,1.3988e-06,13.978,8.1872e-07,5.2168,2.9925e-07,1.3137,-1.2462e-06,-10.298,0.49945
762,22.846,1.7952,0.1,1.3887e-06,13.878,9.5352e-07,6.8809,1.6456e-07,0.95299,-1.1569e-06,-8.9762,0.48321
763,23.422,2.3972,0.1,1.3989e-06,13.979,8.1845e-07,5.2104,2.9928e-07,1.3095,-1.2465e-06,-10.305,0.49972
764,1.2595,2.9817,0.1,0.00014826,1481.6,0.00013856,1386.7,-4.8625e-06,309.08,-8.6307e-05,-302.87,0.0022362
765,1.1927,1.7867,0.1,0.00014509,1449.9,0.00013678,1362,-8.8508e-06,267.76,-8.2091e-05,-282.54,0.0019456
766,0.6145,2.3904,0.1,0.00012438,1243,0.00013887,1724.8,-2.2219e-06,664.73,-4.3204e-05,356.8,0.00053064
767,1.2961,4.1687,0.1,0.00014441,1443.1,0.00013615,1357.9,-8.474e-06,271.23,-8.1758e-05,-279.4,0.0022946
768,0.64498,3.5913,0.1,0.0001241,1240.2,0.00013861,1722.8,-2.0832e-06,665.72,-4.3091e-05,357.6,0.00058363
769,22.275,1.1946,0.1,1.8013e-06,18,1.5198e-06,12.794,-9.9002e-08,0.63116,-1.2323e-06,-7.8837,0.4668
770,23.425,1.1979,0.1,1.0204e-06,10.197,6.5706e-07,4.4283,1.5318e-07,0.64242,-8.7998e-07,-7.1204,0.50006
771,22.851,0.59793,0.1,1.1046e-06,11.039,7.6881e-07,5.3179,8.5816e-08,0.18615,-9.1752e-07,-7.3525,0.48357
772,21.125,1.1939,0.1,3.3472e-06,33.449,3.1269e-06,28.719,-6.1312e-07,0.61866,-1.7972e-06,-8.2782,0.4336
773,21.703,0.59665,0.1,2.3014e-06,22.998,2.0365e-06,17.63,-2.8464e-07,0.19048,-1.4324e-06,-8.4335,0.45038
774,19.974,1.1926,0.1,5.6721e-06,56.682,5.4856e-06,52.251,-1.3863e-06,0.61792,-2.5863e-06,-8.3987,0.40041
775,20.555,0.59728,0.1,4.2573e-06,42.543,4.0338e-06,37.409,-9.2394e-07,0.15781,-2.1363e-06,-8.9514,0.41721
776,18.823,1.1975,0.1,8.7609e-06,87.548,8.5939e-06,83.314,-2.4144e-06,0.60154,-3.6095e-06,-8.378,0.36737
777,19.405,0.59536,0.1,6.9843e-06,69.795,6.7836e-06,64.812,-1.8204e-06,0.16528,-3.0651e-06,-9.187,0.3841
778,17.677,1.2063,0.1,1.26e-05,125.91,1.245e-05,121.94,-3.6965e-06,0.62348,-4.859e-06,-8.1107,0.33468
779,18.257,0.60214,0.1,1.0454e-05,104.47,1.0269e-05,99.639,-2.9727e-06,0.14574,-4.2135e-06,-9.1768,0.35122
780,16.528,1.2081,0.1,1.7214e-05,172.02,1.7086e-05,168.52,-5.2543e-06,0.66415,-6.3267e-06,-7.3934,0.30223
781,17.111,0.60412,0.1,1.4677e-05,146.67,1.4512e-05,142.22,-4.3868e-06,0.22291,-5.5751e-06,-8.7058,0.31866
782,15.362,1.2084,0.1,2.2642e-05,226.26,2.2542e-05,223.48,-7.0947e-06,0.80424,-8.0269e-06,-6.1997,0.26975
783,15.96,0.604,0.1,1.9693e-05,196.8,1.9547e-05,192.75,-6.0781e-06,0.21058,-7.1776e-06,-8.0507,0.28632
784,14.188,1.2146,0.1,2.8875e-05,288.56,2.8814e-05,286.8,-9.2598e-06,0.72754,-9.9137e-06,-4.1856,0.23768
785,14.798,0.60439,0.1,2.5511e-05,254.94,2.5383e-05,251.35,-8.0132e-06,0.42343,-9.0561e-06,-7.413,0.25418
786,13.001,1.2175,0.1,3.5922e-05,358.97,3.5925e-05,359.07,-1.1746e-05,0.88443,-1.1956e-05,-0.69233,0.20603
787,13.64,0.61023,0.1,3.2115e-05,320.93,3.2018e-05,318.15,-1.0288e-05,0.28318,-1.1091e-05,-5.7476,0.22282
788,11.789,1.218,0.1,4.3957e-05,439.27,4.4074e-05,442.76,-1.4018e-05,6.278,-1.4752e-05,0.76456,0.17476
789,12.464,0.60726,0.1,3.9505e-05,394.78,3.9463e-05,393.58,-1.2762e-05,1.1806,-1.339e-05,-3.5376,0.19184
790,10.536,1.2264,0.1,5.3151e-05,531.14,5.3354e-05,537.53,-1.6169e-05,15.156,-1.8449e-05,-1.9776,0.14379
791,11.281,0.61071,0.1,4.7833e-05,478,4.793e-05,480.85,-1.5566e-05,3.7604,-1.581e-05,1.9333,0.16178
792,9.2022,1.213,0.1,6.2554e-05,625.11,6.3029e-05,639.53,-1.8816e-05,24.573,-2.1457e-05,4.731,0.11266
793,10.064,0.61573,0.1,5.7097e-05,570.58,5.717e-05,572.94,-1.7863e-05,9.1714,-1.9644e-05,-4.2087,0.13225
794,8.0551,0.94109,0.1,6.7525e-05,674.78,6.7965e-05,688.12,-2.0561e-05,22.961,-2.3071e-05,4.1063,0.087534
795,7.8276,1.4216,0.1,7.5559e-05,755.07,7.6991e-05,801.1,-1.8981e-05,80.006,-2.7483e-05,16.125,0.083017
796,8.8,0.59725,0.1,6.6201e-05,661.55,6.6097e-05,658.57,-2.1472e-05,0.60815,-2.242e-05,-6.5204,0.10338
797,7.0815,0.58397,0.1,6.1865e-05,618.22,6.1213e-05,599.94,-1.9197e-05,-4.2275,-2.2817e-05,-31.426,0.067452
798,7.7695,0.34384,0.1,6.7066e-05,670.2,6.6799e-05,662.77,-2.1083e-05,2.4582,-2.3658e-05,-16.892,0.081159
799,1.7418,1.1713,0.1,0.00013386,1337.7,0.00013278,1362.2,-2.0109e-05,213.42,-6.2689e-05,-106.51,0.0039581
800,2.9729,1.1105,0.1,0.00011901,1189.3,0.00012085,1250.7,-2.9697e-05,119.53,-4.4167e-05,10.816,0.011574
801,2.2596,0.57496,0.1,0.00013403,1339.3,0.00013695,1432.2,-3.3328e-05,152.8,-4.8332e-05,40.064,0.0062729
802,0.57822,1.1963,0.1,0.00011886,1187.8,0.00013313,1645.7,-5.6961e-06,602.63,-3.8932e-05,352.91,0.00044134
803,1.1262,0.5963,0.1,0.00014098,1408.8,0.000136,1335.8,-2.1581e-05,151.81,-7.1365e-05,-222.24,0.001489
804,2.0564,4.73,0.1,0.00012912,1290.3,0.00012787,1310.2,-1.9011e-05,206.62,-6.0942e-05,-108.43,0.0055569
805,0.65109,4.7774,0.1,0.0001185,1184.2,0.00013287,1645.2,-5.489e-06,605.61,-3.8683e-05,356.21,0.00055859
806,1.1991,5.3774,0.1,0.00013938,1392.9,0.00013421,1310,-2.2404e-05,133.19,-7.0463e-05,-227.9,0.0017108
807,3.3058,4.9522,0.1,0.00011002,1099.4,0.00011168,1151.9,-2.9565e-05,90.63,-3.9229e-05,18.019,0.014186
808,2.5013,5.3526,0.1,0.00013056,1304.7,0.00013238,1358.8,-3.8958e-05,71.407,-4.3493e-05,37.329,0.0077892
809,4.2471,5.3006,0.1,9.0869e-05,908.06,8.9606e-05,874.01,-2.6929e-05,-1.5895,-3.5149e-05,-63.35,0.022599
810,4.2079,4.9356,0.1,0.00010844,1083.6,0.00010659,1036.3,-3.0376e-05,7.2092,-4.3928e-05,-94.612,0.02271
811,3.5445,5.5997,0.1,0.00010721,1071.3,0.00010709,1068.2,-3.3889e-05,8.9799,-3.7051e-05,-14.778,0.015457
812,3.5661,1.6552,0.1,0.00011789,1178,0.00011833,1207.2,-2.6663e-05,117.76,-4.8052e-05,-42.95,0.017032
813,3.6356,2.7552,0.1,0.0001279,1278.2,0.00012898,1338.4,-2.4322e-05,186.56,-5.4022e-05,-36.592,0.018028
814,4.108,1.2493,0.1,0.00011299,1129.2,0.00011105,1080.8,-3.0963e-05,13.701,-4.6311e-05,-101.62,0.022088
815,4.0443,0.8193,0.1,9.9915e-05,998.46,9.8441e-05,957.13,-3.083e-05,-14.161,-3.7789e-05,-66.45,0.020933
816,3.4533,0.53553,0.1,0.00011518,1151.1,0.00011479,1139.7,-3.7283e-05,-2.9071,-3.9497e-05,-19.541,0.014974
817,6.4506,5.2636,0.1,6.1606e-05,615.63,5.9527e-05,564.38,-1.5672e-05,-0.63604,-2.7795e-05,-91.721,0.054341
818,6.0967,5.48,0.1,4.5038e-05,450.07,4.6476e-05,492.92,-1.211e-05,52.735,-1.4658e-05,33.586,0.047318
819,6.6702,5.73,0.1,5.5836e-05,557.98,5.5097e-05,538.84,-1.6021e-05,4.4855,-2.1954e-05,-40.091,0.057848
820,5.0866,5.451,0.1,5.4641e-05,546.03,5.5871e-05,582.71,-1.5472e-05,46.663,-1.806e-05,27.215,0.03144
821,4.5386,5.701,0.1,7.6346e-05,762.94,7.6197e-05,760.51,-2.2183e-05,21.319,-2.8234e-05,-24.144,0.024951
822,5.0387,1.4638,0.1,0.000132,1319.1,0.0001224,1108.2,-2.4538e-05,4.1152,-7.2018e-05,-352.63,0.033008
823,6.4697,3.0645,0.1,0.00011956,1194.7,0.00011928,1189.2,-3.5274e-05,27.889,-4.3839e-05,-36.465,0.056872
824,6.9432,2.4789,0.1,0.00010663,1065.6,0.00010796,1109.9,-2.7662e-05,90.858,-3.934e-05,3.1123,0.065645
825,6.5492,4.8966,0.1,7.4666e-05,746.14,7.2918e-05,703.33,-1.9576e-05,8.3643,-3.2025e-05,-85.175,0.056709
826,6.0006,5.0336,0.1,8.0238e-05,801.82,7.5828e-05,710.5,-1.4681e-05,30.454,-4.1845e-05,-173.65,0.046304
827,6.1953,4.613,0.1,9.8175e-05,981.07,9.3355e-05,859.16,-2.5032e-05,-30.347,-4.6694e-05,-193.11,0.050531
828,5.0474,4.5859,0.1,0.00012936,1292.7,0.00012028,1081.8,-2.7029e-05,-24.977,-6.8824e-05,-339.01,0.032694
829,6.1058,0.49013,0.1,4.1821e-05,417.92,4.3169e-05,458.02,-1.1326e-05,48.565,-1.3515e-05,32.122,0.048599
830,6.6793,0.24013,0.1,5.3817e-05,537.8,5.3309e-05,524.83,-1.5603e-05,7.0577,-2.0664e-05,-30.968,0.05925
831,4.975,0.53377,0.1,6.4307e-05,642.62,6.5497e-05,679.17,-1.7452e-05,55.928,-2.2396e-05,18.782,0.030545
832,4.427,0.28377,0.1,8.1643e-05,815.87,8.0083e-05,781.86,-2.0033e-05,29.627,-3.5347e-05,-85.438,0.024061
833,6.8374,3.4634,0.1,0.00010784,1077.6,0.00010864,1104.4,-3.0102e-05,61.923,-3.9037e-05,-5.214,0.063412
834,7.1701,1.904,0.1,9.0721e-05,906.58,9.2785e-05,973.37,-2.1648e-05,113.56,-3.326e-05,26.313,0.069916
835,6.3949,1.8243,0.1,0.00016409,1639.7,0.00017401,1937.5,-3.6024e-05,359.35,-5.1594e-05,242.36,0.055286
836,5.9483,3.6653,0.1,0.00017795,1778.3,0.00018078,1866.8,-4.8025e-05,147.6,-6.304e-05,34.778,0.047511
837,5.6467,5.25,0.1,7.1617e-05,715.67,7.0013e-05,693.42,-1.3172e-05,68.393,-3.3891e-05,-87.283,0.039372
838,5.6467,5.75,0.1,3.1987e-05,319.65,3.4477e-05,418.13,6.1207e-07,163.68,-1.3275e-05,59.341,0.038393
839,5.6467,5.5,0.05,4.9513e-06,49.479,3.802e-06,28.567,-8.0646e-22,-6.0594e-15,-3.802e-06,-28.567,0.03886
840,5.6467,4.75,0.1,0.00011721,1171.3,0.00010686,945.92,-2.0116e-05,-8.1068,-6.7126e-05,-361.32,0.040475
841,5.6467,5,0.05,2.5841e-05,258.23,1.9842e-05,149.09,4.4771e-13,-3.1624e-14,-1.9842e-05,-149.09,0.039888
842,5.6467,4.25,0.1,0.00017425,1741.3,0.00017277,1730.5,-3.8134e-05,145.91,-7.5338e-05,-133.63,0.041572
843,5.6467,4.5,0.05,8.3308e-06,83.25,6.397e-06,48.065,5.4391e-13,-1.0195e-14,-6.397e-06,-48.065,0.041008
844,5.5633,4,0.1,0.00021222,2120.7,0.00022154,2408.8,-4.6262e-05,396.65,-7.3222e-05,194.08,0.040781
845,5.6467,4,0.05,3.8165e-05,381.38,2.9306e-05,220.19,-2.4917e-12,-1.9265e-06,-2.9306e-05,-220.19,0.042042
846,5.48,4.25,0.1,0.00019634,1962,0.00019092,1878.2,-3.5234e-05,178.9,-9.4857e-05,-269.08,0.038973
847,5.48,4,0.05,3.9923e-05,398.96,3.0656e-05,230.34,-3.5277e-20,5.0565e-06,-3.0656e-05,-230.34,0.039496
848,5.48,4.75,0.1,0.00014028,1401.8,0.00012358,1079.7,-1.4086e-05,45.366,-8.8761e-05,-515.71,0.037674
849,5.48,4.5,0.05,1.5367e-05,153.56,1.18e-05,88.66,-8.5652e-13,3.5554e-07,-1.18e-05,-88.66,0.038315
850,5.48,5.25,0.1,6.9556e-05,695.08,6.8234e-05,683.38,-1.1752e-05,82.399,-3.3075e-05,-77.809,0.036392
851,5.48,5,0.05,2.7188e-05,271.69,2.0877e-05,156.86,4.5159e-13,-3.5412e-14,-2.0877e-05,-156.86,0.037005
852,5.48,5.75,0.1,3.5511e-05,354.87,3.8336e-05,469.24,1.3879e-06,191.63,-1.4877e-05,69.419,0.035228
853,5.48,5.5,0.05,3.9625e-06,39.598,3.0427e-06,22.862,-6.4541e-22,-4.8494e-15,-3.0427e-06,-22.862,0.035794
854,5.6467,0.75,0.1,6.0585e-05,605.43,5.9491e-05,596.2,-1.0374e-05,71.267,-2.8657e-05,-66.11,0.040396
855,5.6467,0.25,0.1,2.914e-05,291.2,3.146e-05,382.54,6.2869e-07,150.89,-1.2046e-05,55.65,0.039657
856,5.6467,0.5,0.05,4.3368e-06,43.338,3.3301e-06,25.021,-7.0636e-22,-5.3073e-15,-3.3301e-06,-25.021,0.040006
857,5.6467,1.25,0.1,0.00010471,1046.4,9.4162e-05,828.86,-1.4764e-05,10.434,-6.2756e-05,-350.16,0.041245
858,5.6467,1,0.05,2.2868e-05,228.53,1.756e-05,131.94,-3.7247e-21,-2.7986e-14,-1.756e-05,-131.94,0.040787
859,5.6467,1.75,0.1,0.00018192,1817.9,0.00018367,1930.7,-2.8163e-05,339.05,-7.9999e-05,-50.423,0.042117
860,5.6467,1.5,0.05,9.6678e-06,96.611,7.4236e-06,55.778,-1.5747e-21,-1.1831e-14,-7.4236e-06,-55.778,0.041658
861,5.5633,2,0.1,0.00024415,2439.8,0.00025738,2854.3,-4.6076e-05,574.29,-8.5077e-05,281.25,0.041168
862,5.6467,2,0.05,1.4213e-05,142.03,1.0914e-05,82.001,-5.8049e-14,-5.8309e-09,-1.0914e-05,-82.001,0.04249
863,5.48,1.75,0.1,0.00020671,2065.6,0.00020272,2026,-3.5798e-05,233.93,-9.7958e-05,-233.12,0.039348
864,5.48,2,0.05,3.7391e-05,373.66,2.8712e-05,215.73,-3.0601e-12,-4.576e-14,-2.8712e-05,-215.73,0.039906
865,5.48,1.25,0.1,0.00013932,1392.2,0.00012678,1143.4,-1.8811e-05,49.46,-8.1802e-05,-423.82,0.038099
866,5.48,1.5,0.05,1.3154e-05,131.45,1.0101e-05,75.895,-7.2445e-14,1.4673e-05,-1.0101e-05,-75.895,0.038713
867,5.48,0.75,0.1,7.3822e-05,737.71,7.4638e-05,779.04,-1.3557e-05,116.37,-3.1154e-05,-15.84,0.036864
868,5.48,1,0.05,2.1065e-05,210.51,1.6175e-05,121.54,-3.431e-21,-2.5779e-14,-1.6175e-05,-121.54,0.037459
869,5.48,0.25,0.1,4.1474e-05,414.46,4.4514e-05,541,1.4751e-06,217.62,-1.7668e-05,73.79,0.035715
870,5.48,0.5,0.05,5.64e-06,56.361,4.3308e-06,32.54,-9.1863e-22,-6.9022e-15,-4.3308e-06,-32.54,0.036275
871,6.2202,6,0.1,4.2438e-05,424.09,4.3894e-05,470.02,-9.4862e-06,68.946,-1.518e-05,26.168,0.04875
872,5.6467,6,0.05,4.1615e-06,41.586,3.1955e-06,24.01,2.7038e-14,-5.0928e-15,-3.1955e-06,-24.01,0.037904
873,7.3673,6,0.1,5.8254e-05,582.13,5.8136e-05,579.06,-1.816e-05,5.8043,-2.047e-05,-11.556,0.071238
874,6.7938,6,0.05,7.8269e-07,7.8215,6.0101e-07,4.5157,1.0177e-13,-6.1115e-06,-6.0101e-07,-4.5157,0.059821
875,8.5144,6,0.1,6.5102e-05,650.57,6.4146e-05,624.21,-1.9689e-05,-5.6929,-2.4951e-05,-45.227,0.095294
876,7.9408,6,0.05,2.3744e-06,23.728,1.8233e-06,13.699,-1.2939e-21,1.2785e-07,-1.8233e-06,-13.699,0.083048
877,9.6615,6,0.1,6.032e-05,602.79,5.9825e-05,588.8,-1.8904e-05,-2.7389,-2.1819e-05,-24.642,0.12107
878,9.0879,6,0.05,3.0086e-06,30.065,2.3103e-06,17.358,-4.9004e-22,1.1847e-06,-2.3103e-06,-17.358,0.10796
879,10.809,6,0.1,5.2016e-05,519.8,5.2045e-05,520.66,-1.7035e-05,1.6163,-1.7236e-05,0.1071,0.14839
880,10.235,6,0.05,3.0764e-07,3.0742,2.3623e-07,1.7749,1.6022e-13,3.7365e-06,-2.3623e-07,-1.7749,0.13454
881,11.956,6,0.1,4.3775e-05,437.45,4.3661e-05,434.23,-1.3913e-05,1.6482,-1.5187e-05,-7.921,0.1771
882,11.382,6,0.05,1.0282e-06,10.275,7.8953e-07,5.9322,9.1002e-15,1.4405e-06,-7.8953e-07,-5.9322,0.16258
883,13.103,6,0.1,3.5762e-05,357.37,3.5607e-05,352.99,-1.1325e-05,0.3678,-1.2563e-05,-8.9387,0.20693
884,12.529,6,0.05,1.1655e-06,11.647,8.9499e-07,6.7246,6.0669e-15,1.3675e-06,-8.9499e-07,-6.7246,0.19188
885,14.25,6,0.1,2.8814e-05,287.94,2.8645e-05,283.18,-9.0557e-06,-0.086079,-1.0271e-05,-9.2146,0.23768
886,13.676,6,0.05,1.086e-06,10.853,8.3393e-07,6.2658,-1.7689e-22,1.9048e-06,-8.3393e-07,-6.2658,0.2222
887,15.397,6,0.1,2.2633e-05,226.17,2.245e-05,221.1,-6.9971e-06,-0.15626,-8.2654e-06,-9.6858,0.26917
888,14.823,6,0.05,9.9121e-07,9.9053,7.6113e-07,5.7188,5.1699e-16,1.9052e-06,-7.6113e-07,-5.7188,0.25334
889,16.544,6,0.1,1.7233e-05,172.22,1.7038e-05,166.88,-5.2005e-06,-0.21293,-6.5086e-06,-10.042,0.30122
890,15.97,6,0.05,8.7972e-07,8.7912,6.7552e-07,5.0756,2.2517e-13,1.6695e-06,-6.7552e-07,-5.0756,0.28513
891,17.691,6,0.1,1.2594e-05,125.85,1.2391e-05,120.45,-3.661e-06,-0.1606,-4.9797e-06,-10.069,0.33371
892,17.118,6,0.05,7.6374e-07,7.6321,5.8646e-07,4.4064,-3.9445e-15,2.3477e-06,-5.8646e-07,-4.4064,0.31742
893,18.838,6,0.1,8.7222e-06,87.162,8.5018e-06,81.512,-2.3795e-06,-0.24618,-3.7043e-06,-10.2,0.36649
894,18.265,6,0.05,6.4499e-07,6.4454,4.9527e-07,3.7213,2.2138e-13,2.796e-06,-4.9527e-07,-3.7213,0.35006
895,19.985,6,0.1,5.6204e-06,56.165,5.374e-06,50.206,-1.3531e-06,-0.33867,-2.6733e-06,-10.258,0.39948
896,19.412,6,0.05,5.0712e-07,5.0677,3.8941e-07,2.9259,2.269e-13,2.5089e-06,-3.8941e-07,-2.9259,0.38296
897,21.132,6,0.1,3.2753e-06,32.731,3.0034e-06,26.727,-5.9229e-07,-0.28965,-1.8406e-06,-9.6693,0.43259
898,20.559,6,0.05,3.7655e-07,3.7629,2.8914e-07,2.1725,1.7082e-13,2.7654e-06,-2.8914e-07,-2.1725,0.41602
899,22.279,6,0.1,1.6513e-06,16.502,1.3464e-06,10.603,-9.8844e-08,-0.25631,-1.1809e-06,-8.3863,0.46576
900,21.706,6,0.05,2.5629e-07,2.5611,1.968e-07,1.4787,1.9895e-13,2.8677e-06,-1.968e-07,-1.4787,0.44916
901,23.426,6,0.1,7.2864e-07,7.2814,4.0151e-07,1.8413,1.1567e-07,-0.30638,-6.7835e-07,-6.2723,0.49894
902,22.853,6,0.05,1.3875e-07,1.3866,1.0654e-07,0.80054,3.0131e-13,3.8579e-06,-1.0654e-07,-0.80053,0.48235
903,24,5.4,0.1,6.2644e-07,6.26,2.6097e-07,0.73798,1.8075e-07,0.13523,-6.094e-07,-5.8016,0.51571
904,24,6,0.05,2.7889e-08,0.27869,2.1415e-08,0.1609,8.2108e-13,7.4837e-06,-2.1415e-08,-0.16091,0.51554
905,24,4.2,0.1,1.0297e-06,10.29,5.1274e-07,2.693,2.8473e-07,0.9799,-9.5646e-07,-8.346,0.51603
906,24,4.8,0.05,5.2763e-08,0.52726,4.0515e-08,0.30442,1.9565e-13,3.5109e-06,-4.0515e-08,-0.30441,0.51587
907,24,3,0.1,1.2353e-06,12.344,6.019e-07,3.1527,3.5917e-07,1.3289,-1.1489e-06,-10.002,0.51632
908,24,3.6,0.05,5.7887e-08,0.57847,4.445e-08,0.33398,2.083e-13,2.9383e-06,-4.445e-08,-0.33398,0.51618
909,24,1.8,0.1,1.03e-06,10.292,5.1203e-07,2.6829,2.8534e-07,0.97966,-9.5702e-07,-8.3549,0.51658
910,24,2.4,0.05,5.6372e-08,0.56333,4.3287e-08,0.32524,1.7428e-13,3.3493e-06,-4.3287e-08,-0.32524,0.51645
911,24,0.6,0.1,6.2548e-07,6.2505,2.6085e-07,0.73743,1.8001e-07,0.13005,-6.085e-07,-5.7945,0.51681
912,24,1.2,0.05,5.2456e-08,0.5242,4.028e-08,0.30265,1.94e-13,3.37e-06,-4.028e-08,-0.30264,0.5167
913,1.5735e-14,1.8,0.1,0.0001016,1015.3,0.00013545,2010.3,7.1766e-07,997.98,-5.9892e-08,992.14,0
914,5.2451e-15,0.6,0.1,8.4557e-05,844.99,0.00011215,1656,5.6174e-07,817.62,-1.1707e-06,804.6,0
915,1.0632e-14,1.2,0.05,6.0711e-06,60.669,4.6618e-06,35.027,-1.1782e-14,-9.2654e-08,-4.6618e-06,-35.027,0
916,2.6226e-14,3,0.1,0.0001042,1041.3,0.00013888,2060.7,6.2836e-07,1021.9,-3.1669e-08,1016.9,0
917,2.1264e-14,2.4,0.05,2.5663e-06,25.645,1.9706e-06,14.806,-4.8838e-15,1.5168e-05,-1.9706e-06,-14.806,0
918,3.6716e-14,4.2,0.1,0.00010169,1016.2,0.00013557,2011.9,9.0861e-07,1000.2,-2.6516e-07,991.33,0
919,3.1897e-14,3.6,0.05,2.2925e-06,22.909,1.7604e-06,13.227,-1.3815e-21,2.6371e-09,-1.7604e-06,-13.227,0
920,4.7206e-14,5.4,0.1,8.4859e-05,848,0.00011291,1672.6,1.0216e-06,831.95,-9.0264e-07,817.49,0
921,4.2529e-14,4.8,0.05,4.9792e-06,49.757,3.8234e-06,28.727,-4.1324e-14,-3.0332e-07,-3.8234e-06,-28.727,0
922,23.426,0,0.1,7.3153e-07,7.3102,4.0373e-07,1.8609,1.1607e-07,-0.30047,-6.806e-07,-6.2863,0.50032
923,24,0,0.05,2.8591e-08,0.28571,2.1954e-08,0.16496,7.6996e-13,7.103e-06,-2.1955e-08,-0.16496,0.51692
924,22.279,0,0.1,1.6468e-06,16.457,1.3434e-06,10.589,-9.8553e-08,-0.24497,-1.1769e-06,-8.3474,0.46714
925,22.853,0,0.05,1.3845e-07,1.3835,1.0631e-07,0.79878,2.6655e-13,3.7909e-06,-1.0631e-07,-0.79877,0.48373
926,21.132,0,0.1,3.2646e-06,32.623,2.998e-06,26.729,-5.9476e-07,-0.26506,-1.8268e-06,-9.522,0.43397
927,21.706,0,0.05,2.5259e-07,2.5242,1.9396e-07,1.4573,1.922e-13,2.8639e-06,-1.9396e-07,-1.4573,0.45054
928,19.985,0,0.1,5.629e-06,56.251,5.386e-06,50.377,-1.3573e-06,-0.28971,-2.67e-06,-10.152,0.40086
929,20.559,0,0.05,3.826e-07,3.8233,2.9379e-07,2.2074,1.9043e-13,2.8246e-06,-2.9379e-07,-2.2074,0.4174
930,18.838,0,0.1,8.7384e-06,87.324,8.5127e-06,81.543,-2.378e-06,-0.28504,-3.7237e-06,-10.397,0.36787
931,19.412,0,0.05,5.1735e-07,5.1699,3.9726e-07,2.9848,1.7146e-13,2.691e-06,-3.9726e-07,-2.9848,0.38434
932,17.691,0,0.1,1.2593e-05,125.85,1.2386e-05,120.33,-3.662e-06,-0.24781,-4.9852e-06,-10.189,0.33509
933,18.265,0,0.05,6.3164e-07,6.312,4.8502e-07,3.6442,1.1871e-13,2.0263e-06,-4.8502e-07,-3.6442,0.35144
934,16.544,0,0.1,1.7219e-05,172.07,1.7029e-05,166.86,-5.2098e-06,-0.22492,-6.482e-06,-9.7837,0.3026
935,17.118,0,0.05,7.518e-07,7.5129,5.7729e-07,4.3376,-1.9789e-22,2.1915e-06,-5.7729e-07,-4.3375,0.3188
936,15.397,0,0.1,2.2627e-05,226.12,2.2445e-05,221.04,-6.9965e-06,-0.1706,-8.2628e-06,-9.6849,0.27055
937,15.97,0,0.05,8.7478e-07,8.7418,6.7172e-07,5.0471,2.3481e-13,1.9093e-06,-6.7172e-07,-5.0471,0.28651
938,14.25,0,0.1,2.8813e-05,287.94,2.8642e-05,283.12,-9.0423e-06,-0.026349,-1.0287e-05,-9.3783,0.23906
939,14.823,0,0.05,1.0022e-06,10.015,7.6957e-07,5.7823,4.47e-13,1.6672e-06,-7.6957e-07,-5.7823,0.25472
940,13.103,0,0.1,3.5761e-05,357.36,3.5608e-05,353.06,-1.1301e-05,0.60796,-1.2581e-05,-9.014,0.20831
941,13.676,0,0.05,1.0611e-06,10.604,8.148e-07,6.1221,2.2716e-13,9.5279e-07,-8.148e-07,-6.1221,0.22358
942,11.956,0,0.1,4.3428e-05,433.98,4.3354e-05,431.93,-1.3814e-05,2.3946,-1.498e-05,-6.3663,0.17848
943,12.529,0,0.05,1.0565e-06,10.558,8.1126e-07,6.0955,1.1609e-14,1.4123e-06,-8.1126e-07,-6.0955,0.19326
944,10.809,0,0.1,5.1817e-05,517.81,5.177e-05,516.45,-1.6996e-05,-0.23209,-1.7295e-05,-2.4804,0.14977
945,11.382,0,0.05,8.9234e-07,8.9172,6.852e-07,5.1483,2.802e-14,3.5196e-07,-6.852e-07,-5.1483,0.16396
946,9.6615,0,0.1,6.0841e-05,607.99,6.0305e-05,592.49,-1.967e-05,-8.4199,-2.1523e-05,-22.342,0.12242
947,10.235,0,0.05,1.2812e-06,12.803,9.8381e-07,7.392,-1.5693e-14,8.035e-07,-9.8381e-07,-7.392,0.1359
948,8.5144,0,0.1,6.5793e-05,657.48,6.493e-05,633.21,-2.0412e-05,-8.0195,-2.4587e-05,-39.384,0.096643
949,9.0879,0,0.05,2.6687e-06,26.668,2.0492e-06,15.397,-4.3466e-22,1.7456e-06,-2.0492e-06,-15.397,0.10931
950,7.3673,0,0.1,5.8051e-05,580.11,5.8091e-05,581.61,-1.7994e-05,9.9407,-2.0194e-05,-6.5846,0.072604
951,7.9408,0,0.05,2.2962e-06,22.947,1.7632e-06,13.248,-3.7401e-22,-1.8714e-07,-1.7632e-06,-13.248,0.084405
952,6.2202,0,0.1,4.0981e-05,409.53,4.2454e-05,455.77,-9.1338e-06,68.159,-1.4563e-05,27.366,0.050135
953,6.7938,0,0.05,9.896e-07,9.8892,7.5989e-07,5.7095,-1.6118e-22,-1.2111e-15,-7.5989e-07,-5.7095,0.0612
954,5.6467,0,0.05,3.7873e-06,37.847,2.9082e-06,21.851,-6.1687e-22,-4.6349e-15,-2.9082e-06,-21.851,0.039285
955,4.932,2.0745e-30,0.1,5.8236e-05,581.96,6.0624e-05,655.14,-1.337e-05,99.175,-1.9879e-05,50.266,0.028966
956,5.48,2.3051e-30,0.05,1.0648e-05,106.4,8.1761e-06,61.432,-1.1337e-13,-1.3031e-14,-8.1761e-06,-61.432,0.035152
957,3.836,1.6135e-30,0.1,9.6129e-05,960.63,9.6116e-05,962.07,-2.8348e-05,26.888,-3.4873e-05,-22.139,0.017631
958,4.384,0,0.05,3.5638e-06,35.613,2.7365e-06,20.561,-5.8046e-22,-4.3614e-15,-2.7365e-06,-20.561,0.023076
959,2.74,1.1525e-30,0.1,0.00013025,1301.6,0.00013091,1321.4,-4.0465e-05,33.734,-4.4128e-05,6.21,0.0086191
960,3.288,0,0.05,2.5485e-06,25.467,1.9569e-06,14.704,-4.151e-22,1.4392e-10,-1.9569e-06,-14.704,0.012765
961,1.644,6.9152e-31,0.1,0.00014081,1407.1,0.00014032,1407,-3.4922e-05,90.283,-5.7036e-05,-75.876,0.0027607
962,2.192,0,0.05,2.7194e-06,27.175,2.0881e-06,15.689,-4.4293e-22,-3.328e-15,-2.0881e-06,-15.689,0.0052538
963,0.548,2.305e-31,0.1,0.00010546,1053.9,0.00011491,1345.3,-1.5057e-05,368.8,-3.377e-05,228.2,0.00025749
964,1.096,0,0.05,4.8948e-06,48.915,3.7586e-06,28.241,-7.9726e-22,-5.9903e-15,-3.7586e-06,-28.241,0.0011176
965,0,0,0.05,3.5022e-05,349.98,2.6892e-05,202.06,-5.7043e-21,-4.286e-14,-2.6892e-05,-202.06,0
966,0.548,6,0.1,0.0001045,1044.3,0.00011402,1335.6,-1.5597e-05,361.75,-3.2746e-05,232.91,0.00026675
967,5.2451e-14,6,0.05,2.892e-05,289,2.2207e-05,166.86,-5.1264e-14,-4.3003e-07,-2.2207e-05,-166.86,0
968,1.644,6,0.1,0.00014081,1407.1,0.00013916,1361.8,-4.2657e-05,-4.3201,-5.3143e-05,-83.108,0.0027754
969,1.096,6,0.05,2.6602e-06,26.584,2.0427e-06,15.348,-2.039e-13,-3.2556e-15,-2.0427e-06,-15.348,0.0011339
970,2.74,6,0.1,0.00012786,1277.7,0.00012766,1274.1,-3.7918e-05,30.053,-4.6549e-05,-34.792,0.0085492
971,2.192,6,0.05,5.8242e-06,58.202,4.4723e-06,33.603,-9.4864e-22,-7.1277e-15,-4.4723e-06,-33.603,0.00523
972,3.836,6,0.1,9.2466e-05,924.02,9.3417e-05,952.76,-2.7431e-05,44.753,-3.1588e-05,13.516,0.017423
973,3.288,6,0.05,4.4808e-06,44.777,3.4407e-06,25.852,1.5458e-12,-5.4836e-15,-3.4407e-06,-25.852,0.012638
974,4.932,6,0.1,5.8648e-05,586.08,6.1095e-05,665.33,-1.1303e-05,121.36,-2.1506e-05,44.693,0.028564
975,4.384,6,0.05,2.2625e-06,22.61,1.7373e-06,13.054,-3.6852e-22,-1.857e-06,-1.7373e-06,-13.054,0.022767
976,5.48,6,0.05,6.3254e-06,63.21,4.8571e-06,36.494,6.6531e-14,-1.8794e-06,-4.8571e-06,-36.494,0.03465
977,3.836,6,0,9.2466e-05,924.02,3.1588e-05,-13.516,2.7431e-05,-44.753,-9.3417e-05,-952.76,0.017423
978,4.932,6,0,5.8648e-05,586.08,2.1506e-05,-44.693,1.1303e-05,-121.36,-6.1095e-05,-665.33,0.028564
979,2.74,6,0,0.00012786,1277.7,4.6549e-05,34.792,3.7918e-05,-30.053,-0.00012766,-1274.1,0.0085492
980,1.644,6,0,0.00014081,1407.1,5.3143e-05,83.108,4.2657e-05,4.3201,-0.00013916,-1361.8,0.0027754
981,0.548,6,0,0.0001045,1044.3,3.2746e-05,-232.91,1.5597e-05,-361.75,-0.00011402,-1335.6,0.00026675
982,5.48,5.75,0,3.5511e-05,354.87,1.4877e-05,-69.419,-1.3879e-06,-191.63,-3.8336e-05,-469.24,0.035228
983,4.7206e-14,5.4,0,8.4859e-05,848,9.0264e-07,-817.49,-1.0216e-06,-831.95,-0.00011291,-1672.6,0
984,1.644,6.9152e-31,0,0.00014081,1407.1,5.7036e-05,75.876,3.4922e-05,-90.283,-0.00014032,-1407,0.0027607
985,0.548,2.305e-31,0,0.00010546,1053.9,3.377e-05,-228.2,1.5057e-05,-368.8,-0.00011491,-1345.3,0.00025749
986,2.74,1.1525e-30,0,0.00013025,1301.6,4.4128e-05,-6.21,4.0465e-05,-33.734,-0.00013091,-1321.4,0.0086191
987,3.836,1.6135e-30,0,9.6129e-05,960.63,3.4873e-05,22.139,2.8348e-05,-26.888,-9.6116e-05,-962.07,0.017631
988,4.932,2.0745e-30,0,5.8236e-05,581.96,1.9879e-05,-50.266,1.337e-05,-99.175,-6.0624e-05,-655.14,0.028966
989,5.48,0.25,0,4.1474e-05,414.46,1.7668e-05,-73.79,-1.4751e-06,-217.62,-4.4514e-05,-541,0.035715
990,5.2451e-15,0.6,0,8.4557e-05,844.99,1.1707e-06,-804.6,-5.6174e-07,-817.62,-0.00011215,-1656,0
991,7.3673,0,0,5.8051e-05,580.11,2.0194e-05,6.5846,1.7994e-05,-9.9407,-5.8091e-05,-581.61,0.072604
992,6.2202,0,0,4.0981e-05,409.53,1.4563e-05,-27.366,9.1338e-06,-68.159,-4.2454e-05,-455.77,0.050135
993,8.5144,0,0,6.5793e-05,657.48,2.4587e-05,39.384,2.0412e-05,8.0195,-6.493e-05,-633.21,0.096643
994,9.6615,0,0,6.0841e-05,607.99,2.1523e-05,22.342,1.967e-05,8.4199,-6.0305e-05,-592.49,0.12242
995,10.809,0,0,5.1817e-05,517.81,1.7295e-05,2.4804,1.6996e-05,0.23209,-5.177e-05,-516.45,0.14977
996,11.956,0,0,4.3428e-05,433.98,1.498e-05,6.3663,1.3814e-05,-2.3946,-4.3354e-05,-431.93,0.17848
997,13.103,0,0,3.5761e-05,357.36,1.2581e-05,9.014,1.1301e-05,-0.60796,-3.5608e-05,-353.06,0.20831
998,14.25,0,0,2.8813e-05,287.94,1.0287e-05,9.3783,9.0423e-06,0.026348,-2.8642e-05,-283.12,0.23906
999,15.397,0,0,2.2627e-05,226.12,8.2628e-06,9.6849,6.9965e-06,0.1706,-2.2445e-05,-221.04,0.27055
1000,16.544,0,0,1.7219e-05,172.07,6.482e-06,9.7837,5.2098e-06,0.22492,-1.7029e-05,-166.86,0.3026
1001,17.691,0,0,1.2593e-05,125.85,4.9852e-06,10.189,3.662e-06,0.24781,-1.2386e-05,-120.33,0.33509
1002,18.838,0,0,8.7384e-06,87.324,3.7237e-06,10.397,2.378e-06,0.28504,-8.5127e-06,-81.543,0.36787
1003,19.985,0,0,5.629e-06,56.251,2.67e-06,10.152,1.3573e-06,0.28971,-5.386e-06,-50.377,0.40086
1004,21.132,0,0,3.2646e-06,32.623,1.8268e-06,9.522,5.9476e-07,0.26506,-2.998e-06,-26.729,0.43397
1005,22.279,0,0,1.6468e-06,16.457,1.1769e-06,8.3474,9.8552e-08,0.24497,-1.3434e-06,-10.589,0.46714
1006,23.426,0,0,7.3153e-07,7.3102,6.806e-07,6.2863,-1.1607e-07,0.30047,-4.0373e-07,-1.8609,0.50032
1007,5.6467,0.25,0,2.914e-05,291.2,1.2046e-05,-55.65,-6.2869e-07,-150.89,-3.146e-05,-382.54,0.039657
1008,24,0.6,0,6.2548e-07,6.2505,6.085e-07,5.7946,-1.8001e-07,-0.13005,-2.6085e-07,-0.73742,0.51681
1009,3.6716e-14,4.2,0,0.00010169,1016.2,2.6516e-07,-991.33,-9.0861e-07,-1000.2,-0.00013557,-2011.9,0
1010,2.6226e-14,3,0,0.0001042,1041.3,3.1669e-08,-1016.9,-6.2836e-07,-1021.9,-0.00013888,-2060.7,0
1011,1.5735e-14,1.8,0,0.0001016,1015.3,5.9892e-08,-992.14,-7.1766e-07,-997.98,-0.00013545,-2010.3,0
1012,24,1.8,0,1.03e-06,10.292,9.5702e-07,8.3549,-2.8534e-07,-0.97966,-5.1203e-07,-2.6829,0.51658
1013,24,3,0,1.2353e-06,12.344,1.1489e-06,10.002,-3.5917e-07,-1.3289,-6.019e-07,-3.1526,0.51632
1014,24,4.2,0,1.0297e-06,10.29,9.5646e-07,8.346,-2.8474e-07,-0.9799,-5.1274e-07,-2.693,0.51603
1015,24,5.4,0,6.2644e-07,6.26,6.094e-07,5.8016,-1.8075e-07,-0.13523,-2.6097e-07,-0.73798,0.51571
1016,23.426,6,0,7.2864e-07,7.2814,6.7835e-07,6.2723,-1.1567e-07,0.30638,-4.0151e-07,-1.8413,0.49894
1017,22.279,6,0,1.6513e-06,16.502,1.1809e-06,8.3863,9.8844e-08,0.25631,-1.3464e-06,-10.603,0.46576
1018,21.132,6,0,3.2753e-06,32.731,1.8406e-06,9.6693,5.9229e-07,0.28965,-3.0034e-06,-26.727,0.43259
1019,19.985,6,0,5.6204e-06,56.165,2.6733e-06,10.258,1.3531e-06,0.33867,-5.374e-06,-50.206,0.39948
1020,18.838,6,0,8.7222e-06,87.162,3.7043e-06,10.2,2.3795e-06,0.24618,-8.5018e-06,-81.512,0.36649
1021,17.691,6,0,1.2594e-05,125.85,4.9797e-06,10.069,3.661e-06,0.1606,-1.2391e-05,-120.45,0.33371
1022,16.544,6,0,1.7233e-05,172.22,6.5086e-06,10.042,5.2005e-06,0.21293,-1.7038e-05,-166.88,0.30122
1023,15.397,6,0,2.2633e-05,226.17,8.2654e-06,9.6858,6.9971e-06,0.15626,-2.245e-05,-221.1,0.26917
1024,14.25,6,0,2.8814e-05,287.94,1.0271e-05,9.2146,9.0557e-06,0.086078,-2.8645e-05,-283.18,0.23768
1025,13.103,6,0,3.5762e-05,357.37,1.2563e-05,8.9387,1.1325e-05,-0.3678,-3.5607e-05,-352.99,0.20693
1026,11.956,6,0,4.3775e-05,437.45,1.5187e-05,7.921,1.3913e-05,-1.6482,-4.3661e-05,-434.23,0.1771
1027,10.809,6,0,5.2016e-05,519.8,1.7236e-05,-0.1071,1.7035e-05,-1.6163,-5.2045e-05,-520.66,0.14839
1028,9.6615,6,0,6.032e-05,602.79,2.1819e-05,24.642,1.8904e-05,2.7389,-5.9825e-05,-588.8,0.12107
1029,8.5144,6,0,6.5102e-05,650.57,2.4951e-05,45.227,1.9689e-05,5.6929,-6.4146e-05,-624.21,0.095294
1030,7.3673,6,0,5.8254e-05,582.13,2.047e-05,11.556,1.816e-05,-5.8043,-5.8136e-05,-579.06,0.071238
1031,6.2202,6,0,4.2438e-05,424.09,1.518e-05,-26.168,9.4862e-06,-68.946,-4.3894e-05,-470.02,0.04875
1032,5.6467,5.75,0,3.1987e-05,319.65,1.3275e-05,-59.341,-6.1207e-07,-163.68,-3.4477e-05,-418.13,0.038393
1033,5.48,1.25,0,0.00013932,1392.2,8.1802e-05,423.82,1.8811e-05,-49.46,-0.00012678,-1143.4,0.038099
1034,5.48,1.75,0,0.00020671,2065.6,9.7958e-05,233.12,3.5798e-05,-233.93,-0.00020272,-2026,0.039348
1035,5.48,0.75,0,7.3822e-05,737.71,3.1154e-05,15.84,1.3557e-05,-116.37,-7.4638e-05,-779.04,0.036864
1036,5.5633,2,0,0.00024415,2439.8,8.5077e-05,-281.25,4.6076e-05,-574.29,-0.00025738,-2854.3,0.041168
1037,5.6467,0.75,0,6.0585e-05,605.43,2.8657e-05,66.11,1.0374e-05,-71.267,-5.9491e-05,-596.2,0.040396
1038,5.6467,1.25,0,0.00010471,1046.4,6.2756e-05,350.16,1.4764e-05,-10.434,-9.4162e-05,-828.86,0.041245
1039,5.6467,1.75,0,0.00018192,1817.9,7.9999e-05,50.423,2.8163e-05,-339.05,-0.00018367,-1930.7,0.042117
1040,5.48,4.75,0,0.00014028,1401.8,8.8761e-05,515.71,1.4086e-05,-45.366,-0.00012358,-1079.7,0.037674
1041,5.48,4.25,0,0.00019634,1962,9.4857e-05,269.08,3.5234e-05,-178.9,-0.00019092,-1878.2,0.038973
1042,5.48,5.25,0,6.9556e-05,695.08,3.3075e-05,77.809,1.1752e-05,-82.399,-6.8234e-05,-683.38,0.036392
1043,5.5633,4,0,0.00021222,2120.7,7.3222e-05,-194.08,4.6262e-05,-396.65,-0.00022154,-2408.8,0.040781
1044,5.6467,5.25,0,7.1617e-05,715.67,3.3891e-05,87.283,1.3172e-05,-68.393,-7.0013e-05,-693.42,0.039372
1045,5.6467,4.75,0,0.00011721,1171.3,6.7126e-05,361.32,2.0116e-05,8.1068,-0.00010686,-945.92,0.040475
1046,5.6467,4.25,0,0.00017425,1741.3,7.5338e-05,133.63,3.8134e-05,-145.91,-0.00017277,-1730.5,0.041572
