Node Number	X Location (in)	Y Location (in)	Z Location (in)	Maximum Principal Stress (psi)
1	16.6	2.1818	0.	844.21
2	16.6	2.3636	0.	631.52
3	16.6	2.5455	0.	530.34
4	16.6	2.7273	0.	477.43
5	16.6	2.9091	0.	453.98
6	16.6	3.0909	0.	453.98
7	16.6	3.2727	0.	477.43
8	16.6	3.4545	0.	530.34
9	16.6	3.6364	0.	631.52
10	16.6	3.8182	0.	844.21
11	16.767	2.1818	0.	587.17
12	16.767	2.3636	0.	551.16
13	16.767	2.5455	0.	477.
14	16.767	2.7273	0.	436.13
15	16.767	2.9091	0.	416.85
16	16.767	3.0909	0.	416.85
17	16.767	3.2727	0.	436.13
18	16.767	3.4545	0.	477.
19	16.767	3.6364	0.	551.16
20	16.767	3.8182	0.	587.17
21	16.416	5.8182	0.	58.466
22	16.416	5.6364	0.	137.18
23	16.416	5.4545	0.	254.56
24	16.416	5.2727	0.	394.45
25	16.416	5.0909	0.	556.78
26	16.416	4.9091	0.	746.52
27	16.416	4.7273	0.	974.46
28	16.416	4.5455	0.	1252.8
29	16.416	4.3636	0.	1633.8
30	16.416	4.1818	0.	1931.2
31	16.416	4.	0.	1461.4
32	16.416	3.8182	0.	748.39
33	16.416	3.6364	0.	575.59
34	16.416	3.4545	0.	488.04
35	16.416	3.2727	0.	450.95
36	16.416	3.0909	0.	433.46
37	16.416	2.9091	0.	433.46
38	16.416	2.7273	0.	450.95
39	16.416	2.5455	0.	488.04
40	16.416	2.3636	0.	575.59
41	16.416	2.1818	0.	748.39
42	16.416	2.	0.	1461.4
43	16.416	1.8182	0.	1931.2
44	16.416	1.6364	0.	1633.8
45	16.416	1.4545	0.	1252.8
46	16.416	1.2727	0.	974.46
47	16.416	1.0909	0.	746.52
48	16.416	0.90909	0.	556.78
49	16.416	0.72727	0.	394.45
50	16.416	0.54545	0.	254.56
51	16.416	0.36364	0.	137.18
52	16.416	0.18182	0.	58.466
53	16.231	5.8182	0.	43.323
54	16.231	5.6364	0.	90.162
55	16.231	5.4545	0.	174.39
56	16.231	5.2727	0.	282.8
57	16.231	5.0909	0.	409.94
58	16.231	4.9091	0.	553.88
59	16.231	4.7273	0.	713.83
60	16.231	4.5455	0.	876.81
61	16.231	4.3636	0.	1017.8
62	16.231	4.1818	0.	1032.3
63	16.231	4.	0.	792.67
64	16.231	3.8182	0.	553.46
65	16.231	3.6364	0.	437.4
66	16.231	3.4545	0.	397.71
67	16.231	3.2727	0.	377.81
68	16.231	3.0909	0.	369.8
69	16.231	2.9091	0.	369.8
70	16.231	2.7273	0.	377.81
71	16.231	2.5455	0.	397.71
72	16.231	2.3636	0.	437.4
73	16.231	2.1818	0.	553.46
74	16.231	2.	0.	792.67
75	16.231	1.8182	0.	1032.3
76	16.231	1.6364	0.	1017.8
77	16.231	1.4545	0.	876.81
78	16.231	1.2727	0.	713.83
79	16.231	1.0909	0.	553.88
80	16.231	0.90909	0.	409.94
81	16.231	0.72727	0.	282.8
82	16.231	0.54545	0.	174.39
83	16.231	0.36364	0.	90.162
84	16.231	0.18182	0.	43.323
85	16.047	5.8182	0.	43.311
86	16.047	5.6364	0.	84.87
87	16.047	5.4545	0.	150.04
88	16.047	5.2727	0.	234.19
89	16.047	5.0909	0.	332.43
90	16.047	4.9091	0.	439.51
91	16.047	4.7273	0.	547.14
92	16.047	4.5455	0.	640.82
93	16.047	4.3636	0.	687.39
94	16.047	4.1818	0.	649.78
95	16.047	4.	0.	535.98
96	16.047	3.8182	0.	411.72
97	16.047	3.6364	0.	338.83
98	16.047	3.4545	0.	309.32
99	16.047	3.2727	0.	298.14
100	16.047	3.0909	0.	294.48
101	16.047	2.9091	0.	294.48
102	16.047	2.7273	0.	298.14
103	16.047	2.5455	0.	309.32
104	16.047	2.3636	0.	338.83
105	16.047	2.1818	0.	411.72
106	16.047	2.	0.	535.98
107	16.047	1.8182	0.	649.78
108	16.047	1.6364	0.	687.39
109	16.047	1.4545	0.	640.82
110	16.047	1.2727	0.	547.14
111	16.047	1.0909	0.	439.51
112	16.047	0.90909	0.	332.43
113	16.047	0.72727	0.	234.19
114	16.047	0.54545	0.	150.04
115	16.047	0.36364	0.	84.87
116	16.047	0.18182	0.	43.311
117	15.862	5.8182	0.	43.839
118	15.862	5.6364	0.	85.732
119	15.862	5.4545	0.	139.99
120	15.862	5.2727	0.	205.63
121	15.862	5.0909	0.	279.48
122	15.862	4.9091	0.	355.92
123	15.862	4.7273	0.	426.3
124	15.862	4.5455	0.	477.71
125	15.862	4.3636	0.	493.37
126	15.862	4.1818	0.	460.87
127	15.862	4.	0.	392.7
128	15.862	3.8182	0.	319.53
129	15.862	3.6364	0.	267.44
130	15.862	3.4545	0.	241.26
131	15.862	3.2727	0.	230.95
132	15.862	3.0909	0.	227.67
133	15.862	2.9091	0.	227.67
134	15.862	2.7273	0.	230.95
135	15.862	2.5455	0.	241.26
136	15.862	2.3636	0.	267.44
137	15.862	2.1818	0.	319.53
138	15.862	2.	0.	392.7
139	15.862	1.8182	0.	460.87
140	15.862	1.6364	0.	493.37
141	15.862	1.4545	0.	477.71
142	15.862	1.2727	0.	426.31
143	15.862	1.0909	0.	355.92
144	15.862	0.90909	0.	279.48
145	15.862	0.72727	0.	205.63
146	15.862	0.54545	0.	139.99
147	15.862	0.36364	0.	85.732
148	15.862	0.18182	0.	43.839
149	15.678	5.8182	0.	43.073
150	15.678	5.6364	0.	85.582
151	15.678	5.4545	0.	132.82
152	15.678	5.2727	0.	185.03
153	15.678	5.0909	0.	240.21
154	15.678	4.9091	0.	293.83
155	15.678	4.7273	0.	339.07
156	15.678	4.5455	0.	367.28
157	15.678	4.3636	0.	370.07
158	15.678	4.1818	0.	345.29
159	15.678	4.	0.	300.72
160	15.678	3.8182	0.	252.44
161	15.678	3.6364	0.	214.52
162	15.678	3.4545	0.	191.42
163	15.678	3.2727	0.	180.16
164	15.678	3.0909	0.	175.95
165	15.678	2.9091	0.	175.95
166	15.678	2.7273	0.	180.16
167	15.678	2.5455	0.	191.42
168	15.678	2.3636	0.	214.52
169	15.678	2.1818	0.	252.44
170	15.678	2.	0.	300.72
171	15.678	1.8182	0.	345.29
172	15.678	1.6364	0.	370.07
173	15.678	1.4545	0.	367.28
174	15.678	1.2727	0.	339.07
175	15.678	1.0909	0.	293.83
176	15.678	0.90909	0.	240.21
177	15.678	0.72727	0.	185.03
178	15.678	0.54545	0.	132.82
179	15.678	0.36364	0.	85.582
180	15.678	0.18182	0.	43.073
181	15.493	5.8182	0.	41.353
182	15.493	5.6364	0.	83.359
183	15.493	5.4545	0.	125.3
184	15.493	5.2727	0.	167.73
185	15.493	5.0909	0.	209.39
186	15.493	4.9091	0.	247.06
187	15.493	4.7273	0.	276.12
188	15.493	4.5455	0.	291.45
189	15.493	4.3636	0.	289.31
190	15.493	4.1818	0.	269.83
191	15.493	4.	0.	238.5
192	15.493	3.8182	0.	204.23
193	15.493	3.6364	0.	175.05
194	15.493	3.4545	0.	154.88
195	15.493	3.2727	0.	143.37
196	15.493	3.0909	0.	138.41
197	15.493	2.9091	0.	138.41
198	15.493	2.7273	0.	143.37
199	15.493	2.5455	0.	154.88
200	15.493	2.3636	0.	175.05
201	15.493	2.1818	0.	204.23
202	15.493	2.	0.	238.5
203	15.493	1.8182	0.	269.83
204	15.493	1.6364	0.	289.31
205	15.493	1.4545	0.	291.45
206	15.493	1.2727	0.	276.12
207	15.493	1.0909	0.	247.06
208	15.493	0.90909	0.	209.39
209	15.493	0.72727	0.	167.73
210	15.493	0.54545	0.	125.3
211	15.493	0.36364	0.	83.359
212	15.493	0.18182	0.	41.353
213	15.309	5.8182	0.	39.024
214	15.309	5.6364	0.	79.311
215	15.309	5.4545	0.	116.75
216	15.309	5.2727	0.	151.88
217	15.309	5.0909	0.	183.94
218	15.309	4.9091	0.	210.84
219	15.309	4.7273	0.	229.71
220	15.309	4.5455	0.	237.77
221	15.309	4.3636	0.	233.48
222	15.309	4.1818	0.	217.76
223	15.309	4.	0.	194.28
224	15.309	3.8182	0.	168.48
225	15.309	3.6364	0.	145.39
226	15.309	3.4545	0.	128.
227	15.309	3.2727	0.	117.02
228	15.309	3.0909	0.	111.86
229	15.309	2.9091	0.	111.86
230	15.309	2.7273	0.	117.02
231	15.309	2.5455	0.	128.
232	15.309	2.3636	0.	145.39
233	15.309	2.1818	0.	168.48
234	15.309	2.	0.	194.28
235	15.309	1.8182	0.	217.76
236	15.309	1.6364	0.	233.48
237	15.309	1.4545	0.	237.77
238	15.309	1.2727	0.	229.71
239	15.309	1.0909	0.	210.84
240	15.309	0.90909	0.	183.94
241	15.309	0.72727	0.	151.88
242	15.309	0.54545	0.	116.75
243	15.309	0.36364	0.	79.311
244	15.309	0.18182	0.	39.024
245	15.124	5.8182	0.	36.41
246	15.124	5.6364	0.	74.044
247	15.124	5.4545	0.	107.43
248	15.124	5.2727	0.	136.96
249	15.124	5.0909	0.	162.21
250	15.124	4.9091	0.	181.9
251	15.124	4.7273	0.	194.4
252	15.124	4.5455	0.	198.34
253	15.124	4.3636	0.	193.27
254	15.124	4.1818	0.	180.24
255	15.124	4.	0.	161.84
256	15.124	3.8182	0.	141.61
257	15.124	3.6364	0.	122.9
258	15.124	3.4545	0.	108.04
259	15.124	3.2727	0.	98.084
260	15.124	3.0909	0.	93.17
261	15.124	2.9091	0.	93.17
262	15.124	2.7273	0.	98.084
263	15.124	2.5455	0.	108.04
264	15.124	2.3636	0.	122.9
265	15.124	2.1818	0.	141.61
266	15.124	2.	0.	161.84
267	15.124	1.8182	0.	180.24
268	15.124	1.6364	0.	193.27
269	15.124	1.4545	0.	198.34
270	15.124	1.2727	0.	194.4
271	15.124	1.0909	0.	181.9
272	15.124	0.90909	0.	162.21
273	15.124	0.72727	0.	136.96
274	15.124	0.54545	0.	107.43
275	15.124	0.36364	0.	74.044
276	15.124	0.18182	0.	36.41
277	14.94	5.8182	0.	33.743
278	14.94	5.6364	0.	68.141
279	14.94	5.4545	0.	97.791
280	14.94	5.2727	0.	122.9
281	14.94	5.0909	0.	143.26
282	14.94	4.9091	0.	158.12
283	14.94	4.7273	0.	166.66
284	14.94	4.5455	0.	168.3
285	14.94	4.3636	0.	163.13
286	14.94	4.1818	0.	152.16
287	14.94	4.	0.	137.3
288	14.94	3.8182	0.	121.01
289	14.94	3.6364	0.	105.65
290	14.94	3.4545	0.	93.056
291	14.94	3.2727	0.	84.305
292	14.94	3.0909	0.	79.865
293	14.94	2.9091	0.	79.865
294	14.94	2.7273	0.	84.305
295	14.94	2.5455	0.	93.056
296	14.94	2.3636	0.	105.65
297	14.94	2.1818	0.	121.01
298	14.94	2.	0.	137.3
299	14.94	1.8182	0.	152.16
300	14.94	1.6364	0.	163.13
301	14.94	1.4545	0.	168.3
302	14.94	1.2727	0.	166.66
303	14.94	1.0909	0.	158.12
304	14.94	0.90909	0.	143.26
305	14.94	0.72727	0.	122.9
306	14.94	0.54545	0.	97.791
307	14.94	0.36364	0.	68.142
308	14.94	0.18182	0.	33.743
309	14.756	5.8182	0.	31.176
310	14.756	5.6364	0.	62.066
311	14.756	5.4545	0.	88.27
312	14.756	5.2727	0.	109.8
313	14.756	5.0909	0.	126.56
314	14.756	4.9091	0.	138.15
315	14.756	4.7273	0.	144.22
316	14.756	4.5455	0.	144.64
317	14.756	4.3636	0.	139.74
318	14.756	4.1818	0.	130.46
319	14.756	4.	0.	118.25
320	14.756	3.8182	0.	104.92
321	14.756	3.6364	0.	92.22
322	14.756	3.4545	0.	81.608
323	14.756	3.2727	0.	74.081
324	14.756	3.0909	0.	70.2
325	14.756	2.9091	0.	70.2
326	14.756	2.7273	0.	74.081
327	14.756	2.5455	0.	81.608
328	14.756	2.3636	0.	92.22
329	14.756	2.1818	0.	104.92
330	14.756	2.	0.	118.25
331	14.756	1.8182	0.	130.46
332	14.756	1.6364	0.	139.74
333	14.756	1.4545	0.	144.64
334	14.756	1.2727	0.	144.22
335	14.756	1.0909	0.	138.15
336	14.756	0.90909	0.	126.56
337	14.756	0.72727	0.	109.8
338	14.756	0.54545	0.	88.27
339	14.756	0.36364	0.	62.066
340	14.756	0.18182	0.	31.176
341	14.571	5.8182	0.	28.794
342	14.571	5.6364	0.	56.138
343	14.571	5.4545	0.	79.179
344	14.571	5.2727	0.	97.744
345	14.571	5.0909	0.	111.78
346	14.571	4.9091	0.	121.11
347	14.571	4.7273	0.	125.63
348	14.571	4.5455	0.	125.46
349	14.571	4.3636	0.	121.04
350	14.571	4.1818	0.	113.2
351	14.571	4.	0.	103.09
352	14.571	3.8182	0.	92.098
353	14.571	3.6364	0.	81.568
354	14.571	3.4545	0.	72.676
355	14.571	3.2727	0.	66.295
356	14.571	3.0909	0.	62.974
357	14.571	2.9091	0.	62.974
358	14.571	2.7273	0.	66.295
359	14.571	2.5455	0.	72.676
360	14.571	2.3636	0.	81.568
361	14.571	2.1818	0.	92.098
362	14.571	2.	0.	103.09
363	14.571	1.8182	0.	113.2
364	14.571	1.6364	0.	121.04
365	14.571	1.4545	0.	125.47
366	14.571	1.2727	0.	125.63
367	14.571	1.0909	0.	121.11
368	14.571	0.90909	0.	111.78
369	14.571	0.72727	0.	97.745
370	14.571	0.54545	0.	79.179
371	14.571	0.36364	0.	56.138
372	14.571	0.18182	0.	28.794
373	14.387	5.8182	0.	26.639
374	14.387	5.6364	0.	50.558
375	14.387	5.4545	0.	70.719
376	14.387	5.2727	0.	86.777
377	14.387	5.0909	0.	98.697
378	14.387	4.9091	0.	106.41
379	14.387	4.7273	0.	109.96
380	14.387	4.5455	0.	109.58
381	14.387	4.3636	0.	105.73
382	14.387	4.1818	0.	99.14
383	14.387	4.	0.	90.762
384	14.387	3.8182	0.	81.67
385	14.387	3.6364	0.	72.942
386	14.387	3.4545	0.	65.528
387	14.387	3.2727	0.	60.172
388	14.387	3.0909	0.	57.371
389	14.387	2.9091	0.	57.371
390	14.387	2.7273	0.	60.173
391	14.387	2.5455	0.	65.529
392	14.387	2.3636	0.	72.942
393	14.387	2.1818	0.	81.671
394	14.387	2.	0.	90.762
395	14.387	1.8182	0.	99.14
396	14.387	1.6364	0.	105.73
397	14.387	1.4545	0.	109.58
398	14.387	1.2727	0.	109.96
399	14.387	1.0909	0.	106.41
400	14.387	0.90909	0.	98.697
401	14.387	0.72727	0.	86.777
402	14.387	0.54545	0.	70.719
403	14.387	0.36364	0.	50.558
404	14.387	0.18182	0.	26.639
405	14.202	5.8182	0.	24.718
406	14.202	5.6364	0.	45.434
407	14.202	5.4545	0.	62.993
408	14.202	5.2727	0.	76.904
409	14.202	5.0909	0.	87.124
410	14.202	4.9091	0.	93.644
411	14.202	4.7273	0.	96.576
412	14.202	4.5455	0.	96.189
413	14.202	4.3636	0.	92.936
414	14.202	4.1818	0.	87.45
415	14.202	4.	0.	80.519
416	14.202	3.8182	0.	73.011
417	14.202	3.6364	0.	65.793
418	14.202	3.4545	0.	59.641
419	14.202	3.2727	0.	55.181
420	14.202	3.0909	0.	52.842
421	14.202	2.9091	0.	52.842
422	14.202	2.7273	0.	55.181
423	14.202	2.5455	0.	59.641
424	14.202	2.3636	0.	65.793
425	14.202	2.1818	0.	73.011
426	14.202	2.	0.	80.519
427	14.202	1.8182	0.	87.45
428	14.202	1.6364	0.	92.936
429	14.202	1.4545	0.	96.189
430	14.202	1.2727	0.	96.576
431	14.202	1.0909	0.	93.644
432	14.202	0.90909	0.	87.125
433	14.202	0.72727	0.	76.904
434	14.202	0.54545	0.	62.993
435	14.202	0.36364	0.	45.434
436	14.202	0.18182	0.	24.718
437	14.018	5.8182	0.	23.024
438	14.018	5.6364	0.	40.809
439	14.018	5.4545	0.	56.037
440	14.018	5.2727	0.	68.088
441	14.018	5.0909	0.	76.909
442	14.018	4.9091	0.	82.513
443	14.018	4.7273	0.	85.036
444	14.018	4.5455	0.	84.751
445	14.018	4.3636	0.	82.075
446	14.018	4.1818	0.	77.556
447	14.018	4.	0.	71.851
448	14.018	3.8182	0.	65.672
449	14.018	3.6364	0.	59.723
450	14.018	3.4545	0.	54.643
451	14.018	3.2727	0.	50.952
452	14.018	3.0909	0.	49.013
453	14.018	2.9091	0.	49.013
454	14.018	2.7273	0.	50.952
455	14.018	2.5455	0.	54.643
456	14.018	2.3636	0.	59.723
457	14.018	2.1818	0.	65.672
458	14.018	2.	0.	71.851
459	14.018	1.8182	0.	77.556
460	14.018	1.6364	0.	82.075
461	14.018	1.4545	0.	84.752
462	14.018	1.2727	0.	85.036
463	14.018	1.0909	0.	82.513
464	14.018	0.90909	0.	76.909
465	14.018	0.72727	0.	68.088
466	14.018	0.54545	0.	56.037
467	14.018	0.36364	0.	40.809
468	14.018	0.18182	0.	23.024
469	13.833	5.8182	0.	21.536
470	13.833	5.6364	0.	36.685
471	13.833	5.4545	0.	49.837
472	13.833	5.2727	0.	60.267
473	13.833	5.0909	0.	67.91
474	13.833	4.9091	0.	72.781
475	13.833	4.7273	0.	75.019
476	13.833	4.5455	0.	74.88
477	13.833	4.3636	0.	72.734
478	13.833	4.1818	0.	69.054
479	13.833	4.	0.	64.389
480	13.833	3.8182	0.	59.326
481	13.833	3.6364	0.	54.444
482	13.833	3.4545	0.	50.269
483	13.833	3.2727	0.	47.231
484	13.833	3.0909	0.	45.634
485	13.833	2.9091	0.	45.634
486	13.833	2.7273	0.	47.231
487	13.833	2.5455	0.	50.269
488	13.833	2.3636	0.	54.444
489	13.833	2.1818	0.	59.326
490	13.833	2.	0.	64.389
491	13.833	1.8182	0.	69.054
492	13.833	1.6364	0.	72.734
493	13.833	1.4545	0.	74.88
494	13.833	1.2727	0.	75.019
495	13.833	1.0909	0.	72.781
496	13.833	0.90909	0.	67.91
497	13.833	0.72727	0.	60.267
498	13.833	0.54545	0.	49.837
499	13.833	0.36364	0.	36.685
500	13.833	0.18182	0.	21.536
501	13.649	5.8182	0.	20.231
502	13.649	5.6364	0.	33.036
503	13.649	5.4545	0.	44.35
504	13.649	5.2727	0.	53.361
505	13.649	5.0909	0.	59.991
506	13.649	4.9091	0.	64.255
507	13.649	4.7273	0.	66.278
508	13.649	4.5455	0.	66.289
509	13.649	4.3636	0.	64.612
510	13.649	4.1818	0.	61.65
511	13.649	4.	0.	57.862
512	13.649	3.8182	0.	53.735
513	13.649	3.6364	0.	49.748
514	13.649	3.4545	0.	46.332
515	13.649	3.2727	0.	43.844
516	13.649	3.0909	0.	42.534
517	13.649	2.9091	0.	42.535
518	13.649	2.7273	0.	43.844
519	13.649	2.5455	0.	46.332
520	13.649	2.3636	0.	49.748
521	13.649	2.1818	0.	53.735
522	13.649	2.	0.	57.862
523	13.649	1.8182	0.	61.65
524	13.649	1.6364	0.	64.612
525	13.649	1.4545	0.	66.289
526	13.649	1.2727	0.	66.278
527	13.649	1.0909	0.	64.255
528	13.649	0.90909	0.	59.991
529	13.649	0.72727	0.	53.361
530	13.649	0.54545	0.	44.35
531	13.649	0.36364	0.	33.036
532	13.649	0.18182	0.	20.231
533	13.464	5.8182	0.	19.085
534	13.464	5.6364	0.	29.823
535	13.464	5.4545	0.	39.516
536	13.464	5.2727	0.	47.28
537	13.464	5.0909	0.	53.029
538	13.464	4.9091	0.	56.77
539	13.464	4.7273	0.	58.614
540	13.464	4.5455	0.	58.759
541	13.464	4.3636	0.	57.482
542	13.464	4.1818	0.	55.124
543	13.464	4.	0.	52.07
544	13.464	3.8182	0.	48.725
545	13.464	3.6364	0.	45.482
546	13.464	3.4545	0.	42.7
547	13.464	3.2727	0.	40.67
548	13.464	3.0909	0.	39.602
549	13.464	2.9091	0.	39.602
550	13.464	2.7273	0.	40.67
551	13.464	2.5455	0.	42.7
552	13.464	2.3636	0.	45.482
553	13.464	2.1818	0.	48.725
554	13.464	2.	0.	52.07
555	13.464	1.8182	0.	55.124
556	13.464	1.6364	0.	57.482
557	13.464	1.4545	0.	58.759
558	13.464	1.2727	0.	58.614
559	13.464	1.0909	0.	56.77
560	13.464	0.90909	0.	53.029
561	13.464	0.72727	0.	47.28
562	13.464	0.54545	0.	39.516
563	13.464	0.36364	0.	29.823
564	13.464	0.18182	0.	19.085
565	13.28	5.8182	0.	18.074
566	13.28	5.6364	0.	27.001
567	13.28	5.4545	0.	35.266
568	13.28	5.2727	0.	41.932
569	13.28	5.0909	0.	46.904
570	13.28	4.9091	0.	50.184
571	13.28	4.7273	0.	51.864
572	13.28	4.5455	0.	52.113
573	13.28	4.3636	0.	51.165
574	13.28	4.1818	0.	49.307
575	13.28	4.	0.	46.861
576	13.28	3.8182	0.	44.162
577	13.28	3.6364	0.	41.536
578	13.28	3.4545	0.	39.278
579	13.28	3.2727	0.	37.629
580	13.28	3.0909	0.	36.759
581	13.28	2.9091	0.	36.759
582	13.28	2.7273	0.	37.629
583	13.28	2.5455	0.	39.278
584	13.28	2.3636	0.	41.536
585	13.28	2.1818	0.	44.162
586	13.28	2.	0.	46.861
587	13.28	1.8182	0.	49.307
588	13.28	1.6364	0.	51.165
589	13.28	1.4545	0.	52.113
590	13.28	1.2727	0.	51.864
591	13.28	1.0909	0.	50.184
592	13.28	0.90909	0.	46.904
593	13.28	0.72727	0.	41.932
594	13.28	0.54545	0.	35.267
595	13.28	0.36364	0.	27.001
596	13.28	0.18182	0.	18.074
597	13.096	5.8182	0.	17.177
598	13.096	5.6364	0.	24.522
599	13.096	5.4545	0.	31.533
600	13.096	5.2727	0.	37.227
601	13.096	5.0909	0.	41.507
602	13.096	4.9091	0.	44.37
603	13.096	4.7273	0.	45.89
604	13.096	4.5455	0.	46.208
605	13.096	4.3636	0.	45.52
606	13.096	4.1818	0.	44.068
607	13.096	4.	0.	42.118
608	13.096	3.8182	0.	39.948
609	13.096	3.6364	0.	37.828
610	13.096	3.4545	0.	36.
611	13.096	3.2727	0.	34.663
612	13.096	3.0909	0.	33.958
613	13.096	2.9091	0.	33.958
614	13.096	2.7273	0.	34.663
615	13.096	2.5455	0.	36.
616	13.096	2.3636	0.	37.828
617	13.096	2.1818	0.	39.948
618	13.096	2.	0.	42.118
619	13.096	1.8182	0.	44.068
620	13.096	1.6364	0.	45.52
621	13.096	1.4545	0.	46.208
622	13.096	1.2727	0.	45.89
623	13.096	1.0909	0.	44.37
624	13.096	0.90909	0.	41.507
625	13.096	0.72727	0.	37.227
626	13.096	0.54545	0.	31.533
627	13.096	0.36364	0.	24.522
628	13.096	0.18182	0.	17.177
629	12.911	5.8182	0.	16.374
630	12.911	5.6364	0.	22.34
631	12.911	5.4545	0.	28.246
632	12.911	5.2727	0.	33.078
633	12.911	5.0909	0.	36.738
634	12.911	4.9091	0.	39.216
635	12.911	4.7273	0.	40.572
636	12.911	4.5455	0.	40.923
637	12.911	4.3636	0.	40.433
638	12.911	4.1818	0.	39.301
639	12.911	4.	0.	37.749
640	12.911	3.8182	0.	36.006
641	12.911	3.6364	0.	34.296
642	12.911	3.4545	0.	32.817
643	12.911	3.2727	0.	31.734
644	12.911	3.0909	0.	31.163
645	12.911	2.9091	0.	31.163
646	12.911	2.7273	0.	31.734
647	12.911	2.5455	0.	32.817
648	12.911	2.3636	0.	34.296
649	12.911	2.1818	0.	36.006
650	12.911	2.	0.	37.749
651	12.911	1.8182	0.	39.301
652	12.911	1.6364	0.	40.433
653	12.911	1.4545	0.	40.924
654	12.911	1.2727	0.	40.572
655	12.911	1.0909	0.	39.216
656	12.911	0.90909	0.	36.738
657	12.911	0.72727	0.	33.078
658	12.911	0.54545	0.	28.246
659	12.911	0.36364	0.	22.34
660	12.911	0.18182	0.	16.374
661	12.727	5.8182	0.	15.647
662	12.727	5.6364	0.	20.411
663	12.727	5.4545	0.	25.344
664	12.727	5.2727	0.	29.408
665	12.727	5.0909	0.	32.505
666	12.727	4.9091	0.	34.623
667	12.727	4.7273	0.	35.81
668	12.727	4.5455	0.	36.159
669	12.727	4.3636	0.	35.808
670	12.727	4.1818	0.	34.92
671	12.727	4.	0.	33.68
672	12.727	3.8182	0.	32.277
673	12.727	3.6364	0.	30.894
674	12.727	3.4545	0.	29.696
675	12.727	3.2727	0.	28.818
676	12.727	3.0909	0.	28.354
677	12.727	2.9091	0.	28.354
678	12.727	2.7273	0.	28.818
679	12.727	2.5455	0.	29.696
680	12.727	2.3636	0.	30.894
681	12.727	2.1818	0.	32.277
682	12.727	2.	0.	33.68
683	12.727	1.8182	0.	34.92
684	12.727	1.6364	0.	35.808
685	12.727	1.4545	0.	36.159
686	12.727	1.2727	0.	35.81
687	12.727	1.0909	0.	34.623
688	12.727	0.90909	0.	32.505
689	12.727	0.72727	0.	29.408
690	12.727	0.54545	0.	25.344
691	12.727	0.36364	0.	20.411
692	12.727	0.18182	0.	15.648
693	12.542	5.8182	0.	14.983
694	12.542	5.6364	0.	18.696
695	12.542	5.4545	0.	22.768
696	12.542	5.2727	0.	26.144
697	12.542	5.0909	0.	28.727
698	12.542	4.9091	0.	30.504
699	12.542	4.7273	0.	31.512
700	12.542	4.5455	0.	31.828
701	12.542	4.3636	0.	31.563
702	12.542	4.1818	0.	30.854
703	12.542	4.	0.	29.851
704	12.542	3.8182	0.	28.712
705	12.542	3.6364	0.	27.586
706	12.542	3.4545	0.	26.61
707	12.542	3.2727	0.	25.894
708	12.542	3.0909	0.	25.515
709	12.542	2.9091	0.	25.515
710	12.542	2.7273	0.	25.894
711	12.542	2.5455	0.	26.61
712	12.542	2.3636	0.	27.586
713	12.542	2.1818	0.	28.712
714	12.542	2.	0.	29.851
715	12.542	1.8182	0.	30.854
716	12.542	1.6364	0.	31.563
717	12.542	1.4545	0.	31.828
718	12.542	1.2727	0.	31.512
719	12.542	1.0909	0.	30.504
720	12.542	0.90909	0.	28.727
721	12.542	0.72727	0.	26.144
722	12.542	0.54545	0.	22.768
723	12.542	0.36364	0.	18.696
724	12.542	0.18182	0.	14.983
725	12.358	5.8182	0.	14.368
726	12.358	5.6364	0.	17.158
727	12.358	5.4545	0.	20.465
728	12.358	5.2727	0.	23.22
729	12.358	5.0909	0.	25.331
730	12.358	4.9091	0.	26.782
731	12.358	4.7273	0.	27.602
732	12.358	4.5455	0.	27.855
733	12.358	4.3636	0.	27.631
734	12.358	4.1818	0.	27.042
735	12.358	4.	0.	26.213
736	12.358	3.8182	0.	25.272
737	12.358	3.6364	0.	24.343
738	12.358	3.4545	0.	23.539
739	12.358	3.2727	0.	22.948
740	12.358	3.0909	0.	22.637
741	12.358	2.9091	0.	22.637
742	12.358	2.7273	0.	22.948
743	12.358	2.5455	0.	23.539
744	12.358	2.3636	0.	24.343
745	12.358	2.1818	0.	25.272
746	12.358	2.	0.	26.213
747	12.358	1.8182	0.	27.042
748	12.358	1.6364	0.	27.631
749	12.358	1.4545	0.	27.855
750	12.358	1.2727	0.	27.602
751	12.358	1.0909	0.	26.782
752	12.358	0.90909	0.	25.331
753	12.358	0.72727	0.	23.22
754	12.358	0.54545	0.	20.465
755	12.358	0.36364	0.	17.158
756	12.358	0.18182	0.	14.368
757	12.173	5.8182	0.	13.79
758	12.173	5.6364	0.	15.767
759	12.173	5.4545	0.	18.389
760	12.173	5.2727	0.	20.58
761	12.173	5.0909	0.	22.251
762	12.173	4.9091	0.	23.388
763	12.173	4.7273	0.	24.012
764	12.173	4.5455	0.	24.176
765	12.173	4.3636	0.	23.952
766	12.173	4.1818	0.	23.433
767	12.173	4.	0.	22.722
768	12.173	3.8182	0.	21.924
769	12.173	3.6364	0.	21.141
770	12.173	3.4545	0.	20.465
771	12.173	3.2727	0.	19.971
772	12.173	3.0909	0.	19.71
773	12.173	2.9091	0.	19.71
774	12.173	2.7273	0.	19.971
775	12.173	2.5455	0.	20.465
776	12.173	2.3636	0.	21.141
777	12.173	2.1818	0.	21.924
778	12.173	2.	0.	22.722
779	12.173	1.8182	0.	23.433
780	12.173	1.6364	0.	23.952
781	12.173	1.4545	0.	24.176
782	12.173	1.2727	0.	24.012
783	12.173	1.0909	0.	23.388
784	12.173	0.90909	0.	22.251
785	12.173	0.72727	0.	20.58
786	12.173	0.54545	0.	18.389
787	12.173	0.36364	0.	15.768
788	12.173	0.18182	0.	13.79
789	11.989	5.8182	0.	13.24
790	11.989	5.6364	0.	14.495
791	11.989	5.4545	0.	16.498
792	11.989	5.2727	0.	18.172
793	11.989	5.0909	0.	19.431
794	11.989	4.9091	0.	20.262
795	11.989	4.7273	0.	20.682
796	11.989	4.5455	0.	20.732
797	11.989	4.3636	0.	20.474
798	11.989	4.1818	0.	19.982
799	11.989	4.	0.	19.342
800	11.989	3.8182	0.	18.639
801	11.989	3.6364	0.	17.959
802	11.989	3.4545	0.	17.375
803	11.989	3.2727	0.	16.95
804	11.989	3.0909	0.	16.726
805	11.989	2.9091	0.	16.726
806	11.989	2.7273	0.	16.95
807	11.989	2.5455	0.	17.375
808	11.989	2.3636	0.	17.959
809	11.989	2.1818	0.	18.639
810	11.989	2.	0.	19.342
811	11.989	1.8182	0.	19.982
812	11.989	1.6364	0.	20.474
813	11.989	1.4545	0.	20.732
814	11.989	1.2727	0.	20.682
815	11.989	1.0909	0.	20.262
816	11.989	0.90909	0.	19.432
817	11.989	0.72727	0.	18.172
818	11.989	0.54545	0.	16.498
819	11.989	0.36364	0.	14.495
820	11.989	0.18182	0.	13.24
821	11.804	5.8182	0.	12.709
822	11.804	5.6364	0.	13.318
823	11.804	5.4545	0.	14.757
824	11.804	5.2727	0.	15.953
825	11.804	5.0909	0.	16.822
826	11.804	4.9091	0.	17.353
827	11.804	4.7273	0.	17.559
828	11.804	4.5455	0.	17.476
829	11.804	4.3636	0.	17.152
830	11.804	4.1818	0.	16.65
831	11.804	4.	0.	16.039
832	11.804	3.8182	0.	15.392
833	11.804	3.6364	0.	14.776
834	11.804	3.4545	0.	14.254
835	11.804	3.2727	0.	13.877
836	11.804	3.0909	0.	13.679
837	11.804	2.9091	0.	13.679
838	11.804	2.7273	0.	13.877
839	11.804	2.5455	0.	14.254
840	11.804	2.3636	0.	14.776
841	11.804	2.1818	0.	15.392
842	11.804	2.	0.	16.039
843	11.804	1.8182	0.	16.65
844	11.804	1.6364	0.	17.152
845	11.804	1.4545	0.	17.476
846	11.804	1.2727	0.	17.559
847	11.804	1.0909	0.	17.353
848	11.804	0.90909	0.	16.822
849	11.804	0.72727	0.	15.953
850	11.804	0.54545	0.	14.757
851	11.804	0.36364	0.	13.318
852	11.804	0.18182	0.	12.709
853	11.62	5.8182	0.	12.19
854	11.62	5.6364	0.	12.214
855	11.62	5.4545	0.	13.134
856	11.62	5.2727	0.	13.881
857	11.62	5.0909	0.	14.378
858	11.62	4.9091	0.	14.612
859	11.62	4.7273	0.	14.598
860	11.62	4.5455	0.	14.361
861	11.62	4.3636	0.	13.945
862	11.62	4.1818	0.	13.401
863	11.62	4.	0.	12.785
864	11.62	3.8182	0.	12.158
865	11.62	3.6364	0.	11.575
866	11.62	3.4545	0.	11.089
867	11.62	3.2727	0.	10.741
868	11.62	3.0909	0.	10.559
869	11.62	2.9091	0.	10.559
870	11.62	2.7273	0.	10.741
871	11.62	2.5455	0.	11.089
872	11.62	2.3636	0.	11.575
873	11.62	2.1818	0.	12.158
874	11.62	2.	0.	12.785
875	11.62	1.8182	0.	13.401
876	11.62	1.6364	0.	13.945
877	11.62	1.4545	0.	14.361
878	11.62	1.2727	0.	14.598
879	11.62	1.0909	0.	14.612
880	11.62	0.90909	0.	14.378
881	11.62	0.72727	0.	13.881
882	11.62	0.54545	0.	13.134
883	11.62	0.36364	0.	12.214
884	11.62	0.18182	0.	12.19
885	11.436	5.8182	0.	11.677
886	11.436	5.6364	0.	11.164
887	11.436	5.4545	0.	11.601
888	11.436	5.2727	0.	11.924
889	11.436	5.0909	0.	12.06
890	11.436	4.9091	0.	12.
891	11.436	4.7273	0.	11.756
892	11.436	4.5455	0.	11.35
893	11.436	4.3636	0.	10.818
894	11.436	4.1818	0.	10.203
895	11.436	4.	0.	9.5522
896	11.436	3.8182	0.	8.9151
897	11.436	3.6364	0.	8.3388
898	11.436	3.4545	0.	7.8657
899	11.436	3.2727	0.	7.53
900	11.436	3.0909	0.	7.3558
901	11.436	2.9091	0.	7.3558
902	11.436	2.7273	0.	7.53
903	11.436	2.5455	0.	7.8657
904	11.436	2.3636	0.	8.3388
905	11.436	2.1818	0.	8.9151
906	11.436	2.	0.	9.5522
907	11.436	1.8182	0.	10.203
908	11.436	1.6364	0.	10.818
909	11.436	1.4545	0.	11.35
910	11.436	1.2727	0.	11.756
911	11.436	1.0909	0.	12.
912	11.436	0.90909	0.	12.06
913	11.436	0.72727	0.	11.924
914	11.436	0.54545	0.	11.601
915	11.436	0.36364	0.	11.164
916	11.436	0.18182	0.	11.677
917	11.251	5.8182	0.	11.163
918	11.251	5.6364	0.	10.153
919	11.251	5.4545	0.	10.133
920	11.251	5.2727	0.	10.051
921	11.251	5.0909	0.	9.8348
922	11.251	4.9091	0.	9.4804
923	11.251	4.7273	0.	8.9972
924	11.251	4.5455	0.	8.4063
925	11.251	4.3636	0.	7.7373
926	11.251	4.1818	0.	7.0266
927	11.251	4.	0.	6.3144
928	11.251	3.8182	0.	5.6417
929	11.251	3.6364	0.	5.0482
930	11.251	3.4545	0.	4.569
931	11.251	3.2727	0.	4.2326
932	11.251	3.0909	0.	4.0592
933	11.251	2.9091	0.	4.0592
934	11.251	2.7273	0.	4.2326
935	11.251	2.5455	0.	4.569
936	11.251	2.3636	0.	5.0482
937	11.251	2.1818	0.	5.6417
938	11.251	2.	0.	6.3144
939	11.251	1.8182	0.	7.0266
940	11.251	1.6364	0.	7.7373
941	11.251	1.4545	0.	8.4063
942	11.251	1.2727	0.	8.9972
943	11.251	1.0909	0.	9.4804
944	11.251	0.90909	0.	9.8348
945	11.251	0.72727	0.	10.051
946	11.251	0.54545	0.	10.134
947	11.251	0.36364	0.	10.153
948	11.251	0.18182	0.	11.163
949	11.067	5.8182	0.	10.644
950	11.067	5.6364	0.	9.1667
951	11.067	5.4545	0.	8.7104
952	11.067	5.2727	0.	8.2339
953	11.067	5.0909	0.	7.6714
954	11.067	4.9091	0.	7.0198
955	11.067	4.7273	0.	6.2889
956	11.067	4.5455	0.	5.4979
957	11.067	4.3636	0.	4.6726
958	11.067	4.1818	0.	3.8444
959	11.067	4.	0.	3.0475
960	11.067	3.8182	0.	2.3168
961	11.067	3.6364	0.	1.6857
962	11.067	3.4545	0.	1.1837
963	11.067	3.2727	0.	0.83486
964	11.067	3.0909	0.	0.65607
965	11.067	2.9091	0.	0.65607
966	11.067	2.7273	0.	0.83486
967	11.067	2.5455	0.	1.1837
968	11.067	2.3636	0.	1.6857
969	11.067	2.1818	0.	2.3168
970	11.067	2.	0.	3.0475
971	11.067	1.8182	0.	3.8444
972	11.067	1.6364	0.	4.6726
973	11.067	1.4545	0.	5.4979
974	11.067	1.2727	0.	6.2889
975	11.067	1.0909	0.	7.0198
976	11.067	0.90909	0.	7.6715
977	11.067	0.72727	0.	8.2339
978	11.067	0.54545	0.	8.7104
979	11.067	0.36364	0.	9.1667
980	11.067	0.18182	0.	10.644
981	10.882	5.8182	0.	10.115
982	10.882	5.6364	0.	8.1917
983	10.882	5.4545	0.	7.3124
984	10.882	5.2727	0.	6.4499
985	10.882	5.0909	0.	5.5424
986	10.882	4.9091	0.	4.5891
987	10.882	4.7273	0.	3.6009
988	10.882	4.5455	0.	2.5955
989	10.882	4.3636	0.	1.5966
990	10.882	4.1818	0.	0.63263
991	10.882	4.	0.	1.0414e-002
992	10.882	3.8182	0.	6.0669e-003
993	10.882	3.6364	0.	5.4839e-003
994	10.882	3.4545	0.	5.2531e-003
995	10.882	3.2727	0.	5.1341e-003
996	10.882	3.0909	0.	5.0796e-003
997	10.882	2.9091	0.	5.0797e-003
998	10.882	2.7273	0.	5.1341e-003
999	10.882	2.5455	0.	5.2529e-003
1000	10.882	2.3636	0.	5.4842e-003
1001	10.882	2.1818	0.	6.0673e-003
1002	10.882	2.	0.	1.0414e-002
1003	10.882	1.8182	0.	0.63263
1004	10.882	1.6364	0.	1.5966
1005	10.882	1.4545	0.	2.5955
1006	10.882	1.2727	0.	3.6009
1007	10.882	1.0909	0.	4.5891
1008	10.882	0.90909	0.	5.5424
1009	10.882	0.72727	0.	6.45
1010	10.882	0.54545	0.	7.3124
1011	10.882	0.36364	0.	8.1917
1012	10.882	0.18182	0.	10.115
1013	10.698	5.8182	0.	9.571
1014	10.698	5.6364	0.	7.2171
1015	10.698	5.4545	0.	5.9227
1016	10.698	5.2727	0.	4.6775
1017	10.698	5.0909	0.	3.4234
1018	10.698	4.9091	0.	2.163
1019	10.698	4.7273	0.	0.91054
1020	10.698	4.5455	0.	2.1604e-002
1021	10.698	4.3636	0.	7.7798e-003
1022	10.698	4.1818	0.	6.1673e-003
1023	10.698	4.	0.	5.5854e-003
1024	10.698	3.8182	0.	5.2803e-003
1025	10.698	3.6364	0.	5.0878e-003
1026	10.698	3.4545	0.	4.9567e-003
1027	10.698	3.2727	0.	4.8714e-003
1028	10.698	3.0909	0.	4.8289e-003
1029	10.698	2.9091	0.	4.8292e-003
1030	10.698	2.7273	0.	4.8724e-003
1031	10.698	2.5455	0.	4.9568e-003
1032	10.698	2.3636	0.	5.0883e-003
1033	10.698	2.1818	0.	5.2806e-003
1034	10.698	2.	0.	5.5863e-003
1035	10.698	1.8182	0.	6.1678e-003
1036	10.698	1.6364	0.	7.7796e-003
1037	10.698	1.4545	0.	2.1605e-002
1038	10.698	1.2727	0.	0.91055
1039	10.698	1.0909	0.	2.163
1040	10.698	0.90909	0.	3.4234
1041	10.698	0.72727	0.	4.6775
1042	10.698	0.54545	0.	5.9227
1043	10.698	0.36364	0.	7.2172
1044	10.698	0.18182	0.	9.5711
1045	10.513	5.8182	0.	9.0095
1046	10.513	5.6364	0.	6.2327
1047	10.513	5.4545	0.	4.5258
1048	10.513	5.2727	0.	2.8973
1049	10.513	5.0909	0.	1.2948
1050	10.513	4.9091	0.	3.3371e-002
1051	10.513	4.7273	0.	8.7293e-003
1052	10.513	4.5455	0.	6.538e-003
1053	10.513	4.3636	0.	5.7794e-003
1054	10.513	4.1818	0.	5.3923e-003
1055	10.513	4.	0.	5.144e-003
1056	10.513	3.8182	0.	4.9605e-003
1057	10.513	3.6364	0.	4.8183e-003
1058	10.513	3.4545	0.	4.712e-003
1059	10.513	3.2727	0.	4.6378e-003
1060	10.513	3.0909	0.	4.6004e-003
1061	10.513	2.9091	0.	4.6007e-003
1062	10.513	2.7273	0.	4.6378e-003
1063	10.513	2.5455	0.	4.7117e-003
1064	10.513	2.3636	0.	4.8186e-003
1065	10.513	2.1818	0.	4.9611e-003
1066	10.513	2.	0.	5.1443e-003
1067	10.513	1.8182	0.	5.3925e-003
1068	10.513	1.6364	0.	5.7795e-003
1069	10.513	1.4545	0.	6.5399e-003
1070	10.513	1.2727	0.	8.7298e-003
1071	10.513	1.0909	0.	3.3373e-002
1072	10.513	0.90909	0.	1.2948
1073	10.513	0.72727	0.	2.8973
1074	10.513	0.54545	0.	4.5259
1075	10.513	0.36364	0.	6.2328
1076	10.513	0.18182	0.	9.0095
1077	10.329	5.8182	0.	8.4261
1078	10.329	5.6364	0.	5.2289
1079	10.329	5.4545	0.	3.1076
1080	10.329	5.2727	0.	1.094
1081	10.329	5.0909	0.	1.425e-002
1082	10.329	4.9091	0.	7.2308e-003
1083	10.329	4.7273	0.	5.9851e-003
1084	10.329	4.5455	0.	5.4786e-003
1085	10.329	4.3636	0.	5.1815e-003
1086	10.329	4.1818	0.	4.9683e-003
1087	10.329	4.	0.	4.7946e-003
1088	10.329	3.8182	0.	4.6456e-003
1089	10.329	3.6364	0.	4.52e-003
1090	10.329	3.4545	0.	4.4226e-003
1091	10.329	3.2727	0.	4.3538e-003
1092	10.329	3.0909	0.	4.3185e-003
1093	10.329	2.9091	0.	4.3184e-003
1094	10.329	2.7273	0.	4.3544e-003
1095	10.329	2.5455	0.	4.4232e-003
1096	10.329	2.3636	0.	4.5207e-003
1097	10.329	2.1818	0.	4.6458e-003
1098	10.329	2.	0.	4.7952e-003
1099	10.329	1.8182	0.	4.9687e-003
1100	10.329	1.6364	0.	5.1827e-003
1101	10.329	1.4545	0.	5.4788e-003
1102	10.329	1.2727	0.	5.9857e-003
1103	10.329	1.0909	0.	7.2308e-003
1104	10.329	0.90909	0.	1.4252e-002
1105	10.329	0.72727	0.	1.094
1106	10.329	0.54545	0.	3.1076
1107	10.329	0.36364	0.	5.2289
1108	10.329	0.18182	0.	8.4261
1109	10.144	5.8182	0.	7.8177
1110	10.144	5.6364	0.	4.1973
1111	10.144	5.4545	0.	1.6554
1112	10.144	5.2727	0.	1.2936e-002
1113	10.144	5.0909	0.	6.4626e-003
1114	10.144	4.9091	0.	5.6343e-003
1115	10.144	4.7273	0.	5.2621e-003
1116	10.144	4.5455	0.	5.032e-003
1117	10.144	4.3636	0.	4.8429e-003
1118	10.144	4.1818	0.	4.6742e-003
1119	10.144	4.	0.	4.5194e-003
1120	10.144	3.8182	0.	4.3786e-003
1121	10.144	3.6364	0.	4.2557e-003
1122	10.144	3.4545	0.	4.1597e-003
1123	10.144	3.2727	0.	4.0919e-003
1124	10.144	3.0909	0.	4.056e-003
1125	10.144	2.9091	0.	4.0563e-003
1126	10.144	2.7273	0.	4.0915e-003
1127	10.144	2.5455	0.	4.1596e-003
1128	10.144	2.3636	0.	4.2561e-003
1129	10.144	2.1818	0.	4.3785e-003
1130	10.144	2.	0.	4.5199e-003
1131	10.144	1.8182	0.	4.6752e-003
1132	10.144	1.6364	0.	4.8435e-003
1133	10.144	1.4545	0.	5.0329e-003
1134	10.144	1.2727	0.	5.2632e-003
1135	10.144	1.0909	0.	5.6351e-003
1136	10.144	0.90909	0.	6.4637e-003
1137	10.144	0.72727	0.	1.2937e-002
1138	10.144	0.54545	0.	1.6554
1139	10.144	0.36364	0.	4.1973
1140	10.144	0.18182	0.	7.8177
1141	9.96	5.8182	0.	7.1808
1142	9.96	5.6364	0.	3.1294
1143	9.96	5.4545	0.	0.17021
1144	9.96	5.2727	0.	6.1583e-003
1145	9.96	5.0909	0.	5.3214e-003
1146	9.96	4.9091	0.	5.1181e-003
1147	9.96	4.7273	0.	4.9185e-003
1148	9.96	4.5455	0.	4.749e-003
1149	9.96	4.3636	0.	4.5765e-003
1150	9.96	4.1818	0.	4.4092e-003
1151	9.96	4.	0.	4.2488e-003
1152	9.96	3.8182	0.	4.1003e-003
1153	9.96	3.6364	0.	3.9722e-003
1154	9.96	3.4545	0.	3.8711e-003
1155	9.96	3.2727	0.	3.7994e-003
1156	9.96	3.0909	0.	3.763e-003
1157	9.96	2.9091	0.	3.7632e-003
1158	9.96	2.7273	0.	3.8001e-003
1159	9.96	2.5455	0.	3.8712e-003
1160	9.96	2.3636	0.	3.9725e-003
1161	9.96	2.1818	0.	4.1004e-003
1162	9.96	2.	0.	4.2489e-003
1163	9.96	1.8182	0.	4.4096e-003
1164	9.96	1.6364	0.	4.5774e-003
1165	9.96	1.4545	0.	4.7498e-003
1166	9.96	1.2727	0.	4.9189e-003
1167	9.96	1.0909	0.	5.1192e-003
1168	9.96	0.90909	0.	5.3232e-003
1169	9.96	0.72727	0.	6.1596e-003
1170	9.96	0.54545	0.	0.17023
1171	9.96	0.36364	0.	3.1295
1172	9.96	0.18182	0.	7.1808
1173	9.7756	5.8182	0.	6.5125
1174	9.7756	5.6364	0.	2.0178
1175	9.7756	5.4545	0.	4.6463e-003
1176	9.7756	5.2727	0.	5.4624e-003
1177	9.7756	5.0909	0.	5.0185e-003
1178	9.7756	4.9091	0.	4.9183e-003
1179	9.7756	4.7273	0.	4.7254e-003
1180	9.7756	4.5455	0.	4.5423e-003
1181	9.7756	4.3636	0.	4.3479e-003
1182	9.7756	4.1818	0.	4.1575e-003
1183	9.7756	4.	0.	3.9765e-003
1184	9.7756	3.8182	0.	3.8113e-003
1185	9.7756	3.6364	0.	3.6699e-003
1186	9.7756	3.4545	0.	3.5589e-003
1187	9.7756	3.2727	0.	3.482e-003
1188	9.7756	3.0909	0.	3.4417e-003
1189	9.7756	2.9091	0.	3.4419e-003
1190	9.7756	2.7273	0.	3.4819e-003
1191	9.7756	2.5455	0.	3.5593e-003
1192	9.7756	2.3636	0.	3.6698e-003
1193	9.7756	2.1818	0.	3.8119e-003
1194	9.7756	2.	0.	3.9769e-003
1195	9.7756	1.8182	0.	4.1578e-003
1196	9.7756	1.6364	0.	4.3481e-003
1197	9.7756	1.4545	0.	4.543e-003
1198	9.7756	1.2727	0.	4.7258e-003
1199	9.7756	1.0909	0.	4.919e-003
1200	9.7756	0.90909	0.	5.0194e-003
1201	9.7756	0.72727	0.	5.4639e-003
1202	9.7756	0.54545	0.	4.6471e-003
1203	9.7756	0.36364	0.	2.0178
1204	9.7756	0.18182	0.	6.5125
1205	9.5911	5.8182	0.	5.8097
1206	9.5911	5.6364	0.	0.85578
1207	9.5911	5.4545	0.	4.3685e-003
1208	9.5911	5.2727	0.	5.5844e-003
1209	9.5911	5.0909	0.	5.0367e-003
1210	9.5911	4.9091	0.	4.8956e-003
1211	9.5911	4.7273	0.	4.6425e-003
1212	9.5911	4.5455	0.	4.4095e-003
1213	9.5911	4.3636	0.	4.1698e-003
1214	9.5911	4.1818	0.	3.9411e-003
1215	9.5911	4.	0.	3.7289e-003
1216	9.5911	3.8182	0.	3.5383e-003
1217	9.5911	3.6364	0.	3.3773e-003
1218	9.5911	3.4545	0.	3.2529e-003
1219	9.5911	3.2727	0.	3.1662e-003
1220	9.5911	3.0909	0.	3.1224e-003
1221	9.5911	2.9091	0.	3.1219e-003
1222	9.5911	2.7273	0.	3.1666e-003
1223	9.5911	2.5455	0.	3.2531e-003
1224	9.5911	2.3636	0.	3.3783e-003
1225	9.5911	2.1818	0.	3.5383e-003
1226	9.5911	2.	0.	3.729e-003
1227	9.5911	1.8182	0.	3.9417e-003
1228	9.5911	1.6364	0.	4.1704e-003
1229	9.5911	1.4545	0.	4.4099e-003
1230	9.5911	1.2727	0.	4.6438e-003
1231	9.5911	1.0909	0.	4.8965e-003
1232	9.5911	0.90909	0.	5.0379e-003
1233	9.5911	0.72727	0.	5.5857e-003
1234	9.5911	0.54545	0.	4.3693e-003
1235	9.5911	0.36364	0.	0.85582
1236	9.5911	0.18182	0.	5.8098
1237	9.4067	5.8182	0.	5.07
1238	9.4067	5.6364	0.	2.4199e-002
1239	9.4067	5.4545	0.	4.8756e-003
1240	9.4067	5.2727	0.	6.004e-003
1241	9.4067	5.0909	0.	5.2168e-003
1242	9.4067	4.9091	0.	4.9727e-003
1243	9.4067	4.7273	0.	4.6244e-003
1244	9.4067	4.5455	0.	4.3176e-003
1245	9.4067	4.3636	0.	4.0165e-003
1246	9.4067	4.1818	0.	3.7377e-003
1247	9.4067	4.	0.	3.484e-003
1248	9.4067	3.8182	0.	3.2615e-003
1249	9.4067	3.6364	0.	3.0754e-003
1250	9.4067	3.4545	0.	2.9329e-003
1251	9.4067	3.2727	0.	2.8347e-003
1252	9.4067	3.0909	0.	2.7846e-003
1253	9.4067	2.9091	0.	2.785e-003
1254	9.4067	2.7273	0.	2.8349e-003
1255	9.4067	2.5455	0.	2.933e-003
1256	9.4067	2.3636	0.	3.0762e-003
1257	9.4067	2.1818	0.	3.2615e-003
1258	9.4067	2.	0.	3.485e-003
1259	9.4067	1.8182	0.	3.7383e-003
1260	9.4067	1.6364	0.	4.0167e-003
1261	9.4067	1.4545	0.	4.3179e-003
1262	9.4067	1.2727	0.	4.6251e-003
1263	9.4067	1.0909	0.	4.9733e-003
1264	9.4067	0.90909	0.	5.2183e-003
1265	9.4067	0.72727	0.	6.0047e-003
1266	9.4067	0.54545	0.	4.8759e-003
1267	9.4067	0.36364	0.	2.4201e-002
1268	9.4067	0.18182	0.	5.07
1269	9.2222	5.8182	0.	4.2911
1270	9.2222	5.6364	0.	2.2185e-002
1271	9.2222	5.4545	0.	5.613e-003
1272	9.2222	5.2727	0.	6.5898e-003
1273	9.2222	5.0909	0.	5.5021e-003
1274	9.2222	4.9091	0.	5.1213e-003
1275	9.2222	4.7273	0.	4.6528e-003
1276	9.2222	4.5455	0.	4.2548e-003
1277	9.2222	4.3636	0.	3.8789e-003
1278	9.2222	4.1818	0.	3.5399e-003
1279	9.2222	4.	0.	3.2376e-003
1280	9.2222	3.8182	0.	2.9756e-003
1281	9.2222	3.6364	0.	2.7599e-003
1282	9.2222	3.4545	0.	2.5949e-003
1283	9.2222	3.2727	0.	2.4828e-003
1284	9.2222	3.0909	0.	2.4255e-003
1285	9.2222	2.9091	0.	2.4251e-003
1286	9.2222	2.7273	0.	2.483e-003
1287	9.2222	2.5455	0.	2.5954e-003
1288	9.2222	2.3636	0.	2.7601e-003
1289	9.2222	2.1818	0.	2.9756e-003
1290	9.2222	2.	0.	3.238e-003
1291	9.2222	1.8182	0.	3.5403e-003
1292	9.2222	1.6364	0.	3.8796e-003
1293	9.2222	1.4545	0.	4.2549e-003
1294	9.2222	1.2727	0.	4.6534e-003
1295	9.2222	1.0909	0.	5.1219e-003
1296	9.2222	0.90909	0.	5.5039e-003
1297	9.2222	0.72727	0.	6.5907e-003
1298	9.2222	0.54545	0.	5.6135e-003
1299	9.2222	0.36364	0.	2.2186e-002
1300	9.2222	0.18182	0.	4.2911
1301	9.0378	5.8182	0.	3.4722
1302	9.0378	5.6364	0.	2.4887e-002
1303	9.0378	5.4545	0.	6.4905e-003
1304	9.0378	5.2727	0.	7.3031e-003
1305	9.0378	5.0909	0.	5.8783e-003
1306	9.0378	4.9091	0.	5.3344e-003
1307	9.0378	4.7273	0.	4.7265e-003
1308	9.0378	4.5455	0.	4.2234e-003
1309	9.0378	4.3636	0.	3.7612e-003
1310	9.0378	4.1818	0.	3.352e-003
1311	9.0378	4.	0.	2.9933e-003
1312	9.0378	3.8182	0.	2.6857e-003
1313	9.0378	3.6364	0.	2.4352e-003
1314	9.0378	3.4545	0.	2.2447e-003
1315	9.0378	3.2727	0.	2.1154e-003
1316	9.0378	3.0909	0.	2.0499e-003
1317	9.0378	2.9091	0.	2.0501e-003
1318	9.0378	2.7273	0.	2.1155e-003
1319	9.0378	2.5455	0.	2.245e-003
1320	9.0378	2.3636	0.	2.435e-003
1321	9.0378	2.1818	0.	2.6859e-003
1322	9.0378	2.	0.	2.9934e-003
1323	9.0378	1.8182	0.	3.3526e-003
1324	9.0378	1.6364	0.	3.7619e-003
1325	9.0378	1.4545	0.	4.2243e-003
1326	9.0378	1.2727	0.	4.7268e-003
1327	9.0378	1.0909	0.	5.3349e-003
1328	9.0378	0.90909	0.	5.8795e-003
1329	9.0378	0.72727	0.	7.3041e-003
1330	9.0378	0.54545	0.	6.491e-003
1331	9.0378	0.36364	0.	2.4888e-002
1332	9.0378	0.18182	0.	3.4723
1333	8.8533	5.8182	0.	2.616
1334	8.8533	5.6364	0.	2.8252e-002
1335	8.8533	5.4545	0.	7.4818e-003
1336	8.8533	5.2727	0.	8.1264e-003
1337	8.8533	5.0909	0.	6.3324e-003
1338	8.8533	4.9091	0.	5.6058e-003
1339	8.8533	4.7273	0.	4.8419e-003
1340	8.8533	4.5455	0.	4.2201e-003
1341	8.8533	4.3636	0.	3.6602e-003
1342	8.8533	4.1818	0.	3.1724e-003
1343	8.8533	4.	0.	2.7486e-003
1344	8.8533	3.8182	0.	2.3899e-003
1345	8.8533	3.6364	0.	2.0994e-003
1346	8.8533	3.4545	0.	1.8798e-003
1347	8.8533	3.2727	0.	1.7312e-003
1348	8.8533	3.0909	0.	1.6563e-003
1349	8.8533	2.9091	0.	1.6565e-003
1350	8.8533	2.7273	0.	1.7314e-003
1351	8.8533	2.5455	0.	1.88e-003
1352	8.8533	2.3636	0.	2.0995e-003
1353	8.8533	2.1818	0.	2.3905e-003
1354	8.8533	2.	0.	2.7492e-003
1355	8.8533	1.8182	0.	3.173e-003
1356	8.8533	1.6364	0.	3.6612e-003
1357	8.8533	1.4545	0.	4.2201e-003
1358	8.8533	1.2727	0.	4.8428e-003
1359	8.8533	1.0909	0.	5.6067e-003
1360	8.8533	0.90909	0.	6.3334e-003
1361	8.8533	0.72727	0.	8.1276e-003
1362	8.8533	0.54545	0.	7.4823e-003
1363	8.8533	0.36364	0.	2.8253e-002
1364	8.8533	0.18182	0.	2.6161
1365	8.6689	5.8182	0.	1.7372
1366	8.6689	5.6364	0.	3.1997e-002
1367	8.6689	5.4545	0.	8.5717e-003
1368	8.6689	5.2727	0.	9.0452e-003
1369	8.6689	5.0909	0.	6.8521e-003
1370	8.6689	4.9091	0.	5.9246e-003
1371	8.6689	4.7273	0.	4.9876e-003
1372	8.6689	4.5455	0.	4.2346e-003
1373	8.6689	4.3636	0.	3.5663e-003
1374	8.6689	4.1818	0.	2.9904e-003
1375	8.6689	4.	0.	2.495e-003
1376	8.6689	3.8182	0.	2.0785e-003
1377	8.6689	3.6364	0.	1.7429e-003
1378	8.6689	3.4545	0.	1.4903e-003
1379	8.6689	3.2727	0.	1.3203e-003
1380	8.6689	3.0909	0.	1.2345e-003
1381	8.6689	2.9091	0.	1.2345e-003
1382	8.6689	2.7273	0.	1.3201e-003
1383	8.6689	2.5455	0.	1.4906e-003
1384	8.6689	2.3636	0.	1.7433e-003
1385	8.6689	2.1818	0.	2.0788e-003
1386	8.6689	2.	0.	2.4956e-003
1387	8.6689	1.8182	0.	2.9908e-003
1388	8.6689	1.6364	0.	3.5674e-003
1389	8.6689	1.4545	0.	4.235e-003
1390	8.6689	1.2727	0.	4.9884e-003
1391	8.6689	1.0909	0.	5.9251e-003
1392	8.6689	0.90909	0.	6.8532e-003
1393	8.6689	0.72727	0.	9.0459e-003
1394	8.6689	0.54545	0.	8.572e-003
1395	8.6689	0.36364	0.	3.1999e-002
1396	8.6689	0.18182	0.	1.7372
1397	8.4844	5.8182	0.	0.90676
1398	8.4844	5.6364	0.	3.6086e-002
1399	8.4844	5.4545	0.	9.7694e-003
1400	8.4844	5.2727	0.	1.0066e-002
1401	8.4844	5.0909	0.	7.444e-003
1402	8.4844	4.9091	0.	6.2969e-003
1403	8.4844	4.7273	0.	5.1711e-003
1404	8.4844	4.5455	0.	4.2734e-003
1405	8.4844	4.3636	0.	3.486e-003
1406	8.4844	4.1818	0.	2.8124e-003
1407	8.4844	4.	0.	2.2375e-003
1408	8.4844	3.8182	0.	1.7567e-003
1409	8.4844	3.6364	0.	1.3714e-003
1410	8.4844	3.4545	0.	1.0821e-003
1411	8.4844	3.2727	0.	8.8765e-004
1412	8.4844	3.0909	0.	7.898e-004
1413	8.4844	2.9091	0.	7.9004e-004
1414	8.4844	2.7273	0.	8.8795e-004
1415	8.4844	2.5455	0.	1.0825e-003
1416	8.4844	2.3636	0.	1.3715e-003
1417	8.4844	2.1818	0.	1.7572e-003
1418	8.4844	2.	0.	2.2375e-003
1419	8.4844	1.8182	0.	2.813e-003
1420	8.4844	1.6364	0.	3.4866e-003
1421	8.4844	1.4545	0.	4.2739e-003
1422	8.4844	1.2727	0.	5.1717e-003
1423	8.4844	1.0909	0.	6.2975e-003
1424	8.4844	0.90909	0.	7.4454e-003
1425	8.4844	0.72727	0.	1.0067e-002
1426	8.4844	0.54545	0.	9.7695e-003
1427	8.4844	0.36364	0.	3.6087e-002
1428	8.4844	0.18182	0.	0.90679
1429	8.3	5.8182	0.	0.37977
1430	8.3	5.6364	0.	4.0517e-002
1431	8.3	5.4545	0.	1.1077e-002
1432	8.3	5.2727	0.	1.1189e-002
1433	8.3	5.0909	0.	8.1053e-003
1434	8.3	4.9091	0.	6.7197e-003
1435	8.3	4.7273	0.	5.3881e-003
1436	8.3	4.5455	0.	4.3316e-003
1437	8.3	4.3636	0.	3.4141e-003
1438	8.3	4.1818	0.	2.6339e-003
1439	8.3	4.	0.	1.9712e-003
1440	8.3	3.8182	0.	1.4197e-003
1441	8.3	3.6364	0.	9.7874e-004
1442	8.3	3.4545	0.	6.4953e-004
1443	8.3	3.2727	0.	4.281e-004
1444	8.3	3.0909	0.	3.171e-004
1445	8.3	2.9091	0.	3.1704e-004
1446	8.3	2.7273	0.	4.2845e-004
1447	8.3	2.5455	0.	6.4953e-004
1448	8.3	2.3636	0.	9.7963e-004
1449	8.3	2.1818	0.	1.4201e-003
1450	8.3	2.	0.	1.9716e-003
1451	8.3	1.8182	0.	2.6343e-003
1452	8.3	1.6364	0.	3.4149e-003
1453	8.3	1.4545	0.	4.3322e-003
1454	8.3	1.2727	0.	5.3888e-003
1455	8.3	1.0909	0.	6.7202e-003
1456	8.3	0.90909	0.	8.1073e-003
1457	8.3	0.72727	0.	1.119e-002
1458	8.3	0.54545	0.	1.1077e-002
1459	8.3	0.36364	0.	4.0519e-002
1460	8.3	0.18182	0.	0.37978
1461	8.1156	5.8182	0.	0.20855
1462	8.1156	5.6364	0.	4.5311e-002
1463	8.1156	5.4545	0.	1.2499e-002
1464	8.1156	5.2727	0.	1.2416e-002
1465	8.1156	5.0909	0.	8.8368e-003
1466	8.1156	4.9091	0.	7.1922e-003
1467	8.1156	4.7273	0.	5.6368e-003
1468	8.1156	4.5455	0.	4.408e-003
1469	8.1156	4.3636	0.	3.3479e-003
1470	8.1156	4.1818	0.	2.4503e-003
1471	8.1156	4.	0.	1.6915e-003
1472	8.1156	3.8182	0.	1.0628e-003
1473	8.1156	3.6364	0.	5.615e-004
1474	8.1156	3.4545	0.	1.8723e-004
1475	8.1156	3.2727	0.	-6.3611e-005
1476	8.1156	3.0909	0.	-1.8947e-004
1477	8.1156	2.9091	0.	-1.8942e-004
1478	8.1156	2.7273	0.	-6.3672e-005
1479	8.1156	2.5455	0.	1.8729e-004
1480	8.1156	2.3636	0.	5.6173e-004
1481	8.1156	2.1818	0.	1.0636e-003
1482	8.1156	2.	0.	1.6917e-003
1483	8.1156	1.8182	0.	2.4507e-003
1484	8.1156	1.6364	0.	3.3485e-003
1485	8.1156	1.4545	0.	4.4089e-003
1486	8.1156	1.2727	0.	5.6376e-003
1487	8.1156	1.0909	0.	7.193e-003
1488	8.1156	0.90909	0.	8.8383e-003
1489	8.1156	0.72727	0.	1.2417e-002
1490	8.1156	0.54545	0.	1.2499e-002
1491	8.1156	0.36364	0.	4.5312e-002
1492	8.1156	0.18182	0.	0.20855
1493	7.9311	5.8182	0.	0.15127
1494	7.9311	5.6364	0.	5.0499e-002
1495	7.9311	5.4545	0.	1.4048e-002
1496	7.9311	5.2727	0.	1.3758e-002
1497	7.9311	5.0909	0.	9.6447e-003
1498	7.9311	4.9091	0.	7.7192e-003
1499	7.9311	4.7273	0.	5.9214e-003
1500	7.9311	4.5455	0.	4.5047e-003
1501	7.9311	4.3636	0.	3.2894e-003
1502	7.9311	4.1818	0.	2.264e-003
1503	7.9311	4.	0.	1.4005e-003
1504	7.9311	3.8182	0.	6.8673e-004
1505	7.9311	3.6364	0.	1.1911e-004
1506	7.9311	3.4545	0.	-3.0448e-004
1507	7.9311	3.2727	0.	-5.8766e-004
1508	7.9311	3.0909	0.	-7.2963e-004
1509	7.9311	2.9091	0.	-7.2952e-004
1510	7.9311	2.7273	0.	-5.873e-004
1511	7.9311	2.5455	0.	-3.043e-004
1512	7.9311	2.3636	0.	1.1935e-004
1513	7.9311	2.1818	0.	6.8697e-004
1514	7.9311	2.	0.	1.4008e-003
1515	7.9311	1.8182	0.	2.2646e-003
1516	7.9311	1.6364	0.	3.2899e-003
1517	7.9311	1.4545	0.	4.5054e-003
1518	7.9311	1.2727	0.	5.9223e-003
1519	7.9311	1.0909	0.	7.7198e-003
1520	7.9311	0.90909	0.	9.6461e-003
1521	7.9311	0.72727	0.	1.3759e-002
1522	7.9311	0.54545	0.	1.4049e-002
1523	7.9311	0.36364	0.	5.05e-002
1524	7.9311	0.18182	0.	0.15128
1525	7.7467	5.8182	0.	0.12638
1526	7.7467	5.6364	0.	5.612e-002
1527	7.7467	5.4545	0.	1.574e-002
1528	7.7467	5.2727	0.	1.5227e-002
1529	7.7467	5.0909	0.	1.0538e-002
1530	7.7467	4.9091	0.	8.3085e-003
1531	7.7467	4.7273	0.	6.2471e-003
1532	7.7467	4.5455	0.	4.6266e-003
1533	7.7467	4.3636	0.	3.2422e-003
1534	7.7467	4.1818	0.	2.0777e-003
1535	7.7467	4.	0.	1.0991e-003
1536	7.7467	3.8182	0.	2.9309e-004
1537	7.7467	3.6364	0.	-3.4732e-004
1538	7.7467	3.4545	0.	-8.2443e-004
1539	7.7467	3.2727	0.	-1.1431e-003
1540	7.7467	3.0909	0.	-1.3026e-003
1541	7.7467	2.9091	0.	-1.3027e-003
1542	7.7467	2.7273	0.	-1.1431e-003
1543	7.7467	2.5455	0.	-8.2462e-004
1544	7.7467	2.3636	0.	-3.4703e-004
1545	7.7467	2.1818	0.	2.9321e-004
1546	7.7467	2.	0.	1.0997e-003
1547	7.7467	1.8182	0.	2.078e-003
1548	7.7467	1.6364	0.	3.2428e-003
1549	7.7467	1.4545	0.	4.6272e-003
1550	7.7467	1.2727	0.	6.2478e-003
1551	7.7467	1.0909	0.	8.3089e-003
1552	7.7467	0.90909	0.	1.0539e-002
1553	7.7467	0.72727	0.	1.5228e-002
1554	7.7467	0.54545	0.	1.574e-002
1555	7.7467	0.36364	0.	5.6122e-002
1556	7.7467	0.18182	0.	0.12638
1557	7.5622	5.8182	0.	0.1142
1558	7.5622	5.6364	0.	6.2207e-002
1559	7.5622	5.4545	0.	1.7579e-002
1560	7.5622	5.2727	0.	1.6825e-002
1561	7.5622	5.0909	0.	1.1513e-002
1562	7.5622	4.9091	0.	8.9546e-003
1563	7.5622	4.7273	0.	6.6078e-003
1564	7.5622	4.5455	0.	4.7657e-003
1565	7.5622	4.3636	0.	3.1975e-003
1566	7.5622	4.1818	0.	1.8816e-003
1567	7.5622	4.	0.	7.7772e-004
1568	7.5622	3.8182	0.	-1.2905e-004
1569	7.5622	3.6364	0.	-8.4862e-004
1570	7.5622	3.4545	0.	-1.3844e-003
1571	7.5622	3.2727	0.	-1.7418e-003
1572	7.5622	3.0909	0.	-1.9204e-003
1573	7.5622	2.9091	0.	-1.9203e-003
1574	7.5622	2.7273	0.	-1.7413e-003
1575	7.5622	2.5455	0.	-1.3843e-003
1576	7.5622	2.3636	0.	-8.4821e-004
1577	7.5622	2.1818	0.	-1.2875e-004
1578	7.5622	2.	0.	7.7903e-004
1579	7.5622	1.8182	0.	1.8819e-003
1580	7.5622	1.6364	0.	3.1983e-003
1581	7.5622	1.4545	0.	4.7663e-003
1582	7.5622	1.2727	0.	6.6086e-003
1583	7.5622	1.0909	0.	8.9554e-003
1584	7.5622	0.90909	0.	1.1515e-002
1585	7.5622	0.72727	0.	1.6826e-002
1586	7.5622	0.54545	0.	1.7579e-002
1587	7.5622	0.36364	0.	6.2208e-002
1588	7.5622	0.18182	0.	0.11421
1589	7.3778	5.8182	0.	0.10842
1590	7.3778	5.6364	0.	6.8812e-002
1591	7.3778	5.4545	0.	1.9589e-002
1592	7.3778	5.2727	0.	1.8572e-002
1593	7.3778	5.0909	0.	1.2588e-002
1594	7.3778	4.9091	0.	9.6726e-003
1595	7.3778	4.7273	0.	7.0163e-003
1596	7.3778	4.5455	0.	4.9336e-003
1597	7.3778	4.3636	0.	3.1654e-003
1598	7.3778	4.1818	0.	1.6848e-003
1599	7.3778	4.	0.	4.4549e-004
1600	7.3778	3.8182	0.	-5.7169e-004
1601	7.3778	3.6364	0.	-1.3776e-003
1602	7.3778	3.4545	0.	-1.9779e-003
1603	7.3778	3.2727	0.	-2.377e-003
1604	7.3778	3.0909	0.	-2.5771e-003
1605	7.3778	2.9091	0.	-2.577e-003
1606	7.3778	2.7273	0.	-2.3771e-003
1607	7.3778	2.5455	0.	-1.9775e-003
1608	7.3778	2.3636	0.	-1.3775e-003
1609	7.3778	2.1818	0.	-5.7139e-004
1610	7.3778	2.	0.	4.4626e-004
1611	7.3778	1.8182	0.	1.6851e-003
1612	7.3778	1.6364	0.	3.1657e-003
1613	7.3778	1.4545	0.	4.934e-003
1614	7.3778	1.2727	0.	7.0172e-003
1615	7.3778	1.0909	0.	9.6735e-003
1616	7.3778	0.90909	0.	1.259e-002
1617	7.3778	0.72727	0.	1.8573e-002
1618	7.3778	0.54545	0.	1.9589e-002
1619	7.3778	0.36364	0.	6.8813e-002
1620	7.3778	0.18182	0.	0.10843
1621	7.1933	5.8182	0.	0.1065
1622	7.1933	5.6364	0.	7.5986e-002
1623	7.1933	5.4545	0.	2.1787e-002
1624	7.1933	5.2727	0.	2.0482e-002
1625	7.1933	5.0909	0.	1.3771e-002
1626	7.1933	4.9091	0.	1.0468e-002
1627	7.1933	4.7273	0.	7.4762e-003
1628	7.1933	4.5455	0.	5.1322e-003
1629	7.1933	4.3636	0.	3.1467e-003
1630	7.1933	4.1818	0.	1.4868e-003
1631	7.1933	4.	0.	9.9981e-005
1632	7.1933	3.8182	0.	-1.0378e-003
1633	7.1933	3.6364	0.	-1.9375e-003
1634	7.1933	3.4545	0.	-2.607e-003
1635	7.1933	3.2727	0.	-3.0528e-003
1636	7.1933	3.0909	0.	-3.2755e-003
1637	7.1933	2.9091	0.	-3.2754e-003
1638	7.1933	2.7273	0.	-3.0527e-003
1639	7.1933	2.5455	0.	-2.607e-003
1640	7.1933	2.3636	0.	-1.9373e-003
1641	7.1933	2.1818	0.	-1.0371e-003
1642	7.1933	2.	0.	1.0028e-004
1643	7.1933	1.8182	0.	1.4874e-003
1644	7.1933	1.6364	0.	3.1473e-003
1645	7.1933	1.4545	0.	5.133e-003
1646	7.1933	1.2727	0.	7.477e-003
1647	7.1933	1.0909	0.	1.0469e-002
1648	7.1933	0.90909	0.	1.3772e-002
1649	7.1933	0.72727	0.	2.0483e-002
1650	7.1933	0.54545	0.	2.1788e-002
1651	7.1933	0.36364	0.	7.5988e-002
1652	7.1933	0.18182	0.	0.1065
1653	7.0089	5.8182	0.	0.10724
1654	7.0089	5.6364	0.	8.3774e-002
1655	7.0089	5.4545	0.	2.4184e-002
1656	7.0089	5.2727	0.	2.2561e-002
1657	7.0089	5.0909	0.	1.5062e-002
1658	7.0089	4.9091	0.	1.1339e-002
1659	7.0089	4.7273	0.	7.9826e-003
1660	7.0089	4.5455	0.	5.3544e-003
1661	7.0089	4.3636	0.	3.1334e-003
1662	7.0089	4.1818	0.	1.2783e-003
1663	7.0089	4.	0.	-2.6927e-004
1664	7.0089	3.8182	0.	-1.5372e-003
1665	7.0089	3.6364	0.	-2.5399e-003
1666	7.0089	3.4545	0.	-3.2853e-003
1667	7.0089	3.2727	0.	-3.7809e-003
1668	7.0089	3.0909	0.	-4.0289e-003
1669	7.0089	2.9091	0.	-4.0287e-003
1670	7.0089	2.7273	0.	-3.7809e-003
1671	7.0089	2.5455	0.	-3.285e-003
1672	7.0089	2.3636	0.	-2.5396e-003
1673	7.0089	2.1818	0.	-1.537e-003
1674	7.0089	2.	0.	-2.6898e-004
1675	7.0089	1.8182	0.	1.2791e-003
1676	7.0089	1.6364	0.	3.1338e-003
1677	7.0089	1.4545	0.	5.3551e-003
1678	7.0089	1.2727	0.	7.9832e-003
1679	7.0089	1.0909	0.	1.134e-002
1680	7.0089	0.90909	0.	1.5064e-002
1681	7.0089	0.72727	0.	2.2562e-002
1682	7.0089	0.54545	0.	2.4184e-002
1683	7.0089	0.36364	0.	8.3776e-002
1684	7.0089	0.18182	0.	0.10725
1685	6.8244	5.8182	0.	0.1101
1686	6.8244	5.6364	0.	9.2246e-002
1687	6.8244	5.4545	0.	2.6808e-002
1688	6.8244	5.2727	0.	2.4835e-002
1689	6.8244	5.0909	0.	1.6481e-002
1690	6.8244	4.9091	0.	1.2302e-002
1691	6.8244	4.7273	0.	8.5494e-003
1692	6.8244	4.5455	0.	5.6129e-003
1693	6.8244	4.3636	0.	3.1355e-003
1694	6.8244	4.1818	0.	1.0687e-003
1695	6.8244	4.	0.	-6.5417e-004
1696	6.8244	3.8182	0.	-2.064e-003
1697	6.8244	3.6364	0.	-3.1782e-003
1698	6.8244	3.4545	0.	-4.0062e-003
1699	6.8244	3.2727	0.	-4.5566e-003
1700	6.8244	3.0909	0.	-4.8315e-003
1701	6.8244	2.9091	0.	-4.8314e-003
1702	6.8244	2.7273	0.	-4.5564e-003
1703	6.8244	2.5455	0.	-4.0057e-003
1704	6.8244	2.3636	0.	-3.1776e-003
1705	6.8244	2.1818	0.	-2.0635e-003
1706	6.8244	2.	0.	-6.5382e-004
1707	6.8244	1.8182	0.	1.0692e-003
1708	6.8244	1.6364	0.	3.136e-003
1709	6.8244	1.4545	0.	5.6136e-003
1710	6.8244	1.2727	0.	8.5501e-003
1711	6.8244	1.0909	0.	1.2302e-002
1712	6.8244	0.90909	0.	1.6483e-002
1713	6.8244	0.72727	0.	2.4836e-002
1714	6.8244	0.54545	0.	2.6808e-002
1715	6.8244	0.36364	0.	9.2247e-002
1716	6.8244	0.18182	0.	0.1101
1717	6.64	5.8182	0.	0.1148
1718	6.64	5.6364	0.	0.10146
1719	6.64	5.4545	0.	2.968e-002
1720	6.64	5.2727	0.	2.7318e-002
1721	6.64	5.0909	0.	1.8037e-002
1722	6.64	4.9091	0.	1.3361e-002
1723	6.64	4.7273	0.	9.179e-003
1724	6.64	4.5455	0.	5.9075e-003
1725	6.64	4.3636	0.	3.1514e-003
1726	6.64	4.1818	0.	8.5407e-004
1727	6.64	4.	0.	-1.0591e-003
1728	6.64	3.8182	0.	-2.6228e-003
1729	6.64	3.6364	0.	-3.8587e-003
1730	6.64	3.4545	0.	-4.776e-003
1731	6.64	3.2727	0.	-5.3863e-003
1732	6.64	3.0909	0.	-5.6907e-003
1733	6.64	2.9091	0.	-5.6908e-003
1734	6.64	2.7273	0.	-5.3862e-003
1735	6.64	2.5455	0.	-4.7761e-003
1736	6.64	2.3636	0.	-3.8582e-003
1737	6.64	2.1818	0.	-2.6228e-003
1738	6.64	2.	0.	-1.0586e-003
1739	6.64	1.8182	0.	8.5471e-004
1740	6.64	1.6364	0.	3.1518e-003
1741	6.64	1.4545	0.	5.9082e-003
1742	6.64	1.2727	0.	9.1794e-003
1743	6.64	1.0909	0.	1.3362e-002
1744	6.64	0.90909	0.	1.8039e-002
1745	6.64	0.72727	0.	2.7319e-002
1746	6.64	0.54545	0.	2.9681e-002
1747	6.64	0.36364	0.	0.10147
1748	6.64	0.18182	0.	0.11481
1749	6.4556	5.8182	0.	0.12125
1750	6.4556	5.6364	0.	0.1115
1751	6.4556	5.4545	0.	3.2825e-002
1752	6.4556	5.2727	0.	3.0029e-002
1753	6.4556	5.0909	0.	1.9741e-002
1754	6.4556	4.9091	0.	1.4525e-002
1755	6.4556	4.7273	0.	9.875e-003
1756	6.4556	4.5455	0.	6.2396e-003
1757	6.4556	4.3636	0.	3.18e-003
1758	6.4556	4.1818	0.	6.3286e-004
1759	6.4556	4.	0.	-1.4872e-003
1760	6.4556	3.8182	0.	-3.2193e-003
1761	6.4556	3.6364	0.	-4.5862e-003
1762	6.4556	3.4545	0.	-5.602e-003
1763	6.4556	3.2727	0.	-6.2763e-003
1764	6.4556	3.0909	0.	-6.6129e-003
1765	6.4556	2.9091	0.	-6.613e-003
1766	6.4556	2.7273	0.	-6.2761e-003
1767	6.4556	2.5455	0.	-5.6017e-003
1768	6.4556	2.3636	0.	-4.5862e-003
1769	6.4556	2.1818	0.	-3.2187e-003
1770	6.4556	2.	0.	-1.4868e-003
1771	6.4556	1.8182	0.	6.3339e-004
1772	6.4556	1.6364	0.	3.1807e-003
1773	6.4556	1.4545	0.	6.2401e-003
1774	6.4556	1.2727	0.	9.8759e-003
1775	6.4556	1.0909	0.	1.4525e-002
1776	6.4556	0.90909	0.	1.9742e-002
1777	6.4556	0.72727	0.	3.003e-002
1778	6.4556	0.54545	0.	3.2825e-002
1779	6.4556	0.36364	0.	0.1115
1780	6.4556	0.18182	0.	0.12125
1781	6.2711	5.8182	0.	0.12946
1782	6.2711	5.6364	0.	0.12243
1783	6.2711	5.4545	0.	3.6274e-002
1784	6.2711	5.2727	0.	3.2994e-002
1785	6.2711	5.0909	0.	2.1611e-002
1786	6.2711	4.9091	0.	1.5806e-002
1787	6.2711	4.7273	0.	1.0649e-002
1788	6.2711	4.5455	0.	6.6172e-003
1789	6.2711	4.3636	0.	3.2283e-003
1790	6.2711	4.1818	0.	4.0885e-004
1791	6.2711	4.	0.	-1.936e-003
1792	6.2711	3.8182	0.	-3.8503e-003
1793	6.2711	3.6364	0.	-5.3607e-003
1794	6.2711	3.4545	0.	-6.4823e-003
1795	6.2711	3.2727	0.	-7.2268e-003
1796	6.2711	3.0909	0.	-7.5984e-003
1797	6.2711	2.9091	0.	-7.5984e-003
1798	6.2711	2.7273	0.	-7.2265e-003
1799	6.2711	2.5455	0.	-6.482e-003
1800	6.2711	2.3636	0.	-5.3605e-003
1801	6.2711	2.1818	0.	-3.85e-003
1802	6.2711	2.	0.	-1.9355e-003
1803	6.2711	1.8182	0.	4.0929e-004
1804	6.2711	1.6364	0.	3.2289e-003
1805	6.2711	1.4545	0.	6.6178e-003
1806	6.2711	1.2727	0.	1.0649e-002
1807	6.2711	1.0909	0.	1.5807e-002
1808	6.2711	0.90909	0.	2.1612e-002
1809	6.2711	0.72727	0.	3.2994e-002
1810	6.2711	0.54545	0.	3.6274e-002
1811	6.2711	0.36364	0.	0.12244
1812	6.2711	0.18182	0.	0.12946
1813	6.0867	5.8182	0.	0.13955
1814	6.0867	5.6364	0.	0.13437
1815	6.0867	5.4545	0.	4.0066e-002
1816	6.0867	5.2727	0.	3.6243e-002
1817	6.0867	5.0909	0.	2.3669e-002
1818	6.0867	4.9091	0.	1.7223e-002
1819	6.0867	4.7273	0.	1.1513e-002
1820	6.0867	4.5455	0.	7.0505e-003
1821	6.0867	4.3636	0.	3.3034e-003
1822	6.0867	4.1818	0.	1.8799e-004
1823	6.0867	4.	0.	-2.401e-003
1824	6.0867	3.8182	0.	-4.5134e-003
1825	6.0867	3.6364	0.	-6.179e-003
1826	6.0867	3.4545	0.	-7.4155e-003
1827	6.0867	3.2727	0.	-8.236e-003
1828	6.0867	3.0909	0.	-8.6453e-003
1829	6.0867	2.9091	0.	-8.6453e-003
1830	6.0867	2.7273	0.	-8.2359e-003
1831	6.0867	2.5455	0.	-7.4152e-003
1832	6.0867	2.3636	0.	-6.1787e-003
1833	6.0867	2.1818	0.	-4.5128e-003
1834	6.0867	2.	0.	-2.4006e-003
1835	6.0867	1.8182	0.	1.8855e-004
1836	6.0867	1.6364	0.	3.304e-003
1837	6.0867	1.4545	0.	7.051e-003
1838	6.0867	1.2727	0.	1.1514e-002
1839	6.0867	1.0909	0.	1.7224e-002
1840	6.0867	0.90909	0.	2.367e-002
1841	6.0867	0.72727	0.	3.6244e-002
1842	6.0867	0.54545	0.	4.0066e-002
1843	6.0867	0.36364	0.	0.13437
1844	6.0867	0.18182	0.	0.13955
1845	5.9022	5.8182	0.	0.1517
1846	5.9022	5.6364	0.	0.14738
1847	5.9022	5.4545	0.	4.4229e-002
1848	5.9022	5.2727	0.	3.9796e-002
1849	5.9022	5.0909	0.	2.5925e-002
1850	5.9022	4.9091	0.	1.878e-002
1851	5.9022	4.7273	0.	1.2468e-002
1852	5.9022	4.5455	0.	7.5365e-003
1853	5.9022	4.3636	0.	3.4e-003
1854	5.9022	4.1818	0.	-3.6715e-005
1855	5.9022	4.	0.	-2.8907e-003
1856	5.9022	3.8182	0.	-5.218e-003
1857	5.9022	3.6364	0.	-7.0518e-003
1858	5.9022	3.4545	0.	-8.4129e-003
1859	5.9022	3.2727	0.	-9.3155e-003
1860	5.9022	3.0909	0.	-9.7655e-003
1861	5.9022	2.9091	0.	-9.7658e-003
1862	5.9022	2.7273	0.	-9.3155e-003
1863	5.9022	2.5455	0.	-8.4127e-003
1864	5.9022	2.3636	0.	-7.0516e-003
1865	5.9022	2.1818	0.	-5.2175e-003
1866	5.9022	2.	0.	-2.8905e-003
1867	5.9022	1.8182	0.	-3.6187e-005
1868	5.9022	1.6364	0.	3.4007e-003
1869	5.9022	1.4545	0.	7.5371e-003
1870	5.9022	1.2727	0.	1.2469e-002
1871	5.9022	1.0909	0.	1.8781e-002
1872	5.9022	0.90909	0.	2.5926e-002
1873	5.9022	0.72727	0.	3.9797e-002
1874	5.9022	0.54545	0.	4.4229e-002
1875	5.9022	0.36364	0.	0.14739
1876	5.9022	0.18182	0.	0.1517
1877	5.7178	5.8182	0.	0.16616
1878	5.7178	5.6364	0.	0.16161
1879	5.7178	5.4545	0.	4.8816e-002
1880	5.7178	5.2727	0.	4.3696e-002
1881	5.7178	5.0909	0.	2.8412e-002
1882	5.7178	4.9091	0.	2.0503e-002
1883	5.7178	4.7273	0.	1.3536e-002
1884	5.7178	4.5455	0.	8.0939e-003
1885	5.7178	4.3636	0.	3.5341e-003
1886	5.7178	4.1818	0.	-2.5188e-004
1887	5.7178	4.	0.	-3.3935e-003
1888	5.7178	3.8182	0.	-5.9531e-003
1889	5.7178	3.6364	0.	-7.9691e-003
1890	5.7178	3.4545	0.	-9.4643e-003
1891	5.7178	3.2727	0.	-1.0456e-002
1892	5.7178	3.0909	0.	-1.095e-002
1893	5.7178	2.9091	0.	-1.095e-002
1894	5.7178	2.7273	0.	-1.0456e-002
1895	5.7178	2.5455	0.	-9.4641e-003
1896	5.7178	2.3636	0.	-7.9688e-003
1897	5.7178	2.1818	0.	-5.9526e-003
1898	5.7178	2.	0.	-3.393e-003
1899	5.7178	1.8182	0.	-2.5126e-004
1900	5.7178	1.6364	0.	3.5347e-003
1901	5.7178	1.4545	0.	8.0948e-003
1902	5.7178	1.2727	0.	1.3537e-002
1903	5.7178	1.0909	0.	2.0504e-002
1904	5.7178	0.90909	0.	2.8413e-002
1905	5.7178	0.72727	0.	4.3697e-002
1906	5.7178	0.54545	0.	4.8816e-002
1907	5.7178	0.36364	0.	0.16161
1908	5.7178	0.18182	0.	0.16616
1909	5.5333	5.8182	0.	0.18328
1910	5.5333	5.6364	0.	0.17717
1911	5.5333	5.4545	0.	5.3877e-002
1912	5.5333	5.2727	0.	4.7981e-002
1913	5.5333	5.0909	0.	3.1154e-002
1914	5.5333	4.9091	0.	2.2412e-002
1915	5.5333	4.7273	0.	1.473e-002
1916	5.5333	4.5455	0.	8.7325e-003
1917	5.5333	4.3636	0.	3.7119e-003
1918	5.5333	4.1818	0.	-4.5281e-004
1919	5.5333	4.	0.	-3.906e-003
1920	5.5333	3.8182	0.	-6.7167e-003
1921	5.5333	3.6364	0.	-8.9291e-003
1922	5.5333	3.4545	0.	-1.0569e-002
1923	5.5333	3.2727	0.	-1.1656e-002
1924	5.5333	3.0909	0.	-1.2198e-002
1925	5.5333	2.9091	0.	-1.2197e-002
1926	5.5333	2.7273	0.	-1.1656e-002
1927	5.5333	2.5455	0.	-1.0569e-002
1928	5.5333	2.3636	0.	-8.9288e-003
1929	5.5333	2.1818	0.	-6.7163e-003
1930	5.5333	2.	0.	-3.9056e-003
1931	5.5333	1.8182	0.	-4.5241e-004
1932	5.5333	1.6364	0.	3.7124e-003
1933	5.5333	1.4545	0.	8.7332e-003
1934	5.5333	1.2727	0.	1.4731e-002
1935	5.5333	1.0909	0.	2.2413e-002
1936	5.5333	0.90909	0.	3.1155e-002
1937	5.5333	0.72727	0.	4.7982e-002
1938	5.5333	0.54545	0.	5.3877e-002
1939	5.5333	0.36364	0.	0.17718
1940	5.5333	0.18182	0.	0.18328
1941	5.3489	5.8182	0.	0.20346
1942	5.3489	5.6364	0.	0.1942
1943	5.3489	5.4545	0.	5.9456e-002
1944	5.3489	5.2727	0.	5.268e-002
1945	5.3489	5.0909	0.	3.4169e-002
1946	5.3489	4.9091	0.	2.4515e-002
1947	5.3489	4.7273	0.	1.6054e-002
1948	5.3489	4.5455	0.	9.4512e-003
1949	5.3489	4.3636	0.	3.9303e-003
1950	5.3489	4.1818	0.	-6.4517e-004
1951	5.3489	4.	0.	-4.435e-003
1952	5.3489	3.8182	0.	-7.5163e-003
1953	5.3489	3.6364	0.	-9.9399e-003
1954	5.3489	3.4545	0.	-1.1735e-002
1955	5.3489	3.2727	0.	-1.2924e-002
1956	5.3489	3.0909	0.	-1.3516e-002
1957	5.3489	2.9091	0.	-1.3516e-002
1958	5.3489	2.7273	0.	-1.2924e-002
1959	5.3489	2.5455	0.	-1.1735e-002
1960	5.3489	2.3636	0.	-9.9396e-003
1961	5.3489	2.1818	0.	-7.5162e-003
1962	5.3489	2.	0.	-4.4345e-003
1963	5.3489	1.8182	0.	-6.4443e-004
1964	5.3489	1.6364	0.	3.931e-003
1965	5.3489	1.4545	0.	9.4516e-003
1966	5.3489	1.2727	0.	1.6055e-002
1967	5.3489	1.0909	0.	2.4515e-002
1968	5.3489	0.90909	0.	3.4171e-002
1969	5.3489	0.72727	0.	5.2681e-002
1970	5.3489	0.54545	0.	5.9456e-002
1971	5.3489	0.36364	0.	0.1942
1972	5.3489	0.18182	0.	0.20346
1973	5.1644	5.8182	0.	0.22726
1974	5.1644	5.6364	0.	0.21286
1975	5.1644	5.4545	0.	6.5626e-002
1976	5.1644	5.2727	0.	5.785e-002
1977	5.1644	5.0909	0.	3.7499e-002
1978	5.1644	4.9091	0.	2.6845e-002
1979	5.1644	4.7273	0.	1.7535e-002
1980	5.1644	4.5455	0.	1.0272e-002
1981	5.1644	4.3636	0.	4.2082e-003
1982	5.1644	4.1818	0.	-8.118e-004
1983	5.1644	4.	0.	-4.9646e-003
1984	5.1644	3.8182	0.	-8.3372e-003
1985	5.1644	3.6364	0.	-1.0986e-002
1986	5.1644	3.4545	0.	-1.2947e-002
1987	5.1644	3.2727	0.	-1.4245e-002
1988	5.1644	3.0909	0.	-1.4891e-002
1989	5.1644	2.9091	0.	-1.489e-002
1990	5.1644	2.7273	0.	-1.4244e-002
1991	5.1644	2.5455	0.	-1.2947e-002
1992	5.1644	2.3636	0.	-1.0986e-002
1993	5.1644	2.1818	0.	-8.3368e-003
1994	5.1644	2.	0.	-4.9642e-003
1995	5.1644	1.8182	0.	-8.113e-004
1996	5.1644	1.6364	0.	4.2089e-003
1997	5.1644	1.4545	0.	1.0273e-002
1998	5.1644	1.2727	0.	1.7535e-002
1999	5.1644	1.0909	0.	2.6846e-002
2000	5.1644	0.90909	0.	3.7501e-002
2001	5.1644	0.72727	0.	5.7851e-002
2002	5.1644	0.54545	0.	6.5626e-002
2003	5.1644	0.36364	0.	0.21286
2004	5.1644	0.18182	0.	0.22727
2005	4.98	5.8182	0.	0.25534
2006	4.98	5.6364	0.	0.23332
2007	4.98	5.4545	0.	7.2453e-002
2008	4.98	5.2727	0.	6.3539e-002
2009	4.98	5.0909	0.	4.1174e-002
2010	4.98	4.9091	0.	2.9424e-002
2011	4.98	4.7273	0.	1.9185e-002
2012	4.98	4.5455	0.	1.1205e-002
2013	4.98	4.3636	0.	4.5514e-003
2014	4.98	4.1818	0.	-9.4877e-004
2015	4.98	4.	0.	-5.4917e-003
2016	4.98	3.8182	0.	-9.1753e-003
2017	4.98	3.6364	0.	-1.2065e-002
2018	4.98	3.4545	0.	-1.4201e-002
2019	4.98	3.2727	0.	-1.5613e-002
2020	4.98	3.0909	0.	-1.6315e-002
2021	4.98	2.9091	0.	-1.6315e-002
2022	4.98	2.7273	0.	-1.5613e-002
2023	4.98	2.5455	0.	-1.4201e-002
2024	4.98	2.3636	0.	-1.2065e-002
2025	4.98	2.1818	0.	-9.1751e-003
2026	4.98	2.	0.	-5.4914e-003
2027	4.98	1.8182	0.	-9.4819e-004
2028	4.98	1.6364	0.	4.5519e-003
2029	4.98	1.4545	0.	1.1206e-002
2030	4.98	1.2727	0.	1.9186e-002
2031	4.98	1.0909	0.	2.9425e-002
2032	4.98	0.90909	0.	4.1175e-002
2033	4.98	0.72727	0.	6.354e-002
2034	4.98	0.54545	0.	7.2453e-002
2035	4.98	0.36364	0.	0.23333
2036	4.98	0.18182	0.	0.25534
2037	4.7956	5.8182	0.	0.28853
2038	4.7956	5.6364	0.	0.2558
2039	4.7956	5.4545	0.	8.0015e-002
2040	4.7956	5.2727	0.	6.9801e-002
2041	4.7956	5.0909	0.	4.5229e-002
2042	4.7956	4.9091	0.	3.2275e-002
2043	4.7956	4.7273	0.	2.1022e-002
2044	4.7956	4.5455	0.	1.2261e-002
2045	4.7956	4.3636	0.	4.9681e-003
2046	4.7956	4.1818	0.	-1.0493e-003
2047	4.7956	4.	0.	-6.0096e-003
2048	4.7956	3.8182	0.	-1.0024e-002
2049	4.7956	3.6364	0.	-1.3167e-002
2050	4.7956	3.4545	0.	-1.5487e-002
2051	4.7956	3.2727	0.	-1.7018e-002
2052	4.7956	3.0909	0.	-1.778e-002
2053	4.7956	2.9091	0.	-1.7779e-002
2054	4.7956	2.7273	0.	-1.7018e-002
2055	4.7956	2.5455	0.	-1.5486e-002
2056	4.7956	2.3636	0.	-1.3167e-002
2057	4.7956	2.1818	0.	-1.0024e-002
2058	4.7956	2.	0.	-6.0093e-003
2059	4.7956	1.8182	0.	-1.0487e-003
2060	4.7956	1.6364	0.	4.9688e-003
2061	4.7956	1.4545	0.	1.2261e-002
2062	4.7956	1.2727	0.	2.1023e-002
2063	4.7956	1.0909	0.	3.2276e-002
2064	4.7956	0.90909	0.	4.523e-002
2065	4.7956	0.72727	0.	6.9801e-002
2066	4.7956	0.54545	0.	8.0015e-002
2067	4.7956	0.36364	0.	0.2558
2068	4.7956	0.18182	0.	0.28853
2069	4.6111	5.8182	0.	0.32788
2070	4.6111	5.6364	0.	0.28051
2071	4.6111	5.4545	0.	8.8408e-002
2072	4.6111	5.2727	0.	7.6704e-002
2073	4.6111	5.0909	0.	4.971e-002
2074	4.6111	4.9091	0.	3.5434e-002
2075	4.6111	4.7273	0.	2.3072e-002
2076	4.6111	4.5455	0.	1.3458e-002
2077	4.6111	4.3636	0.	5.4752e-003
2078	4.6111	4.1818	0.	-1.0974e-003
2079	4.6111	4.	0.	-6.5021e-003
2080	4.6111	3.8182	0.	-1.0864e-002
2081	4.6111	3.6364	0.	-1.4272e-002
2082	4.6111	3.4545	0.	-1.6782e-002
2083	4.6111	3.2727	0.	-1.8437e-002
2084	4.6111	3.0909	0.	-1.9259e-002
2085	4.6111	2.9091	0.	-1.9259e-002
2086	4.6111	2.7273	0.	-1.8437e-002
2087	4.6111	2.5455	0.	-1.6782e-002
2088	4.6111	2.3636	0.	-1.4272e-002
2089	4.6111	2.1818	0.	-1.0864e-002
2090	4.6111	2.	0.	-6.5016e-003
2091	4.6111	1.8182	0.	-1.0968e-003
2092	4.6111	1.6364	0.	5.4759e-003
2093	4.6111	1.4545	0.	1.3459e-002
2094	4.6111	1.2727	0.	2.3072e-002
2095	4.6111	1.0909	0.	3.5434e-002
2096	4.6111	0.90909	0.	4.9711e-002
2097	4.6111	0.72727	0.	7.6704e-002
2098	4.6111	0.54545	0.	8.8408e-002
2099	4.6111	0.36364	0.	0.28051
2100	4.6111	0.18182	0.	0.32788
2101	4.4267	5.8182	0.	0.37472
2102	4.4267	5.6364	0.	0.30773
2103	4.4267	5.4545	0.	9.7743e-002
2104	4.4267	5.2727	0.	8.4326e-002
2105	4.4267	5.0909	0.	5.467e-002
2106	4.4267	4.9091	0.	3.8936e-002
2107	4.4267	4.7273	0.	2.536e-002
2108	4.4267	4.5455	0.	1.4821e-002
2109	4.4267	4.3636	0.	6.0917e-003
2110	4.4267	4.1818	0.	-1.0736e-003
2111	4.4267	4.	0.	-6.9474e-003
2112	4.4267	3.8182	0.	-1.1673e-002
2113	4.4267	3.6364	0.	-1.5354e-002
2114	4.4267	3.4545	0.	-1.8058e-002
2115	4.4267	3.2727	0.	-1.9836e-002
2116	4.4267	3.0909	0.	-2.0719e-002
2117	4.4267	2.9091	0.	-2.0719e-002
2118	4.4267	2.7273	0.	-1.9836e-002
2119	4.4267	2.5455	0.	-1.8058e-002
2120	4.4267	2.3636	0.	-1.5354e-002
2121	4.4267	2.1818	0.	-1.1673e-002
2122	4.4267	2.	0.	-6.947e-003
2123	4.4267	1.8182	0.	-1.0733e-003
2124	4.4267	1.6364	0.	6.0924e-003
2125	4.4267	1.4545	0.	1.4821e-002
2126	4.4267	1.2727	0.	2.5361e-002
2127	4.4267	1.0909	0.	3.8937e-002
2128	4.4267	0.90909	0.	5.4671e-002
2129	4.4267	0.72727	0.	8.4326e-002
2130	4.4267	0.54545	0.	9.7743e-002
2131	4.4267	0.36364	0.	0.30773
2132	4.4267	0.18182	0.	0.37472
2133	4.2422	5.8182	0.	0.43073
2134	4.2422	5.6364	0.	0.33776
2135	4.2422	5.4545	0.	0.10813
2136	4.2422	5.2727	0.	9.2738e-002
2137	4.2422	5.0909	0.	6.015e-002
2138	4.2422	4.9091	0.	4.2807e-002
2139	4.2422	4.7273	0.	2.7902e-002
2140	4.2422	4.5455	0.	1.6355e-002
2141	4.2422	4.3636	0.	6.8247e-003
2142	4.2422	4.1818	0.	-9.7046e-004
2143	4.2422	4.	0.	-7.3347e-003
2144	4.2422	3.8182	0.	-1.2434e-002
2145	4.2422	3.6364	0.	-1.639e-002
2146	4.2422	3.4545	0.	-1.9287e-002
2147	4.2422	3.2727	0.	-2.1188e-002
2148	4.2422	3.0909	0.	-2.2129e-002
2149	4.2422	2.9091	0.	-2.2129e-002
2150	4.2422	2.7273	0.	-2.1187e-002
2151	4.2422	2.5455	0.	-1.9287e-002
2152	4.2422	2.3636	0.	-1.639e-002
2153	4.2422	2.1818	0.	-1.2434e-002
2154	4.2422	2.	0.	-7.3343e-003
2155	4.2422	1.8182	0.	-9.7018e-004
2156	4.2422	1.6364	0.	6.8253e-003
2157	4.2422	1.4545	0.	1.6356e-002
2158	4.2422	1.2727	0.	2.7903e-002
2159	4.2422	1.0909	0.	4.2808e-002
2160	4.2422	0.90909	0.	6.0151e-002
2161	4.2422	0.72727	0.	9.2739e-002
2162	4.2422	0.54545	0.	0.10813
2163	4.2422	0.36364	0.	0.33776
2164	4.2422	0.18182	0.	0.43073
2165	4.0578	5.8182	0.	0.49811
2166	4.0578	5.6364	0.	0.37097
2167	4.0578	5.4545	0.	0.11972
2168	4.0578	5.2727	0.	0.10204
2169	4.0578	5.0909	0.	6.6218e-002
2170	4.0578	4.9091	0.	4.7097e-002
2171	4.0578	4.7273	0.	3.0734e-002
2172	4.0578	4.5455	0.	1.8094e-002
2173	4.0578	4.3636	0.	7.7038e-003
2174	4.0578	4.1818	0.	-7.5455e-004
2175	4.0578	4.	0.	-7.6248e-003
2176	4.0578	3.8182	0.	-1.3101e-002
2177	4.0578	3.6364	0.	-1.7328e-002
2178	4.0578	3.4545	0.	-2.0411e-002
2179	4.0578	3.2727	0.	-2.2426e-002
2180	4.0578	3.0909	0.	-2.3422e-002
2181	4.0578	2.9091	0.	-2.3422e-002
2182	4.0578	2.7273	0.	-2.2426e-002
2183	4.0578	2.5455	0.	-2.0411e-002
2184	4.0578	2.3636	0.	-1.7328e-002
2185	4.0578	2.1818	0.	-1.3101e-002
2186	4.0578	2.	0.	-7.6243e-003
2187	4.0578	1.8182	0.	-7.5423e-004
2188	4.0578	1.6364	0.	7.7043e-003
2189	4.0578	1.4545	0.	1.8094e-002
2190	4.0578	1.2727	0.	3.0735e-002
2191	4.0578	1.0909	0.	4.7098e-002
2192	4.0578	0.90909	0.	6.622e-002
2193	4.0578	0.72727	0.	0.10204
2194	4.0578	0.54545	0.	0.11972
2195	4.0578	0.36364	0.	0.37097
2196	4.0578	0.18182	0.	0.49811
2197	3.8733	5.8182	0.	0.57969
2198	3.8733	5.6364	0.	0.40776
2199	3.8733	5.4545	0.	0.13268
2200	3.8733	5.2727	0.	0.11235
2201	3.8733	5.0909	0.	7.2938e-002
2202	3.8733	4.9091	0.	5.1844e-002
2203	3.8733	4.7273	0.	3.3882e-002
2204	3.8733	4.5455	0.	2.0056e-002
2205	3.8733	4.3636	0.	8.7503e-003
2206	3.8733	4.1818	0.	-3.9895e-004
2207	3.8733	4.	0.	-7.7819e-003
2208	3.8733	3.8182	0.	-1.3628e-002
2209	3.8733	3.6364	0.	-1.8112e-002
2210	3.8733	3.4545	0.	-2.1364e-002
2211	3.8733	3.2727	0.	-2.348e-002
2212	3.8733	3.0909	0.	-2.4523e-002
2213	3.8733	2.9091	0.	-2.4523e-002
2214	3.8733	2.7273	0.	-2.348e-002
2215	3.8733	2.5455	0.	-2.1364e-002
2216	3.8733	2.3636	0.	-1.8112e-002
2217	3.8733	2.1818	0.	-1.3627e-002
2218	3.8733	2.	0.	-7.7816e-003
2219	3.8733	1.8182	0.	-3.9844e-004
2220	3.8733	1.6364	0.	8.7508e-003
2221	3.8733	1.4545	0.	2.0056e-002
2222	3.8733	1.2727	0.	3.3882e-002
2223	3.8733	1.0909	0.	5.1844e-002
2224	3.8733	0.90909	0.	7.2939e-002
2225	3.8733	0.72727	0.	0.11235
2226	3.8733	0.54545	0.	0.13268
2227	3.8733	0.36364	0.	0.40776
2228	3.8733	0.18182	0.	0.57969
2229	3.6889	5.8182	0.	0.67925
2230	3.6889	5.6364	0.	0.44862
2231	3.6889	5.4545	0.	0.14717
2232	3.6889	5.2727	0.	0.12375
2233	3.6889	5.0909	0.	8.0364e-002
2234	3.6889	4.9091	0.	5.7075e-002
2235	3.6889	4.7273	0.	3.7358e-002
2236	3.6889	4.5455	0.	2.225e-002
2237	3.6889	4.3636	0.	9.9763e-003
2238	3.6889	4.1818	0.	1.1802e-004
2239	3.6889	4.	0.	-7.7718e-003
2240	3.6889	3.8182	0.	-1.3966e-002
2241	3.6889	3.6364	0.	-1.8679e-002
2242	3.6889	3.4545	0.	-2.2073e-002
2243	3.6889	3.2727	0.	-2.427e-002
2244	3.6889	3.0909	0.	-2.5348e-002
2245	3.6889	2.9091	0.	-2.5348e-002
2246	3.6889	2.7273	0.	-2.427e-002
2247	3.6889	2.5455	0.	-2.2073e-002
2248	3.6889	2.3636	0.	-1.8679e-002
2249	3.6889	2.1818	0.	-1.3966e-002
2250	3.6889	2.	0.	-7.7714e-003
2251	3.6889	1.8182	0.	1.1839e-004
2252	3.6889	1.6364	0.	9.9768e-003
2253	3.6889	1.4545	0.	2.2251e-002
2254	3.6889	1.2727	0.	3.7358e-002
2255	3.6889	1.0909	0.	5.7076e-002
2256	3.6889	0.90909	0.	8.0365e-002
2257	3.6889	0.72727	0.	0.12375
2258	3.6889	0.54545	0.	0.14717
2259	3.6889	0.36364	0.	0.44862
2260	3.6889	0.18182	0.	0.67925
2261	3.5044	5.8182	0.	0.80187
2262	3.5044	5.6364	0.	0.49414
2263	3.5044	5.4545	0.	0.16343
2264	3.5044	5.2727	0.	0.1364
2265	3.5044	5.0909	0.	8.8577e-002
2266	3.5044	4.9091	0.	6.2843e-002
2267	3.5044	4.7273	0.	4.1196e-002
2268	3.5044	4.5455	0.	2.4707e-002
2269	3.5044	4.3636	0.	1.142e-002
2270	3.5044	4.1818	0.	8.4781e-004
2271	3.5044	4.	0.	-7.5249e-003
2272	3.5044	3.8182	0.	-1.4028e-002
2273	3.5044	3.6364	0.	-1.8925e-002
2274	3.5044	3.4545	0.	-2.2418e-002
2275	3.5044	3.2727	0.	-2.4664e-002
2276	3.5044	3.0909	0.	-2.5761e-002
2277	3.5044	2.9091	0.	-2.5761e-002
2278	3.5044	2.7273	0.	-2.4664e-002
2279	3.5044	2.5455	0.	-2.2418e-002
2280	3.5044	2.3636	0.	-1.8924e-002
2281	3.5044	2.1818	0.	-1.4027e-002
2282	3.5044	2.	0.	-7.5245e-003
2283	3.5044	1.8182	0.	8.4813e-004
2284	3.5044	1.6364	0.	1.142e-002
2285	3.5044	1.4545	0.	2.4708e-002
2286	3.5044	1.2727	0.	4.1197e-002
2287	3.5044	1.0909	0.	6.2843e-002
2288	3.5044	0.90909	0.	8.8578e-002
2289	3.5044	0.72727	0.	0.1364
2290	3.5044	0.54545	0.	0.16343
2291	3.5044	0.36364	0.	0.49414
2292	3.5044	0.18182	0.	0.80187
2293	3.32	5.8182	0.	0.95452
2294	3.32	5.6364	0.	0.545
2295	3.32	5.4545	0.	0.18171
2296	3.32	5.2727	0.	0.15043
2297	3.32	5.0909	0.	9.7647e-002
2298	3.32	4.9091	0.	6.9177e-002
2299	3.32	4.7273	0.	4.5412e-002
2300	3.32	4.5455	0.	2.7442e-002
2301	3.32	4.3636	0.	1.3107e-002
2302	3.32	4.1818	0.	1.8379e-003
2303	3.32	4.	0.	-6.9694e-003
2304	3.32	3.8182	0.	-1.3716e-002
2305	3.32	3.6364	0.	-1.8729e-002
2306	3.32	3.4545	0.	-2.2264e-002
2307	3.32	3.2727	0.	-2.4514e-002
2308	3.32	3.0909	0.	-2.5607e-002
2309	3.32	2.9091	0.	-2.5607e-002
2310	3.32	2.7273	0.	-2.4514e-002
2311	3.32	2.5455	0.	-2.2264e-002
2312	3.32	2.3636	0.	-1.8729e-002
2313	3.32	2.1818	0.	-1.3716e-002
2314	3.32	2.	0.	-6.9692e-003
2315	3.32	1.8182	0.	1.8383e-003
2316	3.32	1.6364	0.	1.3107e-002
2317	3.32	1.4545	0.	2.7442e-002
2318	3.32	1.2727	0.	4.5413e-002
2319	3.32	1.0909	0.	6.9178e-002
2320	3.32	0.90909	0.	9.7648e-002
2321	3.32	0.72727	0.	0.15043
2322	3.32	0.54545	0.	0.18171
2323	3.32	0.36364	0.	0.54501
2324	3.32	0.18182	0.	0.95452
2325	3.1356	5.8182	0.	1.147
2326	3.1356	5.6364	0.	0.60206
2327	3.1356	5.4545	0.	0.20229
2328	3.1356	5.2727	0.	0.166
2329	3.1356	5.0909	0.	0.10765
2330	3.1356	4.9091	0.	7.6108e-002
2331	3.1356	4.7273	0.	5.0016e-002
2332	3.1356	4.5455	0.	3.0469e-002
2333	3.1356	4.3636	0.	1.5074e-002
2334	3.1356	4.1818	0.	3.1534e-003
2335	3.1356	4.	0.	-6.0086e-003
2336	3.1356	3.8182	0.	-1.2904e-002
2337	3.1356	3.6364	0.	-1.794e-002
2338	3.1356	3.4545	0.	-2.1436e-002
2339	3.1356	3.2727	0.	-2.3633e-002
2340	3.1356	3.0909	0.	-2.4692e-002
2341	3.1356	2.9091	0.	-2.4692e-002
2342	3.1356	2.7273	0.	-2.3633e-002
2343	3.1356	2.5455	0.	-2.1436e-002
2344	3.1356	2.3636	0.	-1.794e-002
2345	3.1356	2.1818	0.	-1.2904e-002
2346	3.1356	2.	0.	-6.0084e-003
2347	3.1356	1.8182	0.	3.1538e-003
2348	3.1356	1.6364	0.	1.5075e-002
2349	3.1356	1.4545	0.	3.047e-002
2350	3.1356	1.2727	0.	5.0016e-002
2351	3.1356	1.0909	0.	7.6108e-002
2352	3.1356	0.90909	0.	0.10765
2353	3.1356	0.72727	0.	0.166
2354	3.1356	0.54545	0.	0.20229
2355	3.1356	0.36364	0.	0.60206
2356	3.1356	0.18182	0.	1.147
2357	2.9511	5.8182	0.	1.3934
2358	2.9511	5.6364	0.	0.66632
2359	2.9511	5.4545	0.	0.22553
2360	2.9511	5.2727	0.	0.18329
2361	2.9511	5.0909	0.	0.11865
2362	2.9511	4.9091	0.	8.3661e-002
2363	2.9511	4.7273	0.	5.502e-002
2364	2.9511	4.5455	0.	3.3815e-002
2365	2.9511	4.3636	0.	1.7376e-002
2366	2.9511	4.1818	0.	4.8877e-003
2367	2.9511	4.	0.	-4.5084e-003
2368	2.9511	3.8182	0.	-1.1421e-002
2369	2.9511	3.6364	0.	-1.6358e-002
2370	2.9511	3.4545	0.	-1.9713e-002
2371	2.9511	3.2727	0.	-2.1786e-002
2372	2.9511	3.0909	0.	-2.2774e-002
2373	2.9511	2.9091	0.	-2.2774e-002
2374	2.9511	2.7273	0.	-2.1786e-002
2375	2.9511	2.5455	0.	-1.9713e-002
2376	2.9511	2.3636	0.	-1.6357e-002
2377	2.9511	2.1818	0.	-1.1421e-002
2378	2.9511	2.	0.	-4.5082e-003
2379	2.9511	1.8182	0.	4.888e-003
2380	2.9511	1.6364	0.	1.7377e-002
2381	2.9511	1.4545	0.	3.3816e-002
2382	2.9511	1.2727	0.	5.502e-002
2383	2.9511	1.0909	0.	8.3662e-002
2384	2.9511	0.90909	0.	0.11865
2385	2.9511	0.72727	0.	0.18329
2386	2.9511	0.54545	0.	0.22553
2387	2.9511	0.36364	0.	0.66632
2388	2.9511	0.18182	0.	1.3934
2389	2.7667	5.8182	0.	1.7147
2390	2.7667	5.6364	0.	0.73905
2391	2.7667	5.4545	0.	0.25186
2392	2.7667	5.2727	0.	0.20254
2393	2.7667	5.0909	0.	0.13076
2394	2.7667	4.9091	0.	9.1869e-002
2395	2.7667	4.7273	0.	6.0444e-002
2396	2.7667	4.5455	0.	3.7523e-002
2397	2.7667	4.3636	0.	2.0103e-002
2398	2.7667	4.1818	0.	7.1829e-003
2399	2.7667	4.	0.	-2.278e-003
2400	2.7667	3.8182	0.	-9.0363e-003
2401	2.7667	3.6364	0.	-1.3719e-002
2402	2.7667	3.4545	0.	-1.6812e-002
2403	2.7667	3.2727	0.	-1.8677e-002
2404	2.7667	3.0909	0.	-1.9551e-002
2405	2.7667	2.9091	0.	-1.9551e-002
2406	2.7667	2.7273	0.	-1.8677e-002
2407	2.7667	2.5455	0.	-1.6812e-002
2408	2.7667	2.3636	0.	-1.3719e-002
2409	2.7667	2.1818	0.	-9.0361e-003
2410	2.7667	2.	0.	-2.2776e-003
2411	2.7667	1.8182	0.	7.1831e-003
2412	2.7667	1.6364	0.	2.0104e-002
2413	2.7667	1.4545	0.	3.7524e-002
2414	2.7667	1.2727	0.	6.0444e-002
2415	2.7667	1.0909	0.	9.187e-002
2416	2.7667	0.90909	0.	0.13076
2417	2.7667	0.72727	0.	0.20254
2418	2.7667	0.54545	0.	0.25186
2419	2.7667	0.36364	0.	0.73906
2420	2.7667	0.18182	0.	1.7147
2421	2.5822	5.8182	0.	2.1428
2422	2.5822	5.6364	0.	0.82179
2423	2.5822	5.4545	0.	0.28173
2424	2.5822	5.2727	0.	0.22392
2425	2.5822	5.0909	0.	0.14399
2426	2.5822	4.9091	0.	0.1007
2427	2.5822	4.7273	0.	6.6256e-002
2428	2.5822	4.5455	0.	4.1606e-002
2429	2.5822	4.3636	0.	2.333e-002
2430	2.5822	4.1818	0.	1.0178e-002
2431	2.5822	4.	0.	8.773e-004
2432	2.5822	3.8182	0.	-5.5139e-003
2433	2.5822	3.6364	0.	-9.763e-003
2434	2.5822	3.4545	0.	-1.2457e-002
2435	2.5822	3.2727	0.	-1.4024e-002
2436	2.5822	3.0909	0.	-1.4739e-002
2437	2.5822	2.9091	0.	-1.4739e-002
2438	2.5822	2.7273	0.	-1.4024e-002
2439	2.5822	2.5455	0.	-1.2457e-002
2440	2.5822	2.3636	0.	-9.7629e-003
2441	2.5822	2.1818	0.	-5.5137e-003
2442	2.5822	2.	0.	8.7765e-004
2443	2.5822	1.8182	0.	1.0178e-002
2444	2.5822	1.6364	0.	2.333e-002
2445	2.5822	1.4545	0.	4.1606e-002
2446	2.5822	1.2727	0.	6.6257e-002
2447	2.5822	1.0909	0.	0.1007
2448	2.5822	0.90909	0.	0.14399
2449	2.5822	0.72727	0.	0.22392
2450	2.5822	0.54545	0.	0.28173
2451	2.5822	0.36364	0.	0.8218
2452	2.5822	0.18182	0.	2.1428
2453	2.3978	5.8182	0.	2.7288
2454	2.3978	5.6364	0.	0.91657
2455	2.3978	5.4545	0.	0.31586
2456	2.3978	5.2727	0.	0.24784
2457	2.3978	5.0909	0.	0.15855
2458	2.3978	4.9091	0.	0.1103
2459	2.3978	4.7273	0.	7.2633e-002
2460	2.3978	4.5455	0.	4.6313e-002
2461	2.3978	4.3636	0.	2.7394e-002
2462	2.3978	4.1818	0.	1.4291e-002
2463	2.3978	4.	0.	5.4314e-003
2464	2.3978	3.8182	0.	-3.4657e-004
2465	2.3978	3.6364	0.	-3.9685e-003
2466	2.3978	3.4545	0.	-6.1243e-003
2467	2.3978	3.2727	0.	-7.3048e-003
2468	2.3978	3.0909	0.	-7.82e-003
2469	2.3978	2.9091	0.	-7.82e-003
2470	2.3978	2.7273	0.	-7.3047e-003
2471	2.3978	2.5455	0.	-6.1242e-003
2472	2.3978	2.3636	0.	-3.9685e-003
2473	2.3978	2.1818	0.	-3.4646e-004
2474	2.3978	2.	0.	5.4317e-003
2475	2.3978	1.8182	0.	1.4291e-002
2476	2.3978	1.6364	0.	2.7394e-002
2477	2.3978	1.4545	0.	4.6313e-002
2478	2.3978	1.2727	0.	7.2634e-002
2479	2.3978	1.0909	0.	0.1103
2480	2.3978	0.90909	0.	0.15855
2481	2.3978	0.72727	0.	0.24784
2482	2.3978	0.54545	0.	0.31586
2483	2.3978	0.36364	0.	0.91657
2484	2.3978	0.18182	0.	2.7288
2485	2.2133	5.8182	0.	3.5575
2486	2.2133	5.6364	0.	1.0256
2487	2.2133	5.4545	0.	0.35463
2488	2.2133	5.2727	0.	0.27417
2489	2.2133	5.0909	0.	0.17407
2490	2.2133	4.9091	0.	0.12023
2491	2.2133	4.7273	0.	7.9167e-002
2492	2.2133	4.5455	0.	5.1335e-002
2493	2.2133	4.3636	0.	3.2087e-002
2494	2.2133	4.1818	0.	1.9386e-002
2495	2.2133	4.	0.	1.1287e-002
2496	2.2133	3.8182	0.	6.3729e-003
2497	2.2133	3.6364	0.	3.5559e-003
2498	2.2133	3.4545	0.	2.0526e-003
2499	2.2133	3.2727	0.	1.3237e-003
2500	2.2133	3.0909	0.	1.0382e-003
2501	2.2133	2.9091	0.	1.0382e-003
2502	2.2133	2.7273	0.	1.3237e-003
2503	2.2133	2.5455	0.	2.0526e-003
2504	2.2133	2.3636	0.	3.5561e-003
2505	2.2133	2.1818	0.	6.373e-003
2506	2.2133	2.	0.	1.1287e-002
2507	2.2133	1.8182	0.	1.9386e-002
2508	2.2133	1.6364	0.	3.2087e-002
2509	2.2133	1.4545	0.	5.1335e-002
2510	2.2133	1.2727	0.	7.9168e-002
2511	2.2133	1.0909	0.	0.12023
2512	2.2133	0.90909	0.	0.17407
2513	2.2133	0.72727	0.	0.27418
2514	2.2133	0.54545	0.	0.35463
2515	2.2133	0.36364	0.	1.0256
2516	2.2133	0.18182	0.	3.5574
2517	2.0289	5.8182	0.	4.7766
2518	2.0289	5.6364	0.	1.1531
2519	2.0289	5.4545	0.	0.40049
2520	2.0289	5.2727	0.	0.30504
2521	2.0289	5.0909	0.	0.19251
2522	2.0289	4.9091	0.	0.13251
2523	2.0289	4.7273	0.	8.808e-002
2524	2.0289	4.5455	0.	5.9099e-002
2525	2.0289	4.3636	0.	3.9998e-002
2526	2.0289	4.1818	0.	2.8145e-002
2527	2.0289	4.	0.	2.1151e-002
2528	2.0289	3.8182	0.	1.7331e-002
2529	2.0289	3.6364	0.	1.5452e-002
2530	2.0289	3.4545	0.	1.4665e-002
2531	2.0289	3.2727	0.	1.4413e-002
2532	2.0289	3.0909	0.	1.4363e-002
2533	2.0289	2.9091	0.	1.4364e-002
2534	2.0289	2.7273	0.	1.4413e-002
2535	2.0289	2.5455	0.	1.4665e-002
2536	2.0289	2.3636	0.	1.5452e-002
2537	2.0289	2.1818	0.	1.7331e-002
2538	2.0289	2.	0.	2.1151e-002
2539	2.0289	1.8182	0.	2.8145e-002
2540	2.0289	1.6364	0.	3.9998e-002
2541	2.0289	1.4545	0.	5.9099e-002
2542	2.0289	1.2727	0.	8.808e-002
2543	2.0289	1.0909	0.	0.13251
2544	2.0289	0.90909	0.	0.19251
2545	2.0289	0.72727	0.	0.30504
2546	2.0289	0.54545	0.	0.40049
2547	2.0289	0.36364	0.	1.1531
2548	2.0289	0.18182	0.	4.7766
2549	1.8444	5.8182	0.	6.651
2550	1.8444	5.6364	0.	1.2988
2551	1.8444	5.4545	0.	0.44881
2552	1.8444	5.2727	0.	0.33424
2553	1.8444	5.0909	0.	0.20687
2554	1.8444	4.9091	0.	0.13987
2555	1.8444	4.7273	0.	9.2023e-002
2556	1.8444	4.5455	0.	6.2259e-002
2557	1.8444	4.3636	0.	4.3741e-002
2558	1.8444	4.1818	0.	3.3072e-002
2559	1.8444	4.	0.	2.7366e-002
2560	1.8444	3.8182	0.	2.4688e-002
2561	1.8444	3.6364	0.	2.3704e-002
2562	1.8444	3.4545	0.	2.3552e-002
2563	1.8444	3.2727	0.	2.3698e-002
2564	1.8444	3.0909	0.	2.3839e-002
2565	1.8444	2.9091	0.	2.3839e-002
2566	1.8444	2.7273	0.	2.3698e-002
2567	1.8444	2.5455	0.	2.3552e-002
2568	1.8444	2.3636	0.	2.3704e-002
2569	1.8444	2.1818	0.	2.4688e-002
2570	1.8444	2.	0.	2.7366e-002
2571	1.8444	1.8182	0.	3.3072e-002
2572	1.8444	1.6364	0.	4.3742e-002
2573	1.8444	1.4545	0.	6.226e-002
2574	1.8444	1.2727	0.	9.2023e-002
2575	1.8444	1.0909	0.	0.13987
2576	1.8444	0.90909	0.	0.20687
2577	1.8444	0.72727	0.	0.33424
2578	1.8444	0.54545	0.	0.44881
2579	1.8444	0.36364	0.	1.2988
2580	1.8444	0.18182	0.	6.6509
2581	1.66	5.8182	0.	9.6757
2582	1.66	5.6364	0.	1.4857
2583	1.66	5.4545	0.	0.52499
2584	1.66	5.2727	0.	0.38949
2585	1.66	5.0909	0.	0.24658
2586	1.66	4.9091	0.	0.1733
2587	1.66	4.7273	0.	0.1233
2588	1.66	4.5455	0.	9.4057e-002
2589	1.66	4.3636	0.	7.7147e-002
2590	1.66	4.1818	0.	6.8309e-002
2591	1.66	4.	0.	6.4201e-002
2592	1.66	3.8182	0.	6.2736e-002
2593	1.66	3.6364	0.	6.2585e-002
2594	1.66	3.4545	0.	6.2957e-002
2595	1.66	3.2727	0.	6.3398e-002
2596	1.66	3.0909	0.	6.3669e-002
2597	1.66	2.9091	0.	6.3669e-002
2598	1.66	2.7273	0.	6.3398e-002
2599	1.66	2.5455	0.	6.2957e-002
2600	1.66	2.3636	0.	6.2585e-002
2601	1.66	2.1818	0.	6.2736e-002
2602	1.66	2.	0.	6.4201e-002
2603	1.66	1.8182	0.	6.8309e-002
2604	1.66	1.6364	0.	7.7147e-002
2605	1.66	1.4545	0.	9.4057e-002
2606	1.66	1.2727	0.	0.1233
2607	1.66	1.0909	0.	0.1733
2608	1.66	0.90909	0.	0.24658
2609	1.66	0.72727	0.	0.38949
2610	1.66	0.54545	0.	0.52499
2611	1.66	0.36364	0.	1.4857
2612	1.66	0.18182	0.	9.6757
2613	1.4756	5.8182	0.	14.662
2614	1.4756	5.6364	0.	1.6516
2615	1.4756	5.4545	0.	0.53833
2616	1.4756	5.2727	0.	0.36631
2617	1.4756	5.0909	0.	0.19907
2618	1.4756	4.9091	0.	0.11508
2619	1.4756	4.7273	0.	6.0509e-002
2620	1.4756	4.5455	0.	3.0145e-002
2621	1.4756	4.3636	0.	1.3343e-002
2622	1.4756	4.1818	0.	4.8275e-003
2623	1.4756	4.	0.	8.3575e-004
2624	1.4756	3.8182	0.	-7.7351e-004
2625	1.4756	3.6364	0.	-1.2435e-003
2626	1.4756	3.4545	0.	-1.2404e-003
2627	1.4756	3.2727	0.	-1.1086e-003
2628	1.4756	3.0909	0.	-1.011e-003
2629	1.4756	2.9091	0.	-1.0109e-003
2630	1.4756	2.7273	0.	-1.1087e-003
2631	1.4756	2.5455	0.	-1.2403e-003
2632	1.4756	2.3636	0.	-1.2435e-003
2633	1.4756	2.1818	0.	-7.7362e-004
2634	1.4756	2.	0.	8.3579e-004
2635	1.4756	1.8182	0.	4.8276e-003
2636	1.4756	1.6364	0.	1.3343e-002
2637	1.4756	1.4545	0.	3.0145e-002
2638	1.4756	1.2727	0.	6.0509e-002
2639	1.4756	1.0909	0.	0.11508
2640	1.4756	0.90909	0.	0.19907
2641	1.4756	0.72727	0.	0.36631
2642	1.4756	0.54545	0.	0.53833
2643	1.4756	0.36364	0.	1.6516
2644	1.4756	0.18182	0.	14.662
2645	1.2911	5.8182	0.	22.86
2646	1.2911	5.6364	0.	2.0845
2647	1.2911	5.4545	0.	0.86598
2648	1.2911	5.2727	0.	0.689
2649	1.2911	5.0909	0.	0.51928
2650	1.2911	4.9091	0.	0.44188
2651	1.2911	4.7273	0.	0.39584
2652	1.2911	4.5455	0.	0.37396
2653	1.2911	4.3636	0.	0.364
2654	1.2911	4.1818	0.	0.36042
2655	1.2911	4.	0.	0.35971
2656	1.2911	3.8182	0.	0.36015
2657	1.2911	3.6364	0.	0.36088
2658	1.2911	3.4545	0.	0.36155
2659	1.2911	3.2727	0.	0.36202
2660	1.2911	3.0909	0.	0.36226
2661	1.2911	2.9091	0.	0.36226
2662	1.2911	2.7273	0.	0.36202
2663	1.2911	2.5455	0.	0.36155
2664	1.2911	2.3636	0.	0.36088
2665	1.2911	2.1818	0.	0.36015
2666	1.2911	2.	0.	0.35971
2667	1.2911	1.8182	0.	0.36042
2668	1.2911	1.6364	0.	0.364
2669	1.2911	1.4545	0.	0.37396
2670	1.2911	1.2727	0.	0.39584
2671	1.2911	1.0909	0.	0.44188
2672	1.2911	0.90909	0.	0.51928
2673	1.2911	0.72727	0.	0.689
2674	1.2911	0.54545	0.	0.86598
2675	1.2911	0.36364	0.	2.0845
2676	1.2911	0.18182	0.	22.86
2677	1.1067	5.8182	0.	34.996
2678	1.1067	5.6364	0.	1.6962
2679	1.1067	5.4545	0.	4.2121e-002
2680	1.1067	5.2727	0.	-0.30022
2681	1.1067	5.0909	0.	-0.5717
2682	1.1067	4.9091	0.	-0.71014
2683	1.1067	4.7273	0.	-0.79698
2684	1.1067	4.5455	0.	-0.84863
2685	1.1067	4.3636	0.	-0.88205
2686	1.1067	4.1818	0.	-0.90475
2687	1.1067	4.	0.	-0.9211
2688	1.1067	3.8182	0.	-0.93323
2689	1.1067	3.6364	0.	-0.94225
2690	1.1067	3.4545	0.	-0.94872
2691	1.1067	3.2727	0.	-0.95291
2692	1.1067	3.0909	0.	-0.95498
2693	1.1067	2.9091	0.	-0.95498
2694	1.1067	2.7273	0.	-0.95291
2695	1.1067	2.5455	0.	-0.94872
2696	1.1067	2.3636	0.	-0.94225
2697	1.1067	2.1818	0.	-0.93323
2698	1.1067	2.	0.	-0.9211
2699	1.1067	1.8182	0.	-0.90475
2700	1.1067	1.6364	0.	-0.88205
2701	1.1067	1.4545	0.	-0.84863
2702	1.1067	1.2727	0.	-0.79698
2703	1.1067	1.0909	0.	-0.71014
2704	1.1067	0.90909	0.	-0.5717
2705	1.1067	0.72727	0.	-0.30022
2706	1.1067	0.54545	0.	4.212e-002
2707	1.1067	0.36364	0.	1.6962
2708	1.1067	0.18182	0.	34.996
2709	0.92222	5.8182	0.	52.584
2710	0.92222	5.6364	0.	4.933
2711	0.92222	5.4545	0.	3.9631
2712	0.92222	5.2727	0.	4.0199
2713	0.92222	5.0909	0.	4.0138
2714	0.92222	4.9091	0.	4.0733
2715	0.92222	4.7273	0.	4.1341
2716	0.92222	4.5455	0.	4.1932
2717	0.92222	4.3636	0.	4.243
2718	0.92222	4.1818	0.	4.2833
2719	0.92222	4.	0.	4.3148
2720	0.92222	3.8182	0.	4.3388
2721	0.92222	3.6364	0.	4.3565
2722	0.92222	3.4545	0.	4.369
2723	0.92222	3.2727	0.	4.377
2724	0.92222	3.0909	0.	4.3809
2725	0.92222	2.9091	0.	4.3809
2726	0.92222	2.7273	0.	4.377
2727	0.92222	2.5455	0.	4.369
2728	0.92222	2.3636	0.	4.3565
2729	0.92222	2.1818	0.	4.3388
2730	0.92222	2.	0.	4.3148
2731	0.92222	1.8182	0.	4.2833
2732	0.92222	1.6364	0.	4.243
2733	0.92222	1.4545	0.	4.1932
2734	0.92222	1.2727	0.	4.1341
2735	0.92222	1.0909	0.	4.0733
2736	0.92222	0.90909	0.	4.0138
2737	0.92222	0.72727	0.	4.0199
2738	0.92222	0.54545	0.	3.9631
2739	0.92222	0.36364	0.	4.933
2740	0.92222	0.18182	0.	52.584
2741	0.73778	5.8182	0.	71.791
2742	0.73778	5.6364	0.	-5.7346
2743	0.73778	5.4545	0.	-10.629
2744	0.73778	5.2727	0.	-12.44
2745	0.73778	5.0909	0.	-13.687
2746	0.73778	4.9091	0.	-14.479
2747	0.73778	4.7273	0.	-15.042
2748	0.73778	4.5455	0.	-15.454
2749	0.73778	4.3636	0.	-15.767
2750	0.73778	4.1818	0.	-16.009
2751	0.73778	4.	0.	-16.195
2752	0.73778	3.8182	0.	-16.339
2753	0.73778	3.6364	0.	-16.446
2754	0.73778	3.4545	0.	-16.522
2755	0.73778	3.2727	0.	-16.571
2756	0.73778	3.0909	0.	-16.595
2757	0.73778	2.9091	0.	-16.595
2758	0.73778	2.7273	0.	-16.571
2759	0.73778	2.5455	0.	-16.522
2760	0.73778	2.3636	0.	-16.446
2761	0.73778	2.1818	0.	-16.339
2762	0.73778	2.	0.	-16.195
2763	0.73778	1.8182	0.	-16.009
2764	0.73778	1.6364	0.	-15.767
2765	0.73778	1.4545	0.	-15.454
2766	0.73778	1.2727	0.	-15.042
2767	0.73778	1.0909	0.	-14.479
2768	0.73778	0.90909	0.	-13.687
2769	0.73778	0.72727	0.	-12.44
2770	0.73778	0.54545	0.	-10.629
2771	0.73778	0.36364	0.	-5.7346
2772	0.73778	0.18182	0.	71.79
2773	0.55333	5.8182	0.	103.66
2774	0.55333	5.6364	0.	40.527
2775	0.55333	5.4545	0.	49.243
2776	0.55333	5.2727	0.	53.891
2777	0.55333	5.0909	0.	57.128
2778	0.55333	4.9091	0.	59.518
2779	0.55333	4.7273	0.	61.299
2780	0.55333	4.5455	0.	62.654
2781	0.55333	4.3636	0.	63.698
2782	0.55333	4.1818	0.	64.507
2783	0.55333	4.	0.	65.135
2784	0.55333	3.8182	0.	65.616
2785	0.55333	3.6364	0.	65.976
2786	0.55333	3.4545	0.	66.232
2787	0.55333	3.2727	0.	66.397
2788	0.55333	3.0909	0.	66.478
2789	0.55333	2.9091	0.	66.478
2790	0.55333	2.7273	0.	66.397
2791	0.55333	2.5455	0.	66.232
2792	0.55333	2.3636	0.	65.976
2793	0.55333	2.1818	0.	65.616
2794	0.55333	2.	0.	65.135
2795	0.55333	1.8182	0.	64.507
2796	0.55333	1.6364	0.	63.698
2797	0.55333	1.4545	0.	62.654
2798	0.55333	1.2727	0.	61.299
2799	0.55333	1.0909	0.	59.518
2800	0.55333	0.90909	0.	57.128
2801	0.55333	0.72727	0.	53.891
2802	0.55333	0.54545	0.	49.243
2803	0.55333	0.36364	0.	40.527
2804	0.55333	0.18182	0.	103.66
2805	0.36889	5.8182	0.	92.508
2806	0.36889	5.6364	0.	-138.01
2807	0.36889	5.4545	0.	-183.92
2808	0.36889	5.2727	0.	-207.09
2809	0.36889	5.0909	0.	-221.99
2810	0.36889	4.9091	0.	-232.46
2811	0.36889	4.7273	0.	-240.1
2812	0.36889	4.5455	0.	-245.86
2813	0.36889	4.3636	0.	-250.28
2814	0.36889	4.1818	0.	-253.69
2815	0.36889	4.	0.	-256.33
2816	0.36889	3.8182	0.	-258.35
2817	0.36889	3.6364	0.	-259.86
2818	0.36889	3.4545	0.	-260.94
2819	0.36889	3.2727	0.	-261.63
2820	0.36889	3.0909	0.	-261.97
2821	0.36889	2.9091	0.	-261.97
2822	0.36889	2.7273	0.	-261.63
2823	0.36889	2.5455	0.	-260.94
2824	0.36889	2.3636	0.	-259.86
2825	0.36889	2.1818	0.	-258.35
2826	0.36889	2.	0.	-256.33
2827	0.36889	1.8182	0.	-253.69
2828	0.36889	1.6364	0.	-250.28
2829	0.36889	1.4545	0.	-245.86
2830	0.36889	1.2727	0.	-240.1
2831	0.36889	1.0909	0.	-232.46
2832	0.36889	0.90909	0.	-221.99
2833	0.36889	0.72727	0.	-207.09
2834	0.36889	0.54545	0.	-183.92
2835	0.36889	0.36364	0.	-138.01
2836	0.36889	0.18182	0.	92.508
2837	0.18444	5.8182	0.	314.43
2838	0.18444	5.6364	0.	610.68
2839	0.18444	5.4545	0.	743.65
2840	0.18444	5.2727	0.	829.2
2841	0.18444	5.0909	0.	884.08
2842	0.18444	4.9091	0.	923.7
2843	0.18444	4.7273	0.	952.8
2844	0.18444	4.5455	0.	974.89
2845	0.18444	4.3636	0.	991.87
2846	0.18444	4.1818	0.	1005.
2847	0.18444	4.	0.	1015.2
2848	0.18444	3.8182	0.	1023.
2849	0.18444	3.6364	0.	1028.9
2850	0.18444	3.4545	0.	1033.1
2851	0.18444	3.2727	0.	1035.7
2852	0.18444	3.0909	0.	1037.1
2853	0.18444	2.9091	0.	1037.1
2854	0.18444	2.7273	0.	1035.7
2855	0.18444	2.5455	0.	1033.1
2856	0.18444	2.3636	0.	1028.9
2857	0.18444	2.1818	0.	1023.
2858	0.18444	2.	0.	1015.2
2859	0.18444	1.8182	0.	1005.
2860	0.18444	1.6364	0.	991.87
2861	0.18444	1.4545	0.	974.89
2862	0.18444	1.2727	0.	952.8
2863	0.18444	1.0909	0.	923.7
2864	0.18444	0.90909	0.	884.08
2865	0.18444	0.72727	0.	829.2
2866	0.18444	0.54545	0.	743.65
2867	0.18444	0.36364	0.	610.68
2868	0.18444	0.18182	0.	314.43
2869	16.948	0.18182	0.	42.671
2870	16.948	0.36364	0.	81.106
2871	16.948	0.54545	0.	144.37
2872	16.948	0.72727	0.	219.86
2873	16.948	0.90909	0.	307.43
2874	16.948	1.0909	0.	410.32
2875	16.948	1.2727	0.	535.67
2876	16.948	1.4545	0.	687.12
2877	16.948	1.6364	0.	907.83
2878	16.948	1.8182	0.	978.03
2879	16.948	2.	0.	599.65
2880	16.948	2.1818	0.	309.52
2881	16.948	2.3636	0.	350.44
2882	16.948	2.5455	0.	333.23
2883	16.948	2.7273	0.	325.26
2884	16.948	2.9091	0.	319.52
2885	16.948	3.0909	0.	319.52
2886	16.948	3.2727	0.	325.26
2887	16.948	3.4545	0.	333.23
2888	16.948	3.6364	0.	350.44
2889	16.948	3.8182	0.	309.52
2890	16.948	4.	0.	599.65
2891	16.948	4.1818	0.	978.03
2892	16.948	4.3636	0.	907.83
2893	16.948	4.5455	0.	687.12
2894	16.948	4.7273	0.	535.67
2895	16.948	4.9091	0.	410.32
2896	16.948	5.0909	0.	307.43
2897	16.948	5.2727	0.	219.86
2898	16.948	5.4545	0.	144.37
2899	16.948	5.6364	0.	81.106
2900	16.948	5.8182	0.	42.671
2901	17.128	0.18182	0.	31.831
2902	17.128	0.36364	0.	40.552
2903	17.128	0.54545	0.	75.238
2904	17.128	0.72727	0.	123.65
2905	17.128	0.90909	0.	180.34
2906	17.128	1.0909	0.	242.62
2907	17.128	1.2727	0.	307.89
2908	17.128	1.4545	0.	363.66
2909	17.128	1.6364	0.	383.59
2910	17.128	1.8182	0.	329.
2911	17.128	2.	0.	143.77
2912	17.128	2.1818	0.	90.657
2913	17.128	2.3636	0.	126.12
2914	17.128	2.5455	0.	165.96
2915	17.128	2.7273	0.	183.37
2916	17.128	2.9091	0.	190.9
2917	17.128	3.0909	0.	190.9
2918	17.128	3.2727	0.	183.37
2919	17.128	3.4545	0.	165.96
2920	17.128	3.6364	0.	126.12
2921	17.128	3.8182	0.	90.657
2922	17.128	4.	0.	143.77
2923	17.128	4.1818	0.	329.
2924	17.128	4.3636	0.	383.59
2925	17.128	4.5455	0.	363.66
2926	17.128	4.7273	0.	307.89
2927	17.128	4.9091	0.	242.62
2928	17.128	5.0909	0.	180.34
2929	17.128	5.2727	0.	123.65
2930	17.128	5.4545	0.	75.238
2931	17.128	5.6364	0.	40.552
2932	17.128	5.8182	0.	31.831
2933	17.309	0.18182	0.	32.805
2934	17.309	0.36364	0.	33.617
2935	17.309	0.54545	0.	51.199
2936	17.309	0.72727	0.	78.946
2937	17.309	0.90909	0.	111.92
2938	17.309	1.0909	0.	145.13
2939	17.309	1.2727	0.	171.5
2940	17.309	1.4545	0.	180.29
2941	17.309	1.6364	0.	152.31
2942	17.309	1.8182	0.	80.39
2943	17.309	2.	0.	6.5063
2944	17.309	2.1818	0.	-2.527
2945	17.309	2.3636	0.	8.1874
2946	17.309	2.5455	0.	29.042
2947	17.309	2.7273	0.	53.085
2948	17.309	2.9091	0.	65.334
2949	17.309	3.0909	0.	65.334
2950	17.309	3.2727	0.	53.085
2951	17.309	3.4545	0.	29.042
2952	17.309	3.6364	0.	8.1874
2953	17.309	3.8182	0.	-2.527
2954	17.309	4.	0.	6.5065
2955	17.309	4.1818	0.	80.39
2956	17.309	4.3636	0.	152.31
2957	17.309	4.5455	0.	180.29
2958	17.309	4.7273	0.	171.5
2959	17.309	4.9091	0.	145.13
2960	17.309	5.0909	0.	111.92
2961	17.309	5.2727	0.	78.946
2962	17.309	5.4545	0.	51.199
2963	17.309	5.6364	0.	33.617
2964	17.309	5.8182	0.	32.805
2965	17.49	0.18182	0.	33.692
2966	17.49	0.36364	0.	33.047
2967	17.49	0.54545	0.	41.155
2968	17.49	0.72727	0.	54.101
2969	17.49	0.90909	0.	68.705
2970	17.49	1.0909	0.	80.462
2971	17.49	1.2727	0.	83.333
2972	17.49	1.4545	0.	70.268
2973	17.49	1.6364	0.	37.04
2974	17.49	1.8182	0.	5.7419
2975	17.49	2.	0.	2.5269
2976	17.49	2.1818	0.	1.9667
2977	17.49	2.3636	0.	0.76104
2978	17.49	2.5455	0.	1.1001
2979	17.49	2.7273	0.	0.9141
2980	17.49	2.9091	0.	0.63739
2981	17.49	3.0909	0.	0.63739
2982	17.49	3.2727	0.	0.91409
2983	17.49	3.4545	0.	1.1001
2984	17.49	3.6364	0.	0.76102
2985	17.49	3.8182	0.	1.9667
2986	17.49	4.	0.	2.5269
2987	17.49	4.1818	0.	5.742
2988	17.49	4.3636	0.	37.04
2989	17.49	4.5455	0.	70.268
2990	17.49	4.7273	0.	83.333
2991	17.49	4.9091	0.	80.462
2992	17.49	5.0909	0.	68.706
2993	17.49	5.2727	0.	54.101
2994	17.49	5.4545	0.	41.155
2995	17.49	5.6364	0.	33.047
2996	17.49	5.8182	0.	33.692
2997	17.671	0.18182	0.	32.938
2998	17.671	0.36364	0.	32.703
2999	17.671	0.54545	0.	35.571
3000	17.671	0.72727	0.	39.006
3001	17.671	0.90909	0.	41.196
3002	17.671	1.0909	0.	39.167
3003	17.671	1.2727	0.	29.537
3004	17.671	1.4545	0.	12.341
3005	17.671	1.6364	0.	3.0142
3006	17.671	1.8182	0.	1.1409
3007	17.671	2.	0.	0.34597
3008	17.671	2.1818	0.	0.2078
3009	17.671	2.3636	0.	0.55958
3010	17.671	2.5455	0.	0.62812
3011	17.671	2.7273	0.	0.60753
3012	17.671	2.9091	0.	0.58529
3013	17.671	3.0909	0.	0.58529
3014	17.671	3.2727	0.	0.60753
3015	17.671	3.4545	0.	0.62812
3016	17.671	3.6364	0.	0.55958
3017	17.671	3.8182	0.	0.20781
3018	17.671	4.	0.	0.34597
3019	17.671	4.1818	0.	1.1409
3020	17.671	4.3636	0.	3.0142
3021	17.671	4.5455	0.	12.341
3022	17.671	4.7273	0.	29.537
3023	17.671	4.9091	0.	39.168
3024	17.671	5.0909	0.	41.196
3025	17.671	5.2727	0.	39.006
3026	17.671	5.4545	0.	35.571
3027	17.671	5.6364	0.	32.703
3028	17.671	5.8182	0.	32.938
3029	17.852	0.18182	0.	30.956
3030	17.852	0.36364	0.	31.306
3031	17.852	0.54545	0.	31.2
3032	17.852	0.72727	0.	28.893
3033	17.852	0.90909	0.	23.673
3034	17.852	1.0909	0.	14.676
3035	17.852	1.2727	0.	5.2744
3036	17.852	1.4545	0.	2.0019
3037	17.852	1.6364	0.	1.0517
3038	17.852	1.8182	0.	0.63337
3039	17.852	2.	0.	0.47923
3040	17.852	2.1818	0.	0.41942
3041	17.852	2.3636	0.	0.38593
3042	17.852	2.5455	0.	0.43473
3043	17.852	2.7273	0.	0.47928
3044	17.852	2.9091	0.	0.49136
3045	17.852	3.0909	0.	0.49137
3046	17.852	3.2727	0.	0.47928
3047	17.852	3.4545	0.	0.43473
3048	17.852	3.6364	0.	0.38593
3049	17.852	3.8182	0.	0.41942
3050	17.852	4.	0.	0.47923
3051	17.852	4.1818	0.	0.63338
3052	17.852	4.3636	0.	1.0517
3053	17.852	4.5455	0.	2.0019
3054	17.852	4.7273	0.	5.2745
3055	17.852	4.9091	0.	14.676
3056	17.852	5.0909	0.	23.673
3057	17.852	5.2727	0.	28.893
3058	17.852	5.4545	0.	31.2
3059	17.852	5.6364	0.	31.306
3060	17.852	5.8182	0.	30.956
3061	18.033	0.18182	0.	28.223
3062	18.033	0.36364	0.	28.837
3063	18.033	0.54545	0.	26.972
3064	18.033	0.72727	0.	21.388
3065	18.033	0.90909	0.	12.444
3066	18.033	1.0909	0.	3.9874
3067	18.033	1.2727	0.	1.5288
3068	18.033	1.4545	0.	0.8575
3069	18.033	1.6364	0.	0.55383
3070	18.033	1.8182	0.	0.38284
3071	18.033	2.	0.	0.28194
3072	18.033	2.1818	0.	0.25599
3073	18.033	2.3636	0.	0.29055
3074	18.033	2.5455	0.	0.33476
3075	18.033	2.7273	0.	0.37093
3076	18.033	2.9091	0.	0.39108
3077	18.033	3.0909	0.	0.39108
3078	18.033	3.2727	0.	0.37093
3079	18.033	3.4545	0.	0.33476
3080	18.033	3.6364	0.	0.29055
3081	18.033	3.8182	0.	0.25599
3082	18.033	4.	0.	0.28194
3083	18.033	4.1818	0.	0.38284
3084	18.033	4.3636	0.	0.55383
3085	18.033	4.5455	0.	0.8575
3086	18.033	4.7273	0.	1.5288
3087	18.033	4.9091	0.	3.9875
3088	18.033	5.0909	0.	12.445
3089	18.033	5.2727	0.	21.388
3090	18.033	5.4545	0.	26.972
3091	18.033	5.6364	0.	28.837
3092	18.033	5.8182	0.	28.223
3093	18.213	0.18182	0.	25.177
3094	18.213	0.36364	0.	25.667
3095	18.213	0.54545	0.	22.714
3096	18.213	0.72727	0.	15.414
3097	18.213	0.90909	0.	5.6035
3098	18.213	1.0909	0.	1.4896
3099	18.213	1.2727	0.	0.76648
3100	18.213	1.4545	0.	0.505
3101	18.213	1.6364	0.	0.36604
3102	18.213	1.8182	0.	0.28144
3103	18.213	2.	0.	0.23602
3104	18.213	2.1818	0.	0.2215
3105	18.213	2.3636	0.	0.23151
3106	18.213	2.5455	0.	0.25852
3107	18.213	2.7273	0.	0.28611
3108	18.213	2.9091	0.	0.30233
3109	18.213	3.0909	0.	0.30233
3110	18.213	3.2727	0.	0.28611
3111	18.213	3.4545	0.	0.25851
3112	18.213	3.6364	0.	0.23151
3113	18.213	3.8182	0.	0.2215
3114	18.213	4.	0.	0.23602
3115	18.213	4.1818	0.	0.28144
3116	18.213	4.3636	0.	0.36604
3117	18.213	4.5455	0.	0.505
3118	18.213	4.7273	0.	0.76648
3119	18.213	4.9091	0.	1.4896
3120	18.213	5.0909	0.	5.6036
3121	18.213	5.2727	0.	15.414
3122	18.213	5.4545	0.	22.714
3123	18.213	5.6364	0.	25.667
3124	18.213	5.8182	0.	25.177
3125	18.394	0.18182	0.	22.136
3126	18.394	0.36364	0.	22.201
3127	18.394	0.54545	0.	18.543
3128	18.394	0.72727	0.	10.51
3129	18.394	0.90909	0.	2.2869
3130	18.394	1.0909	0.	0.77558
3131	18.394	1.2727	0.	0.46949
3132	18.394	1.4545	0.	0.33765
3133	18.394	1.6364	0.	0.26105
3134	18.394	1.8182	0.	0.21207
3135	18.394	2.	0.	0.1839
3136	18.394	2.1818	0.	0.17588
3137	18.394	2.3636	0.	0.18469
3138	18.394	2.5455	0.	0.20228
3139	18.394	2.7273	0.	0.22022
3140	18.394	2.9091	0.	0.23125
3141	18.394	3.0909	0.	0.23125
3142	18.394	3.2727	0.	0.22022
3143	18.394	3.4545	0.	0.20228
3144	18.394	3.6364	0.	0.18469
3145	18.394	3.8182	0.	0.17589
3146	18.394	4.	0.	0.1839
3147	18.394	4.1818	0.	0.21207
3148	18.394	4.3636	0.	0.26106
3149	18.394	4.5455	0.	0.33765
3150	18.394	4.7273	0.	0.46949
3151	18.394	4.9091	0.	0.77559
3152	18.394	5.0909	0.	2.2869
3153	18.394	5.2727	0.	10.51
3154	18.394	5.4545	0.	18.543
3155	18.394	5.6364	0.	22.201
3156	18.394	5.8182	0.	22.135
3157	18.575	0.18182	0.	19.307
3158	18.575	0.36364	0.	18.765
3159	18.575	0.54545	0.	14.637
3160	18.575	0.72727	0.	6.5081
3161	18.575	0.90909	0.	1.0537
3162	18.575	1.0909	0.	0.47079
3163	18.575	1.2727	0.	0.31692
3164	18.575	1.4545	0.	0.24263
3165	18.575	1.6364	0.	0.19711
3166	18.575	1.8182	0.	0.16742
3167	18.575	2.	0.	0.15036
3168	18.575	2.1818	0.	0.14481
3169	18.575	2.3636	0.	0.14894
3170	18.575	2.5455	0.	0.15909
3171	18.575	2.7273	0.	0.16999
3172	18.575	2.9091	0.	0.17682
3173	18.575	3.0909	0.	0.17682
3174	18.575	3.2727	0.	0.16999
3175	18.575	3.4545	0.	0.15909
3176	18.575	3.6364	0.	0.14894
3177	18.575	3.8182	0.	0.14481
3178	18.575	4.	0.	0.15036
3179	18.575	4.1818	0.	0.16742
3180	18.575	4.3636	0.	0.19711
3181	18.575	4.5455	0.	0.24263
3182	18.575	4.7273	0.	0.31692
3183	18.575	4.9091	0.	0.47079
3184	18.575	5.0909	0.	1.0537
3185	18.575	5.2727	0.	6.5082
3186	18.575	5.4545	0.	14.637
3187	18.575	5.6364	0.	18.765
3188	18.575	5.8182	0.	19.307
3189	18.756	0.18182	0.	16.812
3190	18.756	0.36364	0.	15.586
3191	18.756	0.54545	0.	11.147
3192	18.756	0.72727	0.	3.4274
3193	18.756	0.90909	0.	0.56755
3194	18.756	1.0909	0.	0.31004
3195	18.756	1.2727	0.	0.2261
3196	18.756	1.4545	0.	0.18184
3197	18.756	1.6364	0.	0.15341
3198	18.756	1.8182	0.	0.1343
3199	18.756	2.	0.	0.12288
3200	18.756	2.1818	0.	0.11864
3201	18.756	2.3636	0.	0.12045
3202	18.756	2.5455	0.	0.12596
3203	18.756	2.7273	0.	0.13212
3204	18.756	2.9091	0.	0.13607
3205	18.756	3.0909	0.	0.13607
3206	18.756	3.2727	0.	0.13212
3207	18.756	3.4545	0.	0.12596
3208	18.756	3.6364	0.	0.12045
3209	18.756	3.8182	0.	0.11864
3210	18.756	4.	0.	0.12288
3211	18.756	4.1818	0.	0.13431
3212	18.756	4.3636	0.	0.15341
3213	18.756	4.5455	0.	0.18184
3214	18.756	4.7273	0.	0.2261
3215	18.756	4.9091	0.	0.31004
3216	18.756	5.0909	0.	0.56755
3217	18.756	5.2727	0.	3.4275
3218	18.756	5.4545	0.	11.147
3219	18.756	5.6364	0.	15.586
3220	18.756	5.8182	0.	16.812
3221	18.937	0.18182	0.	14.708
3222	18.937	0.36364	0.	12.803
3223	18.937	0.54545	0.	8.1711
3224	18.937	0.72727	0.	1.4666
3225	18.937	0.90909	0.	0.3397
3226	18.937	1.0909	0.	0.215
3227	18.937	1.2727	0.	0.16741
3228	18.937	1.4545	0.	0.14034
3229	18.937	1.6364	0.	0.12212
3230	18.937	1.8182	0.	0.10945
3231	18.937	2.	0.	0.10148
3232	18.937	2.1818	0.	9.7905e-002
3233	18.937	2.3636	0.	9.8049e-002
3234	18.937	2.5455	0.	0.1006
3235	18.937	2.7273	0.	0.10377
3236	18.937	2.9091	0.	0.10587
3237	18.937	3.0909	0.	0.10587
3238	18.937	3.2727	0.	0.10377
3239	18.937	3.4545	0.	0.1006
3240	18.937	3.6364	0.	9.8049e-002
3241	18.937	3.8182	0.	9.7906e-002
3242	18.937	4.	0.	0.10148
3243	18.937	4.1818	0.	0.10945
3244	18.937	4.3636	0.	0.12212
3245	18.937	4.5455	0.	0.14034
3246	18.937	4.7273	0.	0.16741
3247	18.937	4.9091	0.	0.215
3248	18.937	5.0909	0.	0.3397
3249	18.937	5.2727	0.	1.4667
3250	18.937	5.4545	0.	8.1711
3251	18.937	5.6364	0.	12.803
3252	18.937	5.8182	0.	14.708
3253	19.118	0.18182	0.	13.012
3254	19.118	0.36364	0.	10.488
3255	19.118	0.54545	0.	5.7601
3256	19.118	0.72727	0.	0.61447
3257	19.118	0.90909	0.	0.21846
3258	19.118	1.0909	0.	0.15485
3259	19.118	1.2727	0.	0.12747
3260	19.118	1.4545	0.	0.11073
3261	19.118	1.6364	0.	9.8862e-002
3262	19.118	1.8182	0.	9.0209e-002
3263	19.118	2.	0.	8.4389e-002
3264	19.118	2.1818	0.	8.1266e-002
3265	19.118	2.3636	0.	8.0477e-002
3266	19.118	2.5455	0.	8.1274e-002
3267	19.118	2.7273	0.	8.2641e-002
3268	19.118	2.9091	0.	8.3621e-002
3269	19.118	3.0909	0.	8.362e-002
3270	19.118	3.2727	0.	8.2642e-002
3271	19.118	3.4545	0.	8.1273e-002
3272	19.118	3.6364	0.	8.0477e-002
3273	19.118	3.8182	0.	8.1267e-002
3274	19.118	4.	0.	8.4388e-002
3275	19.118	4.1818	0.	9.021e-002
3276	19.118	4.3636	0.	9.8862e-002
3277	19.118	4.5455	0.	0.11073
3278	19.118	4.7273	0.	0.12747
3279	19.118	4.9091	0.	0.15485
3280	19.118	5.0909	0.	0.21846
3281	19.118	5.2727	0.	0.61447
3282	19.118	5.4545	0.	5.7602
3283	19.118	5.6364	0.	10.488
3284	19.118	5.8182	0.	13.012
3285	19.298	0.18182	0.	11.712
3286	19.298	0.36364	0.	8.6619
3287	19.298	0.54545	0.	3.9252
3288	19.298	0.72727	0.	0.30489
3289	19.298	0.90909	0.	0.14829
3290	19.298	1.0909	0.	0.11507
3291	19.298	1.2727	0.	9.9372e-002
3292	19.298	1.4545	0.	8.9049e-002
3293	19.298	1.6364	0.	8.1261e-002
3294	19.298	1.8182	0.	7.5235e-002
3295	19.298	2.	0.	7.0857e-002
3296	19.298	2.1818	0.	6.8108e-002
3297	19.298	2.3636	0.	6.683e-002
3298	19.298	2.5455	0.	6.6628e-002
3299	19.298	2.7273	0.	6.6958e-002
3300	19.298	2.9091	0.	6.7284e-002
3301	19.298	3.0909	0.	6.7285e-002
3302	19.298	3.2727	0.	6.6958e-002
3303	19.298	3.4545	0.	6.6628e-002
3304	19.298	3.6364	0.	6.683e-002
3305	19.298	3.8182	0.	6.8109e-002
3306	19.298	4.	0.	7.0856e-002
3307	19.298	4.1818	0.	7.5235e-002
3308	19.298	4.3636	0.	8.126e-002
3309	19.298	4.5455	0.	8.9049e-002
3310	19.298	4.7273	0.	9.9371e-002
3311	19.298	4.9091	0.	0.11507
3312	19.298	5.0909	0.	0.14829
3313	19.298	5.2727	0.	0.30489
3314	19.298	5.4545	0.	3.9252
3315	19.298	5.6364	0.	8.6619
3316	19.298	5.8182	0.	11.712
3317	19.479	0.18182	0.	10.783
3318	19.479	0.36364	0.	7.318
3319	19.479	0.54545	0.	2.647
3320	19.479	0.72727	0.	0.17532
3321	19.479	0.90909	0.	0.10523
3322	19.479	1.0909	0.	8.7944e-002
3323	19.479	1.2727	0.	7.9169e-002
3324	19.479	1.4545	0.	7.2909e-002
3325	19.479	1.6364	0.	6.7804e-002
3326	19.479	1.8182	0.	6.3554e-002
3327	19.479	2.	0.	6.0198e-002
3328	19.479	2.1818	0.	5.7801e-002
3329	19.479	2.3636	0.	5.6332e-002
3330	19.479	2.5455	0.	5.5617e-002
3331	19.479	2.7273	0.	5.538e-002
3332	19.479	2.9091	0.	5.5349e-002
3333	19.479	3.0909	0.	5.5347e-002
3334	19.479	3.2727	0.	5.5381e-002
3335	19.479	3.4545	0.	5.5617e-002
3336	19.479	3.6364	0.	5.6332e-002
3337	19.479	3.8182	0.	5.7801e-002
3338	19.479	4.	0.	6.0197e-002
3339	19.479	4.1818	0.	6.3554e-002
3340	19.479	4.3636	0.	6.7804e-002
3341	19.479	4.5455	0.	7.2911e-002
3342	19.479	4.7273	0.	7.9168e-002
3343	19.479	4.9091	0.	8.7944e-002
3344	19.479	5.0909	0.	0.10523
3345	19.479	5.2727	0.	0.17532
3346	19.479	5.4545	0.	2.647
3347	19.479	5.6364	0.	7.318
3348	19.479	5.8182	0.	10.783
3349	19.66	0.18182	0.	10.191
3350	19.66	0.36364	0.	6.4284
3351	19.66	0.54545	0.	1.8838
3352	19.66	0.72727	0.	0.11162
3353	19.66	0.90909	0.	7.7624e-002
3354	19.66	1.0909	0.	6.9014e-002
3355	19.66	1.2727	0.	6.4422e-002
3356	19.66	1.4545	0.	6.0782e-002
3357	19.66	1.6364	0.	5.7483e-002
3358	19.66	1.8182	0.	5.4478e-002
3359	19.66	2.	0.	5.1887e-002
3360	19.66	2.1818	0.	4.9829e-002
3361	19.66	2.3636	0.	4.8354e-002
3362	19.66	2.5455	0.	4.7415e-002
3363	19.66	2.7273	0.	4.6904e-002
3364	19.66	2.9091	0.	4.6691e-002
3365	19.66	3.0909	0.	4.669e-002
3366	19.66	3.2727	0.	4.6905e-002
3367	19.66	3.4545	0.	4.7414e-002
3368	19.66	3.6364	0.	4.8355e-002
3369	19.66	3.8182	0.	4.9829e-002
3370	19.66	4.	0.	5.1886e-002
3371	19.66	4.1818	0.	5.4479e-002
3372	19.66	4.3636	0.	5.7483e-002
3373	19.66	4.5455	0.	6.0781e-002
3374	19.66	4.7273	0.	6.4422e-002
3375	19.66	4.9091	0.	6.9014e-002
3376	19.66	5.0909	0.	7.7624e-002
3377	19.66	5.2727	0.	0.11163
3378	19.66	5.4545	0.	1.8838
3379	19.66	5.6364	0.	6.4284
3380	19.66	5.8182	0.	10.191
3381	19.841	0.18182	0.	9.8995
3382	19.841	0.36364	0.	5.9555
3383	19.841	0.54545	0.	1.5878
3384	19.841	0.72727	0.	7.6628e-002
3385	19.841	0.90909	0.	5.9314e-002
3386	19.841	1.0909	0.	5.5577e-002
3387	19.841	1.2727	0.	5.3561e-002
3388	19.841	1.4545	0.	5.1639e-002
3389	19.841	1.6364	0.	4.9588e-002
3390	19.841	1.8182	0.	4.7484e-002
3391	19.841	2.	0.	4.5493e-002
3392	19.841	2.1818	0.	4.3764e-002
3393	19.841	2.3636	0.	4.2389e-002
3394	19.841	2.5455	0.	4.1402e-002
3395	19.841	2.7273	0.	4.0784e-002
3396	19.841	2.9091	0.	4.049e-002
3397	19.841	3.0909	0.	4.049e-002
3398	19.841	3.2727	0.	4.0784e-002
3399	19.841	3.4545	0.	4.1403e-002
3400	19.841	3.6364	0.	4.2388e-002
3401	19.841	3.8182	0.	4.3763e-002
3402	19.841	4.	0.	4.5493e-002
3403	19.841	4.1818	0.	4.7484e-002
3404	19.841	4.3636	0.	4.9588e-002
3405	19.841	4.5455	0.	5.1638e-002
3406	19.841	4.7273	0.	5.356e-002
3407	19.841	4.9091	0.	5.5576e-002
3408	19.841	5.0909	0.	5.9312e-002
3409	19.841	5.2727	0.	7.6626e-002
3410	19.841	5.4545	0.	1.5878
3411	19.841	5.6364	0.	5.9555
3412	19.841	5.8182	0.	9.8994
3413	20.022	0.18182	0.	9.8714
3414	20.022	0.36364	0.	5.8564
3415	20.022	0.54545	0.	1.7282
3416	20.022	0.72727	0.	5.5973e-002
3417	20.022	0.90909	0.	4.6831e-002
3418	20.022	1.0909	0.	4.5913e-002
3419	20.022	1.2727	0.	4.5521e-002
3420	20.022	1.4545	0.	4.4759e-002
3421	20.022	1.6364	0.	4.3594e-002
3422	20.022	1.8182	0.	4.2169e-002
3423	20.022	2.	0.	4.0663e-002
3424	20.022	2.1818	0.	3.9244e-002
3425	20.022	2.3636	0.	3.8029e-002
3426	20.022	2.5455	0.	3.7091e-002
3427	20.022	2.7273	0.	3.6463e-002
3428	20.022	2.9091	0.	3.6151e-002
3429	20.022	3.0909	0.	3.615e-002
3430	20.022	3.2727	0.	3.6464e-002
3431	20.022	3.4545	0.	3.7092e-002
3432	20.022	3.6364	0.	3.8028e-002
3433	20.022	3.8182	0.	3.9243e-002
3434	20.022	4.	0.	4.0665e-002
3435	20.022	4.1818	0.	4.2169e-002
3436	20.022	4.3636	0.	4.3594e-002
3437	20.022	4.5455	0.	4.476e-002
3438	20.022	4.7273	0.	4.5522e-002
3439	20.022	4.9091	0.	4.5916e-002
3440	20.022	5.0909	0.	4.6827e-002
3441	20.022	5.2727	0.	5.5973e-002
3442	20.022	5.4545	0.	1.7282
3443	20.022	5.6364	0.	5.8564
3444	20.022	5.8182	0.	9.8714
3445	20.202	0.18182	0.	10.072
3446	20.202	0.36364	0.	6.087
3447	20.202	0.54545	0.	2.2753
3448	20.202	0.72727	0.	4.3562e-002
3449	20.202	0.90909	0.	3.8141e-002
3450	20.202	1.0909	0.	3.8918e-002
3451	20.202	1.2727	0.	3.9583e-002
3452	20.202	1.4545	0.	3.9624e-002
3453	20.202	1.6364	0.	3.9117e-002
3454	20.202	1.8182	0.	3.8218e-002
3455	20.202	2.	0.	3.7121e-002
3456	20.202	2.1818	0.	3.5987e-002
3457	20.202	2.3636	0.	3.4956e-002
3458	20.202	2.5455	0.	3.4117e-002
3459	20.202	2.7273	0.	3.3537e-002
3460	20.202	2.9091	0.	3.3238e-002
3461	20.202	3.0909	0.	3.3238e-002
3462	20.202	3.2727	0.	3.3537e-002
3463	20.202	3.4545	0.	3.4118e-002
3464	20.202	3.6364	0.	3.4955e-002
3465	20.202	3.8182	0.	3.5987e-002
3466	20.202	4.	0.	3.712e-002
3467	20.202	4.1818	0.	3.8217e-002
3468	20.202	4.3636	0.	3.9115e-002
3469	20.202	4.5455	0.	3.9625e-002
3470	20.202	4.7273	0.	3.9582e-002
3471	20.202	4.9091	0.	3.8919e-002
3472	20.202	5.0909	0.	3.8139e-002
3473	20.202	5.2727	0.	4.3559e-002
3474	20.202	5.4545	0.	2.2753
3475	20.202	5.6364	0.	6.0869
3476	20.202	5.8182	0.	10.072
3477	20.383	0.18182	0.	10.467
3478	20.383	0.36364	0.	6.6038
3479	20.383	0.54545	0.	3.1767
3480	20.383	0.72727	0.	3.9104e-002
3481	20.383	0.90909	0.	3.2012e-002
3482	20.383	1.0909	0.	3.3845e-002
3483	20.383	1.2727	0.	3.5233e-002
3484	20.383	1.4545	0.	3.5864e-002
3485	20.383	1.6364	0.	3.5854e-002
3486	20.383	1.8182	0.	3.538e-002
3487	20.383	2.	0.	3.4631e-002
3488	20.383	2.1818	0.	3.3765e-002
3489	20.383	2.3636	0.	3.2922e-002
3490	20.383	2.5455	0.	3.2211e-002
3491	20.383	2.7273	0.	3.1698e-002
3492	20.383	2.9091	0.	3.1429e-002
3493	20.383	3.0909	0.	3.1431e-002
3494	20.383	3.2727	0.	3.1696e-002
3495	20.383	3.4545	0.	3.221e-002
3496	20.383	3.6364	0.	3.2923e-002
3497	20.383	3.8182	0.	3.3765e-002
3498	20.383	4.	0.	3.4629e-002
3499	20.383	4.1818	0.	3.5383e-002
3500	20.383	4.3636	0.	3.5854e-002
3501	20.383	4.5455	0.	3.5862e-002
3502	20.383	4.7273	0.	3.5233e-002
3503	20.383	4.9091	0.	3.3846e-002
3504	20.383	5.0909	0.	3.2011e-002
3505	20.383	5.2727	0.	3.9103e-002
3506	20.383	5.4545	0.	3.1767
3507	20.383	5.6364	0.	6.6037
3508	20.383	5.8182	0.	10.467
3509	20.564	0.18182	0.	11.026
3510	20.564	0.36364	0.	7.3661
3511	20.564	0.54545	0.	4.3777
3512	20.564	0.72727	0.	0.87575
3513	20.564	0.90909	0.	2.7713e-002
3514	20.564	1.0909	0.	3.0207e-002
3515	20.564	1.2727	0.	3.212e-002
3516	20.564	1.4545	0.	3.3204e-002
3517	20.564	1.6364	0.	3.3596e-002
3518	20.564	1.8182	0.	3.3478e-002
3519	20.564	2.	0.	3.3025e-002
3520	20.564	2.1818	0.	3.2403e-002
3521	20.564	2.3636	0.	3.1744e-002
3522	20.564	2.5455	0.	3.1161e-002
3523	20.564	2.7273	0.	3.0728e-002
3524	20.564	2.9091	0.	3.0501e-002
3525	20.564	3.0909	0.	3.0499e-002
3526	20.564	3.2727	0.	3.0728e-002
3527	20.564	3.4545	0.	3.1162e-002
3528	20.564	3.6364	0.	3.1744e-002
3529	20.564	3.8182	0.	3.2403e-002
3530	20.564	4.	0.	3.3027e-002
3531	20.564	4.1818	0.	3.3478e-002
3532	20.564	4.3636	0.	3.3597e-002
3533	20.564	4.5455	0.	3.3205e-002
3534	20.564	4.7273	0.	3.2122e-002
3535	20.564	4.9091	0.	3.0206e-002
3536	20.564	5.0909	0.	2.7712e-002
3537	20.564	5.2727	0.	0.87575
3538	20.564	5.4545	0.	4.3777
3539	20.564	5.6364	0.	7.3661
3540	20.564	5.8182	0.	11.026
3541	20.745	0.18182	0.	11.723
3542	20.745	0.36364	0.	8.3369
3543	20.745	0.54545	0.	5.8328
3544	20.745	0.72727	0.	2.9644
3545	20.745	0.90909	0.	2.6184e-002
3546	20.745	1.0909	0.	2.7675e-002
3547	20.745	1.2727	0.	3.0004e-002
3548	20.745	1.4545	0.	3.1455e-002
3549	20.745	1.6364	0.	3.2185e-002
3550	20.745	1.8182	0.	3.2366e-002
3551	20.745	2.	0.	3.2176e-002
3552	20.745	2.1818	0.	3.1769e-002
3553	20.745	2.3636	0.	3.1281e-002
3554	20.745	2.5455	0.	3.0822e-002
3555	20.745	2.7273	0.	3.0469e-002
3556	20.745	2.9091	0.	3.028e-002
3557	20.745	3.0909	0.	3.0279e-002
3558	20.745	3.2727	0.	3.0469e-002
3559	20.745	3.4545	0.	3.082e-002
3560	20.745	3.6364	0.	3.128e-002
3561	20.745	3.8182	0.	3.1769e-002
3562	20.745	4.	0.	3.2177e-002
3563	20.745	4.1818	0.	3.2368e-002
3564	20.745	4.3636	0.	3.2184e-002
3565	20.745	4.5455	0.	3.1455e-002
3566	20.745	4.7273	0.	3.0003e-002
3567	20.745	4.9091	0.	2.7676e-002
3568	20.745	5.0909	0.	2.6185e-002
3569	20.745	5.2727	0.	2.9644
3570	20.745	5.4545	0.	5.8327
3571	20.745	5.6364	0.	8.3369
3572	20.745	5.8182	0.	11.723
3573	20.926	0.18182	0.	12.53
3574	20.926	0.36364	0.	9.4835
3575	20.926	0.54545	0.	7.5044
3576	20.926	0.72727	0.	5.2883
3577	20.926	0.90909	0.	2.7534
3578	20.926	1.0909	0.	2.822e-002
3579	20.926	1.2727	0.	2.8774e-002
3580	20.926	1.4545	0.	3.0526e-002
3581	20.926	1.6364	0.	3.154e-002
3582	20.926	1.8182	0.	3.1977e-002
3583	20.926	2.	0.	3.2008e-002
3584	20.926	2.1818	0.	3.1785e-002
3585	20.926	2.3636	0.	3.1444e-002
3586	20.926	2.5455	0.	3.1091e-002
3587	20.926	2.7273	0.	3.0812e-002
3588	20.926	2.9091	0.	3.0658e-002
3589	20.926	3.0909	0.	3.0659e-002
3590	20.926	3.2727	0.	3.081e-002
3591	20.926	3.4545	0.	3.1093e-002
3592	20.926	3.6364	0.	3.1443e-002
3593	20.926	3.8182	0.	3.1785e-002
3594	20.926	4.	0.	3.2007e-002
3595	20.926	4.1818	0.	3.1978e-002
3596	20.926	4.3636	0.	3.1539e-002
3597	20.926	4.5455	0.	3.0524e-002
3598	20.926	4.7273	0.	2.8775e-002
3599	20.926	4.9091	0.	2.8218e-002
3600	20.926	5.0909	0.	2.7534
3601	20.926	5.2727	0.	5.2883
3602	20.926	5.4545	0.	7.5044
3603	20.926	5.6364	0.	9.4835
3604	20.926	5.8182	0.	12.53
3605	21.107	0.18182	0.	13.427
3606	21.107	0.36364	0.	10.777
3607	21.107	0.54545	0.	9.3618
3608	21.107	0.72727	0.	7.8148
3609	21.107	0.90909	0.	6.0355
3610	21.107	1.0909	0.	4.017
3611	21.107	1.2727	0.	1.7859
3612	21.107	1.4545	0.	3.2069e-002
3613	21.107	1.6364	0.	3.1944e-002
3614	21.107	1.8182	0.	3.2428e-002
3615	21.107	2.	0.	3.257e-002
3616	21.107	2.1818	0.	3.2454e-002
3617	21.107	2.3636	0.	3.2206e-002
3618	21.107	2.5455	0.	3.1924e-002
3619	21.107	2.7273	0.	3.1691e-002
3620	21.107	2.9091	0.	3.156e-002
3621	21.107	3.0909	0.	3.1561e-002
3622	21.107	3.2727	0.	3.1691e-002
3623	21.107	3.4545	0.	3.1924e-002
3624	21.107	3.6364	0.	3.2205e-002
3625	21.107	3.8182	0.	3.2454e-002
3626	21.107	4.	0.	3.2568e-002
3627	21.107	4.1818	0.	3.243e-002
3628	21.107	4.3636	0.	3.1945e-002
3629	21.107	4.5455	0.	3.2069e-002
3630	21.107	4.7273	0.	1.7859
3631	21.107	4.9091	0.	4.0169
3632	21.107	5.0909	0.	6.0355
3633	21.107	5.2727	0.	7.8148
3634	21.107	5.4545	0.	9.3618
3635	21.107	5.6364	0.	10.777
3636	21.107	5.8182	0.	13.427
3637	21.288	0.18182	0.	14.392
3638	21.288	0.36364	0.	12.195
3639	21.288	0.54545	0.	11.38
3640	21.288	0.72727	0.	10.521
3641	21.288	0.90909	0.	9.4987
3642	21.288	1.0909	0.	8.2848
3643	21.288	1.2727	0.	6.8839
3644	21.288	1.4545	0.	5.3258
3645	21.288	1.6364	0.	3.6614
3646	21.288	1.8182	0.	1.958
3647	21.288	2.	0.	0.30264
3648	21.288	2.1818	0.	3.5761e-002
3649	21.288	2.3636	0.	3.4144e-002
3650	21.288	2.5455	0.	3.3506e-002
3651	21.288	2.7273	0.	3.3137e-002
3652	21.288	2.9091	0.	3.2956e-002
3653	21.288	3.0909	0.	3.2957e-002
3654	21.288	3.2727	0.	3.3137e-002
3655	21.288	3.4545	0.	3.3507e-002
3656	21.288	3.6364	0.	3.4143e-002
3657	21.288	3.8182	0.	3.576e-002
3658	21.288	4.	0.	0.30263
3659	21.288	4.1818	0.	1.958
3660	21.288	4.3636	0.	3.6614
3661	21.288	4.5455	0.	5.3258
3662	21.288	4.7273	0.	6.8839
3663	21.288	4.9091	0.	8.2847
3664	21.288	5.0909	0.	9.4987
3665	21.288	5.2727	0.	10.521
3666	21.288	5.4545	0.	11.38
3667	21.288	5.6364	0.	12.194
3668	21.288	5.8182	0.	14.392
3669	21.468	0.18182	0.	15.407
3670	21.468	0.36364	0.	13.715
3671	21.468	0.54545	0.	13.539
3672	21.468	0.72727	0.	13.392
3673	21.468	0.90909	0.	13.133
3674	21.468	1.0909	0.	12.714
3675	21.468	1.2727	0.	12.12
3676	21.468	1.4545	0.	11.36
3677	21.468	1.6364	0.	10.466
3678	21.468	1.8182	0.	9.484
3679	21.468	2.	0.	8.4744
3680	21.468	2.1818	0.	7.5015
3681	21.468	2.3636	0.	6.6299
3682	21.468	2.5455	0.	5.9181
3683	21.468	2.7273	0.	5.4146
3684	21.468	2.9091	0.	5.1538
3685	21.468	3.0909	0.	5.1538
3686	21.468	3.2727	0.	5.4146
3687	21.468	3.4545	0.	5.9181
3688	21.468	3.6364	0.	6.6299
3689	21.468	3.8182	0.	7.5015
3690	21.468	4.	0.	8.4743
3691	21.468	4.1818	0.	9.484
3692	21.468	4.3636	0.	10.466
3693	21.468	4.5455	0.	11.36
3694	21.468	4.7273	0.	12.12
3695	21.468	4.9091	0.	12.714
3696	21.468	5.0909	0.	13.133
3697	21.468	5.2727	0.	13.392
3698	21.468	5.4545	0.	13.539
3699	21.468	5.6364	0.	13.715
3700	21.468	5.8182	0.	15.407
3701	21.649	0.18182	0.	16.456
3702	21.649	0.36364	0.	15.322
3703	21.649	0.54545	0.	15.827
3704	21.649	0.72727	0.	16.418
3705	21.649	0.90909	0.	16.935
3706	21.649	1.0909	0.	17.309
3707	21.649	1.2727	0.	17.506
3708	21.649	1.4545	0.	17.516
3709	21.649	1.6364	0.	17.355
3710	21.649	1.8182	0.	17.053
3711	21.649	2.	0.	16.657
3712	21.649	2.1818	0.	16.217
3713	21.649	2.3636	0.	15.787
3714	21.649	2.5455	0.	15.416
3715	21.649	2.7273	0.	15.144
3716	21.649	2.9091	0.	15.
3717	21.649	3.0909	0.	15.
3718	21.649	3.2727	0.	15.144
3719	21.649	3.4545	0.	15.416
3720	21.649	3.6364	0.	15.787
3721	21.649	3.8182	0.	16.217
3722	21.649	4.	0.	16.657
3723	21.649	4.1818	0.	17.053
3724	21.649	4.3636	0.	17.355
3725	21.649	4.5455	0.	17.516
3726	21.649	4.7273	0.	17.506
3727	21.649	4.9091	0.	17.309
3728	21.649	5.0909	0.	16.935
3729	21.649	5.2727	0.	16.418
3730	21.649	5.4545	0.	15.827
3731	21.649	5.6364	0.	15.322
3732	21.649	5.8182	0.	16.456
3733	21.83	0.18182	0.	17.523
3734	21.83	0.36364	0.	17.005
3735	21.83	0.54545	0.	18.234
3736	21.83	0.72727	0.	19.597
3737	21.83	0.90909	0.	20.909
3738	21.83	1.0909	0.	22.081
3739	21.83	1.2727	0.	23.058
3740	21.83	1.4545	0.	23.816
3741	21.83	1.6364	0.	24.357
3742	21.83	1.8182	0.	24.699
3743	21.83	2.	0.	24.877
3744	21.83	2.1818	0.	24.932
3745	21.83	2.3636	0.	24.909
3746	21.83	2.5455	0.	24.85
3747	21.83	2.7273	0.	24.79
3748	21.83	2.9091	0.	24.753
3749	21.83	3.0909	0.	24.753
3750	21.83	3.2727	0.	24.79
3751	21.83	3.4545	0.	24.85
3752	21.83	3.6364	0.	24.909
3753	21.83	3.8182	0.	24.932
3754	21.83	4.	0.	24.876
3755	21.83	4.1818	0.	24.699
3756	21.83	4.3636	0.	24.357
3757	21.83	4.5455	0.	23.816
3758	21.83	4.7273	0.	23.058
3759	21.83	4.9091	0.	22.08
3760	21.83	5.0909	0.	20.909
3761	21.83	5.2727	0.	19.597
3762	21.83	5.4545	0.	18.234
3763	21.83	5.6364	0.	17.005
3764	21.83	5.8182	0.	17.523
3765	22.011	0.18182	0.	18.595
3766	22.011	0.36364	0.	18.755
3767	22.011	0.54545	0.	20.761
3768	22.011	0.72727	0.	22.936
3769	22.011	0.90909	0.	25.07
3770	22.011	1.0909	0.	27.048
3771	22.011	1.2727	0.	28.801
3772	22.011	1.4545	0.	30.29
3773	22.011	1.6364	0.	31.505
3774	22.011	1.8182	0.	32.457
3775	22.011	2.	0.	33.173
3776	22.011	2.1818	0.	33.688
3777	22.011	2.3636	0.	34.041
3778	22.011	2.5455	0.	34.269
3779	22.011	2.7273	0.	34.402
3780	22.011	2.9091	0.	34.462
3781	22.011	3.0909	0.	34.462
3782	22.011	3.2727	0.	34.402
3783	22.011	3.4545	0.	34.269
3784	22.011	3.6364	0.	34.041
3785	22.011	3.8182	0.	33.688
3786	22.011	4.	0.	33.173
3787	22.011	4.1818	0.	32.457
3788	22.011	4.3636	0.	31.505
3789	22.011	4.5455	0.	30.29
3790	22.011	4.7273	0.	28.801
3791	22.011	4.9091	0.	27.048
3792	22.011	5.0909	0.	25.07
3793	22.011	5.2727	0.	22.936
3794	22.011	5.4545	0.	20.761
3795	22.011	5.6364	0.	18.755
3796	22.011	5.8182	0.	18.595
3797	22.192	0.18182	0.	19.658
3798	22.192	0.36364	0.	20.569
3799	22.192	0.54545	0.	23.414
3800	22.192	0.72727	0.	26.452
3801	22.192	0.90909	0.	29.44
3802	22.192	1.0909	0.	32.241
3803	22.192	1.2727	0.	34.768
3804	22.192	1.4545	0.	36.972
3805	22.192	1.6364	0.	38.836
3806	22.192	1.8182	0.	40.366
3807	22.192	2.	0.	41.586
3808	22.192	2.1818	0.	42.528
3809	22.192	2.3636	0.	43.226
3810	22.192	2.5455	0.	43.716
3811	22.192	2.7273	0.	44.025
3812	22.192	2.9091	0.	44.174
3813	22.192	3.0909	0.	44.174
3814	22.192	3.2727	0.	44.025
3815	22.192	3.4545	0.	43.716
3816	22.192	3.6364	0.	43.226
3817	22.192	3.8182	0.	42.528
3818	22.192	4.	0.	41.586
3819	22.192	4.1818	0.	40.366
3820	22.192	4.3636	0.	38.836
3821	22.192	4.5455	0.	36.972
3822	22.192	4.7273	0.	34.768
3823	22.192	4.9091	0.	32.241
3824	22.192	5.0909	0.	29.44
3825	22.192	5.2727	0.	26.451
3826	22.192	5.4545	0.	23.414
3827	22.192	5.6364	0.	20.569
3828	22.192	5.8182	0.	19.658
3829	22.372	0.18182	0.	20.699
3830	22.372	0.36364	0.	22.449
3831	22.372	0.54545	0.	26.208
3832	22.372	0.72727	0.	30.171
3833	22.372	0.90909	0.	34.055
3834	22.372	1.0909	0.	37.699
3835	22.372	1.2727	0.	41.
3836	22.372	1.4545	0.	43.904
3837	22.372	1.6364	0.	46.39
3838	22.372	1.8182	0.	48.466
3839	22.372	2.	0.	50.156
3840	22.372	2.1818	0.	51.491
3841	22.372	2.3636	0.	52.505
3842	22.372	2.5455	0.	53.233
3843	22.372	2.7273	0.	53.701
3844	22.372	2.9091	0.	53.93
3845	22.372	3.0909	0.	53.93
3846	22.372	3.2727	0.	53.701
3847	22.372	3.4545	0.	53.233
3848	22.372	3.6364	0.	52.505
3849	22.372	3.8182	0.	51.491
3850	22.372	4.	0.	50.156
3851	22.372	4.1818	0.	48.466
3852	22.372	4.3636	0.	46.39
3853	22.372	4.5455	0.	43.904
3854	22.372	4.7273	0.	41.
3855	22.372	4.9091	0.	37.699
3856	22.372	5.0909	0.	34.055
3857	22.372	5.2727	0.	30.171
3858	22.372	5.4545	0.	26.208
3859	22.372	5.6364	0.	22.449
3860	22.372	5.8182	0.	20.699
3861	22.553	0.18182	0.	21.706
3862	22.553	0.36364	0.	24.404
3863	22.553	0.54545	0.	29.174
3864	22.553	0.72727	0.	34.137
3865	22.553	0.90909	0.	38.966
3866	22.553	1.0909	0.	43.473
3867	22.553	1.2727	0.	47.547
3868	22.553	1.4545	0.	51.131
3869	22.553	1.6364	0.	54.211
3870	22.553	1.8182	0.	56.798
3871	22.553	2.	0.	58.921
3872	22.553	2.1818	0.	60.614
3873	22.553	2.3636	0.	61.915
3874	22.553	2.5455	0.	62.857
3875	22.553	2.7273	0.	63.468
3876	22.553	2.9091	0.	63.769
3877	22.553	3.0909	0.	63.769
3878	22.553	3.2727	0.	63.468
3879	22.553	3.4545	0.	62.857
3880	22.553	3.6364	0.	61.915
3881	22.553	3.8182	0.	60.614
3882	22.553	4.	0.	58.921
3883	22.553	4.1818	0.	56.798
3884	22.553	4.3636	0.	54.211
3885	22.553	4.5455	0.	51.131
3886	22.553	4.7273	0.	47.546
3887	22.553	4.9091	0.	43.473
3888	22.553	5.0909	0.	38.966
3889	22.553	5.2727	0.	34.137
3890	22.553	5.4545	0.	29.174
3891	22.553	5.6364	0.	24.404
3892	22.553	5.8182	0.	21.706
3893	22.734	0.18182	0.	22.664
3894	22.734	0.36364	0.	26.455
3895	22.734	0.54545	0.	32.359
3896	22.734	0.72727	0.	38.412
3897	22.734	0.90909	0.	44.239
3898	22.734	1.0909	0.	49.628
3899	22.734	1.2727	0.	54.465
3900	22.734	1.4545	0.	58.704
3901	22.734	1.6364	0.	62.341
3902	22.734	1.8182	0.	65.401
3903	22.734	2.	0.	67.918
3904	22.734	2.1818	0.	69.934
3905	22.734	2.3636	0.	71.49
3906	22.734	2.5455	0.	72.621
3907	22.734	2.7273	0.	73.359
3908	22.734	2.9091	0.	73.722
3909	22.734	3.0909	0.	73.722
3910	22.734	3.2727	0.	73.359
3911	22.734	3.4545	0.	72.621
3912	22.734	3.6364	0.	71.49
3913	22.734	3.8182	0.	69.934
3914	22.734	4.	0.	67.918
3915	22.734	4.1818	0.	65.401
3916	22.734	4.3636	0.	62.341
3917	22.734	4.5455	0.	58.704
3918	22.734	4.7273	0.	54.465
3919	22.734	4.9091	0.	49.628
3920	22.734	5.0909	0.	44.239
3921	22.734	5.2727	0.	38.412
3922	22.734	5.4545	0.	32.359
3923	22.734	5.6364	0.	26.455
3924	22.734	5.8182	0.	22.664
3925	22.915	0.18182	0.	23.562
3926	22.915	0.36364	0.	28.641
3927	22.915	0.54545	0.	35.837
3928	22.915	0.72727	0.	43.09
3929	22.915	0.90909	0.	49.965
3930	22.915	1.0909	0.	56.242
3931	22.915	1.2727	0.	61.82
3932	22.915	1.4545	0.	66.676
3933	22.915	1.6364	0.	70.826
3934	22.915	1.8182	0.	74.311
3935	22.915	2.	0.	77.179
3936	22.915	2.1818	0.	79.479
3937	22.915	2.3636	0.	81.257
3938	22.915	2.5455	0.	82.554
3939	22.915	2.7273	0.	83.401
3940	22.915	2.9091	0.	83.819
3941	22.915	3.0909	0.	83.819
3942	22.915	3.2727	0.	83.401
3943	22.915	3.4545	0.	82.554
3944	22.915	3.6364	0.	81.257
3945	22.915	3.8182	0.	79.479
3946	22.915	4.	0.	77.179
3947	22.915	4.1818	0.	74.311
3948	22.915	4.3636	0.	70.826
3949	22.915	4.5455	0.	66.676
3950	22.915	4.7273	0.	61.82
3951	22.915	4.9091	0.	56.242
3952	22.915	5.0909	0.	49.965
3953	22.915	5.2727	0.	43.089
3954	22.915	5.4545	0.	35.837
3955	22.915	5.6364	0.	28.641
3956	22.915	5.8182	0.	23.562
3957	23.096	0.18182	0.	24.387
3958	23.096	0.36364	0.	31.032
3959	23.096	0.54545	0.	39.729
3960	23.096	0.72727	0.	48.296
3961	23.096	0.90909	0.	56.257
3962	23.096	1.0909	0.	63.405
3963	23.096	1.2727	0.	69.681
3964	23.096	1.4545	0.	75.098
3965	23.096	1.6364	0.	79.704
3966	23.096	1.8182	0.	83.561
3967	23.096	2.	0.	86.731
3968	23.096	2.1818	0.	89.273
3969	23.096	2.3636	0.	91.241
3970	23.096	2.5455	0.	92.677
3971	23.096	2.7273	0.	93.616
3972	23.096	2.9091	0.	94.08
3973	23.096	3.0909	0.	94.08
3974	23.096	3.2727	0.	93.616
3975	23.096	3.4545	0.	92.677
3976	23.096	3.6364	0.	91.241
3977	23.096	3.8182	0.	89.273
3978	23.096	4.	0.	86.731
3979	23.096	4.1818	0.	83.561
3980	23.096	4.3636	0.	79.704
3981	23.096	4.5455	0.	75.098
3982	23.096	4.7273	0.	69.68
3983	23.096	4.9091	0.	63.405
3984	23.096	5.0909	0.	56.257
3985	23.096	5.2727	0.	48.296
3986	23.096	5.4545	0.	39.729
3987	23.096	5.6364	0.	31.032
3988	23.096	5.8182	0.	24.387
3989	23.277	0.18182	0.	25.14
3990	23.277	0.36364	0.	33.764
3991	23.277	0.54545	0.	44.227
3992	23.277	0.72727	0.	54.213
3993	23.277	0.90909	0.	63.254
3994	23.277	1.0909	0.	71.217
3995	23.277	1.2727	0.	78.116
3996	23.277	1.4545	0.	84.019
3997	23.277	1.6364	0.	89.011
3998	23.277	1.8182	0.	93.178
3999	23.277	2.	0.	96.598
4000	23.277	2.1818	0.	99.339
4001	23.277	2.3636	0.	101.46
4002	23.277	2.5455	0.	103.01
4003	23.277	2.7273	0.	104.03
4004	23.277	2.9091	0.	104.53
4005	23.277	3.0909	0.	104.53
4006	23.277	3.2727	0.	104.03
4007	23.277	3.4545	0.	103.01
4008	23.277	3.6364	0.	101.46
4009	23.277	3.8182	0.	99.339
4010	23.277	4.	0.	96.598
4011	23.277	4.1818	0.	93.178
4012	23.277	4.3636	0.	89.011
4013	23.277	4.5455	0.	84.019
4014	23.277	4.7273	0.	78.116
4015	23.277	4.9091	0.	71.217
4016	23.277	5.0909	0.	63.254
4017	23.277	5.2727	0.	54.213
4018	23.277	5.4545	0.	44.227
4019	23.277	5.6364	0.	33.764
4020	23.277	5.8182	0.	25.14
4021	23.458	0.18182	0.	25.843
4022	23.458	0.36364	0.	37.097
4023	23.458	0.54545	0.	49.622
4024	23.458	0.72727	0.	61.053
4025	23.458	0.90909	0.	71.09
4026	23.458	1.0909	0.	79.755
4027	23.458	1.2727	0.	87.167
4028	23.458	1.4545	0.	93.46
4029	23.458	1.6364	0.	98.756
4030	23.458	1.8182	0.	103.17
4031	23.458	2.	0.	106.78
4032	23.458	2.1818	0.	109.68
4033	23.458	2.3636	0.	111.92
4034	23.458	2.5455	0.	113.56
4035	23.458	2.7273	0.	114.63
4036	23.458	2.9091	0.	115.16
4037	23.458	3.0909	0.	115.16
4038	23.458	3.2727	0.	114.63
4039	23.458	3.4545	0.	113.56
4040	23.458	3.6364	0.	111.92
4041	23.458	3.8182	0.	109.68
4042	23.458	4.	0.	106.78
4043	23.458	4.1818	0.	103.17
4044	23.458	4.3636	0.	98.756
4045	23.458	4.5455	0.	93.46
4046	23.458	4.7273	0.	87.167
4047	23.458	4.9091	0.	79.754
4048	23.458	5.0909	0.	71.09
4049	23.458	5.2727	0.	61.053
4050	23.458	5.4545	0.	49.621
4051	23.458	5.6364	0.	37.097
4052	23.458	5.8182	0.	25.843
4053	23.638	0.18182	0.	26.673
4054	23.638	0.36364	0.	41.658
4055	23.638	0.54545	0.	56.411
4056	23.638	0.72727	0.	69.125
4057	23.638	0.90909	0.	79.952
4058	23.638	1.0909	0.	89.14
4059	23.638	1.2727	0.	96.923
4060	23.638	1.4545	0.	103.49
4061	23.638	1.6364	0.	109.01
4062	23.638	1.8182	0.	113.59
4063	23.638	2.	0.	117.34
4064	23.638	2.1818	0.	120.35
4065	23.638	2.3636	0.	122.67
4066	23.638	2.5455	0.	124.38
4067	23.638	2.7273	0.	125.49
4068	23.638	2.9091	0.	126.04
4069	23.638	3.0909	0.	126.04
4070	23.638	3.2727	0.	125.49
4071	23.638	3.4545	0.	124.38
4072	23.638	3.6364	0.	122.67
4073	23.638	3.8182	0.	120.35
4074	23.638	4.	0.	117.34
4075	23.638	4.1818	0.	113.59
4076	23.638	4.3636	0.	109.01
4077	23.638	4.5455	0.	103.49
4078	23.638	4.7273	0.	96.923
4079	23.638	4.9091	0.	89.14
4080	23.638	5.0909	0.	79.952
4081	23.638	5.2727	0.	69.125
4082	23.638	5.4545	0.	56.411
4083	23.638	5.6364	0.	41.658
4084	23.638	5.8182	0.	26.673
4085	23.819	0.18182	0.	28.781
4086	23.819	0.36364	0.	48.525
4087	23.819	0.54545	0.	65.007
4088	23.819	0.72727	0.	78.517
4089	23.819	0.90909	0.	89.784
4090	23.819	1.0909	0.	99.249
4091	23.819	1.2727	0.	107.23
4092	23.819	1.4545	0.	113.94
4093	23.819	1.6364	0.	119.57
4094	23.819	1.8182	0.	124.24
4095	23.819	2.	0.	128.07
4096	23.819	2.1818	0.	131.14
4097	23.819	2.3636	0.	133.52
4098	23.819	2.5455	0.	135.26
4099	23.819	2.7273	0.	136.39
4100	23.819	2.9091	0.	136.96
4101	23.819	3.0909	0.	136.96
4102	23.819	3.2727	0.	136.39
4103	23.819	3.4545	0.	135.26
4104	23.819	3.6364	0.	133.52
4105	23.819	3.8182	0.	131.14
4106	23.819	4.	0.	128.07
4107	23.819	4.1818	0.	124.24
4108	23.819	4.3636	0.	119.57
4109	23.819	4.5455	0.	113.94
4110	23.819	4.7273	0.	107.23
4111	23.819	4.9091	0.	99.249
4112	23.819	5.0909	0.	89.784
4113	23.819	5.2727	0.	78.517
4114	23.819	5.4545	0.	65.007
4115	23.819	5.6364	0.	48.525
4116	23.819	5.8182	0.	28.781
4117	23.819	5.8182	0.1	36.472
4118	23.819	5.6364	0.1	37.403
4119	23.819	5.4545	0.1	38.023
4120	23.819	5.2727	0.1	38.354
4121	23.819	5.0909	0.1	38.486
4122	23.819	4.9091	0.1	38.52
4123	23.819	4.7273	0.1	38.499
4124	23.819	4.5455	0.1	38.45
4125	23.819	4.3636	0.1	38.387
4126	23.819	4.1818	0.1	38.32
4127	23.819	4.	0.1	38.256
4128	23.819	3.8182	0.1	38.197
4129	23.819	3.6364	0.1	38.147
4130	23.819	3.4545	0.1	38.108
4131	23.819	3.2727	0.1	38.082
4132	23.819	3.0909	0.1	38.068
4133	23.819	2.9091	0.1	38.068
4134	23.819	2.7273	0.1	38.082
4135	23.819	2.5455	0.1	38.108
4136	23.819	2.3636	0.1	38.147
4137	23.819	2.1818	0.1	38.197
4138	23.819	2.	0.1	38.256
4139	23.819	1.8182	0.1	38.32
4140	23.819	1.6364	0.1	38.387
4141	23.819	1.4545	0.1	38.45
4142	23.819	1.2727	0.1	38.499
4143	23.819	1.0909	0.1	38.52
4144	23.819	0.90909	0.1	38.486
4145	23.819	0.72727	0.1	38.354
4146	23.819	0.54545	0.1	38.023
4147	23.819	0.36364	0.1	37.403
4148	23.819	0.18182	0.1	36.472
4149	23.638	5.8182	0.1	71.827
4150	23.638	5.6364	0.1	72.145
4151	23.638	5.4545	0.1	73.391
4152	23.638	5.2727	0.1	74.294
4153	23.638	5.0909	0.1	74.865
4154	23.638	4.9091	0.1	75.216
4155	23.638	4.7273	0.1	75.42
4156	23.638	4.5455	0.1	75.528
4157	23.638	4.3636	0.1	75.574
4158	23.638	4.1818	0.1	75.58
4159	23.638	4.	0.1	75.562
4160	23.638	3.8182	0.1	75.533
4161	23.638	3.6364	0.1	75.501
4162	23.638	3.4545	0.1	75.471
4163	23.638	3.2727	0.1	75.45
4164	23.638	3.0909	0.1	75.438
4165	23.638	2.9091	0.1	75.438
4166	23.638	2.7273	0.1	75.45
4167	23.638	2.5455	0.1	75.471
4168	23.638	2.3636	0.1	75.501
4169	23.638	2.1818	0.1	75.533
4170	23.638	2.	0.1	75.562
4171	23.638	1.8182	0.1	75.58
4172	23.638	1.6364	0.1	75.574
4173	23.638	1.4545	0.1	75.528
4174	23.638	1.2727	0.1	75.42
4175	23.638	1.0909	0.1	75.216
4176	23.638	0.90909	0.1	74.865
4177	23.638	0.72727	0.1	74.294
4178	23.638	0.54545	0.1	73.391
4179	23.638	0.36364	0.1	72.145
4180	23.638	0.18182	0.1	71.827
4181	23.458	5.8182	0.1	108.94
4182	23.458	5.6364	0.1	108.32
4183	23.458	5.4545	0.1	109.48
4184	23.458	5.2727	0.1	110.59
4185	23.458	5.0909	0.1	111.43
4186	23.458	4.9091	0.1	112.02
4187	23.458	4.7273	0.1	112.42
4188	23.458	4.5455	0.1	112.68
4189	23.458	4.3636	0.1	112.84
4190	23.458	4.1818	0.1	112.92
4191	23.458	4.	0.1	112.97
4192	23.458	3.8182	0.1	112.98
4193	23.458	3.6364	0.1	112.97
4194	23.458	3.4545	0.1	112.96
4195	23.458	3.2727	0.1	112.95
4196	23.458	3.0909	0.1	112.94
4197	23.458	2.9091	0.1	112.94
4198	23.458	2.7273	0.1	112.95
4199	23.458	2.5455	0.1	112.96
4200	23.458	2.3636	0.1	112.97
4201	23.458	2.1818	0.1	112.98
4202	23.458	2.	0.1	112.97
4203	23.458	1.8182	0.1	112.92
4204	23.458	1.6364	0.1	112.84
4205	23.458	1.4545	0.1	112.68
4206	23.458	1.2727	0.1	112.42
4207	23.458	1.0909	0.1	112.02
4208	23.458	0.90909	0.1	111.43
4209	23.458	0.72727	0.1	110.59
4210	23.458	0.54545	0.1	109.48
4211	23.458	0.36364	0.1	108.32
4212	23.458	0.18182	0.1	108.94
4213	23.277	5.8182	0.1	146.61
4214	23.277	5.6364	0.1	145.31
4215	23.277	5.4545	0.1	146.14
4216	23.277	5.2727	0.1	147.2
4217	23.277	5.0909	0.1	148.12
4218	23.277	4.9091	0.1	148.85
4219	23.277	4.7273	0.1	149.39
4220	23.277	4.5455	0.1	149.77
4221	23.277	4.3636	0.1	150.03
4222	23.277	4.1818	0.1	150.2
4223	23.277	4.	0.1	150.3
4224	23.277	3.8182	0.1	150.36
4225	23.277	3.6364	0.1	150.38
4226	23.277	3.4545	0.1	150.39
4227	23.277	3.2727	0.1	150.4
4228	23.277	3.0909	0.1	150.4
4229	23.277	2.9091	0.1	150.4
4230	23.277	2.7273	0.1	150.4
4231	23.277	2.5455	0.1	150.39
4232	23.277	2.3636	0.1	150.38
4233	23.277	2.1818	0.1	150.36
4234	23.277	2.	0.1	150.3
4235	23.277	1.8182	0.1	150.2
4236	23.277	1.6364	0.1	150.03
4237	23.277	1.4545	0.1	149.77
4238	23.277	1.2727	0.1	149.39
4239	23.277	1.0909	0.1	148.85
4240	23.277	0.90909	0.1	148.12
4241	23.277	0.72727	0.1	147.2
4242	23.277	0.54545	0.1	146.14
4243	23.277	0.36364	0.1	145.31
4244	23.277	0.18182	0.1	146.61
4245	23.096	5.8182	0.1	184.59
4246	23.096	5.6364	0.1	182.81
4247	23.096	5.4545	0.1	183.31
4248	23.096	5.2727	0.1	184.18
4249	23.096	5.0909	0.1	185.05
4250	23.096	4.9091	0.1	185.81
4251	23.096	4.7273	0.1	186.42
4252	23.096	4.5455	0.1	186.88
4253	23.096	4.3636	0.1	187.21
4254	23.096	4.1818	0.1	187.45
4255	23.096	4.	0.1	187.61
4256	23.096	3.8182	0.1	187.71
4257	23.096	3.6364	0.1	187.77
4258	23.096	3.4545	0.1	187.81
4259	23.096	3.2727	0.1	187.82
4260	23.096	3.0909	0.1	187.83
4261	23.096	2.9091	0.1	187.83
4262	23.096	2.7273	0.1	187.82
4263	23.096	2.5455	0.1	187.81
4264	23.096	2.3636	0.1	187.77
4265	23.096	2.1818	0.1	187.71
4266	23.096	2.	0.1	187.61
4267	23.096	1.8182	0.1	187.45
4268	23.096	1.6364	0.1	187.21
4269	23.096	1.4545	0.1	186.88
4270	23.096	1.2727	0.1	186.42
4271	23.096	1.0909	0.1	185.81
4272	23.096	0.90909	0.1	185.05
4273	23.096	0.72727	0.1	184.18
4274	23.096	0.54545	0.1	183.31
4275	23.096	0.36364	0.1	182.81
4276	23.096	0.18182	0.1	184.59
4277	22.915	5.8182	0.1	222.8
4278	22.915	5.6364	0.1	220.67
4279	22.915	5.4545	0.1	220.85
4280	22.915	5.2727	0.1	221.5
4281	22.915	5.0909	0.1	222.25
4282	22.915	4.9091	0.1	222.96
4283	22.915	4.7273	0.1	223.57
4284	22.915	4.5455	0.1	224.07
4285	22.915	4.3636	0.1	224.45
4286	22.915	4.1818	0.1	224.73
4287	22.915	4.	0.1	224.93
4288	22.915	3.8182	0.1	225.07
4289	22.915	3.6364	0.1	225.16
4290	22.915	3.4545	0.1	225.21
4291	22.915	3.2727	0.1	225.25
4292	22.915	3.0909	0.1	225.26
4293	22.915	2.9091	0.1	225.26
4294	22.915	2.7273	0.1	225.25
4295	22.915	2.5455	0.1	225.21
4296	22.915	2.3636	0.1	225.16
4297	22.915	2.1818	0.1	225.07
4298	22.915	2.	0.1	224.93
4299	22.915	1.8182	0.1	224.73
4300	22.915	1.6364	0.1	224.45
4301	22.915	1.4545	0.1	224.07
4302	22.915	1.2727	0.1	223.57
4303	22.915	1.0909	0.1	222.96
4304	22.915	0.90909	0.1	222.25
4305	22.915	0.72727	0.1	221.5
4306	22.915	0.54545	0.1	220.85
4307	22.915	0.36364	0.1	220.67
4308	22.915	0.18182	0.1	222.8
4309	22.734	5.8182	0.1	261.17
4310	22.734	5.6364	0.1	258.78
4311	22.734	5.4545	0.1	258.7
4312	22.734	5.2727	0.1	259.11
4313	22.734	5.0909	0.1	259.7
4314	22.734	4.9091	0.1	260.32
4315	22.734	4.7273	0.1	260.89
4316	22.734	4.5455	0.1	261.37
4317	22.734	4.3636	0.1	261.77
4318	22.734	4.1818	0.1	262.08
4319	22.734	4.	0.1	262.3
4320	22.734	3.8182	0.1	262.47
4321	22.734	3.6364	0.1	262.58
4322	22.734	3.4545	0.1	262.65
4323	22.734	3.2727	0.1	262.7
4324	22.734	3.0909	0.1	262.72
4325	22.734	2.9091	0.1	262.72
4326	22.734	2.7273	0.1	262.7
4327	22.734	2.5455	0.1	262.65
4328	22.734	2.3636	0.1	262.58
4329	22.734	2.1818	0.1	262.47
4330	22.734	2.	0.1	262.3
4331	22.734	1.8182	0.1	262.08
4332	22.734	1.6364	0.1	261.77
4333	22.734	1.4545	0.1	261.37
4334	22.734	1.2727	0.1	260.89
4335	22.734	1.0909	0.1	260.32
4336	22.734	0.90909	0.1	259.7
4337	22.734	0.72727	0.1	259.11
4338	22.734	0.54545	0.1	258.7
4339	22.734	0.36364	0.1	258.78
4340	22.734	0.18182	0.1	261.17
4341	22.553	5.8182	0.1	299.67
4342	22.553	5.6364	0.1	297.08
4343	22.553	5.4545	0.1	296.77
4344	22.553	5.2727	0.1	296.97
4345	22.553	5.0909	0.1	297.38
4346	22.553	4.9091	0.1	297.88
4347	22.553	4.7273	0.1	298.38
4348	22.553	4.5455	0.1	298.83
4349	22.553	4.3636	0.1	299.22
4350	22.553	4.1818	0.1	299.53
4351	22.553	4.	0.1	299.77
4352	22.553	3.8182	0.1	299.94
4353	22.553	3.6364	0.1	300.07
4354	22.553	3.4545	0.1	300.16
4355	22.553	3.2727	0.1	300.21
4356	22.553	3.0909	0.1	300.23
4357	22.553	2.9091	0.1	300.23
4358	22.553	2.7273	0.1	300.21
4359	22.553	2.5455	0.1	300.16
4360	22.553	2.3636	0.1	300.07
4361	22.553	2.1818	0.1	299.94
4362	22.553	2.	0.1	299.77
4363	22.553	1.8182	0.1	299.53
4364	22.553	1.6364	0.1	299.22
4365	22.553	1.4545	0.1	298.83
4366	22.553	1.2727	0.1	298.38
4367	22.553	1.0909	0.1	297.88
4368	22.553	0.90909	0.1	297.38
4369	22.553	0.72727	0.1	296.97
4370	22.553	0.54545	0.1	296.77
4371	22.553	0.36364	0.1	297.08
4372	22.553	0.18182	0.1	299.67
4373	22.372	5.8182	0.1	338.27
4374	22.372	5.6364	0.1	335.53
4375	22.372	5.4545	0.1	335.03
4376	22.372	5.2727	0.1	335.03
4377	22.372	5.0909	0.1	335.28
4378	22.372	4.9091	0.1	335.65
4379	22.372	4.7273	0.1	336.06
4380	22.372	4.5455	0.1	336.46
4381	22.372	4.3636	0.1	336.82
4382	22.372	4.1818	0.1	337.11
4383	22.372	4.	0.1	337.35
4384	22.372	3.8182	0.1	337.54
4385	22.372	3.6364	0.1	337.67
4386	22.372	3.4545	0.1	337.76
4387	22.372	3.2727	0.1	337.82
4388	22.372	3.0909	0.1	337.85
4389	22.372	2.9091	0.1	337.85
4390	22.372	2.7273	0.1	337.82
4391	22.372	2.5455	0.1	337.76
4392	22.372	2.3636	0.1	337.67
4393	22.372	2.1818	0.1	337.54
4394	22.372	2.	0.1	337.35
4395	22.372	1.8182	0.1	337.11
4396	22.372	1.6364	0.1	336.82
4397	22.372	1.4545	0.1	336.46
4398	22.372	1.2727	0.1	336.06
4399	22.372	1.0909	0.1	335.65
4400	22.372	0.90909	0.1	335.28
4401	22.372	0.72727	0.1	335.03
4402	22.372	0.54545	0.1	335.03
4403	22.372	0.36364	0.1	335.53
4404	22.372	0.18182	0.1	338.27
4405	22.192	5.8182	0.1	376.95
4406	22.192	5.6364	0.1	374.1
4407	22.192	5.4545	0.1	373.43
4408	22.192	5.2727	0.1	373.27
4409	22.192	5.0909	0.1	373.36
4410	22.192	4.9091	0.1	373.61
4411	22.192	4.7273	0.1	373.93
4412	22.192	4.5455	0.1	374.27
4413	22.192	4.3636	0.1	374.58
4414	22.192	4.1818	0.1	374.86
4415	22.192	4.	0.1	375.09
4416	22.192	3.8182	0.1	375.28
4417	22.192	3.6364	0.1	375.42
4418	22.192	3.4545	0.1	375.52
4419	22.192	3.2727	0.1	375.58
4420	22.192	3.0909	0.1	375.61
4421	22.192	2.9091	0.1	375.61
4422	22.192	2.7273	0.1	375.58
4423	22.192	2.5455	0.1	375.52
4424	22.192	2.3636	0.1	375.42
4425	22.192	2.1818	0.1	375.28
4426	22.192	2.	0.1	375.09
4427	22.192	1.8182	0.1	374.86
4428	22.192	1.6364	0.1	374.58
4429	22.192	1.4545	0.1	374.27
4430	22.192	1.2727	0.1	373.93
4431	22.192	1.0909	0.1	373.61
4432	22.192	0.90909	0.1	373.36
4433	22.192	0.72727	0.1	373.27
4434	22.192	0.54545	0.1	373.43
4435	22.192	0.36364	0.1	374.1
4436	22.192	0.18182	0.1	376.95
4437	22.011	5.8182	0.1	415.68
4438	22.011	5.6364	0.1	412.75
4439	22.011	5.4545	0.1	411.95
4440	22.011	5.2727	0.1	411.64
4441	22.011	5.0909	0.1	411.61
4442	22.011	4.9091	0.1	411.75
4443	22.011	4.7273	0.1	411.98
4444	22.011	4.5455	0.1	412.26
4445	22.011	4.3636	0.1	412.54
4446	22.011	4.1818	0.1	412.8
4447	22.011	4.	0.1	413.02
4448	22.011	3.8182	0.1	413.2
4449	22.011	3.6364	0.1	413.35
4450	22.011	3.4545	0.1	413.45
4451	22.011	3.2727	0.1	413.52
4452	22.011	3.0909	0.1	413.55
4453	22.011	2.9091	0.1	413.55
4454	22.011	2.7273	0.1	413.52
4455	22.011	2.5455	0.1	413.45
4456	22.011	2.3636	0.1	413.35
4457	22.011	2.1818	0.1	413.2
4458	22.011	2.	0.1	413.02
4459	22.011	1.8182	0.1	412.8
4460	22.011	1.6364	0.1	412.54
4461	22.011	1.4545	0.1	412.26
4462	22.011	1.2727	0.1	411.98
4463	22.011	1.0909	0.1	411.75
4464	22.011	0.90909	0.1	411.61
4465	22.011	0.72727	0.1	411.64
4466	22.011	0.54545	0.1	411.95
4467	22.011	0.36364	0.1	412.75
4468	22.011	0.18182	0.1	415.68
4469	21.83	5.8182	0.1	454.43
4470	21.83	5.6364	0.1	451.46
4471	21.83	5.4545	0.1	450.55
4472	21.83	5.2727	0.1	450.12
4473	21.83	5.0909	0.1	449.98
4474	21.83	4.9091	0.1	450.04
4475	21.83	4.7273	0.1	450.2
4476	21.83	4.5455	0.1	450.44
4477	21.83	4.3636	0.1	450.69
4478	21.83	4.1818	0.1	450.94
4479	21.83	4.	0.1	451.16
4480	21.83	3.8182	0.1	451.35
4481	21.83	3.6364	0.1	451.5
4482	21.83	3.4545	0.1	451.61
4483	21.83	3.2727	0.1	451.69
4484	21.83	3.0909	0.1	451.72
4485	21.83	2.9091	0.1	451.72
4486	21.83	2.7273	0.1	451.69
4487	21.83	2.5455	0.1	451.61
4488	21.83	2.3636	0.1	451.5
4489	21.83	2.1818	0.1	451.35
4490	21.83	2.	0.1	451.16
4491	21.83	1.8182	0.1	450.94
4492	21.83	1.6364	0.1	450.69
4493	21.83	1.4545	0.1	450.44
4494	21.83	1.2727	0.1	450.2
4495	21.83	1.0909	0.1	450.04
4496	21.83	0.90909	0.1	449.98
4497	21.83	0.72727	0.1	450.12
4498	21.83	0.54545	0.1	450.55
4499	21.83	0.36364	0.1	451.46
4500	21.83	0.18182	0.1	454.43
4501	21.649	5.8182	0.1	493.16
4502	21.649	5.6364	0.1	490.17
4503	21.649	5.4545	0.1	489.19
4504	21.649	5.2727	0.1	488.68
4505	21.649	5.0909	0.1	488.47
4506	21.649	4.9091	0.1	488.46
4507	21.649	4.7273	0.1	488.59
4508	21.649	4.5455	0.1	488.8
4509	21.649	4.3636	0.1	489.05
4510	21.649	4.1818	0.1	489.3
4511	21.649	4.	0.1	489.54
4512	21.649	3.8182	0.1	489.75
4513	21.649	3.6364	0.1	489.92
4514	21.649	3.4545	0.1	490.05
4515	21.649	3.2727	0.1	490.14
4516	21.649	3.0909	0.1	490.18
4517	21.649	2.9091	0.1	490.18
4518	21.649	2.7273	0.1	490.14
4519	21.649	2.5455	0.1	490.05
4520	21.649	2.3636	0.1	489.92
4521	21.649	2.1818	0.1	489.75
4522	21.649	2.	0.1	489.54
4523	21.649	1.8182	0.1	489.3
4524	21.649	1.6364	0.1	489.05
4525	21.649	1.4545	0.1	488.8
4526	21.649	1.2727	0.1	488.59
4527	21.649	1.0909	0.1	488.46
4528	21.649	0.90909	0.1	488.47
4529	21.649	0.72727	0.1	488.68
4530	21.649	0.54545	0.1	489.19
4531	21.649	0.36364	0.1	490.17
4532	21.649	0.18182	0.1	493.16
4533	21.468	5.8182	0.1	531.83
4534	21.468	5.6364	0.1	528.85
4535	21.468	5.4545	0.1	527.83
4536	21.468	5.2727	0.1	527.28
4537	21.468	5.0909	0.1	527.04
4538	21.468	4.9091	0.1	527.01
4539	21.468	4.7273	0.1	527.14
4540	21.468	4.5455	0.1	527.36
4541	21.468	4.3636	0.1	527.64
4542	21.468	4.1818	0.1	527.93
4543	21.468	4.	0.1	528.2
4544	21.468	3.8182	0.1	528.45
4545	21.468	3.6364	0.1	528.66
4546	21.468	3.4545	0.1	528.83
4547	21.468	3.2727	0.1	528.94
4548	21.468	3.0909	0.1	528.99
4549	21.468	2.9091	0.1	528.99
4550	21.468	2.7273	0.1	528.94
4551	21.468	2.5455	0.1	528.83
4552	21.468	2.3636	0.1	528.66
4553	21.468	2.1818	0.1	528.45
4554	21.468	2.	0.1	528.2
4555	21.468	1.8182	0.1	527.93
4556	21.468	1.6364	0.1	527.64
4557	21.468	1.4545	0.1	527.36
4558	21.468	1.2727	0.1	527.14
4559	21.468	1.0909	0.1	527.01
4560	21.468	0.90909	0.1	527.04
4561	21.468	0.72727	0.1	527.28
4562	21.468	0.54545	0.1	527.83
4563	21.468	0.36364	0.1	528.85
4564	21.468	0.18182	0.1	531.83
4565	21.288	5.8182	0.1	570.38
4566	21.288	5.6364	0.1	567.45
4567	21.288	5.4545	0.1	566.42
4568	21.288	5.2727	0.1	565.87
4569	21.288	5.0909	0.1	565.64
4570	21.288	4.9091	0.1	565.65
4571	21.288	4.7273	0.1	565.83
4572	21.288	4.5455	0.1	566.11
4573	21.288	4.3636	0.1	566.46
4574	21.288	4.1818	0.1	566.83
4575	21.288	4.	0.1	567.19
4576	21.288	3.8182	0.1	567.51
4577	21.288	3.6364	0.1	567.79
4578	21.288	3.4545	0.1	568.
4579	21.288	3.2727	0.1	568.15
4580	21.288	3.0909	0.1	568.23
4581	21.288	2.9091	0.1	568.23
4582	21.288	2.7273	0.1	568.15
4583	21.288	2.5455	0.1	568.
4584	21.288	2.3636	0.1	567.79
4585	21.288	2.1818	0.1	567.51
4586	21.288	2.	0.1	567.19
4587	21.288	1.8182	0.1	566.83
4588	21.288	1.6364	0.1	566.46
4589	21.288	1.4545	0.1	566.11
4590	21.288	1.2727	0.1	565.83
4591	21.288	1.0909	0.1	565.65
4592	21.288	0.90909	0.1	565.64
4593	21.288	0.72727	0.1	565.87
4594	21.288	0.54545	0.1	566.42
4595	21.288	0.36364	0.1	567.45
4596	21.288	0.18182	0.1	570.38
4597	21.107	5.8182	0.1	608.73
4598	21.107	5.6364	0.1	605.87
4599	21.107	5.4545	0.1	604.89
4600	21.107	5.2727	0.1	604.4
4601	21.107	5.0909	0.1	604.25
4602	21.107	4.9091	0.1	604.35
4603	21.107	4.7273	0.1	604.64
4604	21.107	4.5455	0.1	605.05
4605	21.107	4.3636	0.1	605.53
4606	21.107	4.1818	0.1	606.04
4607	21.107	4.	0.1	606.53
4608	21.107	3.8182	0.1	606.98
4609	21.107	3.6364	0.1	607.37
4610	21.107	3.4545	0.1	607.67
4611	21.107	3.2727	0.1	607.87
4612	21.107	3.0909	0.1	607.98
4613	21.107	2.9091	0.1	607.98
4614	21.107	2.7273	0.1	607.87
4615	21.107	2.5455	0.1	607.67
4616	21.107	2.3636	0.1	607.37
4617	21.107	2.1818	0.1	606.98
4618	21.107	2.	0.1	606.53
4619	21.107	1.8182	0.1	606.04
4620	21.107	1.6364	0.1	605.53
4621	21.107	1.4545	0.1	605.05
4622	21.107	1.2727	0.1	604.64
4623	21.107	1.0909	0.1	604.35
4624	21.107	0.90909	0.1	604.25
4625	21.107	0.72727	0.1	604.4
4626	21.107	0.54545	0.1	604.89
4627	21.107	0.36364	0.1	605.87
4628	21.107	0.18182	0.1	608.73
4629	20.926	5.8182	0.1	646.77
4630	20.926	5.6364	0.1	644.04
4631	20.926	5.4545	0.1	643.16
4632	20.926	5.2727	0.1	642.79
4633	20.926	5.0909	0.1	642.79
4634	20.926	4.9091	0.1	643.07
4635	20.926	4.7273	0.1	643.56
4636	20.926	4.5455	0.1	644.18
4637	20.926	4.3636	0.1	644.88
4638	20.926	4.1818	0.1	645.6
4639	20.926	4.	0.1	646.3
4640	20.926	3.8182	0.1	646.94
4641	20.926	3.6364	0.1	647.49
4642	20.926	3.4545	0.1	647.92
4643	20.926	3.2727	0.1	648.21
4644	20.926	3.0909	0.1	648.36
4645	20.926	2.9091	0.1	648.36
4646	20.926	2.7273	0.1	648.21
4647	20.926	2.5455	0.1	647.92
4648	20.926	2.3636	0.1	647.49
4649	20.926	2.1818	0.1	646.94
4650	20.926	2.	0.1	646.3
4651	20.926	1.8182	0.1	645.6
4652	20.926	1.6364	0.1	644.88
4653	20.926	1.4545	0.1	644.18
4654	20.926	1.2727	0.1	643.56
4655	20.926	1.0909	0.1	643.07
4656	20.926	0.90909	0.1	642.79
4657	20.926	0.72727	0.1	642.79
4658	20.926	0.54545	0.1	643.16
4659	20.926	0.36364	0.1	644.04
4660	20.926	0.18182	0.1	646.77
4661	20.745	5.8182	0.1	684.39
4662	20.745	5.6364	0.1	681.84
4663	20.745	5.4545	0.1	681.12
4664	20.745	5.2727	0.1	680.96
4665	20.745	5.0909	0.1	681.2
4666	20.745	4.9091	0.1	681.76
4667	20.745	4.7273	0.1	682.55
4668	20.745	4.5455	0.1	683.5
4669	20.745	4.3636	0.1	684.52
4670	20.745	4.1818	0.1	685.57
4671	20.745	4.	0.1	686.57
4672	20.745	3.8182	0.1	687.49
4673	20.745	3.6364	0.1	688.27
4674	20.745	3.4545	0.1	688.89
4675	20.745	3.2727	0.1	689.31
4676	20.745	3.0909	0.1	689.53
4677	20.745	2.9091	0.1	689.53
4678	20.745	2.7273	0.1	689.31
4679	20.745	2.5455	0.1	688.89
4680	20.745	2.3636	0.1	688.27
4681	20.745	2.1818	0.1	687.49
4682	20.745	2.	0.1	686.57
4683	20.745	1.8182	0.1	685.57
4684	20.745	1.6364	0.1	684.52
4685	20.745	1.4545	0.1	683.5
4686	20.745	1.2727	0.1	682.55
4687	20.745	1.0909	0.1	681.76
4688	20.745	0.90909	0.1	681.2
4689	20.745	0.72727	0.1	680.96
4690	20.745	0.54545	0.1	681.12
4691	20.745	0.36364	0.1	681.84
4692	20.745	0.18182	0.1	684.39
4693	20.564	5.8182	0.1	721.42
4694	20.564	5.6364	0.1	719.1
4695	20.564	5.4545	0.1	718.64
4696	20.564	5.2727	0.1	718.79
4697	20.564	5.0909	0.1	719.39
4698	20.564	4.9091	0.1	720.35
4699	20.564	4.7273	0.1	721.58
4700	20.564	4.5455	0.1	722.99
4701	20.564	4.3636	0.1	724.49
4702	20.564	4.1818	0.1	725.99
4703	20.564	4.	0.1	727.43
4704	20.564	3.8182	0.1	728.74
4705	20.564	3.6364	0.1	729.85
4706	20.564	3.4545	0.1	730.73
4707	20.564	3.2727	0.1	731.34
4708	20.564	3.0909	0.1	731.65
4709	20.564	2.9091	0.1	731.65
4710	20.564	2.7273	0.1	731.34
4711	20.564	2.5455	0.1	730.73
4712	20.564	2.3636	0.1	729.85
4713	20.564	2.1818	0.1	728.74
4714	20.564	2.	0.1	727.43
4715	20.564	1.8182	0.1	725.99
4716	20.564	1.6364	0.1	724.49
4717	20.564	1.4545	0.1	722.99
4718	20.564	1.2727	0.1	721.58
4719	20.564	1.0909	0.1	720.35
4720	20.564	0.90909	0.1	719.39
4721	20.564	0.72727	0.1	718.79
4722	20.564	0.54545	0.1	718.64
4723	20.564	0.36364	0.1	719.1
4724	20.564	0.18182	0.1	721.42
4725	20.383	5.8182	0.1	757.65
4726	20.383	5.6364	0.1	755.64
4727	20.383	5.4545	0.1	755.54
4728	20.383	5.2727	0.1	756.12
4729	20.383	5.0909	0.1	757.23
4730	20.383	4.9091	0.1	758.77
4731	20.383	4.7273	0.1	760.61
4732	20.383	4.5455	0.1	762.66
4733	20.383	4.3636	0.1	764.81
4734	20.383	4.1818	0.1	766.95
4735	20.383	4.	0.1	768.99
4736	20.383	3.8182	0.1	770.84
4737	20.383	3.6364	0.1	772.42
4738	20.383	3.4545	0.1	773.66
4739	20.383	3.2727	0.1	774.52
4740	20.383	3.0909	0.1	774.96
4741	20.383	2.9091	0.1	774.96
4742	20.383	2.7273	0.1	774.52
4743	20.383	2.5455	0.1	773.66
4744	20.383	2.3636	0.1	772.42
4745	20.383	2.1818	0.1	770.84
4746	20.383	2.	0.1	768.99
4747	20.383	1.8182	0.1	766.95
4748	20.383	1.6364	0.1	764.81
4749	20.383	1.4545	0.1	762.66
4750	20.383	1.2727	0.1	760.61
4751	20.383	1.0909	0.1	758.77
4752	20.383	0.90909	0.1	757.23
4753	20.383	0.72727	0.1	756.12
4754	20.383	0.54545	0.1	755.54
4755	20.383	0.36364	0.1	755.64
4756	20.383	0.18182	0.1	757.64
4757	20.202	5.8182	0.1	792.82
4758	20.202	5.6364	0.1	791.22
4759	20.202	5.4545	0.1	791.6
4760	20.202	5.2727	0.1	792.77
4761	20.202	5.0909	0.1	794.58
4762	20.202	4.9091	0.1	796.88
4763	20.202	4.7273	0.1	799.56
4764	20.202	4.5455	0.1	802.49
4765	20.202	4.3636	0.1	805.52
4766	20.202	4.1818	0.1	808.53
4767	20.202	4.	0.1	811.39
4768	20.202	3.8182	0.1	813.98
4769	20.202	3.6364	0.1	816.19
4770	20.202	3.4545	0.1	817.94
4771	20.202	3.2727	0.1	819.15
4772	20.202	3.0909	0.1	819.77
4773	20.202	2.9091	0.1	819.77
4774	20.202	2.7273	0.1	819.15
4775	20.202	2.5455	0.1	817.94
4776	20.202	2.3636	0.1	816.19
4777	20.202	2.1818	0.1	813.98
4778	20.202	2.	0.1	811.39
4779	20.202	1.8182	0.1	808.53
4780	20.202	1.6364	0.1	805.52
4781	20.202	1.4545	0.1	802.49
4782	20.202	1.2727	0.1	799.56
4783	20.202	1.0909	0.1	796.88
4784	20.202	0.90909	0.1	794.58
4785	20.202	0.72727	0.1	792.77
4786	20.202	0.54545	0.1	791.6
4787	20.202	0.36364	0.1	791.22
4788	20.202	0.18182	0.1	792.82
4789	20.022	5.8182	0.1	826.6
4790	20.022	5.6364	0.1	825.52
4791	20.022	5.4545	0.1	826.53
4792	20.022	5.2727	0.1	828.5
4793	20.022	5.0909	0.1	831.22
4794	20.022	4.9091	0.1	834.56
4795	20.022	4.7273	0.1	838.36
4796	20.022	4.5455	0.1	842.45
4797	20.022	4.3636	0.1	846.67
4798	20.022	4.1818	0.1	850.84
4799	20.022	4.	0.1	854.8
4800	20.022	3.8182	0.1	858.4
4801	20.022	3.6364	0.1	861.47
4802	20.022	3.4545	0.1	863.9
4803	20.022	3.2727	0.1	865.58
4804	20.022	3.0909	0.1	866.44
4805	20.022	2.9091	0.1	866.44
4806	20.022	2.7273	0.1	865.58
4807	20.022	2.5455	0.1	863.9
4808	20.022	2.3636	0.1	861.47
4809	20.022	2.1818	0.1	858.4
4810	20.022	2.	0.1	854.8
4811	20.022	1.8182	0.1	850.84
4812	20.022	1.6364	0.1	846.67
4813	20.022	1.4545	0.1	842.45
4814	20.022	1.2727	0.1	838.36
4815	20.022	1.0909	0.1	834.56
4816	20.022	0.90909	0.1	831.22
4817	20.022	0.72727	0.1	828.5
4818	20.022	0.54545	0.1	826.53
4819	20.022	0.36364	0.1	825.52
4820	20.022	0.18182	0.1	826.6
4821	19.841	5.8182	0.1	858.58
4822	19.841	5.6364	0.1	858.15
4823	19.841	5.4545	0.1	860.
4824	19.841	5.2727	0.1	863.
4825	19.841	5.0909	0.1	866.93
4826	19.841	4.9091	0.1	871.62
4827	19.841	4.7273	0.1	876.89
4828	19.841	4.5455	0.1	882.52
4829	19.841	4.3636	0.1	888.31
4830	19.841	4.1818	0.1	894.03
4831	19.841	4.	0.1	899.46
4832	19.841	3.8182	0.1	904.39
4833	19.841	3.6364	0.1	908.62
4834	19.841	3.4545	0.1	911.97
4835	19.841	3.2727	0.1	914.29
4836	19.841	3.0909	0.1	915.48
4837	19.841	2.9091	0.1	915.48
4838	19.841	2.7273	0.1	914.29
4839	19.841	2.5455	0.1	911.97
4840	19.841	2.3636	0.1	908.62
4841	19.841	2.1818	0.1	904.39
4842	19.841	2.	0.1	899.46
4843	19.841	1.8182	0.1	894.03
4844	19.841	1.6364	0.1	888.31
4845	19.841	1.4545	0.1	882.52
4846	19.841	1.2727	0.1	876.89
4847	19.841	1.0909	0.1	871.62
4848	19.841	0.90909	0.1	866.93
4849	19.841	0.72727	0.1	863.
4850	19.841	0.54545	0.1	860.
4851	19.841	0.36364	0.1	858.15
4852	19.841	0.18182	0.1	858.58
4853	19.66	5.8182	0.1	888.24
4854	19.66	5.6364	0.1	888.63
4855	19.66	5.4545	0.1	891.55
4856	19.66	5.2727	0.1	895.87
4857	19.66	5.0909	0.1	901.37
4858	19.66	4.9091	0.1	907.82
4859	19.66	4.7273	0.1	915.01
4860	19.66	4.5455	0.1	922.67
4861	19.66	4.3636	0.1	930.52
4862	19.66	4.1818	0.1	938.27
4863	19.66	4.	0.1	945.65
4864	19.66	3.8182	0.1	952.36
4865	19.66	3.6364	0.1	958.12
4866	19.66	3.4545	0.1	962.69
4867	19.66	3.2727	0.1	965.87
4868	19.66	3.0909	0.1	967.49
4869	19.66	2.9091	0.1	967.49
4870	19.66	2.7273	0.1	965.87
4871	19.66	2.5455	0.1	962.69
4872	19.66	2.3636	0.1	958.12
4873	19.66	2.1818	0.1	952.36
4874	19.66	2.	0.1	945.65
4875	19.66	1.8182	0.1	938.27
4876	19.66	1.6364	0.1	930.52
4877	19.66	1.4545	0.1	922.67
4878	19.66	1.2727	0.1	915.01
4879	19.66	1.0909	0.1	907.82
4880	19.66	0.90909	0.1	901.37
4881	19.66	0.72727	0.1	895.87
4882	19.66	0.54545	0.1	891.55
4883	19.66	0.36364	0.1	888.63
4884	19.66	0.18182	0.1	888.24
4885	19.479	5.8182	0.1	914.96
4886	19.479	5.6364	0.1	916.35
4887	19.479	5.4545	0.1	920.62
4888	19.479	5.2727	0.1	926.64
4889	19.479	5.0909	0.1	934.15
4890	19.479	4.9091	0.1	942.88
4891	19.479	4.7273	0.1	952.54
4892	19.479	4.5455	0.1	962.82
4893	19.479	4.3636	0.1	973.36
4894	19.479	4.1818	0.1	983.79
4895	19.479	4.	0.1	993.72
4896	19.479	3.8182	0.1	1002.8
4897	19.479	3.6364	0.1	1010.6
4898	19.479	3.4545	0.1	1016.8
4899	19.479	3.2727	0.1	1021.1
4900	19.479	3.0909	0.1	1023.3
4901	19.479	2.9091	0.1	1023.3
4902	19.479	2.7273	0.1	1021.1
4903	19.479	2.5455	0.1	1016.8
4904	19.479	2.3636	0.1	1010.6
4905	19.479	2.1818	0.1	1002.8
4906	19.479	2.	0.1	993.72
4907	19.479	1.8182	0.1	983.79
4908	19.479	1.6364	0.1	973.36
4909	19.479	1.4545	0.1	962.82
4910	19.479	1.2727	0.1	952.54
4911	19.479	1.0909	0.1	942.88
4912	19.479	0.90909	0.1	934.14
4913	19.479	0.72727	0.1	926.64
4914	19.479	0.54545	0.1	920.62
4915	19.479	0.36364	0.1	916.35
4916	19.479	0.18182	0.1	914.96
4917	19.298	5.8182	0.1	937.94
4918	19.298	5.6364	0.1	940.56
4919	19.298	5.4545	0.1	946.54
4920	19.298	5.2727	0.1	954.71
4921	19.298	5.0909	0.1	964.76
4922	19.298	4.9091	0.1	976.4
4923	19.298	4.7273	0.1	989.26
4924	19.298	4.5455	0.1	1002.9
4925	19.298	4.3636	0.1	1017.
4926	19.298	4.1818	0.1	1030.9
4927	19.298	4.	0.1	1044.1
4928	19.298	3.8182	0.1	1056.3
4929	19.298	3.6364	0.1	1066.7
4930	19.298	3.4545	0.1	1075.1
4931	19.298	3.2727	0.1	1080.9
4932	19.298	3.0909	0.1	1083.9
4933	19.298	2.9091	0.1	1083.9
4934	19.298	2.7273	0.1	1080.9
4935	19.298	2.5455	0.1	1075.1
4936	19.298	2.3636	0.1	1066.7
4937	19.298	2.1818	0.1	1056.3
4938	19.298	2.	0.1	1044.1
4939	19.298	1.8182	0.1	1030.9
4940	19.298	1.6364	0.1	1017.
4941	19.298	1.4545	0.1	1002.9
4942	19.298	1.2727	0.1	989.26
4943	19.298	1.0909	0.1	976.4
4944	19.298	0.90909	0.1	964.76
4945	19.298	0.72727	0.1	954.71
4946	19.298	0.54545	0.1	946.54
4947	19.298	0.36364	0.1	940.56
4948	19.298	0.18182	0.1	937.94
4949	19.118	5.8182	0.1	956.24
4950	19.118	5.6364	0.1	960.36
4951	19.118	5.4545	0.1	968.44
4952	19.118	5.2727	0.1	979.31
4953	19.118	5.0909	0.1	992.59
4954	19.118	4.9091	0.1	1007.9
4955	19.118	4.7273	0.1	1024.9
4956	19.118	4.5455	0.1	1042.9
4957	19.118	4.3636	0.1	1061.4
4958	19.118	4.1818	0.1	1079.8
4959	19.118	4.	0.1	1097.5
4960	19.118	3.8182	0.1	1113.6
4961	19.118	3.6364	0.1	1127.6
4962	19.118	3.4545	0.1	1138.8
4963	19.118	3.2727	0.1	1146.7
4964	19.118	3.0909	0.1	1150.7
4965	19.118	2.9091	0.1	1150.7
4966	19.118	2.7273	0.1	1146.7
4967	19.118	2.5455	0.1	1138.8
4968	19.118	2.3636	0.1	1127.6
4969	19.118	2.1818	0.1	1113.6
4970	19.118	2.	0.1	1097.5
4971	19.118	1.8182	0.1	1079.8
4972	19.118	1.6364	0.1	1061.4
4973	19.118	1.4545	0.1	1042.9
4974	19.118	1.2727	0.1	1024.9
4975	19.118	1.0909	0.1	1007.9
4976	19.118	0.90909	0.1	992.59
4977	19.118	0.72727	0.1	979.31
4978	19.118	0.54545	0.1	968.44
4979	19.118	0.36364	0.1	960.36
4980	19.118	0.18182	0.1	956.24
4981	18.937	5.8182	0.1	968.7
4982	18.937	5.6364	0.1	974.61
4983	18.937	5.4545	0.1	985.3
4984	18.937	5.2727	0.1	999.52
4985	18.937	5.0909	0.1	1016.9
4986	18.937	4.9091	0.1	1036.9
4987	18.937	4.7273	0.1	1059.1
4988	18.937	4.5455	0.1	1082.7
4989	18.937	4.3636	0.1	1107.
4990	18.937	4.1818	0.1	1131.2
4991	18.937	4.	0.1	1154.5
4992	18.937	3.8182	0.1	1175.9
4993	18.937	3.6364	0.1	1194.6
4994	18.937	3.4545	0.1	1209.5
4995	18.937	3.2727	0.1	1219.9
4996	18.937	3.0909	0.1	1225.3
4997	18.937	2.9091	0.1	1225.3
4998	18.937	2.7273	0.1	1219.9
4999	18.937	2.5455	0.1	1209.5
5000	18.937	2.3636	0.1	1194.6
5001	18.937	2.1818	0.1	1175.9
5002	18.937	2.	0.1	1154.5
5003	18.937	1.8182	0.1	1131.2
5004	18.937	1.6364	0.1	1107.
5005	18.937	1.4545	0.1	1082.7
5006	18.937	1.2727	0.1	1059.1
5007	18.937	1.0909	0.1	1036.9
5008	18.937	0.90909	0.1	1016.9
5009	18.937	0.72727	0.1	999.52
5010	18.937	0.54545	0.1	985.3
5011	18.937	0.36364	0.1	974.61
5012	18.937	0.18182	0.1	968.7
5013	18.756	5.8182	0.1	973.93
5014	18.756	5.6364	0.1	981.98
5015	18.756	5.4545	0.1	995.85
5016	18.756	5.2727	0.1	1014.2
5017	18.756	5.0909	0.1	1036.7
5018	18.756	4.9091	0.1	1062.7
5019	18.756	4.7273	0.1	1091.4
5020	18.756	4.5455	0.1	1122.2
5021	18.756	4.3636	0.1	1154.
5022	18.756	4.1818	0.1	1185.7
5023	18.756	4.	0.1	1216.3
5024	18.756	3.8182	0.1	1244.6
5025	18.756	3.6364	0.1	1269.2
5026	18.756	3.4545	0.1	1289.
5027	18.756	3.2727	0.1	1302.9
5028	18.756	3.0909	0.1	1310.
5029	18.756	2.9091	0.1	1310.
5030	18.756	2.7273	0.1	1302.9
5031	18.756	2.5455	0.1	1289.
5032	18.756	2.3636	0.1	1269.2
5033	18.756	2.1818	0.1	1244.6
5034	18.756	2.	0.1	1216.3
5035	18.756	1.8182	0.1	1185.7
5036	18.756	1.6364	0.1	1154.
5037	18.756	1.4545	0.1	1122.2
5038	18.756	1.2727	0.1	1091.4
5039	18.756	1.0909	0.1	1062.7
5040	18.756	0.90909	0.1	1036.7
5041	18.756	0.72727	0.1	1014.2
5042	18.756	0.54545	0.1	995.85
5043	18.756	0.36364	0.1	981.98
5044	18.756	0.18182	0.1	973.93
5045	18.575	5.8182	0.1	970.34
5046	18.575	5.6364	0.1	980.88
5047	18.575	5.4545	0.1	998.59
5048	18.575	5.2727	0.1	1022.1
5049	18.575	5.0909	0.1	1050.9
5050	18.575	4.9091	0.1	1084.3
5051	18.575	4.7273	0.1	1121.5
5052	18.575	4.5455	0.1	1161.4
5053	18.575	4.3636	0.1	1202.7
5054	18.575	4.1818	0.1	1244.2
5055	18.575	4.	0.1	1284.2
5056	18.575	3.8182	0.1	1321.3
5057	18.575	3.6364	0.1	1353.8
5058	18.575	3.4545	0.1	1379.9
5059	18.575	3.2727	0.1	1398.2
5060	18.575	3.0909	0.1	1407.7
5061	18.575	2.9091	0.1	1407.7
5062	18.575	2.7273	0.1	1398.2
5063	18.575	2.5455	0.1	1379.9
5064	18.575	2.3636	0.1	1353.8
5065	18.575	2.1818	0.1	1321.3
5066	18.575	2.	0.1	1284.2
5067	18.575	1.8182	0.1	1244.2
5068	18.575	1.6364	0.1	1202.7
5069	18.575	1.4545	0.1	1161.4
5070	18.575	1.2727	0.1	1121.5
5071	18.575	1.0909	0.1	1084.3
5072	18.575	0.90909	0.1	1050.9
5073	18.575	0.72727	0.1	1022.1
5074	18.575	0.54545	0.1	998.59
5075	18.575	0.36364	0.1	980.88
5076	18.575	0.18182	0.1	970.34
5077	18.394	5.8182	0.1	956.07
5078	18.394	5.6364	0.1	969.47
5079	18.394	5.4545	0.1	991.76
5080	18.394	5.2727	0.1	1021.5
5081	18.394	5.0909	0.1	1058.1
5082	18.394	4.9091	0.1	1100.9
5083	18.394	4.7273	0.1	1148.8
5084	18.394	4.5455	0.1	1200.3
5085	18.394	4.3636	0.1	1253.9
5086	18.394	4.1818	0.1	1307.9
5087	18.394	4.	0.1	1360.2
5088	18.394	3.8182	0.1	1408.8
5089	18.394	3.6364	0.1	1451.4
5090	18.394	3.4545	0.1	1485.6
5091	18.394	3.2727	0.1	1509.6
5092	18.394	3.0909	0.1	1521.9
5093	18.394	2.9091	0.1	1521.9
5094	18.394	2.7273	0.1	1509.6
5095	18.394	2.5455	0.1	1485.6
5096	18.394	2.3636	0.1	1451.4
5097	18.394	2.1818	0.1	1408.8
5098	18.394	2.	0.1	1360.2
5099	18.394	1.8182	0.1	1307.9
5100	18.394	1.6364	0.1	1253.9
5101	18.394	1.4545	0.1	1200.3
5102	18.394	1.2727	0.1	1148.8
5103	18.394	1.0909	0.1	1100.9
5104	18.394	0.90909	0.1	1058.1
5105	18.394	0.72727	0.1	1021.5
5106	18.394	0.54545	0.1	991.76
5107	18.394	0.36364	0.1	969.47
5108	18.394	0.18182	0.1	956.07
5109	18.213	5.8182	0.1	929.07
5110	18.213	5.6364	0.1	945.68
5111	18.213	5.4545	0.1	973.38
5112	18.213	5.2727	0.1	1010.6
5113	18.213	5.0909	0.1	1056.9
5114	18.213	4.9091	0.1	1111.4
5115	18.213	4.7273	0.1	1172.7
5116	18.213	4.5455	0.1	1239.1
5117	18.213	4.3636	0.1	1308.6
5118	18.213	4.1818	0.1	1378.8
5119	18.213	4.	0.1	1447.2
5120	18.213	3.8182	0.1	1510.6
5121	18.213	3.6364	0.1	1566.1
5122	18.213	3.4545	0.1	1610.5
5123	18.213	3.2727	0.1	1641.5
5124	18.213	3.0909	0.1	1657.4
5125	18.213	2.9091	0.1	1657.4
5126	18.213	2.7273	0.1	1641.5
5127	18.213	2.5455	0.1	1610.5
5128	18.213	2.3636	0.1	1566.1
5129	18.213	2.1818	0.1	1510.6
5130	18.213	2.	0.1	1447.2
5131	18.213	1.8182	0.1	1378.8
5132	18.213	1.6364	0.1	1308.6
5133	18.213	1.4545	0.1	1239.1
5134	18.213	1.2727	0.1	1172.7
5135	18.213	1.0909	0.1	1111.4
5136	18.213	0.90909	0.1	1056.9
5137	18.213	0.72727	0.1	1010.6
5138	18.213	0.54545	0.1	973.38
5139	18.213	0.36364	0.1	945.68
5140	18.213	0.18182	0.1	929.07
5141	18.033	5.8182	0.1	887.16
5142	18.033	5.6364	0.1	907.32
5143	18.033	5.4545	0.1	941.31
5144	18.033	5.2727	0.1	987.52
5145	18.033	5.0909	0.1	1045.5
5146	18.033	4.9091	0.1	1114.5
5147	18.033	4.7273	0.1	1192.8
5148	18.033	4.5455	0.1	1278.3
5149	18.033	4.3636	0.1	1368.4
5150	18.033	4.1818	0.1	1459.9
5151	18.033	4.	0.1	1549.2
5152	18.033	3.8182	0.1	1632.
5153	18.033	3.6364	0.1	1703.9
5154	18.033	3.4545	0.1	1760.8
5155	18.033	3.2727	0.1	1799.8
5156	18.033	3.0909	0.1	1819.6
5157	18.033	2.9091	0.1	1819.6
5158	18.033	2.7273	0.1	1799.8
5159	18.033	2.5455	0.1	1760.8
5160	18.033	2.3636	0.1	1703.9
5161	18.033	2.1818	0.1	1632.
5162	18.033	2.	0.1	1549.2
5163	18.033	1.8182	0.1	1459.9
5164	18.033	1.6364	0.1	1368.4
5165	18.033	1.4545	0.1	1278.3
5166	18.033	1.2727	0.1	1192.8
5167	18.033	1.0909	0.1	1114.5
5168	18.033	0.90909	0.1	1045.5
5169	18.033	0.72727	0.1	987.52
5170	18.033	0.54545	0.1	941.31
5171	18.033	0.36364	0.1	907.32
5172	18.033	0.18182	0.1	887.16
5173	17.852	5.8182	0.1	828.21
5174	17.852	5.6364	0.1	852.25
5175	17.852	5.4545	0.1	893.5
5176	17.852	5.2727	0.1	950.3
5177	17.852	5.0909	0.1	1022.4
5178	17.852	4.9091	0.1	1108.9
5179	17.852	4.7273	0.1	1208.5
5180	17.852	4.5455	0.1	1318.6
5181	17.852	4.3636	0.1	1435.7
5182	17.852	4.1818	0.1	1555.6
5183	17.852	4.	0.1	1672.8
5184	17.852	3.8182	0.1	1781.
5185	17.852	3.6364	0.1	1873.3
5186	17.852	3.4545	0.1	1944.4
5187	17.852	3.2727	0.1	1991.8
5188	17.852	3.0909	0.1	2015.3
5189	17.852	2.9091	0.1	2015.3
5190	17.852	2.7273	0.1	1991.8
5191	17.852	2.5455	0.1	1944.4
5192	17.852	2.3636	0.1	1873.3
5193	17.852	2.1818	0.1	1781.
5194	17.852	2.	0.1	1672.8
5195	17.852	1.8182	0.1	1555.6
5196	17.852	1.6364	0.1	1435.7
5197	17.852	1.4545	0.1	1318.6
5198	17.852	1.2727	0.1	1208.5
5199	17.852	1.0909	0.1	1108.9
5200	17.852	0.90909	0.1	1022.4
5201	17.852	0.72727	0.1	950.3
5202	17.852	0.54545	0.1	893.5
5203	17.852	0.36364	0.1	852.25
5204	17.852	0.18182	0.1	828.21
5205	17.671	5.8182	0.1	750.38
5206	17.671	5.6364	0.1	778.73
5207	17.671	5.4545	0.1	828.49
5208	17.671	5.2727	0.1	897.69
5209	17.671	5.0909	0.1	986.2
5210	17.671	4.9091	0.1	1093.7
5211	17.671	4.7273	0.1	1219.2
5212	17.671	4.5455	0.1	1360.7
5213	17.671	4.3636	0.1	1514.1
5214	17.671	4.1818	0.1	1673.
5215	17.671	4.	0.1	1828.9
5216	17.671	3.8182	0.1	1970.9
5217	17.671	3.6364	0.1	2087.7
5218	17.671	3.4545	0.1	2172.6
5219	17.671	3.2727	0.1	2225.6
5220	17.671	3.0909	0.1	2250.4
5221	17.671	2.9091	0.1	2250.4
5222	17.671	2.7273	0.1	2225.6
5223	17.671	2.5455	0.1	2172.6
5224	17.671	2.3636	0.1	2087.7
5225	17.671	2.1818	0.1	1970.9
5226	17.671	2.	0.1	1828.9
5227	17.671	1.8182	0.1	1673.
5228	17.671	1.6364	0.1	1514.1
5229	17.671	1.4545	0.1	1360.7
5230	17.671	1.2727	0.1	1219.2
5231	17.671	1.0909	0.1	1093.7
5232	17.671	0.90909	0.1	986.2
5233	17.671	0.72727	0.1	897.69
5234	17.671	0.54545	0.1	828.49
5235	17.671	0.36364	0.1	778.73
5236	17.671	0.18182	0.1	750.38
5237	17.49	5.8182	0.1	652.43
5238	17.49	5.6364	0.1	686.19
5239	17.49	5.4545	0.1	746.42
5240	17.49	5.2727	0.1	830.12
5241	17.49	5.0909	0.1	937.06
5242	17.49	4.9091	0.1	1068.
5243	17.49	4.7273	0.1	1223.9
5244	17.49	4.5455	0.1	1405.1
5245	17.49	4.3636	0.1	1608.2
5246	17.49	4.1818	0.1	1823.8
5247	17.49	4.	0.1	2036.8
5248	17.49	3.8182	0.1	2225.1
5249	17.49	3.6364	0.1	2368.4
5250	17.49	3.4545	0.1	2459.6
5251	17.49	3.2727	0.1	2508.2
5252	17.49	3.0909	0.1	2528.3
5253	17.49	2.9091	0.1	2528.3
5254	17.49	2.7273	0.1	2508.2
5255	17.49	2.5455	0.1	2459.6
5256	17.49	2.3636	0.1	2368.4
5257	17.49	2.1818	0.1	2225.1
5258	17.49	2.	0.1	2036.8
5259	17.49	1.8182	0.1	1823.8
5260	17.49	1.6364	0.1	1608.2
5261	17.49	1.4545	0.1	1405.1
5262	17.49	1.2727	0.1	1223.9
5263	17.49	1.0909	0.1	1068.
5264	17.49	0.90909	0.1	937.06
5265	17.49	0.72727	0.1	830.12
5266	17.49	0.54545	0.1	746.42
5267	17.49	0.36364	0.1	686.19
5268	17.49	0.18182	0.1	652.43
5269	17.309	5.8182	0.1	534.39
5270	17.309	5.6364	0.1	576.71
5271	17.309	5.4545	0.1	651.2
5272	17.309	5.2727	0.1	751.74
5273	17.309	5.0909	0.1	877.71
5274	17.309	4.9091	0.1	1032.
5275	17.309	4.7273	0.1	1220.2
5276	17.309	4.5455	0.1	1450.
5277	17.309	4.3636	0.1	1722.5
5278	17.309	4.1818	0.1	2028.6
5279	17.309	4.	0.1	2337.5
5280	17.309	3.8182	0.1	2590.7
5281	17.309	3.6364	0.1	2751.7
5282	17.309	3.4545	0.1	2821.
5283	17.309	3.2727	0.1	2840.6
5284	17.309	3.0909	0.1	2842.8
5285	17.309	2.9091	0.1	2842.8
5286	17.309	2.7273	0.1	2840.6
5287	17.309	2.5455	0.1	2821.
5288	17.309	2.3636	0.1	2751.7
5289	17.309	2.1818	0.1	2590.7
5290	17.309	2.	0.1	2337.5
5291	17.309	1.8182	0.1	2028.6
5292	17.309	1.6364	0.1	1722.5
5293	17.309	1.4545	0.1	1450.
5294	17.309	1.2727	0.1	1220.2
5295	17.309	1.0909	0.1	1032.
5296	17.309	0.90909	0.1	877.71
5297	17.309	0.72727	0.1	751.74
5298	17.309	0.54545	0.1	651.2
5299	17.309	0.36364	0.1	576.71
5300	17.309	0.18182	0.1	534.39
5301	17.128	5.8182	0.1	398.31
5302	17.128	5.6364	0.1	458.75
5303	17.128	5.4545	0.1	554.29
5304	17.128	5.2727	0.1	673.04
5305	17.128	5.0909	0.1	815.51
5306	17.128	4.9091	0.1	988.33
5307	17.128	4.7273	0.1	1204.4
5308	17.128	4.5455	0.1	1483.
5309	17.128	4.3636	0.1	1853.1
5310	17.128	4.1818	0.1	2335.
5311	17.128	4.	0.1	2807.
5312	17.128	3.8182	0.1	3184.5
5313	17.128	3.6364	0.1	3292.5
5314	17.128	3.4545	0.1	3261.
5315	17.128	3.2727	0.1	3203.6
5316	17.128	3.0909	0.1	3168.8
5317	17.128	2.9091	0.1	3168.8
5318	17.128	2.7273	0.1	3203.6
5319	17.128	2.5455	0.1	3261.
5320	17.128	2.3636	0.1	3292.5
5321	17.128	2.1818	0.1	3184.5
5322	17.128	2.	0.1	2807.
5323	17.128	1.8182	0.1	2335.
5324	17.128	1.6364	0.1	1853.1
5325	17.128	1.4545	0.1	1483.
5326	17.128	1.2727	0.1	1204.4
5327	17.128	1.0909	0.1	988.33
5328	17.128	0.90909	0.1	815.51
5329	17.128	0.72727	0.1	673.04
5330	17.128	0.54545	0.1	554.29
5331	17.128	0.36364	0.1	458.75
5332	17.128	0.18182	0.1	398.31
5333	16.948	5.8182	0.1	261.27
5334	16.948	5.6364	0.1	367.58
5335	16.948	5.4545	0.1	492.48
5336	16.948	5.2727	0.1	630.17
5337	16.948	5.0909	0.1	787.52
5338	16.948	4.9091	0.1	975.83
5339	16.948	4.7273	0.1	1213.2
5340	16.948	4.5455	0.1	1538.5
5341	16.948	4.3636	0.1	2014.8
5342	16.948	4.1818	0.1	2951.8
5343	16.948	4.	0.1	4154.9
5344	16.948	3.8182	0.1	4288.1
5345	16.948	3.6364	0.1	4025.4
5346	16.948	3.4545	0.1	3717.2
5347	16.948	3.2727	0.1	3539.1
5348	16.948	3.0909	0.1	3454.8
5349	16.948	2.9091	0.1	3454.8
5350	16.948	2.7273	0.1	3539.1
5351	16.948	2.5455	0.1	3717.2
5352	16.948	2.3636	0.1	4025.4
5353	16.948	2.1818	0.1	4288.1
5354	16.948	2.	0.1	4154.9
5355	16.948	1.8182	0.1	2951.8
5356	16.948	1.6364	0.1	2014.8
5357	16.948	1.4545	0.1	1538.5
5358	16.948	1.2727	0.1	1213.2
5359	16.948	1.0909	0.1	975.83
5360	16.948	0.90909	0.1	787.52
5361	16.948	0.72727	0.1	630.17
5362	16.948	0.54545	0.1	492.48
5363	16.948	0.36364	0.1	367.58
5364	16.948	0.18182	0.1	261.27
5365	0.18444	0.18182	0.1	3892.7
5366	0.18444	0.36364	0.1	4489.4
5367	0.18444	0.54545	0.1	5181.8
5368	0.18444	0.72727	0.1	5711.7
5369	0.18444	0.90909	0.1	6110.2
5370	0.18444	1.0909	0.1	6410.4
5371	0.18444	1.2727	0.1	6640.3
5372	0.18444	1.4545	0.1	6818.5
5373	0.18444	1.6364	0.1	6957.9
5374	0.18444	1.8182	0.1	7067.2
5375	0.18444	2.	0.1	7152.7
5376	0.18444	2.1818	0.1	7218.7
5377	0.18444	2.3636	0.1	7268.4
5378	0.18444	2.5455	0.1	7304.
5379	0.18444	2.7273	0.1	7326.9
5380	0.18444	2.9091	0.1	7338.1
5381	0.18444	3.0909	0.1	7338.1
5382	0.18444	3.2727	0.1	7326.9
5383	0.18444	3.4545	0.1	7304.
5384	0.18444	3.6364	0.1	7268.4
5385	0.18444	3.8182	0.1	7218.7
5386	0.18444	4.	0.1	7152.7
5387	0.18444	4.1818	0.1	7067.2
5388	0.18444	4.3636	0.1	6957.9
5389	0.18444	4.5455	0.1	6818.5
5390	0.18444	4.7273	0.1	6640.3
5391	0.18444	4.9091	0.1	6410.4
5392	0.18444	5.0909	0.1	6110.2
5393	0.18444	5.2727	0.1	5711.7
5394	0.18444	5.4545	0.1	5181.8
5395	0.18444	5.6364	0.1	4489.4
5396	0.18444	5.8182	0.1	3892.7
5397	0.36889	0.18182	0.1	5033.2
5398	0.36889	0.36364	0.1	5162.8
5399	0.36889	0.54545	0.1	5455.8
5400	0.36889	0.72727	0.1	5781.6
5401	0.36889	0.90909	0.1	6080.9
5402	0.36889	1.0909	0.1	6336.2
5403	0.36889	1.2727	0.1	6547.4
5404	0.36889	1.4545	0.1	6719.8
5405	0.36889	1.6364	0.1	6859.5
5406	0.36889	1.8182	0.1	6971.9
5407	0.36889	2.	0.1	7061.4
5408	0.36889	2.1818	0.1	7131.5
5409	0.36889	2.3636	0.1	7184.8
5410	0.36889	2.5455	0.1	7223.3
5411	0.36889	2.7273	0.1	7248.2
5412	0.36889	2.9091	0.1	7260.4
5413	0.36889	3.0909	0.1	7260.4
5414	0.36889	3.2727	0.1	7248.2
5415	0.36889	3.4545	0.1	7223.3
5416	0.36889	3.6364	0.1	7184.8
5417	0.36889	3.8182	0.1	7131.5
5418	0.36889	4.	0.1	7061.4
5419	0.36889	4.1818	0.1	6971.9
5420	0.36889	4.3636	0.1	6859.5
5421	0.36889	4.5455	0.1	6719.8
5422	0.36889	4.7273	0.1	6547.4
5423	0.36889	4.9091	0.1	6336.2
5424	0.36889	5.0909	0.1	6080.9
5425	0.36889	5.2727	0.1	5781.6
5426	0.36889	5.4545	0.1	5455.8
5427	0.36889	5.6364	0.1	5162.8
5428	0.36889	5.8182	0.1	5033.2
5429	0.55333	0.18182	0.1	5528.5
5430	0.55333	0.36364	0.1	5523.3
5431	0.55333	0.54545	0.1	5634.9
5432	0.55333	0.72727	0.1	5799.8
5433	0.55333	0.90909	0.1	5984.9
5434	0.55333	1.0909	0.1	6166.4
5435	0.55333	1.2727	0.1	6331.7
5436	0.55333	1.4545	0.1	6476.2
5437	0.55333	1.6364	0.1	6599.2
5438	0.55333	1.8182	0.1	6701.8
5439	0.55333	2.	0.1	6785.7
5440	0.55333	2.1818	0.1	6852.8
5441	0.55333	2.3636	0.1	6904.5
5442	0.55333	2.5455	0.1	6942.2
5443	0.55333	2.7273	0.1	6966.8
5444	0.55333	2.9091	0.1	6979.
5445	0.55333	3.0909	0.1	6979.
5446	0.55333	3.2727	0.1	6966.8
5447	0.55333	3.4545	0.1	6942.2
5448	0.55333	3.6364	0.1	6904.5
5449	0.55333	3.8182	0.1	6852.8
5450	0.55333	4.	0.1	6785.7
5451	0.55333	4.1818	0.1	6701.8
5452	0.55333	4.3636	0.1	6599.2
5453	0.55333	4.5455	0.1	6476.2
5454	0.55333	4.7273	0.1	6331.7
5455	0.55333	4.9091	0.1	6166.4
5456	0.55333	5.0909	0.1	5984.9
5457	0.55333	5.2727	0.1	5799.8
5458	0.55333	5.4545	0.1	5634.9
5459	0.55333	5.6364	0.1	5523.3
5460	0.55333	5.8182	0.1	5528.5
5461	0.73778	0.18182	0.1	5811.9
5462	0.73778	0.36364	0.1	5769.2
5463	0.73778	0.54545	0.1	5806.7
5464	0.73778	0.72727	0.1	5885.4
5465	0.73778	0.90909	0.1	5991.1
5466	0.73778	1.0909	0.1	6109.
5467	0.73778	1.2727	0.1	6227.4
5468	0.73778	1.4545	0.1	6338.8
5469	0.73778	1.6364	0.1	6439.
5470	0.73778	1.8182	0.1	6526.2
5471	0.73778	2.	0.1	6599.8
5472	0.73778	2.1818	0.1	6660.1
5473	0.73778	2.3636	0.1	6707.4
5474	0.73778	2.5455	0.1	6742.3
5475	0.73778	2.7273	0.1	6765.3
5476	0.73778	2.9091	0.1	6776.7
5477	0.73778	3.0909	0.1	6776.7
5478	0.73778	3.2727	0.1	6765.3
5479	0.73778	3.4545	0.1	6742.3
5480	0.73778	3.6364	0.1	6707.4
5481	0.73778	3.8182	0.1	6660.1
5482	0.73778	4.	0.1	6599.8
5483	0.73778	4.1818	0.1	6526.2
5484	0.73778	4.3636	0.1	6439.
5485	0.73778	4.5455	0.1	6338.8
5486	0.73778	4.7273	0.1	6227.4
5487	0.73778	4.9091	0.1	6109.
5488	0.73778	5.0909	0.1	5991.1
5489	0.73778	5.2727	0.1	5885.4
5490	0.73778	5.4545	0.1	5806.7
5491	0.73778	5.6364	0.1	5769.2
5492	0.73778	5.8182	0.1	5811.9
5493	0.92222	0.18182	0.1	5963.6
5494	0.92222	0.36364	0.1	5907.2
5495	0.92222	0.54545	0.1	5908.9
5496	0.92222	0.72727	0.1	5940.2
5497	0.92222	0.90909	0.1	5995.1
5498	0.92222	1.0909	0.1	6065.8
5499	0.92222	1.2727	0.1	6144.3
5500	0.92222	1.4545	0.1	6223.9
5501	0.92222	1.6364	0.1	6299.9
5502	0.92222	1.8182	0.1	6369.
5503	0.92222	2.	0.1	6429.5
5504	0.92222	2.1818	0.1	6480.3
5505	0.92222	2.3636	0.1	6521.
5506	0.92222	2.5455	0.1	6551.5
5507	0.92222	2.7273	0.1	6571.8
5508	0.92222	2.9091	0.1	6582.
5509	0.92222	3.0909	0.1	6582.
5510	0.92222	3.2727	0.1	6571.8
5511	0.92222	3.4545	0.1	6551.5
5512	0.92222	3.6364	0.1	6521.
5513	0.92222	3.8182	0.1	6480.3
5514	0.92222	4.	0.1	6429.5
5515	0.92222	4.1818	0.1	6369.
5516	0.92222	4.3636	0.1	6299.9
5517	0.92222	4.5455	0.1	6223.9
5518	0.92222	4.7273	0.1	6144.3
5519	0.92222	4.9091	0.1	6065.8
5520	0.92222	5.0909	0.1	5995.1
5521	0.92222	5.2727	0.1	5940.2
5522	0.92222	5.4545	0.1	5908.9
5523	0.92222	5.6364	0.1	5907.2
5524	0.92222	5.8182	0.1	5963.6
5525	1.1067	0.18182	0.1	6042.1
5526	1.1067	0.36364	0.1	5982.9
5527	1.1067	0.54545	0.1	5967.1
5528	1.1067	0.72727	0.1	5972.3
5529	1.1067	0.90909	0.1	5996.
5530	1.1067	1.0909	0.1	6034.3
5531	1.1067	1.2727	0.1	6082.3
5532	1.1067	1.4545	0.1	6135.3
5533	1.1067	1.6364	0.1	6189.2
5534	1.1067	1.8182	0.1	6240.7
5535	1.1067	2.	0.1	6287.4
5536	1.1067	2.1818	0.1	6327.8
5537	1.1067	2.3636	0.1	6360.9
5538	1.1067	2.5455	0.1	6386.2
5539	1.1067	2.7273	0.1	6403.1
5540	1.1067	2.9091	0.1	6411.6
5541	1.1067	3.0909	0.1	6411.6
5542	1.1067	3.2727	0.1	6403.1
5543	1.1067	3.4545	0.1	6386.2
5544	1.1067	3.6364	0.1	6360.9
5545	1.1067	3.8182	0.1	6327.8
5546	1.1067	4.	0.1	6287.4
5547	1.1067	4.1818	0.1	6240.7
5548	1.1067	4.3636	0.1	6189.2
5549	1.1067	4.5455	0.1	6135.3
5550	1.1067	4.7273	0.1	6082.3
5551	1.1067	4.9091	0.1	6034.3
5552	1.1067	5.0909	0.1	5996.
5553	1.1067	5.2727	0.1	5972.3
5554	1.1067	5.4545	0.1	5967.1
5555	1.1067	5.6364	0.1	5982.9
5556	1.1067	5.8182	0.1	6042.1
5557	1.2911	0.18182	0.1	6073.
5558	1.2911	0.36364	0.1	6014.9
5559	1.2911	0.54545	0.1	5990.
5560	1.2911	0.72727	0.1	5980.3
5561	1.2911	0.90909	0.1	5984.6
5562	1.2911	1.0909	0.1	6001.1
5563	1.2911	1.2727	0.1	6027.
5564	1.2911	1.4545	0.1	6059.2
5565	1.2911	1.6364	0.1	6094.5
5566	1.2911	1.8182	0.1	6130.2
5567	1.2911	2.	0.1	6164.1
5568	1.2911	2.1818	0.1	6194.3
5569	1.2911	2.3636	0.1	6219.7
5570	1.2911	2.5455	0.1	6239.4
5571	1.2911	2.7273	0.1	6252.8
5572	1.2911	2.9091	0.1	6259.5
5573	1.2911	3.0909	0.1	6259.5
5574	1.2911	3.2727	0.1	6252.8
5575	1.2911	3.4545	0.1	6239.4
5576	1.2911	3.6364	0.1	6219.7
5577	1.2911	3.8182	0.1	6194.3
5578	1.2911	4.	0.1	6164.1
5579	1.2911	4.1818	0.1	6130.2
5580	1.2911	4.3636	0.1	6094.5
5581	1.2911	4.5455	0.1	6059.2
5582	1.2911	4.7273	0.1	6027.
5583	1.2911	4.9091	0.1	6001.1
5584	1.2911	5.0909	0.1	5984.6
5585	1.2911	5.2727	0.1	5980.3
5586	1.2911	5.4545	0.1	5990.
5587	1.2911	5.6364	0.1	6014.9
5588	1.2911	5.8182	0.1	6073.
5589	1.4756	0.18182	0.1	6072.6
5590	1.4756	0.36364	0.1	6017.3
5591	1.4756	0.54545	0.1	5987.9
5592	1.4756	0.72727	0.1	5969.6
5593	1.4756	0.90909	0.1	5961.9
5594	1.4756	1.0909	0.1	5963.8
5595	1.4756	1.2727	0.1	5974.1
5596	1.4756	1.4545	0.1	5990.6
5597	1.4756	1.6364	0.1	6011.2
5598	1.4756	1.8182	0.1	6033.8
5599	1.4756	2.	0.1	6056.3
5600	1.4756	2.1818	0.1	6077.3
5601	1.4756	2.3636	0.1	6095.5
5602	1.4756	2.5455	0.1	6109.8
5603	1.4756	2.7273	0.1	6119.7
5604	1.4756	2.9091	0.1	6124.8
5605	1.4756	3.0909	0.1	6124.8
5606	1.4756	3.2727	0.1	6119.7
5607	1.4756	3.4545	0.1	6109.8
5608	1.4756	3.6364	0.1	6095.5
5609	1.4756	3.8182	0.1	6077.3
5610	1.4756	4.	0.1	6056.3
5611	1.4756	4.1818	0.1	6033.8
5612	1.4756	4.3636	0.1	6011.2
5613	1.4756	4.5455	0.1	5990.6
5614	1.4756	4.7273	0.1	5974.1
5615	1.4756	4.9091	0.1	5963.8
5616	1.4756	5.0909	0.1	5961.9
5617	1.4756	5.2727	0.1	5969.6
5618	1.4756	5.4545	0.1	5987.9
5619	1.4756	5.6364	0.1	6017.3
5620	1.4756	5.8182	0.1	6072.6
5621	1.66	0.18182	0.1	6050.9
5622	1.66	0.36364	0.1	5999.
5623	1.66	0.54545	0.1	5967.5
5624	1.66	0.72727	0.1	5944.3
5625	1.66	0.90909	0.1	5929.
5626	1.66	1.0909	0.1	5921.4
5627	1.66	1.2727	0.1	5920.8
5628	1.66	1.4545	0.1	5925.8
5629	1.66	1.6364	0.1	5935.1
5630	1.66	1.8182	0.1	5947.2
5631	1.66	2.	0.1	5960.4
5632	1.66	2.1818	0.1	5973.4
5633	1.66	2.3636	0.1	5985.2
5634	1.66	2.5455	0.1	5994.8
5635	1.66	2.7273	0.1	6001.5
5636	1.66	2.9091	0.1	6005.
5637	1.66	3.0909	0.1	6005.
5638	1.66	3.2727	0.1	6001.5
5639	1.66	3.4545	0.1	5994.8
5640	1.66	3.6364	0.1	5985.2
5641	1.66	3.8182	0.1	5973.4
5642	1.66	4.	0.1	5960.4
5643	1.66	4.1818	0.1	5947.2
5644	1.66	4.3636	0.1	5935.1
5645	1.66	4.5455	0.1	5925.8
5646	1.66	4.7273	0.1	5920.8
5647	1.66	4.9091	0.1	5921.4
5648	1.66	5.0909	0.1	5929.
5649	1.66	5.2727	0.1	5944.3
5650	1.66	5.4545	0.1	5967.5
5651	1.66	5.6364	0.1	5999.
5652	1.66	5.8182	0.1	6050.9
5653	1.8444	0.18182	0.1	6014.4
5654	1.8444	0.36364	0.1	5966.
5655	1.8444	0.54545	0.1	5933.9
5656	1.8444	0.72727	0.1	5908.
5657	1.8444	0.90909	0.1	5888.1
5658	1.8444	1.0909	0.1	5874.3
5659	1.8444	1.2727	0.1	5866.1
5660	1.8444	1.4545	0.1	5862.9
5661	1.8444	1.6364	0.1	5863.8
5662	1.8444	1.8182	0.1	5867.7
5663	1.8444	2.	0.1	5873.5
5664	1.8444	2.1818	0.1	5880.
5665	1.8444	2.3636	0.1	5886.4
5666	1.8444	2.5455	0.1	5891.9
5667	1.8444	2.7273	0.1	5895.9
5668	1.8444	2.9091	0.1	5898.
5669	1.8444	3.0909	0.1	5898.
5670	1.8444	3.2727	0.1	5895.9
5671	1.8444	3.4545	0.1	5891.9
5672	1.8444	3.6364	0.1	5886.4
5673	1.8444	3.8182	0.1	5880.
5674	1.8444	4.	0.1	5873.5
5675	1.8444	4.1818	0.1	5867.7
5676	1.8444	4.3636	0.1	5863.8
5677	1.8444	4.5455	0.1	5862.9
5678	1.8444	4.7273	0.1	5866.1
5679	1.8444	4.9091	0.1	5874.3
5680	1.8444	5.0909	0.1	5888.1
5681	1.8444	5.2727	0.1	5908.
5682	1.8444	5.4545	0.1	5933.9
5683	1.8444	5.6364	0.1	5966.
5684	1.8444	5.8182	0.1	6014.4
5685	2.0289	0.18182	0.1	5967.4
5686	2.0289	0.36364	0.1	5922.5
5687	2.0289	0.54545	0.1	5890.7
5688	2.0289	0.72727	0.1	5863.5
5689	2.0289	0.90909	0.1	5840.9
5690	2.0289	1.0909	0.1	5823.1
5691	2.0289	1.2727	0.1	5809.8
5692	2.0289	1.4545	0.1	5800.9
5693	2.0289	1.6364	0.1	5795.7
5694	2.0289	1.8182	0.1	5793.5
5695	2.0289	2.	0.1	5793.5
5696	2.0289	2.1818	0.1	5794.9
5697	2.0289	2.3636	0.1	5797.
5698	2.0289	2.5455	0.1	5799.1
5699	2.0289	2.7273	0.1	5800.8
5700	2.0289	2.9091	0.1	5801.8
5701	2.0289	3.0909	0.1	5801.8
5702	2.0289	3.2727	0.1	5800.8
5703	2.0289	3.4545	0.1	5799.1
5704	2.0289	3.6364	0.1	5797.
5705	2.0289	3.8182	0.1	5794.9
5706	2.0289	4.	0.1	5793.5
5707	2.0289	4.1818	0.1	5793.5
5708	2.0289	4.3636	0.1	5795.7
5709	2.0289	4.5455	0.1	5800.9
5710	2.0289	4.7273	0.1	5809.8
5711	2.0289	4.9091	0.1	5823.1
5712	2.0289	5.0909	0.1	5840.9
5713	2.0289	5.2727	0.1	5863.5
5714	2.0289	5.4545	0.1	5890.7
5715	2.0289	5.6364	0.1	5922.5
5716	2.0289	5.8182	0.1	5967.4
5717	2.2133	0.18182	0.1	5913.2
5718	2.2133	0.36364	0.1	5871.6
5719	2.2133	0.54545	0.1	5840.5
5720	2.2133	0.72727	0.1	5812.9
5721	2.2133	0.90909	0.1	5788.9
5722	2.2133	1.0909	0.1	5768.7
5723	2.2133	1.2727	0.1	5752.2
5724	2.2133	1.4545	0.1	5739.3
5725	2.2133	1.6364	0.1	5729.8
5726	2.2133	1.8182	0.1	5723.2
5727	2.2133	2.	0.1	5718.9
5728	2.2133	2.1818	0.1	5716.4
5729	2.2133	2.3636	0.1	5715.1
5730	2.2133	2.5455	0.1	5714.6
5731	2.2133	2.7273	0.1	5714.5
5732	2.2133	2.9091	0.1	5714.5
5733	2.2133	3.0909	0.1	5714.5
5734	2.2133	3.2727	0.1	5714.5
5735	2.2133	3.4545	0.1	5714.6
5736	2.2133	3.6364	0.1	5715.1
5737	2.2133	3.8182	0.1	5716.4
5738	2.2133	4.	0.1	5718.9
5739	2.2133	4.1818	0.1	5723.2
5740	2.2133	4.3636	0.1	5729.8
5741	2.2133	4.5455	0.1	5739.3
5742	2.2133	4.7273	0.1	5752.2
5743	2.2133	4.9091	0.1	5768.7
5744	2.2133	5.0909	0.1	5788.9
5745	2.2133	5.2727	0.1	5812.9
5746	2.2133	5.4545	0.1	5840.5
5747	2.2133	5.6364	0.1	5871.6
5748	2.2133	5.8182	0.1	5913.2
5749	2.3978	0.18182	0.1	5853.8
5750	2.3978	0.36364	0.1	5815.4
5751	2.3978	0.54545	0.1	5785.4
5752	2.3978	0.72727	0.1	5758.1
5753	2.3978	0.90909	0.1	5733.5
5754	2.3978	1.0909	0.1	5711.9
5755	2.3978	1.2727	0.1	5693.4
5756	2.3978	1.4545	0.1	5678.
5757	2.3978	1.6364	0.1	5665.6
5758	2.3978	1.8182	0.1	5655.8
5759	2.3978	2.	0.1	5648.4
5760	2.3978	2.1818	0.1	5643.1
5761	2.3978	2.3636	0.1	5639.3
5762	2.3978	2.5455	0.1	5636.8
5763	2.3978	2.7273	0.1	5635.3
5764	2.3978	2.9091	0.1	5634.6
5765	2.3978	3.0909	0.1	5634.6
5766	2.3978	3.2727	0.1	5635.3
5767	2.3978	3.4545	0.1	5636.8
5768	2.3978	3.6364	0.1	5639.3
5769	2.3978	3.8182	0.1	5643.1
5770	2.3978	4.	0.1	5648.4
5771	2.3978	4.1818	0.1	5655.8
5772	2.3978	4.3636	0.1	5665.6
5773	2.3978	4.5455	0.1	5678.
5774	2.3978	4.7273	0.1	5693.4
5775	2.3978	4.9091	0.1	5711.9
5776	2.3978	5.0909	0.1	5733.5
5777	2.3978	5.2727	0.1	5758.1
5778	2.3978	5.4545	0.1	5785.4
5779	2.3978	5.6364	0.1	5815.4
5780	2.3978	5.8182	0.1	5853.8
5781	2.5822	0.18182	0.1	5791.
5782	2.5822	0.36364	0.1	5755.5
5783	2.5822	0.54545	0.1	5726.8
5784	2.5822	0.72727	0.1	5700.
5785	2.5822	0.90909	0.1	5675.5
5786	2.5822	1.0909	0.1	5653.4
5787	2.5822	1.2727	0.1	5633.8
5788	2.5822	1.4545	0.1	5616.9
5789	2.5822	1.6364	0.1	5602.6
5790	2.5822	1.8182	0.1	5590.7
5791	2.5822	2.	0.1	5581.2
5792	2.5822	2.1818	0.1	5573.8
5793	2.5822	2.3636	0.1	5568.3
5794	2.5822	2.5455	0.1	5564.3
5795	2.5822	2.7273	0.1	5561.8
5796	2.5822	2.9091	0.1	5560.6
5797	2.5822	3.0909	0.1	5560.6
5798	2.5822	3.2727	0.1	5561.8
5799	2.5822	3.4545	0.1	5564.3
5800	2.5822	3.6364	0.1	5568.3
5801	2.5822	3.8182	0.1	5573.8
5802	2.5822	4.	0.1	5581.2
5803	2.5822	4.1818	0.1	5590.7
5804	2.5822	4.3636	0.1	5602.6
5805	2.5822	4.5455	0.1	5616.9
5806	2.5822	4.7273	0.1	5633.8
5807	2.5822	4.9091	0.1	5653.4
5808	2.5822	5.0909	0.1	5675.5
5809	2.5822	5.2727	0.1	5700.
5810	2.5822	5.4545	0.1	5726.8
5811	2.5822	5.6364	0.1	5755.5
5812	2.5822	5.8182	0.1	5791.
5813	2.7667	0.18182	0.1	5725.9
5814	2.7667	0.36364	0.1	5693.1
5815	2.7667	0.54545	0.1	5665.7
5816	2.7667	0.72727	0.1	5639.9
5817	2.7667	0.90909	0.1	5615.8
5818	2.7667	1.0909	0.1	5593.7
5819	2.7667	1.2727	0.1	5573.7
5820	2.7667	1.4545	0.1	5556.
5821	2.7667	1.6364	0.1	5540.6
5822	2.7667	1.8182	0.1	5527.5
5823	2.7667	2.	0.1	5516.6
5824	2.7667	2.1818	0.1	5507.8
5825	2.7667	2.3636	0.1	5501.1
5826	2.7667	2.5455	0.1	5496.1
5827	2.7667	2.7273	0.1	5492.9
5828	2.7667	2.9091	0.1	5491.3
5829	2.7667	3.0909	0.1	5491.3
5830	2.7667	3.2727	0.1	5492.9
5831	2.7667	3.4545	0.1	5496.1
5832	2.7667	3.6364	0.1	5501.1
5833	2.7667	3.8182	0.1	5507.8
5834	2.7667	4.	0.1	5516.6
5835	2.7667	4.1818	0.1	5527.5
5836	2.7667	4.3636	0.1	5540.6
5837	2.7667	4.5455	0.1	5556.
5838	2.7667	4.7273	0.1	5573.7
5839	2.7667	4.9091	0.1	5593.7
5840	2.7667	5.0909	0.1	5615.8
5841	2.7667	5.2727	0.1	5639.9
5842	2.7667	5.4545	0.1	5665.7
5843	2.7667	5.6364	0.1	5693.1
5844	2.7667	5.8182	0.1	5725.9
5845	2.9511	0.18182	0.1	5659.3
5846	2.9511	0.36364	0.1	5629.
5847	2.9511	0.54545	0.1	5603.1
5848	2.9511	0.72727	0.1	5578.3
5849	2.9511	0.90909	0.1	5555.
5850	2.9511	1.0909	0.1	5533.2
5851	2.9511	1.2727	0.1	5513.3
5852	2.9511	1.4545	0.1	5495.3
5853	2.9511	1.6364	0.1	5479.4
5854	2.9511	1.8182	0.1	5465.6
5855	2.9511	2.	0.1	5454.
5856	2.9511	2.1818	0.1	5444.4
5857	2.9511	2.3636	0.1	5436.9
5858	2.9511	2.5455	0.1	5431.3
5859	2.9511	2.7273	0.1	5427.6
5860	2.9511	2.9091	0.1	5425.8
5861	2.9511	3.0909	0.1	5425.8
5862	2.9511	3.2727	0.1	5427.6
5863	2.9511	3.4545	0.1	5431.3
5864	2.9511	3.6364	0.1	5436.9
5865	2.9511	3.8182	0.1	5444.4
5866	2.9511	4.	0.1	5454.
5867	2.9511	4.1818	0.1	5465.6
5868	2.9511	4.3636	0.1	5479.4
5869	2.9511	4.5455	0.1	5495.3
5870	2.9511	4.7273	0.1	5513.3
5871	2.9511	4.9091	0.1	5533.2
5872	2.9511	5.0909	0.1	5555.
5873	2.9511	5.2727	0.1	5578.3
5874	2.9511	5.4545	0.1	5603.1
5875	2.9511	5.6364	0.1	5629.
5876	2.9511	5.8182	0.1	5659.3
5877	3.1356	0.18182	0.1	5591.9
5878	3.1356	0.36364	0.1	5563.9
5879	3.1356	0.54545	0.1	5539.4
5880	3.1356	0.72727	0.1	5515.8
5881	3.1356	0.90909	0.1	5493.4
5882	3.1356	1.0909	0.1	5472.3
5883	3.1356	1.2727	0.1	5452.8
5884	3.1356	1.4545	0.1	5434.9
5885	3.1356	1.6364	0.1	5419.
5886	3.1356	1.8182	0.1	5404.9
5887	3.1356	2.	0.1	5392.9
5888	3.1356	2.1818	0.1	5383.
5889	3.1356	2.3636	0.1	5375.
5890	3.1356	2.5455	0.1	5369.1
5891	3.1356	2.7273	0.1	5365.1
5892	3.1356	2.9091	0.1	5363.2
5893	3.1356	3.0909	0.1	5363.2
5894	3.1356	3.2727	0.1	5365.1
5895	3.1356	3.4545	0.1	5369.1
5896	3.1356	3.6364	0.1	5375.
5897	3.1356	3.8182	0.1	5383.
5898	3.1356	4.	0.1	5392.9
5899	3.1356	4.1818	0.1	5404.9
5900	3.1356	4.3636	0.1	5419.
5901	3.1356	4.5455	0.1	5434.9
5902	3.1356	4.7273	0.1	5452.8
5903	3.1356	4.9091	0.1	5472.3
5904	3.1356	5.0909	0.1	5493.4
5905	3.1356	5.2727	0.1	5515.8
5906	3.1356	5.4545	0.1	5539.4
5907	3.1356	5.6364	0.1	5563.9
5908	3.1356	5.8182	0.1	5591.9
5909	3.32	0.18182	0.1	5524.1
5910	3.32	0.36364	0.1	5498.2
5911	3.32	0.54545	0.1	5475.2
5912	3.32	0.72727	0.1	5452.8
5913	3.32	0.90909	0.1	5431.5
5914	3.32	1.0909	0.1	5411.2
5915	3.32	1.2727	0.1	5392.3
5916	3.32	1.4545	0.1	5374.9
5917	3.32	1.6364	0.1	5359.1
5918	3.32	1.8182	0.1	5345.2
5919	3.32	2.	0.1	5333.2
5920	3.32	2.1818	0.1	5323.1
5921	3.32	2.3636	0.1	5315.
5922	3.32	2.5455	0.1	5308.9
5923	3.32	2.7273	0.1	5304.9
5924	3.32	2.9091	0.1	5302.9
5925	3.32	3.0909	0.1	5302.9
5926	3.32	3.2727	0.1	5304.9
5927	3.32	3.4545	0.1	5308.9
5928	3.32	3.6364	0.1	5315.
5929	3.32	3.8182	0.1	5323.1
5930	3.32	4.	0.1	5333.2
5931	3.32	4.1818	0.1	5345.2
5932	3.32	4.3636	0.1	5359.1
5933	3.32	4.5455	0.1	5374.9
5934	3.32	4.7273	0.1	5392.3
5935	3.32	4.9091	0.1	5411.2
5936	3.32	5.0909	0.1	5431.5
5937	3.32	5.2727	0.1	5452.8
5938	3.32	5.4545	0.1	5475.2
5939	3.32	5.6364	0.1	5498.2
5940	3.32	5.8182	0.1	5524.1
5941	3.5044	0.18182	0.1	5456.3
5942	3.5044	0.36364	0.1	5432.4
5943	3.5044	0.54545	0.1	5410.8
5944	3.5044	0.72727	0.1	5389.7
5945	3.5044	0.90909	0.1	5369.4
5946	3.5044	1.0909	0.1	5350.1
5947	3.5044	1.2727	0.1	5331.9
5948	3.5044	1.4545	0.1	5315.1
5949	3.5044	1.6364	0.1	5299.9
5950	3.5044	1.8182	0.1	5286.3
5951	3.5044	2.	0.1	5274.4
5952	3.5044	2.1818	0.1	5264.5
5953	3.5044	2.3636	0.1	5256.4
5954	3.5044	2.5455	0.1	5250.4
5955	3.5044	2.7273	0.1	5246.3
5956	3.5044	2.9091	0.1	5244.3
5957	3.5044	3.0909	0.1	5244.3
5958	3.5044	3.2727	0.1	5246.3
5959	3.5044	3.4545	0.1	5250.4
5960	3.5044	3.6364	0.1	5256.4
5961	3.5044	3.8182	0.1	5264.5
5962	3.5044	4.	0.1	5274.4
5963	3.5044	4.1818	0.1	5286.3
5964	3.5044	4.3636	0.1	5299.9
5965	3.5044	4.5455	0.1	5315.1
5966	3.5044	4.7273	0.1	5331.9
5967	3.5044	4.9091	0.1	5350.1
5968	3.5044	5.0909	0.1	5369.4
5969	3.5044	5.2727	0.1	5389.7
5970	3.5044	5.4545	0.1	5410.8
5971	3.5044	5.6364	0.1	5432.4
5972	3.5044	5.8182	0.1	5456.3
5973	3.6889	0.18182	0.1	5388.7
5974	3.6889	0.36364	0.1	5366.6
5975	3.6889	0.54545	0.1	5346.4
5976	3.6889	0.72727	0.1	5326.5
5977	3.6889	0.90909	0.1	5307.4
5978	3.6889	1.0909	0.1	5289.1
5979	3.6889	1.2727	0.1	5271.8
5980	3.6889	1.4545	0.1	5255.7
5981	3.6889	1.6364	0.1	5241.1
5982	3.6889	1.8182	0.1	5228.
5983	3.6889	2.	0.1	5216.5
5984	3.6889	2.1818	0.1	5206.8
5985	3.6889	2.3636	0.1	5199.
5986	3.6889	2.5455	0.1	5193.
5987	3.6889	2.7273	0.1	5189.1
5988	3.6889	2.9091	0.1	5187.1
5989	3.6889	3.0909	0.1	5187.1
5990	3.6889	3.2727	0.1	5189.1
5991	3.6889	3.4545	0.1	5193.
5992	3.6889	3.6364	0.1	5199.
5993	3.6889	3.8182	0.1	5206.8
5994	3.6889	4.	0.1	5216.5
5995	3.6889	4.1818	0.1	5228.
5996	3.6889	4.3636	0.1	5241.1
5997	3.6889	4.5455	0.1	5255.7
5998	3.6889	4.7273	0.1	5271.8
5999	3.6889	4.9091	0.1	5289.1
6000	3.6889	5.0909	0.1	5307.4
6001	3.6889	5.2727	0.1	5326.5
6002	3.6889	5.4545	0.1	5346.4
6003	3.6889	5.6364	0.1	5366.6
6004	3.6889	5.8182	0.1	5388.7
6005	3.8733	0.18182	0.1	5321.5
6006	3.8733	0.36364	0.1	5301.1
6007	3.8733	0.54545	0.1	5282.2
6008	3.8733	0.72727	0.1	5263.5
6009	3.8733	0.90909	0.1	5245.5
6010	3.8733	1.0909	0.1	5228.2
6011	3.8733	1.2727	0.1	5211.9
6012	3.8733	1.4545	0.1	5196.7
6013	3.8733	1.6364	0.1	5182.7
6014	3.8733	1.8182	0.1	5170.2
6015	3.8733	2.	0.1	5159.2
6016	3.8733	2.1818	0.1	5149.9
6017	3.8733	2.3636	0.1	5142.4
6018	3.8733	2.5455	0.1	5136.6
6019	3.8733	2.7273	0.1	5132.8
6020	3.8733	2.9091	0.1	5130.9
6021	3.8733	3.0909	0.1	5130.9
6022	3.8733	3.2727	0.1	5132.8
6023	3.8733	3.4545	0.1	5136.6
6024	3.8733	3.6364	0.1	5142.4
6025	3.8733	3.8182	0.1	5149.9
6026	3.8733	4.	0.1	5159.2
6027	3.8733	4.1818	0.1	5170.2
6028	3.8733	4.3636	0.1	5182.7
6029	3.8733	4.5455	0.1	5196.7
6030	3.8733	4.7273	0.1	5211.9
6031	3.8733	4.9091	0.1	5228.2
6032	3.8733	5.0909	0.1	5245.5
6033	3.8733	5.2727	0.1	5263.5
6034	3.8733	5.4545	0.1	5282.2
6035	3.8733	5.6364	0.1	5301.1
6036	3.8733	5.8182	0.1	5321.5
6037	4.0578	0.18182	0.1	5254.8
6038	4.0578	0.36364	0.1	5236.
6039	4.0578	0.54545	0.1	5218.3
6040	4.0578	0.72727	0.1	5200.9
6041	4.0578	0.90909	0.1	5183.9
6042	4.0578	1.0909	0.1	5167.7
6043	4.0578	1.2727	0.1	5152.3
6044	4.0578	1.4545	0.1	5138.
6045	4.0578	1.6364	0.1	5124.8
6046	4.0578	1.8182	0.1	5112.9
6047	4.0578	2.	0.1	5102.5
6048	4.0578	2.1818	0.1	5093.6
6049	4.0578	2.3636	0.1	5086.4
6050	4.0578	2.5455	0.1	5080.9
6051	4.0578	2.7273	0.1	5077.2
6052	4.0578	2.9091	0.1	5075.4
6053	4.0578	3.0909	0.1	5075.4
6054	4.0578	3.2727	0.1	5077.2
6055	4.0578	3.4545	0.1	5080.9
6056	4.0578	3.6364	0.1	5086.4
6057	4.0578	3.8182	0.1	5093.6
6058	4.0578	4.	0.1	5102.5
6059	4.0578	4.1818	0.1	5112.9
6060	4.0578	4.3636	0.1	5124.8
6061	4.0578	4.5455	0.1	5138.
6062	4.0578	4.7273	0.1	5152.3
6063	4.0578	4.9091	0.1	5167.7
6064	4.0578	5.0909	0.1	5183.9
6065	4.0578	5.2727	0.1	5200.9
6066	4.0578	5.4545	0.1	5218.3
6067	4.0578	5.6364	0.1	5236.
6068	4.0578	5.8182	0.1	5254.8
6069	4.2422	0.18182	0.1	5188.7
6070	4.2422	0.36364	0.1	5171.3
6071	4.2422	0.54545	0.1	5154.8
6072	4.2422	0.72727	0.1	5138.5
6073	4.2422	0.90909	0.1	5122.7
6074	4.2422	1.0909	0.1	5107.5
6075	4.2422	1.2727	0.1	5093.1
6076	4.2422	1.4545	0.1	5079.6
6077	4.2422	1.6364	0.1	5067.1
6078	4.2422	1.8182	0.1	5056.
6079	4.2422	2.	0.1	5046.1
6080	4.2422	2.1818	0.1	5037.7
6081	4.2422	2.3636	0.1	5030.9
6082	4.2422	2.5455	0.1	5025.7
6083	4.2422	2.7273	0.1	5022.3
6084	4.2422	2.9091	0.1	5020.5
6085	4.2422	3.0909	0.1	5020.5
6086	4.2422	3.2727	0.1	5022.3
6087	4.2422	3.4545	0.1	5025.7
6088	4.2422	3.6364	0.1	5030.9
6089	4.2422	3.8182	0.1	5037.7
6090	4.2422	4.	0.1	5046.1
6091	4.2422	4.1818	0.1	5056.
6092	4.2422	4.3636	0.1	5067.1
6093	4.2422	4.5455	0.1	5079.6
6094	4.2422	4.7273	0.1	5093.1
6095	4.2422	4.9091	0.1	5107.5
6096	4.2422	5.0909	0.1	5122.7
6097	4.2422	5.2727	0.1	5138.5
6098	4.2422	5.4545	0.1	5154.8
6099	4.2422	5.6364	0.1	5171.3
6100	4.2422	5.8182	0.1	5188.7
6101	4.4267	0.18182	0.1	5123.3
6102	4.4267	0.36364	0.1	5107.2
6103	4.4267	0.54545	0.1	5091.8
6104	4.4267	0.72727	0.1	5076.6
6105	4.4267	0.90909	0.1	5061.8
6106	4.4267	1.0909	0.1	5047.6
6107	4.4267	1.2727	0.1	5034.1
6108	4.4267	1.4545	0.1	5021.5
6109	4.4267	1.6364	0.1	5009.8
6110	4.4267	1.8182	0.1	4999.3
6111	4.4267	2.	0.1	4990.1
6112	4.4267	2.1818	0.1	4982.2
6113	4.4267	2.3636	0.1	4975.8
6114	4.4267	2.5455	0.1	4970.9
6115	4.4267	2.7273	0.1	4967.7
6116	4.4267	2.9091	0.1	4966.
6117	4.4267	3.0909	0.1	4966.
6118	4.4267	3.2727	0.1	4967.7
6119	4.4267	3.4545	0.1	4970.9
6120	4.4267	3.6364	0.1	4975.8
6121	4.4267	3.8182	0.1	4982.2
6122	4.4267	4.	0.1	4990.1
6123	4.4267	4.1818	0.1	4999.3
6124	4.4267	4.3636	0.1	5009.8
6125	4.4267	4.5455	0.1	5021.5
6126	4.4267	4.7273	0.1	5034.1
6127	4.4267	4.9091	0.1	5047.6
6128	4.4267	5.0909	0.1	5061.8
6129	4.4267	5.2727	0.1	5076.6
6130	4.4267	5.4545	0.1	5091.8
6131	4.4267	5.6364	0.1	5107.2
6132	4.4267	5.8182	0.1	5123.3
6133	4.6111	0.18182	0.1	5058.4
6134	4.6111	0.36364	0.1	5043.5
6135	4.6111	0.54545	0.1	5029.2
6136	4.6111	0.72727	0.1	5015.1
6137	4.6111	0.90909	0.1	5001.3
6138	4.6111	1.0909	0.1	4988.1
6139	4.6111	1.2727	0.1	4975.5
6140	4.6111	1.4545	0.1	4963.7
6141	4.6111	1.6364	0.1	4952.8
6142	4.6111	1.8182	0.1	4943.
6143	4.6111	2.	0.1	4934.4
6144	4.6111	2.1818	0.1	4927.
6145	4.6111	2.3636	0.1	4921.
6146	4.6111	2.5455	0.1	4916.4
6147	4.6111	2.7273	0.1	4913.4
6148	4.6111	2.9091	0.1	4911.8
6149	4.6111	3.0909	0.1	4911.8
6150	4.6111	3.2727	0.1	4913.4
6151	4.6111	3.4545	0.1	4916.4
6152	4.6111	3.6364	0.1	4921.
6153	4.6111	3.8182	0.1	4927.
6154	4.6111	4.	0.1	4934.4
6155	4.6111	4.1818	0.1	4943.
6156	4.6111	4.3636	0.1	4952.8
6157	4.6111	4.5455	0.1	4963.7
6158	4.6111	4.7273	0.1	4975.5
6159	4.6111	4.9091	0.1	4988.1
6160	4.6111	5.0909	0.1	5001.3
6161	4.6111	5.2727	0.1	5015.1
6162	4.6111	5.4545	0.1	5029.2
6163	4.6111	5.6364	0.1	5043.5
6164	4.6111	5.8182	0.1	5058.4
6165	4.7956	0.18182	0.1	4994.3
6166	4.7956	0.36364	0.1	4980.5
6167	4.7956	0.54545	0.1	4967.2
6168	4.7956	0.72727	0.1	4954.
6169	4.7956	0.90909	0.1	4941.2
6170	4.7956	1.0909	0.1	4928.9
6171	4.7956	1.2727	0.1	4917.2
6172	4.7956	1.4545	0.1	4906.2
6173	4.7956	1.6364	0.1	4896.1
6174	4.7956	1.8182	0.1	4886.9
6175	4.7956	2.	0.1	4878.9
6176	4.7956	2.1818	0.1	4872.
6177	4.7956	2.3636	0.1	4866.4
6178	4.7956	2.5455	0.1	4862.1
6179	4.7956	2.7273	0.1	4859.3
6180	4.7956	2.9091	0.1	4857.8
6181	4.7956	3.0909	0.1	4857.8
6182	4.7956	3.2727	0.1	4859.3
6183	4.7956	3.4545	0.1	4862.1
6184	4.7956	3.6364	0.1	4866.4
6185	4.7956	3.8182	0.1	4872.
6186	4.7956	4.	0.1	4878.9
6187	4.7956	4.1818	0.1	4886.9
6188	4.7956	4.3636	0.1	4896.1
6189	4.7956	4.5455	0.1	4906.2
6190	4.7956	4.7273	0.1	4917.2
6191	4.7956	4.9091	0.1	4928.9
6192	4.7956	5.0909	0.1	4941.2
6193	4.7956	5.2727	0.1	4954.
6194	4.7956	5.4545	0.1	4967.2
6195	4.7956	5.6364	0.1	4980.5
6196	4.7956	5.8182	0.1	4994.3
6197	4.98	0.18182	0.1	4930.8
6198	4.98	0.36364	0.1	4918.
6199	4.98	0.54545	0.1	4905.6
6200	4.98	0.72727	0.1	4893.4
6201	4.98	0.90909	0.1	4881.5
6202	4.98	1.0909	0.1	4870.
6203	4.98	1.2727	0.1	4859.1
6204	4.98	1.4545	0.1	4848.9
6205	4.98	1.6364	0.1	4839.5
6206	4.98	1.8182	0.1	4831.
6207	4.98	2.	0.1	4823.5
6208	4.98	2.1818	0.1	4817.2
6209	4.98	2.3636	0.1	4811.9
6210	4.98	2.5455	0.1	4808.
6211	4.98	2.7273	0.1	4805.3
6212	4.98	2.9091	0.1	4804.
6213	4.98	3.0909	0.1	4804.
6214	4.98	3.2727	0.1	4805.3
6215	4.98	3.4545	0.1	4808.
6216	4.98	3.6364	0.1	4811.9
6217	4.98	3.8182	0.1	4817.2
6218	4.98	4.	0.1	4823.5
6219	4.98	4.1818	0.1	4831.
6220	4.98	4.3636	0.1	4839.5
6221	4.98	4.5455	0.1	4848.9
6222	4.98	4.7273	0.1	4859.1
6223	4.98	4.9091	0.1	4870.
6224	4.98	5.0909	0.1	4881.5
6225	4.98	5.2727	0.1	4893.4
6226	4.98	5.4545	0.1	4905.6
6227	4.98	5.6364	0.1	4918.
6228	4.98	5.8182	0.1	4930.8
6229	5.1644	0.18182	0.1	4868.
6230	5.1644	0.36364	0.1	4856.1
6231	5.1644	0.54545	0.1	4844.6
6232	5.1644	0.72727	0.1	4833.2
6233	5.1644	0.90909	0.1	4822.2
6234	5.1644	1.0909	0.1	4811.5
6235	5.1644	1.2727	0.1	4801.4
6236	5.1644	1.4545	0.1	4792.
6237	5.1644	1.6364	0.1	4783.2
6238	5.1644	1.8182	0.1	4775.3
6239	5.1644	2.	0.1	4768.4
6240	5.1644	2.1818	0.1	4762.5
6241	5.1644	2.3636	0.1	4757.6
6242	5.1644	2.5455	0.1	4754.
6243	5.1644	2.7273	0.1	4751.5
6244	5.1644	2.9091	0.1	4750.2
6245	5.1644	3.0909	0.1	4750.2
6246	5.1644	3.2727	0.1	4751.5
6247	5.1644	3.4545	0.1	4754.
6248	5.1644	3.6364	0.1	4757.6
6249	5.1644	3.8182	0.1	4762.5
6250	5.1644	4.	0.1	4768.4
6251	5.1644	4.1818	0.1	4775.3
6252	5.1644	4.3636	0.1	4783.2
6253	5.1644	4.5455	0.1	4792.
6254	5.1644	4.7273	0.1	4801.4
6255	5.1644	4.9091	0.1	4811.5
6256	5.1644	5.0909	0.1	4822.2
6257	5.1644	5.2727	0.1	4833.2
6258	5.1644	5.4545	0.1	4844.6
6259	5.1644	5.6364	0.1	4856.1
6260	5.1644	5.8182	0.1	4868.
6261	5.3489	0.18182	0.1	4805.8
6262	5.3489	0.36364	0.1	4794.8
6263	5.3489	0.54545	0.1	4784.1
6264	5.3489	0.72727	0.1	4773.5
6265	5.3489	0.90909	0.1	4763.3
6266	5.3489	1.0909	0.1	4753.4
6267	5.3489	1.2727	0.1	4744.
6268	5.3489	1.4545	0.1	4735.2
6269	5.3489	1.6364	0.1	4727.1
6270	5.3489	1.8182	0.1	4719.8
6271	5.3489	2.	0.1	4713.4
6272	5.3489	2.1818	0.1	4707.9
6273	5.3489	2.3636	0.1	4703.4
6274	5.3489	2.5455	0.1	4700.
6275	5.3489	2.7273	0.1	4697.7
6276	5.3489	2.9091	0.1	4696.6
6277	5.3489	3.0909	0.1	4696.6
6278	5.3489	3.2727	0.1	4697.7
6279	5.3489	3.4545	0.1	4700.
6280	5.3489	3.6364	0.1	4703.4
6281	5.3489	3.8182	0.1	4707.9
6282	5.3489	4.	0.1	4713.4
6283	5.3489	4.1818	0.1	4719.8
6284	5.3489	4.3636	0.1	4727.1
6285	5.3489	4.5455	0.1	4735.2
6286	5.3489	4.7273	0.1	4744.
6287	5.3489	4.9091	0.1	4753.4
6288	5.3489	5.0909	0.1	4763.3
6289	5.3489	5.2727	0.1	4773.5
6290	5.3489	5.4545	0.1	4784.1
6291	5.3489	5.6364	0.1	4794.8
6292	5.3489	5.8182	0.1	4805.8
6293	5.5333	0.18182	0.1	4744.2
6294	5.5333	0.36364	0.1	4733.9
6295	5.5333	0.54545	0.1	4724.
6296	5.5333	0.72727	0.1	4714.2
6297	5.5333	0.90909	0.1	4704.7
6298	5.5333	1.0909	0.1	4695.5
6299	5.5333	1.2727	0.1	4686.9
6300	5.5333	1.4545	0.1	4678.7
6301	5.5333	1.6364	0.1	4671.2
6302	5.5333	1.8182	0.1	4664.5
6303	5.5333	2.	0.1	4658.5
6304	5.5333	2.1818	0.1	4653.4
6305	5.5333	2.3636	0.1	4649.3
6306	5.5333	2.5455	0.1	4646.1
6307	5.5333	2.7273	0.1	4644.
6308	5.5333	2.9091	0.1	4642.9
6309	5.5333	3.0909	0.1	4642.9
6310	5.5333	3.2727	0.1	4644.
6311	5.5333	3.4545	0.1	4646.1
6312	5.5333	3.6364	0.1	4649.3
6313	5.5333	3.8182	0.1	4653.4
6314	5.5333	4.	0.1	4658.5
6315	5.5333	4.1818	0.1	4664.5
6316	5.5333	4.3636	0.1	4671.2
6317	5.5333	4.5455	0.1	4678.7
6318	5.5333	4.7273	0.1	4686.9
6319	5.5333	4.9091	0.1	4695.5
6320	5.5333	5.0909	0.1	4704.7
6321	5.5333	5.2727	0.1	4714.2
6322	5.5333	5.4545	0.1	4724.
6323	5.5333	5.6364	0.1	4733.9
6324	5.5333	5.8182	0.1	4744.2
6325	5.7178	0.18182	0.1	4683.2
6326	5.7178	0.36364	0.1	4673.6
6327	5.7178	0.54545	0.1	4664.4
6328	5.7178	0.72727	0.1	4655.3
6329	5.7178	0.90909	0.1	4646.5
6330	5.7178	1.0909	0.1	4638.
6331	5.7178	1.2727	0.1	4630.
6332	5.7178	1.4545	0.1	4622.4
6333	5.7178	1.6364	0.1	4615.5
6334	5.7178	1.8182	0.1	4609.3
6335	5.7178	2.	0.1	4603.7
6336	5.7178	2.1818	0.1	4599.1
6337	5.7178	2.3636	0.1	4595.2
6338	5.7178	2.5455	0.1	4592.3
6339	5.7178	2.7273	0.1	4590.4
6340	5.7178	2.9091	0.1	4589.4
6341	5.7178	3.0909	0.1	4589.4
6342	5.7178	3.2727	0.1	4590.4
6343	5.7178	3.4545	0.1	4592.3
6344	5.7178	3.6364	0.1	4595.2
6345	5.7178	3.8182	0.1	4599.1
6346	5.7178	4.	0.1	4603.7
6347	5.7178	4.1818	0.1	4609.3
6348	5.7178	4.3636	0.1	4615.5
6349	5.7178	4.5455	0.1	4622.4
6350	5.7178	4.7273	0.1	4630.
6351	5.7178	4.9091	0.1	4638.
6352	5.7178	5.0909	0.1	4646.5
6353	5.7178	5.2727	0.1	4655.3
6354	5.7178	5.4545	0.1	4664.4
6355	5.7178	5.6364	0.1	4673.6
6356	5.7178	5.8182	0.1	4683.2
6357	5.9022	0.18182	0.1	4622.8
6358	5.9022	0.36364	0.1	4613.8
6359	5.9022	0.54545	0.1	4605.3
6360	5.9022	0.72727	0.1	4596.8
6361	5.9022	0.90909	0.1	4588.7
6362	5.9022	1.0909	0.1	4580.8
6363	5.9022	1.2727	0.1	4573.3
6364	5.9022	1.4545	0.1	4566.4
6365	5.9022	1.6364	0.1	4560.
6366	5.9022	1.8182	0.1	4554.2
6367	5.9022	2.	0.1	4549.1
6368	5.9022	2.1818	0.1	4544.8
6369	5.9022	2.3636	0.1	4541.2
6370	5.9022	2.5455	0.1	4538.5
6371	5.9022	2.7273	0.1	4536.7
6372	5.9022	2.9091	0.1	4535.8
6373	5.9022	3.0909	0.1	4535.8
6374	5.9022	3.2727	0.1	4536.7
6375	5.9022	3.4545	0.1	4538.5
6376	5.9022	3.6364	0.1	4541.2
6377	5.9022	3.8182	0.1	4544.8
6378	5.9022	4.	0.1	4549.1
6379	5.9022	4.1818	0.1	4554.2
6380	5.9022	4.3636	0.1	4560.
6381	5.9022	4.5455	0.1	4566.4
6382	5.9022	4.7273	0.1	4573.3
6383	5.9022	4.9091	0.1	4580.8
6384	5.9022	5.0909	0.1	4588.7
6385	5.9022	5.2727	0.1	4596.8
6386	5.9022	5.4545	0.1	4605.3
6387	5.9022	5.6364	0.1	4613.8
6388	5.9022	5.8182	0.1	4622.8
6389	6.0867	0.18182	0.1	4562.9
6390	6.0867	0.36364	0.1	4554.5
6391	6.0867	0.54545	0.1	4546.6
6392	6.0867	0.72727	0.1	4538.7
6393	6.0867	0.90909	0.1	4531.2
6394	6.0867	1.0909	0.1	4523.9
6395	6.0867	1.2727	0.1	4517.
6396	6.0867	1.4545	0.1	4510.5
6397	6.0867	1.6364	0.1	4504.6
6398	6.0867	1.8182	0.1	4499.3
6399	6.0867	2.	0.1	4494.6
6400	6.0867	2.1818	0.1	4490.6
6401	6.0867	2.3636	0.1	4487.3
6402	6.0867	2.5455	0.1	4484.8
6403	6.0867	2.7273	0.1	4483.2
6404	6.0867	2.9091	0.1	4482.3
6405	6.0867	3.0909	0.1	4482.3
6406	6.0867	3.2727	0.1	4483.2
6407	6.0867	3.4545	0.1	4484.8
6408	6.0867	3.6364	0.1	4487.3
6409	6.0867	3.8182	0.1	4490.6
6410	6.0867	4.	0.1	4494.6
6411	6.0867	4.1818	0.1	4499.3
6412	6.0867	4.3636	0.1	4504.6
6413	6.0867	4.5455	0.1	4510.5
6414	6.0867	4.7273	0.1	4517.
6415	6.0867	4.9091	0.1	4523.9
6416	6.0867	5.0909	0.1	4531.2
6417	6.0867	5.2727	0.1	4538.7
6418	6.0867	5.4545	0.1	4546.6
6419	6.0867	5.6364	0.1	4554.5
6420	6.0867	5.8182	0.1	4562.9
6421	6.2711	0.18182	0.1	4503.5
6422	6.2711	0.36364	0.1	4495.7
6423	6.2711	0.54545	0.1	4488.3
6424	6.2711	0.72727	0.1	4481.
6425	6.2711	0.90909	0.1	4474.
6426	6.2711	1.0909	0.1	4467.2
6427	6.2711	1.2727	0.1	4460.9
6428	6.2711	1.4545	0.1	4454.9
6429	6.2711	1.6364	0.1	4449.4
6430	6.2711	1.8182	0.1	4444.5
6431	6.2711	2.	0.1	4440.1
6432	6.2711	2.1818	0.1	4436.4
6433	6.2711	2.3636	0.1	4433.4
6434	6.2711	2.5455	0.1	4431.2
6435	6.2711	2.7273	0.1	4429.6
6436	6.2711	2.9091	0.1	4428.8
6437	6.2711	3.0909	0.1	4428.8
6438	6.2711	3.2727	0.1	4429.6
6439	6.2711	3.4545	0.1	4431.2
6440	6.2711	3.6364	0.1	4433.4
6441	6.2711	3.8182	0.1	4436.4
6442	6.2711	4.	0.1	4440.1
6443	6.2711	4.1818	0.1	4444.5
6444	6.2711	4.3636	0.1	4449.4
6445	6.2711	4.5455	0.1	4454.9
6446	6.2711	4.7273	0.1	4460.9
6447	6.2711	4.9091	0.1	4467.2
6448	6.2711	5.0909	0.1	4474.
6449	6.2711	5.2727	0.1	4481.
6450	6.2711	5.4545	0.1	4488.3
6451	6.2711	5.6364	0.1	4495.7
6452	6.2711	5.8182	0.1	4503.5
6453	6.4556	0.18182	0.1	4444.5
6454	6.4556	0.36364	0.1	4437.2
6455	6.4556	0.54545	0.1	4430.4
6456	6.4556	0.72727	0.1	4423.6
6457	6.4556	0.90909	0.1	4417.1
6458	6.4556	1.0909	0.1	4410.9
6459	6.4556	1.2727	0.1	4405.
6460	6.4556	1.4545	0.1	4399.5
6461	6.4556	1.6364	0.1	4394.4
6462	6.4556	1.8182	0.1	4389.8
6463	6.4556	2.	0.1	4385.8
6464	6.4556	2.1818	0.1	4382.4
6465	6.4556	2.3636	0.1	4379.6
6466	6.4556	2.5455	0.1	4377.5
6467	6.4556	2.7273	0.1	4376.1
6468	6.4556	2.9091	0.1	4375.4
6469	6.4556	3.0909	0.1	4375.4
6470	6.4556	3.2727	0.1	4376.1
6471	6.4556	3.4545	0.1	4377.5
6472	6.4556	3.6364	0.1	4379.6
6473	6.4556	3.8182	0.1	4382.4
6474	6.4556	4.	0.1	4385.8
6475	6.4556	4.1818	0.1	4389.8
6476	6.4556	4.3636	0.1	4394.4
6477	6.4556	4.5455	0.1	4399.5
6478	6.4556	4.7273	0.1	4405.
6479	6.4556	4.9091	0.1	4410.9
6480	6.4556	5.0909	0.1	4417.1
6481	6.4556	5.2727	0.1	4423.6
6482	6.4556	5.4545	0.1	4430.4
6483	6.4556	5.6364	0.1	4437.2
6484	6.4556	5.8182	0.1	4444.5
6485	6.64	0.18182	0.1	4386.1
6486	6.64	0.36364	0.1	4379.2
6487	6.64	0.54545	0.1	4372.9
6488	6.64	0.72727	0.1	4366.6
6489	6.64	0.90909	0.1	4360.6
6490	6.64	1.0909	0.1	4354.8
6491	6.64	1.2727	0.1	4349.3
6492	6.64	1.4545	0.1	4344.2
6493	6.64	1.6364	0.1	4339.5
6494	6.64	1.8182	0.1	4335.3
6495	6.64	2.	0.1	4331.6
6496	6.64	2.1818	0.1	4328.5
6497	6.64	2.3636	0.1	4325.9
6498	6.64	2.5455	0.1	4324.
6499	6.64	2.7273	0.1	4322.7
6500	6.64	2.9091	0.1	4322.
6501	6.64	3.0909	0.1	4322.
6502	6.64	3.2727	0.1	4322.7
6503	6.64	3.4545	0.1	4324.
6504	6.64	3.6364	0.1	4325.9
6505	6.64	3.8182	0.1	4328.5
6506	6.64	4.	0.1	4331.6
6507	6.64	4.1818	0.1	4335.3
6508	6.64	4.3636	0.1	4339.5
6509	6.64	4.5455	0.1	4344.2
6510	6.64	4.7273	0.1	4349.3
6511	6.64	4.9091	0.1	4354.8
6512	6.64	5.0909	0.1	4360.6
6513	6.64	5.2727	0.1	4366.6
6514	6.64	5.4545	0.1	4372.9
6515	6.64	5.6364	0.1	4379.2
6516	6.64	5.8182	0.1	4386.1
6517	6.8244	0.18182	0.1	4328.1
6518	6.8244	0.36364	0.1	4321.6
6519	6.8244	0.54545	0.1	4315.7
6520	6.8244	0.72727	0.1	4309.9
6521	6.8244	0.90909	0.1	4304.3
6522	6.8244	1.0909	0.1	4298.9
6523	6.8244	1.2727	0.1	4293.9
6524	6.8244	1.4545	0.1	4289.2
6525	6.8244	1.6364	0.1	4284.8
6526	6.8244	1.8182	0.1	4281.
6527	6.8244	2.	0.1	4277.5
6528	6.8244	2.1818	0.1	4274.6
6529	6.8244	2.3636	0.1	4272.3
6530	6.8244	2.5455	0.1	4270.5
6531	6.8244	2.7273	0.1	4269.3
6532	6.8244	2.9091	0.1	4268.7
6533	6.8244	3.0909	0.1	4268.7
6534	6.8244	3.2727	0.1	4269.3
6535	6.8244	3.4545	0.1	4270.5
6536	6.8244	3.6364	0.1	4272.3
6537	6.8244	3.8182	0.1	4274.6
6538	6.8244	4.	0.1	4277.5
6539	6.8244	4.1818	0.1	4281.
6540	6.8244	4.3636	0.1	4284.8
6541	6.8244	4.5455	0.1	4289.2
6542	6.8244	4.7273	0.1	4293.9
6543	6.8244	4.9091	0.1	4298.9
6544	6.8244	5.0909	0.1	4304.3
6545	6.8244	5.2727	0.1	4309.9
6546	6.8244	5.4545	0.1	4315.7
6547	6.8244	5.6364	0.1	4321.6
6548	6.8244	5.8182	0.1	4328.1
6549	7.0089	0.18182	0.1	4270.5
6550	7.0089	0.36364	0.1	4264.4
6551	7.0089	0.54545	0.1	4258.9
6552	7.0089	0.72727	0.1	4253.5
6553	7.0089	0.90909	0.1	4248.3
6554	7.0089	1.0909	0.1	4243.4
6555	7.0089	1.2727	0.1	4238.7
6556	7.0089	1.4545	0.1	4234.3
6557	7.0089	1.6364	0.1	4230.3
6558	7.0089	1.8182	0.1	4226.7
6559	7.0089	2.	0.1	4223.6
6560	7.0089	2.1818	0.1	4220.9
6561	7.0089	2.3636	0.1	4218.7
6562	7.0089	2.5455	0.1	4217.1
6563	7.0089	2.7273	0.1	4215.9
6564	7.0089	2.9091	0.1	4215.4
6565	7.0089	3.0909	0.1	4215.4
6566	7.0089	3.2727	0.1	4215.9
6567	7.0089	3.4545	0.1	4217.1
6568	7.0089	3.6364	0.1	4218.7
6569	7.0089	3.8182	0.1	4220.9
6570	7.0089	4.	0.1	4223.6
6571	7.0089	4.1818	0.1	4226.7
6572	7.0089	4.3636	0.1	4230.3
6573	7.0089	4.5455	0.1	4234.3
6574	7.0089	4.7273	0.1	4238.7
6575	7.0089	4.9091	0.1	4243.4
6576	7.0089	5.0909	0.1	4248.3
6577	7.0089	5.2727	0.1	4253.5
6578	7.0089	5.4545	0.1	4258.9
6579	7.0089	5.6364	0.1	4264.4
6580	7.0089	5.8182	0.1	4270.5
6581	7.1933	0.18182	0.1	4213.3
6582	7.1933	0.36364	0.1	4207.6
6583	7.1933	0.54545	0.1	4202.4
6584	7.1933	0.72727	0.1	4197.4
6585	7.1933	0.90909	0.1	4192.6
6586	7.1933	1.0909	0.1	4188.
6587	7.1933	1.2727	0.1	4183.7
6588	7.1933	1.4545	0.1	4179.6
6589	7.1933	1.6364	0.1	4175.9
6590	7.1933	1.8182	0.1	4172.6
6591	7.1933	2.	0.1	4169.7
6592	7.1933	2.1818	0.1	4167.2
6593	7.1933	2.3636	0.1	4165.2
6594	7.1933	2.5455	0.1	4163.7
6595	7.1933	2.7273	0.1	4162.7
6596	7.1933	2.9091	0.1	4162.2
6597	7.1933	3.0909	0.1	4162.2
6598	7.1933	3.2727	0.1	4162.7
6599	7.1933	3.4545	0.1	4163.7
6600	7.1933	3.6364	0.1	4165.2
6601	7.1933	3.8182	0.1	4167.2
6602	7.1933	4.	0.1	4169.7
6603	7.1933	4.1818	0.1	4172.6
6604	7.1933	4.3636	0.1	4175.9
6605	7.1933	4.5455	0.1	4179.6
6606	7.1933	4.7273	0.1	4183.7
6607	7.1933	4.9091	0.1	4188.
6608	7.1933	5.0909	0.1	4192.6
6609	7.1933	5.2727	0.1	4197.4
6610	7.1933	5.4545	0.1	4202.4
6611	7.1933	5.6364	0.1	4207.6
6612	7.1933	5.8182	0.1	4213.3
6613	7.3778	0.18182	0.1	4156.5
6614	7.3778	0.36364	0.1	4151.1
6615	7.3778	0.54545	0.1	4146.3
6616	7.3778	0.72727	0.1	4141.7
6617	7.3778	0.90909	0.1	4137.2
6618	7.3778	1.0909	0.1	4132.9
6619	7.3778	1.2727	0.1	4128.9
6620	7.3778	1.4545	0.1	4125.2
6621	7.3778	1.6364	0.1	4121.7
6622	7.3778	1.8182	0.1	4118.7
6623	7.3778	2.	0.1	4116.
6624	7.3778	2.1818	0.1	4113.7
6625	7.3778	2.3636	0.1	4111.9
6626	7.3778	2.5455	0.1	4110.4
6627	7.3778	2.7273	0.1	4109.5
6628	7.3778	2.9091	0.1	4109.
6629	7.3778	3.0909	0.1	4109.
6630	7.3778	3.2727	0.1	4109.5
6631	7.3778	3.4545	0.1	4110.4
6632	7.3778	3.6364	0.1	4111.9
6633	7.3778	3.8182	0.1	4113.7
6634	7.3778	4.	0.1	4116.
6635	7.3778	4.1818	0.1	4118.7
6636	7.3778	4.3636	0.1	4121.7
6637	7.3778	4.5455	0.1	4125.2
6638	7.3778	4.7273	0.1	4128.9
6639	7.3778	4.9091	0.1	4132.9
6640	7.3778	5.0909	0.1	4137.2
6641	7.3778	5.2727	0.1	4141.7
6642	7.3778	5.4545	0.1	4146.3
6643	7.3778	5.6364	0.1	4151.1
6644	7.3778	5.8182	0.1	4156.5
6645	7.5622	0.18182	0.1	4100.
6646	7.5622	0.36364	0.1	4094.9
6647	7.5622	0.54545	0.1	4090.5
6648	7.5622	0.72727	0.1	4086.2
6649	7.5622	0.90909	0.1	4082.
6650	7.5622	1.0909	0.1	4078.1
6651	7.5622	1.2727	0.1	4074.3
6652	7.5622	1.4545	0.1	4070.9
6653	7.5622	1.6364	0.1	4067.7
6654	7.5622	1.8182	0.1	4064.9
6655	7.5622	2.	0.1	4062.4
6656	7.5622	2.1818	0.1	4060.3
6657	7.5622	2.3636	0.1	4058.6
6658	7.5622	2.5455	0.1	4057.3
6659	7.5622	2.7273	0.1	4056.4
6660	7.5622	2.9091	0.1	4056.
6661	7.5622	3.0909	0.1	4056.
6662	7.5622	3.2727	0.1	4056.4
6663	7.5622	3.4545	0.1	4057.3
6664	7.5622	3.6364	0.1	4058.6
6665	7.5622	3.8182	0.1	4060.3
6666	7.5622	4.	0.1	4062.4
6667	7.5622	4.1818	0.1	4064.9
6668	7.5622	4.3636	0.1	4067.7
6669	7.5622	4.5455	0.1	4070.9
6670	7.5622	4.7273	0.1	4074.3
6671	7.5622	4.9091	0.1	4078.1
6672	7.5622	5.0909	0.1	4082.
6673	7.5622	5.2727	0.1	4086.2
6674	7.5622	5.4545	0.1	4090.5
6675	7.5622	5.6364	0.1	4094.9
6676	7.5622	5.8182	0.1	4100.
6677	7.7467	0.18182	0.1	4044.
6678	7.7467	0.36364	0.1	4039.1
6679	7.7467	0.54545	0.1	4035.
6680	7.7467	0.72727	0.1	4030.9
6681	7.7467	0.90909	0.1	4027.1
6682	7.7467	1.0909	0.1	4023.4
6683	7.7467	1.2727	0.1	4020.
6684	7.7467	1.4545	0.1	4016.8
6685	7.7467	1.6364	0.1	4013.9
6686	7.7467	1.8182	0.1	4011.2
6687	7.7467	2.	0.1	4008.9
6688	7.7467	2.1818	0.1	4007.
6689	7.7467	2.3636	0.1	4005.4
6690	7.7467	2.5455	0.1	4004.2
6691	7.7467	2.7273	0.1	4003.4
6692	7.7467	2.9091	0.1	4003.
6693	7.7467	3.0909	0.1	4003.
6694	7.7467	3.2727	0.1	4003.4
6695	7.7467	3.4545	0.1	4004.2
6696	7.7467	3.6364	0.1	4005.4
6697	7.7467	3.8182	0.1	4007.
6698	7.7467	4.	0.1	4008.9
6699	7.7467	4.1818	0.1	4011.2
6700	7.7467	4.3636	0.1	4013.9
6701	7.7467	4.5455	0.1	4016.8
6702	7.7467	4.7273	0.1	4020.
6703	7.7467	4.9091	0.1	4023.4
6704	7.7467	5.0909	0.1	4027.1
6705	7.7467	5.2727	0.1	4030.9
6706	7.7467	5.4545	0.1	4035.
6707	7.7467	5.6364	0.1	4039.1
6708	7.7467	5.8182	0.1	4044.
6709	7.9311	0.18182	0.1	3988.2
6710	7.9311	0.36364	0.1	3983.6
6711	7.9311	0.54545	0.1	3979.7
6712	7.9311	0.72727	0.1	3976.
6713	7.9311	0.90909	0.1	3972.4
6714	7.9311	1.0909	0.1	3969.
6715	7.9311	1.2727	0.1	3965.8
6716	7.9311	1.4545	0.1	3962.9
6717	7.9311	1.6364	0.1	3960.2
6718	7.9311	1.8182	0.1	3957.7
6719	7.9311	2.	0.1	3955.6
6720	7.9311	2.1818	0.1	3953.8
6721	7.9311	2.3636	0.1	3952.4
6722	7.9311	2.5455	0.1	3951.3
6723	7.9311	2.7273	0.1	3950.5
6724	7.9311	2.9091	0.1	3950.1
6725	7.9311	3.0909	0.1	3950.1
6726	7.9311	3.2727	0.1	3950.5
6727	7.9311	3.4545	0.1	3951.3
6728	7.9311	3.6364	0.1	3952.4
6729	7.9311	3.8182	0.1	3953.8
6730	7.9311	4.	0.1	3955.6
6731	7.9311	4.1818	0.1	3957.7
6732	7.9311	4.3636	0.1	3960.2
6733	7.9311	4.5455	0.1	3962.9
6734	7.9311	4.7273	0.1	3965.8
6735	7.9311	4.9091	0.1	3969.
6736	7.9311	5.0909	0.1	3972.4
6737	7.9311	5.2727	0.1	3976.
6738	7.9311	5.4545	0.1	3979.7
6739	7.9311	5.6364	0.1	3983.6
6740	7.9311	5.8182	0.1	3988.2
6741	8.1156	0.18182	0.1	3932.8
6742	8.1156	0.36364	0.1	3928.4
6743	8.1156	0.54545	0.1	3924.8
6744	8.1156	0.72727	0.1	3921.3
6745	8.1156	0.90909	0.1	3918.
6746	8.1156	1.0909	0.1	3914.8
6747	8.1156	1.2727	0.1	3911.9
6748	8.1156	1.4545	0.1	3909.1
6749	8.1156	1.6364	0.1	3906.6
6750	8.1156	1.8182	0.1	3904.4
6751	8.1156	2.	0.1	3902.4
6752	8.1156	2.1818	0.1	3900.8
6753	8.1156	2.3636	0.1	3899.4
6754	8.1156	2.5455	0.1	3898.4
6755	8.1156	2.7273	0.1	3897.7
6756	8.1156	2.9091	0.1	3897.4
6757	8.1156	3.0909	0.1	3897.4
6758	8.1156	3.2727	0.1	3897.7
6759	8.1156	3.4545	0.1	3898.4
6760	8.1156	3.6364	0.1	3899.4
6761	8.1156	3.8182	0.1	3900.8
6762	8.1156	4.	0.1	3902.4
6763	8.1156	4.1818	0.1	3904.4
6764	8.1156	4.3636	0.1	3906.6
6765	8.1156	4.5455	0.1	3909.1
6766	8.1156	4.7273	0.1	3911.9
6767	8.1156	4.9091	0.1	3914.8
6768	8.1156	5.0909	0.1	3918.
6769	8.1156	5.2727	0.1	3921.3
6770	8.1156	5.4545	0.1	3924.8
6771	8.1156	5.6364	0.1	3928.4
6772	8.1156	5.8182	0.1	3932.8
6773	8.3	0.18182	0.1	3877.6
6774	8.3	0.36364	0.1	3873.5
6775	8.3	0.54545	0.1	3870.1
6776	8.3	0.72727	0.1	3866.9
6777	8.3	0.90909	0.1	3863.8
6778	8.3	1.0909	0.1	3860.9
6779	8.3	1.2727	0.1	3858.1
6780	8.3	1.4545	0.1	3855.6
6781	8.3	1.6364	0.1	3853.3
6782	8.3	1.8182	0.1	3851.2
6783	8.3	2.	0.1	3849.4
6784	8.3	2.1818	0.1	3847.9
6785	8.3	2.3636	0.1	3846.6
6786	8.3	2.5455	0.1	3845.7
6787	8.3	2.7273	0.1	3845.
6788	8.3	2.9091	0.1	3844.7
6789	8.3	3.0909	0.1	3844.7
6790	8.3	3.2727	0.1	3845.
6791	8.3	3.4545	0.1	3845.7
6792	8.3	3.6364	0.1	3846.6
6793	8.3	3.8182	0.1	3847.9
6794	8.3	4.	0.1	3849.4
6795	8.3	4.1818	0.1	3851.2
6796	8.3	4.3636	0.1	3853.3
6797	8.3	4.5455	0.1	3855.6
6798	8.3	4.7273	0.1	3858.1
6799	8.3	4.9091	0.1	3860.9
6800	8.3	5.0909	0.1	3863.8
6801	8.3	5.2727	0.1	3866.9
6802	8.3	5.4545	0.1	3870.1
6803	8.3	5.6364	0.1	3873.5
6804	8.3	5.8182	0.1	3877.6
6805	8.4844	0.18182	0.1	3822.8
6806	8.4844	0.36364	0.1	3818.8
6807	8.4844	0.54545	0.1	3815.7
6808	8.4844	0.72727	0.1	3812.7
6809	8.4844	0.90909	0.1	3809.8
6810	8.4844	1.0909	0.1	3807.1
6811	8.4844	1.2727	0.1	3804.6
6812	8.4844	1.4545	0.1	3802.2
6813	8.4844	1.6364	0.1	3800.1
6814	8.4844	1.8182	0.1	3798.2
6815	8.4844	2.	0.1	3796.5
6816	8.4844	2.1818	0.1	3795.1
6817	8.4844	2.3636	0.1	3793.9
6818	8.4844	2.5455	0.1	3793.1
6819	8.4844	2.7273	0.1	3792.5
6820	8.4844	2.9091	0.1	3792.2
6821	8.4844	3.0909	0.1	3792.2
6822	8.4844	3.2727	0.1	3792.5
6823	8.4844	3.4545	0.1	3793.1
6824	8.4844	3.6364	0.1	3793.9
6825	8.4844	3.8182	0.1	3795.1
6826	8.4844	4.	0.1	3796.5
6827	8.4844	4.1818	0.1	3798.2
6828	8.4844	4.3636	0.1	3800.1
6829	8.4844	4.5455	0.1	3802.2
6830	8.4844	4.7273	0.1	3804.6
6831	8.4844	4.9091	0.1	3807.1
6832	8.4844	5.0909	0.1	3809.8
6833	8.4844	5.2727	0.1	3812.7
6834	8.4844	5.4545	0.1	3815.7
6835	8.4844	5.6364	0.1	3818.8
6836	8.4844	5.8182	0.1	3822.8
6837	8.6689	0.18182	0.1	3768.3
6838	8.6689	0.36364	0.1	3764.5
6839	8.6689	0.54545	0.1	3761.5
6840	8.6689	0.72727	0.1	3758.7
6841	8.6689	0.90909	0.1	3756.1
6842	8.6689	1.0909	0.1	3753.6
6843	8.6689	1.2727	0.1	3751.2
6844	8.6689	1.4545	0.1	3749.1
6845	8.6689	1.6364	0.1	3747.1
6846	8.6689	1.8182	0.1	3745.3
6847	8.6689	2.	0.1	3743.8
6848	8.6689	2.1818	0.1	3742.5
6849	8.6689	2.3636	0.1	3741.4
6850	8.6689	2.5455	0.1	3740.6
6851	8.6689	2.7273	0.1	3740.1
6852	8.6689	2.9091	0.1	3739.8
6853	8.6689	3.0909	0.1	3739.8
6854	8.6689	3.2727	0.1	3740.1
6855	8.6689	3.4545	0.1	3740.6
6856	8.6689	3.6364	0.1	3741.4
6857	8.6689	3.8182	0.1	3742.5
6858	8.6689	4.	0.1	3743.8
6859	8.6689	4.1818	0.1	3745.3
6860	8.6689	4.3636	0.1	3747.1
6861	8.6689	4.5455	0.1	3749.1
6862	8.6689	4.7273	0.1	3751.2
6863	8.6689	4.9091	0.1	3753.6
6864	8.6689	5.0909	0.1	3756.1
6865	8.6689	5.2727	0.1	3758.7
6866	8.6689	5.4545	0.1	3761.5
6867	8.6689	5.6364	0.1	3764.5
6868	8.6689	5.8182	0.1	3768.3
6869	8.8533	0.18182	0.1	3714.
6870	8.8533	0.36364	0.1	3710.4
6871	8.8533	0.54545	0.1	3707.6
6872	8.8533	0.72727	0.1	3705.
6873	8.8533	0.90909	0.1	3702.6
6874	8.8533	1.0909	0.1	3700.3
6875	8.8533	1.2727	0.1	3698.1
6876	8.8533	1.4545	0.1	3696.1
6877	8.8533	1.6364	0.1	3694.3
6878	8.8533	1.8182	0.1	3692.6
6879	8.8533	2.	0.1	3691.2
6880	8.8533	2.1818	0.1	3690.
6881	8.8533	2.3636	0.1	3689.
6882	8.8533	2.5455	0.1	3688.3
6883	8.8533	2.7273	0.1	3687.8
6884	8.8533	2.9091	0.1	3687.5
6885	8.8533	3.0909	0.1	3687.5
6886	8.8533	3.2727	0.1	3687.8
6887	8.8533	3.4545	0.1	3688.3
6888	8.8533	3.6364	0.1	3689.
6889	8.8533	3.8182	0.1	3690.
6890	8.8533	4.	0.1	3691.2
6891	8.8533	4.1818	0.1	3692.6
6892	8.8533	4.3636	0.1	3694.3
6893	8.8533	4.5455	0.1	3696.1
6894	8.8533	4.7273	0.1	3698.1
6895	8.8533	4.9091	0.1	3700.3
6896	8.8533	5.0909	0.1	3702.6
6897	8.8533	5.2727	0.1	3705.
6898	8.8533	5.4545	0.1	3707.6
6899	8.8533	5.6364	0.1	3710.4
6900	8.8533	5.8182	0.1	3714.
6901	9.0378	0.18182	0.1	3660.
6902	9.0378	0.36364	0.1	3656.5
6903	9.0378	0.54545	0.1	3654.
6904	9.0378	0.72727	0.1	3651.6
6905	9.0378	0.90909	0.1	3649.3
6906	9.0378	1.0909	0.1	3647.1
6907	9.0378	1.2727	0.1	3645.1
6908	9.0378	1.4545	0.1	3643.3
6909	9.0378	1.6364	0.1	3641.6
6910	9.0378	1.8182	0.1	3640.1
6911	9.0378	2.	0.1	3638.8
6912	9.0378	2.1818	0.1	3637.7
6913	9.0378	2.3636	0.1	3636.8
6914	9.0378	2.5455	0.1	3636.1
6915	9.0378	2.7273	0.1	3635.6
6916	9.0378	2.9091	0.1	3635.4
6917	9.0378	3.0909	0.1	3635.4
6918	9.0378	3.2727	0.1	3635.6
6919	9.0378	3.4545	0.1	3636.1
6920	9.0378	3.6364	0.1	3636.8
6921	9.0378	3.8182	0.1	3637.7
6922	9.0378	4.	0.1	3638.8
6923	9.0378	4.1818	0.1	3640.1
6924	9.0378	4.3636	0.1	3641.6
6925	9.0378	4.5455	0.1	3643.3
6926	9.0378	4.7273	0.1	3645.1
6927	9.0378	4.9091	0.1	3647.1
6928	9.0378	5.0909	0.1	3649.3
6929	9.0378	5.2727	0.1	3651.6
6930	9.0378	5.4545	0.1	3654.
6931	9.0378	5.6364	0.1	3656.5
6932	9.0378	5.8182	0.1	3660.
6933	9.2222	0.18182	0.1	3606.3
6934	9.2222	0.36364	0.1	3602.9
6935	9.2222	0.54545	0.1	3600.5
6936	9.2222	0.72727	0.1	3598.3
6937	9.2222	0.90909	0.1	3596.2
6938	9.2222	1.0909	0.1	3594.2
6939	9.2222	1.2727	0.1	3592.4
6940	9.2222	1.4545	0.1	3590.7
6941	9.2222	1.6364	0.1	3589.1
6942	9.2222	1.8182	0.1	3587.7
6943	9.2222	2.	0.1	3586.5
6944	9.2222	2.1818	0.1	3585.5
6945	9.2222	2.3636	0.1	3584.7
6946	9.2222	2.5455	0.1	3584.1
6947	9.2222	2.7273	0.1	3583.7
6948	9.2222	2.9091	0.1	3583.4
6949	9.2222	3.0909	0.1	3583.4
6950	9.2222	3.2727	0.1	3583.7
6951	9.2222	3.4545	0.1	3584.1
6952	9.2222	3.6364	0.1	3584.7
6953	9.2222	3.8182	0.1	3585.5
6954	9.2222	4.	0.1	3586.5
6955	9.2222	4.1818	0.1	3587.7
6956	9.2222	4.3636	0.1	3589.1
6957	9.2222	4.5455	0.1	3590.7
6958	9.2222	4.7273	0.1	3592.4
6959	9.2222	4.9091	0.1	3594.2
6960	9.2222	5.0909	0.1	3596.2
6961	9.2222	5.2727	0.1	3598.3
6962	9.2222	5.4545	0.1	3600.5
6963	9.2222	5.6364	0.1	3602.9
6964	9.2222	5.8182	0.1	3606.3
6965	9.4067	0.18182	0.1	3552.8
6966	9.4067	0.36364	0.1	3549.5
6967	9.4067	0.54545	0.1	3547.3
6968	9.4067	0.72727	0.1	3545.3
6969	9.4067	0.90909	0.1	3543.3
6970	9.4067	1.0909	0.1	3541.5
6971	9.4067	1.2727	0.1	3539.8
6972	9.4067	1.4545	0.1	3538.3
6973	9.4067	1.6364	0.1	3536.8
6974	9.4067	1.8182	0.1	3535.6
6975	9.4067	2.	0.1	3534.5
6976	9.4067	2.1818	0.1	3533.5
6977	9.4067	2.3636	0.1	3532.8
6978	9.4067	2.5455	0.1	3532.2
6979	9.4067	2.7273	0.1	3531.8
6980	9.4067	2.9091	0.1	3531.6
6981	9.4067	3.0909	0.1	3531.6
6982	9.4067	3.2727	0.1	3531.8
6983	9.4067	3.4545	0.1	3532.2
6984	9.4067	3.6364	0.1	3532.8
6985	9.4067	3.8182	0.1	3533.5
6986	9.4067	4.	0.1	3534.5
6987	9.4067	4.1818	0.1	3535.6
6988	9.4067	4.3636	0.1	3536.8
6989	9.4067	4.5455	0.1	3538.3
6990	9.4067	4.7273	0.1	3539.8
6991	9.4067	4.9091	0.1	3541.5
6992	9.4067	5.0909	0.1	3543.3
6993	9.4067	5.2727	0.1	3545.3
6994	9.4067	5.4545	0.1	3547.3
6995	9.4067	5.6364	0.1	3549.5
6996	9.4067	5.8182	0.1	3552.8
6997	9.5911	0.18182	0.1	3499.5
6998	9.5911	0.36364	0.1	3496.4
6999	9.5911	0.54545	0.1	3494.4
7000	9.5911	0.72727	0.1	3492.5
7001	9.5911	0.90909	0.1	3490.7
7002	9.5911	1.0909	0.1	3489.
7003	9.5911	1.2727	0.1	3487.5
7004	9.5911	1.4545	0.1	3486.
7005	9.5911	1.6364	0.1	3484.7
7006	9.5911	1.8182	0.1	3483.6
7007	9.5911	2.	0.1	3482.6
7008	9.5911	2.1818	0.1	3481.7
7009	9.5911	2.3636	0.1	3481.
7010	9.5911	2.5455	0.1	3480.5
7011	9.5911	2.7273	0.1	3480.1
7012	9.5911	2.9091	0.1	3480.
7013	9.5911	3.0909	0.1	3480.
7014	9.5911	3.2727	0.1	3480.1
7015	9.5911	3.4545	0.1	3480.5
7016	9.5911	3.6364	0.1	3481.
7017	9.5911	3.8182	0.1	3481.7
7018	9.5911	4.	0.1	3482.6
7019	9.5911	4.1818	0.1	3483.6
7020	9.5911	4.3636	0.1	3484.7
7021	9.5911	4.5455	0.1	3486.
7022	9.5911	4.7273	0.1	3487.5
7023	9.5911	4.9091	0.1	3489.
7024	9.5911	5.0909	0.1	3490.7
7025	9.5911	5.2727	0.1	3492.5
7026	9.5911	5.4545	0.1	3494.4
7027	9.5911	5.6364	0.1	3496.4
7028	9.5911	5.8182	0.1	3499.5
7029	9.7756	0.18182	0.1	3446.4
7030	9.7756	0.36364	0.1	3443.5
7031	9.7756	0.54545	0.1	3441.6
7032	9.7756	0.72727	0.1	3439.9
7033	9.7756	0.90909	0.1	3438.2
7034	9.7756	1.0909	0.1	3436.7
7035	9.7756	1.2727	0.1	3435.3
7036	9.7756	1.4545	0.1	3434.
7037	9.7756	1.6364	0.1	3432.8
7038	9.7756	1.8182	0.1	3431.8
7039	9.7756	2.	0.1	3430.8
7040	9.7756	2.1818	0.1	3430.1
7041	9.7756	2.3636	0.1	3429.4
7042	9.7756	2.5455	0.1	3429.
7043	9.7756	2.7273	0.1	3428.6
7044	9.7756	2.9091	0.1	3428.5
7045	9.7756	3.0909	0.1	3428.5
7046	9.7756	3.2727	0.1	3428.6
7047	9.7756	3.4545	0.1	3429.
7048	9.7756	3.6364	0.1	3429.4
7049	9.7756	3.8182	0.1	3430.1
7050	9.7756	4.	0.1	3430.8
7051	9.7756	4.1818	0.1	3431.8
7052	9.7756	4.3636	0.1	3432.8
7053	9.7756	4.5455	0.1	3434.
7054	9.7756	4.7273	0.1	3435.3
7055	9.7756	4.9091	0.1	3436.7
7056	9.7756	5.0909	0.1	3438.2
7057	9.7756	5.2727	0.1	3439.9
7058	9.7756	5.4545	0.1	3441.6
7059	9.7756	5.6364	0.1	3443.5
7060	9.7756	5.8182	0.1	3446.4
7061	9.96	0.18182	0.1	3393.6
7062	9.96	0.36364	0.1	3390.8
7063	9.96	0.54545	0.1	3389.1
7064	9.96	0.72727	0.1	3387.5
7065	9.96	0.90909	0.1	3386.
7066	9.96	1.0909	0.1	3384.6
7067	9.96	1.2727	0.1	3383.3
7068	9.96	1.4545	0.1	3382.1
7069	9.96	1.6364	0.1	3381.1
7070	9.96	1.8182	0.1	3380.1
7071	9.96	2.	0.1	3379.3
7072	9.96	2.1818	0.1	3378.6
7073	9.96	2.3636	0.1	3378.
7074	9.96	2.5455	0.1	3377.6
7075	9.96	2.7273	0.1	3377.3
7076	9.96	2.9091	0.1	3377.2
7077	9.96	3.0909	0.1	3377.2
7078	9.96	3.2727	0.1	3377.3
7079	9.96	3.4545	0.1	3377.6
7080	9.96	3.6364	0.1	3378.
7081	9.96	3.8182	0.1	3378.6
7082	9.96	4.	0.1	3379.3
7083	9.96	4.1818	0.1	3380.1
7084	9.96	4.3636	0.1	3381.1
7085	9.96	4.5455	0.1	3382.1
7086	9.96	4.7273	0.1	3383.3
7087	9.96	4.9091	0.1	3384.6
7088	9.96	5.0909	0.1	3386.
7089	9.96	5.2727	0.1	3387.5
7090	9.96	5.4545	0.1	3389.1
7091	9.96	5.6364	0.1	3390.8
7092	9.96	5.8182	0.1	3393.6
7093	10.144	0.18182	0.1	3341.
7094	10.144	0.36364	0.1	3338.3
7095	10.144	0.54545	0.1	3336.7
7096	10.144	0.72727	0.1	3335.3
7097	10.144	0.90909	0.1	3333.9
7098	10.144	1.0909	0.1	3332.7
7099	10.144	1.2727	0.1	3331.5
7100	10.144	1.4545	0.1	3330.5
7101	10.144	1.6364	0.1	3329.5
7102	10.144	1.8182	0.1	3328.7
7103	10.144	2.	0.1	3327.9
7104	10.144	2.1818	0.1	3327.3
7105	10.144	2.3636	0.1	3326.8
7106	10.144	2.5455	0.1	3326.4
7107	10.144	2.7273	0.1	3326.2
7108	10.144	2.9091	0.1	3326.
7109	10.144	3.0909	0.1	3326.
7110	10.144	3.2727	0.1	3326.2
7111	10.144	3.4545	0.1	3326.4
7112	10.144	3.6364	0.1	3326.8
7113	10.144	3.8182	0.1	3327.3
7114	10.144	4.	0.1	3327.9
7115	10.144	4.1818	0.1	3328.7
7116	10.144	4.3636	0.1	3329.5
7117	10.144	4.5455	0.1	3330.5
7118	10.144	4.7273	0.1	3331.5
7119	10.144	4.9091	0.1	3332.7
7120	10.144	5.0909	0.1	3333.9
7121	10.144	5.2727	0.1	3335.3
7122	10.144	5.4545	0.1	3336.7
7123	10.144	5.6364	0.1	3338.3
7124	10.144	5.8182	0.1	3341.
7125	10.329	0.18182	0.1	3288.5
7126	10.329	0.36364	0.1	3286.
7127	10.329	0.54545	0.1	3284.5
7128	10.329	0.72727	0.1	3283.3
7129	10.329	0.90909	0.1	3282.1
7130	10.329	1.0909	0.1	3281.
7131	10.329	1.2727	0.1	3280.
7132	10.329	1.4545	0.1	3279.
7133	10.329	1.6364	0.1	3278.2
7134	10.329	1.8182	0.1	3277.4
7135	10.329	2.	0.1	3276.8
7136	10.329	2.1818	0.1	3276.2
7137	10.329	2.3636	0.1	3275.8
7138	10.329	2.5455	0.1	3275.4
7139	10.329	2.7273	0.1	3275.2
7140	10.329	2.9091	0.1	3275.1
7141	10.329	3.0909	0.1	3275.1
7142	10.329	3.2727	0.1	3275.2
7143	10.329	3.4545	0.1	3275.4
7144	10.329	3.6364	0.1	3275.8
7145	10.329	3.8182	0.1	3276.2
7146	10.329	4.	0.1	3276.8
7147	10.329	4.1818	0.1	3277.4
7148	10.329	4.3636	0.1	3278.2
7149	10.329	4.5455	0.1	3279.
7150	10.329	4.7273	0.1	3280.
7151	10.329	4.9091	0.1	3281.
7152	10.329	5.0909	0.1	3282.1
7153	10.329	5.2727	0.1	3283.3
7154	10.329	5.4545	0.1	3284.5
7155	10.329	5.6364	0.1	3286.
7156	10.329	5.8182	0.1	3288.5
7157	10.513	0.18182	0.1	3236.3
7158	10.513	0.36364	0.1	3233.8
7159	10.513	0.54545	0.1	3232.5
7160	10.513	0.72727	0.1	3231.4
7161	10.513	0.90909	0.1	3230.4
7162	10.513	1.0909	0.1	3229.4
7163	10.513	1.2727	0.1	3228.6
7164	10.513	1.4545	0.1	3227.8
7165	10.513	1.6364	0.1	3227.
7166	10.513	1.8182	0.1	3226.4
7167	10.513	2.	0.1	3225.8
7168	10.513	2.1818	0.1	3225.3
7169	10.513	2.3636	0.1	3225.
7170	10.513	2.5455	0.1	3224.7
7171	10.513	2.7273	0.1	3224.5
7172	10.513	2.9091	0.1	3224.4
7173	10.513	3.0909	0.1	3224.4
7174	10.513	3.2727	0.1	3224.5
7175	10.513	3.4545	0.1	3224.7
7176	10.513	3.6364	0.1	3225.
7177	10.513	3.8182	0.1	3225.3
7178	10.513	4.	0.1	3225.8
7179	10.513	4.1818	0.1	3226.4
7180	10.513	4.3636	0.1	3227.
7181	10.513	4.5455	0.1	3227.8
7182	10.513	4.7273	0.1	3228.6
7183	10.513	4.9091	0.1	3229.4
7184	10.513	5.0909	0.1	3230.4
7185	10.513	5.2727	0.1	3231.4
7186	10.513	5.4545	0.1	3232.5
7187	10.513	5.6364	0.1	3233.8
7188	10.513	5.8182	0.1	3236.3
7189	10.698	0.18182	0.1	3184.1
7190	10.698	0.36364	0.1	3181.8
7191	10.698	0.54545	0.1	3180.7
7192	10.698	0.72727	0.1	3179.7
7193	10.698	0.90909	0.1	3178.9
7194	10.698	1.0909	0.1	3178.1
7195	10.698	1.2727	0.1	3177.3
7196	10.698	1.4545	0.1	3176.7
7197	10.698	1.6364	0.1	3176.1
7198	10.698	1.8182	0.1	3175.5
7199	10.698	2.	0.1	3175.1
7200	10.698	2.1818	0.1	3174.7
7201	10.698	2.3636	0.1	3174.4
7202	10.698	2.5455	0.1	3174.1
7203	10.698	2.7273	0.1	3173.9
7204	10.698	2.9091	0.1	3173.8
7205	10.698	3.0909	0.1	3173.8
7206	10.698	3.2727	0.1	3173.9
7207	10.698	3.4545	0.1	3174.1
7208	10.698	3.6364	0.1	3174.4
7209	10.698	3.8182	0.1	3174.7
7210	10.698	4.	0.1	3175.1
7211	10.698	4.1818	0.1	3175.5
7212	10.698	4.3636	0.1	3176.1
7213	10.698	4.5455	0.1	3176.7
7214	10.698	4.7273	0.1	3177.3
7215	10.698	4.9091	0.1	3178.1
7216	10.698	5.0909	0.1	3178.9
7217	10.698	5.2727	0.1	3179.7
7218	10.698	5.4545	0.1	3180.7
7219	10.698	5.6364	0.1	3181.8
7220	10.698	5.8182	0.1	3184.1
7221	10.882	0.18182	0.1	3132.1
7222	10.882	0.36364	0.1	3130.
7223	10.882	0.54545	0.1	3129.
7224	10.882	0.72727	0.1	3128.2
7225	10.882	0.90909	0.1	3127.5
7226	10.882	1.0909	0.1	3126.9
7227	10.882	1.2727	0.1	3126.3
7228	10.882	1.4545	0.1	3125.8
7229	10.882	1.6364	0.1	3125.3
7230	10.882	1.8182	0.1	3124.9
7231	10.882	2.	0.1	3124.5
7232	10.882	2.1818	0.1	3124.2
7233	10.882	2.3636	0.1	3124.
7234	10.882	2.5455	0.1	3123.8
7235	10.882	2.7273	0.1	3123.6
7236	10.882	2.9091	0.1	3123.6
7237	10.882	3.0909	0.1	3123.6
7238	10.882	3.2727	0.1	3123.6
7239	10.882	3.4545	0.1	3123.8
7240	10.882	3.6364	0.1	3124.
7241	10.882	3.8182	0.1	3124.2
7242	10.882	4.	0.1	3124.5
7243	10.882	4.1818	0.1	3124.9
7244	10.882	4.3636	0.1	3125.3
7245	10.882	4.5455	0.1	3125.8
7246	10.882	4.7273	0.1	3126.3
7247	10.882	4.9091	0.1	3126.9
7248	10.882	5.0909	0.1	3127.5
7249	10.882	5.2727	0.1	3128.2
7250	10.882	5.4545	0.1	3129.
7251	10.882	5.6364	0.1	3130.
7252	10.882	5.8182	0.1	3132.1
7253	11.067	0.18182	0.1	3080.2
7254	11.067	0.36364	0.1	3078.2
7255	11.067	0.54545	0.1	3077.5
7256	11.067	0.72727	0.1	3076.9
7257	11.067	0.90909	0.1	3076.3
7258	11.067	1.0909	0.1	3075.9
7259	11.067	1.2727	0.1	3075.5
7260	11.067	1.4545	0.1	3075.1
7261	11.067	1.6364	0.1	3074.8
7262	11.067	1.8182	0.1	3074.5
7263	11.067	2.	0.1	3074.2
7264	11.067	2.1818	0.1	3074.
7265	11.067	2.3636	0.1	3073.8
7266	11.067	2.5455	0.1	3073.7
7267	11.067	2.7273	0.1	3073.6
7268	11.067	2.9091	0.1	3073.5
7269	11.067	3.0909	0.1	3073.5
7270	11.067	3.2727	0.1	3073.6
7271	11.067	3.4545	0.1	3073.7
7272	11.067	3.6364	0.1	3073.8
7273	11.067	3.8182	0.1	3074.
7274	11.067	4.	0.1	3074.2
7275	11.067	4.1818	0.1	3074.5
7276	11.067	4.3636	0.1	3074.8
7277	11.067	4.5455	0.1	3075.1
7278	11.067	4.7273	0.1	3075.5
7279	11.067	4.9091	0.1	3075.9
7280	11.067	5.0909	0.1	3076.3
7281	11.067	5.2727	0.1	3076.9
7282	11.067	5.4545	0.1	3077.5
7283	11.067	5.6364	0.1	3078.2
7284	11.067	5.8182	0.1	3080.2
7285	11.251	0.18182	0.1	3028.4
7286	11.251	0.36364	0.1	3026.6
7287	11.251	0.54545	0.1	3026.
7288	11.251	0.72727	0.1	3025.6
7289	11.251	0.90909	0.1	3025.3
7290	11.251	1.0909	0.1	3025.
7291	11.251	1.2727	0.1	3024.8
7292	11.251	1.4545	0.1	3024.6
7293	11.251	1.6364	0.1	3024.5
7294	11.251	1.8182	0.1	3024.3
7295	11.251	2.	0.1	3024.2
7296	11.251	2.1818	0.1	3024.1
7297	11.251	2.3636	0.1	3024.
7298	11.251	2.5455	0.1	3023.9
7299	11.251	2.7273	0.1	3023.8
7300	11.251	2.9091	0.1	3023.8
7301	11.251	3.0909	0.1	3023.8
7302	11.251	3.2727	0.1	3023.8
7303	11.251	3.4545	0.1	3023.9
7304	11.251	3.6364	0.1	3024.
7305	11.251	3.8182	0.1	3024.1
7306	11.251	4.	0.1	3024.2
7307	11.251	4.1818	0.1	3024.3
7308	11.251	4.3636	0.1	3024.5
7309	11.251	4.5455	0.1	3024.6
7310	11.251	4.7273	0.1	3024.8
7311	11.251	4.9091	0.1	3025.
7312	11.251	5.0909	0.1	3025.3
7313	11.251	5.2727	0.1	3025.6
7314	11.251	5.4545	0.1	3026.
7315	11.251	5.6364	0.1	3026.6
7316	11.251	5.8182	0.1	3028.4
7317	11.436	0.18182	0.1	2976.6
7318	11.436	0.36364	0.1	2975.
7319	11.436	0.54545	0.1	2974.6
7320	11.436	0.72727	0.1	2974.5
7321	11.436	0.90909	0.1	2974.4
7322	11.436	1.0909	0.1	2974.3
7323	11.436	1.2727	0.1	2974.3
7324	11.436	1.4545	0.1	2974.4
7325	11.436	1.6364	0.1	2974.4
7326	11.436	1.8182	0.1	2974.4
7327	11.436	2.	0.1	2974.4
7328	11.436	2.1818	0.1	2974.4
7329	11.436	2.3636	0.1	2974.4
7330	11.436	2.5455	0.1	2974.4
7331	11.436	2.7273	0.1	2974.4
7332	11.436	2.9091	0.1	2974.4
7333	11.436	3.0909	0.1	2974.4
7334	11.436	3.2727	0.1	2974.4
7335	11.436	3.4545	0.1	2974.4
7336	11.436	3.6364	0.1	2974.4
7337	11.436	3.8182	0.1	2974.4
7338	11.436	4.	0.1	2974.4
7339	11.436	4.1818	0.1	2974.4
7340	11.436	4.3636	0.1	2974.4
7341	11.436	4.5455	0.1	2974.4
7342	11.436	4.7273	0.1	2974.3
7343	11.436	4.9091	0.1	2974.3
7344	11.436	5.0909	0.1	2974.4
7345	11.436	5.2727	0.1	2974.5
7346	11.436	5.4545	0.1	2974.6
7347	11.436	5.6364	0.1	2975.
7348	11.436	5.8182	0.1	2976.6
7349	11.62	0.18182	0.1	2924.7
7350	11.62	0.36364	0.1	2923.4
7351	11.62	0.54545	0.1	2923.3
7352	11.62	0.72727	0.1	2923.4
7353	11.62	0.90909	0.1	2923.5
7354	11.62	1.0909	0.1	2923.8
7355	11.62	1.2727	0.1	2924.
7356	11.62	1.4545	0.1	2924.3
7357	11.62	1.6364	0.1	2924.5
7358	11.62	1.8182	0.1	2924.7
7359	11.62	2.	0.1	2924.9
7360	11.62	2.1818	0.1	2925.
7361	11.62	2.3636	0.1	2925.1
7362	11.62	2.5455	0.1	2925.2
7363	11.62	2.7273	0.1	2925.2
7364	11.62	2.9091	0.1	2925.3
7365	11.62	3.0909	0.1	2925.3
7366	11.62	3.2727	0.1	2925.2
7367	11.62	3.4545	0.1	2925.2
7368	11.62	3.6364	0.1	2925.1
7369	11.62	3.8182	0.1	2925.
7370	11.62	4.	0.1	2924.9
7371	11.62	4.1818	0.1	2924.7
7372	11.62	4.3636	0.1	2924.5
7373	11.62	4.5455	0.1	2924.3
7374	11.62	4.7273	0.1	2924.
7375	11.62	4.9091	0.1	2923.8
7376	11.62	5.0909	0.1	2923.5
7377	11.62	5.2727	0.1	2923.4
7378	11.62	5.4545	0.1	2923.3
7379	11.62	5.6364	0.1	2923.4
7380	11.62	5.8182	0.1	2924.7
7381	11.804	0.18182	0.1	2872.8
7382	11.804	0.36364	0.1	2871.7
7383	11.804	0.54545	0.1	2871.9
7384	11.804	0.72727	0.1	2872.3
7385	11.804	0.90909	0.1	2872.8
7386	11.804	1.0909	0.1	2873.3
7387	11.804	1.2727	0.1	2873.9
7388	11.804	1.4545	0.1	2874.4
7389	11.804	1.6364	0.1	2874.9
7390	11.804	1.8182	0.1	2875.3
7391	11.804	2.	0.1	2875.7
7392	11.804	2.1818	0.1	2876.
7393	11.804	2.3636	0.1	2876.2
7394	11.804	2.5455	0.1	2876.4
7395	11.804	2.7273	0.1	2876.5
7396	11.804	2.9091	0.1	2876.6
7397	11.804	3.0909	0.1	2876.6
7398	11.804	3.2727	0.1	2876.5
7399	11.804	3.4545	0.1	2876.4
7400	11.804	3.6364	0.1	2876.2
7401	11.804	3.8182	0.1	2876.
7402	11.804	4.	0.1	2875.7
7403	11.804	4.1818	0.1	2875.3
7404	11.804	4.3636	0.1	2874.9
7405	11.804	4.5455	0.1	2874.4
7406	11.804	4.7273	0.1	2873.9
7407	11.804	4.9091	0.1	2873.3
7408	11.804	5.0909	0.1	2872.8
7409	11.804	5.2727	0.1	2872.3
7410	11.804	5.4545	0.1	2871.9
7411	11.804	5.6364	0.1	2871.7
7412	11.804	5.8182	0.1	2872.8
7413	11.989	0.18182	0.1	2820.7
7414	11.989	0.36364	0.1	2819.9
7415	11.989	0.54545	0.1	2820.4
7416	11.989	0.72727	0.1	2821.2
7417	11.989	0.90909	0.1	2822.
7418	11.989	1.0909	0.1	2822.9
7419	11.989	1.2727	0.1	2823.8
7420	11.989	1.4545	0.1	2824.7
7421	11.989	1.6364	0.1	2825.5
7422	11.989	1.8182	0.1	2826.2
7423	11.989	2.	0.1	2826.8
7424	11.989	2.1818	0.1	2827.3
7425	11.989	2.3636	0.1	2827.7
7426	11.989	2.5455	0.1	2828.
7427	11.989	2.7273	0.1	2828.2
7428	11.989	2.9091	0.1	2828.3
7429	11.989	3.0909	0.1	2828.3
7430	11.989	3.2727	0.1	2828.2
7431	11.989	3.4545	0.1	2828.
7432	11.989	3.6364	0.1	2827.7
7433	11.989	3.8182	0.1	2827.3
7434	11.989	4.	0.1	2826.8
7435	11.989	4.1818	0.1	2826.2
7436	11.989	4.3636	0.1	2825.5
7437	11.989	4.5455	0.1	2824.7
7438	11.989	4.7273	0.1	2823.8
7439	11.989	4.9091	0.1	2822.9
7440	11.989	5.0909	0.1	2822.
7441	11.989	5.2727	0.1	2821.2
7442	11.989	5.4545	0.1	2820.4
7443	11.989	5.6364	0.1	2819.9
7444	11.989	5.8182	0.1	2820.7
7445	12.173	0.18182	0.1	2768.4
7446	12.173	0.36364	0.1	2767.9
7447	12.173	0.54545	0.1	2768.8
7448	12.173	0.72727	0.1	2770.
7449	12.173	0.90909	0.1	2771.3
7450	12.173	1.0909	0.1	2772.6
7451	12.173	1.2727	0.1	2773.9
7452	12.173	1.4545	0.1	2775.2
7453	12.173	1.6364	0.1	2776.4
7454	12.173	1.8182	0.1	2777.4
7455	12.173	2.	0.1	2778.3
7456	12.173	2.1818	0.1	2779.1
7457	12.173	2.3636	0.1	2779.7
7458	12.173	2.5455	0.1	2780.2
7459	12.173	2.7273	0.1	2780.5
7460	12.173	2.9091	0.1	2780.6
7461	12.173	3.0909	0.1	2780.6
7462	12.173	3.2727	0.1	2780.5
7463	12.173	3.4545	0.1	2780.2
7464	12.173	3.6364	0.1	2779.7
7465	12.173	3.8182	0.1	2779.1
7466	12.173	4.	0.1	2778.3
7467	12.173	4.1818	0.1	2777.4
7468	12.173	4.3636	0.1	2776.4
7469	12.173	4.5455	0.1	2775.2
7470	12.173	4.7273	0.1	2773.9
7471	12.173	4.9091	0.1	2772.6
7472	12.173	5.0909	0.1	2771.3
7473	12.173	5.2727	0.1	2770.
7474	12.173	5.4545	0.1	2768.8
7475	12.173	5.6364	0.1	2767.9
7476	12.173	5.8182	0.1	2768.4
7477	12.358	0.18182	0.1	2715.6
7478	12.358	0.36364	0.1	2715.6
7479	12.358	0.54545	0.1	2717.
7480	12.358	0.72727	0.1	2718.7
7481	12.358	0.90909	0.1	2720.5
7482	12.358	1.0909	0.1	2722.3
7483	12.358	1.2727	0.1	2724.1
7484	12.358	1.4545	0.1	2725.9
7485	12.358	1.6364	0.1	2727.5
7486	12.358	1.8182	0.1	2729.
7487	12.358	2.	0.1	2730.3
7488	12.358	2.1818	0.1	2731.4
7489	12.358	2.3636	0.1	2732.3
7490	12.358	2.5455	0.1	2732.9
7491	12.358	2.7273	0.1	2733.4
7492	12.358	2.9091	0.1	2733.6
7493	12.358	3.0909	0.1	2733.6
7494	12.358	3.2727	0.1	2733.4
7495	12.358	3.4545	0.1	2732.9
7496	12.358	3.6364	0.1	2732.3
7497	12.358	3.8182	0.1	2731.4
7498	12.358	4.	0.1	2730.3
7499	12.358	4.1818	0.1	2729.
7500	12.358	4.3636	0.1	2727.5
7501	12.358	4.5455	0.1	2725.9
7502	12.358	4.7273	0.1	2724.1
7503	12.358	4.9091	0.1	2722.3
7504	12.358	5.0909	0.1	2720.5
7505	12.358	5.2727	0.1	2718.7
7506	12.358	5.4545	0.1	2717.
7507	12.358	5.6364	0.1	2715.6
7508	12.358	5.8182	0.1	2715.6
7509	12.542	0.18182	0.1	2662.4
7510	12.542	0.36364	0.1	2662.9
7511	12.542	0.54545	0.1	2664.8
7512	12.542	0.72727	0.1	2667.
7513	12.542	0.90909	0.1	2669.5
7514	12.542	1.0909	0.1	2672.
7515	12.542	1.2727	0.1	2674.4
7516	12.542	1.4545	0.1	2676.8
7517	12.542	1.6364	0.1	2679.
7518	12.542	1.8182	0.1	2681.
7519	12.542	2.	0.1	2682.8
7520	12.542	2.1818	0.1	2684.3
7521	12.542	2.3636	0.1	2685.5
7522	12.542	2.5455	0.1	2686.4
7523	12.542	2.7273	0.1	2687.
7524	12.542	2.9091	0.1	2687.3
7525	12.542	3.0909	0.1	2687.3
7526	12.542	3.2727	0.1	2687.
7527	12.542	3.4545	0.1	2686.4
7528	12.542	3.6364	0.1	2685.5
7529	12.542	3.8182	0.1	2684.3
7530	12.542	4.	0.1	2682.8
7531	12.542	4.1818	0.1	2681.
7532	12.542	4.3636	0.1	2679.
7533	12.542	4.5455	0.1	2676.8
7534	12.542	4.7273	0.1	2674.4
7535	12.542	4.9091	0.1	2672.
7536	12.542	5.0909	0.1	2669.5
7537	12.542	5.2727	0.1	2667.
7538	12.542	5.4545	0.1	2664.8
7539	12.542	5.6364	0.1	2662.9
7540	12.542	5.8182	0.1	2662.4
7541	12.727	0.18182	0.1	2608.4
7542	12.727	0.36364	0.1	2609.5
7543	12.727	0.54545	0.1	2612.
7544	12.727	0.72727	0.1	2615.
7545	12.727	0.90909	0.1	2618.2
7546	12.727	1.0909	0.1	2621.5
7547	12.727	1.2727	0.1	2624.7
7548	12.727	1.4545	0.1	2627.9
7549	12.727	1.6364	0.1	2630.8
7550	12.727	1.8182	0.1	2633.5
7551	12.727	2.	0.1	2635.9
7552	12.727	2.1818	0.1	2637.9
7553	12.727	2.3636	0.1	2639.5
7554	12.727	2.5455	0.1	2640.7
7555	12.727	2.7273	0.1	2641.5
7556	12.727	2.9091	0.1	2642.
7557	12.727	3.0909	0.1	2642.
7558	12.727	3.2727	0.1	2641.5
7559	12.727	3.4545	0.1	2640.7
7560	12.727	3.6364	0.1	2639.5
7561	12.727	3.8182	0.1	2637.9
7562	12.727	4.	0.1	2635.9
7563	12.727	4.1818	0.1	2633.5
7564	12.727	4.3636	0.1	2630.8
7565	12.727	4.5455	0.1	2627.9
7566	12.727	4.7273	0.1	2624.7
7567	12.727	4.9091	0.1	2621.5
7568	12.727	5.0909	0.1	2618.2
7569	12.727	5.2727	0.1	2615.
7570	12.727	5.4545	0.1	2612.
7571	12.727	5.6364	0.1	2609.5
7572	12.727	5.8182	0.1	2608.4
7573	12.911	0.18182	0.1	2553.4
7574	12.911	0.36364	0.1	2555.3
7575	12.911	0.54545	0.1	2558.6
7576	12.911	0.72727	0.1	2562.4
7577	12.911	0.90909	0.1	2566.6
7578	12.911	1.0909	0.1	2570.8
7579	12.911	1.2727	0.1	2575.
7580	12.911	1.4545	0.1	2579.1
7581	12.911	1.6364	0.1	2583.
7582	12.911	1.8182	0.1	2586.5
7583	12.911	2.	0.1	2589.6
7584	12.911	2.1818	0.1	2592.3
7585	12.911	2.3636	0.1	2594.5
7586	12.911	2.5455	0.1	2596.1
7587	12.911	2.7273	0.1	2597.2
7588	12.911	2.9091	0.1	2597.8
7589	12.911	3.0909	0.1	2597.8
7590	12.911	3.2727	0.1	2597.2
7591	12.911	3.4545	0.1	2596.1
7592	12.911	3.6364	0.1	2594.5
7593	12.911	3.8182	0.1	2592.3
7594	12.911	4.	0.1	2589.6
7595	12.911	4.1818	0.1	2586.5
7596	12.911	4.3636	0.1	2583.
7597	12.911	4.5455	0.1	2579.1
7598	12.911	4.7273	0.1	2575.
7599	12.911	4.9091	0.1	2570.8
7600	12.911	5.0909	0.1	2566.6
7601	12.911	5.2727	0.1	2562.4
7602	12.911	5.4545	0.1	2558.6
7603	12.911	5.6364	0.1	2555.3
7604	12.911	5.8182	0.1	2553.4
7605	13.096	0.18182	0.1	2497.2
7606	13.096	0.36364	0.1	2499.9
7607	13.096	0.54545	0.1	2504.2
7608	13.096	0.72727	0.1	2509.1
7609	13.096	0.90909	0.1	2514.4
7610	13.096	1.0909	0.1	2519.8
7611	13.096	1.2727	0.1	2525.3
7612	13.096	1.4545	0.1	2530.6
7613	13.096	1.6364	0.1	2535.6
7614	13.096	1.8182	0.1	2540.2
7615	13.096	2.	0.1	2544.2
7616	13.096	2.1818	0.1	2547.7
7617	13.096	2.3636	0.1	2550.6
7618	13.096	2.5455	0.1	2552.8
7619	13.096	2.7273	0.1	2554.2
7620	13.096	2.9091	0.1	2555.
7621	13.096	3.0909	0.1	2555.
7622	13.096	3.2727	0.1	2554.2
7623	13.096	3.4545	0.1	2552.8
7624	13.096	3.6364	0.1	2550.6
7625	13.096	3.8182	0.1	2547.7
7626	13.096	4.	0.1	2544.2
7627	13.096	4.1818	0.1	2540.2
7628	13.096	4.3636	0.1	2535.6
7629	13.096	4.5455	0.1	2530.6
7630	13.096	4.7273	0.1	2525.3
7631	13.096	4.9091	0.1	2519.8
7632	13.096	5.0909	0.1	2514.4
7633	13.096	5.2727	0.1	2509.1
7634	13.096	5.4545	0.1	2504.2
7635	13.096	5.6364	0.1	2499.9
7636	13.096	5.8182	0.1	2497.2
7637	13.28	0.18182	0.1	2439.4
7638	13.28	0.36364	0.1	2443.1
7639	13.28	0.54545	0.1	2448.5
7640	13.28	0.72727	0.1	2454.7
7641	13.28	0.90909	0.1	2461.4
7642	13.28	1.0909	0.1	2468.4
7643	13.28	1.2727	0.1	2475.3
7644	13.28	1.4545	0.1	2482.1
7645	13.28	1.6364	0.1	2488.6
7646	13.28	1.8182	0.1	2494.6
7647	13.28	2.	0.1	2499.9
7648	13.28	2.1818	0.1	2504.4
7649	13.28	2.3636	0.1	2508.2
7650	13.28	2.5455	0.1	2511.1
7651	13.28	2.7273	0.1	2513.
7652	13.28	2.9091	0.1	2514.
7653	13.28	3.0909	0.1	2514.
7654	13.28	3.2727	0.1	2513.
7655	13.28	3.4545	0.1	2511.1
7656	13.28	3.6364	0.1	2508.2
7657	13.28	3.8182	0.1	2504.4
7658	13.28	4.	0.1	2499.9
7659	13.28	4.1818	0.1	2494.6
7660	13.28	4.3636	0.1	2488.6
7661	13.28	4.5455	0.1	2482.1
7662	13.28	4.7273	0.1	2475.3
7663	13.28	4.9091	0.1	2468.4
7664	13.28	5.0909	0.1	2461.4
7665	13.28	5.2727	0.1	2454.7
7666	13.28	5.4545	0.1	2448.5
7667	13.28	5.6364	0.1	2443.1
7668	13.28	5.8182	0.1	2439.4
7669	13.464	0.18182	0.1	2379.5
7670	13.464	0.36364	0.1	2384.4
7671	13.464	0.54545	0.1	2391.2
7672	13.464	0.72727	0.1	2399.
7673	13.464	0.90909	0.1	2407.5
7674	13.464	1.0909	0.1	2416.2
7675	13.464	1.2727	0.1	2425.1
7676	13.464	1.4545	0.1	2433.8
7677	13.464	1.6364	0.1	2442.1
7678	13.464	1.8182	0.1	2449.8
7679	13.464	2.	0.1	2456.7
7680	13.464	2.1818	0.1	2462.7
7681	13.464	2.3636	0.1	2467.6
7682	13.464	2.5455	0.1	2471.4
7683	13.464	2.7273	0.1	2473.9
7684	13.464	2.9091	0.1	2475.2
7685	13.464	3.0909	0.1	2475.2
7686	13.464	3.2727	0.1	2473.9
7687	13.464	3.4545	0.1	2471.4
7688	13.464	3.6364	0.1	2467.6
7689	13.464	3.8182	0.1	2462.7
7690	13.464	4.	0.1	2456.7
7691	13.464	4.1818	0.1	2449.8
7692	13.464	4.3636	0.1	2442.1
7693	13.464	4.5455	0.1	2433.8
7694	13.464	4.7273	0.1	2425.1
7695	13.464	4.9091	0.1	2416.2
7696	13.464	5.0909	0.1	2407.5
7697	13.464	5.2727	0.1	2399.
7698	13.464	5.4545	0.1	2391.2
7699	13.464	5.6364	0.1	2384.4
7700	13.464	5.8182	0.1	2379.5
7701	13.649	0.18182	0.1	2316.9
7702	13.649	0.36364	0.1	2323.4
7703	13.649	0.54545	0.1	2331.8
7704	13.649	0.72727	0.1	2341.6
7705	13.649	0.90909	0.1	2352.1
7706	13.649	1.0909	0.1	2363.2
7707	13.649	1.2727	0.1	2374.5
7708	13.649	1.4545	0.1	2385.6
7709	13.649	1.6364	0.1	2396.3
7710	13.649	1.8182	0.1	2406.2
7711	13.649	2.	0.1	2415.1
7712	13.649	2.1818	0.1	2422.9
7713	13.649	2.3636	0.1	2429.3
7714	13.649	2.5455	0.1	2434.2
7715	13.649	2.7273	0.1	2437.5
7716	13.649	2.9091	0.1	2439.2
7717	13.649	3.0909	0.1	2439.2
7718	13.649	3.2727	0.1	2437.5
7719	13.649	3.4545	0.1	2434.2
7720	13.649	3.6364	0.1	2429.3
7721	13.649	3.8182	0.1	2422.9
7722	13.649	4.	0.1	2415.1
7723	13.649	4.1818	0.1	2406.2
7724	13.649	4.3636	0.1	2396.3
7725	13.649	4.5455	0.1	2385.6
7726	13.649	4.7273	0.1	2374.5
7727	13.649	4.9091	0.1	2363.2
7728	13.649	5.0909	0.1	2352.1
7729	13.649	5.2727	0.1	2341.6
7730	13.649	5.4545	0.1	2331.8
7731	13.649	5.6364	0.1	2323.4
7732	13.649	5.8182	0.1	2316.9
7733	13.833	0.18182	0.1	2251.1
7734	13.833	0.36364	0.1	2259.3
7735	13.833	0.54545	0.1	2269.7
7736	13.833	0.72727	0.1	2281.8
7737	13.833	0.90909	0.1	2295.
7738	13.833	1.0909	0.1	2309.
7739	13.833	1.2727	0.1	2323.3
7740	13.833	1.4545	0.1	2337.4
7741	13.833	1.6364	0.1	2351.1
7742	13.833	1.8182	0.1	2363.9
7743	13.833	2.	0.1	2375.4
7744	13.833	2.1818	0.1	2385.5
7745	13.833	2.3636	0.1	2393.8
7746	13.833	2.5455	0.1	2400.2
7747	13.833	2.7273	0.1	2404.6
7748	13.833	2.9091	0.1	2406.7
7749	13.833	3.0909	0.1	2406.7
7750	13.833	3.2727	0.1	2404.6
7751	13.833	3.4545	0.1	2400.2
7752	13.833	3.6364	0.1	2393.8
7753	13.833	3.8182	0.1	2385.5
7754	13.833	4.	0.1	2375.4
7755	13.833	4.1818	0.1	2363.9
7756	13.833	4.3636	0.1	2351.1
7757	13.833	4.5455	0.1	2337.4
7758	13.833	4.7273	0.1	2323.3
7759	13.833	4.9091	0.1	2309.
7760	13.833	5.0909	0.1	2295.
7761	13.833	5.2727	0.1	2281.8
7762	13.833	5.4545	0.1	2269.7
7763	13.833	5.6364	0.1	2259.3
7764	13.833	5.8182	0.1	2251.1
7765	14.018	0.18182	0.1	2181.2
7766	14.018	0.36364	0.1	2191.3
7767	14.018	0.54545	0.1	2204.2
7768	14.018	0.72727	0.1	2219.1
7769	14.018	0.90909	0.1	2235.6
7770	14.018	1.0909	0.1	2253.2
7771	14.018	1.2727	0.1	2271.2
7772	14.018	1.4545	0.1	2289.3
7773	14.018	1.6364	0.1	2306.7
7774	14.018	1.8182	0.1	2323.2
7775	14.018	2.	0.1	2338.1
7776	14.018	2.1818	0.1	2351.1
7777	14.018	2.3636	0.1	2361.9
7778	14.018	2.5455	0.1	2370.2
7779	14.018	2.7273	0.1	2375.9
7780	14.018	2.9091	0.1	2378.8
7781	14.018	3.0909	0.1	2378.8
7782	14.018	3.2727	0.1	2375.9
7783	14.018	3.4545	0.1	2370.2
7784	14.018	3.6364	0.1	2361.9
7785	14.018	3.8182	0.1	2351.1
7786	14.018	4.	0.1	2338.1
7787	14.018	4.1818	0.1	2323.2
7788	14.018	4.3636	0.1	2306.7
7789	14.018	4.5455	0.1	2289.3
7790	14.018	4.7273	0.1	2271.2
7791	14.018	4.9091	0.1	2253.2
7792	14.018	5.0909	0.1	2235.6
7793	14.018	5.2727	0.1	2219.1
7794	14.018	5.4545	0.1	2204.2
7795	14.018	5.6364	0.1	2191.3
7796	14.018	5.8182	0.1	2181.2
7797	14.202	0.18182	0.1	2106.1
7798	14.202	0.36364	0.1	2118.6
7799	14.202	0.54545	0.1	2134.3
7800	14.202	0.72727	0.1	2152.8
7801	14.202	0.90909	0.1	2173.3
7802	14.202	1.0909	0.1	2195.3
7803	14.202	1.2727	0.1	2218.1
7804	14.202	1.4545	0.1	2241.
7805	14.202	1.6364	0.1	2263.4
7806	14.202	1.8182	0.1	2284.4
7807	14.202	2.	0.1	2303.6
7808	14.202	2.1818	0.1	2320.5
7809	14.202	2.3636	0.1	2334.5
7810	14.202	2.5455	0.1	2345.4
7811	14.202	2.7273	0.1	2352.8
7812	14.202	2.9091	0.1	2356.5
7813	14.202	3.0909	0.1	2356.5
7814	14.202	3.2727	0.1	2352.8
7815	14.202	3.4545	0.1	2345.4
7816	14.202	3.6364	0.1	2334.5
7817	14.202	3.8182	0.1	2320.5
7818	14.202	4.	0.1	2303.6
7819	14.202	4.1818	0.1	2284.4
7820	14.202	4.3636	0.1	2263.4
7821	14.202	4.5455	0.1	2241.
7822	14.202	4.7273	0.1	2218.1
7823	14.202	4.9091	0.1	2195.3
7824	14.202	5.0909	0.1	2173.3
7825	14.202	5.2727	0.1	2152.8
7826	14.202	5.4545	0.1	2134.3
7827	14.202	5.6364	0.1	2118.6
7828	14.202	5.8182	0.1	2106.1
7829	14.387	0.18182	0.1	2024.6
7830	14.387	0.36364	0.1	2039.9
7831	14.387	0.54545	0.1	2059.1
7832	14.387	0.72727	0.1	2081.7
7833	14.387	0.90909	0.1	2107.2
7834	14.387	1.0909	0.1	2134.7
7835	14.387	1.2727	0.1	2163.5
7836	14.387	1.4545	0.1	2192.6
7837	14.387	1.6364	0.1	2221.1
7838	14.387	1.8182	0.1	2248.2
7839	14.387	2.	0.1	2272.9
7840	14.387	2.1818	0.1	2294.6
7841	14.387	2.3636	0.1	2312.9
7842	14.387	2.5455	0.1	2327.
7843	14.387	2.7273	0.1	2336.7
7844	14.387	2.9091	0.1	2341.6
7845	14.387	3.0909	0.1	2341.6
7846	14.387	3.2727	0.1	2336.7
7847	14.387	3.4545	0.1	2327.
7848	14.387	3.6364	0.1	2312.9
7849	14.387	3.8182	0.1	2294.6
7850	14.387	4.	0.1	2272.9
7851	14.387	4.1818	0.1	2248.2
7852	14.387	4.3636	0.1	2221.1
7853	14.387	4.5455	0.1	2192.6
7854	14.387	4.7273	0.1	2163.5
7855	14.387	4.9091	0.1	2134.7
7856	14.387	5.0909	0.1	2107.2
7857	14.387	5.2727	0.1	2081.7
7858	14.387	5.4545	0.1	2059.1
7859	14.387	5.6364	0.1	2039.9
7860	14.387	5.8182	0.1	2024.6
7861	14.571	0.18182	0.1	1935.5
7862	14.571	0.36364	0.1	1953.9
7863	14.571	0.54545	0.1	1977.1
7864	14.571	0.72727	0.1	2004.8
7865	14.571	0.90909	0.1	2036.3
7866	14.571	1.0909	0.1	2070.8
7867	14.571	1.2727	0.1	2107.1
7868	14.571	1.4545	0.1	2144.
7869	14.571	1.6364	0.1	2180.4
7870	14.571	1.8182	0.1	2215.
7871	14.571	2.	0.1	2246.8
7872	14.571	2.1818	0.1	2275.
7873	14.571	2.3636	0.1	2298.6
7874	14.571	2.5455	0.1	2317.
7875	14.571	2.7273	0.1	2329.6
7876	14.571	2.9091	0.1	2336.
7877	14.571	3.0909	0.1	2336.
7878	14.571	3.2727	0.1	2329.6
7879	14.571	3.4545	0.1	2317.
7880	14.571	3.6364	0.1	2298.6
7881	14.571	3.8182	0.1	2275.
7882	14.571	4.	0.1	2246.8
7883	14.571	4.1818	0.1	2215.
7884	14.571	4.3636	0.1	2180.4
7885	14.571	4.5455	0.1	2144.
7886	14.571	4.7273	0.1	2107.1
7887	14.571	4.9091	0.1	2070.8
7888	14.571	5.0909	0.1	2036.3
7889	14.571	5.2727	0.1	2004.8
7890	14.571	5.4545	0.1	1977.1
7891	14.571	5.6364	0.1	1953.9
7892	14.571	5.8182	0.1	1935.5
7893	14.756	0.18182	0.1	1837.
7894	14.756	0.36364	0.1	1858.9
7895	14.756	0.54545	0.1	1886.8
7896	14.756	0.72727	0.1	1920.5
7897	14.756	0.90909	0.1	1959.5
7898	14.756	1.0909	0.1	2002.5
7899	14.756	1.2727	0.1	2048.2
7900	14.756	1.4545	0.1	2095.1
7901	14.756	1.6364	0.1	2141.5
7902	14.756	1.8182	0.1	2185.9
7903	14.756	2.	0.1	2226.8
7904	14.756	2.1818	0.1	2263.1
7905	14.756	2.3636	0.1	2293.7
7906	14.756	2.5455	0.1	2317.6
7907	14.756	2.7273	0.1	2334.
7908	14.756	2.9091	0.1	2342.4
7909	14.756	3.0909	0.1	2342.4
7910	14.756	3.2727	0.1	2334.
7911	14.756	3.4545	0.1	2317.6
7912	14.756	3.6364	0.1	2293.7
7913	14.756	3.8182	0.1	2263.1
7914	14.756	4.	0.1	2226.8
7915	14.756	4.1818	0.1	2185.9
7916	14.756	4.3636	0.1	2141.5
7917	14.756	4.5455	0.1	2095.1
7918	14.756	4.7273	0.1	2048.2
7919	14.756	4.9091	0.1	2002.5
7920	14.756	5.0909	0.1	1959.5
7921	14.756	5.2727	0.1	1920.5
7922	14.756	5.4545	0.1	1886.8
7923	14.756	5.6364	0.1	1858.9
7924	14.756	5.8182	0.1	1837.
7925	14.94	0.18182	0.1	1727.5
7926	14.94	0.36364	0.1	1753.2
7927	14.94	0.54545	0.1	1786.4
7928	14.94	0.72727	0.1	1827.4
7929	14.94	0.90909	0.1	1875.2
7930	14.94	1.0909	0.1	1928.8
7931	14.94	1.2727	0.1	1986.4
7932	14.94	1.4545	0.1	2045.9
7933	14.94	1.6364	0.1	2105.1
7934	14.94	1.8182	0.1	2162.
7935	14.94	2.	0.1	2214.6
7936	14.94	2.1818	0.1	2261.4
7937	14.94	2.3636	0.1	2301.
7938	14.94	2.5455	0.1	2332.
7939	14.94	2.7273	0.1	2353.4
7940	14.94	2.9091	0.1	2364.3
7941	14.94	3.0909	0.1	2364.3
7942	14.94	3.2727	0.1	2353.4
7943	14.94	3.4545	0.1	2332.
7944	14.94	3.6364	0.1	2301.
7945	14.94	3.8182	0.1	2261.4
7946	14.94	4.	0.1	2214.6
7947	14.94	4.1818	0.1	2162.
7948	14.94	4.3636	0.1	2105.1
7949	14.94	4.5455	0.1	2045.9
7950	14.94	4.7273	0.1	1986.4
7951	14.94	4.9091	0.1	1928.8
7952	14.94	5.0909	0.1	1875.2
7953	14.94	5.2727	0.1	1827.4
7954	14.94	5.4545	0.1	1786.4
7955	14.94	5.6364	0.1	1753.2
7956	14.94	5.8182	0.1	1727.5
7957	15.124	0.18182	0.1	1605.
7958	15.124	0.36364	0.1	1634.7
7959	15.124	0.54545	0.1	1674.
7960	15.124	0.72727	0.1	1723.3
7961	15.124	0.90909	0.1	1781.9
7962	15.124	1.0909	0.1	1848.4
7963	15.124	1.2727	0.1	1920.8
7964	15.124	1.4545	0.1	1996.3
7965	15.124	1.6364	0.1	2072.
7966	15.124	1.8182	0.1	2145.1
7967	15.124	2.	0.1	2212.8
7968	15.124	2.1818	0.1	2273.1
7969	15.124	2.3636	0.1	2324.1
7970	15.124	2.5455	0.1	2364.2
7971	15.124	2.7273	0.1	2391.9
7972	15.124	2.9091	0.1	2406.
7973	15.124	3.0909	0.1	2406.
7974	15.124	3.2727	0.1	2391.9
7975	15.124	3.4545	0.1	2364.2
7976	15.124	3.6364	0.1	2324.1
7977	15.124	3.8182	0.1	2273.1
7978	15.124	4.	0.1	2212.8
7979	15.124	4.1818	0.1	2145.1
7980	15.124	4.3636	0.1	2072.
7981	15.124	4.5455	0.1	1996.3
7982	15.124	4.7273	0.1	1920.8
7983	15.124	4.9091	0.1	1848.4
7984	15.124	5.0909	0.1	1781.9
7985	15.124	5.2727	0.1	1723.3
7986	15.124	5.4545	0.1	1674.
7987	15.124	5.6364	0.1	1634.7
7988	15.124	5.8182	0.1	1605.
7989	15.309	0.18182	0.1	1467.7
7990	15.309	0.36364	0.1	1501.5
7991	15.309	0.54545	0.1	1547.5
7992	15.309	0.72727	0.1	1606.4
7993	15.309	0.90909	0.1	1677.7
7994	15.309	1.0909	0.1	1759.9
7995	15.309	1.2727	0.1	1850.7
7996	15.309	1.4545	0.1	1946.6
7997	15.309	1.6364	0.1	2043.6
7998	15.309	1.8182	0.1	2137.7
7999	15.309	2.	0.1	2225.1
8000	15.309	2.1818	0.1	2302.8
8001	15.309	2.3636	0.1	2368.4
8002	15.309	2.5455	0.1	2419.8
8003	15.309	2.7273	0.1	2455.
8004	15.309	2.9091	0.1	2473.
8005	15.309	3.0909	0.1	2473.
8006	15.309	3.2727	0.1	2455.
8007	15.309	3.4545	0.1	2419.8
8008	15.309	3.6364	0.1	2368.4
8009	15.309	3.8182	0.1	2302.8
8010	15.309	4.	0.1	2225.1
8011	15.309	4.1818	0.1	2137.7
8012	15.309	4.3636	0.1	2043.6
8013	15.309	4.5455	0.1	1946.6
8014	15.309	4.7273	0.1	1850.7
8015	15.309	4.9091	0.1	1759.9
8016	15.309	5.0909	0.1	1677.7
8017	15.309	5.2727	0.1	1606.4
8018	15.309	5.4545	0.1	1547.5
8019	15.309	5.6364	0.1	1501.5
8020	15.309	5.8182	0.1	1467.7
8021	15.493	0.18182	0.1	1314.1
8022	15.493	0.36364	0.1	1351.8
8023	15.493	0.54545	0.1	1405.1
8024	15.493	0.72727	0.1	1474.9
8025	15.493	0.90909	0.1	1560.9
8026	15.493	1.0909	0.1	1661.8
8027	15.493	1.2727	0.1	1775.1
8028	15.493	1.4545	0.1	1896.9
8029	15.493	1.6364	0.1	2021.8
8030	15.493	1.8182	0.1	2143.8
8031	15.493	2.	0.1	2257.1
8032	15.493	2.1818	0.1	2357.4
8033	15.493	2.3636	0.1	2441.3
8034	15.493	2.5455	0.1	2506.
8035	15.493	2.7273	0.1	2549.8
8036	15.493	2.9091	0.1	2571.7
8037	15.493	3.0909	0.1	2571.7
8038	15.493	3.2727	0.1	2549.8
8039	15.493	3.4545	0.1	2506.
8040	15.493	3.6364	0.1	2441.3
8041	15.493	3.8182	0.1	2357.4
8042	15.493	4.	0.1	2257.1
8043	15.493	4.1818	0.1	2143.8
8044	15.493	4.3636	0.1	2021.8
8045	15.493	4.5455	0.1	1896.9
8046	15.493	4.7273	0.1	1775.1
8047	15.493	4.9091	0.1	1661.8
8048	15.493	5.0909	0.1	1560.9
8049	15.493	5.2727	0.1	1474.9
8050	15.493	5.4545	0.1	1405.1
8051	15.493	5.6364	0.1	1351.8
8052	15.493	5.8182	0.1	1314.1
8053	15.678	0.18182	0.1	1143.
8054	15.678	0.36364	0.1	1184.6
8055	15.678	0.54545	0.1	1245.9
8056	15.678	0.72727	0.1	1327.8
8057	15.678	0.90909	0.1	1430.3
8058	15.678	1.0909	0.1	1552.6
8059	15.678	1.2727	0.1	1693.
8060	15.678	1.4545	0.1	1847.6
8061	15.678	1.6364	0.1	2009.5
8062	15.678	1.8182	0.1	2169.5
8063	15.678	2.	0.1	2318.3
8064	15.678	2.1818	0.1	2448.3
8065	15.678	2.3636	0.1	2554.4
8066	15.678	2.5455	0.1	2633.3
8067	15.678	2.7273	0.1	2684.4
8068	15.678	2.9091	0.1	2709.1
8069	15.678	3.0909	0.1	2709.1
8070	15.678	3.2727	0.1	2684.4
8071	15.678	3.4545	0.1	2633.3
8072	15.678	3.6364	0.1	2554.4
8073	15.678	3.8182	0.1	2448.3
8074	15.678	4.	0.1	2318.3
8075	15.678	4.1818	0.1	2169.5
8076	15.678	4.3636	0.1	2009.5
8077	15.678	4.5455	0.1	1847.6
8078	15.678	4.7273	0.1	1693.
8079	15.678	4.9091	0.1	1552.6
8080	15.678	5.0909	0.1	1430.3
8081	15.678	5.2727	0.1	1327.8
8082	15.678	5.4545	0.1	1245.9
8083	15.678	5.6364	0.1	1184.6
8084	15.678	5.8182	0.1	1143.
8085	15.862	0.18182	0.1	954.55
8086	15.862	0.36364	0.1	1000.3
8087	15.862	0.54545	0.1	1071.
8088	15.862	0.72727	0.1	1166.5
8089	15.862	0.90909	0.1	1286.6
8090	15.862	1.0909	0.1	1431.8
8091	15.862	1.2727	0.1	1602.7
8092	15.862	1.4545	0.1	1797.7
8093	15.862	1.6364	0.1	2010.3
8094	15.862	1.8182	0.1	2225.4
8095	15.862	2.	0.1	2425.6
8096	15.862	2.1818	0.1	2595.9
8097	15.862	2.3636	0.1	2726.8
8098	15.862	2.5455	0.1	2815.6
8099	15.862	2.7273	0.1	2867.
8100	15.862	2.9091	0.1	2889.8
8101	15.862	3.0909	0.1	2889.8
8102	15.862	3.2727	0.1	2867.
8103	15.862	3.4545	0.1	2815.6
8104	15.862	3.6364	0.1	2726.8
8105	15.862	3.8182	0.1	2595.9
8106	15.862	4.	0.1	2425.6
8107	15.862	4.1818	0.1	2225.4
8108	15.862	4.3636	0.1	2010.3
8109	15.862	4.5455	0.1	1797.7
8110	15.862	4.7273	0.1	1602.7
8111	15.862	4.9091	0.1	1431.8
8112	15.862	5.0909	0.1	1286.6
8113	15.862	5.2727	0.1	1166.5
8114	15.862	5.4545	0.1	1071.
8115	15.862	5.6364	0.1	1000.3
8116	15.862	5.8182	0.1	954.55
8117	16.047	0.18182	0.1	750.31
8118	16.047	0.36364	0.1	802.64
8119	16.047	0.54545	0.1	886.28
8120	16.047	0.72727	0.1	997.17
8121	16.047	0.90909	0.1	1134.5
8122	16.047	1.0909	0.1	1300.8
8123	16.047	1.2727	0.1	1501.7
8124	16.047	1.4545	0.1	1744.4
8125	16.047	1.6364	0.1	2026.1
8126	16.047	1.8182	0.1	2329.8
8127	16.047	2.	0.1	2616.
8128	16.047	2.1818	0.1	2840.9
8129	16.047	2.3636	0.1	2992.9
8130	16.047	2.5455	0.1	3070.7
8131	16.047	2.7273	0.1	3101.4
8132	16.047	2.9091	0.1	3110.6
8133	16.047	3.0909	0.1	3110.6
8134	16.047	3.2727	0.1	3101.4
8135	16.047	3.4545	0.1	3070.7
8136	16.047	3.6364	0.1	2992.9
8137	16.047	3.8182	0.1	2840.9
8138	16.047	4.	0.1	2616.
8139	16.047	4.1818	0.1	2329.8
8140	16.047	4.3636	0.1	2026.1
8141	16.047	4.5455	0.1	1744.4
8142	16.047	4.7273	0.1	1501.7
8143	16.047	4.9091	0.1	1300.8
8144	16.047	5.0909	0.1	1134.5
8145	16.047	5.2727	0.1	997.17
8146	16.047	5.4545	0.1	886.28
8147	16.047	5.6364	0.1	802.64
8148	16.047	5.8182	0.1	750.31
8149	16.231	0.18182	0.1	534.22
8150	16.231	0.36364	0.1	602.71
8151	16.231	0.54545	0.1	706.85
8152	16.231	0.72727	0.1	834.76
8153	16.231	0.90909	0.1	985.82
8154	16.231	1.0909	0.1	1166.
8155	16.231	1.2727	0.1	1388.3
8156	16.231	1.4545	0.1	1671.7
8157	16.231	1.6364	0.1	2051.8
8158	16.231	1.8182	0.1	2521.4
8159	16.231	2.	0.1	2962.1
8160	16.231	2.1818	0.1	3294.4
8161	16.231	2.3636	0.1	3413.5
8162	16.231	2.5455	0.1	3409.6
8163	16.231	2.7273	0.1	3374.4
8164	16.231	2.9091	0.1	3350.1
8165	16.231	3.0909	0.1	3350.1
8166	16.231	3.2727	0.1	3374.4
8167	16.231	3.4545	0.1	3409.6
8168	16.231	3.6364	0.1	3413.5
8169	16.231	3.8182	0.1	3294.4
8170	16.231	4.	0.1	2962.1
8171	16.231	4.1818	0.1	2521.4
8172	16.231	4.3636	0.1	2051.8
8173	16.231	4.5455	0.1	1671.7
8174	16.231	4.7273	0.1	1388.3
8175	16.231	4.9091	0.1	1166.
8176	16.231	5.0909	0.1	985.82
8177	16.231	5.2727	0.1	834.76
8178	16.231	5.4545	0.1	706.85
8179	16.231	5.6364	0.1	602.71
8180	16.231	5.8182	0.1	534.22
8181	16.416	0.18182	0.1	327.65
8182	16.416	0.36364	0.1	445.67
8183	16.416	0.54545	0.1	582.73
8184	16.416	0.72727	0.1	730.24
8185	16.416	0.90909	0.1	893.76
8186	16.416	1.0909	0.1	1083.5
8187	16.416	1.2727	0.1	1315.8
8188	16.416	1.4545	0.1	1629.1
8189	16.416	1.6364	0.1	2077.2
8190	16.416	1.8182	0.1	2984.7
8191	16.416	2.	0.1	4177.5
8192	16.416	2.1818	0.1	4244.
8193	16.416	2.3636	0.1	4046.1
8194	16.416	2.5455	0.1	3787.5
8195	16.416	2.7273	0.1	3633.3
8196	16.416	2.9091	0.1	3558.8
8197	16.416	3.0909	0.1	3558.8
8198	16.416	3.2727	0.1	3633.3
8199	16.416	3.4545	0.1	3787.5
8200	16.416	3.6364	0.1	4046.1
8201	16.416	3.8182	0.1	4244.
8202	16.416	4.	0.1	4177.5
8203	16.416	4.1818	0.1	2984.7
8204	16.416	4.3636	0.1	2077.2
8205	16.416	4.5455	0.1	1629.1
8206	16.416	4.7273	0.1	1315.8
8207	16.416	4.9091	0.1	1083.5
8208	16.416	5.0909	0.1	893.76
8209	16.416	5.2727	0.1	730.24
8210	16.416	5.4545	0.1	582.73
8211	16.416	5.6364	0.1	445.67
8212	16.416	5.8182	0.1	327.65
8213	16.767	3.8182	0.1	5791.8
8214	16.767	3.6364	0.1	4580.5
8215	16.767	3.4545	0.1	4028.8
8216	16.767	3.2727	0.1	3752.5
8217	16.767	3.0909	0.1	3634.4
8218	16.767	2.9091	0.1	3634.4
8219	16.767	2.7273	0.1	3752.5
8220	16.767	2.5455	0.1	4028.8
8221	16.767	2.3636	0.1	4580.5
8222	16.767	2.1818	0.1	5791.8
8223	16.6	3.8182	0.1	5740.2
8224	16.6	3.6364	0.1	4575.
8225	16.6	3.4545	0.1	4050.3
8226	16.6	3.2727	0.1	3782.3
8227	16.6	3.0909	0.1	3668.
8228	16.6	2.9091	0.1	3668.
8229	16.6	2.7273	0.1	3782.3
8230	16.6	2.5455	0.1	4050.3
8231	16.6	2.3636	0.1	4575.
8232	16.6	2.1818	0.1	5740.2
8233	16.767	5.8182	0.1	142.23
8234	16.767	5.6364	0.1	252.8
8235	16.767	5.4545	0.1	352.2
8236	16.767	5.2727	0.1	453.87
8237	16.767	5.0909	0.1	565.62
8238	16.767	4.9091	0.1	696.44
8239	16.767	4.7273	0.1	858.72
8240	16.767	4.5455	0.1	1081.6
8241	16.767	4.3636	0.1	1388.1
8242	16.767	4.1818	0.1	2111.5
8243	16.767	4.	0.1	8405.7
8244	16.6	4.	0.1	8126.3
8245	16.6	4.1818	0.1	1880.1
8246	16.6	4.3636	0.1	1251.1
8247	16.6	4.5455	0.1	1001.4
8248	16.6	4.7273	0.1	818.71
8249	16.6	4.9091	0.1	683.59
8250	16.6	5.0909	0.1	570.71
8251	16.6	5.2727	0.1	470.49
8252	16.6	5.4545	0.1	375.17
8253	16.6	5.6364	0.1	277.55
8254	16.6	5.8182	0.1	162.72
8255	16.767	0.18182	0.1	142.23
8256	16.767	0.36364	0.1	252.8
8257	16.767	0.54545	0.1	352.2
8258	16.767	0.72727	0.1	453.87
8259	16.767	0.90909	0.1	565.62
8260	16.767	1.0909	0.1	696.44
8261	16.767	1.2727	0.1	858.72
8262	16.767	1.4545	0.1	1081.6
8263	16.767	1.6364	0.1	1388.1
8264	16.767	1.8182	0.1	2111.5
8265	16.767	2.	0.1	8405.7
8266	16.6	2.	0.1	8126.3
8267	16.6	1.8182	0.1	1880.1
8268	16.6	1.6364	0.1	1251.1
8269	16.6	1.4545	0.1	1001.4
8270	16.6	1.2727	0.1	818.71
8271	16.6	1.0909	0.1	683.59
8272	16.6	0.90909	0.1	570.71
8273	16.6	0.72727	0.1	470.49
8274	16.6	0.54545	0.1	375.17
8275	16.6	0.36364	0.1	277.55
8276	16.6	0.18182	0.1	162.72
8277	16.767	6.	0.1	17.338
8278	16.948	6.	0.1	179.65
8279	17.128	6.	0.1	347.49
8280	17.309	6.	0.1	492.13
8281	17.49	6.	0.1	615.93
8282	17.671	6.	0.1	718.84
8283	17.852	6.	0.1	801.23
8284	18.033	6.	0.1	864.28
8285	18.213	6.	0.1	909.82
8286	18.394	6.	0.1	939.94
8287	18.575	6.	0.1	956.83
8288	18.756	6.	0.1	962.58
8289	18.937	6.	0.1	959.09
8290	19.118	6.	0.1	948.02
8291	19.298	6.	0.1	930.8
8292	19.479	6.	0.1	908.63
8293	19.66	6.	0.1	882.5
8294	19.841	6.	0.1	853.23
8295	20.022	6.	0.1	821.49
8296	20.202	6.	0.1	787.82
8297	20.383	6.	0.1	752.65
8298	20.564	6.	0.1	716.34
8299	20.745	6.	0.1	679.17
8300	20.926	6.	0.1	641.35
8301	21.107	6.	0.1	603.07
8302	21.288	6.	0.1	564.46
8303	21.468	6.	0.1	525.64
8304	21.649	6.	0.1	486.7
8305	21.83	6.	0.1	447.71
8306	22.011	6.	0.1	408.73
8307	22.192	6.	0.1	369.81
8308	22.372	6.	0.1	330.99
8309	22.553	6.	0.1	292.32
8310	22.734	6.	0.1	253.85
8311	22.915	6.	0.1	215.63
8312	23.096	6.	0.1	177.73
8313	23.277	6.	0.1	140.28
8314	23.458	6.	0.1	103.46
8315	23.638	6.	0.1	67.607
8316	23.819	6.	0.1	33.628
8317	24.	6.	0.1	5.3985
8318	24.	5.8182	0.1	6.5987
8319	24.	5.6364	0.1	6.8399
8320	24.	5.4545	0.1	6.9028
8321	24.	5.2727	0.1	6.9104
8322	24.	5.0909	0.1	6.879
8323	24.	4.9091	0.1	6.8398
8324	24.	4.7273	0.1	6.7977
8325	24.	4.5455	0.1	6.7574
8326	24.	4.3636	0.1	6.7206
8327	24.	4.1818	0.1	6.6881
8328	24.	4.	0.1	6.6603
8329	24.	3.8182	0.1	6.6374
8330	24.	3.6364	0.1	6.6192
8331	24.	3.4545	0.1	6.6057
8332	24.	3.2727	0.1	6.5967
8333	24.	3.0909	0.1	6.5923
8334	24.	2.9091	0.1	6.5923
8335	24.	2.7273	0.1	6.5967
8336	24.	2.5455	0.1	6.6057
8337	24.	2.3636	0.1	6.6192
8338	24.	2.1818	0.1	6.6374
8339	24.	2.	0.1	6.6604
8340	24.	1.8182	0.1	6.6881
8341	24.	1.6364	0.1	6.7206
8342	24.	1.4545	0.1	6.7574
8343	24.	1.2727	0.1	6.7977
8344	24.	1.0909	0.1	6.8398
8345	24.	0.90909	0.1	6.879
8346	24.	0.72727	0.1	6.9104
8347	24.	0.54545	0.1	6.9028
8348	24.	0.36364	0.1	6.8399
8349	24.	0.18182	0.1	6.5987
8350	1.5894e-015	0.18182	0.1	2498.9
8351	3.1789e-015	0.36364	0.1	4637.8
8352	4.7683e-015	0.54545	0.1	5687.7
8353	6.3578e-015	0.72727	0.1	6333.3
8354	7.9472e-015	0.90909	0.1	6764.2
8355	9.5366e-015	1.0909	0.1	7071.9
8356	1.1126e-014	1.2727	0.1	7299.6
8357	1.2716e-014	1.4545	0.1	7472.4
8358	1.4305e-014	1.6364	0.1	7605.4
8359	1.5894e-014	1.8182	0.1	7708.6
8360	1.7484e-014	2.	0.1	7788.5
8361	1.9073e-014	2.1818	0.1	7849.9
8362	2.0663e-014	2.3636	0.1	7895.8
8363	2.2252e-014	2.5455	0.1	7928.5
8364	2.3842e-014	2.7273	0.1	7949.6
8365	2.5431e-014	2.9091	0.1	7959.9
8366	2.702e-014	3.0909	0.1	7959.9
8367	2.861e-014	3.2727	0.1	7949.6
8368	3.0199e-014	3.4545	0.1	7928.5
8369	3.1789e-014	3.6364	0.1	7895.8
8370	3.3378e-014	3.8182	0.1	7849.9
8371	3.4968e-014	4.	0.1	7788.5
8372	3.6557e-014	4.1818	0.1	7708.6
8373	3.8147e-014	4.3636	0.1	7605.4
8374	3.9736e-014	4.5455	0.1	7472.4
8375	4.1325e-014	4.7273	0.1	7299.6
8376	4.2915e-014	4.9091	0.1	7071.9
8377	4.4504e-014	5.0909	0.1	6764.2
8378	4.6094e-014	5.2727	0.1	6333.3
8379	4.7683e-014	5.4545	0.1	5687.7
8380	4.9273e-014	5.6364	0.1	4637.8
8381	5.0862e-014	5.8182	0.1	2498.9
8382	24.	0.	0.1	5.3984
8383	23.819	0.	0.1	33.628
8384	23.638	0.	0.1	67.607
8385	23.458	0.	0.1	103.45
8386	23.277	0.	0.1	140.28
8387	23.096	0.	0.1	177.73
8388	22.915	0.	0.1	215.63
8389	22.734	0.	0.1	253.85
8390	22.553	0.	0.1	292.32
8391	22.372	0.	0.1	330.99
8392	22.192	0.	0.1	369.81
8393	22.011	0.	0.1	408.73
8394	21.83	0.	0.1	447.71
8395	21.649	0.	0.1	486.7
8396	21.468	0.	0.1	525.64
8397	21.288	0.	0.1	564.46
8398	21.107	0.	0.1	603.07
8399	20.926	1.4013e-045	0.1	641.35
8400	20.745	1.4013e-045	0.1	679.17
8401	20.564	1.4013e-045	0.1	716.34
8402	20.383	1.4013e-045	0.1	752.65
8403	20.202	1.4013e-045	0.1	787.82
8404	20.022	1.4013e-045	0.1	821.49
8405	19.841	1.4013e-045	0.1	853.23
8406	19.66	1.4013e-045	0.1	882.5
8407	19.479	1.4013e-045	0.1	908.63
8408	19.298	1.4013e-045	0.1	930.8
8409	19.118	1.4013e-045	0.1	948.02
8410	18.937	1.4013e-045	0.1	959.09
8411	18.756	1.4013e-045	0.1	962.58
8412	18.575	1.4013e-045	0.1	956.83
8413	18.394	1.4013e-045	0.1	939.94
8414	18.213	1.4013e-045	0.1	909.82
8415	18.033	1.4013e-045	0.1	864.28
8416	17.852	1.4013e-045	0.1	801.23
8417	17.671	1.4013e-045	0.1	718.84
8418	17.49	1.4013e-045	0.1	615.93
8419	17.309	1.4013e-045	0.1	492.13
8420	17.128	1.4013e-045	0.1	347.49
8421	16.948	1.4013e-045	0.1	179.65
8422	16.767	0.	0.1	17.338
8423	16.6	0.	0.1	22.366
8424	16.416	-1.1277e-029	0.1	240.02
8425	16.231	-1.1151e-029	0.1	483.89
8426	16.047	-1.1024e-029	0.1	711.09
8427	15.862	-1.0897e-029	0.1	922.36
8428	15.678	-1.077e-029	0.1	1116.2
8429	15.493	-1.0644e-029	0.1	1291.5
8430	15.309	-1.0517e-029	0.1	1448.7
8431	15.124	-1.039e-029	0.1	1588.7
8432	14.94	-1.0264e-029	0.1	1713.4
8433	14.756	-1.0137e-029	0.1	1824.7
8434	14.571	-1.001e-029	0.1	1924.5
8435	14.387	-9.8834e-030	0.1	2014.7
8436	14.202	-9.7567e-030	0.1	2096.9
8437	14.018	-9.63e-030	0.1	2172.6
8438	13.833	-9.5033e-030	0.1	2243.1
8439	13.649	-9.3766e-030	0.1	2309.3
8440	13.464	-9.2499e-030	0.1	2372.1
8441	13.28	-9.1231e-030	0.1	2432.3
8442	13.096	-8.9964e-030	0.1	2490.4
8443	12.911	-8.8697e-030	0.1	2546.8
8444	12.727	-8.743e-030	0.1	2601.9
8445	12.542	-8.6163e-030	0.1	2656.1
8446	12.358	-8.4896e-030	0.1	2709.6
8447	12.173	-8.3629e-030	0.1	2762.4
8448	11.989	-8.2362e-030	0.1	2815.
8449	11.804	-8.1095e-030	0.1	2867.2
8450	11.62	-7.9828e-030	0.1	2919.3
8451	11.436	-7.856e-030	0.1	2971.3
8452	11.251	-7.7293e-030	0.1	3023.3
8453	11.067	-7.6026e-030	0.1	3075.3
8454	10.882	-7.4759e-030	0.1	3127.4
8455	10.698	-7.3492e-030	0.1	3179.6
8456	10.513	-7.2225e-030	0.1	3231.9
8457	10.329	-7.0958e-030	0.1	3284.4
8458	10.144	-6.9691e-030	0.1	3337.1
8459	9.96	-6.8424e-030	0.1	3389.9
8460	9.7756	-6.7156e-030	0.1	3443.
8461	9.5911	-6.5889e-030	0.1	3496.3
8462	9.4067	-6.4622e-030	0.1	3549.9
8463	9.2222	-6.3355e-030	0.1	3603.7
8464	9.0378	-6.2088e-030	0.1	3657.8
8465	8.8533	-6.0821e-030	0.1	3712.1
8466	8.6689	-5.9554e-030	0.1	3766.7
8467	8.4844	-5.8287e-030	0.1	3821.6
8468	8.3	-5.702e-030	0.1	3876.9
8469	8.1156	-5.5753e-030	0.1	3932.4
8470	7.9311	-5.4485e-030	0.1	3988.3
8471	7.7467	-5.3218e-030	0.1	4044.5
8472	7.5622	-5.1951e-030	0.1	4101.1
8473	7.3778	-5.0684e-030	0.1	4158.
8474	7.1933	-4.9417e-030	0.1	4215.4
8475	7.0089	-4.815e-030	0.1	4273.1
8476	6.8244	-4.6883e-030	0.1	4331.3
8477	6.64	-4.5616e-030	0.1	4389.9
8478	6.4556	-4.4349e-030	0.1	4448.9
8479	6.2711	-4.3082e-030	0.1	4508.5
8480	6.0867	-4.1814e-030	0.1	4568.5
8481	5.9022	-4.0547e-030	0.1	4629.1
8482	5.7178	-3.928e-030	0.1	4690.2
8483	5.5333	-3.8013e-030	0.1	4751.8
8484	5.3489	-3.6746e-030	0.1	4814.
8485	5.1644	-3.5479e-030	0.1	4876.8
8486	4.98	-3.4212e-030	0.1	4940.2
8487	4.7956	-3.2945e-030	0.1	5004.2
8488	4.6111	-3.1678e-030	0.1	5068.7
8489	4.4267	-3.041e-030	0.1	5133.9
8490	4.2422	-2.9143e-030	0.1	5199.5
8491	4.0578	-2.7876e-030	0.1	5265.6
8492	3.8733	-2.6609e-030	0.1	5332.2
8493	3.6889	-2.5342e-030	0.1	5399.
8494	3.5044	-2.4075e-030	0.1	5465.9
8495	3.32	-2.2808e-030	0.1	5532.7
8496	3.1356	-2.1541e-030	0.1	5599.
8497	2.9511	-2.0274e-030	0.1	5664.5
8498	2.7667	-1.9007e-030	0.1	5728.7
8499	2.5822	-1.7739e-030	0.1	5790.6
8500	2.3978	-1.6472e-030	0.1	5849.5
8501	2.2133	-1.5205e-030	0.1	5903.9
8502	2.0289	-1.3938e-030	0.1	5952.2
8503	1.8444	-1.2671e-030	0.1	5991.7
8504	1.66	-1.1404e-030	0.1	6019.2
8505	1.4756	-1.0137e-030	0.1	6029.9
8506	1.2911	-8.8697e-031	0.1	6016.7
8507	1.1067	-7.6026e-031	0.1	5968.7
8508	0.92222	-6.3355e-031	0.1	5868.5
8509	0.73778	-5.0684e-031	0.1	5687.2
8510	0.55333	-3.8013e-031	0.1	5363.2
8511	0.36889	-2.5342e-031	0.1	4787.8
8512	0.18444	-1.2671e-031	0.1	3575.6
8513	0.	0.	0.1	764.41
8514	3.937e-014	6.	0.1	764.41
8515	0.18444	6.	0.1	3575.6
8516	0.36889	6.	0.1	4787.8
8517	0.55333	6.	0.1	5363.2
8518	0.73778	6.	0.1	5687.2
8519	0.92222	6.	0.1	5868.5
8520	1.1067	6.	0.1	5968.7
8521	1.2911	6.	0.1	6016.7
8522	1.4756	6.	0.1	6029.9
8523	1.66	6.	0.1	6019.2
8524	1.8444	6.	0.1	5991.7
8525	2.0289	6.	0.1	5952.2
8526	2.2133	6.	0.1	5903.9
8527	2.3978	6.	0.1	5849.5
8528	2.5822	6.	0.1	5790.6
8529	2.7667	6.	0.1	5728.7
8530	2.9511	6.	0.1	5664.5
8531	3.1356	6.	0.1	5599.
8532	3.32	6.	0.1	5532.7
8533	3.5044	6.	0.1	5465.9
8534	3.6889	6.	0.1	5399.
8535	3.8733	6.	0.1	5332.2
8536	4.0578	6.	0.1	5265.6
8537	4.2422	6.	0.1	5199.5
8538	4.4267	6.	0.1	5133.9
8539	4.6111	6.	0.1	5068.7
8540	4.7956	6.	0.1	5004.2
8541	4.98	6.	0.1	4940.2
8542	5.1644	6.	0.1	4876.8
8543	5.3489	6.	0.1	4814.
8544	5.5333	6.	0.1	4751.8
8545	5.7178	6.	0.1	4690.2
8546	5.9022	6.	0.1	4629.1
8547	6.0867	6.	0.1	4568.5
8548	6.2711	6.	0.1	4508.5
8549	6.4556	6.	0.1	4448.9
8550	6.64	6.	0.1	4389.9
8551	6.8244	6.	0.1	4331.3
8552	7.0089	6.	0.1	4273.1
8553	7.1933	6.	0.1	4215.4
8554	7.3778	6.	0.1	4158.
8555	7.5622	6.	0.1	4101.1
8556	7.7467	6.	0.1	4044.5
8557	7.9311	6.	0.1	3988.3
8558	8.1156	6.	0.1	3932.4
8559	8.3	6.	0.1	3876.9
8560	8.4844	6.	0.1	3821.6
8561	8.6689	6.	0.1	3766.7
8562	8.8533	6.	0.1	3712.1
8563	9.0378	6.	0.1	3657.8
8564	9.2222	6.	0.1	3603.7
8565	9.4067	6.	0.1	3549.9
8566	9.5911	6.	0.1	3496.3
8567	9.7756	6.	0.1	3443.
8568	9.96	6.	0.1	3389.9
8569	10.144	6.	0.1	3337.1
8570	10.329	6.	0.1	3284.4
8571	10.513	6.	0.1	3231.9
8572	10.698	6.	0.1	3179.6
8573	10.882	6.	0.1	3127.4
8574	11.067	6.	0.1	3075.3
8575	11.251	6.	0.1	3023.3
8576	11.436	6.	0.1	2971.3
8577	11.62	6.	0.1	2919.3
8578	11.804	6.	0.1	2867.2
8579	11.989	6.	0.1	2815.
8580	12.173	6.	0.1	2762.4
8581	12.358	6.	0.1	2709.6
8582	12.542	6.	0.1	2656.1
8583	12.727	6.	0.1	2601.9
8584	12.911	6.	0.1	2546.8
8585	13.096	6.	0.1	2490.4
8586	13.28	6.	0.1	2432.3
8587	13.464	6.	0.1	2372.1
8588	13.649	6.	0.1	2309.3
8589	13.833	6.	0.1	2243.1
8590	14.018	6.	0.1	2172.6
8591	14.202	6.	0.1	2096.9
8592	14.387	6.	0.1	2014.7
8593	14.571	6.	0.1	1924.5
8594	14.756	6.	0.1	1824.7
8595	14.94	6.	0.1	1713.4
8596	15.124	6.	0.1	1588.7
8597	15.309	6.	0.1	1448.7
8598	15.493	6.	0.1	1291.5
8599	15.678	6.	0.1	1116.2
8600	15.862	6.	0.1	922.36
8601	16.047	6.	0.1	711.09
8602	16.231	6.	0.1	483.89
8603	16.416	6.	0.1	240.02
8604	16.6	6.	0.1	22.366
8605	16.416	6.	0.	6.187
8606	16.231	6.	0.	5.9968
8607	16.047	6.	0.	5.9106
8608	15.862	6.	0.	5.5
8609	15.678	6.	0.	4.9325
8610	15.493	6.	0.	4.4611
8611	15.309	6.	0.	4.1379
8612	15.124	6.	0.	3.9745
8613	14.94	6.	0.	3.9454
8614	14.756	6.	0.	4.0173
8615	14.571	6.	0.	4.1564
8616	14.387	6.	0.	4.3341
8617	14.202	6.	0.	4.5274
8618	14.018	6.	0.	4.7201
8619	13.833	6.	0.	4.9009
8620	13.649	6.	0.	5.0629
8621	13.464	6.	0.	5.2024
8622	13.28	6.	0.	5.3178
8623	13.096	6.	0.	5.4091
8624	12.911	6.	0.	5.477
8625	12.727	6.	0.	5.523
8626	12.542	6.	0.	5.5486
8627	12.358	6.	0.	5.5556
8628	12.173	6.	0.	5.5454
8629	11.989	6.	0.	5.5194
8630	11.804	6.	0.	5.479
8631	11.62	6.	0.	5.4251
8632	11.436	6.	0.	5.3587
8633	11.251	6.	0.	5.2805
8634	11.067	6.	0.	5.191
8635	10.882	6.	0.	5.0906
8636	10.698	6.	0.	4.9797
8637	10.513	6.	0.	4.8585
8638	10.329	6.	0.	4.727
8639	10.144	6.	0.	4.5853
8640	9.96	6.	0.	4.4332
8641	9.7756	6.	0.	4.2708
8642	9.5911	6.	0.	4.0977
8643	9.4067	6.	0.	3.9139
8644	9.2222	6.	0.	3.719
8645	9.0378	6.	0.	3.5129
8646	8.8533	6.	0.	3.2952
8647	8.6689	6.	0.	3.0659
8648	8.4844	6.	0.	2.8246
8649	8.3	6.	0.	2.5712
8650	8.1156	6.	0.	2.3056
8651	7.9311	6.	0.	2.0278
8652	7.7467	6.	0.	1.7379
8653	7.5622	6.	0.	1.4362
8654	7.3778	6.	0.	1.123
8655	7.1933	6.	0.	0.79925
8656	7.0089	6.	0.	0.46763
8657	6.8244	6.	0.	0.47692
8658	6.64	6.	0.	0.52165
8659	6.4556	6.	0.	0.57005
8660	6.2711	6.	0.	0.62234
8661	6.0867	6.	0.	0.67885
8662	5.9022	6.	0.	0.73991
8663	5.7178	6.	0.	0.8059
8664	5.5333	6.	0.	0.87725
8665	5.3489	6.	0.	0.95439
8666	5.1644	6.	0.	1.0378
8667	4.98	6.	0.	1.1282
8668	4.7956	6.	0.	1.226
8669	4.6111	6.	0.	1.3321
8670	4.4267	6.	0.	1.4475
8671	4.2422	6.	0.	1.5734
8672	4.0578	6.	0.	1.7115
8673	3.8733	6.	0.	1.8646
8674	3.6889	6.	0.	2.0374
8675	3.5044	6.	0.	2.2409
8676	3.32	6.	0.	2.5055
8677	3.1356	6.	0.	2.9556
8678	2.9511	6.	0.	4.067
8679	2.7667	6.	0.	6.1585
8680	2.5822	6.	0.	9.007
8681	2.3978	6.	0.	12.598
8682	2.2133	6.	0.	17.043
8683	2.0289	6.	0.	22.509
8684	1.8444	6.	0.	29.229
8685	1.66	6.	0.	37.517
8686	1.4756	6.	0.	47.804
8687	1.2911	6.	0.	60.766
8688	1.1067	6.	0.	77.302
8689	0.92222	6.	0.	99.412
8690	0.73778	6.	0.	129.37
8691	0.55333	6.	0.	175.89
8692	0.36889	6.	0.	256.02
8693	0.18444	6.	0.	442.34
8694	16.6	6.	0.	5.1285
8695	3.937e-014	6.	0.	1820.4
8696	0.18444	-1.2671e-031	0.	442.34
8697	0.36889	-2.5342e-031	0.	256.02
8698	0.55333	-3.8013e-031	0.	175.89
8699	0.73778	-5.0684e-031	0.	129.37
8700	0.92222	-6.3355e-031	0.	99.412
8701	1.1067	-7.6026e-031	0.	77.302
8702	1.2911	-8.8697e-031	0.	60.766
8703	1.4756	-1.0137e-030	0.	47.804
8704	1.66	-1.1404e-030	0.	37.517
8705	1.8444	-1.2671e-030	0.	29.229
8706	2.0289	-1.3938e-030	0.	22.509
8707	2.2133	-1.5205e-030	0.	17.042
8708	2.3978	-1.6472e-030	0.	12.598
8709	2.5822	-1.7739e-030	0.	9.007
8710	2.7667	-1.9007e-030	0.	6.1584
8711	2.9511	-2.0274e-030	0.	4.0669
8712	3.1356	-2.1541e-030	0.	2.9556
8713	3.32	-2.2808e-030	0.	2.5055
8714	3.5044	-2.4075e-030	0.	2.2409
8715	3.6889	-2.5342e-030	0.	2.0374
8716	3.8733	-2.6609e-030	0.	1.8646
8717	4.0578	-2.7876e-030	0.	1.7115
8718	4.2422	-2.9143e-030	0.	1.5734
8719	4.4267	-3.041e-030	0.	1.4475
8720	4.6111	-3.1678e-030	0.	1.3321
8721	4.7956	-3.2945e-030	0.	1.226
8722	4.98	-3.4212e-030	0.	1.1282
8723	5.1644	-3.5479e-030	0.	1.0378
8724	5.3489	-3.6746e-030	0.	0.95439
8725	5.5333	-3.8013e-030	0.	0.87725
8726	5.7178	-3.928e-030	0.	0.8059
8727	5.9022	-4.0547e-030	0.	0.73991
8728	6.0867	-4.1814e-030	0.	0.67885
8729	6.2711	-4.3082e-030	0.	0.62234
8730	6.4556	-4.4349e-030	0.	0.57005
8731	6.64	-4.5616e-030	0.	0.52166
8732	6.8244	-4.6883e-030	0.	0.47692
8733	7.0089	-4.815e-030	0.	0.46764
8734	7.1933	-4.9417e-030	0.	0.79927
8735	7.3778	-5.0684e-030	0.	1.1231
8736	7.5622	-5.1951e-030	0.	1.4362
8737	7.7467	-5.3218e-030	0.	1.7379
8738	7.9311	-5.4485e-030	0.	2.0278
8739	8.1156	-5.5753e-030	0.	2.3056
8740	8.3	-5.702e-030	0.	2.5712
8741	8.4844	-5.8287e-030	0.	2.8246
8742	8.6689	-5.9554e-030	0.	3.0659
8743	8.8533	-6.0821e-030	0.	3.2953
8744	9.0378	-6.2088e-030	0.	3.5129
8745	9.2222	-6.3355e-030	0.	3.719
8746	9.4067	-6.4622e-030	0.	3.9139
8747	9.5911	-6.5889e-030	0.	4.0977
8748	9.7756	-6.7156e-030	0.	4.2708
8749	9.96	-6.8424e-030	0.	4.4333
8750	10.144	-6.9691e-030	0.	4.5853
8751	10.329	-7.0958e-030	0.	4.727
8752	10.513	-7.2225e-030	0.	4.8586
8753	10.698	-7.3492e-030	0.	4.9797
8754	10.882	-7.4759e-030	0.	5.0906
8755	11.067	-7.6026e-030	0.	5.191
8756	11.251	-7.7293e-030	0.	5.2805
8757	11.436	-7.856e-030	0.	5.3588
8758	11.62	-7.9828e-030	0.	5.4252
8759	11.804	-8.1095e-030	0.	5.4791
8760	11.989	-8.2362e-030	0.	5.5195
8761	12.173	-8.3629e-030	0.	5.5454
8762	12.358	-8.4896e-030	0.	5.5556
8763	12.542	-8.6163e-030	0.	5.5487
8764	12.727	-8.743e-030	0.	5.523
8765	12.911	-8.8697e-030	0.	5.477
8766	13.096	-8.9964e-030	0.	5.4091
8767	13.28	-9.1231e-030	0.	5.3178
8768	13.464	-9.2499e-030	0.	5.2025
8769	13.649	-9.3766e-030	0.	5.063
8770	13.833	-9.5033e-030	0.	4.901
8771	14.018	-9.63e-030	0.	4.7201
8772	14.202	-9.7567e-030	0.	4.5274
8773	14.387	-9.8834e-030	0.	4.3341
8774	14.571	-1.001e-029	0.	4.1564
8775	14.756	-1.0137e-029	0.	4.0173
8776	14.94	-1.0264e-029	0.	3.9454
8777	15.124	-1.039e-029	0.	3.9745
8778	15.309	-1.0517e-029	0.	4.1379
8779	15.493	-1.0644e-029	0.	4.4611
8780	15.678	-1.077e-029	0.	4.9325
8781	15.862	-1.0897e-029	0.	5.5
8782	16.047	-1.1024e-029	0.	5.9106
8783	16.231	-1.1151e-029	0.	5.9968
8784	16.416	-1.1277e-029	0.	6.1869
8785	16.6	0.	0.	5.1285
8786	0.	0.	0.	1820.4
8787	16.948	1.4013e-045	0.	7.3727
8788	17.128	1.4013e-045	0.	9.3715
8789	17.309	1.4013e-045	0.	10.76
8790	17.49	1.4013e-045	0.	11.11
8791	17.671	1.4013e-045	0.	10.726
8792	17.852	1.4013e-045	0.	10.004
8793	18.033	1.4013e-045	0.	9.1467
8794	18.213	1.4013e-045	0.	8.2917
8795	18.394	1.4013e-045	0.	7.5117
8796	18.575	1.4013e-045	0.	6.8435
8797	18.756	1.4013e-045	0.	6.3005
8798	18.937	1.4013e-045	0.	5.883
8799	19.118	1.4013e-045	0.	5.5839
8800	19.298	1.4013e-045	0.	5.393
8801	19.479	1.4013e-045	0.	5.2991
8802	19.66	1.4013e-045	0.	5.2907
8803	19.841	1.4013e-045	0.	5.3572
8804	20.022	1.4013e-045	0.	5.4884
8805	20.202	1.4013e-045	0.	5.6754
8806	20.383	1.4013e-045	0.	5.9096
8807	20.564	1.4013e-045	0.	6.1836
8808	20.745	1.4013e-045	0.	6.4904
8809	20.926	1.4013e-045	0.	6.8237
8810	21.107	0.	0.	7.1774
8811	21.288	0.	0.	7.5462
8812	21.468	0.	0.	7.9247
8813	21.649	0.	0.	8.3081
8814	21.83	0.	0.	8.6914
8815	22.011	0.	0.	9.0696
8816	22.192	0.	0.	9.4373
8817	22.372	0.	0.	9.789
8818	22.553	0.	0.	10.118
8819	22.734	0.	0.	10.416
8820	22.915	0.	0.	10.672
8821	23.096	0.	0.	10.871
8822	23.277	0.	0.	10.993
8823	23.458	0.	0.	10.973
8824	23.638	0.	0.	10.846
8825	23.819	0.	0.	9.4428
8826	16.767	0.	0.	4.1922
8827	24.	0.	0.	5.4096
8828	5.0862e-014	5.8182	0.	-1061.9
8829	4.9273e-014	5.6364	0.	-2242.3
8830	4.7683e-014	5.4545	0.	-2785.8
8831	4.6094e-014	5.2727	0.	-3110.2
8832	4.4504e-014	5.0909	0.	-3325.4
8833	4.2915e-014	4.9091	0.	-3478.7
8834	4.1325e-014	4.7273	0.	-3592.
8835	3.9736e-014	4.5455	0.	-3677.9
8836	3.8147e-014	4.3636	0.	-3744.
8837	3.6557e-014	4.1818	0.	-3795.3
8838	3.4968e-014	4.	0.	-3835.
8839	3.3378e-014	3.8182	0.	-3865.5
8840	3.1789e-014	3.6364	0.	-3888.4
8841	3.0199e-014	3.4545	0.	-3904.8
8842	2.861e-014	3.2727	0.	-3915.3
8843	2.702e-014	3.0909	0.	-3920.6
8844	2.5431e-014	2.9091	0.	-3920.6
8845	2.3842e-014	2.7273	0.	-3915.3
8846	2.2252e-014	2.5455	0.	-3904.8
8847	2.0663e-014	2.3636	0.	-3888.4
8848	1.9073e-014	2.1818	0.	-3865.5
8849	1.7484e-014	2.	0.	-3835.
8850	1.5894e-014	1.8182	0.	-3795.3
8851	1.4305e-014	1.6364	0.	-3744.
8852	1.2716e-014	1.4545	0.	-3677.9
8853	1.1126e-014	1.2727	0.	-3592.
8854	9.5366e-015	1.0909	0.	-3478.7
8855	7.9472e-015	0.90909	0.	-3325.4
8856	6.3578e-015	0.72727	0.	-3110.2
8857	4.7683e-015	0.54545	0.	-2785.8
8858	3.1789e-015	0.36364	0.	-2242.3
8859	1.5894e-015	0.18182	0.	-1061.9
8860	24.	0.18182	0.	32.476
8861	24.	0.36364	0.	55.83
8862	24.	0.54545	0.	73.251
8863	24.	0.72727	0.	87.27
8864	24.	0.90909	0.	98.871
8865	24.	1.0909	0.	108.58
8866	24.	1.2727	0.	116.76
8867	24.	1.4545	0.	123.63
8868	24.	1.6364	0.	129.39
8869	24.	1.8182	0.	134.17
8870	24.	2.	0.	138.08
8871	24.	2.1818	0.	141.22
8872	24.	2.3636	0.	143.65
8873	24.	2.5455	0.	145.43
8874	24.	2.7273	0.	146.59
8875	24.	2.9091	0.	147.17
8876	24.	3.0909	0.	147.17
8877	24.	3.2727	0.	146.59
8878	24.	3.4545	0.	145.43
8879	24.	3.6364	0.	143.65
8880	24.	3.8182	0.	141.22
8881	24.	4.	0.	138.08
8882	24.	4.1818	0.	134.17
8883	24.	4.3636	0.	129.39
8884	24.	4.5455	0.	123.63
8885	24.	4.7273	0.	116.76
8886	24.	4.9091	0.	108.58
8887	24.	5.0909	0.	98.871
8888	24.	5.2727	0.	87.27
8889	24.	5.4545	0.	73.251
8890	24.	5.6364	0.	55.83
8891	24.	5.8182	0.	32.476
8892	24.	6.	0.	5.4096
8893	23.819	6.	0.	9.4428
8894	23.638	6.	0.	10.846
8895	23.458	6.	0.	10.973
8896	23.277	6.	0.	10.993
8897	23.096	6.	0.	10.871
8898	22.915	6.	0.	10.672
8899	22.734	6.	0.	10.416
8900	22.553	6.	0.	10.118
8901	22.372	6.	0.	9.789
8902	22.192	6.	0.	9.4373
8903	22.011	6.	0.	9.0695
8904	21.83	6.	0.	8.6914
8905	21.649	6.	0.	8.3081
8906	21.468	6.	0.	7.9247
8907	21.288	6.	0.	7.5461
8908	21.107	6.	0.	7.1774
8909	20.926	6.	0.	6.8236
8910	20.745	6.	0.	6.4904
8911	20.564	6.	0.	6.1836
8912	20.383	6.	0.	5.9096
8913	20.202	6.	0.	5.6753
8914	20.022	6.	0.	5.4884
8915	19.841	6.	0.	5.3572
8916	19.66	6.	0.	5.2907
8917	19.479	6.	0.	5.2991
8918	19.298	6.	0.	5.393
8919	19.118	6.	0.	5.5839
8920	18.937	6.	0.	5.883
8921	18.756	6.	0.	6.3005
8922	18.575	6.	0.	6.8435
8923	18.394	6.	0.	7.5117
8924	18.213	6.	0.	8.2917
8925	18.033	6.	0.	9.1467
8926	17.852	6.	0.	10.004
8927	17.671	6.	0.	10.726
8928	17.49	6.	0.	11.11
8929	17.309	6.	0.	10.76
8930	17.128	6.	0.	9.3715
8931	16.948	6.	0.	7.3727
8932	16.767	6.	0.	4.1922
8933	16.6	1.8182	0.	2516.2
8934	16.6	1.6364	0.	1304.8
8935	16.6	1.4545	0.	999.62
8936	16.6	1.2727	0.	744.92
8937	16.6	1.0909	0.	560.55
8938	16.6	0.90909	0.	414.79
8939	16.6	0.72727	0.	294.92
8940	16.6	0.54545	0.	194.56
8941	16.6	0.36364	0.	110.66
8942	16.6	0.18182	0.	42.254
8943	16.6	2.	0.	2170.2
8944	16.767	0.18182	0.	25.318
8945	16.767	0.36364	0.	61.526
8946	16.767	0.54545	0.	104.12
8947	16.767	0.72727	0.	153.92
8948	16.767	0.90909	0.	213.12
8949	16.767	1.0909	0.	285.88
8950	16.767	1.2727	0.	379.31
8951	16.767	1.4545	0.	517.75
8952	16.767	1.6364	0.	644.94
8953	16.767	1.8182	0.	1515.1
8954	16.767	2.	0.	942.79
8955	16.6	4.1818	0.	2516.2
8956	16.6	4.3636	0.	1304.8
8957	16.6	4.5455	0.	999.62
8958	16.6	4.7273	0.	744.92
8959	16.6	4.9091	0.	560.55
8960	16.6	5.0909	0.	414.79
8961	16.6	5.2727	0.	294.92
8962	16.6	5.4545	0.	194.56
8963	16.6	5.6364	0.	110.66
8964	16.6	5.8182	0.	42.254
8965	16.6	4.	0.	2170.2
8966	16.767	5.8182	0.	25.318
8967	16.767	5.6364	0.	61.526
8968	16.767	5.4545	0.	104.12
8969	16.767	5.2727	0.	153.92
8970	16.767	5.0909	0.	213.12
8971	16.767	4.9091	0.	285.88
8972	16.767	4.7273	0.	379.31
8973	16.767	4.5455	0.	517.75
8974	16.767	4.3636	0.	644.94
8975	16.767	4.1818	0.	1515.1
8976	16.767	4.	0.	942.79
8977	16.6	2.2727	0.	737.78
8978	16.683	2.1818	0.	654.96
8979	16.508	2.1818	0.	756.31
8980	16.6	2.1818	5.e-002	227.34
8981	16.6	2.0909	0.	1408.2
8982	16.6	2.4545	0.	580.67
8983	16.683	2.3636	0.	574.53
8984	16.508	2.3636	0.	593.44
8985	16.6	2.3636	5.e-002	35.822
8986	16.6	2.6364	0.	503.87
8987	16.683	2.5455	0.	499.29
8988	16.508	2.5455	0.	505.77
8989	16.6	2.5455	5.e-002	17.059
8990	16.6	2.8182	0.	465.7
8991	16.683	2.7273	0.	455.64
8992	16.508	2.7273	0.	463.27
8993	16.6	2.7273	5.e-002	8.5602
8994	16.6	3.	0.	453.97
8995	16.683	2.9091	0.	435.31
8996	16.508	2.9091	0.	443.63
8997	16.6	2.9091	5.e-002	4.5874
8998	16.6	3.1818	0.	465.7
8999	16.683	3.0909	0.	435.31
9000	16.508	3.0909	0.	443.63
9001	16.6	3.0909	5.e-002	4.5874
9002	16.6	3.3636	0.	503.87
9003	16.683	3.2727	0.	455.64
9004	16.508	3.2727	0.	463.27
9005	16.6	3.2727	5.e-002	8.5602
9006	16.6	3.5455	0.	580.67
9007	16.683	3.4545	0.	499.29
9008	16.508	3.4545	0.	505.77
9009	16.6	3.4545	5.e-002	17.059
9010	16.6	3.7273	0.	737.78
9011	16.683	3.6364	0.	574.53
9012	16.508	3.6364	0.	593.44
9013	16.6	3.6364	5.e-002	35.822
9014	16.683	3.8182	0.	654.96
9015	16.508	3.8182	0.	756.31
9016	16.6	3.8182	5.e-002	227.34
9017	16.6	3.9091	0.	1408.2
9018	16.767	2.2727	0.	559.19
9019	16.857	2.1818	0.	416.82
9020	16.767	2.1818	5.e-002	188.2
9021	16.767	2.0909	0.	664.55
9022	16.767	2.4545	0.	511.96
9023	16.857	2.3636	0.	439.82
9024	16.767	2.3636	5.e-002	39.907
9025	16.767	2.6364	0.	455.84
9026	16.857	2.5455	0.	401.19
9027	16.767	2.5455	5.e-002	18.94
9028	16.767	2.8182	0.	426.01
9029	16.857	2.7273	0.	379.68
9030	16.767	2.7273	5.e-002	10.653
9031	16.767	3.	0.	416.44
9032	16.857	2.9091	0.	368.09
9033	16.767	2.9091	5.e-002	7.1716
9034	16.767	3.1818	0.	426.01
9035	16.857	3.0909	0.	368.09
9036	16.767	3.0909	5.e-002	7.1717
9037	16.767	3.3636	0.	455.84
9038	16.857	3.2727	0.	379.68
9039	16.767	3.2727	5.e-002	10.653
9040	16.767	3.5455	0.	511.96
9041	16.857	3.4545	0.	401.19
9042	16.767	3.4545	5.e-002	18.94
9043	16.767	3.7273	0.	559.19
9044	16.857	3.6364	0.	439.82
9045	16.767	3.6364	5.e-002	39.907
9046	16.857	3.8182	0.	416.82
9047	16.767	3.8182	5.e-002	188.2
9048	16.767	3.9091	0.	664.55
9049	16.416	5.7273	0.	95.782
9050	16.323	5.8182	0.	44.886
9051	16.416	5.8182	5.e-002	27.551
9052	16.416	5.9091	0.	22.574
9053	16.508	5.8182	0.	30.814
9054	16.416	5.5455	0.	195.53
9055	16.323	5.6364	0.	104.39
9056	16.416	5.6364	5.e-002	24.946
9057	16.508	5.6364	0.	105.34
9058	16.416	5.3636	0.	324.45
9059	16.323	5.4545	0.	205.04
9060	16.416	5.4545	5.e-002	26.251
9061	16.508	5.4545	0.	204.15
9062	16.416	5.1818	0.	475.59
9063	16.323	5.2727	0.	329.33
9064	16.416	5.2727	5.e-002	28.986
9065	16.508	5.2727	0.	320.8
9066	16.416	5.	0.	651.59
9067	16.323	5.0909	0.	473.71
9068	16.416	5.0909	5.e-002	33.152
9069	16.508	5.0909	0.	457.27
9070	16.416	4.8182	0.	860.35
9071	16.323	4.9091	0.	639.42
9072	16.416	4.9091	5.e-002	39.107
9073	16.508	4.9091	0.	619.27
9074	16.416	4.6364	0.	1113.2
9075	16.323	4.7273	0.	830.96
9076	16.416	4.7273	5.e-002	48.42
9077	16.508	4.7273	0.	817.54
9078	16.416	4.4545	0.	1442.4
9079	16.323	4.5455	0.	1047.6
9080	16.416	4.5455	5.e-002	60.159
9081	16.508	4.5455	0.	1075.8
9082	16.416	4.2727	0.	1770.4
9083	16.323	4.3636	0.	1297.4
9084	16.416	4.3636	5.e-002	91.346
9085	16.508	4.3636	0.	1393.5
9086	16.416	4.0909	0.	1661.4
9087	16.323	4.1818	0.	1458.7
9088	16.416	4.1818	5.e-002	175.06
9089	16.508	4.1818	0.	2095.2
9090	16.416	3.9091	0.	1060.9
9091	16.323	4.	0.	1116.3
9092	16.416	4.	5.e-002	316.49
9093	16.508	4.	0.	1655.
9094	16.416	3.7273	0.	654.37
9095	16.323	3.8182	0.	649.92
9096	16.416	3.8182	5.e-002	133.65
9097	16.416	3.5455	0.	529.41
9098	16.323	3.6364	0.	505.71
9099	16.416	3.6364	5.e-002	58.342
9100	16.416	3.3636	0.	468.56
9101	16.323	3.4545	0.	442.24
9102	16.416	3.4545	5.e-002	31.823
9103	16.416	3.1818	0.	441.73
9104	16.323	3.2727	0.	414.13
9105	16.416	3.2727	5.e-002	18.676
9106	16.416	3.	0.	433.09
9107	16.323	3.0909	0.	401.6
9108	16.416	3.0909	5.e-002	14.065
9109	16.416	2.8182	0.	441.73
9110	16.323	2.9091	0.	401.6
9111	16.416	2.9091	5.e-002	14.065
9112	16.416	2.6364	0.	468.56
9113	16.323	2.7273	0.	414.13
9114	16.416	2.7273	5.e-002	18.676
9115	16.416	2.4545	0.	529.41
9116	16.323	2.5455	0.	442.24
9117	16.416	2.5455	5.e-002	31.823
9118	16.416	2.2727	0.	654.37
9119	16.323	2.3636	0.	505.71
9120	16.416	2.3636	5.e-002	58.342
9121	16.416	2.0909	0.	1060.9
9122	16.323	2.1818	0.	649.92
9123	16.416	2.1818	5.e-002	133.65
9124	16.416	1.9091	0.	1661.4
9125	16.323	2.	0.	1116.3
9126	16.416	2.	5.e-002	316.49
9127	16.508	2.	0.	1655.
9128	16.416	1.7273	0.	1770.4
9129	16.323	1.8182	0.	1458.7
9130	16.416	1.8182	5.e-002	175.06
9131	16.508	1.8182	0.	2095.2
9132	16.416	1.5455	0.	1442.4
9133	16.323	1.6364	0.	1297.4
9134	16.416	1.6364	5.e-002	91.346
9135	16.508	1.6364	0.	1393.5
9136	16.416	1.3636	0.	1113.2
9137	16.323	1.4545	0.	1047.6
9138	16.416	1.4545	5.e-002	60.159
9139	16.508	1.4545	0.	1075.8
9140	16.416	1.1818	0.	860.35
9141	16.323	1.2727	0.	830.96
9142	16.416	1.2727	5.e-002	48.42
9143	16.508	1.2727	0.	817.54
9144	16.416	1.	0.	651.59
9145	16.323	1.0909	0.	639.42
9146	16.416	1.0909	5.e-002	39.107
9147	16.508	1.0909	0.	619.27
9148	16.416	0.81818	0.	475.59
9149	16.323	0.90909	0.	473.71
9150	16.416	0.90909	5.e-002	33.152
9151	16.508	0.90909	0.	457.27
9152	16.416	0.63636	0.	324.45
9153	16.323	0.72727	0.	329.33
9154	16.416	0.72727	5.e-002	28.986
9155	16.508	0.72727	0.	320.8
9156	16.416	0.45455	0.	195.53
9157	16.323	0.54545	0.	205.04
9158	16.416	0.54545	5.e-002	26.251
9159	16.508	0.54545	0.	204.15
9160	16.416	0.27273	0.	95.782
9161	16.323	0.36364	0.	104.39
9162	16.416	0.36364	5.e-002	24.946
9163	16.508	0.36364	0.	105.34
9164	16.323	0.18182	0.	44.886
9165	16.416	0.18182	5.e-002	27.551
9166	16.416	9.0909e-002	0.	22.574
9167	16.508	0.18182	0.	30.814
9168	16.231	5.7273	0.	65.075
9169	16.139	5.8182	0.	41.349
9170	16.231	5.8182	5.e-002	25.666
9171	16.231	5.9091	0.	18.546
9172	16.231	5.5455	0.	131.36
9173	16.139	5.6364	0.	83.746
9174	16.231	5.6364	5.e-002	22.901
9175	16.231	5.3636	0.	228.29
9176	16.139	5.4545	0.	157.06
9177	16.231	5.4545	5.e-002	23.232
9178	16.231	5.1818	0.	346.31
9179	16.139	5.2727	0.	252.53
9180	16.231	5.2727	5.e-002	24.519
9181	16.231	5.	0.	481.9
9182	16.139	5.0909	0.	364.6
9183	16.231	5.0909	5.e-002	26.696
9184	16.231	4.8182	0.	633.74
9185	16.139	4.9091	0.	489.37
9186	16.231	4.9091	5.e-002	29.887
9187	16.231	4.6364	0.	794.77
9188	16.139	4.7273	0.	622.23
9189	16.231	4.7273	5.e-002	33.962
9190	16.231	4.4545	0.	945.11
9191	16.139	4.5455	0.	749.59
9192	16.231	4.5455	5.e-002	41.398
9193	16.231	4.2727	0.	1020.6
9194	16.139	4.3636	0.	844.16
9195	16.231	4.3636	5.e-002	38.585
9196	16.231	4.0909	0.	904.23
9197	16.139	4.1818	0.	834.34
9198	16.231	4.1818	5.e-002	54.775
9199	16.231	3.9091	0.	668.72
9200	16.139	4.	0.	662.35
9201	16.231	4.	5.e-002	45.996
9202	16.231	3.7273	0.	491.84
9203	16.139	3.8182	0.	481.93
9204	16.231	3.8182	5.e-002	64.059
9205	16.231	3.5455	0.	415.3
9206	16.139	3.6364	0.	388.03
9207	16.231	3.6364	5.e-002	43.681
9208	16.231	3.3636	0.	386.37
9209	16.139	3.4545	0.	353.5
9210	16.231	3.4545	5.e-002	32.46
9211	16.231	3.1818	0.	372.84
9212	16.139	3.2727	0.	337.96
9213	16.231	3.2727	5.e-002	23.054
9214	16.231	3.	0.	368.96
9215	16.139	3.0909	0.	332.14
9216	16.231	3.0909	5.e-002	19.05
9217	16.231	2.8182	0.	372.84
9218	16.139	2.9091	0.	332.14
9219	16.231	2.9091	5.e-002	19.05
9220	16.231	2.6364	0.	386.37
9221	16.139	2.7273	0.	337.96
9222	16.231	2.7273	5.e-002	23.054
9223	16.231	2.4545	0.	415.3
9224	16.139	2.5455	0.	353.5
9225	16.231	2.5455	5.e-002	32.46
9226	16.231	2.2727	0.	491.84
9227	16.139	2.3636	0.	388.03
9228	16.231	2.3636	5.e-002	43.682
9229	16.231	2.0909	0.	668.72
9230	16.139	2.1818	0.	481.93
9231	16.231	2.1818	5.e-002	64.059
9232	16.231	1.9091	0.	904.23
9233	16.139	2.	0.	662.35
9234	16.231	2.	5.e-002	45.996
9235	16.231	1.7273	0.	1020.6
9236	16.139	1.8182	0.	834.34
9237	16.231	1.8182	5.e-002	54.775
9238	16.231	1.5455	0.	945.11
9239	16.139	1.6364	0.	844.16
9240	16.231	1.6364	5.e-002	38.585
9241	16.231	1.3636	0.	794.77
9242	16.139	1.4545	0.	749.59
9243	16.231	1.4545	5.e-002	41.398
9244	16.231	1.1818	0.	633.74
9245	16.139	1.2727	0.	622.23
9246	16.231	1.2727	5.e-002	33.962
9247	16.231	1.	0.	481.9
9248	16.139	1.0909	0.	489.38
9249	16.231	1.0909	5.e-002	29.887
9250	16.231	0.81818	0.	346.31
9251	16.139	0.90909	0.	364.6
9252	16.231	0.90909	5.e-002	26.696
9253	16.231	0.63636	0.	228.29
9254	16.139	0.72727	0.	252.53
9255	16.231	0.72727	5.e-002	24.519
9256	16.231	0.45455	0.	131.36
9257	16.139	0.54545	0.	157.06
9258	16.231	0.54545	5.e-002	23.232
9259	16.231	0.27273	0.	65.075
9260	16.139	0.36364	0.	83.746
9261	16.231	0.36364	5.e-002	22.901
9262	16.139	0.18182	0.	41.349
9263	16.231	0.18182	5.e-002	25.666
9264	16.231	9.0909e-002	0.	18.546
9265	16.047	5.7273	0.	63.178
9266	15.954	5.8182	0.	42.579
9267	16.047	5.8182	5.e-002	24.426
9268	16.047	5.9091	0.	20.628
9269	16.047	5.5455	0.	116.65
9270	15.954	5.6364	0.	83.486
9271	16.047	5.6364	5.e-002	21.921
9272	16.047	5.3636	0.	191.7
9273	15.954	5.4545	0.	142.22
9274	16.047	5.4545	5.e-002	22.079
9275	16.047	5.1818	0.	283.18
9276	15.954	5.2727	0.	216.28
9277	16.047	5.2727	5.e-002	22.818
9278	16.047	5.	0.	385.97
9279	15.954	5.0909	0.	301.68
9280	16.047	5.0909	5.e-002	23.948
9281	16.047	4.8182	0.	493.26
9282	15.954	4.9091	0.	392.93
9283	16.047	4.9091	5.e-002	25.339
9284	16.047	4.6364	0.	593.57
9285	15.954	4.7273	0.	481.63
9286	16.047	4.7273	5.e-002	26.465
9287	16.047	4.4545	0.	662.96
9288	15.954	4.5455	0.	554.27
9289	16.047	4.5455	5.e-002	25.935
9290	16.047	4.2727	0.	666.48
9291	15.954	4.3636	0.	586.16
9292	16.047	4.3636	5.e-002	25.118
9293	16.047	4.0909	0.	590.78
9294	15.954	4.1818	0.	552.63
9295	16.047	4.1818	5.e-002	22.233
9296	16.047	3.9091	0.	472.13
9297	15.954	4.	0.	462.83
9298	16.047	4.	5.e-002	28.406
9299	16.047	3.7273	0.	373.83
9300	15.954	3.8182	0.	364.88
9301	16.047	3.8182	5.e-002	30.645
9302	16.047	3.5455	0.	322.76
9303	15.954	3.6364	0.	302.81
9304	16.047	3.6364	5.e-002	30.037
9305	16.047	3.3636	0.	302.61
9306	15.954	3.4545	0.	275.18
9307	16.047	3.4545	5.e-002	25.327
9308	16.047	3.1818	0.	295.34
9309	15.954	3.2727	0.	264.52
9310	16.047	3.2727	5.e-002	21.59
9311	16.047	3.	0.	293.57
9312	15.954	3.0909	0.	261.07
9313	16.047	3.0909	5.e-002	19.435
9314	16.047	2.8182	0.	295.34
9315	15.954	2.9091	0.	261.07
9316	16.047	2.9091	5.e-002	19.435
9317	16.047	2.6364	0.	302.61
9318	15.954	2.7273	0.	264.52
9319	16.047	2.7273	5.e-002	21.59
9320	16.047	2.4545	0.	322.76
9321	15.954	2.5455	0.	275.18
9322	16.047	2.5455	5.e-002	25.327
9323	16.047	2.2727	0.	373.83
9324	15.954	2.3636	0.	302.81
9325	16.047	2.3636	5.e-002	30.037
9326	16.047	2.0909	0.	472.13
9327	15.954	2.1818	0.	364.88
9328	16.047	2.1818	5.e-002	30.645
9329	16.047	1.9091	0.	590.78
9330	15.954	2.	0.	462.83
9331	16.047	2.	5.e-002	28.407
9332	16.047	1.7273	0.	666.48
9333	15.954	1.8182	0.	552.63
9334	16.047	1.8182	5.e-002	22.233
9335	16.047	1.5455	0.	662.96
9336	15.954	1.6364	0.	586.17
9337	16.047	1.6364	5.e-002	25.118
9338	16.047	1.3636	0.	593.57
9339	15.954	1.4545	0.	554.27
9340	16.047	1.4545	5.e-002	25.935
9341	16.047	1.1818	0.	493.26
9342	15.954	1.2727	0.	481.63
9343	16.047	1.2727	5.e-002	26.465
9344	16.047	1.	0.	385.97
9345	15.954	1.0909	0.	392.93
9346	16.047	1.0909	5.e-002	25.339
9347	16.047	0.81818	0.	283.18
9348	15.954	0.90909	0.	301.68
9349	16.047	0.90909	5.e-002	23.948
9350	16.047	0.63636	0.	191.7
9351	15.954	0.72727	0.	216.28
9352	16.047	0.72727	5.e-002	22.818
9353	16.047	0.45455	0.	116.65
9354	15.954	0.54545	0.	142.22
9355	16.047	0.54545	5.e-002	22.079
9356	16.047	0.27273	0.	63.178
9357	15.954	0.36364	0.	83.486
9358	16.047	0.36364	5.e-002	21.921
9359	15.954	0.18182	0.	42.579
9360	16.047	0.18182	5.e-002	24.426
9361	16.047	9.0909e-002	0.	20.628
9362	15.862	5.7273	0.	64.26
9363	15.77	5.8182	0.	42.851
9364	15.862	5.8182	5.e-002	22.609
9365	15.862	5.9091	0.	22.009
9366	15.862	5.5455	0.	112.32
9367	15.77	5.6364	0.	84.641
9368	15.862	5.6364	5.e-002	20.313
9369	15.862	5.3636	0.	172.47
9370	15.77	5.4545	0.	134.82
9371	15.862	5.4545	5.e-002	20.26
9372	15.862	5.1818	0.	242.42
9373	15.77	5.2727	0.	193.17
9374	15.862	5.2727	5.e-002	20.471
9375	15.862	5.	0.	317.68
9376	15.77	5.0909	0.	257.22
9377	15.862	5.0909	5.e-002	20.71
9378	15.862	4.8182	0.	391.08
9379	15.77	4.9091	0.	321.93
9380	15.862	4.9091	5.e-002	20.728
9381	15.862	4.6364	0.	451.8
9382	15.77	4.7273	0.	379.66
9383	15.862	4.7273	5.e-002	20.122
9384	15.862	4.4545	0.	485.
9385	15.77	4.5455	0.	419.67
9386	15.862	4.5455	5.e-002	18.584
9387	15.862	4.2727	0.	476.29
9388	15.77	4.3636	0.	429.44
9389	15.862	4.3636	5.e-002	16.242
9390	15.862	4.0909	0.	425.91
9391	15.77	4.1818	0.	401.49
9392	15.862	4.1818	5.e-002	15.582
9393	15.862	3.9091	0.	355.36
9394	15.77	4.	0.	345.71
9395	15.862	4.	5.e-002	17.449
9396	15.862	3.7273	0.	292.81
9397	15.77	3.8182	0.	285.38
9398	15.862	3.8182	5.e-002	19.006
9399	15.862	3.5455	0.	253.65
9400	15.77	3.6364	0.	240.64
9401	15.862	3.6364	5.e-002	19.494
9402	15.862	3.3636	0.	235.39
9403	15.77	3.4545	0.	216.18
9404	15.862	3.4545	5.e-002	18.821
9405	15.862	3.1818	0.	228.6
9406	15.77	3.2727	0.	205.5
9407	15.862	3.2727	5.e-002	17.75
9408	15.862	3.	0.	226.97
9409	15.77	3.0909	0.	201.8
9410	15.862	3.0909	5.e-002	17.007
9411	15.862	2.8182	0.	228.6
9412	15.77	2.9091	0.	201.8
9413	15.862	2.9091	5.e-002	17.007
9414	15.862	2.6364	0.	235.39
9415	15.77	2.7273	0.	205.5
9416	15.862	2.7273	5.e-002	17.75
9417	15.862	2.4545	0.	253.65
9418	15.77	2.5455	0.	216.18
9419	15.862	2.5455	5.e-002	18.821
9420	15.862	2.2727	0.	292.81
9421	15.77	2.3636	0.	240.64
9422	15.862	2.3636	5.e-002	19.494
9423	15.862	2.0909	0.	355.36
9424	15.77	2.1818	0.	285.38
9425	15.862	2.1818	5.e-002	19.006
9426	15.862	1.9091	0.	425.91
9427	15.77	2.	0.	345.71
9428	15.862	2.	5.e-002	17.449
9429	15.862	1.7273	0.	476.29
9430	15.77	1.8182	0.	401.49
9431	15.862	1.8182	5.e-002	15.582
9432	15.862	1.5455	0.	485.
9433	15.77	1.6364	0.	429.44
9434	15.862	1.6364	5.e-002	16.242
9435	15.862	1.3636	0.	451.8
9436	15.77	1.4545	0.	419.67
9437	15.862	1.4545	5.e-002	18.584
9438	15.862	1.1818	0.	391.08
9439	15.77	1.2727	0.	379.66
9440	15.862	1.2727	5.e-002	20.122
9441	15.862	1.	0.	317.68
9442	15.77	1.0909	0.	321.93
9443	15.862	1.0909	5.e-002	20.728
9444	15.862	0.81818	0.	242.42
9445	15.77	0.90909	0.	257.22
9446	15.862	0.90909	5.e-002	20.71
9447	15.862	0.63636	0.	172.47
9448	15.77	0.72727	0.	193.17
9449	15.862	0.72727	5.e-002	20.471
9450	15.862	0.45455	0.	112.32
9451	15.77	0.54545	0.	134.82
9452	15.862	0.54545	5.e-002	20.26
9453	15.862	0.27273	0.	64.26
9454	15.77	0.36364	0.	84.641
9455	15.862	0.36364	5.e-002	20.313
9456	15.77	0.18182	0.	42.851
9457	15.862	0.18182	5.e-002	22.609
9458	15.862	9.0909e-002	0.	22.009
9459	15.678	5.7273	0.	63.995
9460	15.586	5.8182	0.	41.817
9461	15.678	5.8182	5.e-002	20.419
9462	15.678	5.9091	0.	22.182
9463	15.678	5.5455	0.	108.86
9464	15.586	5.6364	0.	83.851
9465	15.678	5.6364	5.e-002	18.46
9466	15.678	5.3636	0.	158.7
9467	15.586	5.4545	0.	128.12
9468	15.678	5.4545	5.e-002	18.211
9469	15.678	5.1818	0.	212.52
9470	15.586	5.2727	0.	175.09
9471	15.678	5.2727	5.e-002	18.026
9472	15.678	5.	0.	267.01
9473	15.586	5.0909	0.	223.23
9474	15.678	5.0909	5.e-002	17.687
9475	15.678	4.8182	0.	316.44
9476	15.586	4.9091	0.	268.69
9477	15.678	4.9091	5.e-002	17.003
9478	15.678	4.6364	0.	353.08
9479	15.586	4.7273	0.	305.82
9480	15.678	4.7273	5.e-002	15.795
9481	15.678	4.4545	0.	368.43
9482	15.586	4.5455	0.	327.74
9483	15.678	4.5455	5.e-002	14.028
9484	15.678	4.2727	0.	357.33
9485	15.586	4.3636	0.	328.38
9486	15.678	4.3636	5.e-002	12.27
9487	15.678	4.0909	0.	322.62
9488	15.586	4.1818	0.	306.6
9489	15.678	4.1818	5.e-002	11.602
9490	15.678	3.9091	0.	276.22
9491	15.586	4.	0.	268.95
9492	15.678	4.	5.e-002	12.107
9493	15.678	3.7273	0.	233.13
9494	15.586	3.8182	0.	227.9
9495	15.678	3.8182	5.e-002	12.857
9496	15.678	3.5455	0.	202.59
9497	15.586	3.6364	0.	194.52
9498	15.678	3.6364	5.e-002	13.373
9499	15.678	3.3636	0.	185.37
9500	15.586	3.4545	0.	173.01
9501	15.678	3.4545	5.e-002	13.634
9502	15.678	3.1818	0.	177.61
9503	15.586	3.2727	0.	161.71
9504	15.678	3.2727	5.e-002	13.63
9505	15.678	3.	0.	175.5
9506	15.586	3.0909	0.	157.17
9507	15.678	3.0909	5.e-002	13.556
9508	15.678	2.8182	0.	177.61
9509	15.586	2.9091	0.	157.17
9510	15.678	2.9091	5.e-002	13.556
9511	15.678	2.6364	0.	185.37
9512	15.586	2.7273	0.	161.71
9513	15.678	2.7273	5.e-002	13.63
9514	15.678	2.4545	0.	202.59
9515	15.586	2.5455	0.	173.01
9516	15.678	2.5455	5.e-002	13.634
9517	15.678	2.2727	0.	233.13
9518	15.586	2.3636	0.	194.52
9519	15.678	2.3636	5.e-002	13.373
9520	15.678	2.0909	0.	276.22
9521	15.586	2.1818	0.	227.9
9522	15.678	2.1818	5.e-002	12.857
9523	15.678	1.9091	0.	322.62
9524	15.586	2.	0.	268.95
9525	15.678	2.	5.e-002	12.107
9526	15.678	1.7273	0.	357.33
9527	15.586	1.8182	0.	306.6
9528	15.678	1.8182	5.e-002	11.602
9529	15.678	1.5455	0.	368.43
9530	15.586	1.6364	0.	328.38
9531	15.678	1.6364	5.e-002	12.27
9532	15.678	1.3636	0.	353.08
9533	15.586	1.4545	0.	327.74
9534	15.678	1.4545	5.e-002	14.028
9535	15.678	1.1818	0.	316.44
9536	15.586	1.2727	0.	305.82
9537	15.678	1.2727	5.e-002	15.795
9538	15.678	1.	0.	267.01
9539	15.586	1.0909	0.	268.69
9540	15.678	1.0909	5.e-002	17.003
9541	15.678	0.81818	0.	212.52
9542	15.586	0.90909	0.	223.23
9543	15.678	0.90909	5.e-002	17.687
9544	15.678	0.63636	0.	158.7
9545	15.586	0.72727	0.	175.09
9546	15.678	0.72727	5.e-002	18.026
9547	15.678	0.45455	0.	108.86
9548	15.586	0.54545	0.	128.12
9549	15.678	0.54545	5.e-002	18.211
9550	15.678	0.27273	0.	63.995
9551	15.586	0.36364	0.	83.851
9552	15.678	0.36364	5.e-002	18.46
9553	15.586	0.18182	0.	41.817
9554	15.678	0.18182	5.e-002	20.419
9555	15.678	9.0909e-002	0.	22.182
9556	15.493	5.7273	0.	62.121
9557	15.401	5.8182	0.	39.921
9558	15.493	5.8182	5.e-002	18.067
9559	15.493	5.9091	0.	21.622
9560	15.493	5.5455	0.	104.12
9561	15.401	5.6364	0.	80.94
9562	15.493	5.6364	5.e-002	16.555
9563	15.493	5.3636	0.	146.37
9564	15.401	5.4545	0.	120.45
9565	15.493	5.4545	5.e-002	16.173
9566	15.493	5.1818	0.	188.5
9567	15.401	5.2727	0.	159.03
9568	15.493	5.2727	5.e-002	15.746
9569	15.493	5.	0.	228.22
9570	15.401	5.0909	0.	195.73
9571	15.493	5.0909	5.e-002	15.111
9572	15.493	4.8182	0.	261.59
9573	15.401	4.9091	0.	227.92
9574	15.493	4.9091	5.e-002	14.166
9575	15.493	4.6364	0.	283.74
9576	15.401	4.7273	0.	251.88
9577	15.493	4.7273	5.e-002	12.856
9578	15.493	4.4545	0.	290.27
9579	15.401	4.5455	0.	263.67
9580	15.493	4.5455	5.e-002	11.298
9581	15.493	4.2727	0.	279.41
9582	15.401	4.3636	0.	260.62
9583	15.493	4.3636	5.e-002	9.8642
9584	15.493	4.0909	0.	253.99
9585	15.401	4.1818	0.	243.2
9586	15.493	4.1818	5.e-002	9.0359
9587	15.493	3.9091	0.	221.19
9588	15.401	4.	0.	215.97
9589	15.493	4.	5.e-002	8.873
9590	15.493	3.7273	0.	189.46
9591	15.401	3.8182	0.	186.06
9592	15.493	3.8182	5.e-002	9.0572
9593	15.493	3.5455	0.	164.77
9594	15.401	3.6364	0.	160.03
9595	15.493	3.6364	5.e-002	9.3673
9596	15.493	3.3636	0.	148.9
9597	15.401	3.4545	0.	141.34
9598	15.493	3.4545	5.e-002	9.7095
9599	15.493	3.1818	0.	140.64
9600	15.401	3.2727	0.	130.16
9601	15.493	3.2727	5.e-002	9.9742
9602	15.493	3.	0.	138.15
9603	15.401	3.0909	0.	125.13
9604	15.493	3.0909	5.e-002	10.108
9605	15.493	2.8182	0.	140.64
9606	15.401	2.9091	0.	125.13
9607	15.493	2.9091	5.e-002	10.108
9608	15.493	2.6364	0.	148.9
9609	15.401	2.7273	0.	130.16
9610	15.493	2.7273	5.e-002	9.9742
9611	15.493	2.4545	0.	164.77
9612	15.401	2.5455	0.	141.34
9613	15.493	2.5455	5.e-002	9.7095
9614	15.493	2.2727	0.	189.46
9615	15.401	2.3636	0.	160.03
9616	15.493	2.3636	5.e-002	9.3673
9617	15.493	2.0909	0.	221.19
9618	15.401	2.1818	0.	186.06
9619	15.493	2.1818	5.e-002	9.0572
9620	15.493	1.9091	0.	253.99
9621	15.401	2.	0.	215.97
9622	15.493	2.	5.e-002	8.873
9623	15.493	1.7273	0.	279.41
9624	15.401	1.8182	0.	243.2
9625	15.493	1.8182	5.e-002	9.0359
9626	15.493	1.5455	0.	290.27
9627	15.401	1.6364	0.	260.62
9628	15.493	1.6364	5.e-002	9.8642
9629	15.493	1.3636	0.	283.74
9630	15.401	1.4545	0.	263.67
9631	15.493	1.4545	5.e-002	11.298
9632	15.493	1.1818	0.	261.59
9633	15.401	1.2727	0.	251.88
9634	15.493	1.2727	5.e-002	12.856
9635	15.493	1.	0.	228.22
9636	15.401	1.0909	0.	227.92
9637	15.493	1.0909	5.e-002	14.166
9638	15.493	0.81818	0.	188.5
9639	15.401	0.90909	0.	195.73
9640	15.493	0.90909	5.e-002	15.111
9641	15.493	0.63636	0.	146.37
9642	15.401	0.72727	0.	159.03
9643	15.493	0.72727	5.e-002	15.746
9644	15.493	0.45455	0.	104.12
9645	15.401	0.54545	0.	120.45
9646	15.493	0.54545	5.e-002	16.173
9647	15.493	0.27273	0.	62.121
9648	15.401	0.36364	0.	80.94
9649	15.493	0.36364	5.e-002	16.555
9650	15.401	0.18182	0.	39.921
9651	15.493	0.18182	5.e-002	18.067
9652	15.493	9.0909e-002	0.	21.622
9653	15.309	5.7273	0.	58.985
9654	15.217	5.8182	0.	37.534
9655	15.309	5.8182	5.e-002	15.724
9656	15.309	5.9091	0.	20.629
9657	15.309	5.5455	0.	97.895
9658	15.217	5.6364	0.	76.42
9659	15.309	5.6364	5.e-002	14.733
9660	15.309	5.3636	0.	134.23
9661	15.217	5.4545	0.	111.73
9662	15.309	5.4545	5.e-002	14.294
9663	15.309	5.1818	0.	167.87
9664	15.217	5.2727	0.	143.95
9665	15.309	5.2727	5.e-002	13.753
9666	15.309	5.	0.	197.38
9667	15.217	5.0909	0.	172.52
9668	15.309	5.0909	5.e-002	13.015
9669	15.309	4.8182	0.	220.27
9670	15.217	4.9091	0.	195.76
9671	15.309	4.9091	5.e-002	12.034
9672	15.309	4.6364	0.	233.72
9673	15.217	4.7273	0.	211.45
9674	15.309	4.7273	5.e-002	10.822
9675	15.309	4.4545	0.	235.58
9676	15.217	4.5455	0.	217.5
9677	15.309	4.5455	5.e-002	9.4882
9678	15.309	4.2727	0.	225.55
9679	15.217	4.3636	0.	212.91
9680	15.309	4.3636	5.e-002	8.2523
9681	15.309	4.0909	0.	205.94
9682	15.217	4.1818	0.	198.63
9683	15.309	4.1818	5.e-002	7.3354
9684	15.309	3.9091	0.	181.29
9685	15.217	4.	0.	177.8
9686	15.309	4.	5.e-002	6.8035
9687	15.309	3.7273	0.	156.84
9688	15.217	3.8182	0.	154.86
9689	15.309	3.8182	5.e-002	6.5774
9690	15.309	3.5455	0.	136.59
9691	15.217	3.6364	0.	134.02
9692	15.309	3.6364	5.e-002	6.5826
9693	15.309	3.3636	0.	122.39
9694	15.217	3.4545	0.	117.95
9695	15.309	3.4545	5.e-002	6.745
9696	15.309	3.1818	0.	114.31
9697	15.217	3.2727	0.	107.53
9698	15.309	3.2727	5.e-002	6.9504
9699	15.309	3.	0.	111.73
9700	15.217	3.0909	0.	102.51
9701	15.309	3.0909	5.e-002	7.0832
9702	15.309	2.8182	0.	114.31
9703	15.217	2.9091	0.	102.51
9704	15.309	2.9091	5.e-002	7.0832
9705	15.309	2.6364	0.	122.39
9706	15.217	2.7273	0.	107.53
9707	15.309	2.7273	5.e-002	6.9504
9708	15.309	2.4545	0.	136.59
9709	15.217	2.5455	0.	117.95
9710	15.309	2.5455	5.e-002	6.745
9711	15.309	2.2727	0.	156.84
9712	15.217	2.3636	0.	134.02
9713	15.309	2.3636	5.e-002	6.5826
9714	15.309	2.0909	0.	181.29
9715	15.217	2.1818	0.	154.86
9716	15.309	2.1818	5.e-002	6.5774
9717	15.309	1.9091	0.	205.94
9718	15.217	2.	0.	177.8
9719	15.309	2.	5.e-002	6.8035
9720	15.309	1.7273	0.	225.55
9721	15.217	1.8182	0.	198.64
9722	15.309	1.8182	5.e-002	7.3354
9723	15.309	1.5455	0.	235.58
9724	15.217	1.6364	0.	212.91
9725	15.309	1.6364	5.e-002	8.2523
9726	15.309	1.3636	0.	233.72
9727	15.217	1.4545	0.	217.5
9728	15.309	1.4545	5.e-002	9.4882
9729	15.309	1.1818	0.	220.27
9730	15.217	1.2727	0.	211.45
9731	15.309	1.2727	5.e-002	10.822
9732	15.309	1.	0.	197.38
9733	15.217	1.0909	0.	195.76
9734	15.309	1.0909	5.e-002	12.034
9735	15.309	0.81818	0.	167.87
9736	15.217	0.90909	0.	172.52
9737	15.309	0.90909	5.e-002	13.015
9738	15.309	0.63636	0.	134.23
9739	15.217	0.72727	0.	143.95
9740	15.309	0.72727	5.e-002	13.753
9741	15.309	0.45455	0.	97.895
9742	15.217	0.54545	0.	111.73
9743	15.309	0.54545	5.e-002	14.294
9744	15.309	0.27273	0.	58.985
9745	15.217	0.36364	0.	76.42
9746	15.309	0.36364	5.e-002	14.733
9747	15.217	0.18182	0.	37.534
9748	15.309	0.18182	5.e-002	15.724
9749	15.309	9.0909e-002	0.	20.629
9750	15.124	5.7273	0.	55.076
9751	15.032	5.8182	0.	34.952
9752	15.124	5.8182	5.e-002	13.51
9753	15.124	5.9091	0.	19.436
9754	15.124	5.5455	0.	90.644
9755	15.032	5.6364	0.	70.924
9756	15.124	5.6364	5.e-002	13.074
9757	15.124	5.3636	0.	122.14
9758	15.032	5.4545	0.	102.38
9759	15.124	5.4545	5.e-002	12.639
9760	15.124	5.1818	0.	149.56
9761	15.032	5.2727	0.	129.64
9762	15.124	5.2727	5.e-002	12.073
9763	15.124	5.	0.	172.04
9764	15.032	5.0909	0.	152.4
9765	15.124	5.0909	5.e-002	11.339
9766	15.124	4.8182	0.	188.15
9767	15.032	4.9091	0.	169.65
9768	15.124	4.9091	5.e-002	10.427
9769	15.124	4.6364	0.	196.37
9770	15.032	4.7273	0.	180.18
9771	15.124	4.7273	5.e-002	9.3642
9772	15.124	4.4545	0.	195.79
9773	15.032	4.5455	0.	183.
9774	15.124	4.5455	5.e-002	8.2298
9775	15.124	4.2727	0.	186.72
9776	15.032	4.3636	0.	177.93
9777	15.124	4.3636	5.e-002	7.1406
9778	15.124	4.0909	0.	171.
9779	15.032	4.1818	0.	165.98
9780	15.124	4.1818	5.e-002	6.2034
9781	15.124	3.9091	0.	151.68
9782	15.032	4.	0.	149.41
9783	15.124	4.	5.e-002	5.4674
9784	15.124	3.7273	0.	132.21
9785	15.032	3.8182	0.	131.19
9786	15.124	3.8182	5.e-002	4.9391
9787	15.124	3.5455	0.	115.42
9788	15.032	3.6364	0.	114.2
9789	15.124	3.6364	5.e-002	4.6257
9790	15.124	3.3636	0.	103.01
9791	15.032	3.4545	0.	100.51
9792	15.124	3.4545	5.e-002	4.5167
9793	15.124	3.1818	0.	95.565
9794	15.032	3.2727	0.	91.179
9795	15.124	3.2727	5.e-002	4.5388
9796	15.124	3.	0.	93.106
9797	15.032	3.0909	0.	86.516
9798	15.124	3.0909	5.e-002	4.5856
9799	15.124	2.8182	0.	95.565
9800	15.032	2.9091	0.	86.516
9801	15.124	2.9091	5.e-002	4.5856
9802	15.124	2.6364	0.	103.01
9803	15.032	2.7273	0.	91.179
9804	15.124	2.7273	5.e-002	4.5388
9805	15.124	2.4545	0.	115.42
9806	15.032	2.5455	0.	100.51
9807	15.124	2.5455	5.e-002	4.5168
9808	15.124	2.2727	0.	132.21
9809	15.032	2.3636	0.	114.2
9810	15.124	2.3636	5.e-002	4.6257
9811	15.124	2.0909	0.	151.68
9812	15.032	2.1818	0.	131.19
9813	15.124	2.1818	5.e-002	4.9391
9814	15.124	1.9091	0.	171.
9815	15.032	2.	0.	149.41
9816	15.124	2.	5.e-002	5.4674
9817	15.124	1.7273	0.	186.72
9818	15.032	1.8182	0.	165.98
9819	15.124	1.8182	5.e-002	6.2034
9820	15.124	1.5455	0.	195.79
9821	15.032	1.6364	0.	177.93
9822	15.124	1.6364	5.e-002	7.1406
9823	15.124	1.3636	0.	196.37
9824	15.032	1.4545	0.	183.
9825	15.124	1.4545	5.e-002	8.2298
9826	15.124	1.1818	0.	188.15
9827	15.032	1.2727	0.	180.18
9828	15.124	1.2727	5.e-002	9.3642
9829	15.124	1.	0.	172.04
9830	15.032	1.0909	0.	169.65
9831	15.124	1.0909	5.e-002	10.427
9832	15.124	0.81818	0.	149.56
9833	15.032	0.90909	0.	152.4
9834	15.124	0.90909	5.e-002	11.339
9835	15.124	0.63636	0.	122.14
9836	15.032	0.72727	0.	129.64
9837	15.124	0.72727	5.e-002	12.073
9838	15.124	0.45455	0.	90.644
9839	15.032	0.54545	0.	102.38
9840	15.124	0.54545	5.e-002	12.639
9841	15.124	0.27273	0.	55.076
9842	15.032	0.36364	0.	70.924
9843	15.124	0.36364	5.e-002	13.074
9844	15.032	0.18182	0.	34.952
9845	15.124	0.18182	5.e-002	13.51
9846	15.124	9.0909e-002	0.	19.436
9847	14.94	5.7273	0.	50.813
9848	14.848	5.8182	0.	32.374
9849	14.94	5.8182	5.e-002	11.496
9850	14.94	5.9091	0.	18.193
9851	14.94	5.5455	0.	82.901
9852	14.848	5.6364	0.	64.993
9853	14.94	5.6364	5.e-002	11.613
9854	14.94	5.3636	0.	110.31
9855	14.848	5.4545	0.	92.885
9856	14.94	5.4545	5.e-002	11.223
9857	14.94	5.1818	0.	133.06
9858	14.848	5.2727	0.	116.17
9859	14.94	5.2727	5.e-002	10.685
9860	14.94	5.	0.	150.68
9861	14.848	5.0909	0.	134.7
9862	14.94	5.0909	5.e-002	10.01
9863	14.94	4.8182	0.	162.39
9864	14.848	4.9091	0.	147.92
9865	14.94	4.9091	5.e-002	9.2038
9866	14.94	4.6364	0.	167.48
9867	14.848	4.7273	0.	155.23
9868	14.94	4.7273	5.e-002	8.2931
9869	14.94	4.4545	0.	165.71
9870	14.848	4.5455	0.	156.28
9871	14.94	4.5455	5.e-002	7.3285
9872	14.94	4.2727	0.	157.63
9873	14.848	4.3636	0.	151.27
9874	14.94	4.3636	5.e-002	6.3714
9875	14.94	4.0909	0.	144.71
9876	14.848	4.1818	0.	141.18
9877	14.94	4.1818	5.e-002	5.4714
9878	14.94	3.9091	0.	129.14
9879	14.848	4.	0.	127.68
9880	14.94	4.	5.e-002	4.6541
9881	14.94	3.7273	0.	113.31
9882	14.848	3.8182	0.	112.89
9883	14.94	3.8182	5.e-002	3.9349
9884	14.94	3.5455	0.	99.331
9885	14.848	3.6364	0.	98.891
9886	14.94	3.6364	5.e-002	3.3438
9887	14.94	3.3636	0.	88.655
9888	14.848	3.4545	0.	87.308
9889	14.94	3.4545	5.e-002	2.9219
9890	14.94	3.1818	0.	82.057
9891	14.848	3.2727	0.	79.184
9892	14.94	3.2727	5.e-002	2.6818
9893	14.94	3.	0.	79.836
9894	14.848	3.0909	0.	75.031
9895	14.94	3.0909	5.e-002	2.5853
9896	14.94	2.8182	0.	82.057
9897	14.848	2.9091	0.	75.032
9898	14.94	2.9091	5.e-002	2.5853
9899	14.94	2.6364	0.	88.655
9900	14.848	2.7273	0.	79.184
9901	14.94	2.7273	5.e-002	2.6818
9902	14.94	2.4545	0.	99.331
9903	14.848	2.5455	0.	87.308
9904	14.94	2.5455	5.e-002	2.9219
9905	14.94	2.2727	0.	113.31
9906	14.848	2.3636	0.	98.891
9907	14.94	2.3636	5.e-002	3.3438
9908	14.94	2.0909	0.	129.14
9909	14.848	2.1818	0.	112.89
9910	14.94	2.1818	5.e-002	3.9349
9911	14.94	1.9091	0.	144.72
9912	14.848	2.	0.	127.68
9913	14.94	2.	5.e-002	4.6541
9914	14.94	1.7273	0.	157.63
9915	14.848	1.8182	0.	141.18
9916	14.94	1.8182	5.e-002	5.4714
9917	14.94	1.5455	0.	165.71
9918	14.848	1.6364	0.	151.27
9919	14.94	1.6364	5.e-002	6.3714
9920	14.94	1.3636	0.	167.48
9921	14.848	1.4545	0.	156.28
9922	14.94	1.4545	5.e-002	7.3285
9923	14.94	1.1818	0.	162.39
9924	14.848	1.2727	0.	155.23
9925	14.94	1.2727	5.e-002	8.2931
9926	14.94	1.	0.	150.68
9927	14.848	1.0909	0.	147.92
9928	14.94	1.0909	5.e-002	9.2038
9929	14.94	0.81818	0.	133.06
9930	14.848	0.90909	0.	134.7
9931	14.94	0.90909	5.e-002	10.01
9932	14.94	0.63636	0.	110.31
9933	14.848	0.72727	0.	116.17
9934	14.94	0.72727	5.e-002	10.685
9935	14.94	0.45455	0.	82.901
9936	14.848	0.54545	0.	92.885
9937	14.94	0.54545	5.e-002	11.223
9938	14.94	0.27273	0.	50.813
9939	14.848	0.36364	0.	64.993
9940	14.94	0.36364	5.e-002	11.613
9941	14.848	0.18182	0.	32.374
9942	14.94	0.18182	5.e-002	11.496
9943	14.94	9.0909e-002	0.	18.193
9944	14.756	5.7273	0.	46.509
9945	14.663	5.8182	0.	29.927
9946	14.756	5.8182	5.e-002	9.7125
9947	14.756	5.9091	0.	16.991
9948	14.756	5.5455	0.	75.119
9949	14.663	5.6364	0.	59.029
9950	14.756	5.6364	5.e-002	10.358
9951	14.756	5.3636	0.	99.008
9952	14.663	5.4545	0.	83.631
9953	14.756	5.4545	5.e-002	10.036
9954	14.756	5.1818	0.	118.17
9955	14.663	5.2727	0.	103.66
9956	14.756	5.2727	5.e-002	9.5521
9957	14.756	5.	0.	132.35
9958	14.663	5.0909	0.	119.05
9959	14.756	5.0909	5.e-002	8.9576
9960	14.756	4.8182	0.	141.19
9961	14.663	4.9091	0.	129.5
9962	14.756	4.9091	5.e-002	8.2644
9963	14.756	4.6364	0.	144.43
9964	14.663	4.7273	0.	134.8
9965	14.756	4.7273	5.e-002	7.494
9966	14.756	4.4545	0.	142.19
9967	14.663	4.5455	0.	134.94
9968	14.756	4.5455	5.e-002	6.6773
9969	14.756	4.2727	0.	135.09
9970	14.663	4.3636	0.	130.3
9971	14.756	4.3636	5.e-002	5.8467
9972	14.756	4.0909	0.	124.35
9973	14.663	4.1818	0.	121.75
9974	14.756	4.1818	5.e-002	5.0248
9975	14.756	3.9091	0.	111.58
9976	14.663	4.	0.	110.62
9977	14.756	4.	5.e-002	4.2214
9978	14.756	3.7273	0.	98.562
9979	14.663	3.8182	0.	98.468
9980	14.756	3.8182	5.e-002	3.4402
9981	14.756	3.5455	0.	86.905
9982	14.663	3.6364	0.	86.868
9983	14.756	3.6364	5.e-002	2.6918
9984	14.756	3.3636	0.	77.835
9985	14.663	3.4545	0.	77.128
9986	14.756	3.4545	5.e-002	2.0012
9987	14.756	3.1818	0.	72.13
9988	14.663	3.2727	0.	70.183
9989	14.756	3.2727	5.e-002	1.4138
9990	14.756	3.	0.	70.188
9991	14.663	3.0909	0.	66.586
9992	14.756	3.0909	5.e-002	1.0295
9993	14.756	2.8182	0.	72.13
9994	14.663	2.9091	0.	66.586
9995	14.756	2.9091	5.e-002	1.0295
9996	14.756	2.6364	0.	77.835
9997	14.663	2.7273	0.	70.183
9998	14.756	2.7273	5.e-002	1.4138
9999	14.756	2.4545	0.	86.905
10000	14.663	2.5455	0.	77.128
10001	14.756	2.5455	5.e-002	2.0012
10002	14.756	2.2727	0.	98.562
10003	14.663	2.3636	0.	86.868
10004	14.756	2.3636	5.e-002	2.6918
10005	14.756	2.0909	0.	111.58
10006	14.663	2.1818	0.	98.468
10007	14.756	2.1818	5.e-002	3.4402
10008	14.756	1.9091	0.	124.35
10009	14.663	2.	0.	110.62
10010	14.756	2.	5.e-002	4.2214
10011	14.756	1.7273	0.	135.09
10012	14.663	1.8182	0.	121.75
10013	14.756	1.8182	5.e-002	5.0248
10014	14.756	1.5455	0.	142.19
10015	14.663	1.6364	0.	130.3
10016	14.756	1.6364	5.e-002	5.8467
10017	14.756	1.3636	0.	144.43
10018	14.663	1.4545	0.	134.94
10019	14.756	1.4545	5.e-002	6.6773
10020	14.756	1.1818	0.	141.19
10021	14.663	1.2727	0.	134.8
10022	14.756	1.2727	5.e-002	7.494
10023	14.756	1.	0.	132.35
10024	14.663	1.0909	0.	129.5
10025	14.756	1.0909	5.e-002	8.2645
10026	14.756	0.81818	0.	118.17
10027	14.663	0.90909	0.	119.05
10028	14.756	0.90909	5.e-002	8.9576
10029	14.756	0.63636	0.	99.008
10030	14.663	0.72727	0.	103.66
10031	14.756	0.72727	5.e-002	9.5521
10032	14.756	0.45455	0.	75.119
10033	14.663	0.54545	0.	83.631
10034	14.756	0.54545	5.e-002	10.036
10035	14.756	0.27273	0.	46.509
10036	14.663	0.36364	0.	59.029
10037	14.756	0.36364	5.e-002	10.358
10038	14.663	0.18182	0.	29.927
10039	14.756	0.18182	5.e-002	9.7125
10040	14.756	9.0909e-002	0.	16.991
10041	14.571	5.7273	0.	42.368
10042	14.479	5.8182	0.	27.678
10043	14.571	5.8182	5.e-002	8.1652
10044	14.571	5.9091	0.	15.879
10045	14.571	5.5455	0.	67.621
10046	14.479	5.6364	0.	53.3
10047	14.571	5.6364	5.e-002	9.2987
10048	14.571	5.3636	0.	88.44
10049	14.479	5.4545	0.	74.889
10050	14.571	5.4545	5.e-002	9.0533
10051	14.571	5.1818	0.	104.75
10052	14.479	5.2727	0.	92.192
10053	14.571	5.2727	5.e-002	8.6345
10054	14.571	5.	0.	116.44
10055	14.479	5.0909	0.	105.16
10056	14.571	5.0909	5.e-002	8.1249
10057	14.571	4.8182	0.	123.37
10058	14.479	4.9091	0.	113.68
10059	14.571	4.9091	5.e-002	7.5392
10060	14.571	4.6364	0.	125.55
10061	14.479	4.7273	0.	117.72
10062	14.571	4.7273	5.e-002	6.8933
10063	14.571	4.4545	0.	123.25
10064	14.479	4.5455	0.	117.46
10065	14.571	4.5455	5.e-002	6.2067
10066	14.571	4.2727	0.	117.12
10067	14.479	4.3636	0.	113.33
10068	14.571	4.3636	5.e-002	5.4973
10069	14.571	4.0909	0.	108.14
10070	14.479	4.1818	0.	106.12
10071	14.571	4.1818	5.e-002	4.7769
10072	14.571	3.9091	0.	97.594
10073	14.479	4.	0.	96.894
10074	14.571	4.	5.e-002	4.0496
10075	14.571	3.7273	0.	86.831
10076	14.479	3.8182	0.	86.86
10077	14.571	3.8182	5.e-002	3.3164
10078	14.571	3.5455	0.	77.12
10079	14.479	3.6364	0.	77.24
10080	14.571	3.6364	5.e-002	2.5797
10081	14.571	3.3636	0.	69.482
10082	14.479	3.4545	0.	69.094
10083	14.571	3.4545	5.e-002	1.8464
10084	14.571	3.1818	0.	64.63
10085	14.479	3.2727	0.	63.231
10086	14.571	3.2727	5.e-002	1.1273
10087	14.571	3.	0.	62.97
10088	14.479	3.0909	0.	60.172
10089	14.571	3.0909	5.e-002	0.46468
10090	14.571	2.8182	0.	64.63
10091	14.479	2.9091	0.	60.172
10092	14.571	2.9091	5.e-002	0.46469
10093	14.571	2.6364	0.	69.482
10094	14.479	2.7273	0.	63.231
10095	14.571	2.7273	5.e-002	1.1273
10096	14.571	2.4545	0.	77.12
10097	14.479	2.5455	0.	69.094
10098	14.571	2.5455	5.e-002	1.8464
10099	14.571	2.2727	0.	86.831
10100	14.479	2.3636	0.	77.24
10101	14.571	2.3636	5.e-002	2.5798
10102	14.571	2.0909	0.	97.595
10103	14.479	2.1818	0.	86.86
10104	14.571	2.1818	5.e-002	3.3164
10105	14.571	1.9091	0.	108.14
10106	14.479	2.	0.	96.894
10107	14.571	2.	5.e-002	4.0496
10108	14.571	1.7273	0.	117.12
10109	14.479	1.8182	0.	106.12
10110	14.571	1.8182	5.e-002	4.7769
10111	14.571	1.5455	0.	123.25
10112	14.479	1.6364	0.	113.33
10113	14.571	1.6364	5.e-002	5.4973
10114	14.571	1.3636	0.	125.55
10115	14.479	1.4545	0.	117.46
10116	14.571	1.4545	5.e-002	6.2067
10117	14.571	1.1818	0.	123.37
10118	14.479	1.2727	0.	117.72
10119	14.571	1.2727	5.e-002	6.8933
10120	14.571	1.	0.	116.44
10121	14.479	1.0909	0.	113.68
10122	14.571	1.0909	5.e-002	7.5392
10123	14.571	0.81818	0.	104.75
10124	14.479	0.90909	0.	105.16
10125	14.571	0.90909	5.e-002	8.1249
10126	14.571	0.63636	0.	88.44
10127	14.479	0.72727	0.	92.192
10128	14.571	0.72727	5.e-002	8.6345
10129	14.571	0.45455	0.	67.621
10130	14.479	0.54545	0.	74.889
10131	14.571	0.54545	5.e-002	9.0533
10132	14.571	0.27273	0.	42.369
10133	14.479	0.36364	0.	53.3
10134	14.571	0.36364	5.e-002	9.2987
10135	14.479	0.18182	0.	27.678
10136	14.571	0.18182	5.e-002	8.1652
10137	14.571	9.0909e-002	0.	15.879
10138	14.387	5.7273	0.	38.513
10139	14.294	5.8182	0.	25.653
10140	14.387	5.8182	5.e-002	6.8423
10141	14.387	5.9091	0.	14.876
10142	14.387	5.5455	0.	60.607
10143	14.294	5.6364	0.	47.965
10144	14.387	5.6364	5.e-002	8.4162
10145	14.387	5.3636	0.	78.73
10146	14.294	5.4545	0.	66.818
10147	14.387	5.4545	5.e-002	8.248
10148	14.387	5.1818	0.	92.727
10149	14.294	5.2727	0.	81.797
10150	14.387	5.2727	5.e-002	7.8952
10151	14.387	5.	0.	102.55
10152	14.294	5.0909	0.	92.865
10153	14.387	5.0909	5.e-002	7.4665
10154	14.387	4.8182	0.	108.18
10155	14.294	4.9091	0.	99.98
10156	14.387	4.9091	5.e-002	6.9776
10157	14.387	4.6364	0.	109.77
10158	14.294	4.7273	0.	103.22
10159	14.387	4.7273	5.e-002	6.4404
10160	14.387	4.4545	0.	107.65
10161	14.294	4.5455	0.	102.85
10162	14.387	4.5455	5.e-002	5.868
10163	14.387	4.2727	0.	102.44
10164	14.294	4.3636	0.	99.3
10165	14.387	4.3636	5.e-002	5.2718
10166	14.387	4.0909	0.	94.951
10167	14.294	4.1818	0.	93.269
10168	14.387	4.1818	5.e-002	4.6599
10169	14.387	3.9091	0.	86.216
10170	14.294	4.	0.	85.62
10171	14.387	4.	5.e-002	4.0372
10172	14.387	3.7273	0.	77.306
10173	14.294	3.8182	0.	77.327
10174	14.387	3.8182	5.e-002	3.4091
10175	14.387	3.5455	0.	69.235
10176	14.294	3.6364	0.	69.359
10177	14.387	3.6364	5.e-002	2.786
10178	14.387	3.3636	0.	62.85
10179	14.294	3.4545	0.	62.58
10180	14.387	3.4545	5.e-002	2.1904
10181	14.387	3.1818	0.	58.771
10182	14.294	3.2727	0.	57.675
10183	14.387	3.2727	5.e-002	1.6712
10184	14.387	3.	0.	57.37
10185	14.294	3.0909	0.	55.106
10186	14.387	3.0909	5.e-002	1.3355
10187	14.387	2.8182	0.	58.771
10188	14.294	2.9091	0.	55.106
10189	14.387	2.9091	5.e-002	1.3355
10190	14.387	2.6364	0.	62.85
10191	14.294	2.7273	0.	57.675
10192	14.387	2.7273	5.e-002	1.6712
10193	14.387	2.4545	0.	69.235
10194	14.294	2.5455	0.	62.58
10195	14.387	2.5455	5.e-002	2.1904
10196	14.387	2.2727	0.	77.306
10197	14.294	2.3636	0.	69.359
10198	14.387	2.3636	5.e-002	2.786
10199	14.387	2.0909	0.	86.216
10200	14.294	2.1818	0.	77.327
10201	14.387	2.1818	5.e-002	3.4091
10202	14.387	1.9091	0.	94.951
10203	14.294	2.	0.	85.621
10204	14.387	2.	5.e-002	4.0372
10205	14.387	1.7273	0.	102.44
10206	14.294	1.8182	0.	93.269
10207	14.387	1.8182	5.e-002	4.6599
10208	14.387	1.5455	0.	107.65
10209	14.294	1.6364	0.	99.3
10210	14.387	1.6364	5.e-002	5.2718
10211	14.387	1.3636	0.	109.77
10212	14.294	1.4545	0.	102.85
10213	14.387	1.4545	5.e-002	5.868
10214	14.387	1.1818	0.	108.18
10215	14.294	1.2727	0.	103.22
10216	14.387	1.2727	5.e-002	6.4404
10217	14.387	1.	0.	102.55
10218	14.294	1.0909	0.	99.98
10219	14.387	1.0909	5.e-002	6.9776
10220	14.387	0.81818	0.	92.727
10221	14.294	0.90909	0.	92.865
10222	14.387	0.90909	5.e-002	7.4665
10223	14.387	0.63636	0.	78.73
10224	14.294	0.72727	0.	81.797
10225	14.387	0.72727	5.e-002	7.8952
10226	14.387	0.45455	0.	60.608
10227	14.294	0.54545	0.	66.818
10228	14.387	0.54545	5.e-002	8.248
10229	14.387	0.27273	0.	38.513
10230	14.294	0.36364	0.	47.965
10231	14.387	0.36364	5.e-002	8.4163
10232	14.294	0.18182	0.	25.653
10233	14.387	0.18182	5.e-002	6.8423
10234	14.387	9.0909e-002	0.	14.876
10235	14.202	5.7273	0.	35.001
10236	14.11	5.8182	0.	23.854
10237	14.202	5.8182	5.e-002	5.7235
10238	14.202	5.9091	0.	13.987
10239	14.202	5.5455	0.	54.187
10240	14.11	5.6364	0.	43.101
10241	14.202	5.6364	5.e-002	7.6888
10242	14.202	5.3636	0.	69.933
10243	14.11	5.4545	0.	59.491
10244	14.202	5.4545	5.e-002	7.5929
10245	14.202	5.1818	0.	82.005
10246	14.11	5.2727	0.	72.469
10247	14.202	5.2727	5.e-002	7.302
10248	14.202	5.	0.	90.379
10249	14.11	5.0909	0.	81.989
10250	14.202	5.0909	5.e-002	6.9464
10251	14.202	4.8182	0.	95.107
10252	14.11	4.9091	0.	88.05
10253	14.202	4.9091	5.e-002	6.5422
10254	14.202	4.6364	0.	96.381
10255	14.11	4.7273	0.	90.78
10256	14.202	4.7273	5.e-002	6.0988
10257	14.202	4.4545	0.	94.562
10258	14.11	4.5455	0.	90.447
10259	14.202	4.5455	5.e-002	5.6258
10260	14.202	4.2727	0.	90.193
10261	14.11	4.3636	0.	87.486
10262	14.202	4.3636	5.e-002	5.1317
10263	14.202	4.0909	0.	83.984
10264	14.11	4.1818	0.	82.488
10265	14.202	4.1818	5.e-002	4.6238
10266	14.202	3.9091	0.	76.765
10267	14.11	4.	0.	76.174
10268	14.202	4.	5.e-002	4.1091
10269	14.202	3.7273	0.	69.402
10270	14.11	3.8182	0.	69.334
10271	14.202	3.8182	5.e-002	3.5971
10272	14.202	3.5455	0.	62.717
10273	14.11	3.6364	0.	62.753
10274	14.202	3.6364	5.e-002	3.1041
10275	14.202	3.3636	0.	57.411
10276	14.11	3.4545	0.	57.14
10277	14.202	3.4545	5.e-002	2.6576
10278	14.202	3.1818	0.	54.01
10279	14.11	3.2727	0.	53.066
10280	14.202	3.2727	5.e-002	2.3024
10281	14.202	3.	0.	52.841
10282	14.11	3.0909	0.	50.927
10283	14.202	3.0909	5.e-002	2.099
10284	14.202	2.8182	0.	54.01
10285	14.11	2.9091	0.	50.927
10286	14.202	2.9091	5.e-002	2.099
10287	14.202	2.6364	0.	57.411
10288	14.11	2.7273	0.	53.066
10289	14.202	2.7273	5.e-002	2.3024
10290	14.202	2.4545	0.	62.717
10291	14.11	2.5455	0.	57.14
10292	14.202	2.5455	5.e-002	2.6576
10293	14.202	2.2727	0.	69.402
10294	14.11	2.3636	0.	62.753
10295	14.202	2.3636	5.e-002	3.1041
10296	14.202	2.0909	0.	76.765
10297	14.11	2.1818	0.	69.334
10298	14.202	2.1818	5.e-002	3.5971
10299	14.202	1.9091	0.	83.985
10300	14.11	2.	0.	76.174
10301	14.202	2.	5.e-002	4.1091
10302	14.202	1.7273	0.	90.193
10303	14.11	1.8182	0.	82.488
10304	14.202	1.8182	5.e-002	4.6238
10305	14.202	1.5455	0.	94.562
10306	14.11	1.6364	0.	87.486
10307	14.202	1.6364	5.e-002	5.1317
10308	14.202	1.3636	0.	96.381
10309	14.11	1.4545	0.	90.447
10310	14.202	1.4545	5.e-002	5.6258
10311	14.202	1.1818	0.	95.107
10312	14.11	1.2727	0.	90.78
10313	14.202	1.2727	5.e-002	6.0988
10314	14.202	1.	0.	90.379
10315	14.11	1.0909	0.	88.05
10316	14.202	1.0909	5.e-002	6.5422
10317	14.202	0.81818	0.	82.005
10318	14.11	0.90909	0.	81.989
10319	14.202	0.90909	5.e-002	6.9464
10320	14.202	0.63636	0.	69.933
10321	14.11	0.72727	0.	72.469
10322	14.202	0.72727	5.e-002	7.302
10323	14.202	0.45455	0.	54.187
10324	14.11	0.54545	0.	59.491
10325	14.202	0.54545	5.e-002	7.5929
10326	14.202	0.27273	0.	35.001
10327	14.11	0.36364	0.	43.101
10328	14.202	0.36364	5.e-002	7.6888
10329	14.11	0.18182	0.	23.854
10330	14.202	0.18182	5.e-002	5.7236
10331	14.202	9.0909e-002	0.	13.987
10332	14.018	5.7273	0.	31.849
10333	13.926	5.8182	0.	22.269
10334	14.018	5.8182	5.e-002	4.7851
10335	14.018	5.9091	0.	13.205
10336	14.018	5.5455	0.	48.4
10337	13.926	5.6364	0.	38.734
10338	14.018	5.6364	5.e-002	7.0941
10339	14.018	5.3636	0.	62.049
10340	13.926	5.4545	0.	52.922
10341	14.018	5.4545	5.e-002	7.0632
10342	14.018	5.1818	0.	72.49
10343	13.926	5.2727	0.	64.161
10344	14.018	5.2727	5.e-002	6.8278
10345	14.018	5.	0.	79.706
10346	13.926	5.0909	0.	72.392
10347	14.018	5.0909	5.e-002	6.5361
10348	14.018	4.8182	0.	83.771
10349	13.926	4.9091	0.	77.63
10350	14.018	4.9091	5.e-002	6.2047
10351	14.018	4.6364	0.	84.891
10352	13.926	4.7273	0.	80.012
10353	14.018	4.7273	5.e-002	5.8414
10354	14.018	4.4545	0.	83.412
10355	13.926	4.5455	0.	79.802
10356	14.018	4.5455	5.e-002	5.4538
10357	14.018	4.2727	0.	79.815
10358	13.926	4.3636	0.	77.393
10359	14.018	4.3636	5.e-002	5.049
10360	14.018	4.0909	0.	74.703
10361	13.926	4.1818	0.	73.297
10362	14.018	4.1818	5.e-002	4.6342
10363	14.018	3.9091	0.	68.761
10364	13.926	4.	0.	68.114
10365	14.018	4.	5.e-002	4.2177
10366	14.018	3.7273	0.	62.696
10367	13.926	3.8182	0.	62.494
10368	14.018	3.8182	5.e-002	3.8105
10369	14.018	3.5455	0.	57.182
10370	13.926	3.6364	0.	57.081
10371	14.018	3.6364	5.e-002	3.429
10372	14.018	3.3636	0.	52.796
10373	13.926	3.4545	0.	52.455
10374	14.018	3.4545	5.e-002	3.0973
10375	14.018	3.1818	0.	49.981
10376	13.926	3.2727	0.	49.091
10377	14.018	3.2727	5.e-002	2.8462
10378	14.018	3.	0.	49.011
10379	13.926	3.0909	0.	47.323
10380	14.018	3.0909	5.e-002	2.7092
10381	14.018	2.8182	0.	49.981
10382	13.926	2.9091	0.	47.323
10383	14.018	2.9091	5.e-002	2.7092
10384	14.018	2.6364	0.	52.796
10385	13.926	2.7273	0.	49.091
10386	14.018	2.7273	5.e-002	2.8462
10387	14.018	2.4545	0.	57.182
10388	13.926	2.5455	0.	52.455
10389	14.018	2.5455	5.e-002	3.0973
10390	14.018	2.2727	0.	62.696
10391	13.926	2.3636	0.	57.081
10392	14.018	2.3636	5.e-002	3.429
10393	14.018	2.0909	0.	68.761
10394	13.926	2.1818	0.	62.494
10395	14.018	2.1818	5.e-002	3.8105
10396	14.018	1.9091	0.	74.703
10397	13.926	2.	0.	68.114
10398	14.018	2.	5.e-002	4.2177
10399	14.018	1.7273	0.	79.815
10400	13.926	1.8182	0.	73.297
10401	14.018	1.8182	5.e-002	4.6342
10402	14.018	1.5455	0.	83.412
10403	13.926	1.6364	0.	77.394
10404	14.018	1.6364	5.e-002	5.049
10405	14.018	1.3636	0.	84.892
10406	13.926	1.4545	0.	79.802
10407	14.018	1.4545	5.e-002	5.4538
10408	14.018	1.1818	0.	83.771
10409	13.926	1.2727	0.	80.012
10410	14.018	1.2727	5.e-002	5.8414
10411	14.018	1.	0.	79.706
10412	13.926	1.0909	0.	77.63
10413	14.018	1.0909	5.e-002	6.2048
10414	14.018	0.81818	0.	72.49
10415	13.926	0.90909	0.	72.392
10416	14.018	0.90909	5.e-002	6.5361
10417	14.018	0.63636	0.	62.049
10418	13.926	0.72727	0.	64.161
10419	14.018	0.72727	5.e-002	6.8278
10420	14.018	0.45455	0.	48.4
10421	13.926	0.54545	0.	52.922
10422	14.018	0.54545	5.e-002	7.0633
10423	14.018	0.27273	0.	31.849
10424	13.926	0.36364	0.	38.734
10425	14.018	0.36364	5.e-002	7.0941
10426	13.926	0.18182	0.	22.269
10427	14.018	0.18182	5.e-002	4.7852
10428	14.018	9.0909e-002	0.	13.205
10429	13.833	5.7273	0.	29.049
10430	13.741	5.8182	0.	20.876
10431	13.833	5.8182	5.e-002	4.0027
10432	13.833	5.9091	0.	12.519
10433	13.833	5.5455	0.	43.24
10434	13.741	5.6364	0.	34.852
10435	13.833	5.6364	5.e-002	6.6116
10436	13.833	5.3636	0.	55.039
10437	13.741	5.4545	0.	47.084
10438	13.833	5.4545	5.e-002	6.6374
10439	13.833	5.1818	0.	64.08
10440	13.741	5.2727	0.	56.804
10441	13.833	5.2727	5.e-002	6.4499
10442	13.833	5.	0.	70.339
10443	13.741	5.0909	0.	63.94
10444	13.833	5.0909	5.e-002	6.213
10445	13.833	4.8182	0.	73.896
10446	13.741	4.9091	0.	68.508
10447	13.833	4.9091	5.e-002	5.9433
10448	13.833	4.6364	0.	74.947
10449	13.741	4.7273	0.	70.639
10450	13.833	4.7273	5.e-002	5.6476
10451	13.833	4.4545	0.	73.805
10452	13.741	4.5455	0.	70.577
10453	13.833	4.5455	5.e-002	5.3323
10454	13.833	4.2727	0.	70.892
10455	13.741	4.3636	0.	68.667
10456	13.833	4.3636	5.e-002	5.0037
10457	13.833	4.0909	0.	66.72
10458	13.741	4.1818	0.	65.347
10459	13.833	4.1818	5.e-002	4.6689
10460	13.833	3.9091	0.	61.855
10461	13.741	4.	0.	61.122
10462	13.833	4.	5.e-002	4.3359
10463	13.833	3.7273	0.	56.883
10464	13.741	3.8182	0.	56.528
10465	13.833	3.8182	5.e-002	4.0156
10466	13.833	3.5455	0.	52.354
10467	13.741	3.6364	0.	52.095
10468	13.833	3.6364	5.e-002	3.7221
10469	13.833	3.3636	0.	48.748
10470	13.741	3.4545	0.	48.3
10471	13.833	3.4545	5.e-002	3.4737
10472	13.833	3.1818	0.	46.43
10473	13.741	3.2727	0.	45.537
10474	13.833	3.2727	5.e-002	3.2912
10475	13.833	3.	0.	45.631
10476	13.741	3.0909	0.	44.084
10477	13.833	3.0909	5.e-002	3.1938
10478	13.833	2.8182	0.	46.43
10479	13.741	2.9091	0.	44.084
10480	13.833	2.9091	5.e-002	3.1939
10481	13.833	2.6364	0.	48.748
10482	13.741	2.7273	0.	45.537
10483	13.833	2.7273	5.e-002	3.2912
10484	13.833	2.4545	0.	52.354
10485	13.741	2.5455	0.	48.3
10486	13.833	2.5455	5.e-002	3.4737
10487	13.833	2.2727	0.	56.883
10488	13.741	2.3636	0.	52.095
10489	13.833	2.3636	5.e-002	3.7221
10490	13.833	2.0909	0.	61.856
10491	13.741	2.1818	0.	56.528
10492	13.833	2.1818	5.e-002	4.0156
10493	13.833	1.9091	0.	66.72
10494	13.741	2.	0.	61.122
10495	13.833	2.	5.e-002	4.3359
10496	13.833	1.7273	0.	70.892
10497	13.741	1.8182	0.	65.347
10498	13.833	1.8182	5.e-002	4.6689
10499	13.833	1.5455	0.	73.805
10500	13.741	1.6364	0.	68.667
10501	13.833	1.6364	5.e-002	5.0037
10502	13.833	1.3636	0.	74.947
10503	13.741	1.4545	0.	70.577
10504	13.833	1.4545	5.e-002	5.3323
10505	13.833	1.1818	0.	73.896
10506	13.741	1.2727	0.	70.639
10507	13.833	1.2727	5.e-002	5.6476
10508	13.833	1.	0.	70.339
10509	13.741	1.0909	0.	68.508
10510	13.833	1.0909	5.e-002	5.9433
10511	13.833	0.81818	0.	64.08
10512	13.741	0.90909	0.	63.94
10513	13.833	0.90909	5.e-002	6.213
10514	13.833	0.63636	0.	55.039
10515	13.741	0.72727	0.	56.804
10516	13.833	0.72727	5.e-002	6.4499
10517	13.833	0.45455	0.	43.24
10518	13.741	0.54545	0.	47.084
10519	13.833	0.54545	5.e-002	6.6374
10520	13.833	0.27273	0.	29.049
10521	13.741	0.36364	0.	34.852
10522	13.833	0.36364	5.e-002	6.6116
10523	13.741	0.18182	0.	20.876
10524	13.833	0.18182	5.e-002	4.0027
10525	13.833	9.0909e-002	0.	12.519
10526	13.649	5.7273	0.	26.577
10527	13.557	5.8182	0.	19.653
10528	13.649	5.8182	5.e-002	3.3531
10529	13.649	5.9091	0.	11.917
10530	13.649	5.5455	0.	38.674
10531	13.557	5.6364	0.	31.424
10532	13.649	5.6364	5.e-002	6.2226
10533	13.649	5.3636	0.	48.843
10534	13.557	5.4545	0.	41.927
10535	13.649	5.4545	5.e-002	6.2968
10536	13.649	5.1818	0.	56.668
10537	13.557	5.2727	0.	50.314
10538	13.649	5.2727	5.e-002	6.1499
10539	13.649	5.	0.	62.117
10540	13.557	5.0909	0.	56.504
10541	13.649	5.0909	5.e-002	5.9592
10542	13.649	4.8182	0.	65.261
10543	13.557	4.9091	0.	60.507
10544	13.649	4.9091	5.e-002	5.7412
10545	13.649	4.6364	0.	66.28
10546	13.557	4.7273	0.	62.441
10547	13.649	4.7273	5.e-002	5.5021
10548	13.649	4.4545	0.	65.448
10549	13.557	4.5455	0.	62.52
10550	13.649	4.5455	5.e-002	5.2473
10551	13.649	4.2727	0.	63.128
10552	13.557	4.3636	0.	61.043
10553	13.649	4.3636	5.e-002	4.9825
10554	13.649	4.0909	0.	59.753
10555	13.557	4.1818	0.	58.384
10556	13.649	4.1818	5.e-002	4.7143
10557	13.649	3.9091	0.	55.796
10558	13.557	4.	0.	54.964
10559	13.649	4.	5.e-002	4.4501
10560	13.649	3.7273	0.	51.738
10561	13.557	3.8182	0.	51.229
10562	13.649	3.8182	5.e-002	4.1992
10563	13.649	3.5455	0.	48.037
10564	13.557	3.6364	0.	47.614
10565	13.649	3.6364	5.e-002	3.9733
10566	13.649	3.3636	0.	45.084
10567	13.557	3.4545	0.	44.516
10568	13.649	3.4545	5.e-002	3.7857
10569	13.649	3.1818	0.	43.185
10570	13.557	3.2727	0.	42.257
10571	13.649	3.2727	5.e-002	3.6502
10572	13.649	3.	0.	42.53
10573	13.557	3.0909	0.	41.068
10574	13.649	3.0909	5.e-002	3.5789
10575	13.649	2.8182	0.	43.185
10576	13.557	2.9091	0.	41.068
10577	13.649	2.9091	5.e-002	3.579
10578	13.649	2.6364	0.	45.084
10579	13.557	2.7273	0.	42.257
10580	13.649	2.7273	5.e-002	3.6502
10581	13.649	2.4545	0.	48.037
10582	13.557	2.5455	0.	44.516
10583	13.649	2.5455	5.e-002	3.7857
10584	13.649	2.2727	0.	51.738
10585	13.557	2.3636	0.	47.614
10586	13.649	2.3636	5.e-002	3.9733
10587	13.649	2.0909	0.	55.796
10588	13.557	2.1818	0.	51.229
10589	13.649	2.1818	5.e-002	4.1992
10590	13.649	1.9091	0.	59.753
10591	13.557	2.	0.	54.964
10592	13.649	2.	5.e-002	4.4501
10593	13.649	1.7273	0.	63.128
10594	13.557	1.8182	0.	58.384
10595	13.649	1.8182	5.e-002	4.7143
10596	13.649	1.5455	0.	65.448
10597	13.557	1.6364	0.	61.043
10598	13.649	1.6364	5.e-002	4.9826
10599	13.649	1.3636	0.	66.28
10600	13.557	1.4545	0.	62.52
10601	13.649	1.4545	5.e-002	5.2473
10602	13.649	1.1818	0.	65.262
10603	13.557	1.2727	0.	62.441
10604	13.649	1.2727	5.e-002	5.5021
10605	13.649	1.	0.	62.117
10606	13.557	1.0909	0.	60.507
10607	13.649	1.0909	5.e-002	5.7413
10608	13.649	0.81818	0.	56.668
10609	13.557	0.90909	0.	56.504
10610	13.649	0.90909	5.e-002	5.9592
10611	13.649	0.63636	0.	48.843
10612	13.557	0.72727	0.	50.314
10613	13.649	0.72727	5.e-002	6.1499
10614	13.649	0.45455	0.	38.674
10615	13.557	0.54545	0.	41.927
10616	13.649	0.54545	5.e-002	6.2968
10617	13.649	0.27273	0.	26.577
10618	13.557	0.36364	0.	31.424
10619	13.649	0.36364	5.e-002	6.2226
10620	13.557	0.18182	0.	19.654
10621	13.649	0.18182	5.e-002	3.3531
10622	13.649	9.0909e-002	0.	11.917
10623	13.464	5.7273	0.	24.402
10624	13.372	5.8182	0.	18.577
10625	13.464	5.8182	5.e-002	2.8156
10626	13.464	5.9091	0.	11.386
10627	13.464	5.5455	0.	34.652
10628	13.372	5.6364	0.	28.409
10629	13.464	5.6364	5.e-002	5.911
10630	13.464	5.3636	0.	43.386
10631	13.372	5.4545	0.	37.388
10632	13.464	5.4545	5.e-002	6.0259
10633	13.464	5.1818	0.	50.146
10634	13.372	5.2727	0.	44.602
10635	13.464	5.2727	5.e-002	5.9129
10636	13.464	5.	0.	54.893
10637	13.372	5.0909	0.	49.963
10638	13.464	5.0909	5.e-002	5.7604
10639	13.464	4.8182	0.	57.687
10640	13.372	4.9091	0.	53.474
10641	13.464	4.9091	5.e-002	5.5855
10642	13.464	4.6364	0.	58.682
10643	13.372	4.7273	0.	55.236
10644	13.464	4.7273	5.e-002	5.3932
10645	13.464	4.4545	0.	58.116
10646	13.372	4.5455	0.	55.433
10647	13.464	4.5455	5.e-002	5.1885
10648	13.464	4.2727	0.	56.299
10649	13.372	4.3636	0.	54.321
10650	13.464	4.3636	5.e-002	4.9765
10651	13.464	4.0909	0.	53.593
10652	13.372	4.1818	0.	52.214
10653	13.464	4.1818	5.e-002	4.7628
10654	13.464	3.9091	0.	50.393
10655	13.372	4.	0.	49.464
10656	13.464	4.	5.e-002	4.554
10657	13.464	3.7273	0.	47.099
10658	13.372	3.8182	0.	46.443
10659	13.464	3.8182	5.e-002	4.358
10660	13.464	3.5455	0.	44.087
10661	13.372	3.6364	0.	43.509
10662	13.464	3.6364	5.e-002	4.1836
10663	13.464	3.3636	0.	41.68
10664	13.372	3.4545	0.	40.989
10665	13.464	3.4545	5.e-002	4.0407
10666	13.464	3.1818	0.	40.131
10667	13.372	3.2727	0.	39.149
10668	13.464	3.2727	5.e-002	3.9388
10669	13.464	3.	0.	39.597
10670	13.372	3.0909	0.	38.181
10671	13.464	3.0909	5.e-002	3.8856
10672	13.464	2.8182	0.	40.131
10673	13.372	2.9091	0.	38.181
10674	13.464	2.9091	5.e-002	3.8856
10675	13.464	2.6364	0.	41.68
10676	13.372	2.7273	0.	39.149
10677	13.464	2.7273	5.e-002	3.9388
10678	13.464	2.4545	0.	44.087
10679	13.372	2.5455	0.	40.989
10680	13.464	2.5455	5.e-002	4.0407
10681	13.464	2.2727	0.	47.099
10682	13.372	2.3636	0.	43.509
10683	13.464	2.3636	5.e-002	4.1836
10684	13.464	2.0909	0.	50.393
10685	13.372	2.1818	0.	46.443
10686	13.464	2.1818	5.e-002	4.358
10687	13.464	1.9091	0.	53.593
10688	13.372	2.	0.	49.464
10689	13.464	2.	5.e-002	4.554
10690	13.464	1.7273	0.	56.299
10691	13.372	1.8182	0.	52.214
10692	13.464	1.8182	5.e-002	4.7628
10693	13.464	1.5455	0.	58.116
10694	13.372	1.6364	0.	54.321
10695	13.464	1.6364	5.e-002	4.9765
10696	13.464	1.3636	0.	58.682
10697	13.372	1.4545	0.	55.433
10698	13.464	1.4545	5.e-002	5.1885
10699	13.464	1.1818	0.	57.687
10700	13.372	1.2727	0.	55.236
10701	13.464	1.2727	5.e-002	5.3933
10702	13.464	1.	0.	54.893
10703	13.372	1.0909	0.	53.474
10704	13.464	1.0909	5.e-002	5.5855
10705	13.464	0.81818	0.	50.146
10706	13.372	0.90909	0.	49.963
10707	13.464	0.90909	5.e-002	5.7605
10708	13.464	0.63636	0.	43.386
10709	13.372	0.72727	0.	44.602
10710	13.464	0.72727	5.e-002	5.9129
10711	13.464	0.45455	0.	34.652
10712	13.372	0.54545	0.	37.388
10713	13.464	0.54545	5.e-002	6.0259
10714	13.464	0.27273	0.	24.402
10715	13.372	0.36364	0.	28.409
10716	13.464	0.36364	5.e-002	5.911
10717	13.372	0.18182	0.	18.577
10718	13.464	0.18182	5.e-002	2.8156
10719	13.464	9.0909e-002	0.	11.386
10720	13.28	5.7273	0.	22.488
10721	13.188	5.8182	0.	17.624
10722	13.28	5.8182	5.e-002	2.372
10723	13.28	5.9091	0.	10.914
10724	13.28	5.5455	0.	31.117
10725	13.188	5.6364	0.	25.76
10726	13.28	5.6364	5.e-002	5.6631
10727	13.28	5.3636	0.	38.588
10728	13.188	5.4545	0.	33.398
10729	13.28	5.4545	5.e-002	5.8117
10730	13.28	5.1818	0.	44.409
10731	13.188	5.2727	0.	39.577
10732	13.28	5.2727	5.e-002	5.7265
10733	13.28	5.	0.	48.537
10734	13.188	5.0909	0.	44.204
10735	13.28	5.0909	5.e-002	5.6057
10736	13.28	4.8182	0.	51.018
10737	13.188	4.9091	0.	47.275
10738	13.28	4.9091	5.e-002	5.4661
10739	13.28	4.6364	0.	51.983
10740	13.188	4.7273	0.	48.875
10741	13.28	4.7273	5.e-002	5.3124
10742	13.28	4.4545	0.	51.634
10743	13.188	4.5455	0.	49.159
10744	13.28	4.5455	5.e-002	5.1488
10745	13.28	4.2727	0.	50.231
10746	13.188	4.3636	0.	48.341
10747	13.28	4.3636	5.e-002	4.9798
10748	13.28	4.0909	0.	48.079
10749	13.188	4.1818	0.	46.687
10750	13.28	4.1818	5.e-002	4.8102
10751	13.28	3.9091	0.	45.506
10752	13.188	4.	0.	44.489
10753	13.28	4.	5.e-002	4.6457
10754	13.28	3.7273	0.	42.844
10755	13.188	3.8182	0.	42.055
10756	13.28	3.8182	5.e-002	4.4926
10757	13.28	3.5455	0.	40.402
10758	13.188	3.6364	0.	39.682
10759	13.28	3.6364	5.e-002	4.3577
10760	13.28	3.3636	0.	38.448
10761	13.188	3.4545	0.	37.639
10762	13.28	3.4545	5.e-002	4.2482
10763	13.28	3.1818	0.	37.188
10764	13.188	3.2727	0.	36.146
10765	13.28	3.2727	5.e-002	4.1707
10766	13.28	3.	0.	36.754
10767	13.188	3.0909	0.	35.358
10768	13.28	3.0909	5.e-002	4.1305
10769	13.28	2.8182	0.	37.188
10770	13.188	2.9091	0.	35.359
10771	13.28	2.9091	5.e-002	4.1305
10772	13.28	2.6364	0.	38.448
10773	13.188	2.7273	0.	36.146
10774	13.28	2.7273	5.e-002	4.1707
10775	13.28	2.4545	0.	40.402
10776	13.188	2.5455	0.	37.639
10777	13.28	2.5455	5.e-002	4.2482
10778	13.28	2.2727	0.	42.844
10779	13.188	2.3636	0.	39.682
10780	13.28	2.3636	5.e-002	4.3577
10781	13.28	2.0909	0.	45.507
10782	13.188	2.1818	0.	42.055
10783	13.28	2.1818	5.e-002	4.4926
10784	13.28	1.9091	0.	48.079
10785	13.188	2.	0.	44.489
10786	13.28	2.	5.e-002	4.6457
10787	13.28	1.7273	0.	50.231
10788	13.188	1.8182	0.	46.687
10789	13.28	1.8182	5.e-002	4.8103
10790	13.28	1.5455	0.	51.634
10791	13.188	1.6364	0.	48.341
10792	13.28	1.6364	5.e-002	4.9798
10793	13.28	1.3636	0.	51.983
10794	13.188	1.4545	0.	49.159
10795	13.28	1.4545	5.e-002	5.1488
10796	13.28	1.1818	0.	51.018
10797	13.188	1.2727	0.	48.875
10798	13.28	1.2727	5.e-002	5.3124
10799	13.28	1.	0.	48.537
10800	13.188	1.0909	0.	47.275
10801	13.28	1.0909	5.e-002	5.4661
10802	13.28	0.81818	0.	44.409
10803	13.188	0.90909	0.	44.204
10804	13.28	0.90909	5.e-002	5.6057
10805	13.28	0.63636	0.	38.588
10806	13.188	0.72727	0.	39.577
10807	13.28	0.72727	5.e-002	5.7265
10808	13.28	0.45455	0.	31.117
10809	13.188	0.54545	0.	33.398
10810	13.28	0.54545	5.e-002	5.8118
10811	13.28	0.27273	0.	22.488
10812	13.188	0.36364	0.	25.76
10813	13.28	0.36364	5.e-002	5.6631
10814	13.188	0.18182	0.	17.624
10815	13.28	0.18182	5.e-002	2.372
10816	13.28	9.0909e-002	0.	10.914
10817	13.096	5.7273	0.	20.802
10818	13.003	5.8182	0.	16.774
10819	13.096	5.8182	5.e-002	2.0065
10820	13.096	5.9091	0.	10.491
10821	13.096	5.5455	0.	28.012
10822	13.003	5.6364	0.	23.43
10823	13.096	5.6364	5.e-002	5.4672
10824	13.096	5.3636	0.	34.368
10825	13.003	5.4545	0.	29.888
10826	13.096	5.4545	5.e-002	5.6436
10827	13.096	5.1818	0.	39.358
10828	13.003	5.2727	0.	35.151
10829	13.096	5.2727	5.e-002	5.581
10830	13.096	5.	0.	42.931
10831	13.003	5.0909	0.	39.121
10832	13.096	5.0909	5.e-002	5.4859
10833	13.096	4.8182	0.	45.123
10834	13.003	4.9091	0.	41.792
10835	13.096	4.9091	5.e-002	5.3752
10836	13.096	4.6364	0.	46.043
10837	13.003	4.7273	0.	43.23
10838	13.096	4.7273	5.e-002	5.253
10839	13.096	4.4545	0.	45.858
10840	13.003	4.5455	0.	43.565
10841	13.096	4.5455	5.e-002	5.1229
10842	13.096	4.2727	0.	44.789
10843	13.003	4.3636	0.	42.976
10844	13.096	4.3636	5.e-002	4.9888
10845	13.096	4.0909	0.	43.087
10846	13.003	4.1818	0.	41.684
10847	13.096	4.1818	5.e-002	4.8548
10848	13.096	3.9091	0.	41.027
10849	13.003	4.	0.	39.933
10850	13.096	4.	5.e-002	4.7254
10851	13.096	3.7273	0.	38.882
10852	13.003	3.8182	0.	37.977
10853	13.096	3.8182	5.e-002	4.6058
10854	13.096	3.5455	0.	36.907
10855	13.003	3.6364	0.	36.061
10856	13.096	3.6364	5.e-002	4.5012
10857	13.096	3.3636	0.	35.325
10858	13.003	3.4545	0.	34.408
10859	13.096	3.4545	5.e-002	4.4169
10860	13.096	3.1818	0.	34.304
10861	13.003	3.2727	0.	33.198
10862	13.096	3.2727	5.e-002	4.3576
10863	13.096	3.	0.	33.951
10864	13.003	3.0909	0.	32.56
10865	13.096	3.0909	5.e-002	4.327
10866	13.096	2.8182	0.	34.304
10867	13.003	2.9091	0.	32.56
10868	13.096	2.9091	5.e-002	4.327
10869	13.096	2.6364	0.	35.325
10870	13.003	2.7273	0.	33.198
10871	13.096	2.7273	5.e-002	4.3576
10872	13.096	2.4545	0.	36.908
10873	13.003	2.5455	0.	34.408
10874	13.096	2.5455	5.e-002	4.4169
10875	13.096	2.2727	0.	38.882
10876	13.003	2.3636	0.	36.061
10877	13.096	2.3636	5.e-002	4.5012
10878	13.096	2.0909	0.	41.027
10879	13.003	2.1818	0.	37.977
10880	13.096	2.1818	5.e-002	4.6058
10881	13.096	1.9091	0.	43.087
10882	13.003	2.	0.	39.933
10883	13.096	2.	5.e-002	4.7254
10884	13.096	1.7273	0.	44.789
10885	13.003	1.8182	0.	41.684
10886	13.096	1.8182	5.e-002	4.8548
10887	13.096	1.5455	0.	45.858
10888	13.003	1.6364	0.	42.976
10889	13.096	1.6364	5.e-002	4.9888
10890	13.096	1.3636	0.	46.043
10891	13.003	1.4545	0.	43.565
10892	13.096	1.4545	5.e-002	5.123
10893	13.096	1.1818	0.	45.123
10894	13.003	1.2727	0.	43.23
10895	13.096	1.2727	5.e-002	5.253
10896	13.096	1.	0.	42.931
10897	13.003	1.0909	0.	41.792
10898	13.096	1.0909	5.e-002	5.3752
10899	13.096	0.81818	0.	39.358
10900	13.003	0.90909	0.	39.121
10901	13.096	0.90909	5.e-002	5.4859
10902	13.096	0.63636	0.	34.368
10903	13.003	0.72727	0.	35.151
10904	13.096	0.72727	5.e-002	5.581
10905	13.096	0.45455	0.	28.012
10906	13.003	0.54545	0.	29.888
10907	13.096	0.54545	5.e-002	5.6436
10908	13.096	0.27273	0.	20.802
10909	13.003	0.36364	0.	23.43
10910	13.096	0.36364	5.e-002	5.4673
10911	13.003	0.18182	0.	16.774
10912	13.096	0.18182	5.e-002	2.0065
10913	13.096	9.0909e-002	0.	10.491
10914	12.911	5.7273	0.	19.311
10915	12.819	5.8182	0.	16.01
10916	12.911	5.8182	5.e-002	1.7059
10917	12.911	5.9091	0.	10.107
10918	12.911	5.5455	0.	25.278
10919	12.819	5.6364	0.	21.375
10920	12.911	5.6364	5.e-002	5.3138
10921	12.911	5.3636	0.	30.651
10922	12.819	5.4545	0.	26.795
10923	12.911	5.4545	5.e-002	5.5129
10924	12.911	5.1818	0.	34.899
10925	12.819	5.2727	0.	31.243
10926	12.911	5.2727	5.e-002	5.4685
10927	12.911	5.	0.	37.969
10928	12.819	5.0909	0.	34.621
10929	12.911	5.0909	5.e-002	5.3942
10930	12.911	4.8182	0.	39.887
10931	12.819	4.9091	0.	36.919
10932	12.911	4.9091	5.e-002	5.307
10933	12.911	4.6364	0.	40.741
10934	12.819	4.7273	0.	38.19
10935	12.911	4.7273	5.e-002	5.2103
10936	12.911	4.4545	0.	40.672
10937	12.819	4.5455	0.	38.541
10938	12.911	4.5455	5.e-002	5.1074
10939	12.911	4.2727	0.	39.861
10940	12.819	4.3636	0.	38.12
10941	12.911	4.3636	5.e-002	5.0014
10942	12.911	4.0909	0.	38.519
10943	12.819	4.1818	0.	37.11
10944	12.911	4.1818	5.e-002	4.8957
10945	12.911	3.9091	0.	36.871
10946	12.819	4.	0.	35.714
10947	12.911	4.	5.e-002	4.7942
10948	12.911	3.7273	0.	35.144
10949	12.819	3.8182	0.	34.141
10950	12.911	3.8182	5.e-002	4.7008
10951	12.911	3.5455	0.	33.55
10952	12.819	3.6364	0.	32.595
10953	12.911	3.6364	5.e-002	4.6196
10954	12.911	3.3636	0.	32.269
10955	12.819	3.4545	0.	31.257
10956	12.911	3.4545	5.e-002	4.5545
10957	12.911	3.1818	0.	31.442
10958	12.819	3.2727	0.	30.276
10959	12.911	3.2727	5.e-002	4.5089
10960	12.911	3.	0.	31.156
10961	12.819	3.0909	0.	29.758
10962	12.911	3.0909	5.e-002	4.4854
10963	12.911	2.8182	0.	31.442
10964	12.819	2.9091	0.	29.758
10965	12.911	2.9091	5.e-002	4.4854
10966	12.911	2.6364	0.	32.269
10967	12.819	2.7273	0.	30.276
10968	12.911	2.7273	5.e-002	4.5089
10969	12.911	2.4545	0.	33.55
10970	12.819	2.5455	0.	31.257
10971	12.911	2.5455	5.e-002	4.5545
10972	12.911	2.2727	0.	35.144
10973	12.819	2.3636	0.	32.595
10974	12.911	2.3636	5.e-002	4.6196
10975	12.911	2.0909	0.	36.871
10976	12.819	2.1818	0.	34.141
10977	12.911	2.1818	5.e-002	4.7008
10978	12.911	1.9091	0.	38.519
10979	12.819	2.	0.	35.714
10980	12.911	2.	5.e-002	4.7942
10981	12.911	1.7273	0.	39.861
10982	12.819	1.8182	0.	37.11
10983	12.911	1.8182	5.e-002	4.8957
10984	12.911	1.5455	0.	40.672
10985	12.819	1.6364	0.	38.12
10986	12.911	1.6364	5.e-002	5.0014
10987	12.911	1.3636	0.	40.741
10988	12.819	1.4545	0.	38.541
10989	12.911	1.4545	5.e-002	5.1074
10990	12.911	1.1818	0.	39.887
10991	12.819	1.2727	0.	38.19
10992	12.911	1.2727	5.e-002	5.2103
10993	12.911	1.	0.	37.969
10994	12.819	1.0909	0.	36.919
10995	12.911	1.0909	5.e-002	5.307
10996	12.911	0.81818	0.	34.899
10997	12.819	0.90909	0.	34.621
10998	12.911	0.90909	5.e-002	5.3943
10999	12.911	0.63636	0.	30.651
11000	12.819	0.72727	0.	31.243
11001	12.911	0.72727	5.e-002	5.4685
11002	12.911	0.45455	0.	25.278
11003	12.819	0.54545	0.	26.795
11004	12.911	0.54545	5.e-002	5.5129
11005	12.911	0.27273	0.	19.311
11006	12.819	0.36364	0.	21.375
11007	12.911	0.36364	5.e-002	5.3138
11008	12.819	0.18182	0.	16.01
11009	12.911	0.18182	5.e-002	1.7059
11010	12.911	9.0909e-002	0.	10.107
11011	12.727	5.7273	0.	17.984
11012	12.634	5.8182	0.	15.315
11013	12.727	5.8182	5.e-002	1.4591
11014	12.727	5.9091	0.	9.7554
11015	12.727	5.5455	0.	22.863
11016	12.634	5.6364	0.	19.553
11017	12.727	5.6364	5.e-002	5.1947
11018	12.727	5.3636	0.	27.365
11019	12.634	5.4545	0.	24.056
11020	12.727	5.4545	5.e-002	5.4123
11021	12.727	5.1818	0.	30.947
11022	12.634	5.2727	0.	27.776
11023	12.727	5.2727	5.e-002	5.3824
11024	12.727	5.	0.	33.556
11025	12.634	5.0909	0.	30.616
11026	12.727	5.0909	5.e-002	5.325
11027	12.727	4.8182	0.	35.209
11028	12.634	4.9091	0.	32.564
11029	12.727	4.9091	5.e-002	5.2566
11030	12.727	4.6364	0.	35.977
11031	12.634	4.7273	0.	33.661
11032	12.727	4.7273	5.e-002	5.1806
11033	12.727	4.4545	0.	35.977
11034	12.634	4.5455	0.	33.994
11035	12.727	4.5455	5.e-002	5.0996
11036	12.727	4.2727	0.	35.357
11037	12.634	4.3636	0.	33.685
11038	12.727	4.3636	5.e-002	5.0161
11039	12.727	4.0909	0.	34.293
11040	12.634	4.1818	0.	32.887
11041	12.727	4.1818	5.e-002	4.9331
11042	12.727	3.9091	0.	32.971
11043	12.634	4.	0.	31.765
11044	12.727	4.	5.e-002	4.8536
11045	12.727	3.7273	0.	31.578
11046	12.634	3.8182	0.	30.494
11047	12.727	3.8182	5.e-002	4.7807
11048	12.727	3.5455	0.	30.288
11049	12.634	3.6364	0.	29.24
11050	12.727	3.6364	5.e-002	4.7176
11051	12.727	3.3636	0.	29.25
11052	12.634	3.4545	0.	28.153
11053	12.727	3.4545	5.e-002	4.6672
11054	12.727	3.1818	0.	28.578
11055	12.634	3.2727	0.	27.356
11056	12.727	3.2727	5.e-002	4.632
11057	12.727	3.	0.	28.346
11058	12.634	3.0909	0.	26.935
11059	12.727	3.0909	5.e-002	4.6139
11060	12.727	2.8182	0.	28.578
11061	12.634	2.9091	0.	26.935
11062	12.727	2.9091	5.e-002	4.6139
11063	12.727	2.6364	0.	29.25
11064	12.634	2.7273	0.	27.356
11065	12.727	2.7273	5.e-002	4.632
11066	12.727	2.4545	0.	30.288
11067	12.634	2.5455	0.	28.153
11068	12.727	2.5455	5.e-002	4.6672
11069	12.727	2.2727	0.	31.578
11070	12.634	2.3636	0.	29.24
11071	12.727	2.3636	5.e-002	4.7176
11072	12.727	2.0909	0.	32.971
11073	12.634	2.1818	0.	30.494
11074	12.727	2.1818	5.e-002	4.7807
11075	12.727	1.9091	0.	34.293
11076	12.634	2.	0.	31.765
11077	12.727	2.	5.e-002	4.8536
11078	12.727	1.7273	0.	35.357
11079	12.634	1.8182	0.	32.887
11080	12.727	1.8182	5.e-002	4.9331
11081	12.727	1.5455	0.	35.977
11082	12.634	1.6364	0.	33.686
11083	12.727	1.6364	5.e-002	5.0161
11084	12.727	1.3636	0.	35.977
11085	12.634	1.4545	0.	33.994
11086	12.727	1.4545	5.e-002	5.0996
11087	12.727	1.1818	0.	35.209
11088	12.634	1.2727	0.	33.661
11089	12.727	1.2727	5.e-002	5.1806
11090	12.727	1.	0.	33.556
11091	12.634	1.0909	0.	32.564
11092	12.727	1.0909	5.e-002	5.2567
11093	12.727	0.81818	0.	30.947
11094	12.634	0.90909	0.	30.616
11095	12.727	0.90909	5.e-002	5.325
11096	12.727	0.63636	0.	27.365
11097	12.634	0.72727	0.	27.776
11098	12.727	0.72727	5.e-002	5.3824
11099	12.727	0.45455	0.	22.863
11100	12.634	0.54545	0.	24.056
11101	12.727	0.54545	5.e-002	5.4123
11102	12.727	0.27273	0.	17.984
11103	12.634	0.36364	0.	19.553
11104	12.727	0.36364	5.e-002	5.1947
11105	12.634	0.18182	0.	15.315
11106	12.727	0.18182	5.e-002	1.4591
11107	12.727	9.0909e-002	0.	9.7554
11108	12.542	5.7273	0.	16.795
11109	12.45	5.8182	0.	14.675
11110	12.542	5.8182	5.e-002	1.2568
11111	12.542	5.9091	0.	9.428
11112	12.542	5.5455	0.	20.717
11113	12.45	5.6364	0.	17.927
11114	12.542	5.6364	5.e-002	5.1035
11115	12.542	5.3636	0.	24.444
11116	12.45	5.4545	0.	21.616
11117	12.542	5.4545	5.e-002	5.3361
11118	12.542	5.1818	0.	27.426
11119	12.45	5.2727	0.	24.682
11120	12.542	5.2727	5.e-002	5.3178
11121	12.542	5.	0.	29.607
11122	12.45	5.0909	0.	27.029
11123	12.542	5.0909	5.e-002	5.2738
11124	12.542	4.8182	0.	31.
11125	12.45	4.9091	0.	28.643
11126	12.542	4.9091	5.e-002	5.2206
11127	12.542	4.6364	0.	31.663
11128	12.45	4.7273	0.	29.557
11129	12.542	4.7273	5.e-002	5.1612
11130	12.542	4.4545	0.	31.689
11131	12.45	4.5455	0.	29.842
11132	12.542	4.5455	5.e-002	5.0976
11133	12.542	4.2727	0.	31.202
11134	12.45	4.3636	0.	29.597
11135	12.542	4.3636	5.e-002	5.0322
11136	12.542	4.0909	0.	30.345
11137	12.45	4.1818	0.	28.948
11138	12.542	4.1818	5.e-002	4.9672
11139	12.542	3.9091	0.	29.274
11140	12.45	4.	0.	28.032
11141	12.542	4.	5.e-002	4.9051
11142	12.542	3.7273	0.	28.142
11143	12.45	3.8182	0.	26.992
11144	12.542	3.8182	5.e-002	4.8483
11145	12.542	3.5455	0.	27.091
11146	12.45	3.6364	0.	25.965
11147	12.542	3.6364	5.e-002	4.7993
11148	12.542	3.3636	0.	26.244
11149	12.45	3.4545	0.	25.074
11150	12.542	3.4545	5.e-002	4.7602
11151	12.542	3.1818	0.	25.697
11152	12.45	3.2727	0.	24.421
11153	12.542	3.2727	5.e-002	4.733
11154	12.542	3.	0.	25.508
11155	12.45	3.0909	0.	24.076
11156	12.542	3.0909	5.e-002	4.7191
11157	12.542	2.8182	0.	25.697
11158	12.45	2.9091	0.	24.076
11159	12.542	2.9091	5.e-002	4.7191
11160	12.542	2.6364	0.	26.244
11161	12.45	2.7273	0.	24.421
11162	12.542	2.7273	5.e-002	4.733
11163	12.542	2.4545	0.	27.091
11164	12.45	2.5455	0.	25.074
11165	12.542	2.5455	5.e-002	4.7602
11166	12.542	2.2727	0.	28.142
11167	12.45	2.3636	0.	25.965
11168	12.542	2.3636	5.e-002	4.7993
11169	12.542	2.0909	0.	29.274
11170	12.45	2.1818	0.	26.992
11171	12.542	2.1818	5.e-002	4.8483
11172	12.542	1.9091	0.	30.345
11173	12.45	2.	0.	28.032
11174	12.542	2.	5.e-002	4.9051
11175	12.542	1.7273	0.	31.202
11176	12.45	1.8182	0.	28.948
11177	12.542	1.8182	5.e-002	4.9672
11178	12.542	1.5455	0.	31.689
11179	12.45	1.6364	0.	29.597
11180	12.542	1.6364	5.e-002	5.0322
11181	12.542	1.3636	0.	31.663
11182	12.45	1.4545	0.	29.842
11183	12.542	1.4545	5.e-002	5.0977
11184	12.542	1.1818	0.	31.
11185	12.45	1.2727	0.	29.557
11186	12.542	1.2727	5.e-002	5.1612
11187	12.542	1.	0.	29.607
11188	12.45	1.0909	0.	28.643
11189	12.542	1.0909	5.e-002	5.2206
11190	12.542	0.81818	0.	27.426
11191	12.45	0.90909	0.	27.029
11192	12.542	0.90909	5.e-002	5.2738
11193	12.542	0.63636	0.	24.444
11194	12.45	0.72727	0.	24.682
11195	12.542	0.72727	5.e-002	5.3178
11196	12.542	0.45455	0.	20.717
11197	12.45	0.54545	0.	21.616
11198	12.542	0.54545	5.e-002	5.3361
11199	12.542	0.27273	0.	16.795
11200	12.45	0.36364	0.	17.927
11201	12.542	0.36364	5.e-002	5.1035
11202	12.45	0.18182	0.	14.675
11203	12.542	0.18182	5.e-002	1.2568
11204	12.542	9.0909e-002	0.	9.428
11205	12.358	5.7273	0.	15.719
11206	12.266	5.8182	0.	14.079
11207	12.358	5.8182	5.e-002	1.0917
11208	12.358	5.9091	0.	9.1192
11209	12.358	5.5455	0.	18.798
11210	12.266	5.6364	0.	16.463
11211	12.358	5.6364	5.e-002	5.0348
11212	12.358	5.3636	0.	21.831
11213	12.266	5.4545	0.	19.427
11214	12.358	5.4545	5.e-002	5.2795
11215	12.358	5.1818	0.	24.265
11216	12.266	5.2727	0.	21.9
11217	12.358	5.2727	5.e-002	5.2704
11218	12.358	5.	0.	26.047
11219	12.266	5.0909	0.	23.791
11220	12.358	5.0909	5.e-002	5.2371
11221	12.358	4.8182	0.	27.184
11222	12.266	4.9091	0.	25.085
11223	12.358	4.9091	5.e-002	5.1961
11224	12.358	4.6364	0.	27.721
11225	12.266	4.7273	0.	25.807
11226	12.358	4.7273	5.e-002	5.15
11227	12.358	4.4545	0.	27.736
11228	12.266	4.5455	0.	26.015
11229	12.358	4.5455	5.e-002	5.1005
11230	12.358	4.2727	0.	27.329
11231	12.266	4.3636	0.	25.791
11232	12.358	4.3636	5.e-002	5.0494
11233	12.358	4.0909	0.	26.62
11234	12.266	4.1818	0.	25.238
11235	12.358	4.1818	5.e-002	4.9987
11236	12.358	3.9091	0.	25.735
11237	12.266	4.	0.	24.467
11238	12.358	4.	5.e-002	4.9503
11239	12.358	3.7273	0.	24.8
11240	12.266	3.8182	0.	23.598
11241	12.358	3.8182	5.e-002	4.9061
11242	12.358	3.5455	0.	23.933
11243	12.266	3.6364	0.	22.742
11244	12.358	3.6364	5.e-002	4.8681
11245	12.358	3.3636	0.	23.236
11246	12.266	3.4545	0.	22.002
11247	12.358	3.4545	5.e-002	4.8378
11248	12.358	3.1818	0.	22.785
11249	12.266	3.2727	0.	21.459
11250	12.358	3.2727	5.e-002	4.8168
11251	12.358	3.	0.	22.629
11252	12.266	3.0909	0.	21.173
11253	12.358	3.0909	5.e-002	4.806
11254	12.358	2.8182	0.	22.785
11255	12.266	2.9091	0.	21.173
11256	12.358	2.9091	5.e-002	4.806
11257	12.358	2.6364	0.	23.236
11258	12.266	2.7273	0.	21.459
11259	12.358	2.7273	5.e-002	4.8168
11260	12.358	2.4545	0.	23.933
11261	12.266	2.5455	0.	22.002
11262	12.358	2.5455	5.e-002	4.8378
11263	12.358	2.2727	0.	24.8
11264	12.266	2.3636	0.	22.742
11265	12.358	2.3636	5.e-002	4.8681
11266	12.358	2.0909	0.	25.735
11267	12.266	2.1818	0.	23.598
11268	12.358	2.1818	5.e-002	4.9061
11269	12.358	1.9091	0.	26.62
11270	12.266	2.	0.	24.467
11271	12.358	2.	5.e-002	4.9503
11272	12.358	1.7273	0.	27.329
11273	12.266	1.8182	0.	25.238
11274	12.358	1.8182	5.e-002	4.9987
11275	12.358	1.5455	0.	27.736
11276	12.266	1.6364	0.	25.792
11277	12.358	1.6364	5.e-002	5.0494
11278	12.358	1.3636	0.	27.721
11279	12.266	1.4545	0.	26.015
11280	12.358	1.4545	5.e-002	5.1005
11281	12.358	1.1818	0.	27.184
11282	12.266	1.2727	0.	25.807
11283	12.358	1.2727	5.e-002	5.15
11284	12.358	1.	0.	26.047
11285	12.266	1.0909	0.	25.085
11286	12.358	1.0909	5.e-002	5.1961
11287	12.358	0.81818	0.	24.265
11288	12.266	0.90909	0.	23.791
11289	12.358	0.90909	5.e-002	5.2372
11290	12.358	0.63636	0.	21.831
11291	12.266	0.72727	0.	21.9
11292	12.358	0.72727	5.e-002	5.2705
11293	12.358	0.45455	0.	18.798
11294	12.266	0.54545	0.	19.427
11295	12.358	0.54545	5.e-002	5.2795
11296	12.358	0.27273	0.	15.719
11297	12.266	0.36364	0.	16.463
11298	12.358	0.36364	5.e-002	5.0348
11299	12.266	0.18182	0.	14.079
11300	12.358	0.18182	5.e-002	1.0918
11301	12.358	9.0909e-002	0.	9.1193
11302	12.173	5.7273	0.	14.735
11303	12.081	5.8182	0.	13.515
11304	12.173	5.8182	5.e-002	0.95757
11305	12.173	5.9091	0.	8.824
11306	12.173	5.5455	0.	17.064
11307	12.081	5.6364	0.	15.131
11308	12.173	5.6364	5.e-002	4.9842
11309	12.173	5.3636	0.	19.473
11310	12.081	5.4545	0.	17.444
11311	12.173	5.4545	5.e-002	5.2387
11312	12.173	5.1818	0.	21.405
11313	12.081	5.2727	0.	19.376
11314	12.173	5.2727	5.e-002	5.2369
11315	12.173	5.	0.	22.81
11316	12.081	5.0909	0.	20.841
11317	12.173	5.0909	5.e-002	5.2121
11318	12.173	4.8182	0.	23.692
11319	12.081	4.9091	0.	21.825
11320	12.173	4.9091	5.e-002	5.1808
11321	12.173	4.6364	0.	24.086
11322	12.081	4.7273	0.	22.347
11323	12.173	4.7273	5.e-002	5.1452
11324	12.173	4.4545	0.	24.056
11325	12.081	4.5455	0.	22.454
11326	12.173	4.5455	5.e-002	5.1069
11327	12.173	4.2727	0.	23.685
11328	12.081	4.3636	0.	22.213
11329	12.173	4.3636	5.e-002	5.0673
11330	12.173	4.0909	0.	23.07
11331	12.081	4.1818	0.	21.708
11332	12.173	4.1818	5.e-002	5.0279
11333	12.173	3.9091	0.	22.315
11334	12.081	4.	0.	21.032
11335	12.173	4.	5.e-002	4.9903
11336	12.173	3.7273	0.	21.525
11337	12.081	3.8182	0.	20.281
11338	12.173	3.8182	5.e-002	4.9561
11339	12.173	3.5455	0.	20.796
11340	12.081	3.6364	0.	19.55
11341	12.173	3.6364	5.e-002	4.9266
11342	12.173	3.3636	0.	20.21
11343	12.081	3.4545	0.	18.92
11344	12.173	3.4545	5.e-002	4.9032
11345	12.173	3.1818	0.	19.832
11346	12.081	3.2727	0.	18.46
11347	12.173	3.2727	5.e-002	4.8869
11348	12.173	3.	0.	19.702
11349	12.081	3.0909	0.	18.218
11350	12.173	3.0909	5.e-002	4.8786
11351	12.173	2.8182	0.	19.832
11352	12.081	2.9091	0.	18.218
11353	12.173	2.9091	5.e-002	4.8786
11354	12.173	2.6364	0.	20.21
11355	12.081	2.7273	0.	18.46
11356	12.173	2.7273	5.e-002	4.8869
11357	12.173	2.4545	0.	20.796
11358	12.081	2.5455	0.	18.92
11359	12.173	2.5455	5.e-002	4.9032
11360	12.173	2.2727	0.	21.525
11361	12.081	2.3636	0.	19.55
11362	12.173	2.3636	5.e-002	4.9266
11363	12.173	2.0909	0.	22.315
11364	12.081	2.1818	0.	20.281
11365	12.173	2.1818	5.e-002	4.9561
11366	12.173	1.9091	0.	23.07
11367	12.081	2.	0.	21.032
11368	12.173	2.	5.e-002	4.9903
11369	12.173	1.7273	0.	23.685
11370	12.081	1.8182	0.	21.708
11371	12.173	1.8182	5.e-002	5.0279
11372	12.173	1.5455	0.	24.056
11373	12.081	1.6364	0.	22.213
11374	12.173	1.6364	5.e-002	5.0673
11375	12.173	1.3636	0.	24.086
11376	12.081	1.4545	0.	22.454
11377	12.173	1.4545	5.e-002	5.1069
11378	12.173	1.1818	0.	23.692
11379	12.081	1.2727	0.	22.347
11380	12.173	1.2727	5.e-002	5.1452
11381	12.173	1.	0.	22.81
11382	12.081	1.0909	0.	21.825
11383	12.173	1.0909	5.e-002	5.1808
11384	12.173	0.81818	0.	21.405
11385	12.081	0.90909	0.	20.841
11386	12.173	0.90909	5.e-002	5.2121
11387	12.173	0.63636	0.	19.473
11388	12.081	0.72727	0.	19.376
11389	12.173	0.72727	5.e-002	5.2369
11390	12.173	0.45455	0.	17.064
11391	12.081	0.54545	0.	17.444
11392	12.173	0.54545	5.e-002	5.2388
11393	12.173	0.27273	0.	14.735
11394	12.081	0.36364	0.	15.131
11395	12.173	0.36364	5.e-002	4.9842
11396	12.081	0.18182	0.	13.515
11397	12.173	0.18182	5.e-002	0.95758
11398	12.173	9.0909e-002	0.	8.824
11399	11.989	5.7273	0.	13.824
11400	11.897	5.8182	0.	12.975
11401	11.989	5.8182	5.e-002	0.8496
11402	11.989	5.9091	0.	8.5376
11403	11.989	5.5455	0.	15.483
11404	11.897	5.6364	0.	13.907
11405	11.989	5.6364	5.e-002	4.9483
11406	11.989	5.3636	0.	17.324
11407	11.897	5.4545	0.	15.628
11408	11.989	5.4545	5.e-002	5.2107
11409	11.989	5.1818	0.	18.792
11410	11.897	5.2727	0.	17.062
11411	11.989	5.2727	5.e-002	5.2146
11412	11.989	5.	0.	19.838
11413	11.897	5.0909	0.	18.127
11414	11.989	5.0909	5.e-002	5.1965
11415	11.989	4.8182	0.	20.463
11416	11.897	4.9091	0.	18.807
11417	11.989	4.9091	5.e-002	5.1729
11418	11.989	4.6364	0.	20.699
11419	11.897	4.7273	0.	19.121
11420	11.989	4.7273	5.e-002	5.1458
11421	11.989	4.4545	0.	20.595
11422	11.897	4.5455	0.	19.104
11423	11.989	4.5455	5.e-002	5.1164
11424	11.989	4.2727	0.	20.22
11425	11.897	4.3636	0.	18.813
11426	11.989	4.3636	5.e-002	5.0859
11427	11.989	4.0909	0.	19.654
11428	11.897	4.1818	0.	18.316
11429	11.989	4.1818	5.e-002	5.0555
11430	11.989	3.9091	0.	18.983
11431	11.897	4.	0.	17.69
11432	11.989	4.	5.e-002	5.0264
11433	11.989	3.7273	0.	18.291
11434	11.897	3.8182	0.	17.015
11435	11.989	3.8182	5.e-002	4.9999
11436	11.989	3.5455	0.	17.659
11437	11.897	3.6364	0.	16.367
11438	11.989	3.6364	5.e-002	4.9772
11439	11.989	3.3636	0.	17.155
11440	11.897	3.4545	0.	15.815
11441	11.989	3.4545	5.e-002	4.9591
11442	11.989	3.1818	0.	16.83
11443	11.897	3.2727	0.	15.413
11444	11.989	3.2727	5.e-002	4.9466
11445	11.989	3.	0.	16.718
11446	11.897	3.0909	0.	15.203
11447	11.989	3.0909	5.e-002	4.9402
11448	11.989	2.8182	0.	16.83
11449	11.897	2.9091	0.	15.203
11450	11.989	2.9091	5.e-002	4.9402
11451	11.989	2.6364	0.	17.155
11452	11.897	2.7273	0.	15.413
11453	11.989	2.7273	5.e-002	4.9466
11454	11.989	2.4545	0.	17.659
11455	11.897	2.5455	0.	15.815
11456	11.989	2.5455	5.e-002	4.9591
11457	11.989	2.2727	0.	18.291
11458	11.897	2.3636	0.	16.367
11459	11.989	2.3636	5.e-002	4.9772
11460	11.989	2.0909	0.	18.983
11461	11.897	2.1818	0.	17.015
11462	11.989	2.1818	5.e-002	5.
11463	11.989	1.9091	0.	19.654
11464	11.897	2.	0.	17.69
11465	11.989	2.	5.e-002	5.0264
11466	11.989	1.7273	0.	20.22
11467	11.897	1.8182	0.	18.316
11468	11.989	1.8182	5.e-002	5.0555
11469	11.989	1.5455	0.	20.595
11470	11.897	1.6364	0.	18.813
11471	11.989	1.6364	5.e-002	5.0859
11472	11.989	1.3636	0.	20.699
11473	11.897	1.4545	0.	19.104
11474	11.989	1.4545	5.e-002	5.1164
11475	11.989	1.1818	0.	20.463
11476	11.897	1.2727	0.	19.121
11477	11.989	1.2727	5.e-002	5.1458
11478	11.989	1.	0.	19.838
11479	11.897	1.0909	0.	18.807
11480	11.989	1.0909	5.e-002	5.1729
11481	11.989	0.81818	0.	18.792
11482	11.897	0.90909	0.	18.127
11483	11.989	0.90909	5.e-002	5.1966
11484	11.989	0.63636	0.	17.324
11485	11.897	0.72727	0.	17.062
11486	11.989	0.72727	5.e-002	5.2146
11487	11.989	0.45455	0.	15.483
11488	11.897	0.54545	0.	15.628
11489	11.989	0.54545	5.e-002	5.2108
11490	11.989	0.27273	0.	13.824
11491	11.897	0.36364	0.	13.907
11492	11.989	0.36364	5.e-002	4.9483
11493	11.897	0.18182	0.	12.975
11494	11.989	0.18182	5.e-002	0.8496
11495	11.989	9.0909e-002	0.	8.5376
11496	11.804	5.7273	0.	12.97
11497	11.712	5.8182	0.	12.45
11498	11.804	5.8182	5.e-002	0.764
11499	11.804	5.9091	0.	8.2564
11500	11.804	5.5455	0.	14.024
11501	11.712	5.6364	0.	12.766
11502	11.804	5.6364	5.e-002	4.9242
11503	11.804	5.3636	0.	15.344
11504	11.712	5.4545	0.	13.946
11505	11.804	5.4545	5.e-002	5.193
11506	11.804	5.1818	0.	16.377
11507	11.712	5.2727	0.	14.917
11508	11.804	5.2727	5.e-002	5.2014
11509	11.804	5.	0.	17.078
11510	11.712	5.0909	0.	15.6
11511	11.804	5.0909	5.e-002	5.1887
11512	11.804	4.8182	0.	17.447
11513	11.712	4.9091	0.	15.982
11514	11.804	4.9091	5.e-002	5.1711
11515	11.804	4.6364	0.	17.509
11516	11.712	4.7273	0.	16.078
11517	11.804	4.7273	5.e-002	5.1507
11518	11.804	4.4545	0.	17.306
11519	11.712	4.5455	0.	15.919
11520	11.804	4.5455	5.e-002	5.1284
11521	11.804	4.2727	0.	16.893
11522	11.712	4.3636	0.	15.549
11523	11.804	4.3636	5.e-002	5.1051
11524	11.804	4.0909	0.	16.337
11525	11.712	4.1818	0.	15.025
11526	11.804	4.1818	5.e-002	5.0818
11527	11.804	3.9091	0.	15.708
11528	11.712	4.	0.	14.412
11529	11.804	4.	5.e-002	5.0595
11530	11.804	3.7273	0.	15.076
11531	11.712	3.8182	0.	13.775
11532	11.804	3.8182	5.e-002	5.0391
11533	11.804	3.5455	0.	14.507
11534	11.712	3.6364	0.	13.176
11535	11.804	3.6364	5.e-002	5.0216
11536	11.804	3.3636	0.	14.058
11537	11.712	3.4545	0.	12.672
11538	11.804	3.4545	5.e-002	5.0077
11539	11.804	3.1818	0.	13.77
11540	11.712	3.2727	0.	12.309
11541	11.804	3.2727	5.e-002	4.9981
11542	11.804	3.	0.	13.671
11543	11.712	3.0909	0.	12.119
11544	11.804	3.0909	5.e-002	4.9932
11545	11.804	2.8182	0.	13.77
11546	11.712	2.9091	0.	12.119
11547	11.804	2.9091	5.e-002	4.9932
11548	11.804	2.6364	0.	14.058
11549	11.712	2.7273	0.	12.309
11550	11.804	2.7273	5.e-002	4.9981
11551	11.804	2.4545	0.	14.507
11552	11.712	2.5455	0.	12.672
11553	11.804	2.5455	5.e-002	5.0077
11554	11.804	2.2727	0.	15.076
11555	11.712	2.3636	0.	13.176
11556	11.804	2.3636	5.e-002	5.0216
11557	11.804	2.0909	0.	15.708
11558	11.712	2.1818	0.	13.775
11559	11.804	2.1818	5.e-002	5.0391
11560	11.804	1.9091	0.	16.337
11561	11.712	2.	0.	14.412
11562	11.804	2.	5.e-002	5.0595
11563	11.804	1.7273	0.	16.893
11564	11.712	1.8182	0.	15.025
11565	11.804	1.8182	5.e-002	5.0818
11566	11.804	1.5455	0.	17.306
11567	11.712	1.6364	0.	15.549
11568	11.804	1.6364	5.e-002	5.1051
11569	11.804	1.3636	0.	17.509
11570	11.712	1.4545	0.	15.919
11571	11.804	1.4545	5.e-002	5.1284
11572	11.804	1.1818	0.	17.447
11573	11.712	1.2727	0.	16.078
11574	11.804	1.2727	5.e-002	5.1507
11575	11.804	1.	0.	17.078
11576	11.712	1.0909	0.	15.982
11577	11.804	1.0909	5.e-002	5.1711
11578	11.804	0.81818	0.	16.377
11579	11.712	0.90909	0.	15.6
11580	11.804	0.90909	5.e-002	5.1887
11581	11.804	0.63636	0.	15.344
11582	11.712	0.72727	0.	14.917
11583	11.804	0.72727	5.e-002	5.2014
11584	11.804	0.45455	0.	14.024
11585	11.712	0.54545	0.	13.946
11586	11.804	0.54545	5.e-002	5.193
11587	11.804	0.27273	0.	12.97
11588	11.712	0.36364	0.	12.766
11589	11.804	0.36364	5.e-002	4.9242
11590	11.712	0.18182	0.	12.45
11591	11.804	0.18182	5.e-002	0.764
11592	11.804	9.0909e-002	0.	8.2565
11593	11.62	5.7273	0.	12.158
11594	11.528	5.8182	0.	11.933
11595	11.62	5.8182	5.e-002	0.6978
11596	11.62	5.9091	0.	7.9769
11597	11.62	5.5455	0.	12.661
11598	11.528	5.6364	0.	11.689
11599	11.62	5.6364	5.e-002	4.9098
11600	11.62	5.3636	0.	13.497
11601	11.528	5.4545	0.	12.367
11602	11.62	5.4545	5.e-002	5.1836
11603	11.62	5.1818	0.	14.119
11604	11.528	5.2727	0.	12.903
11605	11.62	5.2727	5.e-002	5.1956
11606	11.62	5.	0.	14.485
11607	11.528	5.0909	0.	13.219
11608	11.62	5.0909	5.e-002	5.187
11609	11.62	4.8182	0.	14.596
11610	11.528	4.9091	0.	13.306
11611	11.62	4.9091	5.e-002	5.1743
11612	11.62	4.6364	0.	14.471
11613	11.528	4.7273	0.	13.177
11614	11.62	4.7273	5.e-002	5.1592
11615	11.62	4.4545	0.	14.145
11616	11.528	4.5455	0.	12.856
11617	11.62	4.5455	5.e-002	5.1425
11618	11.62	4.2727	0.	13.665
11619	11.528	4.3636	0.	12.382
11620	11.62	4.3636	5.e-002	5.1249
11621	11.62	4.0909	0.	13.085
11622	11.528	4.1818	0.	11.802
11623	11.62	4.1818	5.e-002	5.1072
11624	11.62	3.9091	0.	12.464
11625	11.528	4.	0.	11.169
11626	11.62	4.	5.e-002	5.0902
11627	11.62	3.7273	0.	11.859
11628	11.528	3.8182	0.	10.536
11629	11.62	3.8182	5.e-002	5.0747
11630	11.62	3.5455	0.	11.324
11631	11.528	3.6364	0.	9.9571
11632	11.62	3.6364	5.e-002	5.0613
11633	11.62	3.3636	0.	10.907
11634	11.528	3.4545	0.	9.4775
11635	11.62	3.4545	5.e-002	5.0507
11636	11.62	3.1818	0.	10.642
11637	11.528	3.2727	0.	9.1352
11638	11.62	3.2727	5.e-002	5.0434
11639	11.62	3.	0.	10.551
11640	11.528	3.0909	0.	8.9572
11641	11.62	3.0909	5.e-002	5.0396
11642	11.62	2.8182	0.	10.642
11643	11.528	2.9091	0.	8.9572
11644	11.62	2.9091	5.e-002	5.0396
11645	11.62	2.6364	0.	10.907
11646	11.528	2.7273	0.	9.1352
11647	11.62	2.7273	5.e-002	5.0434
11648	11.62	2.4545	0.	11.324
11649	11.528	2.5455	0.	9.4775
11650	11.62	2.5455	5.e-002	5.0508
11651	11.62	2.2727	0.	11.859
11652	11.528	2.3636	0.	9.9571
11653	11.62	2.3636	5.e-002	5.0613
11654	11.62	2.0909	0.	12.464
11655	11.528	2.1818	0.	10.536
11656	11.62	2.1818	5.e-002	5.0747
11657	11.62	1.9091	0.	13.085
11658	11.528	2.	0.	11.169
11659	11.62	2.	5.e-002	5.0902
11660	11.62	1.7273	0.	13.665
11661	11.528	1.8182	0.	11.802
11662	11.62	1.8182	5.e-002	5.1072
11663	11.62	1.5455	0.	14.145
11664	11.528	1.6364	0.	12.382
11665	11.62	1.6364	5.e-002	5.1249
11666	11.62	1.3636	0.	14.471
11667	11.528	1.4545	0.	12.856
11668	11.62	1.4545	5.e-002	5.1425
11669	11.62	1.1818	0.	14.596
11670	11.528	1.2727	0.	13.177
11671	11.62	1.2727	5.e-002	5.1592
11672	11.62	1.	0.	14.485
11673	11.528	1.0909	0.	13.306
11674	11.62	1.0909	5.e-002	5.1743
11675	11.62	0.81818	0.	14.119
11676	11.528	0.90909	0.	13.219
11677	11.62	0.90909	5.e-002	5.187
11678	11.62	0.63636	0.	13.497
11679	11.528	0.72727	0.	12.903
11680	11.62	0.72727	5.e-002	5.1956
11681	11.62	0.45455	0.	12.661
11682	11.528	0.54545	0.	12.367
11683	11.62	0.54545	5.e-002	5.1836
11684	11.62	0.27273	0.	12.158
11685	11.528	0.36364	0.	11.689
11686	11.62	0.36364	5.e-002	4.9098
11687	11.528	0.18182	0.	11.933
11688	11.62	0.18182	5.e-002	0.69781
11689	11.62	9.0909e-002	0.	7.977
11690	11.436	5.7273	0.	11.377
11691	11.343	5.8182	0.	11.42
11692	11.436	5.8182	5.e-002	0.64885
11693	11.436	5.9091	0.	7.6963
11694	11.436	5.5455	0.	11.37
11695	11.343	5.6364	0.	10.658
11696	11.436	5.6364	5.e-002	4.9031
11697	11.436	5.3636	0.	11.752
11698	11.343	5.4545	0.	10.867
11699	11.436	5.4545	5.e-002	5.181
11700	11.436	5.1818	0.	11.982
11701	11.343	5.2727	0.	10.987
11702	11.436	5.2727	5.e-002	5.1957
11703	11.436	5.	0.	12.021
11704	11.343	5.0909	0.	10.947
11705	11.436	5.0909	5.e-002	5.1905
11706	11.436	4.8182	0.	11.869
11707	11.343	4.9091	0.	10.74
11708	11.436	4.9091	5.e-002	5.1817
11709	11.436	4.6364	0.	11.544
11710	11.343	4.7273	0.	10.376
11711	11.436	4.7273	5.e-002	5.1708
11712	11.436	4.4545	0.	11.076
11713	11.343	4.5455	0.	9.8781
11714	11.436	4.5455	5.e-002	5.1585
11715	11.436	4.2727	0.	10.502
11716	11.343	4.3636	0.	9.2777
11717	11.436	4.3636	5.e-002	5.1454
11718	11.436	4.0909	0.	9.8696
11719	11.343	4.1818	0.	8.6147
11720	11.436	4.1818	5.e-002	5.1322
11721	11.436	3.9091	0.	9.2257
11722	11.343	4.	0.	7.9332
11723	11.436	4.	5.e-002	5.1194
11724	11.436	3.7273	0.	8.6191
11725	11.343	3.8182	0.	7.2784
11726	11.436	3.8182	5.e-002	5.1077
11727	11.436	3.5455	0.	8.0944
11728	11.343	3.6364	0.	6.6935
11729	11.436	3.6364	5.e-002	5.0976
11730	11.436	3.3636	0.	7.69
11731	11.343	3.4545	0.	6.2173
11732	11.436	3.4545	5.e-002	5.0895
11733	11.436	3.1818	0.	7.4351
11734	11.343	3.2727	0.	5.8813
11735	11.436	3.2727	5.e-002	5.0839
11736	11.436	3.	0.	7.348
11737	11.343	3.0909	0.	5.7075
11738	11.436	3.0909	5.e-002	5.0811
11739	11.436	2.8182	0.	7.4351
11740	11.343	2.9091	0.	5.7075
11741	11.436	2.9091	5.e-002	5.0811
11742	11.436	2.6364	0.	7.69
11743	11.343	2.7273	0.	5.8813
11744	11.436	2.7273	5.e-002	5.0839
11745	11.436	2.4545	0.	8.0944
11746	11.343	2.5455	0.	6.2173
11747	11.436	2.5455	5.e-002	5.0895
11748	11.436	2.2727	0.	8.6191
11749	11.343	2.3636	0.	6.6935
11750	11.436	2.3636	5.e-002	5.0976
11751	11.436	2.0909	0.	9.2257
11752	11.343	2.1818	0.	7.2784
11753	11.436	2.1818	5.e-002	5.1077
11754	11.436	1.9091	0.	9.8696
11755	11.343	2.	0.	7.9332
11756	11.436	2.	5.e-002	5.1194
11757	11.436	1.7273	0.	10.502
11758	11.343	1.8182	0.	8.6147
11759	11.436	1.8182	5.e-002	5.1322
11760	11.436	1.5455	0.	11.076
11761	11.343	1.6364	0.	9.2777
11762	11.436	1.6364	5.e-002	5.1454
11763	11.436	1.3636	0.	11.544
11764	11.343	1.4545	0.	9.8781
11765	11.436	1.4545	5.e-002	5.1585
11766	11.436	1.1818	0.	11.869
11767	11.343	1.2727	0.	10.376
11768	11.436	1.2727	5.e-002	5.1708
11769	11.436	1.	0.	12.021
11770	11.343	1.0909	0.	10.74
11771	11.436	1.0909	5.e-002	5.1817
11772	11.436	0.81818	0.	11.982
11773	11.343	0.90909	0.	10.947
11774	11.436	0.90909	5.e-002	5.1905
11775	11.436	0.63636	0.	11.752
11776	11.343	0.72727	0.	10.987
11777	11.436	0.72727	5.e-002	5.1958
11778	11.436	0.45455	0.	11.37
11779	11.343	0.54545	0.	10.867
11780	11.436	0.54545	5.e-002	5.181
11781	11.436	0.27273	0.	11.377
11782	11.343	0.36364	0.	10.659
11783	11.436	0.36364	5.e-002	4.9031
11784	11.343	0.18182	0.	11.42
11785	11.436	0.18182	5.e-002	0.64886
11786	11.436	9.0909e-002	0.	7.6963
11787	11.251	5.7273	0.	10.615
11788	11.159	5.8182	0.	10.903
11789	11.251	5.8182	5.e-002	0.61554
11790	11.251	5.9091	0.	7.4116
11791	11.251	5.5455	0.	10.131
11792	11.159	5.6364	0.	9.6597
11793	11.251	5.6364	5.e-002	4.903
11794	11.251	5.3636	0.	10.081
11795	11.159	5.4545	0.	9.4217
11796	11.251	5.4545	5.e-002	5.184
11797	11.251	5.1818	0.	9.9326
11798	11.159	5.2727	0.	9.142
11799	11.251	5.2727	5.e-002	5.2009
11800	11.251	5.	0.	9.6481
11801	11.159	5.0909	0.	8.7529
11802	11.251	5.0909	5.e-002	5.1983
11803	11.251	4.8182	0.	9.2297
11804	11.159	4.9091	0.	8.2499
11805	11.251	4.9091	5.e-002	5.1925
11806	11.251	4.6364	0.	8.693
11807	11.159	4.7273	0.	7.6429
11808	11.251	4.7273	5.e-002	5.1849
11809	11.251	4.4545	0.	8.0634
11810	11.159	4.5455	0.	6.9519
11811	11.251	4.5455	5.e-002	5.1762
11812	11.251	4.2727	0.	7.3738
11813	11.159	4.3636	0.	6.2048
11814	11.251	4.3636	5.e-002	5.1667
11815	11.251	4.0909	0.	6.6625
11816	11.159	4.1818	0.	5.4354
11817	11.251	4.1818	5.e-002	5.157
11818	11.251	3.9091	0.	5.9702
11819	11.159	4.	0.	4.6808
11820	11.251	4.	5.e-002	5.1475
11821	11.251	3.7273	0.	5.3372
11822	11.159	3.8182	0.	3.9792
11823	11.251	3.8182	5.e-002	5.1388
11824	11.251	3.5455	0.	4.8008
11825	11.159	3.6364	0.	3.3669
11826	11.251	3.6364	5.e-002	5.1312
11827	11.251	3.3636	0.	4.3931
11828	11.159	3.4545	0.	2.8763
11829	11.251	3.4545	5.e-002	5.1252
11830	11.251	3.1818	0.	4.1382
11831	11.159	3.2727	0.	2.5337
11832	11.251	3.2727	5.e-002	5.121
11833	11.251	3.	0.	4.0515
11834	11.159	3.0909	0.	2.3576
11835	11.251	3.0909	5.e-002	5.1188
11836	11.251	2.8182	0.	4.1382
11837	11.159	2.9091	0.	2.3576
11838	11.251	2.9091	5.e-002	5.1188
11839	11.251	2.6364	0.	4.3931
11840	11.159	2.7273	0.	2.5337
11841	11.251	2.7273	5.e-002	5.121
11842	11.251	2.4545	0.	4.8008
11843	11.159	2.5455	0.	2.8763
11844	11.251	2.5455	5.e-002	5.1252
11845	11.251	2.2727	0.	5.3372
11846	11.159	2.3636	0.	3.3669
11847	11.251	2.3636	5.e-002	5.1312
11848	11.251	2.0909	0.	5.9702
11849	11.159	2.1818	0.	3.9792
11850	11.251	2.1818	5.e-002	5.1388
11851	11.251	1.9091	0.	6.6625
11852	11.159	2.	0.	4.6809
11853	11.251	2.	5.e-002	5.1475
11854	11.251	1.7273	0.	7.3738
11855	11.159	1.8182	0.	5.4354
11856	11.251	1.8182	5.e-002	5.157
11857	11.251	1.5455	0.	8.0634
11858	11.159	1.6364	0.	6.2048
11859	11.251	1.6364	5.e-002	5.1667
11860	11.251	1.3636	0.	8.6931
11861	11.159	1.4545	0.	6.9519
11862	11.251	1.4545	5.e-002	5.1762
11863	11.251	1.1818	0.	9.2297
11864	11.159	1.2727	0.	7.6429
11865	11.251	1.2727	5.e-002	5.1849
11866	11.251	1.	0.	9.6481
11867	11.159	1.0909	0.	8.2499
11868	11.251	1.0909	5.e-002	5.1925
11869	11.251	0.81818	0.	9.9326
11870	11.159	0.90909	0.	8.753
11871	11.251	0.90909	5.e-002	5.1983
11872	11.251	0.63636	0.	10.081
11873	11.159	0.72727	0.	9.142
11874	11.251	0.72727	5.e-002	5.2009
11875	11.251	0.45455	0.	10.131
11876	11.159	0.54545	0.	9.4217
11877	11.251	0.54545	5.e-002	5.184
11878	11.251	0.27273	0.	10.615
11879	11.159	0.36364	0.	9.6597
11880	11.251	0.36364	5.e-002	4.903
11881	11.159	0.18182	0.	10.903
11882	11.251	0.18182	5.e-002	0.61556
11883	11.251	9.0909e-002	0.	7.4117
11884	11.067	5.7273	0.	9.8623
11885	10.974	5.8182	0.	10.379
11886	11.067	5.8182	5.e-002	0.5965
11887	11.067	5.9091	0.	7.1208
11888	11.067	5.5455	0.	8.9259
11889	10.974	5.6364	0.	8.6789
11890	11.067	5.6364	5.e-002	4.9081
11891	11.067	5.3636	0.	8.4615
11892	10.974	5.4545	0.	8.0111
11893	11.067	5.4545	5.e-002	5.1915
11894	11.067	5.1818	0.	7.9427
11895	10.974	5.2727	0.	7.3416
11896	11.067	5.2727	5.e-002	5.2102
11897	11.067	5.	0.	7.3361
11898	10.974	5.0909	0.	6.6066
11899	11.067	5.0909	5.e-002	5.2096
11900	11.067	4.8182	0.	6.6453
11901	10.974	4.9091	0.	5.8042
11902	11.067	4.9091	5.e-002	5.2062
11903	11.067	4.6364	0.	5.8847
11904	10.974	4.7273	0.	4.9446
11905	11.067	4.7273	5.e-002	5.2013
11906	11.067	4.4545	0.	5.0769
11907	10.974	4.5455	0.	4.0463
11908	11.067	4.5455	5.e-002	5.1954
11909	11.067	4.2727	0.	4.2504
11910	10.974	4.3636	0.	3.1341
11911	11.067	4.3636	5.e-002	5.1887
11912	11.067	4.0909	0.	3.438
11913	10.974	4.1818	0.	2.2372
11914	11.067	4.1818	5.e-002	5.1818
11915	11.067	3.9091	0.	2.6744
11916	10.974	4.	0.	1.3878
11917	11.067	4.	5.e-002	5.175
11918	11.067	3.7273	0.	1.9936
11919	10.974	3.8182	0.	0.61847
11920	11.067	3.8182	5.e-002	5.1686
11921	11.067	3.5455	0.	1.4271
11922	10.974	3.6364	0.	1.1291e-002
11923	11.067	3.6364	5.e-002	5.163
11924	11.067	3.3636	0.	1.0017
11925	10.974	3.4545	0.	5.552e-003
11926	11.067	3.4545	5.e-002	5.1586
11927	11.067	3.1818	0.	0.7379
11928	10.974	3.2727	0.	5.2964e-003
11929	11.067	3.2727	5.e-002	5.1555
11930	11.067	3.	0.	0.64851
11931	10.974	3.0909	0.	5.218e-003
11932	11.067	3.0909	5.e-002	5.1539
11933	11.067	2.8182	0.	0.7379
11934	10.974	2.9091	0.	5.218e-003
11935	11.067	2.9091	5.e-002	5.154
11936	11.067	2.6364	0.	1.0017
11937	10.974	2.7273	0.	5.2967e-003
11938	11.067	2.7273	5.e-002	5.1555
11939	11.067	2.4545	0.	1.4271
11940	10.974	2.5455	0.	5.5522e-003
11941	11.067	2.5455	5.e-002	5.1586
11942	11.067	2.2727	0.	1.9936
11943	10.974	2.3636	0.	1.1292e-002
11944	11.067	2.3636	5.e-002	5.163
11945	11.067	2.0909	0.	2.6744
11946	10.974	2.1818	0.	0.61847
11947	11.067	2.1818	5.e-002	5.1686
11948	11.067	1.9091	0.	3.438
11949	10.974	2.	0.	1.3878
11950	11.067	2.	5.e-002	5.175
11951	11.067	1.7273	0.	4.2504
11952	10.974	1.8182	0.	2.2373
11953	11.067	1.8182	5.e-002	5.1818
11954	11.067	1.5455	0.	5.0769
11955	10.974	1.6364	0.	3.1341
11956	11.067	1.6364	5.e-002	5.1887
11957	11.067	1.3636	0.	5.8847
11958	10.974	1.4545	0.	4.0463
11959	11.067	1.4545	5.e-002	5.1954
11960	11.067	1.1818	0.	6.6453
11961	10.974	1.2727	0.	4.9446
11962	11.067	1.2727	5.e-002	5.2014
11963	11.067	1.	0.	7.3361
11964	10.974	1.0909	0.	5.8042
11965	11.067	1.0909	5.e-002	5.2063
11966	11.067	0.81818	0.	7.9427
11967	10.974	0.90909	0.	6.6067
11968	11.067	0.90909	5.e-002	5.2097
11969	11.067	0.63636	0.	8.4615
11970	10.974	0.72727	0.	7.3417
11971	11.067	0.72727	5.e-002	5.2102
11972	11.067	0.45455	0.	8.926
11973	10.974	0.54545	0.	8.0111
11974	11.067	0.54545	5.e-002	5.1915
11975	11.067	0.27273	0.	9.8624
11976	10.974	0.36364	0.	8.6789
11977	11.067	0.36364	5.e-002	4.9081
11978	10.974	0.18182	0.	10.379
11979	11.067	0.18182	5.e-002	0.5965
11980	11.067	9.0909e-002	0.	7.1208
11981	10.882	5.7273	0.	9.1104
11982	10.79	5.8182	0.	9.8422
11983	10.882	5.8182	5.e-002	0.59072
11984	10.882	5.9091	0.	6.8214
11985	10.882	5.5455	0.	7.7396
11986	10.79	5.6364	0.	7.704
11987	10.882	5.6364	5.e-002	4.9178
11988	10.882	5.3636	0.	6.8706
11989	10.79	5.4545	0.	6.6172
11990	10.882	5.4545	5.e-002	5.2028
11991	10.882	5.1818	0.	5.9862
11992	10.79	5.2727	0.	5.5633
11993	10.882	5.2727	5.e-002	5.2229
11994	10.882	5.	0.	5.0563
11995	10.79	5.0909	0.	4.4825
11996	10.882	5.0909	5.e-002	5.224
11997	10.882	4.8182	0.	4.086
11998	10.79	4.9091	0.	3.3754
11999	10.882	4.9091	5.e-002	5.2225
12000	10.882	4.6364	0.	3.0896
12001	10.79	4.7273	0.	2.2535
12002	10.882	4.7273	5.e-002	5.2197
12003	10.882	4.4545	0.	2.0877
12004	10.79	4.5455	0.	1.1353
12005	10.882	4.5455	5.e-002	5.216
12006	10.882	4.2727	0.	1.1063
12007	10.79	4.3636	0.	8.5071e-002
12008	10.882	4.3636	5.e-002	5.2116
12009	10.882	4.0909	0.	0.18076
12010	10.79	4.1818	0.	7.7942e-003
12011	10.882	4.1818	5.e-002	5.2069
12012	10.882	3.9091	0.	6.9544e-003
12013	10.79	4.	0.	6.0517e-003
12014	10.882	4.	5.e-002	5.2021
12015	10.882	3.7273	0.	5.7086e-003
12016	10.79	3.8182	0.	5.5162e-003
12017	10.882	3.8182	5.e-002	5.1976
12018	10.882	3.5455	0.	5.3559e-003
12019	10.79	3.6364	0.	5.2535e-003
12020	10.882	3.6364	5.e-002	5.1936
12021	10.882	3.3636	0.	5.1901e-003
12022	10.79	3.4545	0.	5.0968e-003
12023	10.882	3.4545	5.e-002	5.1905
12024	10.882	3.1818	0.	5.1055e-003
12025	10.79	3.2727	0.	5.0008e-003
12026	10.882	3.2727	5.e-002	5.1882
12027	10.882	3.	0.	5.0787e-003
12028	10.79	3.0909	0.	4.9539e-003
12029	10.882	3.0909	5.e-002	5.1871
12030	10.882	2.8182	0.	5.1055e-003
12031	10.79	2.9091	0.	4.9541e-003
12032	10.882	2.9091	5.e-002	5.1871
12033	10.882	2.6364	0.	5.1899e-003
12034	10.79	2.7273	0.	5.0013e-003
12035	10.882	2.7273	5.e-002	5.1882
12036	10.882	2.4545	0.	5.3559e-003
12037	10.79	2.5455	0.	5.0967e-003
12038	10.882	2.5455	5.e-002	5.1905
12039	10.882	2.2727	0.	5.7089e-003
12040	10.79	2.3636	0.	5.2539e-003
12041	10.882	2.3636	5.e-002	5.1936
12042	10.882	2.0909	0.	6.9548e-003
12043	10.79	2.1818	0.	5.5165e-003
12044	10.882	2.1818	5.e-002	5.1976
12045	10.882	1.9091	0.	0.18076
12046	10.79	2.	0.	6.0523e-003
12047	10.882	2.	5.e-002	5.2021
12048	10.882	1.7273	0.	1.1063
12049	10.79	1.8182	0.	7.7947e-003
12050	10.882	1.8182	5.e-002	5.2069
12051	10.882	1.5455	0.	2.0877
12052	10.79	1.6364	0.	8.5074e-002
12053	10.882	1.6364	5.e-002	5.2116
12054	10.882	1.3636	0.	3.0896
12055	10.79	1.4545	0.	1.1354
12056	10.882	1.4545	5.e-002	5.216
12057	10.882	1.1818	0.	4.086
12058	10.79	1.2727	0.	2.2535
12059	10.882	1.2727	5.e-002	5.2197
12060	10.882	1.	0.	5.0563
12061	10.79	1.0909	0.	3.3754
12062	10.882	1.0909	5.e-002	5.2225
12063	10.882	0.81818	0.	5.9863
12064	10.79	0.90909	0.	4.4825
12065	10.882	0.90909	5.e-002	5.224
12066	10.882	0.63636	0.	6.8706
12067	10.79	0.72727	0.	5.5634
12068	10.882	0.72727	5.e-002	5.2229
12069	10.882	0.45455	0.	7.7396
12070	10.79	0.54545	0.	6.6172
12071	10.882	0.54545	5.e-002	5.2028
12072	10.882	0.27273	0.	9.1105
12073	10.79	0.36364	0.	7.704
12074	10.882	0.36364	5.e-002	4.9178
12075	10.79	0.18182	0.	9.8422
12076	10.882	0.18182	5.e-002	0.59073
12077	10.882	9.0909e-002	0.	6.8215
12078	10.698	5.7273	0.	8.3517
12079	10.606	5.8182	0.	9.2896
12080	10.698	5.8182	5.e-002	0.59737
12081	10.698	5.9091	0.	6.5117
12082	10.698	5.5455	0.	6.5576
12083	10.606	5.6364	0.	6.7244
12084	10.698	5.6364	5.e-002	4.9312
12085	10.698	5.3636	0.	5.2896
12086	10.606	5.4545	0.	5.2238
12087	10.698	5.4545	5.e-002	5.2174
12088	10.698	5.1818	0.	4.0406
12089	10.606	5.2727	0.	3.7869
12090	10.698	5.2727	5.e-002	5.2386
12091	10.698	5.	0.	2.7838
12092	10.606	5.0909	0.	2.3577
12093	10.698	5.0909	5.e-002	5.241
12094	10.698	4.8182	0.	1.5271
12095	10.606	4.9091	0.	0.94329
12096	10.698	4.9091	5.e-002	5.2411
12097	10.698	4.6364	0.	0.29975
12098	10.606	4.7273	0.	2.0777e-002
12099	10.698	4.7273	5.e-002	5.24
12100	10.698	4.4545	0.	1.0325e-002
12101	10.606	4.5455	0.	8.0664e-003
12102	10.698	4.5455	5.e-002	5.238
12103	10.698	4.2727	0.	6.7482e-003
12104	10.606	4.3636	0.	6.3204e-003
12105	10.698	4.3636	5.e-002	5.2354
12106	10.698	4.0909	0.	5.8298e-003
12107	10.606	4.1818	0.	5.6724e-003
12108	10.698	4.1818	5.e-002	5.2324
12109	10.698	3.9091	0.	5.419e-003
12110	10.606	4.	0.	5.3311e-003
12111	10.698	4.	5.e-002	5.2293
12112	10.698	3.7273	0.	5.1793e-003
12113	10.606	3.8182	0.	5.1085e-003
12114	10.698	3.8182	5.e-002	5.2263
12115	10.698	3.5455	0.	5.0205e-003
12116	10.606	3.6364	0.	4.9486e-003
12117	10.698	3.6364	5.e-002	5.2236
12118	10.698	3.3636	0.	4.9134e-003
12119	10.606	3.4545	0.	4.8327e-003
12120	10.698	3.4545	5.e-002	5.2214
12121	10.698	3.1818	0.	4.8499e-003
12122	10.606	3.2727	0.	4.754e-003
12123	10.698	3.2727	5.e-002	5.2198
12124	10.698	3.	0.	4.8288e-003
12125	10.606	3.0909	0.	4.7144e-003
12126	10.698	3.0909	5.e-002	5.219
12127	10.698	2.8182	0.	4.8505e-003
12128	10.606	2.9091	0.	4.7147e-003
12129	10.698	2.9091	5.e-002	5.219
12130	10.698	2.6364	0.	4.914e-003
12131	10.606	2.7273	0.	4.7545e-003
12132	10.698	2.7273	5.e-002	5.2198
12133	10.698	2.4545	0.	5.0208e-003
12134	10.606	2.5455	0.	4.8326e-003
12135	10.698	2.5455	5.e-002	5.2214
12136	10.698	2.2727	0.	5.1797e-003
12137	10.606	2.3636	0.	4.949e-003
12138	10.698	2.3636	5.e-002	5.2236
12139	10.698	2.0909	0.	5.4196e-003
12140	10.606	2.1818	0.	5.109e-003
12141	10.698	2.1818	5.e-002	5.2263
12142	10.698	1.9091	0.	5.8305e-003
12143	10.606	2.	0.	5.3317e-003
12144	10.698	2.	5.e-002	5.2293
12145	10.698	1.7273	0.	6.7483e-003
12146	10.606	1.8182	0.	5.6728e-003
12147	10.698	1.8182	5.e-002	5.2324
12148	10.698	1.5455	0.	1.0325e-002
12149	10.606	1.6364	0.	6.3203e-003
12150	10.698	1.6364	5.e-002	5.2354
12151	10.698	1.3636	0.	0.29976
12152	10.606	1.4545	0.	8.0679e-003
12153	10.698	1.4545	5.e-002	5.238
12154	10.698	1.1818	0.	1.5271
12155	10.606	1.2727	0.	2.0778e-002
12156	10.698	1.2727	5.e-002	5.24
12157	10.698	1.	0.	2.7838
12158	10.606	1.0909	0.	0.9433
12159	10.698	1.0909	5.e-002	5.2411
12160	10.698	0.81818	0.	4.0406
12161	10.606	0.90909	0.	2.3577
12162	10.698	0.90909	5.e-002	5.241
12163	10.698	0.63636	0.	5.2896
12164	10.606	0.72727	0.	3.7869
12165	10.698	0.72727	5.e-002	5.2386
12166	10.698	0.45455	0.	6.5576
12167	10.606	0.54545	0.	5.2238
12168	10.698	0.54545	5.e-002	5.2174
12169	10.698	0.27273	0.	8.3518
12170	10.606	0.36364	0.	6.7245
12171	10.698	0.36364	5.e-002	4.9312
12172	10.606	0.18182	0.	9.2896
12173	10.698	0.18182	5.e-002	0.59738
12174	10.698	9.0909e-002	0.	6.5117
12175	10.513	5.7273	0.	7.5792
12176	10.421	5.8182	0.	8.717
12177	10.513	5.8182	5.e-002	0.61544
12178	10.513	5.9091	0.	6.1896
12179	10.513	5.5455	0.	5.367
12180	10.421	5.6364	0.	5.7302
12181	10.513	5.6364	5.e-002	4.9478
12182	10.513	5.3636	0.	3.7011
12183	10.421	5.4545	0.	3.8162
12184	10.513	5.4545	5.e-002	5.2346
12185	10.513	5.1818	0.	2.0856
12186	10.421	5.2727	0.	1.9941
12187	10.513	5.2727	5.e-002	5.2567
12188	10.513	5.	0.	0.50842
12189	10.421	5.0909	0.	0.24419
12190	10.513	5.0909	5.e-002	5.2602
12191	10.513	4.8182	0.	1.2398e-002
12192	10.421	4.9091	0.	9.9869e-003
12193	10.513	4.9091	5.e-002	5.2615
12194	10.513	4.6364	0.	7.3048e-003
12195	10.421	4.7273	0.	6.7851e-003
12196	10.513	4.7273	5.e-002	5.2618
12197	10.513	4.4545	0.	6.091e-003
12198	10.421	4.5455	0.	5.8667e-003
12199	10.513	4.5455	5.e-002	5.2612
12200	10.513	4.2727	0.	5.5649e-003
12201	10.421	4.3636	0.	5.4306e-003
12202	10.513	4.3636	5.e-002	5.26
12203	10.513	4.0909	0.	5.2606e-003
12204	10.421	4.1818	0.	5.16e-003
12205	10.513	4.1818	5.e-002	5.2584
12206	10.513	3.9091	0.	5.0494e-003
12207	10.421	4.	0.	4.9604e-003
12208	10.513	4.	5.e-002	5.2566
12209	10.513	3.7273	0.	4.8883e-003
12210	10.421	3.8182	0.	4.7991e-003
12211	10.513	3.8182	5.e-002	5.2548
12212	10.513	3.5455	0.	4.7648e-003
12213	10.421	3.6364	0.	4.6673e-003
12214	10.513	3.6364	5.e-002	5.2531
12215	10.513	3.3636	0.	4.6748e-003
12216	10.421	3.4545	0.	4.5664e-003
12217	10.513	3.4545	5.e-002	5.2516
12218	10.513	3.1818	0.	4.6191e-003
12219	10.421	3.2727	0.	4.4954e-003
12220	10.513	3.2727	5.e-002	5.2506
12221	10.513	3.	0.	4.6005e-003
12222	10.421	3.0909	0.	4.4592e-003
12223	10.513	3.0909	5.e-002	5.2501
12224	10.513	2.8182	0.	4.6192e-003
12225	10.421	2.9091	0.	4.4593e-003
12226	10.513	2.9091	5.e-002	5.2501
12227	10.513	2.6364	0.	4.6747e-003
12228	10.421	2.7273	0.	4.4957e-003
12229	10.513	2.7273	5.e-002	5.2506
12230	10.513	2.4545	0.	4.7648e-003
12231	10.421	2.5455	0.	4.5666e-003
12232	10.513	2.5455	5.e-002	5.2516
12233	10.513	2.2727	0.	4.8888e-003
12234	10.421	2.3636	0.	4.6679e-003
12235	10.513	2.3636	5.e-002	5.2531
12236	10.513	2.0909	0.	5.0498e-003
12237	10.421	2.1818	0.	4.7995e-003
12238	10.513	2.1818	5.e-002	5.2548
12239	10.513	1.9091	0.	5.2608e-003
12240	10.421	2.	0.	4.9609e-003
12241	10.513	2.	5.e-002	5.2566
12242	10.513	1.7273	0.	5.565e-003
12243	10.421	1.8182	0.	5.1603e-003
12244	10.513	1.8182	5.e-002	5.2584
12245	10.513	1.5455	0.	6.092e-003
12246	10.421	1.6364	0.	5.4313e-003
12247	10.513	1.6364	5.e-002	5.26
12248	10.513	1.3636	0.	7.3059e-003
12249	10.421	1.4545	0.	5.8677e-003
12250	10.513	1.4545	5.e-002	5.2612
12251	10.513	1.1818	0.	1.2399e-002
12252	10.421	1.2727	0.	6.7856e-003
12253	10.513	1.2727	5.e-002	5.2618
12254	10.513	1.	0.	0.50843
12255	10.421	1.0909	0.	9.9871e-003
12256	10.513	1.0909	5.e-002	5.2616
12257	10.513	0.81818	0.	2.0856
12258	10.421	0.90909	0.	0.2442
12259	10.513	0.90909	5.e-002	5.2602
12260	10.513	0.63636	0.	3.7011
12261	10.421	0.72727	0.	1.9942
12262	10.513	0.72727	5.e-002	5.2567
12263	10.513	0.45455	0.	5.3671
12264	10.421	0.54545	0.	3.8162
12265	10.513	0.54545	5.e-002	5.2346
12266	10.513	0.27273	0.	7.5792
12267	10.421	0.36364	0.	5.7303
12268	10.513	0.36364	5.e-002	4.9479
12269	10.421	0.18182	0.	8.7171
12270	10.513	0.18182	5.e-002	0.61547
12271	10.513	9.0909e-002	0.	6.1897
12272	10.329	5.7273	0.	6.786
12273	10.237	5.8182	0.	8.121
12274	10.329	5.8182	5.e-002	0.64432
12275	10.329	5.9091	0.	5.8533
12276	10.329	5.5455	0.	4.156
12277	10.237	5.6364	0.	4.7124
12278	10.329	5.6364	5.e-002	4.9673
12279	10.329	5.3636	0.	2.0892
12280	10.237	5.4545	0.	2.3808
12281	10.329	5.4545	5.e-002	5.2542
12282	10.329	5.1818	0.	0.15527
12283	10.237	5.2727	0.	0.20088
12284	10.329	5.2727	5.e-002	5.277
12285	10.329	5.	0.	8.8972e-003
12286	10.237	5.0909	0.	8.1416e-003
12287	10.329	5.0909	5.e-002	5.2815
12288	10.329	4.8182	0.	6.4505e-003
12289	10.237	4.9091	0.	6.1666e-003
12290	10.329	4.9091	5.e-002	5.2838
12291	10.329	4.6364	0.	5.6937e-003
12292	10.237	4.7273	0.	5.5401e-003
12293	10.329	4.7273	5.e-002	5.2851
12294	10.329	4.4545	0.	5.3174e-003
12295	10.237	4.5455	0.	5.2207e-003
12296	10.329	4.5455	5.e-002	5.2857
12297	10.329	4.2727	0.	5.0701e-003
12298	10.237	4.3636	0.	4.996e-003
12299	10.329	4.3636	5.e-002	5.2856
12300	10.329	4.0909	0.	4.8796e-003
12301	10.237	4.1818	0.	4.8132e-003
12302	10.329	4.1818	5.e-002	5.2852
12303	10.329	3.9091	0.	4.7195e-003
12304	10.237	4.	0.	4.6529e-003
12305	10.329	4.	5.e-002	5.2844
12306	10.329	3.7273	0.	4.5827e-003
12307	10.237	3.8182	0.	4.51e-003
12308	10.329	3.8182	5.e-002	5.2835
12309	10.329	3.5455	0.	4.4713e-003
12310	10.237	3.6364	0.	4.3868e-003
12311	10.329	3.6364	5.e-002	5.2825
12312	10.329	3.3636	0.	4.3882e-003
12313	10.237	3.4545	0.	4.2906e-003
12314	10.329	3.4545	5.e-002	5.2817
12315	10.329	3.1818	0.	4.3361e-003
12316	10.237	3.2727	0.	4.2226e-003
12317	10.329	3.2727	5.e-002	5.2811
12318	10.329	3.	0.	4.3184e-003
12319	10.237	3.0909	0.	4.1871e-003
12320	10.329	3.0909	5.e-002	5.2808
12321	10.329	2.8182	0.	4.3364e-003
12322	10.237	2.9091	0.	4.1871e-003
12323	10.329	2.9091	5.e-002	5.2808
12324	10.329	2.6364	0.	4.3888e-003
12325	10.237	2.7273	0.	4.2227e-003
12326	10.329	2.7273	5.e-002	5.2811
12327	10.329	2.4545	0.	4.472e-003
12328	10.237	2.5455	0.	4.2908e-003
12329	10.329	2.5455	5.e-002	5.2817
12330	10.329	2.2727	0.	4.5831e-003
12331	10.237	2.3636	0.	4.3873e-003
12332	10.329	2.3636	5.e-002	5.2826
12333	10.329	2.0909	0.	4.7199e-003
12334	10.237	2.1818	0.	4.51e-003
12335	10.329	2.1818	5.e-002	5.2835
12336	10.329	1.9091	0.	4.8802e-003
12337	10.237	2.	0.	4.6534e-003
12338	10.329	2.	5.e-002	5.2844
12339	10.329	1.7273	0.	5.071e-003
12340	10.237	1.8182	0.	4.8139e-003
12341	10.329	1.8182	5.e-002	5.2852
12342	10.329	1.5455	0.	5.3181e-003
12343	10.237	1.6364	0.	4.9969e-003
12344	10.329	1.6364	5.e-002	5.2856
12345	10.329	1.3636	0.	5.6941e-003
12346	10.237	1.4545	0.	5.2212e-003
12347	10.329	1.4545	5.e-002	5.2857
12348	10.329	1.1818	0.	6.4508e-003
12349	10.237	1.2727	0.	5.541e-003
12350	10.329	1.2727	5.e-002	5.2851
12351	10.329	1.	0.	8.8982e-003
12352	10.237	1.0909	0.	6.167e-003
12353	10.329	1.0909	5.e-002	5.2838
12354	10.329	0.81818	0.	0.15529
12355	10.237	0.90909	0.	8.1432e-003
12356	10.329	0.90909	5.e-002	5.2815
12357	10.329	0.63636	0.	2.0893
12358	10.237	0.72727	0.	0.20089
12359	10.329	0.72727	5.e-002	5.277
12360	10.329	0.45455	0.	4.1561
12361	10.237	0.54545	0.	2.3808
12362	10.329	0.54545	5.e-002	5.2542
12363	10.329	0.27273	0.	6.7861
12364	10.237	0.36364	0.	4.7125
12365	10.329	0.36364	5.e-002	4.9674
12366	10.237	0.18182	0.	8.121
12367	10.329	0.18182	5.e-002	0.64432
12368	10.329	9.0909e-002	0.	5.8534
12369	10.144	5.7273	0.	5.9666
12370	10.052	5.8182	0.	7.4982
12371	10.144	5.8182	5.e-002	0.68337
12372	10.144	5.9091	0.	5.5013
12373	10.144	5.5455	0.	2.9139
12374	10.052	5.6364	0.	3.6626
12375	10.144	5.6364	5.e-002	4.9894
12376	10.144	5.3636	0.	0.44758
12377	10.052	5.4545	0.	0.90616
12378	10.144	5.4545	5.e-002	5.276
12379	10.144	5.1818	0.	7.7914e-003
12380	10.052	5.2727	0.	7.5319e-003
12381	10.144	5.2727	5.e-002	5.2993
12382	10.144	5.	0.	5.9359e-003
12383	10.052	5.0909	0.	5.7021e-003
12384	10.144	5.0909	5.e-002	5.3045
12385	10.144	4.8182	0.	5.4233e-003
12386	10.052	4.9091	0.	5.3129e-003
12387	10.144	4.9091	5.e-002	5.3077
12388	10.144	4.6364	0.	5.1393e-003
12389	10.052	4.7273	0.	5.0618e-003
12390	10.144	4.7273	5.e-002	5.3099
12391	10.144	4.4545	0.	4.9347e-003
12392	10.052	4.5455	0.	4.876e-003
12393	10.144	4.5455	5.e-002	5.3114
12394	10.144	4.2727	0.	4.7576e-003
12395	10.052	4.3636	0.	4.7018e-003
12396	10.144	4.3636	5.e-002	5.3123
12397	10.144	4.0909	0.	4.5966e-003
12398	10.052	4.1818	0.	4.5374e-003
12399	10.144	4.1818	5.e-002	5.3127
12400	10.144	3.9091	0.	4.449e-003
12401	10.052	4.	0.	4.3817e-003
12402	10.144	4.	5.e-002	5.3127
12403	10.144	3.7273	0.	4.3171e-003
12404	10.052	3.8182	0.	4.2381e-003
12405	10.144	3.8182	5.e-002	5.3125
12406	10.144	3.5455	0.	4.2077e-003
12407	10.052	3.6364	0.	4.1132e-003
12408	10.144	3.6364	5.e-002	5.3122
12409	10.144	3.3636	0.	4.1257e-003
12410	10.052	3.4545	0.	4.015e-003
12411	10.144	3.4545	5.e-002	5.3119
12412	10.144	3.1818	0.	4.0738e-003
12413	10.052	3.2727	0.	3.9454e-003
12414	10.144	3.2727	5.e-002	5.3117
12415	10.144	3.	0.	4.056e-003
12416	10.052	3.0909	0.	3.9093e-003
12417	10.144	3.0909	5.e-002	5.3115
12418	10.144	2.8182	0.	4.0738e-003
12419	10.052	2.9091	0.	3.9096e-003
12420	10.144	2.9091	5.e-002	5.3115
12421	10.144	2.6364	0.	4.1255e-003
12422	10.052	2.7273	0.	3.9455e-003
12423	10.144	2.7273	5.e-002	5.3117
12424	10.144	2.4545	0.	4.2078e-003
12425	10.052	2.5455	0.	4.015e-003
12426	10.144	2.5455	5.e-002	5.3119
12427	10.144	2.2727	0.	4.3173e-003
12428	10.052	2.3636	0.	4.1135e-003
12429	10.144	2.3636	5.e-002	5.3122
12430	10.144	2.0909	0.	4.4492e-003
12431	10.052	2.1818	0.	4.2381e-003
12432	10.144	2.1818	5.e-002	5.3125
12433	10.144	1.9091	0.	4.5973e-003
12434	10.052	2.	0.	4.382e-003
12435	10.144	2.	5.e-002	5.3127
12436	10.144	1.7273	0.	4.7584e-003
12437	10.052	1.8182	0.	4.5381e-003
12438	10.144	1.8182	5.e-002	5.3127
12439	10.144	1.5455	0.	4.9355e-003
12440	10.052	1.6364	0.	4.7026e-003
12441	10.144	1.6364	5.e-002	5.3123
12442	10.144	1.3636	0.	5.1402e-003
12443	10.052	1.4545	0.	4.8768e-003
12444	10.144	1.4545	5.e-002	5.3114
12445	10.144	1.1818	0.	5.4243e-003
12446	10.052	1.2727	0.	5.0626e-003
12447	10.144	1.2727	5.e-002	5.3099
12448	10.144	1.	0.	5.9369e-003
12449	10.052	1.0909	0.	5.3139e-003
12450	10.144	1.0909	5.e-002	5.3077
12451	10.144	0.81818	0.	7.7926e-003
12452	10.052	0.90909	0.	5.7035e-003
12453	10.144	0.90909	5.e-002	5.3046
12454	10.144	0.63636	0.	0.4476
12455	10.052	0.72727	0.	7.5332e-003
12456	10.144	0.72727	5.e-002	5.2994
12457	10.144	0.45455	0.	2.9139
12458	10.052	0.54545	0.	0.90619
12459	10.144	0.54545	5.e-002	5.276
12460	10.144	0.27273	0.	5.9667
12461	10.052	0.36364	0.	3.6626
12462	10.144	0.36364	5.e-002	4.9894
12463	10.052	0.18182	0.	7.4983
12464	10.144	0.18182	5.e-002	0.68338
12465	10.144	9.0909e-002	0.	5.5013
12466	9.96	5.7273	0.	5.115
12467	9.8678	5.8182	0.	6.8455
12468	9.96	5.8182	5.e-002	0.73208
12469	9.96	5.9091	0.	5.1317
12470	9.96	5.5455	0.	1.6301
12471	9.8678	5.6364	0.	2.5727
12472	9.96	5.6364	5.e-002	5.0138
12473	9.96	5.3636	0.	6.9795e-003
12474	9.8678	5.4545	0.	6.6993e-003
12475	9.96	5.4545	5.e-002	5.2996
12476	9.96	5.1818	0.	5.6456e-003
12477	9.8678	5.2727	0.	5.6356e-003
12478	9.96	5.2727	5.e-002	5.3235
12479	9.96	5.	0.	5.2047e-003
12480	9.8678	5.0909	0.	5.1154e-003
12481	9.96	5.0909	5.e-002	5.3293
12482	9.96	4.8182	0.	5.0144e-003
12483	9.8678	4.9091	0.	4.9927e-003
12484	9.96	4.9091	5.e-002	5.3332
12485	9.96	4.6364	0.	4.8326e-003
12486	9.8678	4.7273	0.	4.8083e-003
12487	9.96	4.7273	5.e-002	5.3361
12488	9.96	4.4545	0.	4.6624e-003
12489	9.8678	4.5455	0.	4.6378e-003
12490	9.96	4.5455	5.e-002	5.3384
12491	9.96	4.2727	0.	4.4928e-003
12492	9.8678	4.3636	0.	4.4576e-003
12493	9.96	4.3636	5.e-002	5.34
12494	9.96	4.0909	0.	4.3289e-003
12495	9.8678	4.1818	0.	4.2805e-003
12496	9.96	4.1818	5.e-002	5.3411
12497	9.96	3.9091	0.	4.1745e-003
12498	9.8678	4.	0.	4.111e-003
12499	9.96	4.	5.e-002	5.3418
12500	9.96	3.7273	0.	4.0361e-003
12501	9.8678	3.8182	0.	3.9548e-003
12502	9.96	3.8182	5.e-002	5.3422
12503	9.96	3.5455	0.	3.9214e-003
12504	9.8678	3.6364	0.	3.8204e-003
12505	9.96	3.6364	5.e-002	5.3424
12506	9.96	3.3636	0.	3.8349e-003
12507	9.8678	3.4545	0.	3.7146e-003
12508	9.96	3.4545	5.e-002	5.3424
12509	9.96	3.1818	0.	3.7808e-003
12510	9.8678	3.2727	0.	3.6405e-003
12511	9.96	3.2727	5.e-002	5.3424
12512	9.96	3.	0.	3.7627e-003
12513	9.8678	3.0909	0.	3.6022e-003
12514	9.96	3.0909	5.e-002	5.3424
12515	9.96	2.8182	0.	3.7813e-003
12516	9.8678	2.9091	0.	3.6024e-003
12517	9.96	2.9091	5.e-002	5.3424
12518	9.96	2.6364	0.	3.8353e-003
12519	9.8678	2.7273	0.	3.6407e-003
12520	9.96	2.7273	5.e-002	5.3424
12521	9.96	2.4545	0.	3.9216e-003
12522	9.8678	2.5455	0.	3.7149e-003
12523	9.96	2.5455	5.e-002	5.3424
12524	9.96	2.2727	0.	4.0363e-003
12525	9.8678	2.3636	0.	3.8205e-003
12526	9.96	2.3636	5.e-002	5.3424
12527	9.96	2.0909	0.	4.1746e-003
12528	9.8678	2.1818	0.	3.9552e-003
12529	9.96	2.1818	5.e-002	5.3422
12530	9.96	1.9091	0.	4.3293e-003
12531	9.8678	2.	0.	4.1112e-003
12532	9.96	2.	5.e-002	5.3418
12533	9.96	1.7273	0.	4.4935e-003
12534	9.8678	1.8182	0.	4.281e-003
12535	9.96	1.8182	5.e-002	5.3411
12536	9.96	1.5455	0.	4.6633e-003
12537	9.8678	1.6364	0.	4.4581e-003
12538	9.96	1.6364	5.e-002	5.34
12539	9.96	1.3636	0.	4.8332e-003
12540	9.8678	1.4545	0.	4.6385e-003
12541	9.96	1.4545	5.e-002	5.3384
12542	9.96	1.1818	0.	5.0152e-003
12543	9.8678	1.2727	0.	4.8087e-003
12544	9.96	1.2727	5.e-002	5.3361
12545	9.96	1.	0.	5.2062e-003
12546	9.8678	1.0909	0.	4.9936e-003
12547	9.96	1.0909	5.e-002	5.3332
12548	9.96	0.81818	0.	5.6471e-003
12549	9.8678	0.90909	0.	5.1167e-003
12550	9.96	0.90909	5.e-002	5.3293
12551	9.96	0.63636	0.	6.9804e-003
12552	9.8678	0.72727	0.	5.637e-003
12553	9.96	0.72727	5.e-002	5.3235
12554	9.96	0.45455	0.	1.6302
12555	9.8678	0.54545	0.	6.7002e-003
12556	9.96	0.54545	5.e-002	5.2996
12557	9.96	0.27273	0.	5.1151
12558	9.8678	0.36364	0.	2.5728
12559	9.96	0.36364	5.e-002	5.0138
12560	9.8678	0.18182	0.	6.8455
12561	9.96	0.18182	5.e-002	0.7321
12562	9.96	9.0909e-002	0.	5.1317
12563	9.7756	5.7273	0.	4.2262
12564	9.6833	5.8182	0.	6.1598
12565	9.7756	5.8182	5.e-002	0.7903
12566	9.7756	5.9091	0.	4.743
12567	9.7756	5.5455	0.	0.29528
12568	9.6833	5.6364	0.	1.4355
12569	9.7756	5.6364	5.e-002	5.0406
12570	9.7756	5.3636	0.	4.9874e-003
12571	9.6833	5.4545	0.	4.3135e-003
12572	9.7756	5.4545	5.e-002	5.3251
12573	9.7756	5.1818	0.	5.2359e-003
12574	9.6833	5.2727	0.	5.4735e-003
12575	9.7756	5.2727	5.e-002	5.3494
12576	9.7756	5.	0.	4.9677e-003
12577	9.6833	5.0909	0.	5.0039e-003
12578	9.7756	5.0909	5.e-002	5.3558
12579	9.7756	4.8182	0.	4.8217e-003
12580	9.6833	4.9091	0.	4.8938e-003
12581	9.7756	4.9091	5.e-002	5.3602
12582	9.7756	4.6364	0.	4.6338e-003
12583	9.6833	4.7273	0.	4.6761e-003
12584	9.7756	4.7273	5.e-002	5.3638
12585	9.7756	4.4545	0.	4.4449e-003
12586	9.6833	4.5455	0.	4.471e-003
12587	9.7756	4.5455	5.e-002	5.3666
12588	9.7756	4.2727	0.	4.2524e-003
12589	9.6833	4.3636	0.	4.2558e-003
12590	9.7756	4.3636	5.e-002	5.3688
12591	9.7756	4.0909	0.	4.0666e-003
12592	9.6833	4.1818	0.	4.0473e-003
12593	9.7756	4.1818	5.e-002	5.3705
12594	9.7756	3.9091	0.	3.8934e-003
12595	9.6833	4.	0.	3.8515e-003
12596	9.7756	4.	5.e-002	5.3717
12597	9.7756	3.7273	0.	3.74e-003
12598	9.6833	3.8182	0.	3.674e-003
12599	9.7756	3.8182	5.e-002	5.3726
12600	9.7756	3.5455	0.	3.6137e-003
12601	9.6833	3.6364	0.	3.5231e-003
12602	9.7756	3.6364	5.e-002	5.3732
12603	9.7756	3.3636	0.	3.5198e-003
12604	9.6833	3.4545	0.	3.4056e-003
12605	9.7756	3.4545	5.e-002	5.3736
12606	9.7756	3.1818	0.	3.4611e-003
12607	9.6833	3.2727	0.	3.3239e-003
12608	9.7756	3.2727	5.e-002	5.3738
12609	9.7756	3.	0.	3.4411e-003
12610	9.6833	3.0909	0.	3.2819e-003
12611	9.7756	3.0909	5.e-002	5.3739
12612	9.7756	2.8182	0.	3.4612e-003
12613	9.6833	2.9091	0.	3.2817e-003
12614	9.7756	2.9091	5.e-002	5.3739
12615	9.7756	2.6364	0.	3.5199e-003
12616	9.6833	2.7273	0.	3.324e-003
12617	9.7756	2.7273	5.e-002	5.3738
12618	9.7756	2.4545	0.	3.6139e-003
12619	9.6833	2.5455	0.	3.4059e-003
12620	9.7756	2.5455	5.e-002	5.3736
12621	9.7756	2.2727	0.	3.7403e-003
12622	9.6833	2.3636	0.	3.5235e-003
12623	9.7756	2.3636	5.e-002	5.3732
12624	9.7756	2.0909	0.	3.8939e-003
12625	9.6833	2.1818	0.	3.6744e-003
12626	9.7756	2.1818	5.e-002	5.3726
12627	9.7756	1.9091	0.	4.067e-003
12628	9.6833	2.	0.	3.8517e-003
12629	9.7756	2.	5.e-002	5.3718
12630	9.7756	1.7273	0.	4.2527e-003
12631	9.6833	1.8182	0.	4.0478e-003
12632	9.7756	1.8182	5.e-002	5.3705
12633	9.7756	1.5455	0.	4.4454e-003
12634	9.6833	1.6364	0.	4.2562e-003
12635	9.7756	1.6364	5.e-002	5.3689
12636	9.7756	1.3636	0.	4.6343e-003
12637	9.6833	1.4545	0.	4.4715e-003
12638	9.7756	1.4545	5.e-002	5.3667
12639	9.7756	1.1818	0.	4.8223e-003
12640	9.6833	1.2727	0.	4.6769e-003
12641	9.7756	1.2727	5.e-002	5.3638
12642	9.7756	1.	0.	4.9685e-003
12643	9.6833	1.0909	0.	4.8945e-003
12644	9.7756	1.0909	5.e-002	5.3602
12645	9.7756	0.81818	0.	5.2371e-003
12646	9.6833	0.90909	0.	5.0049e-003
12647	9.7756	0.90909	5.e-002	5.3558
12648	9.7756	0.63636	0.	4.9885e-003
12649	9.6833	0.72727	0.	5.4749e-003
12650	9.7756	0.72727	5.e-002	5.3494
12651	9.7756	0.45455	0.	0.29531
12652	9.6833	0.54545	0.	4.3144e-003
12653	9.7756	0.54545	5.e-002	5.3251
12654	9.7756	0.27273	0.	4.2262
12655	9.6833	0.36364	0.	1.4355
12656	9.7756	0.36364	5.e-002	5.0406
12657	9.6833	0.18182	0.	6.1598
12658	9.7756	0.18182	5.e-002	0.7903
12659	9.7756	9.0909e-002	0.	4.7431
12660	9.5911	5.7273	0.	3.2954
12661	9.4989	5.8182	0.	5.4383
12662	9.5911	5.8182	5.e-002	0.85781
12663	9.5911	5.9091	0.	4.3338
12664	9.5911	5.5455	0.	8.3345e-003
12665	9.4989	5.6364	0.	0.25146
12666	9.5911	5.6364	5.e-002	5.0694
12667	9.5911	5.3636	0.	4.9667e-003
12668	9.4989	5.4545	0.	4.5853e-003
12669	9.5911	5.4545	5.e-002	5.3523
12670	9.5911	5.1818	0.	5.3082e-003
12671	9.4989	5.2727	0.	5.7728e-003
12672	9.5911	5.2727	5.e-002	5.377
12673	9.5911	5.	0.	4.9647e-003
12674	9.4989	5.0909	0.	5.114e-003
12675	9.5911	5.0909	5.e-002	5.3839
12676	9.5911	4.8182	0.	4.7679e-003
12677	9.4989	4.9091	0.	4.9262e-003
12678	9.5911	4.9091	5.e-002	5.3888
12679	9.5911	4.6364	0.	4.525e-003
12680	9.4989	4.7273	0.	4.6283e-003
12681	9.5911	4.7273	5.e-002	5.3929
12682	9.5911	4.4545	0.	4.2886e-003
12683	9.4989	4.5455	0.	4.3602e-003
12684	9.5911	4.5455	5.e-002	5.3962
12685	9.5911	4.2727	0.	4.0544e-003
12686	9.4989	4.3636	0.	4.0909e-003
12687	9.5911	4.3636	5.e-002	5.3989
12688	9.5911	4.0909	0.	3.8339e-003
12689	9.4989	4.1818	0.	3.8379e-003
12690	9.5911	4.1818	5.e-002	5.4011
12691	9.5911	3.9091	0.	3.6325e-003
12692	9.4989	4.	0.	3.6055e-003
12693	9.5911	4.	5.e-002	5.4027
12694	9.5911	3.7273	0.	3.4567e-003
12695	9.4989	3.8182	0.	3.3992e-003
12696	9.5911	3.8182	5.e-002	5.4039
12697	9.5911	3.5455	0.	3.314e-003
12698	9.4989	3.6364	0.	3.226e-003
12699	9.5911	3.6364	5.e-002	5.4048
12700	9.5911	3.3636	0.	3.2084e-003
12701	9.4989	3.4545	0.	3.0926e-003
12702	9.5911	3.4545	5.e-002	5.4054
12703	9.5911	3.1818	0.	3.1431e-003
12704	9.4989	3.2727	0.	3.0002e-003
12705	9.5911	3.2727	5.e-002	5.4058
12706	9.5911	3.	0.	3.1209e-003
12707	9.4989	3.0909	0.	2.9533e-003
12708	9.5911	3.0909	5.e-002	5.406
12709	9.5911	2.8182	0.	3.143e-003
12710	9.4989	2.9091	0.	2.9533e-003
12711	9.5911	2.9091	5.e-002	5.406
12712	9.5911	2.6364	0.	3.2086e-003
12713	9.4989	2.7273	0.	3.0006e-003
12714	9.5911	2.7273	5.e-002	5.4058
12715	9.5911	2.4545	0.	3.3145e-003
12716	9.4989	2.5455	0.	3.0927e-003
12717	9.5911	2.5455	5.e-002	5.4054
12718	9.5911	2.2727	0.	3.4572e-003
12719	9.4989	2.3636	0.	3.2268e-003
12720	9.5911	2.3636	5.e-002	5.4048
12721	9.5911	2.0909	0.	3.6326e-003
12722	9.4989	2.1818	0.	3.3993e-003
12723	9.5911	2.1818	5.e-002	5.404
12724	9.5911	1.9091	0.	3.8343e-003
12725	9.4989	2.	0.	3.606e-003
12726	9.5911	2.	5.e-002	5.4027
12727	9.5911	1.7273	0.	4.055e-003
12728	9.4989	1.8182	0.	3.8385e-003
12729	9.5911	1.8182	5.e-002	5.4011
12730	9.5911	1.5455	0.	4.2891e-003
12731	9.4989	1.6364	0.	4.0913e-003
12732	9.5911	1.6364	5.e-002	5.399
12733	9.5911	1.3636	0.	4.5258e-003
12734	9.4989	1.4545	0.	4.3605e-003
12735	9.5911	1.4545	5.e-002	5.3962
12736	9.5911	1.1818	0.	4.769e-003
12737	9.4989	1.2727	0.	4.6293e-003
12738	9.5911	1.2727	5.e-002	5.3929
12739	9.5911	1.	0.	4.9657e-003
12740	9.4989	1.0909	0.	4.9269e-003
12741	9.5911	1.0909	5.e-002	5.3888
12742	9.5911	0.81818	0.	5.3095e-003
12743	9.4989	0.90909	0.	5.1154e-003
12744	9.5911	0.90909	5.e-002	5.3839
12745	9.5911	0.63636	0.	4.9678e-003
12746	9.4989	0.72727	0.	5.7738e-003
12747	9.5911	0.72727	5.e-002	5.377
12748	9.5911	0.45455	0.	8.3355e-003
12749	9.4989	0.54545	0.	4.5859e-003
12750	9.5911	0.54545	5.e-002	5.3524
12751	9.5911	0.27273	0.	3.2954
12752	9.4989	0.36364	0.	0.2515
12753	9.5911	0.36364	5.e-002	5.0695
12754	9.4989	0.18182	0.	5.4384
12755	9.5911	0.18182	5.e-002	0.85781
12756	9.5911	9.0909e-002	0.	4.3338
12757	9.4067	5.7273	0.	2.3195
12758	9.3144	5.8182	0.	4.6787
12759	9.4067	5.8182	5.e-002	0.93466
12760	9.4067	5.9091	0.	3.9025
12761	9.4067	5.5455	0.	1.0165e-002
12762	9.3144	5.6364	0.	2.1568e-002
12763	9.4067	5.6364	5.e-002	5.1005
12764	9.4067	5.3636	0.	5.3846e-003
12765	9.3144	5.4545	0.	5.2311e-003
12766	9.4067	5.4545	5.e-002	5.3813
12767	9.4067	5.1818	0.	5.5966e-003
12768	9.3144	5.2727	0.	6.2855e-003
12769	9.4067	5.2727	5.e-002	5.4062
12770	9.4067	5.	0.	5.0882e-003
12771	9.3144	5.0909	0.	5.3517e-003
12772	9.4067	5.0909	5.e-002	5.4136
12773	9.4067	4.8182	0.	4.7944e-003
12774	9.3144	4.9091	0.	5.0418e-003
12775	9.4067	4.9091	5.e-002	5.419
12776	9.4067	4.6364	0.	4.4679e-003
12777	9.3144	4.7273	0.	4.635e-003
12778	9.4067	4.7273	5.e-002	5.4235
12779	9.4067	4.4545	0.	4.1645e-003
12780	9.3144	4.5455	0.	4.2837e-003
12781	9.4067	4.5455	5.e-002	5.4273
12782	9.4067	4.2727	0.	3.8749e-003
12783	9.3144	4.3636	0.	3.946e-003
12784	9.4067	4.3636	5.e-002	5.4304
12785	9.4067	4.0909	0.	3.6088e-003
12786	9.3144	4.1818	0.	3.6376e-003
12787	9.4067	4.1818	5.e-002	5.4329
12788	9.4067	3.9091	0.	3.3708e-003
12789	9.3144	4.	0.	3.36e-003
12790	9.4067	4.	5.e-002	5.4348
12791	9.4067	3.7273	0.	3.1666e-003
12792	9.3144	3.8182	0.	3.118e-003
12793	9.4067	3.8182	5.e-002	5.4363
12794	9.4067	3.5455	0.	3.0024e-003
12795	9.3144	3.6364	0.	2.9173e-003
12796	9.4067	3.6364	5.e-002	5.4375
12797	9.4067	3.3636	0.	2.882e-003
12798	9.3144	3.4545	0.	2.7637e-003
12799	9.4067	3.4545	5.e-002	5.4383
12800	9.4067	3.1818	0.	2.8078e-003
12801	9.3144	3.2727	0.	2.6586e-003
12802	9.4067	3.2727	5.e-002	5.4387
12803	9.4067	3.	0.	2.783e-003
12804	9.3144	3.0909	0.	2.6049e-003
12805	9.4067	3.0909	5.e-002	5.439
12806	9.4067	2.8182	0.	2.8082e-003
12807	9.3144	2.9091	0.	2.6049e-003
12808	9.4067	2.9091	5.e-002	5.439
12809	9.4067	2.6364	0.	2.8822e-003
12810	9.3144	2.7273	0.	2.6588e-003
12811	9.4067	2.7273	5.e-002	5.4387
12812	9.4067	2.4545	0.	3.0028e-003
12813	9.3144	2.5455	0.	2.7639e-003
12814	9.4067	2.5455	5.e-002	5.4383
12815	9.4067	2.2727	0.	3.167e-003
12816	9.3144	2.3636	0.	2.9178e-003
12817	9.4067	2.3636	5.e-002	5.4375
12818	9.4067	2.0909	0.	3.3713e-003
12819	9.3144	2.1818	0.	3.118e-003
12820	9.4067	2.1818	5.e-002	5.4364
12821	9.4067	1.9091	0.	3.6096e-003
12822	9.3144	2.	0.	3.3607e-003
12823	9.4067	2.	5.e-002	5.4348
12824	9.4067	1.7273	0.	3.8753e-003
12825	9.3144	1.8182	0.	3.6382e-003
12826	9.4067	1.8182	5.e-002	5.4329
12827	9.4067	1.5455	0.	4.1648e-003
12828	9.3144	1.6364	0.	3.9465e-003
12829	9.4067	1.6364	5.e-002	5.4304
12830	9.4067	1.3636	0.	4.4684e-003
12831	9.3144	1.4545	0.	4.284e-003
12832	9.4067	1.4545	5.e-002	5.4273
12833	9.4067	1.1818	0.	4.7951e-003
12834	9.3144	1.2727	0.	4.6357e-003
12835	9.4067	1.2727	5.e-002	5.4235
12836	9.4067	1.	0.	5.0892e-003
12837	9.3144	1.0909	0.	5.0423e-003
12838	9.4067	1.0909	5.e-002	5.419
12839	9.4067	0.81818	0.	5.5977e-003
12840	9.3144	0.90909	0.	5.3533e-003
12841	9.4067	0.90909	5.e-002	5.4136
12842	9.4067	0.63636	0.	5.3851e-003
12843	9.3144	0.72727	0.	6.2863e-003
12844	9.4067	0.72727	5.e-002	5.4062
12845	9.4067	0.45455	0.	1.0166e-002
12846	9.3144	0.54545	0.	5.2314e-003
12847	9.4067	0.54545	5.e-002	5.3813
12848	9.4067	0.27273	0.	2.3195
12849	9.3144	0.36364	0.	2.1569e-002
12850	9.4067	0.36364	5.e-002	5.1006
12851	9.3144	0.18182	0.	4.6788
12852	9.4067	0.18182	5.e-002	0.93466
12853	9.4067	9.0909e-002	0.	3.9026
12854	9.2222	5.7273	0.	1.3028
12855	9.13	5.8182	0.	3.8793
12856	9.2222	5.8182	5.e-002	1.021
12857	9.2222	5.9091	0.	3.448
12858	9.2222	5.5455	0.	1.2156e-002
12859	9.13	5.6364	0.	2.343e-002
12860	9.2222	5.6364	5.e-002	5.1338
12861	9.2222	5.3636	0.	6.0023e-003
12862	9.13	5.4545	0.	6.0453e-003
12863	9.2222	5.4545	5.e-002	5.412
12864	9.2222	5.1818	0.	6.0177e-003
12865	9.13	5.2727	0.	6.9395e-003
12866	9.2222	5.2727	5.e-002	5.4372
12867	9.2222	5.	0.	5.2984e-003
12868	9.13	5.0909	0.	5.685e-003
12869	9.2222	5.0909	5.e-002	5.445
12870	9.2222	4.8182	0.	4.8791e-003
12871	9.13	4.9091	0.	5.2242e-003
12872	9.2222	4.9091	5.e-002	5.4508
12873	9.2222	4.6364	0.	4.4482e-003
12874	9.13	4.7273	0.	4.687e-003
12875	9.2222	4.7273	5.e-002	5.4557
12876	9.2222	4.4545	0.	4.0625e-003
12877	9.13	4.5455	0.	4.2372e-003
12878	9.2222	4.5455	5.e-002	5.4598
12879	9.2222	4.2727	0.	3.7058e-003
12880	9.13	4.3636	0.	3.8187e-003
12881	9.2222	4.3636	5.e-002	5.4632
12882	9.2222	4.0909	0.	3.3856e-003
12883	9.13	4.1818	0.	3.445e-003
12884	9.2222	4.1818	5.e-002	5.466
12885	9.2222	3.9091	0.	3.1037e-003
12886	9.13	4.	0.	3.1148e-003
12887	9.2222	4.	5.e-002	5.4682
12888	9.2222	3.7273	0.	2.8651e-003
12889	9.13	3.8182	0.	2.8302e-003
12890	9.2222	3.8182	5.e-002	5.4699
12891	9.2222	3.5455	0.	2.6748e-003
12892	9.13	3.6364	0.	2.5972e-003
12893	9.2222	3.6364	5.e-002	5.4712
12894	9.2222	3.3636	0.	2.5364e-003
12895	9.13	3.4545	0.	2.4196e-003
12896	9.2222	3.4545	5.e-002	5.4722
12897	9.2222	3.1818	0.	2.4517e-003
12898	9.13	3.2727	0.	2.2989e-003
12899	9.2222	3.2727	5.e-002	5.4728
12900	9.2222	3.	0.	2.4229e-003
12901	9.13	3.0909	0.	2.2376e-003
12902	9.2222	3.0909	5.e-002	5.473
12903	9.2222	2.8182	0.	2.4516e-003
12904	9.13	2.9091	0.	2.2375e-003
12905	9.2222	2.9091	5.e-002	5.473
12906	9.2222	2.6364	0.	2.5367e-003
12907	9.13	2.7273	0.	2.2991e-003
12908	9.2222	2.7273	5.e-002	5.4728
12909	9.2222	2.4545	0.	2.6752e-003
12910	9.13	2.5455	0.	2.42e-003
12911	9.2222	2.5455	5.e-002	5.4722
12912	9.2222	2.2727	0.	2.8652e-003
12913	9.13	2.3636	0.	2.5973e-003
12914	9.2222	2.3636	5.e-002	5.4713
12915	9.2222	2.0909	0.	3.1039e-003
12916	9.13	2.1818	0.	2.8303e-003
12917	9.2222	2.1818	5.e-002	5.4699
12918	9.2222	1.9091	0.	3.386e-003
12919	9.13	2.	0.	3.1151e-003
12920	9.2222	2.	5.e-002	5.4682
12921	9.2222	1.7273	0.	3.7064e-003
12922	9.13	1.8182	0.	3.4455e-003
12923	9.2222	1.8182	5.e-002	5.466
12924	9.2222	1.5455	0.	4.0629e-003
12925	9.13	1.6364	0.	3.8194e-003
12926	9.2222	1.6364	5.e-002	5.4632
12927	9.2222	1.3636	0.	4.4486e-003
12928	9.13	1.4545	0.	4.2378e-003
12929	9.2222	1.4545	5.e-002	5.4598
12930	9.2222	1.1818	0.	4.8796e-003
12931	9.13	1.2727	0.	4.6875e-003
12932	9.2222	1.2727	5.e-002	5.4557
12933	9.2222	1.	0.	5.2995e-003
12934	9.13	1.0909	0.	5.2247e-003
12935	9.2222	1.0909	5.e-002	5.4508
12936	9.2222	0.81818	0.	6.0189e-003
12937	9.13	0.90909	0.	5.6865e-003
12938	9.2222	0.90909	5.e-002	5.445
12939	9.2222	0.63636	0.	6.003e-003
12940	9.13	0.72727	0.	6.9405e-003
12941	9.2222	0.72727	5.e-002	5.4372
12942	9.2222	0.45455	0.	1.2157e-002
12943	9.13	0.54545	0.	6.0458e-003
12944	9.2222	0.54545	5.e-002	5.4121
12945	9.2222	0.27273	0.	1.3029
12946	9.13	0.36364	0.	2.343e-002
12947	9.2222	0.36364	5.e-002	5.1339
12948	9.13	0.18182	0.	3.8793
12949	9.2222	0.18182	5.e-002	1.0211
12950	9.2222	9.0909e-002	0.	3.448
12951	9.0378	5.7273	0.	0.34942
12952	8.9456	5.8182	0.	3.0406
12953	9.0378	5.8182	5.e-002	1.1173
12954	9.0378	5.9091	0.	2.9693
12955	9.0378	5.5455	0.	1.4292e-002
12956	8.9456	5.6364	0.	2.654e-002
12957	9.0378	5.6364	5.e-002	5.1694
12958	9.0378	5.3636	0.	6.7585e-003
12959	8.9456	5.4545	0.	6.9823e-003
12960	9.0378	5.4545	5.e-002	5.4445
12961	9.0378	5.1818	0.	6.5469e-003
12962	8.9456	5.2727	0.	7.7101e-003
12963	9.0378	5.2727	5.e-002	5.4699
12964	9.0378	5.	0.	5.5854e-003
12965	8.9456	5.0909	0.	6.1016e-003
12966	9.0378	5.0909	5.e-002	5.4781
12967	9.0378	4.8182	0.	5.018e-003
12968	8.9456	4.9091	0.	5.4673e-003
12969	9.0378	4.9091	5.e-002	5.4843
12970	9.0378	4.6364	0.	4.4664e-003
12971	8.9456	4.7273	0.	4.7822e-003
12972	9.0378	4.7273	5.e-002	5.4895
12973	9.0378	4.4545	0.	3.9859e-003
12974	8.9456	4.5455	0.	4.2203e-003
12975	9.0378	4.5455	5.e-002	5.4939
12976	9.0378	4.2727	0.	3.5514e-003
12977	8.9456	4.3636	0.	3.7097e-003
12978	9.0378	4.3636	5.e-002	5.4976
12979	9.0378	4.0909	0.	3.1682e-003
12980	8.9456	4.1818	0.	3.2614e-003
12981	9.0378	4.1818	5.e-002	5.5006
12982	9.0378	3.9091	0.	2.8356e-003
12983	8.9456	4.	0.	2.8704e-003
12984	9.0378	4.	5.e-002	5.503
12985	9.0378	3.7273	0.	2.5568e-003
12986	8.9456	3.8182	0.	2.5374e-003
12987	9.0378	3.8182	5.e-002	5.5049
12988	9.0378	3.5455	0.	2.3366e-003
12989	8.9456	3.6364	0.	2.267e-003
12990	9.0378	3.6364	5.e-002	5.5063
12991	9.0378	3.3636	0.	2.1768e-003
12992	8.9456	3.4545	0.	2.0621e-003
12993	9.0378	3.4545	5.e-002	5.5073
12994	9.0378	3.1818	0.	2.0795e-003
12995	8.9456	3.2727	0.	1.9232e-003
12996	9.0378	3.2727	5.e-002	5.508
12997	9.0378	3.	0.	2.0469e-003
12998	8.9456	3.0909	0.	1.853e-003
12999	9.0378	3.0909	5.e-002	5.5083
13000	9.0378	2.8182	0.	2.0797e-003
13001	8.9456	2.9091	0.	1.8532e-003
13002	9.0378	2.9091	5.e-002	5.5083
13003	9.0378	2.6364	0.	2.177e-003
13004	8.9456	2.7273	0.	1.9233e-003
13005	9.0378	2.7273	5.e-002	5.508
13006	9.0378	2.4545	0.	2.3366e-003
13007	8.9456	2.5455	0.	2.0623e-003
13008	9.0378	2.5455	5.e-002	5.5073
13009	9.0378	2.2727	0.	2.5568e-003
13010	8.9456	2.3636	0.	2.267e-003
13011	9.0378	2.3636	5.e-002	5.5063
13012	9.0378	2.0909	0.	2.8357e-003
13013	8.9456	2.1818	0.	2.5378e-003
13014	9.0378	2.1818	5.e-002	5.5049
13015	9.0378	1.9091	0.	3.1685e-003
13016	8.9456	2.	0.	2.8708e-003
13017	9.0378	2.	5.e-002	5.503
13018	9.0378	1.7273	0.	3.552e-003
13019	8.9456	1.8182	0.	3.262e-003
13020	9.0378	1.8182	5.e-002	5.5006
13021	9.0378	1.5455	0.	3.9866e-003
13022	8.9456	1.6364	0.	3.7105e-003
13023	9.0378	1.6364	5.e-002	5.4976
13024	9.0378	1.3636	0.	4.467e-003
13025	8.9456	1.4545	0.	4.2207e-003
13026	9.0378	1.4545	5.e-002	5.4939
13027	9.0378	1.1818	0.	5.0183e-003
13028	8.9456	1.2727	0.	4.7828e-003
13029	9.0378	1.2727	5.e-002	5.4895
13030	9.0378	1.	0.	5.5862e-003
13031	8.9456	1.0909	0.	5.468e-003
13032	9.0378	1.0909	5.e-002	5.4843
13033	9.0378	0.81818	0.	6.5481e-003
13034	8.9456	0.90909	0.	6.1027e-003
13035	9.0378	0.90909	5.e-002	5.4781
13036	9.0378	0.63636	0.	6.7592e-003
13037	8.9456	0.72727	0.	7.7112e-003
13038	9.0378	0.72727	5.e-002	5.47
13039	9.0378	0.45455	0.	1.4293e-002
13040	8.9456	0.54545	0.	6.9829e-003
13041	9.0378	0.54545	5.e-002	5.4446
13042	9.0378	0.27273	0.	0.34945
13043	8.9456	0.36364	0.	2.6541e-002
13044	9.0378	0.36364	5.e-002	5.1694
13045	8.9456	0.18182	0.	3.0406
13046	9.0378	0.18182	5.e-002	1.1173
13047	9.0378	9.0909e-002	0.	2.9693
13048	8.8533	5.7273	0.	8.4246e-002
13049	8.7611	5.8182	0.	2.1693
13050	8.8533	5.8182	5.e-002	1.2237
13051	8.8533	5.9091	0.	2.4664
13052	8.8533	5.5455	0.	1.6583e-002
13053	8.7611	5.6364	0.	3.0111e-002
13054	8.8533	5.6364	5.e-002	5.2074
13055	8.8533	5.3636	0.	7.6293e-003
13056	8.7611	5.4545	0.	8.0242e-003
13057	8.8533	5.4545	5.e-002	5.4789
13058	8.8533	5.1818	0.	7.1697e-003
13059	8.7611	5.2727	0.	8.5825e-003
13060	8.8533	5.2727	5.e-002	5.5045
13061	8.8533	5.	0.	5.9398e-003
13062	8.7611	5.0909	0.	6.5894e-003
13063	8.8533	5.0909	5.e-002	5.513
13064	8.8533	4.8182	0.	5.2064e-003
13065	8.7611	4.9091	0.	5.763e-003
13066	8.8533	4.9091	5.e-002	5.5195
13067	8.8533	4.6364	0.	4.5191e-003
13068	8.7611	4.7273	0.	4.9132e-003
13069	8.8533	4.7273	5.e-002	5.525
13070	8.8533	4.4545	0.	3.9313e-003
13071	8.7611	4.5455	0.	4.2262e-003
13072	8.8533	4.5455	5.e-002	5.5297
13073	8.8533	4.2727	0.	3.4093e-003
13074	8.7611	4.3636	0.	3.6124e-003
13075	8.8533	4.3636	5.e-002	5.5336
13076	8.8533	4.0909	0.	2.9546e-003
13077	8.7611	4.1818	0.	3.0808e-003
13078	8.8533	4.1818	5.e-002	5.5368
13079	8.8533	3.9091	0.	2.5641e-003
13080	8.7611	4.	0.	2.6213e-003
13081	8.8533	4.	5.e-002	5.5393
13082	8.8533	3.7273	0.	2.24e-003
13083	8.7611	3.8182	0.	2.2339e-003
13084	8.8533	3.8182	5.e-002	5.5413
13085	8.8533	3.5455	0.	1.9852e-003
13086	8.7611	3.6364	0.	1.9209e-003
13087	8.8533	3.6364	5.e-002	5.5428
13088	8.8533	3.3636	0.	1.8013e-003
13089	8.7611	3.4545	0.	1.6849e-003
13090	8.8533	3.4545	5.e-002	5.5439
13091	8.8533	3.1818	0.	1.6897e-003
13092	8.7611	3.2727	0.	1.5256e-003
13093	8.8533	3.2727	5.e-002	5.5446
13094	8.8533	3.	0.	1.6524e-003
13095	8.7611	3.0909	0.	1.4453e-003
13096	8.8533	3.0909	5.e-002	5.545
13097	8.8533	2.8182	0.	1.6899e-003
13098	8.7611	2.9091	0.	1.4454e-003
13099	8.8533	2.9091	5.e-002	5.545
13100	8.8533	2.6364	0.	1.8016e-003
13101	8.7611	2.7273	0.	1.5256e-003
13102	8.8533	2.7273	5.e-002	5.5446
13103	8.8533	2.4545	0.	1.9854e-003
13104	8.7611	2.5455	0.	1.6851e-003
13105	8.8533	2.5455	5.e-002	5.5439
13106	8.8533	2.2727	0.	2.2403e-003
13107	8.7611	2.3636	0.	1.9212e-003
13108	8.8533	2.3636	5.e-002	5.5429
13109	8.8533	2.0909	0.	2.5647e-003
13110	8.7611	2.1818	0.	2.2343e-003
13111	8.8533	2.1818	5.e-002	5.5413
13112	8.8533	1.9091	0.	2.9552e-003
13113	8.7611	2.	0.	2.6219e-003
13114	8.8533	2.	5.e-002	5.5393
13115	8.8533	1.7273	0.	3.4101e-003
13116	8.7611	1.8182	0.	3.0813e-003
13117	8.8533	1.8182	5.e-002	5.5368
13118	8.8533	1.5455	0.	3.9318e-003
13119	8.7611	1.6364	0.	3.6134e-003
13120	8.8533	1.6364	5.e-002	5.5336
13121	8.8533	1.3636	0.	4.5196e-003
13122	8.7611	1.4545	0.	4.2263e-003
13123	8.8533	1.4545	5.e-002	5.5297
13124	8.8533	1.1818	0.	5.2073e-003
13125	8.7611	1.2727	0.	4.914e-003
13126	8.8533	1.2727	5.e-002	5.525
13127	8.8533	1.	0.	5.9407e-003
13128	8.7611	1.0909	0.	5.7638e-003
13129	8.8533	1.0909	5.e-002	5.5195
13130	8.8533	0.81818	0.	7.1708e-003
13131	8.7611	0.90909	0.	6.5905e-003
13132	8.8533	0.90909	5.e-002	5.5131
13133	8.8533	0.63636	0.	7.6301e-003
13134	8.7611	0.72727	0.	8.5834e-003
13135	8.8533	0.72727	5.e-002	5.5045
13136	8.8533	0.45455	0.	1.6584e-002
13137	8.7611	0.54545	0.	8.0246e-003
13138	8.8533	0.54545	5.e-002	5.4789
13139	8.8533	0.27273	0.	8.4249e-002
13140	8.7611	0.36364	0.	3.0113e-002
13141	8.8533	0.36364	5.e-002	5.2074
13142	8.7611	0.18182	0.	2.1693
13143	8.8533	0.18182	5.e-002	1.2238
13144	8.8533	9.0909e-002	0.	2.4664
13145	8.6689	5.7273	0.	5.6726e-002
13146	8.5767	5.8182	0.	1.2978
13147	8.6689	5.8182	5.e-002	1.3411
13148	8.6689	5.9091	0.	1.941
13149	8.6689	5.5455	0.	1.9036e-002
13150	8.5767	5.6364	0.	3.4034e-002
13151	8.6689	5.6364	5.e-002	5.2479
13152	8.6689	5.3636	0.	8.5982e-003
13153	8.5767	5.4545	0.	9.1686e-003
13154	8.6689	5.4545	5.e-002	5.5153
13155	8.6689	5.1818	0.	7.8725e-003
13156	8.5767	5.2727	0.	9.553e-003
13157	8.6689	5.2727	5.e-002	5.541
13158	8.6689	5.	0.	6.3502e-003
13159	8.5767	5.0909	0.	7.1459e-003
13160	8.6689	5.0909	5.e-002	5.5499
13161	8.6689	4.8182	0.	5.4332e-003
13162	8.5767	4.9091	0.	6.109e-003
13163	8.6689	4.9091	5.e-002	5.5567
13164	8.6689	4.6364	0.	4.5956e-003
13165	8.5767	4.7273	0.	5.0781e-003
13166	8.6689	4.7273	5.e-002	5.5625
13167	8.6689	4.4545	0.	3.889e-003
13168	8.5767	4.5455	0.	4.2531e-003
13169	8.6689	4.5455	5.e-002	5.5673
13170	8.6689	4.2727	0.	3.2693e-003
13171	8.5767	4.3636	0.	3.5254e-003
13172	8.6689	4.3636	5.e-002	5.5714
13173	8.6689	4.0909	0.	2.7352e-003
13174	8.5767	4.1818	0.	2.9009e-003
13175	8.6689	4.1818	5.e-002	5.5747
13176	8.6689	3.9091	0.	2.2802e-003
13177	8.5767	4.	0.	2.3659e-003
13178	8.6689	4.	5.e-002	5.5773
13179	8.6689	3.7273	0.	1.9048e-003
13180	8.5767	3.8182	0.	1.9173e-003
13181	8.6689	3.8182	5.e-002	5.5794
13182	8.6689	3.5455	0.	1.6112e-003
13183	8.5767	3.6364	0.	1.5569e-003
13184	8.6689	3.6364	5.e-002	5.5809
13185	8.6689	3.3636	0.	1.4002e-003
13186	8.5767	3.4545	0.	1.286e-003
13187	8.6689	3.4545	5.e-002	5.5821
13188	8.6689	3.1818	0.	1.2724e-003
13189	8.5767	3.2727	0.	1.1039e-003
13190	8.6689	3.2727	5.e-002	5.5828
13191	8.6689	3.	0.	1.2296e-003
13192	8.5767	3.0909	0.	1.0121e-003
13193	8.6689	3.0909	5.e-002	5.5831
13194	8.6689	2.8182	0.	1.2723e-003
13195	8.5767	2.9091	0.	1.0122e-003
13196	8.6689	2.9091	5.e-002	5.5831
13197	8.6689	2.6364	0.	1.4002e-003
13198	8.5767	2.7273	0.	1.1039e-003
13199	8.6689	2.7273	5.e-002	5.5828
13200	8.6689	2.4545	0.	1.6115e-003
13201	8.5767	2.5455	0.	1.2864e-003
13202	8.6689	2.5455	5.e-002	5.5821
13203	8.6689	2.2727	0.	1.9052e-003
13204	8.5767	2.3636	0.	1.5572e-003
13205	8.6689	2.3636	5.e-002	5.5809
13206	8.6689	2.0909	0.	2.2806e-003
13207	8.5767	2.1818	0.	1.9177e-003
13208	8.6689	2.1818	5.e-002	5.5794
13209	8.6689	1.9091	0.	2.7356e-003
13210	8.5767	2.	0.	2.3662e-003
13211	8.6689	2.	5.e-002	5.5773
13212	8.6689	1.7273	0.	3.27e-003
13213	8.5767	1.8182	0.	2.9013e-003
13214	8.6689	1.8182	5.e-002	5.5747
13215	8.6689	1.5455	0.	3.8897e-003
13216	8.5767	1.6364	0.	3.5263e-003
13217	8.6689	1.6364	5.e-002	5.5714
13218	8.6689	1.3636	0.	4.5962e-003
13219	8.5767	1.4545	0.	4.2535e-003
13220	8.6689	1.4545	5.e-002	5.5673
13221	8.6689	1.1818	0.	5.4339e-003
13222	8.5767	1.2727	0.	5.0788e-003
13223	8.6689	1.2727	5.e-002	5.5625
13224	8.6689	1.	0.	6.351e-003
13225	8.5767	1.0909	0.	6.1096e-003
13226	8.6689	1.0909	5.e-002	5.5567
13227	8.6689	0.81818	0.	7.8735e-003
13228	8.5767	0.90909	0.	7.1471e-003
13229	8.6689	0.90909	5.e-002	5.5499
13230	8.6689	0.63636	0.	8.5987e-003
13231	8.5767	0.72727	0.	9.5539e-003
13232	8.6689	0.72727	5.e-002	5.5411
13233	8.6689	0.45455	0.	1.9037e-002
13234	8.5767	0.54545	0.	9.1688e-003
13235	8.6689	0.54545	5.e-002	5.5153
13236	8.6689	0.27273	0.	5.6728e-002
13237	8.5767	0.36364	0.	3.4035e-002
13238	8.6689	0.36364	5.e-002	5.2479
13239	8.5767	0.18182	0.	1.2979
13240	8.6689	0.18182	5.e-002	1.3411
13241	8.6689	9.0909e-002	0.	1.9411
13242	8.4844	5.7273	0.	4.9886e-002
13243	8.3922	5.8182	0.	0.58038
13244	8.4844	5.8182	5.e-002	1.4698
13245	8.4844	5.9091	0.	1.401
13246	8.4844	5.5455	0.	2.1675e-002
13247	8.3922	5.6364	0.	3.8296e-002
13248	8.4844	5.6364	5.e-002	5.2911
13249	8.4844	5.3636	0.	9.6719e-003
13250	8.3922	5.4545	0.	1.0421e-002
13251	8.4844	5.4545	5.e-002	5.5538
13252	8.4844	5.1818	0.	8.6617e-003
13253	8.3922	5.2727	0.	1.0625e-002
13254	8.4844	5.2727	5.e-002	5.5797
13255	8.4844	5.	0.	6.8229e-003
13256	8.3922	5.0909	0.	7.7729e-003
13257	8.4844	5.0909	5.e-002	5.5889
13258	8.4844	4.8182	0.	5.7053e-003
13259	8.3922	4.9091	0.	6.5069e-003
13260	8.4844	4.9091	5.e-002	5.596
13261	8.4844	4.6364	0.	4.7028e-003
13262	8.3922	4.7273	0.	5.2785e-003
13263	8.4844	4.7273	5.e-002	5.6019
13264	8.4844	4.4545	0.	3.8653e-003
13265	8.3922	4.5455	0.	4.3017e-003
13266	8.4844	4.5455	5.e-002	5.6069
13267	8.4844	4.2727	0.	3.1379e-003
13268	8.3922	4.3636	0.	3.4495e-003
13269	8.4844	4.3636	5.e-002	5.6111
13270	8.4844	4.0909	0.	2.5156e-003
13271	8.3922	4.1818	0.	2.7227e-003
13272	8.4844	4.1818	5.e-002	5.6144
13273	8.4844	3.9091	0.	1.989e-003
13274	8.3922	4.	0.	2.104e-003
13275	8.4844	4.	5.e-002	5.6171
13276	8.4844	3.7273	0.	1.5568e-003
13277	8.3922	3.8182	0.	1.5879e-003
13278	8.4844	3.8182	5.e-002	5.6192
13279	8.4844	3.5455	0.	1.2201e-003
13280	8.3922	3.6364	0.	1.1749e-003
13281	8.4844	3.6364	5.e-002	5.6208
13282	8.4844	3.3636	0.	9.7862e-004
13283	8.3922	3.4545	0.	8.6567e-004
13284	8.4844	3.4545	5.e-002	5.6219
13285	8.4844	3.1818	0.	8.3269e-004
13286	8.3922	3.2727	0.	6.5777e-004
13287	8.4844	3.2727	5.e-002	5.6226
13288	8.4844	3.	0.	7.8395e-004
13289	8.3922	3.0909	0.	5.5336e-004
13290	8.4844	3.0909	5.e-002	5.6229
13291	8.4844	2.8182	0.	8.3296e-004
13292	8.3922	2.9091	0.	5.5345e-004
13293	8.4844	2.9091	5.e-002	5.6229
13294	8.4844	2.6364	0.	9.79e-004
13295	8.3922	2.7273	0.	6.581e-004
13296	8.4844	2.7273	5.e-002	5.6226
13297	8.4844	2.4545	0.	1.2204e-003
13298	8.3922	2.5455	0.	8.6591e-004
13299	8.4844	2.5455	5.e-002	5.6219
13300	8.4844	2.2727	0.	1.5572e-003
13301	8.3922	2.3636	0.	1.1754e-003
13302	8.4844	2.3636	5.e-002	5.6208
13303	8.4844	2.0909	0.	1.9893e-003
13304	8.3922	2.1818	0.	1.5884e-003
13305	8.4844	2.1818	5.e-002	5.6192
13306	8.4844	1.9091	0.	2.5159e-003
13307	8.3922	2.	0.	2.1043e-003
13308	8.4844	2.	5.e-002	5.6171
13309	8.4844	1.7273	0.	3.1385e-003
13310	8.3922	1.8182	0.	2.7232e-003
13311	8.4844	1.8182	5.e-002	5.6145
13312	8.4844	1.5455	0.	3.8659e-003
13313	8.3922	1.6364	0.	3.4501e-003
13314	8.4844	1.6364	5.e-002	5.6111
13315	8.4844	1.3636	0.	4.7033e-003
13316	8.3922	1.4545	0.	4.3022e-003
13317	8.4844	1.4545	5.e-002	5.607
13318	8.4844	1.1818	0.	5.7059e-003
13319	8.3922	1.2727	0.	5.2792e-003
13320	8.4844	1.2727	5.e-002	5.6019
13321	8.4844	1.	0.	6.8239e-003
13322	8.3922	1.0909	0.	6.5075e-003
13323	8.4844	1.0909	5.e-002	5.596
13324	8.4844	0.81818	0.	8.6629e-003
13325	8.3922	0.90909	0.	7.7746e-003
13326	8.4844	0.90909	5.e-002	5.5889
13327	8.4844	0.63636	0.	9.6725e-003
13328	8.3922	0.72727	0.	1.0626e-002
13329	8.4844	0.72727	5.e-002	5.5797
13330	8.4844	0.45455	0.	2.1675e-002
13331	8.3922	0.54545	0.	1.0422e-002
13332	8.4844	0.54545	5.e-002	5.5539
13333	8.4844	0.27273	0.	4.9887e-002
13334	8.3922	0.36364	0.	3.8297e-002
13335	8.4844	0.36364	5.e-002	5.2911
13336	8.3922	0.18182	0.	0.5804
13337	8.4844	0.18182	5.e-002	1.4698
13338	8.4844	9.0909e-002	0.	1.401
13339	8.3	5.7273	0.	4.8378e-002
13340	8.2078	5.8182	0.	0.26711
13341	8.3	5.8182	5.e-002	1.6108
13342	8.3	5.9091	0.	0.87416
13343	8.3	5.5455	0.	2.4516e-002
13344	8.2078	5.6364	0.	4.2909e-002
13345	8.3	5.6364	5.e-002	5.3373
13346	8.3	5.3636	0.	1.0851e-002
13347	8.2078	5.4545	0.	1.1786e-002
13348	8.3	5.4545	5.e-002	5.5947
13349	8.3	5.1818	0.	9.5359e-003
13350	8.2078	5.2727	0.	1.1801e-002
13351	8.3	5.2727	5.e-002	5.6205
13352	8.3	5.	0.	7.3549e-003
13353	8.2078	5.0909	0.	8.4696e-003
13354	8.3	5.0909	5.e-002	5.6301
13355	8.3	4.8182	0.	6.0189e-003
13356	8.2078	4.9091	0.	6.9548e-003
13357	8.3	4.9091	5.e-002	5.6374
13358	8.3	4.6364	0.	4.8361e-003
13359	8.2078	4.7273	0.	5.5115e-003
13360	8.3	4.7273	5.e-002	5.6436
13361	8.3	4.4545	0.	3.8554e-003
13362	8.2078	4.5455	0.	4.3691e-003
13363	8.3	4.5455	5.e-002	5.6487
13364	8.3	4.2727	0.	3.0103e-003
13365	8.2078	4.3636	0.	3.3805e-003
13366	8.3	4.3636	5.e-002	5.6529
13367	8.3	4.0909	0.	2.2913e-003
13368	8.2078	4.1818	0.	2.5417e-003
13369	8.3	4.1818	5.e-002	5.6563
13370	8.3	3.9091	0.	1.6858e-003
13371	8.2078	4.	0.	1.8311e-003
13372	8.3	4.	5.e-002	5.6589
13373	8.3	3.7273	0.	1.1906e-003
13374	8.2078	3.8182	0.	1.2411e-003
13375	8.3	3.8182	5.e-002	5.661
13376	8.3	3.5455	0.	8.0622e-004
13377	8.2078	3.6364	0.	7.6997e-004
13378	8.3	3.6364	5.e-002	5.6625
13379	8.3	3.3636	0.	5.3136e-004
13380	8.2078	3.4545	0.	4.1827e-004
13381	8.3	3.4545	5.e-002	5.6636
13382	8.3	3.1818	0.	3.654e-004
13383	8.2078	3.2727	0.	1.8216e-004
13384	8.3	3.2727	5.e-002	5.6642
13385	8.3	3.	0.	3.0995e-004
13386	8.2078	3.0909	0.	6.3738e-005
13387	8.3	3.0909	5.e-002	5.6646
13388	8.3	2.8182	0.	3.6555e-004
13389	8.2078	2.9091	0.	6.3738e-005
13390	8.3	2.9091	5.e-002	5.6646
13391	8.3	2.6364	0.	5.3153e-004
13392	8.2078	2.7273	0.	1.823e-004
13393	8.3	2.7273	5.e-002	5.6642
13394	8.3	2.4545	0.	8.0666e-004
13395	8.2078	2.5455	0.	4.183e-004
13396	8.3	2.5455	5.e-002	5.6636
13397	8.3	2.2727	0.	1.1912e-003
13398	8.2078	2.3636	0.	7.7053e-004
13399	8.3	2.3636	5.e-002	5.6625
13400	8.3	2.0909	0.	1.6862e-003
13401	8.2078	2.1818	0.	1.2416e-003
13402	8.3	2.1818	5.e-002	5.661
13403	8.3	1.9091	0.	2.2917e-003
13404	8.2078	2.	0.	1.8314e-003
13405	8.3	2.	5.e-002	5.6589
13406	8.3	1.7273	0.	3.0109e-003
13407	8.2078	1.8182	0.	2.5421e-003
13408	8.3	1.8182	5.e-002	5.6563
13409	8.3	1.5455	0.	3.8561e-003
13410	8.2078	1.6364	0.	3.3812e-003
13411	8.3	1.6364	5.e-002	5.6529
13412	8.3	1.3636	0.	4.8368e-003
13413	8.2078	1.4545	0.	4.3699e-003
13414	8.3	1.4545	5.e-002	5.6487
13415	8.3	1.1818	0.	6.0195e-003
13416	8.2078	1.2727	0.	5.5123e-003
13417	8.3	1.2727	5.e-002	5.6436
13418	8.3	1.	0.	7.3562e-003
13419	8.2078	1.0909	0.	6.9554e-003
13420	8.3	1.0909	5.e-002	5.6375
13421	8.3	0.81818	0.	9.5375e-003
13422	8.2078	0.90909	0.	8.4713e-003
13423	8.3	0.90909	5.e-002	5.6301
13424	8.3	0.63636	0.	1.0851e-002
13425	8.2078	0.72727	0.	1.1802e-002
13426	8.3	0.72727	5.e-002	5.6206
13427	8.3	0.45455	0.	2.4517e-002
13428	8.2078	0.54545	0.	1.1787e-002
13429	8.3	0.54545	5.e-002	5.5947
13430	8.3	0.27273	0.	4.8379e-002
13431	8.2078	0.36364	0.	4.2911e-002
13432	8.3	0.36364	5.e-002	5.3373
13433	8.2078	0.18182	0.	0.26712
13434	8.3	0.18182	5.e-002	1.6107
13435	8.3	9.0909e-002	0.	0.87418
13436	8.1156	5.7273	0.	4.9158e-002
13437	8.0233	5.8182	0.	0.17286
13438	8.1156	5.8182	5.e-002	1.7647
13439	8.1156	5.9091	0.	0.45567
13440	8.1156	5.5455	0.	2.7577e-002
13441	8.0233	5.6364	0.	4.7901e-002
13442	8.1156	5.6364	5.e-002	5.3866
13443	8.1156	5.3636	0.	1.2137e-002
13444	8.0233	5.4545	0.	1.3272e-002
13445	8.1156	5.4545	5.e-002	5.6381
13446	8.1156	5.1818	0.	1.0497e-002
13447	8.0233	5.2727	0.	1.3086e-002
13448	8.1156	5.2727	5.e-002	5.664
13449	8.1156	5.	0.	7.9462e-003
13450	8.0233	5.0909	0.	9.2395e-003
13451	8.1156	5.0909	5.e-002	5.6738
13452	8.1156	4.8182	0.	6.3727e-003
13453	8.0233	4.9091	0.	7.4547e-003
13454	8.1156	4.9091	5.e-002	5.6813
13455	8.1156	4.6364	0.	4.994e-003
13456	8.0233	4.7273	0.	5.7783e-003
13457	8.1156	4.7273	5.e-002	5.6876
13458	8.1156	4.4545	0.	3.857e-003
13459	8.0233	4.5455	0.	4.4557e-003
13460	8.1156	4.5455	5.e-002	5.6928
13461	8.1156	4.2727	0.	2.8827e-003
13462	8.0233	4.3636	0.	3.3182e-003
13463	8.1156	4.3636	5.e-002	5.697
13464	8.1156	4.0909	0.	2.0575e-003
13465	8.0233	4.1818	0.	2.3568e-003
13466	8.1156	4.1818	5.e-002	5.7003
13467	8.1156	3.9091	0.	1.3657e-003
13468	8.0233	4.	0.	1.5457e-003
13469	8.1156	4.	5.e-002	5.7029
13470	8.1156	3.7273	0.	8.0195e-004
13471	8.0233	3.8182	0.	8.746e-004
13472	8.1156	3.8182	5.e-002	5.7049
13473	8.1156	3.5455	0.	3.6502e-004
13474	8.0233	3.6364	0.	3.4018e-004
13475	8.1156	3.6364	5.e-002	5.7063
13476	8.1156	3.3636	0.	5.3022e-005
13477	8.0233	3.4545	0.	-5.872e-005
13478	8.1156	3.4545	5.e-002	5.7073
13479	8.1156	3.1818	0.	-1.3502e-004
13480	8.0233	3.2727	0.	-3.2571e-004
13481	8.1156	3.2727	5.e-002	5.7079
13482	8.1156	3.	0.	-1.9782e-004
13483	8.0233	3.0909	0.	-4.5962e-004
13484	8.1156	3.0909	5.e-002	5.7082
13485	8.1156	2.8182	0.	-1.3502e-004
13486	8.0233	2.9091	0.	-4.5953e-004
13487	8.1156	2.9091	5.e-002	5.7082
13488	8.1156	2.6364	0.	5.3021e-005
13489	8.0233	2.7273	0.	-3.2556e-004
13490	8.1156	2.7273	5.e-002	5.7079
13491	8.1156	2.4545	0.	3.6517e-004
13492	8.0233	2.5455	0.	-5.8602e-005
13493	8.1156	2.5455	5.e-002	5.7073
13494	8.1156	2.2727	0.	8.0245e-004
13495	8.0233	2.3636	0.	3.4041e-004
13496	8.1156	2.3636	5.e-002	5.7063
13497	8.1156	2.0909	0.	1.3662e-003
13498	8.0233	2.1818	0.	8.751e-004
13499	8.1156	2.1818	5.e-002	5.7049
13500	8.1156	1.9091	0.	2.0578e-003
13501	8.0233	2.	0.	1.546e-003
13502	8.1156	2.	5.e-002	5.7029
13503	8.1156	1.7273	0.	2.8833e-003
13504	8.0233	1.8182	0.	2.3573e-003
13505	8.1156	1.8182	5.e-002	5.7003
13506	8.1156	1.5455	0.	3.8578e-003
13507	8.0233	1.6364	0.	3.3187e-003
13508	8.1156	1.6364	5.e-002	5.697
13509	8.1156	1.3636	0.	4.9949e-003
13510	8.0233	1.4545	0.	4.4566e-003
13511	8.1156	1.4545	5.e-002	5.6929
13512	8.1156	1.1818	0.	6.3735e-003
13513	8.0233	1.2727	0.	5.7792e-003
13514	8.1156	1.2727	5.e-002	5.6876
13515	8.1156	1.	0.	7.9473e-003
13516	8.0233	1.0909	0.	7.4554e-003
13517	8.1156	1.0909	5.e-002	5.6814
13518	8.1156	0.81818	0.	1.0498e-002
13519	8.0233	0.90909	0.	9.2409e-003
13520	8.1156	0.90909	5.e-002	5.6738
13521	8.1156	0.63636	0.	1.2138e-002
13522	8.0233	0.72727	0.	1.3087e-002
13523	8.1156	0.72727	5.e-002	5.664
13524	8.1156	0.45455	0.	2.7578e-002
13525	8.0233	0.54545	0.	1.3272e-002
13526	8.1156	0.54545	5.e-002	5.6381
13527	8.1156	0.27273	0.	4.916e-002
13528	8.0233	0.36364	0.	4.7902e-002
13529	8.1156	0.36364	5.e-002	5.3866
13530	8.0233	0.18182	0.	0.17287
13531	8.1156	0.18182	5.e-002	1.7647
13532	8.1156	9.0909e-002	0.	0.45568
13533	7.9311	5.7273	0.	5.1258e-002
13534	7.8389	5.8182	0.	0.13629
13535	7.9311	5.8182	5.e-002	1.9326
13536	7.9311	5.9091	0.	0.25266
13537	7.9311	5.5455	0.	3.0884e-002
13538	7.8389	5.6364	0.	5.3305e-002
13539	7.9311	5.6364	5.e-002	5.4395
13540	7.9311	5.3636	0.	1.3543e-002
13541	7.8389	5.4545	0.	1.4893e-002
13542	7.9311	5.4545	5.e-002	5.6842
13543	7.9311	5.1818	0.	1.1551e-002
13544	7.8389	5.2727	0.	1.4491e-002
13545	7.9311	5.2727	5.e-002	5.7101
13546	7.9311	5.	0.	8.6022e-003
13547	7.8389	5.0909	0.	1.009e-002
13548	7.9311	5.0909	5.e-002	5.7202
13549	7.9311	4.8182	0.	6.7713e-003
13550	7.8389	4.9091	0.	8.013e-003
13551	7.9311	4.9091	5.e-002	5.7279
13552	7.9311	4.6364	0.	5.1796e-003
13553	7.8389	4.7273	0.	6.0836e-003
13554	7.9311	4.7273	5.e-002	5.7343
13555	7.9311	4.4545	0.	3.8725e-003
13556	7.8389	4.5455	0.	4.5651e-003
13557	7.9311	4.5455	5.e-002	5.7395
13558	7.9311	4.2727	0.	2.7575e-003
13559	7.8389	4.3636	0.	3.2654e-003
13560	7.9311	4.3636	5.e-002	5.7436
13561	7.9311	4.0909	0.	1.8165e-003
13562	7.8389	4.1818	0.	2.1706e-003
13563	7.9311	4.1818	5.e-002	5.7468
13564	7.9311	3.9091	0.	1.0301e-003
13565	7.8389	4.	0.	1.2496e-003
13566	7.9311	4.	5.e-002	5.7493
13567	7.9311	3.7273	0.	3.9098e-004
13568	7.8389	3.8182	0.	4.8976e-004
13569	7.9311	3.8182	5.e-002	5.7511
13570	7.9311	3.5455	0.	-1.0359e-004
13571	7.8389	3.6364	0.	-1.1422e-004
13572	7.9311	3.6364	5.e-002	5.7524
13573	7.9311	3.3636	0.	-4.5632e-004
13574	7.8389	3.4545	0.	-5.6454e-004
13575	7.9311	3.4545	5.e-002	5.7533
13576	7.9311	3.1818	0.	-6.6852e-004
13577	7.8389	3.2727	0.	-8.6545e-004
13578	7.9311	3.2727	5.e-002	5.7539
13579	7.9311	3.	0.	-7.3933e-004
13580	7.8389	3.0909	0.	-1.0162e-003
13581	7.9311	3.0909	5.e-002	5.7541
13582	7.9311	2.8182	0.	-6.6829e-004
13583	7.8389	2.9091	0.	-1.0162e-003
13584	7.9311	2.9091	5.e-002	5.7541
13585	7.9311	2.6364	0.	-4.5605e-004
13586	7.8389	2.7273	0.	-8.6527e-004
13587	7.9311	2.7273	5.e-002	5.7539
13588	7.9311	2.4545	0.	-1.0339e-004
13589	7.8389	2.5455	0.	-5.6454e-004
13590	7.9311	2.5455	5.e-002	5.7533
13591	7.9311	2.2727	0.	3.9122e-004
13592	7.8389	2.3636	0.	-1.1395e-004
13593	7.9311	2.3636	5.e-002	5.7525
13594	7.9311	2.0909	0.	1.0304e-003
13595	7.8389	2.1818	0.	4.8994e-004
13596	7.9311	2.1818	5.e-002	5.7511
13597	7.9311	1.9091	0.	1.8169e-003
13598	7.8389	2.	0.	1.25e-003
13599	7.9311	2.	5.e-002	5.7493
13600	7.9311	1.7273	0.	2.758e-003
13601	7.8389	1.8182	0.	2.171e-003
13602	7.9311	1.8182	5.e-002	5.7469
13603	7.9311	1.5455	0.	3.8731e-003
13604	7.8389	1.6364	0.	3.266e-003
13605	7.9311	1.6364	5.e-002	5.7436
13606	7.9311	1.3636	0.	5.1805e-003
13607	7.8389	1.4545	0.	4.5658e-003
13608	7.9311	1.4545	5.e-002	5.7395
13609	7.9311	1.1818	0.	6.772e-003
13610	7.8389	1.2727	0.	6.0843e-003
13611	7.9311	1.2727	5.e-002	5.7343
13612	7.9311	1.	0.	8.6032e-003
13613	7.8389	1.0909	0.	8.0135e-003
13614	7.9311	1.0909	5.e-002	5.728
13615	7.9311	0.81818	0.	1.1553e-002
13616	7.8389	0.90909	0.	1.0092e-002
13617	7.9311	0.90909	5.e-002	5.7202
13618	7.9311	0.63636	0.	1.3544e-002
13619	7.8389	0.72727	0.	1.4493e-002
13620	7.9311	0.72727	5.e-002	5.7101
13621	7.9311	0.45455	0.	3.0885e-002
13622	7.8389	0.54545	0.	1.4893e-002
13623	7.9311	0.54545	5.e-002	5.6843
13624	7.9311	0.27273	0.	5.1259e-002
13625	7.8389	0.36364	0.	5.3307e-002
13626	7.9311	0.36364	5.e-002	5.4395
13627	7.8389	0.18182	0.	0.1363
13628	7.9311	0.18182	5.e-002	1.9326
13629	7.9311	9.0909e-002	0.	0.25266
13630	7.7467	5.7273	0.	5.4292e-002
13631	7.6544	5.8182	0.	0.11911
13632	7.7467	5.8182	5.e-002	2.1154
13633	7.7467	5.9091	0.	0.17821
13634	7.7467	5.5455	0.	3.4465e-002
13635	7.6544	5.6364	0.	5.9159e-002
13636	7.7467	5.6364	5.e-002	5.4961
13637	7.7467	5.3636	0.	1.5081e-002
13638	7.6544	5.4545	0.	1.6658e-002
13639	7.7467	5.4545	5.e-002	5.7334
13640	7.7467	5.1818	0.	1.2711e-002
13641	7.6544	5.2727	0.	1.6025e-002
13642	7.7467	5.2727	5.e-002	5.7592
13643	7.7467	5.	0.	9.3309e-003
13644	7.6544	5.0909	0.	1.1024e-002
13645	7.7467	5.0909	5.e-002	5.7696
13646	7.7467	4.8182	0.	7.2209e-003
13647	7.6544	4.9091	0.	8.6308e-003
13648	7.7467	4.9091	5.e-002	5.7775
13649	7.7467	4.6364	0.	5.398e-003
13650	7.6544	4.7273	0.	6.4268e-003
13651	7.7467	4.7273	5.e-002	5.7839
13652	7.7467	4.4545	0.	3.9058e-003
13653	7.6544	4.5455	0.	4.6957e-003
13654	7.7467	4.5455	5.e-002	5.789
13655	7.7467	4.2727	0.	2.6376e-003
13656	7.6544	4.3636	0.	3.2195e-003
13657	7.7467	4.3636	5.e-002	5.793
13658	7.7467	4.0909	0.	1.5701e-003
13659	7.6544	4.1818	0.	1.9794e-003
13660	7.7467	4.1818	5.e-002	5.796
13661	7.7467	3.9091	0.	6.8047e-004
13662	7.6544	4.	0.	9.3824e-004
13663	7.7467	4.	5.e-002	5.7983
13664	7.7467	3.7273	0.	-4.0947e-005
13665	7.6544	3.8182	0.	8.1892e-005
13666	7.7467	3.8182	5.e-002	5.7999
13667	7.7467	3.5455	0.	-5.985e-004
13668	7.6544	3.6364	0.	-5.9807e-004
13669	7.7467	3.6364	5.e-002	5.8011
13670	7.7467	3.3636	0.	-9.9562e-004
13671	7.6544	3.4545	0.	-1.1045e-003
13672	7.7467	3.4545	5.e-002	5.8018
13673	7.7467	3.1818	0.	-1.2343e-003
13674	7.6544	3.2727	0.	-1.4425e-003
13675	7.7467	3.2727	5.e-002	5.8022
13676	7.7467	3.	0.	-1.3139e-003
13677	7.6544	3.0909	0.	-1.6115e-003
13678	7.7467	3.0909	5.e-002	5.8024
13679	7.7467	2.8182	0.	-1.2343e-003
13680	7.6544	2.9091	0.	-1.6115e-003
13681	7.7467	2.9091	5.e-002	5.8024
13682	7.7467	2.6364	0.	-9.9572e-004
13683	7.6544	2.7273	0.	-1.4423e-003
13684	7.7467	2.7273	5.e-002	5.8022
13685	7.7467	2.4545	0.	-5.9844e-004
13686	7.6544	2.5455	0.	-1.1045e-003
13687	7.7467	2.5455	5.e-002	5.8018
13688	7.7467	2.2727	0.	-4.0742e-005
13689	7.6544	2.3636	0.	-5.9771e-004
13690	7.7467	2.3636	5.e-002	5.8011
13691	7.7467	2.0909	0.	6.8082e-004
13692	7.6544	2.1818	0.	8.2095e-005
13693	7.7467	2.1818	5.e-002	5.8
13694	7.7467	1.9091	0.	1.5706e-003
13695	7.6544	2.	0.	9.3918e-004
13696	7.7467	2.	5.e-002	5.7983
13697	7.7467	1.7273	0.	2.6381e-003
13698	7.6544	1.8182	0.	1.9797e-003
13699	7.7467	1.8182	5.e-002	5.796
13700	7.7467	1.5455	0.	3.9064e-003
13701	7.6544	1.6364	0.	3.2202e-003
13702	7.7467	1.6364	5.e-002	5.793
13703	7.7467	1.3636	0.	5.3986e-003
13704	7.6544	1.4545	0.	4.6963e-003
13705	7.7467	1.4545	5.e-002	5.789
13706	7.7467	1.1818	0.	7.2214e-003
13707	7.6544	1.2727	0.	6.4275e-003
13708	7.7467	1.2727	5.e-002	5.7839
13709	7.7467	1.	0.	9.332e-003
13710	7.6544	1.0909	0.	8.6313e-003
13711	7.7467	1.0909	5.e-002	5.7775
13712	7.7467	0.81818	0.	1.2712e-002
13713	7.6544	0.90909	0.	1.1026e-002
13714	7.7467	0.90909	5.e-002	5.7696
13715	7.7467	0.63636	0.	1.5081e-002
13716	7.6544	0.72727	0.	1.6026e-002
13717	7.7467	0.72727	5.e-002	5.7592
13718	7.7467	0.45455	0.	3.4466e-002
13719	7.6544	0.54545	0.	1.6658e-002
13720	7.7467	0.54545	5.e-002	5.7335
13721	7.7467	0.27273	0.	5.4294e-002
13722	7.6544	0.36364	0.	5.916e-002
13723	7.7467	0.36364	5.e-002	5.4961
13724	7.6544	0.18182	0.	0.11911
13725	7.7467	0.18182	5.e-002	2.1154
13726	7.7467	9.0909e-002	0.	0.17821
13727	7.5622	5.7273	0.	5.8086e-002
13728	7.47	5.8182	0.	0.11066
13729	7.5622	5.8182	5.e-002	2.3143
13730	7.5622	5.9091	0.	0.14708
13731	7.5622	5.5455	0.	3.8339e-002
13732	7.47	5.6364	0.	6.5504e-002
13733	7.5622	5.6364	5.e-002	5.5569
13734	7.5622	5.3636	0.	1.6752e-002
13735	7.47	5.4545	0.	1.8582e-002
13736	7.5622	5.4545	5.e-002	5.786
13737	7.5622	5.1818	0.	1.3974e-002
13738	7.47	5.2727	0.	1.7697e-002
13739	7.5622	5.2727	5.e-002	5.8116
13740	7.5622	5.	0.	1.0129e-002
13741	7.47	5.0909	0.	1.205e-002
13742	7.5622	5.0909	5.e-002	5.8222
13743	7.5622	4.8182	0.	7.7158e-003
13744	7.47	4.9091	0.	9.3129e-003
13745	7.5622	4.9091	5.e-002	5.8302
13746	7.5622	4.6364	0.	5.642e-003
13747	7.47	4.7273	0.	6.8115e-003
13748	7.5622	4.7273	5.e-002	5.8365
13749	7.5622	4.4545	0.	3.9486e-003
13750	7.47	4.5455	0.	4.8492e-003
13751	7.5622	4.5455	5.e-002	5.8416
13752	7.5622	4.2727	0.	2.5138e-003
13753	7.47	4.3636	0.	3.1811e-003
13754	7.5622	4.3636	5.e-002	5.8454
13755	7.5622	4.0909	0.	1.3086e-003
13756	7.47	4.1818	0.	1.783e-003
13757	7.5622	4.1818	5.e-002	5.8482
13758	7.5622	3.9091	0.	3.0635e-004
13759	7.47	4.	0.	6.1144e-004
13760	7.5622	4.	5.e-002	5.8502
13761	7.5622	3.7273	0.	-5.0473e-004
13762	7.47	3.8182	0.	-3.5048e-004
13763	7.5622	3.8182	5.e-002	5.8515
13764	7.5622	3.5455	0.	-1.131e-003
13765	7.47	3.6364	0.	-1.1132e-003
13766	7.5622	3.6364	5.e-002	5.8524
13767	7.5622	3.3636	0.	-1.5767e-003
13768	7.47	3.4545	0.	-1.6812e-003
13769	7.5622	3.4545	5.e-002	5.853
13770	7.5622	3.1818	0.	-1.8442e-003
13771	7.47	3.2727	0.	-2.0595e-003
13772	7.5622	3.2727	5.e-002	5.8532
13773	7.5622	3.	0.	-1.9333e-003
13774	7.47	3.0909	0.	-2.2488e-003
13775	7.5622	3.0909	5.e-002	5.8534
13776	7.5622	2.8182	0.	-1.8439e-003
13777	7.47	2.9091	0.	-2.2487e-003
13778	7.5622	2.9091	5.e-002	5.8534
13779	7.5622	2.6364	0.	-1.5764e-003
13780	7.47	2.7273	0.	-2.0593e-003
13781	7.5622	2.7273	5.e-002	5.8532
13782	7.5622	2.4545	0.	-1.1308e-003
13783	7.47	2.5455	0.	-1.681e-003
13784	7.5622	2.5455	5.e-002	5.853
13785	7.5622	2.2727	0.	-5.0438e-004
13786	7.47	2.3636	0.	-1.1129e-003
13787	7.5622	2.3636	5.e-002	5.8524
13788	7.5622	2.0909	0.	3.0715e-004
13789	7.47	2.1818	0.	-3.5019e-004
13790	7.5622	2.1818	5.e-002	5.8515
13791	7.5622	1.9091	0.	1.3094e-003
13792	7.47	2.	0.	6.1248e-004
13793	7.5622	2.	5.e-002	5.8502
13794	7.5622	1.7273	0.	2.5144e-003
13795	7.47	1.8182	0.	1.7833e-003
13796	7.5622	1.8182	5.e-002	5.8482
13797	7.5622	1.5455	0.	3.9494e-003
13798	7.47	1.6364	0.	3.1817e-003
13799	7.5622	1.6364	5.e-002	5.8454
13800	7.5622	1.3636	0.	5.6427e-003
13801	7.47	1.4545	0.	4.8497e-003
13802	7.5622	1.4545	5.e-002	5.8416
13803	7.5622	1.1818	0.	7.7166e-003
13804	7.47	1.2727	0.	6.8123e-003
13805	7.5622	1.2727	5.e-002	5.8366
13806	7.5622	1.	0.	1.013e-002
13807	7.47	1.0909	0.	9.3137e-003
13808	7.5622	1.0909	5.e-002	5.8302
13809	7.5622	0.81818	0.	1.3975e-002
13810	7.47	0.90909	0.	1.2051e-002
13811	7.5622	0.90909	5.e-002	5.8222
13812	7.5622	0.63636	0.	1.6753e-002
13813	7.47	0.72727	0.	1.7698e-002
13814	7.5622	0.72727	5.e-002	5.8116
13815	7.5622	0.45455	0.	3.834e-002
13816	7.47	0.54545	0.	1.8582e-002
13817	7.5622	0.54545	5.e-002	5.786
13818	7.5622	0.27273	0.	5.8087e-002
13819	7.47	0.36364	0.	6.5505e-002
13820	7.5622	0.36364	5.e-002	5.557
13821	7.47	0.18182	0.	0.11066
13822	7.5622	0.18182	5.e-002	2.3143
13823	7.5622	9.0909e-002	0.	0.14709
13824	7.3778	5.7273	0.	6.2615e-002
13825	7.2856	5.8182	0.	0.10705
13826	7.3778	5.8182	5.e-002	2.5304
13827	7.3778	5.9091	0.	0.1324
13828	7.3778	5.5455	0.	4.2544e-002
13829	7.2856	5.6364	0.	7.2393e-002
13830	7.3778	5.6364	5.e-002	5.6224
13831	7.3778	5.3636	0.	1.8581e-002
13832	7.2856	5.4545	0.	2.0686e-002
13833	7.3778	5.4545	5.e-002	5.8423
13834	7.3778	5.1818	0.	1.536e-002
13835	7.2856	5.2727	0.	1.9526e-002
13836	7.3778	5.2727	5.e-002	5.8677
13837	7.3778	5.	0.	1.1011e-002
13838	7.2856	5.0909	0.	1.3179e-002
13839	7.3778	5.0909	5.e-002	5.8784
13840	7.3778	4.8182	0.	8.2698e-003
13841	7.2856	4.9091	0.	1.007e-002
13842	7.3778	4.9091	5.e-002	5.8865
13843	7.3778	4.6364	0.	5.9238e-003
13844	7.2856	4.7273	0.	7.2457e-003
13845	7.3778	4.7273	5.e-002	5.8928
13846	7.3778	4.4545	0.	4.0118e-003
13847	7.2856	4.5455	0.	5.0325e-003
13848	7.3778	4.5455	5.e-002	5.8976
13849	7.3778	4.2727	0.	2.3956e-003
13850	7.2856	4.3636	0.	3.1558e-003
13851	7.3778	4.3636	5.e-002	5.9011
13852	7.3778	4.0909	0.	1.041e-003
13853	7.2856	4.1818	0.	1.5856e-003
13854	7.3778	4.1818	5.e-002	5.9035
13855	7.3778	3.9091	0.	-8.3653e-005
13856	7.2856	4.	0.	2.7259e-004
13857	7.3778	4.	5.e-002	5.9052
13858	7.3778	3.7273	0.	-9.9281e-004
13859	7.2856	3.8182	0.	-8.0486e-004
13860	7.3778	3.8182	5.e-002	5.9062
13861	7.3778	3.5455	0.	-1.6943e-003
13862	7.2856	3.6364	0.	-1.6577e-003
13863	7.3778	3.6364	5.e-002	5.9068
13864	7.3778	3.3636	0.	-2.1929e-003
13865	7.2856	3.4545	0.	-2.2925e-003
13866	7.3778	3.4545	5.e-002	5.9071
13867	7.3778	3.1818	0.	-2.492e-003
13868	7.2856	3.2727	0.	-2.7149e-003
13869	7.3778	3.2727	5.e-002	5.9072
13870	7.3778	3.	0.	-2.5918e-003
13871	7.2856	3.0909	0.	-2.9263e-003
13872	7.3778	3.0909	5.e-002	5.9072
13873	7.3778	2.8182	0.	-2.492e-003
13874	7.2856	2.9091	0.	-2.9262e-003
13875	7.3778	2.9091	5.e-002	5.9072
13876	7.3778	2.6364	0.	-2.1928e-003
13877	7.2856	2.7273	0.	-2.7149e-003
13878	7.3778	2.7273	5.e-002	5.9072
13879	7.3778	2.4545	0.	-1.6941e-003
13880	7.2856	2.5455	0.	-2.2923e-003
13881	7.3778	2.5455	5.e-002	5.9071
13882	7.3778	2.2727	0.	-9.9261e-004
13883	7.2856	2.3636	0.	-1.6575e-003
13884	7.3778	2.3636	5.e-002	5.9068
13885	7.3778	2.0909	0.	-8.3122e-005
13886	7.2856	2.1818	0.	-8.0433e-004
13887	7.3778	2.1818	5.e-002	5.9062
13888	7.3778	1.9091	0.	1.0416e-003
13889	7.2856	2.	0.	2.7312e-004
13890	7.3778	2.	5.e-002	5.9052
13891	7.3778	1.7273	0.	2.396e-003
13892	7.2856	1.8182	0.	1.5861e-003
13893	7.3778	1.8182	5.e-002	5.9036
13894	7.3778	1.5455	0.	4.0122e-003
13895	7.2856	1.6364	0.	3.1562e-003
13896	7.3778	1.6364	5.e-002	5.9011
13897	7.3778	1.3636	0.	5.9244e-003
13898	7.2856	1.4545	0.	5.0331e-003
13899	7.3778	1.4545	5.e-002	5.8976
13900	7.3778	1.1818	0.	8.2707e-003
13901	7.2856	1.2727	0.	7.2465e-003
13902	7.3778	1.2727	5.e-002	5.8928
13903	7.3778	1.	0.	1.1012e-002
13904	7.2856	1.0909	0.	1.0071e-002
13905	7.3778	1.0909	5.e-002	5.8865
13906	7.3778	0.81818	0.	1.5362e-002
13907	7.2856	0.90909	0.	1.318e-002
13908	7.3778	0.90909	5.e-002	5.8784
13909	7.3778	0.63636	0.	1.8582e-002
13910	7.2856	0.72727	0.	1.9527e-002
13911	7.3778	0.72727	5.e-002	5.8677
13912	7.3778	0.45455	0.	4.2545e-002
13913	7.2856	0.54545	0.	2.0686e-002
13914	7.3778	0.54545	5.e-002	5.8423
13915	7.3778	0.27273	0.	6.2615e-002
13916	7.2856	0.36364	0.	7.2395e-002
13917	7.3778	0.36364	5.e-002	5.6224
13918	7.2856	0.18182	0.	0.10705
13919	7.3778	0.18182	5.e-002	2.5305
13920	7.3778	9.0909e-002	0.	0.1324
13921	7.1933	5.7273	0.	6.7762e-002
13922	7.1011	5.8182	0.	0.10658
13923	7.1933	5.8182	5.e-002	2.7651
13924	7.1933	5.9091	0.	0.12547
13925	7.1933	5.5455	0.	4.7112e-002
13926	7.1011	5.6364	0.	7.9874e-002
13927	7.1933	5.6364	5.e-002	5.6929
13928	7.1933	5.3636	0.	2.0581e-002
13929	7.1011	5.4545	0.	2.2983e-002
13930	7.1933	5.4545	5.e-002	5.9027
13931	7.1933	5.1818	0.	1.688e-002
13932	7.1011	5.2727	0.	2.152e-002
13933	7.1933	5.2727	5.e-002	5.9278
13934	7.1933	5.	0.	1.1984e-002
13935	7.1011	5.0909	0.	1.4416e-002
13936	7.1933	5.0909	5.e-002	5.9387
13937	7.1933	4.8182	0.	8.8876e-003
13938	7.1011	4.9091	0.	1.0903e-002
13939	7.1933	4.9091	5.e-002	5.9467
13940	7.1933	4.6364	0.	6.2461e-003
13941	7.1011	4.7273	0.	7.7289e-003
13942	7.1933	4.7273	5.e-002	5.9528
13943	7.1933	4.4545	0.	4.0966e-003
13944	7.1011	4.5455	0.	5.2429e-003
13945	7.1933	4.5455	5.e-002	5.9573
13946	7.1933	4.2727	0.	2.2833e-003
13947	7.1011	4.3636	0.	3.1398e-003
13948	7.1933	4.3636	5.e-002	5.9604
13949	7.1933	4.0909	0.	7.66e-004
13950	7.1011	4.1818	0.	1.3824e-003
13951	7.1933	4.1818	5.e-002	5.9625
13952	7.1933	3.9091	0.	-4.9227e-004
13953	7.1011	4.	0.	-8.4783e-005
13954	7.1933	4.	5.e-002	5.9637
13955	7.1933	3.7273	0.	-1.5083e-003
13956	7.1011	3.8182	0.	-1.2876e-003
13957	7.1933	3.8182	5.e-002	5.9642
13958	7.1933	3.5455	0.	-2.291e-003
13959	7.1011	3.6364	0.	-2.2388e-003
13960	7.1933	3.6364	5.e-002	5.9644
13961	7.1933	3.3636	0.	-2.8475e-003
13962	7.1011	3.4545	0.	-2.9462e-003
13963	7.1933	3.4545	5.e-002	5.9644
13964	7.1933	3.1818	0.	-3.1811e-003
13965	7.1011	3.2727	0.	-3.4169e-003
13966	7.1933	3.2727	5.e-002	5.9643
13967	7.1933	3.	0.	-3.2922e-003
13968	7.1011	3.0909	0.	-3.6522e-003
13969	7.1933	3.0909	5.e-002	5.9642
13970	7.1933	2.8182	0.	-3.181e-003
13971	7.1011	2.9091	0.	-3.6521e-003
13972	7.1933	2.9091	5.e-002	5.9642
13973	7.1933	2.6364	0.	-2.8474e-003
13974	7.1011	2.7273	0.	-3.4168e-003
13975	7.1933	2.7273	5.e-002	5.9643
13976	7.1933	2.4545	0.	-2.2909e-003
13977	7.1011	2.5455	0.	-2.946e-003
13978	7.1933	2.5455	5.e-002	5.9644
13979	7.1933	2.2727	0.	-1.5078e-003
13980	7.1011	2.3636	0.	-2.2385e-003
13981	7.1933	2.3636	5.e-002	5.9644
13982	7.1933	2.0909	0.	-4.9174e-004
13983	7.1011	2.1818	0.	-1.2871e-003
13984	7.1933	2.1818	5.e-002	5.9643
13985	7.1933	1.9091	0.	7.6644e-004
13986	7.1011	2.	0.	-8.449e-005
13987	7.1933	2.	5.e-002	5.9637
13988	7.1933	1.7273	0.	2.2839e-003
13989	7.1011	1.8182	0.	1.3831e-003
13990	7.1933	1.8182	5.e-002	5.9625
13991	7.1933	1.5455	0.	4.0973e-003
13992	7.1011	1.6364	0.	3.1403e-003
13993	7.1933	1.6364	5.e-002	5.9605
13994	7.1933	1.3636	0.	6.2469e-003
13995	7.1011	1.4545	0.	5.2437e-003
13996	7.1933	1.4545	5.e-002	5.9573
13997	7.1933	1.1818	0.	8.8884e-003
13998	7.1011	1.2727	0.	7.7296e-003
13999	7.1933	1.2727	5.e-002	5.9528
14000	7.1933	1.	0.	1.1985e-002
14001	7.1011	1.0909	0.	1.0904e-002
14002	7.1933	1.0909	5.e-002	5.9467
14003	7.1933	0.81818	0.	1.6881e-002
14004	7.1011	0.90909	0.	1.4417e-002
14005	7.1933	0.90909	5.e-002	5.9387
14006	7.1933	0.63636	0.	2.0582e-002
14007	7.1011	0.72727	0.	2.1521e-002
14008	7.1933	0.72727	5.e-002	5.9278
14009	7.1933	0.45455	0.	4.7113e-002
14010	7.1011	0.54545	0.	2.2983e-002
14011	7.1933	0.54545	5.e-002	5.9027
14012	7.1933	0.27273	0.	6.7763e-002
14013	7.1011	0.36364	0.	7.9875e-002
14014	7.1933	0.36364	5.e-002	5.6929
14015	7.1011	0.18182	0.	0.10658
14016	7.1933	0.18182	5.e-002	2.7652
14017	7.1933	9.0909e-002	0.	0.12547
14018	7.0089	5.7273	0.	7.364e-002
14019	6.9167	5.8182	0.	0.10845
14020	7.0089	5.8182	5.e-002	3.0197
14021	7.0089	5.9091	0.	0.12289
14022	7.0089	5.5455	0.	5.2071e-002
14023	6.9167	5.6364	0.	8.8002e-002
14024	7.0089	5.6364	5.e-002	5.7689
14025	7.0089	5.3636	0.	2.276e-002
14026	6.9167	5.4545	0.	2.5493e-002
14027	7.0089	5.4545	5.e-002	5.9677
14028	7.0089	5.1818	0.	1.8536e-002
14029	6.9167	5.2727	0.	2.3697e-002
14030	7.0089	5.2727	5.e-002	5.9923
14031	7.0089	5.	0.	1.3048e-002
14032	6.9167	5.0909	0.	1.577e-002
14033	7.0089	5.0909	5.e-002	6.0033
14034	7.0089	4.8182	0.	9.5653e-003
14035	6.9167	4.9091	0.	1.1819e-002
14036	7.0089	4.9091	5.e-002	6.0112
14037	7.0089	4.6364	0.	6.6028e-003
14038	6.9167	4.7273	0.	8.2655e-003
14039	7.0089	4.7273	5.e-002	6.017
14040	7.0089	4.4545	0.	4.1954e-003
14041	6.9167	4.5455	0.	5.4832e-003
14042	7.0089	4.5455	5.e-002	6.0212
14043	7.0089	4.2727	0.	2.168e-003
14044	6.9167	4.3636	0.	3.1342e-003
14045	7.0089	4.3636	5.e-002	6.0238
14046	7.0089	4.0909	0.	4.7354e-004
14047	6.9167	4.1818	0.	1.1733e-003
14048	7.0089	4.1818	5.e-002	6.0253
14049	7.0089	3.9091	0.	-9.2965e-004
14050	6.9167	4.	0.	-4.6185e-004
14051	7.0089	4.	5.e-002	6.026
14052	7.0089	3.7273	0.	-2.0619e-003
14053	6.9167	3.8182	0.	-1.8007e-003
14054	7.0089	3.8182	5.e-002	6.026
14055	7.0089	3.5455	0.	-2.9338e-003
14056	6.9167	3.6364	0.	-2.8591e-003
14057	7.0089	3.6364	5.e-002	6.0257
14058	7.0089	3.3636	0.	-3.553e-003
14059	6.9167	3.4545	0.	-3.6458e-003
14060	7.0089	3.4545	5.e-002	6.0253
14061	7.0089	3.1818	0.	-3.924e-003
14062	6.9167	3.2727	0.	-4.1688e-003
14063	7.0089	3.2727	5.e-002	6.0249
14064	7.0089	3.	0.	-4.0477e-003
14065	6.9167	3.0909	0.	-4.4302e-003
14066	7.0089	3.0909	5.e-002	6.0247
14067	7.0089	2.8182	0.	-3.924e-003
14068	6.9167	2.9091	0.	-4.4301e-003
14069	7.0089	2.9091	5.e-002	6.0247
14070	7.0089	2.6364	0.	-3.5528e-003
14071	6.9167	2.7273	0.	-4.1687e-003
14072	7.0089	2.7273	5.e-002	6.0249
14073	7.0089	2.4545	0.	-2.9335e-003
14074	6.9167	2.5455	0.	-3.6454e-003
14075	7.0089	2.5455	5.e-002	6.0253
14076	7.0089	2.2727	0.	-2.0616e-003
14077	6.9167	2.3636	0.	-2.8587e-003
14078	7.0089	2.3636	5.e-002	6.0257
14079	7.0089	2.0909	0.	-9.2939e-004
14080	6.9167	2.1818	0.	-1.8004e-003
14081	7.0089	2.1818	5.e-002	6.026
14082	7.0089	1.9091	0.	4.7407e-004
14083	6.9167	2.	0.	-4.6153e-004
14084	7.0089	2.	5.e-002	6.026
14085	7.0089	1.7273	0.	2.1686e-003
14086	6.9167	1.8182	0.	1.174e-003
14087	7.0089	1.8182	5.e-002	6.0253
14088	7.0089	1.5455	0.	4.196e-003
14089	6.9167	1.6364	0.	3.1346e-003
14090	7.0089	1.6364	5.e-002	6.0238
14091	7.0089	1.3636	0.	6.6035e-003
14092	6.9167	1.4545	0.	5.4839e-003
14093	7.0089	1.4545	5.e-002	6.0212
14094	7.0089	1.1818	0.	9.566e-003
14095	6.9167	1.2727	0.	8.2661e-003
14096	7.0089	1.2727	5.e-002	6.0171
14097	7.0089	1.	0.	1.3049e-002
14098	6.9167	1.0909	0.	1.182e-002
14099	7.0089	1.0909	5.e-002	6.0112
14100	7.0089	0.81818	0.	1.8537e-002
14101	6.9167	0.90909	0.	1.5772e-002
14102	7.0089	0.90909	5.e-002	6.0033
14103	7.0089	0.63636	0.	2.276e-002
14104	6.9167	0.72727	0.	2.3697e-002
14105	7.0089	0.72727	5.e-002	5.9923
14106	7.0089	0.45455	0.	5.2072e-002
14107	6.9167	0.54545	0.	2.5493e-002
14108	7.0089	0.54545	5.e-002	5.9677
14109	7.0089	0.27273	0.	7.3641e-002
14110	6.9167	0.36364	0.	8.8004e-002
14111	7.0089	0.36364	5.e-002	5.7689
14112	6.9167	0.18182	0.	0.10846
14113	7.0089	0.18182	5.e-002	3.0198
14114	7.0089	9.0909e-002	0.	0.12289
14115	6.8244	5.7273	0.	8.0265e-002
14116	6.7322	5.8182	0.	0.11227
14117	6.8244	5.8182	5.e-002	3.2958
14118	6.8244	5.9091	0.	0.1231
14119	6.8244	5.5455	0.	5.7469e-002
14120	6.7322	5.6364	0.	9.6846e-002
14121	6.8244	5.6364	5.e-002	5.851
14122	6.8244	5.3636	0.	2.5144e-002
14123	6.7322	5.4545	0.	2.8241e-002
14124	6.8244	5.4545	5.e-002	6.0377
14125	6.8244	5.1818	0.	2.035e-002
14126	6.7322	5.2727	0.	2.6075e-002
14127	6.8244	5.2727	5.e-002	6.0618
14128	6.8244	5.	0.	1.4221e-002
14129	6.7322	5.0909	0.	1.7258e-002
14130	6.8244	5.0909	5.e-002	6.0728
14131	6.8244	4.8182	0.	1.0318e-002
14132	6.7322	4.9091	0.	1.2831e-002
14133	6.8244	4.9091	5.e-002	6.0805
14134	6.8244	4.6364	0.	7.0072e-003
14135	6.7322	4.7273	0.	8.8636e-003
14136	6.8244	4.7273	5.e-002	6.086
14137	6.8244	4.4545	0.	4.3196e-003
14138	6.7322	4.5455	0.	5.7598e-003
14139	6.8244	4.5455	5.e-002	6.0896
14140	6.8244	4.2727	0.	2.0594e-003
14141	6.7322	4.3636	0.	3.1431e-003
14142	6.8244	4.3636	5.e-002	6.0917
14143	6.8244	4.0909	0.	1.7233e-004
14144	6.7322	4.1818	0.	9.6117e-004
14145	6.8244	4.1818	5.e-002	6.0925
14146	6.8244	3.9091	0.	-1.3888e-003
14147	6.7322	4.	0.	-8.5677e-004
14148	6.8244	4.	5.e-002	6.0925
14149	6.8244	3.7273	0.	-2.6473e-003
14150	6.7322	3.8182	0.	-2.3434e-003
14151	6.8244	3.8182	5.e-002	6.0919
14152	6.8244	3.5455	0.	-3.616e-003
14153	6.7322	3.6364	0.	-3.5185e-003
14154	6.8244	3.6364	5.e-002	6.091
14155	6.8244	3.3636	0.	-4.3037e-003
14156	6.7322	3.4545	0.	-4.3911e-003
14157	6.8244	3.4545	5.e-002	6.0901
14158	6.8244	3.1818	0.	-4.7156e-003
14159	6.7322	3.2727	0.	-4.9715e-003
14160	6.8244	3.2727	5.e-002	6.0894
14161	6.8244	3.	0.	-4.8527e-003
14162	6.7322	3.0909	0.	-5.2611e-003
14163	6.8244	3.0909	5.e-002	6.089
14164	6.8244	2.8182	0.	-4.7154e-003
14165	6.7322	2.9091	0.	-5.2611e-003
14166	6.8244	2.9091	5.e-002	6.089
14167	6.8244	2.6364	0.	-4.3034e-003
14168	6.7322	2.7273	0.	-4.9713e-003
14169	6.8244	2.7273	5.e-002	6.0894
14170	6.8244	2.4545	0.	-3.6156e-003
14171	6.7322	2.5455	0.	-4.3909e-003
14172	6.8244	2.5455	5.e-002	6.0902
14173	6.8244	2.2727	0.	-2.6468e-003
14174	6.7322	2.3636	0.	-3.518e-003
14175	6.8244	2.3636	5.e-002	6.091
14176	6.8244	2.0909	0.	-1.3884e-003
14177	6.7322	2.1818	0.	-2.3432e-003
14178	6.8244	2.1818	5.e-002	6.0919
14179	6.8244	1.9091	0.	1.7277e-004
14180	6.7322	2.	0.	-8.5633e-004
14181	6.8244	2.	5.e-002	6.0925
14182	6.8244	1.7273	0.	2.0599e-003
14183	6.7322	1.8182	0.	9.6176e-004
14184	6.8244	1.8182	5.e-002	6.0925
14185	6.8244	1.5455	0.	4.3202e-003
14186	6.7322	1.6364	0.	3.1436e-003
14187	6.8244	1.6364	5.e-002	6.0917
14188	6.8244	1.3636	0.	7.0079e-003
14189	6.7322	1.4545	0.	5.7604e-003
14190	6.8244	1.4545	5.e-002	6.0897
14191	6.8244	1.1818	0.	1.0319e-002
14192	6.7322	1.2727	0.	8.8641e-003
14193	6.8244	1.2727	5.e-002	6.0861
14194	6.8244	1.	0.	1.4222e-002
14195	6.7322	1.0909	0.	1.2831e-002
14196	6.8244	1.0909	5.e-002	6.0806
14197	6.8244	0.81818	0.	2.0351e-002
14198	6.7322	0.90909	0.	1.7259e-002
14199	6.8244	0.90909	5.e-002	6.0728
14200	6.8244	0.63636	0.	2.5145e-002
14201	6.7322	0.72727	0.	2.6076e-002
14202	6.8244	0.72727	5.e-002	6.0618
14203	6.8244	0.45455	0.	5.7469e-002
14204	6.7322	0.54545	0.	2.8241e-002
14205	6.8244	0.54545	5.e-002	6.0377
14206	6.8244	0.27273	0.	8.0266e-002
14207	6.7322	0.36364	0.	9.6848e-002
14208	6.8244	0.36364	5.e-002	5.851
14209	6.7322	0.18182	0.	0.11228
14210	6.8244	0.18182	5.e-002	3.2958
14211	6.8244	9.0909e-002	0.	0.1231
14212	6.64	5.7273	0.	8.7694e-002
14213	6.5478	5.8182	0.	0.11787
14214	6.64	5.8182	5.e-002	3.5949
14215	6.64	5.9091	0.	0.12531
14216	6.64	5.5455	0.	6.3344e-002
14217	6.5478	5.6364	0.	0.10647
14218	6.64	5.6364	5.e-002	5.9398
14219	6.64	5.3636	0.	2.7751e-002
14220	6.5478	5.4545	0.	3.1249e-002
14221	6.64	5.4545	5.e-002	6.1133
14222	6.64	5.1818	0.	2.2335e-002
14223	6.5478	5.2727	0.	2.8671e-002
14224	6.64	5.2727	5.e-002	6.1368
14225	6.64	5.	0.	1.5508e-002
14226	6.5478	5.0909	0.	1.8888e-002
14227	6.64	5.0909	5.e-002	6.1477
14228	6.64	4.8182	0.	1.115e-002
14229	6.5478	4.9091	0.	1.3942e-002
14230	6.64	4.9091	5.e-002	6.1552
14231	6.64	4.6364	0.	7.4603e-003
14232	6.5478	4.7273	0.	9.5264e-003
14233	6.64	4.7273	5.e-002	6.1602
14234	6.64	4.4545	0.	4.4681e-003
14235	6.5478	4.5455	0.	6.0731e-003
14236	6.64	4.5455	5.e-002	6.1632
14237	6.64	4.2727	0.	1.9548e-003
14238	6.5478	4.3636	0.	3.1654e-003
14239	6.64	4.3636	5.e-002	6.1645
14240	6.64	4.0909	0.	-1.4174e-004
14241	6.5478	4.1818	0.	7.4325e-004
14242	6.64	4.1818	5.e-002	6.1645
14243	6.64	3.9091	0.	-1.8743e-003
14244	6.5478	4.	0.	-1.2733e-003
14245	6.64	4.	5.e-002	6.1636
14246	6.64	3.7273	0.	-3.2702e-003
14247	6.5478	3.8182	0.	-2.9211e-003
14248	6.64	3.8182	5.e-002	6.1623
14249	6.64	3.5455	0.	-4.3442e-003
14250	6.5478	3.6364	0.	-4.2225e-003
14251	6.64	3.6364	5.e-002	6.1607
14252	6.64	3.3636	0.	-5.1063e-003
14253	6.5478	3.4545	0.	-5.189e-003
14254	6.64	3.4545	5.e-002	6.1593
14255	6.64	3.1818	0.	-5.5627e-003
14256	6.5478	3.2727	0.	-5.8313e-003
14257	6.64	3.2727	5.e-002	6.1582
14258	6.64	3.	0.	-5.7146e-003
14259	6.5478	3.0909	0.	-6.1518e-003
14260	6.64	3.0909	5.e-002	6.1576
14261	6.64	2.8182	0.	-5.5626e-003
14262	6.5478	2.9091	0.	-6.1519e-003
14263	6.64	2.9091	5.e-002	6.1576
14264	6.64	2.6364	0.	-5.1062e-003
14265	6.5478	2.7273	0.	-5.8311e-003
14266	6.64	2.7273	5.e-002	6.1582
14267	6.64	2.4545	0.	-4.3439e-003
14268	6.5478	2.5455	0.	-5.1889e-003
14269	6.64	2.5455	5.e-002	6.1593
14270	6.64	2.2727	0.	-3.2699e-003
14271	6.5478	2.3636	0.	-4.2223e-003
14272	6.64	2.3636	5.e-002	6.1607
14273	6.64	2.0909	0.	-1.8741e-003
14274	6.5478	2.1818	0.	-2.9208e-003
14275	6.64	2.1818	5.e-002	6.1622
14276	6.64	1.9091	0.	-1.4115e-004
14277	6.5478	2.	0.	-1.2728e-003
14278	6.64	2.	5.e-002	6.1636
14279	6.64	1.7273	0.	1.9554e-003
14280	6.5478	1.8182	0.	7.4384e-004
14281	6.64	1.8182	5.e-002	6.1645
14282	6.64	1.5455	0.	4.4687e-003
14283	6.5478	1.6364	0.	3.166e-003
14284	6.64	1.6364	5.e-002	6.1645
14285	6.64	1.3636	0.	7.4608e-003
14286	6.5478	1.4545	0.	6.0737e-003
14287	6.64	1.4545	5.e-002	6.1632
14288	6.64	1.1818	0.	1.115e-002
14289	6.5478	1.2727	0.	9.527e-003
14290	6.64	1.2727	5.e-002	6.1602
14291	6.64	1.	0.	1.5509e-002
14292	6.5478	1.0909	0.	1.3943e-002
14293	6.64	1.0909	5.e-002	6.1552
14294	6.64	0.81818	0.	2.2336e-002
14295	6.5478	0.90909	0.	1.8889e-002
14296	6.64	0.90909	5.e-002	6.1477
14297	6.64	0.63636	0.	2.7752e-002
14298	6.5478	0.72727	0.	2.8672e-002
14299	6.64	0.72727	5.e-002	6.1368
14300	6.64	0.45455	0.	6.3345e-002
14301	6.5478	0.54545	0.	3.1249e-002
14302	6.64	0.54545	5.e-002	6.1133
14303	6.64	0.27273	0.	8.7695e-002
14304	6.5478	0.36364	0.	0.10647
14305	6.64	0.36364	5.e-002	5.9399
14306	6.5478	0.18182	0.	0.11787
14307	6.64	0.18182	5.e-002	3.5949
14308	6.64	9.0909e-002	0.	0.12531
14309	6.4556	5.7273	0.	9.6e-002
14310	6.3633	5.8182	0.	0.12521
14311	6.4556	5.8182	5.e-002	3.9188
14312	6.4556	5.9091	0.	0.12907
14313	6.4556	5.5455	0.	6.9742e-002
14314	6.3633	5.6364	0.	0.11695
14315	6.4556	5.6364	5.e-002	6.0361
14316	6.4556	5.3636	0.	3.0601e-002
14317	6.3633	5.4545	0.	3.4545e-002
14318	6.4556	5.4545	5.e-002	6.195
14319	6.4556	5.1818	0.	2.4504e-002
14320	6.3633	5.2727	0.	3.1509e-002
14321	6.4556	5.2727	5.e-002	6.2178
14322	6.4556	5.	0.	1.692e-002
14323	6.3633	5.0909	0.	2.0674e-002
14324	6.4556	5.0909	5.e-002	6.2285
14325	6.4556	4.8182	0.	1.2065e-002
14326	6.3633	4.9091	0.	1.5164e-002
14327	6.4556	4.9091	5.e-002	6.2357
14328	6.4556	4.6364	0.	7.9645e-003
14329	6.3633	4.7273	0.	1.0261e-002
14330	6.4556	4.7273	5.e-002	6.2402
14331	6.4556	4.4545	0.	4.6412e-003
14332	6.3633	4.5455	0.	6.4279e-003
14333	6.4556	4.5455	5.e-002	6.2424
14334	6.4556	4.2727	0.	1.8528e-003
14335	6.3633	4.3636	0.	3.2038e-003
14336	6.4556	4.3636	5.e-002	6.2427
14337	6.4556	4.0909	0.	-4.7112e-004
14338	6.3633	4.1818	0.	5.2062e-004
14339	6.4556	4.1818	5.e-002	6.2418
14340	6.4556	3.9091	0.	-2.3907e-003
14341	6.3633	4.	0.	-1.7118e-003
14342	6.4556	4.	5.e-002	6.24
14343	6.4556	3.7273	0.	-3.9357e-003
14344	6.3633	3.8182	0.	-3.5349e-003
14345	6.4556	3.8182	5.e-002	6.2377
14346	6.4556	3.5455	0.	-5.1241e-003
14347	6.3633	3.6364	0.	-4.9735e-003
14348	6.4556	3.6364	5.e-002	6.2353
14349	6.4556	3.3636	0.	-5.9673e-003
14350	6.3633	3.4545	0.	-6.0421e-003
14351	6.4556	3.4545	5.e-002	6.2332
14352	6.4556	3.1818	0.	-6.4717e-003
14353	6.3633	3.2727	0.	-6.7515e-003
14354	6.4556	3.2727	5.e-002	6.2317
14355	6.4556	3.	0.	-6.6397e-003
14356	6.3633	3.0909	0.	-7.1057e-003
14357	6.4556	3.0909	5.e-002	6.2309
14358	6.4556	2.8182	0.	-6.4716e-003
14359	6.3633	2.9091	0.	-7.1057e-003
14360	6.4556	2.9091	5.e-002	6.2309
14361	6.4556	2.6364	0.	-5.967e-003
14362	6.3633	2.7273	0.	-6.7513e-003
14363	6.4556	2.7273	5.e-002	6.2317
14364	6.4556	2.4545	0.	-5.124e-003
14365	6.3633	2.5455	0.	-6.0418e-003
14366	6.4556	2.5455	5.e-002	6.2332
14367	6.4556	2.2727	0.	-3.9354e-003
14368	6.3633	2.3636	0.	-4.9734e-003
14369	6.4556	2.3636	5.e-002	6.2353
14370	6.4556	2.0909	0.	-2.3902e-003
14371	6.3633	2.1818	0.	-3.5344e-003
14372	6.4556	2.1818	5.e-002	6.2377
14373	6.4556	1.9091	0.	-4.7065e-004
14374	6.3633	2.	0.	-1.7113e-003
14375	6.4556	2.	5.e-002	6.24
14376	6.4556	1.7273	0.	1.8534e-003
14377	6.3633	1.8182	0.	5.2111e-004
14378	6.4556	1.8182	5.e-002	6.2418
14379	6.4556	1.5455	0.	4.6418e-003
14380	6.3633	1.6364	0.	3.2045e-003
14381	6.4556	1.6364	5.e-002	6.2427
14382	6.4556	1.3636	0.	7.9652e-003
14383	6.3633	1.4545	0.	6.4284e-003
14384	6.4556	1.4545	5.e-002	6.2424
14385	6.4556	1.1818	0.	1.2066e-002
14386	6.3633	1.2727	0.	1.0262e-002
14387	6.4556	1.2727	5.e-002	6.2402
14388	6.4556	1.	0.	1.6921e-002
14389	6.3633	1.0909	0.	1.5165e-002
14390	6.4556	1.0909	5.e-002	6.2357
14391	6.4556	0.81818	0.	2.4505e-002
14392	6.3633	0.90909	0.	2.0675e-002
14393	6.4556	0.90909	5.e-002	6.2286
14394	6.4556	0.63636	0.	3.0601e-002
14395	6.3633	0.72727	0.	3.151e-002
14396	6.4556	0.72727	5.e-002	6.2178
14397	6.4556	0.45455	0.	6.9743e-002
14398	6.3633	0.54545	0.	3.4545e-002
14399	6.4556	0.54545	5.e-002	6.195
14400	6.4556	0.27273	0.	9.6002e-002
14401	6.3633	0.36364	0.	0.11696
14402	6.4556	0.36364	5.e-002	6.0361
14403	6.3633	0.18182	0.	0.12521
14404	6.4556	0.18182	5.e-002	3.9188
14405	6.4556	9.0909e-002	0.	0.12907
14406	6.2711	5.7273	0.	0.10528
14407	6.1789	5.8182	0.	0.13436
14408	6.2711	5.8182	5.e-002	4.2693
14409	6.2711	5.9091	0.	0.13417
14410	6.2711	5.5455	0.	7.6719e-002
14411	6.1789	5.6364	0.	0.12839
14412	6.2711	5.6364	5.e-002	6.1403
14413	6.2711	5.3636	0.	3.3721e-002
14414	6.1789	5.4545	0.	3.8164e-002
14415	6.2711	5.4545	5.e-002	6.2836
14416	6.2711	5.1818	0.	2.6879e-002
14417	6.1789	5.2727	0.	3.4615e-002
14418	6.2711	5.2727	5.e-002	6.3054
14419	6.2711	5.	0.	1.8472e-002
14420	6.1789	5.0909	0.	2.2638e-002
14421	6.2711	5.0909	5.e-002	6.316
14422	6.2711	4.8182	0.	1.3078e-002
14423	6.1789	4.9091	0.	1.6513e-002
14424	6.2711	4.9091	5.e-002	6.3228
14425	6.2711	4.6364	0.	8.5294e-003
14426	6.1789	4.7273	0.	1.108e-002
14427	6.2711	4.7273	5.e-002	6.3265
14428	6.2711	4.4545	0.	4.8461e-003
14429	6.1789	4.5455	0.	6.8333e-003
14430	6.2711	4.5455	5.e-002	6.3278
14431	6.2711	4.2727	0.	1.7587e-003
14432	6.1789	4.3636	0.	3.2655e-003
14433	6.2711	4.3636	5.e-002	6.3271
14434	6.2711	4.0909	0.	-8.1266e-004
14435	6.1789	4.1818	0.	2.9816e-004
14436	6.2711	4.1818	5.e-002	6.325
14437	6.2711	3.9091	0.	-2.935e-003
14438	6.1789	4.	0.	-2.1687e-003
14439	6.2711	4.	5.e-002	6.322
14440	6.2711	3.7273	0.	-4.6424e-003
14441	6.1789	3.8182	0.	-4.1819e-003
14442	6.2711	3.8182	5.e-002	6.3187
14443	6.2711	3.5455	0.	-5.955e-003
14444	6.1789	3.6364	0.	-5.7699e-003
14445	6.2711	3.6364	5.e-002	6.3154
14446	6.2711	3.3636	0.	-6.8859e-003
14447	6.1789	3.4545	0.	-6.9489e-003
14448	6.2711	3.4545	5.e-002	6.3126
14449	6.2711	3.1818	0.	-7.4428e-003
14450	6.1789	3.2727	0.	-7.7314e-003
14451	6.2711	3.2727	5.e-002	6.3105
14452	6.2711	3.	0.	-7.6282e-003
14453	6.1789	3.0909	0.	-8.1219e-003
14454	6.2711	3.0909	5.e-002	6.3094
14455	6.2711	2.8182	0.	-7.4427e-003
14456	6.1789	2.9091	0.	-8.1218e-003
14457	6.2711	2.9091	5.e-002	6.3094
14458	6.2711	2.6364	0.	-6.8857e-003
14459	6.1789	2.7273	0.	-7.7312e-003
14460	6.2711	2.7273	5.e-002	6.3105
14461	6.2711	2.4545	0.	-5.9548e-003
14462	6.1789	2.5455	0.	-6.9486e-003
14463	6.2711	2.5455	5.e-002	6.3126
14464	6.2711	2.2727	0.	-4.6421e-003
14465	6.1789	2.3636	0.	-5.7697e-003
14466	6.2711	2.3636	5.e-002	6.3154
14467	6.2711	2.0909	0.	-2.9346e-003
14468	6.1789	2.1818	0.	-4.1815e-003
14469	6.2711	2.1818	5.e-002	6.3187
14470	6.2711	1.9091	0.	-8.1219e-004
14471	6.1789	2.	0.	-2.1682e-003
14472	6.2711	2.	5.e-002	6.322
14473	6.2711	1.7273	0.	1.7592e-003
14474	6.1789	1.8182	0.	2.9866e-004
14475	6.2711	1.8182	5.e-002	6.325
14476	6.2711	1.5455	0.	4.8467e-003
14477	6.1789	1.6364	0.	3.2661e-003
14478	6.2711	1.6364	5.e-002	6.3271
14479	6.2711	1.3636	0.	8.53e-003
14480	6.1789	1.4545	0.	6.8338e-003
14481	6.2711	1.4545	5.e-002	6.3278
14482	6.2711	1.1818	0.	1.3078e-002
14483	6.1789	1.2727	0.	1.1081e-002
14484	6.2711	1.2727	5.e-002	6.3265
14485	6.2711	1.	0.	1.8472e-002
14486	6.1789	1.0909	0.	1.6514e-002
14487	6.2711	1.0909	5.e-002	6.3228
14488	6.2711	0.81818	0.	2.688e-002
14489	6.1789	0.90909	0.	2.2639e-002
14490	6.2711	0.90909	5.e-002	6.3161
14491	6.2711	0.63636	0.	3.3722e-002
14492	6.1789	0.72727	0.	3.4616e-002
14493	6.2711	0.72727	5.e-002	6.3055
14494	6.2711	0.45455	0.	7.672e-002
14495	6.1789	0.54545	0.	3.8165e-002
14496	6.2711	0.54545	5.e-002	6.2836
14497	6.2711	0.27273	0.	0.10528
14498	6.1789	0.36364	0.	0.12839
14499	6.2711	0.36364	5.e-002	6.1403
14500	6.1789	0.18182	0.	0.13436
14501	6.2711	0.18182	5.e-002	4.2692
14502	6.2711	9.0909e-002	0.	0.13417
14503	6.0867	5.7273	0.	0.11565
14504	5.9944	5.8182	0.	0.14547
14505	6.0867	5.8182	5.e-002	4.6483
14506	6.0867	5.9091	0.	0.14045
14507	6.0867	5.5455	0.	8.4339e-002
14508	5.9944	5.6364	0.	0.14086
14509	6.0867	5.6364	5.e-002	6.2533
14510	6.0867	5.3636	0.	3.7147e-002
14511	5.9944	5.4545	0.	4.2141e-002
14512	6.0867	5.4545	5.e-002	6.3797
14513	6.0867	5.1818	0.	2.9487e-002
14514	5.9944	5.2727	0.	3.8016e-002
14515	6.0867	5.2727	5.e-002	6.4006
14516	6.0867	5.	0.	2.0182e-002
14517	5.9944	5.0909	0.	2.4795e-002
14518	6.0867	5.0909	5.e-002	6.4108
14519	6.0867	4.8182	0.	1.4201e-002
14520	5.9944	4.9091	0.	1.8e-002
14521	6.0867	4.9091	5.e-002	6.417
14522	6.0867	4.6364	0.	9.1664e-003
14523	5.9944	4.7273	0.	1.199e-002
14524	6.0867	4.7273	5.e-002	6.4199
14525	6.0867	4.4545	0.	5.0915e-003
14526	5.9944	4.5455	0.	7.2928e-003
14527	6.0867	4.5455	5.e-002	6.4201
14528	6.0867	4.2727	0.	1.6788e-003
14529	5.9944	4.3636	0.	3.3512e-003
14530	6.0867	4.3636	5.e-002	6.4182
14531	6.0867	4.0909	0.	-1.1613e-003
14532	5.9944	4.1818	0.	7.5332e-005
14533	6.0867	4.1818	5.e-002	6.4148
14534	6.0867	3.9091	0.	-3.5038e-003
14535	5.9944	4.	0.	-2.6461e-003
14536	6.0867	4.	5.e-002	6.4105
14537	6.0867	3.7273	0.	-5.3873e-003
14538	5.9944	3.8182	0.	-4.8658e-003
14539	6.0867	3.8182	5.e-002	6.4059
14540	6.0867	3.5455	0.	-6.8347e-003
14541	5.9944	3.6364	0.	-6.6155e-003
14542	6.0867	3.6364	5.e-002	6.4016
14543	6.0867	3.3636	0.	-7.8608e-003
14544	5.9944	3.4545	0.	-7.9142e-003
14545	6.0867	3.4545	5.e-002	6.3978
14546	6.0867	3.1818	0.	-8.4744e-003
14547	5.9944	3.2727	0.	-8.7758e-003
14548	6.0867	3.2727	5.e-002	6.3952
14549	6.0867	3.	0.	-8.6786e-003
14550	5.9944	3.0909	0.	-9.2054e-003
14551	6.0867	3.0909	5.e-002	6.3937
14552	6.0867	2.8182	0.	-8.4743e-003
14553	5.9944	2.9091	0.	-9.2055e-003
14554	6.0867	2.9091	5.e-002	6.3937
14555	6.0867	2.6364	0.	-7.8606e-003
14556	5.9944	2.7273	0.	-8.7757e-003
14557	6.0867	2.7273	5.e-002	6.3952
14558	6.0867	2.4545	0.	-6.8344e-003
14559	5.9944	2.5455	0.	-7.914e-003
14560	6.0867	2.5455	5.e-002	6.3978
14561	6.0867	2.2727	0.	-5.3869e-003
14562	5.9944	2.3636	0.	-6.6152e-003
14563	6.0867	2.3636	5.e-002	6.4016
14564	6.0867	2.0909	0.	-3.5034e-003
14565	5.9944	2.1818	0.	-4.8653e-003
14566	6.0867	2.1818	5.e-002	6.4059
14567	6.0867	1.9091	0.	-1.1608e-003
14568	5.9944	2.	0.	-2.6458e-003
14569	6.0867	2.	5.e-002	6.4105
14570	6.0867	1.7273	0.	1.6795e-003
14571	5.9944	1.8182	0.	7.5874e-005
14572	6.0867	1.8182	5.e-002	6.4149
14573	6.0867	1.5455	0.	5.0921e-003
14574	5.9944	1.6364	0.	3.3519e-003
14575	6.0867	1.6364	5.e-002	6.4182
14576	6.0867	1.3636	0.	9.167e-003
14577	5.9944	1.4545	0.	7.2934e-003
14578	6.0867	1.4545	5.e-002	6.4201
14579	6.0867	1.1818	0.	1.4202e-002
14580	5.9944	1.2727	0.	1.199e-002
14581	6.0867	1.2727	5.e-002	6.4199
14582	6.0867	1.	0.	2.0183e-002
14583	5.9944	1.0909	0.	1.8001e-002
14584	6.0867	1.0909	5.e-002	6.417
14585	6.0867	0.81818	0.	2.9488e-002
14586	5.9944	0.90909	0.	2.4796e-002
14587	6.0867	0.90909	5.e-002	6.4109
14588	6.0867	0.63636	0.	3.7148e-002
14589	5.9944	0.72727	0.	3.8017e-002
14590	6.0867	0.72727	5.e-002	6.4006
14591	6.0867	0.45455	0.	8.4339e-002
14592	5.9944	0.54545	0.	4.2141e-002
14593	6.0867	0.54545	5.e-002	6.3797
14594	6.0867	0.27273	0.	0.11566
14595	5.9944	0.36364	0.	0.14086
14596	6.0867	0.36364	5.e-002	6.2533
14597	5.9944	0.18182	0.	0.14547
14598	6.0867	0.18182	5.e-002	4.6483
14599	6.0867	9.0909e-002	0.	0.14046
14600	5.9022	5.7273	0.	0.12724
14601	5.81	5.8182	0.	0.15876
14602	5.9022	5.8182	5.e-002	5.0578
14603	5.9022	5.9091	0.	0.14787
14604	5.9022	5.5455	0.	9.2656e-002
14605	5.81	5.6364	0.	0.15448
14606	5.9022	5.6364	5.e-002	6.376
14607	5.9022	5.3636	0.	4.09e-002
14608	5.81	5.4545	0.	4.6515e-002
14609	5.9022	5.4545	5.e-002	6.484
14610	5.9022	5.1818	0.	3.234e-002
14611	5.81	5.2727	0.	4.1742e-002
14612	5.9022	5.2727	5.e-002	6.5038
14613	5.9022	5.	0.	2.206e-002
14614	5.81	5.0909	0.	2.7166e-002
14615	5.9022	5.0909	5.e-002	6.5138
14616	5.9022	4.8182	0.	1.5439e-002
14617	5.81	4.9091	0.	1.964e-002
14618	5.9022	4.9091	5.e-002	6.5194
14619	5.9022	4.6364	0.	9.874e-003
14620	5.81	4.7273	0.	1.3001e-002
14621	5.9022	4.7273	5.e-002	6.5213
14622	5.9022	4.4545	0.	5.3732e-003
14623	5.81	4.5455	0.	7.8145e-003
14624	5.9022	4.5455	5.e-002	6.5202
14625	5.9022	4.2727	0.	1.6072e-003
14626	5.81	4.3636	0.	3.4665e-003
14627	5.9022	4.3636	5.e-002	6.5169
14628	5.9022	4.0909	0.	-1.5247e-003
14629	5.81	4.1818	0.	-1.4466e-004
14630	5.9022	4.1818	5.e-002	6.512
14631	5.9022	3.9091	0.	-4.1063e-003
14632	5.81	4.	0.	-3.1423e-003
14633	5.9022	4.	5.e-002	6.5062
14634	5.9022	3.7273	0.	-6.1807e-003
14635	5.81	3.8182	0.	-5.5857e-003
14636	5.9022	3.8182	5.e-002	6.5002
14637	5.9022	3.5455	0.	-7.774e-003
14638	5.81	3.6364	0.	-7.5106e-003
14639	5.9022	3.6364	5.e-002	6.4945
14640	5.9022	3.3636	0.	-8.9032e-003
14641	5.81	3.4545	0.	-8.9387e-003
14642	5.9022	3.4545	5.e-002	6.4898
14643	5.9022	3.1818	0.	-9.5781e-003
14644	5.81	3.2727	0.	-9.8857e-003
14645	5.9022	3.2727	5.e-002	6.4864
14646	5.9022	3.	0.	-9.8027e-003
14647	5.81	3.0909	0.	-1.0358e-002
14648	5.9022	3.0909	5.e-002	6.4846
14649	5.9022	2.8182	0.	-9.5782e-003
14650	5.81	2.9091	0.	-1.0358e-002
14651	5.9022	2.9091	5.e-002	6.4846
14652	5.9022	2.6364	0.	-8.9031e-003
14653	5.81	2.7273	0.	-9.8856e-003
14654	5.9022	2.7273	5.e-002	6.4864
14655	5.9022	2.4545	0.	-7.7738e-003
14656	5.81	2.5455	0.	-8.9384e-003
14657	5.9022	2.5455	5.e-002	6.4898
14658	5.9022	2.2727	0.	-6.1804e-003
14659	5.81	2.3636	0.	-7.5103e-003
14660	5.9022	2.3636	5.e-002	6.4945
14661	5.9022	2.0909	0.	-4.1059e-003
14662	5.81	2.1818	0.	-5.5852e-003
14663	5.9022	2.1818	5.e-002	6.5002
14664	5.9022	1.9091	0.	-1.5243e-003
14665	5.81	2.	0.	-3.142e-003
14666	5.9022	2.	5.e-002	6.5062
14667	5.9022	1.7273	0.	1.6078e-003
14668	5.81	1.8182	0.	-1.4409e-004
14669	5.9022	1.8182	5.e-002	6.512
14670	5.9022	1.5455	0.	5.3738e-003
14671	5.81	1.6364	0.	3.4671e-003
14672	5.9022	1.6364	5.e-002	6.5169
14673	5.9022	1.3636	0.	9.8747e-003
14674	5.81	1.4545	0.	7.8152e-003
14675	5.9022	1.4545	5.e-002	6.5202
14676	5.9022	1.1818	0.	1.5439e-002
14677	5.81	1.2727	0.	1.3002e-002
14678	5.9022	1.2727	5.e-002	6.5213
14679	5.9022	1.	0.	2.2061e-002
14680	5.81	1.0909	0.	1.9641e-002
14681	5.9022	1.0909	5.e-002	6.5194
14682	5.9022	0.81818	0.	3.2341e-002
14683	5.81	0.90909	0.	2.7167e-002
14684	5.9022	0.90909	5.e-002	6.5138
14685	5.9022	0.63636	0.	4.09e-002
14686	5.81	0.72727	0.	4.1743e-002
14687	5.9022	0.72727	5.e-002	6.5039
14688	5.9022	0.45455	0.	9.2657e-002
14689	5.81	0.54545	0.	4.6515e-002
14690	5.9022	0.54545	5.e-002	6.484
14691	5.9022	0.27273	0.	0.12724
14692	5.81	0.36364	0.	0.15448
14693	5.9022	0.36364	5.e-002	6.376
14694	5.81	0.18182	0.	0.15876
14695	5.9022	0.18182	5.e-002	5.0578
14696	5.9022	9.0909e-002	0.	0.14787
14697	5.7178	5.7273	0.	0.14021
14698	5.6256	5.8182	0.	0.17453
14699	5.7178	5.8182	5.e-002	5.5001
14700	5.7178	5.9091	0.	0.1564
14701	5.7178	5.5455	0.	0.10175
14702	5.6256	5.6364	0.	0.16937
14703	5.7178	5.6364	5.e-002	6.5092
14704	5.7178	5.3636	0.	4.5027e-002
14705	5.6256	5.4545	0.	5.1338e-002
14706	5.7178	5.4545	5.e-002	6.5976
14707	5.7178	5.1818	0.	3.5478e-002
14708	5.6256	5.2727	0.	4.5834e-002
14709	5.7178	5.2727	5.e-002	6.6162
14710	5.7178	5.	0.	2.4133e-002
14711	5.6256	5.0909	0.	2.978e-002
14712	5.7178	5.0909	5.e-002	6.6258
14713	5.7178	4.8182	0.	1.6814e-002
14714	5.6256	4.9091	0.	2.1456e-002
14715	5.7178	4.9091	5.e-002	6.6306
14716	5.7178	4.6364	0.	1.0672e-002
14717	5.6256	4.7273	0.	1.4132e-002
14718	5.7178	4.7273	5.e-002	6.6314
14719	5.7178	4.4545	0.	5.7083e-003
14720	5.6256	4.5455	0.	8.4123e-003
14721	5.7178	4.5455	5.e-002	6.6289
14722	5.7178	4.2727	0.	1.5583e-003
14723	5.6256	4.3636	0.	3.6223e-003
14724	5.7178	4.3636	5.e-002	6.624
14725	5.7178	4.0909	0.	-1.8905e-003
14726	5.6256	4.1818	0.	-3.5279e-004
14727	5.7178	4.1818	5.e-002	6.6174
14728	5.7178	3.9091	0.	-4.7311e-003
14729	5.6256	4.	0.	-3.6501e-003
14730	5.7178	4.	5.e-002	6.6099
14731	5.7178	3.7273	0.	-7.0121e-003
14732	5.6256	3.8182	0.	-6.3351e-003
14733	5.7178	3.8182	5.e-002	6.6022
14734	5.7178	3.5455	0.	-8.7631e-003
14735	5.6256	3.6364	0.	-8.4492e-003
14736	5.7178	3.6364	5.e-002	6.5951
14737	5.7178	3.3636	0.	-1.0003e-002
14738	5.6256	3.4545	0.	-1.0017e-002
14739	5.7178	3.4545	5.e-002	6.5893
14740	5.7178	3.1818	0.	-1.0745e-002
14741	5.6256	3.2727	0.	-1.1056e-002
14742	5.7178	3.2727	5.e-002	6.5851
14743	5.7178	3.	0.	-1.0991e-002
14744	5.6256	3.0909	0.	-1.1574e-002
14745	5.7178	3.0909	5.e-002	6.5829
14746	5.7178	2.8182	0.	-1.0745e-002
14747	5.6256	2.9091	0.	-1.1574e-002
14748	5.7178	2.9091	5.e-002	6.5829
14749	5.7178	2.6364	0.	-1.0003e-002
14750	5.6256	2.7273	0.	-1.1056e-002
14751	5.7178	2.7273	5.e-002	6.5851
14752	5.7178	2.4545	0.	-8.7628e-003
14753	5.6256	2.5455	0.	-1.0017e-002
14754	5.7178	2.5455	5.e-002	6.5893
14755	5.7178	2.2727	0.	-7.0117e-003
14756	5.6256	2.3636	0.	-8.449e-003
14757	5.7178	2.3636	5.e-002	6.5952
14758	5.7178	2.0909	0.	-4.7306e-003
14759	5.6256	2.1818	0.	-6.3346e-003
14760	5.7178	2.1818	5.e-002	6.6022
14761	5.7178	1.9091	0.	-1.89e-003
14762	5.6256	2.	0.	-3.6497e-003
14763	5.7178	2.	5.e-002	6.6099
14764	5.7178	1.7273	0.	1.559e-003
14765	5.6256	1.8182	0.	-3.5228e-004
14766	5.7178	1.8182	5.e-002	6.6174
14767	5.7178	1.5455	0.	5.7091e-003
14768	5.6256	1.6364	0.	3.6229e-003
14769	5.7178	1.6364	5.e-002	6.624
14770	5.7178	1.3636	0.	1.0673e-002
14771	5.6256	1.4545	0.	8.4131e-003
14772	5.7178	1.4545	5.e-002	6.629
14773	5.7178	1.1818	0.	1.6815e-002
14774	5.6256	1.2727	0.	1.4133e-002
14775	5.7178	1.2727	5.e-002	6.6314
14776	5.7178	1.	0.	2.4134e-002
14777	5.6256	1.0909	0.	2.1456e-002
14778	5.7178	1.0909	5.e-002	6.6306
14779	5.7178	0.81818	0.	3.5479e-002
14780	5.6256	0.90909	0.	2.9781e-002
14781	5.7178	0.90909	5.e-002	6.6258
14782	5.7178	0.63636	0.	4.5028e-002
14783	5.6256	0.72727	0.	4.5835e-002
14784	5.7178	0.72727	5.e-002	6.6162
14785	5.7178	0.45455	0.	0.10176
14786	5.6256	0.54545	0.	5.1338e-002
14787	5.7178	0.54545	5.e-002	6.5976
14788	5.7178	0.27273	0.	0.14021
14789	5.6256	0.36364	0.	0.16937
14790	5.7178	0.36364	5.e-002	6.5092
14791	5.6256	0.18182	0.	0.17453
14792	5.7178	0.18182	5.e-002	5.5001
14793	5.7178	9.0909e-002	0.	0.1564
14794	5.5333	5.7273	0.	0.15474
14795	5.4411	5.8182	0.	0.19315
14796	5.5333	5.8182	5.e-002	5.9773
14797	5.5333	5.9091	0.	0.16606
14798	5.5333	5.5455	0.	0.11172
14799	5.4411	5.6364	0.	0.18566
14800	5.5333	5.6364	5.e-002	6.6537
14801	5.5333	5.3636	0.	4.9571e-002
14802	5.4411	5.4545	0.	5.6656e-002
14803	5.5333	5.4545	5.e-002	6.7211
14804	5.5333	5.1818	0.	3.893e-002
14805	5.4411	5.2727	0.	5.0325e-002
14806	5.5333	5.2727	5.e-002	6.7384
14807	5.5333	5.	0.	2.6423e-002
14808	5.4411	5.0909	0.	3.2658e-002
14809	5.5333	5.0909	5.e-002	6.7477
14810	5.5333	4.8182	0.	1.8343e-002
14811	5.4411	4.9091	0.	2.3461e-002
14812	5.5333	4.9091	5.e-002	6.7517
14813	5.5333	4.6364	0.	1.1573e-002
14814	5.4411	4.7273	0.	1.5391e-002
14815	5.5333	4.7273	5.e-002	6.7513
14816	5.5333	4.4545	0.	6.1048e-003
14817	5.4411	4.5455	0.	9.0907e-003
14818	5.5333	4.5455	5.e-002	6.7472
14819	5.5333	4.2727	0.	1.5376e-003
14820	5.4411	4.3636	0.	3.8203e-003
14821	5.5333	4.3636	5.e-002	6.7405
14822	5.5333	4.0909	0.	-2.2548e-003
14823	5.4411	4.1818	0.	-5.4954e-004
14824	5.5333	4.1818	5.e-002	6.732
14825	5.5333	3.9091	0.	-5.3756e-003
14826	5.4411	4.	0.	-4.1709e-003
14827	5.5333	4.	5.e-002	6.7225
14828	5.5333	3.7273	0.	-7.8796e-003
14829	5.4411	3.8182	0.	-7.1168e-003
14830	5.5333	3.8182	5.e-002	6.713
14831	5.5333	3.5455	0.	-9.8007e-003
14832	5.4411	3.6364	0.	-9.4347e-003
14833	5.5333	3.6364	5.e-002	6.7044
14834	5.5333	3.3636	0.	-1.1161e-002
14835	5.4411	3.4545	0.	-1.1152e-002
14836	5.5333	3.4545	5.e-002	6.6972
14837	5.5333	3.1818	0.	-1.1973e-002
14838	5.4411	3.2727	0.	-1.229e-002
14839	5.5333	3.2727	5.e-002	6.6921
14840	5.5333	3.	0.	-1.2243e-002
14841	5.4411	3.0909	0.	-1.2857e-002
14842	5.5333	3.0909	5.e-002	6.6894
14843	5.5333	2.8182	0.	-1.1973e-002
14844	5.4411	2.9091	0.	-1.2857e-002
14845	5.5333	2.9091	5.e-002	6.6894
14846	5.5333	2.6364	0.	-1.1161e-002
14847	5.4411	2.7273	0.	-1.229e-002
14848	5.5333	2.7273	5.e-002	6.6921
14849	5.5333	2.4545	0.	-9.8005e-003
14850	5.4411	2.5455	0.	-1.1152e-002
14851	5.5333	2.5455	5.e-002	6.6972
14852	5.5333	2.2727	0.	-7.8793e-003
14853	5.4411	2.3636	0.	-9.4344e-003
14854	5.5333	2.3636	5.e-002	6.7043
14855	5.5333	2.0909	0.	-5.3752e-003
14856	5.4411	2.1818	0.	-7.1165e-003
14857	5.5333	2.1818	5.e-002	6.713
14858	5.5333	1.9091	0.	-2.2544e-003
14859	5.4411	2.	0.	-4.1705e-003
14860	5.5333	2.	5.e-002	6.7225
14861	5.5333	1.7273	0.	1.5381e-003
14862	5.4411	1.8182	0.	-5.4897e-004
14863	5.5333	1.8182	5.e-002	6.732
14864	5.5333	1.5455	0.	6.1054e-003
14865	5.4411	1.6364	0.	3.8209e-003
14866	5.5333	1.6364	5.e-002	6.7406
14867	5.5333	1.3636	0.	1.1574e-002
14868	5.4411	1.4545	0.	9.0913e-003
14869	5.5333	1.4545	5.e-002	6.7473
14870	5.5333	1.1818	0.	1.8343e-002
14871	5.4411	1.2727	0.	1.5391e-002
14872	5.5333	1.2727	5.e-002	6.7513
14873	5.5333	1.	0.	2.6424e-002
14874	5.4411	1.0909	0.	2.3462e-002
14875	5.5333	1.0909	5.e-002	6.7517
14876	5.5333	0.81818	0.	3.893e-002
14877	5.4411	0.90909	0.	3.2659e-002
14878	5.5333	0.90909	5.e-002	6.7477
14879	5.5333	0.63636	0.	4.9571e-002
14880	5.4411	0.72727	0.	5.0326e-002
14881	5.5333	0.72727	5.e-002	6.7385
14882	5.5333	0.45455	0.	0.11172
14883	5.4411	0.54545	0.	5.6656e-002
14884	5.5333	0.54545	5.e-002	6.7211
14885	5.5333	0.27273	0.	0.15474
14886	5.4411	0.36364	0.	0.18566
14887	5.5333	0.36364	5.e-002	6.6537
14888	5.4411	0.18182	0.	0.19316
14889	5.5333	0.18182	5.e-002	5.9774
14890	5.5333	9.0909e-002	0.	0.16607
14891	5.3489	5.7273	0.	0.17103
14892	5.2567	5.8182	0.	0.21511
14893	5.3489	5.8182	5.e-002	6.4918
14894	5.3489	5.9091	0.	0.1769
14895	5.3489	5.5455	0.	0.12262
14896	5.2567	5.6364	0.	0.2035
14897	5.3489	5.6364	5.e-002	6.8104
14898	5.3489	5.3636	0.	5.4565e-002
14899	5.2567	5.4545	0.	6.2529e-002
14900	5.3489	5.4545	5.e-002	6.8556
14901	5.3489	5.1818	0.	4.2718e-002
14902	5.2567	5.2727	0.	5.5259e-002
14903	5.3489	5.2727	5.e-002	6.8717
14904	5.3489	5.	0.	2.8943e-002
14905	5.2567	5.0909	0.	3.583e-002
14906	5.3489	5.0909	5.e-002	6.8806
14907	5.3489	4.8182	0.	2.0031e-002
14908	5.2567	4.9091	0.	2.5677e-002
14909	5.3489	4.9091	5.e-002	6.8837
14910	5.3489	4.6364	0.	1.2577e-002
14911	5.2567	4.7273	0.	1.6793e-002
14912	5.3489	4.7273	5.e-002	6.882
14913	5.3489	4.4545	0.	6.5604e-003
14914	5.2567	4.5455	0.	9.8603e-003
14915	5.3489	4.5455	5.e-002	6.8763
14916	5.3489	4.2727	0.	1.5405e-003
14917	5.2567	4.3636	0.	4.0683e-003
14918	5.3489	4.3636	5.e-002	6.8676
14919	5.3489	4.0909	0.	-2.6238e-003
14920	5.2567	4.1818	0.	-7.2916e-004
14921	5.3489	4.1818	5.e-002	6.8569
14922	5.3489	3.9091	0.	-6.047e-003
14923	5.2567	4.	0.	-4.7003e-003
14924	5.3489	4.	5.e-002	6.8453
14925	5.3489	3.7273	0.	-8.7911e-003
14926	5.2567	3.8182	0.	-7.9271e-003
14927	5.3489	3.8182	5.e-002	6.8338
14928	5.3489	3.5455	0.	-1.0895e-002
14929	5.2567	3.6364	0.	-1.0463e-002
14930	5.3489	3.6364	5.e-002	6.8233
14931	5.3489	3.3636	0.	-1.2383e-002
14932	5.2567	3.4545	0.	-1.2341e-002
14933	5.3489	3.4545	5.e-002	6.8147
14934	5.3489	3.1818	0.	-1.3272e-002
14935	5.2567	3.2727	0.	-1.3584e-002
14936	5.3489	3.2727	5.e-002	6.8085
14937	5.3489	3.	0.	-1.3567e-002
14938	5.2567	3.0909	0.	-1.4203e-002
14939	5.3489	3.0909	5.e-002	6.8053
14940	5.3489	2.8182	0.	-1.3272e-002
14941	5.2567	2.9091	0.	-1.4203e-002
14942	5.3489	2.9091	5.e-002	6.8053
14943	5.3489	2.6364	0.	-1.2383e-002
14944	5.2567	2.7273	0.	-1.3584e-002
14945	5.3489	2.7273	5.e-002	6.8085
14946	5.3489	2.4545	0.	-1.0895e-002
14947	5.2567	2.5455	0.	-1.2341e-002
14948	5.3489	2.5455	5.e-002	6.8147
14949	5.3489	2.2727	0.	-8.7909e-003
14950	5.2567	2.3636	0.	-1.0463e-002
14951	5.3489	2.3636	5.e-002	6.8233
14952	5.3489	2.0909	0.	-6.0467e-003
14953	5.2567	2.1818	0.	-7.9268e-003
14954	5.3489	2.1818	5.e-002	6.8338
14955	5.3489	1.9091	0.	-2.6232e-003
14956	5.2567	2.	0.	-4.6998e-003
14957	5.3489	2.	5.e-002	6.8453
14958	5.3489	1.7273	0.	1.5412e-003
14959	5.2567	1.8182	0.	-7.2854e-004
14960	5.3489	1.8182	5.e-002	6.8569
14961	5.3489	1.5455	0.	6.561e-003
14962	5.2567	1.6364	0.	4.069e-003
14963	5.3489	1.6364	5.e-002	6.8676
14964	5.3489	1.3636	0.	1.2578e-002
14965	5.2567	1.4545	0.	9.8609e-003
14966	5.3489	1.4545	5.e-002	6.8763
14967	5.3489	1.1818	0.	2.0032e-002
14968	5.2567	1.2727	0.	1.6793e-002
14969	5.3489	1.2727	5.e-002	6.882
14970	5.3489	1.	0.	2.8944e-002
14971	5.2567	1.0909	0.	2.5678e-002
14972	5.3489	1.0909	5.e-002	6.8837
14973	5.3489	0.81818	0.	4.2719e-002
14974	5.2567	0.90909	0.	3.5832e-002
14975	5.3489	0.90909	5.e-002	6.8806
14976	5.3489	0.63636	0.	5.4566e-002
14977	5.2567	0.72727	0.	5.5259e-002
14978	5.3489	0.72727	5.e-002	6.8717
14979	5.3489	0.45455	0.	0.12262
14980	5.2567	0.54545	0.	6.2529e-002
14981	5.3489	0.54545	5.e-002	6.8556
14982	5.3489	0.27273	0.	0.17104
14983	5.2567	0.36364	0.	0.2035
14984	5.3489	0.36364	5.e-002	6.8105
14985	5.2567	0.18182	0.	0.21511
14986	5.3489	0.18182	5.e-002	6.4919
14987	5.3489	9.0909e-002	0.	0.1769
14988	5.1644	5.7273	0.	0.18936
14989	5.0722	5.8182	0.	0.241
14990	5.1644	5.8182	5.e-002	7.046
14991	5.1644	5.9091	0.	0.18897
14992	5.1644	5.5455	0.	0.13459
14993	5.0722	5.6364	0.	0.22305
14994	5.1644	5.6364	5.e-002	6.9805
14995	5.1644	5.3636	0.	6.0074e-002
14996	5.0722	5.4545	0.	6.9024e-002
14997	5.1644	5.4545	5.e-002	7.0021
14998	5.1644	5.1818	0.	4.6892e-002
14999	5.0722	5.2727	0.	6.0687e-002
15000	5.1644	5.2727	5.e-002	7.017
15001	5.1644	5.	0.	3.173e-002
15002	5.0722	5.0909	0.	3.9332e-002
15003	5.1644	5.0909	5.e-002	7.0256
15004	5.1644	4.8182	0.	2.1909e-002
15005	5.0722	4.9091	0.	2.8131e-002
15006	5.1644	4.9091	5.e-002	7.028
15007	5.1644	4.6364	0.	1.3708e-002
15008	5.0722	4.7273	0.	1.8358e-002
15009	5.1644	4.7273	5.e-002	7.0249
15010	5.1644	4.4545	0.	7.0955e-003
15011	5.0722	4.5455	0.	1.0737e-002
15012	5.1644	4.5455	5.e-002	7.0174
15013	5.1644	4.2727	0.	1.5848e-003
15014	5.0722	4.3636	0.	4.3787e-003
15015	5.1644	4.3636	5.e-002	7.0065
15016	5.1644	4.0909	0.	-2.9812e-003
15017	5.0722	4.1818	0.	-8.8112e-004
15018	5.1644	4.1818	5.e-002	6.9935
15019	5.1644	3.9091	0.	-6.7302e-003
15020	5.0722	4.	0.	-5.2288e-003
15021	5.1644	4.	5.e-002	6.9795
15022	5.1644	3.7273	0.	-9.7318e-003
15023	5.0722	3.8182	0.	-8.7567e-003
15024	5.1644	3.8182	5.e-002	6.9658
15025	5.1644	3.5455	0.	-1.2031e-002
15026	5.0722	3.6364	0.	-1.1526e-002
15027	5.1644	3.6364	5.e-002	6.9533
15028	5.1644	3.3636	0.	-1.3656e-002
15029	5.0722	3.4545	0.	-1.3574e-002
15030	5.1644	3.4545	5.e-002	6.943
15031	5.1644	3.1818	0.	-1.4625e-002
15032	5.0722	3.2727	0.	-1.4929e-002
15033	5.1644	3.2727	5.e-002	6.9358
15034	5.1644	3.	0.	-1.4947e-002
15035	5.0722	3.0909	0.	-1.5603e-002
15036	5.1644	3.0909	5.e-002	6.932
15037	5.1644	2.8182	0.	-1.4625e-002
15038	5.0722	2.9091	0.	-1.5603e-002
15039	5.1644	2.9091	5.e-002	6.932
15040	5.1644	2.6364	0.	-1.3655e-002
15041	5.0722	2.7273	0.	-1.4929e-002
15042	5.1644	2.7273	5.e-002	6.9358
15043	5.1644	2.4545	0.	-1.203e-002
15044	5.0722	2.5455	0.	-1.3574e-002
15045	5.1644	2.5455	5.e-002	6.943
15046	5.1644	2.2727	0.	-9.7315e-003
15047	5.0722	2.3636	0.	-1.1526e-002
15048	5.1644	2.3636	5.e-002	6.9533
15049	5.1644	2.0909	0.	-6.7298e-003
15050	5.0722	2.1818	0.	-8.7564e-003
15051	5.1644	2.1818	5.e-002	6.9657
15052	5.1644	1.9091	0.	-2.9807e-003
15053	5.0722	2.	0.	-5.2284e-003
15054	5.1644	2.	5.e-002	6.9795
15055	5.1644	1.7273	0.	1.5854e-003
15056	5.0722	1.8182	0.	-8.8057e-004
15057	5.1644	1.8182	5.e-002	6.9935
15058	5.1644	1.5455	0.	7.0962e-003
15059	5.0722	1.6364	0.	4.3793e-003
15060	5.1644	1.6364	5.e-002	7.0065
15061	5.1644	1.3636	0.	1.3709e-002
15062	5.0722	1.4545	0.	1.0738e-002
15063	5.1644	1.4545	5.e-002	7.0174
15064	5.1644	1.1818	0.	2.191e-002
15065	5.0722	1.2727	0.	1.8358e-002
15066	5.1644	1.2727	5.e-002	7.0249
15067	5.1644	1.	0.	3.1731e-002
15068	5.0722	1.0909	0.	2.8132e-002
15069	5.1644	1.0909	5.e-002	7.028
15070	5.1644	0.81818	0.	4.6893e-002
15071	5.0722	0.90909	0.	3.9333e-002
15072	5.1644	0.90909	5.e-002	7.0256
15073	5.1644	0.63636	0.	6.0074e-002
15074	5.0722	0.72727	0.	6.0688e-002
15075	5.1644	0.72727	5.e-002	7.017
15076	5.1644	0.45455	0.	0.13459
15077	5.0722	0.54545	0.	6.9025e-002
15078	5.1644	0.54545	5.e-002	7.0021
15079	5.1644	0.27273	0.	0.18936
15080	5.0722	0.36364	0.	0.22306
15081	5.1644	0.36364	5.e-002	6.9805
15082	5.0722	0.18182	0.	0.241
15083	5.1644	0.18182	5.e-002	7.0461
15084	5.1644	9.0909e-002	0.	0.18897
15085	4.98	5.7273	0.	0.20999
15086	4.8878	5.8182	0.	0.27157
15087	4.98	5.8182	5.e-002	7.6423
15088	4.98	5.9091	0.	0.20237
15089	4.98	5.5455	0.	0.14772
15090	4.8878	5.6364	0.	0.24452
15091	4.98	5.6364	5.e-002	7.1648
15092	4.98	5.3636	0.	6.6151e-002
15093	4.8878	5.4545	0.	7.6216e-002
15094	4.98	5.4545	5.e-002	7.1617
15095	4.98	5.1818	0.	5.1489e-002
15096	4.8878	5.2727	0.	6.6661e-002
15097	4.98	5.2727	5.e-002	7.1755
15098	4.98	5.	0.	3.4809e-002
15099	4.8878	5.0909	0.	4.3195e-002
15100	4.98	5.0909	5.e-002	7.184
15101	4.98	4.8182	0.	2.3993e-002
15102	4.8878	4.9091	0.	3.0846e-002
15103	4.98	4.9091	5.e-002	7.1857
15104	4.98	4.6364	0.	1.4979e-002
15105	4.8878	4.7273	0.	2.0101e-002
15106	4.98	4.7273	5.e-002	7.1813
15107	4.98	4.4545	0.	7.7177e-003
15108	4.8878	4.5455	0.	1.1731e-002
15109	4.98	4.5455	5.e-002	7.1719
15110	4.98	4.2727	0.	1.6755e-003
15111	4.8878	4.3636	0.	4.7584e-003
15112	4.98	4.3636	5.e-002	7.1587
15113	4.98	4.0909	0.	-3.3235e-003
15114	4.8878	4.1818	0.	-1.e-003
15115	4.98	4.1818	5.e-002	7.1432
15116	4.98	3.9091	0.	-7.4217e-003
15117	4.8878	4.	0.	-5.7515e-003
15118	4.98	4.	5.e-002	7.1267
15119	4.98	3.7273	0.	-1.0698e-002
15120	4.8878	3.8182	0.	-9.6002e-003
15121	4.98	3.8182	5.e-002	7.1105
15122	4.98	3.5455	0.	-1.3204e-002
15123	4.8878	3.6364	0.	-1.2616e-002
15124	4.98	3.6364	5.e-002	7.0958
15125	4.98	3.3636	0.	-1.4973e-002
15126	4.8878	3.4545	0.	-1.4844e-002
15127	4.98	3.4545	5.e-002	7.0838
15128	4.98	3.1818	0.	-1.6028e-002
15129	4.8878	3.2727	0.	-1.6316e-002
15130	4.98	3.2727	5.e-002	7.0753
15131	4.98	3.	0.	-1.6378e-002
15132	4.8878	3.0909	0.	-1.7048e-002
15133	4.98	3.0909	5.e-002	7.071
15134	4.98	2.8182	0.	-1.6028e-002
15135	4.8878	2.9091	0.	-1.7047e-002
15136	4.98	2.9091	5.e-002	7.071
15137	4.98	2.6364	0.	-1.4973e-002
15138	4.8878	2.7273	0.	-1.6316e-002
15139	4.98	2.7273	5.e-002	7.0753
15140	4.98	2.4545	0.	-1.3203e-002
15141	4.8878	2.5455	0.	-1.4844e-002
15142	4.98	2.5455	5.e-002	7.0839
15143	4.98	2.2727	0.	-1.0698e-002
15144	4.8878	2.3636	0.	-1.2616e-002
15145	4.98	2.3636	5.e-002	7.0958
15146	4.98	2.0909	0.	-7.4213e-003
15147	4.8878	2.1818	0.	-9.5999e-003
15148	4.98	2.1818	5.e-002	7.1105
15149	4.98	1.9091	0.	-3.3231e-003
15150	4.8878	2.	0.	-5.7511e-003
15151	4.98	2.	5.e-002	7.1267
15152	4.98	1.7273	0.	1.676e-003
15153	4.8878	1.8182	0.	-9.9948e-004
15154	4.98	1.8182	5.e-002	7.1432
15155	4.98	1.5455	0.	7.7183e-003
15156	4.8878	1.6364	0.	4.759e-003
15157	4.98	1.6364	5.e-002	7.1588
15158	4.98	1.3636	0.	1.498e-002
15159	4.8878	1.4545	0.	1.1731e-002
15160	4.98	1.4545	5.e-002	7.1719
15161	4.98	1.1818	0.	2.3994e-002
15162	4.8878	1.2727	0.	2.0102e-002
15163	4.98	1.2727	5.e-002	7.1813
15164	4.98	1.	0.	3.481e-002
15165	4.8878	1.0909	0.	3.0847e-002
15166	4.98	1.0909	5.e-002	7.1857
15167	4.98	0.81818	0.	5.149e-002
15168	4.8878	0.90909	0.	4.3197e-002
15169	4.98	0.90909	5.e-002	7.184
15170	4.98	0.63636	0.	6.6151e-002
15171	4.8878	0.72727	0.	6.6661e-002
15172	4.98	0.72727	5.e-002	7.1755
15173	4.98	0.45455	0.	0.14772
15174	4.8878	0.54545	0.	7.6217e-002
15175	4.98	0.54545	5.e-002	7.1617
15176	4.98	0.27273	0.	0.21
15177	4.8878	0.36364	0.	0.24452
15178	4.98	0.36364	5.e-002	7.1649
15179	4.8878	0.18182	0.	0.27157
15180	4.98	0.18182	5.e-002	7.6423
15181	4.98	9.0909e-002	0.	0.20237
15182	4.7956	5.7273	0.	0.2333
15183	4.7033	5.8182	0.	0.30776
15184	4.7956	5.8182	5.e-002	8.2832
15185	4.7956	5.9091	0.	0.21722
15186	4.7956	5.5455	0.	0.16215
15187	4.7033	5.6364	0.	0.2681
15188	4.7956	5.6364	5.e-002	7.3643
15189	4.7956	5.3636	0.	7.286e-002
15190	4.7033	5.4545	0.	8.4191e-002
15191	4.7956	5.4545	5.e-002	7.3355
15192	4.7956	5.1818	0.	5.6553e-002
15193	4.7033	5.2727	0.	7.3241e-002
15194	4.7956	5.2727	5.e-002	7.3486
15195	4.7956	5.	0.	3.8209e-002
15196	4.7033	5.0909	0.	4.7463e-002
15197	4.7956	5.0909	5.e-002	7.3573
15198	4.7956	4.8182	0.	2.6304e-002
15199	4.7033	4.9091	0.	3.385e-002
15200	4.7956	4.9091	5.e-002	7.3584
15201	4.7956	4.6364	0.	1.6402e-002
15202	4.7033	4.7273	0.	2.2044e-002
15203	4.7956	4.7273	5.e-002	7.3528
15204	4.7956	4.4545	0.	8.4362e-003
15205	4.7033	4.5455	0.	1.2857e-002
15206	4.7956	4.5455	5.e-002	7.3415
15207	4.7956	4.2727	0.	1.8197e-003
15208	4.7033	4.3636	0.	5.22e-003
15209	4.7956	4.3636	5.e-002	7.326
15210	4.7956	4.0909	0.	-3.6441e-003
15211	4.7033	4.1818	0.	-1.0746e-003
15212	4.7956	4.1818	5.e-002	7.3078
15213	4.7956	3.9091	0.	-8.1146e-003
15214	4.7033	4.	0.	-6.2568e-003
15215	4.7956	4.	5.e-002	7.2885
15216	4.7956	3.7273	0.	-1.1682e-002
15217	4.7033	3.8182	0.	-1.0445e-002
15218	4.7956	3.8182	5.e-002	7.2697
15219	4.7956	3.5455	0.	-1.4405e-002
15220	4.7033	3.6364	0.	-1.372e-002
15221	4.7956	3.6364	5.e-002	7.2528
15222	4.7956	3.3636	0.	-1.6326e-002
15223	4.7033	3.4545	0.	-1.6135e-002
15224	4.7956	3.4545	5.e-002	7.2389
15225	4.7956	3.1818	0.	-1.747e-002
15226	4.7033	3.2727	0.	-1.7728e-002
15227	4.7956	3.2727	5.e-002	7.2291
15228	4.7956	3.	0.	-1.7849e-002
15229	4.7033	3.0909	0.	-1.8519e-002
15230	4.7956	3.0909	5.e-002	7.224
15231	4.7956	2.8182	0.	-1.747e-002
15232	4.7033	2.9091	0.	-1.8519e-002
15233	4.7956	2.9091	5.e-002	7.224
15234	4.7956	2.6364	0.	-1.6326e-002
15235	4.7033	2.7273	0.	-1.7728e-002
15236	4.7956	2.7273	5.e-002	7.2291
15237	4.7956	2.4545	0.	-1.4405e-002
15238	4.7033	2.5455	0.	-1.6135e-002
15239	4.7956	2.5455	5.e-002	7.2389
15240	4.7956	2.2727	0.	-1.1681e-002
15241	4.7033	2.3636	0.	-1.372e-002
15242	4.7956	2.3636	5.e-002	7.2528
15243	4.7956	2.0909	0.	-8.1143e-003
15244	4.7033	2.1818	0.	-1.0445e-002
15245	4.7956	2.1818	5.e-002	7.2697
15246	4.7956	1.9091	0.	-3.6437e-003
15247	4.7033	2.	0.	-6.2564e-003
15248	4.7956	2.	5.e-002	7.2885
15249	4.7956	1.7273	0.	1.8203e-003
15250	4.7033	1.8182	0.	-1.074e-003
15251	4.7956	1.8182	5.e-002	7.3078
15252	4.7956	1.5455	0.	8.4368e-003
15253	4.7033	1.6364	0.	5.2206e-003
15254	4.7956	1.6364	5.e-002	7.326
15255	4.7956	1.3636	0.	1.6402e-002
15256	4.7033	1.4545	0.	1.2858e-002
15257	4.7956	1.4545	5.e-002	7.3415
15258	4.7956	1.1818	0.	2.6304e-002
15259	4.7033	1.2727	0.	2.2045e-002
15260	4.7956	1.2727	5.e-002	7.3528
15261	4.7956	1.	0.	3.821e-002
15262	4.7033	1.0909	0.	3.3851e-002
15263	4.7956	1.0909	5.e-002	7.3585
15264	4.7956	0.81818	0.	5.6554e-002
15265	4.7033	0.90909	0.	4.7464e-002
15266	4.7956	0.90909	5.e-002	7.3574
15267	4.7956	0.63636	0.	7.2861e-002
15268	4.7033	0.72727	0.	7.3242e-002
15269	4.7956	0.72727	5.e-002	7.3486
15270	4.7956	0.45455	0.	0.16215
15271	4.7033	0.54545	0.	8.4191e-002
15272	4.7956	0.54545	5.e-002	7.3355
15273	4.7956	0.27273	0.	0.2333
15274	4.7033	0.36364	0.	0.2681
15275	4.7956	0.36364	5.e-002	7.3643
15276	4.7033	0.18182	0.	0.30776
15277	4.7956	0.18182	5.e-002	8.2832
15278	4.7956	9.0909e-002	0.	0.21722
15279	4.6111	5.7273	0.	0.25968
15280	4.5189	5.8182	0.	0.35074
15281	4.6111	5.8182	5.e-002	8.9711
15282	4.6111	5.9091	0.	0.23366
15283	4.6111	5.5455	0.	0.17803
15284	4.5189	5.6364	0.	0.29406
15285	4.6111	5.6364	5.e-002	7.5801
15286	4.6111	5.3636	0.	8.028e-002
15287	4.5189	5.4545	0.	9.3051e-002
15288	4.6111	5.4545	5.e-002	7.5249
15289	4.6111	5.1818	0.	6.2139e-002
15290	4.5189	5.2727	0.	8.0502e-002
15291	4.6111	5.2727	5.e-002	7.5376
15292	4.6111	5.	0.	4.1969e-002
15293	4.5189	5.0909	0.	5.2182e-002
15294	4.6111	5.0909	5.e-002	7.547
15295	4.6111	4.8182	0.	2.887e-002
15296	4.5189	4.9091	0.	3.718e-002
15297	4.6111	4.9091	5.e-002	7.5479
15298	4.6111	4.6364	0.	1.7999e-002
15299	4.5189	4.7273	0.	2.4212e-002
15300	4.6111	4.7273	5.e-002	7.5411
15301	4.6111	4.4545	0.	9.269e-003
15302	4.5189	4.5455	0.	1.4137e-002
15303	4.6111	4.5455	5.e-002	7.528
15304	4.6111	4.2727	0.	2.0337e-003
15305	4.5189	4.3636	0.	5.7814e-003
15306	4.6111	4.3636	5.e-002	7.5101
15307	4.6111	4.0909	0.	-3.9272e-003
15308	4.5189	4.1818	0.	-1.087e-003
15309	4.6111	4.1818	5.e-002	7.4892
15310	4.6111	3.9091	0.	-8.7921e-003
15311	4.5189	4.	0.	-6.7259e-003
15312	4.6111	4.	5.e-002	7.4671
15313	4.6111	3.7273	0.	-1.2665e-002
15314	4.5189	3.8182	0.	-1.127e-002
15315	4.6111	3.8182	5.e-002	7.4456
15316	4.6111	3.5455	0.	-1.5615e-002
15317	4.5189	3.6364	0.	-1.4814e-002
15318	4.6111	3.6364	5.e-002	7.4262
15319	4.6111	3.3636	0.	-1.7692e-002
15320	4.5189	3.4545	0.	-1.7421e-002
15321	4.6111	3.4545	5.e-002	7.4103
15322	4.6111	3.1818	0.	-1.8927e-002
15323	4.5189	3.2727	0.	-1.9137e-002
15324	4.6111	3.2727	5.e-002	7.3991
15325	4.6111	3.	0.	-1.9336e-002
15326	4.5189	3.0909	0.	-1.9989e-002
15327	4.6111	3.0909	5.e-002	7.3933
15328	4.6111	2.8182	0.	-1.8926e-002
15329	4.5189	2.9091	0.	-1.9989e-002
15330	4.6111	2.9091	5.e-002	7.3933
15331	4.6111	2.6364	0.	-1.7691e-002
15332	4.5189	2.7273	0.	-1.9137e-002
15333	4.6111	2.7273	5.e-002	7.3991
15334	4.6111	2.4545	0.	-1.5615e-002
15335	4.5189	2.5455	0.	-1.7421e-002
15336	4.6111	2.5455	5.e-002	7.4103
15337	4.6111	2.2727	0.	-1.2664e-002
15338	4.5189	2.3636	0.	-1.4814e-002
15339	4.6111	2.3636	5.e-002	7.4262
15340	4.6111	2.0909	0.	-8.7917e-003
15341	4.5189	2.1818	0.	-1.1269e-002
15342	4.6111	2.1818	5.e-002	7.4456
15343	4.6111	1.9091	0.	-3.9266e-003
15344	4.5189	2.	0.	-6.7255e-003
15345	4.6111	2.	5.e-002	7.4672
15346	4.6111	1.7273	0.	2.0343e-003
15347	4.5189	1.8182	0.	-1.0866e-003
15348	4.6111	1.8182	5.e-002	7.4892
15349	4.6111	1.5455	0.	9.2697e-003
15350	4.5189	1.6364	0.	5.7821e-003
15351	4.6111	1.6364	5.e-002	7.5101
15352	4.6111	1.3636	0.	1.8e-002
15353	4.5189	1.4545	0.	1.4137e-002
15354	4.6111	1.4545	5.e-002	7.528
15355	4.6111	1.1818	0.	2.887e-002
15356	4.5189	1.2727	0.	2.4213e-002
15357	4.6111	1.2727	5.e-002	7.5411
15358	4.6111	1.	0.	4.197e-002
15359	4.5189	1.0909	0.	3.718e-002
15360	4.6111	1.0909	5.e-002	7.5479
15361	4.6111	0.81818	0.	6.214e-002
15362	4.5189	0.90909	0.	5.2183e-002
15363	4.6111	0.90909	5.e-002	7.547
15364	4.6111	0.63636	0.	8.0281e-002
15365	4.5189	0.72727	0.	8.0503e-002
15366	4.6111	0.72727	5.e-002	7.5377
15367	4.6111	0.45455	0.	0.17803
15368	4.5189	0.54545	0.	9.3052e-002
15369	4.6111	0.54545	5.e-002	7.5249
15370	4.6111	0.27273	0.	0.25968
15371	4.5189	0.36364	0.	0.29406
15372	4.6111	0.36364	5.e-002	7.5801
15373	4.5189	0.18182	0.	0.35074
15374	4.6111	0.18182	5.e-002	8.9711
15375	4.6111	9.0909e-002	0.	0.23366
15376	4.4267	5.7273	0.	0.28966
15377	4.3344	5.8182	0.	0.40202
15378	4.4267	5.8182	5.e-002	9.7084
15379	4.4267	5.9091	0.	0.25187
15380	4.4267	5.5455	0.	0.19553
15381	4.3344	5.6364	0.	0.32267
15382	4.4267	5.6364	5.e-002	7.8132
15383	4.4267	5.3636	0.	8.8501e-002
15384	4.3344	5.4545	0.	0.10291
15385	4.4267	5.4545	5.e-002	7.7311
15386	4.4267	5.1818	0.	6.8312e-002
15387	4.3344	5.2727	0.	8.8517e-002
15388	4.4267	5.2727	5.e-002	7.7442
15389	4.4267	5.	0.	4.6134e-002
15390	4.3344	5.0909	0.	5.7401e-002
15391	4.4267	5.0909	5.e-002	7.7548
15392	4.4267	4.8182	0.	3.1723e-002
15393	4.3344	4.9091	0.	4.0866e-002
15394	4.4267	4.9091	5.e-002	7.7559
15395	4.4267	4.6364	0.	1.9795e-002
15396	4.3344	4.7273	0.	2.6627e-002
15397	4.4267	4.7273	5.e-002	7.7484
15398	4.4267	4.4545	0.	1.0236e-002
15399	4.3344	4.5455	0.	1.5585e-002
15400	4.4267	4.5455	5.e-002	7.7336
15401	4.4267	4.2727	0.	2.3366e-003
15402	4.3344	4.3636	0.	6.4557e-003
15403	4.4267	4.3636	5.e-002	7.7134
15404	4.4267	4.0909	0.	-4.1522e-003
15405	4.3344	4.1818	0.	-1.0239e-003
15406	4.4267	4.1818	5.e-002	7.6898
15407	4.4267	3.9091	0.	-9.4313e-003
15408	4.3344	4.	0.	-7.1426e-003
15409	4.4267	4.	5.e-002	7.6648
15410	4.4267	3.7273	0.	-1.362e-002
15411	4.3344	3.8182	0.	-1.2055e-002
15412	4.4267	3.8182	5.e-002	7.6405
15413	4.4267	3.5455	0.	-1.6803e-002
15414	4.3344	3.6364	0.	-1.5873e-002
15415	4.4267	3.6364	5.e-002	7.6186
15416	4.4267	3.3636	0.	-1.9038e-002
15417	4.3344	3.4545	0.	-1.8674e-002
15418	4.4267	3.4545	5.e-002	7.6007
15419	4.4267	3.1818	0.	-2.0365e-002
15420	4.3344	3.2727	0.	-2.0513e-002
15421	4.4267	3.2727	5.e-002	7.5881
15422	4.4267	3.	0.	-2.0805e-002
15423	4.3344	3.0909	0.	-2.1424e-002
15424	4.4267	3.0909	5.e-002	7.5815
15425	4.4267	2.8182	0.	-2.0365e-002
15426	4.3344	2.9091	0.	-2.1424e-002
15427	4.4267	2.9091	5.e-002	7.5815
15428	4.4267	2.6364	0.	-1.9038e-002
15429	4.3344	2.7273	0.	-2.0513e-002
15430	4.4267	2.7273	5.e-002	7.5881
15431	4.4267	2.4545	0.	-1.6803e-002
15432	4.3344	2.5455	0.	-1.8673e-002
15433	4.4267	2.5455	5.e-002	7.6007
15434	4.4267	2.2727	0.	-1.362e-002
15435	4.3344	2.3636	0.	-1.5873e-002
15436	4.4267	2.3636	5.e-002	7.6186
15437	4.4267	2.0909	0.	-9.4309e-003
15438	4.3344	2.1818	0.	-1.2055e-002
15439	4.4267	2.1818	5.e-002	7.6405
15440	4.4267	1.9091	0.	-4.1518e-003
15441	4.3344	2.	0.	-7.1422e-003
15442	4.4267	2.	5.e-002	7.6648
15443	4.4267	1.7273	0.	2.3371e-003
15444	4.3344	1.8182	0.	-1.0236e-003
15445	4.4267	1.8182	5.e-002	7.6898
15446	4.4267	1.5455	0.	1.0237e-002
15447	4.3344	1.6364	0.	6.4564e-003
15448	4.4267	1.6364	5.e-002	7.7134
15449	4.4267	1.3636	0.	1.9796e-002
15450	4.3344	1.4545	0.	1.5585e-002
15451	4.4267	1.4545	5.e-002	7.7336
15452	4.4267	1.1818	0.	3.1723e-002
15453	4.3344	1.2727	0.	2.6627e-002
15454	4.4267	1.2727	5.e-002	7.7484
15455	4.4267	1.	0.	4.6135e-002
15456	4.3344	1.0909	0.	4.0866e-002
15457	4.4267	1.0909	5.e-002	7.7559
15458	4.4267	0.81818	0.	6.8313e-002
15459	4.3344	0.90909	0.	5.7402e-002
15460	4.4267	0.90909	5.e-002	7.7548
15461	4.4267	0.63636	0.	8.8501e-002
15462	4.3344	0.72727	0.	8.8518e-002
15463	4.4267	0.72727	5.e-002	7.7442
15464	4.4267	0.45455	0.	0.19554
15465	4.3344	0.54545	0.	0.10291
15466	4.4267	0.54545	5.e-002	7.7311
15467	4.4267	0.27273	0.	0.28966
15468	4.3344	0.36364	0.	0.32267
15469	4.4267	0.36364	5.e-002	7.8132
15470	4.3344	0.18182	0.	0.40202
15471	4.4267	0.18182	5.e-002	9.7084
15472	4.4267	9.0909e-002	0.	0.25187
15473	4.2422	5.7273	0.	0.32381
15474	4.15	5.8182	0.	0.46352
15475	4.2422	5.8182	5.e-002	10.497
15476	4.2422	5.9091	0.	0.27207
15477	4.2422	5.5455	0.	0.21485
15478	4.15	5.6364	0.	0.35427
15479	4.2422	5.6364	5.e-002	8.0645
15480	4.2422	5.3636	0.	9.7609e-002
15481	4.15	5.4545	0.	0.11389
15482	4.2422	5.4545	5.e-002	7.9556
15483	4.2422	5.1818	0.	7.5124e-002
15484	4.15	5.2727	0.	9.7374e-002
15485	4.2422	5.2727	5.e-002	7.9701
15486	4.2422	5.	0.	5.0735e-002
15487	4.15	5.0909	0.	6.3173e-002
15488	4.2422	5.0909	5.e-002	7.9827
15489	4.2422	4.8182	0.	3.4882e-002
15490	4.15	4.9091	0.	4.4945e-002
15491	4.2422	4.9091	5.e-002	7.9848
15492	4.2422	4.6364	0.	2.18e-002
15493	4.15	4.7273	0.	2.9313e-002
15494	4.2422	4.7273	5.e-002	7.9768
15495	4.2422	4.4545	0.	1.1346e-002
15496	4.15	4.5455	0.	1.7221e-002
15497	4.2422	4.5455	5.e-002	7.9607
15498	4.2422	4.2727	0.	2.7352e-003
15499	4.15	4.3636	0.	7.2613e-003
15500	4.2422	4.3636	5.e-002	7.9383
15501	4.2422	4.0909	0.	-4.3103e-003
15502	4.15	4.1818	0.	-8.6488e-004
15503	4.2422	4.1818	5.e-002	7.9121
15504	4.2422	3.9091	0.	-1.0019e-002
15505	4.15	4.	0.	-7.4817e-003
15506	4.2422	4.	5.e-002	7.8843
15507	4.2422	3.7273	0.	-1.4531e-002
15508	4.15	3.8182	0.	-1.2769e-002
15509	4.2422	3.8182	5.e-002	7.8572
15510	4.2422	3.5455	0.	-1.7947e-002
15511	4.15	3.6364	0.	-1.6861e-002
15512	4.2422	3.6364	5.e-002	7.8329
15513	4.2422	3.3636	0.	-2.0339e-002
15514	4.15	3.4545	0.	-1.985e-002
15515	4.2422	3.4545	5.e-002	7.813
15516	4.2422	3.1818	0.	-2.1756e-002
15517	4.15	3.2727	0.	-2.1808e-002
15518	4.2422	3.2727	5.e-002	7.799
15519	4.2422	3.	0.	-2.2225e-002
15520	4.15	3.0909	0.	-2.2776e-002
15521	4.2422	3.0909	5.e-002	7.7918
15522	4.2422	2.8182	0.	-2.1755e-002
15523	4.15	2.9091	0.	-2.2776e-002
15524	4.2422	2.9091	5.e-002	7.7918
15525	4.2422	2.6364	0.	-2.0339e-002
15526	4.15	2.7273	0.	-2.1808e-002
15527	4.2422	2.7273	5.e-002	7.799
15528	4.2422	2.4545	0.	-1.7947e-002
15529	4.15	2.5455	0.	-1.985e-002
15530	4.2422	2.5455	5.e-002	7.813
15531	4.2422	2.2727	0.	-1.4531e-002
15532	4.15	2.3636	0.	-1.686e-002
15533	4.2422	2.3636	5.e-002	7.8329
15534	4.2422	2.0909	0.	-1.0019e-002
15535	4.15	2.1818	0.	-1.2769e-002
15536	4.2422	2.1818	5.e-002	7.8572
15537	4.2422	1.9091	0.	-4.3099e-003
15538	4.15	2.	0.	-7.4812e-003
15539	4.2422	2.	5.e-002	7.8843
15540	4.2422	1.7273	0.	2.7357e-003
15541	4.15	1.8182	0.	-8.6457e-004
15542	4.2422	1.8182	5.e-002	7.9121
15543	4.2422	1.5455	0.	1.1346e-002
15544	4.15	1.6364	0.	7.2618e-003
15545	4.2422	1.6364	5.e-002	7.9383
15546	4.2422	1.3636	0.	2.1801e-002
15547	4.15	1.4545	0.	1.7221e-002
15548	4.2422	1.4545	5.e-002	7.9607
15549	4.2422	1.1818	0.	3.4883e-002
15550	4.15	1.2727	0.	2.9313e-002
15551	4.2422	1.2727	5.e-002	7.9769
15552	4.2422	1.	0.	5.0736e-002
15553	4.15	1.0909	0.	4.4946e-002
15554	4.2422	1.0909	5.e-002	7.9848
15555	4.2422	0.81818	0.	7.5125e-002
15556	4.15	0.90909	0.	6.3174e-002
15557	4.2422	0.90909	5.e-002	7.9828
15558	4.2422	0.63636	0.	9.7609e-002
15559	4.15	0.72727	0.	9.7374e-002
15560	4.2422	0.72727	5.e-002	7.9701
15561	4.2422	0.45455	0.	0.21485
15562	4.15	0.54545	0.	0.11389
15563	4.2422	0.54545	5.e-002	7.9556
15564	4.2422	0.27273	0.	0.32381
15565	4.15	0.36364	0.	0.35428
15566	4.2422	0.36364	5.e-002	8.0645
15567	4.15	0.18182	0.	0.46352
15568	4.2422	0.18182	5.e-002	10.497
15569	4.2422	9.0909e-002	0.	0.27208
15570	4.0578	5.7273	0.	0.36287
15571	3.9656	5.8182	0.	0.53774
15572	4.0578	5.8182	5.e-002	11.34
15573	4.0578	5.9091	0.	0.29457
15574	4.0578	5.5455	0.	0.2362
15575	3.9656	5.6364	0.	0.38925
15576	4.0578	5.6364	5.e-002	8.3351
15577	4.0578	5.3636	0.	0.10772
15578	3.9656	5.4545	0.	0.12616
15579	4.0578	5.4545	5.e-002	8.2001
15580	4.0578	5.1818	0.	8.2661e-002
15581	3.9656	5.2727	0.	0.10718
15582	4.0578	5.2727	5.e-002	8.2172
15583	4.0578	5.	0.	5.583e-002
15584	3.9656	5.0909	0.	6.9566e-002
15585	4.0578	5.0909	5.e-002	8.2331
15586	4.0578	4.8182	0.	3.8389e-002
15587	3.9656	4.9091	0.	4.9462e-002
15588	4.0578	4.9091	5.e-002	8.2369
15589	4.0578	4.6364	0.	2.4048e-002
15590	3.9656	4.7273	0.	3.2301e-002
15591	4.0578	4.7273	5.e-002	8.2292
15592	4.0578	4.4545	0.	1.2627e-002
15593	3.9656	4.5455	0.	1.907e-002
15594	4.0578	4.5455	5.e-002	8.2121
15595	4.0578	4.2727	0.	3.2609e-003
15596	3.9656	4.3636	0.	8.2235e-003
15597	4.0578	4.3636	5.e-002	8.1879
15598	4.0578	4.0909	0.	-4.3653e-003
15599	3.9656	4.1818	0.	-5.7966e-004
15600	4.0578	4.1818	5.e-002	8.1593
15601	4.0578	3.9091	0.	-1.0513e-002
15602	3.9656	4.	0.	-7.7058e-003
15603	4.0578	4.	5.e-002	8.1288
15604	4.0578	3.7273	0.	-1.5347e-002
15605	3.9656	3.8182	0.	-1.3366e-002
15606	4.0578	3.8182	5.e-002	8.0992
15607	4.0578	3.5455	0.	-1.899e-002
15608	3.9656	3.6364	0.	-1.7722e-002
15609	4.0578	3.6364	5.e-002	8.0726
15610	4.0578	3.3636	0.	-2.1531e-002
15611	3.9656	3.4545	0.	-2.0889e-002
15612	4.0578	3.4545	5.e-002	8.0509
15613	4.0578	3.1818	0.	-2.3032e-002
15614	3.9656	3.2727	0.	-2.2955e-002
15615	4.0578	3.2727	5.e-002	8.0356
15616	4.0578	3.	0.	-2.3529e-002
15617	3.9656	3.0909	0.	-2.3974e-002
15618	4.0578	3.0909	5.e-002	8.0277
15619	4.0578	2.8182	0.	-2.3032e-002
15620	3.9656	2.9091	0.	-2.3974e-002
15621	4.0578	2.9091	5.e-002	8.0277
15622	4.0578	2.6364	0.	-2.1531e-002
15623	3.9656	2.7273	0.	-2.2955e-002
15624	4.0578	2.7273	5.e-002	8.0356
15625	4.0578	2.4545	0.	-1.899e-002
15626	3.9656	2.5455	0.	-2.0889e-002
15627	4.0578	2.5455	5.e-002	8.0509
15628	4.0578	2.2727	0.	-1.5347e-002
15629	3.9656	2.3636	0.	-1.7722e-002
15630	4.0578	2.3636	5.e-002	8.0726
15631	4.0578	2.0909	0.	-1.0512e-002
15632	3.9656	2.1818	0.	-1.3366e-002
15633	4.0578	2.1818	5.e-002	8.0992
15634	4.0578	1.9091	0.	-4.3648e-003
15635	3.9656	2.	0.	-7.7053e-003
15636	4.0578	2.	5.e-002	8.1288
15637	4.0578	1.7273	0.	3.2613e-003
15638	3.9656	1.8182	0.	-5.7924e-004
15639	4.0578	1.8182	5.e-002	8.1593
15640	4.0578	1.5455	0.	1.2627e-002
15641	3.9656	1.6364	0.	8.2239e-003
15642	4.0578	1.6364	5.e-002	8.1879
15643	4.0578	1.3636	0.	2.4049e-002
15644	3.9656	1.4545	0.	1.9071e-002
15645	4.0578	1.4545	5.e-002	8.2121
15646	4.0578	1.1818	0.	3.839e-002
15647	3.9656	1.2727	0.	3.2302e-002
15648	4.0578	1.2727	5.e-002	8.2292
15649	4.0578	1.	0.	5.5831e-002
15650	3.9656	1.0909	0.	4.9462e-002
15651	4.0578	1.0909	5.e-002	8.2369
15652	4.0578	0.81818	0.	8.2662e-002
15653	3.9656	0.90909	0.	6.9567e-002
15654	4.0578	0.90909	5.e-002	8.2331
15655	4.0578	0.63636	0.	0.10773
15656	3.9656	0.72727	0.	0.10718
15657	4.0578	0.72727	5.e-002	8.2172
15658	4.0578	0.45455	0.	0.2362
15659	3.9656	0.54545	0.	0.12616
15660	4.0578	0.54545	5.e-002	8.2001
15661	4.0578	0.27273	0.	0.36288
15662	3.9656	0.36364	0.	0.38926
15663	4.0578	0.36364	5.e-002	8.3351
15664	3.9656	0.18182	0.	0.53774
15665	4.0578	0.18182	5.e-002	11.34
15666	4.0578	9.0909e-002	0.	0.29457
15667	3.8733	5.7273	0.	0.40774
15668	3.7811	5.8182	0.	0.62795
15669	3.8733	5.8182	5.e-002	12.238
15670	3.8733	5.9091	0.	0.31973
15671	3.8733	5.5455	0.	0.25986
15672	3.7811	5.6364	0.	0.42806
15673	3.8733	5.6364	5.e-002	8.6261
15674	3.8733	5.3636	0.	0.11898
15675	3.7811	5.4545	0.	0.13988
15676	3.8733	5.4545	5.e-002	8.4663
15677	3.8733	5.1818	0.	9.1002e-002
15678	3.7811	5.2727	0.	0.11803
15679	3.8733	5.2727	5.e-002	8.4879
15680	3.8733	5.	0.	6.1469e-002
15681	3.7811	5.0909	0.	7.6636e-002
15682	3.8733	5.0909	5.e-002	8.5085
15683	3.8733	4.8182	0.	4.2276e-002
15684	3.7811	4.9091	0.	5.4449e-002
15685	3.8733	4.9091	5.e-002	8.5151
15686	3.8733	4.6364	0.	2.6561e-002
15687	3.7811	4.7273	0.	3.5612e-002
15688	3.8733	4.7273	5.e-002	8.5086
15689	3.8733	4.4545	0.	1.41e-002
15690	3.7811	4.5455	0.	2.1147e-002
15691	3.8733	4.5455	5.e-002	8.4911
15692	3.8733	4.2727	0.	3.9374e-003
15693	3.7811	4.3636	0.	9.359e-003
15694	3.8733	4.3636	5.e-002	8.4655
15695	3.8733	4.0909	0.	-4.2862e-003
15696	3.7811	4.1818	0.	-1.4401e-004
15697	3.8733	4.1818	5.e-002	8.4348
15698	3.8733	3.9091	0.	-1.0872e-002
15699	3.7811	4.	0.	-7.7799e-003
15700	3.8733	4.	5.e-002	8.4021
15701	3.8733	3.7273	0.	-1.6017e-002
15702	3.7811	3.8182	0.	-1.38e-002
15703	3.8733	3.8182	5.e-002	8.3702
15704	3.8733	3.5455	0.	-1.9872e-002
15705	3.7811	3.6364	0.	-1.8398e-002
15706	3.8733	3.6364	5.e-002	8.3417
15707	3.8733	3.3636	0.	-2.2547e-002
15708	3.7811	3.4545	0.	-2.1721e-002
15709	3.8733	3.4545	5.e-002	8.3184
15710	3.8733	3.1818	0.	-2.4122e-002
15711	3.7811	3.2727	0.	-2.3877e-002
15712	3.8733	3.2727	5.e-002	8.3021
15713	3.8733	3.	0.	-2.4642e-002
15714	3.7811	3.0909	0.	-2.4938e-002
15715	3.8733	3.0909	5.e-002	8.2937
15716	3.8733	2.8182	0.	-2.4122e-002
15717	3.7811	2.9091	0.	-2.4938e-002
15718	3.8733	2.9091	5.e-002	8.2937
15719	3.8733	2.6364	0.	-2.2547e-002
15720	3.7811	2.7273	0.	-2.3877e-002
15721	3.8733	2.7273	5.e-002	8.3021
15722	3.8733	2.4545	0.	-1.9872e-002
15723	3.7811	2.5455	0.	-2.1721e-002
15724	3.8733	2.5455	5.e-002	8.3184
15725	3.8733	2.2727	0.	-1.6017e-002
15726	3.7811	2.3636	0.	-1.8398e-002
15727	3.8733	2.3636	5.e-002	8.3416
15728	3.8733	2.0909	0.	-1.0872e-002
15729	3.7811	2.1818	0.	-1.3799e-002
15730	3.8733	2.1818	5.e-002	8.3702
15731	3.8733	1.9091	0.	-4.2858e-003
15732	3.7811	2.	0.	-7.7795e-003
15733	3.8733	2.	5.e-002	8.4021
15734	3.8733	1.7273	0.	3.9379e-003
15735	3.7811	1.8182	0.	-1.4357e-004
15736	3.8733	1.8182	5.e-002	8.4348
15737	3.8733	1.5455	0.	1.41e-002
15738	3.7811	1.6364	0.	9.3595e-003
15739	3.8733	1.6364	5.e-002	8.4655
15740	3.8733	1.3636	0.	2.6562e-002
15741	3.7811	1.4545	0.	2.1148e-002
15742	3.8733	1.4545	5.e-002	8.4911
15743	3.8733	1.1818	0.	4.2277e-002
15744	3.7811	1.2727	0.	3.5613e-002
15745	3.8733	1.2727	5.e-002	8.5086
15746	3.8733	1.	0.	6.147e-002
15747	3.7811	1.0909	0.	5.445e-002
15748	3.8733	1.0909	5.e-002	8.5151
15749	3.8733	0.81818	0.	9.1003e-002
15750	3.7811	0.90909	0.	7.6637e-002
15751	3.8733	0.90909	5.e-002	8.5085
15752	3.8733	0.63636	0.	0.11898
15753	3.7811	0.72727	0.	0.11803
15754	3.8733	0.72727	5.e-002	8.4879
15755	3.8733	0.45455	0.	0.25986
15756	3.7811	0.54545	0.	0.13988
15757	3.8733	0.54545	5.e-002	8.4663
15758	3.8733	0.27273	0.	0.40775
15759	3.7811	0.36364	0.	0.42806
15760	3.8733	0.36364	5.e-002	8.6262
15761	3.7811	0.18182	0.	0.62795
15762	3.8733	0.18182	5.e-002	12.238
15763	3.8733	9.0909e-002	0.	0.31973
15764	3.6889	5.7273	0.	0.4595
15765	3.5967	5.8182	0.	0.73854
15766	3.6889	5.8182	5.e-002	13.193
15767	3.6889	5.9091	0.	0.34802
15768	3.6889	5.5455	0.	0.28611
15769	3.5967	5.6364	0.	0.47122
15770	3.6889	5.6364	5.e-002	8.9388
15771	3.6889	5.3636	0.	0.13149
15772	3.5967	5.4545	0.	0.15525
15773	3.6889	5.4545	5.e-002	8.7566
15774	3.6889	5.1818	0.	0.10022
15775	3.5967	5.2727	0.	0.13005
15776	3.6889	5.2727	5.e-002	8.7849
15777	3.6889	5.	0.	6.769e-002
15778	3.5967	5.0909	0.	8.4453e-002
15779	3.6889	5.0909	5.e-002	8.8121
15780	3.6889	4.8182	0.	4.6562e-002
15781	3.5967	4.9091	0.	5.9947e-002
15782	3.6889	4.9091	5.e-002	8.823
15783	3.6889	4.6364	0.	2.9349e-002
15784	3.5967	4.7273	0.	3.9269e-002
15785	3.6889	4.7273	5.e-002	8.8185
15786	3.6889	4.4545	0.	1.5774e-002
15787	3.5967	4.5455	0.	2.3472e-002
15788	3.6889	4.5455	5.e-002	8.8014
15789	3.6889	4.2727	0.	4.7811e-003
15790	3.5967	4.3636	0.	1.0693e-002
15791	3.6889	4.3636	5.e-002	8.7749
15792	3.6889	4.0909	0.	-4.0454e-003
15793	3.5967	4.1818	0.	4.786e-004
15794	3.6889	4.1818	5.e-002	8.7428
15795	3.6889	3.9091	0.	-1.1055e-002
15796	3.5967	4.	0.	-7.6521e-003
15797	3.6889	4.	5.e-002	8.7084
15798	3.6889	3.7273	0.	-1.6487e-002
15799	3.5967	3.8182	0.	-1.4e-002
15800	3.6889	3.8182	5.e-002	8.6749
15801	3.6889	3.5455	0.	-2.0525e-002
15802	3.5967	3.6364	0.	-1.8805e-002
15803	3.6889	3.6364	5.e-002	8.6449
15804	3.6889	3.3636	0.	-2.3311e-002
15805	3.5967	3.4545	0.	-2.2249e-002
15806	3.6889	3.4545	5.e-002	8.6207
15807	3.6889	3.1818	0.	-2.4943e-002
15808	3.5967	3.2727	0.	-2.447e-002
15809	3.6889	3.2727	5.e-002	8.6037
15810	3.6889	3.	0.	-2.5481e-002
15811	3.5967	3.0909	0.	-2.5558e-002
15812	3.6889	3.0909	5.e-002	8.595
15813	3.6889	2.8182	0.	-2.4943e-002
15814	3.5967	2.9091	0.	-2.5558e-002
15815	3.6889	2.9091	5.e-002	8.595
15816	3.6889	2.6364	0.	-2.3311e-002
15817	3.5967	2.7273	0.	-2.447e-002
15818	3.6889	2.7273	5.e-002	8.6037
15819	3.6889	2.4545	0.	-2.0525e-002
15820	3.5967	2.5455	0.	-2.2249e-002
15821	3.6889	2.5455	5.e-002	8.6207
15822	3.6889	2.2727	0.	-1.6487e-002
15823	3.5967	2.3636	0.	-1.8805e-002
15824	3.6889	2.3636	5.e-002	8.6449
15825	3.6889	2.0909	0.	-1.1055e-002
15826	3.5967	2.1818	0.	-1.4e-002
15827	3.6889	2.1818	5.e-002	8.6749
15828	3.6889	1.9091	0.	-4.045e-003
15829	3.5967	2.	0.	-7.6517e-003
15830	3.6889	2.	5.e-002	8.7084
15831	3.6889	1.7273	0.	4.7815e-003
15832	3.5967	1.8182	0.	4.7894e-004
15833	3.6889	1.8182	5.e-002	8.7428
15834	3.6889	1.5455	0.	1.5775e-002
15835	3.5967	1.6364	0.	1.0693e-002
15836	3.6889	1.6364	5.e-002	8.775
15837	3.6889	1.3636	0.	2.9349e-002
15838	3.5967	1.4545	0.	2.3473e-002
15839	3.6889	1.4545	5.e-002	8.8014
15840	3.6889	1.1818	0.	4.6563e-002
15841	3.5967	1.2727	0.	3.9269e-002
15842	3.6889	1.2727	5.e-002	8.8185
15843	3.6889	1.	0.	6.769e-002
15844	3.5967	1.0909	0.	5.9948e-002
15845	3.6889	1.0909	5.e-002	8.823
15846	3.6889	0.81818	0.	0.10022
15847	3.5967	0.90909	0.	8.4454e-002
15848	3.6889	0.90909	5.e-002	8.8122
15849	3.6889	0.63636	0.	0.13149
15850	3.5967	0.72727	0.	0.13005
15851	3.6889	0.72727	5.e-002	8.7849
15852	3.6889	0.45455	0.	0.28611
15853	3.5967	0.54545	0.	0.15525
15854	3.6889	0.54545	5.e-002	8.7566
15855	3.6889	0.27273	0.	0.4595
15856	3.5967	0.36364	0.	0.47122
15857	3.6889	0.36364	5.e-002	8.9388
15858	3.5967	0.18182	0.	0.73854
15859	3.6889	0.18182	5.e-002	13.193
15860	3.6889	9.0909e-002	0.	0.34803
15861	3.5044	5.7273	0.	0.51951
15862	3.4122	5.8182	0.	0.87546
15863	3.5044	5.8182	5.e-002	14.205
15864	3.5044	5.9091	0.	0.38013
15865	3.5044	5.5455	0.	0.31531
15866	3.4122	5.6364	0.	0.51938
15867	3.5044	5.6364	5.e-002	9.2743
15868	3.5044	5.3636	0.	0.14544
15869	3.4122	5.4545	0.	0.1725
15870	3.5044	5.4545	5.e-002	9.0737
15871	3.5044	5.1818	0.	0.11043
15872	3.4122	5.2727	0.	0.14338
15873	3.5044	5.2727	5.e-002	9.1117
15874	3.5044	5.	0.	7.4557e-002
15875	3.4122	5.0909	0.	9.3091e-002
15876	3.5044	5.0909	5.e-002	9.1478
15877	3.5044	4.8182	0.	5.1287e-002
15878	3.4122	4.9091	0.	6.5996e-002
15879	3.5044	4.9091	5.e-002	9.1645
15880	3.5044	4.6364	0.	3.2442e-002
15881	3.4122	4.7273	0.	4.3294e-002
15882	3.5044	4.7273	5.e-002	9.1633
15883	3.5044	4.4545	0.	1.7684e-002
15884	3.4122	4.5455	0.	2.6067e-002
15885	3.5044	4.5455	5.e-002	9.1474
15886	3.5044	4.2727	0.	5.836e-003
15887	3.4122	4.3636	0.	1.2257e-002
15888	3.5044	4.3636	5.e-002	9.1209
15889	3.5044	4.0909	0.	-3.5828e-003
15890	3.4122	4.1818	0.	1.3376e-003
15891	3.5044	4.1818	5.e-002	9.088
15892	3.5044	3.9091	0.	-1.0984e-002
15893	3.4122	4.	0.	-7.2518e-003
15894	3.5044	4.	5.e-002	9.0527
15895	3.5044	3.7273	0.	-1.6659e-002
15896	3.4122	3.8182	0.	-1.3876e-002
15897	3.5044	3.8182	5.e-002	9.0185
15898	3.5044	3.5455	0.	-2.0838e-002
15899	3.4122	3.6364	0.	-1.8831e-002
15900	3.5044	3.6364	5.e-002	8.9881
15901	3.5044	3.3636	0.	-2.3696e-002
15902	3.4122	3.4545	0.	-2.2345e-002
15903	3.5044	3.4545	5.e-002	8.9636
15904	3.5044	3.1818	0.	-2.5361e-002
15905	3.4122	3.2727	0.	-2.4593e-002
15906	3.5044	3.2727	5.e-002	8.9466
15907	3.5044	3.	0.	-2.5908e-002
15908	3.4122	3.0909	0.	-2.5688e-002
15909	3.5044	3.0909	5.e-002	8.9378
15910	3.5044	2.8182	0.	-2.5361e-002
15911	3.4122	2.9091	0.	-2.5688e-002
15912	3.5044	2.9091	5.e-002	8.9378
15913	3.5044	2.6364	0.	-2.3696e-002
15914	3.4122	2.7273	0.	-2.4593e-002
15915	3.5044	2.7273	5.e-002	8.9466
15916	3.5044	2.4545	0.	-2.0837e-002
15917	3.4122	2.5455	0.	-2.2345e-002
15918	3.5044	2.5455	5.e-002	8.9636
15919	3.5044	2.2727	0.	-1.6659e-002
15920	3.4122	2.3636	0.	-1.8831e-002
15921	3.5044	2.3636	5.e-002	8.9881
15922	3.5044	2.0909	0.	-1.0984e-002
15923	3.4122	2.1818	0.	-1.3876e-002
15924	3.5044	2.1818	5.e-002	9.0185
15925	3.5044	1.9091	0.	-3.5824e-003
15926	3.4122	2.	0.	-7.2515e-003
15927	3.5044	2.	5.e-002	9.0527
15928	3.5044	1.7273	0.	5.8364e-003
15929	3.4122	1.8182	0.	1.338e-003
15930	3.5044	1.8182	5.e-002	9.0881
15931	3.5044	1.5455	0.	1.7685e-002
15932	3.4122	1.6364	0.	1.2258e-002
15933	3.5044	1.6364	5.e-002	9.1209
15934	3.5044	1.3636	0.	3.2443e-002
15935	3.4122	1.4545	0.	2.6067e-002
15936	3.5044	1.4545	5.e-002	9.1474
15937	3.5044	1.1818	0.	5.1288e-002
15938	3.4122	1.2727	0.	4.3295e-002
15939	3.5044	1.2727	5.e-002	9.1633
15940	3.5044	1.	0.	7.4558e-002
15941	3.4122	1.0909	0.	6.5997e-002
15942	3.5044	1.0909	5.e-002	9.1645
15943	3.5044	0.81818	0.	0.11043
15944	3.4122	0.90909	0.	9.3092e-002
15945	3.5044	0.90909	5.e-002	9.1478
15946	3.5044	0.63636	0.	0.14544
15947	3.4122	0.72727	0.	0.14338
15948	3.5044	0.72727	5.e-002	9.1117
15949	3.5044	0.45455	0.	0.31531
15950	3.4122	0.54545	0.	0.1725
15951	3.5044	0.54545	5.e-002	9.0737
15952	3.5044	0.27273	0.	0.51951
15953	3.4122	0.36364	0.	0.51938
15954	3.5044	0.36364	5.e-002	9.2744
15955	3.4122	0.18182	0.	0.87546
15956	3.5044	0.18182	5.e-002	14.205
15957	3.5044	9.0909e-002	0.	0.38013
15958	3.32	5.7273	0.	0.58947
15959	3.2278	5.8182	0.	1.047
15960	3.32	5.8182	5.e-002	15.275
15961	3.32	5.9091	0.	0.41698
15962	3.32	5.5455	0.	0.34788
15963	3.2278	5.6364	0.	0.5733
15964	3.32	5.6364	5.e-002	9.6347
15965	3.32	5.3636	0.	0.16101
15966	3.2278	5.4545	0.	0.19192
15967	3.32	5.4545	5.e-002	9.4211
15968	3.32	5.1818	0.	0.12172
15969	3.2278	5.2727	0.	0.15817
15970	3.32	5.2727	5.e-002	9.4725
15971	3.32	5.	0.	8.2118e-002
15972	3.2278	5.0909	0.	0.10262
15973	3.32	5.0909	5.e-002	9.5202
15974	3.32	4.8182	0.	5.6473e-002
15975	3.2278	4.9091	0.	7.2627e-002
15976	3.32	4.9091	5.e-002	9.5448
15977	3.32	4.6364	0.	3.5855e-002
15978	3.2278	4.7273	0.	4.7702e-002
15979	3.32	4.7273	5.e-002	9.5481
15980	3.32	4.4545	0.	1.9849e-002
15981	3.2278	4.5455	0.	2.8947e-002
15982	3.32	4.5455	5.e-002	9.5344
15983	3.32	4.2727	0.	7.1387e-003
15984	3.2278	4.3636	0.	1.4083e-002
15985	3.32	4.3636	5.e-002	9.5087
15986	3.32	4.0909	0.	-2.8391e-003
15987	3.2278	4.1818	0.	2.4893e-003
15988	3.32	4.1818	5.e-002	9.476
15989	3.32	3.9091	0.	-1.0575e-002
15990	3.2278	4.	0.	-6.4948e-003
15991	3.32	4.	5.e-002	9.4409
15992	3.32	3.7273	0.	-1.6427e-002
15993	3.2278	3.8182	0.	-1.3316e-002
15994	3.32	3.8182	5.e-002	9.4072
15995	3.32	3.5455	0.	-2.0682e-002
15996	3.2278	3.6364	0.	-1.834e-002
15997	3.32	3.6364	5.e-002	9.3776
15998	3.32	3.3636	0.	-2.3561e-002
15999	3.2278	3.4545	0.	-2.1855e-002
16000	3.32	3.4545	5.e-002	9.354
16001	3.32	3.1818	0.	-2.5226e-002
16002	3.2278	3.2727	0.	-2.4079e-002
16003	3.32	3.2727	5.e-002	9.3378
16004	3.32	3.	0.	-2.577e-002
16005	3.2278	3.0909	0.	-2.5155e-002
16006	3.32	3.0909	5.e-002	9.3295
16007	3.32	2.8182	0.	-2.5225e-002
16008	3.2278	2.9091	0.	-2.5155e-002
16009	3.32	2.9091	5.e-002	9.3295
16010	3.32	2.6364	0.	-2.3561e-002
16011	3.2278	2.7273	0.	-2.4079e-002
16012	3.32	2.7273	5.e-002	9.3378
16013	3.32	2.4545	0.	-2.0681e-002
16014	3.2278	2.5455	0.	-2.1855e-002
16015	3.32	2.5455	5.e-002	9.354
16016	3.32	2.2727	0.	-1.6427e-002
16017	3.2278	2.3636	0.	-1.834e-002
16018	3.32	2.3636	5.e-002	9.3776
16019	3.32	2.0909	0.	-1.0575e-002
16020	3.2278	2.1818	0.	-1.3315e-002
16021	3.32	2.1818	5.e-002	9.4072
16022	3.32	1.9091	0.	-2.8388e-003
16023	3.2278	2.	0.	-6.4945e-003
16024	3.32	2.	5.e-002	9.4409
16025	3.32	1.7273	0.	7.1392e-003
16026	3.2278	1.8182	0.	2.4897e-003
16027	3.32	1.8182	5.e-002	9.476
16028	3.32	1.5455	0.	1.985e-002
16029	3.2278	1.6364	0.	1.4084e-002
16030	3.32	1.6364	5.e-002	9.5087
16031	3.32	1.3636	0.	3.5856e-002
16032	3.2278	1.4545	0.	2.8947e-002
16033	3.32	1.4545	5.e-002	9.5344
16034	3.32	1.1818	0.	5.6473e-002
16035	3.2278	1.2727	0.	4.7703e-002
16036	3.32	1.2727	5.e-002	9.5481
16037	3.32	1.	0.	8.2119e-002
16038	3.2278	1.0909	0.	7.2627e-002
16039	3.32	1.0909	5.e-002	9.5448
16040	3.32	0.81818	0.	0.12172
16041	3.2278	0.90909	0.	0.10262
16042	3.32	0.90909	5.e-002	9.5202
16043	3.32	0.63636	0.	0.16101
16044	3.2278	0.72727	0.	0.15817
16045	3.32	0.72727	5.e-002	9.4726
16046	3.32	0.45455	0.	0.34788
16047	3.2278	0.54545	0.	0.19192
16048	3.32	0.54545	5.e-002	9.4211
16049	3.32	0.27273	0.	0.58947
16050	3.2278	0.36364	0.	0.5733
16051	3.32	0.36364	5.e-002	9.6347
16052	3.2278	0.18182	0.	1.047
16053	3.32	0.18182	5.e-002	15.275
16054	3.32	9.0909e-002	0.	0.41698
16055	3.1356	5.7273	0.	0.67153
16056	3.0433	5.8182	0.	1.2649
16057	3.1356	5.8182	5.e-002	16.4
16058	3.1356	5.9091	0.	0.45991
16059	3.1356	5.5455	0.	0.3843
16060	3.0433	5.6364	0.	0.6339
16061	3.1356	5.6364	5.e-002	10.022
16062	3.1356	5.3636	0.	0.17841
16063	3.0433	5.4545	0.	0.21382
16064	3.1356	5.4545	5.e-002	9.8035
16065	3.1356	5.1818	0.	0.13421
16066	3.0433	5.2727	0.	0.1746
16067	3.1356	5.2727	5.e-002	9.8732
16068	3.1356	5.	0.	9.042e-002
16069	3.0433	5.0909	0.	0.11312
16070	3.1356	5.0909	5.e-002	9.9356
16071	3.1356	4.8182	0.	6.2137e-002
16072	3.0433	4.9091	0.	7.9866e-002
16073	3.1356	4.9091	5.e-002	9.9699
16074	3.1356	4.6364	0.	3.96e-002
16075	3.0433	4.7273	0.	5.2505e-002
16076	3.1356	4.7273	5.e-002	9.9789
16077	3.1356	4.4545	0.	2.2294e-002
16078	3.0433	4.5455	0.	3.2132e-002
16079	3.1356	4.5455	5.e-002	9.9683
16080	3.1356	4.2727	0.	8.7391e-003
16081	3.0433	4.3636	0.	1.6217e-002
16082	3.1356	4.3636	5.e-002	9.9444
16083	3.1356	4.0909	0.	-1.734e-003
16084	3.0433	4.1818	0.	4.013e-003
16085	3.1356	4.1818	5.e-002	9.9131
16086	3.1356	3.9091	0.	-9.7161e-003
16087	3.0433	4.	0.	-5.2657e-003
16088	3.1356	4.	5.e-002	9.8798
16089	3.1356	3.7273	0.	-1.565e-002
16090	3.0433	3.8182	0.	-1.217e-002
16091	3.1356	3.8182	5.e-002	9.8482
16092	3.1356	3.5455	0.	-1.9894e-002
16093	3.0433	3.6364	0.	-1.7156e-002
16094	3.1356	3.6364	5.e-002	9.8211
16095	3.1356	3.3636	0.	-2.2726e-002
16096	3.0433	3.4545	0.	-2.0582e-002
16097	3.1356	3.4545	5.e-002	9.8
16098	3.1356	3.1818	0.	-2.4346e-002
16099	3.0433	3.2727	0.	-2.2717e-002
16100	3.1356	3.2727	5.e-002	9.7857
16101	3.1356	3.	0.	-2.4872e-002
16102	3.0433	3.0909	0.	-2.374e-002
16103	3.1356	3.0909	5.e-002	9.7785
16104	3.1356	2.8182	0.	-2.4346e-002
16105	3.0433	2.9091	0.	-2.374e-002
16106	3.1356	2.9091	5.e-002	9.7785
16107	3.1356	2.6364	0.	-2.2726e-002
16108	3.0433	2.7273	0.	-2.2717e-002
16109	3.1356	2.7273	5.e-002	9.7857
16110	3.1356	2.4545	0.	-1.9893e-002
16111	3.0433	2.5455	0.	-2.0582e-002
16112	3.1356	2.5455	5.e-002	9.8
16113	3.1356	2.2727	0.	-1.565e-002
16114	3.0433	2.3636	0.	-1.7156e-002
16115	3.1356	2.3636	5.e-002	9.8211
16116	3.1356	2.0909	0.	-9.7159e-003
16117	3.0433	2.1818	0.	-1.217e-002
16118	3.1356	2.1818	5.e-002	9.8482
16119	3.1356	1.9091	0.	-1.7336e-003
16120	3.0433	2.	0.	-5.2654e-003
16121	3.1356	2.	5.e-002	9.8798
16122	3.1356	1.7273	0.	8.7396e-003
16123	3.0433	1.8182	0.	4.0133e-003
16124	3.1356	1.8182	5.e-002	9.9132
16125	3.1356	1.5455	0.	2.2294e-002
16126	3.0433	1.6364	0.	1.6217e-002
16127	3.1356	1.6364	5.e-002	9.9444
16128	3.1356	1.3636	0.	3.96e-002
16129	3.0433	1.4545	0.	3.2133e-002
16130	3.1356	1.4545	5.e-002	9.9683
16131	3.1356	1.1818	0.	6.2137e-002
16132	3.0433	1.2727	0.	5.2505e-002
16133	3.1356	1.2727	5.e-002	9.9789
16134	3.1356	1.	0.	9.0421e-002
16135	3.0433	1.0909	0.	7.9867e-002
16136	3.1356	1.0909	5.e-002	9.9699
16137	3.1356	0.81818	0.	0.13421
16138	3.0433	0.90909	0.	0.11312
16139	3.1356	0.90909	5.e-002	9.9356
16140	3.1356	0.63636	0.	0.17841
16141	3.0433	0.72727	0.	0.1746
16142	3.1356	0.72727	5.e-002	9.8732
16143	3.1356	0.45455	0.	0.3843
16144	3.0433	0.54545	0.	0.21382
16145	3.1356	0.54545	5.e-002	9.8035
16146	3.1356	0.27273	0.	0.67153
16147	3.0433	0.36364	0.	0.6339
16148	3.1356	0.36364	5.e-002	10.022
16149	3.0433	0.18182	0.	1.2649
16150	3.1356	0.18182	5.e-002	16.4
16151	3.1356	9.0909e-002	0.	0.45991
16152	2.9511	5.7273	0.	0.76843
16153	2.8589	5.8182	0.	1.5463
16154	2.9511	5.8182	5.e-002	17.58
16155	2.9511	5.9091	0.	0.51098
16156	2.9511	5.5455	0.	0.42516
16157	2.8589	5.6364	0.	0.70234
16158	2.9511	5.6364	5.e-002	10.441
16159	2.9511	5.3636	0.	0.19789
16160	2.8589	5.4545	0.	0.23859
16161	2.9511	5.4545	5.e-002	10.228
16162	2.9511	5.1818	0.	0.14802
16163	2.8589	5.2727	0.	0.19286
16164	2.9511	5.2727	5.e-002	10.321
16165	2.9511	5.	0.	9.9512e-002
16166	2.8589	5.0909	0.	0.12467
16167	2.9511	5.0909	5.e-002	10.402
16168	2.9511	4.8182	0.	6.8296e-002
16169	2.8589	4.9091	0.	8.7745e-002
16170	2.9511	4.9091	5.e-002	10.448
16171	2.9511	4.6364	0.	4.3691e-002
16172	2.8589	4.7273	0.	5.7717e-002
16173	2.9511	4.7273	5.e-002	10.463
16174	2.9511	4.4545	0.	2.5056e-002
16175	2.8589	4.5455	0.	3.5657e-002
16176	2.9511	4.5455	5.e-002	10.457
16177	2.9511	4.2727	0.	1.071e-002
16178	2.8589	4.3636	0.	1.873e-002
16179	2.9511	4.3636	5.e-002	10.435
16180	2.9511	4.0909	0.	-1.5413e-004
16181	2.8589	4.1818	0.	6.0262e-003
16182	2.9511	4.1818	5.e-002	10.407
16183	2.9511	3.9091	0.	-8.2553e-003
16184	2.8589	4.	0.	-3.402e-003
16185	2.9511	4.	5.e-002	10.377
16186	2.9511	3.7273	0.	-1.4143e-002
16187	2.8589	3.8182	0.	-1.0238e-002
16188	2.9511	3.8182	5.e-002	10.35
16189	2.9511	3.5455	0.	-1.8263e-002
16190	2.8589	3.6364	0.	-1.5047e-002
16191	2.9511	3.6364	5.e-002	10.327
16192	2.9511	3.3636	0.	-2.0961e-002
16193	2.8589	3.4545	0.	-1.8272e-002
16194	2.9511	3.4545	5.e-002	10.311
16195	2.9511	3.1818	0.	-2.2482e-002
16196	2.8589	3.2727	0.	-2.0242e-002
16197	2.9511	3.2727	5.e-002	10.3
16198	2.9511	3.	0.	-2.2973e-002
16199	2.8589	3.0909	0.	-2.1173e-002
16200	2.9511	3.0909	5.e-002	10.295
16201	2.9511	2.8182	0.	-2.2482e-002
16202	2.8589	2.9091	0.	-2.1173e-002
16203	2.9511	2.9091	5.e-002	10.295
16204	2.9511	2.6364	0.	-2.0961e-002
16205	2.8589	2.7273	0.	-2.0241e-002
16206	2.9511	2.7273	5.e-002	10.3
16207	2.9511	2.4545	0.	-1.8263e-002
16208	2.8589	2.5455	0.	-1.8272e-002
16209	2.9511	2.5455	5.e-002	10.311
16210	2.9511	2.2727	0.	-1.4143e-002
16211	2.8589	2.3636	0.	-1.5047e-002
16212	2.9511	2.3636	5.e-002	10.327
16213	2.9511	2.0909	0.	-8.2551e-003
16214	2.8589	2.1818	0.	-1.0238e-002
16215	2.9511	2.1818	5.e-002	10.35
16216	2.9511	1.9091	0.	-1.5387e-004
16217	2.8589	2.	0.	-3.4017e-003
16218	2.9511	2.	5.e-002	10.377
16219	2.9511	1.7273	0.	1.0711e-002
16220	2.8589	1.8182	0.	6.0265e-003
16221	2.9511	1.8182	5.e-002	10.407
16222	2.9511	1.5455	0.	2.5057e-002
16223	2.8589	1.6364	0.	1.873e-002
16224	2.9511	1.6364	5.e-002	10.435
16225	2.9511	1.3636	0.	4.3692e-002
16226	2.8589	1.4545	0.	3.5658e-002
16227	2.9511	1.4545	5.e-002	10.457
16228	2.9511	1.1818	0.	6.8296e-002
16229	2.8589	1.2727	0.	5.7717e-002
16230	2.9511	1.2727	5.e-002	10.463
16231	2.9511	1.	0.	9.9513e-002
16232	2.8589	1.0909	0.	8.7745e-002
16233	2.9511	1.0909	5.e-002	10.448
16234	2.9511	0.81818	0.	0.14802
16235	2.8589	0.90909	0.	0.12468
16236	2.9511	0.90909	5.e-002	10.402
16237	2.9511	0.63636	0.	0.19789
16238	2.8589	0.72727	0.	0.19286
16239	2.9511	0.72727	5.e-002	10.321
16240	2.9511	0.45455	0.	0.42516
16241	2.8589	0.54545	0.	0.23859
16242	2.9511	0.54545	5.e-002	10.228
16243	2.9511	0.27273	0.	0.76843
16244	2.8589	0.36364	0.	0.70234
16245	2.9511	0.36364	5.e-002	10.441
16246	2.8589	0.18182	0.	1.5463
16247	2.9511	0.18182	5.e-002	17.58
16248	2.9511	9.0909e-002	0.	0.51099
16249	2.7667	5.7273	0.	0.88375
16250	2.6744	5.8182	0.	1.9171
16251	2.7667	5.8182	5.e-002	18.807
16252	2.7667	5.9091	0.	0.57354
16253	2.7667	5.5455	0.	0.47117
16254	2.6744	5.6364	0.	0.77999
16255	2.7667	5.6364	5.e-002	10.897
16256	2.7667	5.3636	0.	0.21974
16257	2.6744	5.4545	0.	0.26667
16258	2.7667	5.4545	5.e-002	10.703
16259	2.7667	5.1818	0.	0.16329
16260	2.6744	5.2727	0.	0.21317
16261	2.7667	5.2727	5.e-002	10.827
16262	2.7667	5.	0.	0.10945
16263	2.6744	5.0909	0.	0.13734
16264	2.7667	5.0909	5.e-002	10.929
16265	2.7667	4.8182	0.	7.4972e-002
16266	2.6744	4.9091	0.	9.6262e-002
16267	2.7667	4.9091	5.e-002	10.988
16268	2.7667	4.6364	0.	4.8161e-002
16269	2.6744	4.7273	0.	6.3334e-002
16270	2.7667	4.7273	5.e-002	11.011
16271	2.7667	4.4545	0.	2.8203e-002
16272	2.6744	4.5455	0.	3.9551e-002
16273	2.7667	4.5455	5.e-002	11.008
16274	2.7667	4.2727	0.	1.3167e-002
16275	2.6744	4.3636	0.	2.1705e-002
16276	2.7667	4.3636	5.e-002	10.99
16277	2.7667	4.0909	0.	2.0663e-003
16278	2.6744	4.1818	0.	8.6697e-003
16279	2.7667	4.1818	5.e-002	10.966
16280	2.7667	3.9091	0.	-5.9817e-003
16281	2.6744	4.	0.	-7.113e-004
16282	2.7667	4.	5.e-002	10.942
16283	2.7667	3.7273	0.	-1.1659e-002
16284	2.6744	3.8182	0.	-7.2866e-003
16285	2.7667	3.8182	5.e-002	10.922
16286	2.7667	3.5455	0.	-1.5518e-002
16287	2.6744	3.6364	0.	-1.1753e-002
16288	2.7667	3.6364	5.e-002	10.907
16289	2.7667	3.3636	0.	-1.7977e-002
16290	2.6744	3.4545	0.	-1.4647e-002
16291	2.7667	3.4545	5.e-002	10.897
16292	2.7667	3.1818	0.	-1.9336e-002
16293	2.6744	3.2727	0.	-1.6364e-002
16294	2.7667	3.2727	5.e-002	10.892
16295	2.7667	3.	0.	-1.977e-002
16296	2.6744	3.0909	0.	-1.7159e-002
16297	2.7667	3.0909	5.e-002	10.89
16298	2.7667	2.8182	0.	-1.9336e-002
16299	2.6744	2.9091	0.	-1.7159e-002
16300	2.7667	2.9091	5.e-002	10.89
16301	2.7667	2.6364	0.	-1.7977e-002
16302	2.6744	2.7273	0.	-1.6363e-002
16303	2.7667	2.7273	5.e-002	10.892
16304	2.7667	2.4545	0.	-1.5517e-002
16305	2.6744	2.5455	0.	-1.4647e-002
16306	2.7667	2.5455	5.e-002	10.897
16307	2.7667	2.2727	0.	-1.1659e-002
16308	2.6744	2.3636	0.	-1.1753e-002
16309	2.7667	2.3636	5.e-002	10.907
16310	2.7667	2.0909	0.	-5.9815e-003
16311	2.6744	2.1818	0.	-7.2863e-003
16312	2.7667	2.1818	5.e-002	10.922
16313	2.7667	1.9091	0.	2.0666e-003
16314	2.6744	2.	0.	-7.1095e-004
16315	2.7667	2.	5.e-002	10.942
16316	2.7667	1.7273	0.	1.3168e-002
16317	2.6744	1.8182	0.	8.6699e-003
16318	2.7667	1.8182	5.e-002	10.966
16319	2.7667	1.5455	0.	2.8204e-002
16320	2.6744	1.6364	0.	2.1705e-002
16321	2.7667	1.6364	5.e-002	10.99
16322	2.7667	1.3636	0.	4.8161e-002
16323	2.6744	1.4545	0.	3.9552e-002
16324	2.7667	1.4545	5.e-002	11.008
16325	2.7667	1.1818	0.	7.4972e-002
16326	2.6744	1.2727	0.	6.3334e-002
16327	2.7667	1.2727	5.e-002	11.011
16328	2.7667	1.	0.	0.10945
16329	2.6744	1.0909	0.	9.6262e-002
16330	2.7667	1.0909	5.e-002	10.988
16331	2.7667	0.81818	0.	0.16329
16332	2.6744	0.90909	0.	0.13734
16333	2.7667	0.90909	5.e-002	10.929
16334	2.7667	0.63636	0.	0.21974
16335	2.6744	0.72727	0.	0.21317
16336	2.7667	0.72727	5.e-002	10.827
16337	2.7667	0.45455	0.	0.47117
16338	2.6744	0.54545	0.	0.26667
16339	2.7667	0.54545	5.e-002	10.703
16340	2.7667	0.27273	0.	0.88375
16341	2.6744	0.36364	0.	0.78
16342	2.7667	0.36364	5.e-002	10.897
16343	2.6744	0.18182	0.	1.9171
16344	2.7667	0.18182	5.e-002	18.807
16345	2.7667	9.0909e-002	0.	0.57354
16346	2.5822	5.7273	0.	1.0221
16347	2.49	5.8182	0.	2.4177
16348	2.5822	5.8182	5.e-002	20.077
16349	2.5822	5.9091	0.	0.6533
16350	2.5822	5.5455	0.	0.52316
16351	2.49	5.6364	0.	0.86865
16352	2.5822	5.6364	5.e-002	11.398
16353	2.5822	5.3636	0.	0.24425
16354	2.49	5.4545	0.	0.29865
16355	2.5822	5.4545	5.e-002	11.244
16356	2.5822	5.1818	0.	0.18012
16357	2.49	5.2727	0.	0.23581
16358	2.5822	5.2727	5.e-002	11.405
16359	2.5822	5.	0.	0.12022
16360	2.49	5.0909	0.	0.15123
16361	2.5822	5.0909	5.e-002	11.532
16362	2.5822	4.8182	0.	8.2128e-002
16363	2.49	4.9091	0.	0.10548
16364	2.5822	4.9091	5.e-002	11.604
16365	2.5822	4.6364	0.	5.2994e-002
16366	2.49	4.7273	0.	6.9427e-002
16367	2.5822	4.7273	5.e-002	11.632
16368	2.5822	4.4545	0.	3.1775e-002
16369	2.49	4.5455	0.	4.3945e-002
16370	2.5822	4.5455	5.e-002	11.632
16371	2.5822	4.2727	0.	1.6216e-002
16372	2.49	4.3636	0.	2.5348e-002
16373	2.5822	4.3636	5.e-002	11.618
16374	2.5822	4.0909	0.	5.0937e-003
16375	2.49	4.1818	0.	1.2221e-002
16376	2.5822	4.1818	5.e-002	11.6
16377	2.5822	3.9091	0.	-2.6809e-003
16378	2.49	4.	0.	3.1406e-003
16379	2.5822	4.	5.e-002	11.584
16380	2.5822	3.7273	0.	-7.9512e-003
16381	2.49	3.8182	0.	-2.945e-003
16382	2.5822	3.8182	5.e-002	11.575
16383	2.5822	3.5455	0.	-1.1388e-002
16384	2.49	3.6364	0.	-6.8817e-003
16385	2.5822	3.6364	5.e-002	11.571
16386	2.5822	3.3636	0.	-1.3496e-002
16387	2.49	3.4545	0.	-9.3074e-003
16388	2.5822	3.4545	5.e-002	11.572
16389	2.5822	3.1818	0.	-1.4625e-002
16390	2.49	3.2727	0.	-1.0682e-002
16391	2.5822	3.2727	5.e-002	11.574
16392	2.5822	3.	0.	-1.4978e-002
16393	2.49	3.0909	0.	-1.1298e-002
16394	2.5822	3.0909	5.e-002	11.576
16395	2.5822	2.8182	0.	-1.4625e-002
16396	2.49	2.9091	0.	-1.1298e-002
16397	2.5822	2.9091	5.e-002	11.576
16398	2.5822	2.6364	0.	-1.3496e-002
16399	2.49	2.7273	0.	-1.0682e-002
16400	2.5822	2.7273	5.e-002	11.574
16401	2.5822	2.4545	0.	-1.1388e-002
16402	2.49	2.5455	0.	-9.3073e-003
16403	2.5822	2.5455	5.e-002	11.572
16404	2.5822	2.2727	0.	-7.951e-003
16405	2.49	2.3636	0.	-6.8816e-003
16406	2.5822	2.3636	5.e-002	11.571
16407	2.5822	2.0909	0.	-2.6806e-003
16408	2.49	2.1818	0.	-2.9449e-003
16409	2.5822	2.1818	5.e-002	11.575
16410	2.5822	1.9091	0.	5.094e-003
16411	2.49	2.	0.	3.1409e-003
16412	2.5822	2.	5.e-002	11.584
16413	2.5822	1.7273	0.	1.6217e-002
16414	2.49	1.8182	0.	1.2222e-002
16415	2.5822	1.8182	5.e-002	11.6
16416	2.5822	1.5455	0.	3.1775e-002
16417	2.49	1.6364	0.	2.5349e-002
16418	2.5822	1.6364	5.e-002	11.618
16419	2.5822	1.3636	0.	5.2995e-002
16420	2.49	1.4545	0.	4.3945e-002
16421	2.5822	1.4545	5.e-002	11.632
16422	2.5822	1.1818	0.	8.2128e-002
16423	2.49	1.2727	0.	6.9427e-002
16424	2.5822	1.2727	5.e-002	11.632
16425	2.5822	1.	0.	0.12022
16426	2.49	1.0909	0.	0.10548
16427	2.5822	1.0909	5.e-002	11.604
16428	2.5822	0.81818	0.	0.18013
16429	2.49	0.90909	0.	0.15123
16430	2.5822	0.90909	5.e-002	11.532
16431	2.5822	0.63636	0.	0.24425
16432	2.49	0.72727	0.	0.23581
16433	2.5822	0.72727	5.e-002	11.405
16434	2.5822	0.45455	0.	0.52316
16435	2.49	0.54545	0.	0.29865
16436	2.5822	0.54545	5.e-002	11.244
16437	2.5822	0.27273	0.	1.0221
16438	2.49	0.36364	0.	0.86866
16439	2.5822	0.36364	5.e-002	11.398
16440	2.49	0.18182	0.	2.4177
16441	2.5822	0.18182	5.e-002	20.077
16442	2.5822	9.0909e-002	0.	0.6533
16443	2.3978	5.7273	0.	1.1897
16444	2.3056	5.8182	0.	3.1138
16445	2.3978	5.8182	5.e-002	21.377
16446	2.3978	5.9091	0.	0.76129
16447	2.3978	5.5455	0.	0.58227
16448	2.3056	5.6364	0.	0.97043
16449	2.3978	5.6364	5.e-002	11.961
16450	2.3978	5.3636	0.	0.27194
16451	2.3056	5.4545	0.	0.33508
16452	2.3978	5.4545	5.e-002	11.871
16453	2.3978	5.1818	0.	0.1988
16454	2.3056	5.2727	0.	0.26093
16455	2.3978	5.2727	5.e-002	12.077
16456	2.3978	5.	0.	0.13199
16457	2.3056	5.0909	0.	0.16627
16458	2.3978	5.0909	5.e-002	12.229
16459	2.3978	4.8182	0.	8.992e-002
16460	2.3056	4.9091	0.	0.11524
16461	2.3978	4.9091	5.e-002	12.311
16462	2.3978	4.6364	0.	5.8402e-002
16463	2.3056	4.7273	0.	7.5881e-002
16464	2.3978	4.7273	5.e-002	12.342
16465	2.3978	4.4545	0.	3.6064e-002
16466	2.3056	4.5455	0.	4.8808e-002
16467	2.3978	4.5455	5.e-002	12.342
16468	2.3978	4.2727	0.	2.0233e-002
16469	2.3056	4.3636	0.	2.9725e-002
16470	2.3978	4.3636	5.e-002	12.331
16471	2.3978	4.0909	0.	9.3733e-003
16472	2.3056	4.1818	0.	1.6823e-002
16473	2.3978	4.1818	5.e-002	12.321
16474	2.3978	3.9091	0.	2.1383e-003
16475	2.3056	4.	0.	8.3416e-003
16476	2.3978	4.	5.e-002	12.318
16477	2.3978	3.7273	0.	-2.5032e-003
16478	2.3056	3.8182	0.	2.994e-003
16479	2.3978	3.8182	5.e-002	12.323
16480	2.3978	3.5455	0.	-5.3518e-003
16481	2.3056	3.6364	0.	-2.2714e-004
16482	2.3978	3.6364	5.e-002	12.334
16483	2.3978	3.3636	0.	-6.9937e-003
16484	2.3056	3.4545	0.	-2.058e-003
16485	2.3978	3.4545	5.e-002	12.348
16486	2.3978	3.1818	0.	-7.8266e-003
16487	2.3056	3.2727	0.	-3.0136e-003
16488	2.3978	3.2727	5.e-002	12.36
16489	2.3978	3.	0.	-8.0793e-003
16490	2.3056	3.0909	0.	-3.4144e-003
16491	2.3978	3.0909	5.e-002	12.367
16492	2.3978	2.8182	0.	-7.8265e-003
16493	2.3056	2.9091	0.	-3.4144e-003
16494	2.3978	2.9091	5.e-002	12.367
16495	2.3978	2.6364	0.	-6.9936e-003
16496	2.3056	2.7273	0.	-3.0135e-003
16497	2.3978	2.7273	5.e-002	12.36
16498	2.3978	2.4545	0.	-5.3518e-003
16499	2.3056	2.5455	0.	-2.0579e-003
16500	2.3978	2.5455	5.e-002	12.348
16501	2.3978	2.2727	0.	-2.5032e-003
16502	2.3056	2.3636	0.	-2.2703e-004
16503	2.3978	2.3636	5.e-002	12.334
16504	2.3978	2.0909	0.	2.1384e-003
16505	2.3056	2.1818	0.	2.9941e-003
16506	2.3978	2.1818	5.e-002	12.323
16507	2.3978	1.9091	0.	9.3735e-003
16508	2.3056	2.	0.	8.3418e-003
16509	2.3978	2.	5.e-002	12.318
16510	2.3978	1.7273	0.	2.0234e-002
16511	2.3056	1.8182	0.	1.6823e-002
16512	2.3978	1.8182	5.e-002	12.321
16513	2.3978	1.5455	0.	3.6064e-002
16514	2.3056	1.6364	0.	2.9726e-002
16515	2.3978	1.6364	5.e-002	12.331
16516	2.3978	1.3636	0.	5.8402e-002
16517	2.3056	1.4545	0.	4.8808e-002
16518	2.3978	1.4545	5.e-002	12.342
16519	2.3978	1.1818	0.	8.992e-002
16520	2.3056	1.2727	0.	7.5881e-002
16521	2.3978	1.2727	5.e-002	12.342
16522	2.3978	1.	0.	0.13199
16523	2.3056	1.0909	0.	0.11524
16524	2.3978	1.0909	5.e-002	12.311
16525	2.3978	0.81818	0.	0.1988
16526	2.3056	0.90909	0.	0.16627
16527	2.3978	0.90909	5.e-002	12.229
16528	2.3978	0.63636	0.	0.27194
16529	2.3056	0.72727	0.	0.26093
16530	2.3978	0.72727	5.e-002	12.077
16531	2.3978	0.45455	0.	0.58227
16532	2.3056	0.54545	0.	0.33508
16533	2.3978	0.54545	5.e-002	11.871
16534	2.3978	0.27273	0.	1.1897
16535	2.3056	0.36364	0.	0.97043
16536	2.3978	0.36364	5.e-002	11.961
16537	2.3056	0.18182	0.	3.1138
16538	2.3978	0.18182	5.e-002	21.377
16539	2.3978	9.0909e-002	0.	0.76129
16540	2.2133	5.7273	0.	1.3946
16541	2.1211	5.8182	0.	4.1172
16542	2.2133	5.8182	5.e-002	22.693
16543	2.2133	5.9091	0.	0.92126
16544	2.2133	5.5455	0.	0.64949
16545	2.1211	5.6364	0.	1.0885
16546	2.2133	5.6364	5.e-002	12.609
16547	2.2133	5.3636	0.	0.30288
16548	2.1211	5.4545	0.	0.37737
16549	2.2133	5.4545	5.e-002	12.615
16550	2.2133	5.1818	0.	0.21904
16551	2.1211	5.2727	0.	0.28952
16552	2.2133	5.2727	5.e-002	12.871
16553	2.2133	5.	0.	0.14433
16554	2.1211	5.0909	0.	0.18325
16555	2.2133	5.0909	5.e-002	13.045
16556	2.2133	4.8182	0.	9.7912e-002
16557	2.1211	4.9091	0.	0.12634
16558	2.2133	4.9091	5.e-002	13.13
16559	2.2133	4.6364	0.	6.4019e-002
16560	2.1211	4.7273	0.	8.3604e-002
16561	2.2133	4.7273	5.e-002	13.156
16562	2.2133	4.4545	0.	4.0809e-002
16563	2.1211	4.5455	0.	5.5199e-002
16564	2.2133	4.5455	5.e-002	13.154
16565	2.2133	4.2727	0.	2.5046e-002
16566	2.1211	4.3636	0.	3.6025e-002
16567	2.2133	4.3636	5.e-002	13.144
16568	2.2133	4.0909	0.	1.4789e-002
16569	2.1211	4.1818	0.	2.3745e-002
16570	2.2133	4.1818	5.e-002	13.143
16571	2.2133	3.9091	0.	8.3808e-003
16572	2.1211	4.	0.	1.6196e-002
16573	2.2133	4.	5.e-002	13.155
16574	2.2133	3.7273	0.	4.5843e-003
16575	2.1211	3.8182	0.	1.1827e-002
16576	2.2133	3.8182	5.e-002	13.179
16577	2.2133	3.5455	0.	2.4715e-003
16578	2.1211	3.6364	0.	9.4768e-003
16579	2.2133	3.6364	5.e-002	13.21
16580	2.2133	3.3636	0.	1.3863e-003
16581	2.1211	3.4545	0.	8.3301e-003
16582	2.2133	3.4545	5.e-002	13.24
16583	2.2133	3.1818	0.	8.9651e-004
16584	2.1211	3.2727	0.	7.8384e-003
16585	2.2133	3.2727	5.e-002	13.264
16586	2.2133	3.	0.	7.5938e-004
16587	2.1211	3.0909	0.	7.6705e-003
16588	2.2133	3.0909	5.e-002	13.277
16589	2.2133	2.8182	0.	8.9652e-004
16590	2.1211	2.9091	0.	7.6706e-003
16591	2.2133	2.9091	5.e-002	13.277
16592	2.2133	2.6364	0.	1.3863e-003
16593	2.1211	2.7273	0.	7.8385e-003
16594	2.2133	2.7273	5.e-002	13.264
16595	2.2133	2.4545	0.	2.4716e-003
16596	2.1211	2.5455	0.	8.3302e-003
16597	2.2133	2.5455	5.e-002	13.24
16598	2.2133	2.2727	0.	4.5844e-003
16599	2.1211	2.3636	0.	9.4769e-003
16600	2.2133	2.3636	5.e-002	13.21
16601	2.2133	2.0909	0.	8.381e-003
16602	2.1211	2.1818	0.	1.1827e-002
16603	2.2133	2.1818	5.e-002	13.179
16604	2.2133	1.9091	0.	1.4789e-002
16605	2.1211	2.	0.	1.6196e-002
16606	2.2133	2.	5.e-002	13.155
16607	2.2133	1.7273	0.	2.5047e-002
16608	2.1211	1.8182	0.	2.3746e-002
16609	2.2133	1.8182	5.e-002	13.143
16610	2.2133	1.5455	0.	4.0809e-002
16611	2.1211	1.6364	0.	3.6025e-002
16612	2.2133	1.6364	5.e-002	13.145
16613	2.2133	1.3636	0.	6.4019e-002
16614	2.1211	1.4545	0.	5.52e-002
16615	2.2133	1.4545	5.e-002	13.154
16616	2.2133	1.1818	0.	9.7912e-002
16617	2.1211	1.2727	0.	8.3604e-002
16618	2.2133	1.2727	5.e-002	13.156
16619	2.2133	1.	0.	0.14433
16620	2.1211	1.0909	0.	0.12634
16621	2.2133	1.0909	5.e-002	13.13
16622	2.2133	0.81818	0.	0.21904
16623	2.1211	0.90909	0.	0.18325
16624	2.2133	0.90909	5.e-002	13.045
16625	2.2133	0.63636	0.	0.30288
16626	2.1211	0.72727	0.	0.28952
16627	2.2133	0.72727	5.e-002	12.872
16628	2.2133	0.45455	0.	0.64949
16629	2.1211	0.54545	0.	0.37737
16630	2.2133	0.54545	5.e-002	12.615
16631	2.2133	0.27273	0.	1.3946
16632	2.1211	0.36364	0.	1.0885
16633	2.2133	0.36364	5.e-002	12.609
16634	2.1211	0.18182	0.	4.1172
16635	2.2133	0.18182	5.e-002	22.693
16636	2.2133	9.0909e-002	0.	0.92126
16637	2.0289	5.7273	0.	1.6486
16638	1.9367	5.8182	0.	5.6254
16639	2.0289	5.8182	5.e-002	24.001
16640	2.0289	5.9091	0.	1.1967
16641	2.0289	5.5455	0.	0.72774
16642	1.9367	5.6364	0.	1.225
16643	2.0289	5.6364	5.e-002	13.384
16644	2.0289	5.3636	0.	0.33925
16645	1.9367	5.4545	0.	0.42444
16646	2.0289	5.4545	5.e-002	13.523
16647	2.0289	5.1818	0.	0.24284
16648	1.9367	5.2727	0.	0.31955
16649	2.0289	5.2727	5.e-002	13.831
16650	2.0289	5.	0.	0.15923
16651	1.9367	5.0909	0.	0.19964
16652	2.0289	5.0909	5.e-002	14.015
16653	2.0289	4.8182	0.	0.10822
16654	1.9367	4.9091	0.	0.13616
16655	2.0289	4.9091	5.e-002	14.089
16656	2.0289	4.6364	0.	7.2165e-002
16657	1.9367	4.7273	0.	9.0031e-002
16658	2.0289	4.7273	5.e-002	14.098
16659	2.0289	4.4545	0.	4.8514e-002
16660	1.9367	4.5455	0.	6.0659e-002
16661	2.0289	4.5455	5.e-002	14.084
16662	2.0289	4.2727	0.	3.3288e-002
16663	1.9367	4.3636	0.	4.1847e-002
16664	2.0289	4.3636	5.e-002	14.074
16665	2.0289	4.0909	0.	2.4034e-002
16666	1.9367	4.1818	0.	3.0582e-002
16667	2.0289	4.1818	5.e-002	14.084
16668	2.0289	3.9091	0.	1.8745e-002
16669	1.9367	4.	0.	2.4228e-002
16670	2.0289	4.	5.e-002	14.115
16671	2.0289	3.7273	0.	1.5977e-002
16672	1.9367	3.8182	0.	2.0976e-002
16673	2.0289	3.8182	5.e-002	14.162
16674	2.0289	3.5455	0.	1.47e-002
16675	1.9367	3.6364	0.	1.9542e-002
16676	2.0289	3.6364	5.e-002	14.215
16677	2.0289	3.3636	0.	1.4216e-002
16678	1.9367	3.4545	0.	1.9072e-002
16679	2.0289	3.4545	5.e-002	14.264
16680	2.0289	3.1818	0.	1.4085e-002
16681	1.9367	3.2727	0.	1.9017e-002
16682	2.0289	3.2727	5.e-002	14.301
16683	2.0289	3.	0.	1.4067e-002
16684	1.9367	3.0909	0.	1.9063e-002
16685	2.0289	3.0909	5.e-002	14.322
16686	2.0289	2.8182	0.	1.4086e-002
16687	1.9367	2.9091	0.	1.9063e-002
16688	2.0289	2.9091	5.e-002	14.322
16689	2.0289	2.6364	0.	1.4216e-002
16690	1.9367	2.7273	0.	1.9017e-002
16691	2.0289	2.7273	5.e-002	14.301
16692	2.0289	2.4545	0.	1.47e-002
16693	1.9367	2.5455	0.	1.9072e-002
16694	2.0289	2.5455	5.e-002	14.264
16695	2.0289	2.2727	0.	1.5977e-002
16696	1.9367	2.3636	0.	1.9542e-002
16697	2.0289	2.3636	5.e-002	14.215
16698	2.0289	2.0909	0.	1.8745e-002
16699	1.9367	2.1818	0.	2.0976e-002
16700	2.0289	2.1818	5.e-002	14.162
16701	2.0289	1.9091	0.	2.4035e-002
16702	1.9367	2.	0.	2.4228e-002
16703	2.0289	2.	5.e-002	14.115
16704	2.0289	1.7273	0.	3.3289e-002
16705	1.9367	1.8182	0.	3.0582e-002
16706	2.0289	1.8182	5.e-002	14.084
16707	2.0289	1.5455	0.	4.8514e-002
16708	1.9367	1.6364	0.	4.1848e-002
16709	2.0289	1.6364	5.e-002	14.074
16710	2.0289	1.3636	0.	7.2165e-002
16711	1.9367	1.4545	0.	6.066e-002
16712	2.0289	1.4545	5.e-002	14.084
16713	2.0289	1.1818	0.	0.10822
16714	1.9367	1.2727	0.	9.0031e-002
16715	2.0289	1.2727	5.e-002	14.098
16716	2.0289	1.	0.	0.15923
16717	1.9367	1.0909	0.	0.13616
16718	2.0289	1.0909	5.e-002	14.089
16719	2.0289	0.81818	0.	0.24284
16720	1.9367	0.90909	0.	0.19964
16721	2.0289	0.90909	5.e-002	14.015
16722	2.0289	0.63636	0.	0.33925
16723	1.9367	0.72727	0.	0.31955
16724	2.0289	0.72727	5.e-002	13.831
16725	2.0289	0.45455	0.	0.72774
16726	1.9367	0.54545	0.	0.42444
16727	2.0289	0.54545	5.e-002	13.523
16728	2.0289	0.27273	0.	1.6486
16729	1.9367	0.36364	0.	1.225
16730	2.0289	0.36364	5.e-002	13.384
16731	1.9367	0.18182	0.	5.6254
16732	2.0289	0.18182	5.e-002	24.001
16733	2.0289	9.0909e-002	0.	1.1967
16734	1.8444	5.7273	0.	1.9636
16735	1.7522	5.8182	0.	8.0033
16736	1.8444	5.8182	5.e-002	25.272
16737	1.8444	5.9091	0.	1.811
16738	1.8444	5.5455	0.	0.81402
16739	1.7522	5.6364	0.	1.3911
16740	1.8444	5.6364	5.e-002	14.351
16741	1.8444	5.3636	0.	0.37554
16742	1.7522	5.4545	0.	0.48666
16743	1.8444	5.4545	5.e-002	14.666
16744	1.8444	5.1818	0.	0.26357
16745	1.7522	5.2727	0.	0.36177
16746	1.8444	5.2727	5.e-002	15.014
16747	1.8444	5.	0.	0.1695
16748	1.7522	5.0909	0.	0.22668
16749	1.8444	5.0909	5.e-002	15.185
16750	1.8444	4.8182	0.	0.11351
16751	1.7522	4.9091	0.	0.15656
16752	1.8444	4.9091	5.e-002	15.221
16753	1.8444	4.6364	0.	7.5485e-002
16754	1.7522	4.7273	0.	0.10764
16755	1.8444	4.7273	5.e-002	15.192
16756	1.8444	4.4545	0.	5.1812e-002
16757	1.7522	4.5455	0.	7.8134e-002
16758	1.8444	4.5455	5.e-002	15.155
16759	1.8444	4.2727	0.	3.752e-002
16760	1.7522	4.3636	0.	6.0414e-002
16761	1.8444	4.3636	5.e-002	15.142
16762	1.8444	4.0909	0.	2.9536e-002
16763	1.7522	4.1818	0.	5.0654e-002
16764	1.8444	4.1818	5.e-002	15.165
16765	1.8444	3.9091	0.	2.5483e-002
16766	1.7522	4.	0.	4.5742e-002
16767	1.8444	4.	5.e-002	15.218
16768	1.8444	3.7273	0.	2.3748e-002
16769	1.7522	3.8182	0.	4.3668e-002
16770	1.8444	3.8182	5.e-002	15.29
16771	1.8444	3.5455	0.	2.3245e-002
16772	1.7522	3.6364	0.	4.3098e-002
16773	1.8444	3.6364	5.e-002	15.367
16774	1.8444	3.3636	0.	2.3284e-002
16775	1.7522	3.4545	0.	4.3208e-002
16776	1.8444	3.4545	5.e-002	15.435
16777	1.8444	3.1818	0.	2.3451e-002
16778	1.7522	3.2727	0.	4.3501e-002
16779	1.8444	3.2727	5.e-002	15.486
16780	1.8444	3.	0.	2.3529e-002
16781	1.7522	3.0909	0.	4.3707e-002
16782	1.8444	3.0909	5.e-002	15.514
16783	1.8444	2.8182	0.	2.3451e-002
16784	1.7522	2.9091	0.	4.3707e-002
16785	1.8444	2.9091	5.e-002	15.514
16786	1.8444	2.6364	0.	2.3284e-002
16787	1.7522	2.7273	0.	4.3501e-002
16788	1.8444	2.7273	5.e-002	15.486
16789	1.8444	2.4545	0.	2.3245e-002
16790	1.7522	2.5455	0.	4.3208e-002
16791	1.8444	2.5455	5.e-002	15.435
16792	1.8444	2.2727	0.	2.3748e-002
16793	1.7522	2.3636	0.	4.3098e-002
16794	1.8444	2.3636	5.e-002	15.367
16795	1.8444	2.0909	0.	2.5483e-002
16796	1.7522	2.1818	0.	4.3668e-002
16797	1.8444	2.1818	5.e-002	15.29
16798	1.8444	1.9091	0.	2.9536e-002
16799	1.7522	2.	0.	4.5742e-002
16800	1.8444	2.	5.e-002	15.218
16801	1.8444	1.7273	0.	3.7521e-002
16802	1.7522	1.8182	0.	5.0654e-002
16803	1.8444	1.8182	5.e-002	15.165
16804	1.8444	1.5455	0.	5.1812e-002
16805	1.7522	1.6364	0.	6.0414e-002
16806	1.8444	1.6364	5.e-002	15.142
16807	1.8444	1.3636	0.	7.5485e-002
16808	1.7522	1.4545	0.	7.8134e-002
16809	1.8444	1.4545	5.e-002	15.155
16810	1.8444	1.1818	0.	0.11351
16811	1.7522	1.2727	0.	0.10764
16812	1.8444	1.2727	5.e-002	15.192
16813	1.8444	1.	0.	0.1695
16814	1.7522	1.0909	0.	0.15656
16815	1.8444	1.0909	5.e-002	15.221
16816	1.8444	0.81818	0.	0.26357
16817	1.7522	0.90909	0.	0.22668
16818	1.8444	0.90909	5.e-002	15.185
16819	1.8444	0.63636	0.	0.37554
16820	1.7522	0.72727	0.	0.36177
16821	1.8444	0.72727	5.e-002	15.014
16822	1.8444	0.45455	0.	0.81402
16823	1.7522	0.54545	0.	0.48666
16824	1.8444	0.54545	5.e-002	14.666
16825	1.8444	0.27273	0.	1.9636
16826	1.7522	0.36364	0.	1.3911
16827	1.8444	0.36364	5.e-002	14.351
16828	1.7522	0.18182	0.	8.0033
16829	1.8444	0.18182	5.e-002	25.272
16830	1.8444	9.0909e-002	0.	1.811
16831	1.66	5.7273	0.	2.3731
16832	1.5678	5.8182	0.	11.89
16833	1.66	5.8182	5.e-002	26.463
16834	1.66	5.9091	0.	3.8884
16835	1.66	5.5455	0.	0.93168
16836	1.5678	5.6364	0.	1.5672
16837	1.66	5.6364	5.e-002	15.621
16838	1.66	5.3636	0.	0.43814
16839	1.5678	5.4545	0.	0.5314
16840	1.66	5.4545	5.e-002	16.148
16841	1.66	5.1818	0.	0.30971
16842	1.5678	5.2727	0.	0.3778
16843	1.66	5.2727	5.e-002	16.505
16844	1.66	5.	0.	0.20534
16845	1.5678	5.0909	0.	0.22278
16846	1.66	5.0909	5.e-002	16.614
16847	1.66	4.8182	0.	0.14542
16848	1.5678	4.9091	0.	0.14417
16849	1.66	4.9091	5.e-002	16.567
16850	1.66	4.6364	0.	0.10674
16851	1.5678	4.7273	0.	9.1878e-002
16852	1.66	4.7273	5.e-002	16.47
16853	1.66	4.4545	0.	8.4237e-002
16854	1.5678	4.5455	0.	6.2067e-002
16855	1.66	4.5455	5.e-002	16.396
16856	1.66	4.2727	0.	7.1729e-002
16857	1.5678	4.3636	0.	4.5201e-002
16858	1.66	4.3636	5.e-002	16.375
16859	1.66	4.0909	0.	6.55e-002
16860	1.5678	4.1818	0.	3.6515e-002
16861	1.66	4.1818	5.e-002	16.411
16862	1.66	3.9091	0.	6.2879e-002
16863	1.5678	4.	0.	3.246e-002
16864	1.66	4.	5.e-002	16.487
16865	1.66	3.7273	0.	6.2184e-002
16866	1.5678	3.8182	0.	3.0922e-002
16867	1.66	3.8182	5.e-002	16.584
16868	1.66	3.5455	0.	6.237e-002
16869	1.5678	3.6364	0.	3.0611e-002
16870	1.66	3.6364	5.e-002	16.683
16871	1.66	3.3636	0.	6.2824e-002
16872	1.5678	3.4545	0.	3.08e-002
16873	1.66	3.4545	5.e-002	16.769
16874	1.66	3.1818	0.	6.3207e-002
16875	1.5678	3.2727	0.	3.1088e-002
16876	1.66	3.2727	5.e-002	16.831
16877	1.66	3.	0.	6.3351e-002
16878	1.5678	3.0909	0.	3.1273e-002
16879	1.66	3.0909	5.e-002	16.863
16880	1.66	2.8182	0.	6.3207e-002
16881	1.5678	2.9091	0.	3.1273e-002
16882	1.66	2.9091	5.e-002	16.863
16883	1.66	2.6364	0.	6.2824e-002
16884	1.5678	2.7273	0.	3.1088e-002
16885	1.66	2.7273	5.e-002	16.831
16886	1.66	2.4545	0.	6.237e-002
16887	1.5678	2.5455	0.	3.08e-002
16888	1.66	2.5455	5.e-002	16.769
16889	1.66	2.2727	0.	6.2184e-002
16890	1.5678	2.3636	0.	3.0612e-002
16891	1.66	2.3636	5.e-002	16.683
16892	1.66	2.0909	0.	6.2879e-002
16893	1.5678	2.1818	0.	3.0922e-002
16894	1.66	2.1818	5.e-002	16.584
16895	1.66	1.9091	0.	6.55e-002
16896	1.5678	2.	0.	3.246e-002
16897	1.66	2.	5.e-002	16.487
16898	1.66	1.7273	0.	7.1729e-002
16899	1.5678	1.8182	0.	3.6515e-002
16900	1.66	1.8182	5.e-002	16.411
16901	1.66	1.5455	0.	8.4237e-002
16902	1.5678	1.6364	0.	4.5201e-002
16903	1.66	1.6364	5.e-002	16.375
16904	1.66	1.3636	0.	0.10674
16905	1.5678	1.4545	0.	6.2067e-002
16906	1.66	1.4545	5.e-002	16.396
16907	1.66	1.1818	0.	0.14542
16908	1.5678	1.2727	0.	9.1878e-002
16909	1.66	1.2727	5.e-002	16.47
16910	1.66	1.	0.	0.20534
16911	1.5678	1.0909	0.	0.14417
16912	1.66	1.0909	5.e-002	16.567
16913	1.66	0.81818	0.	0.30971
16914	1.5678	0.90909	0.	0.22278
16915	1.66	0.90909	5.e-002	16.614
16916	1.66	0.63636	0.	0.43814
16917	1.5678	0.72727	0.	0.3778
16918	1.66	0.72727	5.e-002	16.505
16919	1.66	0.45455	0.	0.93168
16920	1.5678	0.54545	0.	0.5314
16921	1.66	0.54545	5.e-002	16.148
16922	1.66	0.27273	0.	2.3731
16923	1.5678	0.36364	0.	1.5672
16924	1.66	0.36364	5.e-002	15.621
16925	1.5678	0.18182	0.	11.89
16926	1.66	0.18182	5.e-002	26.463
16927	1.66	9.0909e-002	0.	3.8884
16928	1.4756	5.7273	0.	2.8534
16929	1.3833	5.8182	0.	18.343
16930	1.4756	5.8182	5.e-002	27.523
16931	1.4756	5.9091	0.	10.141
16932	1.4756	5.5455	0.	1.0032
16933	1.3833	5.6364	0.	1.8665
16934	1.4756	5.6364	5.e-002	17.374
16935	1.4756	5.3636	0.	0.42921
16936	1.3833	5.4545	0.	0.7019
16937	1.4756	5.4545	5.e-002	18.128
16938	1.4756	5.1818	0.	0.27264
16939	1.3833	5.2727	0.	0.52757
16940	1.4756	5.2727	5.e-002	18.417
16941	1.4756	5.	0.	0.15154
16942	1.3833	5.0909	0.	0.35914
16943	1.4756	5.0909	5.e-002	18.375
16944	1.4756	4.8182	0.	8.4369e-002
16945	1.3833	4.9091	0.	0.27846
16946	1.4756	4.9091	5.e-002	18.176
16947	1.4756	4.6364	0.	4.3062e-002
16948	1.3833	4.7273	0.	0.22814
16949	1.4756	4.7273	5.e-002	17.971
16950	1.4756	4.4545	0.	2.0181e-002
16951	1.3833	4.5455	0.	0.202
16952	1.4756	4.5455	5.e-002	17.842
16953	1.4756	4.2727	0.	7.9695e-003
16954	1.3833	4.3636	0.	0.1886
16955	1.4756	4.3636	5.e-002	17.81
16956	1.4756	4.0909	0.	2.0091e-003
16957	1.3833	4.1818	0.	0.18254
16958	1.4756	4.1818	5.e-002	17.857
16959	1.4756	3.9091	0.	-5.9617e-004
16960	1.3833	4.	0.	0.18019
16961	1.4756	4.	5.e-002	17.953
16962	1.4756	3.7273	0.	-1.5057e-003
16963	1.3833	3.8182	0.	0.17961
16964	1.4756	3.8182	5.e-002	18.069
16965	1.4756	3.5455	0.	-1.6537e-003
16966	1.3833	3.6364	0.	0.17975
16967	1.4756	3.6364	5.e-002	18.181
16968	1.4756	3.3636	0.	-1.5327e-003
16969	1.3833	3.4545	0.	0.18009
16970	1.4756	3.4545	5.e-002	18.276
16971	1.4756	3.1818	0.	-1.3886e-003
16972	1.3833	3.2727	0.	0.18039
16973	1.4756	3.2727	5.e-002	18.343
16974	1.4756	3.	0.	-1.3303e-003
16975	1.3833	3.0909	0.	0.18056
16976	1.4756	3.0909	5.e-002	18.377
16977	1.4756	2.8182	0.	-1.3885e-003
16978	1.3833	2.9091	0.	0.18056
16979	1.4756	2.9091	5.e-002	18.377
16980	1.4756	2.6364	0.	-1.5327e-003
16981	1.3833	2.7273	0.	0.18039
16982	1.4756	2.7273	5.e-002	18.343
16983	1.4756	2.4545	0.	-1.6537e-003
16984	1.3833	2.5455	0.	0.18009
16985	1.4756	2.5455	5.e-002	18.276
16986	1.4756	2.2727	0.	-1.5058e-003
16987	1.3833	2.3636	0.	0.17975
16988	1.4756	2.3636	5.e-002	18.181
16989	1.4756	2.0909	0.	-5.962e-004
16990	1.3833	2.1818	0.	0.17961
16991	1.4756	2.1818	5.e-002	18.069
16992	1.4756	1.9091	0.	2.0092e-003
16993	1.3833	2.	0.	0.18019
16994	1.4756	2.	5.e-002	17.953
16995	1.4756	1.7273	0.	7.9696e-003
16996	1.3833	1.8182	0.	0.18254
16997	1.4756	1.8182	5.e-002	17.857
16998	1.4756	1.5455	0.	2.0181e-002
16999	1.3833	1.6364	0.	0.1886
17000	1.4756	1.6364	5.e-002	17.81
17001	1.4756	1.3636	0.	4.3062e-002
17002	1.3833	1.4545	0.	0.202
17003	1.4756	1.4545	5.e-002	17.842
17004	1.4756	1.1818	0.	8.437e-002
17005	1.3833	1.2727	0.	0.22814
17006	1.4756	1.2727	5.e-002	17.971
17007	1.4756	1.	0.	0.15154
17008	1.3833	1.0909	0.	0.27846
17009	1.4756	1.0909	5.e-002	18.176
17010	1.4756	0.81818	0.	0.27264
17011	1.3833	0.90909	0.	0.35914
17012	1.4756	0.90909	5.e-002	18.375
17013	1.4756	0.63636	0.	0.42921
17014	1.3833	0.72727	0.	0.52757
17015	1.4756	0.72727	5.e-002	18.417
17016	1.4756	0.45455	0.	1.0032
17017	1.3833	0.54545	0.	0.7019
17018	1.4756	0.54545	5.e-002	18.128
17019	1.4756	0.27273	0.	2.8534
17020	1.3833	0.36364	0.	1.8665
17021	1.4756	0.36364	5.e-002	17.374
17022	1.3833	0.18182	0.	18.343
17023	1.4756	0.18182	5.e-002	27.523
17024	1.4756	9.0909e-002	0.	10.141
17025	1.2911	5.7273	0.	3.6416
17026	1.1989	5.8182	0.	28.393
17027	1.2911	5.8182	5.e-002	28.394
17028	1.2911	5.9091	0.	20.317
17029	1.2911	5.5455	0.	1.3599
17030	1.1989	5.6364	0.	1.8885
17031	1.2911	5.6364	5.e-002	19.906
17032	1.2911	5.3636	0.	0.74909
17033	1.1989	5.4545	0.	0.45376
17034	1.2911	5.4545	5.e-002	20.835
17035	1.2911	5.1818	0.	0.59178
17036	1.1989	5.2727	0.	0.1943
17037	1.2911	5.2727	5.e-002	20.897
17038	1.2911	5.	0.	0.47382
17039	1.1989	5.0909	0.	-2.6235e-002
17040	1.2911	5.0909	5.e-002	20.552
17041	1.2911	4.8182	0.	0.41475
17042	1.1989	4.9091	0.	-0.13417
17043	1.2911	4.9091	5.e-002	20.1
17044	1.2911	4.6364	0.	0.38225
17045	1.1989	4.7273	0.	-0.20065
17046	1.2911	4.7273	5.e-002	19.739
17047	1.2911	4.4545	0.	0.36721
17048	1.1989	4.5455	0.	-0.23744
17049	1.2911	4.5455	5.e-002	19.541
17050	1.2911	4.2727	0.	0.36098
17051	1.1989	4.3636	0.	-0.25915
17052	1.2911	4.3636	5.e-002	19.491
17053	1.2911	4.0909	0.	0.35919
17054	1.1989	4.1818	0.	-0.27229
17055	1.2911	4.1818	5.e-002	19.541
17056	1.2911	3.9091	0.	0.35928
17057	1.1989	4.	0.	-0.28081
17058	1.2911	4.	5.e-002	19.643
17059	1.2911	3.7273	0.	0.36001
17060	1.1989	3.8182	0.	-0.28664
17061	1.2911	3.8182	5.e-002	19.76
17062	1.2911	3.5455	0.	0.36081
17063	1.1989	3.6364	0.	-0.29078
17064	1.2911	3.6364	5.e-002	19.869
17065	1.2911	3.3636	0.	0.36143
17066	1.1989	3.4545	0.	-0.29366
17067	1.2911	3.4545	5.e-002	19.957
17068	1.2911	3.1818	0.	0.36182
17069	1.1989	3.2727	0.	-0.29552
17070	1.2911	3.2727	5.e-002	20.018
17071	1.2911	3.	0.	0.36195
17072	1.1989	3.0909	0.	-0.29643
17073	1.2911	3.0909	5.e-002	20.049
17074	1.2911	2.8182	0.	0.36182
17075	1.1989	2.9091	0.	-0.29643
17076	1.2911	2.9091	5.e-002	20.049
17077	1.2911	2.6364	0.	0.36143
17078	1.1989	2.7273	0.	-0.29552
17079	1.2911	2.7273	5.e-002	20.018
17080	1.2911	2.4545	0.	0.36081
17081	1.1989	2.5455	0.	-0.29366
17082	1.2911	2.5455	5.e-002	19.957
17083	1.2911	2.2727	0.	0.36001
17084	1.1989	2.3636	0.	-0.29078
17085	1.2911	2.3636	5.e-002	19.869
17086	1.2911	2.0909	0.	0.35928
17087	1.1989	2.1818	0.	-0.28664
17088	1.2911	2.1818	5.e-002	19.76
17089	1.2911	1.9091	0.	0.35919
17090	1.1989	2.	0.	-0.28081
17091	1.2911	2.	5.e-002	19.643
17092	1.2911	1.7273	0.	0.36098
17093	1.1989	1.8182	0.	-0.27229
17094	1.2911	1.8182	5.e-002	19.541
17095	1.2911	1.5455	0.	0.36721
17096	1.1989	1.6364	0.	-0.25915
17097	1.2911	1.6364	5.e-002	19.491
17098	1.2911	1.3636	0.	0.38225
17099	1.1989	1.4545	0.	-0.23744
17100	1.2911	1.4545	5.e-002	19.541
17101	1.2911	1.1818	0.	0.41475
17102	1.1989	1.2727	0.	-0.20065
17103	1.2911	1.2727	5.e-002	19.739
17104	1.2911	1.	0.	0.47382
17105	1.1989	1.0909	0.	-0.13417
17106	1.2911	1.0909	5.e-002	20.1
17107	1.2911	0.81818	0.	0.59178
17108	1.1989	0.90909	0.	-2.6234e-002
17109	1.2911	0.90909	5.e-002	20.552
17110	1.2911	0.63636	0.	0.74909
17111	1.1989	0.72727	0.	0.1943
17112	1.2911	0.72727	5.e-002	20.897
17113	1.2911	0.45455	0.	1.3599
17114	1.1989	0.54545	0.	0.45376
17115	1.2911	0.54545	5.e-002	20.835
17116	1.2911	0.27273	0.	3.6416
17117	1.1989	0.36364	0.	1.8885
17118	1.2911	0.36364	5.e-002	19.906
17119	1.1989	0.18182	0.	28.393
17120	1.2911	0.18182	5.e-002	28.394
17121	1.2911	9.0909e-002	0.	20.317
17122	1.1067	5.7273	0.	3.9802
17123	1.0144	5.8182	0.	43.205
17124	1.1067	5.8182	5.e-002	29.088
17125	1.1067	5.9091	0.	33.637
17126	1.1067	5.5455	0.	0.72159
17127	1.0144	5.6364	0.	3.3134
17128	1.1067	5.6364	5.e-002	23.711
17129	1.1067	5.3636	0.	-0.16482
17130	1.0144	5.4545	0.	2.0024
17131	1.1067	5.4545	5.e-002	24.6
17132	1.1067	5.1818	0.	-0.45152
17133	1.0144	5.2727	0.	1.8598
17134	1.1067	5.2727	5.e-002	24.127
17135	1.1067	5.	0.	-0.6493
17136	1.0144	5.0909	0.	1.721
17137	1.1067	5.0909	5.e-002	23.24
17138	1.1067	4.8182	0.	-0.7585
17139	1.0144	4.9091	0.	1.6815
17140	1.1067	4.9091	5.e-002	22.412
17141	1.1067	4.6364	0.	-0.82587
17142	1.0144	4.7273	0.	1.6684
17143	1.1067	4.7273	5.e-002	21.854
17144	1.1067	4.4545	0.	-0.86732
17145	1.0144	4.5455	0.	1.6721
17146	1.1067	4.5455	5.e-002	21.576
17147	1.1067	4.2727	0.	-0.89472
17148	1.0144	4.3636	0.	1.6803
17149	1.1067	4.3636	5.e-002	21.496
17150	1.1067	4.0909	0.	-0.91383
17151	1.0144	4.1818	0.	1.6891
17152	1.1067	4.1818	5.e-002	21.527
17153	1.1067	3.9091	0.	-0.92782
17154	1.0144	4.	0.	1.6967
17155	1.1067	4.	5.e-002	21.604
17156	1.1067	3.7273	0.	-0.93824
17157	1.0144	3.8182	0.	1.7027
17158	1.1067	3.8182	5.e-002	21.691
17159	1.1067	3.5455	0.	-0.94588
17160	1.0144	3.6364	0.	1.707
17161	1.1067	3.6364	5.e-002	21.767
17162	1.1067	3.3636	0.	-0.95115
17163	1.0144	3.4545	0.	1.7101
17164	1.1067	3.4545	5.e-002	21.825
17165	1.1067	3.1818	0.	-0.95425
17166	1.0144	3.2727	0.	1.712
17167	1.1067	3.2727	5.e-002	21.864
17168	1.1067	3.	0.	-0.95528
17169	1.0144	3.0909	0.	1.7129
17170	1.1067	3.0909	5.e-002	21.883
17171	1.1067	2.8182	0.	-0.95425
17172	1.0144	2.9091	0.	1.7129
17173	1.1067	2.9091	5.e-002	21.883
17174	1.1067	2.6364	0.	-0.95115
17175	1.0144	2.7273	0.	1.712
17176	1.1067	2.7273	5.e-002	21.864
17177	1.1067	2.4545	0.	-0.94588
17178	1.0144	2.5455	0.	1.7101
17179	1.1067	2.5455	5.e-002	21.825
17180	1.1067	2.2727	0.	-0.93824
17181	1.0144	2.3636	0.	1.707
17182	1.1067	2.3636	5.e-002	21.767
17183	1.1067	2.0909	0.	-0.92782
17184	1.0144	2.1818	0.	1.7027
17185	1.1067	2.1818	5.e-002	21.691
17186	1.1067	1.9091	0.	-0.91383
17187	1.0144	2.	0.	1.6967
17188	1.1067	2.	5.e-002	21.604
17189	1.1067	1.7273	0.	-0.89472
17190	1.0144	1.8182	0.	1.6891
17191	1.1067	1.8182	5.e-002	21.527
17192	1.1067	1.5455	0.	-0.86732
17193	1.0144	1.6364	0.	1.6803
17194	1.1067	1.6364	5.e-002	21.496
17195	1.1067	1.3636	0.	-0.82587
17196	1.0144	1.4545	0.	1.6721
17197	1.1067	1.4545	5.e-002	21.576
17198	1.1067	1.1818	0.	-0.7585
17199	1.0144	1.2727	0.	1.6684
17200	1.1067	1.2727	5.e-002	21.854
17201	1.1067	1.	0.	-0.6493
17202	1.0144	1.0909	0.	1.6815
17203	1.1067	1.0909	5.e-002	22.412
17204	1.1067	0.81818	0.	-0.45152
17205	1.0144	0.90909	0.	1.721
17206	1.1067	0.90909	5.e-002	23.24
17207	1.1067	0.63636	0.	-0.16482
17208	1.0144	0.72727	0.	1.8598
17209	1.1067	0.72727	5.e-002	24.127
17210	1.1067	0.45455	0.	0.72159
17211	1.0144	0.54545	0.	2.0024
17212	1.1067	0.54545	5.e-002	24.6
17213	1.1067	0.27273	0.	3.9802
17214	1.0144	0.36364	0.	3.3134
17215	1.1067	0.36364	5.e-002	23.711
17216	1.0144	0.18182	0.	43.205
17217	1.1067	0.18182	5.e-002	29.088
17218	1.1067	9.0909e-002	0.	33.637
17219	0.92222	5.7273	0.	7.0611
17220	0.83	5.8182	0.	61.395
17221	0.92222	5.8182	5.e-002	29.803
17222	0.92222	5.9091	0.	51.351
17223	0.92222	5.5455	0.	4.2605
17224	0.83	5.6364	0.	-0.40376
17225	0.92222	5.6364	5.e-002	29.57
17226	0.92222	5.3636	0.	3.9457
17227	0.83	5.4545	0.	-3.3334
17228	0.92222	5.4545	5.e-002	29.879
17229	0.92222	5.1818	0.	3.9969
17230	0.83	5.2727	0.	-4.21
17231	0.92222	5.2727	5.e-002	28.284
17232	0.92222	5.	0.	4.0331
17233	0.83	5.0909	0.	-4.8366
17234	0.92222	5.0909	5.e-002	26.503
17235	0.92222	4.8182	0.	4.0978
17236	0.83	4.9091	0.	-5.203
17237	0.92222	4.9091	5.e-002	25.17
17238	0.92222	4.6364	0.	4.1602
17239	0.83	4.7273	0.	-5.4545
17240	0.92222	4.7273	5.e-002	24.385
17241	0.92222	4.4545	0.	4.216
17242	0.83	4.5455	0.	-5.6309
17243	0.92222	4.5455	5.e-002	24.004
17244	0.92222	4.2727	0.	4.2618
17245	0.83	4.3636	0.	-5.7626
17246	0.92222	4.3636	5.e-002	23.852
17247	0.92222	4.0909	0.	4.2981
17248	0.83	4.1818	0.	-5.863
17249	0.92222	4.1818	5.e-002	23.806
17250	0.92222	3.9091	0.	4.3262
17251	0.83	4.	0.	-5.9406
17252	0.92222	4.	5.e-002	23.799
17253	0.92222	3.7273	0.	4.3472
17254	0.83	3.8182	0.	-6.0001
17255	0.92222	3.8182	5.e-002	23.8
17256	0.92222	3.5455	0.	4.3624
17257	0.83	3.6364	0.	-6.0447
17258	0.92222	3.6364	5.e-002	23.799
17259	0.92222	3.3636	0.	4.3727
17260	0.83	3.4545	0.	-6.0766
17261	0.92222	3.4545	5.e-002	23.794
17262	0.92222	3.1818	0.	4.3787
17263	0.83	3.2727	0.	-6.0972
17264	0.92222	3.2727	5.e-002	23.789
17265	0.92222	3.	0.	4.3806
17266	0.83	3.0909	0.	-6.1073
17267	0.92222	3.0909	5.e-002	23.785
17268	0.92222	2.8182	0.	4.3787
17269	0.83	2.9091	0.	-6.1073
17270	0.92222	2.9091	5.e-002	23.785
17271	0.92222	2.6364	0.	4.3727
17272	0.83	2.7273	0.	-6.0972
17273	0.92222	2.7273	5.e-002	23.789
17274	0.92222	2.4545	0.	4.3624
17275	0.83	2.5455	0.	-6.0766
17276	0.92222	2.5455	5.e-002	23.794
17277	0.92222	2.2727	0.	4.3472
17278	0.83	2.3636	0.	-6.0447
17279	0.92222	2.3636	5.e-002	23.799
17280	0.92222	2.0909	0.	4.3262
17281	0.83	2.1818	0.	-6.0001
17282	0.92222	2.1818	5.e-002	23.8
17283	0.92222	1.9091	0.	4.2981
17284	0.83	2.	0.	-5.9406
17285	0.92222	2.	5.e-002	23.799
17286	0.92222	1.7273	0.	4.2618
17287	0.83	1.8182	0.	-5.863
17288	0.92222	1.8182	5.e-002	23.806
17289	0.92222	1.5455	0.	4.216
17290	0.83	1.6364	0.	-5.7626
17291	0.92222	1.6364	5.e-002	23.852
17292	0.92222	1.3636	0.	4.1602
17293	0.83	1.4545	0.	-5.6309
17294	0.92222	1.4545	5.e-002	24.004
17295	0.92222	1.1818	0.	4.0978
17296	0.83	1.2727	0.	-5.4545
17297	0.92222	1.2727	5.e-002	24.385
17298	0.92222	1.	0.	4.0331
17299	0.83	1.0909	0.	-5.203
17300	0.92222	1.0909	5.e-002	25.17
17301	0.92222	0.81818	0.	3.9969
17302	0.83	0.90909	0.	-4.8366
17303	0.92222	0.90909	5.e-002	26.503
17304	0.92222	0.63636	0.	3.9457
17305	0.83	0.72727	0.	-4.21
17306	0.92222	0.72727	5.e-002	28.284
17307	0.92222	0.45455	0.	4.2605
17308	0.83	0.54545	0.	-3.3334
17309	0.92222	0.54545	5.e-002	29.879
17310	0.92222	0.27273	0.	7.0611
17311	0.83	0.36364	0.	-0.40376
17312	0.92222	0.36364	5.e-002	29.57
17313	0.83	0.18182	0.	61.395
17314	0.92222	0.18182	5.e-002	29.803
17315	0.92222	9.0909e-002	0.	51.351
17316	0.73778	5.7273	0.	0.40303
17317	0.64556	5.8182	0.	86.859
17318	0.73778	5.8182	5.e-002	32.103
17319	0.73778	5.9091	0.	72.608
17320	0.73778	5.5455	0.	-8.4411
17321	0.64556	5.6364	0.	17.393
17322	0.73778	5.6364	5.e-002	38.853
17323	0.73778	5.3636	0.	-11.598
17324	0.64556	5.4545	0.	19.307
17325	0.73778	5.4545	5.e-002	37.203
17326	0.73778	5.1818	0.	-13.09
17327	0.64556	5.2727	0.	20.725
17328	0.73778	5.2727	5.e-002	33.52
17329	0.73778	5.	0.	-14.096
17330	0.64556	5.0909	0.	21.719
17331	0.73778	5.0909	5.e-002	30.526
17332	0.73778	4.8182	0.	-14.767
17333	0.64556	4.9091	0.	22.519
17334	0.73778	4.9091	5.e-002	28.681
17335	0.73778	4.6364	0.	-15.252
17336	0.64556	4.7273	0.	23.127
17337	0.73778	4.7273	5.e-002	27.691
17338	0.73778	4.4545	0.	-15.613
17339	0.64556	4.5455	0.	23.599
17340	0.73778	4.5455	5.e-002	27.171
17341	0.73778	4.2727	0.	-15.889
17342	0.64556	4.3636	0.	23.965
17343	0.73778	4.3636	5.e-002	26.867
17344	0.73778	4.0909	0.	-16.103
17345	0.64556	4.1818	0.	24.249
17346	0.73778	4.1818	5.e-002	26.653
17347	0.73778	3.9091	0.	-16.268
17348	0.64556	4.	0.	24.469
17349	0.73778	4.	5.e-002	26.478
17350	0.73778	3.7273	0.	-16.393
17351	0.64556	3.8182	0.	24.638
17352	0.73778	3.8182	5.e-002	26.325
17353	0.73778	3.5455	0.	-16.484
17354	0.64556	3.6364	0.	24.765
17355	0.73778	3.6364	5.e-002	26.195
17356	0.73778	3.3636	0.	-16.547
17357	0.64556	3.4545	0.	24.855
17358	0.73778	3.4545	5.e-002	26.091
17359	0.73778	3.1818	0.	-16.584
17360	0.64556	3.2727	0.	24.913
17361	0.73778	3.2727	5.e-002	26.019
17362	0.73778	3.	0.	-16.596
17363	0.64556	3.0909	0.	24.941
17364	0.73778	3.0909	5.e-002	25.982
17365	0.73778	2.8182	0.	-16.584
17366	0.64556	2.9091	0.	24.941
17367	0.73778	2.9091	5.e-002	25.982
17368	0.73778	2.6364	0.	-16.547
17369	0.64556	2.7273	0.	24.913
17370	0.73778	2.7273	5.e-002	26.019
17371	0.73778	2.4545	0.	-16.484
17372	0.64556	2.5455	0.	24.855
17373	0.73778	2.5455	5.e-002	26.091
17374	0.73778	2.2727	0.	-16.393
17375	0.64556	2.3636	0.	24.765
17376	0.73778	2.3636	5.e-002	26.195
17377	0.73778	2.0909	0.	-16.268
17378	0.64556	2.1818	0.	24.638
17379	0.73778	2.1818	5.e-002	26.325
17380	0.73778	1.9091	0.	-16.103
17381	0.64556	2.	0.	24.469
17382	0.73778	2.	5.e-002	26.478
17383	0.73778	1.7273	0.	-15.889
17384	0.64556	1.8182	0.	24.249
17385	0.73778	1.8182	5.e-002	26.653
17386	0.73778	1.5455	0.	-15.613
17387	0.64556	1.6364	0.	23.965
17388	0.73778	1.6364	5.e-002	26.867
17389	0.73778	1.3636	0.	-15.252
17390	0.64556	1.4545	0.	23.599
17391	0.73778	1.4545	5.e-002	27.171
17392	0.73778	1.1818	0.	-14.767
17393	0.64556	1.2727	0.	23.127
17394	0.73778	1.2727	5.e-002	27.691
17395	0.73778	1.	0.	-14.096
17396	0.64556	1.0909	0.	22.519
17397	0.73778	1.0909	5.e-002	28.681
17398	0.73778	0.81818	0.	-13.09
17399	0.64556	0.90909	0.	21.719
17400	0.73778	0.90909	5.e-002	30.526
17401	0.73778	0.63636	0.	-11.598
17402	0.64556	0.72727	0.	20.725
17403	0.73778	0.72727	5.e-002	33.52
17404	0.73778	0.45455	0.	-8.4411
17405	0.64556	0.54545	0.	19.307
17406	0.73778	0.54545	5.e-002	37.203
17407	0.73778	0.27273	0.	0.40302
17408	0.64556	0.36364	0.	17.393
17409	0.73778	0.36364	5.e-002	38.853
17410	0.64556	0.18182	0.	86.859
17411	0.73778	0.18182	5.e-002	32.103
17412	0.73778	9.0909e-002	0.	72.608
17413	0.55333	5.7273	0.	33.789
17414	0.46111	5.8182	0.	95.992
17415	0.55333	5.8182	5.e-002	40.132
17416	0.55333	5.9091	0.	107.33
17417	0.55333	5.5455	0.	44.579
17418	0.46111	5.6364	0.	-48.865
17419	0.55333	5.6364	5.e-002	53.875
17420	0.55333	5.3636	0.	51.483
17421	0.46111	5.4545	0.	-67.355
17422	0.55333	5.4545	5.e-002	46.911
17423	0.55333	5.1818	0.	55.477
17424	0.46111	5.2727	0.	-76.605
17425	0.55333	5.2727	5.e-002	39.668
17426	0.55333	5.	0.	58.308
17427	0.46111	5.0909	0.	-82.436
17428	0.55333	5.0909	5.e-002	35.193
17429	0.55333	4.8182	0.	60.401
17430	0.46111	4.9091	0.	-86.473
17431	0.55333	4.9091	5.e-002	32.713
17432	0.55333	4.6364	0.	61.972
17433	0.46111	4.7273	0.	-89.403
17434	0.55333	4.7273	5.e-002	31.308
17435	0.55333	4.4545	0.	63.174
17436	0.46111	4.5455	0.	-91.605
17437	0.55333	4.5455	5.e-002	30.384
17438	0.55333	4.2727	0.	64.101
17439	0.46111	4.3636	0.	-93.291
17440	0.55333	4.3636	5.e-002	29.682
17441	0.55333	4.0909	0.	64.82
17442	0.46111	4.1818	0.	-94.593
17443	0.55333	4.1818	5.e-002	29.1
17444	0.55333	3.9091	0.	65.375
17445	0.46111	4.	0.	-95.599
17446	0.55333	4.	5.e-002	28.607
17447	0.55333	3.7273	0.	65.795
17448	0.46111	3.8182	0.	-96.369
17449	0.55333	3.8182	5.e-002	28.194
17450	0.55333	3.5455	0.	66.104
17451	0.46111	3.6364	0.	-96.945
17452	0.55333	3.6364	5.e-002	27.86
17453	0.55333	3.3636	0.	66.315
17454	0.46111	3.4545	0.	-97.354
17455	0.55333	3.4545	5.e-002	27.608
17456	0.55333	3.1818	0.	66.438
17457	0.46111	3.2727	0.	-97.618
17458	0.55333	3.2727	5.e-002	27.438
17459	0.55333	3.	0.	66.478
17460	0.46111	3.0909	0.	-97.746
17461	0.55333	3.0909	5.e-002	27.353
17462	0.55333	2.8182	0.	66.438
17463	0.46111	2.9091	0.	-97.746
17464	0.55333	2.9091	5.e-002	27.353
17465	0.55333	2.6364	0.	66.315
17466	0.46111	2.7273	0.	-97.618
17467	0.55333	2.7273	5.e-002	27.439
17468	0.55333	2.4545	0.	66.104
17469	0.46111	2.5455	0.	-97.354
17470	0.55333	2.5455	5.e-002	27.608
17471	0.55333	2.2727	0.	65.795
17472	0.46111	2.3636	0.	-96.945
17473	0.55333	2.3636	5.e-002	27.86
17474	0.55333	2.0909	0.	65.375
17475	0.46111	2.1818	0.	-96.369
17476	0.55333	2.1818	5.e-002	28.194
17477	0.55333	1.9091	0.	64.82
17478	0.46111	2.	0.	-95.599
17479	0.55333	2.	5.e-002	28.607
17480	0.55333	1.7273	0.	64.101
17481	0.46111	1.8182	0.	-94.593
17482	0.55333	1.8182	5.e-002	29.1
17483	0.55333	1.5455	0.	63.174
17484	0.46111	1.6364	0.	-93.291
17485	0.55333	1.6364	5.e-002	29.682
17486	0.55333	1.3636	0.	61.972
17487	0.46111	1.4545	0.	-91.605
17488	0.55333	1.4545	5.e-002	30.384
17489	0.55333	1.1818	0.	60.401
17490	0.46111	1.2727	0.	-89.403
17491	0.55333	1.2727	5.e-002	31.308
17492	0.55333	1.	0.	58.308
17493	0.46111	1.0909	0.	-86.473
17494	0.55333	1.0909	5.e-002	32.713
17495	0.55333	0.81818	0.	55.477
17496	0.46111	0.90909	0.	-82.436
17497	0.55333	0.90909	5.e-002	35.193
17498	0.55333	0.63636	0.	51.483
17499	0.46111	0.72727	0.	-76.605
17500	0.55333	0.72727	5.e-002	39.668
17501	0.55333	0.45455	0.	44.579
17502	0.46111	0.54545	0.	-67.355
17503	0.55333	0.54545	5.e-002	46.911
17504	0.55333	0.27273	0.	33.789
17505	0.46111	0.36364	0.	-48.865
17506	0.55333	0.36364	5.e-002	53.875
17507	0.46111	0.18182	0.	95.992
17508	0.55333	0.18182	5.e-002	40.132
17509	0.55333	9.0909e-002	0.	107.33
17510	0.36889	5.7273	0.	-90.428
17511	0.27667	5.8182	0.	164.78
17512	0.36889	5.8182	5.e-002	70.167
17513	0.36889	5.9091	0.	132.29
17514	0.36889	5.5455	0.	-161.78
17515	0.27667	5.6364	0.	235.8
17516	0.36889	5.6364	5.e-002	78.04
17517	0.36889	5.3636	0.	-195.66
17518	0.27667	5.4545	0.	279.71
17519	0.36889	5.4545	5.e-002	59.437
17520	0.36889	5.1818	0.	-214.59
17521	0.27667	5.2727	0.	310.98
17522	0.36889	5.2727	5.e-002	48.918
17523	0.36889	5.	0.	-227.24
17524	0.27667	5.0909	0.	331.01
17525	0.36889	5.0909	5.e-002	43.52
17526	0.36889	4.8182	0.	-236.29
17527	0.27667	4.9091	0.	345.6
17528	0.36889	4.9091	5.e-002	40.654
17529	0.36889	4.6364	0.	-242.98
17530	0.27667	4.7273	0.	356.34
17531	0.36889	4.7273	5.e-002	38.719
17532	0.36889	4.4545	0.	-248.07
17533	0.27667	4.5455	0.	364.5
17534	0.36889	4.5455	5.e-002	37.219
17535	0.36889	4.2727	0.	-251.98
17536	0.27667	4.3636	0.	370.79
17537	0.36889	4.3636	5.e-002	35.981
17538	0.36889	4.0909	0.	-255.01
17539	0.27667	4.1818	0.	375.66
17540	0.36889	4.1818	5.e-002	34.945
17541	0.36889	3.9091	0.	-257.34
17542	0.27667	4.	0.	379.44
17543	0.36889	4.	5.e-002	34.085
17544	0.36889	3.7273	0.	-259.11
17545	0.27667	3.8182	0.	382.34
17546	0.36889	3.8182	5.e-002	33.384
17547	0.36889	3.5455	0.	-260.4
17548	0.27667	3.6364	0.	384.51
17549	0.36889	3.6364	5.e-002	32.835
17550	0.36889	3.3636	0.	-261.29
17551	0.27667	3.4545	0.	386.05
17552	0.36889	3.4545	5.e-002	32.429
17553	0.36889	3.1818	0.	-261.8
17554	0.27667	3.2727	0.	387.05
17555	0.36889	3.2727	5.e-002	32.161
17556	0.36889	3.	0.	-261.97
17557	0.27667	3.0909	0.	387.54
17558	0.36889	3.0909	5.e-002	32.028
17559	0.36889	2.8182	0.	-261.8
17560	0.27667	2.9091	0.	387.54
17561	0.36889	2.9091	5.e-002	32.028
17562	0.36889	2.6364	0.	-261.29
17563	0.27667	2.7273	0.	387.05
17564	0.36889	2.7273	5.e-002	32.161
17565	0.36889	2.4545	0.	-260.4
17566	0.27667	2.5455	0.	386.05
17567	0.36889	2.5455	5.e-002	32.429
17568	0.36889	2.2727	0.	-259.11
17569	0.27667	2.3636	0.	384.51
17570	0.36889	2.3636	5.e-002	32.835
17571	0.36889	2.0909	0.	-257.34
17572	0.27667	2.1818	0.	382.34
17573	0.36889	2.1818	5.e-002	33.384
17574	0.36889	1.9091	0.	-255.01
17575	0.27667	2.	0.	379.44
17576	0.36889	2.	5.e-002	34.085
17577	0.36889	1.7273	0.	-251.98
17578	0.27667	1.8182	0.	375.66
17579	0.36889	1.8182	5.e-002	34.945
17580	0.36889	1.5455	0.	-248.07
17581	0.27667	1.6364	0.	370.79
17582	0.36889	1.6364	5.e-002	35.981
17583	0.36889	1.3636	0.	-242.98
17584	0.27667	1.4545	0.	364.5
17585	0.36889	1.4545	5.e-002	37.219
17586	0.36889	1.1818	0.	-236.29
17587	0.27667	1.2727	0.	356.34
17588	0.36889	1.2727	5.e-002	38.719
17589	0.36889	1.	0.	-227.24
17590	0.27667	1.0909	0.	345.6
17591	0.36889	1.0909	5.e-002	40.654
17592	0.36889	0.81818	0.	-214.59
17593	0.27667	0.90909	0.	331.01
17594	0.36889	0.90909	5.e-002	43.52
17595	0.36889	0.63636	0.	-195.66
17596	0.27667	0.72727	0.	310.98
17597	0.36889	0.72727	5.e-002	48.918
17598	0.36889	0.45455	0.	-161.78
17599	0.27667	0.54545	0.	279.71
17600	0.36889	0.54545	5.e-002	59.437
17601	0.36889	0.27273	0.	-90.428
17602	0.27667	0.36364	0.	235.8
17603	0.36889	0.36364	5.e-002	78.04
17604	0.27667	0.18182	0.	164.78
17605	0.36889	0.18182	5.e-002	70.167
17606	0.36889	9.0909e-002	0.	132.29
17607	0.18444	5.7273	0.	448.27
17608	0.18444	5.8182	5.e-002	169.79
17609	0.18444	5.9091	0.	223.69
17610	9.2222e-002	5.8182	0.	-400.3
17611	0.18444	5.5455	0.	676.58
17612	0.18444	5.6364	5.e-002	108.27
17613	9.2222e-002	5.6364	0.	-831.58
17614	0.18444	5.3636	0.	786.3
17615	0.18444	5.4545	5.e-002	73.472
17616	9.2222e-002	5.4545	0.	-1028.9
17617	0.18444	5.1818	0.	856.61
17618	0.18444	5.2727	5.e-002	56.237
17619	9.2222e-002	5.2727	0.	-1145.4
17620	0.18444	5.	0.	903.88
17621	0.18444	5.0909	5.e-002	47.292
17622	9.2222e-002	5.0909	0.	-1224.
17623	0.18444	4.8182	0.	938.25
17624	0.18444	4.9091	5.e-002	41.184
17625	9.2222e-002	4.9091	0.	-1279.9
17626	0.18444	4.6364	0.	963.84
17627	0.18444	4.7273	5.e-002	36.73
17628	9.2222e-002	4.7273	0.	-1321.4
17629	0.18444	4.4545	0.	983.37
17630	0.18444	4.5455	5.e-002	33.329
17631	9.2222e-002	4.5455	0.	-1352.9
17632	0.18444	4.2727	0.	998.45
17633	0.18444	4.3636	5.e-002	30.676
17634	9.2222e-002	4.3636	0.	-1377.1
17635	0.18444	4.0909	0.	1010.1
17636	0.18444	4.1818	5.e-002	28.587
17637	9.2222e-002	4.1818	0.	-1395.9
17638	0.18444	3.9091	0.	1019.1
17639	0.18444	4.	5.e-002	26.942
17640	9.2222e-002	4.	0.	-1410.5
17641	0.18444	3.7273	0.	1026.
17642	0.18444	3.8182	5.e-002	25.664
17643	9.2222e-002	3.8182	0.	-1421.7
17644	0.18444	3.5455	0.	1031.
17645	0.18444	3.6364	5.e-002	24.695
17646	9.2222e-002	3.6364	0.	-1430.1
17647	0.18444	3.3636	0.	1034.4
17648	0.18444	3.4545	5.e-002	23.998
17649	9.2222e-002	3.4545	0.	-1436.1
17650	0.18444	3.1818	0.	1036.4
17651	0.18444	3.2727	5.e-002	23.546
17652	9.2222e-002	3.2727	0.	-1439.9
17653	0.18444	3.	0.	1037.1
17654	0.18444	3.0909	5.e-002	23.324
17655	9.2222e-002	3.0909	0.	-1441.8
17656	0.18444	2.8182	0.	1036.4
17657	0.18444	2.9091	5.e-002	23.324
17658	9.2222e-002	2.9091	0.	-1441.8
17659	0.18444	2.6364	0.	1034.4
17660	0.18444	2.7273	5.e-002	23.546
17661	9.2222e-002	2.7273	0.	-1439.9
17662	0.18444	2.4545	0.	1031.
17663	0.18444	2.5455	5.e-002	23.998
17664	9.2222e-002	2.5455	0.	-1436.1
17665	0.18444	2.2727	0.	1026.
17666	0.18444	2.3636	5.e-002	24.695
17667	9.2222e-002	2.3636	0.	-1430.1
17668	0.18444	2.0909	0.	1019.1
17669	0.18444	2.1818	5.e-002	25.664
17670	9.2222e-002	2.1818	0.	-1421.7
17671	0.18444	1.9091	0.	1010.1
17672	0.18444	2.	5.e-002	26.942
17673	9.2222e-002	2.	0.	-1410.5
17674	0.18444	1.7273	0.	998.45
17675	0.18444	1.8182	5.e-002	28.587
17676	9.2222e-002	1.8182	0.	-1395.9
17677	0.18444	1.5455	0.	983.37
17678	0.18444	1.6364	5.e-002	30.676
17679	9.2222e-002	1.6364	0.	-1377.1
17680	0.18444	1.3636	0.	963.84
17681	0.18444	1.4545	5.e-002	33.329
17682	9.2222e-002	1.4545	0.	-1352.9
17683	0.18444	1.1818	0.	938.25
17684	0.18444	1.2727	5.e-002	36.73
17685	9.2222e-002	1.2727	0.	-1321.4
17686	0.18444	1.	0.	903.88
17687	0.18444	1.0909	5.e-002	41.184
17688	9.2222e-002	1.0909	0.	-1279.9
17689	0.18444	0.81818	0.	856.61
17690	0.18444	0.90909	5.e-002	47.292
17691	9.2222e-002	0.90909	0.	-1224.
17692	0.18444	0.63636	0.	786.3
17693	0.18444	0.72727	5.e-002	56.237
17694	9.2222e-002	0.72727	0.	-1145.4
17695	0.18444	0.45455	0.	676.58
17696	0.18444	0.54545	5.e-002	73.472
17697	9.2222e-002	0.54545	0.	-1028.9
17698	0.18444	0.27273	0.	448.27
17699	0.18444	0.36364	5.e-002	108.27
17700	9.2222e-002	0.36364	0.	-831.58
17701	0.18444	0.18182	5.e-002	169.79
17702	0.18444	9.0909e-002	0.	223.69
17703	9.2222e-002	0.18182	0.	-400.3
17704	16.948	0.27273	0.	60.144
17705	17.038	0.18182	0.	33.559
17706	16.948	0.18182	5.e-002	21.307
17707	16.948	9.0909e-002	0.	15.981
17708	16.857	0.18182	0.	18.121
17709	16.948	0.45455	0.	112.36
17710	17.038	0.36364	0.	54.87
17711	16.948	0.36364	5.e-002	19.386
17712	16.857	0.36364	0.	55.495
17713	16.948	0.63636	0.	182.04
17714	17.038	0.54545	0.	103.81
17715	16.948	0.54545	5.e-002	20.953
17716	16.857	0.54545	0.	106.86
17717	16.948	0.81818	0.	263.62
17718	17.038	0.72727	0.	165.88
17719	16.948	0.72727	5.e-002	23.897
17720	16.857	0.72727	0.	166.36
17721	16.948	1.	0.	358.85
17722	17.038	0.90909	0.	237.71
17723	16.948	0.90909	5.e-002	28.241
17724	16.857	0.90909	0.	235.38
17725	16.948	1.1818	0.	472.91
17726	17.038	1.0909	0.	319.42
17727	16.948	1.0909	5.e-002	34.366
17728	16.857	1.0909	0.	317.53
17729	16.948	1.3636	0.	611.09
17730	17.038	1.2727	0.	412.89
17731	16.948	1.2727	5.e-002	43.674
17732	16.857	1.2727	0.	418.68
17733	16.948	1.5455	0.	796.86
17734	17.038	1.4545	0.	513.6
17735	16.948	1.4545	5.e-002	55.94
17736	16.857	1.4545	0.	553.95
17737	16.948	1.7273	0.	934.55
17738	17.038	1.6364	0.	626.05
17739	16.948	1.6364	5.e-002	84.442
17740	16.857	1.6364	0.	700.39
17741	16.948	1.9091	0.	763.21
17742	17.038	1.8182	0.	637.23
17743	16.948	1.8182	5.e-002	151.55
17744	16.857	1.8182	0.	1108.9
17745	16.948	2.0909	0.	395.25
17746	17.038	2.	0.	366.54
17747	16.948	2.	5.e-002	264.72
17748	16.857	2.	0.	569.29
17749	16.948	2.2727	0.	308.95
17750	17.038	2.1818	0.	199.63
17751	16.948	2.1818	5.e-002	156.96
17752	16.948	2.4545	0.	335.62
17753	17.038	2.3636	0.	236.76
17754	16.948	2.3636	5.e-002	66.52
17755	16.948	2.6364	0.	326.3
17756	17.038	2.5455	0.	248.62
17757	16.948	2.5455	5.e-002	37.051
17758	16.948	2.8182	0.	320.61
17759	17.038	2.7273	0.	253.93
17760	16.948	2.7273	5.e-002	22.668
17761	16.948	3.	0.	318.
17762	17.038	2.9091	0.	255.17
17763	16.948	2.9091	5.e-002	17.762
17764	16.948	3.1818	0.	320.61
17765	17.038	3.0909	0.	255.17
17766	16.948	3.0909	5.e-002	17.762
17767	16.948	3.3636	0.	326.3
17768	17.038	3.2727	0.	253.93
17769	16.948	3.2727	5.e-002	22.668
17770	16.948	3.5455	0.	335.62
17771	17.038	3.4545	0.	248.62
17772	16.948	3.4545	5.e-002	37.051
17773	16.948	3.7273	0.	308.95
17774	17.038	3.6364	0.	236.76
17775	16.948	3.6364	5.e-002	66.52
17776	16.948	3.9091	0.	395.25
17777	17.038	3.8182	0.	199.63
17778	16.948	3.8182	5.e-002	156.96
17779	16.948	4.0909	0.	763.21
17780	17.038	4.	0.	366.54
17781	16.948	4.	5.e-002	264.72
17782	16.857	4.	0.	569.29
17783	16.948	4.2727	0.	934.56
17784	17.038	4.1818	0.	637.23
17785	16.948	4.1818	5.e-002	151.55
17786	16.857	4.1818	0.	1108.9
17787	16.948	4.4545	0.	796.86
17788	17.038	4.3636	0.	626.05
17789	16.948	4.3636	5.e-002	84.442
17790	16.857	4.3636	0.	700.39
17791	16.948	4.6364	0.	611.09
17792	17.038	4.5455	0.	513.6
17793	16.948	4.5455	5.e-002	55.94
17794	16.857	4.5455	0.	553.95
17795	16.948	4.8182	0.	472.91
17796	17.038	4.7273	0.	412.89
17797	16.948	4.7273	5.e-002	43.674
17798	16.857	4.7273	0.	418.68
17799	16.948	5.	0.	358.85
17800	17.038	4.9091	0.	319.42
17801	16.948	4.9091	5.e-002	34.366
17802	16.857	4.9091	0.	317.53
17803	16.948	5.1818	0.	263.62
17804	17.038	5.0909	0.	237.71
17805	16.948	5.0909	5.e-002	28.241
17806	16.857	5.0909	0.	235.38
17807	16.948	5.3636	0.	182.04
17808	17.038	5.2727	0.	165.88
17809	16.948	5.2727	5.e-002	23.897
17810	16.857	5.2727	0.	166.36
17811	16.948	5.5455	0.	112.36
17812	17.038	5.4545	0.	103.81
17813	16.948	5.4545	5.e-002	20.953
17814	16.857	5.4545	0.	106.86
17815	16.948	5.7273	0.	60.144
17816	17.038	5.6364	0.	54.87
17817	16.948	5.6364	5.e-002	19.386
17818	16.857	5.6364	0.	55.496
17819	17.038	5.8182	0.	33.559
17820	16.948	5.8182	5.e-002	21.307
17821	16.948	5.9091	0.	15.981
17822	16.857	5.8182	0.	18.121
17823	17.128	0.27273	0.	34.92
17824	17.219	0.18182	0.	31.09
17825	17.128	0.18182	5.e-002	18.434
17826	17.128	9.0909e-002	0.	13.358
17827	17.128	0.45455	0.	56.987
17828	17.219	0.36364	0.	34.514
17829	17.128	0.36364	5.e-002	15.725
17830	17.128	0.63636	0.	99.129
17831	17.219	0.54545	0.	59.54
17832	17.128	0.54545	5.e-002	15.941
17833	17.128	0.81818	0.	151.92
17834	17.219	0.72727	0.	96.997
17835	17.128	0.72727	5.e-002	16.976
17836	17.128	1.	0.	211.47
17837	17.219	0.90909	0.	141.36
17838	17.128	0.90909	5.e-002	18.778
17839	17.128	1.1818	0.	275.18
17840	17.219	1.0909	0.	188.52
17841	17.128	1.0909	5.e-002	21.49
17842	17.128	1.3636	0.	335.41
17843	17.219	1.2727	0.	233.61
17844	17.128	1.2727	5.e-002	24.897
17845	17.128	1.5455	0.	372.16
17846	17.219	1.4545	0.	265.12
17847	17.128	1.4545	5.e-002	31.35
17848	17.128	1.7273	0.	353.53
17849	17.219	1.6364	0.	261.65
17850	17.128	1.6364	5.e-002	33.883
17851	17.128	1.9091	0.	231.19
17852	17.219	1.8182	0.	199.35
17853	17.128	1.8182	5.e-002	51.601
17854	17.128	2.0909	0.	109.93
17855	17.219	2.	0.	70.098
17856	17.128	2.	5.e-002	49.459
17857	17.128	2.2727	0.	100.98
17858	17.219	2.1818	0.	29.031
17859	17.128	2.1818	5.e-002	72.2
17860	17.128	2.4545	0.	140.25
17861	17.219	2.3636	0.	60.228
17862	17.128	2.3636	5.e-002	53.792
17863	17.128	2.6364	0.	170.97
17864	17.219	2.5455	0.	96.849
17865	17.128	2.5455	5.e-002	39.852
17866	17.128	2.8182	0.	184.43
17867	17.219	2.7273	0.	118.11
17868	17.128	2.7273	5.e-002	28.996
17869	17.128	3.	0.	188.5
17870	17.219	2.9091	0.	128.1
17871	17.128	2.9091	5.e-002	24.299
17872	17.128	3.1818	0.	184.43
17873	17.219	3.0909	0.	128.1
17874	17.128	3.0909	5.e-002	24.299
17875	17.128	3.3636	0.	170.97
17876	17.219	3.2727	0.	118.11
17877	17.128	3.2727	5.e-002	28.996
17878	17.128	3.5455	0.	140.25
17879	17.219	3.4545	0.	96.849
17880	17.128	3.4545	5.e-002	39.852
17881	17.128	3.7273	0.	100.98
17882	17.219	3.6364	0.	60.228
17883	17.128	3.6364	5.e-002	53.792
17884	17.128	3.9091	0.	109.93
17885	17.219	3.8182	0.	29.031
17886	17.128	3.8182	5.e-002	72.2
17887	17.128	4.0909	0.	231.19
17888	17.219	4.	0.	70.099
17889	17.128	4.	5.e-002	49.459
17890	17.128	4.2727	0.	353.53
17891	17.219	4.1818	0.	199.35
17892	17.128	4.1818	5.e-002	51.601
17893	17.128	4.4545	0.	372.16
17894	17.219	4.3636	0.	261.66
17895	17.128	4.3636	5.e-002	33.883
17896	17.128	4.6364	0.	335.41
17897	17.219	4.5455	0.	265.12
17898	17.128	4.5455	5.e-002	31.35
17899	17.128	4.8182	0.	275.18
17900	17.219	4.7273	0.	233.61
17901	17.128	4.7273	5.e-002	24.897
17902	17.128	5.	0.	211.47
17903	17.219	4.9091	0.	188.52
17904	17.128	4.9091	5.e-002	21.49
17905	17.128	5.1818	0.	151.92
17906	17.219	5.0909	0.	141.36
17907	17.128	5.0909	5.e-002	18.778
17908	17.128	5.3636	0.	99.129
17909	17.219	5.2727	0.	96.997
17910	17.128	5.2727	5.e-002	16.976
17911	17.128	5.5455	0.	56.987
17912	17.219	5.4545	0.	59.54
17913	17.128	5.4545	5.e-002	15.941
17914	17.128	5.7273	0.	34.92
17915	17.219	5.6364	0.	34.514
17916	17.128	5.6364	5.e-002	15.725
17917	17.219	5.8182	0.	31.09
17918	17.128	5.8182	5.e-002	18.434
17919	17.128	5.9091	0.	13.358
17920	17.309	0.27273	0.	32.58
17921	17.4	0.18182	0.	32.659
17922	17.309	0.18182	5.e-002	16.753
17923	17.309	9.0909e-002	0.	16.27
17924	17.309	0.45455	0.	41.735
17925	17.4	0.36364	0.	32.082
17926	17.309	0.36364	5.e-002	13.897
17927	17.309	0.63636	0.	64.704
17928	17.4	0.54545	0.	44.176
17929	17.309	0.54545	5.e-002	13.988
17930	17.309	0.81818	0.	95.314
17931	17.4	0.72727	0.	63.856
17932	17.309	0.72727	5.e-002	14.575
17933	17.309	1.	0.	128.51
17934	17.4	0.90909	0.	87.129
17935	17.309	0.90909	5.e-002	15.508
17936	17.309	1.1818	0.	158.27
17937	17.4	1.0909	0.	109.2
17938	17.309	1.0909	5.e-002	16.729
17939	17.309	1.3636	0.	175.64
17940	17.4	1.2727	0.	123.54
17941	17.309	1.2727	5.e-002	18.159
17942	17.309	1.5455	0.	165.62
17943	17.4	1.4545	0.	121.32
17944	17.309	1.4545	5.e-002	19.168
17945	17.309	1.7273	0.	114.97
17946	17.4	1.6364	0.	90.428
17947	17.309	1.6364	5.e-002	20.743
17948	17.309	1.9091	0.	40.42
17949	17.4	1.8182	0.	31.536
17950	17.309	1.8182	5.e-002	25.361
17951	17.309	2.0909	0.	-2.7963
17952	17.4	2.	0.	0.26473
17953	17.309	2.	5.e-002	32.609
17954	17.309	2.2727	0.	1.317
17955	17.4	2.1818	0.	-0.3134
17956	17.309	2.1818	5.e-002	37.096
17957	17.309	2.4545	0.	12.647
17958	17.4	2.3636	0.	2.5592
17959	17.309	2.3636	5.e-002	39.178
17960	17.309	2.6364	0.	37.79
17961	17.4	2.5455	0.	2.6962
17962	17.309	2.5455	5.e-002	33.758
17963	17.309	2.8182	0.	56.548
17964	17.4	2.7273	0.	6.2485
17965	17.309	2.7273	5.e-002	29.124
17966	17.309	3.	0.	62.837
17967	17.4	2.9091	0.	14.77
17968	17.309	2.9091	5.e-002	26.364
17969	17.309	3.1818	0.	56.548
17970	17.4	3.0909	0.	14.77
17971	17.309	3.0909	5.e-002	26.364
17972	17.309	3.3636	0.	37.79
17973	17.4	3.2727	0.	6.2485
17974	17.309	3.2727	5.e-002	29.124
17975	17.309	3.5455	0.	12.647
17976	17.4	3.4545	0.	2.6962
17977	17.309	3.4545	5.e-002	33.758
17978	17.309	3.7273	0.	1.317
17979	17.4	3.6364	0.	2.5592
17980	17.309	3.6364	5.e-002	39.178
17981	17.309	3.9091	0.	-2.7963
17982	17.4	3.8182	0.	-0.31341
17983	17.309	3.8182	5.e-002	37.096
17984	17.309	4.0909	0.	40.42
17985	17.4	4.	0.	0.26475
17986	17.309	4.	5.e-002	32.609
17987	17.309	4.2727	0.	114.97
17988	17.4	4.1818	0.	31.536
17989	17.309	4.1818	5.e-002	25.361
17990	17.309	4.4545	0.	165.62
17991	17.4	4.3636	0.	90.429
17992	17.309	4.3636	5.e-002	20.743
17993	17.309	4.6364	0.	175.64
17994	17.4	4.5455	0.	121.32
17995	17.309	4.5455	5.e-002	19.168
17996	17.309	4.8182	0.	158.27
17997	17.4	4.7273	0.	123.54
17998	17.309	4.7273	5.e-002	18.159
17999	17.309	5.	0.	128.51
18000	17.4	4.9091	0.	109.2
18001	17.309	4.9091	5.e-002	16.729
18002	17.309	5.1818	0.	95.314
18003	17.4	5.0909	0.	87.13
18004	17.309	5.0909	5.e-002	15.508
18005	17.309	5.3636	0.	64.704
18006	17.4	5.2727	0.	63.856
18007	17.309	5.2727	5.e-002	14.575
18008	17.309	5.5455	0.	41.735
18009	17.4	5.4545	0.	44.176
18010	17.309	5.4545	5.e-002	13.988
18011	17.309	5.7273	0.	32.58
18012	17.4	5.6364	0.	32.082
18013	17.309	5.6364	5.e-002	13.897
18014	17.4	5.8182	0.	32.659
18015	17.309	5.8182	5.e-002	16.753
18016	17.309	5.9091	0.	16.27
18017	17.49	0.27273	0.	33.086
18018	17.58	0.18182	0.	32.981
18019	17.49	0.18182	5.e-002	14.831
18020	17.49	9.0909e-002	0.	18.137
18021	17.49	0.45455	0.	36.717
18022	17.58	0.36364	0.	32.205
18023	17.49	0.36364	5.e-002	11.779
18024	17.49	0.63636	0.	47.377
18025	17.58	0.54545	0.	37.26
18026	17.49	0.54545	5.e-002	11.759
18027	17.49	0.81818	0.	61.302
18028	17.58	0.72727	0.	45.
18029	17.49	0.72727	5.e-002	12.022
18030	17.49	1.	0.	74.573
18031	17.58	0.90909	0.	52.998
18032	17.49	0.90909	5.e-002	12.382
18033	17.49	1.1818	0.	81.88
18034	17.58	1.0909	0.	57.541
18035	17.49	1.0909	5.e-002	12.782
18036	17.49	1.3636	0.	76.643
18037	17.58	1.2727	0.	53.828
18038	17.49	1.2727	5.e-002	13.171
18039	17.49	1.5455	0.	52.932
18040	17.58	1.4545	0.	37.159
18041	17.49	1.4545	5.e-002	13.921
18042	17.49	1.7273	0.	15.515
18043	17.58	1.6364	0.	11.362
18044	17.49	1.6364	5.e-002	15.78
18045	17.49	1.9091	0.	2.99
18046	17.58	1.8182	0.	2.4013
18047	17.49	1.8182	5.e-002	18.632
18048	17.49	2.0909	0.	2.0619
18049	17.58	2.	0.	1.3832
18050	17.49	2.	5.e-002	22.446
18051	17.49	2.2727	0.	1.3097
18052	17.58	2.1818	0.	1.0851
18053	17.49	2.1818	5.e-002	26.108
18054	17.49	2.4545	0.	0.90393
18055	17.58	2.3636	0.	0.63006
18056	17.49	2.3636	5.e-002	28.028
18057	17.49	2.6364	0.	0.99467
18058	17.58	2.5455	0.	0.80199
18059	17.49	2.5455	5.e-002	27.755
18060	17.49	2.8182	0.	0.75563
18061	17.58	2.7273	0.	0.70664
18062	17.49	2.7273	5.e-002	26.33
18063	17.49	3.	0.	0.59885
18064	17.58	2.9091	0.	0.60106
18065	17.49	2.9091	5.e-002	25.282
18066	17.49	3.1818	0.	0.75563
18067	17.58	3.0909	0.	0.60106
18068	17.49	3.0909	5.e-002	25.282
18069	17.49	3.3636	0.	0.99466
18070	17.58	3.2727	0.	0.70664
18071	17.49	3.2727	5.e-002	26.33
18072	17.49	3.5455	0.	0.90392
18073	17.58	3.4545	0.	0.80199
18074	17.49	3.4545	5.e-002	27.755
18075	17.49	3.7273	0.	1.3097
18076	17.58	3.6364	0.	0.63005
18077	17.49	3.6364	5.e-002	28.028
18078	17.49	3.9091	0.	2.0619
18079	17.58	3.8182	0.	1.0851
18080	17.49	3.8182	5.e-002	26.108
18081	17.49	4.0909	0.	2.99
18082	17.58	4.	0.	1.3832
18083	17.49	4.	5.e-002	22.446
18084	17.49	4.2727	0.	15.516
18085	17.58	4.1818	0.	2.4013
18086	17.49	4.1818	5.e-002	18.632
18087	17.49	4.4545	0.	52.932
18088	17.58	4.3636	0.	11.362
18089	17.49	4.3636	5.e-002	15.78
18090	17.49	4.6364	0.	76.643
18091	17.58	4.5455	0.	37.159
18092	17.49	4.5455	5.e-002	13.921
18093	17.49	4.8182	0.	81.881
18094	17.58	4.7273	0.	53.828
18095	17.49	4.7273	5.e-002	13.171
18096	17.49	5.	0.	74.573
18097	17.58	4.9091	0.	57.541
18098	17.49	4.9091	5.e-002	12.782
18099	17.49	5.1818	0.	61.302
18100	17.58	5.0909	0.	52.998
18101	17.49	5.0909	5.e-002	12.382
18102	17.49	5.3636	0.	47.377
18103	17.58	5.2727	0.	45.
18104	17.49	5.2727	5.e-002	12.022
18105	17.49	5.5455	0.	36.717
18106	17.58	5.4545	0.	37.26
18107	17.49	5.4545	5.e-002	11.759
18108	17.49	5.7273	0.	33.086
18109	17.58	5.6364	0.	32.205
18110	17.49	5.6364	5.e-002	11.779
18111	17.58	5.8182	0.	32.981
18112	17.49	5.8182	5.e-002	14.831
18113	17.49	5.9091	0.	18.137
18114	17.671	0.27273	0.	32.707
18115	17.761	0.18182	0.	31.744
18116	17.671	0.18182	5.e-002	12.757
18117	17.671	9.0909e-002	0.	18.46
18118	17.671	0.45455	0.	33.936
18119	17.761	0.36364	0.	31.626
18120	17.671	0.36364	5.e-002	9.61
18121	17.671	0.63636	0.	37.148
18122	17.761	0.54545	0.	32.763
18123	17.671	0.54545	5.e-002	9.4879
18124	17.671	0.81818	0.	40.037
18125	17.761	0.72727	0.	33.063
18126	17.671	0.72727	5.e-002	9.5609
18127	17.671	1.	0.	40.16
18128	17.761	0.90909	0.	31.282
18129	17.671	0.90909	5.e-002	9.6502
18130	17.671	1.1818	0.	34.257
18131	17.761	1.0909	0.	25.353
18132	17.671	1.0909	5.e-002	9.7757
18133	17.671	1.3636	0.	19.947
18134	17.761	1.2727	0.	14.02
18135	17.671	1.2727	5.e-002	10.093
18136	17.671	1.5455	0.	5.4331
18137	17.761	1.4545	0.	4.3457
18138	17.671	1.4545	5.e-002	10.906
18139	17.671	1.7273	0.	1.6908
18140	17.761	1.6364	0.	1.6442
18141	17.671	1.6364	5.e-002	12.56
18142	17.671	1.9091	0.	0.6398
18143	17.761	1.8182	0.	0.82354
18144	17.671	1.8182	5.e-002	14.951
18145	17.671	2.0909	0.	0.23449
18146	17.761	2.	0.	0.40385
18147	17.671	2.	5.e-002	17.522
18148	17.671	2.2727	0.	0.36504
18149	17.761	2.1818	0.	0.31357
18150	17.671	2.1818	5.e-002	19.942
18151	17.671	2.4545	0.	0.58847
18152	17.761	2.3636	0.	0.46994
18153	17.671	2.3636	5.e-002	21.833
18154	17.671	2.6364	0.	0.61737
18155	17.761	2.5455	0.	0.52578
18156	17.671	2.5455	5.e-002	22.756
18157	17.671	2.8182	0.	0.59503
18158	17.761	2.7273	0.	0.53942
18159	17.671	2.7273	5.e-002	22.861
18160	17.671	3.	0.	0.58257
18161	17.761	2.9091	0.	0.5377
18162	17.671	2.9091	5.e-002	22.723
18163	17.671	3.1818	0.	0.59503
18164	17.761	3.0909	0.	0.5377
18165	17.671	3.0909	5.e-002	22.723
18166	17.671	3.3636	0.	0.61737
18167	17.761	3.2727	0.	0.53942
18168	17.671	3.2727	5.e-002	22.861
18169	17.671	3.5455	0.	0.58846
18170	17.761	3.4545	0.	0.52578
18171	17.671	3.4545	5.e-002	22.756
18172	17.671	3.7273	0.	0.36504
18173	17.761	3.6364	0.	0.46994
18174	17.671	3.6364	5.e-002	21.833
18175	17.671	3.9091	0.	0.2345
18176	17.761	3.8182	0.	0.31357
18177	17.671	3.8182	5.e-002	19.942
18178	17.671	4.0909	0.	0.6398
18179	17.761	4.	0.	0.40385
18180	17.671	4.	5.e-002	17.522
18181	17.671	4.2727	0.	1.6908
18182	17.761	4.1818	0.	0.82354
18183	17.671	4.1818	5.e-002	14.951
18184	17.671	4.4545	0.	5.4332
18185	17.761	4.3636	0.	1.6442
18186	17.671	4.3636	5.e-002	12.56
18187	17.671	4.6364	0.	19.947
18188	17.761	4.5455	0.	4.3457
18189	17.671	4.5455	5.e-002	10.906
18190	17.671	4.8182	0.	34.257
18191	17.761	4.7273	0.	14.02
18192	17.671	4.7273	5.e-002	10.093
18193	17.671	5.	0.	40.161
18194	17.761	4.9091	0.	25.353
18195	17.671	4.9091	5.e-002	9.7757
18196	17.671	5.1818	0.	40.037
18197	17.761	5.0909	0.	31.283
18198	17.671	5.0909	5.e-002	9.6502
18199	17.671	5.3636	0.	37.148
18200	17.761	5.2727	0.	33.063
18201	17.671	5.2727	5.e-002	9.5609
18202	17.671	5.5455	0.	33.936
18203	17.761	5.4545	0.	32.763
18204	17.671	5.4545	5.e-002	9.4879
18205	17.671	5.7273	0.	32.707
18206	17.761	5.6364	0.	31.626
18207	17.671	5.6364	5.e-002	9.61
18208	17.761	5.8182	0.	31.744
18209	17.671	5.8182	5.e-002	12.757
18210	17.671	5.9091	0.	18.46
18211	17.852	0.27273	0.	31.093
18212	17.942	0.18182	0.	29.464
18213	17.852	0.18182	5.e-002	10.676
18214	17.852	9.0909e-002	0.	17.768
18215	17.852	0.45455	0.	31.155
18216	17.942	0.36364	0.	29.851
18217	17.852	0.36364	5.e-002	7.5306
18218	17.852	0.63636	0.	29.966
18219	17.942	0.54545	0.	28.731
18220	17.852	0.54545	5.e-002	7.359
18221	17.852	0.81818	0.	26.213
18222	17.942	0.72727	0.	24.637
18223	17.852	0.72727	5.e-002	7.3756
18224	17.852	1.	0.	18.969
18225	17.942	0.90909	0.	17.367
18226	17.852	0.90909	5.e-002	7.4325
18227	17.852	1.1818	0.	8.7809
18228	17.942	1.0909	0.	7.8545
18229	17.852	1.0909	5.e-002	7.6154
18230	17.852	1.3636	0.	2.917
18231	17.942	1.2727	0.	2.6235
18232	17.852	1.2727	5.e-002	8.1044
18233	17.852	1.5455	0.	1.3625
18234	17.942	1.4545	0.	1.2691
18235	17.852	1.4545	5.e-002	9.0991
18236	17.852	1.7273	0.	0.78317
18237	17.942	1.6364	0.	0.75921
18238	17.852	1.6364	5.e-002	10.614
18239	17.852	1.9091	0.	0.52693
18240	17.942	1.8182	0.	0.49562
18241	17.852	1.8182	5.e-002	12.448
18242	17.852	2.0909	0.	0.43298
18243	17.942	2.	0.	0.37799
18244	17.852	2.	5.e-002	14.368
18245	17.852	2.2727	0.	0.39422
18246	17.942	2.1818	0.	0.33761
18247	17.852	2.1818	5.e-002	16.227
18248	17.852	2.4545	0.	0.40717
18249	17.942	2.3636	0.	0.33787
18250	17.852	2.3636	5.e-002	17.826
18251	17.852	2.6364	0.	0.45645
18252	17.942	2.5455	0.	0.38381
18253	17.852	2.5455	5.e-002	18.954
18254	17.852	2.8182	0.	0.48532
18255	17.942	2.7273	0.	0.42436
18256	17.852	2.7273	5.e-002	19.561
18257	17.852	3.	0.	0.49128
18258	17.942	2.9091	0.	0.44103
18259	17.852	2.9091	5.e-002	19.792
18260	17.852	3.1818	0.	0.48532
18261	17.942	3.0909	0.	0.44103
18262	17.852	3.0909	5.e-002	19.792
18263	17.852	3.3636	0.	0.45645
18264	17.942	3.2727	0.	0.42436
18265	17.852	3.2727	5.e-002	19.561
18266	17.852	3.5455	0.	0.40717
18267	17.942	3.4545	0.	0.38381
18268	17.852	3.4545	5.e-002	18.954
18269	17.852	3.7273	0.	0.39422
18270	17.942	3.6364	0.	0.33787
18271	17.852	3.6364	5.e-002	17.826
18272	17.852	3.9091	0.	0.43298
18273	17.942	3.8182	0.	0.33761
18274	17.852	3.8182	5.e-002	16.227
18275	17.852	4.0909	0.	0.52693
18276	17.942	4.	0.	0.37799
18277	17.852	4.	5.e-002	14.368
18278	17.852	4.2727	0.	0.78317
18279	17.942	4.1818	0.	0.49562
18280	17.852	4.1818	5.e-002	12.448
18281	17.852	4.4545	0.	1.3625
18282	17.942	4.3636	0.	0.75921
18283	17.852	4.3636	5.e-002	10.614
18284	17.852	4.6364	0.	2.917
18285	17.942	4.5455	0.	1.2691
18286	17.852	4.5455	5.e-002	9.0991
18287	17.852	4.8182	0.	8.781
18288	17.942	4.7273	0.	2.6235
18289	17.852	4.7273	5.e-002	8.1044
18290	17.852	5.	0.	18.969
18291	17.942	4.9091	0.	7.8546
18292	17.852	4.9091	5.e-002	7.6154
18293	17.852	5.1818	0.	26.214
18294	17.942	5.0909	0.	17.367
18295	17.852	5.0909	5.e-002	7.4325
18296	17.852	5.3636	0.	29.966
18297	17.942	5.2727	0.	24.637
18298	17.852	5.2727	5.e-002	7.3756
18299	17.852	5.5455	0.	31.155
18300	17.942	5.4545	0.	28.731
18301	17.852	5.4545	5.e-002	7.359
18302	17.852	5.7273	0.	31.093
18303	17.942	5.6364	0.	29.851
18304	17.852	5.6364	5.e-002	7.5306
18305	17.942	5.8182	0.	29.464
18306	17.852	5.8182	5.e-002	10.676
18307	17.852	5.9091	0.	17.768
18308	18.033	0.27273	0.	28.52
18309	18.123	0.18182	0.	26.623
18310	18.033	0.18182	5.e-002	8.6994
18311	18.033	9.0909e-002	0.	16.474
18312	18.033	0.45455	0.	27.857
18313	18.123	0.36364	0.	27.123
18314	18.033	0.36364	5.e-002	5.635
18315	18.033	0.63636	0.	24.12
18316	18.123	0.54545	0.	24.639
18317	18.033	0.54545	5.e-002	5.4802
18318	18.033	0.81818	0.	16.736
18319	18.123	0.72727	0.	18.114
18320	18.033	0.72727	5.e-002	5.5512
18321	18.033	1.	0.	7.0945
18322	18.123	0.90909	0.	8.5402
18323	18.033	0.90909	5.e-002	5.7272
18324	18.033	1.1818	0.	2.1976
18325	18.123	1.0909	0.	2.3361
18326	18.033	1.0909	5.e-002	6.1024
18327	18.033	1.3636	0.	1.0812
18328	18.123	1.2727	0.	1.0605
18329	18.033	1.2727	5.e-002	6.7934
18330	18.033	1.5455	0.	0.66547
18331	18.123	1.4545	0.	0.65296
18332	18.033	1.4545	5.e-002	7.8491
18333	18.033	1.7273	0.	0.44779
18334	18.123	1.6364	0.	0.44915
18335	18.033	1.6364	5.e-002	9.1986
18336	18.033	1.9091	0.	0.31991
18337	18.123	1.8182	0.	0.32822
18338	18.033	1.8182	5.e-002	10.694
18339	18.033	2.0909	0.	0.26103
18340	18.123	2.	0.	0.25793
18341	18.033	2.	5.e-002	12.214
18342	18.033	2.2727	0.	0.2686
18343	18.123	2.1818	0.	0.23864
18344	18.033	2.1818	5.e-002	13.677
18345	18.033	2.4545	0.	0.31038
18346	18.123	2.3636	0.	0.26097
18347	18.033	2.3636	5.e-002	14.989
18348	18.033	2.6364	0.	0.35201
18349	18.123	2.5455	0.	0.29643
18350	18.033	2.5455	5.e-002	16.024
18351	18.033	2.8182	0.	0.38077
18352	18.123	2.7273	0.	0.32829
18353	18.033	2.7273	5.e-002	16.705
18354	18.033	3.	0.	0.39097
18355	18.123	2.9091	0.	0.34657
18356	18.033	2.9091	5.e-002	17.031
18357	18.033	3.1818	0.	0.38077
18358	18.123	3.0909	0.	0.34657
18359	18.033	3.0909	5.e-002	17.031
18360	18.033	3.3636	0.	0.35201
18361	18.123	3.2727	0.	0.32829
18362	18.033	3.2727	5.e-002	16.705
18363	18.033	3.5455	0.	0.31038
18364	18.123	3.4545	0.	0.29642
18365	18.033	3.4545	5.e-002	16.024
18366	18.033	3.7273	0.	0.2686
18367	18.123	3.6364	0.	0.26097
18368	18.033	3.6364	5.e-002	14.989
18369	18.033	3.9091	0.	0.26103
18370	18.123	3.8182	0.	0.23864
18371	18.033	3.8182	5.e-002	13.677
18372	18.033	4.0909	0.	0.31991
18373	18.123	4.	0.	0.25793
18374	18.033	4.	5.e-002	12.214
18375	18.033	4.2727	0.	0.44779
18376	18.123	4.1818	0.	0.32823
18377	18.033	4.1818	5.e-002	10.694
18378	18.033	4.4545	0.	0.66547
18379	18.123	4.3636	0.	0.44915
18380	18.033	4.3636	5.e-002	9.1986
18381	18.033	4.6364	0.	1.0812
18382	18.123	4.5455	0.	0.65297
18383	18.033	4.5455	5.e-002	7.8491
18384	18.033	4.8182	0.	2.1976
18385	18.123	4.7273	0.	1.0605
18386	18.033	4.7273	5.e-002	6.7934
18387	18.033	5.	0.	7.0946
18388	18.123	4.9091	0.	2.3361
18389	18.033	4.9091	5.e-002	6.1024
18390	18.033	5.1818	0.	16.736
18391	18.123	5.0909	0.	8.5404
18392	18.033	5.0909	5.e-002	5.7272
18393	18.033	5.3636	0.	24.12
18394	18.123	5.2727	0.	18.115
18395	18.033	5.2727	5.e-002	5.5512
18396	18.033	5.5455	0.	27.858
18397	18.123	5.4545	0.	24.639
18398	18.033	5.4545	5.e-002	5.4802
18399	18.033	5.7273	0.	28.52
18400	18.123	5.6364	0.	27.123
18401	18.033	5.6364	5.e-002	5.635
18402	18.123	5.8182	0.	26.623
18403	18.033	5.8182	5.e-002	8.6994
18404	18.033	5.9091	0.	16.474
18405	18.213	0.27273	0.	25.419
18406	18.304	0.18182	0.	23.61
18407	18.213	0.18182	5.e-002	6.9033
18408	18.213	9.0909e-002	0.	14.905
18409	18.213	0.45455	0.	24.166
18410	18.304	0.36364	0.	23.859
18411	18.213	0.36364	5.e-002	3.974
18412	18.213	0.63636	0.	19.
18413	18.304	0.54545	0.	20.511
18414	18.213	0.54545	5.e-002	3.903
18415	18.213	0.81818	0.	9.9816
18416	18.304	0.72727	0.	12.797
18417	18.213	0.72727	5.e-002	4.1154
18418	18.213	1.	0.	2.4688
18419	18.304	0.90909	0.	3.594
18420	18.213	0.90909	5.e-002	4.4895
18421	18.213	1.1818	0.	0.98614
18422	18.304	1.0909	0.	1.0589
18423	18.213	1.0909	5.e-002	5.0755
18424	18.213	1.3636	0.	0.59828
18425	18.304	1.2727	0.	0.59706
18426	18.213	1.2727	5.e-002	5.9047
18427	18.213	1.5455	0.	0.4187
18428	18.304	1.4545	0.	0.41276
18429	18.213	1.4545	5.e-002	6.9518
18430	18.213	1.7273	0.	0.3139
18431	18.304	1.6364	0.	0.30974
18432	18.213	1.6364	5.e-002	8.141
18433	18.213	1.9091	0.	0.2522
18434	18.304	1.8182	0.	0.24518
18435	18.213	1.8182	5.e-002	9.3848
18436	18.213	2.0909	0.	0.2243
18437	18.304	2.	0.	0.20945
18438	18.213	2.	5.e-002	10.618
18439	18.213	2.2727	0.	0.22359
18440	18.304	2.1818	0.	0.19859
18441	18.213	2.1818	5.e-002	11.793
18442	18.213	2.4545	0.	0.2433
18443	18.304	2.3636	0.	0.20807
18444	18.213	2.3636	5.e-002	12.853
18445	18.213	2.6364	0.	0.27142
18446	18.304	2.5455	0.	0.23032
18447	18.213	2.5455	5.e-002	13.722
18448	18.213	2.8182	0.	0.29375
18449	18.304	2.7273	0.	0.25306
18450	18.213	2.7273	5.e-002	14.329
18451	18.213	3.	0.	0.30198
18452	18.304	2.9091	0.	0.26668
18453	18.213	2.9091	5.e-002	14.638
18454	18.213	3.1818	0.	0.29375
18455	18.304	3.0909	0.	0.26668
18456	18.213	3.0909	5.e-002	14.638
18457	18.213	3.3636	0.	0.27142
18458	18.304	3.2727	0.	0.25306
18459	18.213	3.2727	5.e-002	14.329
18460	18.213	3.5455	0.	0.2433
18461	18.304	3.4545	0.	0.23032
18462	18.213	3.4545	5.e-002	13.722
18463	18.213	3.7273	0.	0.22359
18464	18.304	3.6364	0.	0.20807
18465	18.213	3.6364	5.e-002	12.853
18466	18.213	3.9091	0.	0.2243
18467	18.304	3.8182	0.	0.19859
18468	18.213	3.8182	5.e-002	11.793
18469	18.213	4.0909	0.	0.2522
18470	18.304	4.	0.	0.20945
18471	18.213	4.	5.e-002	10.618
18472	18.213	4.2727	0.	0.3139
18473	18.304	4.1818	0.	0.24518
18474	18.213	4.1818	5.e-002	9.3848
18475	18.213	4.4545	0.	0.4187
18476	18.304	4.3636	0.	0.30974
18477	18.213	4.3636	5.e-002	8.141
18478	18.213	4.6364	0.	0.59828
18479	18.304	4.5455	0.	0.41276
18480	18.213	4.5455	5.e-002	6.9517
18481	18.213	4.8182	0.	0.98615
18482	18.304	4.7273	0.	0.59706
18483	18.213	4.7273	5.e-002	5.9047
18484	18.213	5.	0.	2.4689
18485	18.304	4.9091	0.	1.0589
18486	18.213	4.9091	5.e-002	5.0755
18487	18.213	5.1818	0.	9.9817
18488	18.304	5.0909	0.	3.5941
18489	18.213	5.0909	5.e-002	4.4895
18490	18.213	5.3636	0.	19.001
18491	18.304	5.2727	0.	12.797
18492	18.213	5.2727	5.e-002	4.1154
18493	18.213	5.5455	0.	24.166
18494	18.304	5.4545	0.	20.512
18495	18.213	5.4545	5.e-002	3.903
18496	18.213	5.7273	0.	25.419
18497	18.304	5.6364	0.	23.859
18498	18.213	5.6364	5.e-002	3.974
18499	18.304	5.8182	0.	23.61
18500	18.213	5.8182	5.e-002	6.9033
18501	18.213	5.9091	0.	14.905
18502	18.394	0.27273	0.	22.161
18503	18.485	0.18182	0.	20.695
18504	18.394	0.18182	5.e-002	5.3247
18505	18.394	9.0909e-002	0.	13.284
18506	18.394	0.45455	0.	20.354
18507	18.485	0.36364	0.	20.44
18508	18.394	0.36364	5.e-002	2.5722
18509	18.394	0.63636	0.	14.439
18510	18.485	0.54545	0.	16.524
18511	18.394	0.54545	5.e-002	2.6654
18512	18.394	0.81818	0.	5.2149
18513	18.485	0.72727	0.	8.4072
18514	18.394	0.72727	5.e-002	3.0868
18515	18.394	1.	0.	1.1201
18516	18.485	0.90909	0.	1.5349
18517	18.394	0.90909	5.e-002	3.6732
18518	18.394	1.1818	0.	0.56934
18519	18.485	1.0909	0.	0.6023
18520	18.394	1.0909	5.e-002	4.4162
18521	18.394	1.3636	0.	0.38605
18522	18.485	1.2727	0.	0.38585
18523	18.394	1.2727	5.e-002	5.2998
18524	18.394	1.5455	0.	0.29051
18525	18.485	1.4545	0.	0.28674
18526	18.394	1.4545	5.e-002	6.2874
18527	18.394	1.7273	0.	0.23101
18528	18.485	1.6364	0.	0.22743
18529	18.394	1.6364	5.e-002	7.3281
18530	18.394	1.9091	0.	0.19412
18531	18.485	1.8182	0.	0.189
18532	18.394	1.8182	5.e-002	8.373
18533	18.394	2.0909	0.	0.17712
18534	18.485	2.	0.	0.16685
18535	18.394	2.	5.e-002	9.3855
18536	18.394	2.2727	0.	0.17834
18537	18.485	2.1818	0.	0.16027
18538	18.394	2.1818	5.e-002	10.336
18539	18.394	2.4545	0.	0.19219
18540	18.485	2.3636	0.	0.16679
18541	18.394	2.3636	5.e-002	11.187
18542	18.394	2.6364	0.	0.21041
18543	18.485	2.5455	0.	0.18064
18544	18.394	2.5455	5.e-002	11.888
18545	18.394	2.8182	0.	0.22517
18546	18.485	2.7273	0.	0.19503
18547	18.394	2.7273	5.e-002	12.388
18548	18.394	3.	0.	0.23077
18549	18.485	2.9091	0.	0.20395
18550	18.394	2.9091	5.e-002	12.647
18551	18.394	3.1818	0.	0.22517
18552	18.485	3.0909	0.	0.20395
18553	18.394	3.0909	5.e-002	12.647
18554	18.394	3.3636	0.	0.21041
18555	18.485	3.2727	0.	0.19503
18556	18.394	3.2727	5.e-002	12.388
18557	18.394	3.5455	0.	0.19219
18558	18.485	3.4545	0.	0.18064
18559	18.394	3.4545	5.e-002	11.888
18560	18.394	3.7273	0.	0.17834
18561	18.485	3.6364	0.	0.16679
18562	18.394	3.6364	5.e-002	11.187
18563	18.394	3.9091	0.	0.17712
18564	18.485	3.8182	0.	0.16027
18565	18.394	3.8182	5.e-002	10.336
18566	18.394	4.0909	0.	0.19412
18567	18.485	4.	0.	0.16685
18568	18.394	4.	5.e-002	9.3855
18569	18.394	4.2727	0.	0.23102
18570	18.485	4.1818	0.	0.189
18571	18.394	4.1818	5.e-002	8.373
18572	18.394	4.4545	0.	0.29051
18573	18.485	4.3636	0.	0.22743
18574	18.394	4.3636	5.e-002	7.3281
18575	18.394	4.6364	0.	0.38606
18576	18.485	4.5455	0.	0.28674
18577	18.394	4.5455	5.e-002	6.2874
18578	18.394	4.8182	0.	0.56935
18579	18.485	4.7273	0.	0.38585
18580	18.394	4.7273	5.e-002	5.2998
18581	18.394	5.	0.	1.1201
18582	18.485	4.9091	0.	0.6023
18583	18.394	4.9091	5.e-002	4.4162
18584	18.394	5.1818	0.	5.215
18585	18.485	5.0909	0.	1.5349
18586	18.394	5.0909	5.e-002	3.6732
18587	18.394	5.3636	0.	14.439
18588	18.485	5.2727	0.	8.4073
18589	18.394	5.2727	5.e-002	3.0868
18590	18.394	5.5455	0.	20.354
18591	18.485	5.4545	0.	16.524
18592	18.394	5.4545	5.e-002	2.6654
18593	18.394	5.7273	0.	22.161
18594	18.485	5.6364	0.	20.44
18595	18.394	5.6364	5.e-002	2.5722
18596	18.485	5.8182	0.	20.695
18597	18.394	5.8182	5.e-002	5.3247
18598	18.394	5.9091	0.	13.284
18599	18.575	0.27273	0.	19.022
18600	18.665	0.18182	0.	18.045
18601	18.575	0.18182	5.e-002	3.9728
18602	18.575	9.0909e-002	0.	11.755
18603	18.575	0.45455	0.	16.683
18604	18.665	0.36364	0.	17.152
18605	18.575	0.36364	5.e-002	1.4646
18606	18.575	0.63636	0.	10.432
18607	18.665	0.54545	0.	12.856
18608	18.575	0.54545	5.e-002	1.8437
18609	18.575	0.81818	0.	2.3064
18610	18.665	0.72727	0.	4.8822
18611	18.575	0.72727	5.e-002	2.4894
18612	18.575	1.	0.	0.61968
18613	18.665	0.90909	0.	0.77001
18614	18.575	0.90909	5.e-002	3.2243
18615	18.575	1.1818	0.	0.36897
18616	18.665	1.0909	0.	0.38253
18617	18.575	1.0909	5.e-002	4.0309
18618	18.575	1.3636	0.	0.2702
18619	18.665	1.2727	0.	0.26832
18620	18.575	1.2727	5.e-002	4.8943
18621	18.575	1.5455	0.	0.21464
18622	18.665	1.4545	0.	0.21064
18623	18.575	1.4545	5.e-002	5.7912
18624	18.575	1.7273	0.	0.17883
18625	18.665	1.6364	0.	0.17443
18626	18.575	1.6364	5.e-002	6.6929
18627	18.575	1.9091	0.	0.15642
18628	18.665	1.8182	0.	0.15046
18629	18.575	1.8182	5.e-002	7.5722
18630	18.575	2.0909	0.	0.14574
18631	18.665	2.	0.	0.13645
18632	18.575	2.	5.e-002	8.4076
18633	18.575	2.2727	0.	0.1455
18634	18.665	2.1818	0.	0.13166
18635	18.575	2.1818	5.e-002	9.1789
18636	18.575	2.4545	0.	0.15301
18637	18.665	2.3636	0.	0.13466
18638	18.575	2.3636	5.e-002	9.8604
18639	18.575	2.6364	0.	0.16381
18640	18.665	2.5455	0.	0.14249
18641	18.575	2.5455	5.e-002	10.418
18642	18.575	2.8182	0.	0.17284
18643	18.665	2.7273	0.	0.15101
18644	18.575	2.7273	5.e-002	10.816
18645	18.575	3.	0.	0.17631
18646	18.665	2.9091	0.	0.15639
18647	18.575	2.9091	5.e-002	11.023
18648	18.575	3.1818	0.	0.17284
18649	18.665	3.0909	0.	0.15639
18650	18.575	3.0909	5.e-002	11.023
18651	18.575	3.3636	0.	0.16381
18652	18.665	3.2727	0.	0.15101
18653	18.575	3.2727	5.e-002	10.816
18654	18.575	3.5455	0.	0.15301
18655	18.665	3.4545	0.	0.14249
18656	18.575	3.4545	5.e-002	10.418
18657	18.575	3.7273	0.	0.1455
18658	18.665	3.6364	0.	0.13466
18659	18.575	3.6364	5.e-002	9.8604
18660	18.575	3.9091	0.	0.14574
18661	18.665	3.8182	0.	0.13166
18662	18.575	3.8182	5.e-002	9.1789
18663	18.575	4.0909	0.	0.15642
18664	18.665	4.	0.	0.13645
18665	18.575	4.	5.e-002	8.4076
18666	18.575	4.2727	0.	0.17883
18667	18.665	4.1818	0.	0.15046
18668	18.575	4.1818	5.e-002	7.5722
18669	18.575	4.4545	0.	0.21464
18670	18.665	4.3636	0.	0.17443
18671	18.575	4.3636	5.e-002	6.6929
18672	18.575	4.6364	0.	0.2702
18673	18.665	4.5455	0.	0.21064
18674	18.575	4.5455	5.e-002	5.7912
18675	18.575	4.8182	0.	0.36897
18676	18.665	4.7273	0.	0.26832
18677	18.575	4.7273	5.e-002	4.8943
18678	18.575	5.	0.	0.61968
18679	18.665	4.9091	0.	0.38253
18680	18.575	4.9091	5.e-002	4.0309
18681	18.575	5.1818	0.	2.3065
18682	18.665	5.0909	0.	0.77002
18683	18.575	5.0909	5.e-002	3.2243
18684	18.575	5.3636	0.	10.432
18685	18.665	5.2727	0.	4.8823
18686	18.575	5.2727	5.e-002	2.4894
18687	18.575	5.5455	0.	16.683
18688	18.665	5.4545	0.	12.856
18689	18.575	5.4545	5.e-002	1.8437
18690	18.575	5.7273	0.	19.022
18691	18.665	5.6364	0.	17.152
18692	18.575	5.6364	5.e-002	1.4646
18693	18.665	5.8182	0.	18.045
18694	18.575	5.8182	5.e-002	3.9728
18695	18.575	5.9091	0.	11.755
18696	18.756	0.27273	0.	16.177
18697	18.846	0.18182	0.	15.753
18698	18.756	0.18182	5.e-002	2.8388
18699	18.756	9.0909e-002	0.	10.402
18700	18.756	0.45455	0.	13.345
18701	18.846	0.36364	0.	14.183
18702	18.756	0.36364	5.e-002	0.83803
18703	18.756	0.63636	0.	7.0224
18704	18.846	0.54545	0.	9.6401
18705	18.756	0.54545	5.e-002	1.5598
18706	18.756	0.81818	0.	1.009
18707	18.846	0.72727	0.	2.3341
18708	18.756	0.72727	5.e-002	2.3026
18709	18.756	1.	0.	0.38196
18710	18.846	0.90909	0.	0.43965
18711	18.756	0.90909	5.e-002	3.0609
18712	18.756	1.1818	0.	0.255
18713	18.846	1.0909	0.	0.25899
18714	18.756	1.0909	5.e-002	3.8387
18715	18.756	1.3636	0.	0.1983
18716	18.846	1.2727	0.	0.19518
18717	18.756	1.2727	5.e-002	4.6294
18718	18.756	1.5455	0.	0.16432
18719	18.846	1.4545	0.	0.16025
18720	18.756	1.4545	5.e-002	5.4195
18721	18.756	1.7273	0.	0.14161
18722	18.846	1.6364	0.	0.13731
18723	18.756	1.6364	5.e-002	6.1919
18724	18.756	1.9091	0.	0.12693
18725	18.846	1.8182	0.	0.12164
18726	18.756	1.8182	5.e-002	6.9303
18727	18.756	2.0909	0.	0.11948
18728	18.846	2.	0.	0.11207
18729	18.756	2.	5.e-002	7.6203
18730	18.756	2.2727	0.	0.11855
18731	18.846	2.1818	0.	0.10822
18732	18.756	2.1818	5.e-002	8.2473
18733	18.756	2.4545	0.	0.12243
18734	18.846	2.3636	0.	0.10922
18735	18.756	2.3636	5.e-002	8.7933
18736	18.756	2.6364	0.	0.12843
18737	18.846	2.5455	0.	0.11326
18738	18.756	2.5455	5.e-002	9.2352
18739	18.756	2.8182	0.	0.13358
18740	18.846	2.7273	0.	0.11791
18741	18.756	2.7273	5.e-002	9.548
18742	18.756	3.	0.	0.13559
18743	18.846	2.9091	0.	0.12093
18744	18.756	2.9091	5.e-002	9.7104
18745	18.756	3.1818	0.	0.13358
18746	18.846	3.0909	0.	0.12093
18747	18.756	3.0909	5.e-002	9.7104
18748	18.756	3.3636	0.	0.12843
18749	18.846	3.2727	0.	0.11792
18750	18.756	3.2727	5.e-002	9.548
18751	18.756	3.5455	0.	0.12243
18752	18.846	3.4545	0.	0.11325
18753	18.756	3.4545	5.e-002	9.2352
18754	18.756	3.7273	0.	0.11855
18755	18.846	3.6364	0.	0.10922
18756	18.756	3.6364	5.e-002	8.7933
18757	18.756	3.9091	0.	0.11948
18758	18.846	3.8182	0.	0.10822
18759	18.756	3.8182	5.e-002	8.2473
18760	18.756	4.0909	0.	0.12693
18761	18.846	4.	0.	0.11207
18762	18.756	4.	5.e-002	7.6202
18763	18.756	4.2727	0.	0.14161
18764	18.846	4.1818	0.	0.12164
18765	18.756	4.1818	5.e-002	6.9303
18766	18.756	4.4545	0.	0.16432
18767	18.846	4.3636	0.	0.13731
18768	18.756	4.3636	5.e-002	6.1919
18769	18.756	4.6364	0.	0.1983
18770	18.846	4.5455	0.	0.16025
18771	18.756	4.5455	5.e-002	5.4195
18772	18.756	4.8182	0.	0.255
18773	18.846	4.7273	0.	0.19518
18774	18.756	4.7273	5.e-002	4.6294
18775	18.756	5.	0.	0.38196
18776	18.846	4.9091	0.	0.25899
18777	18.756	4.9091	5.e-002	3.8387
18778	18.756	5.1818	0.	1.009
18779	18.846	5.0909	0.	0.43966
18780	18.756	5.0909	5.e-002	3.0609
18781	18.756	5.3636	0.	7.0225
18782	18.846	5.2727	0.	2.3341
18783	18.756	5.2727	5.e-002	2.3026
18784	18.756	5.5455	0.	13.345
18785	18.846	5.4545	0.	9.6401
18786	18.756	5.4545	5.e-002	1.5598
18787	18.756	5.7273	0.	16.177
18788	18.846	5.6364	0.	14.183
18789	18.756	5.6364	5.e-002	0.83803
18790	18.846	5.8182	0.	15.753
18791	18.756	5.8182	5.e-002	2.8388
18792	18.756	5.9091	0.	10.402
18793	18.937	0.27273	0.	13.727
18794	19.027	0.18182	0.	13.858
18795	18.937	0.18182	5.e-002	1.9037
18796	18.937	9.0909e-002	0.	9.2644
18797	18.937	0.45455	0.	10.459
18798	19.027	0.36364	0.	11.64
18799	18.937	0.36364	5.e-002	1.0285
18800	18.937	0.63636	0.	4.2587
18801	19.027	0.54545	0.	6.956
18802	18.937	0.54545	5.e-002	1.742
18803	18.937	0.81818	0.	0.50707
18804	19.027	0.72727	0.	0.95842
18805	18.937	0.72727	5.e-002	2.4016
18806	18.937	1.	0.	0.25168
18807	19.027	0.90909	0.	0.27348
18808	18.937	0.90909	5.e-002	3.0804
18809	18.937	1.1818	0.	0.18384
18810	19.027	1.0909	0.	0.18317
18811	18.937	1.0909	5.e-002	3.7708
18812	18.937	1.3636	0.	0.15034
18813	19.027	1.2727	0.	0.14659
18814	18.937	1.2727	5.e-002	4.4618
18815	18.937	1.5455	0.	0.12905
18816	19.027	1.4545	0.	0.12506
18817	18.937	1.4545	5.e-002	5.1409
18818	18.937	1.7273	0.	0.11425
18819	19.027	1.6364	0.	0.11022
18820	18.937	1.6364	5.e-002	5.7951
18821	18.937	1.9091	0.	0.1043
18822	19.027	1.8182	0.	9.9679e-002
18823	18.937	1.8182	5.e-002	6.4124
18824	18.937	2.0909	0.	9.8777e-002
18825	19.027	2.	0.	9.286e-002
18826	18.937	2.	5.e-002	6.9818
18827	18.937	2.2727	0.	9.7239e-002
18828	19.027	2.1818	0.	8.9548e-002
18829	18.937	2.1818	5.e-002	7.4923
18830	18.937	2.4545	0.	9.8723e-002
18831	19.027	2.3636	0.	8.9242e-002
18832	18.937	2.3636	5.e-002	7.9308
18833	18.937	2.6364	0.	0.10168
18834	19.027	2.5455	0.	9.0919e-002
18835	18.937	2.5455	5.e-002	8.2815
18836	18.937	2.8182	0.	0.10438
18837	19.027	2.7273	0.	9.3185e-002
18838	18.937	2.7273	5.e-002	8.5274
18839	18.937	3.	0.	0.10545
18840	19.027	2.9091	0.	9.4723e-002
18841	18.937	2.9091	5.e-002	8.6545
18842	18.937	3.1818	0.	0.10438
18843	19.027	3.0909	0.	9.4722e-002
18844	18.937	3.0909	5.e-002	8.6545
18845	18.937	3.3636	0.	0.10168
18846	19.027	3.2727	0.	9.3187e-002
18847	18.937	3.2727	5.e-002	8.5274
18848	18.937	3.5455	0.	9.8722e-002
18849	19.027	3.4545	0.	9.0918e-002
18850	18.937	3.4545	5.e-002	8.2814
18851	18.937	3.7273	0.	9.7239e-002
18852	19.027	3.6364	0.	8.9242e-002
18853	18.937	3.6364	5.e-002	7.9308
18854	18.937	3.9091	0.	9.8776e-002
18855	19.027	3.8182	0.	8.9549e-002
18856	18.937	3.8182	5.e-002	7.4924
18857	18.937	4.0909	0.	0.1043
18858	19.027	4.	0.	9.2859e-002
18859	18.937	4.	5.e-002	6.9818
18860	18.937	4.2727	0.	0.11425
18861	19.027	4.1818	0.	9.968e-002
18862	18.937	4.1818	5.e-002	6.4124
18863	18.937	4.4545	0.	0.12906
18864	19.027	4.3636	0.	0.11022
18865	18.937	4.3636	5.e-002	5.7951
18866	18.937	4.6364	0.	0.15034
18867	19.027	4.5455	0.	0.12506
18868	18.937	4.5455	5.e-002	5.1409
18869	18.937	4.8182	0.	0.18384
18870	19.027	4.7273	0.	0.14659
18871	18.937	4.7273	5.e-002	4.4618
18872	18.937	5.	0.	0.25168
18873	19.027	4.9091	0.	0.18317
18874	18.937	4.9091	5.e-002	3.7709
18875	18.937	5.1818	0.	0.50708
18876	19.027	5.0909	0.	0.27348
18877	18.937	5.0909	5.e-002	3.0804
18878	18.937	5.3636	0.	4.2588
18879	19.027	5.2727	0.	0.95843
18880	18.937	5.2727	5.e-002	2.4016
18881	18.937	5.5455	0.	10.459
18882	19.027	5.4545	0.	6.9561
18883	18.937	5.4545	5.e-002	1.742
18884	18.937	5.7273	0.	13.727
18885	19.027	5.6364	0.	11.64
18886	18.937	5.6364	5.e-002	1.0285
18887	19.027	5.8182	0.	13.858
18888	18.937	5.8182	5.e-002	1.9037
18889	18.937	5.9091	0.	9.2644
18890	19.118	0.27273	0.	11.715
18891	19.208	0.18182	0.	12.362
18892	19.118	0.18182	5.e-002	1.1444
18893	19.118	9.0909e-002	0.	8.357
18894	19.118	0.45455	0.	8.0888
18895	19.208	0.36364	0.	9.5728
18896	19.118	0.36364	5.e-002	1.5395
18897	19.118	0.63636	0.	2.1996
18898	19.208	0.54545	0.	4.8381
18899	19.118	0.54545	5.e-002	2.1056
18900	19.118	0.81818	0.	0.289
18901	19.208	0.72727	0.	0.43398
18902	19.118	0.72727	5.e-002	2.6297
18903	19.118	1.	0.	0.17393
18904	19.208	0.90909	0.	0.18088
18905	19.118	0.90909	5.e-002	3.1925
18906	19.118	1.1818	0.	0.13682
18907	19.208	1.0909	0.	0.13402
18908	19.118	1.0909	5.e-002	3.7748
18909	19.118	1.3636	0.	0.11683
18910	19.208	1.2727	0.	0.11293
18911	19.118	1.2727	5.e-002	4.3594
18912	19.118	1.5455	0.	0.10333
18913	19.208	1.4545	0.	9.9605e-002
18914	19.118	1.4545	5.e-002	4.9319
18915	19.118	1.7273	0.	9.347e-002
18916	19.208	1.6364	0.	8.9892e-002
18917	19.118	1.6364	5.e-002	5.4801
18918	19.118	1.9091	0.	8.647e-002
18919	19.208	1.8182	0.	8.2625e-002
18920	19.118	1.8182	5.e-002	5.9935
18921	19.118	2.0909	0.	8.2157e-002
18922	19.208	2.	0.	7.757e-002
18923	19.118	2.	5.e-002	6.4627
18924	19.118	2.2727	0.	8.0316e-002
18925	19.208	2.1818	0.	7.4659e-002
18926	19.118	2.1818	5.e-002	6.8789
18927	19.118	2.4545	0.	8.0406e-002
18928	19.208	2.3636	0.	7.3638e-002
18929	19.118	2.3636	5.e-002	7.2322
18930	19.118	2.6364	0.	8.155e-002
18931	19.208	2.5455	0.	7.3939e-002
18932	19.118	2.5455	5.e-002	7.5116
18933	19.118	2.8182	0.	8.2762e-002
18934	19.208	2.7273	0.	7.4788e-002
18935	19.118	2.7273	5.e-002	7.7059
18936	19.118	3.	0.	8.3264e-002
18937	19.208	2.9091	0.	7.544e-002
18938	19.118	2.9091	5.e-002	7.8057
18939	19.118	3.1818	0.	8.2761e-002
18940	19.208	3.0909	0.	7.544e-002
18941	19.118	3.0909	5.e-002	7.8057
18942	19.118	3.3636	0.	8.155e-002
18943	19.208	3.2727	0.	7.4788e-002
18944	19.118	3.2727	5.e-002	7.7059
18945	19.118	3.5455	0.	8.0406e-002
18946	19.208	3.4545	0.	7.3939e-002
18947	19.118	3.4545	5.e-002	7.5116
18948	19.118	3.7273	0.	8.0316e-002
18949	19.208	3.6364	0.	7.3638e-002
18950	19.118	3.6364	5.e-002	7.2322
18951	19.118	3.9091	0.	8.2156e-002
18952	19.208	3.8182	0.	7.466e-002
18953	19.118	3.8182	5.e-002	6.8789
18954	19.118	4.0909	0.	8.647e-002
18955	19.208	4.	0.	7.7569e-002
18956	19.118	4.	5.e-002	6.4627
18957	19.118	4.2727	0.	9.3471e-002
18958	19.208	4.1818	0.	8.2625e-002
18959	19.118	4.1818	5.e-002	5.9935
18960	19.118	4.4545	0.	0.10333
18961	19.208	4.3636	0.	8.9892e-002
18962	19.118	4.3636	5.e-002	5.4801
18963	19.118	4.6364	0.	0.11683
18964	19.208	4.5455	0.	9.9604e-002
18965	19.118	4.5455	5.e-002	4.9319
18966	19.118	4.8182	0.	0.13682
18967	19.208	4.7273	0.	0.11293
18968	19.118	4.7273	5.e-002	4.3594
18969	19.118	5.	0.	0.17393
18970	19.208	4.9091	0.	0.13403
18971	19.118	4.9091	5.e-002	3.7748
18972	19.118	5.1818	0.	0.289
18973	19.208	5.0909	0.	0.18088
18974	19.118	5.0909	5.e-002	3.1925
18975	19.118	5.3636	0.	2.1997
18976	19.208	5.2727	0.	0.43399
18977	19.118	5.2727	5.e-002	2.6297
18978	19.118	5.5455	0.	8.0888
18979	19.208	5.4545	0.	4.8381
18980	19.118	5.4545	5.e-002	2.1056
18981	19.118	5.7273	0.	11.715
18982	19.208	5.6364	0.	9.5728
18983	19.118	5.6364	5.e-002	1.5395
18984	19.208	5.8182	0.	12.362
18985	19.118	5.8182	5.e-002	1.1444
18986	19.118	5.9091	0.	8.357
18987	19.298	0.27273	0.	10.147
18988	19.389	0.18182	0.	11.248
18989	19.298	0.18182	5.e-002	0.53973
18990	19.298	9.0909e-002	0.	7.6758
18991	19.298	0.45455	0.	6.2506
18992	19.389	0.36364	0.	7.9895
18993	19.298	0.36364	5.e-002	2.0239
18994	19.298	0.63636	0.	0.93706
18995	19.389	0.54545	0.	3.2842
18996	19.298	0.54545	5.e-002	2.4797
18997	19.298	0.81818	0.	0.18014
18998	19.389	0.72727	0.	0.23272
18999	19.298	0.72727	5.e-002	2.8862
19000	19.298	1.	0.	0.12491
19001	19.389	0.90909	0.	0.12557
19002	19.298	0.90909	5.e-002	3.3376
19003	19.298	1.1818	0.	0.10457
19004	19.389	1.0909	0.	0.10099
19005	19.298	1.0909	5.e-002	3.8149
19006	19.298	1.3636	0.	9.2718e-002
19007	19.389	1.2727	0.	8.8977e-002
19008	19.298	1.2727	5.e-002	4.299
19009	19.298	1.5455	0.	8.4147e-002
19010	19.389	1.4545	0.	8.0801e-002
19011	19.298	1.4545	5.e-002	4.7747
19012	19.298	1.7273	0.	7.7493e-002
19013	19.389	1.6364	0.	7.4423e-002
19014	19.298	1.6364	5.e-002	5.2298
19015	19.298	1.9091	0.	7.2445e-002
19016	19.389	1.8182	0.	6.9329e-002
19017	19.298	1.8182	5.e-002	5.6545
19018	19.298	2.0909	0.	6.8985e-002
19019	19.389	2.	0.	6.549e-002
19020	19.298	2.	5.e-002	6.0405
19021	19.298	2.2727	0.	6.7047e-002
19022	19.389	2.1818	0.	6.2934e-002
19023	19.298	2.1818	5.e-002	6.3801
19024	19.298	2.4545	0.	6.6363e-002
19025	19.389	2.3636	0.	6.157e-002
19026	19.298	2.3636	5.e-002	6.6658
19027	19.298	2.6364	0.	6.6466e-002
19028	19.389	2.5455	0.	6.1115e-002
19029	19.298	2.5455	5.e-002	6.8896
19030	19.298	2.8182	0.	6.6818e-002
19031	19.389	2.7273	0.	6.1163e-002
19032	19.298	2.7273	5.e-002	7.0441
19033	19.298	3.	0.	6.699e-002
19034	19.389	2.9091	0.	6.1311e-002
19035	19.298	2.9091	5.e-002	7.1231
19036	19.298	3.1818	0.	6.6818e-002
19037	19.389	3.0909	0.	6.131e-002
19038	19.298	3.0909	5.e-002	7.1231
19039	19.298	3.3636	0.	6.6466e-002
19040	19.389	3.2727	0.	6.1163e-002
19041	19.298	3.2727	5.e-002	7.0441
19042	19.298	3.5455	0.	6.6362e-002
19043	19.389	3.4545	0.	6.1115e-002
19044	19.298	3.4545	5.e-002	6.8896
19045	19.298	3.7273	0.	6.7048e-002
19046	19.389	3.6364	0.	6.157e-002
19047	19.298	3.6364	5.e-002	6.6658
19048	19.298	3.9091	0.	6.8985e-002
19049	19.389	3.8182	0.	6.2935e-002
19050	19.298	3.8182	5.e-002	6.3801
19051	19.298	4.0909	0.	7.2444e-002
19052	19.389	4.	0.	6.5489e-002
19053	19.298	4.	5.e-002	6.0405
19054	19.298	4.2727	0.	7.7493e-002
19055	19.389	4.1818	0.	6.9329e-002
19056	19.298	4.1818	5.e-002	5.6545
19057	19.298	4.4545	0.	8.4147e-002
19058	19.389	4.3636	0.	7.4423e-002
19059	19.298	4.3636	5.e-002	5.2298
19060	19.298	4.6364	0.	9.2718e-002
19061	19.389	4.5455	0.	8.0802e-002
19062	19.298	4.5455	5.e-002	4.7747
19063	19.298	4.8182	0.	0.10457
19064	19.389	4.7273	0.	8.8977e-002
19065	19.298	4.7273	5.e-002	4.299
19066	19.298	5.	0.	0.12491
19067	19.389	4.9091	0.	0.10099
19068	19.298	4.9091	5.e-002	3.8149
19069	19.298	5.1818	0.	0.18014
19070	19.389	5.0909	0.	0.12557
19071	19.298	5.0909	5.e-002	3.3376
19072	19.298	5.3636	0.	0.93707
19073	19.389	5.2727	0.	0.23272
19074	19.298	5.2727	5.e-002	2.8862
19075	19.298	5.5455	0.	6.2506
19076	19.389	5.4545	0.	3.2842
19077	19.298	5.4545	5.e-002	2.4797
19078	19.298	5.7273	0.	10.147
19079	19.389	5.6364	0.	7.9895
19080	19.298	5.6364	5.e-002	2.0239
19081	19.389	5.8182	0.	11.248
19082	19.298	5.8182	5.e-002	0.53973
19083	19.298	5.9091	0.	7.6758
19084	19.479	0.27273	0.	9.0055
19085	19.57	0.18182	0.	10.487
19086	19.479	0.18182	5.e-002	0.1346
19087	19.479	9.0909e-002	0.	7.2074
19088	19.479	0.45455	0.	4.9327
19089	19.57	0.36364	0.	6.8731
19090	19.479	0.36364	5.e-002	2.4306
19091	19.479	0.63636	0.	0.39878
19092	19.57	0.54545	0.	2.2651
19093	19.479	0.54545	5.e-002	2.8101
19094	19.479	0.81818	0.	0.12003
19095	19.57	0.72727	0.	0.14111
19096	19.479	0.72727	5.e-002	3.126
19097	19.479	1.	0.	9.2768e-002
19098	19.57	0.90909	0.	9.0834e-002
19099	19.479	0.90909	5.e-002	3.4837
19100	19.479	1.1818	0.	8.1891e-002
19101	19.57	1.0909	0.	7.818e-002
19102	19.479	1.0909	5.e-002	3.869
19103	19.479	1.3636	0.	7.5042e-002
19104	19.57	1.2727	0.	7.1616e-002
19105	19.479	1.2727	5.e-002	4.2644
19106	19.479	1.5455	0.	6.9655e-002
19107	19.57	1.4545	0.	6.6732e-002
19108	19.479	1.4545	5.e-002	4.6554
19109	19.479	1.7273	0.	6.5138e-002
19110	19.57	1.6364	0.	6.2571e-002
19111	19.479	1.6364	5.e-002	5.0305
19112	19.479	1.9091	0.	6.1435e-002
19113	19.57	1.8182	0.	5.8972e-002
19114	19.479	1.8182	5.e-002	5.3802
19115	19.479	2.0909	0.	5.8627e-002
19116	19.57	2.	0.	5.6016e-002
19117	19.479	2.	5.e-002	5.6971
19118	19.479	2.2727	0.	5.6744e-002
19119	19.57	2.1818	0.	5.38e-002
19120	19.479	2.1818	5.e-002	5.9745
19121	19.479	2.4545	0.	5.5688e-002
19122	19.57	2.3636	0.	5.2335e-002
19123	19.479	2.3636	5.e-002	6.2062
19124	19.479	2.6364	0.	5.5238e-002
19125	19.57	2.5455	0.	5.1512e-002
19126	19.479	2.5455	5.e-002	6.3866
19127	19.479	2.8182	0.	5.5119e-002
19128	19.57	2.7273	0.	5.114e-002
19129	19.479	2.7273	5.e-002	6.5103
19130	19.479	3.	0.	5.5108e-002
19131	19.57	2.9091	0.	5.1018e-002
19132	19.479	2.9091	5.e-002	6.5733
19133	19.479	3.1818	0.	5.5119e-002
19134	19.57	3.0909	0.	5.1016e-002
19135	19.479	3.0909	5.e-002	6.5733
19136	19.479	3.3636	0.	5.5238e-002
19137	19.57	3.2727	0.	5.114e-002
19138	19.479	3.2727	5.e-002	6.5103
19139	19.479	3.5455	0.	5.5688e-002
19140	19.57	3.4545	0.	5.1512e-002
19141	19.479	3.4545	5.e-002	6.3866
19142	19.479	3.7273	0.	5.6744e-002
19143	19.57	3.6364	0.	5.2336e-002
19144	19.479	3.6364	5.e-002	6.2062
19145	19.479	3.9091	0.	5.8627e-002
19146	19.57	3.8182	0.	5.38e-002
19147	19.479	3.8182	5.e-002	5.9745
19148	19.479	4.0909	0.	6.1434e-002
19149	19.57	4.	0.	5.6015e-002
19150	19.479	4.	5.e-002	5.6971
19151	19.479	4.2727	0.	6.5138e-002
19152	19.57	4.1818	0.	5.8972e-002
19153	19.479	4.1818	5.e-002	5.3802
19154	19.479	4.4545	0.	6.9656e-002
19155	19.57	4.3636	0.	6.2571e-002
19156	19.479	4.3636	5.e-002	5.0305
19157	19.479	4.6364	0.	7.5042e-002
19158	19.57	4.5455	0.	6.6733e-002
19159	19.479	4.5455	5.e-002	4.6554
19160	19.479	4.8182	0.	8.1892e-002
19161	19.57	4.7273	0.	7.1616e-002
19162	19.479	4.7273	5.e-002	4.2644
19163	19.479	5.	0.	9.2767e-002
19164	19.57	4.9091	0.	7.8181e-002
19165	19.479	4.9091	5.e-002	3.869
19166	19.479	5.1818	0.	0.12003
19167	19.57	5.0909	0.	9.0833e-002
19168	19.479	5.0909	5.e-002	3.4837
19169	19.479	5.3636	0.	0.39878
19170	19.57	5.2727	0.	0.14111
19171	19.479	5.2727	5.e-002	3.126
19172	19.479	5.5455	0.	4.9327
19173	19.57	5.4545	0.	2.2651
19174	19.479	5.4545	5.e-002	2.8101
19175	19.479	5.7273	0.	9.0055
19176	19.57	5.6364	0.	6.873
19177	19.479	5.6364	5.e-002	2.4306
19178	19.57	5.8182	0.	10.487
19179	19.479	5.8182	5.e-002	0.1346
19180	19.479	5.9091	0.	7.2073
19181	19.66	0.27273	0.	8.2604
19182	19.75	0.18182	0.	10.044
19183	19.66	0.18182	5.e-002	0.37205
19184	19.66	9.0909e-002	0.	6.9328
19185	19.66	0.45455	0.	4.1051
19186	19.75	0.36364	0.	6.1915
19187	19.66	0.36364	5.e-002	2.7606
19188	19.66	0.63636	0.	0.20673
19189	19.75	0.54545	0.	1.7353
19190	19.66	0.54545	5.e-002	3.0858
19191	19.66	0.81818	0.	8.437e-002
19192	19.75	0.72727	0.	9.3352e-002
19193	19.66	0.72727	5.e-002	3.3332
19194	19.66	1.	0.	7.1055e-002
19195	19.75	0.90909	0.	6.8168e-002
19196	19.66	0.90909	5.e-002	3.6158
19197	19.66	1.1818	0.	6.5648e-002
19198	19.75	1.0909	0.	6.2122e-002
19199	19.66	1.0909	5.e-002	3.9246
19200	19.66	1.3636	0.	6.1926e-002
19201	19.75	1.2727	0.	5.888e-002
19202	19.66	1.2727	5.e-002	4.245
19203	19.66	1.5455	0.	5.8639e-002
19204	19.75	1.4545	0.	5.6137e-002
19205	19.66	1.4545	5.e-002	4.564
19206	19.66	1.7273	0.	5.559e-002
19207	19.75	1.6364	0.	5.3487e-002
19208	19.66	1.6364	5.e-002	4.8713
19209	19.66	1.9091	0.	5.2857e-002
19210	19.75	1.8182	0.	5.095e-002
19211	19.66	1.8182	5.e-002	5.1582
19212	19.66	2.0909	0.	5.0577e-002
19213	19.75	2.	0.	4.8671e-002
19214	19.66	2.	5.e-002	5.418
19215	19.66	2.2727	0.	4.8844e-002
19216	19.75	2.1818	0.	4.6786e-002
19217	19.66	2.1818	5.e-002	5.6446
19218	19.66	2.4545	0.	4.7661e-002
19219	19.75	2.3636	0.	4.5366e-002
19220	19.66	2.3636	5.e-002	5.8332
19221	19.66	2.6364	0.	4.6952e-002
19222	19.75	2.5455	0.	4.4406e-002
19223	19.66	2.5455	5.e-002	5.9792
19224	19.66	2.8182	0.	4.66e-002
19225	19.75	2.7273	0.	4.3843e-002
19226	19.66	2.7273	5.e-002	6.0789
19227	19.66	3.	0.	4.6496e-002
19228	19.75	2.9091	0.	4.359e-002
19229	19.66	2.9091	5.e-002	6.1296
19230	19.66	3.1818	0.	4.66e-002
19231	19.75	3.0909	0.	4.359e-002
19232	19.66	3.0909	5.e-002	6.1296
19233	19.66	3.3636	0.	4.6952e-002
19234	19.75	3.2727	0.	4.3844e-002
19235	19.66	3.2727	5.e-002	6.0789
19236	19.66	3.5455	0.	4.7661e-002
19237	19.75	3.4545	0.	4.4406e-002
19238	19.66	3.4545	5.e-002	5.9792
19239	19.66	3.7273	0.	4.8844e-002
19240	19.75	3.6364	0.	4.5366e-002
19241	19.66	3.6364	5.e-002	5.8332
19242	19.66	3.9091	0.	5.0577e-002
19243	19.75	3.8182	0.	4.6785e-002
19244	19.66	3.8182	5.e-002	5.6446
19245	19.66	4.0909	0.	5.2857e-002
19246	19.75	4.	0.	4.8671e-002
19247	19.66	4.	5.e-002	5.4179
19248	19.66	4.2727	0.	5.559e-002
19249	19.75	4.1818	0.	5.0951e-002
19250	19.66	4.1818	5.e-002	5.1583
19251	19.66	4.4545	0.	5.8639e-002
19252	19.75	4.3636	0.	5.3487e-002
19253	19.66	4.3636	5.e-002	4.8713
19254	19.66	4.6364	0.	6.1926e-002
19255	19.75	4.5455	0.	5.6136e-002
19256	19.66	4.5455	5.e-002	4.564
19257	19.66	4.8182	0.	6.5648e-002
19258	19.75	4.7273	0.	5.888e-002
19259	19.66	4.7273	5.e-002	4.245
19260	19.66	5.	0.	7.1055e-002
19261	19.75	4.9091	0.	6.2121e-002
19262	19.66	4.9091	5.e-002	3.9246
19263	19.66	5.1818	0.	8.437e-002
19264	19.75	5.0909	0.	6.8167e-002
19265	19.66	5.0909	5.e-002	3.6158
19266	19.66	5.3636	0.	0.20674
19267	19.75	5.2727	0.	9.3352e-002
19268	19.66	5.2727	5.e-002	3.3332
19269	19.66	5.5455	0.	4.1051
19270	19.75	5.4545	0.	1.7353
19271	19.66	5.4545	5.e-002	3.0858
19272	19.66	5.7273	0.	8.2604
19273	19.75	5.6364	0.	6.1915
19274	19.66	5.6364	5.e-002	2.7606
19275	19.75	5.8182	0.	10.044
19276	19.66	5.8182	5.e-002	0.37205
19277	19.66	5.9091	0.	6.9328
19278	19.841	0.27273	0.	7.8741
19279	19.931	0.18182	0.	9.8836
19280	19.841	0.18182	5.e-002	0.66238
19281	19.841	9.0909e-002	0.	6.8312
19282	19.841	0.45455	0.	3.7288
19283	19.931	0.36364	0.	5.9049
19284	19.841	0.36364	5.e-002	3.0238
19285	19.841	0.63636	0.	0.12917
19286	19.931	0.54545	0.	1.6549
19287	19.841	0.54545	5.e-002	3.3094
19288	19.841	0.81818	0.	6.2046e-002
19289	19.931	0.72727	0.	6.6099e-002
19290	19.841	0.72727	5.e-002	3.505
19291	19.841	1.	0.	5.6047e-002
19292	19.931	0.90909	0.	5.2921e-002
19293	19.841	0.90909	5.e-002	3.7286
19294	19.841	1.1818	0.	5.387e-002
19295	19.931	1.0909	0.	5.0644e-002
19296	19.841	1.0909	5.e-002	3.9753
19297	19.841	1.3636	0.	5.2139e-002
19298	19.931	1.2727	0.	4.9471e-002
19299	19.841	1.2727	5.e-002	4.2337
19300	19.841	1.5455	0.	5.0265e-002
19301	19.931	1.4545	0.	4.8151e-002
19302	19.841	1.4545	5.e-002	4.4928
19303	19.841	1.7273	0.	4.8253e-002
19304	19.931	1.6364	0.	4.6558e-002
19305	19.841	1.6364	5.e-002	4.7435
19306	19.841	1.9091	0.	4.6248e-002
19307	19.931	1.8182	0.	4.4805e-002
19308	19.841	1.8182	5.e-002	4.9783
19309	19.841	2.0909	0.	4.4417e-002
19310	19.931	2.	0.	4.3064e-002
19311	19.841	2.	5.e-002	5.1909
19312	19.841	2.2727	0.	4.2886e-002
19313	19.931	2.1818	0.	4.1496e-002
19314	19.841	2.1818	5.e-002	5.3763
19315	19.841	2.4545	0.	4.172e-002
19316	19.931	2.3636	0.	4.0204e-002
19317	19.841	2.3636	5.e-002	5.5301
19318	19.841	2.6364	0.	4.0929e-002
19319	19.931	2.5455	0.	3.9244e-002
19320	19.841	2.5455	5.e-002	5.6489
19321	19.841	2.8182	0.	4.0479e-002
19322	19.931	2.7273	0.	3.8623e-002
19323	19.841	2.7273	5.e-002	5.7298
19324	19.841	3.	0.	4.0335e-002
19325	19.931	2.9091	0.	3.832e-002
19326	19.841	2.9091	5.e-002	5.7707
19327	19.841	3.1818	0.	4.048e-002
19328	19.931	3.0909	0.	3.832e-002
19329	19.841	3.0909	5.e-002	5.7707
19330	19.841	3.3636	0.	4.093e-002
19331	19.931	3.2727	0.	3.8624e-002
19332	19.841	3.2727	5.e-002	5.7298
19333	19.841	3.5455	0.	4.1721e-002
19334	19.931	3.4545	0.	3.9246e-002
19335	19.841	3.4545	5.e-002	5.6489
19336	19.841	3.7273	0.	4.2885e-002
19337	19.931	3.6364	0.	4.0204e-002
19338	19.841	3.6364	5.e-002	5.5301
19339	19.841	3.9091	0.	4.4416e-002
19340	19.931	3.8182	0.	4.1495e-002
19341	19.841	3.8182	5.e-002	5.3762
19342	19.841	4.0909	0.	4.6247e-002
19343	19.931	4.	0.	4.3065e-002
19344	19.841	4.	5.e-002	5.1909
19345	19.841	4.2727	0.	4.8253e-002
19346	19.931	4.1818	0.	4.4805e-002
19347	19.841	4.1818	5.e-002	4.9783
19348	19.841	4.4545	0.	5.0264e-002
19349	19.931	4.3636	0.	4.6558e-002
19350	19.841	4.3636	5.e-002	4.7435
19351	19.841	4.6364	0.	5.2137e-002
19352	19.931	4.5455	0.	4.815e-002
19353	19.841	4.5455	5.e-002	4.4928
19354	19.841	4.8182	0.	5.3869e-002
19355	19.931	4.7273	0.	4.9471e-002
19356	19.841	4.7273	5.e-002	4.2336
19357	19.841	5.	0.	5.6045e-002
19358	19.931	4.9091	0.	5.0645e-002
19359	19.841	4.9091	5.e-002	3.9753
19360	19.841	5.1818	0.	6.2044e-002
19361	19.931	5.0909	0.	5.2918e-002
19362	19.841	5.0909	5.e-002	3.7286
19363	19.841	5.3636	0.	0.12917
19364	19.931	5.2727	0.	6.6098e-002
19365	19.841	5.2727	5.e-002	3.505
19366	19.841	5.5455	0.	3.7288
19367	19.931	5.4545	0.	1.6549
19368	19.841	5.4545	5.e-002	3.3094
19369	19.841	5.7273	0.	7.8741
19370	19.931	5.6364	0.	5.9048
19371	19.841	5.6364	5.e-002	3.0238
19372	19.931	5.8182	0.	9.8836
19373	19.841	5.8182	5.e-002	0.66239
19374	19.841	5.9091	0.	6.8312
19375	20.022	0.27273	0.	7.8066
19376	20.112	0.18182	0.	9.9687
19377	20.022	0.18182	5.e-002	0.89278
19378	20.022	9.0909e-002	0.	6.8814
19379	20.022	0.45455	0.	3.7605
19380	20.112	0.36364	0.	5.9699
19381	20.022	0.36364	5.e-002	3.2314
19382	20.022	0.63636	0.	9.8065e-002
19383	20.112	0.54545	0.	1.998
19384	20.022	0.54545	5.e-002	3.4875
19385	20.022	0.81818	0.	4.7478e-002
19386	20.112	0.72727	0.	4.976e-002
19387	20.022	0.72727	5.e-002	3.6437
19388	20.022	1.	0.	4.5476e-002
19389	20.112	0.90909	0.	4.2413e-002
19390	20.022	0.90909	5.e-002	3.821
19391	20.022	1.1818	0.	4.5254e-002
19392	20.112	1.0909	0.	4.2356e-002
19393	20.022	1.0909	5.e-002	4.0182
19394	20.022	1.3636	0.	4.4823e-002
19395	20.112	1.2727	0.	4.2508e-002
19396	20.022	1.2727	5.e-002	4.2262
19397	20.022	1.5455	0.	4.3929e-002
19398	20.112	1.4545	0.	4.2159e-002
19399	20.022	1.4545	5.e-002	4.4362
19400	20.022	1.7273	0.	4.2675e-002
19401	20.112	1.6364	0.	4.1332e-002
19402	20.022	1.6364	5.e-002	4.6403
19403	20.022	1.9091	0.	4.1237e-002
19404	20.112	1.8182	0.	4.0177e-002
19405	20.022	1.8182	5.e-002	4.8321
19406	20.022	2.0909	0.	3.9793e-002
19407	20.112	2.	0.	3.8881e-002
19408	20.022	2.	5.e-002	5.0061
19409	20.022	2.2727	0.	3.849e-002
19410	20.112	2.1818	0.	3.7608e-002
19411	20.022	2.1818	5.e-002	5.1577
19412	20.022	2.4545	0.	3.7423e-002
19413	20.112	2.3636	0.	3.6488e-002
19414	20.022	2.3636	5.e-002	5.2835
19415	20.022	2.6364	0.	3.6648e-002
19416	20.112	2.5455	0.	3.5601e-002
19417	20.022	2.5455	5.e-002	5.3805
19418	20.022	2.8182	0.	3.6182e-002
19419	20.112	2.7273	0.	3.4998e-002
19420	20.022	2.7273	5.e-002	5.4465
19421	20.022	3.	0.	3.6027e-002
19422	20.112	2.9091	0.	3.4693e-002
19423	20.022	2.9091	5.e-002	5.4798
19424	20.022	3.1818	0.	3.6182e-002
19425	20.112	3.0909	0.	3.4693e-002
19426	20.022	3.0909	5.e-002	5.4798
19427	20.022	3.3636	0.	3.6649e-002
19428	20.112	3.2727	0.	3.4999e-002
19429	20.022	3.2727	5.e-002	5.4465
19430	20.022	3.5455	0.	3.7424e-002
19431	20.112	3.4545	0.	3.5602e-002
19432	20.022	3.4545	5.e-002	5.3805
19433	20.022	3.7273	0.	3.8489e-002
19434	20.112	3.6364	0.	3.6487e-002
19435	20.022	3.6364	5.e-002	5.2835
19436	20.022	3.9091	0.	3.9794e-002
19437	20.112	3.8182	0.	3.7608e-002
19438	20.022	3.8182	5.e-002	5.1577
19439	20.022	4.0909	0.	4.1238e-002
19440	20.112	4.	0.	3.8882e-002
19441	20.022	4.	5.e-002	5.0061
19442	20.022	4.2727	0.	4.2676e-002
19443	20.112	4.1818	0.	4.0177e-002
19444	20.022	4.1818	5.e-002	4.8321
19445	20.022	4.4545	0.	4.393e-002
19446	20.112	4.3636	0.	4.1332e-002
19447	20.022	4.3636	5.e-002	4.6403
19448	20.022	4.6364	0.	4.4824e-002
19449	20.112	4.5455	0.	4.216e-002
19450	20.022	4.5455	5.e-002	4.4362
19451	20.022	4.8182	0.	4.5256e-002
19452	20.112	4.7273	0.	4.2508e-002
19453	20.022	4.7273	5.e-002	4.2262
19454	20.022	5.	0.	4.5476e-002
19455	20.112	4.9091	0.	4.2358e-002
19456	20.022	4.9091	5.e-002	4.0182
19457	20.022	5.1818	0.	4.7476e-002
19458	20.112	5.0909	0.	4.2411e-002
19459	20.022	5.0909	5.e-002	3.821
19460	20.022	5.3636	0.	9.8067e-002
19461	20.112	5.2727	0.	4.9758e-002
19462	20.022	5.2727	5.e-002	3.6437
19463	20.022	5.5455	0.	3.7605
19464	20.112	5.4545	0.	1.998
19465	20.022	5.4545	5.e-002	3.4875
19466	20.022	5.7273	0.	7.8065
19467	20.112	5.6364	0.	5.9699
19468	20.022	5.6364	5.e-002	3.2314
19469	20.112	5.8182	0.	9.9686
19470	20.022	5.8182	5.e-002	0.89279
19471	20.022	5.9091	0.	6.8814
19472	20.202	0.27273	0.	8.0178
19473	20.293	0.18182	0.	10.265
19474	20.202	0.18182	5.e-002	1.0721
19475	20.202	9.0909e-002	0.	7.0629
19476	20.202	0.45455	0.	4.1547
19477	20.293	0.36364	0.	6.3429
19478	20.202	0.36364	5.e-002	3.3936
19479	20.202	0.63636	0.	0.14634
19480	20.293	0.54545	0.	2.7231
19481	20.202	0.54545	5.e-002	3.6274
19482	20.202	0.81818	0.	3.7675e-002
19483	20.293	0.72727	0.	4.0682e-002
19484	20.202	0.72727	5.e-002	3.7534
19485	20.202	1.	0.	3.7938e-002
19486	20.293	0.90909	0.	3.5047e-002
19487	20.202	0.90909	5.e-002	3.8947
19488	20.202	1.1818	0.	3.8943e-002
19489	20.293	1.0909	0.	3.6347e-002
19490	20.202	1.0909	5.e-002	4.0526
19491	20.202	1.3636	0.	3.9386e-002
19492	20.293	1.2727	0.	3.7379e-002
19493	20.202	1.2727	5.e-002	4.2201
19494	20.202	1.5455	0.	3.9196e-002
19495	20.293	1.4545	0.	3.7722e-002
19496	20.202	1.4545	5.e-002	4.3902
19497	20.202	1.7273	0.	3.8518e-002
19498	20.293	1.6364	0.	3.7469e-002
19499	20.202	1.6364	5.e-002	4.5563
19500	20.202	1.9091	0.	3.7537e-002
19501	20.293	1.8182	0.	3.6786e-002
19502	20.202	1.8182	5.e-002	4.7129
19503	20.202	2.0909	0.	3.6433e-002
19504	20.293	2.	0.	3.5866e-002
19505	20.202	2.	5.e-002	4.8553
19506	20.202	2.2727	0.	3.5359e-002
19507	20.293	2.1818	0.	3.4869e-002
19508	20.202	2.1818	5.e-002	4.9796
19509	20.202	2.4545	0.	3.4431e-002
19510	20.293	2.3636	0.	3.3934e-002
19511	20.202	2.3636	5.e-002	5.0827
19512	20.202	2.6364	0.	3.3726e-002
19513	20.293	2.5455	0.	3.316e-002
19514	20.202	2.5455	5.e-002	5.1622
19515	20.202	2.8182	0.	3.3288e-002
19516	20.293	2.7273	0.	3.2614e-002
19517	20.202	2.7273	5.e-002	5.2162
19518	20.202	3.	0.	3.314e-002
19519	20.293	2.9091	0.	3.233e-002
19520	20.202	2.9091	5.e-002	5.2435
19521	20.202	3.1818	0.	3.3289e-002
19522	20.293	3.0909	0.	3.2331e-002
19523	20.202	3.0909	5.e-002	5.2435
19524	20.202	3.3636	0.	3.3726e-002
19525	20.293	3.2727	0.	3.2613e-002
19526	20.202	3.2727	5.e-002	5.2162
19527	20.202	3.5455	0.	3.4431e-002
19528	20.293	3.4545	0.	3.316e-002
19529	20.202	3.4545	5.e-002	5.1622
19530	20.202	3.7273	0.	3.5359e-002
19531	20.293	3.6364	0.	3.3934e-002
19532	20.202	3.6364	5.e-002	5.0827
19533	20.202	3.9091	0.	3.6433e-002
19534	20.293	3.8182	0.	3.4869e-002
19535	20.202	3.8182	5.e-002	4.9796
19536	20.202	4.0909	0.	3.7536e-002
19537	20.293	4.	0.	3.5865e-002
19538	20.202	4.	5.e-002	4.8553
19539	20.202	4.2727	0.	3.8517e-002
19540	20.293	4.1818	0.	3.6787e-002
19541	20.202	4.1818	5.e-002	4.7129
19542	20.202	4.4545	0.	3.9196e-002
19543	20.293	4.3636	0.	3.7468e-002
19544	20.202	4.3636	5.e-002	4.5563
19545	20.202	4.6364	0.	3.9386e-002
19546	20.293	4.5455	0.	3.7721e-002
19547	20.202	4.5455	5.e-002	4.3902
19548	20.202	4.8182	0.	3.8943e-002
19549	20.293	4.7273	0.	3.7379e-002
19550	20.202	4.7273	5.e-002	4.2201
19551	20.202	5.	0.	3.7938e-002
19552	20.293	4.9091	0.	3.6348e-002
19553	20.202	4.9091	5.e-002	4.0526
19554	20.202	5.1818	0.	3.7673e-002
19555	20.293	5.0909	0.	3.5046e-002
19556	20.202	5.0909	5.e-002	3.8947
19557	20.202	5.3636	0.	0.14634
19558	20.293	5.2727	0.	4.068e-002
19559	20.202	5.2727	5.e-002	3.7534
19560	20.202	5.5455	0.	4.1547
19561	20.293	5.4545	0.	2.7231
19562	20.202	5.4545	5.e-002	3.6274
19563	20.202	5.7273	0.	8.0178
19564	20.293	5.6364	0.	6.3429
19565	20.202	5.6364	5.e-002	3.3936
19566	20.293	5.8182	0.	10.265
19567	20.202	5.8182	5.e-002	1.0721
19568	20.202	5.9091	0.	7.0629
19569	20.383	0.27273	0.	8.4695
19570	20.474	0.18182	0.	10.742
19571	20.383	0.18182	5.e-002	1.2113
19572	20.383	9.0909e-002	0.	7.3567
19573	20.383	0.45455	0.	4.8643
19574	20.474	0.36364	0.	6.9818
19575	20.383	0.36364	5.e-002	3.519
19576	20.383	0.63636	0.	1.0979
19577	20.474	0.54545	0.	3.7746
19578	20.383	0.54545	5.e-002	3.7357
19579	20.383	0.81818	0.	3.0984e-002
19580	20.474	0.72727	0.	8.6658e-002
19581	20.383	0.72727	5.e-002	3.8386
19582	20.383	1.	0.	3.2523e-002
19583	20.474	0.90909	0.	2.9853e-002
19584	20.383	0.90909	5.e-002	3.9519
19585	20.383	1.1818	0.	3.4336e-002
19586	20.474	1.0909	0.	3.2006e-002
19587	20.383	1.0909	5.e-002	4.0789
19588	20.383	1.3636	0.	3.5401e-002
19589	20.474	1.2727	0.	3.3658e-002
19590	20.383	1.2727	5.e-002	4.2141
19591	20.383	1.5455	0.	3.5737e-002
19592	20.474	1.4545	0.	3.4518e-002
19593	20.383	1.4545	5.e-002	4.352
19594	20.383	1.7273	0.	3.551e-002
19595	20.474	1.6364	0.	3.4711e-002
19596	20.383	1.6364	5.e-002	4.4873
19597	20.383	1.9091	0.	3.4908e-002
19598	20.474	1.8182	0.	3.4418e-002
19599	20.383	1.8182	5.e-002	4.6153
19600	20.383	2.0909	0.	3.4107e-002
19601	20.474	2.	0.	3.3818e-002
19602	20.383	2.	5.e-002	4.732
19603	20.383	2.2727	0.	3.3258e-002
19604	20.474	2.1818	0.	3.3076e-002
19605	20.383	2.1818	5.e-002	4.8341
19606	20.383	2.4545	0.	3.2485e-002
19607	20.474	2.3636	0.	3.2326e-002
19608	20.383	2.3636	5.e-002	4.9188
19609	20.383	2.6364	0.	3.1875e-002
19610	20.474	2.5455	0.	3.168e-002
19611	20.383	2.5455	5.e-002	4.9842
19612	20.383	2.8182	0.	3.1486e-002
19613	20.474	2.7273	0.	3.1207e-002
19614	20.383	2.7273	5.e-002	5.0286
19615	20.383	3.	0.	3.1353e-002
19616	20.474	2.9091	0.	3.0959e-002
19617	20.383	2.9091	5.e-002	5.0511
19618	20.383	3.1818	0.	3.1486e-002
19619	20.474	3.0909	0.	3.0959e-002
19620	20.383	3.0909	5.e-002	5.0511
19621	20.383	3.3636	0.	3.1874e-002
19622	20.474	3.2727	0.	3.1206e-002
19623	20.383	3.2727	5.e-002	5.0286
19624	20.383	3.5455	0.	3.2485e-002
19625	20.474	3.4545	0.	3.1679e-002
19626	20.383	3.4545	5.e-002	4.9842
19627	20.383	3.7273	0.	3.3259e-002
19628	20.474	3.6364	0.	3.2327e-002
19629	20.383	3.6364	5.e-002	4.9188
19630	20.383	3.9091	0.	3.4106e-002
19631	20.474	3.8182	0.	3.3076e-002
19632	20.383	3.8182	5.e-002	4.8341
19633	20.383	4.0909	0.	3.4908e-002
19634	20.474	4.	0.	3.3818e-002
19635	20.383	4.	5.e-002	4.732
19636	20.383	4.2727	0.	3.5511e-002
19637	20.474	4.1818	0.	3.4419e-002
19638	20.383	4.1818	5.e-002	4.6153
19639	20.383	4.4545	0.	3.5736e-002
19640	20.474	4.3636	0.	3.4712e-002
19641	20.383	4.3636	5.e-002	4.4873
19642	20.383	4.6364	0.	3.5401e-002
19643	20.474	4.5455	0.	3.4518e-002
19644	20.383	4.5455	5.e-002	4.352
19645	20.383	4.8182	0.	3.4337e-002
19646	20.474	4.7273	0.	3.3659e-002
19647	20.383	4.7273	5.e-002	4.2141
19648	20.383	5.	0.	3.2523e-002
19649	20.474	4.9091	0.	3.2006e-002
19650	20.383	4.9091	5.e-002	4.0788
19651	20.383	5.1818	0.	3.0982e-002
19652	20.474	5.0909	0.	2.9852e-002
19653	20.383	5.0909	5.e-002	3.9519
19654	20.383	5.3636	0.	1.0979
19655	20.474	5.2727	0.	8.6659e-002
19656	20.383	5.2727	5.e-002	3.8386
19657	20.383	5.5455	0.	4.8643
19658	20.474	5.4545	0.	3.7746
19659	20.383	5.4545	5.e-002	3.7357
19660	20.383	5.7273	0.	8.4695
19661	20.474	5.6364	0.	6.9818
19662	20.383	5.6364	5.e-002	3.519
19663	20.474	5.8182	0.	10.742
19664	20.383	5.8182	5.e-002	1.2113
19665	20.383	5.9091	0.	7.3567
19666	20.564	0.27273	0.	9.1262
19667	20.655	0.18182	0.	11.369
19668	20.564	0.18182	5.e-002	1.3202
19669	20.564	9.0909e-002	0.	7.7454
19670	20.564	0.45455	0.	5.8449
19671	20.655	0.36364	0.	7.8478
19672	20.564	0.36364	5.e-002	3.615
19673	20.564	0.63636	0.	2.6025
19674	20.655	0.54545	0.	5.1025
19675	20.564	0.54545	5.e-002	3.8186
19676	20.564	0.81818	0.	2.6953e-002
19677	20.655	0.72727	0.	1.9167
19678	20.564	0.72727	5.e-002	3.9036
19679	20.564	1.	0.	2.8651e-002
19680	20.655	0.90909	0.	2.6367e-002
19681	20.564	0.90909	5.e-002	3.9952
19682	20.564	1.1818	0.	3.1031e-002
19683	20.655	1.0909	0.	2.8929e-002
19684	20.564	1.0909	5.e-002	4.0978
19685	20.564	1.3636	0.	3.2564e-002
19686	20.655	1.2727	0.	3.1048e-002
19687	20.564	1.2727	5.e-002	4.2074
19688	20.564	1.5455	0.	3.3316e-002
19689	20.655	1.4545	0.	3.2316e-002
19690	20.564	1.4545	5.e-002	4.3196
19691	20.564	1.7273	0.	3.346e-002
19692	20.655	1.6364	0.	3.2877e-002
19693	20.564	1.6364	5.e-002	4.4301
19694	20.564	1.9091	0.	3.318e-002
19695	20.655	1.8182	0.	3.291e-002
19696	20.564	1.8182	5.e-002	4.535
19697	20.564	2.0909	0.	3.2646e-002
19698	20.655	2.	0.	3.2589e-002
19699	20.564	2.	5.e-002	4.6309
19700	20.564	2.2727	0.	3.2009e-002
19701	20.655	2.1818	0.	3.2075e-002
19702	20.564	2.1818	5.e-002	4.7149
19703	20.564	2.4545	0.	3.139e-002
19704	20.655	2.3636	0.	3.1503e-002
19705	20.564	2.3636	5.e-002	4.7848
19706	20.564	2.6364	0.	3.0883e-002
19707	20.655	2.5455	0.	3.0982e-002
19708	20.564	2.5455	5.e-002	4.8388
19709	20.564	2.8182	0.	3.0554e-002
19710	20.655	2.7273	0.	3.0589e-002
19711	20.564	2.7273	5.e-002	4.8755
19712	20.564	3.	0.	3.044e-002
19713	20.655	2.9091	0.	3.0382e-002
19714	20.564	2.9091	5.e-002	4.8941
19715	20.564	3.1818	0.	3.0553e-002
19716	20.655	3.0909	0.	3.038e-002
19717	20.564	3.0909	5.e-002	4.8941
19718	20.564	3.3636	0.	3.0883e-002
19719	20.655	3.2727	0.	3.059e-002
19720	20.564	3.2727	5.e-002	4.8755
19721	20.564	3.5455	0.	3.139e-002
19722	20.655	3.4545	0.	3.0982e-002
19723	20.564	3.4545	5.e-002	4.8388
19724	20.564	3.7273	0.	3.2008e-002
19725	20.655	3.6364	0.	3.1502e-002
19726	20.564	3.6364	5.e-002	4.7848
19727	20.564	3.9091	0.	3.2647e-002
19728	20.655	3.8182	0.	3.2075e-002
19729	20.564	3.8182	5.e-002	4.7149
19730	20.564	4.0909	0.	3.3181e-002
19731	20.655	4.	0.	3.259e-002
19732	20.564	4.	5.e-002	4.6309
19733	20.564	4.2727	0.	3.3461e-002
19734	20.655	4.1818	0.	3.291e-002
19735	20.564	4.1818	5.e-002	4.535
19736	20.564	4.4545	0.	3.3317e-002
19737	20.655	4.3636	0.	3.2877e-002
19738	20.564	4.3636	5.e-002	4.4301
19739	20.564	4.6364	0.	3.2565e-002
19740	20.655	4.5455	0.	3.2316e-002
19741	20.564	4.5455	5.e-002	4.3196
19742	20.564	4.8182	0.	3.1032e-002
19743	20.655	4.7273	0.	3.1048e-002
19744	20.564	4.7273	5.e-002	4.2074
19745	20.564	5.	0.	2.865e-002
19746	20.655	4.9091	0.	2.8929e-002
19747	20.564	4.9091	5.e-002	4.0978
19748	20.564	5.1818	0.	2.6952e-002
19749	20.655	5.0909	0.	2.6366e-002
19750	20.564	5.0909	5.e-002	3.9952
19751	20.564	5.3636	0.	2.6025
19752	20.655	5.2727	0.	1.9167
19753	20.564	5.2727	5.e-002	3.9036
19754	20.564	5.5455	0.	5.8448
19755	20.655	5.4545	0.	5.1025
19756	20.564	5.4545	5.e-002	3.8186
19757	20.564	5.7273	0.	9.1261
19758	20.655	5.6364	0.	7.8478
19759	20.564	5.6364	5.e-002	3.615
19760	20.655	5.8182	0.	11.369
19761	20.564	5.8182	5.e-002	1.3202
19762	20.564	5.9091	0.	7.7453
19763	20.745	0.27273	0.	9.9553
19764	20.835	0.18182	0.	12.12
19765	20.745	0.18182	5.e-002	1.407
19766	20.745	9.0909e-002	0.	8.2131
19767	20.745	0.45455	0.	7.0563
19768	20.835	0.36364	0.	8.906
19769	20.745	0.36364	5.e-002	3.6876
19770	20.745	0.63636	0.	4.3746
19771	20.835	0.54545	0.	6.6655
19772	20.745	0.54545	5.e-002	3.881
19773	20.745	0.81818	0.	1.2964
19774	20.835	0.72727	0.	4.124
19775	20.745	0.72727	5.e-002	3.9522
19776	20.745	1.	0.	2.5957e-002
19777	20.835	0.90909	0.	1.2101
19778	20.745	0.90909	5.e-002	4.027
19779	20.745	1.1818	0.	2.875e-002
19780	20.835	1.0909	0.	2.6904e-002
19781	20.745	1.0909	5.e-002	4.1105
19782	20.745	1.3636	0.	3.0665e-002
19783	20.835	1.2727	0.	2.9362e-002
19784	20.745	1.2727	5.e-002	4.2
19785	20.745	1.5455	0.	3.1763e-002
19786	20.835	1.4545	0.	3.0969e-002
19787	20.745	1.4545	5.e-002	4.2917
19788	20.745	1.7273	0.	3.2222e-002
19789	20.835	1.6364	0.	3.1843e-002
19790	20.745	1.6364	5.e-002	4.3824
19791	20.745	1.9091	0.	3.2219e-002
19792	20.835	1.8182	0.	3.2153e-002
19793	20.745	1.8182	5.e-002	4.4687
19794	20.745	2.0909	0.	3.1922e-002
19795	20.835	2.	0.	3.2075e-002
19796	20.745	2.	5.e-002	4.5478
19797	20.745	2.2727	0.	3.1476e-002
19798	20.835	2.1818	0.	3.1761e-002
19799	20.745	2.1818	5.e-002	4.6173
19800	20.745	2.4545	0.	3.1003e-002
19801	20.835	2.3636	0.	3.1347e-002
19802	20.745	2.3636	5.e-002	4.6752
19803	20.745	2.6364	0.	3.0598e-002
19804	20.835	2.5455	0.	3.0943e-002
19805	20.745	2.5455	5.e-002	4.7199
19806	20.745	2.8182	0.	3.0328e-002
19807	20.835	2.7273	0.	3.0627e-002
19808	20.745	2.7273	5.e-002	4.7504
19809	20.745	3.	0.	3.0233e-002
19810	20.835	2.9091	0.	3.0456e-002
19811	20.745	2.9091	5.e-002	4.7658
19812	20.745	3.1818	0.	3.0327e-002
19813	20.835	3.0909	0.	3.0456e-002
19814	20.745	3.0909	5.e-002	4.7658
19815	20.745	3.3636	0.	3.0597e-002
19816	20.835	3.2727	0.	3.0627e-002
19817	20.745	3.2727	5.e-002	4.7504
19818	20.745	3.5455	0.	3.1002e-002
19819	20.835	3.4545	0.	3.0943e-002
19820	20.745	3.4545	5.e-002	4.7199
19821	20.745	3.7273	0.	3.1475e-002
19822	20.835	3.6364	0.	3.1347e-002
19823	20.745	3.6364	5.e-002	4.6752
19824	20.745	3.9091	0.	3.1923e-002
19825	20.835	3.8182	0.	3.1761e-002
19826	20.745	3.8182	5.e-002	4.6173
19827	20.745	4.0909	0.	3.222e-002
19828	20.835	4.	0.	3.2075e-002
19829	20.745	4.	5.e-002	4.5478
19830	20.745	4.2727	0.	3.2222e-002
19831	20.835	4.1818	0.	3.2154e-002
19832	20.745	4.1818	5.e-002	4.4687
19833	20.745	4.4545	0.	3.1763e-002
19834	20.835	4.3636	0.	3.1842e-002
19835	20.745	4.3636	5.e-002	4.3824
19836	20.745	4.6364	0.	3.0665e-002
19837	20.835	4.5455	0.	3.0969e-002
19838	20.745	4.5455	5.e-002	4.2917
19839	20.745	4.8182	0.	2.875e-002
19840	20.835	4.7273	0.	2.9363e-002
19841	20.745	4.7273	5.e-002	4.2
19842	20.745	5.	0.	2.5957e-002
19843	20.835	4.9091	0.	2.6904e-002
19844	20.745	4.9091	5.e-002	4.1105
19845	20.745	5.1818	0.	1.2964
19846	20.835	5.0909	0.	1.2101
19847	20.745	5.0909	5.e-002	4.027
19848	20.745	5.3636	0.	4.3746
19849	20.835	5.2727	0.	4.124
19850	20.745	5.2727	5.e-002	3.9522
19851	20.745	5.5455	0.	7.0563
19852	20.835	5.4545	0.	6.6655
19853	20.745	5.4545	5.e-002	3.881
19854	20.745	5.7273	0.	9.9553
19855	20.835	5.6364	0.	8.9059
19856	20.745	5.6364	5.e-002	3.6876
19857	20.835	5.8182	0.	12.12
19858	20.745	5.8182	5.e-002	1.407
19859	20.745	5.9091	0.	8.2131
19860	20.926	0.27273	0.	10.928
19861	21.016	0.18182	0.	12.971
19862	20.926	0.18182	5.e-002	1.4786
19863	20.926	9.0909e-002	0.	8.7457
19864	20.926	0.45455	0.	8.4637
19865	21.016	0.36364	0.	10.126
19866	20.926	0.36364	5.e-002	3.742
19867	20.926	0.63636	0.	6.3713
19868	21.016	0.54545	0.	8.4297
19869	20.926	0.54545	5.e-002	3.9271
19870	20.926	0.81818	0.	3.9991
19871	21.016	0.72727	0.	6.5491
19872	20.926	0.72727	5.e-002	3.9878
19873	20.926	1.	0.	1.3154
19874	21.016	0.90909	0.	4.3926
19875	20.926	0.90909	5.e-002	4.0495
19876	20.926	1.1818	0.	2.7386e-002
19877	21.016	1.0909	0.	1.9644
19878	20.926	1.0909	5.e-002	4.1183
19879	20.926	1.3636	0.	2.9594e-002
19880	21.016	1.2727	0.	2.9156e-002
19881	20.926	1.2727	5.e-002	4.1918
19882	20.926	1.5455	0.	3.0989e-002
19883	21.016	1.4545	0.	3.0523e-002
19884	20.926	1.4545	5.e-002	4.2674
19885	20.926	1.7273	0.	3.1718e-002
19886	21.016	1.6364	0.	3.1608e-002
19887	20.926	1.6364	5.e-002	4.3423
19888	20.926	1.9091	0.	3.1953e-002
19889	21.016	1.8182	0.	3.213e-002
19890	20.926	1.8182	5.e-002	4.4137
19891	20.926	2.0909	0.	3.1858e-002
19892	21.016	2.	0.	3.224e-002
19893	20.926	2.	5.e-002	4.4794
19894	20.926	2.2727	0.	3.1577e-002
19895	21.016	2.1818	0.	3.2083e-002
19896	20.926	2.1818	5.e-002	4.5372
19897	20.926	2.4545	0.	3.123e-002
19898	21.016	2.3636	0.	3.1797e-002
19899	20.926	2.3636	5.e-002	4.5854
19900	20.926	2.6364	0.	3.0915e-002
19901	21.016	2.5455	0.	3.1485e-002
19902	20.926	2.5455	5.e-002	4.6227
19903	20.926	2.8182	0.	3.0699e-002
19904	21.016	2.7273	0.	3.1232e-002
19905	20.926	2.7273	5.e-002	4.6481
19906	20.926	3.	0.	3.0622e-002
19907	21.016	2.9091	0.	3.1091e-002
19908	20.926	2.9091	5.e-002	4.661
19909	20.926	3.1818	0.	3.0698e-002
19910	21.016	3.0909	0.	3.1092e-002
19911	20.926	3.0909	5.e-002	4.661
19912	20.926	3.3636	0.	3.0915e-002
19913	21.016	3.2727	0.	3.1231e-002
19914	20.926	3.2727	5.e-002	4.6481
19915	20.926	3.5455	0.	3.1231e-002
19916	21.016	3.4545	0.	3.1486e-002
19917	20.926	3.4545	5.e-002	4.6227
19918	20.926	3.7273	0.	3.1576e-002
19919	21.016	3.6364	0.	3.1796e-002
19920	20.926	3.6364	5.e-002	4.5854
19921	20.926	3.9091	0.	3.1858e-002
19922	21.016	3.8182	0.	3.2083e-002
19923	20.926	3.8182	5.e-002	4.5372
19924	20.926	4.0909	0.	3.1954e-002
19925	21.016	4.	0.	3.2239e-002
19926	20.926	4.	5.e-002	4.4794
19927	20.926	4.2727	0.	3.1718e-002
19928	21.016	4.1818	0.	3.2131e-002
19929	20.926	4.1818	5.e-002	4.4137
19930	20.926	4.4545	0.	3.0988e-002
19931	21.016	4.3636	0.	3.1607e-002
19932	20.926	4.3636	5.e-002	4.3423
19933	20.926	4.6364	0.	2.9594e-002
19934	21.016	4.5455	0.	3.0522e-002
19935	20.926	4.5455	5.e-002	4.2674
19936	20.926	4.8182	0.	2.7385e-002
19937	21.016	4.7273	0.	2.9156e-002
19938	20.926	4.7273	5.e-002	4.1918
19939	20.926	5.	0.	1.3154
19940	21.016	4.9091	0.	1.9644
19941	20.926	4.9091	5.e-002	4.1183
19942	20.926	5.1818	0.	3.9991
19943	21.016	5.0909	0.	4.3926
19944	20.926	5.0909	5.e-002	4.0495
19945	20.926	5.3636	0.	6.3713
19946	21.016	5.2727	0.	6.5491
19947	20.926	5.2727	5.e-002	3.9878
19948	20.926	5.5455	0.	8.4637
19949	21.016	5.4545	0.	8.4297
19950	20.926	5.4545	5.e-002	3.9271
19951	20.926	5.7273	0.	10.928
19952	21.016	5.6364	0.	10.126
19953	20.926	5.6364	5.e-002	3.742
19954	21.016	5.8182	0.	12.971
19955	20.926	5.8182	5.e-002	1.4786
19956	20.926	5.9091	0.	8.7457
19957	21.107	0.27273	0.	12.019
19958	21.197	0.18182	0.	13.901
19959	21.107	0.18182	5.e-002	1.5406
19960	21.107	9.0909e-002	0.	9.3304
19961	21.107	0.45455	0.	10.038
19962	21.197	0.36364	0.	11.481
19963	21.107	0.36364	5.e-002	3.782
19964	21.107	0.63636	0.	8.562
19965	21.197	0.54545	0.	10.367
19966	21.107	0.54545	5.e-002	3.9604
19967	21.107	0.81818	0.	6.9025
19968	21.197	0.72727	0.	9.1654
19969	21.107	0.72727	5.e-002	4.0131
19970	21.107	1.	0.	5.0071
19971	21.197	0.90909	0.	7.7652
19972	21.107	0.90909	5.e-002	4.0648
19973	21.107	1.1818	0.	2.8855
19974	21.197	1.0909	0.	6.1495
19975	21.107	1.0909	5.e-002	4.1221
19976	21.107	1.3636	0.	0.57824
19977	21.197	1.2727	0.	4.3339
19978	21.107	1.2727	5.e-002	4.1833
19979	21.107	1.5455	0.	3.1441e-002
19980	21.197	1.4545	0.	2.3596
19981	21.107	1.4545	5.e-002	4.2462
19982	21.107	1.7273	0.	3.211e-002
19983	21.197	1.6364	0.	0.29696
19984	21.107	1.6364	5.e-002	4.3086
19985	21.107	1.9091	0.	3.2453e-002
19986	21.197	1.8182	0.	3.4e-002
19987	21.107	1.8182	5.e-002	4.3682
19988	21.107	2.0909	0.	3.2475e-002
19989	21.197	2.	0.	3.3495e-002
19990	21.107	2.	5.e-002	4.4231
19991	21.107	2.2727	0.	3.2297e-002
19992	21.197	2.1818	0.	3.3222e-002
19993	21.107	2.1818	5.e-002	4.4714
19994	21.107	2.4545	0.	3.2034e-002
19995	21.197	2.3636	0.	3.2915e-002
19996	21.107	2.3636	5.e-002	4.5119
19997	21.107	2.6364	0.	3.1778e-002
19998	21.197	2.5455	0.	3.2608e-002
19999	21.107	2.5455	5.e-002	4.5432
20000	21.107	2.8182	0.	3.1596e-002
20001	21.197	2.7273	0.	3.2366e-002
20002	21.107	2.7273	5.e-002	4.5646
20003	21.107	3.	0.	3.1532e-002
20004	21.197	2.9091	0.	3.2232e-002
20005	21.107	2.9091	5.e-002	4.5754
20006	21.107	3.1818	0.	3.1597e-002
20007	21.197	3.0909	0.	3.2233e-002
20008	21.107	3.0909	5.e-002	4.5754
20009	21.107	3.3636	0.	3.1778e-002
20010	21.197	3.2727	0.	3.2366e-002
20011	21.107	3.2727	5.e-002	4.5646
20012	21.107	3.5455	0.	3.2034e-002
20013	21.197	3.4545	0.	3.2609e-002
20014	21.107	3.4545	5.e-002	4.5432
20015	21.107	3.7273	0.	3.2297e-002
20016	21.197	3.6364	0.	3.2914e-002
20017	21.107	3.6364	5.e-002	4.5119
20018	21.107	3.9091	0.	3.2474e-002
20019	21.197	3.8182	0.	3.3222e-002
20020	21.107	3.8182	5.e-002	4.4715
20021	21.107	4.0909	0.	3.2453e-002
20022	21.197	4.	0.	3.3494e-002
20023	21.107	4.	5.e-002	4.4231
20024	21.107	4.2727	0.	3.2111e-002
20025	21.197	4.1818	0.	3.4001e-002
20026	21.107	4.1818	5.e-002	4.3682
20027	21.107	4.4545	0.	3.1442e-002
20028	21.197	4.3636	0.	0.29696
20029	21.107	4.3636	5.e-002	4.3086
20030	21.107	4.6364	0.	0.57823
20031	21.197	4.5455	0.	2.3596
20032	21.107	4.5455	5.e-002	4.2462
20033	21.107	4.8182	0.	2.8855
20034	21.197	4.7273	0.	4.3338
20035	21.107	4.7273	5.e-002	4.1833
20036	21.107	5.	0.	5.0071
20037	21.197	4.9091	0.	6.1495
20038	21.107	4.9091	5.e-002	4.1221
20039	21.107	5.1818	0.	6.9025
20040	21.197	5.0909	0.	7.7652
20041	21.107	5.0909	5.e-002	4.0648
20042	21.107	5.3636	0.	8.5619
20043	21.197	5.2727	0.	9.1654
20044	21.107	5.2727	5.e-002	4.0131
20045	21.107	5.5455	0.	10.037
20046	21.197	5.4545	0.	10.367
20047	21.107	5.4545	5.e-002	3.9604
20048	21.107	5.7273	0.	12.018
20049	21.197	5.6364	0.	11.481
20050	21.107	5.6364	5.e-002	3.782
20051	21.197	5.8182	0.	13.901
20052	21.107	5.8182	5.e-002	1.5406
20053	21.107	5.9091	0.	9.3304
20054	21.288	0.27273	0.	13.205
20055	21.378	0.18182	0.	14.891
20056	21.288	0.18182	5.e-002	1.598
20057	21.288	9.0909e-002	0.	9.9557
20058	21.288	0.45455	0.	11.753
20059	21.378	0.36364	0.	12.949
20060	21.288	0.36364	5.e-002	3.8112
20061	21.288	0.63636	0.	10.923
20062	21.378	0.54545	0.	12.456
20063	21.288	0.54545	5.e-002	3.9839
20064	21.288	0.81818	0.	9.9864
20065	21.378	0.72727	0.	11.954
20066	21.288	0.72727	5.e-002	4.0305
20067	21.288	1.	0.	8.8719
20068	21.378	0.90909	0.	11.314
20069	21.288	0.90909	5.e-002	4.0746
20070	21.288	1.1818	0.	7.568
20071	21.378	1.0909	0.	10.498
20072	21.288	1.0909	5.e-002	4.123
20073	21.288	1.3636	0.	6.0916
20074	21.378	1.2727	0.	9.5012
20075	21.288	1.2727	5.e-002	4.1746
20076	21.288	1.5455	0.	4.4831
20077	21.378	1.4545	0.	8.3424
20078	21.288	1.4545	5.e-002	4.2277
20079	21.288	1.7273	0.	2.8013
20080	21.378	1.6364	0.	7.063
20081	21.288	1.6364	5.e-002	4.2802
20082	21.288	1.9091	0.	1.1194
20083	21.378	1.8182	0.	5.7202
20084	21.288	1.8182	5.e-002	4.3305
20085	21.288	2.0909	0.	3.9475e-002
20086	21.378	2.	0.	4.3822
20087	21.288	2.	5.e-002	4.3768
20088	21.288	2.2727	0.	3.462e-002
20089	21.378	2.1818	0.	3.1218
20090	21.288	2.1818	5.e-002	4.4177
20091	21.288	2.4545	0.	3.374e-002
20092	21.378	2.3636	0.	2.0107
20093	21.288	2.3636	5.e-002	4.4519
20094	21.288	2.6364	0.	3.3276e-002
20095	21.378	2.5455	0.	1.1137
20096	21.288	2.5455	5.e-002	4.4785
20097	21.288	2.8182	0.	3.3012e-002
20098	21.378	2.7273	0.	0.48382
20099	21.288	2.7273	5.e-002	4.4966
20100	21.288	3.	0.	3.2925e-002
20101	21.378	2.9091	0.	0.15832
20102	21.288	2.9091	5.e-002	4.5058
20103	21.288	3.1818	0.	3.3012e-002
20104	21.378	3.0909	0.	0.15833
20105	21.288	3.0909	5.e-002	4.5058
20106	21.288	3.3636	0.	3.3276e-002
20107	21.378	3.2727	0.	0.48383
20108	21.288	3.2727	5.e-002	4.4966
20109	21.288	3.5455	0.	3.374e-002
20110	21.378	3.4545	0.	1.1137
20111	21.288	3.4545	5.e-002	4.4785
20112	21.288	3.7273	0.	3.4619e-002
20113	21.378	3.6364	0.	2.0107
20114	21.288	3.6364	5.e-002	4.4519
20115	21.288	3.9091	0.	3.9476e-002
20116	21.378	3.8182	0.	3.1218
20117	21.288	3.8182	5.e-002	4.4177
20118	21.288	4.0909	0.	1.1194
20119	21.378	4.	0.	4.3822
20120	21.288	4.	5.e-002	4.3768
20121	21.288	4.2727	0.	2.8013
20122	21.378	4.1818	0.	5.7202
20123	21.288	4.1818	5.e-002	4.3305
20124	21.288	4.4545	0.	4.4831
20125	21.378	4.3636	0.	7.063
20126	21.288	4.3636	5.e-002	4.2802
20127	21.288	4.6364	0.	6.0916
20128	21.378	4.5455	0.	8.3424
20129	21.288	4.5455	5.e-002	4.2277
20130	21.288	4.8182	0.	7.568
20131	21.378	4.7273	0.	9.5011
20132	21.288	4.7273	5.e-002	4.1746
20133	21.288	5.	0.	8.8719
20134	21.378	4.9091	0.	10.498
20135	21.288	4.9091	5.e-002	4.123
20136	21.288	5.1818	0.	9.9864
20137	21.378	5.0909	0.	11.314
20138	21.288	5.0909	5.e-002	4.0746
20139	21.288	5.3636	0.	10.923
20140	21.378	5.2727	0.	11.954
20141	21.288	5.2727	5.e-002	4.0305
20142	21.288	5.5455	0.	11.753
20143	21.378	5.4545	0.	12.456
20144	21.288	5.4545	5.e-002	3.9839
20145	21.288	5.7273	0.	13.205
20146	21.378	5.6364	0.	12.949
20147	21.288	5.6364	5.e-002	3.8112
20148	21.378	5.8182	0.	14.891
20149	21.288	5.8182	5.e-002	1.598
20150	21.288	5.9091	0.	9.9557
20151	21.468	0.27273	0.	14.467
20152	21.559	0.18182	0.	15.922
20153	21.468	0.18182	5.e-002	1.6546
20154	21.468	9.0909e-002	0.	10.611
20155	21.468	0.45455	0.	13.591
20156	21.559	0.36364	0.	14.513
20157	21.468	0.36364	5.e-002	3.832
20158	21.468	0.63636	0.	13.436
20159	21.559	0.54545	0.	14.679
20160	21.468	0.54545	5.e-002	3.9997
20161	21.468	0.81818	0.	13.238
20162	21.559	0.72727	0.	14.902
20163	21.468	0.72727	5.e-002	4.0418
20164	21.468	1.	0.	12.903
20165	21.559	0.90909	0.	15.032
20166	21.468	0.90909	5.e-002	4.0802
20167	21.468	1.1818	0.	12.401
20168	21.559	1.0909	0.	15.01
20169	21.468	1.0909	5.e-002	4.122
20170	21.468	1.3636	0.	11.727
20171	21.559	1.2727	0.	14.812
20172	21.468	1.2727	5.e-002	4.1663
20173	21.468	1.5455	0.	10.902
20174	21.559	1.4545	0.	14.438
20175	21.468	1.4545	5.e-002	4.2117
20176	21.468	1.7273	0.	9.9665
20177	21.559	1.6364	0.	13.91
20178	21.468	1.6364	5.e-002	4.2566
20179	21.468	1.9091	0.	8.9727
20180	21.559	1.8182	0.	13.268
20181	21.468	1.8182	5.e-002	4.2996
20182	21.468	2.0909	0.	7.9829
20183	21.559	2.	0.	12.565
20184	21.468	2.	5.e-002	4.3392
20185	21.468	2.2727	0.	7.0617
20186	21.559	2.1818	0.	11.859
20187	21.468	2.1818	5.e-002	4.3741
20188	21.468	2.4545	0.	6.2707
20189	21.559	2.3636	0.	11.209
20190	21.468	2.3636	5.e-002	4.4034
20191	21.468	2.6364	0.	5.6636
20192	21.559	2.5455	0.	10.667
20193	21.468	2.5455	5.e-002	4.4261
20194	21.468	2.8182	0.	5.2818
20195	21.559	2.7273	0.	10.279
20196	21.468	2.7273	5.e-002	4.4416
20197	21.468	3.	0.	5.1515
20198	21.559	2.9091	0.	10.077
20199	21.468	2.9091	5.e-002	4.4494
20200	21.468	3.1818	0.	5.2818
20201	21.559	3.0909	0.	10.077
20202	21.468	3.0909	5.e-002	4.4494
20203	21.468	3.3636	0.	5.6636
20204	21.559	3.2727	0.	10.279
20205	21.468	3.2727	5.e-002	4.4416
20206	21.468	3.5455	0.	6.2707
20207	21.559	3.4545	0.	10.667
20208	21.468	3.4545	5.e-002	4.4261
20209	21.468	3.7273	0.	7.0617
20210	21.559	3.6364	0.	11.209
20211	21.468	3.6364	5.e-002	4.4034
20212	21.468	3.9091	0.	7.9829
20213	21.559	3.8182	0.	11.859
20214	21.468	3.8182	5.e-002	4.3741
20215	21.468	4.0909	0.	8.9726
20216	21.559	4.	0.	12.565
20217	21.468	4.	5.e-002	4.3392
20218	21.468	4.2727	0.	9.9665
20219	21.559	4.1818	0.	13.268
20220	21.468	4.1818	5.e-002	4.2996
20221	21.468	4.4545	0.	10.902
20222	21.559	4.3636	0.	13.91
20223	21.468	4.3636	5.e-002	4.2566
20224	21.468	4.6364	0.	11.727
20225	21.559	4.5455	0.	14.438
20226	21.468	4.5455	5.e-002	4.2117
20227	21.468	4.8182	0.	12.401
20228	21.559	4.7273	0.	14.812
20229	21.468	4.7273	5.e-002	4.1663
20230	21.468	5.	0.	12.903
20231	21.559	4.9091	0.	15.01
20232	21.468	4.9091	5.e-002	4.122
20233	21.468	5.1818	0.	13.238
20234	21.559	5.0909	0.	15.032
20235	21.468	5.0909	5.e-002	4.0802
20236	21.468	5.3636	0.	13.436
20237	21.559	5.2727	0.	14.902
20238	21.468	5.2727	5.e-002	4.0418
20239	21.468	5.5455	0.	13.59
20240	21.559	5.4545	0.	14.679
20241	21.468	5.4545	5.e-002	3.9997
20242	21.468	5.7273	0.	14.467
20243	21.559	5.6364	0.	14.513
20244	21.468	5.6364	5.e-002	3.832
20245	21.559	5.8182	0.	15.922
20246	21.468	5.8182	5.e-002	1.6546
20247	21.468	5.9091	0.	10.611
20248	21.649	0.27273	0.	15.789
20249	21.74	0.18182	0.	16.98
20250	21.649	0.18182	5.e-002	1.7137
20251	21.649	9.0909e-002	0.	11.287
20252	21.649	0.45455	0.	15.535
20253	21.74	0.36364	0.	16.158
20254	21.649	0.36364	5.e-002	3.8468
20255	21.649	0.63636	0.	16.091
20256	21.74	0.54545	0.	17.027
20257	21.649	0.54545	5.e-002	4.0099
20258	21.649	0.81818	0.	16.65
20259	21.74	0.72727	0.	18.005
20260	21.649	0.72727	5.e-002	4.0487
20261	21.649	1.	0.	17.101
20262	21.74	0.90909	0.	18.92
20263	21.649	0.90909	5.e-002	4.083
20264	21.649	1.1818	0.	17.39
20265	21.74	1.0909	0.	19.694
20266	21.649	1.0909	5.e-002	4.1199
20267	21.649	1.3636	0.	17.497
20268	21.74	1.2727	0.	20.281
20269	21.649	1.2727	5.e-002	4.1587
20270	21.649	1.5455	0.	17.425
20271	21.74	1.4545	0.	20.666
20272	21.649	1.4545	5.e-002	4.1983
20273	21.649	1.7273	0.	17.195
20274	21.74	1.6364	0.	20.855
20275	21.649	1.6364	5.e-002	4.2373
20276	21.649	1.9091	0.	16.848
20277	21.74	1.8182	0.	20.876
20278	21.649	1.8182	5.e-002	4.2746
20279	21.649	2.0909	0.	16.432
20280	21.74	2.	0.	20.767
20281	21.649	2.	5.e-002	4.3089
20282	21.649	2.2727	0.	15.998
20283	21.74	2.1818	0.	20.575
20284	21.649	2.1818	5.e-002	4.3392
20285	21.649	2.4545	0.	15.598
20286	21.74	2.3636	0.	20.348
20287	21.649	2.3636	5.e-002	4.3645
20288	21.649	2.6364	0.	15.277
20289	21.74	2.5455	0.	20.133
20290	21.649	2.5455	5.e-002	4.3842
20291	21.649	2.8182	0.	15.069
20292	21.74	2.7273	0.	19.967
20293	21.649	2.7273	5.e-002	4.3976
20294	21.649	3.	0.	14.998
20295	21.74	2.9091	0.	19.877
20296	21.649	2.9091	5.e-002	4.4044
20297	21.649	3.1818	0.	15.069
20298	21.74	3.0909	0.	19.877
20299	21.649	3.0909	5.e-002	4.4044
20300	21.649	3.3636	0.	15.277
20301	21.74	3.2727	0.	19.967
20302	21.649	3.2727	5.e-002	4.3976
20303	21.649	3.5455	0.	15.598
20304	21.74	3.4545	0.	20.133
20305	21.649	3.4545	5.e-002	4.3842
20306	21.649	3.7273	0.	15.998
20307	21.74	3.6364	0.	20.348
20308	21.649	3.6364	5.e-002	4.3645
20309	21.649	3.9091	0.	16.432
20310	21.74	3.8182	0.	20.575
20311	21.649	3.8182	5.e-002	4.3392
20312	21.649	4.0909	0.	16.848
20313	21.74	4.	0.	20.767
20314	21.649	4.	5.e-002	4.3089
20315	21.649	4.2727	0.	17.195
20316	21.74	4.1818	0.	20.876
20317	21.649	4.1818	5.e-002	4.2746
20318	21.649	4.4545	0.	17.425
20319	21.74	4.3636	0.	20.855
20320	21.649	4.3636	5.e-002	4.2373
20321	21.649	4.6364	0.	17.497
20322	21.74	4.5455	0.	20.666
20323	21.649	4.5455	5.e-002	4.1983
20324	21.649	4.8182	0.	17.39
20325	21.74	4.7273	0.	20.281
20326	21.649	4.7273	5.e-002	4.1587
20327	21.649	5.	0.	17.101
20328	21.74	4.9091	0.	19.694
20329	21.649	4.9091	5.e-002	4.1198
20330	21.649	5.1818	0.	16.65
20331	21.74	5.0909	0.	18.92
20332	21.649	5.0909	5.e-002	4.083
20333	21.649	5.3636	0.	16.091
20334	21.74	5.2727	0.	18.005
20335	21.649	5.2727	5.e-002	4.0487
20336	21.649	5.5455	0.	15.535
20337	21.74	5.4545	0.	17.027
20338	21.649	5.4545	5.e-002	4.0099
20339	21.649	5.7273	0.	15.789
20340	21.74	5.6364	0.	16.158
20341	21.649	5.6364	5.e-002	3.8468
20342	21.74	5.8182	0.	16.98
20343	21.649	5.8182	5.e-002	1.7137
20344	21.649	5.9091	0.	11.287
20345	21.83	0.27273	0.	17.158
20346	21.92	0.18182	0.	18.049
20347	21.83	0.18182	5.e-002	1.778
20348	21.83	9.0909e-002	0.	11.975
20349	21.83	0.45455	0.	17.577
20350	21.92	0.36364	0.	17.874
20351	21.83	0.36364	5.e-002	3.8572
20352	21.83	0.63636	0.	18.882
20353	21.92	0.54545	0.	19.494
20354	21.83	0.54545	5.e-002	4.016
20355	21.83	0.81818	0.	20.226
20356	21.92	0.72727	0.	21.264
20357	21.83	0.72727	5.e-002	4.0526
20358	21.83	1.	0.	21.473
20359	21.92	0.90909	0.	22.988
20360	21.83	0.90909	5.e-002	4.084
20361	21.83	1.1818	0.	22.552
20362	21.92	1.0909	0.	24.564
20363	21.83	1.0909	5.e-002	4.1174
20364	21.83	1.3636	0.	23.423
20365	21.92	1.2727	0.	25.929
20366	21.83	1.2727	5.e-002	4.1522
20367	21.83	1.5455	0.	24.076
20368	21.92	1.4545	0.	27.053
20369	21.83	1.4545	5.e-002	4.1875
20370	21.83	1.7273	0.	24.519
20371	21.92	1.6364	0.	27.93
20372	21.83	1.6364	5.e-002	4.2221
20373	21.83	1.9091	0.	24.781
20374	21.92	1.8182	0.	28.578
20375	21.83	1.8182	5.e-002	4.2551
20376	21.83	2.0909	0.	24.899
20377	21.92	2.	0.	29.025
20378	21.83	2.	5.e-002	4.2853
20379	21.83	2.2727	0.	24.917
20380	21.92	2.1818	0.	29.31
20381	21.83	2.1818	5.e-002	4.3119
20382	21.83	2.4545	0.	24.877
20383	21.92	2.3636	0.	29.475
20384	21.83	2.3636	5.e-002	4.3341
20385	21.83	2.6364	0.	24.817
20386	21.92	2.5455	0.	29.56
20387	21.83	2.5455	5.e-002	4.3513
20388	21.83	2.8182	0.	24.769
20389	21.92	2.7273	0.	29.596
20390	21.83	2.7273	5.e-002	4.363
20391	21.83	3.	0.	24.751
20392	21.92	2.9091	0.	29.608
20393	21.83	2.9091	5.e-002	4.369
20394	21.83	3.1818	0.	24.769
20395	21.92	3.0909	0.	29.608
20396	21.83	3.0909	5.e-002	4.369
20397	21.83	3.3636	0.	24.817
20398	21.92	3.2727	0.	29.596
20399	21.83	3.2727	5.e-002	4.363
20400	21.83	3.5455	0.	24.877
20401	21.92	3.4545	0.	29.56
20402	21.83	3.4545	5.e-002	4.3513
20403	21.83	3.7273	0.	24.917
20404	21.92	3.6364	0.	29.475
20405	21.83	3.6364	5.e-002	4.3341
20406	21.83	3.9091	0.	24.899
20407	21.92	3.8182	0.	29.31
20408	21.83	3.8182	5.e-002	4.3119
20409	21.83	4.0909	0.	24.781
20410	21.92	4.	0.	29.025
20411	21.83	4.	5.e-002	4.2853
20412	21.83	4.2727	0.	24.519
20413	21.92	4.1818	0.	28.578
20414	21.83	4.1818	5.e-002	4.2551
20415	21.83	4.4545	0.	24.076
20416	21.92	4.3636	0.	27.93
20417	21.83	4.3636	5.e-002	4.2221
20418	21.83	4.6364	0.	23.423
20419	21.92	4.5455	0.	27.053
20420	21.83	4.5455	5.e-002	4.1875
20421	21.83	4.8182	0.	22.552
20422	21.92	4.7273	0.	25.929
20423	21.83	4.7273	5.e-002	4.1522
20424	21.83	5.	0.	21.473
20425	21.92	4.9091	0.	24.564
20426	21.83	4.9091	5.e-002	4.1174
20427	21.83	5.1818	0.	20.226
20428	21.92	5.0909	0.	22.988
20429	21.83	5.0909	5.e-002	4.084
20430	21.83	5.3636	0.	18.882
20431	21.92	5.2727	0.	21.264
20432	21.83	5.2727	5.e-002	4.0526
20433	21.83	5.5455	0.	17.577
20434	21.92	5.4545	0.	19.494
20435	21.83	5.4545	5.e-002	4.016
20436	21.83	5.7273	0.	17.158
20437	21.92	5.6364	0.	17.874
20438	21.83	5.6364	5.e-002	3.8572
20439	21.92	5.8182	0.	18.049
20440	21.83	5.8182	5.e-002	1.778
20441	21.83	5.9091	0.	11.975
20442	22.011	0.27273	0.	18.561
20443	22.101	0.18182	0.	19.115
20444	22.011	0.18182	5.e-002	1.85
20445	22.011	9.0909e-002	0.	12.667
20446	22.011	0.45455	0.	19.712
20447	22.101	0.36364	0.	19.656
20448	22.011	0.36364	5.e-002	3.8648
20449	22.011	0.63636	0.	21.813
20450	22.101	0.54545	0.	22.084
20451	22.011	0.54545	5.e-002	4.0193
20452	22.011	0.81818	0.	23.974
20453	22.101	0.72727	0.	24.692
20454	22.011	0.72727	5.e-002	4.0546
20455	22.011	1.	0.	26.036
20456	22.101	0.90909	0.	27.254
20457	22.011	0.90909	5.e-002	4.0843
20458	22.011	1.1818	0.	27.907
20459	22.101	1.0909	0.	29.644
20460	22.011	1.0909	5.e-002	4.1153
20461	22.011	1.3636	0.	29.532
20462	22.101	1.2727	0.	31.784
20463	22.011	1.2727	5.e-002	4.1474
20464	22.011	1.5455	0.	30.887
20465	22.101	1.4545	0.	33.631
20466	22.011	1.4545	5.e-002	4.1796
20467	22.011	1.7273	0.	31.972
20468	22.101	1.6364	0.	35.17
20469	22.011	1.6364	5.e-002	4.211
20470	22.011	1.9091	0.	32.808
20471	22.101	1.8182	0.	36.411
20472	22.011	1.8182	5.e-002	4.2406
20473	22.011	2.0909	0.	33.425
20474	22.101	2.	0.	37.379
20475	22.011	2.	5.e-002	4.2677
20476	22.011	2.2727	0.	33.861
20477	22.101	2.1818	0.	38.108
20478	22.011	2.1818	5.e-002	4.2914
20479	22.011	2.4545	0.	34.152
20480	22.101	2.3636	0.	38.634
20481	22.011	2.3636	5.e-002	4.3112
20482	22.011	2.6364	0.	34.332
20483	22.101	2.5455	0.	38.992
20484	22.011	2.5455	5.e-002	4.3264
20485	22.011	2.8182	0.	34.429
20486	22.101	2.7273	0.	39.213
20487	22.011	2.7273	5.e-002	4.3368
20488	22.011	3.	0.	34.46
20489	22.101	2.9091	0.	39.318
20490	22.011	2.9091	5.e-002	4.3421
20491	22.011	3.1818	0.	34.429
20492	22.101	3.0909	0.	39.318
20493	22.011	3.0909	5.e-002	4.3421
20494	22.011	3.3636	0.	34.332
20495	22.101	3.2727	0.	39.213
20496	22.011	3.2727	5.e-002	4.3368
20497	22.011	3.5455	0.	34.152
20498	22.101	3.4545	0.	38.992
20499	22.011	3.4545	5.e-002	4.3264
20500	22.011	3.7273	0.	33.861
20501	22.101	3.6364	0.	38.634
20502	22.011	3.6364	5.e-002	4.3112
20503	22.011	3.9091	0.	33.425
20504	22.101	3.8182	0.	38.108
20505	22.011	3.8182	5.e-002	4.2914
20506	22.011	4.0909	0.	32.808
20507	22.101	4.	0.	37.379
20508	22.011	4.	5.e-002	4.2677
20509	22.011	4.2727	0.	31.972
20510	22.101	4.1818	0.	36.411
20511	22.011	4.1818	5.e-002	4.2406
20512	22.011	4.4545	0.	30.887
20513	22.101	4.3636	0.	35.17
20514	22.011	4.3636	5.e-002	4.211
20515	22.011	4.6364	0.	29.532
20516	22.101	4.5455	0.	33.631
20517	22.011	4.5455	5.e-002	4.1796
20518	22.011	4.8182	0.	27.907
20519	22.101	4.7273	0.	31.784
20520	22.011	4.7273	5.e-002	4.1474
20521	22.011	5.	0.	26.036
20522	22.101	4.9091	0.	29.644
20523	22.011	4.9091	5.e-002	4.1153
20524	22.011	5.1818	0.	23.974
20525	22.101	5.0909	0.	27.254
20526	22.011	5.0909	5.e-002	4.0843
20527	22.011	5.3636	0.	21.813
20528	22.101	5.2727	0.	24.692
20529	22.011	5.2727	5.e-002	4.0546
20530	22.011	5.5455	0.	19.712
20531	22.101	5.4545	0.	22.084
20532	22.011	5.4545	5.e-002	4.0193
20533	22.011	5.7273	0.	18.561
20534	22.101	5.6364	0.	19.656
20535	22.011	5.6364	5.e-002	3.8648
20536	22.101	5.8182	0.	19.115
20537	22.011	5.8182	5.e-002	1.8499
20538	22.011	5.9091	0.	12.667
20539	22.192	0.27273	0.	19.991
20540	22.282	0.18182	0.	20.167
20541	22.192	0.18182	5.e-002	1.9315
20542	22.192	9.0909e-002	0.	13.354
20543	22.192	0.45455	0.	21.941
20544	22.282	0.36364	0.	21.503
20545	22.192	0.36364	5.e-002	3.8707
20546	22.192	0.63636	0.	24.895
20547	22.282	0.54545	0.	24.808
20548	22.192	0.54545	5.e-002	4.021
20549	22.192	0.81818	0.	27.916
20550	22.282	0.72727	0.	28.31
20551	22.192	0.72727	5.e-002	4.0557
20552	22.192	1.	0.	30.817
20553	22.282	0.90909	0.	31.747
20554	22.192	0.90909	5.e-002	4.0847
20555	22.192	1.1818	0.	33.487
20556	22.282	1.0909	0.	34.97
20557	22.192	1.0909	5.e-002	4.1145
20558	22.192	1.3636	0.	35.857
20559	22.282	1.2727	0.	37.884
20560	22.192	1.2727	5.e-002	4.1448
20561	22.192	1.5455	0.	37.893
20562	22.282	1.4545	0.	40.438
20563	22.192	1.4545	5.e-002	4.1749
20564	22.192	1.7273	0.	39.593
20565	22.282	1.6364	0.	42.613
20566	22.192	1.6364	5.e-002	4.2039
20567	22.192	1.9091	0.	40.97
20568	22.282	1.8182	0.	44.416
20569	22.192	1.8182	5.e-002	4.2311
20570	22.192	2.0909	0.	42.052
20571	22.282	2.	0.	45.871
20572	22.192	2.	5.e-002	4.2557
20573	22.192	2.2727	0.	42.873
20574	22.282	2.1818	0.	47.009
20575	22.192	2.1818	5.e-002	4.2772
20576	22.192	2.4545	0.	43.468
20577	22.282	2.3636	0.	47.866
20578	22.192	2.3636	5.e-002	4.295
20579	22.192	2.6364	0.	43.867
20580	22.282	2.5455	0.	48.474
20581	22.192	2.5455	5.e-002	4.3087
20582	22.192	2.8182	0.	44.097
20583	22.282	2.7273	0.	48.863
20584	22.192	2.7273	5.e-002	4.318
20585	22.192	3.	0.	44.171
20586	22.282	2.9091	0.	49.052
20587	22.192	2.9091	5.e-002	4.3227
20588	22.192	3.1818	0.	44.097
20589	22.282	3.0909	0.	49.052
20590	22.192	3.0909	5.e-002	4.3227
20591	22.192	3.3636	0.	43.867
20592	22.282	3.2727	0.	48.863
20593	22.192	3.2727	5.e-002	4.318
20594	22.192	3.5455	0.	43.468
20595	22.282	3.4545	0.	48.474
20596	22.192	3.4545	5.e-002	4.3087
20597	22.192	3.7273	0.	42.873
20598	22.282	3.6364	0.	47.866
20599	22.192	3.6364	5.e-002	4.295
20600	22.192	3.9091	0.	42.052
20601	22.282	3.8182	0.	47.009
20602	22.192	3.8182	5.e-002	4.2772
20603	22.192	4.0909	0.	40.97
20604	22.282	4.	0.	45.871
20605	22.192	4.	5.e-002	4.2557
20606	22.192	4.2727	0.	39.593
20607	22.282	4.1818	0.	44.416
20608	22.192	4.1818	5.e-002	4.2311
20609	22.192	4.4545	0.	37.893
20610	22.282	4.3636	0.	42.613
20611	22.192	4.3636	5.e-002	4.2039
20612	22.192	4.6364	0.	35.857
20613	22.282	4.5455	0.	40.438
20614	22.192	4.5455	5.e-002	4.1749
20615	22.192	4.8182	0.	33.487
20616	22.282	4.7273	0.	37.884
20617	22.192	4.7273	5.e-002	4.1448
20618	22.192	5.	0.	30.817
20619	22.282	4.9091	0.	34.97
20620	22.192	4.9091	5.e-002	4.1145
20621	22.192	5.1818	0.	27.916
20622	22.282	5.0909	0.	31.747
20623	22.192	5.0909	5.e-002	4.0847
20624	22.192	5.3636	0.	24.895
20625	22.282	5.2727	0.	28.31
20626	22.192	5.2727	5.e-002	4.0557
20627	22.192	5.5455	0.	21.941
20628	22.282	5.4545	0.	24.808
20629	22.192	5.4545	5.e-002	4.021
20630	22.192	5.7273	0.	19.991
20631	22.282	5.6364	0.	21.503
20632	22.192	5.6364	5.e-002	3.8707
20633	22.282	5.8182	0.	20.167
20634	22.192	5.8182	5.e-002	1.9315
20635	22.192	5.9091	0.	13.354
20636	22.372	0.27273	0.	21.441
20637	22.463	0.18182	0.	21.19
20638	22.372	0.18182	5.e-002	2.0246
20639	22.372	9.0909e-002	0.	14.029
20640	22.372	0.45455	0.	24.273
20641	22.463	0.36364	0.	23.421
20642	22.372	0.36364	5.e-002	3.876
20643	22.372	0.63636	0.	28.149
20644	22.463	0.54545	0.	27.689
20645	22.372	0.54545	5.e-002	4.022
20646	22.372	0.81818	0.	32.082
20647	22.463	0.72727	0.	32.153
20648	22.372	0.72727	5.e-002	4.0571
20649	22.372	1.	0.	35.854
20650	22.463	0.90909	0.	36.51
20651	22.372	0.90909	5.e-002	4.0862
20652	22.372	1.1818	0.	39.332
20653	22.463	1.0909	0.	40.586
20654	22.372	1.0909	5.e-002	4.1156
20655	22.372	1.3636	0.	42.439
20656	22.463	1.2727	0.	44.273
20657	22.372	1.2727	5.e-002	4.1451
20658	22.372	1.5455	0.	45.137
20659	22.463	1.4545	0.	47.517
20660	22.372	1.4545	5.e-002	4.1738
20661	22.372	1.7273	0.	47.42
20662	22.463	1.6364	0.	50.3
20663	22.372	1.6364	5.e-002	4.2012
20664	22.372	1.9091	0.	49.305
20665	22.463	1.8182	0.	52.632
20666	22.372	1.8182	5.e-002	4.2265
20667	22.372	2.0909	0.	50.818
20668	22.463	2.	0.	54.539
20669	22.372	2.	5.e-002	4.2492
20670	22.372	2.2727	0.	51.994
20671	22.463	2.1818	0.	56.052
20672	22.372	2.1818	5.e-002	4.2689
20673	22.372	2.4545	0.	52.866
20674	22.463	2.3636	0.	57.21
20675	22.372	2.3636	5.e-002	4.285
20676	22.372	2.6364	0.	53.464
20677	22.463	2.5455	0.	58.045
20678	22.372	2.5455	5.e-002	4.2974
20679	22.372	2.8182	0.	53.813
20680	22.463	2.7273	0.	58.585
20681	22.372	2.7273	5.e-002	4.3058
20682	22.372	3.	0.	53.928
20683	22.463	2.9091	0.	58.85
20684	22.372	2.9091	5.e-002	4.31
20685	22.372	3.1818	0.	53.813
20686	22.463	3.0909	0.	58.85
20687	22.372	3.0909	5.e-002	4.3101
20688	22.372	3.3636	0.	53.464
20689	22.463	3.2727	0.	58.585
20690	22.372	3.2727	5.e-002	4.3058
20691	22.372	3.5455	0.	52.866
20692	22.463	3.4545	0.	58.045
20693	22.372	3.4545	5.e-002	4.2974
20694	22.372	3.7273	0.	51.994
20695	22.463	3.6364	0.	57.21
20696	22.372	3.6364	5.e-002	4.285
20697	22.372	3.9091	0.	50.818
20698	22.463	3.8182	0.	56.052
20699	22.372	3.8182	5.e-002	4.2689
20700	22.372	4.0909	0.	49.305
20701	22.463	4.	0.	54.539
20702	22.372	4.	5.e-002	4.2492
20703	22.372	4.2727	0.	47.42
20704	22.463	4.1818	0.	52.632
20705	22.372	4.1818	5.e-002	4.2265
20706	22.372	4.4545	0.	45.137
20707	22.463	4.3636	0.	50.3
20708	22.372	4.3636	5.e-002	4.2012
20709	22.372	4.6364	0.	42.439
20710	22.463	4.5455	0.	47.517
20711	22.372	4.5455	5.e-002	4.1738
20712	22.372	4.8182	0.	39.332
20713	22.463	4.7273	0.	44.273
20714	22.372	4.7273	5.e-002	4.1451
20715	22.372	5.	0.	35.854
20716	22.463	4.9091	0.	40.586
20717	22.372	4.9091	5.e-002	4.1156
20718	22.372	5.1818	0.	32.082
20719	22.463	5.0909	0.	36.51
20720	22.372	5.0909	5.e-002	4.0862
20721	22.372	5.3636	0.	28.149
20722	22.463	5.2727	0.	32.152
20723	22.372	5.2727	5.e-002	4.0571
20724	22.372	5.5455	0.	24.273
20725	22.463	5.4545	0.	27.689
20726	22.372	5.4545	5.e-002	4.022
20727	22.372	5.7273	0.	21.441
20728	22.463	5.6364	0.	23.421
20729	22.372	5.6364	5.e-002	3.876
20730	22.463	5.8182	0.	21.19
20731	22.372	5.8182	5.e-002	2.0246
20732	22.372	5.9091	0.	14.029
20733	22.553	0.27273	0.	22.909
20734	22.644	0.18182	0.	22.172
20735	22.553	0.18182	5.e-002	2.1312
20736	22.553	9.0909e-002	0.	14.684
20737	22.553	0.45455	0.	26.728
20738	22.644	0.36364	0.	25.425
20739	22.553	0.36364	5.e-002	3.8818
20740	22.553	0.63636	0.	31.612
20741	22.644	0.54545	0.	30.765
20742	22.553	0.54545	5.e-002	4.0235
20743	22.553	0.81818	0.	36.519
20744	22.644	0.72727	0.	36.274
20745	22.553	0.72727	5.e-002	4.0598
20746	22.553	1.	0.	41.196
20747	22.644	0.90909	0.	41.602
20748	22.553	0.90909	5.e-002	4.0899
20749	22.553	1.1818	0.	45.492
20750	22.644	1.0909	0.	46.55
20751	22.553	1.0909	5.e-002	4.1198
20752	22.553	1.3636	0.	49.326
20753	22.644	1.2727	0.	51.006
20754	22.553	1.2727	5.e-002	4.1491
20755	22.553	1.5455	0.	52.661
20756	22.644	1.4545	0.	54.917
20757	22.553	1.4545	5.e-002	4.177
20758	22.553	1.7273	0.	55.497
20759	22.644	1.6364	0.	58.276
20760	22.553	1.6364	5.e-002	4.2032
20761	22.553	1.9091	0.	57.854
20762	22.644	1.8182	0.	61.1
20763	22.553	1.8182	5.e-002	4.2271
20764	22.553	2.0909	0.	59.763
20765	22.644	2.	0.	63.419
20766	22.553	2.	5.e-002	4.2482
20767	22.553	2.2727	0.	61.261
20768	22.644	2.1818	0.	65.274
20769	22.553	2.1818	5.e-002	4.2662
20770	22.553	2.4545	0.	62.383
20771	22.644	2.3636	0.	66.702
20772	22.553	2.3636	5.e-002	4.281
20773	22.553	2.6364	0.	63.16
20774	22.644	2.5455	0.	67.739
20775	22.553	2.5455	5.e-002	4.2922
20776	22.553	2.8182	0.	63.616
20777	22.644	2.7273	0.	68.414
20778	22.553	2.7273	5.e-002	4.2998
20779	22.553	3.	0.	63.766
20780	22.644	2.9091	0.	68.746
20781	22.553	2.9091	5.e-002	4.3036
20782	22.553	3.1818	0.	63.616
20783	22.644	3.0909	0.	68.746
20784	22.553	3.0909	5.e-002	4.3036
20785	22.553	3.3636	0.	63.16
20786	22.644	3.2727	0.	68.414
20787	22.553	3.2727	5.e-002	4.2998
20788	22.553	3.5455	0.	62.383
20789	22.644	3.4545	0.	67.739
20790	22.553	3.4545	5.e-002	4.2922
20791	22.553	3.7273	0.	61.261
20792	22.644	3.6364	0.	66.702
20793	22.553	3.6364	5.e-002	4.281
20794	22.553	3.9091	0.	59.763
20795	22.644	3.8182	0.	65.274
20796	22.553	3.8182	5.e-002	4.2662
20797	22.553	4.0909	0.	57.854
20798	22.644	4.	0.	63.419
20799	22.553	4.	5.e-002	4.2482
20800	22.553	4.2727	0.	55.497
20801	22.644	4.1818	0.	61.1
20802	22.553	4.1818	5.e-002	4.2271
20803	22.553	4.4545	0.	52.661
20804	22.644	4.3636	0.	58.276
20805	22.553	4.3636	5.e-002	4.2032
20806	22.553	4.6364	0.	49.326
20807	22.644	4.5455	0.	54.917
20808	22.553	4.5455	5.e-002	4.177
20809	22.553	4.8182	0.	45.492
20810	22.644	4.7273	0.	51.005
20811	22.553	4.7273	5.e-002	4.1491
20812	22.553	5.	0.	41.196
20813	22.644	4.9091	0.	46.55
20814	22.553	4.9091	5.e-002	4.1198
20815	22.553	5.1818	0.	36.519
20816	22.644	5.0909	0.	41.602
20817	22.553	5.0909	5.e-002	4.0899
20818	22.553	5.3636	0.	31.612
20819	22.644	5.2727	0.	36.274
20820	22.553	5.2727	5.e-002	4.0598
20821	22.553	5.5455	0.	26.728
20822	22.644	5.4545	0.	30.765
20823	22.553	5.4545	5.e-002	4.0235
20824	22.553	5.7273	0.	22.909
20825	22.644	5.6364	0.	25.425
20826	22.553	5.6364	5.e-002	3.8817
20827	22.644	5.8182	0.	22.172
20828	22.553	5.8182	5.e-002	2.1312
20829	22.553	5.9091	0.	14.684
20830	22.734	0.27273	0.	24.398
20831	22.825	0.18182	0.	23.099
20832	22.734	0.18182	5.e-002	2.2534
20833	22.734	9.0909e-002	0.	15.308
20834	22.734	0.45455	0.	29.339
20835	22.825	0.36364	0.	27.544
20836	22.734	0.36364	5.e-002	3.8889
20837	22.734	0.63636	0.	35.339
20838	22.825	0.54545	0.	34.097
20839	22.734	0.54545	5.e-002	4.0266
20840	22.734	0.81818	0.	41.293
20841	22.825	0.72727	0.	40.751
20842	22.734	0.72727	5.e-002	4.0652
20843	22.734	1.	0.	46.91
20844	22.825	0.90909	0.	47.102
20845	22.734	0.90909	5.e-002	4.0973
20846	22.734	1.1818	0.	52.029
20847	22.825	1.0909	0.	52.935
20848	22.734	1.0909	5.e-002	4.1282
20849	22.734	1.3636	0.	56.572
20850	22.825	1.2727	0.	58.142
20851	22.734	1.2727	5.e-002	4.1577
20852	22.734	1.5455	0.	60.513
20853	22.825	1.4545	0.	62.69
20854	22.734	1.4545	5.e-002	4.1853
20855	22.734	1.7273	0.	63.864
20856	22.825	1.6364	0.	66.584
20857	22.734	1.6364	5.e-002	4.2104
20858	22.734	1.9091	0.	66.654
20859	22.825	1.8182	0.	69.856
20860	22.734	1.8182	5.e-002	4.2329
20861	22.734	2.0909	0.	68.922
20862	22.825	2.	0.	72.548
20863	22.734	2.	5.e-002	4.2525
20864	22.734	2.2727	0.	70.708
20865	22.825	2.1818	0.	74.706
20866	22.734	2.1818	5.e-002	4.2691
20867	22.734	2.4545	0.	72.053
20868	22.825	2.3636	0.	76.373
20869	22.734	2.3636	5.e-002	4.2825
20870	22.734	2.6364	0.	72.988
20871	22.825	2.5455	0.	77.588
20872	22.734	2.5455	5.e-002	4.2926
20873	22.734	2.8182	0.	73.538
20874	22.825	2.7273	0.	78.38
20875	22.734	2.7273	5.e-002	4.2994
20876	22.734	3.	0.	73.72
20877	22.825	2.9091	0.	78.771
20878	22.734	2.9091	5.e-002	4.3028
20879	22.734	3.1818	0.	73.538
20880	22.825	3.0909	0.	78.771
20881	22.734	3.0909	5.e-002	4.3028
20882	22.734	3.3636	0.	72.988
20883	22.825	3.2727	0.	78.38
20884	22.734	3.2727	5.e-002	4.2994
20885	22.734	3.5455	0.	72.053
20886	22.825	3.4545	0.	77.588
20887	22.734	3.4545	5.e-002	4.2926
20888	22.734	3.7273	0.	70.708
20889	22.825	3.6364	0.	76.373
20890	22.734	3.6364	5.e-002	4.2825
20891	22.734	3.9091	0.	68.922
20892	22.825	3.8182	0.	74.706
20893	22.734	3.8182	5.e-002	4.2691
20894	22.734	4.0909	0.	66.654
20895	22.825	4.	0.	72.548
20896	22.734	4.	5.e-002	4.2525
20897	22.734	4.2727	0.	63.864
20898	22.825	4.1818	0.	69.856
20899	22.734	4.1818	5.e-002	4.2329
20900	22.734	4.4545	0.	60.513
20901	22.825	4.3636	0.	66.584
20902	22.734	4.3636	5.e-002	4.2104
20903	22.734	4.6364	0.	56.572
20904	22.825	4.5455	0.	62.69
20905	22.734	4.5455	5.e-002	4.1853
20906	22.734	4.8182	0.	52.029
20907	22.825	4.7273	0.	58.142
20908	22.734	4.7273	5.e-002	4.1577
20909	22.734	5.	0.	46.91
20910	22.825	4.9091	0.	52.935
20911	22.734	4.9091	5.e-002	4.1282
20912	22.734	5.1818	0.	41.293
20913	22.825	5.0909	0.	47.102
20914	22.734	5.0909	5.e-002	4.0973
20915	22.734	5.3636	0.	35.339
20916	22.825	5.2727	0.	40.751
20917	22.734	5.2727	5.e-002	4.0652
20918	22.734	5.5455	0.	29.339
20919	22.825	5.4545	0.	34.097
20920	22.734	5.4545	5.e-002	4.0266
20921	22.734	5.7273	0.	24.398
20922	22.825	5.6364	0.	27.544
20923	22.734	5.6364	5.e-002	3.8889
20924	22.825	5.8182	0.	23.099
20925	22.734	5.8182	5.e-002	2.2533
20926	22.734	5.9091	0.	15.308
20927	22.915	0.27273	0.	25.921
20928	23.005	0.18182	0.	23.961
20929	22.915	0.18182	5.e-002	2.3935
20930	22.915	9.0909e-002	0.	15.894
20931	22.915	0.45455	0.	32.164
20932	23.005	0.36364	0.	29.834
20933	22.915	0.36364	5.e-002	3.8987
20934	22.915	0.63636	0.	39.415
20935	23.005	0.54545	0.	37.783
20936	22.915	0.54545	5.e-002	4.033
20937	22.915	0.81818	0.	46.495
20938	23.005	0.72727	0.	45.693
20939	22.915	0.72727	5.e-002	4.0751
20940	22.915	1.	0.	53.081
20941	23.005	0.90909	0.	53.111
20942	22.915	0.90909	5.e-002	4.11
20943	22.915	1.1818	0.	59.015
20944	23.005	1.0909	0.	59.823
20945	22.915	1.0909	5.e-002	4.1426
20946	22.915	1.3636	0.	64.237
20947	23.005	1.2727	0.	65.75
20948	22.915	1.2727	5.e-002	4.1724
20949	22.915	1.5455	0.	68.743
20950	23.005	1.4545	0.	70.887
20951	22.915	1.4545	5.e-002	4.1995
20952	22.915	1.7273	0.	72.562
20953	23.005	1.6364	0.	75.265
20954	22.915	1.6364	5.e-002	4.2235
20955	22.915	1.9091	0.	75.74
20956	23.005	1.8182	0.	78.936
20957	22.915	1.8182	5.e-002	4.2445
20958	22.915	2.0909	0.	78.325
20959	23.005	2.	0.	81.955
20960	22.915	2.	5.e-002	4.2624
20961	22.915	2.2727	0.	80.365
20962	23.005	2.1818	0.	84.376
20963	22.915	2.1818	5.e-002	4.2773
20964	22.915	2.4545	0.	81.903
20965	23.005	2.3636	0.	86.249
20966	22.915	2.3636	5.e-002	4.2893
20967	22.915	2.6364	0.	82.975
20968	23.005	2.5455	0.	87.616
20969	22.915	2.5455	5.e-002	4.2982
20970	22.915	2.8182	0.	83.608
20971	23.005	2.7273	0.	88.509
20972	22.915	2.7273	5.e-002	4.3041
20973	22.915	3.	0.	83.817
20974	23.005	2.9091	0.	88.949
20975	22.915	2.9091	5.e-002	4.3071
20976	22.915	3.1818	0.	83.608
20977	23.005	3.0909	0.	88.949
20978	22.915	3.0909	5.e-002	4.3071
20979	22.915	3.3636	0.	82.975
20980	23.005	3.2727	0.	88.509
20981	22.915	3.2727	5.e-002	4.3041
20982	22.915	3.5455	0.	81.903
20983	23.005	3.4545	0.	87.616
20984	22.915	3.4545	5.e-002	4.2982
20985	22.915	3.7273	0.	80.365
20986	23.005	3.6364	0.	86.249
20987	22.915	3.6364	5.e-002	4.2893
20988	22.915	3.9091	0.	78.325
20989	23.005	3.8182	0.	84.376
20990	22.915	3.8182	5.e-002	4.2773
20991	22.915	4.0909	0.	75.74
20992	23.005	4.	0.	81.955
20993	22.915	4.	5.e-002	4.2624
20994	22.915	4.2727	0.	72.562
20995	23.005	4.1818	0.	78.936
20996	22.915	4.1818	5.e-002	4.2445
20997	22.915	4.4545	0.	68.743
20998	23.005	4.3636	0.	75.265
20999	22.915	4.3636	5.e-002	4.2235
21000	22.915	4.6364	0.	64.237
21001	23.005	4.5455	0.	70.887
21002	22.915	4.5455	5.e-002	4.1995
21003	22.915	4.8182	0.	59.015
21004	23.005	4.7273	0.	65.75
21005	22.915	4.7273	5.e-002	4.1724
21006	22.915	5.	0.	53.081
21007	23.005	4.9091	0.	59.823
21008	22.915	4.9091	5.e-002	4.1426
21009	22.915	5.1818	0.	46.495
21010	23.005	5.0909	0.	53.111
21011	22.915	5.0909	5.e-002	4.11
21012	22.915	5.3636	0.	39.415
21013	23.005	5.2727	0.	45.693
21014	22.915	5.2727	5.e-002	4.0751
21015	22.915	5.5455	0.	32.164
21016	23.005	5.4545	0.	37.782
21017	22.915	5.4545	5.e-002	4.033
21018	22.915	5.7273	0.	25.921
21019	23.005	5.6364	0.	29.833
21020	22.915	5.6364	5.e-002	3.8987
21021	23.005	5.8182	0.	23.961
21022	22.915	5.8182	5.e-002	2.3935
21023	22.915	5.9091	0.	15.894
21024	23.096	0.27273	0.	27.504
21025	23.186	0.18182	0.	24.751
21026	23.096	0.18182	5.e-002	2.5549
21027	23.096	9.0909e-002	0.	16.426
21028	23.096	0.45455	0.	35.297
21029	23.186	0.36364	0.	32.397
21030	23.096	0.36364	5.e-002	3.9133
21031	23.096	0.63636	0.	43.963
21032	23.186	0.54545	0.	41.978
21033	23.096	0.54545	5.e-002	4.0454
21034	23.096	0.81818	0.	52.245
21035	23.186	0.72727	0.	51.254
21036	23.096	0.72727	5.e-002	4.0926
21037	23.096	1.	0.	59.81
21038	23.186	0.90909	0.	59.755
21039	23.096	0.90909	5.e-002	4.1309
21040	23.096	1.1818	0.	66.529
21041	23.186	1.0909	0.	67.311
21042	23.096	1.0909	5.e-002	4.1649
21043	23.096	1.3636	0.	72.379
21044	23.186	1.2727	0.	73.898
21045	23.096	1.2727	5.e-002	4.1947
21046	23.096	1.5455	0.	77.394
21047	23.186	1.4545	0.	79.558
21048	23.096	1.4545	5.e-002	4.2207
21049	23.096	1.7273	0.	81.627
21050	23.186	1.6364	0.	84.358
21051	23.096	1.6364	5.e-002	4.243
21052	23.096	1.9091	0.	85.141
21053	23.186	1.8182	0.	88.369
21054	23.096	1.8182	5.e-002	4.2619
21055	23.096	2.0909	0.	87.998
21056	23.186	2.	0.	91.664
21057	23.096	2.	5.e-002	4.2778
21058	23.096	2.2727	0.	90.254
21059	23.186	2.1818	0.	94.306
21060	23.096	2.1818	5.e-002	4.2908
21061	23.096	2.4545	0.	91.957
21062	23.186	2.3636	0.	96.351
21063	23.096	2.3636	5.e-002	4.301
21064	23.096	2.6364	0.	93.145
21065	23.186	2.5455	0.	97.845
21066	23.096	2.5455	5.e-002	4.3086
21067	23.096	2.8182	0.	93.846
21068	23.186	2.7273	0.	98.821
21069	23.096	2.7273	5.e-002	4.3136
21070	23.096	3.	0.	94.078
21071	23.186	2.9091	0.	99.303
21072	23.096	2.9091	5.e-002	4.3161
21073	23.096	3.1818	0.	93.846
21074	23.186	3.0909	0.	99.303
21075	23.096	3.0909	5.e-002	4.3161
21076	23.096	3.3636	0.	93.145
21077	23.186	3.2727	0.	98.821
21078	23.096	3.2727	5.e-002	4.3136
21079	23.096	3.5455	0.	91.957
21080	23.186	3.4545	0.	97.845
21081	23.096	3.4545	5.e-002	4.3086
21082	23.096	3.7273	0.	90.254
21083	23.186	3.6364	0.	96.351
21084	23.096	3.6364	5.e-002	4.301
21085	23.096	3.9091	0.	87.998
21086	23.186	3.8182	0.	94.306
21087	23.096	3.8182	5.e-002	4.2908
21088	23.096	4.0909	0.	85.141
21089	23.186	4.	0.	91.664
21090	23.096	4.	5.e-002	4.2778
21091	23.096	4.2727	0.	81.627
21092	23.186	4.1818	0.	88.369
21093	23.096	4.1818	5.e-002	4.2619
21094	23.096	4.4545	0.	77.394
21095	23.186	4.3636	0.	84.358
21096	23.096	4.3636	5.e-002	4.243
21097	23.096	4.6364	0.	72.379
21098	23.186	4.5455	0.	79.558
21099	23.096	4.5455	5.e-002	4.2206
21100	23.096	4.8182	0.	66.529
21101	23.186	4.7273	0.	73.898
21102	23.096	4.7273	5.e-002	4.1947
21103	23.096	5.	0.	59.81
21104	23.186	4.9091	0.	67.311
21105	23.096	4.9091	5.e-002	4.1649
21106	23.096	5.1818	0.	52.245
21107	23.186	5.0909	0.	59.755
21108	23.096	5.0909	5.e-002	4.1309
21109	23.096	5.3636	0.	43.963
21110	23.186	5.2727	0.	51.254
21111	23.096	5.2727	5.e-002	4.0926
21112	23.096	5.5455	0.	35.297
21113	23.186	5.4545	0.	41.978
21114	23.096	5.4545	5.e-002	4.0454
21115	23.096	5.7273	0.	27.504
21116	23.186	5.6364	0.	32.397
21117	23.096	5.6364	5.e-002	3.9133
21118	23.186	5.8182	0.	24.751
21119	23.096	5.8182	5.e-002	2.5549
21120	23.096	5.9091	0.	16.426
21121	23.277	0.27273	0.	29.215
21122	23.367	0.18182	0.	25.481
21123	23.277	0.18182	5.e-002	2.743
21124	23.277	9.0909e-002	0.	16.894
21125	23.277	0.45455	0.	38.907
21126	23.367	0.36364	0.	35.43
21127	23.277	0.36364	5.e-002	3.9362
21128	23.277	0.63636	0.	49.172
21129	23.367	0.54545	0.	46.924
21130	23.277	0.54545	5.e-002	4.069
21131	23.277	0.81818	0.	58.705
21132	23.367	0.72727	0.	57.632
21133	23.277	0.72727	5.e-002	4.1223
21134	23.277	1.	0.	67.218
21135	23.367	0.90909	0.	67.171
21136	23.277	0.90909	5.e-002	4.1636
21137	23.277	1.1818	0.	74.655
21138	23.367	1.0909	0.	75.485
21139	23.277	1.0909	5.e-002	4.1979
21140	23.277	1.3636	0.	81.059
21141	23.367	1.2727	0.	82.641
21142	23.277	1.2727	5.e-002	4.2263
21143	23.277	1.5455	0.	86.509
21144	23.367	1.4545	0.	88.739
21145	23.277	1.4545	5.e-002	4.2499
21146	23.277	1.7273	0.	91.09
21147	23.367	1.6364	0.	93.884
21148	23.277	1.6364	5.e-002	4.2695
21149	23.277	1.9091	0.	94.884
21150	23.367	1.8182	0.	98.172
21151	23.277	1.8182	5.e-002	4.2856
21152	23.277	2.0909	0.	97.965
21153	23.367	2.	0.	101.69
21154	23.277	2.	5.e-002	4.2987
21155	23.277	2.2727	0.	100.4
21156	23.367	2.1818	0.	104.51
21157	23.277	2.1818	5.e-002	4.3092
21158	23.277	2.4545	0.	102.23
21159	23.367	2.3636	0.	106.69
21160	23.277	2.3636	5.e-002	4.3174
21161	23.277	2.6364	0.	103.52
21162	23.367	2.5455	0.	108.28
21163	23.277	2.5455	5.e-002	4.3234
21164	23.277	2.8182	0.	104.27
21165	23.367	2.7273	0.	109.33
21166	23.277	2.7273	5.e-002	4.3273
21167	23.277	3.	0.	104.52
21168	23.367	2.9091	0.	109.84
21169	23.277	2.9091	5.e-002	4.3293
21170	23.277	3.1818	0.	104.27
21171	23.367	3.0909	0.	109.84
21172	23.277	3.0909	5.e-002	4.3293
21173	23.277	3.3636	0.	103.52
21174	23.367	3.2727	0.	109.33
21175	23.277	3.2727	5.e-002	4.3273
21176	23.277	3.5455	0.	102.23
21177	23.367	3.4545	0.	108.28
21178	23.277	3.4545	5.e-002	4.3234
21179	23.277	3.7273	0.	100.4
21180	23.367	3.6364	0.	106.69
21181	23.277	3.6364	5.e-002	4.3174
21182	23.277	3.9091	0.	97.965
21183	23.367	3.8182	0.	104.51
21184	23.277	3.8182	5.e-002	4.3092
21185	23.277	4.0909	0.	94.884
21186	23.367	4.	0.	101.69
21187	23.277	4.	5.e-002	4.2987
21188	23.277	4.2727	0.	91.09
21189	23.367	4.1818	0.	98.172
21190	23.277	4.1818	5.e-002	4.2856
21191	23.277	4.4545	0.	86.509
21192	23.367	4.3636	0.	93.884
21193	23.277	4.3636	5.e-002	4.2695
21194	23.277	4.6364	0.	81.059
21195	23.367	4.5455	0.	88.739
21196	23.277	4.5455	5.e-002	4.2499
21197	23.277	4.8182	0.	74.655
21198	23.367	4.7273	0.	82.641
21199	23.277	4.7273	5.e-002	4.2263
21200	23.277	5.	0.	67.218
21201	23.367	4.9091	0.	75.485
21202	23.277	4.9091	5.e-002	4.1979
21203	23.277	5.1818	0.	58.705
21204	23.367	5.0909	0.	67.171
21205	23.277	5.0909	5.e-002	4.1636
21206	23.277	5.3636	0.	49.172
21207	23.367	5.2727	0.	57.632
21208	23.277	5.2727	5.e-002	4.1223
21209	23.277	5.5455	0.	38.907
21210	23.367	5.4545	0.	46.924
21211	23.277	5.4545	5.e-002	4.069
21212	23.277	5.7273	0.	29.215
21213	23.367	5.6364	0.	35.43
21214	23.277	5.6364	5.e-002	3.9362
21215	23.367	5.8182	0.	25.481
21216	23.277	5.8182	5.e-002	2.743
21217	23.277	5.9091	0.	16.894
21218	23.458	0.27273	0.	31.196
21219	23.548	0.18182	0.	26.254
21220	23.458	0.18182	5.e-002	2.9643
21221	23.458	9.0909e-002	0.	17.27
21222	23.458	0.45455	0.	43.271
21223	23.548	0.36364	0.	39.376
21224	23.458	0.36364	5.e-002	3.9774
21225	23.458	0.63636	0.	55.296
21226	23.548	0.54545	0.	53.015
21227	23.458	0.54545	5.e-002	4.1139
21228	23.458	0.81818	0.	66.049
21229	23.548	0.72727	0.	65.088
21230	23.458	0.72727	5.e-002	4.1717
21231	23.458	1.	0.	75.408
21232	23.548	0.90909	0.	75.521
21233	23.458	0.90909	5.e-002	4.213
21234	23.458	1.1818	0.	83.451
21235	23.548	1.0909	0.	84.447
21236	23.458	1.0909	5.e-002	4.2445
21237	23.458	1.3636	0.	90.307
21238	23.548	1.2727	0.	92.045
21239	23.458	1.2727	5.e-002	4.2689
21240	23.458	1.5455	0.	96.103
21241	23.548	1.4545	0.	98.477
21242	23.458	1.4545	5.e-002	4.288
21243	23.458	1.7273	0.	100.96
21244	23.548	1.6364	0.	103.88
21245	23.458	1.6364	5.e-002	4.3032
21246	23.458	1.9091	0.	104.97
21247	23.548	1.8182	0.	108.38
21248	23.458	1.8182	5.e-002	4.3152
21249	23.458	2.0909	0.	108.23
21250	23.548	2.	0.	112.06
21251	23.458	2.	5.e-002	4.3247
21252	23.458	2.2727	0.	110.8
21253	23.548	2.1818	0.	115.01
21254	23.458	2.1818	5.e-002	4.3321
21255	23.458	2.4545	0.	112.74
21256	23.548	2.3636	0.	117.3
21257	23.458	2.3636	5.e-002	4.3377
21258	23.458	2.6364	0.	114.09
21259	23.548	2.5455	0.	118.97
21260	23.458	2.5455	5.e-002	4.3418
21261	23.458	2.8182	0.	114.89
21262	23.548	2.7273	0.	120.06
21263	23.458	2.7273	5.e-002	4.3444
21264	23.458	3.	0.	115.16
21265	23.548	2.9091	0.	120.6
21266	23.458	2.9091	5.e-002	4.3457
21267	23.458	3.1818	0.	114.89
21268	23.548	3.0909	0.	120.6
21269	23.458	3.0909	5.e-002	4.3457
21270	23.458	3.3636	0.	114.09
21271	23.548	3.2727	0.	120.06
21272	23.458	3.2727	5.e-002	4.3444
21273	23.458	3.5455	0.	112.74
21274	23.548	3.4545	0.	118.97
21275	23.458	3.4545	5.e-002	4.3418
21276	23.458	3.7273	0.	110.8
21277	23.548	3.6364	0.	117.3
21278	23.458	3.6364	5.e-002	4.3377
21279	23.458	3.9091	0.	108.23
21280	23.548	3.8182	0.	115.01
21281	23.458	3.8182	5.e-002	4.3321
21282	23.458	4.0909	0.	104.97
21283	23.548	4.	0.	112.06
21284	23.458	4.	5.e-002	4.3247
21285	23.458	4.2727	0.	100.96
21286	23.548	4.1818	0.	108.38
21287	23.458	4.1818	5.e-002	4.3152
21288	23.458	4.4545	0.	96.103
21289	23.548	4.3636	0.	103.88
21290	23.458	4.3636	5.e-002	4.3032
21291	23.458	4.6364	0.	90.307
21292	23.548	4.5455	0.	98.477
21293	23.458	4.5455	5.e-002	4.288
21294	23.458	4.8182	0.	83.451
21295	23.548	4.7273	0.	92.045
21296	23.458	4.7273	5.e-002	4.2689
21297	23.458	5.	0.	75.408
21298	23.548	4.9091	0.	84.447
21299	23.458	4.9091	5.e-002	4.2445
21300	23.458	5.1818	0.	66.048
21301	23.548	5.0909	0.	75.521
21302	23.458	5.0909	5.e-002	4.213
21303	23.458	5.3636	0.	55.296
21304	23.548	5.2727	0.	65.088
21305	23.458	5.2727	5.e-002	4.1717
21306	23.458	5.5455	0.	43.271
21307	23.548	5.4545	0.	53.014
21308	23.458	5.4545	5.e-002	4.1139
21309	23.458	5.7273	0.	31.196
21310	23.548	5.6364	0.	39.376
21311	23.458	5.6364	5.e-002	3.9774
21312	23.548	5.8182	0.	26.254
21313	23.458	5.8182	5.e-002	2.9643
21314	23.458	5.9091	0.	17.27
21315	23.638	0.27273	0.	33.866
21316	23.729	0.18182	0.	27.724
21317	23.638	0.18182	5.e-002	3.2501
21318	23.638	9.0909e-002	0.	17.624
21319	23.638	0.45455	0.	48.96
21320	23.729	0.36364	0.	45.089
21321	23.638	0.36364	5.e-002	4.0722
21322	23.638	0.63636	0.	62.737
21323	23.729	0.54545	0.	60.708
21324	23.638	0.54545	5.e-002	4.2023
21325	23.638	0.81818	0.	74.522
21326	23.729	0.72727	0.	73.821
21327	23.638	0.72727	5.e-002	4.2555
21328	23.638	1.	0.	84.536
21329	23.729	0.90909	0.	84.868
21330	23.638	0.90909	5.e-002	4.2876
21331	23.638	1.1818	0.	93.024
21332	23.729	1.0909	0.	94.194
21333	23.638	1.0909	5.e-002	4.3098
21334	23.638	1.3636	0.	100.2
21335	23.729	1.2727	0.	102.07
21336	23.638	1.2727	5.e-002	4.3255
21337	23.638	1.5455	0.	106.25
21338	23.729	1.4545	0.	108.72
21339	23.638	1.4545	5.e-002	4.3369
21340	23.638	1.7273	0.	111.29
21341	23.729	1.6364	0.	114.29
21342	23.638	1.6364	5.e-002	4.3452
21343	23.638	1.9091	0.	115.46
21344	23.729	1.8182	0.	118.91
21345	23.638	1.8182	5.e-002	4.3514
21346	23.638	2.0909	0.	118.84
21347	23.729	2.	0.	122.7
21348	23.638	2.	5.e-002	4.356
21349	23.638	2.2727	0.	121.51
21350	23.729	2.1818	0.	125.74
21351	23.638	2.1818	5.e-002	4.3594
21352	23.638	2.4545	0.	123.52
21353	23.729	2.3636	0.	128.1
21354	23.638	2.3636	5.e-002	4.3619
21355	23.638	2.6364	0.	124.93
21356	23.729	2.5455	0.	129.82
21357	23.638	2.5455	5.e-002	4.3635
21358	23.638	2.8182	0.	125.76
21359	23.729	2.7273	0.	130.94
21360	23.638	2.7273	5.e-002	4.3646
21361	23.638	3.	0.	126.04
21362	23.729	2.9091	0.	131.5
21363	23.638	2.9091	5.e-002	4.3651
21364	23.638	3.1818	0.	125.76
21365	23.729	3.0909	0.	131.5
21366	23.638	3.0909	5.e-002	4.3651
21367	23.638	3.3636	0.	124.93
21368	23.729	3.2727	0.	130.94
21369	23.638	3.2727	5.e-002	4.3646
21370	23.638	3.5455	0.	123.52
21371	23.729	3.4545	0.	129.82
21372	23.638	3.4545	5.e-002	4.3635
21373	23.638	3.7273	0.	121.51
21374	23.729	3.6364	0.	128.1
21375	23.638	3.6364	5.e-002	4.3619
21376	23.638	3.9091	0.	118.84
21377	23.729	3.8182	0.	125.74
21378	23.638	3.8182	5.e-002	4.3594
21379	23.638	4.0909	0.	115.46
21380	23.729	4.	0.	122.7
21381	23.638	4.	5.e-002	4.356
21382	23.638	4.2727	0.	111.29
21383	23.729	4.1818	0.	118.91
21384	23.638	4.1818	5.e-002	4.3514
21385	23.638	4.4545	0.	106.25
21386	23.729	4.3636	0.	114.29
21387	23.638	4.3636	5.e-002	4.3452
21388	23.638	4.6364	0.	100.2
21389	23.729	4.5455	0.	108.72
21390	23.638	4.5455	5.e-002	4.3369
21391	23.638	4.8182	0.	93.024
21392	23.729	4.7273	0.	102.07
21393	23.638	4.7273	5.e-002	4.3255
21394	23.638	5.	0.	84.536
21395	23.729	4.9091	0.	94.194
21396	23.638	4.9091	5.e-002	4.3098
21397	23.638	5.1818	0.	74.522
21398	23.729	5.0909	0.	84.868
21399	23.638	5.0909	5.e-002	4.2876
21400	23.638	5.3636	0.	62.737
21401	23.729	5.2727	0.	73.821
21402	23.638	5.2727	5.e-002	4.2555
21403	23.638	5.5455	0.	48.96
21404	23.729	5.4545	0.	60.708
21405	23.638	5.4545	5.e-002	4.2023
21406	23.638	5.7273	0.	33.866
21407	23.729	5.6364	0.	45.089
21408	23.638	5.6364	5.e-002	4.0722
21409	23.729	5.8182	0.	27.724
21410	23.638	5.8182	5.e-002	3.2501
21411	23.638	5.9091	0.	17.624
21412	23.819	0.27273	0.	38.41
21413	23.819	0.18182	5.e-002	3.8459
21414	23.819	9.0909e-002	0.	17.903
21415	23.91	0.18182	0.	30.267
21416	23.819	0.45455	0.	56.719
21417	23.819	0.36364	5.e-002	4.3877
21418	23.91	0.36364	0.	51.952
21419	23.819	0.63636	0.	71.741
21420	23.819	0.54545	5.e-002	4.4411
21421	23.91	0.54545	0.	68.963
21422	23.819	0.81818	0.	84.139
21423	23.819	0.72727	5.e-002	4.4467
21424	23.91	0.72727	0.	82.767
21425	23.819	1.	0.	94.508
21426	23.819	0.90909	5.e-002	4.4446
21427	23.91	0.90909	0.	94.229
21428	23.819	1.1818	0.	103.23
21429	23.819	1.0909	5.e-002	4.4386
21430	23.91	1.0909	0.	103.84
21431	23.819	1.3636	0.	110.58
21432	23.819	1.2727	5.e-002	4.4311
21433	23.91	1.2727	0.	111.93
21434	23.819	1.5455	0.	116.75
21435	23.819	1.4545	5.e-002	4.4234
21436	23.91	1.4545	0.	118.74
21437	23.819	1.7273	0.	121.9
21438	23.819	1.6364	5.e-002	4.416
21439	23.91	1.6364	0.	124.44
21440	23.819	1.9091	0.	126.15
21441	23.819	1.8182	5.e-002	4.4092
21442	23.91	1.8182	0.	129.18
21443	23.819	2.0909	0.	129.6
21444	23.819	2.	5.e-002	4.4033
21445	23.91	2.	0.	133.06
21446	23.819	2.2727	0.	132.33
21447	23.819	2.1818	5.e-002	4.3983
21448	23.91	2.1818	0.	136.17
21449	23.819	2.4545	0.	134.38
21450	23.819	2.3636	5.e-002	4.3942
21451	23.91	2.3636	0.	138.58
21452	23.819	2.6364	0.	135.82
21453	23.819	2.5455	5.e-002	4.3912
21454	23.91	2.5455	0.	140.34
21455	23.819	2.8182	0.	136.67
21456	23.819	2.7273	5.e-002	4.3892
21457	23.91	2.7273	0.	141.49
21458	23.819	3.	0.	136.96
21459	23.819	2.9091	5.e-002	4.3881
21460	23.91	2.9091	0.	142.06
21461	23.819	3.1818	0.	136.67
21462	23.819	3.0909	5.e-002	4.3881
21463	23.91	3.0909	0.	142.06
21464	23.819	3.3636	0.	135.82
21465	23.819	3.2727	5.e-002	4.3892
21466	23.91	3.2727	0.	141.49
21467	23.819	3.5455	0.	134.38
21468	23.819	3.4545	5.e-002	4.3912
21469	23.91	3.4545	0.	140.34
21470	23.819	3.7273	0.	132.33
21471	23.819	3.6364	5.e-002	4.3942
21472	23.91	3.6364	0.	138.58
21473	23.819	3.9091	0.	129.6
21474	23.819	3.8182	5.e-002	4.3983
21475	23.91	3.8182	0.	136.17
21476	23.819	4.0909	0.	126.15
21477	23.819	4.	5.e-002	4.4033
21478	23.91	4.	0.	133.06
21479	23.819	4.2727	0.	121.9
21480	23.819	4.1818	5.e-002	4.4092
21481	23.91	4.1818	0.	129.18
21482	23.819	4.4545	0.	116.75
21483	23.819	4.3636	5.e-002	4.416
21484	23.91	4.3636	0.	124.44
21485	23.819	4.6364	0.	110.58
21486	23.819	4.5455	5.e-002	4.4234
21487	23.91	4.5455	0.	118.74
21488	23.819	4.8182	0.	103.23
21489	23.819	4.7273	5.e-002	4.4311
21490	23.91	4.7273	0.	111.93
21491	23.819	5.	0.	94.508
21492	23.819	4.9091	5.e-002	4.4386
21493	23.91	4.9091	0.	103.84
21494	23.819	5.1818	0.	84.139
21495	23.819	5.0909	5.e-002	4.4446
21496	23.91	5.0909	0.	94.229
21497	23.819	5.3636	0.	71.741
21498	23.819	5.2727	5.e-002	4.4467
21499	23.91	5.2727	0.	82.767
21500	23.819	5.5455	0.	56.719
21501	23.819	5.4545	5.e-002	4.4411
21502	23.91	5.4545	0.	68.963
21503	23.819	5.7273	0.	38.41
21504	23.819	5.6364	5.e-002	4.3877
21505	23.91	5.6364	0.	51.952
21506	23.819	5.8182	5.e-002	3.8459
21507	23.91	5.8182	0.	30.267
21508	23.819	5.9091	0.	17.903
21509	23.819	5.7273	0.1	36.714
21510	23.729	5.8182	0.1	54.14
21511	23.819	5.9091	0.1	34.529
21512	23.91	5.8182	0.1	20.3
21513	23.819	5.5455	0.1	37.674
21514	23.729	5.6364	0.1	54.746
21515	23.91	5.6364	0.1	21.075
21516	23.819	5.3636	0.1	38.171
21517	23.729	5.4545	0.1	55.676
21518	23.91	5.4545	0.1	21.446
21519	23.819	5.1818	0.1	38.41
21520	23.729	5.2727	0.1	56.29
21521	23.91	5.2727	0.1	21.629
21522	23.819	5.	0.1	38.496
21523	23.729	5.0909	0.1	56.64
21524	23.91	5.0909	0.1	21.693
21525	23.819	4.8182	0.1	38.504
21526	23.729	4.9091	0.1	56.83
21527	23.91	4.9091	0.1	21.701
21528	23.819	4.6364	0.1	38.471
21529	23.729	4.7273	0.1	56.921
21530	23.91	4.7273	0.1	21.679
21531	23.819	4.4545	0.1	38.415
21532	23.729	4.5455	0.1	56.949
21533	23.91	4.5455	0.1	21.643
21534	23.819	4.2727	0.1	38.351
21535	23.729	4.3636	0.1	56.94
21536	23.91	4.3636	0.1	21.6
21537	23.819	4.0909	0.1	38.286
21538	23.729	4.1818	0.1	56.909
21539	23.91	4.1818	0.1	21.556
21540	23.819	3.9091	0.1	38.224
21541	23.729	4.	0.1	56.867
21542	23.91	4.	0.1	21.515
21543	23.819	3.7273	0.1	38.17
21544	23.729	3.8182	0.1	56.823
21545	23.91	3.8182	0.1	21.478
21546	23.819	3.5455	0.1	38.126
21547	23.729	3.6364	0.1	56.782
21548	23.91	3.6364	0.1	21.447
21549	23.819	3.3636	0.1	38.093
21550	23.729	3.4545	0.1	56.747
21551	23.91	3.4545	0.1	21.424
21552	23.819	3.1818	0.1	38.073
21553	23.729	3.2727	0.1	56.723
21554	23.91	3.2727	0.1	21.407
21555	23.819	3.	0.1	38.067
21556	23.729	3.0909	0.1	56.711
21557	23.91	3.0909	0.1	21.399
21558	23.819	2.8182	0.1	38.073
21559	23.729	2.9091	0.1	56.711
21560	23.91	2.9091	0.1	21.399
21561	23.819	2.6364	0.1	38.093
21562	23.729	2.7273	0.1	56.723
21563	23.91	2.7273	0.1	21.407
21564	23.819	2.4545	0.1	38.126
21565	23.729	2.5455	0.1	56.747
21566	23.91	2.5455	0.1	21.424
21567	23.819	2.2727	0.1	38.17
21568	23.729	2.3636	0.1	56.782
21569	23.91	2.3636	0.1	21.447
21570	23.819	2.0909	0.1	38.224
21571	23.729	2.1818	0.1	56.823
21572	23.91	2.1818	0.1	21.478
21573	23.819	1.9091	0.1	38.286
21574	23.729	2.	0.1	56.867
21575	23.91	2.	0.1	21.515
21576	23.819	1.7273	0.1	38.351
21577	23.729	1.8182	0.1	56.909
21578	23.91	1.8182	0.1	21.556
21579	23.819	1.5455	0.1	38.415
21580	23.729	1.6364	0.1	56.94
21581	23.91	1.6364	0.1	21.6
21582	23.819	1.3636	0.1	38.471
21583	23.729	1.4545	0.1	56.949
21584	23.91	1.4545	0.1	21.643
21585	23.819	1.1818	0.1	38.504
21586	23.729	1.2727	0.1	56.921
21587	23.91	1.2727	0.1	21.679
21588	23.819	1.	0.1	38.496
21589	23.729	1.0909	0.1	56.83
21590	23.91	1.0909	0.1	21.701
21591	23.819	0.81818	0.1	38.41
21592	23.729	0.90909	0.1	56.64
21593	23.91	0.90909	0.1	21.693
21594	23.819	0.63636	0.1	38.171
21595	23.729	0.72727	0.1	56.29
21596	23.91	0.72727	0.1	21.629
21597	23.819	0.45455	0.1	37.674
21598	23.729	0.54545	0.1	55.676
21599	23.91	0.54545	0.1	21.446
21600	23.819	0.27273	0.1	36.714
21601	23.729	0.36364	0.1	54.746
21602	23.91	0.36364	0.1	21.075
21603	23.729	0.18182	0.1	54.14
21604	23.91	0.18182	0.1	20.3
21605	23.819	9.0909e-002	0.1	34.529
21606	23.638	5.7273	0.1	71.69
21607	23.548	5.8182	0.1	90.38
21608	23.638	5.9091	0.1	69.09
21609	23.638	5.5455	0.1	72.699
21610	23.548	5.6364	0.1	90.226
21611	23.638	5.3636	0.1	73.813
21612	23.548	5.4545	0.1	91.426
21613	23.638	5.1818	0.1	74.564
21614	23.548	5.2727	0.1	92.435
21615	23.638	5.	0.1	75.031
21616	23.548	5.0909	0.1	93.14
21617	23.638	4.8182	0.1	75.311
21618	23.548	4.9091	0.1	93.611
21619	23.638	4.6364	0.1	75.469
21620	23.548	4.7273	0.1	93.912
21621	23.638	4.4545	0.1	75.547
21622	23.548	4.5455	0.1	94.095
21623	23.638	4.2727	0.1	75.573
21624	23.548	4.3636	0.1	94.197
21625	23.638	4.0909	0.1	75.568
21626	23.548	4.1818	0.1	94.244
21627	23.638	3.9091	0.1	75.545
21628	23.548	4.	0.1	94.255
21629	23.638	3.7273	0.1	75.515
21630	23.548	3.8182	0.1	94.246
21631	23.638	3.5455	0.1	75.484
21632	23.548	3.6364	0.1	94.228
21633	23.638	3.3636	0.1	75.459
21634	23.548	3.4545	0.1	94.207
21635	23.638	3.1818	0.1	75.442
21636	23.548	3.2727	0.1	94.19
21637	23.638	3.	0.1	75.437
21638	23.548	3.0909	0.1	94.181
21639	23.638	2.8182	0.1	75.442
21640	23.548	2.9091	0.1	94.181
21641	23.638	2.6364	0.1	75.459
21642	23.548	2.7273	0.1	94.19
21643	23.638	2.4545	0.1	75.484
21644	23.548	2.5455	0.1	94.207
21645	23.638	2.2727	0.1	75.515
21646	23.548	2.3636	0.1	94.228
21647	23.638	2.0909	0.1	75.545
21648	23.548	2.1818	0.1	94.246
21649	23.638	1.9091	0.1	75.568
21650	23.548	2.	0.1	94.255
21651	23.638	1.7273	0.1	75.573
21652	23.548	1.8182	0.1	94.244
21653	23.638	1.5455	0.1	75.547
21654	23.548	1.6364	0.1	94.197
21655	23.638	1.3636	0.1	75.469
21656	23.548	1.4545	0.1	94.095
21657	23.638	1.1818	0.1	75.311
21658	23.548	1.2727	0.1	93.912
21659	23.638	1.	0.1	75.031
21660	23.548	1.0909	0.1	93.611
21661	23.638	0.81818	0.1	74.564
21662	23.548	0.90909	0.1	93.14
21663	23.638	0.63636	0.1	73.813
21664	23.548	0.72727	0.1	92.435
21665	23.638	0.45455	0.1	72.699
21666	23.548	0.54545	0.1	91.426
21667	23.638	0.27273	0.1	71.69
21668	23.548	0.36364	0.1	90.226
21669	23.548	0.18182	0.1	90.38
21670	23.638	9.0909e-002	0.1	69.09
21671	23.458	5.7273	0.1	108.35
21672	23.367	5.8182	0.1	127.76
21673	23.458	5.9091	0.1	105.44
21674	23.458	5.5455	0.1	108.81
21675	23.367	5.6364	0.1	126.81
21676	23.458	5.3636	0.1	110.
21677	23.367	5.4545	0.1	127.81
21678	23.458	5.1818	0.1	110.99
21679	23.367	5.2727	0.1	128.89
21680	23.458	5.	0.1	111.71
21681	23.367	5.0909	0.1	129.77
21682	23.458	4.8182	0.1	112.21
21683	23.367	4.9091	0.1	130.43
21684	23.458	4.6364	0.1	112.54
21685	23.367	4.7273	0.1	130.9
21686	23.458	4.4545	0.1	112.75
21687	23.367	4.5455	0.1	131.22
21688	23.458	4.2727	0.1	112.88
21689	23.367	4.3636	0.1	131.43
21690	23.458	4.0909	0.1	112.94
21691	23.367	4.1818	0.1	131.56
21692	23.458	3.9091	0.1	112.97
21693	23.367	4.	0.1	131.63
21694	23.458	3.7273	0.1	112.97
21695	23.367	3.8182	0.1	131.66
21696	23.458	3.5455	0.1	112.96
21697	23.367	3.6364	0.1	131.67
21698	23.458	3.3636	0.1	112.95
21699	23.367	3.4545	0.1	131.67
21700	23.458	3.1818	0.1	112.94
21701	23.367	3.2727	0.1	131.67
21702	23.458	3.	0.1	112.94
21703	23.367	3.0909	0.1	131.67
21704	23.458	2.8182	0.1	112.94
21705	23.367	2.9091	0.1	131.67
21706	23.458	2.6364	0.1	112.95
21707	23.367	2.7273	0.1	131.67
21708	23.458	2.4545	0.1	112.96
21709	23.367	2.5455	0.1	131.67
21710	23.458	2.2727	0.1	112.97
21711	23.367	2.3636	0.1	131.67
21712	23.458	2.0909	0.1	112.97
21713	23.367	2.1818	0.1	131.66
21714	23.458	1.9091	0.1	112.94
21715	23.367	2.	0.1	131.63
21716	23.458	1.7273	0.1	112.88
21717	23.367	1.8182	0.1	131.56
21718	23.458	1.5455	0.1	112.75
21719	23.367	1.6364	0.1	131.43
21720	23.458	1.3636	0.1	112.54
21721	23.367	1.4545	0.1	131.22
21722	23.458	1.1818	0.1	112.21
21723	23.367	1.2727	0.1	130.9
21724	23.458	1.	0.1	111.71
21725	23.367	1.0909	0.1	130.43
21726	23.458	0.81818	0.1	110.99
21727	23.367	0.90909	0.1	129.77
21728	23.458	0.63636	0.1	110.
21729	23.367	0.72727	0.1	128.89
21730	23.458	0.45455	0.1	108.81
21731	23.367	0.54545	0.1	127.81
21732	23.458	0.27273	0.1	108.35
21733	23.367	0.36364	0.1	126.81
21734	23.367	0.18182	0.1	127.76
21735	23.458	9.0909e-002	0.1	105.44
21736	23.277	5.7273	0.1	145.71
21737	23.186	5.8182	0.1	165.59
21738	23.277	5.9091	0.1	142.57
21739	23.277	5.5455	0.1	145.64
21740	23.186	5.6364	0.1	164.06
21741	23.277	5.3636	0.1	146.63
21742	23.186	5.4545	0.1	164.72
21743	23.277	5.1818	0.1	147.64
21744	23.186	5.2727	0.1	165.69
21745	23.277	5.	0.1	148.47
21746	23.186	5.0909	0.1	166.59
21747	23.277	4.8182	0.1	149.11
21748	23.186	4.9091	0.1	167.33
21749	23.277	4.6364	0.1	149.57
21750	23.186	4.7273	0.1	167.9
21751	23.277	4.4545	0.1	149.89
21752	23.186	4.5455	0.1	168.32
21753	23.277	4.2727	0.1	150.11
21754	23.186	4.3636	0.1	168.62
21755	23.277	4.0909	0.1	150.24
21756	23.186	4.1818	0.1	168.82
21757	23.277	3.9091	0.1	150.32
21758	23.186	4.	0.1	168.95
21759	23.277	3.7273	0.1	150.37
21760	23.186	3.8182	0.1	169.03
21761	23.277	3.5455	0.1	150.39
21762	23.186	3.6364	0.1	169.08
21763	23.277	3.3636	0.1	150.39
21764	23.186	3.4545	0.1	169.1
21765	23.277	3.1818	0.1	150.4
21766	23.186	3.2727	0.1	169.11
21767	23.277	3.	0.1	150.39
21768	23.186	3.0909	0.1	169.11
21769	23.277	2.8182	0.1	150.4
21770	23.186	2.9091	0.1	169.11
21771	23.277	2.6364	0.1	150.39
21772	23.186	2.7273	0.1	169.11
21773	23.277	2.4545	0.1	150.39
21774	23.186	2.5455	0.1	169.1
21775	23.277	2.2727	0.1	150.37
21776	23.186	2.3636	0.1	169.08
21777	23.277	2.0909	0.1	150.32
21778	23.186	2.1818	0.1	169.03
21779	23.277	1.9091	0.1	150.24
21780	23.186	2.	0.1	168.95
21781	23.277	1.7273	0.1	150.11
21782	23.186	1.8182	0.1	168.82
21783	23.277	1.5455	0.1	149.89
21784	23.186	1.6364	0.1	168.62
21785	23.277	1.3636	0.1	149.57
21786	23.186	1.4545	0.1	168.32
21787	23.277	1.1818	0.1	149.11
21788	23.186	1.2727	0.1	167.9
21789	23.277	1.	0.1	148.47
21790	23.186	1.0909	0.1	167.33
21791	23.277	0.81818	0.1	147.64
21792	23.186	0.90909	0.1	166.59
21793	23.277	0.63636	0.1	146.63
21794	23.186	0.72727	0.1	165.69
21795	23.277	0.45455	0.1	145.64
21796	23.186	0.54545	0.1	164.72
21797	23.277	0.27273	0.1	145.71
21798	23.186	0.36364	0.1	164.06
21799	23.186	0.18182	0.1	165.59
21800	23.277	9.0909e-002	0.1	142.57
21801	23.096	5.7273	0.1	183.49
21802	23.005	5.8182	0.1	203.68
21803	23.096	5.9091	0.1	180.21
21804	23.096	5.5455	0.1	182.98
21805	23.005	5.6364	0.1	201.74
21806	23.096	5.3636	0.1	183.7
21807	23.005	5.4545	0.1	202.08
21808	23.096	5.1818	0.1	184.59
21809	23.005	5.2727	0.1	202.84
21810	23.096	5.	0.1	185.41
21811	23.005	5.0909	0.1	203.65
21812	23.096	4.8182	0.1	186.1
21813	23.005	4.9091	0.1	204.38
21814	23.096	4.6364	0.1	186.64
21815	23.005	4.7273	0.1	204.99
21816	23.096	4.4545	0.1	187.04
21817	23.005	4.5455	0.1	205.47
21818	23.096	4.2727	0.1	187.33
21819	23.005	4.3636	0.1	205.83
21820	23.096	4.0909	0.1	187.53
21821	23.005	4.1818	0.1	206.09
21822	23.096	3.9091	0.1	187.66
21823	23.005	4.	0.1	206.27
21824	23.096	3.7273	0.1	187.74
21825	23.005	3.8182	0.1	206.39
21826	23.096	3.5455	0.1	187.79
21827	23.005	3.6364	0.1	206.46
21828	23.096	3.3636	0.1	187.81
21829	23.005	3.4545	0.1	206.51
21830	23.096	3.1818	0.1	187.83
21831	23.005	3.2727	0.1	206.53
21832	23.096	3.	0.1	187.83
21833	23.005	3.0909	0.1	206.54
21834	23.096	2.8182	0.1	187.83
21835	23.005	2.9091	0.1	206.54
21836	23.096	2.6364	0.1	187.81
21837	23.005	2.7273	0.1	206.53
21838	23.096	2.4545	0.1	187.79
21839	23.005	2.5455	0.1	206.51
21840	23.096	2.2727	0.1	187.74
21841	23.005	2.3636	0.1	206.46
21842	23.096	2.0909	0.1	187.66
21843	23.005	2.1818	0.1	206.39
21844	23.096	1.9091	0.1	187.53
21845	23.005	2.	0.1	206.27
21846	23.096	1.7273	0.1	187.33
21847	23.005	1.8182	0.1	206.09
21848	23.096	1.5455	0.1	187.04
21849	23.005	1.6364	0.1	205.83
21850	23.096	1.3636	0.1	186.64
21851	23.005	1.4545	0.1	205.47
21852	23.096	1.1818	0.1	186.1
21853	23.005	1.2727	0.1	204.99
21854	23.096	1.	0.1	185.41
21855	23.005	1.0909	0.1	204.38
21856	23.096	0.81818	0.1	184.59
21857	23.005	0.90909	0.1	203.65
21858	23.096	0.63636	0.1	183.7
21859	23.005	0.72727	0.1	202.84
21860	23.096	0.45455	0.1	182.98
21861	23.005	0.54545	0.1	202.08
21862	23.096	0.27273	0.1	183.49
21863	23.005	0.36364	0.1	201.74
21864	23.005	0.18182	0.1	203.68
21865	23.096	9.0909e-002	0.1	180.21
21866	22.915	5.7273	0.1	221.55
21867	22.825	5.8182	0.1	241.97
21868	22.915	5.9091	0.1	218.19
21869	22.915	5.5455	0.1	220.69
21870	22.825	5.6364	0.1	239.72
21871	22.915	5.3636	0.1	221.13
21872	22.825	5.4545	0.1	239.77
21873	22.915	5.1818	0.1	221.84
21874	22.825	5.2727	0.1	240.3
21875	22.915	5.	0.1	222.58
21876	22.825	5.0909	0.1	240.97
21877	22.915	4.8182	0.1	223.25
21878	22.825	4.9091	0.1	241.64
21879	22.915	4.6364	0.1	223.81
21880	22.825	4.7273	0.1	242.23
21881	22.915	4.4545	0.1	224.25
21882	22.825	4.5455	0.1	242.72
21883	22.915	4.2727	0.1	224.58
21884	22.825	4.3636	0.1	243.11
21885	22.915	4.0909	0.1	224.82
21886	22.825	4.1818	0.1	243.4
21887	22.915	3.9091	0.1	225.
21888	22.825	4.	0.1	243.62
21889	22.915	3.7273	0.1	225.11
21890	22.825	3.8182	0.1	243.77
21891	22.915	3.5455	0.1	225.18
21892	22.825	3.6364	0.1	243.87
21893	22.915	3.3636	0.1	225.23
21894	22.825	3.4545	0.1	243.93
21895	22.915	3.1818	0.1	225.25
21896	22.825	3.2727	0.1	243.97
21897	22.915	3.	0.1	225.26
21898	22.825	3.0909	0.1	243.99
21899	22.915	2.8182	0.1	225.25
21900	22.825	2.9091	0.1	243.99
21901	22.915	2.6364	0.1	225.23
21902	22.825	2.7273	0.1	243.97
21903	22.915	2.4545	0.1	225.18
21904	22.825	2.5455	0.1	243.93
21905	22.915	2.2727	0.1	225.11
21906	22.825	2.3636	0.1	243.87
21907	22.915	2.0909	0.1	225.
21908	22.825	2.1818	0.1	243.77
21909	22.915	1.9091	0.1	224.82
21910	22.825	2.	0.1	243.62
21911	22.915	1.7273	0.1	224.58
21912	22.825	1.8182	0.1	243.4
21913	22.915	1.5455	0.1	224.25
21914	22.825	1.6364	0.1	243.11
21915	22.915	1.3636	0.1	223.81
21916	22.825	1.4545	0.1	242.72
21917	22.915	1.1818	0.1	223.25
21918	22.825	1.2727	0.1	242.23
21919	22.915	1.	0.1	222.58
21920	22.825	1.0909	0.1	241.64
21921	22.915	0.81818	0.1	221.84
21922	22.825	0.90909	0.1	240.97
21923	22.915	0.63636	0.1	221.13
21924	22.825	0.72727	0.1	240.3
21925	22.915	0.45455	0.1	220.69
21926	22.825	0.54545	0.1	239.77
21927	22.915	0.27273	0.1	221.55
21928	22.825	0.36364	0.1	239.72
21929	22.825	0.18182	0.1	241.97
21930	22.915	9.0909e-002	0.1	218.19
21931	22.734	5.7273	0.1	259.81
21932	22.644	5.8182	0.1	280.41
21933	22.734	5.9091	0.1	256.45
21934	22.734	5.5455	0.1	258.67
21935	22.644	5.6364	0.1	277.92
21936	22.734	5.3636	0.1	258.86
21937	22.644	5.4545	0.1	277.73
21938	22.734	5.1818	0.1	259.37
21939	22.644	5.2727	0.1	278.04
21940	22.734	5.	0.1	259.98
21941	22.644	5.0909	0.1	278.54
21942	22.734	4.8182	0.1	260.58
21943	22.644	4.9091	0.1	279.1
21944	22.734	4.6364	0.1	261.12
21945	22.644	4.7273	0.1	279.63
21946	22.734	4.4545	0.1	261.56
21947	22.644	4.5455	0.1	280.1
21948	22.734	4.2727	0.1	261.92
21949	22.644	4.3636	0.1	280.49
21950	22.734	4.0909	0.1	262.18
21951	22.644	4.1818	0.1	280.8
21952	22.734	3.9091	0.1	262.38
21953	22.644	4.	0.1	281.03
21954	22.734	3.7273	0.1	262.52
21955	22.644	3.8182	0.1	281.21
21956	22.734	3.5455	0.1	262.61
21957	22.644	3.6364	0.1	281.33
21958	22.734	3.3636	0.1	262.67
21959	22.644	3.4545	0.1	281.4
21960	22.734	3.1818	0.1	262.7
21961	22.644	3.2727	0.1	281.45
21962	22.734	3.	0.1	262.71
21963	22.644	3.0909	0.1	281.47
21964	22.734	2.8182	0.1	262.7
21965	22.644	2.9091	0.1	281.47
21966	22.734	2.6364	0.1	262.67
21967	22.644	2.7273	0.1	281.45
21968	22.734	2.4545	0.1	262.61
21969	22.644	2.5455	0.1	281.4
21970	22.734	2.2727	0.1	262.52
21971	22.644	2.3636	0.1	281.33
21972	22.734	2.0909	0.1	262.38
21973	22.644	2.1818	0.1	281.21
21974	22.734	1.9091	0.1	262.18
21975	22.644	2.	0.1	281.03
21976	22.734	1.7273	0.1	261.92
21977	22.644	1.8182	0.1	280.8
21978	22.734	1.5455	0.1	261.56
21979	22.644	1.6364	0.1	280.49
21980	22.734	1.3636	0.1	261.12
21981	22.644	1.4545	0.1	280.1
21982	22.734	1.1818	0.1	260.58
21983	22.644	1.2727	0.1	279.63
21984	22.734	1.	0.1	259.98
21985	22.644	1.0909	0.1	279.1
21986	22.734	0.81818	0.1	259.37
21987	22.644	0.90909	0.1	278.54
21988	22.734	0.63636	0.1	258.86
21989	22.644	0.72727	0.1	278.04
21990	22.734	0.45455	0.1	258.67
21991	22.644	0.54545	0.1	277.73
21992	22.734	0.27273	0.1	259.81
21993	22.644	0.36364	0.1	277.92
21994	22.644	0.18182	0.1	280.41
21995	22.734	9.0909e-002	0.1	256.45
21996	22.553	5.7273	0.1	298.22
21997	22.463	5.8182	0.1	318.96
21998	22.553	5.9091	0.1	294.91
21999	22.553	5.5455	0.1	296.87
22000	22.463	5.6364	0.1	316.3
22001	22.553	5.3636	0.1	296.83
22002	22.463	5.4545	0.1	315.9
22003	22.553	5.1818	0.1	297.14
22004	22.463	5.2727	0.1	316.
22005	22.553	5.	0.1	297.61
22006	22.463	5.0909	0.1	316.33
22007	22.553	4.8182	0.1	298.11
22008	22.463	4.9091	0.1	316.77
22009	22.553	4.6364	0.1	298.59
22010	22.463	4.7273	0.1	317.22
22011	22.553	4.4545	0.1	299.02
22012	22.463	4.5455	0.1	317.65
22013	22.553	4.2727	0.1	299.36
22014	22.463	4.3636	0.1	318.02
22015	22.553	4.0909	0.1	299.64
22016	22.463	4.1818	0.1	318.32
22017	22.553	3.9091	0.1	299.85
22018	22.463	4.	0.1	318.56
22019	22.553	3.7273	0.1	300.
22020	22.463	3.8182	0.1	318.74
22021	22.553	3.5455	0.1	300.11
22022	22.463	3.6364	0.1	318.87
22023	22.553	3.3636	0.1	300.18
22024	22.463	3.4545	0.1	318.96
22025	22.553	3.1818	0.1	300.22
22026	22.463	3.2727	0.1	319.02
22027	22.553	3.	0.1	300.23
22028	22.463	3.0909	0.1	319.04
22029	22.553	2.8182	0.1	300.22
22030	22.463	2.9091	0.1	319.04
22031	22.553	2.6364	0.1	300.18
22032	22.463	2.7273	0.1	319.02
22033	22.553	2.4545	0.1	300.11
22034	22.463	2.5455	0.1	318.96
22035	22.553	2.2727	0.1	300.
22036	22.463	2.3636	0.1	318.87
22037	22.553	2.0909	0.1	299.85
22038	22.463	2.1818	0.1	318.74
22039	22.553	1.9091	0.1	299.64
22040	22.463	2.	0.1	318.56
22041	22.553	1.7273	0.1	299.36
22042	22.463	1.8182	0.1	318.32
22043	22.553	1.5455	0.1	299.02
22044	22.463	1.6364	0.1	318.02
22045	22.553	1.3636	0.1	298.59
22046	22.463	1.4545	0.1	317.65
22047	22.553	1.1818	0.1	298.11
22048	22.463	1.2727	0.1	317.22
22049	22.553	1.	0.1	297.61
22050	22.463	1.0909	0.1	316.77
22051	22.553	0.81818	0.1	297.14
22052	22.463	0.90909	0.1	316.33
22053	22.553	0.63636	0.1	296.83
22054	22.463	0.72727	0.1	316.
22055	22.553	0.45455	0.1	296.87
22056	22.463	0.54545	0.1	315.9
22057	22.553	0.27273	0.1	298.22
22058	22.463	0.36364	0.1	316.3
22059	22.463	0.18182	0.1	318.96
22060	22.553	9.0909e-002	0.1	294.91
22061	22.372	5.7273	0.1	336.76
22062	22.282	5.8182	0.1	357.6
22063	22.372	5.9091	0.1	333.54
22064	22.372	5.5455	0.1	335.23
22065	22.282	5.6364	0.1	354.81
22066	22.372	5.3636	0.1	334.99
22067	22.282	5.4545	0.1	354.23
22068	22.372	5.1818	0.1	335.13
22069	22.282	5.2727	0.1	354.15
22070	22.372	5.	0.1	335.44
22071	22.282	5.0909	0.1	354.32
22072	22.372	4.8182	0.1	335.84
22073	22.282	4.9091	0.1	354.63
22074	22.372	4.6364	0.1	336.25
22075	22.282	4.7273	0.1	355.
22076	22.372	4.4545	0.1	336.63
22077	22.282	4.5455	0.1	355.36
22078	22.372	4.2727	0.1	336.96
22079	22.282	4.3636	0.1	355.7
22080	22.372	4.0909	0.1	337.23
22081	22.282	4.1818	0.1	355.99
22082	22.372	3.9091	0.1	337.44
22083	22.282	4.	0.1	356.22
22084	22.372	3.7273	0.1	337.6
22085	22.282	3.8182	0.1	356.41
22086	22.372	3.5455	0.1	337.71
22087	22.282	3.6364	0.1	356.54
22088	22.372	3.3636	0.1	337.79
22089	22.282	3.4545	0.1	356.64
22090	22.372	3.1818	0.1	337.83
22091	22.282	3.2727	0.1	356.7
22092	22.372	3.	0.1	337.85
22093	22.282	3.0909	0.1	356.73
22094	22.372	2.8182	0.1	337.83
22095	22.282	2.9091	0.1	356.73
22096	22.372	2.6364	0.1	337.79
22097	22.282	2.7273	0.1	356.7
22098	22.372	2.4545	0.1	337.71
22099	22.282	2.5455	0.1	356.64
22100	22.372	2.2727	0.1	337.6
22101	22.282	2.3636	0.1	356.54
22102	22.372	2.0909	0.1	337.44
22103	22.282	2.1818	0.1	356.41
22104	22.372	1.9091	0.1	337.23
22105	22.282	2.	0.1	356.22
22106	22.372	1.7273	0.1	336.96
22107	22.282	1.8182	0.1	355.99
22108	22.372	1.5455	0.1	336.63
22109	22.282	1.6364	0.1	355.7
22110	22.372	1.3636	0.1	336.25
22111	22.282	1.4545	0.1	355.36
22112	22.372	1.1818	0.1	335.84
22113	22.282	1.2727	0.1	355.
22114	22.372	1.	0.1	335.44
22115	22.282	1.0909	0.1	354.63
22116	22.372	0.81818	0.1	335.13
22117	22.282	0.90909	0.1	354.32
22118	22.372	0.63636	0.1	334.99
22119	22.282	0.72727	0.1	354.15
22120	22.372	0.45455	0.1	335.23
22121	22.282	0.54545	0.1	354.23
22122	22.372	0.27273	0.1	336.76
22123	22.282	0.36364	0.1	354.81
22124	22.282	0.18182	0.1	357.6
22125	22.372	9.0909e-002	0.1	333.54
22126	22.192	5.7273	0.1	375.4
22127	22.101	5.8182	0.1	396.3
22128	22.192	5.9091	0.1	372.29
22129	22.192	5.5455	0.1	373.72
22130	22.101	5.6364	0.1	393.42
22131	22.192	5.3636	0.1	373.31
22132	22.101	5.4545	0.1	392.69
22133	22.192	5.1818	0.1	373.29
22134	22.101	5.2727	0.1	392.45
22135	22.192	5.	0.1	373.46
22136	22.101	5.0909	0.1	392.48
22137	22.192	4.8182	0.1	373.75
22138	22.101	4.9091	0.1	392.68
22139	22.192	4.6364	0.1	374.09
22140	22.101	4.7273	0.1	392.96
22141	22.192	4.4545	0.1	374.41
22142	22.101	4.5455	0.1	393.26
22143	22.192	4.2727	0.1	374.71
22144	22.101	4.3636	0.1	393.56
22145	22.192	4.0909	0.1	374.97
22146	22.101	4.1818	0.1	393.83
22147	22.192	3.9091	0.1	375.18
22148	22.101	4.	0.1	394.06
22149	22.192	3.7273	0.1	375.34
22150	22.101	3.8182	0.1	394.24
22151	22.192	3.5455	0.1	375.46
22152	22.101	3.6364	0.1	394.38
22153	22.192	3.3636	0.1	375.54
22154	22.101	3.4545	0.1	394.48
22155	22.192	3.1818	0.1	375.59
22156	22.101	3.2727	0.1	394.55
22157	22.192	3.	0.1	375.61
22158	22.101	3.0909	0.1	394.58
22159	22.192	2.8182	0.1	375.59
22160	22.101	2.9091	0.1	394.58
22161	22.192	2.6364	0.1	375.54
22162	22.101	2.7273	0.1	394.55
22163	22.192	2.4545	0.1	375.46
22164	22.101	2.5455	0.1	394.48
22165	22.192	2.2727	0.1	375.34
22166	22.101	2.3636	0.1	394.38
22167	22.192	2.0909	0.1	375.18
22168	22.101	2.1818	0.1	394.24
22169	22.192	1.9091	0.1	374.97
22170	22.101	2.	0.1	394.06
22171	22.192	1.7273	0.1	374.71
22172	22.101	1.8182	0.1	393.83
22173	22.192	1.5455	0.1	374.41
22174	22.101	1.6364	0.1	393.56
22175	22.192	1.3636	0.1	374.09
22176	22.101	1.4545	0.1	393.26
22177	22.192	1.1818	0.1	373.75
22178	22.101	1.2727	0.1	392.96
22179	22.192	1.	0.1	373.46
22180	22.101	1.0909	0.1	392.68
22181	22.192	0.81818	0.1	373.29
22182	22.101	0.90909	0.1	392.48
22183	22.192	0.63636	0.1	373.31
22184	22.101	0.72727	0.1	392.45
22185	22.192	0.45455	0.1	373.72
22186	22.101	0.54545	0.1	392.69
22187	22.192	0.27273	0.1	375.4
22188	22.101	0.36364	0.1	393.42
22189	22.101	0.18182	0.1	396.3
22190	22.192	9.0909e-002	0.1	372.29
22191	22.011	5.7273	0.1	414.1
22192	21.92	5.8182	0.1	435.04
22193	22.011	5.9091	0.1	411.13
22194	22.011	5.5455	0.1	412.31
22195	21.92	5.6364	0.1	432.1
22196	22.011	5.3636	0.1	411.76
22197	21.92	5.4545	0.1	431.25
22198	22.011	5.1818	0.1	411.6
22199	21.92	5.2727	0.1	430.88
22200	22.011	5.	0.1	411.65
22201	21.92	5.0909	0.1	430.79
22202	22.011	4.8182	0.1	411.85
22203	21.92	4.9091	0.1	430.89
22204	22.011	4.6364	0.1	412.11
22205	21.92	4.7273	0.1	431.09
22206	22.011	4.4545	0.1	412.39
22207	21.92	4.5455	0.1	431.35
22208	22.011	4.2727	0.1	412.66
22209	21.92	4.3636	0.1	431.61
22210	22.011	4.0909	0.1	412.9
22211	21.92	4.1818	0.1	431.87
22212	22.011	3.9091	0.1	413.11
22213	21.92	4.	0.1	432.09
22214	22.011	3.7273	0.1	413.27
22215	21.92	3.8182	0.1	432.28
22216	22.011	3.5455	0.1	413.39
22217	21.92	3.6364	0.1	432.42
22218	22.011	3.3636	0.1	413.48
22219	21.92	3.4545	0.1	432.53
22220	22.011	3.1818	0.1	413.53
22221	21.92	3.2727	0.1	432.6
22222	22.011	3.	0.1	413.55
22223	21.92	3.0909	0.1	432.64
22224	22.011	2.8182	0.1	413.53
22225	21.92	2.9091	0.1	432.64
22226	22.011	2.6364	0.1	413.48
22227	21.92	2.7273	0.1	432.6
22228	22.011	2.4545	0.1	413.39
22229	21.92	2.5455	0.1	432.53
22230	22.011	2.2727	0.1	413.27
22231	21.92	2.3636	0.1	432.42
22232	22.011	2.0909	0.1	413.11
22233	21.92	2.1818	0.1	432.28
22234	22.011	1.9091	0.1	412.9
22235	21.92	2.	0.1	432.09
22236	22.011	1.7273	0.1	412.66
22237	21.92	1.8182	0.1	431.87
22238	22.011	1.5455	0.1	412.39
22239	21.92	1.6364	0.1	431.61
22240	22.011	1.3636	0.1	412.11
22241	21.92	1.4545	0.1	431.35
22242	22.011	1.1818	0.1	411.85
22243	21.92	1.2727	0.1	431.09
22244	22.011	1.	0.1	411.65
22245	21.92	1.0909	0.1	430.89
22246	22.011	0.81818	0.1	411.6
22247	21.92	0.90909	0.1	430.79
22248	22.011	0.63636	0.1	411.76
22249	21.92	0.72727	0.1	430.88
22250	22.011	0.45455	0.1	412.31
22251	21.92	0.54545	0.1	431.25
22252	22.011	0.27273	0.1	414.1
22253	21.92	0.36364	0.1	432.1
22254	21.92	0.18182	0.1	435.04
22255	22.011	9.0909e-002	0.1	411.13
22256	21.83	5.7273	0.1	452.83
22257	21.74	5.8182	0.1	473.78
22258	21.83	5.9091	0.1	450.01
22259	21.83	5.5455	0.1	450.96
22260	21.74	5.6364	0.1	470.81
22261	21.83	5.3636	0.1	450.3
22262	21.74	5.4545	0.1	469.87
22263	21.83	5.1818	0.1	450.03
22264	21.74	5.2727	0.1	469.4
22265	21.83	5.	0.1	449.99
22266	21.74	5.0909	0.1	469.23
22267	21.83	4.8182	0.1	450.1
22268	21.74	4.9091	0.1	469.25
22269	21.83	4.6364	0.1	450.31
22270	21.74	4.7273	0.1	469.4
22271	21.83	4.4545	0.1	450.55
22272	21.74	4.5455	0.1	469.62
22273	21.83	4.2727	0.1	450.8
22274	21.74	4.3636	0.1	469.87
22275	21.83	4.0909	0.1	451.04
22276	21.74	4.1818	0.1	470.12
22277	21.83	3.9091	0.1	451.25
22278	21.74	4.	0.1	470.35
22279	21.83	3.7273	0.1	451.42
22280	21.74	3.8182	0.1	470.55
22281	21.83	3.5455	0.1	451.55
22282	21.74	3.6364	0.1	470.71
22283	21.83	3.3636	0.1	451.65
22284	21.74	3.4545	0.1	470.83
22285	21.83	3.1818	0.1	451.7
22286	21.74	3.2727	0.1	470.91
22287	21.83	3.	0.1	451.72
22288	21.74	3.0909	0.1	470.95
22289	21.83	2.8182	0.1	451.7
22290	21.74	2.9091	0.1	470.95
22291	21.83	2.6364	0.1	451.65
22292	21.74	2.7273	0.1	470.91
22293	21.83	2.4545	0.1	451.55
22294	21.74	2.5455	0.1	470.83
22295	21.83	2.2727	0.1	451.42
22296	21.74	2.3636	0.1	470.71
22297	21.83	2.0909	0.1	451.25
22298	21.74	2.1818	0.1	470.55
22299	21.83	1.9091	0.1	451.04
22300	21.74	2.	0.1	470.35
22301	21.83	1.7273	0.1	450.8
22302	21.74	1.8182	0.1	470.12
22303	21.83	1.5455	0.1	450.55
22304	21.74	1.6364	0.1	469.87
22305	21.83	1.3636	0.1	450.31
22306	21.74	1.4545	0.1	469.62
22307	21.83	1.1818	0.1	450.1
22308	21.74	1.2727	0.1	469.4
22309	21.83	1.	0.1	449.99
22310	21.74	1.0909	0.1	469.25
22311	21.83	0.81818	0.1	450.03
22312	21.74	0.90909	0.1	469.23
22313	21.83	0.63636	0.1	450.3
22314	21.74	0.72727	0.1	469.4
22315	21.83	0.45455	0.1	450.96
22316	21.74	0.54545	0.1	469.87
22317	21.83	0.27273	0.1	452.83
22318	21.74	0.36364	0.1	470.81
22319	21.74	0.18182	0.1	473.78
22320	21.83	9.0909e-002	0.1	450.01
22321	21.649	5.7273	0.1	491.56
22322	21.559	5.8182	0.1	512.49
22323	21.649	5.9091	0.1	488.9
22324	21.649	5.5455	0.1	489.64
22325	21.559	5.6364	0.1	509.51
22326	21.649	5.3636	0.1	488.91
22327	21.559	5.4545	0.1	508.51
22328	21.649	5.1818	0.1	488.55
22329	21.559	5.2727	0.1	507.98
22330	21.649	5.	0.1	488.45
22331	21.559	5.0909	0.1	507.75
22332	21.649	4.8182	0.1	488.51
22333	21.559	4.9091	0.1	507.74
22334	21.649	4.6364	0.1	488.69
22335	21.559	4.7273	0.1	507.87
22336	21.649	4.4545	0.1	488.92
22337	21.559	4.5455	0.1	508.08
22338	21.649	4.2727	0.1	489.17
22339	21.559	4.3636	0.1	508.34
22340	21.649	4.0909	0.1	489.42
22341	21.559	4.1818	0.1	508.61
22342	21.649	3.9091	0.1	489.64
22343	21.559	4.	0.1	508.87
22344	21.649	3.7273	0.1	489.83
22345	21.559	3.8182	0.1	509.1
22346	21.649	3.5455	0.1	489.98
22347	21.559	3.6364	0.1	509.29
22348	21.649	3.3636	0.1	490.09
22349	21.559	3.4545	0.1	509.44
22350	21.649	3.1818	0.1	490.16
22351	21.559	3.2727	0.1	509.54
22352	21.649	3.	0.1	490.18
22353	21.559	3.0909	0.1	509.59
22354	21.649	2.8182	0.1	490.16
22355	21.559	2.9091	0.1	509.59
22356	21.649	2.6364	0.1	490.09
22357	21.559	2.7273	0.1	509.54
22358	21.649	2.4545	0.1	489.98
22359	21.559	2.5455	0.1	509.44
22360	21.649	2.2727	0.1	489.83
22361	21.559	2.3636	0.1	509.29
22362	21.649	2.0909	0.1	489.64
22363	21.559	2.1818	0.1	509.1
22364	21.649	1.9091	0.1	489.42
22365	21.559	2.	0.1	508.87
22366	21.649	1.7273	0.1	489.17
22367	21.559	1.8182	0.1	508.61
22368	21.649	1.5455	0.1	488.92
22369	21.559	1.6364	0.1	508.34
22370	21.649	1.3636	0.1	488.69
22371	21.559	1.4545	0.1	508.08
22372	21.649	1.1818	0.1	488.51
22373	21.559	1.2727	0.1	507.87
22374	21.649	1.	0.1	488.45
22375	21.559	1.0909	0.1	507.74
22376	21.649	0.81818	0.1	488.55
22377	21.559	0.90909	0.1	507.75
22378	21.649	0.63636	0.1	488.91
22379	21.559	0.72727	0.1	507.98
22380	21.649	0.45455	0.1	489.64
22381	21.559	0.54545	0.1	508.51
22382	21.649	0.27273	0.1	491.56
22383	21.559	0.36364	0.1	509.51
22384	21.559	0.18182	0.1	512.49
22385	21.649	9.0909e-002	0.1	488.9
22386	21.468	5.7273	0.1	530.25
22387	21.378	5.8182	0.1	551.1
22388	21.468	5.9091	0.1	527.73
22389	21.468	5.5455	0.1	528.31
22390	21.378	5.6364	0.1	548.14
22391	21.468	5.3636	0.1	527.53
22392	21.378	5.4545	0.1	547.12
22393	21.468	5.1818	0.1	527.13
22394	21.378	5.2727	0.1	546.57
22395	21.468	5.	0.1	527.
22396	21.378	5.0909	0.1	546.34
22397	21.468	4.8182	0.1	527.06
22398	21.378	4.9091	0.1	546.33
22399	21.468	4.6364	0.1	527.24
22400	21.378	4.7273	0.1	546.48
22401	21.468	4.4545	0.1	527.49
22402	21.378	4.5455	0.1	546.74
22403	21.468	4.2727	0.1	527.77
22404	21.378	4.3636	0.1	547.05
22405	21.468	4.0909	0.1	528.06
22406	21.378	4.1818	0.1	547.38
22407	21.468	3.9091	0.1	528.32
22408	21.378	4.	0.1	547.69
22409	21.468	3.7273	0.1	528.56
22410	21.378	3.8182	0.1	547.98
22411	21.468	3.5455	0.1	528.74
22412	21.378	3.6364	0.1	548.23
22413	21.468	3.3636	0.1	528.88
22414	21.378	3.4545	0.1	548.42
22415	21.468	3.1818	0.1	528.96
22416	21.378	3.2727	0.1	548.54
22417	21.468	3.	0.1	528.99
22418	21.378	3.0909	0.1	548.61
22419	21.468	2.8182	0.1	528.96
22420	21.378	2.9091	0.1	548.61
22421	21.468	2.6364	0.1	528.88
22422	21.378	2.7273	0.1	548.54
22423	21.468	2.4545	0.1	528.74
22424	21.378	2.5455	0.1	548.42
22425	21.468	2.2727	0.1	528.56
22426	21.378	2.3636	0.1	548.23
22427	21.468	2.0909	0.1	528.32
22428	21.378	2.1818	0.1	547.98
22429	21.468	1.9091	0.1	528.06
22430	21.378	2.	0.1	547.69
22431	21.468	1.7273	0.1	527.77
22432	21.378	1.8182	0.1	547.38
22433	21.468	1.5455	0.1	527.49
22434	21.378	1.6364	0.1	547.05
22435	21.468	1.3636	0.1	527.24
22436	21.378	1.4545	0.1	546.74
22437	21.468	1.1818	0.1	527.06
22438	21.378	1.2727	0.1	546.48
22439	21.468	1.	0.1	527.
22440	21.378	1.0909	0.1	546.33
22441	21.468	0.81818	0.1	527.13
22442	21.378	0.90909	0.1	546.34
22443	21.468	0.63636	0.1	527.53
22444	21.378	0.72727	0.1	546.57
22445	21.468	0.45455	0.1	528.31
22446	21.378	0.54545	0.1	547.12
22447	21.468	0.27273	0.1	530.25
22448	21.378	0.36364	0.1	548.14
22449	21.378	0.18182	0.1	551.1
22450	21.468	9.0909e-002	0.1	527.73
22451	21.288	5.7273	0.1	568.82
22452	21.197	5.8182	0.1	589.54
22453	21.288	5.9091	0.1	566.45
22454	21.288	5.5455	0.1	566.9
22455	21.197	5.6364	0.1	586.65
22456	21.288	5.3636	0.1	566.12
22457	21.197	5.4545	0.1	585.65
22458	21.288	5.1818	0.1	565.73
22459	21.197	5.2727	0.1	585.13
22460	21.288	5.	0.1	565.63
22461	21.197	5.0909	0.1	584.94
22462	21.288	4.8182	0.1	565.72
22463	21.197	4.9091	0.1	585.
22464	21.288	4.6364	0.1	565.96
22465	21.197	4.7273	0.1	585.23
22466	21.288	4.4545	0.1	566.27
22467	21.197	4.5455	0.1	585.58
22468	21.288	4.2727	0.1	566.63
22469	21.197	4.3636	0.1	586.
22470	21.288	4.0909	0.1	567.
22471	21.197	4.1818	0.1	586.43
22472	21.288	3.9091	0.1	567.34
22473	21.197	4.	0.1	586.86
22474	21.288	3.7273	0.1	567.65
22475	21.197	3.8182	0.1	587.25
22476	21.288	3.5455	0.1	567.89
22477	21.197	3.6364	0.1	587.58
22478	21.288	3.3636	0.1	568.08
22479	21.197	3.4545	0.1	587.84
22480	21.288	3.1818	0.1	568.19
22481	21.197	3.2727	0.1	588.01
22482	21.288	3.	0.1	568.22
22483	21.197	3.0909	0.1	588.1
22484	21.288	2.8182	0.1	568.19
22485	21.197	2.9091	0.1	588.1
22486	21.288	2.6364	0.1	568.08
22487	21.197	2.7273	0.1	588.01
22488	21.288	2.4545	0.1	567.89
22489	21.197	2.5455	0.1	587.84
22490	21.288	2.2727	0.1	567.65
22491	21.197	2.3636	0.1	587.58
22492	21.288	2.0909	0.1	567.34
22493	21.197	2.1818	0.1	587.25
22494	21.288	1.9091	0.1	567.
22495	21.197	2.	0.1	586.86
22496	21.288	1.7273	0.1	566.63
22497	21.197	1.8182	0.1	586.43
22498	21.288	1.5455	0.1	566.27
22499	21.197	1.6364	0.1	586.
22500	21.288	1.3636	0.1	565.96
22501	21.197	1.4545	0.1	585.58
22502	21.288	1.1818	0.1	565.72
22503	21.197	1.2727	0.1	585.23
22504	21.288	1.	0.1	565.63
22505	21.197	1.0909	0.1	585.
22506	21.288	0.81818	0.1	565.73
22507	21.197	0.90909	0.1	584.94
22508	21.288	0.63636	0.1	566.12
22509	21.197	0.72727	0.1	585.13
22510	21.288	0.45455	0.1	566.9
22511	21.197	0.54545	0.1	585.65
22512	21.288	0.27273	0.1	568.82
22513	21.197	0.36364	0.1	586.65
22514	21.197	0.18182	0.1	589.54
22515	21.288	9.0909e-002	0.1	566.45
22516	21.107	5.7273	0.1	607.21
22517	21.016	5.8182	0.1	627.74
22518	21.107	5.9091	0.1	604.96
22519	21.107	5.5455	0.1	605.35
22520	21.016	5.6364	0.1	624.95
22521	21.107	5.3636	0.1	604.62
22522	21.016	5.4545	0.1	624.02
22523	21.107	5.1818	0.1	604.3
22524	21.016	5.2727	0.1	623.59
22525	21.107	5.	0.1	604.28
22526	21.016	5.0909	0.1	623.52
22527	21.107	4.8182	0.1	604.48
22528	21.016	4.9091	0.1	623.71
22529	21.107	4.6364	0.1	604.83
22530	21.016	4.7273	0.1	624.1
22531	21.107	4.4545	0.1	605.28
22532	21.016	4.5455	0.1	624.61
22533	21.107	4.2727	0.1	605.78
22534	21.016	4.3636	0.1	625.21
22535	21.107	4.0909	0.1	606.28
22536	21.016	4.1818	0.1	625.82
22537	21.107	3.9091	0.1	606.75
22538	21.016	4.	0.1	626.42
22539	21.107	3.7273	0.1	607.17
22540	21.016	3.8182	0.1	626.96
22541	21.107	3.5455	0.1	607.51
22542	21.016	3.6364	0.1	627.43
22543	21.107	3.3636	0.1	607.77
22544	21.016	3.4545	0.1	627.79
22545	21.107	3.1818	0.1	607.92
22546	21.016	3.2727	0.1	628.04
22547	21.107	3.	0.1	607.98
22548	21.016	3.0909	0.1	628.17
22549	21.107	2.8182	0.1	607.92
22550	21.016	2.9091	0.1	628.17
22551	21.107	2.6364	0.1	607.77
22552	21.016	2.7273	0.1	628.04
22553	21.107	2.4545	0.1	607.51
22554	21.016	2.5455	0.1	627.79
22555	21.107	2.2727	0.1	607.17
22556	21.016	2.3636	0.1	627.43
22557	21.107	2.0909	0.1	606.75
22558	21.016	2.1818	0.1	626.96
22559	21.107	1.9091	0.1	606.28
22560	21.016	2.	0.1	626.42
22561	21.107	1.7273	0.1	605.78
22562	21.016	1.8182	0.1	625.82
22563	21.107	1.5455	0.1	605.28
22564	21.016	1.6364	0.1	625.21
22565	21.107	1.3636	0.1	604.83
22566	21.016	1.4545	0.1	624.61
22567	21.107	1.1818	0.1	604.48
22568	21.016	1.2727	0.1	624.1
22569	21.107	1.	0.1	604.28
22570	21.016	1.0909	0.1	623.71
22571	21.107	0.81818	0.1	604.3
22572	21.016	0.90909	0.1	623.52
22573	21.107	0.63636	0.1	604.62
22574	21.016	0.72727	0.1	623.59
22575	21.107	0.45455	0.1	605.35
22576	21.016	0.54545	0.1	624.02
22577	21.107	0.27273	0.1	607.21
22578	21.016	0.36364	0.1	624.95
22579	21.016	0.18182	0.1	627.74
22580	21.107	9.0909e-002	0.1	604.95
22581	20.926	5.7273	0.1	645.33
22582	20.835	5.8182	0.1	665.57
22583	20.926	5.9091	0.1	643.15
22584	20.926	5.5455	0.1	643.57
22585	20.835	5.6364	0.1	662.94
22586	20.926	5.3636	0.1	642.95
22587	20.835	5.4545	0.1	662.14
22588	20.926	5.1818	0.1	642.77
22589	20.835	5.2727	0.1	661.88
22590	20.926	5.	0.1	642.91
22591	20.835	5.0909	0.1	662.
22592	20.926	4.8182	0.1	643.3
22593	20.835	4.9091	0.1	662.41
22594	20.926	4.6364	0.1	643.86
22595	20.835	4.7273	0.1	663.05
22596	20.926	4.4545	0.1	644.52
22597	20.835	4.5455	0.1	663.84
22598	20.926	4.2727	0.1	645.23
22599	20.835	4.3636	0.1	664.7
22600	20.926	4.0909	0.1	645.95
22601	20.835	4.1818	0.1	665.59
22602	20.926	3.9091	0.1	646.62
22603	20.835	4.	0.1	666.44
22604	20.926	3.7273	0.1	647.21
22605	20.835	3.8182	0.1	667.22
22606	20.926	3.5455	0.1	647.7
22607	20.835	3.6364	0.1	667.88
22608	20.926	3.3636	0.1	648.06
22609	20.835	3.4545	0.1	668.4
22610	20.926	3.1818	0.1	648.29
22611	20.835	3.2727	0.1	668.76
22612	20.926	3.	0.1	648.36
22613	20.835	3.0909	0.1	668.94
22614	20.926	2.8182	0.1	648.29
22615	20.835	2.9091	0.1	668.94
22616	20.926	2.6364	0.1	648.06
22617	20.835	2.7273	0.1	668.76
22618	20.926	2.4545	0.1	647.7
22619	20.835	2.5455	0.1	668.4
22620	20.926	2.2727	0.1	647.21
22621	20.835	2.3636	0.1	667.88
22622	20.926	2.0909	0.1	646.62
22623	20.835	2.1818	0.1	667.22
22624	20.926	1.9091	0.1	645.95
22625	20.835	2.	0.1	666.44
22626	20.926	1.7273	0.1	645.23
22627	20.835	1.8182	0.1	665.59
22628	20.926	1.5455	0.1	644.52
22629	20.835	1.6364	0.1	664.7
22630	20.926	1.3636	0.1	643.86
22631	20.835	1.4545	0.1	663.84
22632	20.926	1.1818	0.1	643.3
22633	20.835	1.2727	0.1	663.05
22634	20.926	1.	0.1	642.91
22635	20.835	1.0909	0.1	662.41
22636	20.926	0.81818	0.1	642.77
22637	20.835	0.90909	0.1	662.
22638	20.926	0.63636	0.1	642.95
22639	20.835	0.72727	0.1	661.87
22640	20.926	0.45455	0.1	643.57
22641	20.835	0.54545	0.1	662.14
22642	20.926	0.27273	0.1	645.33
22643	20.835	0.36364	0.1	662.94
22644	20.835	0.18182	0.1	665.57
22645	20.926	9.0909e-002	0.1	643.15
22646	20.745	5.7273	0.1	683.04
22647	20.655	5.8182	0.1	702.9
22648	20.745	5.9091	0.1	680.9
22649	20.745	5.5455	0.1	681.45
22650	20.655	5.6364	0.1	700.47
22651	20.745	5.3636	0.1	681.02
22652	20.655	5.4545	0.1	699.88
22653	20.745	5.1818	0.1	681.06
22654	20.655	5.2727	0.1	699.87
22655	20.745	5.	0.1	681.46
22656	20.655	5.0909	0.1	700.3
22657	20.745	4.8182	0.1	682.14
22658	20.655	4.9091	0.1	701.06
22659	20.745	4.6364	0.1	683.01
22660	20.655	4.7273	0.1	702.07
22661	20.745	4.4545	0.1	684.
22662	20.655	4.5455	0.1	703.24
22663	20.745	4.2727	0.1	685.04
22664	20.655	4.3636	0.1	704.51
22665	20.745	4.0909	0.1	686.07
22666	20.655	4.1818	0.1	705.78
22667	20.745	3.9091	0.1	687.03
22668	20.655	4.	0.1	707.
22669	20.745	3.7273	0.1	687.88
22670	20.655	3.8182	0.1	708.11
22671	20.745	3.5455	0.1	688.57
22672	20.655	3.6364	0.1	709.06
22673	20.745	3.3636	0.1	689.1
22674	20.655	3.4545	0.1	709.81
22675	20.745	3.1818	0.1	689.42
22676	20.655	3.2727	0.1	710.32
22677	20.745	3.	0.1	689.52
22678	20.655	3.0909	0.1	710.59
22679	20.745	2.8182	0.1	689.42
22680	20.655	2.9091	0.1	710.59
22681	20.745	2.6364	0.1	689.1
22682	20.655	2.7273	0.1	710.32
22683	20.745	2.4545	0.1	688.57
22684	20.655	2.5455	0.1	709.81
22685	20.745	2.2727	0.1	687.88
22686	20.655	2.3636	0.1	709.06
22687	20.745	2.0909	0.1	687.03
22688	20.655	2.1818	0.1	708.11
22689	20.745	1.9091	0.1	686.07
22690	20.655	2.	0.1	707.
22691	20.745	1.7273	0.1	685.04
22692	20.655	1.8182	0.1	705.78
22693	20.745	1.5455	0.1	684.
22694	20.655	1.6364	0.1	704.51
22695	20.745	1.3636	0.1	683.01
22696	20.655	1.4545	0.1	703.24
22697	20.745	1.1818	0.1	682.14
22698	20.655	1.2727	0.1	702.07
22699	20.745	1.	0.1	681.46
22700	20.655	1.0909	0.1	701.06
22701	20.745	0.81818	0.1	681.06
22702	20.655	0.90909	0.1	700.3
22703	20.745	0.63636	0.1	681.02
22704	20.655	0.72727	0.1	699.87
22705	20.745	0.45455	0.1	681.45
22706	20.655	0.54545	0.1	699.88
22707	20.745	0.27273	0.1	683.04
22708	20.655	0.36364	0.1	700.46
22709	20.655	0.18182	0.1	702.9
22710	20.745	9.0909e-002	0.1	680.9
22711	20.564	5.7273	0.1	720.19
22712	20.474	5.8182	0.1	739.53
22713	20.564	5.9091	0.1	718.04
22714	20.564	5.5455	0.1	718.84
22715	20.474	5.6364	0.1	737.37
22716	20.564	5.3636	0.1	718.69
22717	20.474	5.4545	0.1	737.09
22718	20.564	5.1818	0.1	719.07
22719	20.474	5.2727	0.1	737.45
22720	20.564	5.	0.1	719.85
22721	20.474	5.0909	0.1	738.31
22722	20.564	4.8182	0.1	720.95
22723	20.474	4.9091	0.1	739.56
22724	20.564	4.6364	0.1	722.28
22725	20.474	4.7273	0.1	741.1
22726	20.564	4.4545	0.1	723.73
22727	20.474	4.5455	0.1	742.83
22728	20.564	4.2727	0.1	725.23
22729	20.474	4.3636	0.1	744.65
22730	20.564	4.0909	0.1	726.71
22731	20.474	4.1818	0.1	746.47
22732	20.564	3.9091	0.1	728.08
22733	20.474	4.	0.1	748.21
22734	20.564	3.7273	0.1	729.29
22735	20.474	3.8182	0.1	749.79
22736	20.564	3.5455	0.1	730.29
22737	20.474	3.6364	0.1	751.13
22738	20.564	3.3636	0.1	731.03
22739	20.474	3.4545	0.1	752.2
22740	20.564	3.1818	0.1	731.49
22741	20.474	3.2727	0.1	752.93
22742	20.564	3.	0.1	731.65
22743	20.474	3.0909	0.1	753.31
22744	20.564	2.8182	0.1	731.49
22745	20.474	2.9091	0.1	753.31
22746	20.564	2.6364	0.1	731.03
22747	20.474	2.7273	0.1	752.93
22748	20.564	2.4545	0.1	730.29
22749	20.474	2.5455	0.1	752.2
22750	20.564	2.2727	0.1	729.29
22751	20.474	2.3636	0.1	751.13
22752	20.564	2.0909	0.1	728.08
22753	20.474	2.1818	0.1	749.79
22754	20.564	1.9091	0.1	726.71
22755	20.474	2.	0.1	748.21
22756	20.564	1.7273	0.1	725.23
22757	20.474	1.8182	0.1	746.47
22758	20.564	1.5455	0.1	723.73
22759	20.474	1.6364	0.1	744.65
22760	20.564	1.3636	0.1	722.28
22761	20.474	1.4545	0.1	742.83
22762	20.564	1.1818	0.1	720.95
22763	20.474	1.2727	0.1	741.1
22764	20.564	1.	0.1	719.85
22765	20.474	1.0909	0.1	739.56
22766	20.564	0.81818	0.1	719.07
22767	20.474	0.90909	0.1	738.31
22768	20.564	0.63636	0.1	718.69
22769	20.474	0.72727	0.1	737.45
22770	20.564	0.45455	0.1	718.84
22771	20.474	0.54545	0.1	737.09
22772	20.564	0.27273	0.1	720.19
22773	20.474	0.36364	0.1	737.37
22774	20.474	0.18182	0.1	739.53
22775	20.564	9.0909e-002	0.1	718.04
22776	20.383	5.7273	0.1	756.58
22777	20.293	5.8182	0.1	775.23
22778	20.383	5.9091	0.1	754.33
22779	20.383	5.5455	0.1	755.56
22780	20.293	5.6364	0.1	773.43
22781	20.383	5.3636	0.1	755.81
22782	20.293	5.4545	0.1	773.56
22783	20.383	5.1818	0.1	756.66
22784	20.293	5.2727	0.1	774.45
22785	20.383	5.	0.1	757.98
22786	20.293	5.0909	0.1	775.9
22787	20.383	4.8182	0.1	759.67
22788	20.293	4.9091	0.1	777.82
22789	20.383	4.6364	0.1	761.62
22790	20.293	4.7273	0.1	780.09
22791	20.383	4.4545	0.1	763.72
22792	20.293	4.5455	0.1	782.57
22793	20.383	4.2727	0.1	765.87
22794	20.293	4.3636	0.1	785.16
22795	20.383	4.0909	0.1	767.96
22796	20.293	4.1818	0.1	787.74
22797	20.383	3.9091	0.1	769.91
22798	20.293	4.	0.1	790.19
22799	20.383	3.7273	0.1	771.62
22800	20.293	3.8182	0.1	792.41
22801	20.383	3.5455	0.1	773.04
22802	20.293	3.6364	0.1	794.3
22803	20.383	3.3636	0.1	774.09
22804	20.293	3.4545	0.1	795.8
22805	20.383	3.1818	0.1	774.74
22806	20.293	3.2727	0.1	796.84
22807	20.383	3.	0.1	774.96
22808	20.293	3.0909	0.1	797.37
22809	20.383	2.8182	0.1	774.74
22810	20.293	2.9091	0.1	797.37
22811	20.383	2.6364	0.1	774.09
22812	20.293	2.7273	0.1	796.84
22813	20.383	2.4545	0.1	773.04
22814	20.293	2.5455	0.1	795.8
22815	20.383	2.2727	0.1	771.62
22816	20.293	2.3636	0.1	794.3
22817	20.383	2.0909	0.1	769.91
22818	20.293	2.1818	0.1	792.41
22819	20.383	1.9091	0.1	767.96
22820	20.293	2.	0.1	790.19
22821	20.383	1.7273	0.1	765.87
22822	20.293	1.8182	0.1	787.74
22823	20.383	1.5455	0.1	763.72
22824	20.293	1.6364	0.1	785.16
22825	20.383	1.3636	0.1	761.62
22826	20.293	1.4545	0.1	782.57
22827	20.383	1.1818	0.1	759.67
22828	20.293	1.2727	0.1	780.09
22829	20.383	1.	0.1	757.98
22830	20.293	1.0909	0.1	777.82
22831	20.383	0.81818	0.1	756.66
22832	20.293	0.90909	0.1	775.9
22833	20.383	0.63636	0.1	755.81
22834	20.293	0.72727	0.1	774.45
22835	20.383	0.45455	0.1	755.56
22836	20.293	0.54545	0.1	773.56
22837	20.383	0.27273	0.1	756.58
22838	20.293	0.36364	0.1	773.43
22839	20.293	0.18182	0.1	775.23
22840	20.383	9.0909e-002	0.1	754.33
22841	20.202	5.7273	0.1	791.95
22842	20.112	5.8182	0.1	809.7
22843	20.202	5.9091	0.1	789.53
22844	20.202	5.5455	0.1	791.38
22845	20.112	5.6364	0.1	808.37
22846	20.202	5.3636	0.1	792.16
22847	20.112	5.4545	0.1	809.06
22848	20.202	5.1818	0.1	793.66
22849	20.112	5.2727	0.1	810.64
22850	20.202	5.	0.1	795.71
22851	20.112	5.0909	0.1	812.9
22852	20.202	4.8182	0.1	798.21
22853	20.112	4.9091	0.1	815.72
22854	20.202	4.6364	0.1	801.01
22855	20.112	4.7273	0.1	818.96
22856	20.202	4.4545	0.1	803.99
22857	20.112	4.5455	0.1	822.47
22858	20.202	4.2727	0.1	807.02
22859	20.112	4.3636	0.1	826.09
22860	20.202	4.0909	0.1	809.95
22861	20.112	4.1818	0.1	829.68
22862	20.202	3.9091	0.1	812.68
22863	20.112	4.	0.1	833.1
22864	20.202	3.7273	0.1	815.08
22865	20.112	3.8182	0.1	836.19
22866	20.202	3.5455	0.1	817.06
22867	20.112	3.6364	0.1	838.83
22868	20.202	3.3636	0.1	818.54
22869	20.112	3.4545	0.1	840.92
22870	20.202	3.1818	0.1	819.46
22871	20.112	3.2727	0.1	842.37
22872	20.202	3.	0.1	819.77
22873	20.112	3.0909	0.1	843.11
22874	20.202	2.8182	0.1	819.46
22875	20.112	2.9091	0.1	843.11
22876	20.202	2.6364	0.1	818.54
22877	20.112	2.7273	0.1	842.37
22878	20.202	2.4545	0.1	817.06
22879	20.112	2.5455	0.1	840.92
22880	20.202	2.2727	0.1	815.08
22881	20.112	2.3636	0.1	838.83
22882	20.202	2.0909	0.1	812.68
22883	20.112	2.1818	0.1	836.19
22884	20.202	1.9091	0.1	809.95
22885	20.112	2.	0.1	833.09
22886	20.202	1.7273	0.1	807.02
22887	20.112	1.8182	0.1	829.68
22888	20.202	1.5455	0.1	803.99
22889	20.112	1.6364	0.1	826.09
22890	20.202	1.3636	0.1	801.01
22891	20.112	1.4545	0.1	822.47
22892	20.202	1.1818	0.1	798.21
22893	20.112	1.2727	0.1	818.96
22894	20.202	1.	0.1	795.71
22895	20.112	1.0909	0.1	815.72
22896	20.202	0.81818	0.1	793.66
22897	20.112	0.90909	0.1	812.9
22898	20.202	0.63636	0.1	792.16
22899	20.112	0.72727	0.1	810.64
22900	20.202	0.45455	0.1	791.38
22901	20.112	0.54545	0.1	809.06
22902	20.202	0.27273	0.1	791.95
22903	20.112	0.36364	0.1	808.37
22904	20.112	0.18182	0.1	809.7
22905	20.202	9.0909e-002	0.1	789.53
22906	20.022	5.7273	0.1	826.
22907	19.931	5.8182	0.1	842.59
22908	20.022	5.9091	0.1	823.27
22909	20.022	5.5455	0.1	826.
22910	19.931	5.6364	0.1	841.83
22911	20.022	5.3636	0.1	827.5
22912	19.931	5.4545	0.1	843.27
22913	20.022	5.1818	0.1	829.84
22914	19.931	5.2727	0.1	845.75
22915	20.022	5.	0.1	832.88
22916	19.931	5.0909	0.1	849.08
22917	20.022	4.8182	0.1	836.45
22918	19.931	4.9091	0.1	853.09
22919	20.022	4.6364	0.1	840.39
22920	19.931	4.7273	0.1	857.62
22921	20.022	4.4545	0.1	844.55
22922	19.931	4.5455	0.1	862.49
22923	20.022	4.2727	0.1	848.75
22924	19.931	4.3636	0.1	867.49
22925	20.022	4.0909	0.1	852.82
22926	19.931	4.1818	0.1	872.44
22927	20.022	3.9091	0.1	856.6
22928	19.931	4.	0.1	877.13
22929	20.022	3.7273	0.1	859.93
22930	19.931	3.8182	0.1	881.39
22931	20.022	3.5455	0.1	862.68
22932	19.931	3.6364	0.1	885.05
22933	20.022	3.3636	0.1	864.74
22934	19.931	3.4545	0.1	887.94
22935	20.022	3.1818	0.1	866.01
22936	19.931	3.2727	0.1	889.94
22937	20.022	3.	0.1	866.44
22938	19.931	3.0909	0.1	890.96
22939	20.022	2.8182	0.1	866.01
22940	19.931	2.9091	0.1	890.96
22941	20.022	2.6364	0.1	864.74
22942	19.931	2.7273	0.1	889.94
22943	20.022	2.4545	0.1	862.68
22944	19.931	2.5455	0.1	887.94
22945	20.022	2.2727	0.1	859.93
22946	19.931	2.3636	0.1	885.05
22947	20.022	2.0909	0.1	856.6
22948	19.931	2.1818	0.1	881.39
22949	20.022	1.9091	0.1	852.82
22950	19.931	2.	0.1	877.13
22951	20.022	1.7273	0.1	848.75
22952	19.931	1.8182	0.1	872.44
22953	20.022	1.5455	0.1	844.55
22954	19.931	1.6364	0.1	867.49
22955	20.022	1.3636	0.1	840.39
22956	19.931	1.4545	0.1	862.49
22957	20.022	1.1818	0.1	836.45
22958	19.931	1.2727	0.1	857.62
22959	20.022	1.	0.1	832.88
22960	19.931	1.0909	0.1	853.09
22961	20.022	0.81818	0.1	829.84
22962	19.931	0.90909	0.1	849.08
22963	20.022	0.63636	0.1	827.5
22964	19.931	0.72727	0.1	845.75
22965	20.022	0.45455	0.1	826.
22966	19.931	0.54545	0.1	843.27
22967	20.022	0.27273	0.1	826.
22968	19.931	0.36364	0.1	841.83
22969	19.931	0.18182	0.1	842.59
22970	20.022	9.0909e-002	0.1	823.27
22971	19.841	5.7273	0.1	858.31
22972	19.75	5.8182	0.1	873.41
22973	19.841	5.9091	0.1	855.14
22974	19.841	5.5455	0.1	859.05
22975	19.75	5.6364	0.1	873.39
22976	19.841	5.3636	0.1	861.48
22977	19.75	5.4545	0.1	875.77
22978	19.841	5.1818	0.1	864.94
22979	19.75	5.2727	0.1	879.43
22980	19.841	5.	0.1	869.26
22981	19.75	5.0909	0.1	884.15
22982	19.841	4.8182	0.1	874.24
22983	19.75	4.9091	0.1	889.72
22984	19.841	4.6364	0.1	879.7
22985	19.75	4.7273	0.1	895.95
22986	19.841	4.4545	0.1	885.41
22987	19.75	4.5455	0.1	902.59
22988	19.841	4.2727	0.1	891.16
22989	19.75	4.3636	0.1	909.41
22990	19.841	4.0909	0.1	896.74
22991	19.75	4.1818	0.1	916.15
22992	19.841	3.9091	0.1	901.92
22993	19.75	4.	0.1	922.56
22994	19.841	3.7273	0.1	906.5
22995	19.75	3.8182	0.1	928.37
22996	19.841	3.5455	0.1	910.29
22997	19.75	3.6364	0.1	933.37
22998	19.841	3.3636	0.1	913.13
22999	19.75	3.4545	0.1	937.33
23000	19.841	3.1818	0.1	914.88
23001	19.75	3.2727	0.1	940.08
23002	19.841	3.	0.1	915.48
23003	19.75	3.0909	0.1	941.49
23004	19.841	2.8182	0.1	914.88
23005	19.75	2.9091	0.1	941.49
23006	19.841	2.6364	0.1	913.13
23007	19.75	2.7273	0.1	940.08
23008	19.841	2.4545	0.1	910.29
23009	19.75	2.5455	0.1	937.33
23010	19.841	2.2727	0.1	906.5
23011	19.75	2.3636	0.1	933.37
23012	19.841	2.0909	0.1	901.92
23013	19.75	2.1818	0.1	928.37
23014	19.841	1.9091	0.1	896.74
23015	19.75	2.	0.1	922.56
23016	19.841	1.7273	0.1	891.16
23017	19.75	1.8182	0.1	916.15
23018	19.841	1.5455	0.1	885.41
23019	19.75	1.6364	0.1	909.41
23020	19.841	1.3636	0.1	879.7
23021	19.75	1.4545	0.1	902.59
23022	19.841	1.1818	0.1	874.24
23023	19.75	1.2727	0.1	895.95
23024	19.841	1.	0.1	869.26
23025	19.75	1.0909	0.1	889.72
23026	19.841	0.81818	0.1	864.94
23027	19.75	0.90909	0.1	884.15
23028	19.841	0.63636	0.1	861.48
23029	19.75	0.72727	0.1	879.43
23030	19.841	0.45455	0.1	859.05
23031	19.75	0.54545	0.1	875.77
23032	19.841	0.27273	0.1	858.31
23033	19.75	0.36364	0.1	873.39
23034	19.75	0.18182	0.1	873.41
23035	19.841	9.0909e-002	0.1	855.14
23036	19.66	5.7273	0.1	888.39
23037	19.57	5.8182	0.1	901.6
23038	19.66	5.9091	0.1	884.61
23039	19.66	5.5455	0.1	890.07
23040	19.57	5.6364	0.1	902.49
23041	19.66	5.3636	0.1	893.69
23042	19.57	5.4545	0.1	906.09
23043	19.66	5.1818	0.1	898.6
23044	19.57	5.2727	0.1	911.26
23045	19.66	5.	0.1	904.58
23046	19.57	5.0909	0.1	917.76
23047	19.66	4.8182	0.1	911.4
23048	19.57	4.9091	0.1	925.35
23049	19.66	4.6364	0.1	918.83
23050	19.57	4.7273	0.1	933.77
23051	19.66	4.4545	0.1	926.58
23052	19.57	4.5455	0.1	942.74
23053	19.66	4.2727	0.1	934.39
23054	19.57	4.3636	0.1	951.94
23055	19.66	4.0909	0.1	941.95
23056	19.57	4.1818	0.1	961.03
23057	19.66	3.9091	0.1	949.
23058	19.57	4.	0.1	969.68
23059	19.66	3.7273	0.1	955.23
23060	19.57	3.8182	0.1	977.56
23061	19.66	3.5455	0.1	960.4
23062	19.57	3.6364	0.1	984.34
23063	19.66	3.3636	0.1	964.28
23064	19.57	3.4545	0.1	989.73
23065	19.66	3.1818	0.1	966.68
23066	19.57	3.2727	0.1	993.48
23067	19.66	3.	0.1	967.49
23068	19.57	3.0909	0.1	995.4
23069	19.66	2.8182	0.1	966.68
23070	19.57	2.9091	0.1	995.4
23071	19.66	2.6364	0.1	964.28
23072	19.57	2.7273	0.1	993.48
23073	19.66	2.4545	0.1	960.4
23074	19.57	2.5455	0.1	989.73
23075	19.66	2.2727	0.1	955.23
23076	19.57	2.3636	0.1	984.34
23077	19.66	2.0909	0.1	949.
23078	19.57	2.1818	0.1	977.56
23079	19.66	1.9091	0.1	941.95
23080	19.57	2.	0.1	969.68
23081	19.66	1.7273	0.1	934.39
23082	19.57	1.8182	0.1	961.03
23083	19.66	1.5455	0.1	926.58
23084	19.57	1.6364	0.1	951.94
23085	19.66	1.3636	0.1	918.83
23086	19.57	1.4545	0.1	942.74
23087	19.66	1.1818	0.1	911.4
23088	19.57	1.2727	0.1	933.77
23089	19.66	1.	0.1	904.58
23090	19.57	1.0909	0.1	925.35
23091	19.66	0.81818	0.1	898.6
23092	19.57	0.90909	0.1	917.75
23093	19.66	0.63636	0.1	893.69
23094	19.57	0.72727	0.1	911.26
23095	19.66	0.45455	0.1	890.07
23096	19.57	0.54545	0.1	906.09
23097	19.66	0.27273	0.1	888.39
23098	19.57	0.36364	0.1	902.49
23099	19.57	0.18182	0.1	901.6
23100	19.66	9.0909e-002	0.1	884.61
23101	19.479	5.7273	0.1	915.61
23102	19.389	5.8182	0.1	926.45
23103	19.479	5.9091	0.1	911.02
23104	19.479	5.5455	0.1	918.47
23105	19.389	5.6364	0.1	928.46
23106	19.479	5.3636	0.1	923.62
23107	19.389	5.4545	0.1	933.58
23108	19.479	5.1818	0.1	930.38
23109	19.389	5.2727	0.1	940.67
23110	19.479	5.	0.1	938.5
23111	19.389	5.0909	0.1	949.45
23112	19.479	4.8182	0.1	947.7
23113	19.389	4.9091	0.1	959.63
23114	19.479	4.6364	0.1	957.67
23115	19.389	4.7273	0.1	970.9
23116	19.479	4.4545	0.1	968.08
23117	19.389	4.5455	0.1	982.87
23118	19.479	4.2727	0.1	978.57
23119	19.389	4.3636	0.1	995.15
23120	19.479	4.0909	0.1	988.75
23121	19.389	4.1818	0.1	1007.3
23122	19.479	3.9091	0.1	998.24
23123	19.389	4.	0.1	1018.9
23124	19.479	3.7273	0.1	1006.7
23125	19.389	3.8182	0.1	1029.5
23126	19.479	3.5455	0.1	1013.7
23127	19.389	3.6364	0.1	1038.7
23128	19.479	3.3636	0.1	1018.9
23129	19.389	3.4545	0.1	1045.9
23130	19.479	3.1818	0.1	1022.2
23131	19.389	3.2727	0.1	1051.
23132	19.479	3.	0.1	1023.3
23133	19.389	3.0909	0.1	1053.6
23134	19.479	2.8182	0.1	1022.2
23135	19.389	2.9091	0.1	1053.6
23136	19.479	2.6364	0.1	1018.9
23137	19.389	2.7273	0.1	1051.
23138	19.479	2.4545	0.1	1013.7
23139	19.389	2.5455	0.1	1045.9
23140	19.479	2.2727	0.1	1006.7
23141	19.389	2.3636	0.1	1038.7
23142	19.479	2.0909	0.1	998.24
23143	19.389	2.1818	0.1	1029.5
23144	19.479	1.9091	0.1	988.75
23145	19.389	2.	0.1	1018.9
23146	19.479	1.7273	0.1	978.57
23147	19.389	1.8182	0.1	1007.3
23148	19.479	1.5455	0.1	968.08
23149	19.389	1.6364	0.1	995.15
23150	19.479	1.3636	0.1	957.67
23151	19.389	1.4545	0.1	982.87
23152	19.479	1.1818	0.1	947.7
23153	19.389	1.2727	0.1	970.9
23154	19.479	1.	0.1	938.5
23155	19.389	1.0909	0.1	959.63
23156	19.479	0.81818	0.1	930.38
23157	19.389	0.90909	0.1	949.45
23158	19.479	0.63636	0.1	923.62
23159	19.389	0.72727	0.1	940.67
23160	19.479	0.45455	0.1	918.47
23161	19.389	0.54545	0.1	933.58
23162	19.479	0.27273	0.1	915.61
23163	19.389	0.36364	0.1	928.46
23164	19.389	0.18182	0.1	926.45
23165	19.479	9.0909e-002	0.1	911.02
23166	19.298	5.7273	0.1	939.22
23167	19.208	5.8182	0.1	947.09
23168	19.298	5.9091	0.1	933.58
23169	19.298	5.5455	0.1	943.54
23170	19.208	5.6364	0.1	950.46
23171	19.298	5.3636	0.1	950.61
23172	19.208	5.4545	0.1	957.49
23173	19.298	5.1818	0.1	959.72
23174	19.208	5.2727	0.1	967.
23175	19.298	5.	0.1	970.57
23176	19.208	5.0909	0.1	978.67
23177	19.298	4.8182	0.1	982.82
23178	19.208	4.9091	0.1	992.16
23179	19.298	4.6364	0.1	996.09
23180	19.208	4.7273	0.1	1007.1
23181	19.298	4.4545	0.1	1009.9
23182	19.208	4.5455	0.1	1022.9
23183	19.298	4.2727	0.1	1023.9
23184	19.208	4.3636	0.1	1039.2
23185	19.298	4.0909	0.1	1037.5
23186	19.208	4.1818	0.1	1055.3
23187	19.298	3.9091	0.1	1050.2
23188	19.208	4.	0.1	1070.8
23189	19.298	3.7273	0.1	1061.5
23190	19.208	3.8182	0.1	1084.9
23191	19.298	3.5455	0.1	1070.9
23192	19.208	3.6364	0.1	1097.2
23193	19.298	3.3636	0.1	1078.
23194	19.208	3.4545	0.1	1107.
23195	19.298	3.1818	0.1	1082.4
23196	19.208	3.2727	0.1	1113.8
23197	19.298	3.	0.1	1083.9
23198	19.208	3.0909	0.1	1117.3
23199	19.298	2.8182	0.1	1082.4
23200	19.208	2.9091	0.1	1117.3
23201	19.298	2.6364	0.1	1078.
23202	19.208	2.7273	0.1	1113.8
23203	19.298	2.4545	0.1	1070.9
23204	19.208	2.5455	0.1	1107.
23205	19.298	2.2727	0.1	1061.5
23206	19.208	2.3636	0.1	1097.2
23207	19.298	2.0909	0.1	1050.2
23208	19.208	2.1818	0.1	1084.9
23209	19.298	1.9091	0.1	1037.5
23210	19.208	2.	0.1	1070.8
23211	19.298	1.7273	0.1	1023.9
23212	19.208	1.8182	0.1	1055.3
23213	19.298	1.5455	0.1	1009.9
23214	19.208	1.6364	0.1	1039.2
23215	19.298	1.3636	0.1	996.09
23216	19.208	1.4545	0.1	1022.9
23217	19.298	1.1818	0.1	982.82
23218	19.208	1.2727	0.1	1007.1
23219	19.298	1.	0.1	970.57
23220	19.208	1.0909	0.1	992.16
23221	19.298	0.81818	0.1	959.72
23222	19.208	0.90909	0.1	978.67
23223	19.298	0.63636	0.1	950.61
23224	19.208	0.72727	0.1	967.
23225	19.298	0.45455	0.1	943.54
23226	19.208	0.54545	0.1	957.49
23227	19.298	0.27273	0.1	939.22
23228	19.208	0.36364	0.1	950.46
23229	19.208	0.18182	0.1	947.09
23230	19.298	9.0909e-002	0.1	933.58
23231	19.118	5.7273	0.1	958.27
23232	19.027	5.8182	0.1	962.47
23233	19.118	5.9091	0.1	951.29
23234	19.118	5.5455	0.1	964.39
23235	19.027	5.6364	0.1	967.48
23236	19.118	5.3636	0.1	973.87
23237	19.027	5.4545	0.1	976.86
23238	19.118	5.1818	0.1	985.94
23239	19.027	5.2727	0.1	989.4
23240	19.118	5.	0.1	1000.3
23241	19.027	5.0909	0.1	1004.7
23242	19.118	4.8182	0.1	1016.4
23243	19.027	4.9091	0.1	1022.4
23244	19.118	4.6364	0.1	1033.9
23245	19.027	4.7273	0.1	1042.
23246	19.118	4.4545	0.1	1052.2
23247	19.027	4.5455	0.1	1062.8
23248	19.118	4.2727	0.1	1070.6
23249	19.027	4.3636	0.1	1084.2
23250	19.118	4.0909	0.1	1088.7
23251	19.027	4.1818	0.1	1105.5
23252	19.118	3.9091	0.1	1105.5
23253	19.027	4.	0.1	1126.
23254	19.118	3.7273	0.1	1120.6
23255	19.027	3.8182	0.1	1144.8
23256	19.118	3.5455	0.1	1133.2
23257	19.027	3.6364	0.1	1161.1
23258	19.118	3.3636	0.1	1142.7
23259	19.027	3.4545	0.1	1174.2
23260	19.118	3.1818	0.1	1148.7
23261	19.027	3.2727	0.1	1183.3
23262	19.118	3.	0.1	1150.7
23263	19.027	3.0909	0.1	1188.
23264	19.118	2.8182	0.1	1148.7
23265	19.027	2.9091	0.1	1188.
23266	19.118	2.6364	0.1	1142.7
23267	19.027	2.7273	0.1	1183.3
23268	19.118	2.4545	0.1	1133.2
23269	19.027	2.5455	0.1	1174.2
23270	19.118	2.2727	0.1	1120.6
23271	19.027	2.3636	0.1	1161.1
23272	19.118	2.0909	0.1	1105.5
23273	19.027	2.1818	0.1	1144.8
23274	19.118	1.9091	0.1	1088.7
23275	19.027	2.	0.1	1126.
23276	19.118	1.7273	0.1	1070.6
23277	19.027	1.8182	0.1	1105.5
23278	19.118	1.5455	0.1	1052.2
23279	19.027	1.6364	0.1	1084.2
23280	19.118	1.3636	0.1	1033.9
23281	19.027	1.4545	0.1	1062.8
23282	19.118	1.1818	0.1	1016.4
23283	19.027	1.2727	0.1	1042.
23284	19.118	1.	0.1	1000.3
23285	19.027	1.0909	0.1	1022.4
23286	19.118	0.81818	0.1	985.94
23287	19.027	0.90909	0.1	1004.7
23288	19.118	0.63636	0.1	973.87
23289	19.027	0.72727	0.1	989.4
23290	19.118	0.45455	0.1	964.39
23291	19.027	0.54545	0.1	976.86
23292	19.118	0.27273	0.1	958.27
23293	19.027	0.36364	0.1	967.48
23294	19.027	0.18182	0.1	962.47
23295	19.118	9.0909e-002	0.1	951.29
23296	18.937	5.7273	0.1	971.63
23297	18.846	5.8182	0.1	971.31
23298	18.937	5.9091	0.1	962.98
23299	18.937	5.5455	0.1	979.95
23300	18.846	5.6364	0.1	978.28
23301	18.937	5.3636	0.1	992.4
23302	18.846	5.4545	0.1	990.55
23303	18.937	5.1818	0.1	1008.2
23304	18.846	5.2727	0.1	1006.8
23305	18.937	5.	0.1	1026.9
23306	18.846	5.0909	0.1	1026.7
23307	18.937	4.8182	0.1	1048.
23308	18.846	4.9091	0.1	1049.7
23309	18.937	4.6364	0.1	1070.9
23310	18.846	4.7273	0.1	1075.2
23311	18.937	4.4545	0.1	1094.8
23312	18.846	4.5455	0.1	1102.4
23313	18.937	4.2727	0.1	1119.1
23314	18.846	4.3636	0.1	1130.4
23315	18.937	4.0909	0.1	1142.9
23316	18.846	4.1818	0.1	1158.4
23317	18.937	3.9091	0.1	1165.2
23318	18.846	4.	0.1	1185.4
23319	18.937	3.7273	0.1	1185.2
23320	18.846	3.8182	0.1	1210.2
23321	18.937	3.5455	0.1	1202.
23322	18.846	3.6364	0.1	1231.9
23323	18.937	3.3636	0.1	1214.7
23324	18.846	3.4545	0.1	1249.2
23325	18.937	3.1818	0.1	1222.6
23326	18.846	3.2727	0.1	1261.4
23327	18.937	3.	0.1	1225.3
23328	18.846	3.0909	0.1	1267.7
23329	18.937	2.8182	0.1	1222.6
23330	18.846	2.9091	0.1	1267.7
23331	18.937	2.6364	0.1	1214.7
23332	18.846	2.7273	0.1	1261.4
23333	18.937	2.4545	0.1	1202.
23334	18.846	2.5455	0.1	1249.2
23335	18.937	2.2727	0.1	1185.2
23336	18.846	2.3636	0.1	1231.9
23337	18.937	2.0909	0.1	1165.2
23338	18.846	2.1818	0.1	1210.2
23339	18.937	1.9091	0.1	1142.9
23340	18.846	2.	0.1	1185.4
23341	18.937	1.7273	0.1	1119.1
23342	18.846	1.8182	0.1	1158.4
23343	18.937	1.5455	0.1	1094.8
23344	18.846	1.6364	0.1	1130.4
23345	18.937	1.3636	0.1	1070.9
23346	18.846	1.4545	0.1	1102.4
23347	18.937	1.1818	0.1	1048.
23348	18.846	1.2727	0.1	1075.2
23349	18.937	1.	0.1	1026.9
23350	18.846	1.0909	0.1	1049.7
23351	18.937	0.81818	0.1	1008.2
23352	18.846	0.90909	0.1	1026.7
23353	18.937	0.63636	0.1	992.4
23354	18.846	0.72727	0.1	1006.8
23355	18.937	0.45455	0.1	979.95
23356	18.846	0.54545	0.1	990.55
23357	18.937	0.27273	0.1	971.63
23358	18.846	0.36364	0.1	978.28
23359	18.846	0.18182	0.1	971.31
23360	18.937	9.0909e-002	0.1	962.98
23361	18.756	5.7273	0.1	977.94
23362	18.665	5.8182	0.1	972.12
23363	18.756	5.9091	0.1	967.24
23364	18.756	5.5455	0.1	988.91
23365	18.665	5.6364	0.1	981.4
23366	18.756	5.3636	0.1	1005.
23367	18.665	5.4545	0.1	997.18
23368	18.756	5.1818	0.1	1025.5
23369	18.665	5.2727	0.1	1018.1
23370	18.756	5.	0.1	1049.7
23371	18.665	5.0909	0.1	1043.7
23372	18.756	4.8182	0.1	1077.
23373	18.665	4.9091	0.1	1073.4
23374	18.756	4.6364	0.1	1106.8
23375	18.665	4.7273	0.1	1106.4
23376	18.756	4.4545	0.1	1138.1
23377	18.665	4.5455	0.1	1141.7
23378	18.756	4.2727	0.1	1169.8
23379	18.665	4.3636	0.1	1178.3
23380	18.756	4.0909	0.1	1201.
23381	18.665	4.1818	0.1	1214.9
23382	18.756	3.9091	0.1	1230.4
23383	18.665	4.	0.1	1250.2
23384	18.756	3.7273	0.1	1256.9
23385	18.665	3.8182	0.1	1282.9
23386	18.756	3.5455	0.1	1279.1
23387	18.665	3.6364	0.1	1311.4
23388	18.756	3.3636	0.1	1295.9
23389	18.665	3.4545	0.1	1334.4
23390	18.756	3.1818	0.1	1306.4
23391	18.665	3.2727	0.1	1350.5
23392	18.756	3.	0.1	1310.
23393	18.665	3.0909	0.1	1358.9
23394	18.756	2.8182	0.1	1306.4
23395	18.665	2.9091	0.1	1358.9
23396	18.756	2.6364	0.1	1295.9
23397	18.665	2.7273	0.1	1350.5
23398	18.756	2.4545	0.1	1279.1
23399	18.665	2.5455	0.1	1334.4
23400	18.756	2.2727	0.1	1256.9
23401	18.665	2.3636	0.1	1311.4
23402	18.756	2.0909	0.1	1230.4
23403	18.665	2.1818	0.1	1282.9
23404	18.756	1.9091	0.1	1201.
23405	18.665	2.	0.1	1250.2
23406	18.756	1.7273	0.1	1169.8
23407	18.665	1.8182	0.1	1214.9
23408	18.756	1.5455	0.1	1138.1
23409	18.665	1.6364	0.1	1178.3
23410	18.756	1.3636	0.1	1106.8
23411	18.665	1.4545	0.1	1141.7
23412	18.756	1.1818	0.1	1077.
23413	18.665	1.2727	0.1	1106.4
23414	18.756	1.	0.1	1049.7
23415	18.665	1.0909	0.1	1073.4
23416	18.756	0.81818	0.1	1025.5
23417	18.665	0.90909	0.1	1043.7
23418	18.756	0.63636	0.1	1005.
23419	18.665	0.72727	0.1	1018.1
23420	18.756	0.45455	0.1	988.91
23421	18.665	0.54545	0.1	997.18
23422	18.756	0.27273	0.1	977.94
23423	18.665	0.36364	0.1	981.4
23424	18.665	0.18182	0.1	972.12
23425	18.756	9.0909e-002	0.1	967.24
23426	18.575	5.7273	0.1	975.6
23427	18.485	5.8182	0.1	963.18
23428	18.575	5.9091	0.1	962.42
23429	18.575	5.5455	0.1	989.73
23430	18.485	5.6364	0.1	975.13
23431	18.575	5.3636	0.1	1010.3
23432	18.485	5.4545	0.1	995.11
23433	18.575	5.1818	0.1	1036.5
23434	18.485	5.2727	0.1	1021.7
23435	18.575	5.	0.1	1067.6
23436	18.485	5.0909	0.1	1054.4
23437	18.575	4.8182	0.1	1102.9
23438	18.485	4.9091	0.1	1092.5
23439	18.575	4.6364	0.1	1141.4
23440	18.485	4.7273	0.1	1135.
23441	18.575	4.4545	0.1	1182.
23442	18.485	4.5455	0.1	1180.7
23443	18.575	4.2727	0.1	1223.4
23444	18.485	4.3636	0.1	1228.2
23445	18.575	4.0909	0.1	1264.2
23446	18.485	4.1818	0.1	1275.9
23447	18.575	3.9091	0.1	1302.8
23448	18.485	4.	0.1	1322.1
23449	18.575	3.7273	0.1	1337.5
23450	18.485	3.8182	0.1	1365.
23451	18.575	3.5455	0.1	1366.8
23452	18.485	3.6364	0.1	1402.5
23453	18.575	3.3636	0.1	1389.
23454	18.485	3.4545	0.1	1432.7
23455	18.575	3.1818	0.1	1402.9
23456	18.485	3.2727	0.1	1453.9
23457	18.575	3.	0.1	1407.6
23458	18.485	3.0909	0.1	1464.8
23459	18.575	2.8182	0.1	1402.9
23460	18.485	2.9091	0.1	1464.8
23461	18.575	2.6364	0.1	1389.
23462	18.485	2.7273	0.1	1453.9
23463	18.575	2.4545	0.1	1366.8
23464	18.485	2.5455	0.1	1432.7
23465	18.575	2.2727	0.1	1337.5
23466	18.485	2.3636	0.1	1402.5
23467	18.575	2.0909	0.1	1302.8
23468	18.485	2.1818	0.1	1365.
23469	18.575	1.9091	0.1	1264.2
23470	18.485	2.	0.1	1322.1
23471	18.575	1.7273	0.1	1223.4
23472	18.485	1.8182	0.1	1275.9
23473	18.575	1.5455	0.1	1182.
23474	18.485	1.6364	0.1	1228.2
23475	18.575	1.3636	0.1	1141.4
23476	18.485	1.4545	0.1	1180.7
23477	18.575	1.1818	0.1	1102.9
23478	18.485	1.2727	0.1	1135.
23479	18.575	1.	0.1	1067.6
23480	18.485	1.0909	0.1	1092.5
23481	18.575	0.81818	0.1	1036.5
23482	18.485	0.90909	0.1	1054.4
23483	18.575	0.63636	0.1	1010.3
23484	18.485	0.72727	0.1	1021.7
23485	18.575	0.45455	0.1	989.73
23486	18.485	0.54545	0.1	995.11
23487	18.575	0.27273	0.1	975.6
23488	18.485	0.36364	0.1	975.13
23489	18.485	0.18182	0.1	963.18
23490	18.575	9.0909e-002	0.1	962.42
23491	18.394	5.7273	0.1	962.76
23492	18.304	5.8182	0.1	942.52
23493	18.394	5.9091	0.1	946.63
23494	18.394	5.5455	0.1	980.61
23495	18.304	5.6364	0.1	957.5
23496	18.394	5.3636	0.1	1006.6
23497	18.304	5.4545	0.1	982.45
23498	18.394	5.1818	0.1	1039.8
23499	18.304	5.2727	0.1	1015.9
23500	18.394	5.	0.1	1079.5
23501	18.304	5.0909	0.1	1057.3
23502	18.394	4.8182	0.1	1124.8
23503	18.304	4.9091	0.1	1105.9
23504	18.394	4.6364	0.1	1174.5
23505	18.304	4.7273	0.1	1160.5
23506	18.394	4.4545	0.1	1227.1
23507	18.304	4.5455	0.1	1219.5
23508	18.394	4.2727	0.1	1280.9
23509	18.304	4.3636	0.1	1281.
23510	18.394	4.0909	0.1	1334.
23511	18.304	4.1818	0.1	1343.1
23512	18.394	3.9091	0.1	1384.5
23513	18.304	4.	0.1	1403.5
23514	18.394	3.7273	0.1	1430.
23515	18.304	3.8182	0.1	1459.6
23516	18.394	3.5455	0.1	1468.4
23517	18.304	3.6364	0.1	1508.6
23518	18.394	3.3636	0.1	1497.5
23519	18.304	3.4545	0.1	1548.
23520	18.394	3.1818	0.1	1515.6
23521	18.304	3.2727	0.1	1575.5
23522	18.394	3.	0.1	1521.8
23523	18.304	3.0909	0.1	1589.6
23524	18.394	2.8182	0.1	1515.6
23525	18.304	2.9091	0.1	1589.6
23526	18.394	2.6364	0.1	1497.5
23527	18.304	2.7273	0.1	1575.5
23528	18.394	2.4545	0.1	1468.4
23529	18.304	2.5455	0.1	1548.
23530	18.394	2.2727	0.1	1430.
23531	18.304	2.3636	0.1	1508.6
23532	18.394	2.0909	0.1	1384.5
23533	18.304	2.1818	0.1	1459.6
23534	18.394	1.9091	0.1	1334.
23535	18.304	2.	0.1	1403.5
23536	18.394	1.7273	0.1	1280.9
23537	18.304	1.8182	0.1	1343.1
23538	18.394	1.5455	0.1	1227.1
23539	18.304	1.6364	0.1	1281.
23540	18.394	1.3636	0.1	1174.5
23541	18.304	1.4545	0.1	1219.5
23542	18.394	1.1818	0.1	1124.8
23543	18.304	1.2727	0.1	1160.5
23544	18.394	1.	0.1	1079.5
23545	18.304	1.0909	0.1	1105.9
23546	18.394	0.81818	0.1	1039.8
23547	18.304	0.90909	0.1	1057.3
23548	18.394	0.63636	0.1	1006.6
23549	18.304	0.72727	0.1	1015.9
23550	18.394	0.45455	0.1	980.61
23551	18.304	0.54545	0.1	982.45
23552	18.394	0.27273	0.1	962.76
23553	18.304	0.36364	0.1	957.5
23554	18.304	0.18182	0.1	942.52
23555	18.394	9.0909e-002	0.1	946.63
23556	18.213	5.7273	0.1	937.37
23557	18.123	5.8182	0.1	908.04
23558	18.213	5.9091	0.1	917.79
23559	18.213	5.5455	0.1	959.52
23560	18.123	5.6364	0.1	926.38
23561	18.213	5.3636	0.1	991.99
23562	18.123	5.4545	0.1	957.14
23563	18.213	5.1818	0.1	1033.8
23564	18.123	5.2727	0.1	998.78
23565	18.213	5.	0.1	1084.1
23566	18.123	5.0909	0.1	1050.8
23567	18.213	4.8182	0.1	1142.
23568	18.123	4.9091	0.1	1112.5
23569	18.213	4.6364	0.1	1205.9
23570	18.123	4.7273	0.1	1182.3
23571	18.213	4.4545	0.1	1273.9
23572	18.123	4.5455	0.1	1258.3
23573	18.213	4.2727	0.1	1343.7
23574	18.123	4.3636	0.1	1338.1
23575	18.213	4.0909	0.1	1412.9
23576	18.123	4.1818	0.1	1419.
23577	18.213	3.9091	0.1	1478.8
23578	18.123	4.	0.1	1497.8
23579	18.213	3.7273	0.1	1538.2
23580	18.123	3.8182	0.1	1571.
23581	18.213	3.5455	0.1	1588.1
23582	18.123	3.6364	0.1	1634.8
23583	18.213	3.3636	0.1	1625.8
23584	18.123	3.4545	0.1	1685.5
23585	18.213	3.1818	0.1	1649.2
23586	18.123	3.2727	0.1	1720.6
23587	18.213	3.	0.1	1657.1
23588	18.123	3.0909	0.1	1738.5
23589	18.213	2.8182	0.1	1649.2
23590	18.123	2.9091	0.1	1738.5
23591	18.213	2.6364	0.1	1625.8
23592	18.123	2.7273	0.1	1720.6
23593	18.213	2.4545	0.1	1588.1
23594	18.123	2.5455	0.1	1685.5
23595	18.213	2.2727	0.1	1538.2
23596	18.123	2.3636	0.1	1634.8
23597	18.213	2.0909	0.1	1478.8
23598	18.123	2.1818	0.1	1571.
23599	18.213	1.9091	0.1	1412.9
23600	18.123	2.	0.1	1497.8
23601	18.213	1.7273	0.1	1343.7
23602	18.123	1.8182	0.1	1419.
23603	18.213	1.5455	0.1	1273.9
23604	18.123	1.6364	0.1	1338.1
23605	18.213	1.3636	0.1	1205.9
23606	18.123	1.4545	0.1	1258.3
23607	18.213	1.1818	0.1	1142.
23608	18.123	1.2727	0.1	1182.3
23609	18.213	1.	0.1	1084.1
23610	18.123	1.0909	0.1	1112.5
23611	18.213	0.81818	0.1	1033.8
23612	18.123	0.90909	0.1	1050.8
23613	18.213	0.63636	0.1	991.99
23614	18.123	0.72727	0.1	998.78
23615	18.213	0.45455	0.1	959.52
23616	18.123	0.54545	0.1	957.14
23617	18.213	0.27273	0.1	937.37
23618	18.123	0.36364	0.1	926.38
23619	18.123	0.18182	0.1	908.04
23620	18.213	9.0909e-002	0.1	917.79
23621	18.033	5.7273	0.1	897.23
23622	17.942	5.8182	0.1	857.57
23623	18.033	5.9091	0.1	873.7
23624	18.033	5.5455	0.1	924.28
23625	17.942	5.6364	0.1	879.57
23626	18.033	5.3636	0.1	964.39
23627	17.942	5.4545	0.1	917.05
23628	18.033	5.1818	0.1	1016.5
23629	17.942	5.2727	0.1	968.4
23630	18.033	5.	0.1	1080.
23631	17.942	5.0909	0.1	1033.3
23632	18.033	4.8182	0.1	1153.6
23633	17.942	4.9091	0.1	1110.9
23634	18.033	4.6364	0.1	1235.5
23635	17.942	4.7273	0.1	1199.8
23636	18.033	4.4545	0.1	1323.3
23637	17.942	4.5455	0.1	1297.7
23638	18.033	4.2727	0.1	1414.1
23639	17.942	4.3636	0.1	1401.3
23640	18.033	4.0909	0.1	1504.5
23641	17.942	4.1818	0.1	1507.1
23642	18.033	3.9091	0.1	1590.4
23643	17.942	4.	0.1	1610.5
23644	18.033	3.7273	0.1	1667.7
23645	17.942	3.8182	0.1	1706.1
23646	18.033	3.5455	0.1	1732.
23647	17.942	3.6364	0.1	1788.3
23648	18.033	3.3636	0.1	1779.9
23649	17.942	3.4545	0.1	1852.4
23650	18.033	3.1818	0.1	1809.3
23651	17.942	3.2727	0.1	1895.8
23652	18.033	3.	0.1	1819.1
23653	17.942	3.0909	0.1	1917.4
23654	18.033	2.8182	0.1	1809.3
23655	17.942	2.9091	0.1	1917.4
23656	18.033	2.6364	0.1	1779.9
23657	17.942	2.7273	0.1	1895.8
23658	18.033	2.4545	0.1	1732.
23659	17.942	2.5455	0.1	1852.4
23660	18.033	2.2727	0.1	1667.7
23661	17.942	2.3636	0.1	1788.3
23662	18.033	2.0909	0.1	1590.4
23663	17.942	2.1818	0.1	1706.1
23664	18.033	1.9091	0.1	1504.5
23665	17.942	2.	0.1	1610.5
23666	18.033	1.7273	0.1	1414.1
23667	17.942	1.8182	0.1	1507.1
23668	18.033	1.5455	0.1	1323.3
23669	17.942	1.6364	0.1	1401.3
23670	18.033	1.3636	0.1	1235.5
23671	17.942	1.4545	0.1	1297.7
23672	18.033	1.1818	0.1	1153.6
23673	17.942	1.2727	0.1	1199.8
23674	18.033	1.	0.1	1080.
23675	17.942	1.0909	0.1	1110.9
23676	18.033	0.81818	0.1	1016.5
23677	17.942	0.90909	0.1	1033.3
23678	18.033	0.63636	0.1	964.39
23679	17.942	0.72727	0.1	968.4
23680	18.033	0.45455	0.1	924.28
23681	17.942	0.54545	0.1	917.05
23682	18.033	0.27273	0.1	897.23
23683	17.942	0.36364	0.1	879.57
23684	17.942	0.18182	0.1	857.57
23685	18.033	9.0909e-002	0.1	873.7
23686	17.852	5.7273	0.1	840.19
23687	17.761	5.8182	0.1	789.1
23688	17.852	5.9091	0.1	812.21
23689	17.852	5.5455	0.1	872.78
23690	17.761	5.6364	0.1	815.12
23691	17.852	5.3636	0.1	921.83
23692	17.761	5.4545	0.1	860.37
23693	17.852	5.1818	0.1	986.3
23694	17.761	5.2727	0.1	923.09
23695	17.852	5.	0.1	1065.7
23696	17.761	5.0909	0.1	1003.1
23697	17.852	4.8182	0.1	1158.7
23698	17.761	4.9091	0.1	1100.
23699	17.852	4.6364	0.1	1263.5
23700	17.761	4.7273	0.1	1212.5
23701	17.852	4.4545	0.1	1377.1
23702	17.761	4.5455	0.1	1338.3
23703	17.852	4.2727	0.1	1495.6
23704	17.761	4.3636	0.1	1473.7
23705	17.852	4.0909	0.1	1614.1
23706	17.761	4.1818	0.1	1613.3
23707	17.852	3.9091	0.1	1726.7
23708	17.761	4.	0.1	1750.1
23709	17.852	3.7273	0.1	1826.8
23710	17.761	3.8182	0.1	1875.3
23711	17.852	3.5455	0.1	1908.3
23712	17.761	3.6364	0.1	1980.1
23713	17.852	3.3636	0.1	1967.4
23714	17.761	3.4545	0.1	2058.3
23715	17.852	3.1818	0.1	2002.7
23716	17.761	3.2727	0.1	2108.6
23717	17.852	3.	0.1	2014.4
23718	17.761	3.0909	0.1	2132.8
23719	17.852	2.8182	0.1	2002.7
23720	17.761	2.9091	0.1	2132.8
23721	17.852	2.6364	0.1	1967.4
23722	17.761	2.7273	0.1	2108.6
23723	17.852	2.4545	0.1	1908.3
23724	17.761	2.5455	0.1	2058.3
23725	17.852	2.2727	0.1	1826.8
23726	17.761	2.3636	0.1	1980.1
23727	17.852	2.0909	0.1	1726.7
23728	17.761	2.1818	0.1	1875.3
23729	17.852	1.9091	0.1	1614.1
23730	17.761	2.	0.1	1750.1
23731	17.852	1.7273	0.1	1495.6
23732	17.761	1.8182	0.1	1613.3
23733	17.852	1.5455	0.1	1377.1
23734	17.761	1.6364	0.1	1473.7
23735	17.852	1.3636	0.1	1263.5
23736	17.761	1.4545	0.1	1338.3
23737	17.852	1.1818	0.1	1158.7
23738	17.761	1.2727	0.1	1212.5
23739	17.852	1.	0.1	1065.7
23740	17.761	1.0909	0.1	1100.
23741	17.852	0.81818	0.1	986.3
23742	17.761	0.90909	0.1	1003.1
23743	17.852	0.63636	0.1	921.83
23744	17.761	0.72727	0.1	923.09
23745	17.852	0.45455	0.1	872.78
23746	17.761	0.54545	0.1	860.37
23747	17.852	0.27273	0.1	840.19
23748	17.761	0.36364	0.1	815.12
23749	17.761	0.18182	0.1	789.1
23750	17.852	9.0909e-002	0.1	812.21
23751	17.671	5.7273	0.1	764.43
23752	17.58	5.8182	0.1	701.09
23753	17.671	5.9091	0.1	731.47
23754	17.671	5.5455	0.1	803.4
23755	17.58	5.6364	0.1	731.8
23756	17.671	5.3636	0.1	862.94
23757	17.58	5.4545	0.1	786.34
23758	17.671	5.1818	0.1	941.88
23759	17.58	5.2727	0.1	862.32
23760	17.671	5.	0.1	1039.9
23761	17.58	5.0909	0.1	959.67
23762	17.671	4.8182	0.1	1156.4
23763	17.58	4.9091	0.1	1078.6
23764	17.671	4.6364	0.1	1289.9
23765	17.58	4.7273	0.1	1219.3
23766	17.671	4.4545	0.1	1437.3
23767	17.58	4.5455	0.1	1380.7
23768	17.671	4.2727	0.1	1593.3
23769	17.58	4.3636	0.1	1559.2
23770	17.671	4.0909	0.1	1750.7
23771	17.58	4.1818	0.1	1746.9
23772	17.671	3.9091	0.1	1899.5
23773	17.58	4.	0.1	1931.6
23774	17.671	3.7273	0.1	2028.6
23775	17.58	3.8182	0.1	2097.2
23776	17.671	3.5455	0.1	2129.1
23777	17.58	3.6364	0.1	2227.6
23778	17.671	3.3636	0.1	2197.9
23779	17.58	3.4545	0.1	2315.9
23780	17.671	3.1818	0.1	2236.7
23781	17.58	3.2727	0.1	2366.8
23782	17.671	3.	0.1	2249.1
23783	17.58	3.0909	0.1	2389.4
23784	17.671	2.8182	0.1	2236.7
23785	17.58	2.9091	0.1	2389.4
23786	17.671	2.6364	0.1	2197.9
23787	17.58	2.7273	0.1	2366.8
23788	17.671	2.4545	0.1	2129.1
23789	17.58	2.5455	0.1	2315.9
23790	17.671	2.2727	0.1	2028.6
23791	17.58	2.3636	0.1	2227.6
23792	17.671	2.0909	0.1	1899.5
23793	17.58	2.1818	0.1	2097.2
23794	17.671	1.9091	0.1	1750.7
23795	17.58	2.	0.1	1931.6
23796	17.671	1.7273	0.1	1593.3
23797	17.58	1.8182	0.1	1746.9
23798	17.671	1.5455	0.1	1437.3
23799	17.58	1.6364	0.1	1559.2
23800	17.671	1.3636	0.1	1289.9
23801	17.58	1.4545	0.1	1380.7
23802	17.671	1.1818	0.1	1156.4
23803	17.58	1.2727	0.1	1219.3
23804	17.671	1.	0.1	1039.9
23805	17.58	1.0909	0.1	1078.6
23806	17.671	0.81818	0.1	941.88
23807	17.58	0.90909	0.1	959.67
23808	17.671	0.63636	0.1	862.94
23809	17.58	0.72727	0.1	862.32
23810	17.671	0.45455	0.1	803.4
23811	17.58	0.54545	0.1	786.34
23812	17.671	0.27273	0.1	764.43
23813	17.58	0.36364	0.1	731.8
23814	17.58	0.18182	0.1	701.09
23815	17.671	9.0909e-002	0.1	731.47
23816	17.49	5.7273	0.1	669.
23817	17.4	5.8182	0.1	592.87
23818	17.49	5.9091	0.1	630.24
23819	17.49	5.5455	0.1	715.9
23820	17.4	5.6364	0.1	630.2
23821	17.49	5.3636	0.1	788.01
23822	17.4	5.4545	0.1	696.76
23823	17.49	5.1818	0.1	883.49
23824	17.4	5.2727	0.1	788.23
23825	17.49	5.	0.1	1002.5
23826	17.4	5.0909	0.1	904.19
23827	17.49	4.8182	0.1	1145.9
23828	17.4	4.9091	0.1	1046.4
23829	17.49	4.6364	0.1	1314.4
23830	17.4	4.7273	0.1	1218.3
23831	17.49	4.4545	0.1	1506.3
23832	17.4	4.5455	0.1	1423.8
23833	17.49	4.2727	0.1	1715.6
23834	17.4	4.3636	0.1	1662.
23835	17.49	4.0909	0.1	1929.7
23836	17.4	4.1818	0.1	1923.7
23837	17.49	3.9091	0.1	2130.
23838	17.4	4.	0.1	2185.4
23839	17.49	3.7273	0.1	2295.4
23840	17.4	3.8182	0.1	2406.9
23841	17.49	3.5455	0.1	2412.2
23842	17.4	3.6364	0.1	2559.7
23843	17.49	3.3636	0.1	2482.
23844	17.4	3.4545	0.1	2640.3
23845	17.49	3.1818	0.1	2516.3
23846	17.4	3.2727	0.1	2674.4
23847	17.49	3.	0.1	2526.4
23848	17.4	3.0909	0.1	2685.6
23849	17.49	2.8182	0.1	2516.3
23850	17.4	2.9091	0.1	2685.6
23851	17.49	2.6364	0.1	2482.
23852	17.4	2.7273	0.1	2674.4
23853	17.49	2.4545	0.1	2412.2
23854	17.4	2.5455	0.1	2640.3
23855	17.49	2.2727	0.1	2295.4
23856	17.4	2.3636	0.1	2559.7
23857	17.49	2.0909	0.1	2130.
23858	17.4	2.1818	0.1	2406.9
23859	17.49	1.9091	0.1	1929.7
23860	17.4	2.	0.1	2185.4
23861	17.49	1.7273	0.1	1715.6
23862	17.4	1.8182	0.1	1923.7
23863	17.49	1.5455	0.1	1506.3
23864	17.4	1.6364	0.1	1662.
23865	17.49	1.3636	0.1	1314.4
23866	17.4	1.4545	0.1	1423.8
23867	17.49	1.1818	0.1	1145.9
23868	17.4	1.2727	0.1	1218.3
23869	17.49	1.	0.1	1002.5
23870	17.4	1.0909	0.1	1046.4
23871	17.49	0.81818	0.1	883.49
23872	17.4	0.90909	0.1	904.19
23873	17.49	0.63636	0.1	788.01
23874	17.4	0.72727	0.1	788.23
23875	17.49	0.45455	0.1	715.9
23876	17.4	0.54545	0.1	696.76
23877	17.49	0.27273	0.1	669.
23878	17.4	0.36364	0.1	630.2
23879	17.4	0.18182	0.1	592.87
23880	17.49	9.0909e-002	0.1	630.24
23881	17.309	5.7273	0.1	554.83
23882	17.219	5.8182	0.1	465.19
23883	17.309	5.9091	0.1	508.28
23884	17.309	5.5455	0.1	613.28
23885	17.219	5.6364	0.1	515.01
23886	17.309	5.3636	0.1	701.13
23887	17.219	5.4545	0.1	598.97
23888	17.309	5.1818	0.1	814.62
23889	17.219	5.2727	0.1	708.05
23890	17.309	5.	0.1	954.85
23891	17.219	5.0909	0.1	841.82
23892	17.309	4.8182	0.1	1126.1
23893	17.219	4.9091	0.1	1004.8
23894	17.309	4.6364	0.1	1334.9
23895	17.219	4.7273	0.1	1206.3
23896	17.309	4.4545	0.1	1585.6
23897	17.219	4.5455	0.1	1459.7
23898	17.309	4.2727	0.1	1874.4
23899	17.219	4.3636	0.1	1781.5
23900	17.309	4.0909	0.1	2181.6
23901	17.219	4.1818	0.1	2176.5
23902	17.309	3.9091	0.1	2462.1
23903	17.219	4.	0.1	2569.9
23904	17.309	3.7273	0.1	2668.3
23905	17.219	3.8182	0.1	2886.7
23906	17.309	3.5455	0.1	2783.1
23907	17.219	3.6364	0.1	3022.1
23908	17.309	3.3636	0.1	2827.9
23909	17.219	3.4545	0.1	3041.
23910	17.309	3.1818	0.1	2839.1
23911	17.219	3.2727	0.1	3022.1
23912	17.309	3.	0.1	2840.4
23913	17.219	3.0909	0.1	3005.8
23914	17.309	2.8182	0.1	2839.1
23915	17.219	2.9091	0.1	3005.8
23916	17.309	2.6364	0.1	2827.9
23917	17.219	2.7273	0.1	3022.1
23918	17.309	2.4545	0.1	2783.1
23919	17.219	2.5455	0.1	3041.
23920	17.309	2.2727	0.1	2668.3
23921	17.219	2.3636	0.1	3022.1
23922	17.309	2.0909	0.1	2462.1
23923	17.219	2.1818	0.1	2886.7
23924	17.309	1.9091	0.1	2181.6
23925	17.219	2.	0.1	2569.9
23926	17.309	1.7273	0.1	1874.4
23927	17.219	1.8182	0.1	2176.5
23928	17.309	1.5455	0.1	1585.6
23929	17.219	1.6364	0.1	1781.5
23930	17.309	1.3636	0.1	1334.9
23931	17.219	1.4545	0.1	1459.7
23932	17.309	1.1818	0.1	1126.1
23933	17.219	1.2727	0.1	1206.3
23934	17.309	1.	0.1	954.85
23935	17.219	1.0909	0.1	1004.8
23936	17.309	0.81818	0.1	814.62
23937	17.219	0.90909	0.1	841.82
23938	17.309	0.63636	0.1	701.13
23939	17.219	0.72727	0.1	708.05
23940	17.309	0.45455	0.1	613.28
23941	17.219	0.54545	0.1	598.97
23942	17.309	0.27273	0.1	554.83
23943	17.219	0.36364	0.1	515.01
23944	17.219	0.18182	0.1	465.19
23945	17.309	9.0909e-002	0.1	508.28
23946	17.128	5.7273	0.1	427.04
23947	17.038	5.8182	0.1	325.51
23948	17.128	5.9091	0.1	366.44
23949	17.128	5.5455	0.1	505.75
23950	17.038	5.6364	0.1	406.71
23951	17.128	5.3636	0.1	613.42
23952	17.038	5.4545	0.1	517.16
23953	17.128	5.1818	0.1	744.23
23954	17.038	5.2727	0.1	645.57
23955	17.128	5.	0.1	901.92
23956	17.038	5.0909	0.1	795.21
23957	17.128	4.8182	0.1	1096.3
23958	17.038	4.9091	0.1	974.91
23959	17.128	4.6364	0.1	1343.3
23960	17.038	4.7273	0.1	1199.8
23961	17.128	4.4545	0.1	1666.6
23962	17.038	4.5455	0.1	1498.8
23963	17.128	4.2727	0.1	2091.5
23964	17.038	4.3636	0.1	1914.1
23965	17.128	4.0909	0.1	2565.9
23966	17.038	4.1818	0.1	2627.1
23967	17.128	3.9091	0.1	2990.3
23968	17.038	4.	0.1	3473.6
23969	17.128	3.7273	0.1	3231.
23970	17.038	3.8182	0.1	3736.2
23971	17.128	3.5455	0.1	3271.2
23972	17.038	3.6364	0.1	3657.7
23973	17.128	3.3636	0.1	3228.7
23974	17.038	3.4545	0.1	3488.2
23975	17.128	3.1818	0.1	3183.6
23976	17.038	3.2727	0.1	3371.
23977	17.128	3.	0.1	3166.5
23978	17.038	3.0909	0.1	3311.8
23979	17.128	2.8182	0.1	3183.6
23980	17.038	2.9091	0.1	3311.8
23981	17.128	2.6364	0.1	3228.7
23982	17.038	2.7273	0.1	3371.
23983	17.128	2.4545	0.1	3271.2
23984	17.038	2.5455	0.1	3488.2
23985	17.128	2.2727	0.1	3231.
23986	17.038	2.3636	0.1	3657.7
23987	17.128	2.0909	0.1	2990.3
23988	17.038	2.1818	0.1	3736.2
23989	17.128	1.9091	0.1	2565.9
23990	17.038	2.	0.1	3473.6
23991	17.128	1.7273	0.1	2091.5
23992	17.038	1.8182	0.1	2627.1
23993	17.128	1.5455	0.1	1666.6
23994	17.038	1.6364	0.1	1914.1
23995	17.128	1.3636	0.1	1343.3
23996	17.038	1.4545	0.1	1498.8
23997	17.128	1.1818	0.1	1096.3
23998	17.038	1.2727	0.1	1199.8
23999	17.128	1.	0.1	901.92
24000	17.038	1.0909	0.1	974.91
24001	17.128	0.81818	0.1	744.23
24002	17.038	0.90909	0.1	795.21
24003	17.128	0.63636	0.1	613.42
24004	17.038	0.72727	0.1	645.57
24005	17.128	0.45455	0.1	505.75
24006	17.038	0.54545	0.1	517.16
24007	17.128	0.27273	0.1	427.04
24008	17.038	0.36364	0.1	406.71
24009	17.038	0.18182	0.1	325.51
24010	17.128	9.0909e-002	0.1	366.44
24011	16.948	5.7273	0.1	312.98
24012	16.857	5.8182	0.1	188.27
24013	16.948	5.9091	0.1	211.25
24014	16.948	5.5455	0.1	429.84
24015	16.857	5.6364	0.1	295.16
24016	16.948	5.3636	0.1	561.31
24017	16.857	5.4545	0.1	404.72
24018	16.948	5.1818	0.1	708.85
24019	16.857	5.2727	0.1	520.73
24020	16.948	5.	0.1	881.65
24021	16.857	5.0909	0.1	650.5
24022	16.948	4.8182	0.1	1094.4
24023	16.857	4.9091	0.1	803.77
24024	16.948	4.6364	0.1	1375.5
24025	16.857	4.7273	0.1	995.17
24026	16.948	4.4545	0.1	1776.1
24027	16.857	4.5455	0.1	1255.3
24028	16.948	4.2727	0.1	2475.
24029	16.857	4.3636	0.1	1628.8
24030	16.948	4.0909	0.1	3525.5
24031	16.857	4.1818	0.1	2313.6
24032	16.948	3.9091	0.1	4186.4
24033	16.857	4.	0.1	6259.7
24034	16.948	3.7273	0.1	4139.6
24035	16.857	3.8182	0.1	5007.5
24036	16.948	3.5455	0.1	3865.3
24037	16.857	3.6364	0.1	4292.2
24038	16.948	3.3636	0.1	3625.3
24039	16.857	3.4545	0.1	3869.2
24040	16.948	3.1818	0.1	3495.2
24041	16.857	3.2727	0.1	3644.8
24042	16.948	3.	0.1	3453.3
24043	16.857	3.0909	0.1	3544.5
24044	16.948	2.8182	0.1	3495.2
24045	16.857	2.9091	0.1	3544.5
24046	16.948	2.6364	0.1	3625.3
24047	16.857	2.7273	0.1	3644.8
24048	16.948	2.4545	0.1	3865.3
24049	16.857	2.5455	0.1	3869.2
24050	16.948	2.2727	0.1	4139.6
24051	16.857	2.3636	0.1	4292.2
24052	16.948	2.0909	0.1	4186.4
24053	16.857	2.1818	0.1	5007.5
24054	16.948	1.9091	0.1	3525.5
24055	16.857	2.	0.1	6259.7
24056	16.948	1.7273	0.1	2475.
24057	16.857	1.8182	0.1	2313.6
24058	16.948	1.5455	0.1	1776.1
24059	16.857	1.6364	0.1	1628.8
24060	16.948	1.3636	0.1	1375.5
24061	16.857	1.4545	0.1	1255.3
24062	16.948	1.1818	0.1	1094.4
24063	16.857	1.2727	0.1	995.17
24064	16.948	1.	0.1	881.65
24065	16.857	1.0909	0.1	803.77
24066	16.948	0.81818	0.1	708.85
24067	16.857	0.90909	0.1	650.5
24068	16.948	0.63636	0.1	561.31
24069	16.857	0.72727	0.1	520.73
24070	16.948	0.45455	0.1	429.84
24071	16.857	0.54545	0.1	404.72
24072	16.948	0.27273	0.1	312.98
24073	16.857	0.36364	0.1	295.16
24074	16.857	0.18182	0.1	188.27
24075	16.948	9.0909e-002	0.1	211.25
24076	0.18444	0.27273	0.1	4175.3
24077	0.27667	0.18182	0.1	4461.9
24078	9.2222e-002	0.18182	0.1	3194.2
24079	0.18444	9.0909e-002	0.1	3693.2
24080	0.18444	0.45455	0.1	4829.5
24081	0.27667	0.36364	0.1	4823.3
24082	9.2222e-002	0.36364	0.1	4548.2
24083	0.18444	0.63636	0.1	5445.
24084	0.27667	0.54545	0.1	5312.5
24085	9.2222e-002	0.54545	0.1	5427.4
24086	0.18444	0.81818	0.1	5910.4
24087	0.27667	0.72727	0.1	5741.4
24088	9.2222e-002	0.72727	0.1	6019.2
24089	0.18444	1.	0.1	6260.1
24090	0.27667	0.90909	0.1	6092.1
24091	9.2222e-002	0.90909	0.1	6435.6
24092	0.18444	1.1818	0.1	6525.3
24093	0.27667	1.0909	0.1	6371.2
24094	9.2222e-002	1.0909	0.1	6740.2
24095	0.18444	1.3636	0.1	6729.4
24096	0.27667	1.2727	0.1	6592.5
24097	9.2222e-002	1.2727	0.1	6969.4
24098	0.18444	1.5455	0.1	6888.2
24099	0.27667	1.4545	0.1	6768.3
24100	9.2222e-002	1.4545	0.1	7145.2
24101	0.18444	1.7273	0.1	7012.5
24102	0.27667	1.6364	0.1	6908.2
24103	9.2222e-002	1.6364	0.1	7281.5
24104	0.18444	1.9091	0.1	7110.
24105	0.27667	1.8182	0.1	7019.2
24106	9.2222e-002	1.8182	0.1	7387.8
24107	0.18444	2.0909	0.1	7185.7
24108	0.27667	2.	0.1	7106.9
24109	9.2222e-002	2.	0.1	7470.6
24110	0.18444	2.2727	0.1	7243.6
24111	0.27667	2.1818	0.1	7175.
24112	9.2222e-002	2.1818	0.1	7534.3
24113	0.18444	2.4545	0.1	7286.2
24114	0.27667	2.3636	0.1	7226.5
24115	9.2222e-002	2.3636	0.1	7582.1
24116	0.18444	2.6364	0.1	7315.4
24117	0.27667	2.5455	0.1	7263.6
24118	9.2222e-002	2.5455	0.1	7616.2
24119	0.18444	2.8182	0.1	7332.5
24120	0.27667	2.7273	0.1	7287.5
24121	9.2222e-002	2.7273	0.1	7638.2
24122	0.18444	3.	0.1	7338.1
24123	0.27667	2.9091	0.1	7299.3
24124	9.2222e-002	2.9091	0.1	7649.
24125	0.18444	3.1818	0.1	7332.5
24126	0.27667	3.0909	0.1	7299.3
24127	9.2222e-002	3.0909	0.1	7649.
24128	0.18444	3.3636	0.1	7315.4
24129	0.27667	3.2727	0.1	7287.5
24130	9.2222e-002	3.2727	0.1	7638.2
24131	0.18444	3.5455	0.1	7286.2
24132	0.27667	3.4545	0.1	7263.6
24133	9.2222e-002	3.4545	0.1	7616.2
24134	0.18444	3.7273	0.1	7243.6
24135	0.27667	3.6364	0.1	7226.5
24136	9.2222e-002	3.6364	0.1	7582.1
24137	0.18444	3.9091	0.1	7185.7
24138	0.27667	3.8182	0.1	7175.
24139	9.2222e-002	3.8182	0.1	7534.3
24140	0.18444	4.0909	0.1	7110.
24141	0.27667	4.	0.1	7106.9
24142	9.2222e-002	4.	0.1	7470.6
24143	0.18444	4.2727	0.1	7012.5
24144	0.27667	4.1818	0.1	7019.2
24145	9.2222e-002	4.1818	0.1	7387.8
24146	0.18444	4.4545	0.1	6888.2
24147	0.27667	4.3636	0.1	6908.2
24148	9.2222e-002	4.3636	0.1	7281.5
24149	0.18444	4.6364	0.1	6729.4
24150	0.27667	4.5455	0.1	6768.3
24151	9.2222e-002	4.5455	0.1	7145.2
24152	0.18444	4.8182	0.1	6525.3
24153	0.27667	4.7273	0.1	6592.5
24154	9.2222e-002	4.7273	0.1	6969.4
24155	0.18444	5.	0.1	6260.1
24156	0.27667	4.9091	0.1	6371.2
24157	9.2222e-002	4.9091	0.1	6740.2
24158	0.18444	5.1818	0.1	5910.4
24159	0.27667	5.0909	0.1	6092.1
24160	9.2222e-002	5.0909	0.1	6435.6
24161	0.18444	5.3636	0.1	5445.
24162	0.27667	5.2727	0.1	5741.4
24163	9.2222e-002	5.2727	0.1	6019.2
24164	0.18444	5.5455	0.1	4829.5
24165	0.27667	5.4545	0.1	5312.5
24166	9.2222e-002	5.4545	0.1	5427.4
24167	0.18444	5.7273	0.1	4175.3
24168	0.27667	5.6364	0.1	4823.3
24169	9.2222e-002	5.6364	0.1	4548.2
24170	0.27667	5.8182	0.1	4461.9
24171	9.2222e-002	5.8182	0.1	3194.2
24172	0.18444	5.9091	0.1	3693.2
24173	0.36889	0.27273	0.1	5094.9
24174	0.46111	0.18182	0.1	5278.5
24175	0.36889	9.0909e-002	0.1	4877.4
24176	0.36889	0.45455	0.1	5306.
24177	0.46111	0.36364	0.1	5342.7
24178	0.36889	0.63636	0.1	5616.1
24179	0.46111	0.54545	0.1	5545.2
24180	0.36889	0.81818	0.1	5929.8
24181	0.46111	0.72727	0.1	5790.
24182	0.36889	1.	0.1	6207.8
24183	0.46111	0.90909	0.1	6032.
24184	0.36889	1.1818	0.1	6441.4
24185	0.46111	1.0909	0.1	6250.4
24186	0.36889	1.3636	0.1	6633.4
24187	0.46111	1.2727	0.1	6438.9
24188	0.36889	1.5455	0.1	6789.5
24189	0.46111	1.4545	0.1	6597.5
24190	0.36889	1.7273	0.1	6915.6
24191	0.46111	1.6364	0.1	6729.
24192	0.36889	1.9091	0.1	7016.6
24193	0.46111	1.8182	0.1	6836.6
24194	0.36889	2.0909	0.1	7096.4
24195	0.46111	2.	0.1	6923.4
24196	0.36889	2.2727	0.1	7158.1
24197	0.46111	2.1818	0.1	6992.1
24198	0.36889	2.4545	0.1	7204.
24199	0.46111	2.3636	0.1	7044.6
24200	0.36889	2.6364	0.1	7235.7
24201	0.46111	2.5455	0.1	7082.7
24202	0.36889	2.8182	0.1	7254.3
24203	0.46111	2.7273	0.1	7107.5
24204	0.36889	3.	0.1	7260.4
24205	0.46111	2.9091	0.1	7119.7
24206	0.36889	3.1818	0.1	7254.3
24207	0.46111	3.0909	0.1	7119.7
24208	0.36889	3.3636	0.1	7235.7
24209	0.46111	3.2727	0.1	7107.5
24210	0.36889	3.5455	0.1	7204.
24211	0.46111	3.4545	0.1	7082.7
24212	0.36889	3.7273	0.1	7158.1
24213	0.46111	3.6364	0.1	7044.6
24214	0.36889	3.9091	0.1	7096.4
24215	0.46111	3.8182	0.1	6992.1
24216	0.36889	4.0909	0.1	7016.6
24217	0.46111	4.	0.1	6923.4
24218	0.36889	4.2727	0.1	6915.6
24219	0.46111	4.1818	0.1	6836.6
24220	0.36889	4.4545	0.1	6789.5
24221	0.46111	4.3636	0.1	6729.
24222	0.36889	4.6364	0.1	6633.4
24223	0.46111	4.5455	0.1	6597.5
24224	0.36889	4.8182	0.1	6441.4
24225	0.46111	4.7273	0.1	6438.9
24226	0.36889	5.	0.1	6207.8
24227	0.46111	4.9091	0.1	6250.4
24228	0.36889	5.1818	0.1	5929.8
24229	0.46111	5.0909	0.1	6032.
24230	0.36889	5.3636	0.1	5616.1
24231	0.46111	5.2727	0.1	5790.
24232	0.36889	5.5455	0.1	5306.
24233	0.46111	5.4545	0.1	5545.2
24234	0.36889	5.7273	0.1	5094.9
24235	0.46111	5.6364	0.1	5342.7
24236	0.46111	5.8182	0.1	5278.5
24237	0.36889	5.9091	0.1	4877.4
24238	0.55333	0.27273	0.1	5524.9
24239	0.64556	0.18182	0.1	5669.1
24240	0.55333	9.0909e-002	0.1	5417.7
24241	0.55333	0.45455	0.1	5578.1
24242	0.64556	0.36364	0.1	5645.8
24243	0.55333	0.63636	0.1	5716.
24244	0.64556	0.54545	0.1	5720.7
24245	0.55333	0.81818	0.1	5891.2
24246	0.64556	0.72727	0.1	5842.6
24247	0.55333	1.	0.1	6074.8
24248	0.64556	0.90909	0.1	5987.7
24249	0.55333	1.1818	0.1	6248.5
24250	0.64556	1.0909	0.1	6137.3
24251	0.55333	1.3636	0.1	6403.6
24252	0.64556	1.2727	0.1	6279.2
24253	0.55333	1.5455	0.1	6537.5
24254	0.64556	1.4545	0.1	6407.2
24255	0.55333	1.7273	0.1	6650.3
24256	0.64556	1.6364	0.1	6518.8
24257	0.55333	1.9091	0.1	6743.6
24258	0.64556	1.8182	0.1	6613.8
24259	0.55333	2.0909	0.1	6819.2
24260	0.64556	2.	0.1	6692.6
24261	0.55333	2.2727	0.1	6878.6
24262	0.64556	2.1818	0.1	6756.3
24263	0.55333	2.4545	0.1	6923.3
24264	0.64556	2.3636	0.1	6805.9
24265	0.55333	2.6364	0.1	6954.5
24266	0.64556	2.5455	0.1	6842.2
24267	0.55333	2.8182	0.1	6972.9
24268	0.64556	2.7273	0.1	6866.1
24269	0.55333	3.	0.1	6978.9
24270	0.64556	2.9091	0.1	6877.8
24271	0.55333	3.1818	0.1	6972.9
24272	0.64556	3.0909	0.1	6877.8
24273	0.55333	3.3636	0.1	6954.5
24274	0.64556	3.2727	0.1	6866.1
24275	0.55333	3.5455	0.1	6923.3
24276	0.64556	3.4545	0.1	6842.2
24277	0.55333	3.7273	0.1	6878.6
24278	0.64556	3.6364	0.1	6805.9
24279	0.55333	3.9091	0.1	6819.2
24280	0.64556	3.8182	0.1	6756.3
24281	0.55333	4.0909	0.1	6743.6
24282	0.64556	4.	0.1	6692.6
24283	0.55333	4.2727	0.1	6650.3
24284	0.64556	4.1818	0.1	6613.8
24285	0.55333	4.4545	0.1	6537.5
24286	0.64556	4.3636	0.1	6518.8
24287	0.55333	4.6364	0.1	6403.6
24288	0.64556	4.5455	0.1	6407.2
24289	0.55333	4.8182	0.1	6248.5
24290	0.64556	4.7273	0.1	6279.2
24291	0.55333	5.	0.1	6074.8
24292	0.64556	4.9091	0.1	6137.3
24293	0.55333	5.1818	0.1	5891.2
24294	0.64556	5.0909	0.1	5987.7
24295	0.55333	5.3636	0.1	5716.
24296	0.64556	5.2727	0.1	5842.6
24297	0.55333	5.5455	0.1	5578.1
24298	0.64556	5.4545	0.1	5720.7
24299	0.55333	5.7273	0.1	5524.9
24300	0.64556	5.6364	0.1	5645.8
24301	0.64556	5.8182	0.1	5669.1
24302	0.55333	5.9091	0.1	5417.7
24303	0.73778	0.27273	0.1	5790.1
24304	0.83	0.18182	0.1	5887.
24305	0.73778	9.0909e-002	0.1	5725.6
24306	0.73778	0.45455	0.1	5787.6
24307	0.83	0.36364	0.1	5837.7
24308	0.73778	0.63636	0.1	5845.5
24309	0.83	0.54545	0.1	5857.6
24310	0.73778	0.81818	0.1	5937.5
24311	0.83	0.72727	0.1	5912.8
24312	0.73778	1.	0.1	6049.3
24313	0.83	0.90909	0.1	5993.1
24314	0.73778	1.1818	0.1	6167.6
24315	0.83	1.0909	0.1	6087.3
24316	0.73778	1.3636	0.1	6282.7
24317	0.83	1.2727	0.1	6185.7
24318	0.73778	1.5455	0.1	6388.6
24319	0.83	1.4545	0.1	6281.2
24320	0.73778	1.7273	0.1	6482.4
24321	0.83	1.6364	0.1	6369.3
24322	0.73778	1.9091	0.1	6562.9
24323	0.83	1.8182	0.1	6447.5
24324	0.73778	2.0909	0.1	6629.8
24325	0.83	2.	0.1	6514.6
24326	0.73778	2.2727	0.1	6683.6
24327	0.83	2.1818	0.1	6570.1
24328	0.73778	2.4545	0.1	6724.8
24329	0.83	2.3636	0.1	6614.2
24330	0.73778	2.6364	0.1	6753.7
24331	0.83	2.5455	0.1	6646.9
24332	0.73778	2.8182	0.1	6771.
24333	0.83	2.7273	0.1	6668.6
24334	0.73778	3.	0.1	6776.7
24335	0.83	2.9091	0.1	6679.3
24336	0.73778	3.1818	0.1	6771.
24337	0.83	3.0909	0.1	6679.3
24338	0.73778	3.3636	0.1	6753.7
24339	0.83	3.2727	0.1	6668.6
24340	0.73778	3.5455	0.1	6724.8
24341	0.83	3.4545	0.1	6646.9
24342	0.73778	3.7273	0.1	6683.6
24343	0.83	3.6364	0.1	6614.2
24344	0.73778	3.9091	0.1	6629.8
24345	0.83	3.8182	0.1	6570.1
24346	0.73778	4.0909	0.1	6562.9
24347	0.83	4.	0.1	6514.6
24348	0.73778	4.2727	0.1	6482.4
24349	0.83	4.1818	0.1	6447.5
24350	0.73778	4.4545	0.1	6388.6
24351	0.83	4.3636	0.1	6369.3
24352	0.73778	4.6364	0.1	6282.7
24353	0.83	4.5455	0.1	6281.2
24354	0.73778	4.8182	0.1	6167.6
24355	0.83	4.7273	0.1	6185.7
24356	0.73778	5.	0.1	6049.3
24357	0.83	4.9091	0.1	6087.3
24358	0.73778	5.1818	0.1	5937.5
24359	0.83	5.0909	0.1	5993.1
24360	0.73778	5.3636	0.1	5845.5
24361	0.83	5.2727	0.1	5912.8
24362	0.73778	5.5455	0.1	5787.6
24363	0.83	5.4545	0.1	5857.6
24364	0.73778	5.7273	0.1	5790.1
24365	0.83	5.6364	0.1	5837.7
24366	0.83	5.8182	0.1	5887.
24367	0.73778	5.9091	0.1	5725.6
24368	0.92222	0.27273	0.1	5935.2
24369	1.0144	0.18182	0.1	6002.3
24370	0.92222	9.0909e-002	0.1	5896.
24371	0.92222	0.45455	0.1	5907.9
24372	1.0144	0.36364	0.1	5944.7
24373	0.92222	0.63636	0.1	5924.3
24374	1.0144	0.54545	0.1	5937.7
24375	0.92222	0.81818	0.1	5967.3
24376	1.0144	0.72727	0.1	5956.2
24377	0.92222	1.	0.1	6030.
24378	1.0144	0.90909	0.1	5995.6
24379	0.92222	1.1818	0.1	6104.6
24380	1.0144	1.0909	0.1	6050.
24381	0.92222	1.3636	0.1	6183.8
24382	1.0144	1.2727	0.1	6113.3
24383	0.92222	1.5455	0.1	6261.6
24384	1.0144	1.4545	0.1	6179.6
24385	0.92222	1.7273	0.1	6334.2
24386	1.0144	1.6364	0.1	6244.5
24387	0.92222	1.9091	0.1	6399.1
24388	1.0144	1.8182	0.1	6304.8
24389	0.92222	2.0909	0.1	6454.7
24390	1.0144	2.	0.1	6358.4
24391	0.92222	2.2727	0.1	6500.5
24392	1.0144	2.1818	0.1	6404.
24393	0.92222	2.4545	0.1	6536.2
24394	1.0144	2.3636	0.1	6441.
24395	0.92222	2.6364	0.1	6561.6
24396	1.0144	2.5455	0.1	6468.8
24397	0.92222	2.8182	0.1	6576.8
24398	1.0144	2.7273	0.1	6487.5
24399	0.92222	3.	0.1	6581.9
24400	1.0144	2.9091	0.1	6496.8
24401	0.92222	3.1818	0.1	6576.8
24402	1.0144	3.0909	0.1	6496.8
24403	0.92222	3.3636	0.1	6561.6
24404	1.0144	3.2727	0.1	6487.5
24405	0.92222	3.5455	0.1	6536.2
24406	1.0144	3.4545	0.1	6468.8
24407	0.92222	3.7273	0.1	6500.5
24408	1.0144	3.6364	0.1	6441.
24409	0.92222	3.9091	0.1	6454.7
24410	1.0144	3.8182	0.1	6404.
24411	0.92222	4.0909	0.1	6399.1
24412	1.0144	4.	0.1	6358.4
24413	0.92222	4.2727	0.1	6334.2
24414	1.0144	4.1818	0.1	6304.8
24415	0.92222	4.4545	0.1	6261.6
24416	1.0144	4.3636	0.1	6244.5
24417	0.92222	4.6364	0.1	6183.8
24418	1.0144	4.5455	0.1	6179.6
24419	0.92222	4.8182	0.1	6104.6
24420	1.0144	4.7273	0.1	6113.3
24421	0.92222	5.	0.1	6030.
24422	1.0144	4.9091	0.1	6050.
24423	0.92222	5.1818	0.1	5967.3
24424	1.0144	5.0909	0.1	5995.6
24425	0.92222	5.3636	0.1	5924.3
24426	1.0144	5.2727	0.1	5956.2
24427	0.92222	5.5455	0.1	5907.9
24428	1.0144	5.4545	0.1	5937.7
24429	0.92222	5.7273	0.1	5935.2
24430	1.0144	5.6364	0.1	5944.7
24431	1.0144	5.8182	0.1	6002.3
24432	0.92222	5.9091	0.1	5896.
24433	1.1067	0.27273	0.1	6012.4
24434	1.1989	0.18182	0.1	6057.1
24435	1.1067	9.0909e-002	0.1	5988.6
24436	1.1067	0.45455	0.1	5975.
24437	1.1989	0.36364	0.1	5998.6
24438	1.1067	0.63636	0.1	5969.6
24439	1.1989	0.54545	0.1	5978.3
24440	1.1067	0.81818	0.1	5984.
24441	1.1989	0.72727	0.1	5976.2
24442	1.1067	1.	0.1	6014.9
24443	1.1989	0.90909	0.1	5990.3
24444	1.1067	1.1818	0.1	6058.
24445	1.1989	1.0909	0.1	6017.7
24446	1.1067	1.3636	0.1	6108.5
24447	1.1989	1.2727	0.1	6054.7
24448	1.1067	1.5455	0.1	6162.
24449	1.1989	1.4545	0.1	6097.3
24450	1.1067	1.7273	0.1	6214.7
24451	1.1989	1.6364	0.1	6141.9
24452	1.1067	1.9091	0.1	6263.8
24453	1.1989	1.8182	0.1	6185.4
24454	1.1067	2.0909	0.1	6307.4
24455	1.1989	2.	0.1	6225.7
24456	1.1067	2.2727	0.1	6344.2
24457	1.1989	2.1818	0.1	6261.
24458	1.1067	2.4545	0.1	6373.4
24459	1.1989	2.3636	0.1	6290.3
24460	1.1067	2.6364	0.1	6394.5
24461	1.1989	2.5455	0.1	6312.8
24462	1.1067	2.8182	0.1	6407.3
24463	1.1989	2.7273	0.1	6327.9
24464	1.1067	3.	0.1	6411.5
24465	1.1989	2.9091	0.1	6335.6
24466	1.1067	3.1818	0.1	6407.3
24467	1.1989	3.0909	0.1	6335.6
24468	1.1067	3.3636	0.1	6394.5
24469	1.1989	3.2727	0.1	6327.9
24470	1.1067	3.5455	0.1	6373.4
24471	1.1989	3.4545	0.1	6312.8
24472	1.1067	3.7273	0.1	6344.2
24473	1.1989	3.6364	0.1	6290.3
24474	1.1067	3.9091	0.1	6307.4
24475	1.1989	3.8182	0.1	6261.
24476	1.1067	4.0909	0.1	6263.8
24477	1.1989	4.	0.1	6225.7
24478	1.1067	4.2727	0.1	6214.7
24479	1.1989	4.1818	0.1	6185.4
24480	1.1067	4.4545	0.1	6162.
24481	1.1989	4.3636	0.1	6141.9
24482	1.1067	4.6364	0.1	6108.5
24483	1.1989	4.5455	0.1	6097.3
24484	1.1067	4.8182	0.1	6058.
24485	1.1989	4.7273	0.1	6054.7
24486	1.1067	5.	0.1	6014.9
24487	1.1989	4.9091	0.1	6017.7
24488	1.1067	5.1818	0.1	5984.
24489	1.1989	5.0909	0.1	5990.3
24490	1.1067	5.3636	0.1	5969.6
24491	1.1989	5.2727	0.1	5976.2
24492	1.1067	5.5455	0.1	5975.
24493	1.1989	5.4545	0.1	5978.3
24494	1.1067	5.7273	0.1	6012.4
24495	1.1989	5.6364	0.1	5998.6
24496	1.1989	5.8182	0.1	6057.1
24497	1.1067	5.9091	0.1	5988.6
24498	1.2911	0.27273	0.1	6043.8
24499	1.3833	0.18182	0.1	6072.5
24500	1.2911	9.0909e-002	0.1	6030.7
24501	1.2911	0.45455	0.1	6002.4
24502	1.3833	0.36364	0.1	6015.8
24503	1.2911	0.63636	0.1	5985.1
24504	1.3833	0.54545	0.1	5988.7
24505	1.2911	0.81818	0.1	5982.4
24506	1.3833	0.72727	0.1	5974.8
24507	1.2911	1.	0.1	5992.7
24508	1.3833	0.90909	0.1	5973.2
24509	1.2911	1.1818	0.1	6013.8
24510	1.3833	1.0909	0.1	5982.4
24511	1.2911	1.3636	0.1	6042.9
24512	1.3833	1.2727	0.1	6000.5
24513	1.2911	1.5455	0.1	6076.6
24514	1.3833	1.4545	0.1	6024.9
24515	1.2911	1.7273	0.1	6112.2
24516	1.3833	1.6364	0.1	6052.9
24517	1.2911	1.9091	0.1	6147.
24518	1.3833	1.8182	0.1	6082.
24519	1.2911	2.0909	0.1	6179.
24520	1.3833	2.	0.1	6110.2
24521	1.2911	2.2727	0.1	6206.8
24522	1.3833	2.1818	0.1	6135.8
24523	1.2911	2.4545	0.1	6229.4
24524	1.3833	2.3636	0.1	6157.6
24525	1.2911	2.6364	0.1	6245.9
24526	1.3833	2.5455	0.1	6174.6
24527	1.2911	2.8182	0.1	6256.
24528	1.3833	2.7273	0.1	6186.2
24529	1.2911	3.	0.1	6259.4
24530	1.3833	2.9091	0.1	6192.2
24531	1.2911	3.1818	0.1	6256.
24532	1.3833	3.0909	0.1	6192.2
24533	1.2911	3.3636	0.1	6245.9
24534	1.3833	3.2727	0.1	6186.2
24535	1.2911	3.5455	0.1	6229.4
24536	1.3833	3.4545	0.1	6174.6
24537	1.2911	3.7273	0.1	6206.8
24538	1.3833	3.6364	0.1	6157.6
24539	1.2911	3.9091	0.1	6179.
24540	1.3833	3.8182	0.1	6135.8
24541	1.2911	4.0909	0.1	6147.
24542	1.3833	4.	0.1	6110.2
24543	1.2911	4.2727	0.1	6112.2
24544	1.3833	4.1818	0.1	6082.
24545	1.2911	4.4545	0.1	6076.6
24546	1.3833	4.3636	0.1	6052.9
24547	1.2911	4.6364	0.1	6042.9
24548	1.3833	4.5455	0.1	6024.9
24549	1.2911	4.8182	0.1	6013.8
24550	1.3833	4.7273	0.1	6000.5
24551	1.2911	5.	0.1	5992.7
24552	1.3833	4.9091	0.1	5982.4
24553	1.2911	5.1818	0.1	5982.4
24554	1.3833	5.0909	0.1	5973.2
24555	1.2911	5.3636	0.1	5985.1
24556	1.3833	5.2727	0.1	5974.8
24557	1.2911	5.5455	0.1	6002.4
24558	1.3833	5.4545	0.1	5988.7
24559	1.2911	5.7273	0.1	6043.8
24560	1.3833	5.6364	0.1	6015.8
24561	1.3833	5.8182	0.1	6072.5
24562	1.2911	5.9091	0.1	6030.7
24563	1.4756	0.27273	0.1	6044.9
24564	1.5678	0.18182	0.1	6061.5
24565	1.4756	9.0909e-002	0.1	6039.5
24566	1.4756	0.45455	0.1	6002.6
24567	1.5678	0.36364	0.1	6007.9
24568	1.4756	0.63636	0.1	5978.7
24569	1.5678	0.54545	0.1	5977.5
24570	1.4756	0.81818	0.1	5965.7
24571	1.5678	0.72727	0.1	5956.8
24572	1.4756	1.	0.1	5962.8
24573	1.5678	0.90909	0.1	5945.4
24574	1.4756	1.1818	0.1	5968.8
24575	1.5678	1.0909	0.1	5942.6
24576	1.4756	1.3636	0.1	5982.2
24577	1.5678	1.2727	0.1	5947.4
24578	1.4756	1.5455	0.1	6000.7
24579	1.5678	1.4545	0.1	5958.2
24580	1.4756	1.7273	0.1	6022.3
24581	1.5678	1.6364	0.1	5973.2
24582	1.4756	1.9091	0.1	6044.9
24583	1.5678	1.8182	0.1	5990.5
24584	1.4756	2.0909	0.1	6066.7
24585	1.5678	2.	0.1	6008.4
24586	1.4756	2.2727	0.1	6086.2
24587	1.5678	2.1818	0.1	6025.4
24588	1.4756	2.4545	0.1	6102.5
24589	1.5678	2.3636	0.1	6040.3
24590	1.4756	2.6364	0.1	6114.6
24591	1.5678	2.5455	0.1	6052.3
24592	1.4756	2.8182	0.1	6122.1
24593	1.5678	2.7273	0.1	6060.6
24594	1.4756	3.	0.1	6124.7
24595	1.5678	2.9091	0.1	6064.9
24596	1.4756	3.1818	0.1	6122.1
24597	1.5678	3.0909	0.1	6064.9
24598	1.4756	3.3636	0.1	6114.6
24599	1.5678	3.2727	0.1	6060.6
24600	1.4756	3.5455	0.1	6102.5
24601	1.5678	3.4545	0.1	6052.3
24602	1.4756	3.7273	0.1	6086.2
24603	1.5678	3.6364	0.1	6040.3
24604	1.4756	3.9091	0.1	6066.7
24605	1.5678	3.8182	0.1	6025.4
24606	1.4756	4.0909	0.1	6044.9
24607	1.5678	4.	0.1	6008.4
24608	1.4756	4.2727	0.1	6022.3
24609	1.5678	4.1818	0.1	5990.5
24610	1.4756	4.4545	0.1	6000.7
24611	1.5678	4.3636	0.1	5973.2
24612	1.4756	4.6364	0.1	5982.2
24613	1.5678	4.5455	0.1	5958.2
24614	1.4756	4.8182	0.1	5968.8
24615	1.5678	4.7273	0.1	5947.4
24616	1.4756	5.	0.1	5962.8
24617	1.5678	4.9091	0.1	5942.6
24618	1.4756	5.1818	0.1	5965.7
24619	1.5678	5.0909	0.1	5945.4
24620	1.4756	5.3636	0.1	5978.7
24621	1.5678	5.2727	0.1	5956.8
24622	1.4756	5.5455	0.1	6002.6
24623	1.5678	5.4545	0.1	5977.5
24624	1.4756	5.7273	0.1	6044.9
24625	1.5678	5.6364	0.1	6007.9
24626	1.5678	5.8182	0.1	6061.5
24627	1.4756	5.9091	0.1	6039.5
24628	1.66	0.27273	0.1	6024.9
24629	1.7522	0.18182	0.1	6032.4
24630	1.66	9.0909e-002	0.1	6025.2
24631	1.66	0.45455	0.1	5983.3
24632	1.7522	0.36364	0.1	5982.3
24633	1.66	0.63636	0.1	5955.9
24634	1.7522	0.54545	0.1	5950.6
24635	1.66	0.81818	0.1	5936.6
24636	1.7522	0.72727	0.1	5926.
24637	1.66	1.	0.1	5925.2
24638	1.7522	0.90909	0.1	5908.5
24639	1.66	1.1818	0.1	5921.
24640	1.7522	1.0909	0.1	5897.8
24641	1.66	1.3636	0.1	5923.2
24642	1.7522	1.2727	0.1	5893.4
24643	1.66	1.5455	0.1	5930.3
24644	1.7522	1.4545	0.1	5894.3
24645	1.66	1.7273	0.1	5941.
24646	1.7522	1.6364	0.1	5899.5
24647	1.66	1.9091	0.1	5953.6
24648	1.7522	1.8182	0.1	5907.4
24649	1.66	2.0909	0.1	5966.7
24650	1.7522	2.	0.1	5916.9
24651	1.66	2.2727	0.1	5979.1
24652	1.7522	2.1818	0.1	5926.7
24653	1.66	2.4545	0.1	5989.8
24654	1.7522	2.3636	0.1	5935.8
24655	1.66	2.6364	0.1	5998.
24656	1.7522	2.5455	0.1	5943.3
24657	1.66	2.8182	0.1	6003.1
24658	1.7522	2.7273	0.1	5948.7
24659	1.66	3.	0.1	6004.8
24660	1.7522	2.9091	0.1	5951.5
24661	1.66	3.1818	0.1	6003.1
24662	1.7522	3.0909	0.1	5951.5
24663	1.66	3.3636	0.1	5998.
24664	1.7522	3.2727	0.1	5948.7
24665	1.66	3.5455	0.1	5989.8
24666	1.7522	3.4545	0.1	5943.3
24667	1.66	3.7273	0.1	5979.1
24668	1.7522	3.6364	0.1	5935.8
24669	1.66	3.9091	0.1	5966.7
24670	1.7522	3.8182	0.1	5926.7
24671	1.66	4.0909	0.1	5953.6
24672	1.7522	4.	0.1	5916.9
24673	1.66	4.2727	0.1	5941.
24674	1.7522	4.1818	0.1	5907.4
24675	1.66	4.4545	0.1	5930.3
24676	1.7522	4.3636	0.1	5899.5
24677	1.66	4.6364	0.1	5923.2
24678	1.7522	4.5455	0.1	5894.3
24679	1.66	4.8182	0.1	5921.
24680	1.7522	4.7273	0.1	5893.4
24681	1.66	5.	0.1	5925.2
24682	1.7522	4.9091	0.1	5897.8
24683	1.66	5.1818	0.1	5936.6
24684	1.7522	5.0909	0.1	5908.5
24685	1.66	5.3636	0.1	5955.9
24686	1.7522	5.2727	0.1	5926.
24687	1.66	5.5455	0.1	5983.3
24688	1.7522	5.4545	0.1	5950.6
24689	1.66	5.7273	0.1	6024.9
24690	1.7522	5.6364	0.1	5982.3
24691	1.7522	5.8182	0.1	6032.4
24692	1.66	5.9091	0.1	6025.2
24693	1.8444	0.27273	0.1	5990.1
24694	1.9367	0.18182	0.1	5990.7
24695	1.8444	9.0909e-002	0.1	5994.9
24696	1.8444	0.45455	0.1	5950.
24697	1.9367	0.36364	0.1	5944.1
24698	1.8444	0.63636	0.1	5921.
24699	1.9367	0.54545	0.1	5912.2
24700	1.8444	0.81818	0.1	5898.
24701	1.9367	0.72727	0.1	5885.6
24702	1.8444	1.	0.1	5881.1
24703	1.9367	0.90909	0.1	5864.4
24704	1.8444	1.1818	0.1	5870.1
24705	1.9367	1.0909	0.1	5848.6
24706	1.8444	1.3636	0.1	5864.4
24707	1.9367	1.2727	0.1	5837.9
24708	1.8444	1.5455	0.1	5863.3
24709	1.9367	1.4545	0.1	5831.9
24710	1.8444	1.7273	0.1	5865.6
24711	1.9367	1.6364	0.1	5829.7
24712	1.8444	1.9091	0.1	5870.4
24713	1.9367	1.8182	0.1	5830.6
24714	1.8444	2.0909	0.1	5876.6
24715	1.9367	2.	0.1	5833.5
24716	1.8444	2.2727	0.1	5883.1
24717	1.9367	2.1818	0.1	5837.5
24718	1.8444	2.4545	0.1	5889.
24719	1.9367	2.3636	0.1	5841.7
24720	1.8444	2.6364	0.1	5893.7
24721	1.9367	2.5455	0.1	5845.5
24722	1.8444	2.8182	0.1	5896.8
24723	1.9367	2.7273	0.1	5848.4
24724	1.8444	3.	0.1	5897.8
24725	1.9367	2.9091	0.1	5849.9
24726	1.8444	3.1818	0.1	5896.8
24727	1.9367	3.0909	0.1	5849.9
24728	1.8444	3.3636	0.1	5893.7
24729	1.9367	3.2727	0.1	5848.4
24730	1.8444	3.5455	0.1	5889.
24731	1.9367	3.4545	0.1	5845.5
24732	1.8444	3.7273	0.1	5883.1
24733	1.9367	3.6364	0.1	5841.7
24734	1.8444	3.9091	0.1	5876.6
24735	1.9367	3.8182	0.1	5837.5
24736	1.8444	4.0909	0.1	5870.4
24737	1.9367	4.	0.1	5833.5
24738	1.8444	4.2727	0.1	5865.6
24739	1.9367	4.1818	0.1	5830.6
24740	1.8444	4.4545	0.1	5863.3
24741	1.9367	4.3636	0.1	5829.7
24742	1.8444	4.6364	0.1	5864.4
24743	1.9367	4.5455	0.1	5831.9
24744	1.8444	4.8182	0.1	5870.1
24745	1.9367	4.7273	0.1	5837.9
24746	1.8444	5.	0.1	5881.1
24747	1.9367	4.9091	0.1	5848.6
24748	1.8444	5.1818	0.1	5898.
24749	1.9367	5.0909	0.1	5864.4
24750	1.8444	5.3636	0.1	5921.
24751	1.9367	5.2727	0.1	5885.6
24752	1.8444	5.5455	0.1	5950.
24753	1.9367	5.4545	0.1	5912.2
24754	1.8444	5.7273	0.1	5990.1
24755	1.9367	5.6364	0.1	5944.1
24756	1.9367	5.8182	0.1	5990.7
24757	1.8444	5.9091	0.1	5994.9
24758	2.0289	0.27273	0.1	5944.9
24759	2.1211	0.18182	0.1	5940.1
24760	2.0289	9.0909e-002	0.1	5953.
24761	2.0289	0.45455	0.1	5906.6
24762	2.1211	0.36364	0.1	5896.9
24763	2.0289	0.63636	0.1	5877.1
24764	2.1211	0.54545	0.1	5865.5
24765	2.0289	0.81818	0.1	5852.2
24766	2.1211	0.72727	0.1	5838.1
24767	2.0289	1.	0.1	5832.
24768	2.1211	0.90909	0.1	5814.8
24769	2.0289	1.1818	0.1	5816.4
24770	2.1211	1.0909	0.1	5795.8
24771	2.0289	1.3636	0.1	5805.3
24772	2.1211	1.2727	0.1	5781.
24773	2.0289	1.5455	0.1	5798.2
24774	2.1211	1.4545	0.1	5770.1
24775	2.0289	1.7273	0.1	5794.5
24776	2.1211	1.6364	0.1	5762.7
24777	2.0289	1.9091	0.1	5793.4
24778	2.1211	1.8182	0.1	5758.3
24779	2.0289	2.0909	0.1	5794.1
24780	2.1211	2.	0.1	5756.2
24781	2.0289	2.2727	0.1	5795.8
24782	2.1211	2.1818	0.1	5755.6
24783	2.0289	2.4545	0.1	5797.9
24784	2.1211	2.3636	0.1	5756.1
24785	2.0289	2.6364	0.1	5799.8
24786	2.1211	2.5455	0.1	5756.9
24787	2.0289	2.8182	0.1	5801.2
24788	2.1211	2.7273	0.1	5757.7
24789	2.0289	3.	0.1	5801.6
24790	2.1211	2.9091	0.1	5758.2
24791	2.0289	3.1818	0.1	5801.2
24792	2.1211	3.0909	0.1	5758.2
24793	2.0289	3.3636	0.1	5799.8
24794	2.1211	3.2727	0.1	5757.7
24795	2.0289	3.5455	0.1	5797.9
24796	2.1211	3.4545	0.1	5756.9
24797	2.0289	3.7273	0.1	5795.8
24798	2.1211	3.6364	0.1	5756.1
24799	2.0289	3.9091	0.1	5794.1
24800	2.1211	3.8182	0.1	5755.6
24801	2.0289	4.0909	0.1	5793.4
24802	2.1211	4.	0.1	5756.2
24803	2.0289	4.2727	0.1	5794.5
24804	2.1211	4.1818	0.1	5758.3
24805	2.0289	4.4545	0.1	5798.2
24806	2.1211	4.3636	0.1	5762.7
24807	2.0289	4.6364	0.1	5805.3
24808	2.1211	4.5455	0.1	5770.1
24809	2.0289	4.8182	0.1	5816.4
24810	2.1211	4.7273	0.1	5781.
24811	2.0289	5.	0.1	5832.
24812	2.1211	4.9091	0.1	5795.8
24813	2.0289	5.1818	0.1	5852.2
24814	2.1211	5.0909	0.1	5814.8
24815	2.0289	5.3636	0.1	5877.1
24816	2.1211	5.2727	0.1	5838.1
24817	2.0289	5.5455	0.1	5906.6
24818	2.1211	5.4545	0.1	5865.5
24819	2.0289	5.7273	0.1	5944.9
24820	2.1211	5.6364	0.1	5896.9
24821	2.1211	5.8182	0.1	5940.1
24822	2.0289	5.9091	0.1	5953.
24823	2.2133	0.27273	0.1	5892.4
24824	2.3056	0.18182	0.1	5883.4
24825	2.2133	9.0909e-002	0.1	5903.
24826	2.2133	0.45455	0.1	5856.1
24827	2.3056	0.36364	0.1	5843.4
24828	2.2133	0.63636	0.1	5826.7
24829	2.3056	0.54545	0.1	5812.9
24830	2.2133	0.81818	0.1	5800.9
24831	2.3056	0.72727	0.1	5785.4
24832	2.2133	1.	0.1	5778.8
24833	2.3056	0.90909	0.1	5761.1
24834	2.2133	1.1818	0.1	5760.4
24835	2.3056	1.0909	0.1	5740.2
24836	2.2133	1.3636	0.1	5745.7
24837	2.3056	1.2727	0.1	5722.7
24838	2.2133	1.5455	0.1	5734.5
24839	2.3056	1.4545	0.1	5708.6
24840	2.2133	1.7273	0.1	5726.4
24841	2.3056	1.6364	0.1	5697.7
24842	2.2133	1.9091	0.1	5720.9
24843	2.3056	1.8182	0.1	5689.5
24844	2.2133	2.0909	0.1	5717.5
24845	2.3056	2.	0.1	5683.6
24846	2.2133	2.2727	0.1	5715.6
24847	2.3056	2.1818	0.1	5679.7
24848	2.2133	2.4545	0.1	5714.7
24849	2.3056	2.3636	0.1	5677.2
24850	2.2133	2.6364	0.1	5714.4
24851	2.3056	2.5455	0.1	5675.7
24852	2.2133	2.8182	0.1	5714.4
24853	2.3056	2.7273	0.1	5674.9
24854	2.2133	3.	0.1	5714.4
24855	2.3056	2.9091	0.1	5674.6
24856	2.2133	3.1818	0.1	5714.4
24857	2.3056	3.0909	0.1	5674.6
24858	2.2133	3.3636	0.1	5714.4
24859	2.3056	3.2727	0.1	5674.9
24860	2.2133	3.5455	0.1	5714.7
24861	2.3056	3.4545	0.1	5675.7
24862	2.2133	3.7273	0.1	5715.6
24863	2.3056	3.6364	0.1	5677.2
24864	2.2133	3.9091	0.1	5717.5
24865	2.3056	3.8182	0.1	5679.7
24866	2.2133	4.0909	0.1	5720.9
24867	2.3056	4.	0.1	5683.6
24868	2.2133	4.2727	0.1	5726.4
24869	2.3056	4.1818	0.1	5689.5
24870	2.2133	4.4545	0.1	5734.5
24871	2.3056	4.3636	0.1	5697.7
24872	2.2133	4.6364	0.1	5745.7
24873	2.3056	4.5455	0.1	5708.6
24874	2.2133	4.8182	0.1	5760.4
24875	2.3056	4.7273	0.1	5722.7
24876	2.2133	5.	0.1	5778.8
24877	2.3056	4.9091	0.1	5740.2
24878	2.2133	5.1818	0.1	5800.9
24879	2.3056	5.0909	0.1	5761.1
24880	2.2133	5.3636	0.1	5826.7
24881	2.3056	5.2727	0.1	5785.4
24882	2.2133	5.5455	0.1	5856.1
24883	2.3056	5.4545	0.1	5812.9
24884	2.2133	5.7273	0.1	5892.4
24885	2.3056	5.6364	0.1	5843.4
24886	2.3056	5.8182	0.1	5883.4
24887	2.2133	5.9091	0.1	5903.
24888	2.3978	0.27273	0.1	5834.6
24889	2.49	0.18182	0.1	5822.3
24890	2.3978	9.0909e-002	0.1	5847.1
24891	2.3978	0.45455	0.1	5800.4
24892	2.49	0.36364	0.1	5785.3
24893	2.3978	0.63636	0.1	5771.7
24894	2.49	0.54545	0.1	5756.
24895	2.3978	0.81818	0.1	5745.8
24896	2.49	0.72727	0.1	5729.
24897	2.3978	1.	0.1	5722.7
24898	2.49	0.90909	0.1	5704.4
24899	2.3978	1.1818	0.1	5702.6
24900	2.49	1.0909	0.1	5682.6
24901	2.3978	1.3636	0.1	5685.7
24902	2.49	1.2727	0.1	5663.6
24903	2.3978	1.5455	0.1	5671.7
24904	2.49	1.4545	0.1	5647.4
24905	2.3978	1.7273	0.1	5660.6
24906	2.49	1.6364	0.1	5634.
24907	2.3978	1.9091	0.1	5652.
24908	2.49	1.8182	0.1	5623.3
24909	2.3978	2.0909	0.1	5645.6
24910	2.49	2.	0.1	5614.8
24911	2.3978	2.2727	0.1	5641.1
24912	2.49	2.1818	0.1	5608.4
24913	2.3978	2.4545	0.1	5637.9
24914	2.49	2.3636	0.1	5603.8
24915	2.3978	2.6364	0.1	5635.9
24916	2.49	2.5455	0.1	5600.6
24917	2.3978	2.8182	0.1	5634.8
24918	2.49	2.7273	0.1	5598.6
24919	2.3978	3.	0.1	5634.5
24920	2.49	2.9091	0.1	5597.6
24921	2.3978	3.1818	0.1	5634.8
24922	2.49	3.0909	0.1	5597.6
24923	2.3978	3.3636	0.1	5635.9
24924	2.49	3.2727	0.1	5598.6
24925	2.3978	3.5455	0.1	5637.9
24926	2.49	3.4545	0.1	5600.6
24927	2.3978	3.7273	0.1	5641.1
24928	2.49	3.6364	0.1	5603.8
24929	2.3978	3.9091	0.1	5645.6
24930	2.49	3.8182	0.1	5608.4
24931	2.3978	4.0909	0.1	5652.
24932	2.49	4.	0.1	5614.8
24933	2.3978	4.2727	0.1	5660.6
24934	2.49	4.1818	0.1	5623.3
24935	2.3978	4.4545	0.1	5671.7
24936	2.49	4.3636	0.1	5634.
24937	2.3978	4.6364	0.1	5685.7
24938	2.49	4.5455	0.1	5647.4
24939	2.3978	4.8182	0.1	5702.6
24940	2.49	4.7273	0.1	5663.6
24941	2.3978	5.	0.1	5722.7
24942	2.49	4.9091	0.1	5682.6
24943	2.3978	5.1818	0.1	5745.8
24944	2.49	5.0909	0.1	5704.4
24945	2.3978	5.3636	0.1	5771.7
24946	2.49	5.2727	0.1	5729.
24947	2.3978	5.5455	0.1	5800.4
24948	2.49	5.4545	0.1	5756.
24949	2.3978	5.7273	0.1	5834.6
24950	2.49	5.6364	0.1	5785.3
24951	2.49	5.8182	0.1	5822.3
24952	2.3978	5.9091	0.1	5847.1
24953	2.5822	0.27273	0.1	5773.2
24954	2.6744	0.18182	0.1	5758.3
24955	2.5822	9.0909e-002	0.1	5787.1
24956	2.5822	0.45455	0.1	5741.1
24957	2.6744	0.36364	0.1	5724.2
24958	2.5822	0.63636	0.1	5713.4
24959	2.6744	0.54545	0.1	5696.2
24960	2.5822	0.81818	0.1	5687.8
24961	2.6744	0.72727	0.1	5669.9
24962	2.5822	1.	0.1	5664.4
24963	2.6744	0.90909	0.1	5645.6
24964	2.5822	1.1818	0.1	5643.6
24965	2.6744	1.0909	0.1	5623.5
24966	2.5822	1.3636	0.1	5625.3
24967	2.6744	1.2727	0.1	5603.7
24968	2.5822	1.5455	0.1	5609.7
24969	2.6744	1.4545	0.1	5586.4
24970	2.5822	1.7273	0.1	5596.6
24971	2.6744	1.6364	0.1	5571.5
24972	2.5822	1.9091	0.1	5585.9
24973	2.6744	1.8182	0.1	5559.1
24974	2.5822	2.0909	0.1	5577.4
24975	2.6744	2.	0.1	5548.9
24976	2.5822	2.2727	0.1	5570.9
24977	2.6744	2.1818	0.1	5540.8
24978	2.5822	2.4545	0.1	5566.2
24979	2.6744	2.3636	0.1	5534.7
24980	2.5822	2.6364	0.1	5563.
24981	2.6744	2.5455	0.1	5530.2
24982	2.5822	2.8182	0.1	5561.1
24983	2.6744	2.7273	0.1	5527.4
24984	2.5822	3.	0.1	5560.5
24985	2.6744	2.9091	0.1	5526.
24986	2.5822	3.1818	0.1	5561.1
24987	2.6744	3.0909	0.1	5526.
24988	2.5822	3.3636	0.1	5563.
24989	2.6744	3.2727	0.1	5527.4
24990	2.5822	3.5455	0.1	5566.2
24991	2.6744	3.4545	0.1	5530.2
24992	2.5822	3.7273	0.1	5570.9
24993	2.6744	3.6364	0.1	5534.7
24994	2.5822	3.9091	0.1	5577.4
24995	2.6744	3.8182	0.1	5540.8
24996	2.5822	4.0909	0.1	5585.9
24997	2.6744	4.	0.1	5548.9
24998	2.5822	4.2727	0.1	5596.6
24999	2.6744	4.1818	0.1	5559.1
25000	2.5822	4.4545	0.1	5609.7
25001	2.6744	4.3636	0.1	5571.5
25002	2.5822	4.6364	0.1	5625.3
25003	2.6744	4.5455	0.1	5586.4
25004	2.5822	4.8182	0.1	5643.6
25005	2.6744	4.7273	0.1	5603.7
25006	2.5822	5.	0.1	5664.4
25007	2.6744	4.9091	0.1	5623.5
25008	2.5822	5.1818	0.1	5687.8
25009	2.6744	5.0909	0.1	5645.6
25010	2.5822	5.3636	0.1	5713.4
25011	2.6744	5.2727	0.1	5669.9
25012	2.5822	5.5455	0.1	5741.1
25013	2.6744	5.4545	0.1	5696.2
25014	2.5822	5.7273	0.1	5773.2
25015	2.6744	5.6364	0.1	5724.2
25016	2.6744	5.8182	0.1	5758.3
25017	2.5822	5.9091	0.1	5787.1
25018	2.7667	0.27273	0.1	5709.5
25019	2.8589	0.18182	0.1	5692.5
25020	2.7667	9.0909e-002	0.1	5724.3
25021	2.7667	0.45455	0.1	5679.4
25022	2.8589	0.36364	0.1	5660.9
25023	2.7667	0.63636	0.1	5652.8
25024	2.8589	0.54545	0.1	5634.3
25025	2.7667	0.81818	0.1	5627.9
25026	2.8589	0.72727	0.1	5609.
25027	2.7667	1.	0.1	5604.7
25028	2.8589	0.90909	0.1	5585.3
25029	2.7667	1.1818	0.1	5583.7
25030	2.8589	1.0909	0.1	5563.4
25031	2.7667	1.3636	0.1	5564.8
25032	2.8589	1.2727	0.1	5543.4
25033	2.7667	1.5455	0.1	5548.2
25034	2.8589	1.4545	0.1	5525.6
25035	2.7667	1.7273	0.1	5534.
25036	2.8589	1.6364	0.1	5509.9
25037	2.7667	1.9091	0.1	5522.
25038	2.8589	1.8182	0.1	5496.5
25039	2.7667	2.0909	0.1	5512.1
25040	2.8589	2.	0.1	5485.3
25041	2.7667	2.2727	0.1	5504.4
25042	2.8589	2.1818	0.1	5476.1
25043	2.7667	2.4545	0.1	5498.5
25044	2.8589	2.3636	0.1	5468.9
25045	2.7667	2.6364	0.1	5494.4
25046	2.8589	2.5455	0.1	5463.7
25047	2.7667	2.8182	0.1	5492.
25048	2.8589	2.7273	0.1	5460.3
25049	2.7667	3.	0.1	5491.2
25050	2.8589	2.9091	0.1	5458.6
25051	2.7667	3.1818	0.1	5492.
25052	2.8589	3.0909	0.1	5458.6
25053	2.7667	3.3636	0.1	5494.4
25054	2.8589	3.2727	0.1	5460.3
25055	2.7667	3.5455	0.1	5498.5
25056	2.8589	3.4545	0.1	5463.7
25057	2.7667	3.7273	0.1	5504.4
25058	2.8589	3.6364	0.1	5468.9
25059	2.7667	3.9091	0.1	5512.1
25060	2.8589	3.8182	0.1	5476.1
25061	2.7667	4.0909	0.1	5522.
25062	2.8589	4.	0.1	5485.3
25063	2.7667	4.2727	0.1	5534.
25064	2.8589	4.1818	0.1	5496.5
25065	2.7667	4.4545	0.1	5548.2
25066	2.8589	4.3636	0.1	5509.9
25067	2.7667	4.6364	0.1	5564.8
25068	2.8589	4.5455	0.1	5525.6
25069	2.7667	4.8182	0.1	5583.7
25070	2.8589	4.7273	0.1	5543.4
25071	2.7667	5.	0.1	5604.7
25072	2.8589	4.9091	0.1	5563.4
25073	2.7667	5.1818	0.1	5627.9
25074	2.8589	5.0909	0.1	5585.3
25075	2.7667	5.3636	0.1	5652.8
25076	2.8589	5.2727	0.1	5609.
25077	2.7667	5.5455	0.1	5679.4
25078	2.8589	5.4545	0.1	5634.3
25079	2.7667	5.7273	0.1	5709.5
25080	2.8589	5.6364	0.1	5660.9
25081	2.8589	5.8182	0.1	5692.5
25082	2.7667	5.9091	0.1	5724.3
25083	2.9511	0.27273	0.1	5644.1
25084	3.0433	0.18182	0.1	5625.5
25085	2.9511	9.0909e-002	0.1	5659.5
25086	2.9511	0.45455	0.1	5616.
25087	3.0433	0.36364	0.1	5596.3
25088	2.9511	0.63636	0.1	5590.7
25089	3.0433	0.54545	0.1	5571.2
25090	2.9511	0.81818	0.1	5566.6
25091	3.0433	0.72727	0.1	5547.
25092	2.9511	1.	0.1	5544.1
25093	3.0433	0.90909	0.1	5524.1
25094	2.9511	1.1818	0.1	5523.2
25095	3.0433	1.0909	0.1	5502.7
25096	2.9511	1.3636	0.1	5504.3
25097	3.0433	1.2727	0.1	5483.
25098	2.9511	1.5455	0.1	5487.3
25099	3.0433	1.4545	0.1	5465.1
25100	2.9511	1.7273	0.1	5472.5
25101	3.0433	1.6364	0.1	5449.1
25102	2.9511	1.9091	0.1	5459.7
25103	3.0433	1.8182	0.1	5435.3
25104	2.9511	2.0909	0.1	5449.1
25105	3.0433	2.	0.1	5423.4
25106	2.9511	2.2727	0.1	5440.6
25107	3.0433	2.1818	0.1	5413.7
25108	2.9511	2.4545	0.1	5434.
25109	3.0433	2.3636	0.1	5405.9
25110	2.9511	2.6364	0.1	5429.4
25111	3.0433	2.5455	0.1	5400.2
25112	2.9511	2.8182	0.1	5426.6
25113	3.0433	2.7273	0.1	5396.4
25114	2.9511	3.	0.1	5425.7
25115	3.0433	2.9091	0.1	5394.5
25116	2.9511	3.1818	0.1	5426.6
25117	3.0433	3.0909	0.1	5394.5
25118	2.9511	3.3636	0.1	5429.4
25119	3.0433	3.2727	0.1	5396.4
25120	2.9511	3.5455	0.1	5434.
25121	3.0433	3.4545	0.1	5400.2
25122	2.9511	3.7273	0.1	5440.6
25123	3.0433	3.6364	0.1	5405.9
25124	2.9511	3.9091	0.1	5449.1
25125	3.0433	3.8182	0.1	5413.7
25126	2.9511	4.0909	0.1	5459.7
25127	3.0433	4.	0.1	5423.4
25128	2.9511	4.2727	0.1	5472.5
25129	3.0433	4.1818	0.1	5435.3
25130	2.9511	4.4545	0.1	5487.3
25131	3.0433	4.3636	0.1	5449.1
25132	2.9511	4.6364	0.1	5504.3
25133	3.0433	4.5455	0.1	5465.1
25134	2.9511	4.8182	0.1	5523.2
25135	3.0433	4.7273	0.1	5483.
25136	2.9511	5.	0.1	5544.1
25137	3.0433	4.9091	0.1	5502.7
25138	2.9511	5.1818	0.1	5566.6
25139	3.0433	5.0909	0.1	5524.1
25140	2.9511	5.3636	0.1	5590.7
25141	3.0433	5.2727	0.1	5547.
25142	2.9511	5.5455	0.1	5616.
25143	3.0433	5.4545	0.1	5571.2
25144	2.9511	5.7273	0.1	5644.1
25145	3.0433	5.6364	0.1	5596.3
25146	3.0433	5.8182	0.1	5625.5
25147	2.9511	5.9091	0.1	5659.5
25148	3.1356	0.27273	0.1	5577.9
25149	3.2278	0.18182	0.1	5557.9
25150	3.1356	9.0909e-002	0.1	5593.5
25151	3.1356	0.45455	0.1	5551.6
25152	3.2278	0.36364	0.1	5531.
25153	3.1356	0.63636	0.1	5527.6
25154	3.2278	0.54545	0.1	5507.2
25155	3.1356	0.81818	0.1	5504.6
25156	3.2278	0.72727	0.1	5484.3
25157	3.1356	1.	0.1	5482.8
25158	3.2278	0.90909	0.1	5462.4
25159	3.1356	1.1818	0.1	5462.5
25160	3.2278	1.0909	0.1	5441.7
25161	3.1356	1.3636	0.1	5443.8
25162	3.2278	1.2727	0.1	5422.5
25163	3.1356	1.5455	0.1	5426.9
25164	3.2278	1.4545	0.1	5404.9
25165	3.1356	1.7273	0.1	5411.9
25166	3.2278	1.6364	0.1	5389.
25167	3.1356	1.9091	0.1	5398.9
25168	3.2278	1.8182	0.1	5375.1
25169	3.1356	2.0909	0.1	5387.9
25170	3.2278	2.	0.1	5363.
25171	3.1356	2.2727	0.1	5378.9
25172	3.2278	2.1818	0.1	5353.
25173	3.1356	2.4545	0.1	5372.
25174	3.2278	2.3636	0.1	5345.
25175	3.1356	2.6364	0.1	5367.
25176	3.2278	2.5455	0.1	5339.
25177	3.1356	2.8182	0.1	5364.1
25178	3.2278	2.7273	0.1	5335.
25179	3.1356	3.	0.1	5363.1
25180	3.2278	2.9091	0.1	5333.
25181	3.1356	3.1818	0.1	5364.1
25182	3.2278	3.0909	0.1	5333.
25183	3.1356	3.3636	0.1	5367.
25184	3.2278	3.2727	0.1	5335.
25185	3.1356	3.5455	0.1	5372.
25186	3.2278	3.4545	0.1	5339.
25187	3.1356	3.7273	0.1	5378.9
25188	3.2278	3.6364	0.1	5345.
25189	3.1356	3.9091	0.1	5387.9
25190	3.2278	3.8182	0.1	5353.
25191	3.1356	4.0909	0.1	5398.9
25192	3.2278	4.	0.1	5363.
25193	3.1356	4.2727	0.1	5411.9
25194	3.2278	4.1818	0.1	5375.1
25195	3.1356	4.4545	0.1	5426.9
25196	3.2278	4.3636	0.1	5389.
25197	3.1356	4.6364	0.1	5443.8
25198	3.2278	4.5455	0.1	5404.9
25199	3.1356	4.8182	0.1	5462.5
25200	3.2278	4.7273	0.1	5422.5
25201	3.1356	5.	0.1	5482.8
25202	3.2278	4.9091	0.1	5441.7
25203	3.1356	5.1818	0.1	5504.6
25204	3.2278	5.0909	0.1	5462.4
25205	3.1356	5.3636	0.1	5527.6
25206	3.2278	5.2727	0.1	5484.3
25207	3.1356	5.5455	0.1	5551.6
25208	3.2278	5.4545	0.1	5507.2
25209	3.1356	5.7273	0.1	5577.9
25210	3.2278	5.6364	0.1	5531.
25211	3.2278	5.8182	0.1	5557.9
25212	3.1356	5.9091	0.1	5593.5
25213	3.32	0.27273	0.1	5511.1
25214	3.4122	0.18182	0.1	5490.1
25215	3.32	9.0909e-002	0.1	5526.9
25216	3.32	0.45455	0.1	5486.7
25217	3.4122	0.36364	0.1	5465.3
25218	3.32	0.63636	0.1	5464.
25219	3.4122	0.54545	0.1	5442.9
25220	3.32	0.81818	0.1	5442.2
25221	3.4122	0.72727	0.1	5421.2
25222	3.32	1.	0.1	5421.3
25223	3.4122	0.90909	0.1	5400.4
25224	3.32	1.1818	0.1	5401.7
25225	3.4122	1.0909	0.1	5380.6
25226	3.32	1.3636	0.1	5383.6
25227	3.4122	1.2727	0.1	5362.1
25228	3.32	1.5455	0.1	5367.
25229	3.4122	1.4545	0.1	5345.
25230	3.32	1.7273	0.1	5352.2
25231	3.4122	1.6364	0.1	5329.5
25232	3.32	1.9091	0.1	5339.2
25233	3.4122	1.8182	0.1	5315.7
25234	3.32	2.0909	0.1	5328.1
25235	3.4122	2.	0.1	5303.8
25236	3.32	2.2727	0.1	5319.
25237	3.4122	2.1818	0.1	5293.8
25238	3.32	2.4545	0.1	5311.9
25239	3.4122	2.3636	0.1	5285.7
25240	3.32	2.6364	0.1	5306.9
25241	3.4122	2.5455	0.1	5279.7
25242	3.32	2.8182	0.1	5303.8
25243	3.4122	2.7273	0.1	5275.6
25244	3.32	3.	0.1	5302.8
25245	3.4122	2.9091	0.1	5273.6
25246	3.32	3.1818	0.1	5303.8
25247	3.4122	3.0909	0.1	5273.6
25248	3.32	3.3636	0.1	5306.9
25249	3.4122	3.2727	0.1	5275.6
25250	3.32	3.5455	0.1	5311.9
25251	3.4122	3.4545	0.1	5279.7
25252	3.32	3.7273	0.1	5319.
25253	3.4122	3.6364	0.1	5285.7
25254	3.32	3.9091	0.1	5328.1
25255	3.4122	3.8182	0.1	5293.8
25256	3.32	4.0909	0.1	5339.2
25257	3.4122	4.	0.1	5303.8
25258	3.32	4.2727	0.1	5352.2
25259	3.4122	4.1818	0.1	5315.7
25260	3.32	4.4545	0.1	5367.
25261	3.4122	4.3636	0.1	5329.5
25262	3.32	4.6364	0.1	5383.6
25263	3.4122	4.5455	0.1	5345.
25264	3.32	4.8182	0.1	5401.7
25265	3.4122	4.7273	0.1	5362.1
25266	3.32	5.	0.1	5421.3
25267	3.4122	4.9091	0.1	5380.6
25268	3.32	5.1818	0.1	5442.2
25269	3.4122	5.0909	0.1	5400.4
25270	3.32	5.3636	0.1	5464.
25271	3.4122	5.2727	0.1	5421.2
25272	3.32	5.5455	0.1	5486.7
25273	3.4122	5.4545	0.1	5442.9
25274	3.32	5.7273	0.1	5511.1
25275	3.4122	5.6364	0.1	5465.3
25276	3.4122	5.8182	0.1	5490.1
25277	3.32	5.9091	0.1	5526.9
25278	3.5044	0.27273	0.1	5444.3
25279	3.5967	0.18182	0.1	5422.4
25280	3.5044	9.0909e-002	0.1	5459.9
25281	3.5044	0.45455	0.1	5421.6
25282	3.5967	0.36364	0.1	5399.5
25283	3.5044	0.63636	0.1	5400.2
25284	3.5967	0.54545	0.1	5378.5
25285	3.5044	0.81818	0.1	5379.5
25286	3.5967	0.72727	0.1	5358.1
25287	3.5044	1.	0.1	5359.7
25288	3.5967	0.90909	0.1	5338.3
25289	3.5044	1.1818	0.1	5341.
25290	3.5967	1.0909	0.1	5319.5
25291	3.5044	1.3636	0.1	5323.5
25292	3.5967	1.2727	0.1	5301.8
25293	3.5044	1.5455	0.1	5307.5
25294	3.5967	1.4545	0.1	5285.4
25295	3.5044	1.7273	0.1	5293.
25296	3.5967	1.6364	0.1	5270.5
25297	3.5044	1.9091	0.1	5280.3
25298	3.5967	1.8182	0.1	5257.1
25299	3.5044	2.0909	0.1	5269.4
25300	3.5967	2.	0.1	5245.5
25301	3.5044	2.2727	0.1	5260.4
25302	3.5967	2.1818	0.1	5235.6
25303	3.5044	2.4545	0.1	5253.4
25304	3.5967	2.3636	0.1	5227.7
25305	3.5044	2.6364	0.1	5248.3
25306	3.5967	2.5455	0.1	5221.7
25307	3.5044	2.8182	0.1	5245.3
25308	3.5967	2.7273	0.1	5217.7
25309	3.5044	3.	0.1	5244.2
25310	3.5967	2.9091	0.1	5215.7
25311	3.5044	3.1818	0.1	5245.3
25312	3.5967	3.0909	0.1	5215.7
25313	3.5044	3.3636	0.1	5248.3
25314	3.5967	3.2727	0.1	5217.7
25315	3.5044	3.5455	0.1	5253.4
25316	3.5967	3.4545	0.1	5221.7
25317	3.5044	3.7273	0.1	5260.4
25318	3.5967	3.6364	0.1	5227.7
25319	3.5044	3.9091	0.1	5269.4
25320	3.5967	3.8182	0.1	5235.6
25321	3.5044	4.0909	0.1	5280.3
25322	3.5967	4.	0.1	5245.5
25323	3.5044	4.2727	0.1	5293.
25324	3.5967	4.1818	0.1	5257.1
25325	3.5044	4.4545	0.1	5307.5
25326	3.5967	4.3636	0.1	5270.5
25327	3.5044	4.6364	0.1	5323.5
25328	3.5967	4.5455	0.1	5285.4
25329	3.5044	4.8182	0.1	5341.
25330	3.5967	4.7273	0.1	5301.8
25331	3.5044	5.	0.1	5359.7
25332	3.5967	4.9091	0.1	5319.5
25333	3.5044	5.1818	0.1	5379.5
25334	3.5967	5.0909	0.1	5338.3
25335	3.5044	5.3636	0.1	5400.2
25336	3.5967	5.2727	0.1	5358.1
25337	3.5044	5.5455	0.1	5421.6
25338	3.5967	5.4545	0.1	5378.5
25339	3.5044	5.7273	0.1	5444.3
25340	3.5967	5.6364	0.1	5399.5
25341	3.5967	5.8182	0.1	5422.4
25342	3.5044	5.9091	0.1	5459.9
25343	3.6889	0.27273	0.1	5377.7
25344	3.7811	0.18182	0.1	5355.
25345	3.6889	9.0909e-002	0.1	5393.
25346	3.6889	0.45455	0.1	5356.5
25347	3.7811	0.36364	0.1	5333.8
25348	3.6889	0.63636	0.1	5336.4
25349	3.7811	0.54545	0.1	5314.2
25350	3.6889	0.81818	0.1	5316.9
25351	3.7811	0.72727	0.1	5295.
25352	3.6889	1.	0.1	5298.2
25353	3.7811	0.90909	0.1	5276.4
25354	3.6889	1.1818	0.1	5280.4
25355	3.7811	1.0909	0.1	5258.6
25356	3.6889	1.3636	0.1	5263.8
25357	3.7811	1.2727	0.1	5241.8
25358	3.6889	1.5455	0.1	5248.4
25359	3.7811	1.4545	0.1	5226.2
25360	3.6889	1.7273	0.1	5234.5
25361	3.7811	1.6364	0.1	5211.9
25362	3.6889	1.9091	0.1	5222.2
25363	3.7811	1.8182	0.1	5199.1
25364	3.6889	2.0909	0.1	5211.6
25365	3.7811	2.	0.1	5187.9
25366	3.6889	2.2727	0.1	5202.9
25367	3.7811	2.1818	0.1	5178.4
25368	3.6889	2.4545	0.1	5196.
25369	3.7811	2.3636	0.1	5170.7
25370	3.6889	2.6364	0.1	5191.
25371	3.7811	2.5455	0.1	5164.8
25372	3.6889	2.8182	0.1	5188.
25373	3.7811	2.7273	0.1	5160.9
25374	3.6889	3.	0.1	5187.
25375	3.7811	2.9091	0.1	5159.
25376	3.6889	3.1818	0.1	5188.
25377	3.7811	3.0909	0.1	5159.
25378	3.6889	3.3636	0.1	5191.
25379	3.7811	3.2727	0.1	5160.9
25380	3.6889	3.5455	0.1	5196.
25381	3.7811	3.4545	0.1	5164.8
25382	3.6889	3.7273	0.1	5202.9
25383	3.7811	3.6364	0.1	5170.7
25384	3.6889	3.9091	0.1	5211.6
25385	3.7811	3.8182	0.1	5178.4
25386	3.6889	4.0909	0.1	5222.2
25387	3.7811	4.	0.1	5187.9
25388	3.6889	4.2727	0.1	5234.5
25389	3.7811	4.1818	0.1	5199.1
25390	3.6889	4.4545	0.1	5248.4
25391	3.7811	4.3636	0.1	5211.9
25392	3.6889	4.6364	0.1	5263.8
25393	3.7811	4.5455	0.1	5226.2
25394	3.6889	4.8182	0.1	5280.4
25395	3.7811	4.7273	0.1	5241.8
25396	3.6889	5.	0.1	5298.2
25397	3.7811	4.9091	0.1	5258.6
25398	3.6889	5.1818	0.1	5316.9
25399	3.7811	5.0909	0.1	5276.4
25400	3.6889	5.3636	0.1	5336.4
25401	3.7811	5.2727	0.1	5295.
25402	3.6889	5.5455	0.1	5356.5
25403	3.7811	5.4545	0.1	5314.2
25404	3.6889	5.7273	0.1	5377.7
25405	3.7811	5.6364	0.1	5333.8
25406	3.7811	5.8182	0.1	5355.
25407	3.6889	5.9091	0.1	5393.
25408	3.8733	0.27273	0.1	5311.3
25409	3.9656	0.18182	0.1	5288.1
25410	3.8733	9.0909e-002	0.1	5326.2
25411	3.8733	0.45455	0.1	5291.6
25412	3.9656	0.36364	0.1	5268.5
25413	3.8733	0.63636	0.1	5272.9
25414	3.9656	0.54545	0.1	5250.2
25415	3.8733	0.81818	0.1	5254.5
25416	3.9656	0.72727	0.1	5232.2
25417	3.8733	1.	0.1	5236.9
25418	3.9656	0.90909	0.1	5214.7
25419	3.8733	1.1818	0.1	5220.1
25420	3.9656	1.0909	0.1	5198.
25421	3.8733	1.3636	0.1	5204.3
25422	3.9656	1.2727	0.1	5182.1
25423	3.8733	1.5455	0.1	5189.7
25424	3.9656	1.4545	0.1	5167.3
25425	3.8733	1.7273	0.1	5176.5
25426	3.9656	1.6364	0.1	5153.7
25427	3.8733	1.9091	0.1	5164.7
25428	3.9656	1.8182	0.1	5141.5
25429	3.8733	2.0909	0.1	5154.6
25430	3.9656	2.	0.1	5130.8
25431	3.8733	2.2727	0.1	5146.1
25432	3.9656	2.1818	0.1	5121.8
25433	3.8733	2.4545	0.1	5139.5
25434	3.9656	2.3636	0.1	5114.4
25435	3.8733	2.6364	0.1	5134.7
25436	3.9656	2.5455	0.1	5108.8
25437	3.8733	2.8182	0.1	5131.8
25438	3.9656	2.7273	0.1	5105.
25439	3.8733	3.	0.1	5130.8
25440	3.9656	2.9091	0.1	5103.1
25441	3.8733	3.1818	0.1	5131.8
25442	3.9656	3.0909	0.1	5103.1
25443	3.8733	3.3636	0.1	5134.7
25444	3.9656	3.2727	0.1	5105.
25445	3.8733	3.5455	0.1	5139.5
25446	3.9656	3.4545	0.1	5108.8
25447	3.8733	3.7273	0.1	5146.1
25448	3.9656	3.6364	0.1	5114.4
25449	3.8733	3.9091	0.1	5154.6
25450	3.9656	3.8182	0.1	5121.8
25451	3.8733	4.0909	0.1	5164.7
25452	3.9656	4.	0.1	5130.8
25453	3.8733	4.2727	0.1	5176.5
25454	3.9656	4.1818	0.1	5141.5
25455	3.8733	4.4545	0.1	5189.7
25456	3.9656	4.3636	0.1	5153.7
25457	3.8733	4.6364	0.1	5204.3
25458	3.9656	4.5455	0.1	5167.3
25459	3.8733	4.8182	0.1	5220.1
25460	3.9656	4.7273	0.1	5182.1
25461	3.8733	5.	0.1	5236.9
25462	3.9656	4.9091	0.1	5198.
25463	3.8733	5.1818	0.1	5254.5
25464	3.9656	5.0909	0.1	5214.7
25465	3.8733	5.3636	0.1	5272.9
25466	3.9656	5.2727	0.1	5232.2
25467	3.8733	5.5455	0.1	5291.6
25468	3.9656	5.4545	0.1	5250.2
25469	3.8733	5.7273	0.1	5311.3
25470	3.9656	5.6364	0.1	5268.5
25471	3.9656	5.8182	0.1	5288.1
25472	3.8733	5.9091	0.1	5326.2
25473	4.0578	0.27273	0.1	5245.4
25474	4.15	0.18182	0.1	5221.7
25475	4.0578	9.0909e-002	0.1	5259.8
25476	4.0578	0.45455	0.1	5227.1
25477	4.15	0.36364	0.1	5203.6
25478	4.0578	0.63636	0.1	5209.6
25479	4.15	0.54545	0.1	5186.5
25480	4.0578	0.81818	0.1	5192.4
25481	4.15	0.72727	0.1	5169.7
25482	4.0578	1.	0.1	5175.8
25483	4.15	0.90909	0.1	5153.3
25484	4.0578	1.1818	0.1	5160.
25485	4.15	1.0909	0.1	5137.6
25486	4.0578	1.3636	0.1	5145.1
25487	4.15	1.2727	0.1	5122.7
25488	4.0578	1.5455	0.1	5131.4
25489	4.15	1.4545	0.1	5108.7
25490	4.0578	1.7273	0.1	5118.8
25491	4.15	1.6364	0.1	5095.9
25492	4.0578	1.9091	0.1	5107.7
25493	4.15	1.8182	0.1	5084.4
25494	4.0578	2.0909	0.1	5098.
25495	4.15	2.	0.1	5074.3
25496	4.0578	2.2727	0.1	5090.
25497	4.15	2.1818	0.1	5065.7
25498	4.0578	2.4545	0.1	5083.6
25499	4.15	2.3636	0.1	5058.7
25500	4.0578	2.6364	0.1	5079.1
25501	4.15	2.5455	0.1	5053.3
25502	4.0578	2.8182	0.1	5076.3
25503	4.15	2.7273	0.1	5049.7
25504	4.0578	3.	0.1	5075.4
25505	4.15	2.9091	0.1	5047.9
25506	4.0578	3.1818	0.1	5076.3
25507	4.15	3.0909	0.1	5047.9
25508	4.0578	3.3636	0.1	5079.1
25509	4.15	3.2727	0.1	5049.7
25510	4.0578	3.5455	0.1	5083.6
25511	4.15	3.4545	0.1	5053.3
25512	4.0578	3.7273	0.1	5090.
25513	4.15	3.6364	0.1	5058.7
25514	4.0578	3.9091	0.1	5098.
25515	4.15	3.8182	0.1	5065.7
25516	4.0578	4.0909	0.1	5107.7
25517	4.15	4.	0.1	5074.3
25518	4.0578	4.2727	0.1	5118.8
25519	4.15	4.1818	0.1	5084.4
25520	4.0578	4.4545	0.1	5131.4
25521	4.15	4.3636	0.1	5095.9
25522	4.0578	4.6364	0.1	5145.1
25523	4.15	4.5455	0.1	5108.7
25524	4.0578	4.8182	0.1	5160.
25525	4.15	4.7273	0.1	5122.7
25526	4.0578	5.	0.1	5175.8
25527	4.15	4.9091	0.1	5137.6
25528	4.0578	5.1818	0.1	5192.4
25529	4.15	5.0909	0.1	5153.3
25530	4.0578	5.3636	0.1	5209.6
25531	4.15	5.2727	0.1	5169.7
25532	4.0578	5.5455	0.1	5227.1
25533	4.15	5.4545	0.1	5186.5
25534	4.0578	5.7273	0.1	5245.4
25535	4.15	5.6364	0.1	5203.6
25536	4.15	5.8182	0.1	5221.7
25537	4.0578	5.9091	0.1	5259.8
25538	4.2422	0.27273	0.1	5180.
25539	4.3344	0.18182	0.1	5156.
25540	4.2422	9.0909e-002	0.1	5193.8
25541	4.2422	0.45455	0.1	5163.
25542	4.3344	0.36364	0.1	5139.2
25543	4.2422	0.63636	0.1	5146.7
25544	4.3344	0.54545	0.1	5123.3
25545	4.2422	0.81818	0.1	5130.6
25546	4.3344	0.72727	0.1	5107.5
25547	4.2422	1.	0.1	5115.1
25548	4.3344	0.90909	0.1	5092.2
25549	4.2422	1.1818	0.1	5100.3
25550	4.3344	1.0909	0.1	5077.5
25551	4.2422	1.3636	0.1	5086.3
25552	4.3344	1.2727	0.1	5063.6
25553	4.2422	1.5455	0.1	5073.4
25554	4.3344	1.4545	0.1	5050.5
25555	4.2422	1.7273	0.1	5061.5
25556	4.3344	1.6364	0.1	5038.5
25557	4.2422	1.9091	0.1	5051.
25558	4.3344	1.8182	0.1	5027.6
25559	4.2422	2.0909	0.1	5041.9
25560	4.3344	2.	0.1	5018.1
25561	4.2422	2.2727	0.1	5034.3
25562	4.3344	2.1818	0.1	5010.
25563	4.2422	2.4545	0.1	5028.3
25564	4.3344	2.3636	0.1	5003.4
25565	4.2422	2.6364	0.1	5024.
25566	4.3344	2.5455	0.1	4998.3
25567	4.2422	2.8182	0.1	5021.4
25568	4.3344	2.7273	0.1	4995.
25569	4.2422	3.	0.1	5020.5
25570	4.3344	2.9091	0.1	4993.3
25571	4.2422	3.1818	0.1	5021.4
25572	4.3344	3.0909	0.1	4993.3
25573	4.2422	3.3636	0.1	5024.
25574	4.3344	3.2727	0.1	4995.
25575	4.2422	3.5455	0.1	5028.3
25576	4.3344	3.4545	0.1	4998.3
25577	4.2422	3.7273	0.1	5034.3
25578	4.3344	3.6364	0.1	5003.4
25579	4.2422	3.9091	0.1	5041.9
25580	4.3344	3.8182	0.1	5010.
25581	4.2422	4.0909	0.1	5051.
25582	4.3344	4.	0.1	5018.1
25583	4.2422	4.2727	0.1	5061.5
25584	4.3344	4.1818	0.1	5027.6
25585	4.2422	4.4545	0.1	5073.4
25586	4.3344	4.3636	0.1	5038.5
25587	4.2422	4.6364	0.1	5086.3
25588	4.3344	4.5455	0.1	5050.5
25589	4.2422	4.8182	0.1	5100.3
25590	4.3344	4.7273	0.1	5063.6
25591	4.2422	5.	0.1	5115.1
25592	4.3344	4.9091	0.1	5077.5
25593	4.2422	5.1818	0.1	5130.6
25594	4.3344	5.0909	0.1	5092.2
25595	4.2422	5.3636	0.1	5146.7
25596	4.3344	5.2727	0.1	5107.5
25597	4.2422	5.5455	0.1	5163.
25598	4.3344	5.4545	0.1	5123.3
25599	4.2422	5.7273	0.1	5180.
25600	4.3344	5.6364	0.1	5139.2
25601	4.3344	5.8182	0.1	5156.
25602	4.2422	5.9091	0.1	5193.8
25603	4.4267	0.27273	0.1	5115.2
25604	4.5189	0.18182	0.1	5090.8
25605	4.4267	9.0909e-002	0.1	5128.3
25606	4.4267	0.45455	0.1	5099.5
25607	4.5189	0.36364	0.1	5075.3
25608	4.4267	0.63636	0.1	5084.2
25609	4.5189	0.54545	0.1	5060.5
25610	4.4267	0.81818	0.1	5069.2
25611	4.5189	0.72727	0.1	5045.8
25612	4.4267	1.	0.1	5054.7
25613	4.5189	0.90909	0.1	5031.5
25614	4.4267	1.1818	0.1	5040.9
25615	4.5189	1.0909	0.1	5017.8
25616	4.4267	1.3636	0.1	5027.8
25617	4.5189	1.2727	0.1	5004.8
25618	4.4267	1.5455	0.1	5015.7
25619	4.5189	1.4545	0.1	4992.6
25620	4.4267	1.7273	0.1	5004.6
25621	4.5189	1.6364	0.1	4981.3
25622	4.4267	1.9091	0.1	4994.7
25623	4.5189	1.8182	0.1	4971.2
25624	4.4267	2.0909	0.1	4986.2
25625	4.5189	2.	0.1	4962.2
25626	4.4267	2.2727	0.1	4979.
25627	4.5189	2.1818	0.1	4954.6
25628	4.4267	2.4545	0.1	4973.4
25629	4.5189	2.3636	0.1	4948.4
25630	4.4267	2.6364	0.1	4969.3
25631	4.5189	2.5455	0.1	4943.7
25632	4.4267	2.8182	0.1	4966.8
25633	4.5189	2.7273	0.1	4940.5
25634	4.4267	3.	0.1	4966.
25635	4.5189	2.9091	0.1	4938.9
25636	4.4267	3.1818	0.1	4966.8
25637	4.5189	3.0909	0.1	4938.9
25638	4.4267	3.3636	0.1	4969.3
25639	4.5189	3.2727	0.1	4940.5
25640	4.4267	3.5455	0.1	4973.4
25641	4.5189	3.4545	0.1	4943.7
25642	4.4267	3.7273	0.1	4979.
25643	4.5189	3.6364	0.1	4948.4
25644	4.4267	3.9091	0.1	4986.2
25645	4.5189	3.8182	0.1	4954.6
25646	4.4267	4.0909	0.1	4994.7
25647	4.5189	4.	0.1	4962.2
25648	4.4267	4.2727	0.1	5004.6
25649	4.5189	4.1818	0.1	4971.2
25650	4.4267	4.4545	0.1	5015.7
25651	4.5189	4.3636	0.1	4981.3
25652	4.4267	4.6364	0.1	5027.8
25653	4.5189	4.5455	0.1	4992.6
25654	4.4267	4.8182	0.1	5040.9
25655	4.5189	4.7273	0.1	5004.8
25656	4.4267	5.	0.1	5054.7
25657	4.5189	4.9091	0.1	5017.8
25658	4.4267	5.1818	0.1	5069.2
25659	4.5189	5.0909	0.1	5031.5
25660	4.4267	5.3636	0.1	5084.2
25661	4.5189	5.2727	0.1	5045.8
25662	4.4267	5.5455	0.1	5099.5
25663	4.5189	5.4545	0.1	5060.5
25664	4.4267	5.7273	0.1	5115.2
25665	4.5189	5.6364	0.1	5075.3
25666	4.5189	5.8182	0.1	5090.8
25667	4.4267	5.9091	0.1	5128.3
25668	4.6111	0.27273	0.1	5051.
25669	4.7033	0.18182	0.1	5026.4
25670	4.6111	9.0909e-002	0.1	5063.5
25671	4.6111	0.45455	0.1	5036.4
25672	4.7033	0.36364	0.1	5012.
25673	4.6111	0.63636	0.1	5022.1
25674	4.7033	0.54545	0.1	4998.2
25675	4.6111	0.81818	0.1	5008.2
25676	4.7033	0.72727	0.1	4984.5
25677	4.6111	1.	0.1	4994.7
25678	4.7033	0.90909	0.1	4971.2
25679	4.6111	1.1818	0.1	4981.8
25680	4.7033	1.0909	0.1	4958.5
25681	4.6111	1.3636	0.1	4969.6
25682	4.7033	1.2727	0.1	4946.3
25683	4.6111	1.5455	0.1	4958.3
25684	4.7033	1.4545	0.1	4934.9
25685	4.6111	1.7273	0.1	4947.9
25686	4.7033	1.6364	0.1	4924.4
25687	4.6111	1.9091	0.1	4938.7
25688	4.7033	1.8182	0.1	4915.
25689	4.6111	2.0909	0.1	4930.7
25690	4.7033	2.	0.1	4906.6
25691	4.6111	2.2727	0.1	4924.
25692	4.7033	2.1818	0.1	4899.5
25693	4.6111	2.4545	0.1	4918.7
25694	4.7033	2.3636	0.1	4893.7
25695	4.6111	2.6364	0.1	4914.9
25696	4.7033	2.5455	0.1	4889.3
25697	4.6111	2.8182	0.1	4912.6
25698	4.7033	2.7273	0.1	4886.3
25699	4.6111	3.	0.1	4911.8
25700	4.7033	2.9091	0.1	4884.8
25701	4.6111	3.1818	0.1	4912.6
25702	4.7033	3.0909	0.1	4884.8
25703	4.6111	3.3636	0.1	4914.9
25704	4.7033	3.2727	0.1	4886.3
25705	4.6111	3.5455	0.1	4918.7
25706	4.7033	3.4545	0.1	4889.3
25707	4.6111	3.7273	0.1	4924.
25708	4.7033	3.6364	0.1	4893.7
25709	4.6111	3.9091	0.1	4930.7
25710	4.7033	3.8182	0.1	4899.5
25711	4.6111	4.0909	0.1	4938.7
25712	4.7033	4.	0.1	4906.6
25713	4.6111	4.2727	0.1	4947.9
25714	4.7033	4.1818	0.1	4915.
25715	4.6111	4.4545	0.1	4958.3
25716	4.7033	4.3636	0.1	4924.4
25717	4.6111	4.6364	0.1	4969.6
25718	4.7033	4.5455	0.1	4934.9
25719	4.6111	4.8182	0.1	4981.8
25720	4.7033	4.7273	0.1	4946.3
25721	4.6111	5.	0.1	4994.7
25722	4.7033	4.9091	0.1	4958.5
25723	4.6111	5.1818	0.1	5008.2
25724	4.7033	5.0909	0.1	4971.2
25725	4.6111	5.3636	0.1	5022.1
25726	4.7033	5.2727	0.1	4984.5
25727	4.6111	5.5455	0.1	5036.4
25728	4.7033	5.4545	0.1	4998.2
25729	4.6111	5.7273	0.1	5051.
25730	4.7033	5.6364	0.1	5012.
25731	4.7033	5.8182	0.1	5026.4
25732	4.6111	5.9091	0.1	5063.5
25733	4.7956	0.27273	0.1	4987.4
25734	4.8878	0.18182	0.1	4962.6
25735	4.7956	9.0909e-002	0.1	4999.2
25736	4.7956	0.45455	0.1	4973.8
25737	4.8878	0.36364	0.1	4949.2
25738	4.7956	0.63636	0.1	4960.6
25739	4.8878	0.54545	0.1	4936.4
25740	4.7956	0.81818	0.1	4947.6
25741	4.8878	0.72727	0.1	4923.7
25742	4.7956	1.	0.1	4935.
25743	4.8878	0.90909	0.1	4911.3
25744	4.7956	1.1818	0.1	4923.
25745	4.8878	1.0909	0.1	4899.4
25746	4.7956	1.3636	0.1	4911.7
25747	4.8878	1.2727	0.1	4888.1
25748	4.7956	1.5455	0.1	4901.1
25749	4.8878	1.4545	0.1	4877.5
25750	4.7956	1.7273	0.1	4891.5
25751	4.8878	1.6364	0.1	4867.8
25752	4.7956	1.9091	0.1	4882.9
25753	4.8878	1.8182	0.1	4859.
25754	4.7956	2.0909	0.1	4875.4
25755	4.8878	2.	0.1	4851.2
25756	4.7956	2.2727	0.1	4869.2
25757	4.8878	2.1818	0.1	4844.6
25758	4.7956	2.4545	0.1	4864.3
25759	4.8878	2.3636	0.1	4839.2
25760	4.7956	2.6364	0.1	4860.7
25761	4.8878	2.5455	0.1	4835.1
25762	4.7956	2.8182	0.1	4858.5
25763	4.8878	2.7273	0.1	4832.3
25764	4.7956	3.	0.1	4857.8
25765	4.8878	2.9091	0.1	4830.9
25766	4.7956	3.1818	0.1	4858.5
25767	4.8878	3.0909	0.1	4830.9
25768	4.7956	3.3636	0.1	4860.7
25769	4.8878	3.2727	0.1	4832.3
25770	4.7956	3.5455	0.1	4864.3
25771	4.8878	3.4545	0.1	4835.1
25772	4.7956	3.7273	0.1	4869.2
25773	4.8878	3.6364	0.1	4839.2
25774	4.7956	3.9091	0.1	4875.4
25775	4.8878	3.8182	0.1	4844.6
25776	4.7956	4.0909	0.1	4882.9
25777	4.8878	4.	0.1	4851.2
25778	4.7956	4.2727	0.1	4891.5
25779	4.8878	4.1818	0.1	4859.
25780	4.7956	4.4545	0.1	4901.1
25781	4.8878	4.3636	0.1	4867.8
25782	4.7956	4.6364	0.1	4911.7
25783	4.8878	4.5455	0.1	4877.5
25784	4.7956	4.8182	0.1	4923.
25785	4.8878	4.7273	0.1	4888.1
25786	4.7956	5.	0.1	4935.
25787	4.8878	4.9091	0.1	4899.4
25788	4.7956	5.1818	0.1	4947.6
25789	4.8878	5.0909	0.1	4911.3
25790	4.7956	5.3636	0.1	4960.6
25791	4.8878	5.2727	0.1	4923.7
25792	4.7956	5.5455	0.1	4973.8
25793	4.8878	5.4545	0.1	4936.4
25794	4.7956	5.7273	0.1	4987.4
25795	4.8878	5.6364	0.1	4949.2
25796	4.8878	5.8182	0.1	4962.6
25797	4.7956	5.9091	0.1	4999.2
25798	4.98	0.27273	0.1	4924.4
25799	5.0722	0.18182	0.1	4899.4
25800	4.98	9.0909e-002	0.1	4935.5
25801	4.98	0.45455	0.1	4911.8
25802	5.0722	0.36364	0.1	4887.1
25803	4.98	0.63636	0.1	4899.5
25804	5.0722	0.54545	0.1	4875.1
25805	4.98	0.81818	0.1	4887.4
25806	5.0722	0.72727	0.1	4863.3
25807	4.98	1.	0.1	4875.8
25808	5.0722	0.90909	0.1	4851.8
25809	4.98	1.1818	0.1	4864.6
25810	5.0722	1.0909	0.1	4840.8
25811	4.98	1.3636	0.1	4854.
25812	5.0722	1.2727	0.1	4830.3
25813	4.98	1.5455	0.1	4844.2
25814	5.0722	1.4545	0.1	4820.4
25815	4.98	1.7273	0.1	4835.3
25816	5.0722	1.6364	0.1	4811.4
25817	4.98	1.9091	0.1	4827.3
25818	5.0722	1.8182	0.1	4803.2
25819	4.98	2.0909	0.1	4820.3
25820	5.0722	2.	0.1	4796.
25821	4.98	2.2727	0.1	4814.5
25822	5.0722	2.1818	0.1	4789.8
25823	4.98	2.4545	0.1	4810.
25824	5.0722	2.3636	0.1	4784.8
25825	4.98	2.6364	0.1	4806.6
25826	5.0722	2.5455	0.1	4781.
25827	4.98	2.8182	0.1	4804.6
25828	5.0722	2.7273	0.1	4778.4
25829	4.98	3.	0.1	4804.
25830	5.0722	2.9091	0.1	4777.1
25831	4.98	3.1818	0.1	4804.6
25832	5.0722	3.0909	0.1	4777.1
25833	4.98	3.3636	0.1	4806.6
25834	5.0722	3.2727	0.1	4778.4
25835	4.98	3.5455	0.1	4810.
25836	5.0722	3.4545	0.1	4781.
25837	4.98	3.7273	0.1	4814.5
25838	5.0722	3.6364	0.1	4784.8
25839	4.98	3.9091	0.1	4820.3
25840	5.0722	3.8182	0.1	4789.8
25841	4.98	4.0909	0.1	4827.3
25842	5.0722	4.	0.1	4796.
25843	4.98	4.2727	0.1	4835.3
25844	5.0722	4.1818	0.1	4803.2
25845	4.98	4.4545	0.1	4844.2
25846	5.0722	4.3636	0.1	4811.4
25847	4.98	4.6364	0.1	4854.
25848	5.0722	4.5455	0.1	4820.4
25849	4.98	4.8182	0.1	4864.6
25850	5.0722	4.7273	0.1	4830.3
25851	4.98	5.	0.1	4875.8
25852	5.0722	4.9091	0.1	4840.8
25853	4.98	5.1818	0.1	4887.4
25854	5.0722	5.0909	0.1	4851.8
25855	4.98	5.3636	0.1	4899.5
25856	5.0722	5.2727	0.1	4863.3
25857	4.98	5.5455	0.1	4911.8
25858	5.0722	5.4545	0.1	4875.1
25859	4.98	5.7273	0.1	4924.4
25860	5.0722	5.6364	0.1	4887.1
25861	5.0722	5.8182	0.1	4899.4
25862	4.98	5.9091	0.1	4935.5
25863	5.1644	0.27273	0.1	4862.1
25864	5.2567	0.18182	0.1	4836.9
25865	5.1644	9.0909e-002	0.1	4872.4
25866	5.1644	0.45455	0.1	4850.4
25867	5.2567	0.36364	0.1	4825.4
25868	5.1644	0.63636	0.1	4838.9
25869	5.2567	0.54545	0.1	4814.3
25870	5.1644	0.81818	0.1	4827.7
25871	5.2567	0.72727	0.1	4803.4
25872	5.1644	1.	0.1	4816.9
25873	5.2567	0.90909	0.1	4792.7
25874	5.1644	1.1818	0.1	4806.5
25875	5.2567	1.0909	0.1	4782.4
25876	5.1644	1.3636	0.1	4796.7
25877	5.2567	1.2727	0.1	4772.7
25878	5.1644	1.5455	0.1	4787.6
25879	5.2567	1.4545	0.1	4763.6
25880	5.1644	1.7273	0.1	4779.3
25881	5.2567	1.6364	0.1	4755.2
25882	5.1644	1.9091	0.1	4771.9
25883	5.2567	1.8182	0.1	4747.6
25884	5.1644	2.0909	0.1	4765.4
25885	5.2567	2.	0.1	4740.9
25886	5.1644	2.2727	0.1	4760.
25887	5.2567	2.1818	0.1	4735.2
25888	5.1644	2.4545	0.1	4755.8
25889	5.2567	2.3636	0.1	4730.5
25890	5.1644	2.6364	0.1	4752.7
25891	5.2567	2.5455	0.1	4727.
25892	5.1644	2.8182	0.1	4750.8
25893	5.2567	2.7273	0.1	4724.6
25894	5.1644	3.	0.1	4750.2
25895	5.2567	2.9091	0.1	4723.4
25896	5.1644	3.1818	0.1	4750.8
25897	5.2567	3.0909	0.1	4723.4
25898	5.1644	3.3636	0.1	4752.7
25899	5.2567	3.2727	0.1	4724.6
25900	5.1644	3.5455	0.1	4755.8
25901	5.2567	3.4545	0.1	4727.
25902	5.1644	3.7273	0.1	4760.
25903	5.2567	3.6364	0.1	4730.5
25904	5.1644	3.9091	0.1	4765.4
25905	5.2567	3.8182	0.1	4735.2
25906	5.1644	4.0909	0.1	4771.9
25907	5.2567	4.	0.1	4740.9
25908	5.1644	4.2727	0.1	4779.3
25909	5.2567	4.1818	0.1	4747.6
25910	5.1644	4.4545	0.1	4787.6
25911	5.2567	4.3636	0.1	4755.2
25912	5.1644	4.6364	0.1	4796.7
25913	5.2567	4.5455	0.1	4763.6
25914	5.1644	4.8182	0.1	4806.5
25915	5.2567	4.7273	0.1	4772.7
25916	5.1644	5.	0.1	4816.9
25917	5.2567	4.9091	0.1	4782.4
25918	5.1644	5.1818	0.1	4827.7
25919	5.2567	5.0909	0.1	4792.7
25920	5.1644	5.3636	0.1	4838.9
25921	5.2567	5.2727	0.1	4803.4
25922	5.1644	5.5455	0.1	4850.4
25923	5.2567	5.4545	0.1	4814.3
25924	5.1644	5.7273	0.1	4862.1
25925	5.2567	5.6364	0.1	4825.4
25926	5.2567	5.8182	0.1	4836.9
25927	5.1644	5.9091	0.1	4872.4
25928	5.3489	0.27273	0.1	4800.3
25929	5.4411	0.18182	0.1	4775.
25930	5.3489	9.0909e-002	0.1	4809.9
25931	5.3489	0.45455	0.1	4789.4
25932	5.4411	0.36364	0.1	4764.3
25933	5.3489	0.63636	0.1	4778.8
25934	5.4411	0.54545	0.1	4754.
25935	5.3489	0.81818	0.1	4768.4
25936	5.4411	0.72727	0.1	4743.8
25937	5.3489	1.	0.1	4758.3
25938	5.4411	0.90909	0.1	4734.
25939	5.3489	1.1818	0.1	4748.7
25940	5.4411	1.0909	0.1	4724.5
25941	5.3489	1.3636	0.1	4739.6
25942	5.4411	1.2727	0.1	4715.4
25943	5.3489	1.5455	0.1	4731.2
25944	5.4411	1.4545	0.1	4707.
25945	5.3489	1.7273	0.1	4723.5
25946	5.4411	1.6364	0.1	4699.2
25947	5.3489	1.9091	0.1	4716.6
25948	5.4411	1.8182	0.1	4692.1
25949	5.3489	2.0909	0.1	4710.6
25950	5.4411	2.	0.1	4685.9
25951	5.3489	2.2727	0.1	4705.7
25952	5.4411	2.1818	0.1	4680.7
25953	5.3489	2.4545	0.1	4701.7
25954	5.4411	2.3636	0.1	4676.3
25955	5.3489	2.6364	0.1	4698.9
25956	5.4411	2.5455	0.1	4673.1
25957	5.3489	2.8182	0.1	4697.1
25958	5.4411	2.7273	0.1	4670.9
25959	5.3489	3.	0.1	4696.6
25960	5.4411	2.9091	0.1	4669.8
25961	5.3489	3.1818	0.1	4697.1
25962	5.4411	3.0909	0.1	4669.8
25963	5.3489	3.3636	0.1	4698.9
25964	5.4411	3.2727	0.1	4670.9
25965	5.3489	3.5455	0.1	4701.7
25966	5.4411	3.4545	0.1	4673.1
25967	5.3489	3.7273	0.1	4705.7
25968	5.4411	3.6364	0.1	4676.3
25969	5.3489	3.9091	0.1	4710.6
25970	5.4411	3.8182	0.1	4680.7
25971	5.3489	4.0909	0.1	4716.6
25972	5.4411	4.	0.1	4685.9
25973	5.3489	4.2727	0.1	4723.5
25974	5.4411	4.1818	0.1	4692.1
25975	5.3489	4.4545	0.1	4731.2
25976	5.4411	4.3636	0.1	4699.2
25977	5.3489	4.6364	0.1	4739.6
25978	5.4411	4.5455	0.1	4707.
25979	5.3489	4.8182	0.1	4748.7
25980	5.4411	4.7273	0.1	4715.4
25981	5.3489	5.	0.1	4758.3
25982	5.4411	4.9091	0.1	4724.5
25983	5.3489	5.1818	0.1	4768.4
25984	5.4411	5.0909	0.1	4734.
25985	5.3489	5.3636	0.1	4778.8
25986	5.4411	5.2727	0.1	4743.8
25987	5.3489	5.5455	0.1	4789.4
25988	5.4411	5.4545	0.1	4754.
25989	5.3489	5.7273	0.1	4800.3
25990	5.4411	5.6364	0.1	4764.3
25991	5.4411	5.8182	0.1	4775.
25992	5.3489	5.9091	0.1	4809.9
25993	5.5333	0.27273	0.1	4739.1
25994	5.6256	0.18182	0.1	4713.7
25995	5.5333	9.0909e-002	0.1	4748.
25996	5.5333	0.45455	0.1	4729.
25997	5.6256	0.36364	0.1	4703.8
25998	5.5333	0.63636	0.1	4719.1
25999	5.6256	0.54545	0.1	4694.2
26000	5.5333	0.81818	0.1	4709.5
26001	5.6256	0.72727	0.1	4684.8
26002	5.5333	1.	0.1	4700.1
26003	5.6256	0.90909	0.1	4675.6
26004	5.5333	1.1818	0.1	4691.2
26005	5.6256	1.0909	0.1	4666.8
26006	5.5333	1.3636	0.1	4682.8
26007	5.6256	1.2727	0.1	4658.4
26008	5.5333	1.5455	0.1	4675.
26009	5.6256	1.4545	0.1	4650.6
26010	5.5333	1.7273	0.1	4667.8
26011	5.6256	1.6364	0.1	4643.4
26012	5.5333	1.9091	0.1	4661.5
26013	5.6256	1.8182	0.1	4636.9
26014	5.5333	2.0909	0.1	4656.
26015	5.6256	2.	0.1	4631.1
26016	5.5333	2.2727	0.1	4651.4
26017	5.6256	2.1818	0.1	4626.2
26018	5.5333	2.4545	0.1	4647.7
26019	5.6256	2.3636	0.1	4622.3
26020	5.5333	2.6364	0.1	4645.1
26021	5.6256	2.5455	0.1	4619.2
26022	5.5333	2.8182	0.1	4643.5
26023	5.6256	2.7273	0.1	4617.2
26024	5.5333	3.	0.1	4642.9
26025	5.6256	2.9091	0.1	4616.2
26026	5.5333	3.1818	0.1	4643.5
26027	5.6256	3.0909	0.1	4616.2
26028	5.5333	3.3636	0.1	4645.1
26029	5.6256	3.2727	0.1	4617.2
26030	5.5333	3.5455	0.1	4647.7
26031	5.6256	3.4545	0.1	4619.2
26032	5.5333	3.7273	0.1	4651.4
26033	5.6256	3.6364	0.1	4622.3
26034	5.5333	3.9091	0.1	4656.
26035	5.6256	3.8182	0.1	4626.2
26036	5.5333	4.0909	0.1	4661.5
26037	5.6256	4.	0.1	4631.1
26038	5.5333	4.2727	0.1	4667.8
26039	5.6256	4.1818	0.1	4636.9
26040	5.5333	4.4545	0.1	4675.
26041	5.6256	4.3636	0.1	4643.4
26042	5.5333	4.6364	0.1	4682.8
26043	5.6256	4.5455	0.1	4650.6
26044	5.5333	4.8182	0.1	4691.2
26045	5.6256	4.7273	0.1	4658.4
26046	5.5333	5.	0.1	4700.1
26047	5.6256	4.9091	0.1	4666.8
26048	5.5333	5.1818	0.1	4709.5
26049	5.6256	5.0909	0.1	4675.6
26050	5.5333	5.3636	0.1	4719.1
26051	5.6256	5.2727	0.1	4684.8
26052	5.5333	5.5455	0.1	4729.
26053	5.6256	5.4545	0.1	4694.2
26054	5.5333	5.7273	0.1	4739.1
26055	5.6256	5.6364	0.1	4703.8
26056	5.6256	5.8182	0.1	4713.7
26057	5.5333	5.9091	0.1	4748.
26058	5.7178	0.27273	0.1	4678.4
26059	5.81	0.18182	0.1	4653.
26060	5.7178	9.0909e-002	0.1	4686.7
26061	5.7178	0.45455	0.1	4669.
26062	5.81	0.36364	0.1	4643.7
26063	5.7178	0.63636	0.1	4659.9
26064	5.81	0.54545	0.1	4634.8
26065	5.7178	0.81818	0.1	4650.9
26066	5.81	0.72727	0.1	4626.1
26067	5.7178	1.	0.1	4642.3
26068	5.81	0.90909	0.1	4617.6
26069	5.7178	1.1818	0.1	4634.
26070	5.81	1.0909	0.1	4609.4
26071	5.7178	1.3636	0.1	4626.2
26072	5.81	1.2727	0.1	4601.7
26073	5.7178	1.5455	0.1	4619.
26074	5.81	1.4545	0.1	4594.4
26075	5.7178	1.7273	0.1	4612.4
26076	5.81	1.6364	0.1	4587.7
26077	5.7178	1.9091	0.1	4606.5
26078	5.81	1.8182	0.1	4581.7
26079	5.7178	2.0909	0.1	4601.4
26080	5.81	2.	0.1	4576.4
26081	5.7178	2.2727	0.1	4597.1
26082	5.81	2.1818	0.1	4571.9
26083	5.7178	2.4545	0.1	4593.8
26084	5.81	2.3636	0.1	4568.2
26085	5.7178	2.6364	0.1	4591.3
26086	5.81	2.5455	0.1	4565.4
26087	5.7178	2.8182	0.1	4589.9
26088	5.81	2.7273	0.1	4563.5
26089	5.7178	3.	0.1	4589.4
26090	5.81	2.9091	0.1	4562.6
26091	5.7178	3.1818	0.1	4589.9
26092	5.81	3.0909	0.1	4562.6
26093	5.7178	3.3636	0.1	4591.3
26094	5.81	3.2727	0.1	4563.5
26095	5.7178	3.5455	0.1	4593.8
26096	5.81	3.4545	0.1	4565.4
26097	5.7178	3.7273	0.1	4597.1
26098	5.81	3.6364	0.1	4568.2
26099	5.7178	3.9091	0.1	4601.4
26100	5.81	3.8182	0.1	4571.9
26101	5.7178	4.0909	0.1	4606.5
26102	5.81	4.	0.1	4576.4
26103	5.7178	4.2727	0.1	4612.4
26104	5.81	4.1818	0.1	4581.7
26105	5.7178	4.4545	0.1	4619.
26106	5.81	4.3636	0.1	4587.7
26107	5.7178	4.6364	0.1	4626.2
26108	5.81	4.5455	0.1	4594.4
26109	5.7178	4.8182	0.1	4634.
26110	5.81	4.7273	0.1	4601.7
26111	5.7178	5.	0.1	4642.3
26112	5.81	4.9091	0.1	4609.4
26113	5.7178	5.1818	0.1	4650.9
26114	5.81	5.0909	0.1	4617.6
26115	5.7178	5.3636	0.1	4659.9
26116	5.81	5.2727	0.1	4626.1
26117	5.7178	5.5455	0.1	4669.
26118	5.81	5.4545	0.1	4634.8
26119	5.7178	5.7273	0.1	4678.4
26120	5.81	5.6364	0.1	4643.7
26121	5.81	5.8182	0.1	4653.
26122	5.7178	5.9091	0.1	4686.7
26123	5.9022	0.27273	0.1	4618.3
26124	5.9944	0.18182	0.1	4592.8
26125	5.9022	9.0909e-002	0.1	4625.9
26126	5.9022	0.45455	0.1	4609.6
26127	5.9944	0.36364	0.1	4584.2
26128	5.9022	0.63636	0.1	4601.1
26129	5.9944	0.54545	0.1	4575.9
26130	5.9022	0.81818	0.1	4592.7
26131	5.9944	0.72727	0.1	4567.8
26132	5.9022	1.	0.1	4584.7
26133	5.9944	0.90909	0.1	4559.9
26134	5.9022	1.1818	0.1	4577.1
26135	5.9944	1.0909	0.1	4552.3
26136	5.9022	1.3636	0.1	4569.9
26137	5.9944	1.2727	0.1	4545.2
26138	5.9022	1.5455	0.1	4563.2
26139	5.9944	1.4545	0.1	4538.5
26140	5.9022	1.7273	0.1	4557.1
26141	5.9944	1.6364	0.1	4532.3
26142	5.9022	1.9091	0.1	4551.6
26143	5.9944	1.8182	0.1	4526.7
26144	5.9022	2.0909	0.1	4546.9
26145	5.9944	2.	0.1	4521.8
26146	5.9022	2.2727	0.1	4543.
26147	5.9944	2.1818	0.1	4517.7
26148	5.9022	2.4545	0.1	4539.9
26149	5.9944	2.3636	0.1	4514.3
26150	5.9022	2.6364	0.1	4537.6
26151	5.9944	2.5455	0.1	4511.7
26152	5.9022	2.8182	0.1	4536.3
26153	5.9944	2.7273	0.1	4509.9
26154	5.9022	3.	0.1	4535.8
26155	5.9944	2.9091	0.1	4509.1
26156	5.9022	3.1818	0.1	4536.3
26157	5.9944	3.0909	0.1	4509.1
26158	5.9022	3.3636	0.1	4537.6
26159	5.9944	3.2727	0.1	4509.9
26160	5.9022	3.5455	0.1	4539.9
26161	5.9944	3.4545	0.1	4511.7
26162	5.9022	3.7273	0.1	4543.
26163	5.9944	3.6364	0.1	4514.3
26164	5.9022	3.9091	0.1	4546.9
26165	5.9944	3.8182	0.1	4517.7
26166	5.9022	4.0909	0.1	4551.6
26167	5.9944	4.	0.1	4521.8
26168	5.9022	4.2727	0.1	4557.1
26169	5.9944	4.1818	0.1	4526.7
26170	5.9022	4.4545	0.1	4563.2
26171	5.9944	4.3636	0.1	4532.3
26172	5.9022	4.6364	0.1	4569.9
26173	5.9944	4.5455	0.1	4538.5
26174	5.9022	4.8182	0.1	4577.1
26175	5.9944	4.7273	0.1	4545.2
26176	5.9022	5.	0.1	4584.7
26177	5.9944	4.9091	0.1	4552.3
26178	5.9022	5.1818	0.1	4592.7
26179	5.9944	5.0909	0.1	4559.9
26180	5.9022	5.3636	0.1	4601.1
26181	5.9944	5.2727	0.1	4567.8
26182	5.9022	5.5455	0.1	4609.6
26183	5.9944	5.4545	0.1	4575.9
26184	5.9022	5.7273	0.1	4618.3
26185	5.9944	5.6364	0.1	4584.2
26186	5.9944	5.8182	0.1	4592.8
26187	5.9022	5.9091	0.1	4625.9
26188	6.0867	0.27273	0.1	4558.7
26189	6.1789	0.18182	0.1	4533.1
26190	6.0867	9.0909e-002	0.1	4565.6
26191	6.0867	0.45455	0.1	4550.5
26192	6.1789	0.36364	0.1	4525.1
26193	6.0867	0.63636	0.1	4542.6
26194	6.1789	0.54545	0.1	4517.4
26195	6.0867	0.81818	0.1	4534.9
26196	6.1789	0.72727	0.1	4509.9
26197	6.0867	1.	0.1	4527.5
26198	6.1789	0.90909	0.1	4502.6
26199	6.0867	1.1818	0.1	4520.4
26200	6.1789	1.0909	0.1	4495.6
26201	6.0867	1.3636	0.1	4513.8
26202	6.1789	1.2727	0.1	4488.9
26203	6.0867	1.5455	0.1	4507.6
26204	6.1789	1.4545	0.1	4482.7
26205	6.0867	1.7273	0.1	4501.9
26206	6.1789	1.6364	0.1	4477.
26207	6.0867	1.9091	0.1	4496.9
26208	6.1789	1.8182	0.1	4471.9
26209	6.0867	2.0909	0.1	4492.6
26210	6.1789	2.	0.1	4467.4
26211	6.0867	2.2727	0.1	4488.9
26212	6.1789	2.1818	0.1	4463.5
26213	6.0867	2.4545	0.1	4486.1
26214	6.1789	2.3636	0.1	4460.4
26215	6.0867	2.6364	0.1	4484.
26216	6.1789	2.5455	0.1	4458.
26217	6.0867	2.8182	0.1	4482.7
26218	6.1789	2.7273	0.1	4456.4
26219	6.0867	3.	0.1	4482.3
26220	6.1789	2.9091	0.1	4455.6
26221	6.0867	3.1818	0.1	4482.7
26222	6.1789	3.0909	0.1	4455.6
26223	6.0867	3.3636	0.1	4484.
26224	6.1789	3.2727	0.1	4456.4
26225	6.0867	3.5455	0.1	4486.1
26226	6.1789	3.4545	0.1	4458.
26227	6.0867	3.7273	0.1	4488.9
26228	6.1789	3.6364	0.1	4460.4
26229	6.0867	3.9091	0.1	4492.6
26230	6.1789	3.8182	0.1	4463.5
26231	6.0867	4.0909	0.1	4496.9
26232	6.1789	4.	0.1	4467.4
26233	6.0867	4.2727	0.1	4501.9
26234	6.1789	4.1818	0.1	4471.9
26235	6.0867	4.4545	0.1	4507.6
26236	6.1789	4.3636	0.1	4477.
26237	6.0867	4.6364	0.1	4513.8
26238	6.1789	4.5455	0.1	4482.7
26239	6.0867	4.8182	0.1	4520.4
26240	6.1789	4.7273	0.1	4488.9
26241	6.0867	5.	0.1	4527.5
26242	6.1789	4.9091	0.1	4495.6
26243	6.0867	5.1818	0.1	4534.9
26244	6.1789	5.0909	0.1	4502.6
26245	6.0867	5.3636	0.1	4542.6
26246	6.1789	5.2727	0.1	4509.9
26247	6.0867	5.5455	0.1	4550.5
26248	6.1789	5.4545	0.1	4517.4
26249	6.0867	5.7273	0.1	4558.7
26250	6.1789	5.6364	0.1	4525.1
26251	6.1789	5.8182	0.1	4533.1
26252	6.0867	5.9091	0.1	4565.6
26253	6.2711	0.27273	0.1	4499.5
26254	6.3633	0.18182	0.1	4474.
26255	6.2711	9.0909e-002	0.1	4505.9
26256	6.2711	0.45455	0.1	4492.
26257	6.3633	0.36364	0.1	4466.4
26258	6.2711	0.63636	0.1	4484.6
26259	6.3633	0.54545	0.1	4459.3
26260	6.2711	0.81818	0.1	4477.5
26261	6.3633	0.72727	0.1	4452.3
26262	6.2711	1.	0.1	4470.6
26263	6.3633	0.90909	0.1	4445.5
26264	6.2711	1.1818	0.1	4464.
26265	6.3633	1.0909	0.1	4439.1
26266	6.2711	1.3636	0.1	4457.9
26267	6.3633	1.2727	0.1	4432.9
26268	6.2711	1.5455	0.1	4452.2
26269	6.3633	1.4545	0.1	4427.2
26270	6.2711	1.7273	0.1	4446.9
26271	6.3633	1.6364	0.1	4421.9
26272	6.2711	1.9091	0.1	4442.3
26273	6.3633	1.8182	0.1	4417.2
26274	6.2711	2.0909	0.1	4438.3
26275	6.3633	2.	0.1	4413.
26276	6.2711	2.2727	0.1	4434.9
26277	6.3633	2.1818	0.1	4409.4
26278	6.2711	2.4545	0.1	4432.3
26279	6.3633	2.3636	0.1	4406.5
26280	6.2711	2.6364	0.1	4430.4
26281	6.3633	2.5455	0.1	4404.3
26282	6.2711	2.8182	0.1	4429.2
26283	6.3633	2.7273	0.1	4402.9
26284	6.2711	3.	0.1	4428.8
26285	6.3633	2.9091	0.1	4402.1
26286	6.2711	3.1818	0.1	4429.2
26287	6.3633	3.0909	0.1	4402.1
26288	6.2711	3.3636	0.1	4430.4
26289	6.3633	3.2727	0.1	4402.9
26290	6.2711	3.5455	0.1	4432.3
26291	6.3633	3.4545	0.1	4404.3
26292	6.2711	3.7273	0.1	4434.9
26293	6.3633	3.6364	0.1	4406.5
26294	6.2711	3.9091	0.1	4438.3
26295	6.3633	3.8182	0.1	4409.4
26296	6.2711	4.0909	0.1	4442.3
26297	6.3633	4.	0.1	4413.
26298	6.2711	4.2727	0.1	4446.9
26299	6.3633	4.1818	0.1	4417.2
26300	6.2711	4.4545	0.1	4452.2
26301	6.3633	4.3636	0.1	4421.9
26302	6.2711	4.6364	0.1	4457.9
26303	6.3633	4.5455	0.1	4427.2
26304	6.2711	4.8182	0.1	4464.
26305	6.3633	4.7273	0.1	4432.9
26306	6.2711	5.	0.1	4470.6
26307	6.3633	4.9091	0.1	4439.1
26308	6.2711	5.1818	0.1	4477.5
26309	6.3633	5.0909	0.1	4445.5
26310	6.2711	5.3636	0.1	4484.6
26311	6.3633	5.2727	0.1	4452.3
26312	6.2711	5.5455	0.1	4492.
26313	6.3633	5.4545	0.1	4459.3
26314	6.2711	5.7273	0.1	4499.5
26315	6.3633	5.6364	0.1	4466.4
26316	6.3633	5.8182	0.1	4474.
26317	6.2711	5.9091	0.1	4505.9
26318	6.4556	0.27273	0.1	4440.9
26319	6.5478	0.18182	0.1	4415.3
26320	6.4556	9.0909e-002	0.1	4446.6
26321	6.4556	0.45455	0.1	4433.8
26322	6.5478	0.36364	0.1	4408.2
26323	6.4556	0.63636	0.1	4427.
26324	6.5478	0.54545	0.1	4401.6
26325	6.4556	0.81818	0.1	4420.4
26326	6.5478	0.72727	0.1	4395.1
26327	6.4556	1.	0.1	4414.
26328	6.5478	0.90909	0.1	4388.8
26329	6.4556	1.1818	0.1	4407.9
26330	6.5478	1.0909	0.1	4382.8
26331	6.4556	1.3636	0.1	4402.2
26332	6.5478	1.2727	0.1	4377.1
26333	6.4556	1.5455	0.1	4396.9
26334	6.5478	1.4545	0.1	4371.8
26335	6.4556	1.7273	0.1	4392.1
26336	6.5478	1.6364	0.1	4367.
26337	6.4556	1.9091	0.1	4387.8
26338	6.5478	1.8182	0.1	4362.6
26339	6.4556	2.0909	0.1	4384.1
26340	6.5478	2.	0.1	4358.7
26341	6.4556	2.2727	0.1	4381.
26342	6.5478	2.1818	0.1	4355.4
26343	6.4556	2.4545	0.1	4378.6
26344	6.5478	2.3636	0.1	4352.8
26345	6.4556	2.6364	0.1	4376.8
26346	6.5478	2.5455	0.1	4350.8
26347	6.4556	2.8182	0.1	4375.8
26348	6.5478	2.7273	0.1	4349.4
26349	6.4556	3.	0.1	4375.4
26350	6.5478	2.9091	0.1	4348.7
26351	6.4556	3.1818	0.1	4375.8
26352	6.5478	3.0909	0.1	4348.7
26353	6.4556	3.3636	0.1	4376.8
26354	6.5478	3.2727	0.1	4349.4
26355	6.4556	3.5455	0.1	4378.6
26356	6.5478	3.4545	0.1	4350.8
26357	6.4556	3.7273	0.1	4381.
26358	6.5478	3.6364	0.1	4352.8
26359	6.4556	3.9091	0.1	4384.1
26360	6.5478	3.8182	0.1	4355.4
26361	6.4556	4.0909	0.1	4387.8
26362	6.5478	4.	0.1	4358.7
26363	6.4556	4.2727	0.1	4392.1
26364	6.5478	4.1818	0.1	4362.6
26365	6.4556	4.4545	0.1	4396.9
26366	6.5478	4.3636	0.1	4367.
26367	6.4556	4.6364	0.1	4402.2
26368	6.5478	4.5455	0.1	4371.8
26369	6.4556	4.8182	0.1	4407.9
26370	6.5478	4.7273	0.1	4377.1
26371	6.4556	5.	0.1	4414.
26372	6.5478	4.9091	0.1	4382.8
26373	6.4556	5.1818	0.1	4420.4
26374	6.5478	5.0909	0.1	4388.8
26375	6.4556	5.3636	0.1	4427.
26376	6.5478	5.2727	0.1	4395.1
26377	6.4556	5.5455	0.1	4433.8
26378	6.5478	5.4545	0.1	4401.6
26379	6.4556	5.7273	0.1	4440.9
26380	6.5478	5.6364	0.1	4408.2
26381	6.5478	5.8182	0.1	4415.3
26382	6.4556	5.9091	0.1	4446.6
26383	6.64	0.27273	0.1	4382.6
26384	6.7322	0.18182	0.1	4357.1
26385	6.64	9.0909e-002	0.1	4387.8
26386	6.64	0.45455	0.1	4376.
26387	6.7322	0.36364	0.1	4350.4
26388	6.64	0.63636	0.1	4369.7
26389	6.7322	0.54545	0.1	4344.3
26390	6.64	0.81818	0.1	4363.6
26391	6.7322	0.72727	0.1	4338.2
26392	6.64	1.	0.1	4357.7
26393	6.7322	0.90909	0.1	4332.4
26394	6.64	1.1818	0.1	4352.
26395	6.7322	1.0909	0.1	4326.9
26396	6.64	1.3636	0.1	4346.8
26397	6.7322	1.2727	0.1	4321.6
26398	6.64	1.5455	0.1	4341.9
26399	6.7322	1.4545	0.1	4316.7
26400	6.64	1.7273	0.1	4337.4
26401	6.7322	1.6364	0.1	4312.2
26402	6.64	1.9091	0.1	4333.5
26403	6.7322	1.8182	0.1	4308.1
26404	6.64	2.0909	0.1	4330.1
26405	6.7322	2.	0.1	4304.6
26406	6.64	2.2727	0.1	4327.2
26407	6.7322	2.1818	0.1	4301.6
26408	6.64	2.4545	0.1	4324.9
26409	6.7322	2.3636	0.1	4299.1
26410	6.64	2.6364	0.1	4323.3
26411	6.7322	2.5455	0.1	4297.2
26412	6.64	2.8182	0.1	4322.3
26413	6.7322	2.7273	0.1	4296.
26414	6.64	3.	0.1	4322.
26415	6.7322	2.9091	0.1	4295.3
26416	6.64	3.1818	0.1	4322.3
26417	6.7322	3.0909	0.1	4295.3
26418	6.64	3.3636	0.1	4323.3
26419	6.7322	3.2727	0.1	4296.
26420	6.64	3.5455	0.1	4324.9
26421	6.7322	3.4545	0.1	4297.2
26422	6.64	3.7273	0.1	4327.2
26423	6.7322	3.6364	0.1	4299.1
26424	6.64	3.9091	0.1	4330.1
26425	6.7322	3.8182	0.1	4301.6
26426	6.64	4.0909	0.1	4333.5
26427	6.7322	4.	0.1	4304.6
26428	6.64	4.2727	0.1	4337.4
26429	6.7322	4.1818	0.1	4308.1
26430	6.64	4.4545	0.1	4341.9
26431	6.7322	4.3636	0.1	4312.2
26432	6.64	4.6364	0.1	4346.8
26433	6.7322	4.5455	0.1	4316.7
26434	6.64	4.8182	0.1	4352.
26435	6.7322	4.7273	0.1	4321.6
26436	6.64	5.	0.1	4357.7
26437	6.7322	4.9091	0.1	4326.9
26438	6.64	5.1818	0.1	4363.6
26439	6.7322	5.0909	0.1	4332.4
26440	6.64	5.3636	0.1	4369.7
26441	6.7322	5.2727	0.1	4338.2
26442	6.64	5.5455	0.1	4376.
26443	6.7322	5.4545	0.1	4344.3
26444	6.64	5.7273	0.1	4382.6
26445	6.7322	5.6364	0.1	4350.4
26446	6.7322	5.8182	0.1	4357.1
26447	6.64	5.9091	0.1	4387.8
26448	6.8244	0.27273	0.1	4324.8
26449	6.9167	0.18182	0.1	4299.3
26450	6.8244	9.0909e-002	0.1	4329.5
26451	6.8244	0.45455	0.1	4318.7
26452	6.9167	0.36364	0.1	4293.
26453	6.8244	0.63636	0.1	4312.8
26454	6.9167	0.54545	0.1	4287.3
26455	6.8244	0.81818	0.1	4307.1
26456	6.9167	0.72727	0.1	4281.7
26457	6.8244	1.	0.1	4301.6
26458	6.9167	0.90909	0.1	4276.3
26459	6.8244	1.1818	0.1	4296.4
26460	6.9167	1.0909	0.1	4271.1
26461	6.8244	1.3636	0.1	4291.5
26462	6.9167	1.2727	0.1	4266.3
26463	6.8244	1.5455	0.1	4287.
26464	6.9167	1.4545	0.1	4261.7
26465	6.8244	1.7273	0.1	4282.9
26466	6.9167	1.6364	0.1	4257.6
26467	6.8244	1.9091	0.1	4279.2
26468	6.9167	1.8182	0.1	4253.8
26469	6.8244	2.0909	0.1	4276.1
26470	6.9167	2.	0.1	4250.6
26471	6.8244	2.2727	0.1	4273.5
26472	6.9167	2.1818	0.1	4247.8
26473	6.8244	2.4545	0.1	4271.4
26474	6.9167	2.3636	0.1	4245.5
26475	6.8244	2.6364	0.1	4269.9
26476	6.9167	2.5455	0.1	4243.8
26477	6.8244	2.8182	0.1	4269.
26478	6.9167	2.7273	0.1	4242.6
26479	6.8244	3.	0.1	4268.7
26480	6.9167	2.9091	0.1	4242.
26481	6.8244	3.1818	0.1	4269.
26482	6.9167	3.0909	0.1	4242.
26483	6.8244	3.3636	0.1	4269.9
26484	6.9167	3.2727	0.1	4242.6
26485	6.8244	3.5455	0.1	4271.4
26486	6.9167	3.4545	0.1	4243.8
26487	6.8244	3.7273	0.1	4273.5
26488	6.9167	3.6364	0.1	4245.5
26489	6.8244	3.9091	0.1	4276.1
26490	6.9167	3.8182	0.1	4247.8
26491	6.8244	4.0909	0.1	4279.2
26492	6.9167	4.	0.1	4250.6
26493	6.8244	4.2727	0.1	4282.9
26494	6.9167	4.1818	0.1	4253.8
26495	6.8244	4.4545	0.1	4287.
26496	6.9167	4.3636	0.1	4257.6
26497	6.8244	4.6364	0.1	4291.5
26498	6.9167	4.5455	0.1	4261.7
26499	6.8244	4.8182	0.1	4296.4
26500	6.9167	4.7273	0.1	4266.3
26501	6.8244	5.	0.1	4301.6
26502	6.9167	4.9091	0.1	4271.1
26503	6.8244	5.1818	0.1	4307.1
26504	6.9167	5.0909	0.1	4276.3
26505	6.8244	5.3636	0.1	4312.8
26506	6.9167	5.2727	0.1	4281.7
26507	6.8244	5.5455	0.1	4318.7
26508	6.9167	5.4545	0.1	4287.3
26509	6.8244	5.7273	0.1	4324.8
26510	6.9167	5.6364	0.1	4293.
26511	6.9167	5.8182	0.1	4299.3
26512	6.8244	5.9091	0.1	4329.5
26513	7.0089	0.27273	0.1	4267.4
26514	7.1011	0.18182	0.1	4241.9
26515	7.0089	9.0909e-002	0.1	4271.6
26516	7.0089	0.45455	0.1	4261.7
26517	7.1011	0.36364	0.1	4236.
26518	7.0089	0.63636	0.1	4256.2
26519	7.1011	0.54545	0.1	4230.7
26520	7.0089	0.81818	0.1	4250.9
26521	7.1011	0.72727	0.1	4225.5
26522	7.0089	1.	0.1	4245.8
26523	7.1011	0.90909	0.1	4220.5
26524	7.0089	1.1818	0.1	4241.
26525	7.1011	1.0909	0.1	4215.7
26526	7.0089	1.3636	0.1	4236.5
26527	7.1011	1.2727	0.1	4211.2
26528	7.0089	1.5455	0.1	4232.3
26529	7.1011	1.4545	0.1	4207.
26530	7.0089	1.7273	0.1	4228.5
26531	7.1011	1.6364	0.1	4203.1
26532	7.0089	1.9091	0.1	4225.1
26533	7.1011	1.8182	0.1	4199.7
26534	7.0089	2.0909	0.1	4222.2
26535	7.1011	2.	0.1	4196.6
26536	7.0089	2.2727	0.1	4219.8
26537	7.1011	2.1818	0.1	4194.1
26538	7.0089	2.4545	0.1	4217.9
26539	7.1011	2.3636	0.1	4192.
26540	7.0089	2.6364	0.1	4216.5
26541	7.1011	2.5455	0.1	4190.4
26542	7.0089	2.8182	0.1	4215.7
26543	7.1011	2.7273	0.1	4189.3
26544	7.0089	3.	0.1	4215.4
26545	7.1011	2.9091	0.1	4188.8
26546	7.0089	3.1818	0.1	4215.7
26547	7.1011	3.0909	0.1	4188.8
26548	7.0089	3.3636	0.1	4216.5
26549	7.1011	3.2727	0.1	4189.3
26550	7.0089	3.5455	0.1	4217.9
26551	7.1011	3.4545	0.1	4190.4
26552	7.0089	3.7273	0.1	4219.8
26553	7.1011	3.6364	0.1	4192.
26554	7.0089	3.9091	0.1	4222.2
26555	7.1011	3.8182	0.1	4194.1
26556	7.0089	4.0909	0.1	4225.1
26557	7.1011	4.	0.1	4196.6
26558	7.0089	4.2727	0.1	4228.5
26559	7.1011	4.1818	0.1	4199.7
26560	7.0089	4.4545	0.1	4232.3
26561	7.1011	4.3636	0.1	4203.1
26562	7.0089	4.6364	0.1	4236.5
26563	7.1011	4.5455	0.1	4207.
26564	7.0089	4.8182	0.1	4241.
26565	7.1011	4.7273	0.1	4211.2
26566	7.0089	5.	0.1	4245.8
26567	7.1011	4.9091	0.1	4215.7
26568	7.0089	5.1818	0.1	4250.9
26569	7.1011	5.0909	0.1	4220.5
26570	7.0089	5.3636	0.1	4256.2
26571	7.1011	5.2727	0.1	4225.5
26572	7.0089	5.5455	0.1	4261.7
26573	7.1011	5.4545	0.1	4230.7
26574	7.0089	5.7273	0.1	4267.4
26575	7.1011	5.6364	0.1	4236.
26576	7.1011	5.8182	0.1	4241.9
26577	7.0089	5.9091	0.1	4271.6
26578	7.1933	0.27273	0.1	4210.4
26579	7.2856	0.18182	0.1	4184.9
26580	7.1933	9.0909e-002	0.1	4214.1
26581	7.1933	0.45455	0.1	4205.
26582	7.2856	0.36364	0.1	4179.3
26583	7.1933	0.63636	0.1	4199.9
26584	7.2856	0.54545	0.1	4174.4
26585	7.1933	0.81818	0.1	4195.
26586	7.2856	0.72727	0.1	4169.5
26587	7.1933	1.	0.1	4190.3
26588	7.2856	0.90909	0.1	4164.9
26589	7.1933	1.1818	0.1	4185.8
26590	7.2856	1.0909	0.1	4160.5
26591	7.1933	1.3636	0.1	4181.7
26592	7.2856	1.2727	0.1	4156.3
26593	7.1933	1.5455	0.1	4177.8
26594	7.2856	1.4545	0.1	4152.4
26595	7.1933	1.7273	0.1	4174.3
26596	7.2856	1.6364	0.1	4148.8
26597	7.1933	1.9091	0.1	4171.2
26598	7.2856	1.8182	0.1	4145.7
26599	7.1933	2.0909	0.1	4168.5
26600	7.2856	2.	0.1	4142.9
26601	7.1933	2.2727	0.1	4166.2
26602	7.2856	2.1818	0.1	4140.5
26603	7.1933	2.4545	0.1	4164.5
26604	7.2856	2.3636	0.1	4138.5
26605	7.1933	2.6364	0.1	4163.2
26606	7.2856	2.5455	0.1	4137.1
26607	7.1933	2.8182	0.1	4162.4
26608	7.2856	2.7273	0.1	4136.1
26609	7.1933	3.	0.1	4162.2
26610	7.2856	2.9091	0.1	4135.6
26611	7.1933	3.1818	0.1	4162.4
26612	7.2856	3.0909	0.1	4135.6
26613	7.1933	3.3636	0.1	4163.2
26614	7.2856	3.2727	0.1	4136.1
26615	7.1933	3.5455	0.1	4164.5
26616	7.2856	3.4545	0.1	4137.1
26617	7.1933	3.7273	0.1	4166.2
26618	7.2856	3.6364	0.1	4138.5
26619	7.1933	3.9091	0.1	4168.5
26620	7.2856	3.8182	0.1	4140.5
26621	7.1933	4.0909	0.1	4171.2
26622	7.2856	4.	0.1	4142.9
26623	7.1933	4.2727	0.1	4174.3
26624	7.2856	4.1818	0.1	4145.7
26625	7.1933	4.4545	0.1	4177.8
26626	7.2856	4.3636	0.1	4148.8
26627	7.1933	4.6364	0.1	4181.7
26628	7.2856	4.5455	0.1	4152.4
26629	7.1933	4.8182	0.1	4185.8
26630	7.2856	4.7273	0.1	4156.3
26631	7.1933	5.	0.1	4190.3
26632	7.2856	4.9091	0.1	4160.5
26633	7.1933	5.1818	0.1	4195.
26634	7.2856	5.0909	0.1	4164.9
26635	7.1933	5.3636	0.1	4199.9
26636	7.2856	5.2727	0.1	4169.5
26637	7.1933	5.5455	0.1	4205.
26638	7.2856	5.4545	0.1	4174.4
26639	7.1933	5.7273	0.1	4210.4
26640	7.2856	5.6364	0.1	4179.3
26641	7.2856	5.8182	0.1	4184.9
26642	7.1933	5.9091	0.1	4214.1
26643	7.3778	0.27273	0.1	4153.8
26644	7.47	0.18182	0.1	4128.3
26645	7.3778	9.0909e-002	0.1	4157.
26646	7.3778	0.45455	0.1	4148.7
26647	7.47	0.36364	0.1	4123.
26648	7.3778	0.63636	0.1	4144.
26649	7.47	0.54545	0.1	4118.4
26650	7.3778	0.81818	0.1	4139.4
26651	7.47	0.72727	0.1	4113.9
26652	7.3778	1.	0.1	4135.
26653	7.47	0.90909	0.1	4109.6
26654	7.3778	1.1818	0.1	4130.9
26655	7.47	1.0909	0.1	4105.5
26656	7.3778	1.3636	0.1	4127.
26657	7.47	1.2727	0.1	4101.6
26658	7.3778	1.5455	0.1	4123.5
26659	7.47	1.4545	0.1	4098.
26660	7.3778	1.7273	0.1	4120.2
26661	7.47	1.6364	0.1	4094.7
26662	7.3778	1.9091	0.1	4117.3
26663	7.47	1.8182	0.1	4091.8
26664	7.3778	2.0909	0.1	4114.9
26665	7.47	2.	0.1	4089.2
26666	7.3778	2.2727	0.1	4112.8
26667	7.47	2.1818	0.1	4087.
26668	7.3778	2.4545	0.1	4111.2
26669	7.47	2.3636	0.1	4085.2
26670	7.3778	2.6364	0.1	4110.
26671	7.47	2.5455	0.1	4083.9
26672	7.3778	2.8182	0.1	4109.3
26673	7.47	2.7273	0.1	4083.
26674	7.3778	3.	0.1	4109.
26675	7.47	2.9091	0.1	4082.5
26676	7.3778	3.1818	0.1	4109.3
26677	7.47	3.0909	0.1	4082.5
26678	7.3778	3.3636	0.1	4110.
26679	7.47	3.2727	0.1	4083.
26680	7.3778	3.5455	0.1	4111.2
26681	7.47	3.4545	0.1	4083.9
26682	7.3778	3.7273	0.1	4112.8
26683	7.47	3.6364	0.1	4085.2
26684	7.3778	3.9091	0.1	4114.9
26685	7.47	3.8182	0.1	4087.
26686	7.3778	4.0909	0.1	4117.3
26687	7.47	4.	0.1	4089.2
26688	7.3778	4.2727	0.1	4120.2
26689	7.47	4.1818	0.1	4091.8
26690	7.3778	4.4545	0.1	4123.5
26691	7.47	4.3636	0.1	4094.7
26692	7.3778	4.6364	0.1	4127.
26693	7.47	4.5455	0.1	4098.
26694	7.3778	4.8182	0.1	4130.9
26695	7.47	4.7273	0.1	4101.6
26696	7.3778	5.	0.1	4135.
26697	7.47	4.9091	0.1	4105.5
26698	7.3778	5.1818	0.1	4139.4
26699	7.47	5.0909	0.1	4109.6
26700	7.3778	5.3636	0.1	4144.
26701	7.47	5.2727	0.1	4113.9
26702	7.3778	5.5455	0.1	4148.7
26703	7.47	5.4545	0.1	4118.4
26704	7.3778	5.7273	0.1	4153.8
26705	7.47	5.6364	0.1	4123.
26706	7.47	5.8182	0.1	4128.3
26707	7.3778	5.9091	0.1	4157.
26708	7.5622	0.27273	0.1	4097.5
26709	7.6544	0.18182	0.1	4072.
26710	7.5622	9.0909e-002	0.1	4100.2
26711	7.5622	0.45455	0.1	4092.7
26712	7.6544	0.36364	0.1	4067.
26713	7.5622	0.63636	0.1	4088.3
26714	7.6544	0.54545	0.1	4062.7
26715	7.5622	0.81818	0.1	4084.1
26716	7.6544	0.72727	0.1	4058.5
26717	7.5622	1.	0.1	4080.
26718	7.6544	0.90909	0.1	4054.5
26719	7.5622	1.1818	0.1	4076.2
26720	7.6544	1.0909	0.1	4050.7
26721	7.5622	1.3636	0.1	4072.6
26722	7.6544	1.2727	0.1	4047.2
26723	7.5622	1.5455	0.1	4069.3
26724	7.6544	1.4545	0.1	4043.8
26725	7.5622	1.7273	0.1	4066.3
26726	7.6544	1.6364	0.1	4040.8
26727	7.5622	1.9091	0.1	4063.6
26728	7.6544	1.8182	0.1	4038.1
26729	7.5622	2.0909	0.1	4061.3
26730	7.6544	2.	0.1	4035.7
26731	7.5622	2.2727	0.1	4059.4
26732	7.6544	2.1818	0.1	4033.6
26733	7.5622	2.4545	0.1	4057.9
26734	7.6544	2.3636	0.1	4032.
26735	7.5622	2.6364	0.1	4056.8
26736	7.6544	2.5455	0.1	4030.7
26737	7.5622	2.8182	0.1	4056.2
26738	7.6544	2.7273	0.1	4029.9
26739	7.5622	3.	0.1	4056.
26740	7.6544	2.9091	0.1	4029.5
26741	7.5622	3.1818	0.1	4056.2
26742	7.6544	3.0909	0.1	4029.5
26743	7.5622	3.3636	0.1	4056.8
26744	7.6544	3.2727	0.1	4029.9
26745	7.5622	3.5455	0.1	4057.9
26746	7.6544	3.4545	0.1	4030.7
26747	7.5622	3.7273	0.1	4059.4
26748	7.6544	3.6364	0.1	4032.
26749	7.5622	3.9091	0.1	4061.3
26750	7.6544	3.8182	0.1	4033.6
26751	7.5622	4.0909	0.1	4063.6
26752	7.6544	4.	0.1	4035.7
26753	7.5622	4.2727	0.1	4066.3
26754	7.6544	4.1818	0.1	4038.1
26755	7.5622	4.4545	0.1	4069.3
26756	7.6544	4.3636	0.1	4040.8
26757	7.5622	4.6364	0.1	4072.6
26758	7.6544	4.5455	0.1	4043.8
26759	7.5622	4.8182	0.1	4076.2
26760	7.6544	4.7273	0.1	4047.2
26761	7.5622	5.	0.1	4080.
26762	7.6544	4.9091	0.1	4050.7
26763	7.5622	5.1818	0.1	4084.1
26764	7.6544	5.0909	0.1	4054.5
26765	7.5622	5.3636	0.1	4088.3
26766	7.6544	5.2727	0.1	4058.5
26767	7.5622	5.5455	0.1	4092.7
26768	7.6544	5.4545	0.1	4062.7
26769	7.5622	5.7273	0.1	4097.5
26770	7.6544	5.6364	0.1	4067.
26771	7.6544	5.8182	0.1	4072.
26772	7.5622	5.9091	0.1	4100.2
26773	7.7467	0.27273	0.1	4041.5
26774	7.8389	0.18182	0.1	4016.1
26775	7.7467	9.0909e-002	0.1	4043.9
26776	7.7467	0.45455	0.1	4037.
26777	7.8389	0.36364	0.1	4011.3
26778	7.7467	0.63636	0.1	4032.9
26779	7.8389	0.54545	0.1	4007.3
26780	7.7467	0.81818	0.1	4029.
26781	7.8389	0.72727	0.1	4003.5
26782	7.7467	1.	0.1	4025.2
26783	7.8389	0.90909	0.1	3999.7
26784	7.7467	1.1818	0.1	4021.7
26785	7.8389	1.0909	0.1	3996.2
26786	7.7467	1.3636	0.1	4018.4
26787	7.8389	1.2727	0.1	3992.9
26788	7.7467	1.5455	0.1	4015.3
26789	7.8389	1.4545	0.1	3989.8
26790	7.7467	1.7273	0.1	4012.5
26791	7.8389	1.6364	0.1	3987.
26792	7.7467	1.9091	0.1	4010.1
26793	7.8389	1.8182	0.1	3984.5
26794	7.7467	2.0909	0.1	4008.
26795	7.8389	2.	0.1	3982.3
26796	7.7467	2.2727	0.1	4006.2
26797	7.8389	2.1818	0.1	3980.4
26798	7.7467	2.4545	0.1	4004.8
26799	7.8389	2.3636	0.1	3978.9
26800	7.7467	2.6364	0.1	4003.8
26801	7.8389	2.5455	0.1	3977.7
26802	7.7467	2.8182	0.1	4003.2
26803	7.8389	2.7273	0.1	3977.
26804	7.7467	3.	0.1	4003.
26805	7.8389	2.9091	0.1	3976.6
26806	7.7467	3.1818	0.1	4003.2
26807	7.8389	3.0909	0.1	3976.6
26808	7.7467	3.3636	0.1	4003.8
26809	7.8389	3.2727	0.1	3977.
26810	7.7467	3.5455	0.1	4004.8
26811	7.8389	3.4545	0.1	3977.7
26812	7.7467	3.7273	0.1	4006.2
26813	7.8389	3.6364	0.1	3978.9
26814	7.7467	3.9091	0.1	4008.
26815	7.8389	3.8182	0.1	3980.4
26816	7.7467	4.0909	0.1	4010.1
26817	7.8389	4.	0.1	3982.3
26818	7.7467	4.2727	0.1	4012.5
26819	7.8389	4.1818	0.1	3984.5
26820	7.7467	4.4545	0.1	4015.3
26821	7.8389	4.3636	0.1	3987.
26822	7.7467	4.6364	0.1	4018.4
26823	7.8389	4.5455	0.1	3989.8
26824	7.7467	4.8182	0.1	4021.7
26825	7.8389	4.7273	0.1	3992.9
26826	7.7467	5.	0.1	4025.2
26827	7.8389	4.9091	0.1	3996.2
26828	7.7467	5.1818	0.1	4029.
26829	7.8389	5.0909	0.1	3999.7
26830	7.7467	5.3636	0.1	4032.9
26831	7.8389	5.2727	0.1	4003.5
26832	7.7467	5.5455	0.1	4037.
26833	7.8389	5.4545	0.1	4007.3
26834	7.7467	5.7273	0.1	4041.5
26835	7.8389	5.6364	0.1	4011.3
26836	7.8389	5.8182	0.1	4016.1
26837	7.7467	5.9091	0.1	4043.9
26838	7.9311	0.27273	0.1	3985.9
26839	8.0233	0.18182	0.1	3960.5
26840	7.9311	9.0909e-002	0.1	3987.8
26841	7.9311	0.45455	0.1	3981.6
26842	8.0233	0.36364	0.1	3956.
26843	7.9311	0.63636	0.1	3977.8
26844	8.0233	0.54545	0.1	3952.2
26845	7.9311	0.81818	0.1	3974.2
26846	8.0233	0.72727	0.1	3948.6
26847	7.9311	1.	0.1	3970.7
26848	8.0233	0.90909	0.1	3945.2
26849	7.9311	1.1818	0.1	3967.4
26850	8.0233	1.0909	0.1	3941.9
26851	7.9311	1.3636	0.1	3964.3
26852	8.0233	1.2727	0.1	3938.8
26853	7.9311	1.5455	0.1	3961.5
26854	8.0233	1.4545	0.1	3936.
26855	7.9311	1.7273	0.1	3958.9
26856	8.0233	1.6364	0.1	3933.4
26857	7.9311	1.9091	0.1	3956.7
26858	8.0233	1.8182	0.1	3931.1
26859	7.9311	2.0909	0.1	3954.7
26860	8.0233	2.	0.1	3929.
26861	7.9311	2.2727	0.1	3953.1
26862	8.0233	2.1818	0.1	3927.3
26863	7.9311	2.4545	0.1	3951.8
26864	8.0233	2.3636	0.1	3925.9
26865	7.9311	2.6364	0.1	3950.9
26866	8.0233	2.5455	0.1	3924.8
26867	7.9311	2.8182	0.1	3950.3
26868	8.0233	2.7273	0.1	3924.1
26869	7.9311	3.	0.1	3950.1
26870	8.0233	2.9091	0.1	3923.8
26871	7.9311	3.1818	0.1	3950.3
26872	8.0233	3.0909	0.1	3923.8
26873	7.9311	3.3636	0.1	3950.9
26874	8.0233	3.2727	0.1	3924.1
26875	7.9311	3.5455	0.1	3951.8
26876	8.0233	3.4545	0.1	3924.8
26877	7.9311	3.7273	0.1	3953.1
26878	8.0233	3.6364	0.1	3925.9
26879	7.9311	3.9091	0.1	3954.7
26880	8.0233	3.8182	0.1	3927.3
26881	7.9311	4.0909	0.1	3956.7
26882	8.0233	4.	0.1	3929.
26883	7.9311	4.2727	0.1	3958.9
26884	8.0233	4.1818	0.1	3931.1
26885	7.9311	4.4545	0.1	3961.5
26886	8.0233	4.3636	0.1	3933.4
26887	7.9311	4.6364	0.1	3964.3
26888	8.0233	4.5455	0.1	3936.
26889	7.9311	4.8182	0.1	3967.4
26890	8.0233	4.7273	0.1	3938.8
26891	7.9311	5.	0.1	3970.7
26892	8.0233	4.9091	0.1	3941.9
26893	7.9311	5.1818	0.1	3974.2
26894	8.0233	5.0909	0.1	3945.2
26895	7.9311	5.3636	0.1	3977.8
26896	8.0233	5.2727	0.1	3948.6
26897	7.9311	5.5455	0.1	3981.6
26898	8.0233	5.4545	0.1	3952.2
26899	7.9311	5.7273	0.1	3985.9
26900	8.0233	5.6364	0.1	3956.
26901	8.0233	5.8182	0.1	3960.5
26902	7.9311	5.9091	0.1	3987.8
26903	8.1156	0.27273	0.1	3930.5
26904	8.2078	0.18182	0.1	3905.2
26905	8.1156	9.0909e-002	0.1	3932.2
26906	8.1156	0.45455	0.1	3926.6
26907	8.2078	0.36364	0.1	3900.9
26908	8.1156	0.63636	0.1	3923.
26909	8.2078	0.54545	0.1	3897.4
26910	8.1156	0.81818	0.1	3919.6
26911	8.2078	0.72727	0.1	3894.1
26912	8.1156	1.	0.1	3916.4
26913	8.2078	0.90909	0.1	3890.9
26914	8.1156	1.1818	0.1	3913.3
26915	8.2078	1.0909	0.1	3887.8
26916	8.1156	1.3636	0.1	3910.5
26917	8.2078	1.2727	0.1	3885.
26918	8.1156	1.5455	0.1	3907.9
26919	8.2078	1.4545	0.1	3882.4
26920	8.1156	1.7273	0.1	3905.5
26921	8.2078	1.6364	0.1	3879.9
26922	8.1156	1.9091	0.1	3903.4
26923	8.2078	1.8182	0.1	3877.8
26924	8.1156	2.0909	0.1	3901.6
26925	8.2078	2.	0.1	3875.9
26926	8.1156	2.2727	0.1	3900.1
26927	8.2078	2.1818	0.1	3874.3
26928	8.1156	2.4545	0.1	3898.9
26929	8.2078	2.3636	0.1	3873.
26930	8.1156	2.6364	0.1	3898.1
26931	8.2078	2.5455	0.1	3872.
26932	8.1156	2.8182	0.1	3897.5
26933	8.2078	2.7273	0.1	3871.4
26934	8.1156	3.	0.1	3897.4
26935	8.2078	2.9091	0.1	3871.
26936	8.1156	3.1818	0.1	3897.5
26937	8.2078	3.0909	0.1	3871.
26938	8.1156	3.3636	0.1	3898.1
26939	8.2078	3.2727	0.1	3871.4
26940	8.1156	3.5455	0.1	3898.9
26941	8.2078	3.4545	0.1	3872.
26942	8.1156	3.7273	0.1	3900.1
26943	8.2078	3.6364	0.1	3873.
26944	8.1156	3.9091	0.1	3901.6
26945	8.2078	3.8182	0.1	3874.3
26946	8.1156	4.0909	0.1	3903.4
26947	8.2078	4.	0.1	3875.9
26948	8.1156	4.2727	0.1	3905.5
26949	8.2078	4.1818	0.1	3877.8
26950	8.1156	4.4545	0.1	3907.9
26951	8.2078	4.3636	0.1	3879.9
26952	8.1156	4.6364	0.1	3910.5
26953	8.2078	4.5455	0.1	3882.4
26954	8.1156	4.8182	0.1	3913.3
26955	8.2078	4.7273	0.1	3885.
26956	8.1156	5.	0.1	3916.4
26957	8.2078	4.9091	0.1	3887.8
26958	8.1156	5.1818	0.1	3919.6
26959	8.2078	5.0909	0.1	3890.9
26960	8.1156	5.3636	0.1	3923.
26961	8.2078	5.2727	0.1	3894.1
26962	8.1156	5.5455	0.1	3926.6
26963	8.2078	5.4545	0.1	3897.4
26964	8.1156	5.7273	0.1	3930.5
26965	8.2078	5.6364	0.1	3900.9
26966	8.2078	5.8182	0.1	3905.2
26967	8.1156	5.9091	0.1	3932.2
26968	8.3	0.27273	0.1	3875.5
26969	8.3922	0.18182	0.1	3850.2
26970	8.3	9.0909e-002	0.1	3876.8
26971	8.3	0.45455	0.1	3871.8
26972	8.3922	0.36364	0.1	3846.1
26973	8.3	0.63636	0.1	3868.5
26974	8.3922	0.54545	0.1	3842.9
26975	8.3	0.81818	0.1	3865.3
26976	8.3922	0.72727	0.1	3839.8
26977	8.3	1.	0.1	3862.3
26978	8.3922	0.90909	0.1	3836.8
26979	8.3	1.1818	0.1	3859.5
26980	8.3922	1.0909	0.1	3834.
26981	8.3	1.3636	0.1	3856.8
26982	8.3922	1.2727	0.1	3831.3
26983	8.3	1.5455	0.1	3854.4
26984	8.3922	1.4545	0.1	3828.9
26985	8.3	1.7273	0.1	3852.2
26986	8.3922	1.6364	0.1	3826.7
26987	8.3	1.9091	0.1	3850.3
26988	8.3922	1.8182	0.1	3824.7
26989	8.3	2.0909	0.1	3848.6
26990	8.3922	2.	0.1	3822.9
26991	8.3	2.2727	0.1	3847.2
26992	8.3922	2.1818	0.1	3821.5
26993	8.3	2.4545	0.1	3846.1
26994	8.3922	2.3636	0.1	3820.3
26995	8.3	2.6364	0.1	3845.4
26996	8.3922	2.5455	0.1	3819.4
26997	8.3	2.8182	0.1	3844.9
26998	8.3922	2.7273	0.1	3818.8
26999	8.3	3.	0.1	3844.7
27000	8.3922	2.9091	0.1	3818.5
27001	8.3	3.1818	0.1	3844.9
27002	8.3922	3.0909	0.1	3818.5
27003	8.3	3.3636	0.1	3845.4
27004	8.3922	3.2727	0.1	3818.8
27005	8.3	3.5455	0.1	3846.1
27006	8.3922	3.4545	0.1	3819.4
27007	8.3	3.7273	0.1	3847.2
27008	8.3922	3.6364	0.1	3820.3
27009	8.3	3.9091	0.1	3848.6
27010	8.3922	3.8182	0.1	3821.5
27011	8.3	4.0909	0.1	3850.3
27012	8.3922	4.	0.1	3822.9
27013	8.3	4.2727	0.1	3852.2
27014	8.3922	4.1818	0.1	3824.7
27015	8.3	4.4545	0.1	3854.4
27016	8.3922	4.3636	0.1	3826.7
27017	8.3	4.6364	0.1	3856.8
27018	8.3922	4.5455	0.1	3828.9
27019	8.3	4.8182	0.1	3859.5
27020	8.3922	4.7273	0.1	3831.3
27021	8.3	5.	0.1	3862.3
27022	8.3922	4.9091	0.1	3834.
27023	8.3	5.1818	0.1	3865.3
27024	8.3922	5.0909	0.1	3836.8
27025	8.3	5.3636	0.1	3868.5
27026	8.3922	5.2727	0.1	3839.8
27027	8.3	5.5455	0.1	3871.8
27028	8.3922	5.4545	0.1	3842.9
27029	8.3	5.7273	0.1	3875.5
27030	8.3922	5.6364	0.1	3846.1
27031	8.3922	5.8182	0.1	3850.2
27032	8.3	5.9091	0.1	3876.8
27033	8.4844	0.27273	0.1	3820.8
27034	8.5767	0.18182	0.1	3795.5
27035	8.4844	9.0909e-002	0.1	3821.7
27036	8.4844	0.45455	0.1	3817.2
27037	8.5767	0.36364	0.1	3791.6
27038	8.4844	0.63636	0.1	3814.2
27039	8.5767	0.54545	0.1	3788.6
27040	8.4844	0.81818	0.1	3811.2
27041	8.5767	0.72727	0.1	3785.7
27042	8.4844	1.	0.1	3808.5
27043	8.5767	0.90909	0.1	3783.
27044	8.4844	1.1818	0.1	3805.8
27045	8.5767	1.0909	0.1	3780.3
27046	8.4844	1.3636	0.1	3803.4
27047	8.5767	1.2727	0.1	3777.9
27048	8.4844	1.5455	0.1	3801.2
27049	8.5767	1.4545	0.1	3775.6
27050	8.4844	1.7273	0.1	3799.1
27051	8.5767	1.6364	0.1	3773.6
27052	8.4844	1.9091	0.1	3797.3
27053	8.5767	1.8182	0.1	3771.7
27054	8.4844	2.0909	0.1	3795.8
27055	8.5767	2.	0.1	3770.1
27056	8.4844	2.2727	0.1	3794.5
27057	8.5767	2.1818	0.1	3768.8
27058	8.4844	2.4545	0.1	3793.5
27059	8.5767	2.3636	0.1	3767.7
27060	8.4844	2.6364	0.1	3792.8
27061	8.5767	2.5455	0.1	3766.8
27062	8.4844	2.8182	0.1	3792.3
27063	8.5767	2.7273	0.1	3766.3
27064	8.4844	3.	0.1	3792.2
27065	8.5767	2.9091	0.1	3766.
27066	8.4844	3.1818	0.1	3792.3
27067	8.5767	3.0909	0.1	3766.
27068	8.4844	3.3636	0.1	3792.8
27069	8.5767	3.2727	0.1	3766.3
27070	8.4844	3.5455	0.1	3793.5
27071	8.5767	3.4545	0.1	3766.8
27072	8.4844	3.7273	0.1	3794.5
27073	8.5767	3.6364	0.1	3767.7
27074	8.4844	3.9091	0.1	3795.8
27075	8.5767	3.8182	0.1	3768.8
27076	8.4844	4.0909	0.1	3797.3
27077	8.5767	4.	0.1	3770.1
27078	8.4844	4.2727	0.1	3799.1
27079	8.5767	4.1818	0.1	3771.7
27080	8.4844	4.4545	0.1	3801.2
27081	8.5767	4.3636	0.1	3773.6
27082	8.4844	4.6364	0.1	3803.4
27083	8.5767	4.5455	0.1	3775.6
27084	8.4844	4.8182	0.1	3805.8
27085	8.5767	4.7273	0.1	3777.9
27086	8.4844	5.	0.1	3808.5
27087	8.5767	4.9091	0.1	3780.3
27088	8.4844	5.1818	0.1	3811.2
27089	8.5767	5.0909	0.1	3783.
27090	8.4844	5.3636	0.1	3814.2
27091	8.5767	5.2727	0.1	3785.7
27092	8.4844	5.5455	0.1	3817.2
27093	8.5767	5.4545	0.1	3788.6
27094	8.4844	5.7273	0.1	3820.8
27095	8.5767	5.6364	0.1	3791.6
27096	8.5767	5.8182	0.1	3795.5
27097	8.4844	5.9091	0.1	3821.7
27098	8.6689	0.27273	0.1	3766.3
27099	8.7611	0.18182	0.1	3741.1
27100	8.6689	9.0909e-002	0.1	3767.
27101	8.6689	0.45455	0.1	3763.
27102	8.7611	0.36364	0.1	3737.4
27103	8.6689	0.63636	0.1	3760.1
27104	8.7611	0.54545	0.1	3734.6
27105	8.6689	0.81818	0.1	3757.4
27106	8.7611	0.72727	0.1	3731.9
27107	8.6689	1.	0.1	3754.8
27108	8.7611	0.90909	0.1	3729.3
27109	8.6689	1.1818	0.1	3752.4
27110	8.7611	1.0909	0.1	3726.9
27111	8.6689	1.3636	0.1	3750.1
27112	8.7611	1.2727	0.1	3724.7
27113	8.6689	1.5455	0.1	3748.1
27114	8.7611	1.4545	0.1	3722.6
27115	8.6689	1.7273	0.1	3746.2
27116	8.7611	1.6364	0.1	3720.7
27117	8.6689	1.9091	0.1	3744.5
27118	8.7611	1.8182	0.1	3719.
27119	8.6689	2.0909	0.1	3743.1
27120	8.7611	2.	0.1	3717.5
27121	8.6689	2.2727	0.1	3741.9
27122	8.7611	2.1818	0.1	3716.2
27123	8.6689	2.4545	0.1	3741.
27124	8.7611	2.3636	0.1	3715.2
27125	8.6689	2.6364	0.1	3740.3
27126	8.7611	2.5455	0.1	3714.4
27127	8.6689	2.8182	0.1	3739.9
27128	8.7611	2.7273	0.1	3713.9
27129	8.6689	3.	0.1	3739.8
27130	8.7611	2.9091	0.1	3713.7
27131	8.6689	3.1818	0.1	3739.9
27132	8.7611	3.0909	0.1	3713.7
27133	8.6689	3.3636	0.1	3740.3
27134	8.7611	3.2727	0.1	3713.9
27135	8.6689	3.5455	0.1	3741.
27136	8.7611	3.4545	0.1	3714.4
27137	8.6689	3.7273	0.1	3741.9
27138	8.7611	3.6364	0.1	3715.2
27139	8.6689	3.9091	0.1	3743.1
27140	8.7611	3.8182	0.1	3716.2
27141	8.6689	4.0909	0.1	3744.5
27142	8.7611	4.	0.1	3717.5
27143	8.6689	4.2727	0.1	3746.2
27144	8.7611	4.1818	0.1	3719.
27145	8.6689	4.4545	0.1	3748.1
27146	8.7611	4.3636	0.1	3720.7
27147	8.6689	4.6364	0.1	3750.1
27148	8.7611	4.5455	0.1	3722.6
27149	8.6689	4.8182	0.1	3752.4
27150	8.7611	4.7273	0.1	3724.7
27151	8.6689	5.	0.1	3754.8
27152	8.7611	4.9091	0.1	3726.9
27153	8.6689	5.1818	0.1	3757.4
27154	8.7611	5.0909	0.1	3729.3
27155	8.6689	5.3636	0.1	3760.1
27156	8.7611	5.2727	0.1	3731.9
27157	8.6689	5.5455	0.1	3763.
27158	8.7611	5.4545	0.1	3734.6
27159	8.6689	5.7273	0.1	3766.3
27160	8.7611	5.6364	0.1	3737.4
27161	8.7611	5.8182	0.1	3741.1
27162	8.6689	5.9091	0.1	3767.
27163	8.8533	0.27273	0.1	3712.1
27164	8.9456	0.18182	0.1	3687.
27165	8.8533	9.0909e-002	0.1	3712.5
27166	8.8533	0.45455	0.1	3709.
27167	8.9456	0.36364	0.1	3683.4
27168	8.8533	0.63636	0.1	3706.3
27169	8.9456	0.54545	0.1	3680.8
27170	8.8533	0.81818	0.1	3703.8
27171	8.9456	0.72727	0.1	3678.3
27172	8.8533	1.	0.1	3701.4
27173	8.9456	0.90909	0.1	3675.9
27174	8.8533	1.1818	0.1	3699.2
27175	8.9456	1.0909	0.1	3673.7
27176	8.8533	1.3636	0.1	3697.1
27177	8.9456	1.2727	0.1	3671.6
27178	8.8533	1.5455	0.1	3695.2
27179	8.9456	1.4545	0.1	3669.7
27180	8.8533	1.7273	0.1	3693.4
27181	8.9456	1.6364	0.1	3667.9
27182	8.8533	1.9091	0.1	3691.9
27183	8.9456	1.8182	0.1	3666.4
27184	8.8533	2.0909	0.1	3690.6
27185	8.9456	2.	0.1	3665.
27186	8.8533	2.2727	0.1	3689.5
27187	8.9456	2.1818	0.1	3663.8
27188	8.8533	2.4545	0.1	3688.6
27189	8.9456	2.3636	0.1	3662.9
27190	8.8533	2.6364	0.1	3688.
27191	8.9456	2.5455	0.1	3662.2
27192	8.8533	2.8182	0.1	3687.7
27193	8.9456	2.7273	0.1	3661.7
27194	8.8533	3.	0.1	3687.5
27195	8.9456	2.9091	0.1	3661.5
27196	8.8533	3.1818	0.1	3687.7
27197	8.9456	3.0909	0.1	3661.5
27198	8.8533	3.3636	0.1	3688.
27199	8.9456	3.2727	0.1	3661.7
27200	8.8533	3.5455	0.1	3688.6
27201	8.9456	3.4545	0.1	3662.2
27202	8.8533	3.7273	0.1	3689.5
27203	8.9456	3.6364	0.1	3662.9
27204	8.8533	3.9091	0.1	3690.6
27205	8.9456	3.8182	0.1	3663.8
27206	8.8533	4.0909	0.1	3691.9
27207	8.9456	4.	0.1	3665.
27208	8.8533	4.2727	0.1	3693.4
27209	8.9456	4.1818	0.1	3666.4
27210	8.8533	4.4545	0.1	3695.2
27211	8.9456	4.3636	0.1	3667.9
27212	8.8533	4.6364	0.1	3697.1
27213	8.9456	4.5455	0.1	3669.7
27214	8.8533	4.8182	0.1	3699.2
27215	8.9456	4.7273	0.1	3671.6
27216	8.8533	5.	0.1	3701.4
27217	8.9456	4.9091	0.1	3673.7
27218	8.8533	5.1818	0.1	3703.8
27219	8.9456	5.0909	0.1	3675.9
27220	8.8533	5.3636	0.1	3706.3
27221	8.9456	5.2727	0.1	3678.3
27222	8.8533	5.5455	0.1	3709.
27223	8.9456	5.4545	0.1	3680.8
27224	8.8533	5.7273	0.1	3712.1
27225	8.9456	5.6364	0.1	3683.4
27226	8.9456	5.8182	0.1	3687.
27227	8.8533	5.9091	0.1	3712.5
27228	9.0378	0.27273	0.1	3658.2
27229	9.13	0.18182	0.1	3633.1
27230	9.0378	9.0909e-002	0.1	3658.3
27231	9.0378	0.45455	0.1	3655.2
27232	9.13	0.36364	0.1	3629.7
27233	9.0378	0.63636	0.1	3652.8
27234	9.13	0.54545	0.1	3627.3
27235	9.0378	0.81818	0.1	3650.4
27236	9.13	0.72727	0.1	3624.9
27237	9.0378	1.	0.1	3648.2
27238	9.13	0.90909	0.1	3622.7
27239	9.0378	1.1818	0.1	3646.1
27240	9.13	1.0909	0.1	3620.7
27241	9.0378	1.3636	0.1	3644.2
27242	9.13	1.2727	0.1	3618.8
27243	9.0378	1.5455	0.1	3642.4
27244	9.13	1.4545	0.1	3617.
27245	9.0378	1.7273	0.1	3640.8
27246	9.13	1.6364	0.1	3615.4
27247	9.0378	1.9091	0.1	3639.4
27248	9.13	1.8182	0.1	3613.9
27249	9.0378	2.0909	0.1	3638.2
27250	9.13	2.	0.1	3612.7
27251	9.0378	2.2727	0.1	3637.2
27252	9.13	2.1818	0.1	3611.6
27253	9.0378	2.4545	0.1	3636.4
27254	9.13	2.3636	0.1	3610.7
27255	9.0378	2.6364	0.1	3635.9
27256	9.13	2.5455	0.1	3610.1
27257	9.0378	2.8182	0.1	3635.5
27258	9.13	2.7273	0.1	3609.6
27259	9.0378	3.	0.1	3635.4
27260	9.13	2.9091	0.1	3609.4
27261	9.0378	3.1818	0.1	3635.5
27262	9.13	3.0909	0.1	3609.4
27263	9.0378	3.3636	0.1	3635.9
27264	9.13	3.2727	0.1	3609.6
27265	9.0378	3.5455	0.1	3636.4
27266	9.13	3.4545	0.1	3610.1
27267	9.0378	3.7273	0.1	3637.2
27268	9.13	3.6364	0.1	3610.7
27269	9.0378	3.9091	0.1	3638.2
27270	9.13	3.8182	0.1	3611.6
27271	9.0378	4.0909	0.1	3639.4
27272	9.13	4.	0.1	3612.7
27273	9.0378	4.2727	0.1	3640.8
27274	9.13	4.1818	0.1	3613.9
27275	9.0378	4.4545	0.1	3642.4
27276	9.13	4.3636	0.1	3615.4
27277	9.0378	4.6364	0.1	3644.2
27278	9.13	4.5455	0.1	3617.
27279	9.0378	4.8182	0.1	3646.1
27280	9.13	4.7273	0.1	3618.8
27281	9.0378	5.	0.1	3648.2
27282	9.13	4.9091	0.1	3620.7
27283	9.0378	5.1818	0.1	3650.4
27284	9.13	5.0909	0.1	3622.7
27285	9.0378	5.3636	0.1	3652.8
27286	9.13	5.2727	0.1	3624.9
27287	9.0378	5.5455	0.1	3655.2
27288	9.13	5.4545	0.1	3627.3
27289	9.0378	5.7273	0.1	3658.2
27290	9.13	5.6364	0.1	3629.7
27291	9.13	5.8182	0.1	3633.1
27292	9.0378	5.9091	0.1	3658.3
27293	9.2222	0.27273	0.1	3604.5
27294	9.3144	0.18182	0.1	3579.5
27295	9.2222	9.0909e-002	0.1	3604.4
27296	9.2222	0.45455	0.1	3601.7
27297	9.3144	0.36364	0.1	3576.2
27298	9.2222	0.63636	0.1	3599.4
27299	9.3144	0.54545	0.1	3573.9
27300	9.2222	0.81818	0.1	3597.3
27301	9.3144	0.72727	0.1	3571.8
27302	9.2222	1.	0.1	3595.2
27303	9.3144	0.90909	0.1	3569.8
27304	9.2222	1.1818	0.1	3593.3
27305	9.3144	1.0909	0.1	3567.9
27306	9.2222	1.3636	0.1	3591.5
27307	9.3144	1.2727	0.1	3566.1
27308	9.2222	1.5455	0.1	3589.9
27309	9.3144	1.4545	0.1	3564.5
27310	9.2222	1.7273	0.1	3588.4
27311	9.3144	1.6364	0.1	3563.
27312	9.2222	1.9091	0.1	3587.1
27313	9.3144	1.8182	0.1	3561.7
27314	9.2222	2.0909	0.1	3586.
27315	9.3144	2.	0.1	3560.5
27316	9.2222	2.2727	0.1	3585.1
27317	9.3144	2.1818	0.1	3559.5
27318	9.2222	2.4545	0.1	3584.4
27319	9.3144	2.3636	0.1	3558.7
27320	9.2222	2.6364	0.1	3583.9
27321	9.3144	2.5455	0.1	3558.1
27322	9.2222	2.8182	0.1	3583.5
27323	9.3144	2.7273	0.1	3557.7
27324	9.2222	3.	0.1	3583.4
27325	9.3144	2.9091	0.1	3557.5
27326	9.2222	3.1818	0.1	3583.5
27327	9.3144	3.0909	0.1	3557.5
27328	9.2222	3.3636	0.1	3583.9
27329	9.3144	3.2727	0.1	3557.7
27330	9.2222	3.5455	0.1	3584.4
27331	9.3144	3.4545	0.1	3558.1
27332	9.2222	3.7273	0.1	3585.1
27333	9.3144	3.6364	0.1	3558.7
27334	9.2222	3.9091	0.1	3586.
27335	9.3144	3.8182	0.1	3559.5
27336	9.2222	4.0909	0.1	3587.1
27337	9.3144	4.	0.1	3560.5
27338	9.2222	4.2727	0.1	3588.4
27339	9.3144	4.1818	0.1	3561.7
27340	9.2222	4.4545	0.1	3589.9
27341	9.3144	4.3636	0.1	3563.
27342	9.2222	4.6364	0.1	3591.5
27343	9.3144	4.5455	0.1	3564.5
27344	9.2222	4.8182	0.1	3593.3
27345	9.3144	4.7273	0.1	3566.1
27346	9.2222	5.	0.1	3595.2
27347	9.3144	4.9091	0.1	3567.9
27348	9.2222	5.1818	0.1	3597.3
27349	9.3144	5.0909	0.1	3569.8
27350	9.2222	5.3636	0.1	3599.4
27351	9.3144	5.2727	0.1	3571.8
27352	9.2222	5.5455	0.1	3601.7
27353	9.3144	5.4545	0.1	3573.9
27354	9.2222	5.7273	0.1	3604.5
27355	9.3144	5.6364	0.1	3576.2
27356	9.3144	5.8182	0.1	3579.5
27357	9.2222	5.9091	0.1	3604.4
27358	9.4067	0.27273	0.1	3551.1
27359	9.4989	0.18182	0.1	3526.1
27360	9.4067	9.0909e-002	0.1	3550.7
27361	9.4067	0.45455	0.1	3548.4
27362	9.4989	0.36364	0.1	3523.
27363	9.4067	0.63636	0.1	3546.3
27364	9.4989	0.54545	0.1	3520.9
27365	9.4067	0.81818	0.1	3544.3
27366	9.4989	0.72727	0.1	3518.9
27367	9.4067	1.	0.1	3542.4
27368	9.4989	0.90909	0.1	3517.
27369	9.4067	1.1818	0.1	3540.7
27370	9.4989	1.0909	0.1	3515.3
27371	9.4067	1.3636	0.1	3539.
27372	9.4989	1.2727	0.1	3513.6
27373	9.4067	1.5455	0.1	3537.5
27374	9.4989	1.4545	0.1	3512.1
27375	9.4067	1.7273	0.1	3536.2
27376	9.4989	1.6364	0.1	3510.8
27377	9.4067	1.9091	0.1	3535.
27378	9.4989	1.8182	0.1	3509.6
27379	9.4067	2.0909	0.1	3534.
27380	9.4989	2.	0.1	3508.5
27381	9.4067	2.2727	0.1	3533.1
27382	9.4989	2.1818	0.1	3507.6
27383	9.4067	2.4545	0.1	3532.5
27384	9.4989	2.3636	0.1	3506.9
27385	9.4067	2.6364	0.1	3532.
27386	9.4989	2.5455	0.1	3506.3
27387	9.4067	2.8182	0.1	3531.7
27388	9.4989	2.7273	0.1	3506.
27389	9.4067	3.	0.1	3531.6
27390	9.4989	2.9091	0.1	3505.8
27391	9.4067	3.1818	0.1	3531.7
27392	9.4989	3.0909	0.1	3505.8
27393	9.4067	3.3636	0.1	3532.
27394	9.4989	3.2727	0.1	3506.
27395	9.4067	3.5455	0.1	3532.5
27396	9.4989	3.4545	0.1	3506.3
27397	9.4067	3.7273	0.1	3533.1
27398	9.4989	3.6364	0.1	3506.9
27399	9.4067	3.9091	0.1	3534.
27400	9.4989	3.8182	0.1	3507.6
27401	9.4067	4.0909	0.1	3535.
27402	9.4989	4.	0.1	3508.5
27403	9.4067	4.2727	0.1	3536.2
27404	9.4989	4.1818	0.1	3509.6
27405	9.4067	4.4545	0.1	3537.5
27406	9.4989	4.3636	0.1	3510.8
27407	9.4067	4.6364	0.1	3539.
27408	9.4989	4.5455	0.1	3512.1
27409	9.4067	4.8182	0.1	3540.7
27410	9.4989	4.7273	0.1	3513.6
27411	9.4067	5.	0.1	3542.4
27412	9.4989	4.9091	0.1	3515.3
27413	9.4067	5.1818	0.1	3544.3
27414	9.4989	5.0909	0.1	3517.
27415	9.4067	5.3636	0.1	3546.3
27416	9.4989	5.2727	0.1	3518.9
27417	9.4067	5.5455	0.1	3548.4
27418	9.4989	5.4545	0.1	3520.9
27419	9.4067	5.7273	0.1	3551.1
27420	9.4989	5.6364	0.1	3523.
27421	9.4989	5.8182	0.1	3526.1
27422	9.4067	5.9091	0.1	3550.7
27423	9.5911	0.27273	0.1	3497.9
27424	9.6833	0.18182	0.1	3473.
27425	9.5911	9.0909e-002	0.1	3497.3
27426	9.5911	0.45455	0.1	3495.4
27427	9.6833	0.36364	0.1	3470.
27428	9.5911	0.63636	0.1	3493.4
27429	9.6833	0.54545	0.1	3468.
27430	9.5911	0.81818	0.1	3491.6
27431	9.6833	0.72727	0.1	3466.2
27432	9.5911	1.	0.1	3489.8
27433	9.6833	0.90909	0.1	3464.5
27434	9.5911	1.1818	0.1	3488.2
27435	9.6833	1.0909	0.1	3462.9
27436	9.5911	1.3636	0.1	3486.7
27437	9.6833	1.2727	0.1	3461.4
27438	9.5911	1.5455	0.1	3485.4
27439	9.6833	1.4545	0.1	3460.
27440	9.5911	1.7273	0.1	3484.1
27441	9.6833	1.6364	0.1	3458.8
27442	9.5911	1.9091	0.1	3483.1
27443	9.6833	1.8182	0.1	3457.7
27444	9.5911	2.0909	0.1	3482.1
27445	9.6833	2.	0.1	3456.7
27446	9.5911	2.2727	0.1	3481.4
27447	9.6833	2.1818	0.1	3455.9
27448	9.5911	2.4545	0.1	3480.7
27449	9.6833	2.3636	0.1	3455.2
27450	9.5911	2.6364	0.1	3480.3
27451	9.6833	2.5455	0.1	3454.7
27452	9.5911	2.8182	0.1	3480.
27453	9.6833	2.7273	0.1	3454.4
27454	9.5911	3.	0.1	3480.
27455	9.6833	2.9091	0.1	3454.2
27456	9.5911	3.1818	0.1	3480.
27457	9.6833	3.0909	0.1	3454.2
27458	9.5911	3.3636	0.1	3480.3
27459	9.6833	3.2727	0.1	3454.4
27460	9.5911	3.5455	0.1	3480.7
27461	9.6833	3.4545	0.1	3454.7
27462	9.5911	3.7273	0.1	3481.4
27463	9.6833	3.6364	0.1	3455.2
27464	9.5911	3.9091	0.1	3482.1
27465	9.6833	3.8182	0.1	3455.9
27466	9.5911	4.0909	0.1	3483.1
27467	9.6833	4.	0.1	3456.7
27468	9.5911	4.2727	0.1	3484.1
27469	9.6833	4.1818	0.1	3457.7
27470	9.5911	4.4545	0.1	3485.4
27471	9.6833	4.3636	0.1	3458.8
27472	9.5911	4.6364	0.1	3486.7
27473	9.6833	4.5455	0.1	3460.
27474	9.5911	4.8182	0.1	3488.2
27475	9.6833	4.7273	0.1	3461.4
27476	9.5911	5.	0.1	3489.8
27477	9.6833	4.9091	0.1	3462.9
27478	9.5911	5.1818	0.1	3491.6
27479	9.6833	5.0909	0.1	3464.5
27480	9.5911	5.3636	0.1	3493.4
27481	9.6833	5.2727	0.1	3466.2
27482	9.5911	5.5455	0.1	3495.4
27483	9.6833	5.4545	0.1	3468.
27484	9.5911	5.7273	0.1	3497.9
27485	9.6833	5.6364	0.1	3470.
27486	9.6833	5.8182	0.1	3473.
27487	9.5911	5.9091	0.1	3497.3
27488	9.7756	0.27273	0.1	3444.9
27489	9.8678	0.18182	0.1	3420.
27490	9.7756	9.0909e-002	0.1	3444.1
27491	9.7756	0.45455	0.1	3442.5
27492	9.8678	0.36364	0.1	3417.1
27493	9.7756	0.63636	0.1	3440.7
27494	9.8678	0.54545	0.1	3415.3
27495	9.7756	0.81818	0.1	3439.
27496	9.8678	0.72727	0.1	3413.7
27497	9.7756	1.	0.1	3437.5
27498	9.8678	0.90909	0.1	3412.1
27499	9.7756	1.1818	0.1	3436.
27500	9.8678	1.0909	0.1	3410.7
27501	9.7756	1.3636	0.1	3434.6
27502	9.8678	1.2727	0.1	3409.3
27503	9.7756	1.5455	0.1	3433.4
27504	9.8678	1.4545	0.1	3408.1
27505	9.7756	1.7273	0.1	3432.3
27506	9.8678	1.6364	0.1	3406.9
27507	9.7756	1.9091	0.1	3431.3
27508	9.8678	1.8182	0.1	3405.9
27509	9.7756	2.0909	0.1	3430.4
27510	9.8678	2.	0.1	3405.1
27511	9.7756	2.2727	0.1	3429.7
27512	9.8678	2.1818	0.1	3404.3
27513	9.7756	2.4545	0.1	3429.2
27514	9.8678	2.3636	0.1	3403.7
27515	9.7756	2.6364	0.1	3428.8
27516	9.8678	2.5455	0.1	3403.3
27517	9.7756	2.8182	0.1	3428.5
27518	9.8678	2.7273	0.1	3403.
27519	9.7756	3.	0.1	3428.5
27520	9.8678	2.9091	0.1	3402.8
27521	9.7756	3.1818	0.1	3428.5
27522	9.8678	3.0909	0.1	3402.8
27523	9.7756	3.3636	0.1	3428.8
27524	9.8678	3.2727	0.1	3403.
27525	9.7756	3.5455	0.1	3429.2
27526	9.8678	3.4545	0.1	3403.3
27527	9.7756	3.7273	0.1	3429.7
27528	9.8678	3.6364	0.1	3403.7
27529	9.7756	3.9091	0.1	3430.4
27530	9.8678	3.8182	0.1	3404.3
27531	9.7756	4.0909	0.1	3431.3
27532	9.8678	4.	0.1	3405.1
27533	9.7756	4.2727	0.1	3432.3
27534	9.8678	4.1818	0.1	3405.9
27535	9.7756	4.4545	0.1	3433.4
27536	9.8678	4.3636	0.1	3406.9
27537	9.7756	4.6364	0.1	3434.6
27538	9.8678	4.5455	0.1	3408.1
27539	9.7756	4.8182	0.1	3436.
27540	9.8678	4.7273	0.1	3409.3
27541	9.7756	5.	0.1	3437.5
27542	9.8678	4.9091	0.1	3410.7
27543	9.7756	5.1818	0.1	3439.
27544	9.8678	5.0909	0.1	3412.1
27545	9.7756	5.3636	0.1	3440.7
27546	9.8678	5.2727	0.1	3413.7
27547	9.7756	5.5455	0.1	3442.5
27548	9.8678	5.4545	0.1	3415.3
27549	9.7756	5.7273	0.1	3444.9
27550	9.8678	5.6364	0.1	3417.1
27551	9.8678	5.8182	0.1	3420.
27552	9.7756	5.9091	0.1	3444.1
27553	9.96	0.27273	0.1	3392.2
27554	10.052	0.18182	0.1	3367.3
27555	9.96	9.0909e-002	0.1	3391.1
27556	9.96	0.45455	0.1	3389.9
27557	10.052	0.36364	0.1	3364.5
27558	9.96	0.63636	0.1	3388.3
27559	10.052	0.54545	0.1	3362.9
27560	9.96	0.81818	0.1	3386.7
27561	10.052	0.72727	0.1	3361.4
27562	9.96	1.	0.1	3385.3
27563	10.052	0.90909	0.1	3360.
27564	9.96	1.1818	0.1	3384.
27565	10.052	1.0909	0.1	3358.6
27566	9.96	1.3636	0.1	3382.7
27567	10.052	1.2727	0.1	3357.4
27568	9.96	1.5455	0.1	3381.6
27569	10.052	1.4545	0.1	3356.3
27570	9.96	1.7273	0.1	3380.6
27571	10.052	1.6364	0.1	3355.3
27572	9.96	1.9091	0.1	3379.7
27573	10.052	1.8182	0.1	3354.4
27574	9.96	2.0909	0.1	3378.9
27575	10.052	2.	0.1	3353.6
27576	9.96	2.2727	0.1	3378.3
27577	10.052	2.1818	0.1	3353.
27578	9.96	2.4545	0.1	3377.8
27579	10.052	2.3636	0.1	3352.4
27580	9.96	2.6364	0.1	3377.4
27581	10.052	2.5455	0.1	3352.
27582	9.96	2.8182	0.1	3377.2
27583	10.052	2.7273	0.1	3351.7
27584	9.96	3.	0.1	3377.2
27585	10.052	2.9091	0.1	3351.6
27586	9.96	3.1818	0.1	3377.2
27587	10.052	3.0909	0.1	3351.6
27588	9.96	3.3636	0.1	3377.4
27589	10.052	3.2727	0.1	3351.7
27590	9.96	3.5455	0.1	3377.8
27591	10.052	3.4545	0.1	3352.
27592	9.96	3.7273	0.1	3378.3
27593	10.052	3.6364	0.1	3352.4
27594	9.96	3.9091	0.1	3378.9
27595	10.052	3.8182	0.1	3353.
27596	9.96	4.0909	0.1	3379.7
27597	10.052	4.	0.1	3353.6
27598	9.96	4.2727	0.1	3380.6
27599	10.052	4.1818	0.1	3354.4
27600	9.96	4.4545	0.1	3381.6
27601	10.052	4.3636	0.1	3355.3
27602	9.96	4.6364	0.1	3382.7
27603	10.052	4.5455	0.1	3356.3
27604	9.96	4.8182	0.1	3384.
27605	10.052	4.7273	0.1	3357.4
27606	9.96	5.	0.1	3385.3
27607	10.052	4.9091	0.1	3358.6
27608	9.96	5.1818	0.1	3386.7
27609	10.052	5.0909	0.1	3360.
27610	9.96	5.3636	0.1	3388.3
27611	10.052	5.2727	0.1	3361.4
27612	9.96	5.5455	0.1	3389.9
27613	10.052	5.4545	0.1	3362.9
27614	9.96	5.7273	0.1	3392.2
27615	10.052	5.6364	0.1	3364.5
27616	10.052	5.8182	0.1	3367.3
27617	9.96	5.9091	0.1	3391.1
27618	10.144	0.27273	0.1	3339.6
27619	10.237	0.18182	0.1	3314.8
27620	10.144	9.0909e-002	0.1	3338.3
27621	10.144	0.45455	0.1	3337.5
27622	10.237	0.36364	0.1	3312.1
27623	10.144	0.63636	0.1	3336.
27624	10.237	0.54545	0.1	3310.6
27625	10.144	0.81818	0.1	3334.6
27626	10.237	0.72727	0.1	3309.3
27627	10.144	1.	0.1	3333.3
27628	10.237	0.90909	0.1	3308.
27629	10.144	1.1818	0.1	3332.1
27630	10.237	1.0909	0.1	3306.8
27631	10.144	1.3636	0.1	3331.
27632	10.237	1.2727	0.1	3305.7
27633	10.144	1.5455	0.1	3330.
27634	10.237	1.4545	0.1	3304.8
27635	10.144	1.7273	0.1	3329.1
27636	10.237	1.6364	0.1	3303.9
27637	10.144	1.9091	0.1	3328.3
27638	10.237	1.8182	0.1	3303.1
27639	10.144	2.0909	0.1	3327.6
27640	10.237	2.	0.1	3302.4
27641	10.144	2.2727	0.1	3327.1
27642	10.237	2.1818	0.1	3301.8
27643	10.144	2.4545	0.1	3326.6
27644	10.237	2.3636	0.1	3301.3
27645	10.144	2.6364	0.1	3326.3
27646	10.237	2.5455	0.1	3300.9
27647	10.144	2.8182	0.1	3326.1
27648	10.237	2.7273	0.1	3300.7
27649	10.144	3.	0.1	3326.
27650	10.237	2.9091	0.1	3300.6
27651	10.144	3.1818	0.1	3326.1
27652	10.237	3.0909	0.1	3300.6
27653	10.144	3.3636	0.1	3326.3
27654	10.237	3.2727	0.1	3300.7
27655	10.144	3.5455	0.1	3326.6
27656	10.237	3.4545	0.1	3300.9
27657	10.144	3.7273	0.1	3327.1
27658	10.237	3.6364	0.1	3301.3
27659	10.144	3.9091	0.1	3327.6
27660	10.237	3.8182	0.1	3301.8
27661	10.144	4.0909	0.1	3328.3
27662	10.237	4.	0.1	3302.4
27663	10.144	4.2727	0.1	3329.1
27664	10.237	4.1818	0.1	3303.1
27665	10.144	4.4545	0.1	3330.
27666	10.237	4.3636	0.1	3303.9
27667	10.144	4.6364	0.1	3331.
27668	10.237	4.5455	0.1	3304.8
27669	10.144	4.8182	0.1	3332.1
27670	10.237	4.7273	0.1	3305.7
27671	10.144	5.	0.1	3333.3
27672	10.237	4.9091	0.1	3306.8
27673	10.144	5.1818	0.1	3334.6
27674	10.237	5.0909	0.1	3308.
27675	10.144	5.3636	0.1	3336.
27676	10.237	5.2727	0.1	3309.3
27677	10.144	5.5455	0.1	3337.5
27678	10.237	5.4545	0.1	3310.6
27679	10.144	5.7273	0.1	3339.6
27680	10.237	5.6364	0.1	3312.1
27681	10.237	5.8182	0.1	3314.8
27682	10.144	5.9091	0.1	3338.3
27683	10.329	0.27273	0.1	3287.2
27684	10.421	0.18182	0.1	3262.4
27685	10.329	9.0909e-002	0.1	3285.7
27686	10.329	0.45455	0.1	3285.2
27687	10.421	0.36364	0.1	3259.9
27688	10.329	0.63636	0.1	3283.9
27689	10.421	0.54545	0.1	3258.5
27690	10.329	0.81818	0.1	3282.6
27691	10.421	0.72727	0.1	3257.3
27692	10.329	1.	0.1	3281.5
27693	10.421	0.90909	0.1	3256.2
27694	10.329	1.1818	0.1	3280.5
27695	10.421	1.0909	0.1	3255.2
27696	10.329	1.3636	0.1	3279.5
27697	10.421	1.2727	0.1	3254.3
27698	10.329	1.5455	0.1	3278.6
27699	10.421	1.4545	0.1	3253.4
27700	10.329	1.7273	0.1	3277.8
27701	10.421	1.6364	0.1	3252.6
27702	10.329	1.9091	0.1	3277.1
27703	10.421	1.8182	0.1	3251.9
27704	10.329	2.0909	0.1	3276.5
27705	10.421	2.	0.1	3251.3
27706	10.329	2.2727	0.1	3276.
27707	10.421	2.1818	0.1	3250.8
27708	10.329	2.4545	0.1	3275.6
27709	10.421	2.3636	0.1	3250.4
27710	10.329	2.6364	0.1	3275.3
27711	10.421	2.5455	0.1	3250.
27712	10.329	2.8182	0.1	3275.1
27713	10.421	2.7273	0.1	3249.8
27714	10.329	3.	0.1	3275.1
27715	10.421	2.9091	0.1	3249.7
27716	10.329	3.1818	0.1	3275.1
27717	10.421	3.0909	0.1	3249.7
27718	10.329	3.3636	0.1	3275.3
27719	10.421	3.2727	0.1	3249.8
27720	10.329	3.5455	0.1	3275.6
27721	10.421	3.4545	0.1	3250.
27722	10.329	3.7273	0.1	3276.
27723	10.421	3.6364	0.1	3250.4
27724	10.329	3.9091	0.1	3276.5
27725	10.421	3.8182	0.1	3250.8
27726	10.329	4.0909	0.1	3277.1
27727	10.421	4.	0.1	3251.3
27728	10.329	4.2727	0.1	3277.8
27729	10.421	4.1818	0.1	3251.9
27730	10.329	4.4545	0.1	3278.6
27731	10.421	4.3636	0.1	3252.6
27732	10.329	4.6364	0.1	3279.5
27733	10.421	4.5455	0.1	3253.4
27734	10.329	4.8182	0.1	3280.5
27735	10.421	4.7273	0.1	3254.3
27736	10.329	5.	0.1	3281.5
27737	10.421	4.9091	0.1	3255.2
27738	10.329	5.1818	0.1	3282.6
27739	10.421	5.0909	0.1	3256.2
27740	10.329	5.3636	0.1	3283.9
27741	10.421	5.2727	0.1	3257.3
27742	10.329	5.5455	0.1	3285.2
27743	10.421	5.4545	0.1	3258.5
27744	10.329	5.7273	0.1	3287.2
27745	10.421	5.6364	0.1	3259.9
27746	10.421	5.8182	0.1	3262.4
27747	10.329	5.9091	0.1	3285.7
27748	10.513	0.27273	0.1	3235.
27749	10.606	0.18182	0.1	3210.2
27750	10.513	9.0909e-002	0.1	3233.3
27751	10.513	0.45455	0.1	3233.2
27752	10.606	0.36364	0.1	3207.8
27753	10.513	0.63636	0.1	3232.
27754	10.606	0.54545	0.1	3206.6
27755	10.513	0.81818	0.1	3230.9
27756	10.606	0.72727	0.1	3205.6
27757	10.513	1.	0.1	3229.9
27758	10.606	0.90909	0.1	3204.6
27759	10.513	1.1818	0.1	3229.
27760	10.606	1.0909	0.1	3203.8
27761	10.513	1.3636	0.1	3228.1
27762	10.606	1.2727	0.1	3203.
27763	10.513	1.5455	0.1	3227.4
27764	10.606	1.4545	0.1	3202.2
27765	10.513	1.7273	0.1	3226.7
27766	10.606	1.6364	0.1	3201.6
27767	10.513	1.9091	0.1	3226.1
27768	10.606	1.8182	0.1	3201.
27769	10.513	2.0909	0.1	3225.6
27770	10.606	2.	0.1	3200.5
27771	10.513	2.2727	0.1	3225.1
27772	10.606	2.1818	0.1	3200.
27773	10.513	2.4545	0.1	3224.8
27774	10.606	2.3636	0.1	3199.7
27775	10.513	2.6364	0.1	3224.6
27776	10.606	2.5455	0.1	3199.4
27777	10.513	2.8182	0.1	3224.4
27778	10.606	2.7273	0.1	3199.2
27779	10.513	3.	0.1	3224.4
27780	10.606	2.9091	0.1	3199.1
27781	10.513	3.1818	0.1	3224.4
27782	10.606	3.0909	0.1	3199.1
27783	10.513	3.3636	0.1	3224.6
27784	10.606	3.2727	0.1	3199.2
27785	10.513	3.5455	0.1	3224.8
27786	10.606	3.4545	0.1	3199.4
27787	10.513	3.7273	0.1	3225.1
27788	10.606	3.6364	0.1	3199.7
27789	10.513	3.9091	0.1	3225.6
27790	10.606	3.8182	0.1	3200.
27791	10.513	4.0909	0.1	3226.1
27792	10.606	4.	0.1	3200.4
27793	10.513	4.2727	0.1	3226.7
27794	10.606	4.1818	0.1	3201.
27795	10.513	4.4545	0.1	3227.4
27796	10.606	4.3636	0.1	3201.6
27797	10.513	4.6364	0.1	3228.1
27798	10.606	4.5455	0.1	3202.2
27799	10.513	4.8182	0.1	3229.
27800	10.606	4.7273	0.1	3203.
27801	10.513	5.	0.1	3229.9
27802	10.606	4.9091	0.1	3203.8
27803	10.513	5.1818	0.1	3230.9
27804	10.606	5.0909	0.1	3204.6
27805	10.513	5.3636	0.1	3232.
27806	10.606	5.2727	0.1	3205.6
27807	10.513	5.5455	0.1	3233.2
27808	10.606	5.4545	0.1	3206.6
27809	10.513	5.7273	0.1	3235.
27810	10.606	5.6364	0.1	3207.8
27811	10.606	5.8182	0.1	3210.2
27812	10.513	5.9091	0.1	3233.3
27813	10.698	0.27273	0.1	3182.9
27814	10.79	0.18182	0.1	3158.1
27815	10.698	9.0909e-002	0.1	3181.1
27816	10.698	0.45455	0.1	3181.3
27817	10.79	0.36364	0.1	3155.9
27818	10.698	0.63636	0.1	3180.2
27819	10.79	0.54545	0.1	3154.9
27820	10.698	0.81818	0.1	3179.3
27821	10.79	0.72727	0.1	3154.
27822	10.698	1.	0.1	3178.5
27823	10.79	0.90909	0.1	3153.2
27824	10.698	1.1818	0.1	3177.7
27825	10.79	1.0909	0.1	3152.5
27826	10.698	1.3636	0.1	3177.
27827	10.79	1.2727	0.1	3151.8
27828	10.698	1.5455	0.1	3176.4
27829	10.79	1.4545	0.1	3151.2
27830	10.698	1.7273	0.1	3175.8
27831	10.79	1.6364	0.1	3150.7
27832	10.698	1.9091	0.1	3175.3
27833	10.79	1.8182	0.1	3150.2
27834	10.698	2.0909	0.1	3174.9
27835	10.79	2.	0.1	3149.8
27836	10.698	2.2727	0.1	3174.5
27837	10.79	2.1818	0.1	3149.5
27838	10.698	2.4545	0.1	3174.2
27839	10.79	2.3636	0.1	3149.2
27840	10.698	2.6364	0.1	3174.
27841	10.79	2.5455	0.1	3148.9
27842	10.698	2.8182	0.1	3173.9
27843	10.79	2.7273	0.1	3148.8
27844	10.698	3.	0.1	3173.8
27845	10.79	2.9091	0.1	3148.7
27846	10.698	3.1818	0.1	3173.9
27847	10.79	3.0909	0.1	3148.7
27848	10.698	3.3636	0.1	3174.
27849	10.79	3.2727	0.1	3148.8
27850	10.698	3.5455	0.1	3174.2
27851	10.79	3.4545	0.1	3148.9
27852	10.698	3.7273	0.1	3174.5
27853	10.79	3.6364	0.1	3149.2
27854	10.698	3.9091	0.1	3174.9
27855	10.79	3.8182	0.1	3149.5
27856	10.698	4.0909	0.1	3175.3
27857	10.79	4.	0.1	3149.8
27858	10.698	4.2727	0.1	3175.8
27859	10.79	4.1818	0.1	3150.2
27860	10.698	4.4545	0.1	3176.4
27861	10.79	4.3636	0.1	3150.7
27862	10.698	4.6364	0.1	3177.
27863	10.79	4.5455	0.1	3151.2
27864	10.698	4.8182	0.1	3177.7
27865	10.79	4.7273	0.1	3151.8
27866	10.698	5.	0.1	3178.5
27867	10.79	4.9091	0.1	3152.5
27868	10.698	5.1818	0.1	3179.3
27869	10.79	5.0909	0.1	3153.2
27870	10.698	5.3636	0.1	3180.2
27871	10.79	5.2727	0.1	3154.
27872	10.698	5.5455	0.1	3181.3
27873	10.79	5.4545	0.1	3154.9
27874	10.698	5.7273	0.1	3182.9
27875	10.79	5.6364	0.1	3155.9
27876	10.79	5.8182	0.1	3158.1
27877	10.698	5.9091	0.1	3181.1
27878	10.882	0.27273	0.1	3131.
27879	10.974	0.18182	0.1	3106.2
27880	10.882	9.0909e-002	0.1	3129.
27881	10.882	0.45455	0.1	3129.5
27882	10.974	0.36364	0.1	3104.1
27883	10.882	0.63636	0.1	3128.6
27884	10.974	0.54545	0.1	3103.2
27885	10.882	0.81818	0.1	3127.9
27886	10.974	0.72727	0.1	3102.5
27887	10.882	1.	0.1	3127.2
27888	10.974	0.90909	0.1	3101.9
27889	10.882	1.1818	0.1	3126.6
27890	10.974	1.0909	0.1	3101.4
27891	10.882	1.3636	0.1	3126.1
27892	10.974	1.2727	0.1	3100.9
27893	10.882	1.5455	0.1	3125.6
27894	10.974	1.4545	0.1	3100.5
27895	10.882	1.7273	0.1	3125.1
27896	10.974	1.6364	0.1	3100.1
27897	10.882	1.9091	0.1	3124.7
27898	10.974	1.8182	0.1	3099.7
27899	10.882	2.0909	0.1	3124.4
27900	10.974	2.	0.1	3099.4
27901	10.882	2.2727	0.1	3124.1
27902	10.974	2.1818	0.1	3099.1
27903	10.882	2.4545	0.1	3123.9
27904	10.974	2.3636	0.1	3098.9
27905	10.882	2.6364	0.1	3123.7
27906	10.974	2.5455	0.1	3098.7
27907	10.882	2.8182	0.1	3123.6
27908	10.974	2.7273	0.1	3098.6
27909	10.882	3.	0.1	3123.6
27910	10.974	2.9091	0.1	3098.6
27911	10.882	3.1818	0.1	3123.6
27912	10.974	3.0909	0.1	3098.6
27913	10.882	3.3636	0.1	3123.7
27914	10.974	3.2727	0.1	3098.6
27915	10.882	3.5455	0.1	3123.9
27916	10.974	3.4545	0.1	3098.7
27917	10.882	3.7273	0.1	3124.1
27918	10.974	3.6364	0.1	3098.9
27919	10.882	3.9091	0.1	3124.4
27920	10.974	3.8182	0.1	3099.1
27921	10.882	4.0909	0.1	3124.7
27922	10.974	4.	0.1	3099.4
27923	10.882	4.2727	0.1	3125.1
27924	10.974	4.1818	0.1	3099.7
27925	10.882	4.4545	0.1	3125.6
27926	10.974	4.3636	0.1	3100.1
27927	10.882	4.6364	0.1	3126.1
27928	10.974	4.5455	0.1	3100.5
27929	10.882	4.8182	0.1	3126.6
27930	10.974	4.7273	0.1	3100.9
27931	10.882	5.	0.1	3127.2
27932	10.974	4.9091	0.1	3101.4
27933	10.882	5.1818	0.1	3127.9
27934	10.974	5.0909	0.1	3101.9
27935	10.882	5.3636	0.1	3128.6
27936	10.974	5.2727	0.1	3102.5
27937	10.882	5.5455	0.1	3129.5
27938	10.974	5.4545	0.1	3103.2
27939	10.882	5.7273	0.1	3131.
27940	10.974	5.6364	0.1	3104.1
27941	10.974	5.8182	0.1	3106.2
27942	10.882	5.9091	0.1	3129.
27943	11.067	0.27273	0.1	3079.2
27944	11.159	0.18182	0.1	3054.3
27945	11.067	9.0909e-002	0.1	3077.
27946	11.067	0.45455	0.1	3077.8
27947	11.159	0.36364	0.1	3052.4
27948	11.067	0.63636	0.1	3077.2
27949	11.159	0.54545	0.1	3051.7
27950	11.067	0.81818	0.1	3076.6
27951	11.159	0.72727	0.1	3051.2
27952	11.067	1.	0.1	3076.1
27953	11.159	0.90909	0.1	3050.8
27954	11.067	1.1818	0.1	3075.7
27955	11.159	1.0909	0.1	3050.5
27956	11.067	1.3636	0.1	3075.3
27957	11.159	1.2727	0.1	3050.2
27958	11.067	1.5455	0.1	3075.
27959	11.159	1.4545	0.1	3049.9
27960	11.067	1.7273	0.1	3074.6
27961	11.159	1.6364	0.1	3049.6
27962	11.067	1.9091	0.1	3074.4
27963	11.159	1.8182	0.1	3049.4
27964	11.067	2.0909	0.1	3074.1
27965	11.159	2.	0.1	3049.2
27966	11.067	2.2727	0.1	3073.9
27967	11.159	2.1818	0.1	3049.
27968	11.067	2.4545	0.1	3073.8
27969	11.159	2.3636	0.1	3048.9
27970	11.067	2.6364	0.1	3073.6
27971	11.159	2.5455	0.1	3048.8
27972	11.067	2.8182	0.1	3073.6
27973	11.159	2.7273	0.1	3048.7
27974	11.067	3.	0.1	3073.5
27975	11.159	2.9091	0.1	3048.7
27976	11.067	3.1818	0.1	3073.6
27977	11.159	3.0909	0.1	3048.7
27978	11.067	3.3636	0.1	3073.6
27979	11.159	3.2727	0.1	3048.7
27980	11.067	3.5455	0.1	3073.8
27981	11.159	3.4545	0.1	3048.8
27982	11.067	3.7273	0.1	3073.9
27983	11.159	3.6364	0.1	3048.9
27984	11.067	3.9091	0.1	3074.1
27985	11.159	3.8182	0.1	3049.
27986	11.067	4.0909	0.1	3074.4
27987	11.159	4.	0.1	3049.2
27988	11.067	4.2727	0.1	3074.6
27989	11.159	4.1818	0.1	3049.4
27990	11.067	4.4545	0.1	3075.
27991	11.159	4.3636	0.1	3049.6
27992	11.067	4.6364	0.1	3075.3
27993	11.159	4.5455	0.1	3049.9
27994	11.067	4.8182	0.1	3075.7
27995	11.159	4.7273	0.1	3050.2
27996	11.067	5.	0.1	3076.1
27997	11.159	4.9091	0.1	3050.5
27998	11.067	5.1818	0.1	3076.6
27999	11.159	5.0909	0.1	3050.8
28000	11.067	5.3636	0.1	3077.2
28001	11.159	5.2727	0.1	3051.2
28002	11.067	5.5455	0.1	3077.8
28003	11.159	5.4545	0.1	3051.7
28004	11.067	5.7273	0.1	3079.2
28005	11.159	5.6364	0.1	3052.4
28006	11.159	5.8182	0.1	3054.3
28007	11.067	5.9091	0.1	3077.
28008	11.251	0.27273	0.1	3027.4
28009	11.343	0.18182	0.1	3002.5
28010	11.251	9.0909e-002	0.1	3025.
28011	11.251	0.45455	0.1	3026.3
28012	11.343	0.36364	0.1	3000.8
28013	11.251	0.63636	0.1	3025.8
28014	11.343	0.54545	0.1	3000.3
28015	11.251	0.81818	0.1	3025.4
28016	11.343	0.72727	0.1	3000.
28017	11.251	1.	0.1	3025.2
28018	11.343	0.90909	0.1	2999.8
28019	11.251	1.1818	0.1	3024.9
28020	11.343	1.0909	0.1	2999.7
28021	11.251	1.3636	0.1	3024.7
28022	11.343	1.2727	0.1	2999.6
28023	11.251	1.5455	0.1	3024.5
28024	11.343	1.4545	0.1	2999.5
28025	11.251	1.7273	0.1	3024.4
28026	11.343	1.6364	0.1	2999.4
28027	11.251	1.9091	0.1	3024.2
28028	11.343	1.8182	0.1	2999.4
28029	11.251	2.0909	0.1	3024.1
28030	11.343	2.	0.1	2999.3
28031	11.251	2.2727	0.1	3024.
28032	11.343	2.1818	0.1	2999.2
28033	11.251	2.4545	0.1	3023.9
28034	11.343	2.3636	0.1	2999.2
28035	11.251	2.6364	0.1	3023.8
28036	11.343	2.5455	0.1	2999.1
28037	11.251	2.8182	0.1	3023.8
28038	11.343	2.7273	0.1	2999.1
28039	11.251	3.	0.1	3023.8
28040	11.343	2.9091	0.1	2999.1
28041	11.251	3.1818	0.1	3023.8
28042	11.343	3.0909	0.1	2999.1
28043	11.251	3.3636	0.1	3023.8
28044	11.343	3.2727	0.1	2999.1
28045	11.251	3.5455	0.1	3023.9
28046	11.343	3.4545	0.1	2999.1
28047	11.251	3.7273	0.1	3024.
28048	11.343	3.6364	0.1	2999.2
28049	11.251	3.9091	0.1	3024.1
28050	11.343	3.8182	0.1	2999.2
28051	11.251	4.0909	0.1	3024.2
28052	11.343	4.	0.1	2999.3
28053	11.251	4.2727	0.1	3024.4
28054	11.343	4.1818	0.1	2999.4
28055	11.251	4.4545	0.1	3024.5
28056	11.343	4.3636	0.1	2999.4
28057	11.251	4.6364	0.1	3024.7
28058	11.343	4.5455	0.1	2999.5
28059	11.251	4.8182	0.1	3024.9
28060	11.343	4.7273	0.1	2999.6
28061	11.251	5.	0.1	3025.2
28062	11.343	4.9091	0.1	2999.7
28063	11.251	5.1818	0.1	3025.4
28064	11.343	5.0909	0.1	2999.8
28065	11.251	5.3636	0.1	3025.8
28066	11.343	5.2727	0.1	3000.
28067	11.251	5.5455	0.1	3026.3
28068	11.343	5.4545	0.1	3000.3
28069	11.251	5.7273	0.1	3027.4
28070	11.343	5.6364	0.1	3000.8
28071	11.343	5.8182	0.1	3002.5
28072	11.251	5.9091	0.1	3025.
28073	11.436	0.27273	0.1	2975.7
28074	11.528	0.18182	0.1	2950.7
28075	11.436	9.0909e-002	0.1	2973.1
28076	11.436	0.45455	0.1	2974.8
28077	11.528	0.36364	0.1	2949.2
28078	11.436	0.63636	0.1	2974.5
28079	11.528	0.54545	0.1	2948.9
28080	11.436	0.81818	0.1	2974.4
28081	11.528	0.72727	0.1	2948.9
28082	11.436	1.	0.1	2974.3
28083	11.528	0.90909	0.1	2949.
28084	11.436	1.1818	0.1	2974.3
28085	11.528	1.0909	0.1	2949.1
28086	11.436	1.3636	0.1	2974.3
28087	11.528	1.2727	0.1	2949.2
28088	11.436	1.5455	0.1	2974.4
28089	11.528	1.4545	0.1	2949.3
28090	11.436	1.7273	0.1	2974.4
28091	11.528	1.6364	0.1	2949.4
28092	11.436	1.9091	0.1	2974.4
28093	11.528	1.8182	0.1	2949.5
28094	11.436	2.0909	0.1	2974.4
28095	11.528	2.	0.1	2949.6
28096	11.436	2.2727	0.1	2974.4
28097	11.528	2.1818	0.1	2949.7
28098	11.436	2.4545	0.1	2974.4
28099	11.528	2.3636	0.1	2949.8
28100	11.436	2.6364	0.1	2974.4
28101	11.528	2.5455	0.1	2949.8
28102	11.436	2.8182	0.1	2974.4
28103	11.528	2.7273	0.1	2949.8
28104	11.436	3.	0.1	2974.4
28105	11.528	2.9091	0.1	2949.8
28106	11.436	3.1818	0.1	2974.4
28107	11.528	3.0909	0.1	2949.8
28108	11.436	3.3636	0.1	2974.4
28109	11.528	3.2727	0.1	2949.8
28110	11.436	3.5455	0.1	2974.4
28111	11.528	3.4545	0.1	2949.8
28112	11.436	3.7273	0.1	2974.4
28113	11.528	3.6364	0.1	2949.8
28114	11.436	3.9091	0.1	2974.4
28115	11.528	3.8182	0.1	2949.7
28116	11.436	4.0909	0.1	2974.4
28117	11.528	4.	0.1	2949.6
28118	11.436	4.2727	0.1	2974.4
28119	11.528	4.1818	0.1	2949.5
28120	11.436	4.4545	0.1	2974.4
28121	11.528	4.3636	0.1	2949.4
28122	11.436	4.6364	0.1	2974.3
28123	11.528	4.5455	0.1	2949.3
28124	11.436	4.8182	0.1	2974.3
28125	11.528	4.7273	0.1	2949.2
28126	11.436	5.	0.1	2974.3
28127	11.528	4.9091	0.1	2949.1
28128	11.436	5.1818	0.1	2974.4
28129	11.528	5.0909	0.1	2949.
28130	11.436	5.3636	0.1	2974.5
28131	11.528	5.2727	0.1	2948.9
28132	11.436	5.5455	0.1	2974.8
28133	11.528	5.4545	0.1	2948.9
28134	11.436	5.7273	0.1	2975.7
28135	11.528	5.6364	0.1	2949.2
28136	11.528	5.8182	0.1	2950.7
28137	11.436	5.9091	0.1	2973.1
28138	11.62	0.27273	0.1	2924.
28139	11.712	0.18182	0.1	2898.8
28140	11.62	9.0909e-002	0.1	2921.2
28141	11.62	0.45455	0.1	2923.3
28142	11.712	0.36364	0.1	2897.5
28143	11.62	0.63636	0.1	2923.3
28144	11.712	0.54545	0.1	2897.6
28145	11.62	0.81818	0.1	2923.4
28146	11.712	0.72727	0.1	2897.8
28147	11.62	1.	0.1	2923.6
28148	11.712	0.90909	0.1	2898.2
28149	11.62	1.1818	0.1	2923.9
28150	11.712	1.0909	0.1	2898.5
28151	11.62	1.3636	0.1	2924.1
28152	11.712	1.2727	0.1	2898.9
28153	11.62	1.5455	0.1	2924.4
28154	11.712	1.4545	0.1	2899.3
28155	11.62	1.7273	0.1	2924.6
28156	11.712	1.6364	0.1	2899.7
28157	11.62	1.9091	0.1	2924.8
28158	11.712	1.8182	0.1	2900.
28159	11.62	2.0909	0.1	2924.9
28160	11.712	2.	0.1	2900.3
28161	11.62	2.2727	0.1	2925.1
28162	11.712	2.1818	0.1	2900.5
28163	11.62	2.4545	0.1	2925.2
28164	11.712	2.3636	0.1	2900.7
28165	11.62	2.6364	0.1	2925.2
28166	11.712	2.5455	0.1	2900.8
28167	11.62	2.8182	0.1	2925.3
28168	11.712	2.7273	0.1	2900.9
28169	11.62	3.	0.1	2925.3
28170	11.712	2.9091	0.1	2900.9
28171	11.62	3.1818	0.1	2925.3
28172	11.712	3.0909	0.1	2900.9
28173	11.62	3.3636	0.1	2925.2
28174	11.712	3.2727	0.1	2900.9
28175	11.62	3.5455	0.1	2925.2
28176	11.712	3.4545	0.1	2900.8
28177	11.62	3.7273	0.1	2925.1
28178	11.712	3.6364	0.1	2900.7
28179	11.62	3.9091	0.1	2924.9
28180	11.712	3.8182	0.1	2900.5
28181	11.62	4.0909	0.1	2924.8
28182	11.712	4.	0.1	2900.3
28183	11.62	4.2727	0.1	2924.6
28184	11.712	4.1818	0.1	2900.
28185	11.62	4.4545	0.1	2924.4
28186	11.712	4.3636	0.1	2899.7
28187	11.62	4.6364	0.1	2924.1
28188	11.712	4.5455	0.1	2899.3
28189	11.62	4.8182	0.1	2923.9
28190	11.712	4.7273	0.1	2898.9
28191	11.62	5.	0.1	2923.6
28192	11.712	4.9091	0.1	2898.5
28193	11.62	5.1818	0.1	2923.4
28194	11.712	5.0909	0.1	2898.2
28195	11.62	5.3636	0.1	2923.3
28196	11.712	5.2727	0.1	2897.8
28197	11.62	5.5455	0.1	2923.3
28198	11.712	5.4545	0.1	2897.6
28199	11.62	5.7273	0.1	2924.
28200	11.712	5.6364	0.1	2897.5
28201	11.712	5.8182	0.1	2898.8
28202	11.62	5.9091	0.1	2921.2
28203	11.804	0.27273	0.1	2872.2
28204	11.897	0.18182	0.1	2846.8
28205	11.804	9.0909e-002	0.1	2869.2
28206	11.804	0.45455	0.1	2871.8
28207	11.897	0.36364	0.1	2845.8
28208	11.804	0.63636	0.1	2872.1
28209	11.897	0.54545	0.1	2846.2
28210	11.804	0.81818	0.1	2872.5
28211	11.897	0.72727	0.1	2846.7
28212	11.804	1.	0.1	2873.
28213	11.897	0.90909	0.1	2847.4
28214	11.804	1.1818	0.1	2873.6
28215	11.897	1.0909	0.1	2848.1
28216	11.804	1.3636	0.1	2874.1
28217	11.897	1.2727	0.1	2848.8
28218	11.804	1.5455	0.1	2874.6
28219	11.897	1.4545	0.1	2849.5
28220	11.804	1.7273	0.1	2875.1
28221	11.897	1.6364	0.1	2850.2
28222	11.804	1.9091	0.1	2875.5
28223	11.897	1.8182	0.1	2850.8
28224	11.804	2.0909	0.1	2875.8
28225	11.897	2.	0.1	2851.2
28226	11.804	2.2727	0.1	2876.1
28227	11.897	2.1818	0.1	2851.7
28228	11.804	2.4545	0.1	2876.3
28229	11.897	2.3636	0.1	2852.
28230	11.804	2.6364	0.1	2876.5
28231	11.897	2.5455	0.1	2852.2
28232	11.804	2.8182	0.1	2876.5
28233	11.897	2.7273	0.1	2852.4
28234	11.804	3.	0.1	2876.6
28235	11.897	2.9091	0.1	2852.5
28236	11.804	3.1818	0.1	2876.5
28237	11.897	3.0909	0.1	2852.5
28238	11.804	3.3636	0.1	2876.5
28239	11.897	3.2727	0.1	2852.4
28240	11.804	3.5455	0.1	2876.3
28241	11.897	3.4545	0.1	2852.2
28242	11.804	3.7273	0.1	2876.1
28243	11.897	3.6364	0.1	2852.
28244	11.804	3.9091	0.1	2875.8
28245	11.897	3.8182	0.1	2851.7
28246	11.804	4.0909	0.1	2875.5
28247	11.897	4.	0.1	2851.2
28248	11.804	4.2727	0.1	2875.1
28249	11.897	4.1818	0.1	2850.8
28250	11.804	4.4545	0.1	2874.6
28251	11.897	4.3636	0.1	2850.2
28252	11.804	4.6364	0.1	2874.1
28253	11.897	4.5455	0.1	2849.5
28254	11.804	4.8182	0.1	2873.6
28255	11.897	4.7273	0.1	2848.8
28256	11.804	5.	0.1	2873.
28257	11.897	4.9091	0.1	2848.1
28258	11.804	5.1818	0.1	2872.5
28259	11.897	5.0909	0.1	2847.4
28260	11.804	5.3636	0.1	2872.1
28261	11.897	5.2727	0.1	2846.7
28262	11.804	5.5455	0.1	2871.8
28263	11.897	5.4545	0.1	2846.2
28264	11.804	5.7273	0.1	2872.2
28265	11.897	5.6364	0.1	2845.8
28266	11.897	5.8182	0.1	2846.8
28267	11.804	5.9091	0.1	2869.2
28268	11.989	0.27273	0.1	2820.3
28269	12.081	0.18182	0.1	2794.5
28270	11.989	9.0909e-002	0.1	2817.1
28271	11.989	0.45455	0.1	2820.2
28272	12.081	0.36364	0.1	2793.9
28273	11.989	0.63636	0.1	2820.8
28274	12.081	0.54545	0.1	2794.6
28275	11.989	0.81818	0.1	2821.6
28276	12.081	0.72727	0.1	2795.6
28277	11.989	1.	0.1	2822.5
28278	12.081	0.90909	0.1	2796.7
28279	11.989	1.1818	0.1	2823.4
28280	12.081	1.0909	0.1	2797.8
28281	11.989	1.3636	0.1	2824.3
28282	12.081	1.2727	0.1	2798.9
28283	11.989	1.5455	0.1	2825.1
28284	12.081	1.4545	0.1	2799.9
28285	11.989	1.7273	0.1	2825.8
28286	12.081	1.6364	0.1	2800.9
28287	11.989	1.9091	0.1	2826.5
28288	12.081	1.8182	0.1	2801.8
28289	11.989	2.0909	0.1	2827.1
28290	12.081	2.	0.1	2802.6
28291	11.989	2.2727	0.1	2827.5
28292	12.081	2.1818	0.1	2803.2
28293	11.989	2.4545	0.1	2827.9
28294	12.081	2.3636	0.1	2803.7
28295	11.989	2.6364	0.1	2828.1
28296	12.081	2.5455	0.1	2804.1
28297	11.989	2.8182	0.1	2828.3
28298	12.081	2.7273	0.1	2804.4
28299	11.989	3.	0.1	2828.3
28300	12.081	2.9091	0.1	2804.5
28301	11.989	3.1818	0.1	2828.3
28302	12.081	3.0909	0.1	2804.5
28303	11.989	3.3636	0.1	2828.1
28304	12.081	3.2727	0.1	2804.4
28305	11.989	3.5455	0.1	2827.9
28306	12.081	3.4545	0.1	2804.1
28307	11.989	3.7273	0.1	2827.5
28308	12.081	3.6364	0.1	2803.7
28309	11.989	3.9091	0.1	2827.1
28310	12.081	3.8182	0.1	2803.2
28311	11.989	4.0909	0.1	2826.5
28312	12.081	4.	0.1	2802.6
28313	11.989	4.2727	0.1	2825.8
28314	12.081	4.1818	0.1	2801.8
28315	11.989	4.4545	0.1	2825.1
28316	12.081	4.3636	0.1	2800.9
28317	11.989	4.6364	0.1	2824.3
28318	12.081	4.5455	0.1	2799.9
28319	11.989	4.8182	0.1	2823.4
28320	12.081	4.7273	0.1	2798.9
28321	11.989	5.	0.1	2822.5
28322	12.081	4.9091	0.1	2797.8
28323	11.989	5.1818	0.1	2821.6
28324	12.081	5.0909	0.1	2796.7
28325	11.989	5.3636	0.1	2820.8
28326	12.081	5.2727	0.1	2795.6
28327	11.989	5.5455	0.1	2820.2
28328	12.081	5.4545	0.1	2794.6
28329	11.989	5.7273	0.1	2820.3
28330	12.081	5.6364	0.1	2793.9
28331	12.081	5.8182	0.1	2794.5
28332	11.989	5.9091	0.1	2817.1
28333	12.173	0.27273	0.1	2768.1
28334	12.266	0.18182	0.1	2742.
28335	12.173	9.0909e-002	0.1	2764.6
28336	12.173	0.45455	0.1	2768.4
28337	12.266	0.36364	0.1	2741.8
28338	12.173	0.63636	0.1	2769.4
28339	12.266	0.54545	0.1	2742.9
28340	12.173	0.81818	0.1	2770.6
28341	12.266	0.72727	0.1	2744.3
28342	12.173	1.	0.1	2771.9
28343	12.266	0.90909	0.1	2745.9
28344	12.173	1.1818	0.1	2773.3
28345	12.266	1.0909	0.1	2747.5
28346	12.173	1.3636	0.1	2774.6
28347	12.266	1.2727	0.1	2749.
28348	12.173	1.5455	0.1	2775.8
28349	12.266	1.4545	0.1	2750.6
28350	12.173	1.7273	0.1	2776.9
28351	12.266	1.6364	0.1	2752.
28352	12.173	1.9091	0.1	2777.9
28353	12.266	1.8182	0.1	2753.2
28354	12.173	2.0909	0.1	2778.7
28355	12.266	2.	0.1	2754.3
28356	12.173	2.2727	0.1	2779.4
28357	12.266	2.1818	0.1	2755.3
28358	12.173	2.4545	0.1	2780.
28359	12.266	2.3636	0.1	2756.
28360	12.173	2.6364	0.1	2780.3
28361	12.266	2.5455	0.1	2756.6
28362	12.173	2.8182	0.1	2780.6
28363	12.266	2.7273	0.1	2756.9
28364	12.173	3.	0.1	2780.6
28365	12.266	2.9091	0.1	2757.1
28366	12.173	3.1818	0.1	2780.6
28367	12.266	3.0909	0.1	2757.1
28368	12.173	3.3636	0.1	2780.3
28369	12.266	3.2727	0.1	2756.9
28370	12.173	3.5455	0.1	2780.
28371	12.266	3.4545	0.1	2756.6
28372	12.173	3.7273	0.1	2779.4
28373	12.266	3.6364	0.1	2756.
28374	12.173	3.9091	0.1	2778.7
28375	12.266	3.8182	0.1	2755.3
28376	12.173	4.0909	0.1	2777.9
28377	12.266	4.	0.1	2754.3
28378	12.173	4.2727	0.1	2776.9
28379	12.266	4.1818	0.1	2753.2
28380	12.173	4.4545	0.1	2775.8
28381	12.266	4.3636	0.1	2752.
28382	12.173	4.6364	0.1	2774.6
28383	12.266	4.5455	0.1	2750.6
28384	12.173	4.8182	0.1	2773.3
28385	12.266	4.7273	0.1	2749.
28386	12.173	5.	0.1	2771.9
28387	12.266	4.9091	0.1	2747.5
28388	12.173	5.1818	0.1	2770.6
28389	12.266	5.0909	0.1	2745.9
28390	12.173	5.3636	0.1	2769.4
28391	12.266	5.2727	0.1	2744.3
28392	12.173	5.5455	0.1	2768.4
28393	12.266	5.4545	0.1	2742.9
28394	12.173	5.7273	0.1	2768.1
28395	12.266	5.6364	0.1	2741.8
28396	12.266	5.8182	0.1	2742.
28397	12.173	5.9091	0.1	2764.6
28398	12.358	0.27273	0.1	2715.6
28399	12.45	0.18182	0.1	2689.
28400	12.358	9.0909e-002	0.1	2711.8
28401	12.358	0.45455	0.1	2716.3
28402	12.45	0.36364	0.1	2689.3
28403	12.358	0.63636	0.1	2717.8
28404	12.45	0.54545	0.1	2690.9
28405	12.358	0.81818	0.1	2719.5
28406	12.45	0.72727	0.1	2692.8
28407	12.358	1.	0.1	2721.4
28408	12.45	0.90909	0.1	2695.
28409	12.358	1.1818	0.1	2723.2
28410	12.45	1.0909	0.1	2697.1
28411	12.358	1.3636	0.1	2725.
28412	12.45	1.2727	0.1	2699.3
28413	12.358	1.5455	0.1	2726.7
28414	12.45	1.4545	0.1	2701.4
28415	12.358	1.7273	0.1	2728.3
28416	12.45	1.6364	0.1	2703.3
28417	12.358	1.9091	0.1	2729.7
28418	12.45	1.8182	0.1	2705.
28419	12.358	2.0909	0.1	2730.8
28420	12.45	2.	0.1	2706.5
28421	12.358	2.2727	0.1	2731.8
28422	12.45	2.1818	0.1	2707.8
28423	12.358	2.4545	0.1	2732.6
28424	12.45	2.3636	0.1	2708.9
28425	12.358	2.6364	0.1	2733.1
28426	12.45	2.5455	0.1	2709.7
28427	12.358	2.8182	0.1	2733.5
28428	12.45	2.7273	0.1	2710.2
28429	12.358	3.	0.1	2733.6
28430	12.45	2.9091	0.1	2710.5
28431	12.358	3.1818	0.1	2733.5
28432	12.45	3.0909	0.1	2710.5
28433	12.358	3.3636	0.1	2733.1
28434	12.45	3.2727	0.1	2710.2
28435	12.358	3.5455	0.1	2732.6
28436	12.45	3.4545	0.1	2709.7
28437	12.358	3.7273	0.1	2731.8
28438	12.45	3.6364	0.1	2708.9
28439	12.358	3.9091	0.1	2730.8
28440	12.45	3.8182	0.1	2707.8
28441	12.358	4.0909	0.1	2729.7
28442	12.45	4.	0.1	2706.5
28443	12.358	4.2727	0.1	2728.3
28444	12.45	4.1818	0.1	2705.
28445	12.358	4.4545	0.1	2726.7
28446	12.45	4.3636	0.1	2703.3
28447	12.358	4.6364	0.1	2725.
28448	12.45	4.5455	0.1	2701.4
28449	12.358	4.8182	0.1	2723.2
28450	12.45	4.7273	0.1	2699.3
28451	12.358	5.	0.1	2721.4
28452	12.45	4.9091	0.1	2697.1
28453	12.358	5.1818	0.1	2719.5
28454	12.45	5.0909	0.1	2695.
28455	12.358	5.3636	0.1	2717.8
28456	12.45	5.2727	0.1	2692.8
28457	12.358	5.5455	0.1	2716.3
28458	12.45	5.4545	0.1	2690.9
28459	12.358	5.7273	0.1	2715.6
28460	12.45	5.6364	0.1	2689.3
28461	12.45	5.8182	0.1	2689.
28462	12.358	5.9091	0.1	2711.8
28463	12.542	0.27273	0.1	2662.6
28464	12.634	0.18182	0.1	2635.4
28465	12.542	9.0909e-002	0.1	2658.5
28466	12.542	0.45455	0.1	2663.8
28467	12.634	0.36364	0.1	2636.2
28468	12.542	0.63636	0.1	2665.9
28469	12.634	0.54545	0.1	2638.4
28470	12.542	0.81818	0.1	2668.2
28471	12.634	0.72727	0.1	2641.
28472	12.542	1.	0.1	2670.7
28473	12.634	0.90909	0.1	2643.8
28474	12.542	1.1818	0.1	2673.2
28475	12.634	1.0909	0.1	2646.7
28476	12.542	1.3636	0.1	2675.6
28477	12.634	1.2727	0.1	2649.6
28478	12.542	1.5455	0.1	2677.9
28479	12.634	1.4545	0.1	2652.3
28480	12.542	1.7273	0.1	2680.
28481	12.634	1.6364	0.1	2654.9
28482	12.542	1.9091	0.1	2681.9
28483	12.634	1.8182	0.1	2657.3
28484	12.542	2.0909	0.1	2683.5
28485	12.634	2.	0.1	2659.3
28486	12.542	2.2727	0.1	2684.9
28487	12.634	2.1818	0.1	2661.1
28488	12.542	2.4545	0.1	2685.9
28489	12.634	2.3636	0.1	2662.5
28490	12.542	2.6364	0.1	2686.7
28491	12.634	2.5455	0.1	2663.6
28492	12.542	2.8182	0.1	2687.1
28493	12.634	2.7273	0.1	2664.3
28494	12.542	3.	0.1	2687.3
28495	12.634	2.9091	0.1	2664.6
28496	12.542	3.1818	0.1	2687.1
28497	12.634	3.0909	0.1	2664.6
28498	12.542	3.3636	0.1	2686.7
28499	12.634	3.2727	0.1	2664.3
28500	12.542	3.5455	0.1	2685.9
28501	12.634	3.4545	0.1	2663.6
28502	12.542	3.7273	0.1	2684.9
28503	12.634	3.6364	0.1	2662.5
28504	12.542	3.9091	0.1	2683.5
28505	12.634	3.8182	0.1	2661.1
28506	12.542	4.0909	0.1	2681.9
28507	12.634	4.	0.1	2659.3
28508	12.542	4.2727	0.1	2680.
28509	12.634	4.1818	0.1	2657.3
28510	12.542	4.4545	0.1	2677.9
28511	12.634	4.3636	0.1	2654.9
28512	12.542	4.6364	0.1	2675.6
28513	12.634	4.5455	0.1	2652.3
28514	12.542	4.8182	0.1	2673.2
28515	12.634	4.7273	0.1	2649.6
28516	12.542	5.	0.1	2670.7
28517	12.634	4.9091	0.1	2646.7
28518	12.542	5.1818	0.1	2668.2
28519	12.634	5.0909	0.1	2643.8
28520	12.542	5.3636	0.1	2665.9
28521	12.634	5.2727	0.1	2641.
28522	12.542	5.5455	0.1	2663.8
28523	12.634	5.4545	0.1	2638.4
28524	12.542	5.7273	0.1	2662.6
28525	12.634	5.6364	0.1	2636.2
28526	12.634	5.8182	0.1	2635.4
28527	12.542	5.9091	0.1	2658.5
28528	12.727	0.27273	0.1	2608.9
28529	12.819	0.18182	0.1	2580.9
28530	12.727	9.0909e-002	0.1	2604.4
28531	12.727	0.45455	0.1	2610.8
28532	12.819	0.36364	0.1	2582.4
28533	12.727	0.63636	0.1	2613.5
28534	12.819	0.54545	0.1	2585.3
28535	12.727	0.81818	0.1	2616.6
28536	12.819	0.72727	0.1	2588.7
28537	12.727	1.	0.1	2619.8
28538	12.819	0.90909	0.1	2592.4
28539	12.727	1.1818	0.1	2623.1
28540	12.819	1.0909	0.1	2596.2
28541	12.727	1.3636	0.1	2626.3
28542	12.819	1.2727	0.1	2599.9
28543	12.727	1.5455	0.1	2629.3
28544	12.819	1.4545	0.1	2603.5
28545	12.727	1.7273	0.1	2632.1
28546	12.819	1.6364	0.1	2606.9
28547	12.727	1.9091	0.1	2634.7
28548	12.819	1.8182	0.1	2610.
28549	12.727	2.0909	0.1	2636.8
28550	12.819	2.	0.1	2612.7
28551	12.727	2.2727	0.1	2638.7
28552	12.819	2.1818	0.1	2615.1
28553	12.727	2.4545	0.1	2640.1
28554	12.819	2.3636	0.1	2617.
28555	12.727	2.6364	0.1	2641.1
28556	12.819	2.5455	0.1	2618.4
28557	12.727	2.8182	0.1	2641.7
28558	12.819	2.7273	0.1	2619.4
28559	12.727	3.	0.1	2641.9
28560	12.819	2.9091	0.1	2619.9
28561	12.727	3.1818	0.1	2641.7
28562	12.819	3.0909	0.1	2619.9
28563	12.727	3.3636	0.1	2641.1
28564	12.819	3.2727	0.1	2619.4
28565	12.727	3.5455	0.1	2640.1
28566	12.819	3.4545	0.1	2618.4
28567	12.727	3.7273	0.1	2638.7
28568	12.819	3.6364	0.1	2617.
28569	12.727	3.9091	0.1	2636.8
28570	12.819	3.8182	0.1	2615.1
28571	12.727	4.0909	0.1	2634.7
28572	12.819	4.	0.1	2612.7
28573	12.727	4.2727	0.1	2632.1
28574	12.819	4.1818	0.1	2610.
28575	12.727	4.4545	0.1	2629.3
28576	12.819	4.3636	0.1	2606.9
28577	12.727	4.6364	0.1	2626.3
28578	12.819	4.5455	0.1	2603.5
28579	12.727	4.8182	0.1	2623.1
28580	12.819	4.7273	0.1	2599.9
28581	12.727	5.	0.1	2619.8
28582	12.819	4.9091	0.1	2596.2
28583	12.727	5.1818	0.1	2616.6
28584	12.819	5.0909	0.1	2592.4
28585	12.727	5.3636	0.1	2613.5
28586	12.819	5.2727	0.1	2588.7
28587	12.727	5.5455	0.1	2610.8
28588	12.819	5.4545	0.1	2585.3
28589	12.727	5.7273	0.1	2608.9
28590	12.819	5.6364	0.1	2582.4
28591	12.819	5.8182	0.1	2580.9
28592	12.727	5.9091	0.1	2604.4
28593	12.911	0.27273	0.1	2554.3
28594	13.003	0.18182	0.1	2525.3
28595	12.911	9.0909e-002	0.1	2549.4
28596	12.911	0.45455	0.1	2556.9
28597	13.003	0.36364	0.1	2527.6
28598	12.911	0.63636	0.1	2560.5
28599	13.003	0.54545	0.1	2531.4
28600	12.911	0.81818	0.1	2564.5
28601	13.003	0.72727	0.1	2535.8
28602	12.911	1.	0.1	2568.7
28603	13.003	0.90909	0.1	2540.5
28604	12.911	1.1818	0.1	2572.9
28605	13.003	1.0909	0.1	2545.3
28606	12.911	1.3636	0.1	2577.1
28607	13.003	1.2727	0.1	2550.2
28608	12.911	1.5455	0.1	2581.1
28609	13.003	1.4545	0.1	2554.9
28610	12.911	1.7273	0.1	2584.7
28611	13.003	1.6364	0.1	2559.3
28612	12.911	1.9091	0.1	2588.1
28613	13.003	1.8182	0.1	2563.3
28614	12.911	2.0909	0.1	2590.9
28615	13.003	2.	0.1	2566.9
28616	12.911	2.2727	0.1	2593.4
28617	13.003	2.1818	0.1	2570.
28618	12.911	2.4545	0.1	2595.3
28619	13.003	2.3636	0.1	2572.5
28620	12.911	2.6364	0.1	2596.6
28621	13.003	2.5455	0.1	2574.4
28622	12.911	2.8182	0.1	2597.5
28623	13.003	2.7273	0.1	2575.7
28624	12.911	3.	0.1	2597.7
28625	13.003	2.9091	0.1	2576.4
28626	12.911	3.1818	0.1	2597.5
28627	13.003	3.0909	0.1	2576.4
28628	12.911	3.3636	0.1	2596.6
28629	13.003	3.2727	0.1	2575.7
28630	12.911	3.5455	0.1	2595.3
28631	13.003	3.4545	0.1	2574.4
28632	12.911	3.7273	0.1	2593.4
28633	13.003	3.6364	0.1	2572.5
28634	12.911	3.9091	0.1	2590.9
28635	13.003	3.8182	0.1	2570.
28636	12.911	4.0909	0.1	2588.1
28637	13.003	4.	0.1	2566.9
28638	12.911	4.2727	0.1	2584.7
28639	13.003	4.1818	0.1	2563.3
28640	12.911	4.4545	0.1	2581.1
28641	13.003	4.3636	0.1	2559.3
28642	12.911	4.6364	0.1	2577.1
28643	13.003	4.5455	0.1	2554.9
28644	12.911	4.8182	0.1	2572.9
28645	13.003	4.7273	0.1	2550.2
28646	12.911	5.	0.1	2568.7
28647	13.003	4.9091	0.1	2545.3
28648	12.911	5.1818	0.1	2564.5
28649	13.003	5.0909	0.1	2540.5
28650	12.911	5.3636	0.1	2560.5
28651	13.003	5.2727	0.1	2535.8
28652	12.911	5.5455	0.1	2556.9
28653	13.003	5.4545	0.1	2531.4
28654	12.911	5.7273	0.1	2554.3
28655	13.003	5.6364	0.1	2527.6
28656	13.003	5.8182	0.1	2525.3
28657	12.911	5.9091	0.1	2549.4
28658	13.096	0.27273	0.1	2498.5
28659	13.188	0.18182	0.1	2468.3
28660	13.096	9.0909e-002	0.1	2493.2
28661	13.096	0.45455	0.1	2502.
28662	13.188	0.36364	0.1	2471.5
28663	13.096	0.63636	0.1	2506.6
28664	13.188	0.54545	0.1	2476.4
28665	13.096	0.81818	0.1	2511.7
28666	13.188	0.72727	0.1	2481.9
28667	13.096	1.	0.1	2517.1
28668	13.188	0.90909	0.1	2487.9
28669	13.096	1.1818	0.1	2522.5
28670	13.188	1.0909	0.1	2494.1
28671	13.096	1.3636	0.1	2527.9
28672	13.188	1.2727	0.1	2500.3
28673	13.096	1.5455	0.1	2533.1
28674	13.188	1.4545	0.1	2506.3
28675	13.096	1.7273	0.1	2537.9
28676	13.188	1.6364	0.1	2512.1
28677	13.096	1.9091	0.1	2542.2
28678	13.188	1.8182	0.1	2517.4
28679	13.096	2.0909	0.1	2546.
28680	13.188	2.	0.1	2522.1
28681	13.096	2.2727	0.1	2549.2
28682	13.188	2.1818	0.1	2526.1
28683	13.096	2.4545	0.1	2551.7
28684	13.188	2.3636	0.1	2529.4
28685	13.096	2.6364	0.1	2553.5
28686	13.188	2.5455	0.1	2531.9
28687	13.096	2.8182	0.1	2554.6
28688	13.188	2.7273	0.1	2533.6
28689	13.096	3.	0.1	2555.
28690	13.188	2.9091	0.1	2534.5
28691	13.096	3.1818	0.1	2554.6
28692	13.188	3.0909	0.1	2534.5
28693	13.096	3.3636	0.1	2553.5
28694	13.188	3.2727	0.1	2533.6
28695	13.096	3.5455	0.1	2551.7
28696	13.188	3.4545	0.1	2531.9
28697	13.096	3.7273	0.1	2549.2
28698	13.188	3.6364	0.1	2529.4
28699	13.096	3.9091	0.1	2546.
28700	13.188	3.8182	0.1	2526.1
28701	13.096	4.0909	0.1	2542.2
28702	13.188	4.	0.1	2522.1
28703	13.096	4.2727	0.1	2537.9
28704	13.188	4.1818	0.1	2517.4
28705	13.096	4.4545	0.1	2533.1
28706	13.188	4.3636	0.1	2512.1
28707	13.096	4.6364	0.1	2527.9
28708	13.188	4.5455	0.1	2506.3
28709	13.096	4.8182	0.1	2522.5
28710	13.188	4.7273	0.1	2500.3
28711	13.096	5.	0.1	2517.1
28712	13.188	4.9091	0.1	2494.1
28713	13.096	5.1818	0.1	2511.7
28714	13.188	5.0909	0.1	2487.9
28715	13.096	5.3636	0.1	2506.6
28716	13.188	5.2727	0.1	2481.9
28717	13.096	5.5455	0.1	2502.
28718	13.188	5.4545	0.1	2476.4
28719	13.096	5.7273	0.1	2498.5
28720	13.188	5.6364	0.1	2471.5
28721	13.188	5.8182	0.1	2468.3
28722	13.096	5.9091	0.1	2493.2
28723	13.28	0.27273	0.1	2441.2
28724	13.372	0.18182	0.1	2409.4
28725	13.28	9.0909e-002	0.1	2435.3
28726	13.28	0.45455	0.1	2445.8
28727	13.372	0.36364	0.1	2413.8
28728	13.28	0.63636	0.1	2451.6
28729	13.372	0.54545	0.1	2419.9
28730	13.28	0.81818	0.1	2458.1
28731	13.372	0.72727	0.1	2426.9
28732	13.28	1.	0.1	2464.9
28733	13.372	0.90909	0.1	2434.4
28734	13.28	1.1818	0.1	2471.8
28735	13.372	1.0909	0.1	2442.3
28736	13.28	1.3636	0.1	2478.7
28737	13.372	1.2727	0.1	2450.2
28738	13.28	1.5455	0.1	2485.4
28739	13.372	1.4545	0.1	2458.
28740	13.28	1.7273	0.1	2491.6
28741	13.372	1.6364	0.1	2465.4
28742	13.28	1.9091	0.1	2497.2
28743	13.372	1.8182	0.1	2472.2
28744	13.28	2.0909	0.1	2502.2
28745	13.372	2.	0.1	2478.3
28746	13.28	2.2727	0.1	2506.3
28747	13.372	2.1818	0.1	2483.6
28748	13.28	2.4545	0.1	2509.6
28749	13.372	2.3636	0.1	2487.9
28750	13.28	2.6364	0.1	2512.
28751	13.372	2.5455	0.1	2491.2
28752	13.28	2.8182	0.1	2513.5
28753	13.372	2.7273	0.1	2493.5
28754	13.28	3.	0.1	2514.
28755	13.372	2.9091	0.1	2494.6
28756	13.28	3.1818	0.1	2513.5
28757	13.372	3.0909	0.1	2494.6
28758	13.28	3.3636	0.1	2512.
28759	13.372	3.2727	0.1	2493.5
28760	13.28	3.5455	0.1	2509.6
28761	13.372	3.4545	0.1	2491.2
28762	13.28	3.7273	0.1	2506.3
28763	13.372	3.6364	0.1	2487.9
28764	13.28	3.9091	0.1	2502.2
28765	13.372	3.8182	0.1	2483.6
28766	13.28	4.0909	0.1	2497.2
28767	13.372	4.	0.1	2478.3
28768	13.28	4.2727	0.1	2491.6
28769	13.372	4.1818	0.1	2472.2
28770	13.28	4.4545	0.1	2485.4
28771	13.372	4.3636	0.1	2465.4
28772	13.28	4.6364	0.1	2478.7
28773	13.372	4.5455	0.1	2458.
28774	13.28	4.8182	0.1	2471.8
28775	13.372	4.7273	0.1	2450.2
28776	13.28	5.	0.1	2464.9
28777	13.372	4.9091	0.1	2442.3
28778	13.28	5.1818	0.1	2458.1
28779	13.372	5.0909	0.1	2434.4
28780	13.28	5.3636	0.1	2451.6
28781	13.372	5.2727	0.1	2426.9
28782	13.28	5.5455	0.1	2445.8
28783	13.372	5.4545	0.1	2419.9
28784	13.28	5.7273	0.1	2441.2
28785	13.372	5.6364	0.1	2413.8
28786	13.372	5.8182	0.1	2409.4
28787	13.28	5.9091	0.1	2435.3
28788	13.464	0.27273	0.1	2381.9
28789	13.557	0.18182	0.1	2348.2
28790	13.464	9.0909e-002	0.1	2375.3
28791	13.464	0.45455	0.1	2387.8
28792	13.557	0.36364	0.1	2353.9
28793	13.464	0.63636	0.1	2395.1
28794	13.557	0.54545	0.1	2361.5
28795	13.464	0.81818	0.1	2403.2
28796	13.557	0.72727	0.1	2370.3
28797	13.464	1.	0.1	2411.8
28798	13.557	0.90909	0.1	2379.8
28799	13.464	1.1818	0.1	2420.7
28800	13.557	1.0909	0.1	2389.7
28801	13.464	1.3636	0.1	2429.5
28802	13.557	1.2727	0.1	2399.8
28803	13.464	1.5455	0.1	2438.
28804	13.557	1.4545	0.1	2409.7
28805	13.464	1.7273	0.1	2446.
28806	13.557	1.6364	0.1	2419.2
28807	13.464	1.9091	0.1	2453.3
28808	13.557	1.8182	0.1	2428.
28809	13.464	2.0909	0.1	2459.7
28810	13.557	2.	0.1	2435.9
28811	13.464	2.2727	0.1	2465.2
28812	13.557	2.1818	0.1	2442.8
28813	13.464	2.4545	0.1	2469.5
28814	13.557	2.3636	0.1	2448.5
28815	13.464	2.6364	0.1	2472.6
28816	13.557	2.5455	0.1	2452.8
28817	13.464	2.8182	0.1	2474.5
28818	13.557	2.7273	0.1	2455.7
28819	13.464	3.	0.1	2475.2
28820	13.557	2.9091	0.1	2457.2
28821	13.464	3.1818	0.1	2474.5
28822	13.557	3.0909	0.1	2457.2
28823	13.464	3.3636	0.1	2472.6
28824	13.557	3.2727	0.1	2455.7
28825	13.464	3.5455	0.1	2469.5
28826	13.557	3.4545	0.1	2452.8
28827	13.464	3.7273	0.1	2465.2
28828	13.557	3.6364	0.1	2448.5
28829	13.464	3.9091	0.1	2459.7
28830	13.557	3.8182	0.1	2442.8
28831	13.464	4.0909	0.1	2453.3
28832	13.557	4.	0.1	2435.9
28833	13.464	4.2727	0.1	2446.
28834	13.557	4.1818	0.1	2428.
28835	13.464	4.4545	0.1	2438.
28836	13.557	4.3636	0.1	2419.2
28837	13.464	4.6364	0.1	2429.5
28838	13.557	4.5455	0.1	2409.7
28839	13.464	4.8182	0.1	2420.7
28840	13.557	4.7273	0.1	2399.8
28841	13.464	5.	0.1	2411.8
28842	13.557	4.9091	0.1	2389.7
28843	13.464	5.1818	0.1	2403.2
28844	13.557	5.0909	0.1	2379.8
28845	13.464	5.3636	0.1	2395.1
28846	13.557	5.2727	0.1	2370.3
28847	13.464	5.5455	0.1	2387.8
28848	13.557	5.4545	0.1	2361.5
28849	13.464	5.7273	0.1	2381.9
28850	13.557	5.6364	0.1	2353.9
28851	13.557	5.8182	0.1	2348.2
28852	13.464	5.9091	0.1	2375.3
28853	13.649	0.27273	0.1	2320.1
28854	13.741	0.18182	0.1	2284.
28855	13.649	9.0909e-002	0.1	2312.7
28856	13.649	0.45455	0.1	2327.6
28857	13.741	0.36364	0.1	2291.3
28858	13.649	0.63636	0.1	2336.7
28859	13.741	0.54545	0.1	2300.8
28860	13.649	0.81818	0.1	2346.8
28861	13.741	0.72727	0.1	2311.7
28862	13.649	1.	0.1	2357.7
28863	13.741	0.90909	0.1	2323.6
28864	13.649	1.1818	0.1	2368.9
28865	13.741	1.0909	0.1	2336.1
28866	13.649	1.3636	0.1	2380.
28867	13.741	1.2727	0.1	2348.9
28868	13.649	1.5455	0.1	2390.9
28869	13.741	1.4545	0.1	2361.5
28870	13.649	1.7273	0.1	2401.2
28871	13.741	1.6364	0.1	2373.7
28872	13.649	1.9091	0.1	2410.7
28873	13.741	1.8182	0.1	2385.
28874	13.649	2.0909	0.1	2419.
28875	13.741	2.	0.1	2395.3
28876	13.649	2.2727	0.1	2426.1
28877	13.741	2.1818	0.1	2404.2
28878	13.649	2.4545	0.1	2431.7
28879	13.741	2.3636	0.1	2411.5
28880	13.649	2.6364	0.1	2435.9
28881	13.741	2.5455	0.1	2417.2
28882	13.649	2.8182	0.1	2438.4
28883	13.741	2.7273	0.1	2421.
28884	13.649	3.	0.1	2439.2
28885	13.741	2.9091	0.1	2423.
28886	13.649	3.1818	0.1	2438.4
28887	13.741	3.0909	0.1	2423.
28888	13.649	3.3636	0.1	2435.9
28889	13.741	3.2727	0.1	2421.
28890	13.649	3.5455	0.1	2431.7
28891	13.741	3.4545	0.1	2417.2
28892	13.649	3.7273	0.1	2426.1
28893	13.741	3.6364	0.1	2411.5
28894	13.649	3.9091	0.1	2419.
28895	13.741	3.8182	0.1	2404.2
28896	13.649	4.0909	0.1	2410.7
28897	13.741	4.	0.1	2395.3
28898	13.649	4.2727	0.1	2401.2
28899	13.741	4.1818	0.1	2385.
28900	13.649	4.4545	0.1	2390.9
28901	13.741	4.3636	0.1	2373.7
28902	13.649	4.6364	0.1	2380.
28903	13.741	4.5455	0.1	2361.5
28904	13.649	4.8182	0.1	2368.9
28905	13.741	4.7273	0.1	2348.9
28906	13.649	5.	0.1	2357.7
28907	13.741	4.9091	0.1	2336.1
28908	13.649	5.1818	0.1	2346.8
28909	13.741	5.0909	0.1	2323.6
28910	13.649	5.3636	0.1	2336.7
28911	13.741	5.2727	0.1	2311.7
28912	13.649	5.5455	0.1	2327.6
28913	13.741	5.4545	0.1	2300.8
28914	13.649	5.7273	0.1	2320.1
28915	13.741	5.6364	0.1	2291.3
28916	13.741	5.8182	0.1	2284.
28917	13.649	5.9091	0.1	2312.7
28918	13.833	0.27273	0.1	2255.1
28919	13.926	0.18182	0.1	2216.1
28920	13.833	9.0909e-002	0.1	2246.7
28921	13.833	0.45455	0.1	2264.5
28922	13.926	0.36364	0.1	2225.3
28923	13.833	0.63636	0.1	2275.7
28924	13.926	0.54545	0.1	2236.9
28925	13.833	0.81818	0.1	2288.4
28926	13.926	0.72727	0.1	2250.4
28927	13.833	1.	0.1	2302.
28928	13.926	0.90909	0.1	2265.3
28929	13.833	1.1818	0.1	2316.1
28930	13.926	1.0909	0.1	2281.1
28931	13.833	1.3636	0.1	2330.4
28932	13.926	1.2727	0.1	2297.2
28933	13.833	1.5455	0.1	2344.3
28934	13.926	1.4545	0.1	2313.3
28935	13.833	1.7273	0.1	2357.5
28936	13.926	1.6364	0.1	2328.9
28937	13.833	1.9091	0.1	2369.6
28938	13.926	1.8182	0.1	2343.5
28939	13.833	2.0909	0.1	2380.4
28940	13.926	2.	0.1	2356.7
28941	13.833	2.2727	0.1	2389.6
28942	13.926	2.1818	0.1	2368.3
28943	13.833	2.4545	0.1	2397.
28944	13.926	2.3636	0.1	2377.8
28945	13.833	2.6364	0.1	2402.4
28946	13.926	2.5455	0.1	2385.2
28947	13.833	2.8182	0.1	2405.6
28948	13.926	2.7273	0.1	2390.2
28949	13.833	3.	0.1	2406.7
28950	13.926	2.9091	0.1	2392.8
28951	13.833	3.1818	0.1	2405.6
28952	13.926	3.0909	0.1	2392.8
28953	13.833	3.3636	0.1	2402.4
28954	13.926	3.2727	0.1	2390.2
28955	13.833	3.5455	0.1	2397.
28956	13.926	3.4545	0.1	2385.2
28957	13.833	3.7273	0.1	2389.6
28958	13.926	3.6364	0.1	2377.8
28959	13.833	3.9091	0.1	2380.4
28960	13.926	3.8182	0.1	2368.3
28961	13.833	4.0909	0.1	2369.6
28962	13.926	4.	0.1	2356.7
28963	13.833	4.2727	0.1	2357.5
28964	13.926	4.1818	0.1	2343.5
28965	13.833	4.4545	0.1	2344.3
28966	13.926	4.3636	0.1	2328.9
28967	13.833	4.6364	0.1	2330.4
28968	13.926	4.5455	0.1	2313.3
28969	13.833	4.8182	0.1	2316.1
28970	13.926	4.7273	0.1	2297.2
28971	13.833	5.	0.1	2302.
28972	13.926	4.9091	0.1	2281.1
28973	13.833	5.1818	0.1	2288.4
28974	13.926	5.0909	0.1	2265.3
28975	13.833	5.3636	0.1	2275.7
28976	13.926	5.2727	0.1	2250.4
28977	13.833	5.5455	0.1	2264.5
28978	13.926	5.4545	0.1	2236.9
28979	13.833	5.7273	0.1	2255.1
28980	13.926	5.6364	0.1	2225.3
28981	13.926	5.8182	0.1	2216.1
28982	13.833	5.9091	0.1	2246.7
28983	14.018	0.27273	0.1	2186.2
28984	14.11	0.18182	0.1	2143.6
28985	14.018	9.0909e-002	0.1	2176.6
28986	14.018	0.45455	0.1	2197.7
28987	14.11	0.36364	0.1	2154.9
28988	14.018	0.63636	0.1	2211.6
28989	14.11	0.54545	0.1	2169.2
28990	14.018	0.81818	0.1	2227.4
28991	14.11	0.72727	0.1	2185.9
28992	14.018	1.	0.1	2244.4
28993	14.11	0.90909	0.1	2204.4
28994	14.018	1.1818	0.1	2262.2
28995	14.11	1.0909	0.1	2224.2
28996	14.018	1.3636	0.1	2280.3
28997	14.11	1.2727	0.1	2244.6
28998	14.018	1.5455	0.1	2298.
28999	14.11	1.4545	0.1	2265.1
29000	14.018	1.7273	0.1	2314.9
29001	14.11	1.6364	0.1	2285.
29002	14.018	1.9091	0.1	2330.6
29003	14.11	1.8182	0.1	2303.8
29004	14.018	2.0909	0.1	2344.6
29005	14.11	2.	0.1	2320.8
29006	14.018	2.2727	0.1	2356.5
29007	14.11	2.1818	0.1	2335.8
29008	14.018	2.4545	0.1	2366.1
29009	14.11	2.3636	0.1	2348.2
29010	14.018	2.6364	0.1	2373.1
29011	14.11	2.5455	0.1	2357.8
29012	14.018	2.8182	0.1	2377.3
29013	14.11	2.7273	0.1	2364.3
29014	14.018	3.	0.1	2378.8
29015	14.11	2.9091	0.1	2367.7
29016	14.018	3.1818	0.1	2377.3
29017	14.11	3.0909	0.1	2367.7
29018	14.018	3.3636	0.1	2373.1
29019	14.11	3.2727	0.1	2364.3
29020	14.018	3.5455	0.1	2366.1
29021	14.11	3.4545	0.1	2357.8
29022	14.018	3.7273	0.1	2356.5
29023	14.11	3.6364	0.1	2348.2
29024	14.018	3.9091	0.1	2344.6
29025	14.11	3.8182	0.1	2335.8
29026	14.018	4.0909	0.1	2330.6
29027	14.11	4.	0.1	2320.8
29028	14.018	4.2727	0.1	2314.9
29029	14.11	4.1818	0.1	2303.8
29030	14.018	4.4545	0.1	2298.
29031	14.11	4.3636	0.1	2285.
29032	14.018	4.6364	0.1	2280.3
29033	14.11	4.5455	0.1	2265.1
29034	14.018	4.8182	0.1	2262.2
29035	14.11	4.7273	0.1	2244.6
29036	14.018	5.	0.1	2244.4
29037	14.11	4.9091	0.1	2224.2
29038	14.018	5.1818	0.1	2227.4
29039	14.11	5.0909	0.1	2204.4
29040	14.018	5.3636	0.1	2211.6
29041	14.11	5.2727	0.1	2185.9
29042	14.018	5.5455	0.1	2197.7
29043	14.11	5.4545	0.1	2169.2
29044	14.018	5.7273	0.1	2186.2
29045	14.11	5.6364	0.1	2154.9
29046	14.11	5.8182	0.1	2143.6
29047	14.018	5.9091	0.1	2176.6
29048	14.202	0.27273	0.1	2112.3
29049	14.294	0.18182	0.1	2065.3
29050	14.202	9.0909e-002	0.1	2101.2
29051	14.202	0.45455	0.1	2126.4
29052	14.294	0.36364	0.1	2079.2
29053	14.202	0.63636	0.1	2143.5
29054	14.294	0.54545	0.1	2096.7
29055	14.202	0.81818	0.1	2163.
29056	14.294	0.72727	0.1	2117.2
29057	14.202	1.	0.1	2184.3
29058	14.294	0.90909	0.1	2140.2
29059	14.202	1.1818	0.1	2206.7
29060	14.294	1.0909	0.1	2165.
29061	14.202	1.3636	0.1	2229.6
29062	14.294	1.2727	0.1	2190.8
29063	14.202	1.5455	0.1	2252.2
29064	14.294	1.4545	0.1	2216.8
29065	14.202	1.7273	0.1	2273.9
29066	14.294	1.6364	0.1	2242.2
29067	14.202	1.9091	0.1	2294.
29068	14.294	1.8182	0.1	2266.3
29069	14.202	2.0909	0.1	2312.
29070	14.294	2.	0.1	2288.2
29071	14.202	2.2727	0.1	2327.5
29072	14.294	2.1818	0.1	2307.5
29073	14.202	2.4545	0.1	2339.9
29074	14.294	2.3636	0.1	2323.7
29075	14.202	2.6364	0.1	2349.1
29076	14.294	2.5455	0.1	2336.2
29077	14.202	2.8182	0.1	2354.7
29078	14.294	2.7273	0.1	2344.7
29079	14.202	3.	0.1	2356.5
29080	14.294	2.9091	0.1	2349.1
29081	14.202	3.1818	0.1	2354.7
29082	14.294	3.0909	0.1	2349.1
29083	14.202	3.3636	0.1	2349.1
29084	14.294	3.2727	0.1	2344.7
29085	14.202	3.5455	0.1	2339.9
29086	14.294	3.4545	0.1	2336.2
29087	14.202	3.7273	0.1	2327.5
29088	14.294	3.6364	0.1	2323.7
29089	14.202	3.9091	0.1	2312.
29090	14.294	3.8182	0.1	2307.5
29091	14.202	4.0909	0.1	2294.
29092	14.294	4.	0.1	2288.2
29093	14.202	4.2727	0.1	2273.9
29094	14.294	4.1818	0.1	2266.3
29095	14.202	4.4545	0.1	2252.2
29096	14.294	4.3636	0.1	2242.2
29097	14.202	4.6364	0.1	2229.6
29098	14.294	4.5455	0.1	2216.8
29099	14.202	4.8182	0.1	2206.7
29100	14.294	4.7273	0.1	2190.8
29101	14.202	5.	0.1	2184.3
29102	14.294	4.9091	0.1	2165.
29103	14.202	5.1818	0.1	2163.
29104	14.294	5.0909	0.1	2140.2
29105	14.202	5.3636	0.1	2143.5
29106	14.294	5.2727	0.1	2117.2
29107	14.202	5.5455	0.1	2126.4
29108	14.294	5.4545	0.1	2096.7
29109	14.202	5.7273	0.1	2112.3
29110	14.294	5.6364	0.1	2079.2
29111	14.294	5.8182	0.1	2065.3
29112	14.202	5.9091	0.1	2101.2
29113	14.387	0.27273	0.1	2032.2
29114	14.479	0.18182	0.1	1980.
29115	14.387	9.0909e-002	0.1	2019.5
29116	14.387	0.45455	0.1	2049.5
29117	14.479	0.36364	0.1	1996.8
29118	14.387	0.63636	0.1	2070.4
29119	14.479	0.54545	0.1	2018.
29120	14.387	0.81818	0.1	2094.4
29121	14.479	0.72727	0.1	2043.2
29122	14.387	1.	0.1	2120.9
29123	14.479	0.90909	0.1	2071.7
29124	14.387	1.1818	0.1	2149.1
29125	14.479	1.0909	0.1	2102.7
29126	14.387	1.3636	0.1	2178.1
29127	14.479	1.2727	0.1	2135.2
29128	14.387	1.5455	0.1	2206.9
29129	14.479	1.4545	0.1	2168.3
29130	14.387	1.7273	0.1	2234.6
29131	14.479	1.6364	0.1	2200.7
29132	14.387	1.9091	0.1	2260.5
29133	14.479	1.8182	0.1	2231.5
29134	14.387	2.0909	0.1	2283.8
29135	14.479	2.	0.1	2259.8
29136	14.387	2.2727	0.1	2303.8
29137	14.479	2.1818	0.1	2284.8
29138	14.387	2.4545	0.1	2319.9
29139	14.479	2.3636	0.1	2305.7
29140	14.387	2.6364	0.1	2331.8
29141	14.479	2.5455	0.1	2322.
29142	14.387	2.8182	0.1	2339.1
29143	14.479	2.7273	0.1	2333.1
29144	14.387	3.	0.1	2341.6
29145	14.479	2.9091	0.1	2338.8
29146	14.387	3.1818	0.1	2339.1
29147	14.479	3.0909	0.1	2338.8
29148	14.387	3.3636	0.1	2331.8
29149	14.479	3.2727	0.1	2333.1
29150	14.387	3.5455	0.1	2319.9
29151	14.479	3.4545	0.1	2322.
29152	14.387	3.7273	0.1	2303.8
29153	14.479	3.6364	0.1	2305.7
29154	14.387	3.9091	0.1	2283.8
29155	14.479	3.8182	0.1	2284.8
29156	14.387	4.0909	0.1	2260.5
29157	14.479	4.	0.1	2259.8
29158	14.387	4.2727	0.1	2234.6
29159	14.479	4.1818	0.1	2231.5
29160	14.387	4.4545	0.1	2206.9
29161	14.479	4.3636	0.1	2200.7
29162	14.387	4.6364	0.1	2178.1
29163	14.479	4.5455	0.1	2168.3
29164	14.387	4.8182	0.1	2149.1
29165	14.479	4.7273	0.1	2135.2
29166	14.387	5.	0.1	2120.9
29167	14.479	4.9091	0.1	2102.7
29168	14.387	5.1818	0.1	2094.4
29169	14.479	5.0909	0.1	2071.7
29170	14.387	5.3636	0.1	2070.4
29171	14.479	5.2727	0.1	2043.2
29172	14.387	5.5455	0.1	2049.5
29173	14.479	5.4545	0.1	2018.
29174	14.387	5.7273	0.1	2032.2
29175	14.479	5.6364	0.1	1996.8
29176	14.479	5.8182	0.1	1980.
29177	14.387	5.9091	0.1	2019.5
29178	14.571	0.27273	0.1	1944.6
29179	14.663	0.18182	0.1	1886.2
29180	14.571	9.0909e-002	0.1	1929.9
29181	14.571	0.45455	0.1	1965.4
29182	14.663	0.36364	0.1	1906.3
29183	14.571	0.63636	0.1	1990.9
29184	14.663	0.54545	0.1	1931.8
29185	14.571	0.81818	0.1	2020.5
29186	14.663	0.72727	0.1	1962.5
29187	14.571	1.	0.1	2053.5
29188	14.663	0.90909	0.1	1997.8
29189	14.571	1.1818	0.1	2088.9
29190	14.663	1.0909	0.1	2036.5
29191	14.571	1.3636	0.1	2125.5
29192	14.663	1.2727	0.1	2077.5
29193	14.571	1.5455	0.1	2162.2
29194	14.663	1.4545	0.1	2119.5
29195	14.571	1.7273	0.1	2197.7
29196	14.663	1.6364	0.1	2160.9
29197	14.571	1.9091	0.1	2230.9
29198	14.663	1.8182	0.1	2200.4
29199	14.571	2.0909	0.1	2260.9
29200	14.663	2.	0.1	2236.8
29201	14.571	2.2727	0.1	2286.8
29202	14.663	2.1818	0.1	2269.
29203	14.571	2.4545	0.1	2307.8
29204	14.663	2.3636	0.1	2296.1
29205	14.571	2.6364	0.1	2323.3
29206	14.663	2.5455	0.1	2317.3
29207	14.571	2.8182	0.1	2332.8
29208	14.663	2.7273	0.1	2331.8
29209	14.571	3.	0.1	2336.
29210	14.663	2.9091	0.1	2339.2
29211	14.571	3.1818	0.1	2332.8
29212	14.663	3.0909	0.1	2339.2
29213	14.571	3.3636	0.1	2323.3
29214	14.663	3.2727	0.1	2331.8
29215	14.571	3.5455	0.1	2307.8
29216	14.663	3.4545	0.1	2317.3
29217	14.571	3.7273	0.1	2286.8
29218	14.663	3.6364	0.1	2296.1
29219	14.571	3.9091	0.1	2260.9
29220	14.663	3.8182	0.1	2269.
29221	14.571	4.0909	0.1	2230.9
29222	14.663	4.	0.1	2236.8
29223	14.571	4.2727	0.1	2197.7
29224	14.663	4.1818	0.1	2200.4
29225	14.571	4.4545	0.1	2162.2
29226	14.663	4.3636	0.1	2160.9
29227	14.571	4.6364	0.1	2125.5
29228	14.663	4.5455	0.1	2119.5
29229	14.571	4.8182	0.1	2088.9
29230	14.663	4.7273	0.1	2077.5
29231	14.571	5.	0.1	2053.5
29232	14.663	4.9091	0.1	2036.5
29233	14.571	5.1818	0.1	2020.5
29234	14.663	5.0909	0.1	1997.8
29235	14.571	5.3636	0.1	1990.9
29236	14.663	5.2727	0.1	1962.5
29237	14.571	5.5455	0.1	1965.4
29238	14.663	5.4545	0.1	1931.8
29239	14.571	5.7273	0.1	1944.6
29240	14.663	5.6364	0.1	1906.3
29241	14.663	5.8182	0.1	1886.2
29242	14.571	5.9091	0.1	1929.9
29243	14.756	0.27273	0.1	1847.9
29244	14.848	0.18182	0.1	1782.2
29245	14.756	9.0909e-002	0.1	1830.8
29246	14.756	0.45455	0.1	1872.8
29247	14.848	0.36364	0.1	1805.9
29248	14.756	0.63636	0.1	1903.6
29249	14.848	0.54545	0.1	1836.4
29250	14.756	0.81818	0.1	1940.
29251	14.848	0.72727	0.1	1873.8
29252	14.756	1.	0.1	1981.
29253	14.848	0.90909	0.1	1917.1
29254	14.756	1.1818	0.1	2025.3
29255	14.848	1.0909	0.1	1965.4
29256	14.756	1.3636	0.1	2071.7
29257	14.848	1.2727	0.1	2017.1
29258	14.756	1.5455	0.1	2118.3
29259	14.848	1.4545	0.1	2070.3
29260	14.756	1.7273	0.1	2163.7
29261	14.848	1.6364	0.1	2123.2
29262	14.756	1.9091	0.1	2206.4
29263	14.848	1.8182	0.1	2173.8
29264	14.756	2.0909	0.1	2245.
29265	14.848	2.	0.1	2220.6
29266	14.756	2.2727	0.1	2278.4
29267	14.848	2.1818	0.1	2262.2
29268	14.756	2.4545	0.1	2305.6
29269	14.848	2.3636	0.1	2297.3
29270	14.756	2.6364	0.1	2325.8
29271	14.848	2.5455	0.1	2324.8
29272	14.756	2.8182	0.1	2338.2
29273	14.848	2.7273	0.1	2343.7
29274	14.756	3.	0.1	2342.4
29275	14.848	2.9091	0.1	2353.4
29276	14.756	3.1818	0.1	2338.2
29277	14.848	3.0909	0.1	2353.4
29278	14.756	3.3636	0.1	2325.8
29279	14.848	3.2727	0.1	2343.7
29280	14.756	3.5455	0.1	2305.6
29281	14.848	3.4545	0.1	2324.8
29282	14.756	3.7273	0.1	2278.4
29283	14.848	3.6364	0.1	2297.3
29284	14.756	3.9091	0.1	2245.
29285	14.848	3.8182	0.1	2262.2
29286	14.756	4.0909	0.1	2206.4
29287	14.848	4.	0.1	2220.6
29288	14.756	4.2727	0.1	2163.7
29289	14.848	4.1818	0.1	2173.8
29290	14.756	4.4545	0.1	2118.3
29291	14.848	4.3636	0.1	2123.2
29292	14.756	4.6364	0.1	2071.7
29293	14.848	4.5455	0.1	2070.3
29294	14.756	4.8182	0.1	2025.3
29295	14.848	4.7273	0.1	2017.1
29296	14.756	5.	0.1	1981.
29297	14.848	4.9091	0.1	1965.4
29298	14.756	5.1818	0.1	1940.
29299	14.848	5.0909	0.1	1917.1
29300	14.756	5.3636	0.1	1903.6
29301	14.848	5.2727	0.1	1873.8
29302	14.756	5.5455	0.1	1872.8
29303	14.848	5.4545	0.1	1836.4
29304	14.756	5.7273	0.1	1847.9
29305	14.848	5.6364	0.1	1805.9
29306	14.848	5.8182	0.1	1782.2
29307	14.756	5.9091	0.1	1830.8
29308	14.94	0.27273	0.1	1740.3
29309	15.032	0.18182	0.1	1666.1
29310	14.94	9.0909e-002	0.1	1720.4
29311	14.94	0.45455	0.1	1769.7
29312	15.032	0.36364	0.1	1693.8
29313	14.94	0.63636	0.1	1806.9
29314	15.032	0.54545	0.1	1730.
29315	14.94	0.81818	0.1	1851.3
29316	15.032	0.72727	0.1	1775.1
29317	14.94	1.	0.1	1902.
29318	15.032	0.90909	0.1	1828.2
29319	14.94	1.1818	0.1	1957.6
29320	15.032	1.0909	0.1	1888.3
29321	14.94	1.3636	0.1	2016.1
29322	15.032	1.2727	0.1	1953.2
29323	14.94	1.5455	0.1	2075.5
29324	15.032	1.4545	0.1	2020.8
29325	14.94	1.7273	0.1	2133.5
29326	15.032	1.6364	0.1	2088.3
29327	14.94	1.9091	0.1	2188.3
29328	15.032	1.8182	0.1	2153.3
29329	14.94	2.0909	0.1	2238.
29330	15.032	2.	0.1	2213.6
29331	14.94	2.2727	0.1	2281.2
29332	15.032	2.1818	0.1	2267.2
29333	14.94	2.4545	0.1	2316.4
29334	15.032	2.3636	0.1	2312.5
29335	14.94	2.6364	0.1	2342.6
29336	15.032	2.5455	0.1	2348.
29337	14.94	2.8182	0.1	2358.8
29338	15.032	2.7273	0.1	2372.6
29339	14.94	3.	0.1	2364.3
29340	15.032	2.9091	0.1	2385.1
29341	14.94	3.1818	0.1	2358.8
29342	15.032	3.0909	0.1	2385.1
29343	14.94	3.3636	0.1	2342.6
29344	15.032	3.2727	0.1	2372.6
29345	14.94	3.5455	0.1	2316.4
29346	15.032	3.4545	0.1	2348.
29347	14.94	3.7273	0.1	2281.2
29348	15.032	3.6364	0.1	2312.5
29349	14.94	3.9091	0.1	2238.
29350	15.032	3.8182	0.1	2267.2
29351	14.94	4.0909	0.1	2188.3
29352	15.032	4.	0.1	2213.6
29353	14.94	4.2727	0.1	2133.5
29354	15.032	4.1818	0.1	2153.3
29355	14.94	4.4545	0.1	2075.5
29356	15.032	4.3636	0.1	2088.3
29357	14.94	4.6364	0.1	2016.1
29358	15.032	4.5455	0.1	2020.8
29359	14.94	4.8182	0.1	1957.6
29360	15.032	4.7273	0.1	1953.2
29361	14.94	5.	0.1	1902.
29362	15.032	4.9091	0.1	1888.3
29363	14.94	5.1818	0.1	1851.3
29364	15.032	5.0909	0.1	1828.2
29365	14.94	5.3636	0.1	1806.9
29366	15.032	5.2727	0.1	1775.1
29367	14.94	5.5455	0.1	1769.7
29368	15.032	5.4545	0.1	1730.
29369	14.94	5.7273	0.1	1740.3
29370	15.032	5.6364	0.1	1693.8
29371	15.032	5.8182	0.1	1666.1
29372	14.94	5.9091	0.1	1720.4
29373	15.124	0.27273	0.1	1619.8
29374	15.217	0.18182	0.1	1536.2
29375	15.124	9.0909e-002	0.1	1596.7
29376	15.124	0.45455	0.1	1654.3
29377	15.217	0.36364	0.1	1567.9
29378	15.124	0.63636	0.1	1698.6
29379	15.217	0.54545	0.1	1610.4
29380	15.124	0.81818	0.1	1752.6
29381	15.217	0.72727	0.1	1664.4
29382	15.124	1.	0.1	1815.2
29383	15.217	0.90909	0.1	1729.3
29384	15.124	1.1818	0.1	1884.6
29385	15.217	1.0909	0.1	1803.6
29386	15.124	1.3636	0.1	1958.5
29387	15.217	1.2727	0.1	1885.1
29388	15.124	1.5455	0.1	2034.2
29389	15.217	1.4545	0.1	1970.9
29390	15.124	1.7273	0.1	2108.5
29391	15.217	1.6364	0.1	2057.4
29392	15.124	1.9091	0.1	2178.9
29393	15.217	1.8182	0.1	2141.
29394	15.124	2.0909	0.1	2242.9
29395	15.217	2.	0.1	2218.7
29396	15.124	2.2727	0.1	2298.6
29397	15.217	2.1818	0.1	2287.8
29398	15.124	2.4545	0.1	2344.1
29399	15.217	2.3636	0.1	2346.2
29400	15.124	2.6364	0.1	2378.
29401	15.217	2.5455	0.1	2391.9
29402	15.124	2.8182	0.1	2398.9
29403	15.217	2.7273	0.1	2423.4
29404	15.124	3.	0.1	2405.9
29405	15.217	2.9091	0.1	2439.5
29406	15.124	3.1818	0.1	2398.9
29407	15.217	3.0909	0.1	2439.5
29408	15.124	3.3636	0.1	2378.
29409	15.217	3.2727	0.1	2423.4
29410	15.124	3.5455	0.1	2344.1
29411	15.217	3.4545	0.1	2391.9
29412	15.124	3.7273	0.1	2298.6
29413	15.217	3.6364	0.1	2346.2
29414	15.124	3.9091	0.1	2242.9
29415	15.217	3.8182	0.1	2287.8
29416	15.124	4.0909	0.1	2178.9
29417	15.217	4.	0.1	2218.7
29418	15.124	4.2727	0.1	2108.5
29419	15.217	4.1818	0.1	2141.
29420	15.124	4.4545	0.1	2034.2
29421	15.217	4.3636	0.1	2057.4
29422	15.124	4.6364	0.1	1958.5
29423	15.217	4.5455	0.1	1970.9
29424	15.124	4.8182	0.1	1884.6
29425	15.217	4.7273	0.1	1885.1
29426	15.124	5.	0.1	1815.2
29427	15.217	4.9091	0.1	1803.6
29428	15.124	5.1818	0.1	1752.6
29429	15.217	5.0909	0.1	1729.3
29430	15.124	5.3636	0.1	1698.6
29431	15.217	5.2727	0.1	1664.4
29432	15.124	5.5455	0.1	1654.3
29433	15.217	5.4545	0.1	1610.4
29434	15.124	5.7273	0.1	1619.8
29435	15.217	5.6364	0.1	1567.9
29436	15.217	5.8182	0.1	1536.2
29437	15.124	5.9091	0.1	1596.7
29438	15.309	0.27273	0.1	1484.5
29439	15.401	0.18182	0.1	1390.6
29440	15.309	9.0909e-002	0.1	1457.8
29441	15.309	0.45455	0.1	1524.4
29442	15.401	0.36364	0.1	1426.3
29443	15.309	0.63636	0.1	1576.9
29444	15.401	0.54545	0.1	1475.7
29445	15.309	0.81818	0.1	1642.
29446	15.401	0.72727	0.1	1539.9
29447	15.309	1.	0.1	1718.8
29448	15.401	0.90909	0.1	1618.4
29449	15.309	1.1818	0.1	1805.3
29450	15.401	1.0909	0.1	1709.8
29451	15.309	1.3636	0.1	1898.6
29452	15.401	1.2727	0.1	1811.9
29453	15.309	1.5455	0.1	1995.1
29454	15.401	1.4545	0.1	1920.8
29455	15.309	1.7273	0.1	2090.6
29456	15.401	1.6364	0.1	2032.
29457	15.309	1.9091	0.1	2181.3
29458	15.401	1.8182	0.1	2140.1
29459	15.309	2.0909	0.1	2263.8
29460	15.401	2.	0.1	2240.6
29461	15.309	2.2727	0.1	2335.5
29462	15.401	2.1818	0.1	2329.8
29463	15.309	2.4545	0.1	2394.
29464	15.401	2.3636	0.1	2404.7
29465	15.309	2.6364	0.1	2437.3
29466	15.401	2.5455	0.1	2462.8
29467	15.309	2.8182	0.1	2463.9
29468	15.401	2.7273	0.1	2502.4
29469	15.309	3.	0.1	2472.8
29470	15.401	2.9091	0.1	2522.3
29471	15.309	3.1818	0.1	2463.9
29472	15.401	3.0909	0.1	2522.3
29473	15.309	3.3636	0.1	2437.3
29474	15.401	3.2727	0.1	2502.4
29475	15.309	3.5455	0.1	2394.
29476	15.401	3.4545	0.1	2462.8
29477	15.309	3.7273	0.1	2335.5
29478	15.401	3.6364	0.1	2404.7
29479	15.309	3.9091	0.1	2263.8
29480	15.401	3.8182	0.1	2329.8
29481	15.309	4.0909	0.1	2181.3
29482	15.401	4.	0.1	2240.6
29483	15.309	4.2727	0.1	2090.6
29484	15.401	4.1818	0.1	2140.1
29485	15.309	4.4545	0.1	1995.1
29486	15.401	4.3636	0.1	2032.
29487	15.309	4.6364	0.1	1898.6
29488	15.401	4.5455	0.1	1920.8
29489	15.309	4.8182	0.1	1805.3
29490	15.401	4.7273	0.1	1811.9
29491	15.309	5.	0.1	1718.8
29492	15.401	4.9091	0.1	1709.8
29493	15.309	5.1818	0.1	1642.
29494	15.401	5.0909	0.1	1618.4
29495	15.309	5.3636	0.1	1576.9
29496	15.401	5.2727	0.1	1539.9
29497	15.309	5.5455	0.1	1524.4
29498	15.401	5.4545	0.1	1475.7
29499	15.309	5.7273	0.1	1484.5
29500	15.401	5.6364	0.1	1426.3
29501	15.401	5.8182	0.1	1390.6
29502	15.309	5.9091	0.1	1457.8
29503	15.493	0.27273	0.1	1332.7
29504	15.586	0.18182	0.1	1228.1
29505	15.493	9.0909e-002	0.1	1302.
29506	15.493	0.45455	0.1	1378.2
29507	15.586	0.36364	0.1	1267.6
29508	15.493	0.63636	0.1	1439.9
29509	15.586	0.54545	0.1	1324.6
29510	15.493	0.81818	0.1	1517.8
29511	15.586	0.72727	0.1	1400.1
29512	15.493	1.	0.1	1611.3
29513	15.586	0.90909	0.1	1494.
29514	15.493	1.1818	0.1	1718.5
29515	15.586	1.0909	0.1	1605.5
29516	15.493	1.3636	0.1	1836.
29517	15.586	1.2727	0.1	1732.3
29518	15.493	1.5455	0.1	1959.3
29519	15.586	1.4545	0.1	1870.7
29520	15.493	1.7273	0.1	2082.6
29521	15.586	1.6364	0.1	2014.4
29522	15.493	1.9091	0.1	2200.2
29523	15.586	1.8182	0.1	2155.7
29524	15.493	2.0909	0.1	2307.1
29525	15.586	2.	0.1	2287.
29526	15.493	2.2727	0.1	2399.2
29527	15.586	2.1818	0.1	2402.4
29528	15.493	2.4545	0.1	2473.5
29529	15.586	2.3636	0.1	2497.6
29530	15.493	2.6364	0.1	2527.7
29531	15.586	2.5455	0.1	2569.5
29532	15.493	2.8182	0.1	2560.5
29533	15.586	2.7273	0.1	2617.
29534	15.493	3.	0.1	2571.5
29535	15.586	2.9091	0.1	2640.4
29536	15.493	3.1818	0.1	2560.5
29537	15.586	3.0909	0.1	2640.4
29538	15.493	3.3636	0.1	2527.7
29539	15.586	3.2727	0.1	2617.
29540	15.493	3.5455	0.1	2473.5
29541	15.586	3.4545	0.1	2569.5
29542	15.493	3.7273	0.1	2399.2
29543	15.586	3.6364	0.1	2497.6
29544	15.493	3.9091	0.1	2307.1
29545	15.586	3.8182	0.1	2402.4
29546	15.493	4.0909	0.1	2200.2
29547	15.586	4.	0.1	2287.
29548	15.493	4.2727	0.1	2082.6
29549	15.586	4.1818	0.1	2155.7
29550	15.493	4.4545	0.1	1959.3
29551	15.586	4.3636	0.1	2014.4
29552	15.493	4.6364	0.1	1836.
29553	15.586	4.5455	0.1	1870.7
29554	15.493	4.8182	0.1	1718.5
29555	15.586	4.7273	0.1	1732.3
29556	15.493	5.	0.1	1611.3
29557	15.586	4.9091	0.1	1605.5
29558	15.493	5.1818	0.1	1517.8
29559	15.586	5.0909	0.1	1494.
29560	15.493	5.3636	0.1	1439.9
29561	15.586	5.2727	0.1	1400.1
29562	15.493	5.5455	0.1	1378.2
29563	15.586	5.4545	0.1	1324.6
29564	15.493	5.7273	0.1	1332.7
29565	15.586	5.6364	0.1	1267.6
29566	15.586	5.8182	0.1	1228.1
29567	15.493	5.9091	0.1	1302.
29568	15.678	0.27273	0.1	1163.5
29569	15.77	0.18182	0.1	1048.2
29570	15.678	9.0909e-002	0.1	1128.1
29571	15.678	0.45455	0.1	1214.9
29572	15.77	0.36364	0.1	1091.4
29573	15.678	0.63636	0.1	1286.6
29574	15.77	0.54545	0.1	1156.9
29575	15.678	0.81818	0.1	1379.
29576	15.77	0.72727	0.1	1245.
29577	15.678	1.	0.1	1491.5
29578	15.77	0.90909	0.1	1355.8
29579	15.678	1.1818	0.1	1622.8
29580	15.77	1.0909	0.1	1489.3
29581	15.678	1.3636	0.1	1770.2
29582	15.77	1.2727	0.1	1644.8
29583	15.678	1.5455	0.1	1928.3
29584	15.77	1.4545	0.1	1819.8
29585	15.678	1.7273	0.1	2089.2
29586	15.77	1.6364	0.1	2007.6
29587	15.678	1.9091	0.1	2243.5
29588	15.77	1.8182	0.1	2195.9
29589	15.678	2.0909	0.1	2382.9
29590	15.77	2.	0.1	2370.9
29591	15.678	2.2727	0.1	2501.
29592	15.77	2.1818	0.1	2521.5
29593	15.678	2.4545	0.1	2593.5
29594	15.77	2.3636	0.1	2640.3
29595	15.678	2.6364	0.1	2658.4
29596	15.77	2.5455	0.1	2724.3
29597	15.678	2.8182	0.1	2696.3
29598	15.77	2.7273	0.1	2775.7
29599	15.678	3.	0.1	2708.7
29600	15.77	2.9091	0.1	2799.5
29601	15.678	3.1818	0.1	2696.3
29602	15.77	3.0909	0.1	2799.5
29603	15.678	3.3636	0.1	2658.4
29604	15.77	3.2727	0.1	2775.7
29605	15.678	3.5455	0.1	2593.5
29606	15.77	3.4545	0.1	2724.3
29607	15.678	3.7273	0.1	2501.
29608	15.77	3.6364	0.1	2640.3
29609	15.678	3.9091	0.1	2382.9
29610	15.77	3.8182	0.1	2521.5
29611	15.678	4.0909	0.1	2243.5
29612	15.77	4.	0.1	2370.9
29613	15.678	4.2727	0.1	2089.2
29614	15.77	4.1818	0.1	2195.9
29615	15.678	4.4545	0.1	1928.3
29616	15.77	4.3636	0.1	2007.6
29617	15.678	4.6364	0.1	1770.2
29618	15.77	4.5455	0.1	1819.8
29619	15.678	4.8182	0.1	1622.8
29620	15.77	4.7273	0.1	1644.8
29621	15.678	5.	0.1	1491.5
29622	15.77	4.9091	0.1	1489.3
29623	15.678	5.1818	0.1	1379.
29624	15.77	5.0909	0.1	1355.8
29625	15.678	5.3636	0.1	1286.6
29626	15.77	5.2727	0.1	1245.
29627	15.678	5.5455	0.1	1214.9
29628	15.77	5.4545	0.1	1156.9
29629	15.678	5.7273	0.1	1163.5
29630	15.77	5.6364	0.1	1091.4
29631	15.77	5.8182	0.1	1048.2
29632	15.678	5.9091	0.1	1128.1
29633	15.862	0.27273	0.1	976.87
29634	15.954	0.18182	0.1	851.49
29635	15.862	9.0909e-002	0.1	935.97
29636	15.862	0.45455	0.1	1035.1
29637	15.954	0.36364	0.1	899.67
29638	15.862	0.63636	0.1	1118.4
29639	15.954	0.54545	0.1	975.87
29640	15.862	0.81818	0.1	1226.4
29641	15.954	0.72727	0.1	1078.2
29642	15.862	1.	0.1	1359.2
29643	15.954	0.90909	0.1	1206.3
29644	15.862	1.1818	0.1	1517.2
29645	15.954	1.0909	0.1	1361.5
29646	15.862	1.3636	0.1	1700.
29647	15.954	1.2727	0.1	1547.1
29648	15.862	1.5455	0.1	1903.5
29649	15.954	1.4545	0.1	1766.
29650	15.862	1.7273	0.1	2117.1
29651	15.954	1.6364	0.1	2014.
29652	15.862	1.9091	0.1	2324.7
29653	15.954	1.8182	0.1	2274.9
29654	15.862	2.0909	0.1	2510.
29655	15.954	2.	0.1	2519.3
29656	15.862	2.2727	0.1	2660.7
29657	15.954	2.1818	0.1	2717.6
29658	15.862	2.4545	0.1	2770.5
29659	15.954	2.3636	0.1	2859.5
29660	15.862	2.6364	0.1	2840.6
29661	15.954	2.5455	0.1	2943.1
29662	15.862	2.8182	0.1	2877.7
29663	15.954	2.7273	0.1	2984.2
29664	15.862	3.	0.1	2889.1
29665	15.954	2.9091	0.1	3000.2
29666	15.862	3.1818	0.1	2877.7
29667	15.954	3.0909	0.1	3000.2
29668	15.862	3.3636	0.1	2840.6
29669	15.954	3.2727	0.1	2984.2
29670	15.862	3.5455	0.1	2770.5
29671	15.954	3.4545	0.1	2943.1
29672	15.862	3.7273	0.1	2660.7
29673	15.954	3.6364	0.1	2859.5
29674	15.862	3.9091	0.1	2510.
29675	15.954	3.8182	0.1	2717.6
29676	15.862	4.0909	0.1	2324.7
29677	15.954	4.	0.1	2519.3
29678	15.862	4.2727	0.1	2117.1
29679	15.954	4.1818	0.1	2274.9
29680	15.862	4.4545	0.1	1903.5
29681	15.954	4.3636	0.1	2014.
29682	15.862	4.6364	0.1	1700.
29683	15.954	4.5455	0.1	1766.
29684	15.862	4.8182	0.1	1517.2
29685	15.954	4.7273	0.1	1547.1
29686	15.862	5.	0.1	1359.2
29687	15.954	4.9091	0.1	1361.5
29688	15.862	5.1818	0.1	1226.4
29689	15.954	5.0909	0.1	1206.3
29690	15.862	5.3636	0.1	1118.4
29691	15.954	5.2727	0.1	1078.2
29692	15.862	5.5455	0.1	1035.1
29693	15.954	5.4545	0.1	975.87
29694	15.862	5.7273	0.1	976.87
29695	15.954	5.6364	0.1	899.67
29696	15.954	5.8182	0.1	851.49
29697	15.862	5.9091	0.1	935.97
29698	16.047	0.27273	0.1	775.56
29699	16.139	0.18182	0.1	640.44
29700	16.047	9.0909e-002	0.1	726.8
29701	16.047	0.45455	0.1	843.66
29702	16.139	0.36364	0.1	698.96
29703	16.047	0.63636	0.1	941.31
29704	16.139	0.54545	0.1	791.43
29705	16.047	0.81818	0.1	1065.7
29706	16.139	0.72727	0.1	910.01
29707	16.047	1.	0.1	1217.6
29708	16.139	0.90909	0.1	1053.6
29709	16.047	1.1818	0.1	1401.2
29710	16.139	1.0909	0.1	1226.1
29711	16.047	1.3636	0.1	1622.6
29712	16.139	1.2727	0.1	1436.7
29713	16.047	1.5455	0.1	1884.1
29714	16.139	1.4545	0.1	1698.8
29715	16.047	1.7273	0.1	2175.8
29716	16.139	1.6364	0.1	2030.5
29717	16.047	1.9091	0.1	2470.8
29718	16.139	1.8182	0.1	2419.
29719	16.047	2.0909	0.1	2726.8
29720	16.139	2.	0.1	2787.1
29721	16.047	2.2727	0.1	2915.5
29722	16.139	2.1818	0.1	3066.9
29723	16.047	2.4545	0.1	3030.5
29724	16.139	2.3636	0.1	3203.1
29725	16.047	2.6364	0.1	3084.9
29726	16.139	2.5455	0.1	3240.1
29727	16.047	2.8182	0.1	3105.1
29728	16.139	2.7273	0.1	3237.9
29729	16.047	3.	0.1	3109.7
29730	16.139	2.9091	0.1	3230.3
29731	16.047	3.1818	0.1	3105.1
29732	16.139	3.0909	0.1	3230.3
29733	16.047	3.3636	0.1	3084.9
29734	16.139	3.2727	0.1	3237.9
29735	16.047	3.5455	0.1	3030.5
29736	16.139	3.4545	0.1	3240.1
29737	16.047	3.7273	0.1	2915.5
29738	16.139	3.6364	0.1	3203.1
29739	16.047	3.9091	0.1	2726.8
29740	16.139	3.8182	0.1	3066.9
29741	16.047	4.0909	0.1	2470.8
29742	16.139	4.	0.1	2787.1
29743	16.047	4.2727	0.1	2175.8
29744	16.139	4.1818	0.1	2419.
29745	16.047	4.4545	0.1	1884.1
29746	16.139	4.3636	0.1	2030.5
29747	16.047	4.6364	0.1	1622.6
29748	16.139	4.5455	0.1	1698.8
29749	16.047	4.8182	0.1	1401.2
29750	16.139	4.7273	0.1	1436.7
29751	16.047	5.	0.1	1217.6
29752	16.139	4.9091	0.1	1226.1
29753	16.047	5.1818	0.1	1065.7
29754	16.139	5.0909	0.1	1053.6
29755	16.047	5.3636	0.1	941.31
29756	16.139	5.2727	0.1	910.01
29757	16.047	5.5455	0.1	843.66
29758	16.139	5.4545	0.1	791.43
29759	16.047	5.7273	0.1	775.56
29760	16.139	5.6364	0.1	698.96
29761	16.139	5.8182	0.1	640.44
29762	16.047	5.9091	0.1	726.8
29763	16.231	0.27273	0.1	566.88
29764	16.323	0.18182	0.1	424.73
29765	16.231	9.0909e-002	0.1	503.04
29766	16.231	0.45455	0.1	653.92
29767	16.323	0.36364	0.1	514.74
29768	16.231	0.63636	0.1	770.52
29769	16.323	0.54545	0.1	635.29
29770	16.231	0.81818	0.1	910.24
29771	16.323	0.72727	0.1	773.18
29772	16.231	1.	0.1	1075.9
29773	16.323	0.90909	0.1	930.14
29774	16.231	1.1818	0.1	1277.
29775	16.323	1.0909	0.1	1114.
29776	16.231	1.3636	0.1	1529.4
29777	16.323	1.2727	0.1	1338.9
29778	16.231	1.5455	0.1	1859.5
29779	16.323	1.4545	0.1	1633.2
29780	16.231	1.7273	0.1	2282.3
29781	16.323	1.6364	0.1	2036.2
29782	16.231	1.9091	0.1	2733.5
29783	16.323	1.8182	0.1	2729.6
29784	16.231	2.0909	0.1	3123.9
29785	16.323	2.	0.1	3558.9
29786	16.231	2.2727	0.1	3350.4
29787	16.323	2.1818	0.1	3769.
29788	16.231	2.4545	0.1	3409.3
29789	16.323	2.3636	0.1	3729.
29790	16.231	2.6364	0.1	3390.6
29791	16.323	2.5455	0.1	3597.9
29792	16.231	2.8182	0.1	3361.3
29793	16.323	2.7273	0.1	3503.6
29794	16.231	3.	0.1	3349.2
29795	16.323	2.9091	0.1	3454.4
29796	16.231	3.1818	0.1	3361.3
29797	16.323	3.0909	0.1	3454.4
29798	16.231	3.3636	0.1	3390.6
29799	16.323	3.2727	0.1	3503.6
29800	16.231	3.5455	0.1	3409.3
29801	16.323	3.4545	0.1	3597.9
29802	16.231	3.7273	0.1	3350.4
29803	16.323	3.6364	0.1	3729.
29804	16.231	3.9091	0.1	3123.9
29805	16.323	3.8182	0.1	3769.
29806	16.231	4.0909	0.1	2733.5
29807	16.323	4.	0.1	3558.9
29808	16.231	4.2727	0.1	2282.3
29809	16.323	4.1818	0.1	2729.6
29810	16.231	4.4545	0.1	1859.5
29811	16.323	4.3636	0.1	2036.2
29812	16.231	4.6364	0.1	1529.4
29813	16.323	4.5455	0.1	1633.2
29814	16.231	4.8182	0.1	1277.
29815	16.323	4.7273	0.1	1338.9
29816	16.231	5.	0.1	1075.9
29817	16.323	4.9091	0.1	1114.
29818	16.231	5.1818	0.1	910.24
29819	16.323	5.0909	0.1	930.14
29820	16.231	5.3636	0.1	770.52
29821	16.323	5.2727	0.1	773.18
29822	16.231	5.5455	0.1	653.92
29823	16.323	5.4545	0.1	635.29
29824	16.231	5.7273	0.1	566.88
29825	16.323	5.6364	0.1	514.74
29826	16.323	5.8182	0.1	424.73
29827	16.231	5.9091	0.1	503.04
29828	16.416	0.27273	0.1	385.19
29829	16.508	0.18182	0.1	227.69
29830	16.416	9.0909e-002	0.1	273.8
29831	16.416	0.45455	0.1	514.02
29832	16.508	0.36364	0.1	342.35
29833	16.416	0.63636	0.1	656.47
29834	16.508	0.54545	0.1	456.92
29835	16.416	0.81818	0.1	811.99
29836	16.508	0.72727	0.1	574.34
29837	16.416	1.	0.1	988.59
29838	16.508	0.90909	0.1	701.11
29839	16.416	1.1818	0.1	1199.5
29840	16.508	1.0909	0.1	845.87
29841	16.416	1.3636	0.1	1472.
29842	16.508	1.2727	0.1	1021.3
29843	16.416	1.5455	0.1	1852.3
29844	16.508	1.4545	0.1	1255.4
29845	16.416	1.7273	0.1	2518.5
29846	16.508	1.6364	0.1	1589.9
29847	16.416	1.9091	0.1	3542.9
29848	16.508	1.8182	0.1	2196.
29849	16.416	2.0909	0.1	4173.1
29850	16.508	2.	0.1	6106.2
29851	16.416	2.2727	0.1	4137.4
29852	16.508	2.1818	0.1	4952.1
29853	16.416	2.4545	0.1	3914.4
29854	16.508	2.3636	0.1	4300.4
29855	16.416	2.6364	0.1	3709.5
29856	16.508	2.5455	0.1	3915.5
29857	16.416	2.8182	0.1	3595.6
29858	16.508	2.7273	0.1	3706.9
29859	16.416	3.	0.1	3558.4
29860	16.508	2.9091	0.1	3613.3
29861	16.416	3.1818	0.1	3595.6
29862	16.508	3.0909	0.1	3613.3
29863	16.416	3.3636	0.1	3709.5
29864	16.508	3.2727	0.1	3706.9
29865	16.416	3.5455	0.1	3914.4
29866	16.508	3.4545	0.1	3915.5
29867	16.416	3.7273	0.1	4137.4
29868	16.508	3.6364	0.1	4300.4
29869	16.416	3.9091	0.1	4173.1
29870	16.508	3.8182	0.1	4952.1
29871	16.416	4.0909	0.1	3542.9
29872	16.508	4.	0.1	6106.2
29873	16.416	4.2727	0.1	2518.5
29874	16.508	4.1818	0.1	2196.
29875	16.416	4.4545	0.1	1852.3
29876	16.508	4.3636	0.1	1589.9
29877	16.416	4.6364	0.1	1472.
29878	16.508	4.5455	0.1	1255.4
29879	16.416	4.8182	0.1	1199.5
29880	16.508	4.7273	0.1	1021.3
29881	16.416	5.	0.1	988.59
29882	16.508	4.9091	0.1	845.87
29883	16.416	5.1818	0.1	811.99
29884	16.508	5.0909	0.1	701.11
29885	16.416	5.3636	0.1	656.47
29886	16.508	5.2727	0.1	574.34
29887	16.416	5.5455	0.1	514.02
29888	16.508	5.4545	0.1	456.92
29889	16.416	5.7273	0.1	385.19
29890	16.508	5.6364	0.1	342.35
29891	16.508	5.8182	0.1	227.69
29892	16.416	5.9091	0.1	273.8
29893	16.767	3.7273	0.1	5180.2
29894	16.683	3.8182	0.1	5710.2
29895	16.767	3.9091	0.1	6988.9
29896	16.767	3.5455	0.1	4302.8
29897	16.683	3.6364	0.1	4561.
29898	16.767	3.3636	0.1	3889.9
29899	16.683	3.4545	0.1	4035.2
29900	16.767	3.1818	0.1	3693.
29901	16.683	3.2727	0.1	3766.2
29902	16.767	3.	0.1	3634.
29903	16.683	3.0909	0.1	3651.1
29904	16.767	2.8182	0.1	3693.
29905	16.683	2.9091	0.1	3651.1
29906	16.767	2.6364	0.1	3889.9
29907	16.683	2.7273	0.1	3766.2
29908	16.767	2.4545	0.1	4302.8
29909	16.683	2.5455	0.1	4035.2
29910	16.767	2.2727	0.1	5180.2
29911	16.683	2.3636	0.1	4561.
29912	16.683	2.1818	0.1	5710.2
29913	16.767	2.0909	0.1	6988.9
29914	16.6	3.7273	0.1	5156.1
29915	16.6	3.9091	0.1	6818.4
29916	16.6	3.5455	0.1	4312.5
29917	16.6	3.3636	0.1	3916.3
29918	16.6	3.1818	0.1	3725.1
29919	16.6	3.	0.1	3668.
29920	16.6	2.8182	0.1	3725.1
29921	16.6	2.6364	0.1	3916.3
29922	16.6	2.4545	0.1	4312.5
29923	16.6	2.2727	0.1	5156.1
29924	16.6	2.0909	0.1	6818.4
29925	16.767	5.7273	0.1	197.46
29926	16.767	5.9091	0.1	76.476
29927	16.767	5.8182	5.e-002	31.571
29928	16.767	5.5455	0.1	302.44
29929	16.767	5.6364	5.e-002	67.835
29930	16.767	5.3636	0.1	402.97
29931	16.767	5.4545	5.e-002	103.57
29932	16.767	5.1818	0.1	509.68
29933	16.767	5.2727	5.e-002	142.38
29934	16.767	5.	0.1	630.95
29935	16.767	5.0909	5.e-002	186.5
29936	16.767	4.8182	0.1	777.49
29937	16.767	4.9091	5.e-002	239.18
29938	16.767	4.6364	0.1	970.05
29939	16.767	4.7273	5.e-002	305.84
29940	16.767	4.4545	0.1	1234.4
29941	16.767	4.5455	5.e-002	396.27
29942	16.767	4.2727	0.1	1745.4
29943	16.767	4.3636	5.e-002	538.45
29944	16.767	4.0909	0.1	4752.1
29945	16.767	4.1818	5.e-002	913.6
29946	16.683	4.	0.1	7349.3
29947	16.767	4.	5.e-002	785.79
29948	16.6	4.0909	0.1	4446.5
29949	16.6	4.	5.e-002	1035.6
29950	16.6	4.2727	0.1	1558.4
29951	16.6	4.1818	5.e-002	1123.5
29952	16.6	4.4545	0.1	1125.4
29953	16.6	4.3636	5.e-002	701.77
29954	16.6	4.6364	0.1	909.76
29955	16.6	4.5455	5.e-002	525.07
29956	16.6	4.8182	0.1	750.92
29957	16.6	4.7273	5.e-002	413.73
29958	16.6	5.	0.1	626.93
29959	16.6	4.9091	5.e-002	328.44
29960	16.6	5.1818	0.1	520.38
29961	16.6	5.0909	5.e-002	258.96
29962	16.6	5.3636	0.1	422.6
29963	16.6	5.2727	5.e-002	199.1
29964	16.6	5.5455	0.1	326.14
29965	16.6	5.4545	5.e-002	145.34
29966	16.6	5.7273	0.1	220.
29967	16.6	5.6364	5.e-002	95.317
29968	16.6	5.9091	0.1	88.788
29969	16.6	5.8182	5.e-002	45.27
29970	16.767	0.27273	0.1	197.46
29971	16.767	9.0909e-002	0.1	76.476
29972	16.767	0.18182	5.e-002	31.571
29973	16.767	0.45455	0.1	302.44
29974	16.767	0.36364	5.e-002	67.835
29975	16.767	0.63636	0.1	402.97
29976	16.767	0.54545	5.e-002	103.57
29977	16.767	0.81818	0.1	509.68
29978	16.767	0.72727	5.e-002	142.38
29979	16.767	1.	0.1	630.95
29980	16.767	0.90909	5.e-002	186.5
29981	16.767	1.1818	0.1	777.49
29982	16.767	1.0909	5.e-002	239.18
29983	16.767	1.3636	0.1	970.05
29984	16.767	1.2727	5.e-002	305.84
29985	16.767	1.5455	0.1	1234.4
29986	16.767	1.4545	5.e-002	396.27
29987	16.767	1.7273	0.1	1745.4
29988	16.767	1.6364	5.e-002	538.45
29989	16.767	1.9091	0.1	4752.1
29990	16.767	1.8182	5.e-002	913.6
29991	16.683	2.	0.1	7349.3
29992	16.767	2.	5.e-002	785.79
29993	16.6	1.9091	0.1	4446.5
29994	16.6	2.	5.e-002	1035.6
29995	16.6	1.7273	0.1	1558.4
29996	16.6	1.8182	5.e-002	1123.5
29997	16.6	1.5455	0.1	1125.4
29998	16.6	1.6364	5.e-002	701.77
29999	16.6	1.3636	0.1	909.76
30000	16.6	1.4545	5.e-002	525.07
30001	16.6	1.1818	0.1	750.92
30002	16.6	1.2727	5.e-002	413.73
30003	16.6	1.	0.1	626.93
30004	16.6	1.0909	5.e-002	328.44
30005	16.6	0.81818	0.1	520.38
30006	16.6	0.90909	5.e-002	258.96
30007	16.6	0.63636	0.1	422.6
30008	16.6	0.72727	5.e-002	199.1
30009	16.6	0.45455	0.1	326.14
30010	16.6	0.54545	5.e-002	145.34
30011	16.6	0.27273	0.1	220.
30012	16.6	0.36364	5.e-002	95.317
30013	16.6	9.0909e-002	0.1	88.788
30014	16.6	0.18182	5.e-002	45.27
30015	16.857	6.	0.1	95.375
30016	16.767	6.	5.e-002	10.106
30017	17.038	6.	0.1	263.29
30018	16.948	6.	5.e-002	9.4571
30019	17.219	6.	0.1	419.7
30020	17.128	6.	5.e-002	23.483
30021	17.4	6.	0.1	553.96
30022	17.309	6.	5.e-002	31.395
30023	17.58	6.	0.1	667.34
30024	17.49	6.	5.e-002	36.272
30025	17.761	6.	0.1	760.
30026	17.671	6.	5.e-002	38.928
30027	17.942	6.	0.1	832.73
30028	17.852	6.	5.e-002	40.131
30029	18.123	6.	0.1	887.04
30030	18.033	6.	5.e-002	40.416
30031	18.304	6.	0.1	924.87
30032	18.213	6.	5.e-002	40.18
30033	18.485	6.	0.1	948.38
30034	18.394	6.	5.e-002	39.697
30035	18.665	6.	0.1	959.71
30036	18.575	6.	5.e-002	39.146
30037	18.846	6.	0.1	960.84
30038	18.756	6.	5.e-002	38.633
30039	19.027	6.	0.1	953.56
30040	18.937	6.	5.e-002	38.213
30041	19.208	6.	0.1	939.41
30042	19.118	6.	5.e-002	37.907
30043	19.389	6.	0.1	919.71
30044	19.298	6.	5.e-002	37.712
30045	19.57	6.	0.1	895.56
30046	19.479	6.	5.e-002	37.615
30047	19.75	6.	0.1	867.86
30048	19.66	6.	5.e-002	37.594
30049	19.931	6.	0.1	837.36
30050	19.841	6.	5.e-002	37.623
30051	20.112	6.	0.1	804.65
30052	20.022	6.	5.e-002	37.678
30053	20.293	6.	0.1	770.23
30054	20.202	6.	5.e-002	37.735
30055	20.474	6.	0.1	734.49
30056	20.383	6.	5.e-002	37.771
30057	20.655	6.	0.1	697.75
30058	20.564	6.	5.e-002	37.766
30059	20.835	6.	0.1	660.25
30060	20.745	6.	5.e-002	37.701
30061	21.016	6.	0.1	622.2
30062	20.926	6.	5.e-002	37.561
30063	21.197	6.	0.1	583.76
30064	21.107	6.	5.e-002	37.33
30065	21.378	6.	0.1	545.04
30066	21.288	6.	5.e-002	36.995
30067	21.559	6.	0.1	506.16
30068	21.468	6.	5.e-002	36.544
30069	21.74	6.	0.1	467.2
30070	21.649	6.	5.e-002	35.965
30071	21.92	6.	0.1	428.21
30072	21.83	6.	5.e-002	35.246
30073	22.101	6.	0.1	389.26
30074	22.011	6.	5.e-002	34.375
30075	22.282	6.	0.1	350.39
30076	22.192	6.	5.e-002	33.337
30077	22.463	6.	0.1	311.64
30078	22.372	6.	5.e-002	32.118
30079	22.644	6.	0.1	273.07
30080	22.553	6.	5.e-002	30.698
30081	22.825	6.	0.1	234.72
30082	22.734	6.	5.e-002	29.055
30083	23.005	6.	0.1	196.66
30084	22.915	6.	5.e-002	27.159
30085	23.186	6.	0.1	158.98
30086	23.096	6.	5.e-002	24.967
30087	23.367	6.	0.1	121.82
30088	23.277	6.	5.e-002	22.42
30089	23.548	6.	0.1	85.464
30090	23.458	6.	5.e-002	19.422
30091	23.729	6.	0.1	50.51
30092	23.638	6.	5.e-002	15.787
30093	23.91	6.	0.1	18.886
30094	23.819	6.	5.e-002	10.953
30095	24.	5.9091	0.1	5.952
30096	24.	6.	5.e-002	4.558
30097	24.	5.7273	0.1	6.7161
30098	24.	5.8182	5.e-002	4.1081
30099	24.	5.5455	0.1	6.8682
30100	24.	5.6364	5.e-002	4.4345
30101	24.	5.3636	0.1	6.9043
30102	24.	5.4545	5.e-002	4.7462
30103	24.	5.1818	0.1	6.8928
30104	24.	5.2727	5.e-002	4.8868
30105	24.	5.	0.1	6.8579
30106	24.	5.0909	5.e-002	4.932
30107	24.	4.8182	0.1	6.8175
30108	24.	4.9091	5.e-002	4.9176
30109	24.	4.6364	0.1	6.7765
30110	24.	4.7273	5.e-002	4.8672
30111	24.	4.4545	0.1	6.7381
30112	24.	4.5455	5.e-002	4.7971
30113	24.	4.2727	0.1	6.7035
30114	24.	4.3636	5.e-002	4.7184
30115	24.	4.0909	0.1	6.6735
30116	24.	4.1818	5.e-002	4.639
30117	24.	3.9091	0.1	6.6482
30118	24.	4.	5.e-002	4.5643
30119	24.	3.7273	0.1	6.6277
30120	24.	3.8182	5.e-002	4.4981
30121	24.	3.5455	0.1	6.6119
30122	24.	3.6364	5.e-002	4.4429
30123	24.	3.3636	0.1	6.6007
30124	24.	3.4545	5.e-002	4.4004
30125	24.	3.1818	0.1	6.594
30126	24.	3.2727	5.e-002	4.3716
30127	24.	3.	0.1	6.5918
30128	24.	3.0909	5.e-002	4.3571
30129	24.	2.8182	0.1	6.594
30130	24.	2.9091	5.e-002	4.3571
30131	24.	2.6364	0.1	6.6007
30132	24.	2.7273	5.e-002	4.3716
30133	24.	2.4545	0.1	6.6119
30134	24.	2.5455	5.e-002	4.4004
30135	24.	2.2727	0.1	6.6277
30136	24.	2.3636	5.e-002	4.4429
30137	24.	2.0909	0.1	6.6483
30138	24.	2.1818	5.e-002	4.4981
30139	24.	1.9091	0.1	6.6735
30140	24.	2.	5.e-002	4.5643
30141	24.	1.7273	0.1	6.7035
30142	24.	1.8182	5.e-002	4.639
30143	24.	1.5455	0.1	6.7381
30144	24.	1.6364	5.e-002	4.7184
30145	24.	1.3636	0.1	6.7765
30146	24.	1.4545	5.e-002	4.7971
30147	24.	1.1818	0.1	6.8175
30148	24.	1.2727	5.e-002	4.8672
30149	24.	1.	0.1	6.8579
30150	24.	1.0909	5.e-002	4.9176
30151	24.	0.81818	0.1	6.8928
30152	24.	0.90909	5.e-002	4.9321
30153	24.	0.63636	0.1	6.9043
30154	24.	0.72727	5.e-002	4.8868
30155	24.	0.45455	0.1	6.8682
30156	24.	0.54545	5.e-002	4.7462
30157	24.	0.27273	0.1	6.7161
30158	24.	0.36364	5.e-002	4.4345
30159	24.	9.0909e-002	0.1	5.952
30160	24.	0.18182	5.e-002	4.1081
30161	2.3842e-015	0.27273	0.1	3543.1
30162	7.9472e-016	9.0909e-002	0.1	1438.3
30163	1.6109e-015	0.18182	5.e-002	95.899
30164	3.9736e-015	0.45455	0.1	5162.2
30165	3.2219e-015	0.36364	5.e-002	49.585
30166	5.563e-015	0.63636	0.1	6010.5
30167	4.8328e-015	0.54545	5.e-002	44.76
30168	7.1525e-015	0.81818	0.1	6548.8
30169	6.4438e-015	0.72727	5.e-002	39.318
30170	8.7419e-015	1.	0.1	6918.
30171	8.0547e-015	0.90909	5.e-002	33.414
30172	1.0331e-014	1.1818	0.1	7185.7
30173	9.6657e-015	1.0909	5.e-002	28.33
30174	1.1921e-014	1.3636	0.1	7386.
30175	1.1277e-014	1.2727	5.e-002	24.206
30176	1.351e-014	1.5455	0.1	7538.9
30177	1.2888e-014	1.4545	5.e-002	20.856
30178	1.51e-014	1.7273	0.1	7657.
30179	1.4498e-014	1.6364	5.e-002	18.143
30180	1.6689e-014	1.9091	0.1	7748.6
30181	1.6109e-014	1.8182	5.e-002	15.955
30182	1.8279e-014	2.0909	0.1	7819.2
30183	1.772e-014	2.	5.e-002	14.205
30184	1.9868e-014	2.2727	0.1	7872.8
30185	1.9331e-014	2.1818	5.e-002	12.829
30186	2.1457e-014	2.4545	0.1	7912.2
30187	2.0942e-014	2.3636	5.e-002	11.778
30188	2.3047e-014	2.6364	0.1	7939.
30189	2.2553e-014	2.5455	5.e-002	11.018
30190	2.4636e-014	2.8182	0.1	7954.7
30191	2.4164e-014	2.7273	5.e-002	10.523
30192	2.6226e-014	3.	0.1	7959.9
30193	2.5775e-014	2.9091	5.e-002	10.28
30194	2.7815e-014	3.1818	0.1	7954.7
30195	2.7386e-014	3.0909	5.e-002	10.28
30196	2.9405e-014	3.3636	0.1	7939.
30197	2.8997e-014	3.2727	5.e-002	10.523
30198	3.0994e-014	3.5455	0.1	7912.2
30199	3.0608e-014	3.4545	5.e-002	11.018
30200	3.2583e-014	3.7273	0.1	7872.8
30201	3.2219e-014	3.6364	5.e-002	11.778
30202	3.4173e-014	3.9091	0.1	7819.2
30203	3.383e-014	3.8182	5.e-002	12.829
30204	3.5762e-014	4.0909	0.1	7748.6
30205	3.5441e-014	4.	5.e-002	14.205
30206	3.7352e-014	4.2727	0.1	7657.
30207	3.7052e-014	4.1818	5.e-002	15.955
30208	3.8941e-014	4.4545	0.1	7538.9
30209	3.8663e-014	4.3636	5.e-002	18.143
30210	4.0531e-014	4.6364	0.1	7386.
30211	4.0274e-014	4.5455	5.e-002	20.856
30212	4.212e-014	4.8182	0.1	7185.7
30213	4.1885e-014	4.7273	5.e-002	24.206
30214	4.371e-014	5.	0.1	6918.
30215	4.3495e-014	4.9091	5.e-002	28.33
30216	4.5299e-014	5.1818	0.1	6548.8
30217	4.5106e-014	5.0909	5.e-002	33.414
30218	4.6888e-014	5.3636	0.1	6010.5
30219	4.6717e-014	5.2727	5.e-002	39.318
30220	4.8478e-014	5.5455	0.1	5162.2
30221	4.8328e-014	5.4545	5.e-002	44.76
30222	5.0067e-014	5.7273	0.1	3543.1
30223	4.9939e-014	5.6364	5.e-002	49.585
30224	5.1657e-014	5.9091	0.1	1438.3
30225	5.155e-014	5.8182	5.e-002	95.899
30226	23.91	0.	0.1	18.885
30227	24.	0.	5.e-002	4.558
30228	23.729	0.	0.1	50.51
30229	23.819	0.	5.e-002	10.953
30230	23.548	0.	0.1	85.464
30231	23.638	0.	5.e-002	15.787
30232	23.367	0.	0.1	121.82
30233	23.458	0.	5.e-002	19.422
30234	23.186	0.	0.1	158.98
30235	23.277	0.	5.e-002	22.42
30236	23.005	0.	0.1	196.66
30237	23.096	0.	5.e-002	24.967
30238	22.825	0.	0.1	234.72
30239	22.915	0.	5.e-002	27.159
30240	22.644	0.	0.1	273.07
30241	22.734	0.	5.e-002	29.055
30242	22.463	0.	0.1	311.64
30243	22.553	0.	5.e-002	30.698
30244	22.282	0.	0.1	350.39
30245	22.372	0.	5.e-002	32.118
30246	22.101	0.	0.1	389.26
30247	22.192	0.	5.e-002	33.337
30248	21.92	0.	0.1	428.21
30249	22.011	0.	5.e-002	34.375
30250	21.74	0.	0.1	467.2
30251	21.83	0.	5.e-002	35.246
30252	21.559	0.	0.1	506.16
30253	21.649	0.	5.e-002	35.965
30254	21.378	0.	0.1	545.04
30255	21.468	0.	5.e-002	36.544
30256	21.197	0.	0.1	583.76
30257	21.288	0.	5.e-002	36.995
30258	21.016	1.4013e-045	0.1	622.2
30259	21.107	0.	5.e-002	37.33
30260	20.835	1.4013e-045	0.1	660.25
30261	20.926	0.	5.e-002	37.561
30262	20.655	1.4013e-045	0.1	697.75
30263	20.745	0.	5.e-002	37.701
30264	20.474	1.4013e-045	0.1	734.49
30265	20.564	0.	5.e-002	37.766
30266	20.293	1.4013e-045	0.1	770.23
30267	20.383	0.	5.e-002	37.771
30268	20.112	1.4013e-045	0.1	804.65
30269	20.202	0.	5.e-002	37.735
30270	19.931	1.4013e-045	0.1	837.36
30271	20.022	0.	5.e-002	37.679
30272	19.75	1.4013e-045	0.1	867.86
30273	19.841	0.	5.e-002	37.623
30274	19.57	1.4013e-045	0.1	895.56
30275	19.66	0.	5.e-002	37.594
30276	19.389	1.4013e-045	0.1	919.71
30277	19.479	0.	5.e-002	37.615
30278	19.208	1.4013e-045	0.1	939.41
30279	19.298	0.	5.e-002	37.712
30280	19.027	1.4013e-045	0.1	953.56
30281	19.118	0.	5.e-002	37.907
30282	18.846	1.4013e-045	0.1	960.84
30283	18.937	0.	5.e-002	38.213
30284	18.665	1.4013e-045	0.1	959.71
30285	18.756	0.	5.e-002	38.633
30286	18.485	1.4013e-045	0.1	948.38
30287	18.575	0.	5.e-002	39.146
30288	18.304	1.4013e-045	0.1	924.87
30289	18.394	0.	5.e-002	39.698
30290	18.123	1.4013e-045	0.1	887.04
30291	18.213	0.	5.e-002	40.18
30292	17.942	1.4013e-045	0.1	832.73
30293	18.033	0.	5.e-002	40.416
30294	17.761	1.4013e-045	0.1	760.
30295	17.852	0.	5.e-002	40.131
30296	17.58	1.4013e-045	0.1	667.34
30297	17.671	0.	5.e-002	38.928
30298	17.4	1.4013e-045	0.1	553.96
30299	17.49	0.	5.e-002	36.272
30300	17.219	1.4013e-045	0.1	419.7
30301	17.309	0.	5.e-002	31.395
30302	17.038	1.4013e-045	0.1	263.29
30303	17.128	0.	5.e-002	23.483
30304	16.857	1.4013e-045	0.1	95.375
30305	16.948	0.	5.e-002	9.4571
30306	16.767	1.4013e-045	5.e-002	10.106
30307	16.508	-1.1341e-029	0.1	127.74
30308	16.6	-1.1404e-029	5.e-002	12.765
30309	16.323	-1.1214e-029	0.1	361.5
30310	16.416	0.	5.e-002	3.9059
30311	16.139	-1.1087e-029	0.1	597.29
30312	16.231	0.	5.e-002	13.239
30313	15.954	-1.096e-029	0.1	816.59
30314	16.047	0.	5.e-002	15.
30315	15.77	-1.0834e-029	0.1	1019.2
30316	15.862	0.	5.e-002	12.991
30317	15.586	-1.0707e-029	0.1	1203.8
30318	15.678	0.	5.e-002	8.4755
30319	15.401	-1.058e-029	0.1	1370.
30320	15.493	0.	5.e-002	3.1376
30321	15.217	-1.0454e-029	0.1	1518.7
30322	15.309	0.	5.e-002	5.4764
30323	15.032	-1.0327e-029	0.1	1651.1
30324	15.124	0.	5.e-002	12.218
30325	14.848	-1.02e-029	0.1	1769.
30326	14.94	0.	5.e-002	19.02
30327	14.663	-1.0073e-029	0.1	1874.6
30328	14.756	0.	5.e-002	25.464
30329	14.479	-9.9468e-030	0.1	1969.6
30330	14.571	0.	5.e-002	31.394
30331	14.294	-9.8201e-030	0.1	2055.8
30332	14.387	0.	5.e-002	36.749
30333	14.11	-9.6933e-030	0.1	2134.7
30334	14.202	0.	5.e-002	41.522
30335	13.926	-9.5666e-030	0.1	2207.8
30336	14.018	0.	5.e-002	45.736
30337	13.741	-9.4399e-030	0.1	2276.2
30338	13.833	0.	5.e-002	49.43
30339	13.557	-9.3132e-030	0.1	2340.7
30340	13.649	0.	5.e-002	52.654
30341	13.372	-9.1865e-030	0.1	2402.2
30342	13.464	0.	5.e-002	55.457
30343	13.188	-9.0598e-030	0.1	2461.4
30344	13.28	0.	5.e-002	57.889
30345	13.003	-8.9331e-030	0.1	2518.6
30346	13.096	0.	5.e-002	59.995
30347	12.819	-8.8064e-030	0.1	2574.4
30348	12.911	0.	5.e-002	61.815
30349	12.634	-8.6797e-030	0.1	2629.
30350	12.727	0.	5.e-002	63.386
30351	12.45	-8.5529e-030	0.1	2682.8
30352	12.542	0.	5.e-002	64.738
30353	12.266	-8.4262e-030	0.1	2736.
30354	12.358	0.	5.e-002	65.9
30355	12.081	-8.2995e-030	0.1	2788.7
30356	12.173	0.	5.e-002	66.892
30357	11.897	-8.1728e-030	0.1	2841.1
30358	11.989	0.	5.e-002	67.734
30359	11.712	-8.0461e-030	0.1	2893.2
30360	11.804	0.	5.e-002	68.442
30361	11.528	-7.9194e-030	0.1	2945.3
30362	11.62	0.	5.e-002	69.027
30363	11.343	-7.7927e-030	0.1	2997.3
30364	11.436	0.	5.e-002	69.502
30365	11.159	-7.666e-030	0.1	3049.3
30366	11.251	0.	5.e-002	69.873
30367	10.974	-7.5393e-030	0.1	3101.3
30368	11.067	0.	5.e-002	70.146
30369	10.79	-7.4126e-030	0.1	3153.5
30370	10.882	0.	5.e-002	70.326
30371	10.606	-7.2858e-030	0.1	3205.7
30372	10.698	0.	5.e-002	70.417
30373	10.421	-7.1591e-030	0.1	3258.1
30374	10.513	0.	5.e-002	70.419
30375	10.237	-7.0324e-030	0.1	3310.7
30376	10.329	0.	5.e-002	70.334
30377	10.052	-6.9057e-030	0.1	3363.5
30378	10.144	0.	5.e-002	70.16
30379	9.8678	-6.779e-030	0.1	3416.5
30380	9.96	0.	5.e-002	69.897
30381	9.6833	-6.6523e-030	0.1	3469.7
30382	9.7756	0.	5.e-002	69.542
30383	9.4989	-6.5256e-030	0.1	3523.1
30384	9.5911	0.	5.e-002	69.092
30385	9.3144	-6.3989e-030	0.1	3576.8
30386	9.4067	0.	5.e-002	68.543
30387	9.13	-6.2722e-030	0.1	3630.7
30388	9.2222	0.	5.e-002	67.889
30389	8.9456	-6.1455e-030	0.1	3684.9
30390	9.0378	0.	5.e-002	67.126
30391	8.7611	-6.0187e-030	0.1	3739.4
30392	8.8533	0.	5.e-002	66.246
30393	8.5767	-5.892e-030	0.1	3794.2
30394	8.6689	0.	5.e-002	65.243
30395	8.3922	-5.7653e-030	0.1	3849.3
30396	8.4844	0.	5.e-002	64.109
30397	8.2078	-5.6386e-030	0.1	3904.6
30398	8.3	0.	5.e-002	62.834
30399	8.0233	-5.5119e-030	0.1	3960.3
30400	8.1156	0.	5.e-002	61.408
30401	7.8389	-5.3852e-030	0.1	4016.4
30402	7.9311	0.	5.e-002	59.82
30403	7.6544	-5.2585e-030	0.1	4072.8
30404	7.7467	0.	5.e-002	58.059
30405	7.47	-5.1318e-030	0.1	4129.6
30406	7.5622	0.	5.e-002	56.112
30407	7.2856	-5.0051e-030	0.1	4186.7
30408	7.3778	0.	5.e-002	53.963
30409	7.1011	-4.8783e-030	0.1	4244.2
30410	7.1933	0.	5.e-002	51.598
30411	6.9167	-4.7516e-030	0.1	4302.2
30412	7.0089	0.	5.e-002	49.
30413	6.7322	-4.6249e-030	0.1	4360.6
30414	6.8244	0.	5.e-002	46.15
30415	6.5478	-4.4982e-030	0.1	4419.4
30416	6.64	0.	5.e-002	43.029
30417	6.3633	-4.3715e-030	0.1	4478.7
30418	6.4556	0.	5.e-002	39.616
30419	6.1789	-4.2448e-030	0.1	4538.5
30420	6.2711	0.	5.e-002	35.888
30421	5.9944	-4.1181e-030	0.1	4598.8
30422	6.0867	0.	5.e-002	31.82
30423	5.81	-3.9914e-030	0.1	4659.6
30424	5.9022	0.	5.e-002	27.387
30425	5.6256	-3.8647e-030	0.1	4721.
30426	5.7178	0.	5.e-002	22.561
30427	5.4411	-3.738e-030	0.1	4782.9
30428	5.5333	0.	5.e-002	17.318
30429	5.2567	-3.6112e-030	0.1	4845.4
30430	5.3489	0.	5.e-002	11.64
30431	5.0722	-3.4845e-030	0.1	4908.5
30432	5.1644	0.	5.e-002	5.5967
30433	4.8878	-3.3578e-030	0.1	4972.2
30434	4.98	0.	5.e-002	2.491
30435	4.7033	-3.2311e-030	0.1	5036.4
30436	4.7956	0.	5.e-002	9.0988
30437	4.5189	-3.1044e-030	0.1	5101.3
30438	4.6111	0.	5.e-002	16.979
30439	4.3344	-2.9777e-030	0.1	5166.7
30440	4.4267	0.	5.e-002	25.597
30441	4.15	-2.851e-030	0.1	5232.6
30442	4.2422	0.	5.e-002	34.963
30443	3.9656	-2.7243e-030	0.1	5298.9
30444	4.0578	0.	5.e-002	45.126
30445	3.7811	-2.5976e-030	0.1	5365.6
30446	3.8733	0.	5.e-002	56.143
30447	3.5967	-2.4709e-030	0.1	5432.4
30448	3.6889	0.	5.e-002	68.081
30449	3.4122	-2.3441e-030	0.1	5499.3
30450	3.5044	0.	5.e-002	81.014
30451	3.2278	-2.2174e-030	0.1	5565.8
30452	3.32	0.	5.e-002	95.025
30453	3.0433	-2.0907e-030	0.1	5631.8
30454	3.1356	0.	5.e-002	110.2
30455	2.8589	-1.964e-030	0.1	5696.6
30456	2.9511	0.	5.e-002	126.65
30457	2.6744	-1.8373e-030	0.1	5759.6
30458	2.7667	0.	5.e-002	144.49
30459	2.49	-1.7106e-030	0.1	5820.
30460	2.5822	0.	5.e-002	163.84
30461	2.3056	-1.5839e-030	0.1	5876.7
30462	2.3978	0.	5.e-002	184.87
30463	2.1211	-1.4572e-030	0.1	5928.
30464	2.2133	0.	5.e-002	207.75
30465	1.9367	-1.3305e-030	0.1	5971.8
30466	2.0289	0.	5.e-002	232.71
30467	1.7522	-1.2037e-030	0.1	6005.4
30468	1.8444	0.	5.e-002	260.02
30469	1.5678	-1.077e-030	0.1	6024.4
30470	1.66	0.	5.e-002	290.02
30471	1.3833	-9.5033e-031	0.1	6023.1
30472	1.4756	0.	5.e-002	323.17
30473	1.1989	-8.2362e-031	0.1	5992.4
30474	1.2911	0.	5.e-002	360.08
30475	1.0144	-6.9691e-031	0.1	5918.3
30476	1.1067	0.	5.e-002	401.62
30477	0.83	-5.702e-031	0.1	5777.3
30478	0.92222	0.	5.e-002	449.05
30479	0.64556	-4.4349e-031	0.1	5524.2
30480	0.73778	0.	5.e-002	504.85
30481	0.46111	-3.1678e-031	0.1	5072.7
30482	0.55333	0.	5.e-002	572.44
30483	0.27667	-1.9007e-031	0.1	4166.1
30484	0.36889	0.	5.e-002	663.66
30485	9.2222e-002	-6.3355e-032	0.1	1951.4
30486	0.18444	0.	5.e-002	844.82
30487	0.	0.	5.e-002	1119.5
30488	9.2222e-002	6.	0.1	1951.4
30489	5.2451e-014	6.	5.e-002	1119.5
30490	0.27667	6.	0.1	4166.1
30491	0.18444	6.	5.e-002	844.82
30492	0.46111	6.	0.1	5072.7
30493	0.36889	6.	5.e-002	663.66
30494	0.64556	6.	0.1	5524.2
30495	0.55333	6.	5.e-002	572.44
30496	0.83	6.	0.1	5777.3
30497	0.73778	6.	5.e-002	504.85
30498	1.0144	6.	0.1	5918.3
30499	0.92222	6.	5.e-002	449.05
30500	1.1989	6.	0.1	5992.4
30501	1.1067	6.	5.e-002	401.62
30502	1.3833	6.	0.1	6023.1
30503	1.2911	6.	5.e-002	360.08
30504	1.5678	6.	0.1	6024.4
30505	1.4756	6.	5.e-002	323.17
30506	1.7522	6.	0.1	6005.4
30507	1.66	6.	5.e-002	290.02
30508	1.9367	6.	0.1	5971.8
30509	1.8444	6.	5.e-002	260.02
30510	2.1211	6.	0.1	5928.
30511	2.0289	6.	5.e-002	232.71
30512	2.3056	6.	0.1	5876.7
30513	2.2133	6.	5.e-002	207.75
30514	2.49	6.	0.1	5820.
30515	2.3978	6.	5.e-002	184.87
30516	2.6744	6.	0.1	5759.6
30517	2.5822	6.	5.e-002	163.84
30518	2.8589	6.	0.1	5696.6
30519	2.7667	6.	5.e-002	144.49
30520	3.0433	6.	0.1	5631.8
30521	2.9511	6.	5.e-002	126.65
30522	3.2278	6.	0.1	5565.8
30523	3.1356	6.	5.e-002	110.2
30524	3.4122	6.	0.1	5499.3
30525	3.32	6.	5.e-002	95.025
30526	3.5967	6.	0.1	5432.4
30527	3.5044	6.	5.e-002	81.014
30528	3.7811	6.	0.1	5365.6
30529	3.6889	6.	5.e-002	68.081
30530	3.9656	6.	0.1	5298.9
30531	3.8733	6.	5.e-002	56.143
30532	4.15	6.	0.1	5232.6
30533	4.0578	6.	5.e-002	45.126
30534	4.3344	6.	0.1	5166.7
30535	4.2422	6.	5.e-002	34.964
30536	4.5189	6.	0.1	5101.3
30537	4.4267	6.	5.e-002	25.597
30538	4.7033	6.	0.1	5036.4
30539	4.6111	6.	5.e-002	16.979
30540	4.8878	6.	0.1	4972.2
30541	4.7956	6.	5.e-002	9.099
30542	5.0722	6.	0.1	4908.5
30543	4.98	6.	5.e-002	2.491
30544	5.2567	6.	0.1	4845.4
30545	5.1644	6.	5.e-002	5.5964
30546	5.4411	6.	0.1	4782.9
30547	5.3489	6.	5.e-002	11.64
30548	5.6256	6.	0.1	4721.
30549	5.5333	6.	5.e-002	17.317
30550	5.81	6.	0.1	4659.6
30551	5.7178	6.	5.e-002	22.561
30552	5.9944	6.	0.1	4598.8
30553	5.9022	6.	5.e-002	27.387
30554	6.1789	6.	0.1	4538.5
30555	6.0867	6.	5.e-002	31.82
30556	6.3633	6.	0.1	4478.7
30557	6.2711	6.	5.e-002	35.888
30558	6.5478	6.	0.1	4419.4
30559	6.4556	6.	5.e-002	39.616
30560	6.7322	6.	0.1	4360.6
30561	6.64	6.	5.e-002	43.029
30562	6.9167	6.	0.1	4302.2
30563	6.8244	6.	5.e-002	46.15
30564	7.1011	6.	0.1	4244.2
30565	7.0089	6.	5.e-002	48.999
30566	7.2856	6.	0.1	4186.7
30567	7.1933	6.	5.e-002	51.598
30568	7.47	6.	0.1	4129.6
30569	7.3778	6.	5.e-002	53.963
30570	7.6544	6.	0.1	4072.8
30571	7.5622	6.	5.e-002	56.111
30572	7.8389	6.	0.1	4016.4
30573	7.7467	6.	5.e-002	58.059
30574	8.0233	6.	0.1	3960.3
30575	7.9311	6.	5.e-002	59.82
30576	8.2078	6.	0.1	3904.6
30577	8.1156	6.	5.e-002	61.408
30578	8.3922	6.	0.1	3849.3
30579	8.3	6.	5.e-002	62.833
30580	8.5767	6.	0.1	3794.2
30581	8.4844	6.	5.e-002	64.109
30582	8.7611	6.	0.1	3739.4
30583	8.6689	6.	5.e-002	65.243
30584	8.9456	6.	0.1	3684.9
30585	8.8533	6.	5.e-002	66.246
30586	9.13	6.	0.1	3630.7
30587	9.0378	6.	5.e-002	67.126
30588	9.3144	6.	0.1	3576.8
30589	9.2222	6.	5.e-002	67.889
30590	9.4989	6.	0.1	3523.1
30591	9.4067	6.	5.e-002	68.542
30592	9.6833	6.	0.1	3469.7
30593	9.5911	6.	5.e-002	69.092
30594	9.8678	6.	0.1	3416.5
30595	9.7756	6.	5.e-002	69.542
30596	10.052	6.	0.1	3363.5
30597	9.96	6.	5.e-002	69.897
30598	10.237	6.	0.1	3310.7
30599	10.144	6.	5.e-002	70.16
30600	10.421	6.	0.1	3258.1
30601	10.329	6.	5.e-002	70.334
30602	10.606	6.	0.1	3205.7
30603	10.513	6.	5.e-002	70.419
30604	10.79	6.	0.1	3153.5
30605	10.698	6.	5.e-002	70.417
30606	10.974	6.	0.1	3101.3
30607	10.882	6.	5.e-002	70.326
30608	11.159	6.	0.1	3049.3
30609	11.067	6.	5.e-002	70.146
30610	11.343	6.	0.1	2997.3
30611	11.251	6.	5.e-002	69.872
30612	11.528	6.	0.1	2945.3
30613	11.436	6.	5.e-002	69.502
30614	11.712	6.	0.1	2893.2
30615	11.62	6.	5.e-002	69.027
30616	11.897	6.	0.1	2841.1
30617	11.804	6.	5.e-002	68.441
30618	12.081	6.	0.1	2788.7
30619	11.989	6.	5.e-002	67.734
30620	12.266	6.	0.1	2736.
30621	12.173	6.	5.e-002	66.892
30622	12.45	6.	0.1	2682.8
30623	12.358	6.	5.e-002	65.899
30624	12.634	6.	0.1	2629.
30625	12.542	6.	5.e-002	64.738
30626	12.819	6.	0.1	2574.4
30627	12.727	6.	5.e-002	63.386
30628	13.003	6.	0.1	2518.6
30629	12.911	6.	5.e-002	61.815
30630	13.188	6.	0.1	2461.4
30631	13.096	6.	5.e-002	59.994
30632	13.372	6.	0.1	2402.2
30633	13.28	6.	5.e-002	57.889
30634	13.557	6.	0.1	2340.7
30635	13.464	6.	5.e-002	55.457
30636	13.741	6.	0.1	2276.2
30637	13.649	6.	5.e-002	52.654
30638	13.926	6.	0.1	2207.8
30639	13.833	6.	5.e-002	49.43
30640	14.11	6.	0.1	2134.7
30641	14.018	6.	5.e-002	45.736
30642	14.294	6.	0.1	2055.8
30643	14.202	6.	5.e-002	41.522
30644	14.479	6.	0.1	1969.6
30645	14.387	6.	5.e-002	36.749
30646	14.663	6.	0.1	1874.6
30647	14.571	6.	5.e-002	31.394
30648	14.848	6.	0.1	1769.
30649	14.756	6.	5.e-002	25.464
30650	15.032	6.	0.1	1651.1
30651	14.94	6.	5.e-002	19.02
30652	15.217	6.	0.1	1518.7
30653	15.124	6.	5.e-002	12.218
30654	15.401	6.	0.1	1370.
30655	15.309	6.	5.e-002	5.4763
30656	15.586	6.	0.1	1203.8
30657	15.493	6.	5.e-002	3.1376
30658	15.77	6.	0.1	1019.2
30659	15.678	6.	5.e-002	8.4755
30660	15.954	6.	0.1	816.59
30661	15.862	6.	5.e-002	12.991
30662	16.139	6.	0.1	597.29
30663	16.047	6.	5.e-002	15.
30664	16.323	6.	0.1	361.5
30665	16.231	6.	5.e-002	13.239
30666	16.508	6.	0.1	127.74
30667	16.416	6.	5.e-002	3.9059
30668	16.6	6.	5.e-002	12.765
30669	16.323	6.	0.	5.4497
30670	16.508	6.	0.	1.8457
30671	16.139	6.	0.	5.6824
30672	15.954	6.	0.	5.5517
30673	15.77	6.	0.	5.108
30674	15.586	6.	0.	4.6175
30675	15.401	6.	0.	4.2417
30676	15.217	6.	0.	4.0146
30677	15.032	6.	0.	3.9303
30678	14.848	6.	0.	3.9605
30679	14.663	6.	0.	4.0724
30680	14.479	6.	0.	4.2353
30681	14.294	6.	0.	4.424
30682	14.11	6.	0.	4.6193
30683	13.926	6.	0.	4.8077
30684	13.741	6.	0.	4.9801
30685	13.557	6.	0.	5.1316
30686	13.372	6.	0.	5.2595
30687	13.188	6.	0.	5.3631
30688	13.003	6.	0.	5.4429
30689	12.819	6.	0.	5.4999
30690	12.634	6.	0.	5.5358
30691	12.45	6.	0.	5.5521
30692	12.266	6.	0.	5.5505
30693	12.081	6.	0.	5.5324
30694	11.897	6.	0.	5.4992
30695	11.712	6.	0.	5.452
30696	11.528	6.	0.	5.3918
30697	11.343	6.	0.	5.3194
30698	11.159	6.	0.	5.2355
30699	10.974	6.	0.	5.1405
30700	10.79	6.	0.	5.0349
30701	10.606	6.	0.	4.9188
30702	10.421	6.	0.	4.7924
30703	10.237	6.	0.	4.6557
30704	10.052	6.	0.	4.5088
30705	9.8678	6.	0.	4.3515
30706	9.6833	6.	0.	4.1837
30707	9.4989	6.	0.	4.0052
30708	9.3144	6.	0.	3.8158
30709	9.13	6.	0.	3.6152
30710	8.9456	6.	0.	3.4033
30711	8.7611	6.	0.	3.1797
30712	8.5767	6.	0.	2.9443
30713	8.3922	6.	0.	2.6968
30714	8.2078	6.	0.	2.4372
30715	8.0233	6.	0.	2.1654
30716	7.8389	6.	0.	1.8814
30717	7.6544	6.	0.	1.5854
30718	7.47	6.	0.	1.2778
30719	7.2856	6.	0.	0.95916
30720	7.1011	6.	0.	0.63035
30721	6.9167	6.	0.	0.45638
30722	6.7322	6.	0.	0.49926
30723	6.5478	6.	0.	0.54584
30724	6.3633	6.	0.	0.59618
30725	6.1789	6.	0.	0.65058
30726	5.9944	6.	0.	0.70936
30727	5.81	6.	0.	0.77289
30728	5.6256	6.	0.	0.84156
30729	5.4411	6.	0.	0.91579
30730	5.2567	6.	0.	0.99608
30731	5.0722	6.	0.	1.083
30732	4.8878	6.	0.	1.177
30733	4.7033	6.	0.	1.279
30734	4.5189	6.	0.	1.3897
30735	4.3344	6.	0.	1.5103
30736	4.15	6.	0.	1.6421
30737	3.9656	6.	0.	1.7874
30738	3.7811	6.	0.	1.9497
30739	3.5967	6.	0.	2.1362
30740	3.4122	6.	0.	2.3644
30741	3.2278	6.	0.	2.6943
30742	3.0433	6.	0.	3.3961
30743	2.8589	6.	0.	5.0296
30744	2.6744	6.	0.	7.5244
30745	2.49	6.	0.	10.744
30746	2.3056	6.	0.	14.754
30747	2.1211	6.	0.	19.699
30748	1.9367	6.	0.	25.777
30749	1.7522	6.	0.	33.26
30750	1.5678	6.	0.	42.519
30751	1.3833	6.	0.	54.101
30752	1.1989	6.	0.	68.783
30753	1.0144	6.	0.	87.993
30754	0.83	6.	0.	113.8
30755	0.64556	6.	0.	151.56
30756	0.46111	6.	0.	213.1
30757	0.27667	6.	0.	334.98
30758	9.2222e-002	6.	0.	897.98
30759	16.6	5.9091	0.	12.91
30760	5.1657e-014	5.9091	0.	143.3
30761	0.27667	-1.9007e-031	0.	334.98
30762	9.2222e-002	-6.3355e-032	0.	897.98
30763	0.46111	-3.1678e-031	0.	213.1
30764	0.64556	-4.4349e-031	0.	151.56
30765	0.83	-5.702e-031	0.	113.8
30766	1.0144	-6.9691e-031	0.	87.993
30767	1.1989	-8.2362e-031	0.	68.783
30768	1.3833	-9.5033e-031	0.	54.101
30769	1.5678	-1.077e-030	0.	42.519
30770	1.7522	-1.2037e-030	0.	33.26
30771	1.9367	-1.3305e-030	0.	25.777
30772	2.1211	-1.4572e-030	0.	19.699
30773	2.3056	-1.5839e-030	0.	14.754
30774	2.49	-1.7106e-030	0.	10.744
30775	2.6744	-1.8373e-030	0.	7.5244
30776	2.8589	-1.964e-030	0.	5.0296
30777	3.0433	-2.0907e-030	0.	3.3961
30778	3.2278	-2.2174e-030	0.	2.6943
30779	3.4122	-2.3441e-030	0.	2.3644
30780	3.5967	-2.4709e-030	0.	2.1362
30781	3.7811	-2.5976e-030	0.	1.9497
30782	3.9656	-2.7243e-030	0.	1.7874
30783	4.15	-2.851e-030	0.	1.6421
30784	4.3344	-2.9777e-030	0.	1.5103
30785	4.5189	-3.1044e-030	0.	1.3897
30786	4.7033	-3.2311e-030	0.	1.279
30787	4.8878	-3.3578e-030	0.	1.177
30788	5.0722	-3.4845e-030	0.	1.083
30789	5.2567	-3.6112e-030	0.	0.99608
30790	5.4411	-3.738e-030	0.	0.91579
30791	5.6256	-3.8647e-030	0.	0.84156
30792	5.81	-3.9914e-030	0.	0.77289
30793	5.9944	-4.1181e-030	0.	0.70937
30794	6.1789	-4.2448e-030	0.	0.65058
30795	6.3633	-4.3715e-030	0.	0.59619
30796	6.5478	-4.4982e-030	0.	0.54584
30797	6.7322	-4.6249e-030	0.	0.49926
30798	6.9167	-4.7516e-030	0.	0.45638
30799	7.1011	-4.8783e-030	0.	0.63037
30800	7.2856	-5.0051e-030	0.	0.95917
30801	7.47	-5.1318e-030	0.	1.2778
30802	7.6544	-5.2585e-030	0.	1.5854
30803	7.8389	-5.3852e-030	0.	1.8814
30804	8.0233	-5.5119e-030	0.	2.1654
30805	8.2078	-5.6386e-030	0.	2.4372
30806	8.3922	-5.7653e-030	0.	2.6968
30807	8.5767	-5.892e-030	0.	2.9443
30808	8.7611	-6.0187e-030	0.	3.1797
30809	8.9456	-6.1455e-030	0.	3.4033
30810	9.13	-6.2722e-030	0.	3.6152
30811	9.3144	-6.3989e-030	0.	3.8158
30812	9.4989	-6.5256e-030	0.	4.0052
30813	9.6833	-6.6523e-030	0.	4.1837
30814	9.8678	-6.779e-030	0.	4.3515
30815	10.052	-6.9057e-030	0.	4.5088
30816	10.237	-7.0324e-030	0.	4.6558
30817	10.421	-7.1591e-030	0.	4.7924
30818	10.606	-7.2858e-030	0.	4.9188
30819	10.79	-7.4126e-030	0.	5.0349
30820	10.974	-7.5393e-030	0.	5.1406
30821	11.159	-7.666e-030	0.	5.2355
30822	11.343	-7.7927e-030	0.	5.3194
30823	11.528	-7.9194e-030	0.	5.3918
30824	11.712	-8.0461e-030	0.	5.452
30825	11.897	-8.1728e-030	0.	5.4992
30826	12.081	-8.2995e-030	0.	5.5324
30827	12.266	-8.4262e-030	0.	5.5505
30828	12.45	-8.5529e-030	0.	5.5521
30829	12.634	-8.6797e-030	0.	5.5358
30830	12.819	-8.8064e-030	0.	5.5
30831	13.003	-8.9331e-030	0.	5.4429
30832	13.188	-9.0598e-030	0.	5.3631
30833	13.372	-9.1865e-030	0.	5.2595
30834	13.557	-9.3132e-030	0.	5.1316
30835	13.741	-9.4399e-030	0.	4.9802
30836	13.926	-9.5666e-030	0.	4.8077
30837	14.11	-9.6933e-030	0.	4.6193
30838	14.294	-9.8201e-030	0.	4.424
30839	14.479	-9.9468e-030	0.	4.2353
30840	14.663	-1.0073e-029	0.	4.0724
30841	14.848	-1.02e-029	0.	3.9605
30842	15.032	-1.0327e-029	0.	3.9303
30843	15.217	-1.0454e-029	0.	4.0146
30844	15.401	-1.058e-029	0.	4.2417
30845	15.586	-1.0707e-029	0.	4.6175
30846	15.77	-1.0834e-029	0.	5.108
30847	15.954	-1.096e-029	0.	5.5517
30848	16.139	-1.1087e-029	0.	5.6824
30849	16.323	-1.1214e-029	0.	5.4497
30850	16.508	-1.1341e-029	0.	1.8457
30851	16.6	9.0909e-002	0.	12.91
30852	7.9472e-016	9.0909e-002	0.	143.3
30853	17.038	1.4013e-045	0.	7.8101
30854	16.857	1.4013e-045	0.	2.597
30855	17.219	1.4013e-045	0.	9.914
30856	17.4	1.4013e-045	0.	10.859
30857	17.58	1.4013e-045	0.	10.869
30858	17.761	1.4013e-045	0.	10.331
30859	17.942	1.4013e-045	0.	9.553
30860	18.123	1.4013e-045	0.	8.7052
30861	18.304	1.4013e-045	0.	7.8933
30862	18.485	1.4013e-045	0.	7.173
30863	18.665	1.4013e-045	0.	6.5698
30864	18.846	1.4013e-045	0.	6.0909
30865	19.027	1.4013e-045	0.	5.7332
30866	19.208	1.4013e-045	0.	5.4884
30867	19.389	1.4013e-045	0.	5.3458
30868	19.57	1.4013e-045	0.	5.2943
30869	19.75	1.4013e-045	0.	5.3229
30870	19.931	1.4013e-045	0.	5.4212
30871	20.112	1.4013e-045	0.	5.5797
30872	20.293	1.4013e-045	0.	5.7897
30873	20.474	1.4013e-045	0.	6.0433
30874	20.655	1.4013e-045	0.	6.3332
30875	20.835	1.4013e-045	0.	6.6527
30876	21.016	1.4013e-045	0.	6.9956
30877	21.197	0.	0.	7.3563
30878	21.378	0.	0.	7.7293
30879	21.559	0.	0.	8.1096
30880	21.74	0.	0.	8.4922
30881	21.92	0.	0.	8.872
30882	22.101	0.	0.	9.2439
30883	22.282	0.	0.	9.6023
30884	22.463	0.	0.	9.9408
30885	22.644	0.	0.	10.252
30886	22.825	0.	0.	10.526
30887	23.005	0.	0.	10.749
30888	23.186	0.	0.	10.902
30889	23.367	0.	0.	10.94
30890	23.548	0.	0.	10.843
30891	23.729	0.	0.	10.039
30892	23.91	0.	0.	7.4209
30893	16.767	9.0909e-002	0.	7.5841
30894	24.	9.0909e-002	0.	18.109
30895	5.0067e-014	5.7273	0.	-1664.7
30896	4.8478e-014	5.5455	0.	-2514.6
30897	4.6888e-014	5.3636	0.	-2948.
30898	4.5299e-014	5.1818	0.	-3217.8
30899	4.371e-014	5.	0.	-3402.1
30900	4.212e-014	4.8182	0.	-3535.4
30901	4.0531e-014	4.6364	0.	-3635.
30902	3.8941e-014	4.4545	0.	-3711.
30903	3.7352e-014	4.2727	0.	-3769.7
30904	3.5762e-014	4.0909	0.	-3815.2
30905	3.4173e-014	3.9091	0.	-3850.3
30906	3.2583e-014	3.7273	0.	-3877.
30907	3.0994e-014	3.5455	0.	-3896.6
30908	2.9405e-014	3.3636	0.	-3910.
30909	2.7815e-014	3.1818	0.	-3918.
30910	2.6226e-014	3.	0.	-3920.6
30911	2.4636e-014	2.8182	0.	-3918.
30912	2.3047e-014	2.6364	0.	-3910.
30913	2.1457e-014	2.4545	0.	-3896.6
30914	1.9868e-014	2.2727	0.	-3877.
30915	1.8279e-014	2.0909	0.	-3850.3
30916	1.6689e-014	1.9091	0.	-3815.2
30917	1.51e-014	1.7273	0.	-3769.7
30918	1.351e-014	1.5455	0.	-3711.
30919	1.1921e-014	1.3636	0.	-3635.
30920	1.0331e-014	1.1818	0.	-3535.4
30921	8.7419e-015	1.	0.	-3402.1
30922	7.1525e-015	0.81818	0.	-3217.8
30923	5.563e-015	0.63636	0.	-2948.
30924	3.9736e-015	0.45455	0.	-2514.6
30925	2.3842e-015	0.27273	0.	-1664.7
30926	24.	0.27273	0.	44.124
30927	24.	0.45455	0.	64.534
30928	24.	0.63636	0.	80.257
30929	24.	0.81818	0.	93.068
30930	24.	1.	0.	103.73
30931	24.	1.1818	0.	112.67
30932	24.	1.3636	0.	120.19
30933	24.	1.5455	0.	126.51
30934	24.	1.7273	0.	131.78
30935	24.	1.9091	0.	136.12
30936	24.	2.0909	0.	139.65
30937	24.	2.2727	0.	142.44
30938	24.	2.4545	0.	144.54
30939	24.	2.6364	0.	146.01
30940	24.	2.8182	0.	146.88
30941	24.	3.	0.	147.17
30942	24.	3.1818	0.	146.88
30943	24.	3.3636	0.	146.01
30944	24.	3.5455	0.	144.54
30945	24.	3.7273	0.	142.44
30946	24.	3.9091	0.	139.65
30947	24.	4.0909	0.	136.12
30948	24.	4.2727	0.	131.78
30949	24.	4.4545	0.	126.51
30950	24.	4.6364	0.	120.19
30951	24.	4.8182	0.	112.67
30952	24.	5.	0.	103.73
30953	24.	5.1818	0.	93.068
30954	24.	5.3636	0.	80.257
30955	24.	5.5455	0.	64.534
30956	24.	5.7273	0.	44.123
30957	24.	5.9091	0.	18.109
30958	23.91	6.	0.	7.4209
30959	23.729	6.	0.	10.039
30960	23.548	6.	0.	10.843
30961	23.367	6.	0.	10.94
30962	23.186	6.	0.	10.902
30963	23.005	6.	0.	10.749
30964	22.825	6.	0.	10.526
30965	22.644	6.	0.	10.252
30966	22.463	6.	0.	9.9408
30967	22.282	6.	0.	9.6023
30968	22.101	6.	0.	9.2439
30969	21.92	6.	0.	8.872
30970	21.74	6.	0.	8.4922
30971	21.559	6.	0.	8.1096
30972	21.378	6.	0.	7.7293
30973	21.197	6.	0.	7.3562
30974	21.016	6.	0.	6.9956
30975	20.835	6.	0.	6.6526
30976	20.655	6.	0.	6.3332
30977	20.474	6.	0.	6.0433
30978	20.293	6.	0.	5.7897
30979	20.112	6.	0.	5.5797
30980	19.931	6.	0.	5.4211
30981	19.75	6.	0.	5.3228
30982	19.57	6.	0.	5.2943
30983	19.389	6.	0.	5.3458
30984	19.208	6.	0.	5.4884
30985	19.027	6.	0.	5.7332
30986	18.846	6.	0.	6.0909
30987	18.665	6.	0.	6.5698
30988	18.485	6.	0.	7.173
30989	18.304	6.	0.	7.8933
30990	18.123	6.	0.	8.7052
30991	17.942	6.	0.	9.553
30992	17.761	6.	0.	10.331
30993	17.58	6.	0.	10.869
30994	17.4	6.	0.	10.859
30995	17.219	6.	0.	9.914
30996	17.038	6.	0.	7.8101
30997	16.857	6.	0.	2.597
30998	16.767	5.9091	0.	7.5841
30999	16.6	1.7273	0.	1901.1
31000	16.6	1.9091	0.	2058.4
31001	16.6	1.5455	0.	1150.5
31002	16.6	1.3636	0.	871.97
31003	16.6	1.1818	0.	652.5
31004	16.6	1.	0.	487.44
31005	16.6	0.81818	0.	354.63
31006	16.6	0.63636	0.	244.51
31007	16.6	0.45455	0.	152.38
31008	16.6	0.27273	0.	76.132
31009	16.683	2.	0.	988.
31010	16.767	0.27273	0.	43.142
31011	16.767	0.45455	0.	82.752
31012	16.767	0.63636	0.	128.95
31013	16.767	0.81818	0.	183.45
31014	16.767	1.	0.	249.43
31015	16.767	1.1818	0.	332.5
31016	16.767	1.3636	0.	448.35
31017	16.767	1.5455	0.	579.6
31018	16.767	1.7273	0.	1067.9
31019	16.767	1.9091	0.	985.29
31020	16.6	4.2727	0.	1901.1
31021	16.6	4.0909	0.	2058.4
31022	16.6	4.4545	0.	1150.5
31023	16.6	4.6364	0.	871.97
31024	16.6	4.8182	0.	652.5
31025	16.6	5.	0.	487.44
31026	16.6	5.1818	0.	354.63
31027	16.6	5.3636	0.	244.51
31028	16.6	5.5455	0.	152.38
31029	16.6	5.7273	0.	76.132
31030	16.683	4.	0.	988.
31031	16.767	5.7273	0.	43.142
31032	16.767	5.5455	0.	82.752
31033	16.767	5.3636	0.	128.95
31034	16.767	5.1818	0.	183.45
31035	16.767	5.	0.	249.43
31036	16.767	4.8182	0.	332.5
31037	16.767	4.6364	0.	448.35
31038	16.767	4.4545	0.	579.6
31039	16.767	4.2727	0.	1067.9
31040	16.767	4.0909	0.	985.29
