Node Number	X Location (in)	Y Location (in)	Z Location (in)	Equivalent (von-Mises) Stress (psi)
1	21.3	2.1818	0.	2237.3
2	21.3	2.3636	0.	1703.9
3	21.3	2.5455	0.	1498.6
4	21.3	2.7273	0.	1393.5
5	21.3	2.9091	0.	1349.
6	21.3	3.0909	0.	1349.
7	21.3	3.2727	0.	1393.5
8	21.3	3.4545	0.	1498.6
9	21.3	3.6364	0.	1703.9
10	21.3	3.8182	0.	2237.3
11	21.467	2.1818	0.	2120.
12	21.467	2.3636	0.	1662.3
13	21.467	2.5455	0.	1451.3
14	21.467	2.7273	0.	1345.7
15	21.467	2.9091	0.	1300.5
16	21.467	3.0909	0.	1300.5
17	21.467	3.2727	0.	1345.7
18	21.467	3.4545	0.	1451.3
19	21.467	3.6364	0.	1662.3
20	21.467	3.8182	0.	2120.
21	21.116	5.8182	0.	139.29
22	21.116	5.6364	0.	208.74
23	21.116	5.4545	0.	297.98
24	21.116	5.2727	0.	399.81
25	21.116	5.0909	0.	515.6
26	21.116	4.9091	0.	649.97
27	21.116	4.7273	0.	811.46
28	21.116	4.5455	0.	1017.1
29	21.116	4.3636	0.	1299.9
30	21.116	4.1818	0.	1719.8
31	21.116	4.	0.	1955.8
32	21.116	3.8182	0.	1717.9
33	21.116	3.6364	0.	1553.6
34	21.116	3.4545	0.	1436.6
35	21.116	3.2727	0.	1371.8
36	21.116	3.0909	0.	1341.6
37	21.116	2.9091	0.	1341.6
38	21.116	2.7273	0.	1371.8
39	21.116	2.5455	0.	1436.6
40	21.116	2.3636	0.	1553.6
41	21.116	2.1818	0.	1717.9
42	21.116	2.	0.	1955.8
43	21.116	1.8182	0.	1719.8
44	21.116	1.6364	0.	1299.9
45	21.116	1.4545	0.	1017.1
46	21.116	1.2727	0.	811.46
47	21.116	1.0909	0.	649.97
48	21.116	0.90909	0.	515.6
49	21.116	0.72727	0.	399.81
50	21.116	0.54545	0.	297.98
51	21.116	0.36364	0.	208.74
52	21.116	0.18182	0.	139.29
53	20.933	5.8182	0.	224.
54	20.933	5.6364	0.	266.71
55	20.933	5.4545	0.	333.18
56	20.933	5.2727	0.	417.3
57	20.933	5.0909	0.	517.29
58	20.933	4.9091	0.	634.38
59	20.933	4.7273	0.	772.85
60	20.933	4.5455	0.	935.21
61	20.933	4.3636	0.	1128.1
62	20.933	4.1818	0.	1305.
63	20.933	4.	0.	1378.8
64	20.933	3.8182	0.	1384.7
65	20.933	3.6364	0.	1358.1
66	20.933	3.4545	0.	1329.5
67	20.933	3.2727	0.	1306.1
68	20.933	3.0909	0.	1293.4
69	20.933	2.9091	0.	1293.4
70	20.933	2.7273	0.	1306.1
71	20.933	2.5455	0.	1329.5
72	20.933	2.3636	0.	1358.1
73	20.933	2.1818	0.	1384.7
74	20.933	2.	0.	1378.8
75	20.933	1.8182	0.	1305.
76	20.933	1.6364	0.	1128.1
77	20.933	1.4545	0.	935.21
78	20.933	1.2727	0.	772.85
79	20.933	1.0909	0.	634.38
80	20.933	0.90909	0.	517.29
81	20.933	0.72727	0.	417.3
82	20.933	0.54545	0.	333.18
83	20.933	0.36364	0.	266.71
84	20.933	0.18182	0.	224.
85	20.749	5.8182	0.	318.48
86	20.749	5.6364	0.	354.41
87	20.749	5.4545	0.	408.42
88	20.749	5.2727	0.	479.26
89	20.749	5.0909	0.	565.58
90	20.749	4.9091	0.	666.72
91	20.749	4.7273	0.	782.01
92	20.749	4.5455	0.	909.21
93	20.749	4.3636	0.	1035.4
94	20.749	4.1818	0.	1138.4
95	20.749	4.	0.	1198.2
96	20.749	3.8182	0.	1220.8
97	20.749	3.6364	0.	1231.4
98	20.749	3.4545	0.	1234.4
99	20.749	3.2727	0.	1233.6
100	20.749	3.0909	0.	1232.3
101	20.749	2.9091	0.	1232.3
102	20.749	2.7273	0.	1233.6
103	20.749	2.5455	0.	1234.4
104	20.749	2.3636	0.	1231.4
105	20.749	2.1818	0.	1220.8
106	20.749	2.	0.	1198.2
107	20.749	1.8182	0.	1138.4
108	20.749	1.6364	0.	1035.4
109	20.749	1.4545	0.	909.21
110	20.749	1.2727	0.	782.01
111	20.749	1.0909	0.	666.72
112	20.749	0.90909	0.	565.58
113	20.749	0.72727	0.	479.26
114	20.749	0.54545	0.	408.42
115	20.749	0.36364	0.	354.41
116	20.749	0.18182	0.	318.48
117	20.566	5.8182	0.	411.59
118	20.566	5.6364	0.	445.22
119	20.566	5.4545	0.	491.86
120	20.566	5.2727	0.	552.06
121	20.566	5.0909	0.	625.11
122	20.566	4.9091	0.	709.51
123	20.566	4.7273	0.	802.56
124	20.566	4.5455	0.	899.05
125	20.566	4.3636	0.	989.79
126	20.566	4.1818	0.	1061.9
127	20.566	4.	0.	1110.1
128	20.566	3.8182	0.	1138.3
129	20.566	3.6364	0.	1155.3
130	20.566	3.4545	0.	1166.9
131	20.566	3.2727	0.	1174.
132	20.566	3.0909	0.	1177.3
133	20.566	2.9091	0.	1177.3
134	20.566	2.7273	0.	1174.
135	20.566	2.5455	0.	1166.9
136	20.566	2.3636	0.	1155.3
137	20.566	2.1818	0.	1138.3
138	20.566	2.	0.	1110.1
139	20.566	1.8182	0.	1061.9
140	20.566	1.6364	0.	989.79
141	20.566	1.4545	0.	899.05
142	20.566	1.2727	0.	802.56
143	20.566	1.0909	0.	709.51
144	20.566	0.90909	0.	625.11
145	20.566	0.72727	0.	552.06
146	20.566	0.54545	0.	491.86
147	20.566	0.36364	0.	445.22
148	20.566	0.18182	0.	411.59
149	20.382	5.8182	0.	500.87
150	20.382	5.6364	0.	532.88
151	20.382	5.4545	0.	574.26
152	20.382	5.2727	0.	625.83
153	20.382	5.0909	0.	687.06
154	20.382	4.9091	0.	756.21
155	20.382	4.7273	0.	830.18
156	20.382	4.5455	0.	904.15
157	20.382	4.3636	0.	971.52
158	20.382	4.1818	0.	1026.3
159	20.382	4.	0.	1065.9
160	20.382	3.8182	0.	1092.5
161	20.382	3.6364	0.	1110.7
162	20.382	3.4545	0.	1123.6
163	20.382	3.2727	0.	1132.2
164	20.382	3.0909	0.	1136.6
165	20.382	2.9091	0.	1136.6
166	20.382	2.7273	0.	1132.2
167	20.382	2.5455	0.	1123.6
168	20.382	2.3636	0.	1110.7
169	20.382	2.1818	0.	1092.5
170	20.382	2.	0.	1065.9
171	20.382	1.8182	0.	1026.3
172	20.382	1.6364	0.	971.52
173	20.382	1.4545	0.	904.15
174	20.382	1.2727	0.	830.18
175	20.382	1.0909	0.	756.21
176	20.382	0.90909	0.	687.06
177	20.382	0.72727	0.	625.83
178	20.382	0.54545	0.	574.26
179	20.382	0.36364	0.	532.88
180	20.382	0.18182	0.	500.87
181	20.198	5.8182	0.	585.33
182	20.198	5.6364	0.	615.41
183	20.198	5.4545	0.	652.29
184	20.198	5.2727	0.	696.57
185	20.198	5.0909	0.	747.67
186	20.198	4.9091	0.	803.93
187	20.198	4.7273	0.	862.6
188	20.198	4.5455	0.	919.91
189	20.198	4.3636	0.	971.67
190	20.198	4.1818	0.	1014.4
191	20.198	4.	0.	1046.9
192	20.198	3.8182	0.	1070.3
193	20.198	3.6364	0.	1087.
194	20.198	3.4545	0.	1098.9
195	20.198	3.2727	0.	1106.9
196	20.198	3.0909	0.	1110.9
197	20.198	2.9091	0.	1110.9
198	20.198	2.7273	0.	1106.9
199	20.198	2.5455	0.	1098.9
200	20.198	2.3636	0.	1087.
201	20.198	2.1818	0.	1070.3
202	20.198	2.	0.	1046.9
203	20.198	1.8182	0.	1014.4
204	20.198	1.6364	0.	971.67
205	20.198	1.4545	0.	919.91
206	20.198	1.2727	0.	862.6
207	20.198	1.0909	0.	803.93
208	20.198	0.90909	0.	747.67
209	20.198	0.72727	0.	696.57
210	20.198	0.54545	0.	652.29
211	20.198	0.36364	0.	615.41
212	20.198	0.18182	0.	585.33
213	20.015	5.8182	0.	664.59
214	20.015	5.6364	0.	692.28
215	20.015	5.4545	0.	725.
216	20.015	5.2727	0.	762.95
217	20.015	5.0909	0.	805.53
218	20.015	4.9091	0.	851.27
219	20.015	4.7273	0.	897.96
220	20.015	4.5455	0.	942.9
221	20.015	4.3636	0.	983.33
222	20.015	4.1818	0.	1017.2
223	20.015	4.	0.	1043.8
224	20.015	3.8182	0.	1063.6
225	20.015	3.6364	0.	1078.1
226	20.015	3.4545	0.	1088.4
227	20.015	3.2727	0.	1095.2
228	20.015	3.0909	0.	1098.6
229	20.015	2.9091	0.	1098.6
230	20.015	2.7273	0.	1095.2
231	20.015	2.5455	0.	1088.4
232	20.015	2.3636	0.	1078.1
233	20.015	2.1818	0.	1063.6
234	20.015	2.	0.	1043.8
235	20.015	1.8182	0.	1017.2
236	20.015	1.6364	0.	983.33
237	20.015	1.4545	0.	942.9
238	20.015	1.2727	0.	897.96
239	20.015	1.0909	0.	851.27
240	20.015	0.90909	0.	805.53
241	20.015	0.72727	0.	762.95
242	20.015	0.54545	0.	725.
243	20.015	0.36364	0.	692.28
244	20.015	0.18182	0.	664.59
245	19.831	5.8182	0.	738.72
246	19.831	5.6364	0.	763.7
247	19.831	5.4545	0.	792.5
248	19.831	5.2727	0.	824.95
249	19.831	5.0909	0.	860.43
250	19.831	4.9091	0.	897.7
251	19.831	4.7273	0.	935.1
252	19.831	4.5455	0.	970.69
253	19.831	4.3636	0.	1002.7
254	19.831	4.1818	0.	1029.7
255	19.831	4.	0.	1051.4
256	19.831	3.8182	0.	1067.9
257	19.831	3.6364	0.	1080.1
258	19.831	3.4545	0.	1088.8
259	19.831	3.2727	0.	1094.4
260	19.831	3.0909	0.	1097.2
261	19.831	2.9091	0.	1097.2
262	19.831	2.7273	0.	1094.4
263	19.831	2.5455	0.	1088.8
264	19.831	2.3636	0.	1080.1
265	19.831	2.1818	0.	1067.9
266	19.831	2.	0.	1051.4
267	19.831	1.8182	0.	1029.7
268	19.831	1.6364	0.	1002.7
269	19.831	1.4545	0.	970.69
270	19.831	1.2727	0.	935.1
271	19.831	1.0909	0.	897.7
272	19.831	0.90909	0.	860.43
273	19.831	0.72727	0.	824.95
274	19.831	0.54545	0.	792.5
275	19.831	0.36364	0.	763.7
276	19.831	0.18182	0.	738.72
277	19.647	5.8182	0.	808.07
278	19.647	5.6364	0.	830.2
279	19.647	5.4545	0.	855.36
280	19.647	5.2727	0.	883.04
281	19.647	5.0909	0.	912.62
282	19.647	4.9091	0.	943.12
283	19.647	4.7273	0.	973.27
284	19.647	4.5455	0.	1001.7
285	19.647	4.3636	0.	1027.2
286	19.647	4.1818	0.	1049.
287	19.647	4.	0.	1066.6
288	19.647	3.8182	0.	1080.3
289	19.647	3.6364	0.	1090.5
290	19.647	3.4545	0.	1097.7
291	19.647	3.2727	0.	1102.3
292	19.647	3.0909	0.	1104.5
293	19.647	2.9091	0.	1104.5
294	19.647	2.7273	0.	1102.3
295	19.647	2.5455	0.	1097.7
296	19.647	2.3636	0.	1090.5
297	19.647	2.1818	0.	1080.3
298	19.647	2.	0.	1066.6
299	19.647	1.8182	0.	1049.
300	19.647	1.6364	0.	1027.2
301	19.647	1.4545	0.	1001.7
302	19.647	1.2727	0.	973.27
303	19.647	1.0909	0.	943.12
304	19.647	0.90909	0.	912.62
305	19.647	0.72727	0.	883.04
306	19.647	0.54545	0.	855.36
307	19.647	0.36364	0.	830.2
308	19.647	0.18182	0.	808.07
309	19.464	5.8182	0.	873.12
310	19.464	5.6364	0.	892.42
311	19.464	5.4545	0.	914.26
312	19.464	5.2727	0.	937.83
313	19.464	5.0909	0.	962.55
314	19.464	4.9091	0.	987.61
315	19.464	4.7273	0.	1012.1
316	19.464	4.5455	0.	1035.
317	19.464	4.3636	0.	1055.6
318	19.464	4.1818	0.	1073.1
319	19.464	4.	0.	1087.5
320	19.464	3.8182	0.	1098.7
321	19.464	3.6364	0.	1107.2
322	19.464	3.4545	0.	1113.1
323	19.464	3.2727	0.	1116.9
324	19.464	3.0909	0.	1118.8
325	19.464	2.9091	0.	1118.8
326	19.464	2.7273	0.	1116.9
327	19.464	2.5455	0.	1113.1
328	19.464	2.3636	0.	1107.2
329	19.464	2.1818	0.	1098.7
330	19.464	2.	0.	1087.5
331	19.464	1.8182	0.	1073.1
332	19.464	1.6364	0.	1055.6
333	19.464	1.4545	0.	1035.
334	19.464	1.2727	0.	1012.1
335	19.464	1.0909	0.	987.61
336	19.464	0.90909	0.	962.55
337	19.464	0.72727	0.	937.83
338	19.464	0.54545	0.	914.26
339	19.464	0.36364	0.	892.42
340	19.464	0.18182	0.	873.12
341	19.28	5.8182	0.	934.43
342	19.28	5.6364	0.	951.04
343	19.28	5.4545	0.	969.9
344	19.28	5.2727	0.	989.95
345	19.28	5.0909	0.	1010.6
346	19.28	4.9091	0.	1031.3
347	19.28	4.7273	0.	1051.4
348	19.28	4.5455	0.	1070.
349	19.28	4.3636	0.	1086.6
350	19.28	4.1818	0.	1100.9
351	19.28	4.	0.	1112.6
352	19.28	3.8182	0.	1121.9
353	19.28	3.6364	0.	1128.8
354	19.28	3.4545	0.	1133.8
355	19.28	3.2727	0.	1136.9
356	19.28	3.0909	0.	1138.4
357	19.28	2.9091	0.	1138.4
358	19.28	2.7273	0.	1136.9
359	19.28	2.5455	0.	1133.8
360	19.28	2.3636	0.	1128.8
361	19.28	2.1818	0.	1121.9
362	19.28	2.	0.	1112.6
363	19.28	1.8182	0.	1100.9
364	19.28	1.6364	0.	1086.6
365	19.28	1.4545	0.	1070.
366	19.28	1.2727	0.	1051.4
367	19.28	1.0909	0.	1031.3
368	19.28	0.90909	0.	1010.6
369	19.28	0.72727	0.	989.95
370	19.28	0.54545	0.	969.9
371	19.28	0.36364	0.	951.04
372	19.28	0.18182	0.	934.43
373	19.097	5.8182	0.	992.57
374	19.097	5.6364	0.	1006.7
375	19.097	5.4545	0.	1022.9
376	19.097	5.2727	0.	1040.
377	19.097	5.0909	0.	1057.3
378	19.097	4.9091	0.	1074.5
379	19.097	4.7273	0.	1091.
380	19.097	4.5455	0.	1106.2
381	19.097	4.3636	0.	1119.8
382	19.097	4.1818	0.	1131.4
383	19.097	4.	0.	1141.1
384	19.097	3.8182	0.	1148.7
385	19.097	3.6364	0.	1154.5
386	19.097	3.4545	0.	1158.5
387	19.097	3.2727	0.	1161.2
388	19.097	3.0909	0.	1162.4
389	19.097	2.9091	0.	1162.4
390	19.097	2.7273	0.	1161.2
391	19.097	2.5455	0.	1158.5
392	19.097	2.3636	0.	1154.5
393	19.097	2.1818	0.	1148.7
394	19.097	2.	0.	1141.1
395	19.097	1.8182	0.	1131.4
396	19.097	1.6364	0.	1119.8
397	19.097	1.4545	0.	1106.2
398	19.097	1.2727	0.	1091.
399	19.097	1.0909	0.	1074.5
400	19.097	0.90909	0.	1057.3
401	19.097	0.72727	0.	1040.
402	19.097	0.54545	0.	1022.9
403	19.097	0.36364	0.	1006.7
404	19.097	0.18182	0.	992.57
405	18.913	5.8182	0.	1048.
406	18.913	5.6364	0.	1059.9
407	18.913	5.4545	0.	1073.8
408	18.913	5.2727	0.	1088.3
409	18.913	5.0909	0.	1102.9
410	18.913	4.9091	0.	1117.2
411	18.913	4.7273	0.	1130.9
412	18.913	4.5455	0.	1143.4
413	18.913	4.3636	0.	1154.6
414	18.913	4.1818	0.	1164.2
415	18.913	4.	0.	1172.1
416	18.913	3.8182	0.	1178.4
417	18.913	3.6364	0.	1183.2
418	18.913	3.4545	0.	1186.6
419	18.913	3.2727	0.	1188.8
420	18.913	3.0909	0.	1189.9
421	18.913	2.9091	0.	1189.9
422	18.913	2.7273	0.	1188.8
423	18.913	2.5455	0.	1186.6
424	18.913	2.3636	0.	1183.2
425	18.913	2.1818	0.	1178.4
426	18.913	2.	0.	1172.1
427	18.913	1.8182	0.	1164.2
428	18.913	1.6364	0.	1154.6
429	18.913	1.4545	0.	1143.4
430	18.913	1.2727	0.	1130.9
431	18.913	1.0909	0.	1117.2
432	18.913	0.90909	0.	1102.9
433	18.913	0.72727	0.	1088.3
434	18.913	0.54545	0.	1073.8
435	18.913	0.36364	0.	1059.9
436	18.913	0.18182	0.	1048.
437	18.729	5.8182	0.	1101.3
438	18.729	5.6364	0.	1111.2
439	18.729	5.4545	0.	1123.1
440	18.729	5.2727	0.	1135.4
441	18.729	5.0909	0.	1147.7
442	18.729	4.9091	0.	1159.7
443	18.729	4.7273	0.	1171.1
444	18.729	4.5455	0.	1181.5
445	18.729	4.3636	0.	1190.7
446	18.729	4.1818	0.	1198.6
447	18.729	4.	0.	1205.2
448	18.729	3.8182	0.	1210.5
449	18.729	3.6364	0.	1214.5
450	18.729	3.4545	0.	1217.3
451	18.729	3.2727	0.	1219.2
452	18.729	3.0909	0.	1220.1
453	18.729	2.9091	0.	1220.1
454	18.729	2.7273	0.	1219.2
455	18.729	2.5455	0.	1217.3
456	18.729	2.3636	0.	1214.5
457	18.729	2.1818	0.	1210.5
458	18.729	2.	0.	1205.2
459	18.729	1.8182	0.	1198.6
460	18.729	1.6364	0.	1190.7
461	18.729	1.4545	0.	1181.5
462	18.729	1.2727	0.	1171.1
463	18.729	1.0909	0.	1159.7
464	18.729	0.90909	0.	1147.7
465	18.729	0.72727	0.	1135.4
466	18.729	0.54545	0.	1123.1
467	18.729	0.36364	0.	1111.2
468	18.729	0.18182	0.	1101.3
469	18.546	5.8182	0.	1152.8
470	18.546	5.6364	0.	1160.9
471	18.546	5.4545	0.	1171.1
472	18.546	5.2727	0.	1181.5
473	18.546	5.0909	0.	1192.
474	18.546	4.9091	0.	1202.1
475	18.546	4.7273	0.	1211.5
476	18.546	4.5455	0.	1220.2
477	18.546	4.3636	0.	1227.9
478	18.546	4.1818	0.	1234.5
479	18.546	4.	0.	1240.
480	18.546	3.8182	0.	1244.4
481	18.546	3.6364	0.	1247.8
482	18.546	3.4545	0.	1250.2
483	18.546	3.2727	0.	1251.7
484	18.546	3.0909	0.	1252.5
485	18.546	2.9091	0.	1252.5
486	18.546	2.7273	0.	1251.7
487	18.546	2.5455	0.	1250.2
488	18.546	2.3636	0.	1247.8
489	18.546	2.1818	0.	1244.4
490	18.546	2.	0.	1240.
491	18.546	1.8182	0.	1234.5
492	18.546	1.6364	0.	1227.9
493	18.546	1.4545	0.	1220.2
494	18.546	1.2727	0.	1211.5
495	18.546	1.0909	0.	1202.1
496	18.546	0.90909	0.	1192.
497	18.546	0.72727	0.	1181.5
498	18.546	0.54545	0.	1171.1
499	18.546	0.36364	0.	1160.9
500	18.546	0.18182	0.	1152.8
501	18.362	5.8182	0.	1202.9
502	18.362	5.6364	0.	1209.4
503	18.362	5.4545	0.	1218.1
504	18.362	5.2727	0.	1227.
505	18.362	5.0909	0.	1235.8
506	18.362	4.9091	0.	1244.3
507	18.362	4.7273	0.	1252.3
508	18.362	4.5455	0.	1259.6
509	18.362	4.3636	0.	1266.
510	18.362	4.1818	0.	1271.6
511	18.362	4.	0.	1276.2
512	18.362	3.8182	0.	1279.9
513	18.362	3.6364	0.	1282.7
514	18.362	3.4545	0.	1284.8
515	18.362	3.2727	0.	1286.1
516	18.362	3.0909	0.	1286.7
517	18.362	2.9091	0.	1286.7
518	18.362	2.7273	0.	1286.1
519	18.362	2.5455	0.	1284.8
520	18.362	2.3636	0.	1282.7
521	18.362	2.1818	0.	1279.9
522	18.362	2.	0.	1276.2
523	18.362	1.8182	0.	1271.6
524	18.362	1.6364	0.	1266.
525	18.362	1.4545	0.	1259.6
526	18.362	1.2727	0.	1252.3
527	18.362	1.0909	0.	1244.3
528	18.362	0.90909	0.	1235.8
529	18.362	0.72727	0.	1227.
530	18.362	0.54545	0.	1218.1
531	18.362	0.36364	0.	1209.4
532	18.362	0.18182	0.	1202.9
533	18.178	5.8182	0.	1251.8
534	18.178	5.6364	0.	1257.
535	18.178	5.4545	0.	1264.3
536	18.178	5.2727	0.	1271.9
537	18.178	5.0909	0.	1279.4
538	18.178	4.9091	0.	1286.6
539	18.178	4.7273	0.	1293.4
540	18.178	4.5455	0.	1299.5
541	18.178	4.3636	0.	1304.9
542	18.178	4.1818	0.	1309.6
543	18.178	4.	0.	1313.5
544	18.178	3.8182	0.	1316.6
545	18.178	3.6364	0.	1319.1
546	18.178	3.4545	0.	1320.8
547	18.178	3.2727	0.	1321.9
548	18.178	3.0909	0.	1322.5
549	18.178	2.9091	0.	1322.5
550	18.178	2.7273	0.	1321.9
551	18.178	2.5455	0.	1320.8
552	18.178	2.3636	0.	1319.1
553	18.178	2.1818	0.	1316.6
554	18.178	2.	0.	1313.5
555	18.178	1.8182	0.	1309.6
556	18.178	1.6364	0.	1304.9
557	18.178	1.4545	0.	1299.5
558	18.178	1.2727	0.	1293.4
559	18.178	1.0909	0.	1286.6
560	18.178	0.90909	0.	1279.4
561	18.178	0.72727	0.	1271.9
562	18.178	0.54545	0.	1264.3
563	18.178	0.36364	0.	1257.
564	18.178	0.18182	0.	1251.8
565	17.995	5.8182	0.	1299.8
566	17.995	5.6364	0.	1303.8
567	17.995	5.4545	0.	1310.1
568	17.995	5.2727	0.	1316.5
569	17.995	5.0909	0.	1322.9
570	17.995	4.9091	0.	1329.
571	17.995	4.7273	0.	1334.7
572	17.995	4.5455	0.	1339.9
573	17.995	4.3636	0.	1344.5
574	17.995	4.1818	0.	1348.5
575	17.995	4.	0.	1351.8
576	17.995	3.8182	0.	1354.5
577	17.995	3.6364	0.	1356.5
578	17.995	3.4545	0.	1358.
579	17.995	3.2727	0.	1359.
580	17.995	3.0909	0.	1359.5
581	17.995	2.9091	0.	1359.5
582	17.995	2.7273	0.	1359.
583	17.995	2.5455	0.	1358.
584	17.995	2.3636	0.	1356.5
585	17.995	2.1818	0.	1354.5
586	17.995	2.	0.	1351.8
587	17.995	1.8182	0.	1348.5
588	17.995	1.6364	0.	1344.5
589	17.995	1.4545	0.	1339.9
590	17.995	1.2727	0.	1334.7
591	17.995	1.0909	0.	1329.
592	17.995	0.90909	0.	1322.9
593	17.995	0.72727	0.	1316.5
594	17.995	0.54545	0.	1310.1
595	17.995	0.36364	0.	1303.8
596	17.995	0.18182	0.	1299.8
597	17.811	5.8182	0.	1347.1
598	17.811	5.6364	0.	1350.1
599	17.811	5.4545	0.	1355.4
600	17.811	5.2727	0.	1360.9
601	17.811	5.0909	0.	1366.3
602	17.811	4.9091	0.	1371.5
603	17.811	4.7273	0.	1376.4
604	17.811	4.5455	0.	1380.8
605	17.811	4.3636	0.	1384.7
606	17.811	4.1818	0.	1388.1
607	17.811	4.	0.	1390.9
608	17.811	3.8182	0.	1393.2
609	17.811	3.6364	0.	1395.
610	17.811	3.4545	0.	1396.3
611	17.811	3.2727	0.	1397.1
612	17.811	3.0909	0.	1397.6
613	17.811	2.9091	0.	1397.6
614	17.811	2.7273	0.	1397.1
615	17.811	2.5455	0.	1396.3
616	17.811	2.3636	0.	1395.
617	17.811	2.1818	0.	1393.2
618	17.811	2.	0.	1390.9
619	17.811	1.8182	0.	1388.1
620	17.811	1.6364	0.	1384.7
621	17.811	1.4545	0.	1380.8
622	17.811	1.2727	0.	1376.4
623	17.811	1.0909	0.	1371.5
624	17.811	0.90909	0.	1366.3
625	17.811	0.72727	0.	1360.9
626	17.811	0.54545	0.	1355.4
627	17.811	0.36364	0.	1350.1
628	17.811	0.18182	0.	1347.1
629	17.628	5.8182	0.	1393.9
630	17.628	5.6364	0.	1396.
631	17.628	5.4545	0.	1400.5
632	17.628	5.2727	0.	1405.1
633	17.628	5.0909	0.	1409.8
634	17.628	4.9091	0.	1414.2
635	17.628	4.7273	0.	1418.3
636	17.628	4.5455	0.	1422.1
637	17.628	4.3636	0.	1425.4
638	17.628	4.1818	0.	1428.3
639	17.628	4.	0.	1430.8
640	17.628	3.8182	0.	1432.7
641	17.628	3.6364	0.	1434.3
642	17.628	3.4545	0.	1435.4
643	17.628	3.2727	0.	1436.1
644	17.628	3.0909	0.	1436.5
645	17.628	2.9091	0.	1436.5
646	17.628	2.7273	0.	1436.1
647	17.628	2.5455	0.	1435.4
648	17.628	2.3636	0.	1434.3
649	17.628	2.1818	0.	1432.7
650	17.628	2.	0.	1430.8
651	17.628	1.8182	0.	1428.3
652	17.628	1.6364	0.	1425.4
653	17.628	1.4545	0.	1422.1
654	17.628	1.2727	0.	1418.3
655	17.628	1.0909	0.	1414.2
656	17.628	0.90909	0.	1409.8
657	17.628	0.72727	0.	1405.1
658	17.628	0.54545	0.	1400.5
659	17.628	0.36364	0.	1396.
660	17.628	0.18182	0.	1393.9
661	17.444	5.8182	0.	1440.3
662	17.444	5.6364	0.	1441.6
663	17.444	5.4545	0.	1445.4
664	17.444	5.2727	0.	1449.3
665	17.444	5.0909	0.	1453.3
666	17.444	4.9091	0.	1457.
667	17.444	4.7273	0.	1460.6
668	17.444	4.5455	0.	1463.8
669	17.444	4.3636	0.	1466.6
670	17.444	4.1818	0.	1469.1
671	17.444	4.	0.	1471.2
672	17.444	3.8182	0.	1472.9
673	17.444	3.6364	0.	1474.3
674	17.444	3.4545	0.	1475.2
675	17.444	3.2727	0.	1475.9
676	17.444	3.0909	0.	1476.2
677	17.444	2.9091	0.	1476.2
678	17.444	2.7273	0.	1475.9
679	17.444	2.5455	0.	1475.2
680	17.444	2.3636	0.	1474.3
681	17.444	2.1818	0.	1472.9
682	17.444	2.	0.	1471.2
683	17.444	1.8182	0.	1469.1
684	17.444	1.6364	0.	1466.6
685	17.444	1.4545	0.	1463.8
686	17.444	1.2727	0.	1460.6
687	17.444	1.0909	0.	1457.
688	17.444	0.90909	0.	1453.3
689	17.444	0.72727	0.	1449.3
690	17.444	0.54545	0.	1445.4
691	17.444	0.36364	0.	1441.6
692	17.444	0.18182	0.	1440.3
693	17.26	5.8182	0.	1486.4
694	17.26	5.6364	0.	1487.
695	17.26	5.4545	0.	1490.2
696	17.26	5.2727	0.	1493.5
697	17.26	5.0909	0.	1496.9
698	17.26	4.9091	0.	1500.1
699	17.26	4.7273	0.	1503.1
700	17.26	4.5455	0.	1505.8
701	17.26	4.3636	0.	1508.3
702	17.26	4.1818	0.	1510.4
703	17.26	4.	0.	1512.2
704	17.26	3.8182	0.	1513.7
705	17.26	3.6364	0.	1514.9
706	17.26	3.4545	0.	1515.7
707	17.26	3.2727	0.	1516.3
708	17.26	3.0909	0.	1516.6
709	17.26	2.9091	0.	1516.6
710	17.26	2.7273	0.	1516.3
711	17.26	2.5455	0.	1515.7
712	17.26	2.3636	0.	1514.9
713	17.26	2.1818	0.	1513.7
714	17.26	2.	0.	1512.2
715	17.26	1.8182	0.	1510.4
716	17.26	1.6364	0.	1508.3
717	17.26	1.4545	0.	1505.8
718	17.26	1.2727	0.	1503.1
719	17.26	1.0909	0.	1500.1
720	17.26	0.90909	0.	1496.9
721	17.26	0.72727	0.	1493.5
722	17.26	0.54545	0.	1490.2
723	17.26	0.36364	0.	1487.
724	17.26	0.18182	0.	1486.4
725	17.077	5.8182	0.	1532.2
726	17.077	5.6364	0.	1532.3
727	17.077	5.4545	0.	1534.9
728	17.077	5.2727	0.	1537.8
729	17.077	5.0909	0.	1540.6
730	17.077	4.9091	0.	1543.3
731	17.077	4.7273	0.	1545.9
732	17.077	4.5455	0.	1548.2
733	17.077	4.3636	0.	1550.3
734	17.077	4.1818	0.	1552.2
735	17.077	4.	0.	1553.7
736	17.077	3.8182	0.	1555.
737	17.077	3.6364	0.	1556.
738	17.077	3.4545	0.	1556.8
739	17.077	3.2727	0.	1557.3
740	17.077	3.0909	0.	1557.5
741	17.077	2.9091	0.	1557.5
742	17.077	2.7273	0.	1557.3
743	17.077	2.5455	0.	1556.8
744	17.077	2.3636	0.	1556.
745	17.077	2.1818	0.	1555.
746	17.077	2.	0.	1553.7
747	17.077	1.8182	0.	1552.2
748	17.077	1.6364	0.	1550.3
749	17.077	1.4545	0.	1548.2
750	17.077	1.2727	0.	1545.9
751	17.077	1.0909	0.	1543.3
752	17.077	0.90909	0.	1540.6
753	17.077	0.72727	0.	1537.8
754	17.077	0.54545	0.	1534.9
755	17.077	0.36364	0.	1532.3
756	17.077	0.18182	0.	1532.2
757	16.893	5.8182	0.	1578.
758	16.893	5.6364	0.	1577.6
759	16.893	5.4545	0.	1579.7
760	16.893	5.2727	0.	1582.1
761	16.893	5.0909	0.	1584.5
762	16.893	4.9091	0.	1586.8
763	16.893	4.7273	0.	1589.
764	16.893	4.5455	0.	1591.
765	16.893	4.3636	0.	1592.8
766	16.893	4.1818	0.	1594.4
767	16.893	4.	0.	1595.7
768	16.893	3.8182	0.	1596.8
769	16.893	3.6364	0.	1597.7
770	16.893	3.4545	0.	1598.3
771	16.893	3.2727	0.	1598.8
772	16.893	3.0909	0.	1599.
773	16.893	2.9091	0.	1599.
774	16.893	2.7273	0.	1598.8
775	16.893	2.5455	0.	1598.3
776	16.893	2.3636	0.	1597.7
777	16.893	2.1818	0.	1596.8
778	16.893	2.	0.	1595.7
779	16.893	1.8182	0.	1594.4
780	16.893	1.6364	0.	1592.8
781	16.893	1.4545	0.	1591.
782	16.893	1.2727	0.	1589.
783	16.893	1.0909	0.	1586.8
784	16.893	0.90909	0.	1584.5
785	16.893	0.72727	0.	1582.1
786	16.893	0.54545	0.	1579.7
787	16.893	0.36364	0.	1577.6
788	16.893	0.18182	0.	1578.
789	16.709	5.8182	0.	1623.6
790	16.709	5.6364	0.	1622.8
791	16.709	5.4545	0.	1624.6
792	16.709	5.2727	0.	1626.5
793	16.709	5.0909	0.	1628.5
794	16.709	4.9091	0.	1630.5
795	16.709	4.7273	0.	1632.3
796	16.709	4.5455	0.	1634.
797	16.709	4.3636	0.	1635.6
798	16.709	4.1818	0.	1636.9
799	16.709	4.	0.	1638.1
800	16.709	3.8182	0.	1639.
801	16.709	3.6364	0.	1639.8
802	16.709	3.4545	0.	1640.4
803	16.709	3.2727	0.	1640.7
804	16.709	3.0909	0.	1640.9
805	16.709	2.9091	0.	1640.9
806	16.709	2.7273	0.	1640.7
807	16.709	2.5455	0.	1640.4
808	16.709	2.3636	0.	1639.8
809	16.709	2.1818	0.	1639.
810	16.709	2.	0.	1638.1
811	16.709	1.8182	0.	1636.9
812	16.709	1.6364	0.	1635.6
813	16.709	1.4545	0.	1634.
814	16.709	1.2727	0.	1632.3
815	16.709	1.0909	0.	1630.5
816	16.709	0.90909	0.	1628.5
817	16.709	0.72727	0.	1626.5
818	16.709	0.54545	0.	1624.6
819	16.709	0.36364	0.	1622.8
820	16.709	0.18182	0.	1623.6
821	16.526	5.8182	0.	1669.3
822	16.526	5.6364	0.	1668.1
823	16.526	5.4545	0.	1669.5
824	16.526	5.2727	0.	1671.1
825	16.526	5.0909	0.	1672.7
826	16.526	4.9091	0.	1674.4
827	16.526	4.7273	0.	1675.9
828	16.526	4.5455	0.	1677.4
829	16.526	4.3636	0.	1678.7
830	16.526	4.1818	0.	1679.8
831	16.526	4.	0.	1680.8
832	16.526	3.8182	0.	1681.7
833	16.526	3.6364	0.	1682.3
834	16.526	3.4545	0.	1682.8
835	16.526	3.2727	0.	1683.1
836	16.526	3.0909	0.	1683.3
837	16.526	2.9091	0.	1683.3
838	16.526	2.7273	0.	1683.1
839	16.526	2.5455	0.	1682.8
840	16.526	2.3636	0.	1682.3
841	16.526	2.1818	0.	1681.7
842	16.526	2.	0.	1680.8
843	16.526	1.8182	0.	1679.8
844	16.526	1.6364	0.	1678.7
845	16.526	1.4545	0.	1677.4
846	16.526	1.2727	0.	1675.9
847	16.526	1.0909	0.	1674.4
848	16.526	0.90909	0.	1672.7
849	16.526	0.72727	0.	1671.1
850	16.526	0.54545	0.	1669.5
851	16.526	0.36364	0.	1668.1
852	16.526	0.18182	0.	1669.3
853	16.342	5.8182	0.	1714.9
854	16.342	5.6364	0.	1713.4
855	16.342	5.4545	0.	1714.5
856	16.342	5.2727	0.	1715.8
857	16.342	5.0909	0.	1717.1
858	16.342	4.9091	0.	1718.5
859	16.342	4.7273	0.	1719.8
860	16.342	4.5455	0.	1721.
861	16.342	4.3636	0.	1722.1
862	16.342	4.1818	0.	1723.1
863	16.342	4.	0.	1723.9
864	16.342	3.8182	0.	1724.6
865	16.342	3.6364	0.	1725.2
866	16.342	3.4545	0.	1725.6
867	16.342	3.2727	0.	1725.9
868	16.342	3.0909	0.	1726.
869	16.342	2.9091	0.	1726.
870	16.342	2.7273	0.	1725.9
871	16.342	2.5455	0.	1725.6
872	16.342	2.3636	0.	1725.2
873	16.342	2.1818	0.	1724.6
874	16.342	2.	0.	1723.9
875	16.342	1.8182	0.	1723.1
876	16.342	1.6364	0.	1722.1
877	16.342	1.4545	0.	1721.
878	16.342	1.2727	0.	1719.8
879	16.342	1.0909	0.	1718.5
880	16.342	0.90909	0.	1717.1
881	16.342	0.72727	0.	1715.8
882	16.342	0.54545	0.	1714.5
883	16.342	0.36364	0.	1713.4
884	16.342	0.18182	0.	1714.9
885	16.159	5.8182	0.	1760.6
886	16.159	5.6364	0.	1758.8
887	16.159	5.4545	0.	1759.6
888	16.159	5.2727	0.	1760.6
889	16.159	5.0909	0.	1761.7
890	16.159	4.9091	0.	1762.8
891	16.159	4.7273	0.	1763.9
892	16.159	4.5455	0.	1764.9
893	16.159	4.3636	0.	1765.8
894	16.159	4.1818	0.	1766.7
895	16.159	4.	0.	1767.4
896	16.159	3.8182	0.	1768.
897	16.159	3.6364	0.	1768.5
898	16.159	3.4545	0.	1768.8
899	16.159	3.2727	0.	1769.1
900	16.159	3.0909	0.	1769.2
901	16.159	2.9091	0.	1769.2
902	16.159	2.7273	0.	1769.1
903	16.159	2.5455	0.	1768.8
904	16.159	2.3636	0.	1768.5
905	16.159	2.1818	0.	1768.
906	16.159	2.	0.	1767.4
907	16.159	1.8182	0.	1766.7
908	16.159	1.6364	0.	1765.8
909	16.159	1.4545	0.	1764.9
910	16.159	1.2727	0.	1763.9
911	16.159	1.0909	0.	1762.8
912	16.159	0.90909	0.	1761.7
913	16.159	0.72727	0.	1760.6
914	16.159	0.54545	0.	1759.6
915	16.159	0.36364	0.	1758.8
916	16.159	0.18182	0.	1760.6
917	15.975	5.8182	0.	1806.4
918	15.975	5.6364	0.	1804.3
919	15.975	5.4545	0.	1804.9
920	15.975	5.2727	0.	1805.7
921	15.975	5.0909	0.	1806.5
922	15.975	4.9091	0.	1807.4
923	15.975	4.7273	0.	1808.3
924	15.975	4.5455	0.	1809.1
925	15.975	4.3636	0.	1809.8
926	15.975	4.1818	0.	1810.5
927	15.975	4.	0.	1811.1
928	15.975	3.8182	0.	1811.6
929	15.975	3.6364	0.	1812.
930	15.975	3.4545	0.	1812.3
931	15.975	3.2727	0.	1812.5
932	15.975	3.0909	0.	1812.6
933	15.975	2.9091	0.	1812.6
934	15.975	2.7273	0.	1812.5
935	15.975	2.5455	0.	1812.3
936	15.975	2.3636	0.	1812.
937	15.975	2.1818	0.	1811.6
938	15.975	2.	0.	1811.1
939	15.975	1.8182	0.	1810.5
940	15.975	1.6364	0.	1809.8
941	15.975	1.4545	0.	1809.1
942	15.975	1.2727	0.	1808.3
943	15.975	1.0909	0.	1807.4
944	15.975	0.90909	0.	1806.5
945	15.975	0.72727	0.	1805.7
946	15.975	0.54545	0.	1804.9
947	15.975	0.36364	0.	1804.3
948	15.975	0.18182	0.	1806.4
949	15.791	5.8182	0.	1852.2
950	15.791	5.6364	0.	1849.9
951	15.791	5.4545	0.	1850.3
952	15.791	5.2727	0.	1850.9
953	15.791	5.0909	0.	1851.5
954	15.791	4.9091	0.	1852.2
955	15.791	4.7273	0.	1852.9
956	15.791	4.5455	0.	1853.5
957	15.791	4.3636	0.	1854.1
958	15.791	4.1818	0.	1854.7
959	15.791	4.	0.	1855.2
960	15.791	3.8182	0.	1855.6
961	15.791	3.6364	0.	1855.9
962	15.791	3.4545	0.	1856.2
963	15.791	3.2727	0.	1856.3
964	15.791	3.0909	0.	1856.4
965	15.791	2.9091	0.	1856.4
966	15.791	2.7273	0.	1856.3
967	15.791	2.5455	0.	1856.2
968	15.791	2.3636	0.	1855.9
969	15.791	2.1818	0.	1855.6
970	15.791	2.	0.	1855.2
971	15.791	1.8182	0.	1854.7
972	15.791	1.6364	0.	1854.1
973	15.791	1.4545	0.	1853.5
974	15.791	1.2727	0.	1852.9
975	15.791	1.0909	0.	1852.2
976	15.791	0.90909	0.	1851.5
977	15.791	0.72727	0.	1850.9
978	15.791	0.54545	0.	1850.3
979	15.791	0.36364	0.	1849.9
980	15.791	0.18182	0.	1852.2
981	15.608	5.8182	0.	1898.2
982	15.608	5.6364	0.	1895.7
983	15.608	5.4545	0.	1895.9
984	15.608	5.2727	0.	1896.2
985	15.608	5.0909	0.	1896.7
986	15.608	4.9091	0.	1897.2
987	15.608	4.7273	0.	1897.7
988	15.608	4.5455	0.	1898.2
989	15.608	4.3636	0.	1898.7
990	15.608	4.1818	0.	1899.1
991	15.608	4.	0.	1899.5
992	15.608	3.8182	0.	1899.8
993	15.608	3.6364	0.	1900.1
994	15.608	3.4545	0.	1900.3
995	15.608	3.2727	0.	1900.4
996	15.608	3.0909	0.	1900.5
997	15.608	2.9091	0.	1900.5
998	15.608	2.7273	0.	1900.4
999	15.608	2.5455	0.	1900.3
1000	15.608	2.3636	0.	1900.1
1001	15.608	2.1818	0.	1899.8
1002	15.608	2.	0.	1899.5
1003	15.608	1.8182	0.	1899.1
1004	15.608	1.6364	0.	1898.7
1005	15.608	1.4545	0.	1898.2
1006	15.608	1.2727	0.	1897.7
1007	15.608	1.0909	0.	1897.2
1008	15.608	0.90909	0.	1896.7
1009	15.608	0.72727	0.	1896.2
1010	15.608	0.54545	0.	1895.9
1011	15.608	0.36364	0.	1895.7
1012	15.608	0.18182	0.	1898.2
1013	15.424	5.8182	0.	1944.2
1014	15.424	5.6364	0.	1941.6
1015	15.424	5.4545	0.	1941.6
1016	15.424	5.2727	0.	1941.8
1017	15.424	5.0909	0.	1942.1
1018	15.424	4.9091	0.	1942.4
1019	15.424	4.7273	0.	1942.8
1020	15.424	4.5455	0.	1943.1
1021	15.424	4.3636	0.	1943.5
1022	15.424	4.1818	0.	1943.8
1023	15.424	4.	0.	1944.1
1024	15.424	3.8182	0.	1944.4
1025	15.424	3.6364	0.	1944.6
1026	15.424	3.4545	0.	1944.7
1027	15.424	3.2727	0.	1944.8
1028	15.424	3.0909	0.	1944.9
1029	15.424	2.9091	0.	1944.9
1030	15.424	2.7273	0.	1944.8
1031	15.424	2.5455	0.	1944.7
1032	15.424	2.3636	0.	1944.6
1033	15.424	2.1818	0.	1944.4
1034	15.424	2.	0.	1944.1
1035	15.424	1.8182	0.	1943.8
1036	15.424	1.6364	0.	1943.5
1037	15.424	1.4545	0.	1943.1
1038	15.424	1.2727	0.	1942.8
1039	15.424	1.0909	0.	1942.4
1040	15.424	0.90909	0.	1942.1
1041	15.424	0.72727	0.	1941.8
1042	15.424	0.54545	0.	1941.6
1043	15.424	0.36364	0.	1941.6
1044	15.424	0.18182	0.	1944.2
1045	15.241	5.8182	0.	1990.5
1046	15.241	5.6364	0.	1987.7
1047	15.241	5.4545	0.	1987.5
1048	15.241	5.2727	0.	1987.5
1049	15.241	5.0909	0.	1987.7
1050	15.241	4.9091	0.	1987.9
1051	15.241	4.7273	0.	1988.1
1052	15.241	4.5455	0.	1988.3
1053	15.241	4.3636	0.	1988.5
1054	15.241	4.1818	0.	1988.8
1055	15.241	4.	0.	1989.
1056	15.241	3.8182	0.	1989.1
1057	15.241	3.6364	0.	1989.3
1058	15.241	3.4545	0.	1989.4
1059	15.241	3.2727	0.	1989.5
1060	15.241	3.0909	0.	1989.5
1061	15.241	2.9091	0.	1989.5
1062	15.241	2.7273	0.	1989.5
1063	15.241	2.5455	0.	1989.4
1064	15.241	2.3636	0.	1989.3
1065	15.241	2.1818	0.	1989.1
1066	15.241	2.	0.	1989.
1067	15.241	1.8182	0.	1988.8
1068	15.241	1.6364	0.	1988.5
1069	15.241	1.4545	0.	1988.3
1070	15.241	1.2727	0.	1988.1
1071	15.241	1.0909	0.	1987.9
1072	15.241	0.90909	0.	1987.7
1073	15.241	0.72727	0.	1987.5
1074	15.241	0.54545	0.	1987.5
1075	15.241	0.36364	0.	1987.7
1076	15.241	0.18182	0.	1990.5
1077	15.057	5.8182	0.	2036.8
1078	15.057	5.6364	0.	2033.9
1079	15.057	5.4545	0.	2033.6
1080	15.057	5.2727	0.	2033.5
1081	15.057	5.0909	0.	2033.5
1082	15.057	4.9091	0.	2033.5
1083	15.057	4.7273	0.	2033.6
1084	15.057	4.5455	0.	2033.7
1085	15.057	4.3636	0.	2033.8
1086	15.057	4.1818	0.	2034.
1087	15.057	4.	0.	2034.1
1088	15.057	3.8182	0.	2034.2
1089	15.057	3.6364	0.	2034.3
1090	15.057	3.4545	0.	2034.4
1091	15.057	3.2727	0.	2034.4
1092	15.057	3.0909	0.	2034.4
1093	15.057	2.9091	0.	2034.4
1094	15.057	2.7273	0.	2034.4
1095	15.057	2.5455	0.	2034.4
1096	15.057	2.3636	0.	2034.3
1097	15.057	2.1818	0.	2034.2
1098	15.057	2.	0.	2034.1
1099	15.057	1.8182	0.	2034.
1100	15.057	1.6364	0.	2033.8
1101	15.057	1.4545	0.	2033.7
1102	15.057	1.2727	0.	2033.6
1103	15.057	1.0909	0.	2033.5
1104	15.057	0.90909	0.	2033.5
1105	15.057	0.72727	0.	2033.5
1106	15.057	0.54545	0.	2033.6
1107	15.057	0.36364	0.	2033.9
1108	15.057	0.18182	0.	2036.8
1109	14.873	5.8182	0.	2083.3
1110	14.873	5.6364	0.	2080.3
1111	14.873	5.4545	0.	2079.8
1112	14.873	5.2727	0.	2079.6
1113	14.873	5.0909	0.	2079.4
1114	14.873	4.9091	0.	2079.4
1115	14.873	4.7273	0.	2079.3
1116	14.873	4.5455	0.	2079.3
1117	14.873	4.3636	0.	2079.4
1118	14.873	4.1818	0.	2079.4
1119	14.873	4.	0.	2079.4
1120	14.873	3.8182	0.	2079.5
1121	14.873	3.6364	0.	2079.5
1122	14.873	3.4545	0.	2079.6
1123	14.873	3.2727	0.	2079.6
1124	14.873	3.0909	0.	2079.6
1125	14.873	2.9091	0.	2079.6
1126	14.873	2.7273	0.	2079.6
1127	14.873	2.5455	0.	2079.6
1128	14.873	2.3636	0.	2079.5
1129	14.873	2.1818	0.	2079.5
1130	14.873	2.	0.	2079.4
1131	14.873	1.8182	0.	2079.4
1132	14.873	1.6364	0.	2079.4
1133	14.873	1.4545	0.	2079.3
1134	14.873	1.2727	0.	2079.3
1135	14.873	1.0909	0.	2079.4
1136	14.873	0.90909	0.	2079.4
1137	14.873	0.72727	0.	2079.6
1138	14.873	0.54545	0.	2079.8
1139	14.873	0.36364	0.	2080.3
1140	14.873	0.18182	0.	2083.3
1141	14.69	5.8182	0.	2130.
1142	14.69	5.6364	0.	2126.8
1143	14.69	5.4545	0.	2126.2
1144	14.69	5.2727	0.	2125.9
1145	14.69	5.0909	0.	2125.6
1146	14.69	4.9091	0.	2125.4
1147	14.69	4.7273	0.	2125.3
1148	14.69	4.5455	0.	2125.2
1149	14.69	4.3636	0.	2125.1
1150	14.69	4.1818	0.	2125.1
1151	14.69	4.	0.	2125.
1152	14.69	3.8182	0.	2125.
1153	14.69	3.6364	0.	2125.
1154	14.69	3.4545	0.	2125.
1155	14.69	3.2727	0.	2125.
1156	14.69	3.0909	0.	2125.
1157	14.69	2.9091	0.	2125.
1158	14.69	2.7273	0.	2125.
1159	14.69	2.5455	0.	2125.
1160	14.69	2.3636	0.	2125.
1161	14.69	2.1818	0.	2125.
1162	14.69	2.	0.	2125.
1163	14.69	1.8182	0.	2125.1
1164	14.69	1.6364	0.	2125.1
1165	14.69	1.4545	0.	2125.2
1166	14.69	1.2727	0.	2125.3
1167	14.69	1.0909	0.	2125.4
1168	14.69	0.90909	0.	2125.6
1169	14.69	0.72727	0.	2125.9
1170	14.69	0.54545	0.	2126.2
1171	14.69	0.36364	0.	2126.8
1172	14.69	0.18182	0.	2130.
1173	14.506	5.8182	0.	2176.8
1174	14.506	5.6364	0.	2173.6
1175	14.506	5.4545	0.	2172.9
1176	14.506	5.2727	0.	2172.4
1177	14.506	5.0909	0.	2172.
1178	14.506	4.9091	0.	2171.7
1179	14.506	4.7273	0.	2171.4
1180	14.506	4.5455	0.	2171.2
1181	14.506	4.3636	0.	2171.1
1182	14.506	4.1818	0.	2171.
1183	14.506	4.	0.	2170.9
1184	14.506	3.8182	0.	2170.8
1185	14.506	3.6364	0.	2170.7
1186	14.506	3.4545	0.	2170.7
1187	14.506	3.2727	0.	2170.7
1188	14.506	3.0909	0.	2170.7
1189	14.506	2.9091	0.	2170.7
1190	14.506	2.7273	0.	2170.7
1191	14.506	2.5455	0.	2170.7
1192	14.506	2.3636	0.	2170.7
1193	14.506	2.1818	0.	2170.8
1194	14.506	2.	0.	2170.9
1195	14.506	1.8182	0.	2171.
1196	14.506	1.6364	0.	2171.1
1197	14.506	1.4545	0.	2171.2
1198	14.506	1.2727	0.	2171.4
1199	14.506	1.0909	0.	2171.7
1200	14.506	0.90909	0.	2172.
1201	14.506	0.72727	0.	2172.4
1202	14.506	0.54545	0.	2172.9
1203	14.506	0.36364	0.	2173.6
1204	14.506	0.18182	0.	2176.8
1205	14.322	5.8182	0.	2223.8
1206	14.322	5.6364	0.	2220.5
1207	14.322	5.4545	0.	2219.7
1208	14.322	5.2727	0.	2219.1
1209	14.322	5.0909	0.	2218.6
1210	14.322	4.9091	0.	2218.1
1211	14.322	4.7273	0.	2217.8
1212	14.322	4.5455	0.	2217.5
1213	14.322	4.3636	0.	2217.3
1214	14.322	4.1818	0.	2217.1
1215	14.322	4.	0.	2216.9
1216	14.322	3.8182	0.	2216.8
1217	14.322	3.6364	0.	2216.7
1218	14.322	3.4545	0.	2216.6
1219	14.322	3.2727	0.	2216.6
1220	14.322	3.0909	0.	2216.6
1221	14.322	2.9091	0.	2216.6
1222	14.322	2.7273	0.	2216.6
1223	14.322	2.5455	0.	2216.6
1224	14.322	2.3636	0.	2216.7
1225	14.322	2.1818	0.	2216.8
1226	14.322	2.	0.	2216.9
1227	14.322	1.8182	0.	2217.1
1228	14.322	1.6364	0.	2217.3
1229	14.322	1.4545	0.	2217.5
1230	14.322	1.2727	0.	2217.8
1231	14.322	1.0909	0.	2218.1
1232	14.322	0.90909	0.	2218.6
1233	14.322	0.72727	0.	2219.1
1234	14.322	0.54545	0.	2219.7
1235	14.322	0.36364	0.	2220.5
1236	14.322	0.18182	0.	2223.8
1237	14.139	5.8182	0.	2271.
1238	14.139	5.6364	0.	2267.6
1239	14.139	5.4545	0.	2266.6
1240	14.139	5.2727	0.	2265.9
1241	14.139	5.0909	0.	2265.3
1242	14.139	4.9091	0.	2264.8
1243	14.139	4.7273	0.	2264.4
1244	14.139	4.5455	0.	2264.
1245	14.139	4.3636	0.	2263.7
1246	14.139	4.1818	0.	2263.4
1247	14.139	4.	0.	2263.2
1248	14.139	3.8182	0.	2263.
1249	14.139	3.6364	0.	2262.9
1250	14.139	3.4545	0.	2262.8
1251	14.139	3.2727	0.	2262.7
1252	14.139	3.0909	0.	2262.7
1253	14.139	2.9091	0.	2262.7
1254	14.139	2.7273	0.	2262.7
1255	14.139	2.5455	0.	2262.8
1256	14.139	2.3636	0.	2262.9
1257	14.139	2.1818	0.	2263.
1258	14.139	2.	0.	2263.2
1259	14.139	1.8182	0.	2263.4
1260	14.139	1.6364	0.	2263.7
1261	14.139	1.4545	0.	2264.
1262	14.139	1.2727	0.	2264.4
1263	14.139	1.0909	0.	2264.8
1264	14.139	0.90909	0.	2265.3
1265	14.139	0.72727	0.	2265.9
1266	14.139	0.54545	0.	2266.6
1267	14.139	0.36364	0.	2267.6
1268	14.139	0.18182	0.	2271.
1269	13.955	5.8182	0.	2318.3
1270	13.955	5.6364	0.	2314.8
1271	13.955	5.4545	0.	2313.8
1272	13.955	5.2727	0.	2313.
1273	13.955	5.0909	0.	2312.3
1274	13.955	4.9091	0.	2311.7
1275	13.955	4.7273	0.	2311.1
1276	13.955	4.5455	0.	2310.7
1277	13.955	4.3636	0.	2310.3
1278	13.955	4.1818	0.	2309.9
1279	13.955	4.	0.	2309.7
1280	13.955	3.8182	0.	2309.4
1281	13.955	3.6364	0.	2309.2
1282	13.955	3.4545	0.	2309.1
1283	13.955	3.2727	0.	2309.
1284	13.955	3.0909	0.	2309.
1285	13.955	2.9091	0.	2309.
1286	13.955	2.7273	0.	2309.
1287	13.955	2.5455	0.	2309.1
1288	13.955	2.3636	0.	2309.2
1289	13.955	2.1818	0.	2309.4
1290	13.955	2.	0.	2309.7
1291	13.955	1.8182	0.	2309.9
1292	13.955	1.6364	0.	2310.3
1293	13.955	1.4545	0.	2310.7
1294	13.955	1.2727	0.	2311.1
1295	13.955	1.0909	0.	2311.7
1296	13.955	0.90909	0.	2312.3
1297	13.955	0.72727	0.	2313.
1298	13.955	0.54545	0.	2313.8
1299	13.955	0.36364	0.	2314.8
1300	13.955	0.18182	0.	2318.3
1301	13.772	5.8182	0.	2365.9
1302	13.772	5.6364	0.	2362.3
1303	13.772	5.4545	0.	2361.2
1304	13.772	5.2727	0.	2360.3
1305	13.772	5.0909	0.	2359.5
1306	13.772	4.9091	0.	2358.7
1307	13.772	4.7273	0.	2358.1
1308	13.772	4.5455	0.	2357.6
1309	13.772	4.3636	0.	2357.1
1310	13.772	4.1818	0.	2356.7
1311	13.772	4.	0.	2356.3
1312	13.772	3.8182	0.	2356.1
1313	13.772	3.6364	0.	2355.8
1314	13.772	3.4545	0.	2355.7
1315	13.772	3.2727	0.	2355.6
1316	13.772	3.0909	0.	2355.5
1317	13.772	2.9091	0.	2355.5
1318	13.772	2.7273	0.	2355.6
1319	13.772	2.5455	0.	2355.7
1320	13.772	2.3636	0.	2355.8
1321	13.772	2.1818	0.	2356.1
1322	13.772	2.	0.	2356.3
1323	13.772	1.8182	0.	2356.7
1324	13.772	1.6364	0.	2357.1
1325	13.772	1.4545	0.	2357.6
1326	13.772	1.2727	0.	2358.1
1327	13.772	1.0909	0.	2358.7
1328	13.772	0.90909	0.	2359.5
1329	13.772	0.72727	0.	2360.3
1330	13.772	0.54545	0.	2361.2
1331	13.772	0.36364	0.	2362.3
1332	13.772	0.18182	0.	2365.9
1333	13.588	5.8182	0.	2413.6
1334	13.588	5.6364	0.	2409.9
1335	13.588	5.4545	0.	2408.7
1336	13.588	5.2727	0.	2407.7
1337	13.588	5.0909	0.	2406.8
1338	13.588	4.9091	0.	2406.
1339	13.588	4.7273	0.	2405.3
1340	13.588	4.5455	0.	2404.7
1341	13.588	4.3636	0.	2404.1
1342	13.588	4.1818	0.	2403.6
1343	13.588	4.	0.	2403.2
1344	13.588	3.8182	0.	2402.9
1345	13.588	3.6364	0.	2402.6
1346	13.588	3.4545	0.	2402.4
1347	13.588	3.2727	0.	2402.3
1348	13.588	3.0909	0.	2402.2
1349	13.588	2.9091	0.	2402.2
1350	13.588	2.7273	0.	2402.3
1351	13.588	2.5455	0.	2402.4
1352	13.588	2.3636	0.	2402.6
1353	13.588	2.1818	0.	2402.9
1354	13.588	2.	0.	2403.2
1355	13.588	1.8182	0.	2403.6
1356	13.588	1.6364	0.	2404.1
1357	13.588	1.4545	0.	2404.7
1358	13.588	1.2727	0.	2405.3
1359	13.588	1.0909	0.	2406.
1360	13.588	0.90909	0.	2406.8
1361	13.588	0.72727	0.	2407.7
1362	13.588	0.54545	0.	2408.7
1363	13.588	0.36364	0.	2409.9
1364	13.588	0.18182	0.	2413.6
1365	13.404	5.8182	0.	2461.5
1366	13.404	5.6364	0.	2457.8
1367	13.404	5.4545	0.	2456.4
1368	13.404	5.2727	0.	2455.3
1369	13.404	5.0909	0.	2454.3
1370	13.404	4.9091	0.	2453.5
1371	13.404	4.7273	0.	2452.7
1372	13.404	4.5455	0.	2451.9
1373	13.404	4.3636	0.	2451.3
1374	13.404	4.1818	0.	2450.8
1375	13.404	4.	0.	2450.3
1376	13.404	3.8182	0.	2449.9
1377	13.404	3.6364	0.	2449.6
1378	13.404	3.4545	0.	2449.4
1379	13.404	3.2727	0.	2449.3
1380	13.404	3.0909	0.	2449.2
1381	13.404	2.9091	0.	2449.2
1382	13.404	2.7273	0.	2449.3
1383	13.404	2.5455	0.	2449.4
1384	13.404	2.3636	0.	2449.6
1385	13.404	2.1818	0.	2449.9
1386	13.404	2.	0.	2450.3
1387	13.404	1.8182	0.	2450.8
1388	13.404	1.6364	0.	2451.3
1389	13.404	1.4545	0.	2451.9
1390	13.404	1.2727	0.	2452.7
1391	13.404	1.0909	0.	2453.5
1392	13.404	0.90909	0.	2454.3
1393	13.404	0.72727	0.	2455.3
1394	13.404	0.54545	0.	2456.4
1395	13.404	0.36364	0.	2457.8
1396	13.404	0.18182	0.	2461.5
1397	13.221	5.8182	0.	2509.6
1398	13.221	5.6364	0.	2505.8
1399	13.221	5.4545	0.	2504.4
1400	13.221	5.2727	0.	2503.2
1401	13.221	5.0909	0.	2502.1
1402	13.221	4.9091	0.	2501.1
1403	13.221	4.7273	0.	2500.2
1404	13.221	4.5455	0.	2499.4
1405	13.221	4.3636	0.	2498.7
1406	13.221	4.1818	0.	2498.1
1407	13.221	4.	0.	2497.6
1408	13.221	3.8182	0.	2497.2
1409	13.221	3.6364	0.	2496.8
1410	13.221	3.4545	0.	2496.6
1411	13.221	3.2727	0.	2496.4
1412	13.221	3.0909	0.	2496.3
1413	13.221	2.9091	0.	2496.3
1414	13.221	2.7273	0.	2496.4
1415	13.221	2.5455	0.	2496.6
1416	13.221	2.3636	0.	2496.8
1417	13.221	2.1818	0.	2497.2
1418	13.221	2.	0.	2497.6
1419	13.221	1.8182	0.	2498.1
1420	13.221	1.6364	0.	2498.7
1421	13.221	1.4545	0.	2499.4
1422	13.221	1.2727	0.	2500.2
1423	13.221	1.0909	0.	2501.1
1424	13.221	0.90909	0.	2502.1
1425	13.221	0.72727	0.	2503.2
1426	13.221	0.54545	0.	2504.4
1427	13.221	0.36364	0.	2505.8
1428	13.221	0.18182	0.	2509.6
1429	13.037	5.8182	0.	2557.9
1430	13.037	5.6364	0.	2554.
1431	13.037	5.4545	0.	2552.5
1432	13.037	5.2727	0.	2551.2
1433	13.037	5.0909	0.	2550.
1434	13.037	4.9091	0.	2548.9
1435	13.037	4.7273	0.	2547.9
1436	13.037	4.5455	0.	2547.1
1437	13.037	4.3636	0.	2546.3
1438	13.037	4.1818	0.	2545.6
1439	13.037	4.	0.	2545.
1440	13.037	3.8182	0.	2544.6
1441	13.037	3.6364	0.	2544.2
1442	13.037	3.4545	0.	2543.9
1443	13.037	3.2727	0.	2543.7
1444	13.037	3.0909	0.	2543.6
1445	13.037	2.9091	0.	2543.6
1446	13.037	2.7273	0.	2543.7
1447	13.037	2.5455	0.	2543.9
1448	13.037	2.3636	0.	2544.2
1449	13.037	2.1818	0.	2544.6
1450	13.037	2.	0.	2545.
1451	13.037	1.8182	0.	2545.6
1452	13.037	1.6364	0.	2546.3
1453	13.037	1.4545	0.	2547.1
1454	13.037	1.2727	0.	2547.9
1455	13.037	1.0909	0.	2548.9
1456	13.037	0.90909	0.	2550.
1457	13.037	0.72727	0.	2551.2
1458	13.037	0.54545	0.	2552.5
1459	13.037	0.36364	0.	2554.
1460	13.037	0.18182	0.	2557.9
1461	12.853	5.8182	0.	2606.3
1462	12.853	5.6364	0.	2602.4
1463	12.853	5.4545	0.	2600.8
1464	12.853	5.2727	0.	2599.4
1465	12.853	5.0909	0.	2598.1
1466	12.853	4.9091	0.	2596.9
1467	12.853	4.7273	0.	2595.9
1468	12.853	4.5455	0.	2594.9
1469	12.853	4.3636	0.	2594.1
1470	12.853	4.1818	0.	2593.3
1471	12.853	4.	0.	2592.7
1472	12.853	3.8182	0.	2592.1
1473	12.853	3.6364	0.	2591.7
1474	12.853	3.4545	0.	2591.4
1475	12.853	3.2727	0.	2591.2
1476	12.853	3.0909	0.	2591.1
1477	12.853	2.9091	0.	2591.1
1478	12.853	2.7273	0.	2591.2
1479	12.853	2.5455	0.	2591.4
1480	12.853	2.3636	0.	2591.7
1481	12.853	2.1818	0.	2592.1
1482	12.853	2.	0.	2592.7
1483	12.853	1.8182	0.	2593.3
1484	12.853	1.6364	0.	2594.1
1485	12.853	1.4545	0.	2594.9
1486	12.853	1.2727	0.	2595.9
1487	12.853	1.0909	0.	2596.9
1488	12.853	0.90909	0.	2598.1
1489	12.853	0.72727	0.	2599.4
1490	12.853	0.54545	0.	2600.8
1491	12.853	0.36364	0.	2602.4
1492	12.853	0.18182	0.	2606.3
1493	12.67	5.8182	0.	2655.
1494	12.67	5.6364	0.	2651.
1495	12.67	5.4545	0.	2649.3
1496	12.67	5.2727	0.	2647.8
1497	12.67	5.0909	0.	2646.4
1498	12.67	4.9091	0.	2645.1
1499	12.67	4.7273	0.	2644.
1500	12.67	4.5455	0.	2642.9
1501	12.67	4.3636	0.	2642.
1502	12.67	4.1818	0.	2641.2
1503	12.67	4.	0.	2640.5
1504	12.67	3.8182	0.	2639.9
1505	12.67	3.6364	0.	2639.4
1506	12.67	3.4545	0.	2639.1
1507	12.67	3.2727	0.	2638.9
1508	12.67	3.0909	0.	2638.7
1509	12.67	2.9091	0.	2638.7
1510	12.67	2.7273	0.	2638.9
1511	12.67	2.5455	0.	2639.1
1512	12.67	2.3636	0.	2639.4
1513	12.67	2.1818	0.	2639.9
1514	12.67	2.	0.	2640.5
1515	12.67	1.8182	0.	2641.2
1516	12.67	1.6364	0.	2642.
1517	12.67	1.4545	0.	2642.9
1518	12.67	1.2727	0.	2644.
1519	12.67	1.0909	0.	2645.1
1520	12.67	0.90909	0.	2646.4
1521	12.67	0.72727	0.	2647.8
1522	12.67	0.54545	0.	2649.3
1523	12.67	0.36364	0.	2651.
1524	12.67	0.18182	0.	2655.
1525	12.486	5.8182	0.	2703.9
1526	12.486	5.6364	0.	2699.8
1527	12.486	5.4545	0.	2697.9
1528	12.486	5.2727	0.	2696.3
1529	12.486	5.0909	0.	2694.9
1530	12.486	4.9091	0.	2693.5
1531	12.486	4.7273	0.	2692.2
1532	12.486	4.5455	0.	2691.1
1533	12.486	4.3636	0.	2690.1
1534	12.486	4.1818	0.	2689.2
1535	12.486	4.	0.	2688.5
1536	12.486	3.8182	0.	2687.8
1537	12.486	3.6364	0.	2687.3
1538	12.486	3.4545	0.	2686.9
1539	12.486	3.2727	0.	2686.7
1540	12.486	3.0909	0.	2686.6
1541	12.486	2.9091	0.	2686.6
1542	12.486	2.7273	0.	2686.7
1543	12.486	2.5455	0.	2686.9
1544	12.486	2.3636	0.	2687.3
1545	12.486	2.1818	0.	2687.8
1546	12.486	2.	0.	2688.5
1547	12.486	1.8182	0.	2689.2
1548	12.486	1.6364	0.	2690.1
1549	12.486	1.4545	0.	2691.1
1550	12.486	1.2727	0.	2692.2
1551	12.486	1.0909	0.	2693.5
1552	12.486	0.90909	0.	2694.9
1553	12.486	0.72727	0.	2696.3
1554	12.486	0.54545	0.	2697.9
1555	12.486	0.36364	0.	2699.8
1556	12.486	0.18182	0.	2703.9
1557	12.303	5.8182	0.	2752.9
1558	12.303	5.6364	0.	2748.8
1559	12.303	5.4545	0.	2746.8
1560	12.303	5.2727	0.	2745.1
1561	12.303	5.0909	0.	2743.5
1562	12.303	4.9091	0.	2742.
1563	12.303	4.7273	0.	2740.7
1564	12.303	4.5455	0.	2739.5
1565	12.303	4.3636	0.	2738.4
1566	12.303	4.1818	0.	2737.4
1567	12.303	4.	0.	2736.6
1568	12.303	3.8182	0.	2735.9
1569	12.303	3.6364	0.	2735.4
1570	12.303	3.4545	0.	2735.
1571	12.303	3.2727	0.	2734.7
1572	12.303	3.0909	0.	2734.5
1573	12.303	2.9091	0.	2734.5
1574	12.303	2.7273	0.	2734.7
1575	12.303	2.5455	0.	2735.
1576	12.303	2.3636	0.	2735.4
1577	12.303	2.1818	0.	2735.9
1578	12.303	2.	0.	2736.6
1579	12.303	1.8182	0.	2737.4
1580	12.303	1.6364	0.	2738.4
1581	12.303	1.4545	0.	2739.5
1582	12.303	1.2727	0.	2740.7
1583	12.303	1.0909	0.	2742.
1584	12.303	0.90909	0.	2743.5
1585	12.303	0.72727	0.	2745.1
1586	12.303	0.54545	0.	2746.8
1587	12.303	0.36364	0.	2748.8
1588	12.303	0.18182	0.	2752.9
1589	12.119	5.8182	0.	2802.2
1590	12.119	5.6364	0.	2797.9
1591	12.119	5.4545	0.	2795.9
1592	12.119	5.2727	0.	2794.
1593	12.119	5.0909	0.	2792.3
1594	12.119	4.9091	0.	2790.8
1595	12.119	4.7273	0.	2789.3
1596	12.119	4.5455	0.	2788.
1597	12.119	4.3636	0.	2786.8
1598	12.119	4.1818	0.	2785.8
1599	12.119	4.	0.	2784.9
1600	12.119	3.8182	0.	2784.2
1601	12.119	3.6364	0.	2783.6
1602	12.119	3.4545	0.	2783.1
1603	12.119	3.2727	0.	2782.8
1604	12.119	3.0909	0.	2782.7
1605	12.119	2.9091	0.	2782.7
1606	12.119	2.7273	0.	2782.8
1607	12.119	2.5455	0.	2783.1
1608	12.119	2.3636	0.	2783.6
1609	12.119	2.1818	0.	2784.2
1610	12.119	2.	0.	2784.9
1611	12.119	1.8182	0.	2785.8
1612	12.119	1.6364	0.	2786.8
1613	12.119	1.4545	0.	2788.
1614	12.119	1.2727	0.	2789.3
1615	12.119	1.0909	0.	2790.8
1616	12.119	0.90909	0.	2792.3
1617	12.119	0.72727	0.	2794.
1618	12.119	0.54545	0.	2795.9
1619	12.119	0.36364	0.	2797.9
1620	12.119	0.18182	0.	2802.2
1621	11.935	5.8182	0.	2851.7
1622	11.935	5.6364	0.	2847.3
1623	11.935	5.4545	0.	2845.1
1624	11.935	5.2727	0.	2843.2
1625	11.935	5.0909	0.	2841.4
1626	11.935	4.9091	0.	2839.7
1627	11.935	4.7273	0.	2838.1
1628	11.935	4.5455	0.	2836.7
1629	11.935	4.3636	0.	2835.5
1630	11.935	4.1818	0.	2834.3
1631	11.935	4.	0.	2833.4
1632	11.935	3.8182	0.	2832.6
1633	11.935	3.6364	0.	2831.9
1634	11.935	3.4545	0.	2831.4
1635	11.935	3.2727	0.	2831.1
1636	11.935	3.0909	0.	2830.9
1637	11.935	2.9091	0.	2830.9
1638	11.935	2.7273	0.	2831.1
1639	11.935	2.5455	0.	2831.4
1640	11.935	2.3636	0.	2831.9
1641	11.935	2.1818	0.	2832.6
1642	11.935	2.	0.	2833.4
1643	11.935	1.8182	0.	2834.3
1644	11.935	1.6364	0.	2835.5
1645	11.935	1.4545	0.	2836.7
1646	11.935	1.2727	0.	2838.1
1647	11.935	1.0909	0.	2839.7
1648	11.935	0.90909	0.	2841.4
1649	11.935	0.72727	0.	2843.2
1650	11.935	0.54545	0.	2845.1
1651	11.935	0.36364	0.	2847.3
1652	11.935	0.18182	0.	2851.7
1653	11.752	5.8182	0.	2901.3
1654	11.752	5.6364	0.	2896.9
1655	11.752	5.4545	0.	2894.6
1656	11.752	5.2727	0.	2892.5
1657	11.752	5.0909	0.	2890.5
1658	11.752	4.9091	0.	2888.7
1659	11.752	4.7273	0.	2887.1
1660	11.752	4.5455	0.	2885.6
1661	11.752	4.3636	0.	2884.2
1662	11.752	4.1818	0.	2883.
1663	11.752	4.	0.	2882.
1664	11.752	3.8182	0.	2881.1
1665	11.752	3.6364	0.	2880.4
1666	11.752	3.4545	0.	2879.9
1667	11.752	3.2727	0.	2879.5
1668	11.752	3.0909	0.	2879.3
1669	11.752	2.9091	0.	2879.3
1670	11.752	2.7273	0.	2879.5
1671	11.752	2.5455	0.	2879.9
1672	11.752	2.3636	0.	2880.4
1673	11.752	2.1818	0.	2881.1
1674	11.752	2.	0.	2882.
1675	11.752	1.8182	0.	2883.
1676	11.752	1.6364	0.	2884.2
1677	11.752	1.4545	0.	2885.6
1678	11.752	1.2727	0.	2887.1
1679	11.752	1.0909	0.	2888.7
1680	11.752	0.90909	0.	2890.5
1681	11.752	0.72727	0.	2892.5
1682	11.752	0.54545	0.	2894.6
1683	11.752	0.36364	0.	2896.9
1684	11.752	0.18182	0.	2901.3
1685	11.568	5.8182	0.	2951.2
1686	11.568	5.6364	0.	2946.6
1687	11.568	5.4545	0.	2944.2
1688	11.568	5.2727	0.	2942.
1689	11.568	5.0909	0.	2939.9
1690	11.568	4.9091	0.	2938.
1691	11.568	4.7273	0.	2936.2
1692	11.568	4.5455	0.	2934.6
1693	11.568	4.3636	0.	2933.1
1694	11.568	4.1818	0.	2931.8
1695	11.568	4.	0.	2930.7
1696	11.568	3.8182	0.	2929.8
1697	11.568	3.6364	0.	2929.
1698	11.568	3.4545	0.	2928.5
1699	11.568	3.2727	0.	2928.1
1700	11.568	3.0909	0.	2927.9
1701	11.568	2.9091	0.	2927.9
1702	11.568	2.7273	0.	2928.1
1703	11.568	2.5455	0.	2928.5
1704	11.568	2.3636	0.	2929.
1705	11.568	2.1818	0.	2929.8
1706	11.568	2.	0.	2930.7
1707	11.568	1.8182	0.	2931.8
1708	11.568	1.6364	0.	2933.1
1709	11.568	1.4545	0.	2934.6
1710	11.568	1.2727	0.	2936.2
1711	11.568	1.0909	0.	2938.
1712	11.568	0.90909	0.	2939.9
1713	11.568	0.72727	0.	2942.
1714	11.568	0.54545	0.	2944.2
1715	11.568	0.36364	0.	2946.6
1716	11.568	0.18182	0.	2951.2
1717	11.384	5.8182	0.	3001.3
1718	11.384	5.6364	0.	2996.6
1719	11.384	5.4545	0.	2994.
1720	11.384	5.2727	0.	2991.7
1721	11.384	5.0909	0.	2989.4
1722	11.384	4.9091	0.	2987.4
1723	11.384	4.7273	0.	2985.5
1724	11.384	4.5455	0.	2983.7
1725	11.384	4.3636	0.	2982.2
1726	11.384	4.1818	0.	2980.8
1727	11.384	4.	0.	2979.6
1728	11.384	3.8182	0.	2978.6
1729	11.384	3.6364	0.	2977.8
1730	11.384	3.4545	0.	2977.2
1731	11.384	3.2727	0.	2976.7
1732	11.384	3.0909	0.	2976.5
1733	11.384	2.9091	0.	2976.5
1734	11.384	2.7273	0.	2976.7
1735	11.384	2.5455	0.	2977.2
1736	11.384	2.3636	0.	2977.8
1737	11.384	2.1818	0.	2978.6
1738	11.384	2.	0.	2979.6
1739	11.384	1.8182	0.	2980.8
1740	11.384	1.6364	0.	2982.2
1741	11.384	1.4545	0.	2983.7
1742	11.384	1.2727	0.	2985.5
1743	11.384	1.0909	0.	2987.4
1744	11.384	0.90909	0.	2989.4
1745	11.384	0.72727	0.	2991.7
1746	11.384	0.54545	0.	2994.
1747	11.384	0.36364	0.	2996.6
1748	11.384	0.18182	0.	3001.3
1749	11.201	5.8182	0.	3051.5
1750	11.201	5.6364	0.	3046.8
1751	11.201	5.4545	0.	3044.
1752	11.201	5.2727	0.	3041.5
1753	11.201	5.0909	0.	3039.1
1754	11.201	4.9091	0.	3036.9
1755	11.201	4.7273	0.	3034.9
1756	11.201	4.5455	0.	3033.
1757	11.201	4.3636	0.	3031.4
1758	11.201	4.1818	0.	3029.9
1759	11.201	4.	0.	3028.6
1760	11.201	3.8182	0.	3027.5
1761	11.201	3.6364	0.	3026.6
1762	11.201	3.4545	0.	3026.
1763	11.201	3.2727	0.	3025.5
1764	11.201	3.0909	0.	3025.3
1765	11.201	2.9091	0.	3025.3
1766	11.201	2.7273	0.	3025.5
1767	11.201	2.5455	0.	3026.
1768	11.201	2.3636	0.	3026.6
1769	11.201	2.1818	0.	3027.5
1770	11.201	2.	0.	3028.6
1771	11.201	1.8182	0.	3029.9
1772	11.201	1.6364	0.	3031.4
1773	11.201	1.4545	0.	3033.
1774	11.201	1.2727	0.	3034.9
1775	11.201	1.0909	0.	3036.9
1776	11.201	0.90909	0.	3039.1
1777	11.201	0.72727	0.	3041.5
1778	11.201	0.54545	0.	3044.
1779	11.201	0.36364	0.	3046.8
1780	11.201	0.18182	0.	3051.5
1781	11.017	5.8182	0.	3102.
1782	11.017	5.6364	0.	3097.1
1783	11.017	5.4545	0.	3094.2
1784	11.017	5.2727	0.	3091.5
1785	11.017	5.0909	0.	3089.
1786	11.017	4.9091	0.	3086.7
1787	11.017	4.7273	0.	3084.5
1788	11.017	4.5455	0.	3082.5
1789	11.017	4.3636	0.	3080.7
1790	11.017	4.1818	0.	3079.1
1791	11.017	4.	0.	3077.7
1792	11.017	3.8182	0.	3076.5
1793	11.017	3.6364	0.	3075.6
1794	11.017	3.4545	0.	3074.9
1795	11.017	3.2727	0.	3074.4
1796	11.017	3.0909	0.	3074.2
1797	11.017	2.9091	0.	3074.2
1798	11.017	2.7273	0.	3074.4
1799	11.017	2.5455	0.	3074.9
1800	11.017	2.3636	0.	3075.6
1801	11.017	2.1818	0.	3076.5
1802	11.017	2.	0.	3077.7
1803	11.017	1.8182	0.	3079.1
1804	11.017	1.6364	0.	3080.7
1805	11.017	1.4545	0.	3082.5
1806	11.017	1.2727	0.	3084.5
1807	11.017	1.0909	0.	3086.7
1808	11.017	0.90909	0.	3089.
1809	11.017	0.72727	0.	3091.5
1810	11.017	0.54545	0.	3094.2
1811	11.017	0.36364	0.	3097.1
1812	11.017	0.18182	0.	3102.
1813	10.834	5.8182	0.	3152.7
1814	10.834	5.6364	0.	3147.7
1815	10.834	5.4545	0.	3144.6
1816	10.834	5.2727	0.	3141.7
1817	10.834	5.0909	0.	3139.
1818	10.834	4.9091	0.	3136.5
1819	10.834	4.7273	0.	3134.2
1820	10.834	4.5455	0.	3132.
1821	10.834	4.3636	0.	3130.1
1822	10.834	4.1818	0.	3128.4
1823	10.834	4.	0.	3126.9
1824	10.834	3.8182	0.	3125.7
1825	10.834	3.6364	0.	3124.7
1826	10.834	3.4545	0.	3123.9
1827	10.834	3.2727	0.	3123.4
1828	10.834	3.0909	0.	3123.1
1829	10.834	2.9091	0.	3123.1
1830	10.834	2.7273	0.	3123.4
1831	10.834	2.5455	0.	3123.9
1832	10.834	2.3636	0.	3124.7
1833	10.834	2.1818	0.	3125.7
1834	10.834	2.	0.	3126.9
1835	10.834	1.8182	0.	3128.4
1836	10.834	1.6364	0.	3130.1
1837	10.834	1.4545	0.	3132.
1838	10.834	1.2727	0.	3134.2
1839	10.834	1.0909	0.	3136.5
1840	10.834	0.90909	0.	3139.
1841	10.834	0.72727	0.	3141.7
1842	10.834	0.54545	0.	3144.6
1843	10.834	0.36364	0.	3147.7
1844	10.834	0.18182	0.	3152.7
1845	10.65	5.8182	0.	3203.7
1846	10.65	5.6364	0.	3198.5
1847	10.65	5.4545	0.	3195.2
1848	10.65	5.2727	0.	3192.1
1849	10.65	5.0909	0.	3189.2
1850	10.65	4.9091	0.	3186.5
1851	10.65	4.7273	0.	3184.
1852	10.65	4.5455	0.	3181.7
1853	10.65	4.3636	0.	3179.7
1854	10.65	4.1818	0.	3177.8
1855	10.65	4.	0.	3176.2
1856	10.65	3.8182	0.	3174.9
1857	10.65	3.6364	0.	3173.8
1858	10.65	3.4545	0.	3173.
1859	10.65	3.2727	0.	3172.4
1860	10.65	3.0909	0.	3172.2
1861	10.65	2.9091	0.	3172.2
1862	10.65	2.7273	0.	3172.4
1863	10.65	2.5455	0.	3173.
1864	10.65	2.3636	0.	3173.8
1865	10.65	2.1818	0.	3174.9
1866	10.65	2.	0.	3176.2
1867	10.65	1.8182	0.	3177.8
1868	10.65	1.6364	0.	3179.7
1869	10.65	1.4545	0.	3181.7
1870	10.65	1.2727	0.	3184.
1871	10.65	1.0909	0.	3186.5
1872	10.65	0.90909	0.	3189.2
1873	10.65	0.72727	0.	3192.1
1874	10.65	0.54545	0.	3195.2
1875	10.65	0.36364	0.	3198.5
1876	10.65	0.18182	0.	3203.7
1877	10.466	5.8182	0.	3254.8
1878	10.466	5.6364	0.	3249.4
1879	10.466	5.4545	0.	3245.9
1880	10.466	5.2727	0.	3242.7
1881	10.466	5.0909	0.	3239.6
1882	10.466	4.9091	0.	3236.7
1883	10.466	4.7273	0.	3234.
1884	10.466	4.5455	0.	3231.6
1885	10.466	4.3636	0.	3229.3
1886	10.466	4.1818	0.	3227.4
1887	10.466	4.	0.	3225.7
1888	10.466	3.8182	0.	3224.2
1889	10.466	3.6364	0.	3223.
1890	10.466	3.4545	0.	3222.2
1891	10.466	3.2727	0.	3221.6
1892	10.466	3.0909	0.	3221.3
1893	10.466	2.9091	0.	3221.3
1894	10.466	2.7273	0.	3221.6
1895	10.466	2.5455	0.	3222.2
1896	10.466	2.3636	0.	3223.
1897	10.466	2.1818	0.	3224.2
1898	10.466	2.	0.	3225.7
1899	10.466	1.8182	0.	3227.4
1900	10.466	1.6364	0.	3229.3
1901	10.466	1.4545	0.	3231.6
1902	10.466	1.2727	0.	3234.
1903	10.466	1.0909	0.	3236.7
1904	10.466	0.90909	0.	3239.6
1905	10.466	0.72727	0.	3242.7
1906	10.466	0.54545	0.	3245.9
1907	10.466	0.36364	0.	3249.4
1908	10.466	0.18182	0.	3254.8
1909	10.283	5.8182	0.	3306.1
1910	10.283	5.6364	0.	3300.6
1911	10.283	5.4545	0.	3296.8
1912	10.283	5.2727	0.	3293.4
1913	10.283	5.0909	0.	3290.1
1914	10.283	4.9091	0.	3287.
1915	10.283	4.7273	0.	3284.1
1916	10.283	4.5455	0.	3281.5
1917	10.283	4.3636	0.	3279.1
1918	10.283	4.1818	0.	3277.
1919	10.283	4.	0.	3275.2
1920	10.283	3.8182	0.	3273.6
1921	10.283	3.6364	0.	3272.3
1922	10.283	3.4545	0.	3271.4
1923	10.283	3.2727	0.	3270.8
1924	10.283	3.0909	0.	3270.4
1925	10.283	2.9091	0.	3270.4
1926	10.283	2.7273	0.	3270.8
1927	10.283	2.5455	0.	3271.4
1928	10.283	2.3636	0.	3272.3
1929	10.283	2.1818	0.	3273.6
1930	10.283	2.	0.	3275.2
1931	10.283	1.8182	0.	3277.
1932	10.283	1.6364	0.	3279.1
1933	10.283	1.4545	0.	3281.5
1934	10.283	1.2727	0.	3284.1
1935	10.283	1.0909	0.	3287.
1936	10.283	0.90909	0.	3290.1
1937	10.283	0.72727	0.	3293.4
1938	10.283	0.54545	0.	3296.8
1939	10.283	0.36364	0.	3300.6
1940	10.283	0.18182	0.	3306.1
1941	10.099	5.8182	0.	3357.7
1942	10.099	5.6364	0.	3351.9
1943	10.099	5.4545	0.	3348.
1944	10.099	5.2727	0.	3344.3
1945	10.099	5.0909	0.	3340.7
1946	10.099	4.9091	0.	3337.4
1947	10.099	4.7273	0.	3334.4
1948	10.099	4.5455	0.	3331.5
1949	10.099	4.3636	0.	3329.
1950	10.099	4.1818	0.	3326.7
1951	10.099	4.	0.	3324.7
1952	10.099	3.8182	0.	3323.
1953	10.099	3.6364	0.	3321.7
1954	10.099	3.4545	0.	3320.7
1955	10.099	3.2727	0.	3320.
1956	10.099	3.0909	0.	3319.7
1957	10.099	2.9091	0.	3319.7
1958	10.099	2.7273	0.	3320.
1959	10.099	2.5455	0.	3320.7
1960	10.099	2.3636	0.	3321.7
1961	10.099	2.1818	0.	3323.
1962	10.099	2.	0.	3324.7
1963	10.099	1.8182	0.	3326.7
1964	10.099	1.6364	0.	3329.
1965	10.099	1.4545	0.	3331.5
1966	10.099	1.2727	0.	3334.4
1967	10.099	1.0909	0.	3337.4
1968	10.099	0.90909	0.	3340.7
1969	10.099	0.72727	0.	3344.3
1970	10.099	0.54545	0.	3348.
1971	10.099	0.36364	0.	3351.9
1972	10.099	0.18182	0.	3357.7
1973	9.9155	5.8182	0.	3409.5
1974	9.9155	5.6364	0.	3403.5
1975	9.9155	5.4545	0.	3399.3
1976	9.9155	5.2727	0.	3395.3
1977	9.9155	5.0909	0.	3391.5
1978	9.9155	4.9091	0.	3388.
1979	9.9155	4.7273	0.	3384.7
1980	9.9155	4.5455	0.	3381.7
1981	9.9155	4.3636	0.	3378.9
1982	9.9155	4.1818	0.	3376.5
1983	9.9155	4.	0.	3374.3
1984	9.9155	3.8182	0.	3372.5
1985	9.9155	3.6364	0.	3371.1
1986	9.9155	3.4545	0.	3370.
1987	9.9155	3.2727	0.	3369.3
1988	9.9155	3.0909	0.	3368.9
1989	9.9155	2.9091	0.	3368.9
1990	9.9155	2.7273	0.	3369.3
1991	9.9155	2.5455	0.	3370.
1992	9.9155	2.3636	0.	3371.1
1993	9.9155	2.1818	0.	3372.5
1994	9.9155	2.	0.	3374.3
1995	9.9155	1.8182	0.	3376.5
1996	9.9155	1.6364	0.	3378.9
1997	9.9155	1.4545	0.	3381.7
1998	9.9155	1.2727	0.	3384.7
1999	9.9155	1.0909	0.	3388.
2000	9.9155	0.90909	0.	3391.5
2001	9.9155	0.72727	0.	3395.3
2002	9.9155	0.54545	0.	3399.3
2003	9.9155	0.36364	0.	3403.5
2004	9.9155	0.18182	0.	3409.5
2005	9.7319	5.8182	0.	3461.5
2006	9.7319	5.6364	0.	3455.3
2007	9.7319	5.4545	0.	3450.8
2008	9.7319	5.2727	0.	3446.5
2009	9.7319	5.0909	0.	3442.5
2010	9.7319	4.9091	0.	3438.7
2011	9.7319	4.7273	0.	3435.1
2012	9.7319	4.5455	0.	3431.9
2013	9.7319	4.3636	0.	3428.9
2014	9.7319	4.1818	0.	3426.3
2015	9.7319	4.	0.	3424.
2016	9.7319	3.8182	0.	3422.1
2017	9.7319	3.6364	0.	3420.5
2018	9.7319	3.4545	0.	3419.3
2019	9.7319	3.2727	0.	3418.6
2020	9.7319	3.0909	0.	3418.2
2021	9.7319	2.9091	0.	3418.2
2022	9.7319	2.7273	0.	3418.6
2023	9.7319	2.5455	0.	3419.3
2024	9.7319	2.3636	0.	3420.5
2025	9.7319	2.1818	0.	3422.1
2026	9.7319	2.	0.	3424.
2027	9.7319	1.8182	0.	3426.3
2028	9.7319	1.6364	0.	3428.9
2029	9.7319	1.4545	0.	3431.9
2030	9.7319	1.2727	0.	3435.1
2031	9.7319	1.0909	0.	3438.7
2032	9.7319	0.90909	0.	3442.5
2033	9.7319	0.72727	0.	3446.5
2034	9.7319	0.54545	0.	3450.8
2035	9.7319	0.36364	0.	3455.3
2036	9.7319	0.18182	0.	3461.5
2037	9.5483	5.8182	0.	3513.8
2038	9.5483	5.6364	0.	3507.3
2039	9.5483	5.4545	0.	3502.4
2040	9.5483	5.2727	0.	3497.9
2041	9.5483	5.0909	0.	3493.6
2042	9.5483	4.9091	0.	3489.5
2043	9.5483	4.7273	0.	3485.7
2044	9.5483	4.5455	0.	3482.2
2045	9.5483	4.3636	0.	3479.
2046	9.5483	4.1818	0.	3476.2
2047	9.5483	4.	0.	3473.7
2048	9.5483	3.8182	0.	3471.6
2049	9.5483	3.6364	0.	3470.
2050	9.5483	3.4545	0.	3468.7
2051	9.5483	3.2727	0.	3467.8
2052	9.5483	3.0909	0.	3467.4
2053	9.5483	2.9091	0.	3467.4
2054	9.5483	2.7273	0.	3467.8
2055	9.5483	2.5455	0.	3468.7
2056	9.5483	2.3636	0.	3470.
2057	9.5483	2.1818	0.	3471.6
2058	9.5483	2.	0.	3473.7
2059	9.5483	1.8182	0.	3476.2
2060	9.5483	1.6364	0.	3479.
2061	9.5483	1.4545	0.	3482.2
2062	9.5483	1.2727	0.	3485.7
2063	9.5483	1.0909	0.	3489.5
2064	9.5483	0.90909	0.	3493.6
2065	9.5483	0.72727	0.	3497.9
2066	9.5483	0.54545	0.	3502.4
2067	9.5483	0.36364	0.	3507.3
2068	9.5483	0.18182	0.	3513.8
2069	9.3647	5.8182	0.	3566.3
2070	9.3647	5.6364	0.	3559.5
2071	9.3647	5.4545	0.	3554.3
2072	9.3647	5.2727	0.	3549.4
2073	9.3647	5.0909	0.	3544.8
2074	9.3647	4.9091	0.	3540.4
2075	9.3647	4.7273	0.	3536.3
2076	9.3647	4.5455	0.	3532.6
2077	9.3647	4.3636	0.	3529.1
2078	9.3647	4.1818	0.	3526.1
2079	9.3647	4.	0.	3523.4
2080	9.3647	3.8182	0.	3521.2
2081	9.3647	3.6364	0.	3519.4
2082	9.3647	3.4545	0.	3518.
2083	9.3647	3.2727	0.	3517.1
2084	9.3647	3.0909	0.	3516.7
2085	9.3647	2.9091	0.	3516.7
2086	9.3647	2.7273	0.	3517.1
2087	9.3647	2.5455	0.	3518.
2088	9.3647	2.3636	0.	3519.4
2089	9.3647	2.1818	0.	3521.2
2090	9.3647	2.	0.	3523.4
2091	9.3647	1.8182	0.	3526.1
2092	9.3647	1.6364	0.	3529.1
2093	9.3647	1.4545	0.	3532.6
2094	9.3647	1.2727	0.	3536.3
2095	9.3647	1.0909	0.	3540.4
2096	9.3647	0.90909	0.	3544.8
2097	9.3647	0.72727	0.	3549.4
2098	9.3647	0.54545	0.	3554.3
2099	9.3647	0.36364	0.	3559.5
2100	9.3647	0.18182	0.	3566.3
2101	9.181	5.8182	0.	3619.
2102	9.181	5.6364	0.	3611.9
2103	9.181	5.4545	0.	3606.4
2104	9.181	5.2727	0.	3601.1
2105	9.181	5.0909	0.	3596.1
2106	9.181	4.9091	0.	3591.4
2107	9.181	4.7273	0.	3587.
2108	9.181	4.5455	0.	3583.
2109	9.181	4.3636	0.	3579.3
2110	9.181	4.1818	0.	3576.
2111	9.181	4.	0.	3573.2
2112	9.181	3.8182	0.	3570.8
2113	9.181	3.6364	0.	3568.8
2114	9.181	3.4545	0.	3567.4
2115	9.181	3.2727	0.	3566.4
2116	9.181	3.0909	0.	3565.9
2117	9.181	2.9091	0.	3565.9
2118	9.181	2.7273	0.	3566.4
2119	9.181	2.5455	0.	3567.4
2120	9.181	2.3636	0.	3568.8
2121	9.181	2.1818	0.	3570.8
2122	9.181	2.	0.	3573.2
2123	9.181	1.8182	0.	3576.
2124	9.181	1.6364	0.	3579.3
2125	9.181	1.4545	0.	3583.
2126	9.181	1.2727	0.	3587.
2127	9.181	1.0909	0.	3591.4
2128	9.181	0.90909	0.	3596.1
2129	9.181	0.72727	0.	3601.1
2130	9.181	0.54545	0.	3606.4
2131	9.181	0.36364	0.	3611.9
2132	9.181	0.18182	0.	3619.
2133	8.9974	5.8182	0.	3672.
2134	8.9974	5.6364	0.	3664.5
2135	8.9974	5.4545	0.	3658.6
2136	8.9974	5.2727	0.	3653.
2137	8.9974	5.0909	0.	3647.6
2138	8.9974	4.9091	0.	3642.5
2139	8.9974	4.7273	0.	3637.8
2140	8.9974	4.5455	0.	3633.5
2141	8.9974	4.3636	0.	3629.5
2142	8.9974	4.1818	0.	3626.
2143	8.9974	4.	0.	3622.9
2144	8.9974	3.8182	0.	3620.3
2145	8.9974	3.6364	0.	3618.2
2146	8.9974	3.4545	0.	3616.6
2147	8.9974	3.2727	0.	3615.6
2148	8.9974	3.0909	0.	3615.
2149	8.9974	2.9091	0.	3615.
2150	8.9974	2.7273	0.	3615.6
2151	8.9974	2.5455	0.	3616.6
2152	8.9974	2.3636	0.	3618.2
2153	8.9974	2.1818	0.	3620.3
2154	8.9974	2.	0.	3622.9
2155	8.9974	1.8182	0.	3626.
2156	8.9974	1.6364	0.	3629.5
2157	8.9974	1.4545	0.	3633.5
2158	8.9974	1.2727	0.	3637.8
2159	8.9974	1.0909	0.	3642.5
2160	8.9974	0.90909	0.	3647.6
2161	8.9974	0.72727	0.	3653.
2162	8.9974	0.54545	0.	3658.6
2163	8.9974	0.36364	0.	3664.5
2164	8.9974	0.18182	0.	3672.
2165	8.8138	5.8182	0.	3725.2
2166	8.8138	5.6364	0.	3717.3
2167	8.8138	5.4545	0.	3711.
2168	8.8138	5.2727	0.	3704.9
2169	8.8138	5.0909	0.	3699.2
2170	8.8138	4.9091	0.	3693.7
2171	8.8138	4.7273	0.	3688.7
2172	8.8138	4.5455	0.	3684.
2173	8.8138	4.3636	0.	3679.7
2174	8.8138	4.1818	0.	3675.9
2175	8.8138	4.	0.	3672.6
2176	8.8138	3.8182	0.	3669.8
2177	8.8138	3.6364	0.	3667.5
2178	8.8138	3.4545	0.	3665.8
2179	8.8138	3.2727	0.	3664.7
2180	8.8138	3.0909	0.	3664.1
2181	8.8138	2.9091	0.	3664.1
2182	8.8138	2.7273	0.	3664.7
2183	8.8138	2.5455	0.	3665.8
2184	8.8138	2.3636	0.	3667.5
2185	8.8138	2.1818	0.	3669.8
2186	8.8138	2.	0.	3672.6
2187	8.8138	1.8182	0.	3675.9
2188	8.8138	1.6364	0.	3679.7
2189	8.8138	1.4545	0.	3684.
2190	8.8138	1.2727	0.	3688.7
2191	8.8138	1.0909	0.	3693.7
2192	8.8138	0.90909	0.	3699.2
2193	8.8138	0.72727	0.	3704.9
2194	8.8138	0.54545	0.	3711.
2195	8.8138	0.36364	0.	3717.3
2196	8.8138	0.18182	0.	3725.2
2197	8.6302	5.8182	0.	3778.6
2198	8.6302	5.6364	0.	3770.4
2199	8.6302	5.4545	0.	3763.6
2200	8.6302	5.2727	0.	3757.1
2201	8.6302	5.0909	0.	3750.9
2202	8.6302	4.9091	0.	3745.
2203	8.6302	4.7273	0.	3739.6
2204	8.6302	4.5455	0.	3734.5
2205	8.6302	4.3636	0.	3729.9
2206	8.6302	4.1818	0.	3725.8
2207	8.6302	4.	0.	3722.2
2208	8.6302	3.8182	0.	3719.2
2209	8.6302	3.6364	0.	3716.8
2210	8.6302	3.4545	0.	3714.9
2211	8.6302	3.2727	0.	3713.7
2212	8.6302	3.0909	0.	3713.1
2213	8.6302	2.9091	0.	3713.1
2214	8.6302	2.7273	0.	3713.7
2215	8.6302	2.5455	0.	3714.9
2216	8.6302	2.3636	0.	3716.8
2217	8.6302	2.1818	0.	3719.2
2218	8.6302	2.	0.	3722.2
2219	8.6302	1.8182	0.	3725.8
2220	8.6302	1.6364	0.	3729.9
2221	8.6302	1.4545	0.	3734.5
2222	8.6302	1.2727	0.	3739.6
2223	8.6302	1.0909	0.	3745.
2224	8.6302	0.90909	0.	3750.9
2225	8.6302	0.72727	0.	3757.1
2226	8.6302	0.54545	0.	3763.6
2227	8.6302	0.36364	0.	3770.4
2228	8.6302	0.18182	0.	3778.6
2229	8.4466	5.8182	0.	3832.4
2230	8.4466	5.6364	0.	3823.7
2231	8.4466	5.4545	0.	3816.4
2232	8.4466	5.2727	0.	3809.4
2233	8.4466	5.0909	0.	3802.7
2234	8.4466	4.9091	0.	3796.4
2235	8.4466	4.7273	0.	3790.5
2236	8.4466	4.5455	0.	3785.1
2237	8.4466	4.3636	0.	3780.1
2238	8.4466	4.1818	0.	3775.7
2239	8.4466	4.	0.	3771.8
2240	8.4466	3.8182	0.	3768.6
2241	8.4466	3.6364	0.	3765.9
2242	8.4466	3.4545	0.	3763.9
2243	8.4466	3.2727	0.	3762.6
2244	8.4466	3.0909	0.	3761.9
2245	8.4466	2.9091	0.	3761.9
2246	8.4466	2.7273	0.	3762.6
2247	8.4466	2.5455	0.	3763.9
2248	8.4466	2.3636	0.	3765.9
2249	8.4466	2.1818	0.	3768.6
2250	8.4466	2.	0.	3771.8
2251	8.4466	1.8182	0.	3775.7
2252	8.4466	1.6364	0.	3780.1
2253	8.4466	1.4545	0.	3785.1
2254	8.4466	1.2727	0.	3790.5
2255	8.4466	1.0909	0.	3796.4
2256	8.4466	0.90909	0.	3802.7
2257	8.4466	0.72727	0.	3809.4
2258	8.4466	0.54545	0.	3816.4
2259	8.4466	0.36364	0.	3823.7
2260	8.4466	0.18182	0.	3832.4
2261	8.2629	5.8182	0.	3886.4
2262	8.2629	5.6364	0.	3877.2
2263	8.2629	5.4545	0.	3869.3
2264	8.2629	5.2727	0.	3861.8
2265	8.2629	5.0909	0.	3854.6
2266	8.2629	4.9091	0.	3847.8
2267	8.2629	4.7273	0.	3841.5
2268	8.2629	4.5455	0.	3835.6
2269	8.2629	4.3636	0.	3830.3
2270	8.2629	4.1818	0.	3825.5
2271	8.2629	4.	0.	3821.3
2272	8.2629	3.8182	0.	3817.8
2273	8.2629	3.6364	0.	3815.
2274	8.2629	3.4545	0.	3812.8
2275	8.2629	3.2727	0.	3811.4
2276	8.2629	3.0909	0.	3810.6
2277	8.2629	2.9091	0.	3810.6
2278	8.2629	2.7273	0.	3811.4
2279	8.2629	2.5455	0.	3812.8
2280	8.2629	2.3636	0.	3815.
2281	8.2629	2.1818	0.	3817.8
2282	8.2629	2.	0.	3821.3
2283	8.2629	1.8182	0.	3825.5
2284	8.2629	1.6364	0.	3830.3
2285	8.2629	1.4545	0.	3835.6
2286	8.2629	1.2727	0.	3841.5
2287	8.2629	1.0909	0.	3847.8
2288	8.2629	0.90909	0.	3854.6
2289	8.2629	0.72727	0.	3861.8
2290	8.2629	0.54545	0.	3869.3
2291	8.2629	0.36364	0.	3877.2
2292	8.2629	0.18182	0.	3886.4
2293	8.0793	5.8182	0.	3940.7
2294	8.0793	5.6364	0.	3930.9
2295	8.0793	5.4545	0.	3922.5
2296	8.0793	5.2727	0.	3914.4
2297	8.0793	5.0909	0.	3906.6
2298	8.0793	4.9091	0.	3899.3
2299	8.0793	4.7273	0.	3892.5
2300	8.0793	4.5455	0.	3886.1
2301	8.0793	4.3636	0.	3880.4
2302	8.0793	4.1818	0.	3875.2
2303	8.0793	4.	0.	3870.7
2304	8.0793	3.8182	0.	3866.9
2305	8.0793	3.6364	0.	3863.8
2306	8.0793	3.4545	0.	3861.5
2307	8.0793	3.2727	0.	3859.9
2308	8.0793	3.0909	0.	3859.2
2309	8.0793	2.9091	0.	3859.2
2310	8.0793	2.7273	0.	3859.9
2311	8.0793	2.5455	0.	3861.5
2312	8.0793	2.3636	0.	3863.8
2313	8.0793	2.1818	0.	3866.9
2314	8.0793	2.	0.	3870.7
2315	8.0793	1.8182	0.	3875.2
2316	8.0793	1.6364	0.	3880.4
2317	8.0793	1.4545	0.	3886.1
2318	8.0793	1.2727	0.	3892.5
2319	8.0793	1.0909	0.	3899.3
2320	8.0793	0.90909	0.	3906.6
2321	8.0793	0.72727	0.	3914.4
2322	8.0793	0.54545	0.	3922.5
2323	8.0793	0.36364	0.	3930.9
2324	8.0793	0.18182	0.	3940.7
2325	7.8957	5.8182	0.	3995.2
2326	7.8957	5.6364	0.	3984.9
2327	7.8957	5.4545	0.	3975.8
2328	7.8957	5.2727	0.	3967.1
2329	7.8957	5.0909	0.	3958.7
2330	7.8957	4.9091	0.	3950.8
2331	7.8957	4.7273	0.	3943.4
2332	7.8957	4.5455	0.	3936.6
2333	7.8957	4.3636	0.	3930.4
2334	7.8957	4.1818	0.	3924.8
2335	7.8957	4.	0.	3920.
2336	7.8957	3.8182	0.	3915.9
2337	7.8957	3.6364	0.	3912.5
2338	7.8957	3.4545	0.	3910.
2339	7.8957	3.2727	0.	3908.3
2340	7.8957	3.0909	0.	3907.5
2341	7.8957	2.9091	0.	3907.5
2342	7.8957	2.7273	0.	3908.3
2343	7.8957	2.5455	0.	3910.
2344	7.8957	2.3636	0.	3912.5
2345	7.8957	2.1818	0.	3915.9
2346	7.8957	2.	0.	3920.
2347	7.8957	1.8182	0.	3924.8
2348	7.8957	1.6364	0.	3930.4
2349	7.8957	1.4545	0.	3936.6
2350	7.8957	1.2727	0.	3943.4
2351	7.8957	1.0909	0.	3950.8
2352	7.8957	0.90909	0.	3958.7
2353	7.8957	0.72727	0.	3967.1
2354	7.8957	0.54545	0.	3975.8
2355	7.8957	0.36364	0.	3984.9
2356	7.8957	0.18182	0.	3995.2
2357	7.7121	5.8182	0.	4050.1
2358	7.7121	5.6364	0.	4039.1
2359	7.7121	5.4545	0.	4029.3
2360	7.7121	5.2727	0.	4019.9
2361	7.7121	5.0909	0.	4010.9
2362	7.7121	4.9091	0.	4002.4
2363	7.7121	4.7273	0.	3994.4
2364	7.7121	4.5455	0.	3987.
2365	7.7121	4.3636	0.	3980.3
2366	7.7121	4.1818	0.	3974.3
2367	7.7121	4.	0.	3969.1
2368	7.7121	3.8182	0.	3964.6
2369	7.7121	3.6364	0.	3961.
2370	7.7121	3.4545	0.	3958.3
2371	7.7121	3.2727	0.	3956.5
2372	7.7121	3.0909	0.	3955.6
2373	7.7121	2.9091	0.	3955.6
2374	7.7121	2.7273	0.	3956.5
2375	7.7121	2.5455	0.	3958.3
2376	7.7121	2.3636	0.	3961.
2377	7.7121	2.1818	0.	3964.6
2378	7.7121	2.	0.	3969.1
2379	7.7121	1.8182	0.	3974.3
2380	7.7121	1.6364	0.	3980.3
2381	7.7121	1.4545	0.	3987.
2382	7.7121	1.2727	0.	3994.4
2383	7.7121	1.0909	0.	4002.4
2384	7.7121	0.90909	0.	4010.9
2385	7.7121	0.72727	0.	4019.9
2386	7.7121	0.54545	0.	4029.3
2387	7.7121	0.36364	0.	4039.1
2388	7.7121	0.18182	0.	4050.1
2389	7.5284	5.8182	0.	4105.3
2390	7.5284	5.6364	0.	4093.6
2391	7.5284	5.4545	0.	4083.1
2392	7.5284	5.2727	0.	4072.9
2393	7.5284	5.0909	0.	4063.2
2394	7.5284	4.9091	0.	4054.
2395	7.5284	4.7273	0.	4045.4
2396	7.5284	4.5455	0.	4037.4
2397	7.5284	4.3636	0.	4030.1
2398	7.5284	4.1818	0.	4023.7
2399	7.5284	4.	0.	4018.
2400	7.5284	3.8182	0.	4013.2
2401	7.5284	3.6364	0.	4009.3
2402	7.5284	3.4545	0.	4006.4
2403	7.5284	3.2727	0.	4004.4
2404	7.5284	3.0909	0.	4003.4
2405	7.5284	2.9091	0.	4003.4
2406	7.5284	2.7273	0.	4004.4
2407	7.5284	2.5455	0.	4006.4
2408	7.5284	2.3636	0.	4009.3
2409	7.5284	2.1818	0.	4013.2
2410	7.5284	2.	0.	4018.
2411	7.5284	1.8182	0.	4023.7
2412	7.5284	1.6364	0.	4030.1
2413	7.5284	1.4545	0.	4037.4
2414	7.5284	1.2727	0.	4045.4
2415	7.5284	1.0909	0.	4054.
2416	7.5284	0.90909	0.	4063.2
2417	7.5284	0.72727	0.	4072.9
2418	7.5284	0.54545	0.	4083.1
2419	7.5284	0.36364	0.	4093.6
2420	7.5284	0.18182	0.	4105.3
2421	7.3448	5.8182	0.	4160.7
2422	7.3448	5.6364	0.	4148.3
2423	7.3448	5.4545	0.	4137.
2424	7.3448	5.2727	0.	4126.
2425	7.3448	5.0909	0.	4115.5
2426	7.3448	4.9091	0.	4105.6
2427	7.3448	4.7273	0.	4096.3
2428	7.3448	4.5455	0.	4087.7
2429	7.3448	4.3636	0.	4079.8
2430	7.3448	4.1818	0.	4072.8
2431	7.3448	4.	0.	4066.7
2432	7.3448	3.8182	0.	4061.5
2433	7.3448	3.6364	0.	4057.3
2434	7.3448	3.4545	0.	4054.1
2435	7.3448	3.2727	0.	4052.
2436	7.3448	3.0909	0.	4050.9
2437	7.3448	2.9091	0.	4050.9
2438	7.3448	2.7273	0.	4052.
2439	7.3448	2.5455	0.	4054.1
2440	7.3448	2.3636	0.	4057.3
2441	7.3448	2.1818	0.	4061.5
2442	7.3448	2.	0.	4066.7
2443	7.3448	1.8182	0.	4072.8
2444	7.3448	1.6364	0.	4079.8
2445	7.3448	1.4545	0.	4087.7
2446	7.3448	1.2727	0.	4096.3
2447	7.3448	1.0909	0.	4105.6
2448	7.3448	0.90909	0.	4115.5
2449	7.3448	0.72727	0.	4126.
2450	7.3448	0.54545	0.	4137.
2451	7.3448	0.36364	0.	4148.3
2452	7.3448	0.18182	0.	4160.7
2453	7.1612	5.8182	0.	4216.6
2454	7.1612	5.6364	0.	4203.3
2455	7.1612	5.4545	0.	4191.1
2456	7.1612	5.2727	0.	4179.3
2457	7.1612	5.0909	0.	4168.
2458	7.1612	4.9091	0.	4157.2
2459	7.1612	4.7273	0.	4147.2
2460	7.1612	4.5455	0.	4137.9
2461	7.1612	4.3636	0.	4129.4
2462	7.1612	4.1818	0.	4121.8
2463	7.1612	4.	0.	4115.2
2464	7.1612	3.8182	0.	4109.5
2465	7.1612	3.6364	0.	4105.
2466	7.1612	3.4545	0.	4101.5
2467	7.1612	3.2727	0.	4099.2
2468	7.1612	3.0909	0.	4098.1
2469	7.1612	2.9091	0.	4098.1
2470	7.1612	2.7273	0.	4099.2
2471	7.1612	2.5455	0.	4101.5
2472	7.1612	2.3636	0.	4105.
2473	7.1612	2.1818	0.	4109.5
2474	7.1612	2.	0.	4115.2
2475	7.1612	1.8182	0.	4121.8
2476	7.1612	1.6364	0.	4129.4
2477	7.1612	1.4545	0.	4137.9
2478	7.1612	1.2727	0.	4147.2
2479	7.1612	1.0909	0.	4157.2
2480	7.1612	0.90909	0.	4168.
2481	7.1612	0.72727	0.	4179.3
2482	7.1612	0.54545	0.	4191.1
2483	7.1612	0.36364	0.	4203.3
2484	7.1612	0.18182	0.	4216.6
2485	6.9776	5.8182	0.	4272.7
2486	6.9776	5.6364	0.	4258.6
2487	6.9776	5.4545	0.	4245.4
2488	6.9776	5.2727	0.	4232.6
2489	6.9776	5.0909	0.	4220.4
2490	6.9776	4.9091	0.	4208.8
2491	6.9776	4.7273	0.	4198.
2492	6.9776	4.5455	0.	4187.9
2493	6.9776	4.3636	0.	4178.7
2494	6.9776	4.1818	0.	4170.5
2495	6.9776	4.	0.	4163.3
2496	6.9776	3.8182	0.	4157.3
2497	6.9776	3.6364	0.	4152.3
2498	6.9776	3.4545	0.	4148.6
2499	6.9776	3.2727	0.	4146.1
2500	6.9776	3.0909	0.	4144.9
2501	6.9776	2.9091	0.	4144.9
2502	6.9776	2.7273	0.	4146.1
2503	6.9776	2.5455	0.	4148.6
2504	6.9776	2.3636	0.	4152.3
2505	6.9776	2.1818	0.	4157.3
2506	6.9776	2.	0.	4163.3
2507	6.9776	1.8182	0.	4170.5
2508	6.9776	1.6364	0.	4178.7
2509	6.9776	1.4545	0.	4187.9
2510	6.9776	1.2727	0.	4198.
2511	6.9776	1.0909	0.	4208.8
2512	6.9776	0.90909	0.	4220.4
2513	6.9776	0.72727	0.	4232.6
2514	6.9776	0.54545	0.	4245.4
2515	6.9776	0.36364	0.	4258.6
2516	6.9776	0.18182	0.	4272.7
2517	6.794	5.8182	0.	4329.3
2518	6.794	5.6364	0.	4314.1
2519	6.794	5.4545	0.	4299.9
2520	6.794	5.2727	0.	4286.1
2521	6.794	5.0909	0.	4272.9
2522	6.794	4.9091	0.	4260.4
2523	6.794	4.7273	0.	4248.7
2524	6.794	4.5455	0.	4237.8
2525	6.794	4.3636	0.	4227.9
2526	6.794	4.1818	0.	4219.
2527	6.794	4.	0.	4211.2
2528	6.794	3.8182	0.	4204.7
2529	6.794	3.6364	0.	4199.3
2530	6.794	3.4545	0.	4195.3
2531	6.794	3.2727	0.	4192.6
2532	6.794	3.0909	0.	4191.2
2533	6.794	2.9091	0.	4191.2
2534	6.794	2.7273	0.	4192.6
2535	6.794	2.5455	0.	4195.3
2536	6.794	2.3636	0.	4199.3
2537	6.794	2.1818	0.	4204.7
2538	6.794	2.	0.	4211.2
2539	6.794	1.8182	0.	4219.
2540	6.794	1.6364	0.	4227.9
2541	6.794	1.4545	0.	4237.8
2542	6.794	1.2727	0.	4248.7
2543	6.794	1.0909	0.	4260.4
2544	6.794	0.90909	0.	4272.9
2545	6.794	0.72727	0.	4286.1
2546	6.794	0.54545	0.	4299.9
2547	6.794	0.36364	0.	4314.1
2548	6.794	0.18182	0.	4329.3
2549	6.6103	5.8182	0.	4386.2
2550	6.6103	5.6364	0.	4369.9
2551	6.6103	5.4545	0.	4354.6
2552	6.6103	5.2727	0.	4339.7
2553	6.6103	5.0909	0.	4325.5
2554	6.6103	4.9091	0.	4312.
2555	6.6103	4.7273	0.	4299.3
2556	6.6103	4.5455	0.	4287.5
2557	6.6103	4.3636	0.	4276.8
2558	6.6103	4.1818	0.	4267.2
2559	6.6103	4.	0.	4258.8
2560	6.6103	3.8182	0.	4251.7
2561	6.6103	3.6364	0.	4245.9
2562	6.6103	3.4545	0.	4241.5
2563	6.6103	3.2727	0.	4238.6
2564	6.6103	3.0909	0.	4237.1
2565	6.6103	2.9091	0.	4237.1
2566	6.6103	2.7273	0.	4238.6
2567	6.6103	2.5455	0.	4241.5
2568	6.6103	2.3636	0.	4245.9
2569	6.6103	2.1818	0.	4251.7
2570	6.6103	2.	0.	4258.8
2571	6.6103	1.8182	0.	4267.2
2572	6.6103	1.6364	0.	4276.8
2573	6.6103	1.4545	0.	4287.5
2574	6.6103	1.2727	0.	4299.3
2575	6.6103	1.0909	0.	4312.
2576	6.6103	0.90909	0.	4325.5
2577	6.6103	0.72727	0.	4339.7
2578	6.6103	0.54545	0.	4354.6
2579	6.6103	0.36364	0.	4369.9
2580	6.6103	0.18182	0.	4386.2
2581	6.4267	5.8182	0.	4443.5
2582	6.4267	5.6364	0.	4426.1
2583	6.4267	5.4545	0.	4409.5
2584	6.4267	5.2727	0.	4393.5
2585	6.4267	5.0909	0.	4378.1
2586	6.4267	4.9091	0.	4363.5
2587	6.4267	4.7273	0.	4349.8
2588	6.4267	4.5455	0.	4337.
2589	6.4267	4.3636	0.	4325.4
2590	6.4267	4.1818	0.	4315.
2591	6.4267	4.	0.	4305.9
2592	6.4267	3.8182	0.	4298.2
2593	6.4267	3.6364	0.	4292.
2594	6.4267	3.4545	0.	4287.2
2595	6.4267	3.2727	0.	4284.1
2596	6.4267	3.0909	0.	4282.5
2597	6.4267	2.9091	0.	4282.5
2598	6.4267	2.7273	0.	4284.1
2599	6.4267	2.5455	0.	4287.2
2600	6.4267	2.3636	0.	4292.
2601	6.4267	2.1818	0.	4298.2
2602	6.4267	2.	0.	4305.9
2603	6.4267	1.8182	0.	4315.
2604	6.4267	1.6364	0.	4325.4
2605	6.4267	1.4545	0.	4337.
2606	6.4267	1.2727	0.	4349.8
2607	6.4267	1.0909	0.	4363.5
2608	6.4267	0.90909	0.	4378.1
2609	6.4267	0.72727	0.	4393.5
2610	6.4267	0.54545	0.	4409.5
2611	6.4267	0.36364	0.	4426.1
2612	6.4267	0.18182	0.	4443.5
2613	6.2431	5.8182	0.	4501.2
2614	6.2431	5.6364	0.	4482.5
2615	6.2431	5.4545	0.	4464.7
2616	6.2431	5.2727	0.	4447.3
2617	6.2431	5.0909	0.	4430.7
2618	6.2431	4.9091	0.	4414.9
2619	6.2431	4.7273	0.	4400.1
2620	6.2431	4.5455	0.	4386.3
2621	6.2431	4.3636	0.	4373.8
2622	6.2431	4.1818	0.	4362.5
2623	6.2431	4.	0.	4352.7
2624	6.2431	3.8182	0.	4344.3
2625	6.2431	3.6364	0.	4337.6
2626	6.2431	3.4545	0.	4332.4
2627	6.2431	3.2727	0.	4329.
2628	6.2431	3.0909	0.	4327.3
2629	6.2431	2.9091	0.	4327.3
2630	6.2431	2.7273	0.	4329.
2631	6.2431	2.5455	0.	4332.4
2632	6.2431	2.3636	0.	4337.6
2633	6.2431	2.1818	0.	4344.3
2634	6.2431	2.	0.	4352.7
2635	6.2431	1.8182	0.	4362.5
2636	6.2431	1.6364	0.	4373.8
2637	6.2431	1.4545	0.	4386.3
2638	6.2431	1.2727	0.	4400.1
2639	6.2431	1.0909	0.	4414.9
2640	6.2431	0.90909	0.	4430.7
2641	6.2431	0.72727	0.	4447.3
2642	6.2431	0.54545	0.	4464.7
2643	6.2431	0.36364	0.	4482.6
2644	6.2431	0.18182	0.	4501.2
2645	6.0595	5.8182	0.	4559.4
2646	6.0595	5.6364	0.	4539.3
2647	6.0595	5.4545	0.	4520.
2648	6.0595	5.2727	0.	4501.3
2649	6.0595	5.0909	0.	4483.4
2650	6.0595	4.9091	0.	4466.3
2651	6.0595	4.7273	0.	4450.3
2652	6.0595	4.5455	0.	4435.4
2653	6.0595	4.3636	0.	4421.8
2654	6.0595	4.1818	0.	4409.6
2655	6.0595	4.	0.	4399.
2656	6.0595	3.8182	0.	4389.9
2657	6.0595	3.6364	0.	4382.6
2658	6.0595	3.4545	0.	4377.1
2659	6.0595	3.2727	0.	4373.3
2660	6.0595	3.0909	0.	4371.5
2661	6.0595	2.9091	0.	4371.5
2662	6.0595	2.7273	0.	4373.3
2663	6.0595	2.5455	0.	4377.1
2664	6.0595	2.3636	0.	4382.6
2665	6.0595	2.1818	0.	4389.9
2666	6.0595	2.	0.	4399.
2667	6.0595	1.8182	0.	4409.6
2668	6.0595	1.6364	0.	4421.8
2669	6.0595	1.4545	0.	4435.4
2670	6.0595	1.2727	0.	4450.3
2671	6.0595	1.0909	0.	4466.3
2672	6.0595	0.90909	0.	4483.4
2673	6.0595	0.72727	0.	4501.3
2674	6.0595	0.54545	0.	4520.
2675	6.0595	0.36364	0.	4539.3
2676	6.0595	0.18182	0.	4559.4
2677	5.8759	5.8182	0.	4618.1
2678	5.8759	5.6364	0.	4596.5
2679	5.8759	5.4545	0.	4575.6
2680	5.8759	5.2727	0.	4555.5
2681	5.8759	5.0909	0.	4536.1
2682	5.8759	4.9091	0.	4517.6
2683	5.8759	4.7273	0.	4500.3
2684	5.8759	4.5455	0.	4484.2
2685	5.8759	4.3636	0.	4469.5
2686	5.8759	4.1818	0.	4456.3
2687	5.8759	4.	0.	4444.8
2688	5.8759	3.8182	0.	4435.
2689	5.8759	3.6364	0.	4427.1
2690	5.8759	3.4545	0.	4421.1
2691	5.8759	3.2727	0.	4417.
2692	5.8759	3.0909	0.	4415.
2693	5.8759	2.9091	0.	4415.
2694	5.8759	2.7273	0.	4417.
2695	5.8759	2.5455	0.	4421.1
2696	5.8759	2.3636	0.	4427.1
2697	5.8759	2.1818	0.	4435.
2698	5.8759	2.	0.	4444.8
2699	5.8759	1.8182	0.	4456.3
2700	5.8759	1.6364	0.	4469.5
2701	5.8759	1.4545	0.	4484.2
2702	5.8759	1.2727	0.	4500.3
2703	5.8759	1.0909	0.	4517.6
2704	5.8759	0.90909	0.	4536.1
2705	5.8759	0.72727	0.	4555.5
2706	5.8759	0.54545	0.	4575.6
2707	5.8759	0.36364	0.	4596.5
2708	5.8759	0.18182	0.	4618.1
2709	5.6922	5.8182	0.	4677.3
2710	5.6922	5.6364	0.	4654.
2711	5.6922	5.4545	0.	4631.5
2712	5.6922	5.2727	0.	4609.7
2713	5.6922	5.0909	0.	4588.7
2714	5.6922	4.9091	0.	4568.8
2715	5.6922	4.7273	0.	4550.
2716	5.6922	4.5455	0.	4532.6
2717	5.6922	4.3636	0.	4516.8
2718	5.6922	4.1818	0.	4502.5
2719	5.6922	4.	0.	4490.
2720	5.6922	3.8182	0.	4479.5
2721	5.6922	3.6364	0.	4470.9
2722	5.6922	3.4545	0.	4464.4
2723	5.6922	3.2727	0.	4460.
2724	5.6922	3.0909	0.	4457.8
2725	5.6922	2.9091	0.	4457.8
2726	5.6922	2.7273	0.	4460.
2727	5.6922	2.5455	0.	4464.4
2728	5.6922	2.3636	0.	4470.9
2729	5.6922	2.1818	0.	4479.5
2730	5.6922	2.	0.	4490.
2731	5.6922	1.8182	0.	4502.5
2732	5.6922	1.6364	0.	4516.8
2733	5.6922	1.4545	0.	4532.6
2734	5.6922	1.2727	0.	4550.
2735	5.6922	1.0909	0.	4568.8
2736	5.6922	0.90909	0.	4588.7
2737	5.6922	0.72727	0.	4609.7
2738	5.6922	0.54545	0.	4631.5
2739	5.6922	0.36364	0.	4654.
2740	5.6922	0.18182	0.	4677.3
2741	5.5086	5.8182	0.	4737.
2742	5.5086	5.6364	0.	4711.9
2743	5.5086	5.4545	0.	4687.6
2744	5.5086	5.2727	0.	4664.1
2745	5.5086	5.0909	0.	4641.4
2746	5.5086	4.9091	0.	4619.9
2747	5.5086	4.7273	0.	4599.6
2748	5.5086	4.5455	0.	4580.8
2749	5.5086	4.3636	0.	4563.6
2750	5.5086	4.1818	0.	4548.2
2751	5.5086	4.	0.	4534.7
2752	5.5086	3.8182	0.	4523.3
2753	5.5086	3.6364	0.	4514.
2754	5.5086	3.4545	0.	4507.
2755	5.5086	3.2727	0.	4502.3
2756	5.5086	3.0909	0.	4499.9
2757	5.5086	2.9091	0.	4499.9
2758	5.5086	2.7273	0.	4502.3
2759	5.5086	2.5455	0.	4507.
2760	5.5086	2.3636	0.	4514.
2761	5.5086	2.1818	0.	4523.3
2762	5.5086	2.	0.	4534.7
2763	5.5086	1.8182	0.	4548.2
2764	5.5086	1.6364	0.	4563.6
2765	5.5086	1.4545	0.	4580.8
2766	5.5086	1.2727	0.	4599.6
2767	5.5086	1.0909	0.	4619.9
2768	5.5086	0.90909	0.	4641.4
2769	5.5086	0.72727	0.	4664.1
2770	5.5086	0.54545	0.	4687.6
2771	5.5086	0.36364	0.	4711.9
2772	5.5086	0.18182	0.	4737.
2773	5.325	5.8182	0.	4797.2
2774	5.325	5.6364	0.	4770.2
2775	5.325	5.4545	0.	4744.
2776	5.325	5.2727	0.	4718.5
2777	5.325	5.0909	0.	4694.1
2778	5.325	4.9091	0.	4670.8
2779	5.325	4.7273	0.	4648.9
2780	5.325	4.5455	0.	4628.6
2781	5.325	4.3636	0.	4610.
2782	5.325	4.1818	0.	4593.4
2783	5.325	4.	0.	4578.8
2784	5.325	3.8182	0.	4566.5
2785	5.325	3.6364	0.	4556.5
2786	5.325	3.4545	0.	4548.9
2787	5.325	3.2727	0.	4543.8
2788	5.325	3.0909	0.	4541.2
2789	5.325	2.9091	0.	4541.2
2790	5.325	2.7273	0.	4543.8
2791	5.325	2.5455	0.	4548.9
2792	5.325	2.3636	0.	4556.5
2793	5.325	2.1818	0.	4566.5
2794	5.325	2.	0.	4578.8
2795	5.325	1.8182	0.	4593.4
2796	5.325	1.6364	0.	4610.
2797	5.325	1.4545	0.	4628.6
2798	5.325	1.2727	0.	4648.9
2799	5.325	1.0909	0.	4670.8
2800	5.325	0.90909	0.	4694.1
2801	5.325	0.72727	0.	4718.5
2802	5.325	0.54545	0.	4744.
2803	5.325	0.36364	0.	4770.2
2804	5.325	0.18182	0.	4797.2
2805	5.1414	5.8182	0.	4858.1
2806	5.1414	5.6364	0.	4828.9
2807	5.1414	5.4545	0.	4800.6
2808	5.1414	5.2727	0.	4773.2
2809	5.1414	5.0909	0.	4746.8
2810	5.1414	4.9091	0.	4721.6
2811	5.1414	4.7273	0.	4698.
2812	5.1414	4.5455	0.	4676.
2813	5.1414	4.3636	0.	4656.
2814	5.1414	4.1818	0.	4638.
2815	5.1414	4.	0.	4622.3
2816	5.1414	3.8182	0.	4608.9
2817	5.1414	3.6364	0.	4598.1
2818	5.1414	3.4545	0.	4589.9
2819	5.1414	3.2727	0.	4584.4
2820	5.1414	3.0909	0.	4581.6
2821	5.1414	2.9091	0.	4581.6
2822	5.1414	2.7273	0.	4584.4
2823	5.1414	2.5455	0.	4589.9
2824	5.1414	2.3636	0.	4598.1
2825	5.1414	2.1818	0.	4608.9
2826	5.1414	2.	0.	4622.3
2827	5.1414	1.8182	0.	4638.
2828	5.1414	1.6364	0.	4656.
2829	5.1414	1.4545	0.	4676.
2830	5.1414	1.2727	0.	4698.
2831	5.1414	1.0909	0.	4721.6
2832	5.1414	0.90909	0.	4746.8
2833	5.1414	0.72727	0.	4773.2
2834	5.1414	0.54545	0.	4800.6
2835	5.1414	0.36364	0.	4828.9
2836	5.1414	0.18182	0.	4858.1
2837	4.9578	5.8182	0.	4919.5
2838	4.9578	5.6364	0.	4888.
2839	4.9578	5.4545	0.	4857.5
2840	4.9578	5.2727	0.	4827.9
2841	4.9578	5.0909	0.	4799.4
2842	4.9578	4.9091	0.	4772.3
2843	4.9578	4.7273	0.	4746.7
2844	4.9578	4.5455	0.	4723.1
2845	4.9578	4.3636	0.	4701.4
2846	4.9578	4.1818	0.	4682.
2847	4.9578	4.	0.	4665.1
2848	4.9578	3.8182	0.	4650.7
2849	4.9578	3.6364	0.	4639.
2850	4.9578	3.4545	0.	4630.1
2851	4.9578	3.2727	0.	4624.2
2852	4.9578	3.0909	0.	4621.2
2853	4.9578	2.9091	0.	4621.2
2854	4.9578	2.7273	0.	4624.2
2855	4.9578	2.5455	0.	4630.1
2856	4.9578	2.3636	0.	4639.
2857	4.9578	2.1818	0.	4650.7
2858	4.9578	2.	0.	4665.1
2859	4.9578	1.8182	0.	4682.
2860	4.9578	1.6364	0.	4701.4
2861	4.9578	1.4545	0.	4723.1
2862	4.9578	1.2727	0.	4746.7
2863	4.9578	1.0909	0.	4772.3
2864	4.9578	0.90909	0.	4799.4
2865	4.9578	0.72727	0.	4827.9
2866	4.9578	0.54545	0.	4857.5
2867	4.9578	0.36364	0.	4888.
2868	4.9578	0.18182	0.	4919.5
2869	4.7741	5.8182	0.	4981.6
2870	4.7741	5.6364	0.	4947.6
2871	4.7741	5.4545	0.	4914.6
2872	4.7741	5.2727	0.	4882.7
2873	4.7741	5.0909	0.	4852.
2874	4.7741	4.9091	0.	4822.7
2875	4.7741	4.7273	0.	4795.2
2876	4.7741	4.5455	0.	4769.6
2877	4.7741	4.3636	0.	4746.3
2878	4.7741	4.1818	0.	4725.4
2879	4.7741	4.	0.	4707.1
2880	4.7741	3.8182	0.	4691.6
2881	4.7741	3.6364	0.	4679.
2882	4.7741	3.4545	0.	4669.5
2883	4.7741	3.2727	0.	4663.1
2884	4.7741	3.0909	0.	4659.9
2885	4.7741	2.9091	0.	4659.9
2886	4.7741	2.7273	0.	4663.1
2887	4.7741	2.5455	0.	4669.5
2888	4.7741	2.3636	0.	4679.
2889	4.7741	2.1818	0.	4691.6
2890	4.7741	2.	0.	4707.1
2891	4.7741	1.8182	0.	4725.4
2892	4.7741	1.6364	0.	4746.3
2893	4.7741	1.4545	0.	4769.6
2894	4.7741	1.2727	0.	4795.2
2895	4.7741	1.0909	0.	4822.7
2896	4.7741	0.90909	0.	4852.
2897	4.7741	0.72727	0.	4882.7
2898	4.7741	0.54545	0.	4914.6
2899	4.7741	0.36364	0.	4947.6
2900	4.7741	0.18182	0.	4981.6
2901	4.5905	5.8182	0.	5044.4
2902	4.5905	5.6364	0.	5007.6
2903	4.5905	5.4545	0.	4972.1
2904	4.5905	5.2727	0.	4937.6
2905	4.5905	5.0909	0.	4904.5
2906	4.5905	4.9091	0.	4873.
2907	4.5905	4.7273	0.	4843.3
2908	4.5905	4.5455	0.	4815.8
2909	4.5905	4.3636	0.	4790.6
2910	4.5905	4.1818	0.	4768.1
2911	4.5905	4.	0.	4748.5
2912	4.5905	3.8182	0.	4731.8
2913	4.5905	3.6364	0.	4718.3
2914	4.5905	3.4545	0.	4708.
2915	4.5905	3.2727	0.	4701.2
2916	4.5905	3.0909	0.	4697.7
2917	4.5905	2.9091	0.	4697.7
2918	4.5905	2.7273	0.	4701.2
2919	4.5905	2.5455	0.	4708.
2920	4.5905	2.3636	0.	4718.3
2921	4.5905	2.1818	0.	4731.8
2922	4.5905	2.	0.	4748.5
2923	4.5905	1.8182	0.	4768.1
2924	4.5905	1.6364	0.	4790.6
2925	4.5905	1.4545	0.	4815.8
2926	4.5905	1.2727	0.	4843.3
2927	4.5905	1.0909	0.	4873.
2928	4.5905	0.90909	0.	4904.5
2929	4.5905	0.72727	0.	4937.6
2930	4.5905	0.54545	0.	4972.1
2931	4.5905	0.36364	0.	5007.6
2932	4.5905	0.18182	0.	5044.4
2933	4.4069	5.8182	0.	5107.9
2934	4.4069	5.6364	0.	5068.1
2935	4.4069	5.4545	0.	5029.7
2936	4.4069	5.2727	0.	4992.6
2937	4.4069	5.0909	0.	4956.9
2938	4.4069	4.9091	0.	4922.9
2939	4.4069	4.7273	0.	4891.
2940	4.4069	4.5455	0.	4861.4
2941	4.4069	4.3636	0.	4834.4
2942	4.4069	4.1818	0.	4810.2
2943	4.4069	4.	0.	4789.
2944	4.4069	3.8182	0.	4771.2
2945	4.4069	3.6364	0.	4756.7
2946	4.4069	3.4545	0.	4745.7
2947	4.4069	3.2727	0.	4738.3
2948	4.4069	3.0909	0.	4734.6
2949	4.4069	2.9091	0.	4734.6
2950	4.4069	2.7273	0.	4738.3
2951	4.4069	2.5455	0.	4745.7
2952	4.4069	2.3636	0.	4756.7
2953	4.4069	2.1818	0.	4771.2
2954	4.4069	2.	0.	4789.
2955	4.4069	1.8182	0.	4810.2
2956	4.4069	1.6364	0.	4834.4
2957	4.4069	1.4545	0.	4861.4
2958	4.4069	1.2727	0.	4891.
2959	4.4069	1.0909	0.	4922.9
2960	4.4069	0.90909	0.	4956.9
2961	4.4069	0.72727	0.	4992.6
2962	4.4069	0.54545	0.	5029.7
2963	4.4069	0.36364	0.	5068.1
2964	4.4069	0.18182	0.	5107.9
2965	4.2233	5.8182	0.	5172.
2966	4.2233	5.6364	0.	5128.9
2967	4.2233	5.4545	0.	5087.6
2968	4.2233	5.2727	0.	5047.7
2969	4.2233	5.0909	0.	5009.2
2970	4.2233	4.9091	0.	4972.7
2971	4.2233	4.7273	0.	4938.3
2972	4.2233	4.5455	0.	4906.5
2973	4.2233	4.3636	0.	4877.5
2974	4.2233	4.1818	0.	4851.5
2975	4.2233	4.	0.	4828.9
2976	4.2233	3.8182	0.	4809.8
2977	4.2233	3.6364	0.	4794.3
2978	4.2233	3.4545	0.	4782.6
2979	4.2233	3.2727	0.	4774.7
2980	4.2233	3.0909	0.	4770.8
2981	4.2233	2.9091	0.	4770.8
2982	4.2233	2.7273	0.	4774.7
2983	4.2233	2.5455	0.	4782.6
2984	4.2233	2.3636	0.	4794.3
2985	4.2233	2.1818	0.	4809.8
2986	4.2233	2.	0.	4828.9
2987	4.2233	1.8182	0.	4851.5
2988	4.2233	1.6364	0.	4877.5
2989	4.2233	1.4545	0.	4906.5
2990	4.2233	1.2727	0.	4938.3
2991	4.2233	1.0909	0.	4972.7
2992	4.2233	0.90909	0.	5009.2
2993	4.2233	0.72727	0.	5047.7
2994	4.2233	0.54545	0.	5087.6
2995	4.2233	0.36364	0.	5128.9
2996	4.2233	0.18182	0.	5172.
2997	4.0397	5.8182	0.	5236.8
2998	4.0397	5.6364	0.	5190.2
2999	4.0397	5.4545	0.	5145.7
3000	4.0397	5.2727	0.	5102.7
3001	4.0397	5.0909	0.	5061.3
3002	4.0397	4.9091	0.	5022.
3003	4.0397	4.7273	0.	4985.1
3004	4.0397	4.5455	0.	4951.
3005	4.0397	4.3636	0.	4919.9
3006	4.0397	4.1818	0.	4892.2
3007	4.0397	4.	0.	4868.
3008	4.0397	3.8182	0.	4847.6
3009	4.0397	3.6364	0.	4831.1
3010	4.0397	3.4545	0.	4818.7
3011	4.0397	3.2727	0.	4810.3
3012	4.0397	3.0909	0.	4806.1
3013	4.0397	2.9091	0.	4806.1
3014	4.0397	2.7273	0.	4810.3
3015	4.0397	2.5455	0.	4818.7
3016	4.0397	2.3636	0.	4831.1
3017	4.0397	2.1818	0.	4847.6
3018	4.0397	2.	0.	4868.
3019	4.0397	1.8182	0.	4892.2
3020	4.0397	1.6364	0.	4919.9
3021	4.0397	1.4545	0.	4951.
3022	4.0397	1.2727	0.	4985.1
3023	4.0397	1.0909	0.	5022.
3024	4.0397	0.90909	0.	5061.3
3025	4.0397	0.72727	0.	5102.7
3026	4.0397	0.54545	0.	5145.7
3027	4.0397	0.36364	0.	5190.2
3028	4.0397	0.18182	0.	5236.8
3029	3.856	5.8182	0.	5302.3
3030	3.856	5.6364	0.	5251.8
3031	3.856	5.4545	0.	5203.9
3032	3.856	5.2727	0.	5157.6
3033	3.856	5.0909	0.	5113.2
3034	3.856	4.9091	0.	5071.
3035	3.856	4.7273	0.	5031.4
3036	3.856	4.5455	0.	4994.9
3037	3.856	4.3636	0.	4961.7
3038	3.856	4.1818	0.	4932.2
3039	3.856	4.	0.	4906.5
3040	3.856	3.8182	0.	4884.8
3041	3.856	3.6364	0.	4867.3
3042	3.856	3.4545	0.	4854.1
3043	3.856	3.2727	0.	4845.3
3044	3.856	3.0909	0.	4840.8
3045	3.856	2.9091	0.	4840.8
3046	3.856	2.7273	0.	4845.3
3047	3.856	2.5455	0.	4854.1
3048	3.856	2.3636	0.	4867.3
3049	3.856	2.1818	0.	4884.8
3050	3.856	2.	0.	4906.5
3051	3.856	1.8182	0.	4932.2
3052	3.856	1.6364	0.	4961.7
3053	3.856	1.4545	0.	4994.9
3054	3.856	1.2727	0.	5031.4
3055	3.856	1.0909	0.	5071.
3056	3.856	0.90909	0.	5113.2
3057	3.856	0.72727	0.	5157.6
3058	3.856	0.54545	0.	5203.9
3059	3.856	0.36364	0.	5251.8
3060	3.856	0.18182	0.	5302.3
3061	3.6724	5.8182	0.	5368.4
3062	3.6724	5.6364	0.	5313.7
3063	3.6724	5.4545	0.	5262.2
3064	3.6724	5.2727	0.	5212.4
3065	3.6724	5.0909	0.	5164.7
3066	3.6724	4.9091	0.	5119.5
3067	3.6724	4.7273	0.	5077.2
3068	3.6724	4.5455	0.	5038.2
3069	3.6724	4.3636	0.	5002.9
3070	3.6724	4.1818	0.	4971.5
3071	3.6724	4.	0.	4944.3
3072	3.6724	3.8182	0.	4921.4
3073	3.6724	3.6364	0.	4902.9
3074	3.6724	3.4545	0.	4889.1
3075	3.6724	3.2727	0.	4879.8
3076	3.6724	3.0909	0.	4875.1
3077	3.6724	2.9091	0.	4875.1
3078	3.6724	2.7273	0.	4879.8
3079	3.6724	2.5455	0.	4889.1
3080	3.6724	2.3636	0.	4903.
3081	3.6724	2.1818	0.	4921.4
3082	3.6724	2.	0.	4944.3
3083	3.6724	1.8182	0.	4971.5
3084	3.6724	1.6364	0.	5002.9
3085	3.6724	1.4545	0.	5038.2
3086	3.6724	1.2727	0.	5077.2
3087	3.6724	1.0909	0.	5119.5
3088	3.6724	0.90909	0.	5164.7
3089	3.6724	0.72727	0.	5212.4
3090	3.6724	0.54545	0.	5262.2
3091	3.6724	0.36364	0.	5313.7
3092	3.6724	0.18182	0.	5368.4
3093	3.4888	5.8182	0.	5435.1
3094	3.4888	5.6364	0.	5375.8
3095	3.4888	5.4545	0.	5320.3
3096	3.4888	5.2727	0.	5266.8
3097	3.4888	5.0909	0.	5215.7
3098	3.4888	4.9091	0.	5167.3
3099	3.4888	4.7273	0.	5122.2
3100	3.4888	4.5455	0.	5080.8
3101	3.4888	4.3636	0.	5043.3
3102	3.4888	4.1818	0.	5010.2
3103	3.4888	4.	0.	4981.5
3104	3.4888	3.8182	0.	4957.5
3105	3.4888	3.6364	0.	4938.2
3106	3.4888	3.4545	0.	4923.7
3107	3.4888	3.2727	0.	4914.1
3108	3.4888	3.0909	0.	4909.2
3109	3.4888	2.9091	0.	4909.2
3110	3.4888	2.7273	0.	4914.1
3111	3.4888	2.5455	0.	4923.7
3112	3.4888	2.3636	0.	4938.2
3113	3.4888	2.1818	0.	4957.5
3114	3.4888	2.	0.	4981.5
3115	3.4888	1.8182	0.	5010.2
3116	3.4888	1.6364	0.	5043.3
3117	3.4888	1.4545	0.	5080.8
3118	3.4888	1.2727	0.	5122.2
3119	3.4888	1.0909	0.	5167.3
3120	3.4888	0.90909	0.	5215.7
3121	3.4888	0.72727	0.	5266.8
3122	3.4888	0.54545	0.	5320.3
3123	3.4888	0.36364	0.	5375.8
3124	3.4888	0.18182	0.	5435.1
3125	3.3052	5.8182	0.	5502.1
3126	3.3052	5.6364	0.	5437.8
3127	3.3052	5.4545	0.	5378.1
3128	3.3052	5.2727	0.	5320.8
3129	3.3052	5.0909	0.	5266.
3130	3.3052	4.9091	0.	5214.4
3131	3.3052	4.7273	0.	5166.4
3132	3.3052	4.5455	0.	5122.5
3133	3.3052	4.3636	0.	5083.1
3134	3.3052	4.1818	0.	5048.3
3135	3.3052	4.	0.	5018.3
3136	3.3052	3.8182	0.	4993.4
3137	3.3052	3.6364	0.	4973.4
3138	3.3052	3.4545	0.	4958.4
3139	3.3052	3.2727	0.	4948.4
3140	3.3052	3.0909	0.	4943.5
3141	3.3052	2.9091	0.	4943.5
3142	3.3052	2.7273	0.	4948.4
3143	3.3052	2.5455	0.	4958.4
3144	3.3052	2.3636	0.	4973.4
3145	3.3052	2.1818	0.	4993.4
3146	3.3052	2.	0.	5018.3
3147	3.3052	1.8182	0.	5048.3
3148	3.3052	1.6364	0.	5083.1
3149	3.3052	1.4545	0.	5122.5
3150	3.3052	1.2727	0.	5166.4
3151	3.3052	1.0909	0.	5214.4
3152	3.3052	0.90909	0.	5266.
3153	3.3052	0.72727	0.	5320.8
3154	3.3052	0.54545	0.	5378.1
3155	3.3052	0.36364	0.	5437.8
3156	3.3052	0.18182	0.	5502.1
3157	3.1216	5.8182	0.	5569.3
3158	3.1216	5.6364	0.	5499.5
3159	3.1216	5.4545	0.	5435.4
3160	3.1216	5.2727	0.	5373.9
3161	3.1216	5.0909	0.	5315.4
3162	3.1216	4.9091	0.	5260.5
3163	3.1216	4.7273	0.	5209.7
3164	3.1216	4.5455	0.	5163.4
3165	3.1216	4.3636	0.	5122.1
3166	3.1216	4.1818	0.	5085.9
3167	3.1216	4.	0.	5054.9
3168	3.1216	3.8182	0.	5029.2
3169	3.1216	3.6364	0.	5008.7
3170	3.1216	3.4545	0.	4993.5
3171	3.1216	3.2727	0.	4983.3
3172	3.1216	3.0909	0.	4978.3
3173	3.1216	2.9091	0.	4978.3
3174	3.1216	2.7273	0.	4983.3
3175	3.1216	2.5455	0.	4993.5
3176	3.1216	2.3636	0.	5008.7
3177	3.1216	2.1818	0.	5029.2
3178	3.1216	2.	0.	5054.9
3179	3.1216	1.8182	0.	5085.9
3180	3.1216	1.6364	0.	5122.1
3181	3.1216	1.4545	0.	5163.4
3182	3.1216	1.2727	0.	5209.7
3183	3.1216	1.0909	0.	5260.5
3184	3.1216	0.90909	0.	5315.4
3185	3.1216	0.72727	0.	5373.9
3186	3.1216	0.54545	0.	5435.4
3187	3.1216	0.36364	0.	5499.5
3188	3.1216	0.18182	0.	5569.3
3189	2.9379	5.8182	0.	5636.4
3190	2.9379	5.6364	0.	5560.6
3191	2.9379	5.4545	0.	5491.7
3192	2.9379	5.2727	0.	5425.9
3193	2.9379	5.0909	0.	5363.5
3194	2.9379	4.9091	0.	5305.3
3195	2.9379	4.7273	0.	5251.8
3196	2.9379	4.5455	0.	5203.4
3197	2.9379	4.3636	0.	5160.4
3198	2.9379	4.1818	0.	5123.1
3199	2.9379	4.	0.	5091.5
3200	2.9379	3.8182	0.	5065.4
3201	2.9379	3.6364	0.	5044.7
3202	2.9379	3.4545	0.	5029.4
3203	2.9379	3.2727	0.	5019.3
3204	2.9379	3.0909	0.	5014.3
3205	2.9379	2.9091	0.	5014.3
3206	2.9379	2.7273	0.	5019.3
3207	2.9379	2.5455	0.	5029.4
3208	2.9379	2.3636	0.	5044.7
3209	2.9379	2.1818	0.	5065.4
3210	2.9379	2.	0.	5091.5
3211	2.9379	1.8182	0.	5123.1
3212	2.9379	1.6364	0.	5160.4
3213	2.9379	1.4545	0.	5203.4
3214	2.9379	1.2727	0.	5251.8
3215	2.9379	1.0909	0.	5305.3
3216	2.9379	0.90909	0.	5363.5
3217	2.9379	0.72727	0.	5425.9
3218	2.9379	0.54545	0.	5491.7
3219	2.9379	0.36364	0.	5560.6
3220	2.9379	0.18182	0.	5636.4
3221	2.7543	5.8182	0.	5703.
3222	2.7543	5.6364	0.	5620.6
3223	2.7543	5.4545	0.	5546.6
3224	2.7543	5.2727	0.	5476.3
3225	2.7543	5.0909	0.	5410.
3226	2.7543	4.9091	0.	5348.5
3227	2.7543	4.7273	0.	5292.4
3228	2.7543	4.5455	0.	5242.2
3229	2.7543	4.3636	0.	5198.1
3230	2.7543	4.1818	0.	5160.2
3231	2.7543	4.	0.	5128.3
3232	2.7543	3.8182	0.	5102.3
3233	2.7543	3.6364	0.	5081.9
3234	2.7543	3.4545	0.	5066.9
3235	2.7543	3.2727	0.	5057.1
3236	2.7543	3.0909	0.	5052.2
3237	2.7543	2.9091	0.	5052.2
3238	2.7543	2.7273	0.	5057.1
3239	2.7543	2.5455	0.	5066.9
3240	2.7543	2.3636	0.	5081.9
3241	2.7543	2.1818	0.	5102.3
3242	2.7543	2.	0.	5128.3
3243	2.7543	1.8182	0.	5160.2
3244	2.7543	1.6364	0.	5198.1
3245	2.7543	1.4545	0.	5242.2
3246	2.7543	1.2727	0.	5292.4
3247	2.7543	1.0909	0.	5348.5
3248	2.7543	0.90909	0.	5410.
3249	2.7543	0.72727	0.	5476.3
3250	2.7543	0.54545	0.	5546.6
3251	2.7543	0.36364	0.	5620.6
3252	2.7543	0.18182	0.	5703.
3253	2.5707	5.8182	0.	5768.5
3254	2.5707	5.6364	0.	5678.8
3255	2.5707	5.4545	0.	5599.4
3256	2.5707	5.2727	0.	5524.3
3257	2.5707	5.0909	0.	5454.1
3258	2.5707	4.9091	0.	5389.5
3259	2.5707	4.7273	0.	5331.2
3260	2.5707	4.5455	0.	5279.7
3261	2.5707	4.3636	0.	5235.1
3262	2.5707	4.1818	0.	5197.2
3263	2.5707	4.	0.	5165.8
3264	2.5707	3.8182	0.	5140.6
3265	2.5707	3.6364	0.	5121.
3266	2.5707	3.4545	0.	5106.8
3267	2.5707	3.2727	0.	5097.5
3268	2.5707	3.0909	0.	5092.9
3269	2.5707	2.9091	0.	5092.9
3270	2.5707	2.7273	0.	5097.5
3271	2.5707	2.5455	0.	5106.8
3272	2.5707	2.3636	0.	5121.
3273	2.5707	2.1818	0.	5140.6
3274	2.5707	2.	0.	5165.8
3275	2.5707	1.8182	0.	5197.2
3276	2.5707	1.6364	0.	5235.1
3277	2.5707	1.4545	0.	5279.7
3278	2.5707	1.2727	0.	5331.2
3279	2.5707	1.0909	0.	5389.5
3280	2.5707	0.90909	0.	5454.1
3281	2.5707	0.72727	0.	5524.3
3282	2.5707	0.54545	0.	5599.4
3283	2.5707	0.36364	0.	5678.8
3284	2.5707	0.18182	0.	5768.5
3285	2.3871	5.8182	0.	5832.1
3286	2.3871	5.6364	0.	5734.4
3287	2.3871	5.4545	0.	5649.1
3288	2.3871	5.2727	0.	5569.2
3289	2.3871	5.0909	0.	5495.1
3290	2.3871	4.9091	0.	5427.7
3291	2.3871	4.7273	0.	5367.9
3292	2.3871	4.5455	0.	5315.8
3293	2.3871	4.3636	0.	5271.5
3294	2.3871	4.1818	0.	5234.6
3295	2.3871	4.	0.	5204.6
3296	2.3871	3.8182	0.	5180.9
3297	2.3871	3.6364	0.	5162.9
3298	2.3871	3.4545	0.	5150.
3299	2.3871	3.2727	0.	5141.6
3300	2.3871	3.0909	0.	5137.5
3301	2.3871	2.9091	0.	5137.5
3302	2.3871	2.7273	0.	5141.6
3303	2.3871	2.5455	0.	5150.
3304	2.3871	2.3636	0.	5162.9
3305	2.3871	2.1818	0.	5180.9
3306	2.3871	2.	0.	5204.6
3307	2.3871	1.8182	0.	5234.6
3308	2.3871	1.6364	0.	5271.5
3309	2.3871	1.4545	0.	5315.8
3310	2.3871	1.2727	0.	5367.9
3311	2.3871	1.0909	0.	5427.7
3312	2.3871	0.90909	0.	5495.1
3313	2.3871	0.72727	0.	5569.2
3314	2.3871	0.54545	0.	5649.1
3315	2.3871	0.36364	0.	5734.4
3316	2.3871	0.18182	0.	5832.1
3317	2.2034	5.8182	0.	5892.7
3318	2.2034	5.6364	0.	5786.1
3319	2.2034	5.4545	0.	5694.6
3320	2.2034	5.2727	0.	5609.7
3321	2.2034	5.0909	0.	5531.9
3322	2.2034	4.9091	0.	5462.4
3323	2.2034	4.7273	0.	5401.8
3324	2.2034	4.5455	0.	5350.2
3325	2.2034	4.3636	0.	5307.4
3326	2.2034	4.1818	0.	5272.7
3327	2.2034	4.	0.	5245.3
3328	2.2034	3.8182	0.	5224.3
3329	2.2034	3.6364	0.	5208.6
3330	2.2034	3.4545	0.	5197.7
3331	2.2034	3.2727	0.	5190.8
3332	2.2034	3.0909	0.	5187.4
3333	2.2034	2.9091	0.	5187.4
3334	2.2034	2.7273	0.	5190.8
3335	2.2034	2.5455	0.	5197.7
3336	2.2034	2.3636	0.	5208.6
3337	2.2034	2.1818	0.	5224.3
3338	2.2034	2.	0.	5245.3
3339	2.2034	1.8182	0.	5272.7
3340	2.2034	1.6364	0.	5307.4
3341	2.2034	1.4545	0.	5350.2
3342	2.2034	1.2727	0.	5401.8
3343	2.2034	1.0909	0.	5462.4
3344	2.2034	0.90909	0.	5531.9
3345	2.2034	0.72727	0.	5609.7
3346	2.2034	0.54545	0.	5694.6
3347	2.2034	0.36364	0.	5786.1
3348	2.2034	0.18182	0.	5892.7
3349	2.0198	5.8182	0.	5948.9
3350	2.0198	5.6364	0.	5832.2
3351	2.0198	5.4545	0.	5734.2
3352	2.0198	5.2727	0.	5644.3
3353	2.0198	5.0909	0.	5563.3
3354	2.0198	4.9091	0.	5492.5
3355	2.0198	4.7273	0.	5432.4
3356	2.0198	4.5455	0.	5382.9
3357	2.0198	4.3636	0.	5343.2
3358	2.0198	4.1818	0.	5312.4
3359	2.0198	4.	0.	5289.
3360	2.0198	3.8182	0.	5271.8
3361	2.0198	3.6364	0.	5259.6
3362	2.0198	3.4545	0.	5251.4
3363	2.0198	3.2727	0.	5246.4
3364	2.0198	3.0909	0.	5244.
3365	2.0198	2.9091	0.	5244.
3366	2.0198	2.7273	0.	5246.4
3367	2.0198	2.5455	0.	5251.4
3368	2.0198	2.3636	0.	5259.6
3369	2.0198	2.1818	0.	5271.8
3370	2.0198	2.	0.	5289.
3371	2.0198	1.8182	0.	5312.4
3372	2.0198	1.6364	0.	5343.2
3373	2.0198	1.4545	0.	5382.9
3374	2.0198	1.2727	0.	5432.4
3375	2.0198	1.0909	0.	5492.5
3376	2.0198	0.90909	0.	5563.3
3377	2.0198	0.72727	0.	5644.3
3378	2.0198	0.54545	0.	5734.2
3379	2.0198	0.36364	0.	5832.2
3380	2.0198	0.18182	0.	5948.9
3381	1.8362	5.8182	0.	5998.5
3382	1.8362	5.6364	0.	5870.6
3383	1.8362	5.4545	0.	5765.5
3384	1.8362	5.2727	0.	5670.8
3385	1.8362	5.0909	0.	5587.5
3386	1.8362	4.9091	0.	5516.8
3387	1.8362	4.7273	0.	5459.1
3388	1.8362	4.5455	0.	5413.8
3389	1.8362	4.3636	0.	5379.4
3390	1.8362	4.1818	0.	5354.4
3391	1.8362	4.	0.	5336.8
3392	1.8362	3.8182	0.	5325.
3393	1.8362	3.6364	0.	5317.5
3394	1.8362	3.4545	0.	5312.9
3395	1.8362	3.2727	0.	5310.3
3396	1.8362	3.0909	0.	5309.2
3397	1.8362	2.9091	0.	5309.2
3398	1.8362	2.7273	0.	5310.3
3399	1.8362	2.5455	0.	5312.9
3400	1.8362	2.3636	0.	5317.5
3401	1.8362	2.1818	0.	5325.
3402	1.8362	2.	0.	5336.8
3403	1.8362	1.8182	0.	5354.4
3404	1.8362	1.6364	0.	5379.4
3405	1.8362	1.4545	0.	5413.8
3406	1.8362	1.2727	0.	5459.1
3407	1.8362	1.0909	0.	5516.8
3408	1.8362	0.90909	0.	5587.5
3409	1.8362	0.72727	0.	5670.8
3410	1.8362	0.54545	0.	5765.5
3411	1.8362	0.36364	0.	5870.6
3412	1.8362	0.18182	0.	5998.5
3413	1.6526	5.8182	0.	6038.5
3414	1.6526	5.6364	0.	5897.9
3415	1.6526	5.4545	0.	5785.5
3416	1.6526	5.2727	0.	5686.6
3417	1.6526	5.0909	0.	5602.3
3418	1.6526	4.9091	0.	5534.
3419	1.6526	4.7273	0.	5481.5
3420	1.6526	4.5455	0.	5443.2
3421	1.6526	4.3636	0.	5416.9
3422	1.6526	4.1818	0.	5400.2
3423	1.6526	4.	0.	5390.6
3424	1.6526	3.8182	0.	5385.8
3425	1.6526	3.6364	0.	5384.1
3426	1.6526	3.4545	0.	5384.
3427	1.6526	3.2727	0.	5384.5
3428	1.6526	3.0909	0.	5384.9
3429	1.6526	2.9091	0.	5384.9
3430	1.6526	2.7273	0.	5384.5
3431	1.6526	2.5455	0.	5384.
3432	1.6526	2.3636	0.	5384.1
3433	1.6526	2.1818	0.	5385.8
3434	1.6526	2.	0.	5390.6
3435	1.6526	1.8182	0.	5400.2
3436	1.6526	1.6364	0.	5416.9
3437	1.6526	1.4545	0.	5443.2
3438	1.6526	1.2727	0.	5481.5
3439	1.6526	1.0909	0.	5534.
3440	1.6526	0.90909	0.	5602.3
3441	1.6526	0.72727	0.	5686.6
3442	1.6526	0.54545	0.	5785.5
3443	1.6526	0.36364	0.	5897.9
3444	1.6526	0.18182	0.	6038.5
3445	1.469	5.8182	0.	6064.7
3446	1.469	5.6364	0.	5909.7
3447	1.469	5.4545	0.	5789.7
3448	1.469	5.2727	0.	5687.7
3449	1.469	5.0909	0.	5605.1
3450	1.469	4.9091	0.	5542.7
3451	1.469	4.7273	0.	5499.2
3452	1.469	4.5455	0.	5471.9
3453	1.469	4.3636	0.	5457.3
3454	1.469	4.1818	0.	5451.8
3455	1.469	4.	0.	5452.4
3456	1.469	3.8182	0.	5456.4
3457	1.469	3.6364	0.	5461.7
3458	1.469	3.4545	0.	5467.
3459	1.469	3.2727	0.	5471.
3460	1.469	3.0909	0.	5473.2
3461	1.469	2.9091	0.	5473.2
3462	1.469	2.7273	0.	5471.
3463	1.469	2.5455	0.	5467.
3464	1.469	2.3636	0.	5461.7
3465	1.469	2.1818	0.	5456.4
3466	1.469	2.	0.	5452.4
3467	1.469	1.8182	0.	5451.8
3468	1.469	1.6364	0.	5457.3
3469	1.469	1.4545	0.	5471.9
3470	1.469	1.2727	0.	5499.2
3471	1.469	1.0909	0.	5542.7
3472	1.469	0.90909	0.	5605.1
3473	1.469	0.72727	0.	5687.7
3474	1.469	0.54545	0.	5789.7
3475	1.469	0.36364	0.	5909.7
3476	1.469	0.18182	0.	6064.7
3477	1.2853	5.8182	0.	6070.8
3478	1.2853	5.6364	0.	5899.3
3479	1.2853	5.4545	0.	5772.3
3480	1.2853	5.2727	0.	5669.7
3481	1.2853	5.0909	0.	5593.1
3482	1.2853	4.9091	0.	5542.1
3483	1.2853	4.7273	0.	5513.5
3484	1.2853	4.5455	0.	5502.3
3485	1.2853	4.3636	0.	5503.5
3486	1.2853	4.1818	0.	5512.5
3487	1.2853	4.	0.	5525.6
3488	1.2853	3.8182	0.	5539.9
3489	1.2853	3.6364	0.	5553.3
3490	1.2853	3.4545	0.	5564.5
3491	1.2853	3.2727	0.	5572.5
3492	1.2853	3.0909	0.	5576.6
3493	1.2853	2.9091	0.	5576.6
3494	1.2853	2.7273	0.	5572.5
3495	1.2853	2.5455	0.	5564.5
3496	1.2853	2.3636	0.	5553.3
3497	1.2853	2.1818	0.	5539.9
3498	1.2853	2.	0.	5525.6
3499	1.2853	1.8182	0.	5512.5
3500	1.2853	1.6364	0.	5503.5
3501	1.2853	1.4545	0.	5502.3
3502	1.2853	1.2727	0.	5513.5
3503	1.2853	1.0909	0.	5542.1
3504	1.2853	0.90909	0.	5593.1
3505	1.2853	0.72727	0.	5669.7
3506	1.2853	0.54545	0.	5772.3
3507	1.2853	0.36364	0.	5899.3
3508	1.2853	0.18182	0.	6070.8
3509	1.1017	5.8182	0.	6046.8
3510	1.1017	5.6364	0.	5856.4
3511	1.1017	5.4545	0.	5723.6
3512	1.1017	5.2727	0.	5625.4
3513	1.1017	5.0909	0.	5562.5
3514	1.1017	4.9091	0.	5531.5
3515	1.1017	4.7273	0.	5525.6
3516	1.1017	4.5455	0.	5536.8
3517	1.1017	4.3636	0.	5558.5
3518	1.1017	4.1818	0.	5585.
3519	1.1017	4.	0.	5612.5
3520	1.1017	3.8182	0.	5638.2
3521	1.1017	3.6364	0.	5660.3
3522	1.1017	3.4545	0.	5677.7
3523	1.1017	3.2727	0.	5689.6
3524	1.1017	3.0909	0.	5695.7
3525	1.1017	2.9091	0.	5695.7
3526	1.1017	2.7273	0.	5689.6
3527	1.1017	2.5455	0.	5677.7
3528	1.1017	2.3636	0.	5660.3
3529	1.1017	2.1818	0.	5638.2
3530	1.1017	2.	0.	5612.5
3531	1.1017	1.8182	0.	5585.
3532	1.1017	1.6364	0.	5558.5
3533	1.1017	1.4545	0.	5536.8
3534	1.1017	1.2727	0.	5525.6
3535	1.1017	1.0909	0.	5531.5
3536	1.1017	0.90909	0.	5562.5
3537	1.1017	0.72727	0.	5625.4
3538	1.1017	0.54545	0.	5723.6
3539	1.1017	0.36364	0.	5856.4
3540	1.1017	0.18182	0.	6046.8
3541	0.9181	5.8182	0.	5977.9
3542	0.9181	5.6364	0.	5767.7
3543	0.9181	5.4545	0.	5634.8
3544	0.9181	5.2727	0.	5552.2
3545	0.9181	5.0909	0.	5516.9
3546	0.9181	4.9091	0.	5519.1
3547	0.9181	4.7273	0.	5546.2
3548	0.9181	4.5455	0.	5587.1
3549	0.9181	4.3636	0.	5633.6
3550	0.9181	4.1818	0.	5680.1
3551	0.9181	4.	0.	5723.1
3552	0.9181	3.8182	0.	5760.5
3553	0.9181	3.6364	0.	5791.3
3554	0.9181	3.4545	0.	5814.7
3555	0.9181	3.2727	0.	5830.4
3556	0.9181	3.0909	0.	5838.3
3557	0.9181	2.9091	0.	5838.3
3558	0.9181	2.7273	0.	5830.4
3559	0.9181	2.5455	0.	5814.7
3560	0.9181	2.3636	0.	5791.3
3561	0.9181	2.1818	0.	5760.5
3562	0.9181	2.	0.	5723.1
3563	0.9181	1.8182	0.	5680.1
3564	0.9181	1.6364	0.	5633.6
3565	0.9181	1.4545	0.	5587.1
3566	0.9181	1.2727	0.	5546.2
3567	0.9181	1.0909	0.	5519.1
3568	0.9181	0.90909	0.	5516.9
3569	0.9181	0.72727	0.	5552.2
3570	0.9181	0.54545	0.	5634.8
3571	0.9181	0.36364	0.	5767.7
3572	0.9181	0.18182	0.	5977.9
3573	0.73448	5.8182	0.	5832.8
3574	0.73448	5.6364	0.	5598.6
3575	0.73448	5.4545	0.	5475.5
3576	0.73448	5.2727	0.	5429.
3577	0.73448	5.0909	0.	5443.2
3578	0.73448	4.9091	0.	5495.6
3579	0.73448	4.7273	0.	5566.5
3580	0.73448	4.5455	0.	5642.6
3581	0.73448	4.3636	0.	5716.1
3582	0.73448	4.1818	0.	5782.6
3583	0.73448	4.	0.	5840.4
3584	0.73448	3.8182	0.	5888.4
3585	0.73448	3.6364	0.	5926.6
3586	0.73448	3.4545	0.	5955.
3587	0.73448	3.2727	0.	5973.8
3588	0.73448	3.0909	0.	5983.1
3589	0.73448	2.9091	0.	5983.1
3590	0.73448	2.7273	0.	5973.8
3591	0.73448	2.5455	0.	5955.
3592	0.73448	2.3636	0.	5926.6
3593	0.73448	2.1818	0.	5888.4
3594	0.73448	2.	0.	5840.4
3595	0.73448	1.8182	0.	5782.6
3596	0.73448	1.6364	0.	5716.1
3597	0.73448	1.4545	0.	5642.6
3598	0.73448	1.2727	0.	5566.5
3599	0.73448	1.0909	0.	5495.6
3600	0.73448	0.90909	0.	5443.2
3601	0.73448	0.72727	0.	5429.
3602	0.73448	0.54545	0.	5475.5
3603	0.73448	0.36364	0.	5598.6
3604	0.73448	0.18182	0.	5832.8
3605	0.55086	5.8182	0.	5573.3
3606	0.55086	5.6364	0.	5345.
3607	0.55086	5.4545	0.	5282.8
3608	0.55086	5.2727	0.	5327.1
3609	0.55086	5.0909	0.	5432.3
3610	0.55086	4.9091	0.	5559.1
3611	0.55086	4.7273	0.	5685.3
3612	0.55086	4.5455	0.	5800.6
3613	0.55086	4.3636	0.	5901.3
3614	0.55086	4.1818	0.	5986.7
3615	0.55086	4.	0.	6057.2
3616	0.55086	3.8182	0.	6113.9
3617	0.55086	3.6364	0.	6157.9
3618	0.55086	3.4545	0.	6190.1
3619	0.55086	3.2727	0.	6211.1
3620	0.55086	3.0909	0.	6221.5
3621	0.55086	2.9091	0.	6221.5
3622	0.55086	2.7273	0.	6211.1
3623	0.55086	2.5455	0.	6190.1
3624	0.55086	2.3636	0.	6157.9
3625	0.55086	2.1818	0.	6113.9
3626	0.55086	2.	0.	6057.2
3627	0.55086	1.8182	0.	5986.7
3628	0.55086	1.6364	0.	5901.3
3629	0.55086	1.4545	0.	5800.6
3630	0.55086	1.2727	0.	5685.3
3631	0.55086	1.0909	0.	5559.1
3632	0.55086	0.90909	0.	5432.3
3633	0.55086	0.72727	0.	5327.1
3634	0.55086	0.54545	0.	5282.8
3635	0.55086	0.36364	0.	5345.
3636	0.55086	0.18182	0.	5573.3
3637	0.36724	5.8182	0.	5032.2
3638	0.36724	5.6364	0.	4778.3
3639	0.36724	5.4545	0.	4833.5
3640	0.36724	5.2727	0.	5024.2
3641	0.36724	5.0909	0.	5238.7
3642	0.36724	4.9091	0.	5436.
3643	0.36724	4.7273	0.	5605.
3644	0.36724	4.5455	0.	5745.6
3645	0.36724	4.3636	0.	5860.9
3646	0.36724	4.1818	0.	5954.4
3647	0.36724	4.	0.	6029.2
3648	0.36724	3.8182	0.	6088.
3649	0.36724	3.6364	0.	6132.9
3650	0.36724	3.4545	0.	6165.3
3651	0.36724	3.2727	0.	6186.3
3652	0.36724	3.0909	0.	6196.6
3653	0.36724	2.9091	0.	6196.6
3654	0.36724	2.7273	0.	6186.3
3655	0.36724	2.5455	0.	6165.3
3656	0.36724	2.3636	0.	6132.9
3657	0.36724	2.1818	0.	6088.
3658	0.36724	2.	0.	6029.2
3659	0.36724	1.8182	0.	5954.4
3660	0.36724	1.6364	0.	5860.9
3661	0.36724	1.4545	0.	5745.6
3662	0.36724	1.2727	0.	5605.
3663	0.36724	1.0909	0.	5436.
3664	0.36724	0.90909	0.	5238.7
3665	0.36724	0.72727	0.	5024.2
3666	0.36724	0.54545	0.	4833.5
3667	0.36724	0.36364	0.	4778.3
3668	0.36724	0.18182	0.	5032.2
3669	0.18362	5.8182	0.	4051.5
3670	0.18362	5.6364	0.	4552.8
3671	0.18362	5.4545	0.	5219.2
3672	0.18362	5.2727	0.	5739.9
3673	0.18362	5.0909	0.	6129.9
3674	0.18362	4.9091	0.	6424.
3675	0.18362	4.7273	0.	6648.8
3676	0.18362	4.5455	0.	6823.1
3677	0.18362	4.3636	0.	6959.2
3678	0.18362	4.1818	0.	7066.
3679	0.18362	4.	0.	7149.4
3680	0.18362	3.8182	0.	7213.8
3681	0.18362	3.6364	0.	7262.3
3682	0.18362	3.4545	0.	7296.9
3683	0.18362	3.2727	0.	7319.3
3684	0.18362	3.0909	0.	7330.2
3685	0.18362	2.9091	0.	7330.2
3686	0.18362	2.7273	0.	7319.3
3687	0.18362	2.5455	0.	7296.9
3688	0.18362	2.3636	0.	7262.3
3689	0.18362	2.1818	0.	7213.8
3690	0.18362	2.	0.	7149.4
3691	0.18362	1.8182	0.	7066.
3692	0.18362	1.6364	0.	6959.2
3693	0.18362	1.4545	0.	6823.1
3694	0.18362	1.2727	0.	6648.8
3695	0.18362	1.0909	0.	6424.
3696	0.18362	0.90909	0.	6129.9
3697	0.18362	0.72727	0.	5739.9
3698	0.18362	0.54545	0.	5219.2
3699	0.18362	0.36364	0.	4552.8
3700	0.18362	0.18182	0.	4051.5
3701	21.648	0.18182	0.	67.678
3702	21.648	0.36364	0.	100.23
3703	21.648	0.54545	0.	142.15
3704	21.648	0.72727	0.	191.12
3705	21.648	0.90909	0.	249.77
3706	21.648	1.0909	0.	322.55
3707	21.648	1.2727	0.	417.15
3708	21.648	1.4545	0.	545.72
3709	21.648	1.6364	0.	741.81
3710	21.648	1.8182	0.	1052.1
3711	21.648	2.	0.	1388.1
3712	21.648	2.1818	0.	1491.4
3713	21.648	2.3636	0.	1404.6
3714	21.648	2.5455	0.	1288.6
3715	21.648	2.7273	0.	1221.5
3716	21.648	2.9091	0.	1190.1
3717	21.648	3.0909	0.	1190.1
3718	21.648	3.2727	0.	1221.5
3719	21.648	3.4545	0.	1288.6
3720	21.648	3.6364	0.	1404.6
3721	21.648	3.8182	0.	1491.4
3722	21.648	4.	0.	1388.1
3723	21.648	4.1818	0.	1052.1
3724	21.648	4.3636	0.	741.81
3725	21.648	4.5455	0.	545.72
3726	21.648	4.7273	0.	417.15
3727	21.648	4.9091	0.	322.55
3728	21.648	5.0909	0.	249.77
3729	21.648	5.2727	0.	191.12
3730	21.648	5.4545	0.	142.15
3731	21.648	5.6364	0.	100.23
3732	21.648	5.8182	0.	67.678
3733	21.829	0.18182	0.	94.685
3734	21.829	0.36364	0.	110.32
3735	21.829	0.54545	0.	140.1
3736	21.829	0.72727	0.	179.05
3737	21.829	0.90909	0.	227.09
3738	21.829	1.0909	0.	286.26
3739	21.829	1.2727	0.	360.3
3740	21.829	1.4545	0.	453.89
3741	21.829	1.6364	0.	572.28
3742	21.829	1.8182	0.	731.45
3743	21.829	2.	0.	894.94
3744	21.829	2.1818	0.	1035.3
3745	21.829	2.3636	0.	1077.7
3746	21.829	2.5455	0.	1071.1
3747	21.829	2.7273	0.	1051.
3748	21.829	2.9091	0.	1038.7
3749	21.829	3.0909	0.	1038.7
3750	21.829	3.2727	0.	1051.
3751	21.829	3.4545	0.	1071.1
3752	21.829	3.6364	0.	1077.7
3753	21.829	3.8182	0.	1035.3
3754	21.829	4.	0.	894.94
3755	21.829	4.1818	0.	731.45
3756	21.829	4.3636	0.	572.28
3757	21.829	4.5455	0.	453.89
3758	21.829	4.7273	0.	360.3
3759	21.829	4.9091	0.	286.26
3760	21.829	5.0909	0.	227.09
3761	21.829	5.2727	0.	179.05
3762	21.829	5.4545	0.	140.1
3763	21.829	5.6364	0.	110.32
3764	21.829	5.8182	0.	94.685
3765	22.01	0.18182	0.	120.23
3766	22.01	0.36364	0.	128.84
3767	22.01	0.54545	0.	149.87
3768	22.01	0.72727	0.	180.12
3769	22.01	0.90909	0.	218.95
3770	22.01	1.0909	0.	266.83
3771	22.01	1.2727	0.	324.96
3772	22.01	1.4545	0.	395.17
3773	22.01	1.6364	0.	477.83
3774	22.01	1.8182	0.	575.05
3775	22.01	2.	0.	681.06
3776	22.01	2.1818	0.	775.75
3777	22.01	2.3636	0.	838.9
3778	22.01	2.5455	0.	866.37
3779	22.01	2.7273	0.	875.06
3780	22.01	2.9091	0.	876.53
3781	22.01	3.0909	0.	876.53
3782	22.01	3.2727	0.	875.06
3783	22.01	3.4545	0.	866.37
3784	22.01	3.6364	0.	838.9
3785	22.01	3.8182	0.	775.75
3786	22.01	4.	0.	681.06
3787	22.01	4.1818	0.	575.05
3788	22.01	4.3636	0.	477.83
3789	22.01	4.5455	0.	395.17
3790	22.01	4.7273	0.	324.96
3791	22.01	4.9091	0.	266.83
3792	22.01	5.0909	0.	218.94
3793	22.01	5.2727	0.	180.12
3794	22.01	5.4545	0.	149.87
3795	22.01	5.6364	0.	128.84
3796	22.01	5.8182	0.	120.23
3797	22.19	0.18182	0.	138.52
3798	22.19	0.36364	0.	143.84
3799	22.19	0.54545	0.	159.04
3800	22.19	0.72727	0.	181.97
3801	22.19	0.90909	0.	212.21
3802	22.19	1.0909	0.	249.68
3803	22.19	1.2727	0.	294.48
3804	22.19	1.4545	0.	346.9
3805	22.19	1.6364	0.	407.31
3806	22.19	1.8182	0.	475.07
3807	22.19	2.	0.	547.14
3808	22.19	2.1818	0.	613.96
3809	22.19	2.3636	0.	665.97
3810	22.19	2.5455	0.	699.7
3811	22.19	2.7273	0.	717.73
3812	22.19	2.9091	0.	725.2
3813	22.19	3.0909	0.	725.2
3814	22.19	3.2727	0.	717.73
3815	22.19	3.4545	0.	699.7
3816	22.19	3.6364	0.	665.97
3817	22.19	3.8182	0.	613.96
3818	22.19	4.	0.	547.14
3819	22.19	4.1818	0.	475.07
3820	22.19	4.3636	0.	407.31
3821	22.19	4.5455	0.	346.9
3822	22.19	4.7273	0.	294.48
3823	22.19	4.9091	0.	249.68
3824	22.19	5.0909	0.	212.21
3825	22.19	5.2727	0.	181.97
3826	22.19	5.4545	0.	159.04
3827	22.19	5.6364	0.	143.84
3828	22.19	5.8182	0.	138.52
3829	22.371	0.18182	0.	149.04
3830	22.371	0.36364	0.	152.48
3831	22.371	0.54545	0.	163.71
3832	22.371	0.72727	0.	180.9
3833	22.371	0.90909	0.	203.88
3834	22.371	1.0909	0.	232.45
3835	22.371	1.2727	0.	266.44
3836	22.371	1.4545	0.	305.7
3837	22.371	1.6364	0.	350.03
3838	22.371	1.8182	0.	398.76
3839	22.371	2.	0.	449.39
3840	22.371	2.1818	0.	497.48
3841	22.371	2.3636	0.	537.82
3842	22.371	2.5455	0.	567.2
3843	22.371	2.7273	0.	585.5
3844	22.371	2.9091	0.	594.05
3845	22.371	3.0909	0.	594.05
3846	22.371	3.2727	0.	585.5
3847	22.371	3.4545	0.	567.2
3848	22.371	3.6364	0.	537.82
3849	22.371	3.8182	0.	497.48
3850	22.371	4.	0.	449.39
3851	22.371	4.1818	0.	398.76
3852	22.371	4.3636	0.	350.03
3853	22.371	4.5455	0.	305.7
3854	22.371	4.7273	0.	266.44
3855	22.371	4.9091	0.	232.45
3856	22.371	5.0909	0.	203.88
3857	22.371	5.2727	0.	180.9
3858	22.371	5.4545	0.	163.71
3859	22.371	5.6364	0.	152.48
3860	22.371	5.8182	0.	149.04
3861	22.552	0.18182	0.	152.24
3862	22.552	0.36364	0.	154.43
3863	22.552	0.54545	0.	162.82
3864	22.552	0.72727	0.	175.65
3865	22.552	0.90909	0.	192.81
3866	22.552	1.0909	0.	214.18
3867	22.552	1.2727	0.	239.58
3868	22.552	1.4545	0.	268.81
3869	22.552	1.6364	0.	301.52
3870	22.552	1.8182	0.	336.93
3871	22.552	2.	0.	373.34
3872	22.552	2.1818	0.	408.01
3873	22.552	2.3636	0.	437.95
3874	22.552	2.5455	0.	461.02
3875	22.552	2.7273	0.	476.28
3876	22.552	2.9091	0.	483.77
3877	22.552	3.0909	0.	483.77
3878	22.552	3.2727	0.	476.28
3879	22.552	3.4545	0.	461.02
3880	22.552	3.6364	0.	437.95
3881	22.552	3.8182	0.	408.01
3882	22.552	4.	0.	373.34
3883	22.552	4.1818	0.	336.93
3884	22.552	4.3636	0.	301.52
3885	22.552	4.5455	0.	268.81
3886	22.552	4.7273	0.	239.58
3887	22.552	4.9091	0.	214.18
3888	22.552	5.0909	0.	192.81
3889	22.552	5.2727	0.	175.65
3890	22.552	5.4545	0.	162.82
3891	22.552	5.6364	0.	154.43
3892	22.552	5.8182	0.	152.24
3893	22.733	0.18182	0.	148.92
3894	22.733	0.36364	0.	150.24
3895	22.733	0.54545	0.	156.6
3896	22.733	0.72727	0.	166.14
3897	22.733	0.90909	0.	178.78
3898	22.733	1.0909	0.	194.47
3899	22.733	1.2727	0.	213.12
3900	22.733	1.4545	0.	234.58
3901	22.733	1.6364	0.	258.49
3902	22.733	1.8182	0.	284.15
3903	22.733	2.	0.	310.3
3904	22.733	2.1818	0.	335.17
3905	22.733	2.3636	0.	356.91
3906	22.733	2.5455	0.	374.
3907	22.733	2.7273	0.	385.61
3908	22.733	2.9091	0.	391.44
3909	22.733	3.0909	0.	391.44
3910	22.733	3.2727	0.	385.61
3911	22.733	3.4545	0.	374.
3912	22.733	3.6364	0.	356.91
3913	22.733	3.8182	0.	335.17
3914	22.733	4.	0.	310.3
3915	22.733	4.1818	0.	284.15
3916	22.733	4.3636	0.	258.49
3917	22.733	4.5455	0.	234.58
3918	22.733	4.7273	0.	213.12
3919	22.733	4.9091	0.	194.47
3920	22.733	5.0909	0.	178.78
3921	22.733	5.2727	0.	166.14
3922	22.733	5.4545	0.	156.6
3923	22.733	5.6364	0.	150.24
3924	22.733	5.8182	0.	148.92
3925	22.914	0.18182	0.	140.02
3926	22.914	0.36364	0.	140.83
3927	22.914	0.54545	0.	145.81
3928	22.914	0.72727	0.	152.94
3929	22.914	0.90909	0.	162.1
3930	22.914	1.0909	0.	173.33
3931	22.914	1.2727	0.	186.65
3932	22.914	1.4545	0.	202.
3933	22.914	1.6364	0.	219.11
3934	22.914	1.8182	0.	237.39
3935	22.914	2.	0.	255.89
3936	22.914	2.1818	0.	273.41
3937	22.914	2.3636	0.	288.72
3938	22.914	2.5455	0.	300.83
3939	22.914	2.7273	0.	309.12
3940	22.914	2.9091	0.	313.31
3941	22.914	3.0909	0.	313.31
3942	22.914	3.2727	0.	309.12
3943	22.914	3.4545	0.	300.83
3944	22.914	3.6364	0.	288.72
3945	22.914	3.8182	0.	273.41
3946	22.914	4.	0.	255.89
3947	22.914	4.1818	0.	237.39
3948	22.914	4.3636	0.	219.11
3949	22.914	4.5455	0.	202.
3950	22.914	4.7273	0.	186.65
3951	22.914	4.9091	0.	173.33
3952	22.914	5.0909	0.	162.1
3953	22.914	5.2727	0.	152.94
3954	22.914	5.4545	0.	145.81
3955	22.914	5.6364	0.	140.83
3956	22.914	5.8182	0.	140.02
3957	23.095	0.18182	0.	126.52
3958	23.095	0.36364	0.	127.24
3959	23.095	0.54545	0.	131.44
3960	23.095	0.72727	0.	136.87
3961	23.095	0.90909	0.	143.36
3962	23.095	1.0909	0.	151.05
3963	23.095	1.2727	0.	160.09
3964	23.095	1.4545	0.	170.55
3965	23.095	1.6364	0.	182.26
3966	23.095	1.8182	0.	194.78
3967	23.095	2.	0.	207.41
3968	23.095	2.1818	0.	219.29
3969	23.095	2.3636	0.	229.59
3970	23.095	2.5455	0.	237.7
3971	23.095	2.7273	0.	243.23
3972	23.095	2.9091	0.	246.02
3973	23.095	3.0909	0.	246.02
3974	23.095	3.2727	0.	243.23
3975	23.095	3.4545	0.	237.7
3976	23.095	3.6364	0.	229.59
3977	23.095	3.8182	0.	219.29
3978	23.095	4.	0.	207.41
3979	23.095	4.1818	0.	194.78
3980	23.095	4.3636	0.	182.26
3981	23.095	4.5455	0.	170.55
3982	23.095	4.7273	0.	160.09
3983	23.095	4.9091	0.	151.05
3984	23.095	5.0909	0.	143.36
3985	23.095	5.2727	0.	136.87
3986	23.095	5.4545	0.	131.44
3987	23.095	5.6364	0.	127.24
3988	23.095	5.8182	0.	126.52
3989	23.276	0.18182	0.	109.36
3990	23.276	0.36364	0.	110.59
3991	23.276	0.54545	0.	114.63
3992	23.276	0.72727	0.	118.94
3993	23.276	0.90909	0.	123.36
3994	23.276	1.0909	0.	128.16
3995	23.276	1.2727	0.	133.67
3996	23.276	1.4545	0.	140.08
3997	23.276	1.6364	0.	147.4
3998	23.276	1.8182	0.	155.31
3999	23.276	2.	0.	163.29
4000	23.276	2.1818	0.	170.74
4001	23.276	2.3636	0.	177.1
4002	23.276	2.5455	0.	182.01
4003	23.276	2.7273	0.	185.29
4004	23.276	2.9091	0.	186.93
4005	23.276	3.0909	0.	186.93
4006	23.276	3.2727	0.	185.29
4007	23.276	3.4545	0.	182.01
4008	23.276	3.6364	0.	177.1
4009	23.276	3.8182	0.	170.74
4010	23.276	4.	0.	163.29
4011	23.276	4.1818	0.	155.31
4012	23.276	4.3636	0.	147.4
4013	23.276	4.5455	0.	140.08
4014	23.276	4.7273	0.	133.67
4015	23.276	4.9091	0.	128.16
4016	23.276	5.0909	0.	123.36
4017	23.276	5.2727	0.	118.94
4018	23.276	5.4545	0.	114.63
4019	23.276	5.6364	0.	110.59
4020	23.276	5.8182	0.	109.36
4021	23.457	0.18182	0.	89.454
4022	23.457	0.36364	0.	92.129
4023	23.457	0.54545	0.	96.68
4024	23.457	0.72727	0.	100.36
4025	23.457	0.90909	0.	103.14
4026	23.457	1.0909	0.	105.51
4027	23.457	1.2727	0.	107.98
4028	23.457	1.4545	0.	110.95
4029	23.457	1.6364	0.	114.55
4030	23.457	1.8182	0.	118.62
4031	23.457	2.	0.	122.81
4032	23.457	2.1818	0.	126.65
4033	23.457	2.3636	0.	129.81
4034	23.457	2.5455	0.	132.1
4035	23.457	2.7273	0.	133.53
4036	23.457	2.9091	0.	134.2
4037	23.457	3.0909	0.	134.2
4038	23.457	3.2727	0.	133.53
4039	23.457	3.4545	0.	132.1
4040	23.457	3.6364	0.	129.81
4041	23.457	3.8182	0.	126.65
4042	23.457	4.	0.	122.81
4043	23.457	4.1818	0.	118.62
4044	23.457	4.3636	0.	114.55
4045	23.457	4.5455	0.	110.95
4046	23.457	4.7273	0.	107.98
4047	23.457	4.9091	0.	105.51
4048	23.457	5.0909	0.	103.14
4049	23.457	5.2727	0.	100.36
4050	23.457	5.4545	0.	96.68
4051	23.457	5.6364	0.	92.129
4052	23.457	5.8182	0.	89.454
4053	23.638	0.18182	0.	67.878
4054	23.638	0.36364	0.	73.732
4055	23.638	0.54545	0.	79.522
4056	23.638	0.72727	0.	82.948
4057	23.638	0.90909	0.	84.456
4058	23.638	1.0909	0.	84.777
4059	23.638	1.2727	0.	84.632
4060	23.638	1.4545	0.	84.59
4061	23.638	1.6364	0.	84.958
4062	23.638	1.8182	0.	85.734
4063	23.638	2.	0.	86.676
4064	23.638	2.1818	0.	87.462
4065	23.638	2.3636	0.	87.868
4066	23.638	2.5455	0.	87.869
4067	23.638	2.7273	0.	87.636
4068	23.638	2.9091	0.	87.427
4069	23.638	3.0909	0.	87.427
4070	23.638	3.2727	0.	87.636
4071	23.638	3.4545	0.	87.869
4072	23.638	3.6364	0.	87.868
4073	23.638	3.8182	0.	87.462
4074	23.638	4.	0.	86.676
4075	23.638	4.1818	0.	85.734
4076	23.638	4.3636	0.	84.958
4077	23.638	4.5455	0.	84.59
4078	23.638	4.7273	0.	84.632
4079	23.638	4.9091	0.	84.777
4080	23.638	5.0909	0.	84.456
4081	23.638	5.2727	0.	82.948
4082	23.638	5.4545	0.	79.522
4083	23.638	5.6364	0.	73.732
4084	23.638	5.8182	0.	67.878
4085	23.819	0.18182	0.	47.776
4086	23.819	0.36364	0.	59.353
4087	23.819	0.54545	0.	66.962
4088	23.819	0.72727	0.	70.743
4089	23.819	0.90909	0.	71.739
4090	23.819	1.0909	0.	70.895
4091	23.819	1.2727	0.	69.032
4092	23.819	1.4545	0.	66.811
4093	23.819	1.6364	0.	64.646
4094	23.819	1.8182	0.	62.656
4095	23.819	2.	0.	60.708
4096	23.819	2.1818	0.	58.574
4097	23.819	2.3636	0.	56.139
4098	23.819	2.5455	0.	53.557
4099	23.819	2.7273	0.	51.28
4100	23.819	2.9091	0.	49.917
4101	23.819	3.0909	0.	49.917
4102	23.819	3.2727	0.	51.28
4103	23.819	3.4545	0.	53.557
4104	23.819	3.6364	0.	56.139
4105	23.819	3.8182	0.	58.574
4106	23.819	4.	0.	60.708
4107	23.819	4.1818	0.	62.657
4108	23.819	4.3636	0.	64.646
4109	23.819	4.5455	0.	66.811
4110	23.819	4.7273	0.	69.032
4111	23.819	4.9091	0.	70.895
4112	23.819	5.0909	0.	71.739
4113	23.819	5.2727	0.	70.743
4114	23.819	5.4545	0.	66.962
4115	23.819	5.6364	0.	59.353
4116	23.819	5.8182	0.	47.776
4117	23.819	5.8182	0.1	47.776
4118	23.819	5.6364	0.1	59.353
4119	23.819	5.4545	0.1	66.962
4120	23.819	5.2727	0.1	70.743
4121	23.819	5.0909	0.1	71.739
4122	23.819	4.9091	0.1	70.895
4123	23.819	4.7273	0.1	69.033
4124	23.819	4.5455	0.1	66.811
4125	23.819	4.3636	0.1	64.646
4126	23.819	4.1818	0.1	62.657
4127	23.819	4.	0.1	60.708
4128	23.819	3.8182	0.1	58.574
4129	23.819	3.6364	0.1	56.139
4130	23.819	3.4545	0.1	53.557
4131	23.819	3.2727	0.1	51.28
4132	23.819	3.0909	0.1	49.917
4133	23.819	2.9091	0.1	49.917
4134	23.819	2.7273	0.1	51.28
4135	23.819	2.5455	0.1	53.557
4136	23.819	2.3636	0.1	56.139
4137	23.819	2.1818	0.1	58.574
4138	23.819	2.	0.1	60.708
4139	23.819	1.8182	0.1	62.656
4140	23.819	1.6364	0.1	64.646
4141	23.819	1.4545	0.1	66.811
4142	23.819	1.2727	0.1	69.032
4143	23.819	1.0909	0.1	70.895
4144	23.819	0.90909	0.1	71.739
4145	23.819	0.72727	0.1	70.743
4146	23.819	0.54545	0.1	66.962
4147	23.819	0.36364	0.1	59.353
4148	23.819	0.18182	0.1	47.776
4149	23.638	5.8182	0.1	67.878
4150	23.638	5.6364	0.1	73.732
4151	23.638	5.4545	0.1	79.522
4152	23.638	5.2727	0.1	82.948
4153	23.638	5.0909	0.1	84.456
4154	23.638	4.9091	0.1	84.777
4155	23.638	4.7273	0.1	84.632
4156	23.638	4.5455	0.1	84.59
4157	23.638	4.3636	0.1	84.958
4158	23.638	4.1818	0.1	85.734
4159	23.638	4.	0.1	86.676
4160	23.638	3.8182	0.1	87.462
4161	23.638	3.6364	0.1	87.868
4162	23.638	3.4545	0.1	87.869
4163	23.638	3.2727	0.1	87.636
4164	23.638	3.0909	0.1	87.427
4165	23.638	2.9091	0.1	87.427
4166	23.638	2.7273	0.1	87.636
4167	23.638	2.5455	0.1	87.869
4168	23.638	2.3636	0.1	87.868
4169	23.638	2.1818	0.1	87.462
4170	23.638	2.	0.1	86.676
4171	23.638	1.8182	0.1	85.734
4172	23.638	1.6364	0.1	84.958
4173	23.638	1.4545	0.1	84.59
4174	23.638	1.2727	0.1	84.632
4175	23.638	1.0909	0.1	84.777
4176	23.638	0.90909	0.1	84.456
4177	23.638	0.72727	0.1	82.948
4178	23.638	0.54545	0.1	79.522
4179	23.638	0.36364	0.1	73.732
4180	23.638	0.18182	0.1	67.878
4181	23.457	5.8182	0.1	89.454
4182	23.457	5.6364	0.1	92.129
4183	23.457	5.4545	0.1	96.68
4184	23.457	5.2727	0.1	100.36
4185	23.457	5.0909	0.1	103.14
4186	23.457	4.9091	0.1	105.51
4187	23.457	4.7273	0.1	107.98
4188	23.457	4.5455	0.1	110.95
4189	23.457	4.3636	0.1	114.55
4190	23.457	4.1818	0.1	118.62
4191	23.457	4.	0.1	122.81
4192	23.457	3.8182	0.1	126.65
4193	23.457	3.6364	0.1	129.81
4194	23.457	3.4545	0.1	132.1
4195	23.457	3.2727	0.1	133.53
4196	23.457	3.0909	0.1	134.2
4197	23.457	2.9091	0.1	134.2
4198	23.457	2.7273	0.1	133.53
4199	23.457	2.5455	0.1	132.1
4200	23.457	2.3636	0.1	129.81
4201	23.457	2.1818	0.1	126.65
4202	23.457	2.	0.1	122.81
4203	23.457	1.8182	0.1	118.62
4204	23.457	1.6364	0.1	114.55
4205	23.457	1.4545	0.1	110.95
4206	23.457	1.2727	0.1	107.98
4207	23.457	1.0909	0.1	105.51
4208	23.457	0.90909	0.1	103.14
4209	23.457	0.72727	0.1	100.36
4210	23.457	0.54545	0.1	96.68
4211	23.457	0.36364	0.1	92.129
4212	23.457	0.18182	0.1	89.454
4213	23.276	5.8182	0.1	109.36
4214	23.276	5.6364	0.1	110.59
4215	23.276	5.4545	0.1	114.63
4216	23.276	5.2727	0.1	118.94
4217	23.276	5.0909	0.1	123.36
4218	23.276	4.9091	0.1	128.16
4219	23.276	4.7273	0.1	133.67
4220	23.276	4.5455	0.1	140.08
4221	23.276	4.3636	0.1	147.4
4222	23.276	4.1818	0.1	155.31
4223	23.276	4.	0.1	163.29
4224	23.276	3.8182	0.1	170.74
4225	23.276	3.6364	0.1	177.1
4226	23.276	3.4545	0.1	182.01
4227	23.276	3.2727	0.1	185.29
4228	23.276	3.0909	0.1	186.93
4229	23.276	2.9091	0.1	186.93
4230	23.276	2.7273	0.1	185.29
4231	23.276	2.5455	0.1	182.01
4232	23.276	2.3636	0.1	177.1
4233	23.276	2.1818	0.1	170.74
4234	23.276	2.	0.1	163.29
4235	23.276	1.8182	0.1	155.31
4236	23.276	1.6364	0.1	147.4
4237	23.276	1.4545	0.1	140.08
4238	23.276	1.2727	0.1	133.67
4239	23.276	1.0909	0.1	128.16
4240	23.276	0.90909	0.1	123.36
4241	23.276	0.72727	0.1	118.94
4242	23.276	0.54545	0.1	114.63
4243	23.276	0.36364	0.1	110.59
4244	23.276	0.18182	0.1	109.36
4245	23.095	5.8182	0.1	126.52
4246	23.095	5.6364	0.1	127.24
4247	23.095	5.4545	0.1	131.44
4248	23.095	5.2727	0.1	136.87
4249	23.095	5.0909	0.1	143.36
4250	23.095	4.9091	0.1	151.05
4251	23.095	4.7273	0.1	160.09
4252	23.095	4.5455	0.1	170.55
4253	23.095	4.3636	0.1	182.26
4254	23.095	4.1818	0.1	194.78
4255	23.095	4.	0.1	207.41
4256	23.095	3.8182	0.1	219.29
4257	23.095	3.6364	0.1	229.59
4258	23.095	3.4545	0.1	237.7
4259	23.095	3.2727	0.1	243.23
4260	23.095	3.0909	0.1	246.02
4261	23.095	2.9091	0.1	246.02
4262	23.095	2.7273	0.1	243.23
4263	23.095	2.5455	0.1	237.7
4264	23.095	2.3636	0.1	229.59
4265	23.095	2.1818	0.1	219.29
4266	23.095	2.	0.1	207.41
4267	23.095	1.8182	0.1	194.78
4268	23.095	1.6364	0.1	182.26
4269	23.095	1.4545	0.1	170.55
4270	23.095	1.2727	0.1	160.09
4271	23.095	1.0909	0.1	151.05
4272	23.095	0.90909	0.1	143.36
4273	23.095	0.72727	0.1	136.87
4274	23.095	0.54545	0.1	131.44
4275	23.095	0.36364	0.1	127.24
4276	23.095	0.18182	0.1	126.52
4277	22.914	5.8182	0.1	140.02
4278	22.914	5.6364	0.1	140.83
4279	22.914	5.4545	0.1	145.81
4280	22.914	5.2727	0.1	152.94
4281	22.914	5.0909	0.1	162.1
4282	22.914	4.9091	0.1	173.33
4283	22.914	4.7273	0.1	186.65
4284	22.914	4.5455	0.1	202.
4285	22.914	4.3636	0.1	219.11
4286	22.914	4.1818	0.1	237.39
4287	22.914	4.	0.1	255.89
4288	22.914	3.8182	0.1	273.41
4289	22.914	3.6364	0.1	288.72
4290	22.914	3.4545	0.1	300.83
4291	22.914	3.2727	0.1	309.12
4292	22.914	3.0909	0.1	313.31
4293	22.914	2.9091	0.1	313.31
4294	22.914	2.7273	0.1	309.12
4295	22.914	2.5455	0.1	300.83
4296	22.914	2.3636	0.1	288.72
4297	22.914	2.1818	0.1	273.41
4298	22.914	2.	0.1	255.89
4299	22.914	1.8182	0.1	237.39
4300	22.914	1.6364	0.1	219.11
4301	22.914	1.4545	0.1	202.
4302	22.914	1.2727	0.1	186.65
4303	22.914	1.0909	0.1	173.33
4304	22.914	0.90909	0.1	162.1
4305	22.914	0.72727	0.1	152.94
4306	22.914	0.54545	0.1	145.81
4307	22.914	0.36364	0.1	140.83
4308	22.914	0.18182	0.1	140.02
4309	22.733	5.8182	0.1	148.92
4310	22.733	5.6364	0.1	150.24
4311	22.733	5.4545	0.1	156.6
4312	22.733	5.2727	0.1	166.14
4313	22.733	5.0909	0.1	178.78
4314	22.733	4.9091	0.1	194.47
4315	22.733	4.7273	0.1	213.12
4316	22.733	4.5455	0.1	234.58
4317	22.733	4.3636	0.1	258.49
4318	22.733	4.1818	0.1	284.15
4319	22.733	4.	0.1	310.3
4320	22.733	3.8182	0.1	335.18
4321	22.733	3.6364	0.1	356.91
4322	22.733	3.4545	0.1	374.
4323	22.733	3.2727	0.1	385.61
4324	22.733	3.0909	0.1	391.44
4325	22.733	2.9091	0.1	391.44
4326	22.733	2.7273	0.1	385.61
4327	22.733	2.5455	0.1	374.
4328	22.733	2.3636	0.1	356.91
4329	22.733	2.1818	0.1	335.17
4330	22.733	2.	0.1	310.3
4331	22.733	1.8182	0.1	284.15
4332	22.733	1.6364	0.1	258.49
4333	22.733	1.4545	0.1	234.58
4334	22.733	1.2727	0.1	213.12
4335	22.733	1.0909	0.1	194.47
4336	22.733	0.90909	0.1	178.78
4337	22.733	0.72727	0.1	166.14
4338	22.733	0.54545	0.1	156.6
4339	22.733	0.36364	0.1	150.24
4340	22.733	0.18182	0.1	148.92
4341	22.552	5.8182	0.1	152.24
4342	22.552	5.6364	0.1	154.43
4343	22.552	5.4545	0.1	162.82
4344	22.552	5.2727	0.1	175.65
4345	22.552	5.0909	0.1	192.81
4346	22.552	4.9091	0.1	214.18
4347	22.552	4.7273	0.1	239.58
4348	22.552	4.5455	0.1	268.81
4349	22.552	4.3636	0.1	301.52
4350	22.552	4.1818	0.1	336.93
4351	22.552	4.	0.1	373.34
4352	22.552	3.8182	0.1	408.01
4353	22.552	3.6364	0.1	437.95
4354	22.552	3.4545	0.1	461.02
4355	22.552	3.2727	0.1	476.28
4356	22.552	3.0909	0.1	483.77
4357	22.552	2.9091	0.1	483.77
4358	22.552	2.7273	0.1	476.28
4359	22.552	2.5455	0.1	461.02
4360	22.552	2.3636	0.1	437.95
4361	22.552	2.1818	0.1	408.01
4362	22.552	2.	0.1	373.34
4363	22.552	1.8182	0.1	336.93
4364	22.552	1.6364	0.1	301.52
4365	22.552	1.4545	0.1	268.81
4366	22.552	1.2727	0.1	239.58
4367	22.552	1.0909	0.1	214.18
4368	22.552	0.90909	0.1	192.81
4369	22.552	0.72727	0.1	175.65
4370	22.552	0.54545	0.1	162.82
4371	22.552	0.36364	0.1	154.43
4372	22.552	0.18182	0.1	152.24
4373	22.371	5.8182	0.1	149.04
4374	22.371	5.6364	0.1	152.48
4375	22.371	5.4545	0.1	163.71
4376	22.371	5.2727	0.1	180.9
4377	22.371	5.0909	0.1	203.88
4378	22.371	4.9091	0.1	232.45
4379	22.371	4.7273	0.1	266.44
4380	22.371	4.5455	0.1	305.7
4381	22.371	4.3636	0.1	350.03
4382	22.371	4.1818	0.1	398.76
4383	22.371	4.	0.1	449.39
4384	22.371	3.8182	0.1	497.48
4385	22.371	3.6364	0.1	537.82
4386	22.371	3.4545	0.1	567.2
4387	22.371	3.2727	0.1	585.5
4388	22.371	3.0909	0.1	594.05
4389	22.371	2.9091	0.1	594.05
4390	22.371	2.7273	0.1	585.5
4391	22.371	2.5455	0.1	567.2
4392	22.371	2.3636	0.1	537.82
4393	22.371	2.1818	0.1	497.48
4394	22.371	2.	0.1	449.39
4395	22.371	1.8182	0.1	398.76
4396	22.371	1.6364	0.1	350.03
4397	22.371	1.4545	0.1	305.7
4398	22.371	1.2727	0.1	266.44
4399	22.371	1.0909	0.1	232.45
4400	22.371	0.90909	0.1	203.88
4401	22.371	0.72727	0.1	180.9
4402	22.371	0.54545	0.1	163.71
4403	22.371	0.36364	0.1	152.48
4404	22.371	0.18182	0.1	149.04
4405	22.19	5.8182	0.1	138.52
4406	22.19	5.6364	0.1	143.84
4407	22.19	5.4545	0.1	159.04
4408	22.19	5.2727	0.1	181.97
4409	22.19	5.0909	0.1	212.21
4410	22.19	4.9091	0.1	249.68
4411	22.19	4.7273	0.1	294.48
4412	22.19	4.5455	0.1	346.9
4413	22.19	4.3636	0.1	407.31
4414	22.19	4.1818	0.1	475.07
4415	22.19	4.	0.1	547.14
4416	22.19	3.8182	0.1	613.96
4417	22.19	3.6364	0.1	665.97
4418	22.19	3.4545	0.1	699.7
4419	22.19	3.2727	0.1	717.73
4420	22.19	3.0909	0.1	725.2
4421	22.19	2.9091	0.1	725.2
4422	22.19	2.7273	0.1	717.73
4423	22.19	2.5455	0.1	699.7
4424	22.19	2.3636	0.1	665.97
4425	22.19	2.1818	0.1	613.96
4426	22.19	2.	0.1	547.14
4427	22.19	1.8182	0.1	475.07
4428	22.19	1.6364	0.1	407.31
4429	22.19	1.4545	0.1	346.9
4430	22.19	1.2727	0.1	294.48
4431	22.19	1.0909	0.1	249.68
4432	22.19	0.90909	0.1	212.21
4433	22.19	0.72727	0.1	181.97
4434	22.19	0.54545	0.1	159.04
4435	22.19	0.36364	0.1	143.84
4436	22.19	0.18182	0.1	138.52
4437	22.01	5.8182	0.1	120.23
4438	22.01	5.6364	0.1	128.84
4439	22.01	5.4545	0.1	149.87
4440	22.01	5.2727	0.1	180.12
4441	22.01	5.0909	0.1	218.94
4442	22.01	4.9091	0.1	266.83
4443	22.01	4.7273	0.1	324.96
4444	22.01	4.5455	0.1	395.17
4445	22.01	4.3636	0.1	477.83
4446	22.01	4.1818	0.1	575.05
4447	22.01	4.	0.1	681.06
4448	22.01	3.8182	0.1	775.75
4449	22.01	3.6364	0.1	838.9
4450	22.01	3.4545	0.1	866.37
4451	22.01	3.2727	0.1	875.06
4452	22.01	3.0909	0.1	876.53
4453	22.01	2.9091	0.1	876.53
4454	22.01	2.7273	0.1	875.06
4455	22.01	2.5455	0.1	866.37
4456	22.01	2.3636	0.1	838.9
4457	22.01	2.1818	0.1	775.75
4458	22.01	2.	0.1	681.06
4459	22.01	1.8182	0.1	575.05
4460	22.01	1.6364	0.1	477.83
4461	22.01	1.4545	0.1	395.17
4462	22.01	1.2727	0.1	324.96
4463	22.01	1.0909	0.1	266.83
4464	22.01	0.90909	0.1	218.95
4465	22.01	0.72727	0.1	180.12
4466	22.01	0.54545	0.1	149.87
4467	22.01	0.36364	0.1	128.84
4468	22.01	0.18182	0.1	120.23
4469	21.829	5.8182	0.1	94.685
4470	21.829	5.6364	0.1	110.32
4471	21.829	5.4545	0.1	140.1
4472	21.829	5.2727	0.1	179.05
4473	21.829	5.0909	0.1	227.09
4474	21.829	4.9091	0.1	286.26
4475	21.829	4.7273	0.1	360.3
4476	21.829	4.5455	0.1	453.89
4477	21.829	4.3636	0.1	572.28
4478	21.829	4.1818	0.1	731.45
4479	21.829	4.	0.1	894.94
4480	21.829	3.8182	0.1	1035.3
4481	21.829	3.6364	0.1	1077.7
4482	21.829	3.4545	0.1	1071.1
4483	21.829	3.2727	0.1	1051.
4484	21.829	3.0909	0.1	1038.7
4485	21.829	2.9091	0.1	1038.7
4486	21.829	2.7273	0.1	1051.
4487	21.829	2.5455	0.1	1071.1
4488	21.829	2.3636	0.1	1077.7
4489	21.829	2.1818	0.1	1035.3
4490	21.829	2.	0.1	894.94
4491	21.829	1.8182	0.1	731.45
4492	21.829	1.6364	0.1	572.28
4493	21.829	1.4545	0.1	453.89
4494	21.829	1.2727	0.1	360.3
4495	21.829	1.0909	0.1	286.26
4496	21.829	0.90909	0.1	227.09
4497	21.829	0.72727	0.1	179.05
4498	21.829	0.54545	0.1	140.1
4499	21.829	0.36364	0.1	110.32
4500	21.829	0.18182	0.1	94.685
4501	21.648	5.8182	0.1	67.678
4502	21.648	5.6364	0.1	100.23
4503	21.648	5.4545	0.1	142.15
4504	21.648	5.2727	0.1	191.12
4505	21.648	5.0909	0.1	249.77
4506	21.648	4.9091	0.1	322.55
4507	21.648	4.7273	0.1	417.15
4508	21.648	4.5455	0.1	545.72
4509	21.648	4.3636	0.1	741.81
4510	21.648	4.1818	0.1	1052.1
4511	21.648	4.	0.1	1388.1
4512	21.648	3.8182	0.1	1491.4
4513	21.648	3.6364	0.1	1404.6
4514	21.648	3.4545	0.1	1288.6
4515	21.648	3.2727	0.1	1221.5
4516	21.648	3.0909	0.1	1190.1
4517	21.648	2.9091	0.1	1190.1
4518	21.648	2.7273	0.1	1221.5
4519	21.648	2.5455	0.1	1288.6
4520	21.648	2.3636	0.1	1404.6
4521	21.648	2.1818	0.1	1491.4
4522	21.648	2.	0.1	1388.1
4523	21.648	1.8182	0.1	1052.1
4524	21.648	1.6364	0.1	741.81
4525	21.648	1.4545	0.1	545.72
4526	21.648	1.2727	0.1	417.15
4527	21.648	1.0909	0.1	322.55
4528	21.648	0.90909	0.1	249.77
4529	21.648	0.72727	0.1	191.12
4530	21.648	0.54545	0.1	142.15
4531	21.648	0.36364	0.1	100.23
4532	21.648	0.18182	0.1	67.678
4533	0.18362	0.18182	0.1	4051.5
4534	0.18362	0.36364	0.1	4552.8
4535	0.18362	0.54545	0.1	5219.2
4536	0.18362	0.72727	0.1	5739.9
4537	0.18362	0.90909	0.1	6129.9
4538	0.18362	1.0909	0.1	6424.
4539	0.18362	1.2727	0.1	6648.8
4540	0.18362	1.4545	0.1	6823.1
4541	0.18362	1.6364	0.1	6959.2
4542	0.18362	1.8182	0.1	7066.
4543	0.18362	2.	0.1	7149.4
4544	0.18362	2.1818	0.1	7213.8
4545	0.18362	2.3636	0.1	7262.3
4546	0.18362	2.5455	0.1	7296.9
4547	0.18362	2.7273	0.1	7319.3
4548	0.18362	2.9091	0.1	7330.2
4549	0.18362	3.0909	0.1	7330.2
4550	0.18362	3.2727	0.1	7319.3
4551	0.18362	3.4545	0.1	7296.9
4552	0.18362	3.6364	0.1	7262.3
4553	0.18362	3.8182	0.1	7213.8
4554	0.18362	4.	0.1	7149.4
4555	0.18362	4.1818	0.1	7066.
4556	0.18362	4.3636	0.1	6959.2
4557	0.18362	4.5455	0.1	6823.1
4558	0.18362	4.7273	0.1	6648.8
4559	0.18362	4.9091	0.1	6424.
4560	0.18362	5.0909	0.1	6129.9
4561	0.18362	5.2727	0.1	5739.9
4562	0.18362	5.4545	0.1	5219.2
4563	0.18362	5.6364	0.1	4552.8
4564	0.18362	5.8182	0.1	4051.5
4565	0.36724	0.18182	0.1	5032.2
4566	0.36724	0.36364	0.1	4778.3
4567	0.36724	0.54545	0.1	4833.5
4568	0.36724	0.72727	0.1	5024.2
4569	0.36724	0.90909	0.1	5238.7
4570	0.36724	1.0909	0.1	5436.
4571	0.36724	1.2727	0.1	5605.
4572	0.36724	1.4545	0.1	5745.6
4573	0.36724	1.6364	0.1	5860.9
4574	0.36724	1.8182	0.1	5954.4
4575	0.36724	2.	0.1	6029.2
4576	0.36724	2.1818	0.1	6088.
4577	0.36724	2.3636	0.1	6132.9
4578	0.36724	2.5455	0.1	6165.3
4579	0.36724	2.7273	0.1	6186.3
4580	0.36724	2.9091	0.1	6196.6
4581	0.36724	3.0909	0.1	6196.6
4582	0.36724	3.2727	0.1	6186.3
4583	0.36724	3.4545	0.1	6165.3
4584	0.36724	3.6364	0.1	6132.9
4585	0.36724	3.8182	0.1	6088.
4586	0.36724	4.	0.1	6029.2
4587	0.36724	4.1818	0.1	5954.4
4588	0.36724	4.3636	0.1	5860.9
4589	0.36724	4.5455	0.1	5745.6
4590	0.36724	4.7273	0.1	5605.
4591	0.36724	4.9091	0.1	5436.
4592	0.36724	5.0909	0.1	5238.7
4593	0.36724	5.2727	0.1	5024.2
4594	0.36724	5.4545	0.1	4833.5
4595	0.36724	5.6364	0.1	4778.3
4596	0.36724	5.8182	0.1	5032.2
4597	0.55086	0.18182	0.1	5573.3
4598	0.55086	0.36364	0.1	5345.
4599	0.55086	0.54545	0.1	5282.8
4600	0.55086	0.72727	0.1	5327.1
4601	0.55086	0.90909	0.1	5432.3
4602	0.55086	1.0909	0.1	5559.1
4603	0.55086	1.2727	0.1	5685.3
4604	0.55086	1.4545	0.1	5800.6
4605	0.55086	1.6364	0.1	5901.3
4606	0.55086	1.8182	0.1	5986.7
4607	0.55086	2.	0.1	6057.2
4608	0.55086	2.1818	0.1	6113.9
4609	0.55086	2.3636	0.1	6157.9
4610	0.55086	2.5455	0.1	6190.1
4611	0.55086	2.7273	0.1	6211.1
4612	0.55086	2.9091	0.1	6221.5
4613	0.55086	3.0909	0.1	6221.5
4614	0.55086	3.2727	0.1	6211.1
4615	0.55086	3.4545	0.1	6190.1
4616	0.55086	3.6364	0.1	6157.9
4617	0.55086	3.8182	0.1	6113.9
4618	0.55086	4.	0.1	6057.2
4619	0.55086	4.1818	0.1	5986.7
4620	0.55086	4.3636	0.1	5901.3
4621	0.55086	4.5455	0.1	5800.6
4622	0.55086	4.7273	0.1	5685.3
4623	0.55086	4.9091	0.1	5559.1
4624	0.55086	5.0909	0.1	5432.3
4625	0.55086	5.2727	0.1	5327.1
4626	0.55086	5.4545	0.1	5282.8
4627	0.55086	5.6364	0.1	5345.
4628	0.55086	5.8182	0.1	5573.3
4629	0.73448	0.18182	0.1	5832.8
4630	0.73448	0.36364	0.1	5598.6
4631	0.73448	0.54545	0.1	5475.5
4632	0.73448	0.72727	0.1	5429.
4633	0.73448	0.90909	0.1	5443.2
4634	0.73448	1.0909	0.1	5495.6
4635	0.73448	1.2727	0.1	5566.5
4636	0.73448	1.4545	0.1	5642.6
4637	0.73448	1.6364	0.1	5716.1
4638	0.73448	1.8182	0.1	5782.6
4639	0.73448	2.	0.1	5840.4
4640	0.73448	2.1818	0.1	5888.4
4641	0.73448	2.3636	0.1	5926.6
4642	0.73448	2.5455	0.1	5955.
4643	0.73448	2.7273	0.1	5973.8
4644	0.73448	2.9091	0.1	5983.1
4645	0.73448	3.0909	0.1	5983.1
4646	0.73448	3.2727	0.1	5973.8
4647	0.73448	3.4545	0.1	5955.
4648	0.73448	3.6364	0.1	5926.6
4649	0.73448	3.8182	0.1	5888.4
4650	0.73448	4.	0.1	5840.4
4651	0.73448	4.1818	0.1	5782.6
4652	0.73448	4.3636	0.1	5716.1
4653	0.73448	4.5455	0.1	5642.6
4654	0.73448	4.7273	0.1	5566.5
4655	0.73448	4.9091	0.1	5495.6
4656	0.73448	5.0909	0.1	5443.2
4657	0.73448	5.2727	0.1	5429.
4658	0.73448	5.4545	0.1	5475.5
4659	0.73448	5.6364	0.1	5598.6
4660	0.73448	5.8182	0.1	5832.8
4661	0.9181	0.18182	0.1	5977.9
4662	0.9181	0.36364	0.1	5767.7
4663	0.9181	0.54545	0.1	5634.8
4664	0.9181	0.72727	0.1	5552.2
4665	0.9181	0.90909	0.1	5516.9
4666	0.9181	1.0909	0.1	5519.1
4667	0.9181	1.2727	0.1	5546.2
4668	0.9181	1.4545	0.1	5587.1
4669	0.9181	1.6364	0.1	5633.6
4670	0.9181	1.8182	0.1	5680.1
4671	0.9181	2.	0.1	5723.1
4672	0.9181	2.1818	0.1	5760.5
4673	0.9181	2.3636	0.1	5791.3
4674	0.9181	2.5455	0.1	5814.7
4675	0.9181	2.7273	0.1	5830.4
4676	0.9181	2.9091	0.1	5838.3
4677	0.9181	3.0909	0.1	5838.3
4678	0.9181	3.2727	0.1	5830.4
4679	0.9181	3.4545	0.1	5814.7
4680	0.9181	3.6364	0.1	5791.3
4681	0.9181	3.8182	0.1	5760.5
4682	0.9181	4.	0.1	5723.1
4683	0.9181	4.1818	0.1	5680.1
4684	0.9181	4.3636	0.1	5633.6
4685	0.9181	4.5455	0.1	5587.1
4686	0.9181	4.7273	0.1	5546.2
4687	0.9181	4.9091	0.1	5519.1
4688	0.9181	5.0909	0.1	5516.9
4689	0.9181	5.2727	0.1	5552.2
4690	0.9181	5.4545	0.1	5634.8
4691	0.9181	5.6364	0.1	5767.7
4692	0.9181	5.8182	0.1	5977.9
4693	1.1017	0.18182	0.1	6046.8
4694	1.1017	0.36364	0.1	5856.4
4695	1.1017	0.54545	0.1	5723.6
4696	1.1017	0.72727	0.1	5625.4
4697	1.1017	0.90909	0.1	5562.5
4698	1.1017	1.0909	0.1	5531.5
4699	1.1017	1.2727	0.1	5525.6
4700	1.1017	1.4545	0.1	5536.8
4701	1.1017	1.6364	0.1	5558.5
4702	1.1017	1.8182	0.1	5585.
4703	1.1017	2.	0.1	5612.5
4704	1.1017	2.1818	0.1	5638.2
4705	1.1017	2.3636	0.1	5660.3
4706	1.1017	2.5455	0.1	5677.7
4707	1.1017	2.7273	0.1	5689.6
4708	1.1017	2.9091	0.1	5695.7
4709	1.1017	3.0909	0.1	5695.7
4710	1.1017	3.2727	0.1	5689.6
4711	1.1017	3.4545	0.1	5677.7
4712	1.1017	3.6364	0.1	5660.3
4713	1.1017	3.8182	0.1	5638.2
4714	1.1017	4.	0.1	5612.5
4715	1.1017	4.1818	0.1	5585.
4716	1.1017	4.3636	0.1	5558.5
4717	1.1017	4.5455	0.1	5536.8
4718	1.1017	4.7273	0.1	5525.6
4719	1.1017	4.9091	0.1	5531.5
4720	1.1017	5.0909	0.1	5562.5
4721	1.1017	5.2727	0.1	5625.4
4722	1.1017	5.4545	0.1	5723.6
4723	1.1017	5.6364	0.1	5856.4
4724	1.1017	5.8182	0.1	6046.8
4725	1.2853	0.18182	0.1	6070.8
4726	1.2853	0.36364	0.1	5899.3
4727	1.2853	0.54545	0.1	5772.3
4728	1.2853	0.72727	0.1	5669.7
4729	1.2853	0.90909	0.1	5593.1
4730	1.2853	1.0909	0.1	5542.1
4731	1.2853	1.2727	0.1	5513.5
4732	1.2853	1.4545	0.1	5502.3
4733	1.2853	1.6364	0.1	5503.5
4734	1.2853	1.8182	0.1	5512.5
4735	1.2853	2.	0.1	5525.6
4736	1.2853	2.1818	0.1	5539.9
4737	1.2853	2.3636	0.1	5553.3
4738	1.2853	2.5455	0.1	5564.5
4739	1.2853	2.7273	0.1	5572.5
4740	1.2853	2.9091	0.1	5576.6
4741	1.2853	3.0909	0.1	5576.6
4742	1.2853	3.2727	0.1	5572.5
4743	1.2853	3.4545	0.1	5564.5
4744	1.2853	3.6364	0.1	5553.3
4745	1.2853	3.8182	0.1	5539.9
4746	1.2853	4.	0.1	5525.6
4747	1.2853	4.1818	0.1	5512.5
4748	1.2853	4.3636	0.1	5503.5
4749	1.2853	4.5455	0.1	5502.3
4750	1.2853	4.7273	0.1	5513.5
4751	1.2853	4.9091	0.1	5542.1
4752	1.2853	5.0909	0.1	5593.1
4753	1.2853	5.2727	0.1	5669.7
4754	1.2853	5.4545	0.1	5772.3
4755	1.2853	5.6364	0.1	5899.3
4756	1.2853	5.8182	0.1	6070.8
4757	1.469	0.18182	0.1	6064.7
4758	1.469	0.36364	0.1	5909.7
4759	1.469	0.54545	0.1	5789.7
4760	1.469	0.72727	0.1	5687.7
4761	1.469	0.90909	0.1	5605.1
4762	1.469	1.0909	0.1	5542.7
4763	1.469	1.2727	0.1	5499.2
4764	1.469	1.4545	0.1	5471.9
4765	1.469	1.6364	0.1	5457.3
4766	1.469	1.8182	0.1	5451.8
4767	1.469	2.	0.1	5452.4
4768	1.469	2.1818	0.1	5456.4
4769	1.469	2.3636	0.1	5461.7
4770	1.469	2.5455	0.1	5467.
4771	1.469	2.7273	0.1	5471.
4772	1.469	2.9091	0.1	5473.2
4773	1.469	3.0909	0.1	5473.2
4774	1.469	3.2727	0.1	5471.
4775	1.469	3.4545	0.1	5467.
4776	1.469	3.6364	0.1	5461.7
4777	1.469	3.8182	0.1	5456.4
4778	1.469	4.	0.1	5452.4
4779	1.469	4.1818	0.1	5451.8
4780	1.469	4.3636	0.1	5457.3
4781	1.469	4.5455	0.1	5471.9
4782	1.469	4.7273	0.1	5499.2
4783	1.469	4.9091	0.1	5542.7
4784	1.469	5.0909	0.1	5605.1
4785	1.469	5.2727	0.1	5687.7
4786	1.469	5.4545	0.1	5789.7
4787	1.469	5.6364	0.1	5909.7
4788	1.469	5.8182	0.1	6064.7
4789	1.6526	0.18182	0.1	6038.5
4790	1.6526	0.36364	0.1	5897.9
4791	1.6526	0.54545	0.1	5785.5
4792	1.6526	0.72727	0.1	5686.6
4793	1.6526	0.90909	0.1	5602.3
4794	1.6526	1.0909	0.1	5534.
4795	1.6526	1.2727	0.1	5481.5
4796	1.6526	1.4545	0.1	5443.2
4797	1.6526	1.6364	0.1	5416.9
4798	1.6526	1.8182	0.1	5400.2
4799	1.6526	2.	0.1	5390.6
4800	1.6526	2.1818	0.1	5385.8
4801	1.6526	2.3636	0.1	5384.1
4802	1.6526	2.5455	0.1	5384.
4803	1.6526	2.7273	0.1	5384.5
4804	1.6526	2.9091	0.1	5384.9
4805	1.6526	3.0909	0.1	5384.9
4806	1.6526	3.2727	0.1	5384.5
4807	1.6526	3.4545	0.1	5384.
4808	1.6526	3.6364	0.1	5384.1
4809	1.6526	3.8182	0.1	5385.8
4810	1.6526	4.	0.1	5390.6
4811	1.6526	4.1818	0.1	5400.2
4812	1.6526	4.3636	0.1	5416.9
4813	1.6526	4.5455	0.1	5443.2
4814	1.6526	4.7273	0.1	5481.5
4815	1.6526	4.9091	0.1	5534.
4816	1.6526	5.0909	0.1	5602.3
4817	1.6526	5.2727	0.1	5686.6
4818	1.6526	5.4545	0.1	5785.5
4819	1.6526	5.6364	0.1	5897.9
4820	1.6526	5.8182	0.1	6038.5
4821	1.8362	0.18182	0.1	5998.5
4822	1.8362	0.36364	0.1	5870.6
4823	1.8362	0.54545	0.1	5765.5
4824	1.8362	0.72727	0.1	5670.8
4825	1.8362	0.90909	0.1	5587.5
4826	1.8362	1.0909	0.1	5516.8
4827	1.8362	1.2727	0.1	5459.1
4828	1.8362	1.4545	0.1	5413.8
4829	1.8362	1.6364	0.1	5379.4
4830	1.8362	1.8182	0.1	5354.4
4831	1.8362	2.	0.1	5336.8
4832	1.8362	2.1818	0.1	5325.
4833	1.8362	2.3636	0.1	5317.5
4834	1.8362	2.5455	0.1	5312.9
4835	1.8362	2.7273	0.1	5310.3
4836	1.8362	2.9091	0.1	5309.2
4837	1.8362	3.0909	0.1	5309.2
4838	1.8362	3.2727	0.1	5310.3
4839	1.8362	3.4545	0.1	5312.9
4840	1.8362	3.6364	0.1	5317.5
4841	1.8362	3.8182	0.1	5325.
4842	1.8362	4.	0.1	5336.8
4843	1.8362	4.1818	0.1	5354.4
4844	1.8362	4.3636	0.1	5379.4
4845	1.8362	4.5455	0.1	5413.8
4846	1.8362	4.7273	0.1	5459.1
4847	1.8362	4.9091	0.1	5516.8
4848	1.8362	5.0909	0.1	5587.5
4849	1.8362	5.2727	0.1	5670.8
4850	1.8362	5.4545	0.1	5765.5
4851	1.8362	5.6364	0.1	5870.6
4852	1.8362	5.8182	0.1	5998.5
4853	2.0198	0.18182	0.1	5948.9
4854	2.0198	0.36364	0.1	5832.2
4855	2.0198	0.54545	0.1	5734.2
4856	2.0198	0.72727	0.1	5644.3
4857	2.0198	0.90909	0.1	5563.3
4858	2.0198	1.0909	0.1	5492.5
4859	2.0198	1.2727	0.1	5432.4
4860	2.0198	1.4545	0.1	5382.9
4861	2.0198	1.6364	0.1	5343.2
4862	2.0198	1.8182	0.1	5312.4
4863	2.0198	2.	0.1	5289.
4864	2.0198	2.1818	0.1	5271.8
4865	2.0198	2.3636	0.1	5259.6
4866	2.0198	2.5455	0.1	5251.4
4867	2.0198	2.7273	0.1	5246.4
4868	2.0198	2.9091	0.1	5244.
4869	2.0198	3.0909	0.1	5244.
4870	2.0198	3.2727	0.1	5246.4
4871	2.0198	3.4545	0.1	5251.4
4872	2.0198	3.6364	0.1	5259.6
4873	2.0198	3.8182	0.1	5271.8
4874	2.0198	4.	0.1	5289.
4875	2.0198	4.1818	0.1	5312.4
4876	2.0198	4.3636	0.1	5343.2
4877	2.0198	4.5455	0.1	5382.9
4878	2.0198	4.7273	0.1	5432.4
4879	2.0198	4.9091	0.1	5492.5
4880	2.0198	5.0909	0.1	5563.3
4881	2.0198	5.2727	0.1	5644.3
4882	2.0198	5.4545	0.1	5734.2
4883	2.0198	5.6364	0.1	5832.2
4884	2.0198	5.8182	0.1	5948.9
4885	2.2034	0.18182	0.1	5892.7
4886	2.2034	0.36364	0.1	5786.1
4887	2.2034	0.54545	0.1	5694.6
4888	2.2034	0.72727	0.1	5609.7
4889	2.2034	0.90909	0.1	5531.9
4890	2.2034	1.0909	0.1	5462.4
4891	2.2034	1.2727	0.1	5401.8
4892	2.2034	1.4545	0.1	5350.2
4893	2.2034	1.6364	0.1	5307.4
4894	2.2034	1.8182	0.1	5272.7
4895	2.2034	2.	0.1	5245.3
4896	2.2034	2.1818	0.1	5224.3
4897	2.2034	2.3636	0.1	5208.6
4898	2.2034	2.5455	0.1	5197.7
4899	2.2034	2.7273	0.1	5190.8
4900	2.2034	2.9091	0.1	5187.4
4901	2.2034	3.0909	0.1	5187.4
4902	2.2034	3.2727	0.1	5190.8
4903	2.2034	3.4545	0.1	5197.7
4904	2.2034	3.6364	0.1	5208.6
4905	2.2034	3.8182	0.1	5224.3
4906	2.2034	4.	0.1	5245.3
4907	2.2034	4.1818	0.1	5272.7
4908	2.2034	4.3636	0.1	5307.4
4909	2.2034	4.5455	0.1	5350.2
4910	2.2034	4.7273	0.1	5401.8
4911	2.2034	4.9091	0.1	5462.4
4912	2.2034	5.0909	0.1	5531.9
4913	2.2034	5.2727	0.1	5609.7
4914	2.2034	5.4545	0.1	5694.6
4915	2.2034	5.6364	0.1	5786.1
4916	2.2034	5.8182	0.1	5892.7
4917	2.3871	0.18182	0.1	5832.1
4918	2.3871	0.36364	0.1	5734.4
4919	2.3871	0.54545	0.1	5649.1
4920	2.3871	0.72727	0.1	5569.2
4921	2.3871	0.90909	0.1	5495.1
4922	2.3871	1.0909	0.1	5427.7
4923	2.3871	1.2727	0.1	5367.9
4924	2.3871	1.4545	0.1	5315.8
4925	2.3871	1.6364	0.1	5271.5
4926	2.3871	1.8182	0.1	5234.6
4927	2.3871	2.	0.1	5204.6
4928	2.3871	2.1818	0.1	5180.9
4929	2.3871	2.3636	0.1	5162.9
4930	2.3871	2.5455	0.1	5150.
4931	2.3871	2.7273	0.1	5141.6
4932	2.3871	2.9091	0.1	5137.5
4933	2.3871	3.0909	0.1	5137.5
4934	2.3871	3.2727	0.1	5141.6
4935	2.3871	3.4545	0.1	5150.
4936	2.3871	3.6364	0.1	5162.9
4937	2.3871	3.8182	0.1	5180.9
4938	2.3871	4.	0.1	5204.6
4939	2.3871	4.1818	0.1	5234.6
4940	2.3871	4.3636	0.1	5271.5
4941	2.3871	4.5455	0.1	5315.8
4942	2.3871	4.7273	0.1	5367.9
4943	2.3871	4.9091	0.1	5427.7
4944	2.3871	5.0909	0.1	5495.1
4945	2.3871	5.2727	0.1	5569.2
4946	2.3871	5.4545	0.1	5649.1
4947	2.3871	5.6364	0.1	5734.4
4948	2.3871	5.8182	0.1	5832.1
4949	2.5707	0.18182	0.1	5768.5
4950	2.5707	0.36364	0.1	5678.8
4951	2.5707	0.54545	0.1	5599.4
4952	2.5707	0.72727	0.1	5524.3
4953	2.5707	0.90909	0.1	5454.1
4954	2.5707	1.0909	0.1	5389.5
4955	2.5707	1.2727	0.1	5331.2
4956	2.5707	1.4545	0.1	5279.7
4957	2.5707	1.6364	0.1	5235.1
4958	2.5707	1.8182	0.1	5197.2
4959	2.5707	2.	0.1	5165.8
4960	2.5707	2.1818	0.1	5140.6
4961	2.5707	2.3636	0.1	5121.
4962	2.5707	2.5455	0.1	5106.8
4963	2.5707	2.7273	0.1	5097.5
4964	2.5707	2.9091	0.1	5092.9
4965	2.5707	3.0909	0.1	5092.9
4966	2.5707	3.2727	0.1	5097.5
4967	2.5707	3.4545	0.1	5106.8
4968	2.5707	3.6364	0.1	5121.
4969	2.5707	3.8182	0.1	5140.6
4970	2.5707	4.	0.1	5165.8
4971	2.5707	4.1818	0.1	5197.2
4972	2.5707	4.3636	0.1	5235.1
4973	2.5707	4.5455	0.1	5279.7
4974	2.5707	4.7273	0.1	5331.2
4975	2.5707	4.9091	0.1	5389.5
4976	2.5707	5.0909	0.1	5454.1
4977	2.5707	5.2727	0.1	5524.3
4978	2.5707	5.4545	0.1	5599.4
4979	2.5707	5.6364	0.1	5678.8
4980	2.5707	5.8182	0.1	5768.5
4981	2.7543	0.18182	0.1	5703.
4982	2.7543	0.36364	0.1	5620.6
4983	2.7543	0.54545	0.1	5546.6
4984	2.7543	0.72727	0.1	5476.3
4985	2.7543	0.90909	0.1	5410.
4986	2.7543	1.0909	0.1	5348.5
4987	2.7543	1.2727	0.1	5292.4
4988	2.7543	1.4545	0.1	5242.2
4989	2.7543	1.6364	0.1	5198.1
4990	2.7543	1.8182	0.1	5160.2
4991	2.7543	2.	0.1	5128.3
4992	2.7543	2.1818	0.1	5102.3
4993	2.7543	2.3636	0.1	5081.9
4994	2.7543	2.5455	0.1	5066.9
4995	2.7543	2.7273	0.1	5057.1
4996	2.7543	2.9091	0.1	5052.2
4997	2.7543	3.0909	0.1	5052.2
4998	2.7543	3.2727	0.1	5057.1
4999	2.7543	3.4545	0.1	5066.9
5000	2.7543	3.6364	0.1	5081.9
5001	2.7543	3.8182	0.1	5102.3
5002	2.7543	4.	0.1	5128.3
5003	2.7543	4.1818	0.1	5160.2
5004	2.7543	4.3636	0.1	5198.1
5005	2.7543	4.5455	0.1	5242.2
5006	2.7543	4.7273	0.1	5292.4
5007	2.7543	4.9091	0.1	5348.5
5008	2.7543	5.0909	0.1	5410.
5009	2.7543	5.2727	0.1	5476.3
5010	2.7543	5.4545	0.1	5546.6
5011	2.7543	5.6364	0.1	5620.6
5012	2.7543	5.8182	0.1	5703.
5013	2.9379	0.18182	0.1	5636.4
5014	2.9379	0.36364	0.1	5560.6
5015	2.9379	0.54545	0.1	5491.7
5016	2.9379	0.72727	0.1	5425.9
5017	2.9379	0.90909	0.1	5363.5
5018	2.9379	1.0909	0.1	5305.3
5019	2.9379	1.2727	0.1	5251.8
5020	2.9379	1.4545	0.1	5203.4
5021	2.9379	1.6364	0.1	5160.4
5022	2.9379	1.8182	0.1	5123.1
5023	2.9379	2.	0.1	5091.5
5024	2.9379	2.1818	0.1	5065.4
5025	2.9379	2.3636	0.1	5044.7
5026	2.9379	2.5455	0.1	5029.4
5027	2.9379	2.7273	0.1	5019.3
5028	2.9379	2.9091	0.1	5014.3
5029	2.9379	3.0909	0.1	5014.3
5030	2.9379	3.2727	0.1	5019.3
5031	2.9379	3.4545	0.1	5029.4
5032	2.9379	3.6364	0.1	5044.7
5033	2.9379	3.8182	0.1	5065.4
5034	2.9379	4.	0.1	5091.5
5035	2.9379	4.1818	0.1	5123.1
5036	2.9379	4.3636	0.1	5160.4
5037	2.9379	4.5455	0.1	5203.4
5038	2.9379	4.7273	0.1	5251.8
5039	2.9379	4.9091	0.1	5305.3
5040	2.9379	5.0909	0.1	5363.5
5041	2.9379	5.2727	0.1	5425.9
5042	2.9379	5.4545	0.1	5491.7
5043	2.9379	5.6364	0.1	5560.6
5044	2.9379	5.8182	0.1	5636.4
5045	3.1216	0.18182	0.1	5569.3
5046	3.1216	0.36364	0.1	5499.5
5047	3.1216	0.54545	0.1	5435.4
5048	3.1216	0.72727	0.1	5373.9
5049	3.1216	0.90909	0.1	5315.4
5050	3.1216	1.0909	0.1	5260.5
5051	3.1216	1.2727	0.1	5209.7
5052	3.1216	1.4545	0.1	5163.4
5053	3.1216	1.6364	0.1	5122.1
5054	3.1216	1.8182	0.1	5085.9
5055	3.1216	2.	0.1	5054.9
5056	3.1216	2.1818	0.1	5029.2
5057	3.1216	2.3636	0.1	5008.7
5058	3.1216	2.5455	0.1	4993.5
5059	3.1216	2.7273	0.1	4983.3
5060	3.1216	2.9091	0.1	4978.3
5061	3.1216	3.0909	0.1	4978.3
5062	3.1216	3.2727	0.1	4983.3
5063	3.1216	3.4545	0.1	4993.5
5064	3.1216	3.6364	0.1	5008.7
5065	3.1216	3.8182	0.1	5029.2
5066	3.1216	4.	0.1	5054.9
5067	3.1216	4.1818	0.1	5085.9
5068	3.1216	4.3636	0.1	5122.1
5069	3.1216	4.5455	0.1	5163.4
5070	3.1216	4.7273	0.1	5209.7
5071	3.1216	4.9091	0.1	5260.5
5072	3.1216	5.0909	0.1	5315.4
5073	3.1216	5.2727	0.1	5373.9
5074	3.1216	5.4545	0.1	5435.4
5075	3.1216	5.6364	0.1	5499.5
5076	3.1216	5.8182	0.1	5569.3
5077	3.3052	0.18182	0.1	5502.1
5078	3.3052	0.36364	0.1	5437.8
5079	3.3052	0.54545	0.1	5378.1
5080	3.3052	0.72727	0.1	5320.8
5081	3.3052	0.90909	0.1	5266.
5082	3.3052	1.0909	0.1	5214.4
5083	3.3052	1.2727	0.1	5166.4
5084	3.3052	1.4545	0.1	5122.5
5085	3.3052	1.6364	0.1	5083.1
5086	3.3052	1.8182	0.1	5048.3
5087	3.3052	2.	0.1	5018.3
5088	3.3052	2.1818	0.1	4993.4
5089	3.3052	2.3636	0.1	4973.4
5090	3.3052	2.5455	0.1	4958.4
5091	3.3052	2.7273	0.1	4948.4
5092	3.3052	2.9091	0.1	4943.5
5093	3.3052	3.0909	0.1	4943.5
5094	3.3052	3.2727	0.1	4948.4
5095	3.3052	3.4545	0.1	4958.4
5096	3.3052	3.6364	0.1	4973.4
5097	3.3052	3.8182	0.1	4993.4
5098	3.3052	4.	0.1	5018.3
5099	3.3052	4.1818	0.1	5048.3
5100	3.3052	4.3636	0.1	5083.1
5101	3.3052	4.5455	0.1	5122.5
5102	3.3052	4.7273	0.1	5166.4
5103	3.3052	4.9091	0.1	5214.4
5104	3.3052	5.0909	0.1	5266.
5105	3.3052	5.2727	0.1	5320.8
5106	3.3052	5.4545	0.1	5378.1
5107	3.3052	5.6364	0.1	5437.8
5108	3.3052	5.8182	0.1	5502.1
5109	3.4888	0.18182	0.1	5435.1
5110	3.4888	0.36364	0.1	5375.8
5111	3.4888	0.54545	0.1	5320.3
5112	3.4888	0.72727	0.1	5266.8
5113	3.4888	0.90909	0.1	5215.7
5114	3.4888	1.0909	0.1	5167.3
5115	3.4888	1.2727	0.1	5122.2
5116	3.4888	1.4545	0.1	5080.8
5117	3.4888	1.6364	0.1	5043.3
5118	3.4888	1.8182	0.1	5010.2
5119	3.4888	2.	0.1	4981.5
5120	3.4888	2.1818	0.1	4957.5
5121	3.4888	2.3636	0.1	4938.2
5122	3.4888	2.5455	0.1	4923.7
5123	3.4888	2.7273	0.1	4914.1
5124	3.4888	2.9091	0.1	4909.2
5125	3.4888	3.0909	0.1	4909.2
5126	3.4888	3.2727	0.1	4914.1
5127	3.4888	3.4545	0.1	4923.7
5128	3.4888	3.6364	0.1	4938.2
5129	3.4888	3.8182	0.1	4957.5
5130	3.4888	4.	0.1	4981.5
5131	3.4888	4.1818	0.1	5010.2
5132	3.4888	4.3636	0.1	5043.3
5133	3.4888	4.5455	0.1	5080.8
5134	3.4888	4.7273	0.1	5122.2
5135	3.4888	4.9091	0.1	5167.3
5136	3.4888	5.0909	0.1	5215.7
5137	3.4888	5.2727	0.1	5266.8
5138	3.4888	5.4545	0.1	5320.3
5139	3.4888	5.6364	0.1	5375.8
5140	3.4888	5.8182	0.1	5435.1
5141	3.6724	0.18182	0.1	5368.4
5142	3.6724	0.36364	0.1	5313.7
5143	3.6724	0.54545	0.1	5262.2
5144	3.6724	0.72727	0.1	5212.4
5145	3.6724	0.90909	0.1	5164.7
5146	3.6724	1.0909	0.1	5119.5
5147	3.6724	1.2727	0.1	5077.2
5148	3.6724	1.4545	0.1	5038.2
5149	3.6724	1.6364	0.1	5002.9
5150	3.6724	1.8182	0.1	4971.5
5151	3.6724	2.	0.1	4944.3
5152	3.6724	2.1818	0.1	4921.4
5153	3.6724	2.3636	0.1	4902.9
5154	3.6724	2.5455	0.1	4889.1
5155	3.6724	2.7273	0.1	4879.8
5156	3.6724	2.9091	0.1	4875.1
5157	3.6724	3.0909	0.1	4875.1
5158	3.6724	3.2727	0.1	4879.8
5159	3.6724	3.4545	0.1	4889.1
5160	3.6724	3.6364	0.1	4903.
5161	3.6724	3.8182	0.1	4921.4
5162	3.6724	4.	0.1	4944.3
5163	3.6724	4.1818	0.1	4971.5
5164	3.6724	4.3636	0.1	5002.9
5165	3.6724	4.5455	0.1	5038.2
5166	3.6724	4.7273	0.1	5077.2
5167	3.6724	4.9091	0.1	5119.5
5168	3.6724	5.0909	0.1	5164.7
5169	3.6724	5.2727	0.1	5212.4
5170	3.6724	5.4545	0.1	5262.2
5171	3.6724	5.6364	0.1	5313.7
5172	3.6724	5.8182	0.1	5368.4
5173	3.856	0.18182	0.1	5302.3
5174	3.856	0.36364	0.1	5251.8
5175	3.856	0.54545	0.1	5203.9
5176	3.856	0.72727	0.1	5157.6
5177	3.856	0.90909	0.1	5113.2
5178	3.856	1.0909	0.1	5071.
5179	3.856	1.2727	0.1	5031.4
5180	3.856	1.4545	0.1	4994.9
5181	3.856	1.6364	0.1	4961.7
5182	3.856	1.8182	0.1	4932.2
5183	3.856	2.	0.1	4906.5
5184	3.856	2.1818	0.1	4884.8
5185	3.856	2.3636	0.1	4867.3
5186	3.856	2.5455	0.1	4854.1
5187	3.856	2.7273	0.1	4845.3
5188	3.856	2.9091	0.1	4840.8
5189	3.856	3.0909	0.1	4840.8
5190	3.856	3.2727	0.1	4845.3
5191	3.856	3.4545	0.1	4854.1
5192	3.856	3.6364	0.1	4867.3
5193	3.856	3.8182	0.1	4884.8
5194	3.856	4.	0.1	4906.5
5195	3.856	4.1818	0.1	4932.2
5196	3.856	4.3636	0.1	4961.7
5197	3.856	4.5455	0.1	4994.9
5198	3.856	4.7273	0.1	5031.4
5199	3.856	4.9091	0.1	5071.
5200	3.856	5.0909	0.1	5113.2
5201	3.856	5.2727	0.1	5157.6
5202	3.856	5.4545	0.1	5203.9
5203	3.856	5.6364	0.1	5251.8
5204	3.856	5.8182	0.1	5302.3
5205	4.0397	0.18182	0.1	5236.8
5206	4.0397	0.36364	0.1	5190.2
5207	4.0397	0.54545	0.1	5145.7
5208	4.0397	0.72727	0.1	5102.7
5209	4.0397	0.90909	0.1	5061.3
5210	4.0397	1.0909	0.1	5022.
5211	4.0397	1.2727	0.1	4985.1
5212	4.0397	1.4545	0.1	4951.
5213	4.0397	1.6364	0.1	4919.9
5214	4.0397	1.8182	0.1	4892.2
5215	4.0397	2.	0.1	4868.
5216	4.0397	2.1818	0.1	4847.6
5217	4.0397	2.3636	0.1	4831.1
5218	4.0397	2.5455	0.1	4818.7
5219	4.0397	2.7273	0.1	4810.3
5220	4.0397	2.9091	0.1	4806.1
5221	4.0397	3.0909	0.1	4806.1
5222	4.0397	3.2727	0.1	4810.3
5223	4.0397	3.4545	0.1	4818.7
5224	4.0397	3.6364	0.1	4831.1
5225	4.0397	3.8182	0.1	4847.6
5226	4.0397	4.	0.1	4868.
5227	4.0397	4.1818	0.1	4892.2
5228	4.0397	4.3636	0.1	4919.9
5229	4.0397	4.5455	0.1	4951.
5230	4.0397	4.7273	0.1	4985.1
5231	4.0397	4.9091	0.1	5022.
5232	4.0397	5.0909	0.1	5061.3
5233	4.0397	5.2727	0.1	5102.7
5234	4.0397	5.4545	0.1	5145.7
5235	4.0397	5.6364	0.1	5190.2
5236	4.0397	5.8182	0.1	5236.8
5237	4.2233	0.18182	0.1	5172.
5238	4.2233	0.36364	0.1	5128.9
5239	4.2233	0.54545	0.1	5087.6
5240	4.2233	0.72727	0.1	5047.7
5241	4.2233	0.90909	0.1	5009.2
5242	4.2233	1.0909	0.1	4972.7
5243	4.2233	1.2727	0.1	4938.3
5244	4.2233	1.4545	0.1	4906.5
5245	4.2233	1.6364	0.1	4877.5
5246	4.2233	1.8182	0.1	4851.5
5247	4.2233	2.	0.1	4828.9
5248	4.2233	2.1818	0.1	4809.8
5249	4.2233	2.3636	0.1	4794.3
5250	4.2233	2.5455	0.1	4782.6
5251	4.2233	2.7273	0.1	4774.7
5252	4.2233	2.9091	0.1	4770.8
5253	4.2233	3.0909	0.1	4770.8
5254	4.2233	3.2727	0.1	4774.7
5255	4.2233	3.4545	0.1	4782.6
5256	4.2233	3.6364	0.1	4794.3
5257	4.2233	3.8182	0.1	4809.8
5258	4.2233	4.	0.1	4828.9
5259	4.2233	4.1818	0.1	4851.5
5260	4.2233	4.3636	0.1	4877.5
5261	4.2233	4.5455	0.1	4906.5
5262	4.2233	4.7273	0.1	4938.3
5263	4.2233	4.9091	0.1	4972.7
5264	4.2233	5.0909	0.1	5009.2
5265	4.2233	5.2727	0.1	5047.7
5266	4.2233	5.4545	0.1	5087.6
5267	4.2233	5.6364	0.1	5128.9
5268	4.2233	5.8182	0.1	5172.
5269	4.4069	0.18182	0.1	5107.9
5270	4.4069	0.36364	0.1	5068.1
5271	4.4069	0.54545	0.1	5029.7
5272	4.4069	0.72727	0.1	4992.6
5273	4.4069	0.90909	0.1	4956.9
5274	4.4069	1.0909	0.1	4922.9
5275	4.4069	1.2727	0.1	4891.
5276	4.4069	1.4545	0.1	4861.4
5277	4.4069	1.6364	0.1	4834.4
5278	4.4069	1.8182	0.1	4810.2
5279	4.4069	2.	0.1	4789.
5280	4.4069	2.1818	0.1	4771.2
5281	4.4069	2.3636	0.1	4756.7
5282	4.4069	2.5455	0.1	4745.7
5283	4.4069	2.7273	0.1	4738.3
5284	4.4069	2.9091	0.1	4734.6
5285	4.4069	3.0909	0.1	4734.6
5286	4.4069	3.2727	0.1	4738.3
5287	4.4069	3.4545	0.1	4745.7
5288	4.4069	3.6364	0.1	4756.7
5289	4.4069	3.8182	0.1	4771.2
5290	4.4069	4.	0.1	4789.
5291	4.4069	4.1818	0.1	4810.2
5292	4.4069	4.3636	0.1	4834.4
5293	4.4069	4.5455	0.1	4861.4
5294	4.4069	4.7273	0.1	4891.
5295	4.4069	4.9091	0.1	4922.9
5296	4.4069	5.0909	0.1	4956.9
5297	4.4069	5.2727	0.1	4992.6
5298	4.4069	5.4545	0.1	5029.7
5299	4.4069	5.6364	0.1	5068.1
5300	4.4069	5.8182	0.1	5107.9
5301	4.5905	0.18182	0.1	5044.4
5302	4.5905	0.36364	0.1	5007.6
5303	4.5905	0.54545	0.1	4972.1
5304	4.5905	0.72727	0.1	4937.6
5305	4.5905	0.90909	0.1	4904.5
5306	4.5905	1.0909	0.1	4873.
5307	4.5905	1.2727	0.1	4843.3
5308	4.5905	1.4545	0.1	4815.8
5309	4.5905	1.6364	0.1	4790.6
5310	4.5905	1.8182	0.1	4768.1
5311	4.5905	2.	0.1	4748.5
5312	4.5905	2.1818	0.1	4731.8
5313	4.5905	2.3636	0.1	4718.3
5314	4.5905	2.5455	0.1	4708.
5315	4.5905	2.7273	0.1	4701.2
5316	4.5905	2.9091	0.1	4697.7
5317	4.5905	3.0909	0.1	4697.7
5318	4.5905	3.2727	0.1	4701.2
5319	4.5905	3.4545	0.1	4708.
5320	4.5905	3.6364	0.1	4718.3
5321	4.5905	3.8182	0.1	4731.8
5322	4.5905	4.	0.1	4748.5
5323	4.5905	4.1818	0.1	4768.1
5324	4.5905	4.3636	0.1	4790.6
5325	4.5905	4.5455	0.1	4815.8
5326	4.5905	4.7273	0.1	4843.3
5327	4.5905	4.9091	0.1	4873.
5328	4.5905	5.0909	0.1	4904.5
5329	4.5905	5.2727	0.1	4937.6
5330	4.5905	5.4545	0.1	4972.1
5331	4.5905	5.6364	0.1	5007.6
5332	4.5905	5.8182	0.1	5044.4
5333	4.7741	0.18182	0.1	4981.6
5334	4.7741	0.36364	0.1	4947.6
5335	4.7741	0.54545	0.1	4914.6
5336	4.7741	0.72727	0.1	4882.7
5337	4.7741	0.90909	0.1	4852.
5338	4.7741	1.0909	0.1	4822.7
5339	4.7741	1.2727	0.1	4795.2
5340	4.7741	1.4545	0.1	4769.6
5341	4.7741	1.6364	0.1	4746.3
5342	4.7741	1.8182	0.1	4725.4
5343	4.7741	2.	0.1	4707.1
5344	4.7741	2.1818	0.1	4691.6
5345	4.7741	2.3636	0.1	4679.
5346	4.7741	2.5455	0.1	4669.5
5347	4.7741	2.7273	0.1	4663.1
5348	4.7741	2.9091	0.1	4659.9
5349	4.7741	3.0909	0.1	4659.9
5350	4.7741	3.2727	0.1	4663.1
5351	4.7741	3.4545	0.1	4669.5
5352	4.7741	3.6364	0.1	4679.
5353	4.7741	3.8182	0.1	4691.6
5354	4.7741	4.	0.1	4707.1
5355	4.7741	4.1818	0.1	4725.4
5356	4.7741	4.3636	0.1	4746.3
5357	4.7741	4.5455	0.1	4769.6
5358	4.7741	4.7273	0.1	4795.2
5359	4.7741	4.9091	0.1	4822.7
5360	4.7741	5.0909	0.1	4852.
5361	4.7741	5.2727	0.1	4882.7
5362	4.7741	5.4545	0.1	4914.6
5363	4.7741	5.6364	0.1	4947.6
5364	4.7741	5.8182	0.1	4981.6
5365	4.9578	0.18182	0.1	4919.5
5366	4.9578	0.36364	0.1	4888.
5367	4.9578	0.54545	0.1	4857.5
5368	4.9578	0.72727	0.1	4827.9
5369	4.9578	0.90909	0.1	4799.4
5370	4.9578	1.0909	0.1	4772.3
5371	4.9578	1.2727	0.1	4746.7
5372	4.9578	1.4545	0.1	4723.1
5373	4.9578	1.6364	0.1	4701.4
5374	4.9578	1.8182	0.1	4682.
5375	4.9578	2.	0.1	4665.1
5376	4.9578	2.1818	0.1	4650.7
5377	4.9578	2.3636	0.1	4639.
5378	4.9578	2.5455	0.1	4630.1
5379	4.9578	2.7273	0.1	4624.2
5380	4.9578	2.9091	0.1	4621.2
5381	4.9578	3.0909	0.1	4621.2
5382	4.9578	3.2727	0.1	4624.2
5383	4.9578	3.4545	0.1	4630.1
5384	4.9578	3.6364	0.1	4639.
5385	4.9578	3.8182	0.1	4650.7
5386	4.9578	4.	0.1	4665.1
5387	4.9578	4.1818	0.1	4682.
5388	4.9578	4.3636	0.1	4701.4
5389	4.9578	4.5455	0.1	4723.1
5390	4.9578	4.7273	0.1	4746.7
5391	4.9578	4.9091	0.1	4772.3
5392	4.9578	5.0909	0.1	4799.4
5393	4.9578	5.2727	0.1	4827.9
5394	4.9578	5.4545	0.1	4857.5
5395	4.9578	5.6364	0.1	4888.
5396	4.9578	5.8182	0.1	4919.5
5397	5.1414	0.18182	0.1	4858.1
5398	5.1414	0.36364	0.1	4828.9
5399	5.1414	0.54545	0.1	4800.6
5400	5.1414	0.72727	0.1	4773.2
5401	5.1414	0.90909	0.1	4746.8
5402	5.1414	1.0909	0.1	4721.6
5403	5.1414	1.2727	0.1	4698.
5404	5.1414	1.4545	0.1	4676.
5405	5.1414	1.6364	0.1	4656.
5406	5.1414	1.8182	0.1	4638.
5407	5.1414	2.	0.1	4622.3
5408	5.1414	2.1818	0.1	4608.9
5409	5.1414	2.3636	0.1	4598.1
5410	5.1414	2.5455	0.1	4589.9
5411	5.1414	2.7273	0.1	4584.4
5412	5.1414	2.9091	0.1	4581.6
5413	5.1414	3.0909	0.1	4581.6
5414	5.1414	3.2727	0.1	4584.4
5415	5.1414	3.4545	0.1	4589.9
5416	5.1414	3.6364	0.1	4598.1
5417	5.1414	3.8182	0.1	4608.9
5418	5.1414	4.	0.1	4622.3
5419	5.1414	4.1818	0.1	4638.
5420	5.1414	4.3636	0.1	4656.
5421	5.1414	4.5455	0.1	4676.
5422	5.1414	4.7273	0.1	4698.
5423	5.1414	4.9091	0.1	4721.6
5424	5.1414	5.0909	0.1	4746.8
5425	5.1414	5.2727	0.1	4773.2
5426	5.1414	5.4545	0.1	4800.6
5427	5.1414	5.6364	0.1	4828.9
5428	5.1414	5.8182	0.1	4858.1
5429	5.325	0.18182	0.1	4797.2
5430	5.325	0.36364	0.1	4770.2
5431	5.325	0.54545	0.1	4744.
5432	5.325	0.72727	0.1	4718.5
5433	5.325	0.90909	0.1	4694.1
5434	5.325	1.0909	0.1	4670.8
5435	5.325	1.2727	0.1	4648.9
5436	5.325	1.4545	0.1	4628.6
5437	5.325	1.6364	0.1	4610.
5438	5.325	1.8182	0.1	4593.4
5439	5.325	2.	0.1	4578.8
5440	5.325	2.1818	0.1	4566.5
5441	5.325	2.3636	0.1	4556.5
5442	5.325	2.5455	0.1	4548.9
5443	5.325	2.7273	0.1	4543.8
5444	5.325	2.9091	0.1	4541.2
5445	5.325	3.0909	0.1	4541.2
5446	5.325	3.2727	0.1	4543.8
5447	5.325	3.4545	0.1	4548.9
5448	5.325	3.6364	0.1	4556.5
5449	5.325	3.8182	0.1	4566.5
5450	5.325	4.	0.1	4578.8
5451	5.325	4.1818	0.1	4593.4
5452	5.325	4.3636	0.1	4610.
5453	5.325	4.5455	0.1	4628.6
5454	5.325	4.7273	0.1	4648.9
5455	5.325	4.9091	0.1	4670.8
5456	5.325	5.0909	0.1	4694.1
5457	5.325	5.2727	0.1	4718.5
5458	5.325	5.4545	0.1	4744.
5459	5.325	5.6364	0.1	4770.2
5460	5.325	5.8182	0.1	4797.2
5461	5.5086	0.18182	0.1	4737.
5462	5.5086	0.36364	0.1	4711.9
5463	5.5086	0.54545	0.1	4687.6
5464	5.5086	0.72727	0.1	4664.1
5465	5.5086	0.90909	0.1	4641.4
5466	5.5086	1.0909	0.1	4619.9
5467	5.5086	1.2727	0.1	4599.6
5468	5.5086	1.4545	0.1	4580.8
5469	5.5086	1.6364	0.1	4563.6
5470	5.5086	1.8182	0.1	4548.2
5471	5.5086	2.	0.1	4534.7
5472	5.5086	2.1818	0.1	4523.3
5473	5.5086	2.3636	0.1	4514.
5474	5.5086	2.5455	0.1	4507.
5475	5.5086	2.7273	0.1	4502.3
5476	5.5086	2.9091	0.1	4499.9
5477	5.5086	3.0909	0.1	4499.9
5478	5.5086	3.2727	0.1	4502.3
5479	5.5086	3.4545	0.1	4507.
5480	5.5086	3.6364	0.1	4514.
5481	5.5086	3.8182	0.1	4523.3
5482	5.5086	4.	0.1	4534.7
5483	5.5086	4.1818	0.1	4548.2
5484	5.5086	4.3636	0.1	4563.6
5485	5.5086	4.5455	0.1	4580.8
5486	5.5086	4.7273	0.1	4599.6
5487	5.5086	4.9091	0.1	4619.9
5488	5.5086	5.0909	0.1	4641.4
5489	5.5086	5.2727	0.1	4664.1
5490	5.5086	5.4545	0.1	4687.6
5491	5.5086	5.6364	0.1	4711.9
5492	5.5086	5.8182	0.1	4737.
5493	5.6922	0.18182	0.1	4677.3
5494	5.6922	0.36364	0.1	4654.
5495	5.6922	0.54545	0.1	4631.5
5496	5.6922	0.72727	0.1	4609.7
5497	5.6922	0.90909	0.1	4588.7
5498	5.6922	1.0909	0.1	4568.8
5499	5.6922	1.2727	0.1	4550.
5500	5.6922	1.4545	0.1	4532.6
5501	5.6922	1.6364	0.1	4516.8
5502	5.6922	1.8182	0.1	4502.5
5503	5.6922	2.	0.1	4490.
5504	5.6922	2.1818	0.1	4479.5
5505	5.6922	2.3636	0.1	4470.9
5506	5.6922	2.5455	0.1	4464.4
5507	5.6922	2.7273	0.1	4460.
5508	5.6922	2.9091	0.1	4457.8
5509	5.6922	3.0909	0.1	4457.8
5510	5.6922	3.2727	0.1	4460.
5511	5.6922	3.4545	0.1	4464.4
5512	5.6922	3.6364	0.1	4470.9
5513	5.6922	3.8182	0.1	4479.5
5514	5.6922	4.	0.1	4490.
5515	5.6922	4.1818	0.1	4502.5
5516	5.6922	4.3636	0.1	4516.8
5517	5.6922	4.5455	0.1	4532.6
5518	5.6922	4.7273	0.1	4550.
5519	5.6922	4.9091	0.1	4568.8
5520	5.6922	5.0909	0.1	4588.7
5521	5.6922	5.2727	0.1	4609.7
5522	5.6922	5.4545	0.1	4631.5
5523	5.6922	5.6364	0.1	4654.
5524	5.6922	5.8182	0.1	4677.3
5525	5.8759	0.18182	0.1	4618.1
5526	5.8759	0.36364	0.1	4596.5
5527	5.8759	0.54545	0.1	4575.6
5528	5.8759	0.72727	0.1	4555.5
5529	5.8759	0.90909	0.1	4536.1
5530	5.8759	1.0909	0.1	4517.6
5531	5.8759	1.2727	0.1	4500.3
5532	5.8759	1.4545	0.1	4484.2
5533	5.8759	1.6364	0.1	4469.5
5534	5.8759	1.8182	0.1	4456.3
5535	5.8759	2.	0.1	4444.8
5536	5.8759	2.1818	0.1	4435.
5537	5.8759	2.3636	0.1	4427.1
5538	5.8759	2.5455	0.1	4421.1
5539	5.8759	2.7273	0.1	4417.
5540	5.8759	2.9091	0.1	4415.
5541	5.8759	3.0909	0.1	4415.
5542	5.8759	3.2727	0.1	4417.
5543	5.8759	3.4545	0.1	4421.1
5544	5.8759	3.6364	0.1	4427.1
5545	5.8759	3.8182	0.1	4435.
5546	5.8759	4.	0.1	4444.8
5547	5.8759	4.1818	0.1	4456.3
5548	5.8759	4.3636	0.1	4469.5
5549	5.8759	4.5455	0.1	4484.2
5550	5.8759	4.7273	0.1	4500.3
5551	5.8759	4.9091	0.1	4517.6
5552	5.8759	5.0909	0.1	4536.1
5553	5.8759	5.2727	0.1	4555.5
5554	5.8759	5.4545	0.1	4575.6
5555	5.8759	5.6364	0.1	4596.5
5556	5.8759	5.8182	0.1	4618.1
5557	6.0595	0.18182	0.1	4559.4
5558	6.0595	0.36364	0.1	4539.3
5559	6.0595	0.54545	0.1	4520.
5560	6.0595	0.72727	0.1	4501.3
5561	6.0595	0.90909	0.1	4483.4
5562	6.0595	1.0909	0.1	4466.3
5563	6.0595	1.2727	0.1	4450.3
5564	6.0595	1.4545	0.1	4435.4
5565	6.0595	1.6364	0.1	4421.8
5566	6.0595	1.8182	0.1	4409.6
5567	6.0595	2.	0.1	4399.
5568	6.0595	2.1818	0.1	4389.9
5569	6.0595	2.3636	0.1	4382.6
5570	6.0595	2.5455	0.1	4377.1
5571	6.0595	2.7273	0.1	4373.3
5572	6.0595	2.9091	0.1	4371.5
5573	6.0595	3.0909	0.1	4371.5
5574	6.0595	3.2727	0.1	4373.3
5575	6.0595	3.4545	0.1	4377.1
5576	6.0595	3.6364	0.1	4382.6
5577	6.0595	3.8182	0.1	4389.9
5578	6.0595	4.	0.1	4399.
5579	6.0595	4.1818	0.1	4409.6
5580	6.0595	4.3636	0.1	4421.8
5581	6.0595	4.5455	0.1	4435.4
5582	6.0595	4.7273	0.1	4450.3
5583	6.0595	4.9091	0.1	4466.3
5584	6.0595	5.0909	0.1	4483.4
5585	6.0595	5.2727	0.1	4501.3
5586	6.0595	5.4545	0.1	4520.
5587	6.0595	5.6364	0.1	4539.3
5588	6.0595	5.8182	0.1	4559.4
5589	6.2431	0.18182	0.1	4501.2
5590	6.2431	0.36364	0.1	4482.5
5591	6.2431	0.54545	0.1	4464.7
5592	6.2431	0.72727	0.1	4447.3
5593	6.2431	0.90909	0.1	4430.7
5594	6.2431	1.0909	0.1	4414.9
5595	6.2431	1.2727	0.1	4400.1
5596	6.2431	1.4545	0.1	4386.3
5597	6.2431	1.6364	0.1	4373.8
5598	6.2431	1.8182	0.1	4362.5
5599	6.2431	2.	0.1	4352.7
5600	6.2431	2.1818	0.1	4344.3
5601	6.2431	2.3636	0.1	4337.6
5602	6.2431	2.5455	0.1	4332.4
5603	6.2431	2.7273	0.1	4329.
5604	6.2431	2.9091	0.1	4327.3
5605	6.2431	3.0909	0.1	4327.3
5606	6.2431	3.2727	0.1	4329.
5607	6.2431	3.4545	0.1	4332.4
5608	6.2431	3.6364	0.1	4337.6
5609	6.2431	3.8182	0.1	4344.3
5610	6.2431	4.	0.1	4352.7
5611	6.2431	4.1818	0.1	4362.5
5612	6.2431	4.3636	0.1	4373.8
5613	6.2431	4.5455	0.1	4386.3
5614	6.2431	4.7273	0.1	4400.1
5615	6.2431	4.9091	0.1	4414.9
5616	6.2431	5.0909	0.1	4430.7
5617	6.2431	5.2727	0.1	4447.3
5618	6.2431	5.4545	0.1	4464.7
5619	6.2431	5.6364	0.1	4482.6
5620	6.2431	5.8182	0.1	4501.2
5621	6.4267	0.18182	0.1	4443.5
5622	6.4267	0.36364	0.1	4426.1
5623	6.4267	0.54545	0.1	4409.5
5624	6.4267	0.72727	0.1	4393.5
5625	6.4267	0.90909	0.1	4378.1
5626	6.4267	1.0909	0.1	4363.5
5627	6.4267	1.2727	0.1	4349.8
5628	6.4267	1.4545	0.1	4337.
5629	6.4267	1.6364	0.1	4325.4
5630	6.4267	1.8182	0.1	4315.
5631	6.4267	2.	0.1	4305.9
5632	6.4267	2.1818	0.1	4298.2
5633	6.4267	2.3636	0.1	4292.
5634	6.4267	2.5455	0.1	4287.2
5635	6.4267	2.7273	0.1	4284.1
5636	6.4267	2.9091	0.1	4282.5
5637	6.4267	3.0909	0.1	4282.5
5638	6.4267	3.2727	0.1	4284.1
5639	6.4267	3.4545	0.1	4287.2
5640	6.4267	3.6364	0.1	4292.
5641	6.4267	3.8182	0.1	4298.2
5642	6.4267	4.	0.1	4305.9
5643	6.4267	4.1818	0.1	4315.
5644	6.4267	4.3636	0.1	4325.4
5645	6.4267	4.5455	0.1	4337.
5646	6.4267	4.7273	0.1	4349.8
5647	6.4267	4.9091	0.1	4363.5
5648	6.4267	5.0909	0.1	4378.1
5649	6.4267	5.2727	0.1	4393.5
5650	6.4267	5.4545	0.1	4409.5
5651	6.4267	5.6364	0.1	4426.1
5652	6.4267	5.8182	0.1	4443.5
5653	6.6103	0.18182	0.1	4386.2
5654	6.6103	0.36364	0.1	4369.9
5655	6.6103	0.54545	0.1	4354.6
5656	6.6103	0.72727	0.1	4339.7
5657	6.6103	0.90909	0.1	4325.5
5658	6.6103	1.0909	0.1	4312.
5659	6.6103	1.2727	0.1	4299.3
5660	6.6103	1.4545	0.1	4287.5
5661	6.6103	1.6364	0.1	4276.8
5662	6.6103	1.8182	0.1	4267.2
5663	6.6103	2.	0.1	4258.8
5664	6.6103	2.1818	0.1	4251.7
5665	6.6103	2.3636	0.1	4245.9
5666	6.6103	2.5455	0.1	4241.5
5667	6.6103	2.7273	0.1	4238.6
5668	6.6103	2.9091	0.1	4237.1
5669	6.6103	3.0909	0.1	4237.1
5670	6.6103	3.2727	0.1	4238.6
5671	6.6103	3.4545	0.1	4241.5
5672	6.6103	3.6364	0.1	4245.9
5673	6.6103	3.8182	0.1	4251.7
5674	6.6103	4.	0.1	4258.8
5675	6.6103	4.1818	0.1	4267.2
5676	6.6103	4.3636	0.1	4276.8
5677	6.6103	4.5455	0.1	4287.5
5678	6.6103	4.7273	0.1	4299.3
5679	6.6103	4.9091	0.1	4312.
5680	6.6103	5.0909	0.1	4325.5
5681	6.6103	5.2727	0.1	4339.7
5682	6.6103	5.4545	0.1	4354.6
5683	6.6103	5.6364	0.1	4369.9
5684	6.6103	5.8182	0.1	4386.2
5685	6.794	0.18182	0.1	4329.3
5686	6.794	0.36364	0.1	4314.1
5687	6.794	0.54545	0.1	4299.9
5688	6.794	0.72727	0.1	4286.1
5689	6.794	0.90909	0.1	4272.9
5690	6.794	1.0909	0.1	4260.4
5691	6.794	1.2727	0.1	4248.7
5692	6.794	1.4545	0.1	4237.8
5693	6.794	1.6364	0.1	4227.9
5694	6.794	1.8182	0.1	4219.
5695	6.794	2.	0.1	4211.2
5696	6.794	2.1818	0.1	4204.7
5697	6.794	2.3636	0.1	4199.3
5698	6.794	2.5455	0.1	4195.3
5699	6.794	2.7273	0.1	4192.6
5700	6.794	2.9091	0.1	4191.2
5701	6.794	3.0909	0.1	4191.2
5702	6.794	3.2727	0.1	4192.6
5703	6.794	3.4545	0.1	4195.3
5704	6.794	3.6364	0.1	4199.3
5705	6.794	3.8182	0.1	4204.7
5706	6.794	4.	0.1	4211.2
5707	6.794	4.1818	0.1	4219.
5708	6.794	4.3636	0.1	4227.9
5709	6.794	4.5455	0.1	4237.8
5710	6.794	4.7273	0.1	4248.7
5711	6.794	4.9091	0.1	4260.4
5712	6.794	5.0909	0.1	4272.9
5713	6.794	5.2727	0.1	4286.1
5714	6.794	5.4545	0.1	4299.9
5715	6.794	5.6364	0.1	4314.1
5716	6.794	5.8182	0.1	4329.3
5717	6.9776	0.18182	0.1	4272.7
5718	6.9776	0.36364	0.1	4258.6
5719	6.9776	0.54545	0.1	4245.4
5720	6.9776	0.72727	0.1	4232.6
5721	6.9776	0.90909	0.1	4220.4
5722	6.9776	1.0909	0.1	4208.8
5723	6.9776	1.2727	0.1	4198.
5724	6.9776	1.4545	0.1	4187.9
5725	6.9776	1.6364	0.1	4178.7
5726	6.9776	1.8182	0.1	4170.5
5727	6.9776	2.	0.1	4163.3
5728	6.9776	2.1818	0.1	4157.3
5729	6.9776	2.3636	0.1	4152.3
5730	6.9776	2.5455	0.1	4148.6
5731	6.9776	2.7273	0.1	4146.1
5732	6.9776	2.9091	0.1	4144.9
5733	6.9776	3.0909	0.1	4144.9
5734	6.9776	3.2727	0.1	4146.1
5735	6.9776	3.4545	0.1	4148.6
5736	6.9776	3.6364	0.1	4152.3
5737	6.9776	3.8182	0.1	4157.3
5738	6.9776	4.	0.1	4163.3
5739	6.9776	4.1818	0.1	4170.5
5740	6.9776	4.3636	0.1	4178.7
5741	6.9776	4.5455	0.1	4187.9
5742	6.9776	4.7273	0.1	4198.
5743	6.9776	4.9091	0.1	4208.8
5744	6.9776	5.0909	0.1	4220.4
5745	6.9776	5.2727	0.1	4232.6
5746	6.9776	5.4545	0.1	4245.4
5747	6.9776	5.6364	0.1	4258.6
5748	6.9776	5.8182	0.1	4272.7
5749	7.1612	0.18182	0.1	4216.6
5750	7.1612	0.36364	0.1	4203.3
5751	7.1612	0.54545	0.1	4191.1
5752	7.1612	0.72727	0.1	4179.3
5753	7.1612	0.90909	0.1	4168.
5754	7.1612	1.0909	0.1	4157.2
5755	7.1612	1.2727	0.1	4147.2
5756	7.1612	1.4545	0.1	4137.9
5757	7.1612	1.6364	0.1	4129.4
5758	7.1612	1.8182	0.1	4121.8
5759	7.1612	2.	0.1	4115.2
5760	7.1612	2.1818	0.1	4109.5
5761	7.1612	2.3636	0.1	4105.
5762	7.1612	2.5455	0.1	4101.5
5763	7.1612	2.7273	0.1	4099.2
5764	7.1612	2.9091	0.1	4098.1
5765	7.1612	3.0909	0.1	4098.1
5766	7.1612	3.2727	0.1	4099.2
5767	7.1612	3.4545	0.1	4101.5
5768	7.1612	3.6364	0.1	4105.
5769	7.1612	3.8182	0.1	4109.5
5770	7.1612	4.	0.1	4115.2
5771	7.1612	4.1818	0.1	4121.8
5772	7.1612	4.3636	0.1	4129.4
5773	7.1612	4.5455	0.1	4137.9
5774	7.1612	4.7273	0.1	4147.2
5775	7.1612	4.9091	0.1	4157.2
5776	7.1612	5.0909	0.1	4168.
5777	7.1612	5.2727	0.1	4179.3
5778	7.1612	5.4545	0.1	4191.1
5779	7.1612	5.6364	0.1	4203.3
5780	7.1612	5.8182	0.1	4216.6
5781	7.3448	0.18182	0.1	4160.7
5782	7.3448	0.36364	0.1	4148.3
5783	7.3448	0.54545	0.1	4137.
5784	7.3448	0.72727	0.1	4126.
5785	7.3448	0.90909	0.1	4115.5
5786	7.3448	1.0909	0.1	4105.6
5787	7.3448	1.2727	0.1	4096.3
5788	7.3448	1.4545	0.1	4087.7
5789	7.3448	1.6364	0.1	4079.8
5790	7.3448	1.8182	0.1	4072.8
5791	7.3448	2.	0.1	4066.7
5792	7.3448	2.1818	0.1	4061.5
5793	7.3448	2.3636	0.1	4057.3
5794	7.3448	2.5455	0.1	4054.1
5795	7.3448	2.7273	0.1	4052.
5796	7.3448	2.9091	0.1	4050.9
5797	7.3448	3.0909	0.1	4050.9
5798	7.3448	3.2727	0.1	4052.
5799	7.3448	3.4545	0.1	4054.1
5800	7.3448	3.6364	0.1	4057.3
5801	7.3448	3.8182	0.1	4061.5
5802	7.3448	4.	0.1	4066.7
5803	7.3448	4.1818	0.1	4072.8
5804	7.3448	4.3636	0.1	4079.8
5805	7.3448	4.5455	0.1	4087.7
5806	7.3448	4.7273	0.1	4096.3
5807	7.3448	4.9091	0.1	4105.6
5808	7.3448	5.0909	0.1	4115.5
5809	7.3448	5.2727	0.1	4126.
5810	7.3448	5.4545	0.1	4137.
5811	7.3448	5.6364	0.1	4148.3
5812	7.3448	5.8182	0.1	4160.7
5813	7.5284	0.18182	0.1	4105.3
5814	7.5284	0.36364	0.1	4093.6
5815	7.5284	0.54545	0.1	4083.1
5816	7.5284	0.72727	0.1	4072.9
5817	7.5284	0.90909	0.1	4063.2
5818	7.5284	1.0909	0.1	4054.
5819	7.5284	1.2727	0.1	4045.4
5820	7.5284	1.4545	0.1	4037.4
5821	7.5284	1.6364	0.1	4030.1
5822	7.5284	1.8182	0.1	4023.7
5823	7.5284	2.	0.1	4018.
5824	7.5284	2.1818	0.1	4013.2
5825	7.5284	2.3636	0.1	4009.3
5826	7.5284	2.5455	0.1	4006.4
5827	7.5284	2.7273	0.1	4004.4
5828	7.5284	2.9091	0.1	4003.4
5829	7.5284	3.0909	0.1	4003.4
5830	7.5284	3.2727	0.1	4004.4
5831	7.5284	3.4545	0.1	4006.4
5832	7.5284	3.6364	0.1	4009.3
5833	7.5284	3.8182	0.1	4013.2
5834	7.5284	4.	0.1	4018.
5835	7.5284	4.1818	0.1	4023.7
5836	7.5284	4.3636	0.1	4030.1
5837	7.5284	4.5455	0.1	4037.4
5838	7.5284	4.7273	0.1	4045.4
5839	7.5284	4.9091	0.1	4054.
5840	7.5284	5.0909	0.1	4063.2
5841	7.5284	5.2727	0.1	4072.9
5842	7.5284	5.4545	0.1	4083.1
5843	7.5284	5.6364	0.1	4093.6
5844	7.5284	5.8182	0.1	4105.3
5845	7.7121	0.18182	0.1	4050.1
5846	7.7121	0.36364	0.1	4039.1
5847	7.7121	0.54545	0.1	4029.3
5848	7.7121	0.72727	0.1	4019.9
5849	7.7121	0.90909	0.1	4010.9
5850	7.7121	1.0909	0.1	4002.4
5851	7.7121	1.2727	0.1	3994.4
5852	7.7121	1.4545	0.1	3987.
5853	7.7121	1.6364	0.1	3980.3
5854	7.7121	1.8182	0.1	3974.3
5855	7.7121	2.	0.1	3969.1
5856	7.7121	2.1818	0.1	3964.6
5857	7.7121	2.3636	0.1	3961.
5858	7.7121	2.5455	0.1	3958.3
5859	7.7121	2.7273	0.1	3956.5
5860	7.7121	2.9091	0.1	3955.6
5861	7.7121	3.0909	0.1	3955.6
5862	7.7121	3.2727	0.1	3956.5
5863	7.7121	3.4545	0.1	3958.3
5864	7.7121	3.6364	0.1	3961.
5865	7.7121	3.8182	0.1	3964.6
5866	7.7121	4.	0.1	3969.1
5867	7.7121	4.1818	0.1	3974.3
5868	7.7121	4.3636	0.1	3980.3
5869	7.7121	4.5455	0.1	3987.
5870	7.7121	4.7273	0.1	3994.4
5871	7.7121	4.9091	0.1	4002.4
5872	7.7121	5.0909	0.1	4010.9
5873	7.7121	5.2727	0.1	4019.9
5874	7.7121	5.4545	0.1	4029.3
5875	7.7121	5.6364	0.1	4039.1
5876	7.7121	5.8182	0.1	4050.1
5877	7.8957	0.18182	0.1	3995.2
5878	7.8957	0.36364	0.1	3984.9
5879	7.8957	0.54545	0.1	3975.8
5880	7.8957	0.72727	0.1	3967.1
5881	7.8957	0.90909	0.1	3958.7
5882	7.8957	1.0909	0.1	3950.8
5883	7.8957	1.2727	0.1	3943.4
5884	7.8957	1.4545	0.1	3936.6
5885	7.8957	1.6364	0.1	3930.4
5886	7.8957	1.8182	0.1	3924.8
5887	7.8957	2.	0.1	3920.
5888	7.8957	2.1818	0.1	3915.9
5889	7.8957	2.3636	0.1	3912.5
5890	7.8957	2.5455	0.1	3910.
5891	7.8957	2.7273	0.1	3908.3
5892	7.8957	2.9091	0.1	3907.5
5893	7.8957	3.0909	0.1	3907.5
5894	7.8957	3.2727	0.1	3908.3
5895	7.8957	3.4545	0.1	3910.
5896	7.8957	3.6364	0.1	3912.5
5897	7.8957	3.8182	0.1	3915.9
5898	7.8957	4.	0.1	3920.
5899	7.8957	4.1818	0.1	3924.8
5900	7.8957	4.3636	0.1	3930.4
5901	7.8957	4.5455	0.1	3936.6
5902	7.8957	4.7273	0.1	3943.4
5903	7.8957	4.9091	0.1	3950.8
5904	7.8957	5.0909	0.1	3958.7
5905	7.8957	5.2727	0.1	3967.1
5906	7.8957	5.4545	0.1	3975.8
5907	7.8957	5.6364	0.1	3984.9
5908	7.8957	5.8182	0.1	3995.2
5909	8.0793	0.18182	0.1	3940.7
5910	8.0793	0.36364	0.1	3930.9
5911	8.0793	0.54545	0.1	3922.5
5912	8.0793	0.72727	0.1	3914.4
5913	8.0793	0.90909	0.1	3906.6
5914	8.0793	1.0909	0.1	3899.3
5915	8.0793	1.2727	0.1	3892.5
5916	8.0793	1.4545	0.1	3886.1
5917	8.0793	1.6364	0.1	3880.4
5918	8.0793	1.8182	0.1	3875.2
5919	8.0793	2.	0.1	3870.7
5920	8.0793	2.1818	0.1	3866.9
5921	8.0793	2.3636	0.1	3863.8
5922	8.0793	2.5455	0.1	3861.5
5923	8.0793	2.7273	0.1	3859.9
5924	8.0793	2.9091	0.1	3859.2
5925	8.0793	3.0909	0.1	3859.2
5926	8.0793	3.2727	0.1	3859.9
5927	8.0793	3.4545	0.1	3861.5
5928	8.0793	3.6364	0.1	3863.8
5929	8.0793	3.8182	0.1	3866.9
5930	8.0793	4.	0.1	3870.7
5931	8.0793	4.1818	0.1	3875.2
5932	8.0793	4.3636	0.1	3880.4
5933	8.0793	4.5455	0.1	3886.1
5934	8.0793	4.7273	0.1	3892.5
5935	8.0793	4.9091	0.1	3899.3
5936	8.0793	5.0909	0.1	3906.6
5937	8.0793	5.2727	0.1	3914.4
5938	8.0793	5.4545	0.1	3922.5
5939	8.0793	5.6364	0.1	3930.9
5940	8.0793	5.8182	0.1	3940.7
5941	8.2629	0.18182	0.1	3886.4
5942	8.2629	0.36364	0.1	3877.2
5943	8.2629	0.54545	0.1	3869.3
5944	8.2629	0.72727	0.1	3861.8
5945	8.2629	0.90909	0.1	3854.6
5946	8.2629	1.0909	0.1	3847.8
5947	8.2629	1.2727	0.1	3841.5
5948	8.2629	1.4545	0.1	3835.6
5949	8.2629	1.6364	0.1	3830.3
5950	8.2629	1.8182	0.1	3825.5
5951	8.2629	2.	0.1	3821.3
5952	8.2629	2.1818	0.1	3817.8
5953	8.2629	2.3636	0.1	3815.
5954	8.2629	2.5455	0.1	3812.8
5955	8.2629	2.7273	0.1	3811.4
5956	8.2629	2.9091	0.1	3810.6
5957	8.2629	3.0909	0.1	3810.6
5958	8.2629	3.2727	0.1	3811.4
5959	8.2629	3.4545	0.1	3812.8
5960	8.2629	3.6364	0.1	3815.
5961	8.2629	3.8182	0.1	3817.8
5962	8.2629	4.	0.1	3821.3
5963	8.2629	4.1818	0.1	3825.5
5964	8.2629	4.3636	0.1	3830.3
5965	8.2629	4.5455	0.1	3835.6
5966	8.2629	4.7273	0.1	3841.5
5967	8.2629	4.9091	0.1	3847.8
5968	8.2629	5.0909	0.1	3854.6
5969	8.2629	5.2727	0.1	3861.8
5970	8.2629	5.4545	0.1	3869.3
5971	8.2629	5.6364	0.1	3877.2
5972	8.2629	5.8182	0.1	3886.4
5973	8.4466	0.18182	0.1	3832.4
5974	8.4466	0.36364	0.1	3823.7
5975	8.4466	0.54545	0.1	3816.4
5976	8.4466	0.72727	0.1	3809.4
5977	8.4466	0.90909	0.1	3802.7
5978	8.4466	1.0909	0.1	3796.4
5979	8.4466	1.2727	0.1	3790.5
5980	8.4466	1.4545	0.1	3785.1
5981	8.4466	1.6364	0.1	3780.1
5982	8.4466	1.8182	0.1	3775.7
5983	8.4466	2.	0.1	3771.8
5984	8.4466	2.1818	0.1	3768.6
5985	8.4466	2.3636	0.1	3765.9
5986	8.4466	2.5455	0.1	3763.9
5987	8.4466	2.7273	0.1	3762.6
5988	8.4466	2.9091	0.1	3761.9
5989	8.4466	3.0909	0.1	3761.9
5990	8.4466	3.2727	0.1	3762.6
5991	8.4466	3.4545	0.1	3763.9
5992	8.4466	3.6364	0.1	3765.9
5993	8.4466	3.8182	0.1	3768.6
5994	8.4466	4.	0.1	3771.8
5995	8.4466	4.1818	0.1	3775.7
5996	8.4466	4.3636	0.1	3780.1
5997	8.4466	4.5455	0.1	3785.1
5998	8.4466	4.7273	0.1	3790.5
5999	8.4466	4.9091	0.1	3796.4
6000	8.4466	5.0909	0.1	3802.7
6001	8.4466	5.2727	0.1	3809.4
6002	8.4466	5.4545	0.1	3816.4
6003	8.4466	5.6364	0.1	3823.7
6004	8.4466	5.8182	0.1	3832.4
6005	8.6302	0.18182	0.1	3778.6
6006	8.6302	0.36364	0.1	3770.4
6007	8.6302	0.54545	0.1	3763.6
6008	8.6302	0.72727	0.1	3757.1
6009	8.6302	0.90909	0.1	3750.9
6010	8.6302	1.0909	0.1	3745.
6011	8.6302	1.2727	0.1	3739.6
6012	8.6302	1.4545	0.1	3734.5
6013	8.6302	1.6364	0.1	3729.9
6014	8.6302	1.8182	0.1	3725.8
6015	8.6302	2.	0.1	3722.2
6016	8.6302	2.1818	0.1	3719.2
6017	8.6302	2.3636	0.1	3716.8
6018	8.6302	2.5455	0.1	3714.9
6019	8.6302	2.7273	0.1	3713.7
6020	8.6302	2.9091	0.1	3713.1
6021	8.6302	3.0909	0.1	3713.1
6022	8.6302	3.2727	0.1	3713.7
6023	8.6302	3.4545	0.1	3714.9
6024	8.6302	3.6364	0.1	3716.8
6025	8.6302	3.8182	0.1	3719.2
6026	8.6302	4.	0.1	3722.2
6027	8.6302	4.1818	0.1	3725.8
6028	8.6302	4.3636	0.1	3729.9
6029	8.6302	4.5455	0.1	3734.5
6030	8.6302	4.7273	0.1	3739.6
6031	8.6302	4.9091	0.1	3745.
6032	8.6302	5.0909	0.1	3750.9
6033	8.6302	5.2727	0.1	3757.1
6034	8.6302	5.4545	0.1	3763.6
6035	8.6302	5.6364	0.1	3770.4
6036	8.6302	5.8182	0.1	3778.6
6037	8.8138	0.18182	0.1	3725.2
6038	8.8138	0.36364	0.1	3717.3
6039	8.8138	0.54545	0.1	3711.
6040	8.8138	0.72727	0.1	3704.9
6041	8.8138	0.90909	0.1	3699.2
6042	8.8138	1.0909	0.1	3693.7
6043	8.8138	1.2727	0.1	3688.7
6044	8.8138	1.4545	0.1	3684.
6045	8.8138	1.6364	0.1	3679.7
6046	8.8138	1.8182	0.1	3675.9
6047	8.8138	2.	0.1	3672.6
6048	8.8138	2.1818	0.1	3669.8
6049	8.8138	2.3636	0.1	3667.5
6050	8.8138	2.5455	0.1	3665.8
6051	8.8138	2.7273	0.1	3664.7
6052	8.8138	2.9091	0.1	3664.1
6053	8.8138	3.0909	0.1	3664.1
6054	8.8138	3.2727	0.1	3664.7
6055	8.8138	3.4545	0.1	3665.8
6056	8.8138	3.6364	0.1	3667.5
6057	8.8138	3.8182	0.1	3669.8
6058	8.8138	4.	0.1	3672.6
6059	8.8138	4.1818	0.1	3675.9
6060	8.8138	4.3636	0.1	3679.7
6061	8.8138	4.5455	0.1	3684.
6062	8.8138	4.7273	0.1	3688.7
6063	8.8138	4.9091	0.1	3693.7
6064	8.8138	5.0909	0.1	3699.2
6065	8.8138	5.2727	0.1	3704.9
6066	8.8138	5.4545	0.1	3711.
6067	8.8138	5.6364	0.1	3717.3
6068	8.8138	5.8182	0.1	3725.2
6069	8.9974	0.18182	0.1	3672.
6070	8.9974	0.36364	0.1	3664.5
6071	8.9974	0.54545	0.1	3658.6
6072	8.9974	0.72727	0.1	3653.
6073	8.9974	0.90909	0.1	3647.6
6074	8.9974	1.0909	0.1	3642.5
6075	8.9974	1.2727	0.1	3637.8
6076	8.9974	1.4545	0.1	3633.5
6077	8.9974	1.6364	0.1	3629.5
6078	8.9974	1.8182	0.1	3626.
6079	8.9974	2.	0.1	3622.9
6080	8.9974	2.1818	0.1	3620.3
6081	8.9974	2.3636	0.1	3618.2
6082	8.9974	2.5455	0.1	3616.6
6083	8.9974	2.7273	0.1	3615.6
6084	8.9974	2.9091	0.1	3615.
6085	8.9974	3.0909	0.1	3615.
6086	8.9974	3.2727	0.1	3615.6
6087	8.9974	3.4545	0.1	3616.6
6088	8.9974	3.6364	0.1	3618.2
6089	8.9974	3.8182	0.1	3620.3
6090	8.9974	4.	0.1	3622.9
6091	8.9974	4.1818	0.1	3626.
6092	8.9974	4.3636	0.1	3629.5
6093	8.9974	4.5455	0.1	3633.5
6094	8.9974	4.7273	0.1	3637.8
6095	8.9974	4.9091	0.1	3642.5
6096	8.9974	5.0909	0.1	3647.6
6097	8.9974	5.2727	0.1	3653.
6098	8.9974	5.4545	0.1	3658.6
6099	8.9974	5.6364	0.1	3664.5
6100	8.9974	5.8182	0.1	3672.
6101	9.181	0.18182	0.1	3619.
6102	9.181	0.36364	0.1	3611.9
6103	9.181	0.54545	0.1	3606.4
6104	9.181	0.72727	0.1	3601.1
6105	9.181	0.90909	0.1	3596.1
6106	9.181	1.0909	0.1	3591.4
6107	9.181	1.2727	0.1	3587.
6108	9.181	1.4545	0.1	3583.
6109	9.181	1.6364	0.1	3579.3
6110	9.181	1.8182	0.1	3576.
6111	9.181	2.	0.1	3573.2
6112	9.181	2.1818	0.1	3570.8
6113	9.181	2.3636	0.1	3568.8
6114	9.181	2.5455	0.1	3567.4
6115	9.181	2.7273	0.1	3566.4
6116	9.181	2.9091	0.1	3565.9
6117	9.181	3.0909	0.1	3565.9
6118	9.181	3.2727	0.1	3566.4
6119	9.181	3.4545	0.1	3567.4
6120	9.181	3.6364	0.1	3568.8
6121	9.181	3.8182	0.1	3570.8
6122	9.181	4.	0.1	3573.2
6123	9.181	4.1818	0.1	3576.
6124	9.181	4.3636	0.1	3579.3
6125	9.181	4.5455	0.1	3583.
6126	9.181	4.7273	0.1	3587.
6127	9.181	4.9091	0.1	3591.4
6128	9.181	5.0909	0.1	3596.1
6129	9.181	5.2727	0.1	3601.1
6130	9.181	5.4545	0.1	3606.4
6131	9.181	5.6364	0.1	3611.9
6132	9.181	5.8182	0.1	3619.
6133	9.3647	0.18182	0.1	3566.3
6134	9.3647	0.36364	0.1	3559.5
6135	9.3647	0.54545	0.1	3554.3
6136	9.3647	0.72727	0.1	3549.4
6137	9.3647	0.90909	0.1	3544.8
6138	9.3647	1.0909	0.1	3540.4
6139	9.3647	1.2727	0.1	3536.3
6140	9.3647	1.4545	0.1	3532.6
6141	9.3647	1.6364	0.1	3529.1
6142	9.3647	1.8182	0.1	3526.1
6143	9.3647	2.	0.1	3523.4
6144	9.3647	2.1818	0.1	3521.2
6145	9.3647	2.3636	0.1	3519.4
6146	9.3647	2.5455	0.1	3518.
6147	9.3647	2.7273	0.1	3517.1
6148	9.3647	2.9091	0.1	3516.7
6149	9.3647	3.0909	0.1	3516.7
6150	9.3647	3.2727	0.1	3517.1
6151	9.3647	3.4545	0.1	3518.
6152	9.3647	3.6364	0.1	3519.4
6153	9.3647	3.8182	0.1	3521.2
6154	9.3647	4.	0.1	3523.4
6155	9.3647	4.1818	0.1	3526.1
6156	9.3647	4.3636	0.1	3529.1
6157	9.3647	4.5455	0.1	3532.6
6158	9.3647	4.7273	0.1	3536.3
6159	9.3647	4.9091	0.1	3540.4
6160	9.3647	5.0909	0.1	3544.8
6161	9.3647	5.2727	0.1	3549.4
6162	9.3647	5.4545	0.1	3554.3
6163	9.3647	5.6364	0.1	3559.5
6164	9.3647	5.8182	0.1	3566.3
6165	9.5483	0.18182	0.1	3513.8
6166	9.5483	0.36364	0.1	3507.3
6167	9.5483	0.54545	0.1	3502.4
6168	9.5483	0.72727	0.1	3497.9
6169	9.5483	0.90909	0.1	3493.6
6170	9.5483	1.0909	0.1	3489.5
6171	9.5483	1.2727	0.1	3485.7
6172	9.5483	1.4545	0.1	3482.2
6173	9.5483	1.6364	0.1	3479.
6174	9.5483	1.8182	0.1	3476.2
6175	9.5483	2.	0.1	3473.7
6176	9.5483	2.1818	0.1	3471.6
6177	9.5483	2.3636	0.1	3470.
6178	9.5483	2.5455	0.1	3468.7
6179	9.5483	2.7273	0.1	3467.8
6180	9.5483	2.9091	0.1	3467.4
6181	9.5483	3.0909	0.1	3467.4
6182	9.5483	3.2727	0.1	3467.8
6183	9.5483	3.4545	0.1	3468.7
6184	9.5483	3.6364	0.1	3470.
6185	9.5483	3.8182	0.1	3471.6
6186	9.5483	4.	0.1	3473.7
6187	9.5483	4.1818	0.1	3476.2
6188	9.5483	4.3636	0.1	3479.
6189	9.5483	4.5455	0.1	3482.2
6190	9.5483	4.7273	0.1	3485.7
6191	9.5483	4.9091	0.1	3489.5
6192	9.5483	5.0909	0.1	3493.6
6193	9.5483	5.2727	0.1	3497.9
6194	9.5483	5.4545	0.1	3502.4
6195	9.5483	5.6364	0.1	3507.3
6196	9.5483	5.8182	0.1	3513.8
6197	9.7319	0.18182	0.1	3461.5
6198	9.7319	0.36364	0.1	3455.3
6199	9.7319	0.54545	0.1	3450.8
6200	9.7319	0.72727	0.1	3446.5
6201	9.7319	0.90909	0.1	3442.5
6202	9.7319	1.0909	0.1	3438.7
6203	9.7319	1.2727	0.1	3435.1
6204	9.7319	1.4545	0.1	3431.9
6205	9.7319	1.6364	0.1	3428.9
6206	9.7319	1.8182	0.1	3426.3
6207	9.7319	2.	0.1	3424.
6208	9.7319	2.1818	0.1	3422.1
6209	9.7319	2.3636	0.1	3420.5
6210	9.7319	2.5455	0.1	3419.3
6211	9.7319	2.7273	0.1	3418.6
6212	9.7319	2.9091	0.1	3418.2
6213	9.7319	3.0909	0.1	3418.2
6214	9.7319	3.2727	0.1	3418.6
6215	9.7319	3.4545	0.1	3419.3
6216	9.7319	3.6364	0.1	3420.5
6217	9.7319	3.8182	0.1	3422.1
6218	9.7319	4.	0.1	3424.
6219	9.7319	4.1818	0.1	3426.3
6220	9.7319	4.3636	0.1	3428.9
6221	9.7319	4.5455	0.1	3431.9
6222	9.7319	4.7273	0.1	3435.1
6223	9.7319	4.9091	0.1	3438.7
6224	9.7319	5.0909	0.1	3442.5
6225	9.7319	5.2727	0.1	3446.5
6226	9.7319	5.4545	0.1	3450.8
6227	9.7319	5.6364	0.1	3455.3
6228	9.7319	5.8182	0.1	3461.5
6229	9.9155	0.18182	0.1	3409.5
6230	9.9155	0.36364	0.1	3403.5
6231	9.9155	0.54545	0.1	3399.3
6232	9.9155	0.72727	0.1	3395.3
6233	9.9155	0.90909	0.1	3391.5
6234	9.9155	1.0909	0.1	3388.
6235	9.9155	1.2727	0.1	3384.7
6236	9.9155	1.4545	0.1	3381.7
6237	9.9155	1.6364	0.1	3378.9
6238	9.9155	1.8182	0.1	3376.5
6239	9.9155	2.	0.1	3374.3
6240	9.9155	2.1818	0.1	3372.5
6241	9.9155	2.3636	0.1	3371.1
6242	9.9155	2.5455	0.1	3370.
6243	9.9155	2.7273	0.1	3369.3
6244	9.9155	2.9091	0.1	3368.9
6245	9.9155	3.0909	0.1	3368.9
6246	9.9155	3.2727	0.1	3369.3
6247	9.9155	3.4545	0.1	3370.
6248	9.9155	3.6364	0.1	3371.1
6249	9.9155	3.8182	0.1	3372.5
6250	9.9155	4.	0.1	3374.3
6251	9.9155	4.1818	0.1	3376.5
6252	9.9155	4.3636	0.1	3378.9
6253	9.9155	4.5455	0.1	3381.7
6254	9.9155	4.7273	0.1	3384.7
6255	9.9155	4.9091	0.1	3388.
6256	9.9155	5.0909	0.1	3391.5
6257	9.9155	5.2727	0.1	3395.3
6258	9.9155	5.4545	0.1	3399.3
6259	9.9155	5.6364	0.1	3403.5
6260	9.9155	5.8182	0.1	3409.5
6261	10.099	0.18182	0.1	3357.7
6262	10.099	0.36364	0.1	3351.9
6263	10.099	0.54545	0.1	3348.
6264	10.099	0.72727	0.1	3344.3
6265	10.099	0.90909	0.1	3340.7
6266	10.099	1.0909	0.1	3337.4
6267	10.099	1.2727	0.1	3334.4
6268	10.099	1.4545	0.1	3331.5
6269	10.099	1.6364	0.1	3329.
6270	10.099	1.8182	0.1	3326.7
6271	10.099	2.	0.1	3324.7
6272	10.099	2.1818	0.1	3323.
6273	10.099	2.3636	0.1	3321.7
6274	10.099	2.5455	0.1	3320.7
6275	10.099	2.7273	0.1	3320.
6276	10.099	2.9091	0.1	3319.7
6277	10.099	3.0909	0.1	3319.7
6278	10.099	3.2727	0.1	3320.
6279	10.099	3.4545	0.1	3320.7
6280	10.099	3.6364	0.1	3321.7
6281	10.099	3.8182	0.1	3323.
6282	10.099	4.	0.1	3324.7
6283	10.099	4.1818	0.1	3326.7
6284	10.099	4.3636	0.1	3329.
6285	10.099	4.5455	0.1	3331.5
6286	10.099	4.7273	0.1	3334.4
6287	10.099	4.9091	0.1	3337.4
6288	10.099	5.0909	0.1	3340.7
6289	10.099	5.2727	0.1	3344.3
6290	10.099	5.4545	0.1	3348.
6291	10.099	5.6364	0.1	3351.9
6292	10.099	5.8182	0.1	3357.7
6293	10.283	0.18182	0.1	3306.1
6294	10.283	0.36364	0.1	3300.6
6295	10.283	0.54545	0.1	3296.8
6296	10.283	0.72727	0.1	3293.4
6297	10.283	0.90909	0.1	3290.1
6298	10.283	1.0909	0.1	3287.
6299	10.283	1.2727	0.1	3284.1
6300	10.283	1.4545	0.1	3281.5
6301	10.283	1.6364	0.1	3279.1
6302	10.283	1.8182	0.1	3277.
6303	10.283	2.	0.1	3275.2
6304	10.283	2.1818	0.1	3273.6
6305	10.283	2.3636	0.1	3272.3
6306	10.283	2.5455	0.1	3271.4
6307	10.283	2.7273	0.1	3270.8
6308	10.283	2.9091	0.1	3270.4
6309	10.283	3.0909	0.1	3270.4
6310	10.283	3.2727	0.1	3270.8
6311	10.283	3.4545	0.1	3271.4
6312	10.283	3.6364	0.1	3272.3
6313	10.283	3.8182	0.1	3273.6
6314	10.283	4.	0.1	3275.2
6315	10.283	4.1818	0.1	3277.
6316	10.283	4.3636	0.1	3279.1
6317	10.283	4.5455	0.1	3281.5
6318	10.283	4.7273	0.1	3284.1
6319	10.283	4.9091	0.1	3287.
6320	10.283	5.0909	0.1	3290.1
6321	10.283	5.2727	0.1	3293.4
6322	10.283	5.4545	0.1	3296.8
6323	10.283	5.6364	0.1	3300.6
6324	10.283	5.8182	0.1	3306.1
6325	10.466	0.18182	0.1	3254.8
6326	10.466	0.36364	0.1	3249.4
6327	10.466	0.54545	0.1	3245.9
6328	10.466	0.72727	0.1	3242.7
6329	10.466	0.90909	0.1	3239.6
6330	10.466	1.0909	0.1	3236.7
6331	10.466	1.2727	0.1	3234.
6332	10.466	1.4545	0.1	3231.6
6333	10.466	1.6364	0.1	3229.3
6334	10.466	1.8182	0.1	3227.4
6335	10.466	2.	0.1	3225.7
6336	10.466	2.1818	0.1	3224.2
6337	10.466	2.3636	0.1	3223.
6338	10.466	2.5455	0.1	3222.2
6339	10.466	2.7273	0.1	3221.6
6340	10.466	2.9091	0.1	3221.3
6341	10.466	3.0909	0.1	3221.3
6342	10.466	3.2727	0.1	3221.6
6343	10.466	3.4545	0.1	3222.2
6344	10.466	3.6364	0.1	3223.
6345	10.466	3.8182	0.1	3224.2
6346	10.466	4.	0.1	3225.7
6347	10.466	4.1818	0.1	3227.4
6348	10.466	4.3636	0.1	3229.3
6349	10.466	4.5455	0.1	3231.6
6350	10.466	4.7273	0.1	3234.
6351	10.466	4.9091	0.1	3236.7
6352	10.466	5.0909	0.1	3239.6
6353	10.466	5.2727	0.1	3242.7
6354	10.466	5.4545	0.1	3245.9
6355	10.466	5.6364	0.1	3249.4
6356	10.466	5.8182	0.1	3254.8
6357	10.65	0.18182	0.1	3203.7
6358	10.65	0.36364	0.1	3198.5
6359	10.65	0.54545	0.1	3195.2
6360	10.65	0.72727	0.1	3192.1
6361	10.65	0.90909	0.1	3189.2
6362	10.65	1.0909	0.1	3186.5
6363	10.65	1.2727	0.1	3184.
6364	10.65	1.4545	0.1	3181.7
6365	10.65	1.6364	0.1	3179.7
6366	10.65	1.8182	0.1	3177.8
6367	10.65	2.	0.1	3176.2
6368	10.65	2.1818	0.1	3174.9
6369	10.65	2.3636	0.1	3173.8
6370	10.65	2.5455	0.1	3173.
6371	10.65	2.7273	0.1	3172.4
6372	10.65	2.9091	0.1	3172.2
6373	10.65	3.0909	0.1	3172.2
6374	10.65	3.2727	0.1	3172.4
6375	10.65	3.4545	0.1	3173.
6376	10.65	3.6364	0.1	3173.8
6377	10.65	3.8182	0.1	3174.9
6378	10.65	4.	0.1	3176.2
6379	10.65	4.1818	0.1	3177.8
6380	10.65	4.3636	0.1	3179.7
6381	10.65	4.5455	0.1	3181.7
6382	10.65	4.7273	0.1	3184.
6383	10.65	4.9091	0.1	3186.5
6384	10.65	5.0909	0.1	3189.2
6385	10.65	5.2727	0.1	3192.1
6386	10.65	5.4545	0.1	3195.2
6387	10.65	5.6364	0.1	3198.5
6388	10.65	5.8182	0.1	3203.7
6389	10.834	0.18182	0.1	3152.7
6390	10.834	0.36364	0.1	3147.7
6391	10.834	0.54545	0.1	3144.6
6392	10.834	0.72727	0.1	3141.7
6393	10.834	0.90909	0.1	3139.
6394	10.834	1.0909	0.1	3136.5
6395	10.834	1.2727	0.1	3134.2
6396	10.834	1.4545	0.1	3132.
6397	10.834	1.6364	0.1	3130.1
6398	10.834	1.8182	0.1	3128.4
6399	10.834	2.	0.1	3126.9
6400	10.834	2.1818	0.1	3125.7
6401	10.834	2.3636	0.1	3124.7
6402	10.834	2.5455	0.1	3123.9
6403	10.834	2.7273	0.1	3123.4
6404	10.834	2.9091	0.1	3123.1
6405	10.834	3.0909	0.1	3123.1
6406	10.834	3.2727	0.1	3123.4
6407	10.834	3.4545	0.1	3123.9
6408	10.834	3.6364	0.1	3124.7
6409	10.834	3.8182	0.1	3125.7
6410	10.834	4.	0.1	3126.9
6411	10.834	4.1818	0.1	3128.4
6412	10.834	4.3636	0.1	3130.1
6413	10.834	4.5455	0.1	3132.
6414	10.834	4.7273	0.1	3134.2
6415	10.834	4.9091	0.1	3136.5
6416	10.834	5.0909	0.1	3139.
6417	10.834	5.2727	0.1	3141.7
6418	10.834	5.4545	0.1	3144.6
6419	10.834	5.6364	0.1	3147.7
6420	10.834	5.8182	0.1	3152.7
6421	11.017	0.18182	0.1	3102.
6422	11.017	0.36364	0.1	3097.1
6423	11.017	0.54545	0.1	3094.2
6424	11.017	0.72727	0.1	3091.5
6425	11.017	0.90909	0.1	3089.
6426	11.017	1.0909	0.1	3086.7
6427	11.017	1.2727	0.1	3084.5
6428	11.017	1.4545	0.1	3082.5
6429	11.017	1.6364	0.1	3080.7
6430	11.017	1.8182	0.1	3079.1
6431	11.017	2.	0.1	3077.7
6432	11.017	2.1818	0.1	3076.5
6433	11.017	2.3636	0.1	3075.6
6434	11.017	2.5455	0.1	3074.9
6435	11.017	2.7273	0.1	3074.4
6436	11.017	2.9091	0.1	3074.2
6437	11.017	3.0909	0.1	3074.2
6438	11.017	3.2727	0.1	3074.4
6439	11.017	3.4545	0.1	3074.9
6440	11.017	3.6364	0.1	3075.6
6441	11.017	3.8182	0.1	3076.5
6442	11.017	4.	0.1	3077.7
6443	11.017	4.1818	0.1	3079.1
6444	11.017	4.3636	0.1	3080.7
6445	11.017	4.5455	0.1	3082.5
6446	11.017	4.7273	0.1	3084.5
6447	11.017	4.9091	0.1	3086.7
6448	11.017	5.0909	0.1	3089.
6449	11.017	5.2727	0.1	3091.5
6450	11.017	5.4545	0.1	3094.2
6451	11.017	5.6364	0.1	3097.1
6452	11.017	5.8182	0.1	3102.
6453	11.201	0.18182	0.1	3051.5
6454	11.201	0.36364	0.1	3046.8
6455	11.201	0.54545	0.1	3044.
6456	11.201	0.72727	0.1	3041.5
6457	11.201	0.90909	0.1	3039.1
6458	11.201	1.0909	0.1	3036.9
6459	11.201	1.2727	0.1	3034.9
6460	11.201	1.4545	0.1	3033.
6461	11.201	1.6364	0.1	3031.4
6462	11.201	1.8182	0.1	3029.9
6463	11.201	2.	0.1	3028.6
6464	11.201	2.1818	0.1	3027.5
6465	11.201	2.3636	0.1	3026.6
6466	11.201	2.5455	0.1	3026.
6467	11.201	2.7273	0.1	3025.5
6468	11.201	2.9091	0.1	3025.3
6469	11.201	3.0909	0.1	3025.3
6470	11.201	3.2727	0.1	3025.5
6471	11.201	3.4545	0.1	3026.
6472	11.201	3.6364	0.1	3026.6
6473	11.201	3.8182	0.1	3027.5
6474	11.201	4.	0.1	3028.6
6475	11.201	4.1818	0.1	3029.9
6476	11.201	4.3636	0.1	3031.4
6477	11.201	4.5455	0.1	3033.
6478	11.201	4.7273	0.1	3034.9
6479	11.201	4.9091	0.1	3036.9
6480	11.201	5.0909	0.1	3039.1
6481	11.201	5.2727	0.1	3041.5
6482	11.201	5.4545	0.1	3044.
6483	11.201	5.6364	0.1	3046.8
6484	11.201	5.8182	0.1	3051.5
6485	11.384	0.18182	0.1	3001.3
6486	11.384	0.36364	0.1	2996.6
6487	11.384	0.54545	0.1	2994.
6488	11.384	0.72727	0.1	2991.7
6489	11.384	0.90909	0.1	2989.4
6490	11.384	1.0909	0.1	2987.4
6491	11.384	1.2727	0.1	2985.5
6492	11.384	1.4545	0.1	2983.7
6493	11.384	1.6364	0.1	2982.2
6494	11.384	1.8182	0.1	2980.8
6495	11.384	2.	0.1	2979.6
6496	11.384	2.1818	0.1	2978.6
6497	11.384	2.3636	0.1	2977.8
6498	11.384	2.5455	0.1	2977.2
6499	11.384	2.7273	0.1	2976.7
6500	11.384	2.9091	0.1	2976.5
6501	11.384	3.0909	0.1	2976.5
6502	11.384	3.2727	0.1	2976.7
6503	11.384	3.4545	0.1	2977.2
6504	11.384	3.6364	0.1	2977.8
6505	11.384	3.8182	0.1	2978.6
6506	11.384	4.	0.1	2979.6
6507	11.384	4.1818	0.1	2980.8
6508	11.384	4.3636	0.1	2982.2
6509	11.384	4.5455	0.1	2983.7
6510	11.384	4.7273	0.1	2985.5
6511	11.384	4.9091	0.1	2987.4
6512	11.384	5.0909	0.1	2989.4
6513	11.384	5.2727	0.1	2991.7
6514	11.384	5.4545	0.1	2994.
6515	11.384	5.6364	0.1	2996.6
6516	11.384	5.8182	0.1	3001.3
6517	11.568	0.18182	0.1	2951.2
6518	11.568	0.36364	0.1	2946.6
6519	11.568	0.54545	0.1	2944.2
6520	11.568	0.72727	0.1	2942.
6521	11.568	0.90909	0.1	2939.9
6522	11.568	1.0909	0.1	2938.
6523	11.568	1.2727	0.1	2936.2
6524	11.568	1.4545	0.1	2934.6
6525	11.568	1.6364	0.1	2933.1
6526	11.568	1.8182	0.1	2931.8
6527	11.568	2.	0.1	2930.7
6528	11.568	2.1818	0.1	2929.8
6529	11.568	2.3636	0.1	2929.
6530	11.568	2.5455	0.1	2928.5
6531	11.568	2.7273	0.1	2928.1
6532	11.568	2.9091	0.1	2927.9
6533	11.568	3.0909	0.1	2927.9
6534	11.568	3.2727	0.1	2928.1
6535	11.568	3.4545	0.1	2928.5
6536	11.568	3.6364	0.1	2929.
6537	11.568	3.8182	0.1	2929.8
6538	11.568	4.	0.1	2930.7
6539	11.568	4.1818	0.1	2931.8
6540	11.568	4.3636	0.1	2933.1
6541	11.568	4.5455	0.1	2934.6
6542	11.568	4.7273	0.1	2936.2
6543	11.568	4.9091	0.1	2938.
6544	11.568	5.0909	0.1	2939.9
6545	11.568	5.2727	0.1	2942.
6546	11.568	5.4545	0.1	2944.2
6547	11.568	5.6364	0.1	2946.6
6548	11.568	5.8182	0.1	2951.2
6549	11.752	0.18182	0.1	2901.3
6550	11.752	0.36364	0.1	2896.9
6551	11.752	0.54545	0.1	2894.6
6552	11.752	0.72727	0.1	2892.5
6553	11.752	0.90909	0.1	2890.5
6554	11.752	1.0909	0.1	2888.7
6555	11.752	1.2727	0.1	2887.1
6556	11.752	1.4545	0.1	2885.6
6557	11.752	1.6364	0.1	2884.2
6558	11.752	1.8182	0.1	2883.
6559	11.752	2.	0.1	2882.
6560	11.752	2.1818	0.1	2881.1
6561	11.752	2.3636	0.1	2880.4
6562	11.752	2.5455	0.1	2879.9
6563	11.752	2.7273	0.1	2879.5
6564	11.752	2.9091	0.1	2879.3
6565	11.752	3.0909	0.1	2879.3
6566	11.752	3.2727	0.1	2879.5
6567	11.752	3.4545	0.1	2879.9
6568	11.752	3.6364	0.1	2880.4
6569	11.752	3.8182	0.1	2881.1
6570	11.752	4.	0.1	2882.
6571	11.752	4.1818	0.1	2883.
6572	11.752	4.3636	0.1	2884.2
6573	11.752	4.5455	0.1	2885.6
6574	11.752	4.7273	0.1	2887.1
6575	11.752	4.9091	0.1	2888.7
6576	11.752	5.0909	0.1	2890.5
6577	11.752	5.2727	0.1	2892.5
6578	11.752	5.4545	0.1	2894.6
6579	11.752	5.6364	0.1	2896.9
6580	11.752	5.8182	0.1	2901.3
6581	11.935	0.18182	0.1	2851.7
6582	11.935	0.36364	0.1	2847.3
6583	11.935	0.54545	0.1	2845.1
6584	11.935	0.72727	0.1	2843.2
6585	11.935	0.90909	0.1	2841.4
6586	11.935	1.0909	0.1	2839.7
6587	11.935	1.2727	0.1	2838.1
6588	11.935	1.4545	0.1	2836.7
6589	11.935	1.6364	0.1	2835.5
6590	11.935	1.8182	0.1	2834.3
6591	11.935	2.	0.1	2833.4
6592	11.935	2.1818	0.1	2832.6
6593	11.935	2.3636	0.1	2831.9
6594	11.935	2.5455	0.1	2831.4
6595	11.935	2.7273	0.1	2831.1
6596	11.935	2.9091	0.1	2830.9
6597	11.935	3.0909	0.1	2830.9
6598	11.935	3.2727	0.1	2831.1
6599	11.935	3.4545	0.1	2831.4
6600	11.935	3.6364	0.1	2831.9
6601	11.935	3.8182	0.1	2832.6
6602	11.935	4.	0.1	2833.4
6603	11.935	4.1818	0.1	2834.3
6604	11.935	4.3636	0.1	2835.5
6605	11.935	4.5455	0.1	2836.7
6606	11.935	4.7273	0.1	2838.1
6607	11.935	4.9091	0.1	2839.7
6608	11.935	5.0909	0.1	2841.4
6609	11.935	5.2727	0.1	2843.2
6610	11.935	5.4545	0.1	2845.1
6611	11.935	5.6364	0.1	2847.3
6612	11.935	5.8182	0.1	2851.7
6613	12.119	0.18182	0.1	2802.2
6614	12.119	0.36364	0.1	2797.9
6615	12.119	0.54545	0.1	2795.9
6616	12.119	0.72727	0.1	2794.
6617	12.119	0.90909	0.1	2792.3
6618	12.119	1.0909	0.1	2790.8
6619	12.119	1.2727	0.1	2789.3
6620	12.119	1.4545	0.1	2788.
6621	12.119	1.6364	0.1	2786.8
6622	12.119	1.8182	0.1	2785.8
6623	12.119	2.	0.1	2784.9
6624	12.119	2.1818	0.1	2784.2
6625	12.119	2.3636	0.1	2783.6
6626	12.119	2.5455	0.1	2783.1
6627	12.119	2.7273	0.1	2782.8
6628	12.119	2.9091	0.1	2782.7
6629	12.119	3.0909	0.1	2782.7
6630	12.119	3.2727	0.1	2782.8
6631	12.119	3.4545	0.1	2783.1
6632	12.119	3.6364	0.1	2783.6
6633	12.119	3.8182	0.1	2784.2
6634	12.119	4.	0.1	2784.9
6635	12.119	4.1818	0.1	2785.8
6636	12.119	4.3636	0.1	2786.8
6637	12.119	4.5455	0.1	2788.
6638	12.119	4.7273	0.1	2789.3
6639	12.119	4.9091	0.1	2790.8
6640	12.119	5.0909	0.1	2792.3
6641	12.119	5.2727	0.1	2794.
6642	12.119	5.4545	0.1	2795.9
6643	12.119	5.6364	0.1	2797.9
6644	12.119	5.8182	0.1	2802.2
6645	12.303	0.18182	0.1	2752.9
6646	12.303	0.36364	0.1	2748.8
6647	12.303	0.54545	0.1	2746.8
6648	12.303	0.72727	0.1	2745.1
6649	12.303	0.90909	0.1	2743.5
6650	12.303	1.0909	0.1	2742.
6651	12.303	1.2727	0.1	2740.7
6652	12.303	1.4545	0.1	2739.5
6653	12.303	1.6364	0.1	2738.4
6654	12.303	1.8182	0.1	2737.4
6655	12.303	2.	0.1	2736.6
6656	12.303	2.1818	0.1	2735.9
6657	12.303	2.3636	0.1	2735.4
6658	12.303	2.5455	0.1	2735.
6659	12.303	2.7273	0.1	2734.7
6660	12.303	2.9091	0.1	2734.5
6661	12.303	3.0909	0.1	2734.5
6662	12.303	3.2727	0.1	2734.7
6663	12.303	3.4545	0.1	2735.
6664	12.303	3.6364	0.1	2735.4
6665	12.303	3.8182	0.1	2735.9
6666	12.303	4.	0.1	2736.6
6667	12.303	4.1818	0.1	2737.4
6668	12.303	4.3636	0.1	2738.4
6669	12.303	4.5455	0.1	2739.5
6670	12.303	4.7273	0.1	2740.7
6671	12.303	4.9091	0.1	2742.
6672	12.303	5.0909	0.1	2743.5
6673	12.303	5.2727	0.1	2745.1
6674	12.303	5.4545	0.1	2746.8
6675	12.303	5.6364	0.1	2748.8
6676	12.303	5.8182	0.1	2752.9
6677	12.486	0.18182	0.1	2703.9
6678	12.486	0.36364	0.1	2699.8
6679	12.486	0.54545	0.1	2697.9
6680	12.486	0.72727	0.1	2696.3
6681	12.486	0.90909	0.1	2694.9
6682	12.486	1.0909	0.1	2693.5
6683	12.486	1.2727	0.1	2692.2
6684	12.486	1.4545	0.1	2691.1
6685	12.486	1.6364	0.1	2690.1
6686	12.486	1.8182	0.1	2689.2
6687	12.486	2.	0.1	2688.5
6688	12.486	2.1818	0.1	2687.8
6689	12.486	2.3636	0.1	2687.3
6690	12.486	2.5455	0.1	2686.9
6691	12.486	2.7273	0.1	2686.7
6692	12.486	2.9091	0.1	2686.6
6693	12.486	3.0909	0.1	2686.6
6694	12.486	3.2727	0.1	2686.7
6695	12.486	3.4545	0.1	2686.9
6696	12.486	3.6364	0.1	2687.3
6697	12.486	3.8182	0.1	2687.8
6698	12.486	4.	0.1	2688.5
6699	12.486	4.1818	0.1	2689.2
6700	12.486	4.3636	0.1	2690.1
6701	12.486	4.5455	0.1	2691.1
6702	12.486	4.7273	0.1	2692.2
6703	12.486	4.9091	0.1	2693.5
6704	12.486	5.0909	0.1	2694.9
6705	12.486	5.2727	0.1	2696.3
6706	12.486	5.4545	0.1	2697.9
6707	12.486	5.6364	0.1	2699.8
6708	12.486	5.8182	0.1	2703.9
6709	12.67	0.18182	0.1	2655.
6710	12.67	0.36364	0.1	2651.
6711	12.67	0.54545	0.1	2649.3
6712	12.67	0.72727	0.1	2647.8
6713	12.67	0.90909	0.1	2646.4
6714	12.67	1.0909	0.1	2645.1
6715	12.67	1.2727	0.1	2644.
6716	12.67	1.4545	0.1	2642.9
6717	12.67	1.6364	0.1	2642.
6718	12.67	1.8182	0.1	2641.2
6719	12.67	2.	0.1	2640.5
6720	12.67	2.1818	0.1	2639.9
6721	12.67	2.3636	0.1	2639.4
6722	12.67	2.5455	0.1	2639.1
6723	12.67	2.7273	0.1	2638.9
6724	12.67	2.9091	0.1	2638.7
6725	12.67	3.0909	0.1	2638.7
6726	12.67	3.2727	0.1	2638.9
6727	12.67	3.4545	0.1	2639.1
6728	12.67	3.6364	0.1	2639.4
6729	12.67	3.8182	0.1	2639.9
6730	12.67	4.	0.1	2640.5
6731	12.67	4.1818	0.1	2641.2
6732	12.67	4.3636	0.1	2642.
6733	12.67	4.5455	0.1	2642.9
6734	12.67	4.7273	0.1	2644.
6735	12.67	4.9091	0.1	2645.1
6736	12.67	5.0909	0.1	2646.4
6737	12.67	5.2727	0.1	2647.8
6738	12.67	5.4545	0.1	2649.3
6739	12.67	5.6364	0.1	2651.
6740	12.67	5.8182	0.1	2655.
6741	12.853	0.18182	0.1	2606.3
6742	12.853	0.36364	0.1	2602.4
6743	12.853	0.54545	0.1	2600.8
6744	12.853	0.72727	0.1	2599.4
6745	12.853	0.90909	0.1	2598.1
6746	12.853	1.0909	0.1	2596.9
6747	12.853	1.2727	0.1	2595.9
6748	12.853	1.4545	0.1	2594.9
6749	12.853	1.6364	0.1	2594.1
6750	12.853	1.8182	0.1	2593.3
6751	12.853	2.	0.1	2592.7
6752	12.853	2.1818	0.1	2592.1
6753	12.853	2.3636	0.1	2591.7
6754	12.853	2.5455	0.1	2591.4
6755	12.853	2.7273	0.1	2591.2
6756	12.853	2.9091	0.1	2591.1
6757	12.853	3.0909	0.1	2591.1
6758	12.853	3.2727	0.1	2591.2
6759	12.853	3.4545	0.1	2591.4
6760	12.853	3.6364	0.1	2591.7
6761	12.853	3.8182	0.1	2592.1
6762	12.853	4.	0.1	2592.7
6763	12.853	4.1818	0.1	2593.3
6764	12.853	4.3636	0.1	2594.1
6765	12.853	4.5455	0.1	2594.9
6766	12.853	4.7273	0.1	2595.9
6767	12.853	4.9091	0.1	2596.9
6768	12.853	5.0909	0.1	2598.1
6769	12.853	5.2727	0.1	2599.4
6770	12.853	5.4545	0.1	2600.8
6771	12.853	5.6364	0.1	2602.4
6772	12.853	5.8182	0.1	2606.3
6773	13.037	0.18182	0.1	2557.9
6774	13.037	0.36364	0.1	2554.
6775	13.037	0.54545	0.1	2552.5
6776	13.037	0.72727	0.1	2551.2
6777	13.037	0.90909	0.1	2550.
6778	13.037	1.0909	0.1	2548.9
6779	13.037	1.2727	0.1	2547.9
6780	13.037	1.4545	0.1	2547.1
6781	13.037	1.6364	0.1	2546.3
6782	13.037	1.8182	0.1	2545.6
6783	13.037	2.	0.1	2545.
6784	13.037	2.1818	0.1	2544.6
6785	13.037	2.3636	0.1	2544.2
6786	13.037	2.5455	0.1	2543.9
6787	13.037	2.7273	0.1	2543.7
6788	13.037	2.9091	0.1	2543.6
6789	13.037	3.0909	0.1	2543.6
6790	13.037	3.2727	0.1	2543.7
6791	13.037	3.4545	0.1	2543.9
6792	13.037	3.6364	0.1	2544.2
6793	13.037	3.8182	0.1	2544.6
6794	13.037	4.	0.1	2545.
6795	13.037	4.1818	0.1	2545.6
6796	13.037	4.3636	0.1	2546.3
6797	13.037	4.5455	0.1	2547.1
6798	13.037	4.7273	0.1	2547.9
6799	13.037	4.9091	0.1	2548.9
6800	13.037	5.0909	0.1	2550.
6801	13.037	5.2727	0.1	2551.2
6802	13.037	5.4545	0.1	2552.5
6803	13.037	5.6364	0.1	2554.
6804	13.037	5.8182	0.1	2557.9
6805	13.221	0.18182	0.1	2509.6
6806	13.221	0.36364	0.1	2505.8
6807	13.221	0.54545	0.1	2504.4
6808	13.221	0.72727	0.1	2503.2
6809	13.221	0.90909	0.1	2502.1
6810	13.221	1.0909	0.1	2501.1
6811	13.221	1.2727	0.1	2500.2
6812	13.221	1.4545	0.1	2499.4
6813	13.221	1.6364	0.1	2498.7
6814	13.221	1.8182	0.1	2498.1
6815	13.221	2.	0.1	2497.6
6816	13.221	2.1818	0.1	2497.2
6817	13.221	2.3636	0.1	2496.8
6818	13.221	2.5455	0.1	2496.6
6819	13.221	2.7273	0.1	2496.4
6820	13.221	2.9091	0.1	2496.3
6821	13.221	3.0909	0.1	2496.3
6822	13.221	3.2727	0.1	2496.4
6823	13.221	3.4545	0.1	2496.6
6824	13.221	3.6364	0.1	2496.8
6825	13.221	3.8182	0.1	2497.2
6826	13.221	4.	0.1	2497.6
6827	13.221	4.1818	0.1	2498.1
6828	13.221	4.3636	0.1	2498.7
6829	13.221	4.5455	0.1	2499.4
6830	13.221	4.7273	0.1	2500.2
6831	13.221	4.9091	0.1	2501.1
6832	13.221	5.0909	0.1	2502.1
6833	13.221	5.2727	0.1	2503.2
6834	13.221	5.4545	0.1	2504.4
6835	13.221	5.6364	0.1	2505.8
6836	13.221	5.8182	0.1	2509.6
6837	13.404	0.18182	0.1	2461.5
6838	13.404	0.36364	0.1	2457.8
6839	13.404	0.54545	0.1	2456.4
6840	13.404	0.72727	0.1	2455.3
6841	13.404	0.90909	0.1	2454.3
6842	13.404	1.0909	0.1	2453.5
6843	13.404	1.2727	0.1	2452.7
6844	13.404	1.4545	0.1	2451.9
6845	13.404	1.6364	0.1	2451.3
6846	13.404	1.8182	0.1	2450.8
6847	13.404	2.	0.1	2450.3
6848	13.404	2.1818	0.1	2449.9
6849	13.404	2.3636	0.1	2449.6
6850	13.404	2.5455	0.1	2449.4
6851	13.404	2.7273	0.1	2449.3
6852	13.404	2.9091	0.1	2449.2
6853	13.404	3.0909	0.1	2449.2
6854	13.404	3.2727	0.1	2449.3
6855	13.404	3.4545	0.1	2449.4
6856	13.404	3.6364	0.1	2449.6
6857	13.404	3.8182	0.1	2449.9
6858	13.404	4.	0.1	2450.3
6859	13.404	4.1818	0.1	2450.8
6860	13.404	4.3636	0.1	2451.3
6861	13.404	4.5455	0.1	2451.9
6862	13.404	4.7273	0.1	2452.7
6863	13.404	4.9091	0.1	2453.5
6864	13.404	5.0909	0.1	2454.3
6865	13.404	5.2727	0.1	2455.3
6866	13.404	5.4545	0.1	2456.4
6867	13.404	5.6364	0.1	2457.8
6868	13.404	5.8182	0.1	2461.5
6869	13.588	0.18182	0.1	2413.6
6870	13.588	0.36364	0.1	2409.9
6871	13.588	0.54545	0.1	2408.7
6872	13.588	0.72727	0.1	2407.7
6873	13.588	0.90909	0.1	2406.8
6874	13.588	1.0909	0.1	2406.
6875	13.588	1.2727	0.1	2405.3
6876	13.588	1.4545	0.1	2404.7
6877	13.588	1.6364	0.1	2404.1
6878	13.588	1.8182	0.1	2403.6
6879	13.588	2.	0.1	2403.2
6880	13.588	2.1818	0.1	2402.9
6881	13.588	2.3636	0.1	2402.6
6882	13.588	2.5455	0.1	2402.4
6883	13.588	2.7273	0.1	2402.3
6884	13.588	2.9091	0.1	2402.2
6885	13.588	3.0909	0.1	2402.2
6886	13.588	3.2727	0.1	2402.3
6887	13.588	3.4545	0.1	2402.4
6888	13.588	3.6364	0.1	2402.6
6889	13.588	3.8182	0.1	2402.9
6890	13.588	4.	0.1	2403.2
6891	13.588	4.1818	0.1	2403.6
6892	13.588	4.3636	0.1	2404.1
6893	13.588	4.5455	0.1	2404.7
6894	13.588	4.7273	0.1	2405.3
6895	13.588	4.9091	0.1	2406.
6896	13.588	5.0909	0.1	2406.8
6897	13.588	5.2727	0.1	2407.7
6898	13.588	5.4545	0.1	2408.7
6899	13.588	5.6364	0.1	2409.9
6900	13.588	5.8182	0.1	2413.6
6901	13.772	0.18182	0.1	2365.9
6902	13.772	0.36364	0.1	2362.3
6903	13.772	0.54545	0.1	2361.2
6904	13.772	0.72727	0.1	2360.3
6905	13.772	0.90909	0.1	2359.5
6906	13.772	1.0909	0.1	2358.7
6907	13.772	1.2727	0.1	2358.1
6908	13.772	1.4545	0.1	2357.6
6909	13.772	1.6364	0.1	2357.1
6910	13.772	1.8182	0.1	2356.7
6911	13.772	2.	0.1	2356.3
6912	13.772	2.1818	0.1	2356.1
6913	13.772	2.3636	0.1	2355.8
6914	13.772	2.5455	0.1	2355.7
6915	13.772	2.7273	0.1	2355.6
6916	13.772	2.9091	0.1	2355.5
6917	13.772	3.0909	0.1	2355.5
6918	13.772	3.2727	0.1	2355.6
6919	13.772	3.4545	0.1	2355.7
6920	13.772	3.6364	0.1	2355.8
6921	13.772	3.8182	0.1	2356.1
6922	13.772	4.	0.1	2356.3
6923	13.772	4.1818	0.1	2356.7
6924	13.772	4.3636	0.1	2357.1
6925	13.772	4.5455	0.1	2357.6
6926	13.772	4.7273	0.1	2358.1
6927	13.772	4.9091	0.1	2358.7
6928	13.772	5.0909	0.1	2359.5
6929	13.772	5.2727	0.1	2360.3
6930	13.772	5.4545	0.1	2361.2
6931	13.772	5.6364	0.1	2362.3
6932	13.772	5.8182	0.1	2365.9
6933	13.955	0.18182	0.1	2318.3
6934	13.955	0.36364	0.1	2314.8
6935	13.955	0.54545	0.1	2313.8
6936	13.955	0.72727	0.1	2313.
6937	13.955	0.90909	0.1	2312.3
6938	13.955	1.0909	0.1	2311.7
6939	13.955	1.2727	0.1	2311.1
6940	13.955	1.4545	0.1	2310.7
6941	13.955	1.6364	0.1	2310.3
6942	13.955	1.8182	0.1	2309.9
6943	13.955	2.	0.1	2309.7
6944	13.955	2.1818	0.1	2309.4
6945	13.955	2.3636	0.1	2309.2
6946	13.955	2.5455	0.1	2309.1
6947	13.955	2.7273	0.1	2309.
6948	13.955	2.9091	0.1	2309.
6949	13.955	3.0909	0.1	2309.
6950	13.955	3.2727	0.1	2309.
6951	13.955	3.4545	0.1	2309.1
6952	13.955	3.6364	0.1	2309.2
6953	13.955	3.8182	0.1	2309.4
6954	13.955	4.	0.1	2309.7
6955	13.955	4.1818	0.1	2309.9
6956	13.955	4.3636	0.1	2310.3
6957	13.955	4.5455	0.1	2310.7
6958	13.955	4.7273	0.1	2311.1
6959	13.955	4.9091	0.1	2311.7
6960	13.955	5.0909	0.1	2312.3
6961	13.955	5.2727	0.1	2313.
6962	13.955	5.4545	0.1	2313.8
6963	13.955	5.6364	0.1	2314.8
6964	13.955	5.8182	0.1	2318.3
6965	14.139	0.18182	0.1	2271.
6966	14.139	0.36364	0.1	2267.6
6967	14.139	0.54545	0.1	2266.6
6968	14.139	0.72727	0.1	2265.9
6969	14.139	0.90909	0.1	2265.3
6970	14.139	1.0909	0.1	2264.8
6971	14.139	1.2727	0.1	2264.4
6972	14.139	1.4545	0.1	2264.
6973	14.139	1.6364	0.1	2263.7
6974	14.139	1.8182	0.1	2263.4
6975	14.139	2.	0.1	2263.2
6976	14.139	2.1818	0.1	2263.
6977	14.139	2.3636	0.1	2262.9
6978	14.139	2.5455	0.1	2262.8
6979	14.139	2.7273	0.1	2262.7
6980	14.139	2.9091	0.1	2262.7
6981	14.139	3.0909	0.1	2262.7
6982	14.139	3.2727	0.1	2262.7
6983	14.139	3.4545	0.1	2262.8
6984	14.139	3.6364	0.1	2262.9
6985	14.139	3.8182	0.1	2263.
6986	14.139	4.	0.1	2263.2
6987	14.139	4.1818	0.1	2263.4
6988	14.139	4.3636	0.1	2263.7
6989	14.139	4.5455	0.1	2264.
6990	14.139	4.7273	0.1	2264.4
6991	14.139	4.9091	0.1	2264.8
6992	14.139	5.0909	0.1	2265.3
6993	14.139	5.2727	0.1	2265.9
6994	14.139	5.4545	0.1	2266.6
6995	14.139	5.6364	0.1	2267.6
6996	14.139	5.8182	0.1	2271.
6997	14.322	0.18182	0.1	2223.8
6998	14.322	0.36364	0.1	2220.5
6999	14.322	0.54545	0.1	2219.7
7000	14.322	0.72727	0.1	2219.1
7001	14.322	0.90909	0.1	2218.6
7002	14.322	1.0909	0.1	2218.1
7003	14.322	1.2727	0.1	2217.8
7004	14.322	1.4545	0.1	2217.5
7005	14.322	1.6364	0.1	2217.3
7006	14.322	1.8182	0.1	2217.1
7007	14.322	2.	0.1	2216.9
7008	14.322	2.1818	0.1	2216.8
7009	14.322	2.3636	0.1	2216.7
7010	14.322	2.5455	0.1	2216.6
7011	14.322	2.7273	0.1	2216.6
7012	14.322	2.9091	0.1	2216.6
7013	14.322	3.0909	0.1	2216.6
7014	14.322	3.2727	0.1	2216.6
7015	14.322	3.4545	0.1	2216.6
7016	14.322	3.6364	0.1	2216.7
7017	14.322	3.8182	0.1	2216.8
7018	14.322	4.	0.1	2216.9
7019	14.322	4.1818	0.1	2217.1
7020	14.322	4.3636	0.1	2217.3
7021	14.322	4.5455	0.1	2217.5
7022	14.322	4.7273	0.1	2217.8
7023	14.322	4.9091	0.1	2218.1
7024	14.322	5.0909	0.1	2218.6
7025	14.322	5.2727	0.1	2219.1
7026	14.322	5.4545	0.1	2219.7
7027	14.322	5.6364	0.1	2220.5
7028	14.322	5.8182	0.1	2223.8
7029	14.506	0.18182	0.1	2176.8
7030	14.506	0.36364	0.1	2173.6
7031	14.506	0.54545	0.1	2172.9
7032	14.506	0.72727	0.1	2172.4
7033	14.506	0.90909	0.1	2172.
7034	14.506	1.0909	0.1	2171.7
7035	14.506	1.2727	0.1	2171.4
7036	14.506	1.4545	0.1	2171.2
7037	14.506	1.6364	0.1	2171.1
7038	14.506	1.8182	0.1	2171.
7039	14.506	2.	0.1	2170.9
7040	14.506	2.1818	0.1	2170.8
7041	14.506	2.3636	0.1	2170.7
7042	14.506	2.5455	0.1	2170.7
7043	14.506	2.7273	0.1	2170.7
7044	14.506	2.9091	0.1	2170.7
7045	14.506	3.0909	0.1	2170.7
7046	14.506	3.2727	0.1	2170.7
7047	14.506	3.4545	0.1	2170.7
7048	14.506	3.6364	0.1	2170.7
7049	14.506	3.8182	0.1	2170.8
7050	14.506	4.	0.1	2170.9
7051	14.506	4.1818	0.1	2171.
7052	14.506	4.3636	0.1	2171.1
7053	14.506	4.5455	0.1	2171.2
7054	14.506	4.7273	0.1	2171.4
7055	14.506	4.9091	0.1	2171.7
7056	14.506	5.0909	0.1	2172.
7057	14.506	5.2727	0.1	2172.4
7058	14.506	5.4545	0.1	2172.9
7059	14.506	5.6364	0.1	2173.6
7060	14.506	5.8182	0.1	2176.8
7061	14.69	0.18182	0.1	2130.
7062	14.69	0.36364	0.1	2126.8
7063	14.69	0.54545	0.1	2126.2
7064	14.69	0.72727	0.1	2125.9
7065	14.69	0.90909	0.1	2125.6
7066	14.69	1.0909	0.1	2125.4
7067	14.69	1.2727	0.1	2125.3
7068	14.69	1.4545	0.1	2125.2
7069	14.69	1.6364	0.1	2125.1
7070	14.69	1.8182	0.1	2125.1
7071	14.69	2.	0.1	2125.
7072	14.69	2.1818	0.1	2125.
7073	14.69	2.3636	0.1	2125.
7074	14.69	2.5455	0.1	2125.
7075	14.69	2.7273	0.1	2125.
7076	14.69	2.9091	0.1	2125.
7077	14.69	3.0909	0.1	2125.
7078	14.69	3.2727	0.1	2125.
7079	14.69	3.4545	0.1	2125.
7080	14.69	3.6364	0.1	2125.
7081	14.69	3.8182	0.1	2125.
7082	14.69	4.	0.1	2125.
7083	14.69	4.1818	0.1	2125.1
7084	14.69	4.3636	0.1	2125.1
7085	14.69	4.5455	0.1	2125.2
7086	14.69	4.7273	0.1	2125.3
7087	14.69	4.9091	0.1	2125.4
7088	14.69	5.0909	0.1	2125.6
7089	14.69	5.2727	0.1	2125.9
7090	14.69	5.4545	0.1	2126.2
7091	14.69	5.6364	0.1	2126.8
7092	14.69	5.8182	0.1	2130.
7093	14.873	0.18182	0.1	2083.3
7094	14.873	0.36364	0.1	2080.3
7095	14.873	0.54545	0.1	2079.8
7096	14.873	0.72727	0.1	2079.6
7097	14.873	0.90909	0.1	2079.4
7098	14.873	1.0909	0.1	2079.4
7099	14.873	1.2727	0.1	2079.3
7100	14.873	1.4545	0.1	2079.3
7101	14.873	1.6364	0.1	2079.4
7102	14.873	1.8182	0.1	2079.4
7103	14.873	2.	0.1	2079.4
7104	14.873	2.1818	0.1	2079.5
7105	14.873	2.3636	0.1	2079.5
7106	14.873	2.5455	0.1	2079.6
7107	14.873	2.7273	0.1	2079.6
7108	14.873	2.9091	0.1	2079.6
7109	14.873	3.0909	0.1	2079.6
7110	14.873	3.2727	0.1	2079.6
7111	14.873	3.4545	0.1	2079.6
7112	14.873	3.6364	0.1	2079.5
7113	14.873	3.8182	0.1	2079.5
7114	14.873	4.	0.1	2079.4
7115	14.873	4.1818	0.1	2079.4
7116	14.873	4.3636	0.1	2079.4
7117	14.873	4.5455	0.1	2079.3
7118	14.873	4.7273	0.1	2079.3
7119	14.873	4.9091	0.1	2079.4
7120	14.873	5.0909	0.1	2079.4
7121	14.873	5.2727	0.1	2079.6
7122	14.873	5.4545	0.1	2079.8
7123	14.873	5.6364	0.1	2080.3
7124	14.873	5.8182	0.1	2083.3
7125	15.057	0.18182	0.1	2036.8
7126	15.057	0.36364	0.1	2033.9
7127	15.057	0.54545	0.1	2033.6
7128	15.057	0.72727	0.1	2033.5
7129	15.057	0.90909	0.1	2033.5
7130	15.057	1.0909	0.1	2033.5
7131	15.057	1.2727	0.1	2033.6
7132	15.057	1.4545	0.1	2033.7
7133	15.057	1.6364	0.1	2033.8
7134	15.057	1.8182	0.1	2034.
7135	15.057	2.	0.1	2034.1
7136	15.057	2.1818	0.1	2034.2
7137	15.057	2.3636	0.1	2034.3
7138	15.057	2.5455	0.1	2034.4
7139	15.057	2.7273	0.1	2034.4
7140	15.057	2.9091	0.1	2034.4
7141	15.057	3.0909	0.1	2034.4
7142	15.057	3.2727	0.1	2034.4
7143	15.057	3.4545	0.1	2034.4
7144	15.057	3.6364	0.1	2034.3
7145	15.057	3.8182	0.1	2034.2
7146	15.057	4.	0.1	2034.1
7147	15.057	4.1818	0.1	2034.
7148	15.057	4.3636	0.1	2033.8
7149	15.057	4.5455	0.1	2033.7
7150	15.057	4.7273	0.1	2033.6
7151	15.057	4.9091	0.1	2033.5
7152	15.057	5.0909	0.1	2033.5
7153	15.057	5.2727	0.1	2033.5
7154	15.057	5.4545	0.1	2033.6
7155	15.057	5.6364	0.1	2033.9
7156	15.057	5.8182	0.1	2036.8
7157	15.241	0.18182	0.1	1990.5
7158	15.241	0.36364	0.1	1987.7
7159	15.241	0.54545	0.1	1987.5
7160	15.241	0.72727	0.1	1987.5
7161	15.241	0.90909	0.1	1987.7
7162	15.241	1.0909	0.1	1987.9
7163	15.241	1.2727	0.1	1988.1
7164	15.241	1.4545	0.1	1988.3
7165	15.241	1.6364	0.1	1988.5
7166	15.241	1.8182	0.1	1988.8
7167	15.241	2.	0.1	1989.
7168	15.241	2.1818	0.1	1989.1
7169	15.241	2.3636	0.1	1989.3
7170	15.241	2.5455	0.1	1989.4
7171	15.241	2.7273	0.1	1989.5
7172	15.241	2.9091	0.1	1989.5
7173	15.241	3.0909	0.1	1989.5
7174	15.241	3.2727	0.1	1989.5
7175	15.241	3.4545	0.1	1989.4
7176	15.241	3.6364	0.1	1989.3
7177	15.241	3.8182	0.1	1989.1
7178	15.241	4.	0.1	1989.
7179	15.241	4.1818	0.1	1988.8
7180	15.241	4.3636	0.1	1988.5
7181	15.241	4.5455	0.1	1988.3
7182	15.241	4.7273	0.1	1988.1
7183	15.241	4.9091	0.1	1987.9
7184	15.241	5.0909	0.1	1987.7
7185	15.241	5.2727	0.1	1987.5
7186	15.241	5.4545	0.1	1987.5
7187	15.241	5.6364	0.1	1987.7
7188	15.241	5.8182	0.1	1990.5
7189	15.424	0.18182	0.1	1944.2
7190	15.424	0.36364	0.1	1941.6
7191	15.424	0.54545	0.1	1941.6
7192	15.424	0.72727	0.1	1941.8
7193	15.424	0.90909	0.1	1942.1
7194	15.424	1.0909	0.1	1942.4
7195	15.424	1.2727	0.1	1942.8
7196	15.424	1.4545	0.1	1943.1
7197	15.424	1.6364	0.1	1943.5
7198	15.424	1.8182	0.1	1943.8
7199	15.424	2.	0.1	1944.1
7200	15.424	2.1818	0.1	1944.4
7201	15.424	2.3636	0.1	1944.6
7202	15.424	2.5455	0.1	1944.7
7203	15.424	2.7273	0.1	1944.8
7204	15.424	2.9091	0.1	1944.9
7205	15.424	3.0909	0.1	1944.9
7206	15.424	3.2727	0.1	1944.8
7207	15.424	3.4545	0.1	1944.7
7208	15.424	3.6364	0.1	1944.6
7209	15.424	3.8182	0.1	1944.4
7210	15.424	4.	0.1	1944.1
7211	15.424	4.1818	0.1	1943.8
7212	15.424	4.3636	0.1	1943.5
7213	15.424	4.5455	0.1	1943.1
7214	15.424	4.7273	0.1	1942.8
7215	15.424	4.9091	0.1	1942.4
7216	15.424	5.0909	0.1	1942.1
7217	15.424	5.2727	0.1	1941.8
7218	15.424	5.4545	0.1	1941.6
7219	15.424	5.6364	0.1	1941.6
7220	15.424	5.8182	0.1	1944.2
7221	15.608	0.18182	0.1	1898.2
7222	15.608	0.36364	0.1	1895.7
7223	15.608	0.54545	0.1	1895.9
7224	15.608	0.72727	0.1	1896.2
7225	15.608	0.90909	0.1	1896.7
7226	15.608	1.0909	0.1	1897.2
7227	15.608	1.2727	0.1	1897.7
7228	15.608	1.4545	0.1	1898.2
7229	15.608	1.6364	0.1	1898.7
7230	15.608	1.8182	0.1	1899.1
7231	15.608	2.	0.1	1899.5
7232	15.608	2.1818	0.1	1899.8
7233	15.608	2.3636	0.1	1900.1
7234	15.608	2.5455	0.1	1900.3
7235	15.608	2.7273	0.1	1900.4
7236	15.608	2.9091	0.1	1900.5
7237	15.608	3.0909	0.1	1900.5
7238	15.608	3.2727	0.1	1900.4
7239	15.608	3.4545	0.1	1900.3
7240	15.608	3.6364	0.1	1900.1
7241	15.608	3.8182	0.1	1899.8
7242	15.608	4.	0.1	1899.5
7243	15.608	4.1818	0.1	1899.1
7244	15.608	4.3636	0.1	1898.7
7245	15.608	4.5455	0.1	1898.2
7246	15.608	4.7273	0.1	1897.7
7247	15.608	4.9091	0.1	1897.2
7248	15.608	5.0909	0.1	1896.7
7249	15.608	5.2727	0.1	1896.2
7250	15.608	5.4545	0.1	1895.9
7251	15.608	5.6364	0.1	1895.7
7252	15.608	5.8182	0.1	1898.2
7253	15.791	0.18182	0.1	1852.2
7254	15.791	0.36364	0.1	1849.9
7255	15.791	0.54545	0.1	1850.3
7256	15.791	0.72727	0.1	1850.9
7257	15.791	0.90909	0.1	1851.5
7258	15.791	1.0909	0.1	1852.2
7259	15.791	1.2727	0.1	1852.9
7260	15.791	1.4545	0.1	1853.5
7261	15.791	1.6364	0.1	1854.1
7262	15.791	1.8182	0.1	1854.7
7263	15.791	2.	0.1	1855.2
7264	15.791	2.1818	0.1	1855.6
7265	15.791	2.3636	0.1	1855.9
7266	15.791	2.5455	0.1	1856.2
7267	15.791	2.7273	0.1	1856.3
7268	15.791	2.9091	0.1	1856.4
7269	15.791	3.0909	0.1	1856.4
7270	15.791	3.2727	0.1	1856.3
7271	15.791	3.4545	0.1	1856.2
7272	15.791	3.6364	0.1	1855.9
7273	15.791	3.8182	0.1	1855.6
7274	15.791	4.	0.1	1855.2
7275	15.791	4.1818	0.1	1854.7
7276	15.791	4.3636	0.1	1854.1
7277	15.791	4.5455	0.1	1853.5
7278	15.791	4.7273	0.1	1852.9
7279	15.791	4.9091	0.1	1852.2
7280	15.791	5.0909	0.1	1851.5
7281	15.791	5.2727	0.1	1850.9
7282	15.791	5.4545	0.1	1850.3
7283	15.791	5.6364	0.1	1849.9
7284	15.791	5.8182	0.1	1852.2
7285	15.975	0.18182	0.1	1806.4
7286	15.975	0.36364	0.1	1804.3
7287	15.975	0.54545	0.1	1804.9
7288	15.975	0.72727	0.1	1805.7
7289	15.975	0.90909	0.1	1806.5
7290	15.975	1.0909	0.1	1807.4
7291	15.975	1.2727	0.1	1808.3
7292	15.975	1.4545	0.1	1809.1
7293	15.975	1.6364	0.1	1809.8
7294	15.975	1.8182	0.1	1810.5
7295	15.975	2.	0.1	1811.1
7296	15.975	2.1818	0.1	1811.6
7297	15.975	2.3636	0.1	1812.
7298	15.975	2.5455	0.1	1812.3
7299	15.975	2.7273	0.1	1812.5
7300	15.975	2.9091	0.1	1812.6
7301	15.975	3.0909	0.1	1812.6
7302	15.975	3.2727	0.1	1812.5
7303	15.975	3.4545	0.1	1812.3
7304	15.975	3.6364	0.1	1812.
7305	15.975	3.8182	0.1	1811.6
7306	15.975	4.	0.1	1811.1
7307	15.975	4.1818	0.1	1810.5
7308	15.975	4.3636	0.1	1809.8
7309	15.975	4.5455	0.1	1809.1
7310	15.975	4.7273	0.1	1808.3
7311	15.975	4.9091	0.1	1807.4
7312	15.975	5.0909	0.1	1806.5
7313	15.975	5.2727	0.1	1805.7
7314	15.975	5.4545	0.1	1804.9
7315	15.975	5.6364	0.1	1804.3
7316	15.975	5.8182	0.1	1806.4
7317	16.159	0.18182	0.1	1760.6
7318	16.159	0.36364	0.1	1758.8
7319	16.159	0.54545	0.1	1759.6
7320	16.159	0.72727	0.1	1760.6
7321	16.159	0.90909	0.1	1761.7
7322	16.159	1.0909	0.1	1762.8
7323	16.159	1.2727	0.1	1763.9
7324	16.159	1.4545	0.1	1764.9
7325	16.159	1.6364	0.1	1765.8
7326	16.159	1.8182	0.1	1766.7
7327	16.159	2.	0.1	1767.4
7328	16.159	2.1818	0.1	1768.
7329	16.159	2.3636	0.1	1768.5
7330	16.159	2.5455	0.1	1768.8
7331	16.159	2.7273	0.1	1769.1
7332	16.159	2.9091	0.1	1769.2
7333	16.159	3.0909	0.1	1769.2
7334	16.159	3.2727	0.1	1769.1
7335	16.159	3.4545	0.1	1768.8
7336	16.159	3.6364	0.1	1768.5
7337	16.159	3.8182	0.1	1768.
7338	16.159	4.	0.1	1767.4
7339	16.159	4.1818	0.1	1766.7
7340	16.159	4.3636	0.1	1765.8
7341	16.159	4.5455	0.1	1764.9
7342	16.159	4.7273	0.1	1763.9
7343	16.159	4.9091	0.1	1762.8
7344	16.159	5.0909	0.1	1761.7
7345	16.159	5.2727	0.1	1760.6
7346	16.159	5.4545	0.1	1759.6
7347	16.159	5.6364	0.1	1758.8
7348	16.159	5.8182	0.1	1760.6
7349	16.342	0.18182	0.1	1714.9
7350	16.342	0.36364	0.1	1713.4
7351	16.342	0.54545	0.1	1714.5
7352	16.342	0.72727	0.1	1715.8
7353	16.342	0.90909	0.1	1717.1
7354	16.342	1.0909	0.1	1718.5
7355	16.342	1.2727	0.1	1719.8
7356	16.342	1.4545	0.1	1721.
7357	16.342	1.6364	0.1	1722.1
7358	16.342	1.8182	0.1	1723.1
7359	16.342	2.	0.1	1723.9
7360	16.342	2.1818	0.1	1724.6
7361	16.342	2.3636	0.1	1725.2
7362	16.342	2.5455	0.1	1725.6
7363	16.342	2.7273	0.1	1725.9
7364	16.342	2.9091	0.1	1726.
7365	16.342	3.0909	0.1	1726.
7366	16.342	3.2727	0.1	1725.9
7367	16.342	3.4545	0.1	1725.6
7368	16.342	3.6364	0.1	1725.2
7369	16.342	3.8182	0.1	1724.6
7370	16.342	4.	0.1	1723.9
7371	16.342	4.1818	0.1	1723.1
7372	16.342	4.3636	0.1	1722.1
7373	16.342	4.5455	0.1	1721.
7374	16.342	4.7273	0.1	1719.8
7375	16.342	4.9091	0.1	1718.5
7376	16.342	5.0909	0.1	1717.1
7377	16.342	5.2727	0.1	1715.8
7378	16.342	5.4545	0.1	1714.5
7379	16.342	5.6364	0.1	1713.4
7380	16.342	5.8182	0.1	1714.9
7381	16.526	0.18182	0.1	1669.3
7382	16.526	0.36364	0.1	1668.1
7383	16.526	0.54545	0.1	1669.5
7384	16.526	0.72727	0.1	1671.1
7385	16.526	0.90909	0.1	1672.7
7386	16.526	1.0909	0.1	1674.4
7387	16.526	1.2727	0.1	1675.9
7388	16.526	1.4545	0.1	1677.4
7389	16.526	1.6364	0.1	1678.7
7390	16.526	1.8182	0.1	1679.8
7391	16.526	2.	0.1	1680.8
7392	16.526	2.1818	0.1	1681.7
7393	16.526	2.3636	0.1	1682.3
7394	16.526	2.5455	0.1	1682.8
7395	16.526	2.7273	0.1	1683.1
7396	16.526	2.9091	0.1	1683.3
7397	16.526	3.0909	0.1	1683.3
7398	16.526	3.2727	0.1	1683.1
7399	16.526	3.4545	0.1	1682.8
7400	16.526	3.6364	0.1	1682.3
7401	16.526	3.8182	0.1	1681.7
7402	16.526	4.	0.1	1680.8
7403	16.526	4.1818	0.1	1679.8
7404	16.526	4.3636	0.1	1678.7
7405	16.526	4.5455	0.1	1677.4
7406	16.526	4.7273	0.1	1675.9
7407	16.526	4.9091	0.1	1674.4
7408	16.526	5.0909	0.1	1672.7
7409	16.526	5.2727	0.1	1671.1
7410	16.526	5.4545	0.1	1669.5
7411	16.526	5.6364	0.1	1668.1
7412	16.526	5.8182	0.1	1669.3
7413	16.709	0.18182	0.1	1623.6
7414	16.709	0.36364	0.1	1622.8
7415	16.709	0.54545	0.1	1624.6
7416	16.709	0.72727	0.1	1626.5
7417	16.709	0.90909	0.1	1628.5
7418	16.709	1.0909	0.1	1630.5
7419	16.709	1.2727	0.1	1632.3
7420	16.709	1.4545	0.1	1634.
7421	16.709	1.6364	0.1	1635.6
7422	16.709	1.8182	0.1	1636.9
7423	16.709	2.	0.1	1638.1
7424	16.709	2.1818	0.1	1639.
7425	16.709	2.3636	0.1	1639.8
7426	16.709	2.5455	0.1	1640.4
7427	16.709	2.7273	0.1	1640.7
7428	16.709	2.9091	0.1	1640.9
7429	16.709	3.0909	0.1	1640.9
7430	16.709	3.2727	0.1	1640.7
7431	16.709	3.4545	0.1	1640.4
7432	16.709	3.6364	0.1	1639.8
7433	16.709	3.8182	0.1	1639.
7434	16.709	4.	0.1	1638.1
7435	16.709	4.1818	0.1	1636.9
7436	16.709	4.3636	0.1	1635.6
7437	16.709	4.5455	0.1	1634.
7438	16.709	4.7273	0.1	1632.3
7439	16.709	4.9091	0.1	1630.5
7440	16.709	5.0909	0.1	1628.5
7441	16.709	5.2727	0.1	1626.5
7442	16.709	5.4545	0.1	1624.6
7443	16.709	5.6364	0.1	1622.8
7444	16.709	5.8182	0.1	1623.6
7445	16.893	0.18182	0.1	1578.
7446	16.893	0.36364	0.1	1577.6
7447	16.893	0.54545	0.1	1579.7
7448	16.893	0.72727	0.1	1582.1
7449	16.893	0.90909	0.1	1584.5
7450	16.893	1.0909	0.1	1586.8
7451	16.893	1.2727	0.1	1589.
7452	16.893	1.4545	0.1	1591.
7453	16.893	1.6364	0.1	1592.8
7454	16.893	1.8182	0.1	1594.4
7455	16.893	2.	0.1	1595.7
7456	16.893	2.1818	0.1	1596.8
7457	16.893	2.3636	0.1	1597.7
7458	16.893	2.5455	0.1	1598.3
7459	16.893	2.7273	0.1	1598.8
7460	16.893	2.9091	0.1	1599.
7461	16.893	3.0909	0.1	1599.
7462	16.893	3.2727	0.1	1598.8
7463	16.893	3.4545	0.1	1598.3
7464	16.893	3.6364	0.1	1597.7
7465	16.893	3.8182	0.1	1596.8
7466	16.893	4.	0.1	1595.7
7467	16.893	4.1818	0.1	1594.4
7468	16.893	4.3636	0.1	1592.8
7469	16.893	4.5455	0.1	1591.
7470	16.893	4.7273	0.1	1589.
7471	16.893	4.9091	0.1	1586.8
7472	16.893	5.0909	0.1	1584.5
7473	16.893	5.2727	0.1	1582.1
7474	16.893	5.4545	0.1	1579.7
7475	16.893	5.6364	0.1	1577.6
7476	16.893	5.8182	0.1	1578.
7477	17.077	0.18182	0.1	1532.2
7478	17.077	0.36364	0.1	1532.3
7479	17.077	0.54545	0.1	1534.9
7480	17.077	0.72727	0.1	1537.8
7481	17.077	0.90909	0.1	1540.6
7482	17.077	1.0909	0.1	1543.3
7483	17.077	1.2727	0.1	1545.9
7484	17.077	1.4545	0.1	1548.2
7485	17.077	1.6364	0.1	1550.3
7486	17.077	1.8182	0.1	1552.2
7487	17.077	2.	0.1	1553.7
7488	17.077	2.1818	0.1	1555.
7489	17.077	2.3636	0.1	1556.
7490	17.077	2.5455	0.1	1556.8
7491	17.077	2.7273	0.1	1557.3
7492	17.077	2.9091	0.1	1557.5
7493	17.077	3.0909	0.1	1557.5
7494	17.077	3.2727	0.1	1557.3
7495	17.077	3.4545	0.1	1556.8
7496	17.077	3.6364	0.1	1556.
7497	17.077	3.8182	0.1	1555.
7498	17.077	4.	0.1	1553.7
7499	17.077	4.1818	0.1	1552.2
7500	17.077	4.3636	0.1	1550.3
7501	17.077	4.5455	0.1	1548.2
7502	17.077	4.7273	0.1	1545.9
7503	17.077	4.9091	0.1	1543.3
7504	17.077	5.0909	0.1	1540.6
7505	17.077	5.2727	0.1	1537.8
7506	17.077	5.4545	0.1	1534.9
7507	17.077	5.6364	0.1	1532.3
7508	17.077	5.8182	0.1	1532.2
7509	17.26	0.18182	0.1	1486.4
7510	17.26	0.36364	0.1	1487.
7511	17.26	0.54545	0.1	1490.2
7512	17.26	0.72727	0.1	1493.5
7513	17.26	0.90909	0.1	1496.9
7514	17.26	1.0909	0.1	1500.1
7515	17.26	1.2727	0.1	1503.1
7516	17.26	1.4545	0.1	1505.8
7517	17.26	1.6364	0.1	1508.3
7518	17.26	1.8182	0.1	1510.4
7519	17.26	2.	0.1	1512.2
7520	17.26	2.1818	0.1	1513.7
7521	17.26	2.3636	0.1	1514.9
7522	17.26	2.5455	0.1	1515.7
7523	17.26	2.7273	0.1	1516.3
7524	17.26	2.9091	0.1	1516.6
7525	17.26	3.0909	0.1	1516.6
7526	17.26	3.2727	0.1	1516.3
7527	17.26	3.4545	0.1	1515.7
7528	17.26	3.6364	0.1	1514.9
7529	17.26	3.8182	0.1	1513.7
7530	17.26	4.	0.1	1512.2
7531	17.26	4.1818	0.1	1510.4
7532	17.26	4.3636	0.1	1508.3
7533	17.26	4.5455	0.1	1505.8
7534	17.26	4.7273	0.1	1503.1
7535	17.26	4.9091	0.1	1500.1
7536	17.26	5.0909	0.1	1496.9
7537	17.26	5.2727	0.1	1493.5
7538	17.26	5.4545	0.1	1490.2
7539	17.26	5.6364	0.1	1487.
7540	17.26	5.8182	0.1	1486.4
7541	17.444	0.18182	0.1	1440.3
7542	17.444	0.36364	0.1	1441.6
7543	17.444	0.54545	0.1	1445.4
7544	17.444	0.72727	0.1	1449.3
7545	17.444	0.90909	0.1	1453.3
7546	17.444	1.0909	0.1	1457.
7547	17.444	1.2727	0.1	1460.6
7548	17.444	1.4545	0.1	1463.8
7549	17.444	1.6364	0.1	1466.6
7550	17.444	1.8182	0.1	1469.1
7551	17.444	2.	0.1	1471.2
7552	17.444	2.1818	0.1	1472.9
7553	17.444	2.3636	0.1	1474.3
7554	17.444	2.5455	0.1	1475.2
7555	17.444	2.7273	0.1	1475.9
7556	17.444	2.9091	0.1	1476.2
7557	17.444	3.0909	0.1	1476.2
7558	17.444	3.2727	0.1	1475.9
7559	17.444	3.4545	0.1	1475.2
7560	17.444	3.6364	0.1	1474.3
7561	17.444	3.8182	0.1	1472.9
7562	17.444	4.	0.1	1471.2
7563	17.444	4.1818	0.1	1469.1
7564	17.444	4.3636	0.1	1466.6
7565	17.444	4.5455	0.1	1463.8
7566	17.444	4.7273	0.1	1460.6
7567	17.444	4.9091	0.1	1457.
7568	17.444	5.0909	0.1	1453.3
7569	17.444	5.2727	0.1	1449.3
7570	17.444	5.4545	0.1	1445.4
7571	17.444	5.6364	0.1	1441.6
7572	17.444	5.8182	0.1	1440.3
7573	17.628	0.18182	0.1	1393.9
7574	17.628	0.36364	0.1	1396.
7575	17.628	0.54545	0.1	1400.5
7576	17.628	0.72727	0.1	1405.1
7577	17.628	0.90909	0.1	1409.8
7578	17.628	1.0909	0.1	1414.2
7579	17.628	1.2727	0.1	1418.3
7580	17.628	1.4545	0.1	1422.1
7581	17.628	1.6364	0.1	1425.4
7582	17.628	1.8182	0.1	1428.3
7583	17.628	2.	0.1	1430.8
7584	17.628	2.1818	0.1	1432.7
7585	17.628	2.3636	0.1	1434.3
7586	17.628	2.5455	0.1	1435.4
7587	17.628	2.7273	0.1	1436.1
7588	17.628	2.9091	0.1	1436.5
7589	17.628	3.0909	0.1	1436.5
7590	17.628	3.2727	0.1	1436.1
7591	17.628	3.4545	0.1	1435.4
7592	17.628	3.6364	0.1	1434.3
7593	17.628	3.8182	0.1	1432.7
7594	17.628	4.	0.1	1430.8
7595	17.628	4.1818	0.1	1428.3
7596	17.628	4.3636	0.1	1425.4
7597	17.628	4.5455	0.1	1422.1
7598	17.628	4.7273	0.1	1418.3
7599	17.628	4.9091	0.1	1414.2
7600	17.628	5.0909	0.1	1409.8
7601	17.628	5.2727	0.1	1405.1
7602	17.628	5.4545	0.1	1400.5
7603	17.628	5.6364	0.1	1396.
7604	17.628	5.8182	0.1	1393.9
7605	17.811	0.18182	0.1	1347.1
7606	17.811	0.36364	0.1	1350.1
7607	17.811	0.54545	0.1	1355.4
7608	17.811	0.72727	0.1	1360.9
7609	17.811	0.90909	0.1	1366.3
7610	17.811	1.0909	0.1	1371.5
7611	17.811	1.2727	0.1	1376.4
7612	17.811	1.4545	0.1	1380.8
7613	17.811	1.6364	0.1	1384.7
7614	17.811	1.8182	0.1	1388.1
7615	17.811	2.	0.1	1390.9
7616	17.811	2.1818	0.1	1393.2
7617	17.811	2.3636	0.1	1395.
7618	17.811	2.5455	0.1	1396.3
7619	17.811	2.7273	0.1	1397.1
7620	17.811	2.9091	0.1	1397.6
7621	17.811	3.0909	0.1	1397.6
7622	17.811	3.2727	0.1	1397.1
7623	17.811	3.4545	0.1	1396.3
7624	17.811	3.6364	0.1	1395.
7625	17.811	3.8182	0.1	1393.2
7626	17.811	4.	0.1	1390.9
7627	17.811	4.1818	0.1	1388.1
7628	17.811	4.3636	0.1	1384.7
7629	17.811	4.5455	0.1	1380.8
7630	17.811	4.7273	0.1	1376.4
7631	17.811	4.9091	0.1	1371.5
7632	17.811	5.0909	0.1	1366.3
7633	17.811	5.2727	0.1	1360.9
7634	17.811	5.4545	0.1	1355.4
7635	17.811	5.6364	0.1	1350.1
7636	17.811	5.8182	0.1	1347.1
7637	17.995	0.18182	0.1	1299.8
7638	17.995	0.36364	0.1	1303.8
7639	17.995	0.54545	0.1	1310.1
7640	17.995	0.72727	0.1	1316.5
7641	17.995	0.90909	0.1	1322.9
7642	17.995	1.0909	0.1	1329.
7643	17.995	1.2727	0.1	1334.7
7644	17.995	1.4545	0.1	1339.9
7645	17.995	1.6364	0.1	1344.5
7646	17.995	1.8182	0.1	1348.5
7647	17.995	2.	0.1	1351.8
7648	17.995	2.1818	0.1	1354.5
7649	17.995	2.3636	0.1	1356.5
7650	17.995	2.5455	0.1	1358.
7651	17.995	2.7273	0.1	1359.
7652	17.995	2.9091	0.1	1359.5
7653	17.995	3.0909	0.1	1359.5
7654	17.995	3.2727	0.1	1359.
7655	17.995	3.4545	0.1	1358.
7656	17.995	3.6364	0.1	1356.5
7657	17.995	3.8182	0.1	1354.5
7658	17.995	4.	0.1	1351.8
7659	17.995	4.1818	0.1	1348.5
7660	17.995	4.3636	0.1	1344.5
7661	17.995	4.5455	0.1	1339.9
7662	17.995	4.7273	0.1	1334.7
7663	17.995	4.9091	0.1	1329.
7664	17.995	5.0909	0.1	1322.9
7665	17.995	5.2727	0.1	1316.5
7666	17.995	5.4545	0.1	1310.1
7667	17.995	5.6364	0.1	1303.8
7668	17.995	5.8182	0.1	1299.8
7669	18.178	0.18182	0.1	1251.8
7670	18.178	0.36364	0.1	1257.
7671	18.178	0.54545	0.1	1264.3
7672	18.178	0.72727	0.1	1271.9
7673	18.178	0.90909	0.1	1279.4
7674	18.178	1.0909	0.1	1286.6
7675	18.178	1.2727	0.1	1293.4
7676	18.178	1.4545	0.1	1299.5
7677	18.178	1.6364	0.1	1304.9
7678	18.178	1.8182	0.1	1309.6
7679	18.178	2.	0.1	1313.5
7680	18.178	2.1818	0.1	1316.6
7681	18.178	2.3636	0.1	1319.1
7682	18.178	2.5455	0.1	1320.8
7683	18.178	2.7273	0.1	1321.9
7684	18.178	2.9091	0.1	1322.5
7685	18.178	3.0909	0.1	1322.5
7686	18.178	3.2727	0.1	1321.9
7687	18.178	3.4545	0.1	1320.8
7688	18.178	3.6364	0.1	1319.1
7689	18.178	3.8182	0.1	1316.6
7690	18.178	4.	0.1	1313.5
7691	18.178	4.1818	0.1	1309.6
7692	18.178	4.3636	0.1	1304.9
7693	18.178	4.5455	0.1	1299.5
7694	18.178	4.7273	0.1	1293.4
7695	18.178	4.9091	0.1	1286.6
7696	18.178	5.0909	0.1	1279.4
7697	18.178	5.2727	0.1	1271.9
7698	18.178	5.4545	0.1	1264.3
7699	18.178	5.6364	0.1	1257.
7700	18.178	5.8182	0.1	1251.8
7701	18.362	0.18182	0.1	1202.9
7702	18.362	0.36364	0.1	1209.4
7703	18.362	0.54545	0.1	1218.1
7704	18.362	0.72727	0.1	1227.
7705	18.362	0.90909	0.1	1235.8
7706	18.362	1.0909	0.1	1244.3
7707	18.362	1.2727	0.1	1252.3
7708	18.362	1.4545	0.1	1259.6
7709	18.362	1.6364	0.1	1266.
7710	18.362	1.8182	0.1	1271.6
7711	18.362	2.	0.1	1276.2
7712	18.362	2.1818	0.1	1279.9
7713	18.362	2.3636	0.1	1282.7
7714	18.362	2.5455	0.1	1284.8
7715	18.362	2.7273	0.1	1286.1
7716	18.362	2.9091	0.1	1286.7
7717	18.362	3.0909	0.1	1286.7
7718	18.362	3.2727	0.1	1286.1
7719	18.362	3.4545	0.1	1284.8
7720	18.362	3.6364	0.1	1282.7
7721	18.362	3.8182	0.1	1279.9
7722	18.362	4.	0.1	1276.2
7723	18.362	4.1818	0.1	1271.6
7724	18.362	4.3636	0.1	1266.
7725	18.362	4.5455	0.1	1259.6
7726	18.362	4.7273	0.1	1252.3
7727	18.362	4.9091	0.1	1244.3
7728	18.362	5.0909	0.1	1235.8
7729	18.362	5.2727	0.1	1227.
7730	18.362	5.4545	0.1	1218.1
7731	18.362	5.6364	0.1	1209.4
7732	18.362	5.8182	0.1	1202.9
7733	18.546	0.18182	0.1	1152.8
7734	18.546	0.36364	0.1	1160.9
7735	18.546	0.54545	0.1	1171.1
7736	18.546	0.72727	0.1	1181.5
7737	18.546	0.90909	0.1	1192.
7738	18.546	1.0909	0.1	1202.1
7739	18.546	1.2727	0.1	1211.5
7740	18.546	1.4545	0.1	1220.2
7741	18.546	1.6364	0.1	1227.9
7742	18.546	1.8182	0.1	1234.5
7743	18.546	2.	0.1	1240.
7744	18.546	2.1818	0.1	1244.4
7745	18.546	2.3636	0.1	1247.8
7746	18.546	2.5455	0.1	1250.2
7747	18.546	2.7273	0.1	1251.7
7748	18.546	2.9091	0.1	1252.5
7749	18.546	3.0909	0.1	1252.5
7750	18.546	3.2727	0.1	1251.7
7751	18.546	3.4545	0.1	1250.2
7752	18.546	3.6364	0.1	1247.8
7753	18.546	3.8182	0.1	1244.4
7754	18.546	4.	0.1	1240.
7755	18.546	4.1818	0.1	1234.5
7756	18.546	4.3636	0.1	1227.9
7757	18.546	4.5455	0.1	1220.2
7758	18.546	4.7273	0.1	1211.5
7759	18.546	4.9091	0.1	1202.1
7760	18.546	5.0909	0.1	1192.
7761	18.546	5.2727	0.1	1181.5
7762	18.546	5.4545	0.1	1171.1
7763	18.546	5.6364	0.1	1160.9
7764	18.546	5.8182	0.1	1152.8
7765	18.729	0.18182	0.1	1101.3
7766	18.729	0.36364	0.1	1111.2
7767	18.729	0.54545	0.1	1123.1
7768	18.729	0.72727	0.1	1135.4
7769	18.729	0.90909	0.1	1147.7
7770	18.729	1.0909	0.1	1159.7
7771	18.729	1.2727	0.1	1171.1
7772	18.729	1.4545	0.1	1181.5
7773	18.729	1.6364	0.1	1190.7
7774	18.729	1.8182	0.1	1198.6
7775	18.729	2.	0.1	1205.2
7776	18.729	2.1818	0.1	1210.5
7777	18.729	2.3636	0.1	1214.5
7778	18.729	2.5455	0.1	1217.3
7779	18.729	2.7273	0.1	1219.2
7780	18.729	2.9091	0.1	1220.1
7781	18.729	3.0909	0.1	1220.1
7782	18.729	3.2727	0.1	1219.2
7783	18.729	3.4545	0.1	1217.3
7784	18.729	3.6364	0.1	1214.5
7785	18.729	3.8182	0.1	1210.5
7786	18.729	4.	0.1	1205.2
7787	18.729	4.1818	0.1	1198.6
7788	18.729	4.3636	0.1	1190.7
7789	18.729	4.5455	0.1	1181.5
7790	18.729	4.7273	0.1	1171.1
7791	18.729	4.9091	0.1	1159.7
7792	18.729	5.0909	0.1	1147.7
7793	18.729	5.2727	0.1	1135.4
7794	18.729	5.4545	0.1	1123.1
7795	18.729	5.6364	0.1	1111.2
7796	18.729	5.8182	0.1	1101.3
7797	18.913	0.18182	0.1	1048.
7798	18.913	0.36364	0.1	1059.9
7799	18.913	0.54545	0.1	1073.8
7800	18.913	0.72727	0.1	1088.3
7801	18.913	0.90909	0.1	1102.9
7802	18.913	1.0909	0.1	1117.2
7803	18.913	1.2727	0.1	1130.9
7804	18.913	1.4545	0.1	1143.4
7805	18.913	1.6364	0.1	1154.6
7806	18.913	1.8182	0.1	1164.2
7807	18.913	2.	0.1	1172.1
7808	18.913	2.1818	0.1	1178.4
7809	18.913	2.3636	0.1	1183.2
7810	18.913	2.5455	0.1	1186.6
7811	18.913	2.7273	0.1	1188.8
7812	18.913	2.9091	0.1	1189.9
7813	18.913	3.0909	0.1	1189.9
7814	18.913	3.2727	0.1	1188.8
7815	18.913	3.4545	0.1	1186.6
7816	18.913	3.6364	0.1	1183.2
7817	18.913	3.8182	0.1	1178.4
7818	18.913	4.	0.1	1172.1
7819	18.913	4.1818	0.1	1164.2
7820	18.913	4.3636	0.1	1154.6
7821	18.913	4.5455	0.1	1143.4
7822	18.913	4.7273	0.1	1130.9
7823	18.913	4.9091	0.1	1117.2
7824	18.913	5.0909	0.1	1102.9
7825	18.913	5.2727	0.1	1088.3
7826	18.913	5.4545	0.1	1073.8
7827	18.913	5.6364	0.1	1059.9
7828	18.913	5.8182	0.1	1048.
7829	19.097	0.18182	0.1	992.57
7830	19.097	0.36364	0.1	1006.7
7831	19.097	0.54545	0.1	1022.9
7832	19.097	0.72727	0.1	1040.
7833	19.097	0.90909	0.1	1057.3
7834	19.097	1.0909	0.1	1074.5
7835	19.097	1.2727	0.1	1091.
7836	19.097	1.4545	0.1	1106.2
7837	19.097	1.6364	0.1	1119.8
7838	19.097	1.8182	0.1	1131.4
7839	19.097	2.	0.1	1141.1
7840	19.097	2.1818	0.1	1148.7
7841	19.097	2.3636	0.1	1154.5
7842	19.097	2.5455	0.1	1158.5
7843	19.097	2.7273	0.1	1161.2
7844	19.097	2.9091	0.1	1162.4
7845	19.097	3.0909	0.1	1162.4
7846	19.097	3.2727	0.1	1161.2
7847	19.097	3.4545	0.1	1158.5
7848	19.097	3.6364	0.1	1154.5
7849	19.097	3.8182	0.1	1148.7
7850	19.097	4.	0.1	1141.1
7851	19.097	4.1818	0.1	1131.4
7852	19.097	4.3636	0.1	1119.8
7853	19.097	4.5455	0.1	1106.2
7854	19.097	4.7273	0.1	1091.
7855	19.097	4.9091	0.1	1074.5
7856	19.097	5.0909	0.1	1057.3
7857	19.097	5.2727	0.1	1040.
7858	19.097	5.4545	0.1	1022.9
7859	19.097	5.6364	0.1	1006.7
7860	19.097	5.8182	0.1	992.57
7861	19.28	0.18182	0.1	934.43
7862	19.28	0.36364	0.1	951.04
7863	19.28	0.54545	0.1	969.9
7864	19.28	0.72727	0.1	989.95
7865	19.28	0.90909	0.1	1010.6
7866	19.28	1.0909	0.1	1031.3
7867	19.28	1.2727	0.1	1051.4
7868	19.28	1.4545	0.1	1070.
7869	19.28	1.6364	0.1	1086.6
7870	19.28	1.8182	0.1	1100.9
7871	19.28	2.	0.1	1112.6
7872	19.28	2.1818	0.1	1121.9
7873	19.28	2.3636	0.1	1128.8
7874	19.28	2.5455	0.1	1133.8
7875	19.28	2.7273	0.1	1136.9
7876	19.28	2.9091	0.1	1138.4
7877	19.28	3.0909	0.1	1138.4
7878	19.28	3.2727	0.1	1136.9
7879	19.28	3.4545	0.1	1133.8
7880	19.28	3.6364	0.1	1128.8
7881	19.28	3.8182	0.1	1121.9
7882	19.28	4.	0.1	1112.6
7883	19.28	4.1818	0.1	1100.9
7884	19.28	4.3636	0.1	1086.6
7885	19.28	4.5455	0.1	1070.
7886	19.28	4.7273	0.1	1051.4
7887	19.28	4.9091	0.1	1031.3
7888	19.28	5.0909	0.1	1010.6
7889	19.28	5.2727	0.1	989.95
7890	19.28	5.4545	0.1	969.9
7891	19.28	5.6364	0.1	951.04
7892	19.28	5.8182	0.1	934.43
7893	19.464	0.18182	0.1	873.12
7894	19.464	0.36364	0.1	892.42
7895	19.464	0.54545	0.1	914.26
7896	19.464	0.72727	0.1	937.83
7897	19.464	0.90909	0.1	962.55
7898	19.464	1.0909	0.1	987.61
7899	19.464	1.2727	0.1	1012.1
7900	19.464	1.4545	0.1	1035.
7901	19.464	1.6364	0.1	1055.6
7902	19.464	1.8182	0.1	1073.1
7903	19.464	2.	0.1	1087.5
7904	19.464	2.1818	0.1	1098.7
7905	19.464	2.3636	0.1	1107.2
7906	19.464	2.5455	0.1	1113.1
7907	19.464	2.7273	0.1	1116.9
7908	19.464	2.9091	0.1	1118.8
7909	19.464	3.0909	0.1	1118.8
7910	19.464	3.2727	0.1	1116.9
7911	19.464	3.4545	0.1	1113.1
7912	19.464	3.6364	0.1	1107.2
7913	19.464	3.8182	0.1	1098.7
7914	19.464	4.	0.1	1087.5
7915	19.464	4.1818	0.1	1073.1
7916	19.464	4.3636	0.1	1055.6
7917	19.464	4.5455	0.1	1035.
7918	19.464	4.7273	0.1	1012.1
7919	19.464	4.9091	0.1	987.61
7920	19.464	5.0909	0.1	962.55
7921	19.464	5.2727	0.1	937.83
7922	19.464	5.4545	0.1	914.26
7923	19.464	5.6364	0.1	892.42
7924	19.464	5.8182	0.1	873.12
7925	19.647	0.18182	0.1	808.07
7926	19.647	0.36364	0.1	830.2
7927	19.647	0.54545	0.1	855.36
7928	19.647	0.72727	0.1	883.04
7929	19.647	0.90909	0.1	912.62
7930	19.647	1.0909	0.1	943.12
7931	19.647	1.2727	0.1	973.27
7932	19.647	1.4545	0.1	1001.7
7933	19.647	1.6364	0.1	1027.2
7934	19.647	1.8182	0.1	1049.
7935	19.647	2.	0.1	1066.6
7936	19.647	2.1818	0.1	1080.3
7937	19.647	2.3636	0.1	1090.5
7938	19.647	2.5455	0.1	1097.7
7939	19.647	2.7273	0.1	1102.3
7940	19.647	2.9091	0.1	1104.5
7941	19.647	3.0909	0.1	1104.5
7942	19.647	3.2727	0.1	1102.3
7943	19.647	3.4545	0.1	1097.7
7944	19.647	3.6364	0.1	1090.5
7945	19.647	3.8182	0.1	1080.3
7946	19.647	4.	0.1	1066.6
7947	19.647	4.1818	0.1	1049.
7948	19.647	4.3636	0.1	1027.2
7949	19.647	4.5455	0.1	1001.7
7950	19.647	4.7273	0.1	973.27
7951	19.647	4.9091	0.1	943.12
7952	19.647	5.0909	0.1	912.62
7953	19.647	5.2727	0.1	883.04
7954	19.647	5.4545	0.1	855.36
7955	19.647	5.6364	0.1	830.2
7956	19.647	5.8182	0.1	808.07
7957	19.831	0.18182	0.1	738.72
7958	19.831	0.36364	0.1	763.7
7959	19.831	0.54545	0.1	792.5
7960	19.831	0.72727	0.1	824.95
7961	19.831	0.90909	0.1	860.43
7962	19.831	1.0909	0.1	897.7
7963	19.831	1.2727	0.1	935.1
7964	19.831	1.4545	0.1	970.69
7965	19.831	1.6364	0.1	1002.7
7966	19.831	1.8182	0.1	1029.7
7967	19.831	2.	0.1	1051.4
7968	19.831	2.1818	0.1	1067.9
7969	19.831	2.3636	0.1	1080.1
7970	19.831	2.5455	0.1	1088.8
7971	19.831	2.7273	0.1	1094.4
7972	19.831	2.9091	0.1	1097.2
7973	19.831	3.0909	0.1	1097.2
7974	19.831	3.2727	0.1	1094.4
7975	19.831	3.4545	0.1	1088.8
7976	19.831	3.6364	0.1	1080.1
7977	19.831	3.8182	0.1	1067.9
7978	19.831	4.	0.1	1051.4
7979	19.831	4.1818	0.1	1029.7
7980	19.831	4.3636	0.1	1002.7
7981	19.831	4.5455	0.1	970.69
7982	19.831	4.7273	0.1	935.1
7983	19.831	4.9091	0.1	897.7
7984	19.831	5.0909	0.1	860.43
7985	19.831	5.2727	0.1	824.95
7986	19.831	5.4545	0.1	792.5
7987	19.831	5.6364	0.1	763.7
7988	19.831	5.8182	0.1	738.72
7989	20.015	0.18182	0.1	664.59
7990	20.015	0.36364	0.1	692.28
7991	20.015	0.54545	0.1	725.
7992	20.015	0.72727	0.1	762.95
7993	20.015	0.90909	0.1	805.53
7994	20.015	1.0909	0.1	851.27
7995	20.015	1.2727	0.1	897.96
7996	20.015	1.4545	0.1	942.9
7997	20.015	1.6364	0.1	983.33
7998	20.015	1.8182	0.1	1017.2
7999	20.015	2.	0.1	1043.8
8000	20.015	2.1818	0.1	1063.6
8001	20.015	2.3636	0.1	1078.1
8002	20.015	2.5455	0.1	1088.4
8003	20.015	2.7273	0.1	1095.2
8004	20.015	2.9091	0.1	1098.6
8005	20.015	3.0909	0.1	1098.6
8006	20.015	3.2727	0.1	1095.2
8007	20.015	3.4545	0.1	1088.4
8008	20.015	3.6364	0.1	1078.1
8009	20.015	3.8182	0.1	1063.6
8010	20.015	4.	0.1	1043.8
8011	20.015	4.1818	0.1	1017.2
8012	20.015	4.3636	0.1	983.33
8013	20.015	4.5455	0.1	942.9
8014	20.015	4.7273	0.1	897.96
8015	20.015	4.9091	0.1	851.27
8016	20.015	5.0909	0.1	805.53
8017	20.015	5.2727	0.1	762.95
8018	20.015	5.4545	0.1	725.
8019	20.015	5.6364	0.1	692.28
8020	20.015	5.8182	0.1	664.59
8021	20.198	0.18182	0.1	585.33
8022	20.198	0.36364	0.1	615.41
8023	20.198	0.54545	0.1	652.29
8024	20.198	0.72727	0.1	696.57
8025	20.198	0.90909	0.1	747.67
8026	20.198	1.0909	0.1	803.93
8027	20.198	1.2727	0.1	862.6
8028	20.198	1.4545	0.1	919.91
8029	20.198	1.6364	0.1	971.67
8030	20.198	1.8182	0.1	1014.4
8031	20.198	2.	0.1	1046.9
8032	20.198	2.1818	0.1	1070.3
8033	20.198	2.3636	0.1	1087.
8034	20.198	2.5455	0.1	1098.9
8035	20.198	2.7273	0.1	1106.9
8036	20.198	2.9091	0.1	1110.9
8037	20.198	3.0909	0.1	1110.9
8038	20.198	3.2727	0.1	1106.9
8039	20.198	3.4545	0.1	1098.9
8040	20.198	3.6364	0.1	1087.
8041	20.198	3.8182	0.1	1070.3
8042	20.198	4.	0.1	1046.9
8043	20.198	4.1818	0.1	1014.4
8044	20.198	4.3636	0.1	971.67
8045	20.198	4.5455	0.1	919.91
8046	20.198	4.7273	0.1	862.6
8047	20.198	4.9091	0.1	803.93
8048	20.198	5.0909	0.1	747.67
8049	20.198	5.2727	0.1	696.57
8050	20.198	5.4545	0.1	652.29
8051	20.198	5.6364	0.1	615.41
8052	20.198	5.8182	0.1	585.33
8053	20.382	0.18182	0.1	500.87
8054	20.382	0.36364	0.1	532.88
8055	20.382	0.54545	0.1	574.26
8056	20.382	0.72727	0.1	625.83
8057	20.382	0.90909	0.1	687.06
8058	20.382	1.0909	0.1	756.21
8059	20.382	1.2727	0.1	830.18
8060	20.382	1.4545	0.1	904.15
8061	20.382	1.6364	0.1	971.52
8062	20.382	1.8182	0.1	1026.3
8063	20.382	2.	0.1	1065.9
8064	20.382	2.1818	0.1	1092.5
8065	20.382	2.3636	0.1	1110.7
8066	20.382	2.5455	0.1	1123.6
8067	20.382	2.7273	0.1	1132.2
8068	20.382	2.9091	0.1	1136.6
8069	20.382	3.0909	0.1	1136.6
8070	20.382	3.2727	0.1	1132.2
8071	20.382	3.4545	0.1	1123.6
8072	20.382	3.6364	0.1	1110.7
8073	20.382	3.8182	0.1	1092.5
8074	20.382	4.	0.1	1065.9
8075	20.382	4.1818	0.1	1026.3
8076	20.382	4.3636	0.1	971.52
8077	20.382	4.5455	0.1	904.15
8078	20.382	4.7273	0.1	830.18
8079	20.382	4.9091	0.1	756.21
8080	20.382	5.0909	0.1	687.06
8081	20.382	5.2727	0.1	625.83
8082	20.382	5.4545	0.1	574.26
8083	20.382	5.6364	0.1	532.88
8084	20.382	5.8182	0.1	500.87
8085	20.566	0.18182	0.1	411.59
8086	20.566	0.36364	0.1	445.22
8087	20.566	0.54545	0.1	491.86
8088	20.566	0.72727	0.1	552.06
8089	20.566	0.90909	0.1	625.11
8090	20.566	1.0909	0.1	709.51
8091	20.566	1.2727	0.1	802.56
8092	20.566	1.4545	0.1	899.05
8093	20.566	1.6364	0.1	989.79
8094	20.566	1.8182	0.1	1061.9
8095	20.566	2.	0.1	1110.1
8096	20.566	2.1818	0.1	1138.3
8097	20.566	2.3636	0.1	1155.3
8098	20.566	2.5455	0.1	1166.9
8099	20.566	2.7273	0.1	1174.
8100	20.566	2.9091	0.1	1177.3
8101	20.566	3.0909	0.1	1177.3
8102	20.566	3.2727	0.1	1174.
8103	20.566	3.4545	0.1	1166.9
8104	20.566	3.6364	0.1	1155.3
8105	20.566	3.8182	0.1	1138.3
8106	20.566	4.	0.1	1110.1
8107	20.566	4.1818	0.1	1061.9
8108	20.566	4.3636	0.1	989.79
8109	20.566	4.5455	0.1	899.05
8110	20.566	4.7273	0.1	802.56
8111	20.566	4.9091	0.1	709.51
8112	20.566	5.0909	0.1	625.11
8113	20.566	5.2727	0.1	552.06
8114	20.566	5.4545	0.1	491.86
8115	20.566	5.6364	0.1	445.22
8116	20.566	5.8182	0.1	411.59
8117	20.749	0.18182	0.1	318.48
8118	20.749	0.36364	0.1	354.41
8119	20.749	0.54545	0.1	408.42
8120	20.749	0.72727	0.1	479.26
8121	20.749	0.90909	0.1	565.58
8122	20.749	1.0909	0.1	666.72
8123	20.749	1.2727	0.1	782.01
8124	20.749	1.4545	0.1	909.21
8125	20.749	1.6364	0.1	1035.4
8126	20.749	1.8182	0.1	1138.4
8127	20.749	2.	0.1	1198.2
8128	20.749	2.1818	0.1	1220.8
8129	20.749	2.3636	0.1	1231.4
8130	20.749	2.5455	0.1	1234.4
8131	20.749	2.7273	0.1	1233.6
8132	20.749	2.9091	0.1	1232.3
8133	20.749	3.0909	0.1	1232.3
8134	20.749	3.2727	0.1	1233.6
8135	20.749	3.4545	0.1	1234.4
8136	20.749	3.6364	0.1	1231.4
8137	20.749	3.8182	0.1	1220.8
8138	20.749	4.	0.1	1198.2
8139	20.749	4.1818	0.1	1138.4
8140	20.749	4.3636	0.1	1035.4
8141	20.749	4.5455	0.1	909.21
8142	20.749	4.7273	0.1	782.01
8143	20.749	4.9091	0.1	666.72
8144	20.749	5.0909	0.1	565.58
8145	20.749	5.2727	0.1	479.26
8146	20.749	5.4545	0.1	408.42
8147	20.749	5.6364	0.1	354.41
8148	20.749	5.8182	0.1	318.48
8149	20.933	0.18182	0.1	224.
8150	20.933	0.36364	0.1	266.71
8151	20.933	0.54545	0.1	333.18
8152	20.933	0.72727	0.1	417.3
8153	20.933	0.90909	0.1	517.29
8154	20.933	1.0909	0.1	634.38
8155	20.933	1.2727	0.1	772.85
8156	20.933	1.4545	0.1	935.21
8157	20.933	1.6364	0.1	1128.1
8158	20.933	1.8182	0.1	1305.
8159	20.933	2.	0.1	1378.8
8160	20.933	2.1818	0.1	1384.7
8161	20.933	2.3636	0.1	1358.1
8162	20.933	2.5455	0.1	1329.5
8163	20.933	2.7273	0.1	1306.1
8164	20.933	2.9091	0.1	1293.4
8165	20.933	3.0909	0.1	1293.4
8166	20.933	3.2727	0.1	1306.1
8167	20.933	3.4545	0.1	1329.5
8168	20.933	3.6364	0.1	1358.1
8169	20.933	3.8182	0.1	1384.7
8170	20.933	4.	0.1	1378.8
8171	20.933	4.1818	0.1	1305.
8172	20.933	4.3636	0.1	1128.1
8173	20.933	4.5455	0.1	935.21
8174	20.933	4.7273	0.1	772.85
8175	20.933	4.9091	0.1	634.38
8176	20.933	5.0909	0.1	517.29
8177	20.933	5.2727	0.1	417.3
8178	20.933	5.4545	0.1	333.18
8179	20.933	5.6364	0.1	266.71
8180	20.933	5.8182	0.1	224.
8181	21.116	0.18182	0.1	139.29
8182	21.116	0.36364	0.1	208.74
8183	21.116	0.54545	0.1	297.98
8184	21.116	0.72727	0.1	399.81
8185	21.116	0.90909	0.1	515.6
8186	21.116	1.0909	0.1	649.97
8187	21.116	1.2727	0.1	811.46
8188	21.116	1.4545	0.1	1017.1
8189	21.116	1.6364	0.1	1299.9
8190	21.116	1.8182	0.1	1719.8
8191	21.116	2.	0.1	1955.8
8192	21.116	2.1818	0.1	1717.9
8193	21.116	2.3636	0.1	1553.6
8194	21.116	2.5455	0.1	1436.6
8195	21.116	2.7273	0.1	1371.8
8196	21.116	2.9091	0.1	1341.6
8197	21.116	3.0909	0.1	1341.6
8198	21.116	3.2727	0.1	1371.8
8199	21.116	3.4545	0.1	1436.6
8200	21.116	3.6364	0.1	1553.6
8201	21.116	3.8182	0.1	1717.9
8202	21.116	4.	0.1	1955.8
8203	21.116	4.1818	0.1	1719.8
8204	21.116	4.3636	0.1	1299.9
8205	21.116	4.5455	0.1	1017.1
8206	21.116	4.7273	0.1	811.46
8207	21.116	4.9091	0.1	649.97
8208	21.116	5.0909	0.1	515.6
8209	21.116	5.2727	0.1	399.81
8210	21.116	5.4545	0.1	297.98
8211	21.116	5.6364	0.1	208.74
8212	21.116	5.8182	0.1	139.29
8213	21.467	3.8182	0.1	2120.
8214	21.467	3.6364	0.1	1662.3
8215	21.467	3.4545	0.1	1451.3
8216	21.467	3.2727	0.1	1345.7
8217	21.467	3.0909	0.1	1300.5
8218	21.467	2.9091	0.1	1300.5
8219	21.467	2.7273	0.1	1345.7
8220	21.467	2.5455	0.1	1451.3
8221	21.467	2.3636	0.1	1662.3
8222	21.467	2.1818	0.1	2120.
8223	21.3	3.8182	0.1	2237.3
8224	21.3	3.6364	0.1	1703.9
8225	21.3	3.4545	0.1	1498.6
8226	21.3	3.2727	0.1	1393.5
8227	21.3	3.0909	0.1	1349.
8228	21.3	2.9091	0.1	1349.
8229	21.3	2.7273	0.1	1393.5
8230	21.3	2.5455	0.1	1498.6
8231	21.3	2.3636	0.1	1703.9
8232	21.3	2.1818	0.1	2237.3
8233	21.467	5.8182	0.1	39.835
8234	21.467	5.6364	0.1	75.296
8235	21.467	5.4545	0.1	110.57
8236	21.467	5.2727	0.1	149.92
8237	21.467	5.0909	0.1	196.42
8238	21.467	4.9091	0.1	254.07
8239	21.467	4.7273	0.1	329.11
8240	21.467	4.5455	0.1	436.38
8241	21.467	4.3636	0.1	575.35
8242	21.467	4.1818	0.1	1004.4
8243	21.467	4.	0.1	2978.7
8244	21.3	4.	0.1	3531.5
8245	21.3	4.1818	0.1	1554.7
8246	21.3	4.3636	0.1	917.63
8247	21.3	4.5455	0.1	714.36
8248	21.3	4.7273	0.1	556.64
8249	21.3	4.9091	0.1	440.41
8250	21.3	5.0909	0.1	346.15
8251	21.3	5.2727	0.1	266.42
8252	21.3	5.4545	0.1	196.63
8253	21.3	5.6364	0.1	133.54
8254	21.3	5.8182	0.1	71.587
8255	21.467	0.18182	0.1	39.835
8256	21.467	0.36364	0.1	75.296
8257	21.467	0.54545	0.1	110.57
8258	21.467	0.72727	0.1	149.92
8259	21.467	0.90909	0.1	196.42
8260	21.467	1.0909	0.1	254.07
8261	21.467	1.2727	0.1	329.11
8262	21.467	1.4545	0.1	436.38
8263	21.467	1.6364	0.1	575.35
8264	21.467	1.8182	0.1	1004.4
8265	21.467	2.	0.1	2978.7
8266	21.3	2.	0.1	3531.5
8267	21.3	1.8182	0.1	1554.7
8268	21.3	1.6364	0.1	917.63
8269	21.3	1.4545	0.1	714.36
8270	21.3	1.2727	0.1	556.64
8271	21.3	1.0909	0.1	440.41
8272	21.3	0.90909	0.1	346.15
8273	21.3	0.72727	0.1	266.42
8274	21.3	0.54545	0.1	196.63
8275	21.3	0.36364	0.1	133.54
8276	21.3	0.18182	0.1	71.587
8277	21.467	6.	0.1	4.7107
8278	21.648	6.	0.1	42.457
8279	21.829	6.	0.1	78.163
8280	22.01	6.	0.1	104.94
8281	22.19	6.	0.1	123.85
8282	22.371	6.	0.1	135.04
8283	22.552	6.	0.1	139.
8284	22.733	6.	0.1	136.41
8285	22.914	6.	0.1	128.13
8286	23.095	6.	0.1	115.05
8287	23.276	6.	0.1	98.096
8288	23.457	6.	0.1	78.111
8289	23.638	6.	0.1	56.074
8290	23.819	6.	0.1	32.366
8291	24.	6.	0.1	8.9798
8292	24.	5.8182	0.1	31.096
8293	24.	5.6364	0.1	46.427
8294	24.	5.4545	0.1	53.805
8295	24.	5.2727	0.1	56.359
8296	24.	5.0909	0.1	55.498
8297	24.	4.9091	0.1	52.395
8298	24.	4.7273	0.1	48.132
8299	24.	4.5455	0.1	43.78
8300	24.	4.3636	0.1	40.299
8301	24.	4.1818	0.1	38.299
8302	24.	4.	0.1	37.811
8303	24.	3.8182	0.1	38.352
8304	24.	3.6364	0.1	39.288
8305	24.	3.4545	0.1	40.154
8306	24.	3.2727	0.1	40.742
8307	24.	3.0909	0.1	41.022
8308	24.	2.9091	0.1	41.022
8309	24.	2.7273	0.1	40.742
8310	24.	2.5455	0.1	40.154
8311	24.	2.3636	0.1	39.288
8312	24.	2.1818	0.1	38.352
8313	24.	2.	0.1	37.811
8314	24.	1.8182	0.1	38.299
8315	24.	1.6364	0.1	40.299
8316	24.	1.4545	0.1	43.78
8317	24.	1.2727	0.1	48.132
8318	24.	1.0909	0.1	52.395
8319	24.	0.90909	0.1	55.498
8320	24.	0.72727	0.1	56.359
8321	24.	0.54545	0.1	53.805
8322	24.	0.36364	0.1	46.427
8323	24.	0.18182	0.1	31.096
8324	1.5894e-015	0.18182	0.1	1374.7
8325	3.1789e-015	0.36364	0.1	2362.
8326	4.7683e-015	0.54545	0.1	2881.
8327	6.3578e-015	0.72727	0.1	3209.3
8328	7.9472e-015	0.90909	0.1	3428.7
8329	9.5366e-015	1.0909	0.1	3585.1
8330	1.1126e-014	1.2727	0.1	3700.9
8331	1.2716e-014	1.4545	0.1	3788.7
8332	1.4305e-014	1.6364	0.1	3856.3
8333	1.5894e-014	1.8182	0.1	3908.7
8334	1.7484e-014	2.	0.1	3949.3
8335	1.9073e-014	2.1818	0.1	3980.4
8336	2.0663e-014	2.3636	0.1	4003.7
8337	2.2252e-014	2.5455	0.1	4020.4
8338	2.3842e-014	2.7273	0.1	4031.
8339	2.5431e-014	2.9091	0.1	4036.3
8340	2.702e-014	3.0909	0.1	4036.3
8341	2.861e-014	3.2727	0.1	4031.
8342	3.0199e-014	3.4545	0.1	4020.4
8343	3.1789e-014	3.6364	0.1	4003.7
8344	3.3378e-014	3.8182	0.1	3980.4
8345	3.4968e-014	4.	0.1	3949.3
8346	3.6557e-014	4.1818	0.1	3908.7
8347	3.8147e-014	4.3636	0.1	3856.3
8348	3.9736e-014	4.5455	0.1	3788.7
8349	4.1325e-014	4.7273	0.1	3700.9
8350	4.2915e-014	4.9091	0.1	3585.1
8351	4.4504e-014	5.0909	0.1	3428.7
8352	4.6094e-014	5.2727	0.1	3209.3
8353	4.7683e-014	5.4545	0.1	2881.
8354	4.9273e-014	5.6364	0.1	2362.
8355	5.0862e-014	5.8182	0.1	1374.7
8356	24.	0.	0.1	8.9798
8357	23.819	0.	0.1	32.366
8358	23.638	0.	0.1	56.074
8359	23.457	0.	0.1	78.111
8360	23.276	0.	0.1	98.096
8361	23.095	0.	0.1	115.05
8362	22.914	0.	0.1	128.13
8363	22.733	0.	0.1	136.41
8364	22.552	0.	0.1	139.
8365	22.371	0.	0.1	135.04
8366	22.19	0.	0.1	123.85
8367	22.01	0.	0.1	104.94
8368	21.829	0.	0.1	78.163
8369	21.648	0.	0.1	42.457
8370	21.467	0.	0.1	4.7107
8371	21.3	0.	0.1	9.3504
8372	21.116	1.4433e-030	0.1	95.406
8373	20.933	1.4307e-030	0.1	197.28
8374	20.749	1.4182e-030	0.1	295.46
8375	20.566	1.4056e-030	0.1	390.39
8376	20.382	1.3931e-030	0.1	480.91
8377	20.198	1.3805e-030	0.1	566.33
8378	20.015	1.368e-030	0.1	646.37
8379	19.831	1.3554e-030	0.1	721.13
8380	19.647	1.3429e-030	0.1	790.98
8381	19.464	1.3303e-030	0.1	856.44
8382	19.28	1.3178e-030	0.1	918.09
8383	19.097	1.3052e-030	0.1	976.49
8384	18.913	1.2927e-030	0.1	1032.2
8385	18.729	1.2801e-030	0.1	1085.7
8386	18.546	1.2676e-030	0.1	1137.3
8387	18.362	1.255e-030	0.1	1187.6
8388	18.178	1.2425e-030	0.1	1236.6
8389	17.995	1.2299e-030	0.1	1284.8
8390	17.811	1.2174e-030	0.1	1332.2
8391	17.628	1.2048e-030	0.1	1379.1
8392	17.444	1.1923e-030	0.1	1425.6
8393	17.26	1.1797e-030	0.1	1471.8
8394	17.077	1.1672e-030	0.1	1517.9
8395	16.893	1.1546e-030	0.1	1563.7
8396	16.709	1.1421e-030	0.1	1609.5
8397	16.526	1.1295e-030	0.1	1655.3
8398	16.342	1.117e-030	0.1	1701.1
8399	16.159	1.1044e-030	0.1	1747.
8400	15.975	1.0919e-030	0.1	1792.9
8401	15.791	1.0793e-030	0.1	1838.9
8402	15.608	1.0668e-030	0.1	1885.
8403	15.424	1.0542e-030	0.1	1931.3
8404	15.241	1.0417e-030	0.1	1977.7
8405	15.057	1.0291e-030	0.1	2024.2
8406	14.873	1.0166e-030	0.1	2070.9
8407	14.69	1.004e-030	0.1	2117.7
8408	14.506	9.9146e-031	0.1	2164.8
8409	14.322	9.7891e-031	0.1	2212.
8410	14.139	9.6636e-031	0.1	2259.3
8411	13.955	9.5381e-031	0.1	2306.9
8412	13.772	9.4126e-031	0.1	2354.6
8413	13.588	9.2871e-031	0.1	2402.5
8414	13.404	9.1616e-031	0.1	2450.6
8415	13.221	9.0361e-031	0.1	2499.
8416	13.037	8.9106e-031	0.1	2547.5
8417	12.853	8.7851e-031	0.1	2596.2
8418	12.67	8.6596e-031	0.1	2645.1
8419	12.486	8.5341e-031	0.1	2694.2
8420	12.303	8.4086e-031	0.1	2743.5
8421	12.119	8.2831e-031	0.1	2793.
8422	11.935	8.1576e-031	0.1	2842.8
8423	11.752	8.0321e-031	0.1	2892.7
8424	11.568	7.9066e-031	0.1	2942.9
8425	11.384	7.7811e-031	0.1	2993.3
8426	11.201	7.6556e-031	0.1	3043.9
8427	11.017	7.5301e-031	0.1	3094.8
8428	10.834	7.4046e-031	0.1	3145.8
8429	10.65	7.2791e-031	0.1	3197.1
8430	10.466	7.1536e-031	0.1	3248.7
8431	10.283	7.0281e-031	0.1	3300.5
8432	10.099	6.9026e-031	0.1	3352.5
8433	9.9155	6.7771e-031	0.1	3404.8
8434	9.7319	6.6516e-031	0.1	3457.3
8435	9.5483	6.5261e-031	0.1	3510.1
8436	9.3647	6.4006e-031	0.1	3563.2
8437	9.181	6.2751e-031	0.1	3616.5
8438	8.9974	6.1496e-031	0.1	3670.1
8439	8.8138	6.0241e-031	0.1	3724.
8440	8.6302	5.8986e-031	0.1	3778.2
8441	8.4466	5.7731e-031	0.1	3832.7
8442	8.2629	5.6476e-031	0.1	3887.5
8443	8.0793	5.5221e-031	0.1	3942.6
8444	7.8957	5.3966e-031	0.1	3998.1
8445	7.7121	5.2711e-031	0.1	4053.9
8446	7.5284	5.1456e-031	0.1	4110.1
8447	7.3448	5.0201e-031	0.1	4166.6
8448	7.1612	4.8946e-031	0.1	4223.6
8449	6.9776	4.7691e-031	0.1	4280.9
8450	6.794	4.6436e-031	0.1	4338.7
8451	6.6103	4.5181e-031	0.1	4396.9
8452	6.4267	4.3926e-031	0.1	4455.6
8453	6.2431	4.2671e-031	0.1	4514.7
8454	6.0595	4.1416e-031	0.1	4574.4
8455	5.8759	4.0161e-031	0.1	4634.6
8456	5.6922	3.8906e-031	0.1	4695.3
8457	5.5086	3.7651e-031	0.1	4756.6
8458	5.325	3.6396e-031	0.1	4818.5
8459	5.1414	3.5141e-031	0.1	4880.9
8460	4.9578	3.3885e-031	0.1	4944.
8461	4.7741	3.263e-031	0.1	5007.7
8462	4.5905	3.1375e-031	0.1	5072.1
8463	4.4069	3.012e-031	0.1	5137.
8464	4.2233	2.8865e-031	0.1	5202.5
8465	4.0397	2.761e-031	0.1	5268.6
8466	3.856	2.6355e-031	0.1	5335.1
8467	3.6724	2.51e-031	0.1	5402.
8468	3.4888	2.3845e-031	0.1	5469.1
8469	3.3052	2.259e-031	0.1	5536.2
8470	3.1216	2.1335e-031	0.1	5603.1
8471	2.9379	2.008e-031	0.1	5669.3
8472	2.7543	1.8825e-031	0.1	5734.3
8473	2.5707	1.757e-031	0.1	5797.4
8474	2.3871	1.6315e-031	0.1	5857.7
8475	2.2034	1.506e-031	0.1	5914.
8476	2.0198	1.3805e-031	0.1	5964.6
8477	1.8362	1.255e-031	0.1	6007.1
8478	1.6526	1.1295e-031	0.1	6038.3
8479	1.469	1.004e-031	0.1	6053.7
8480	1.2853	8.7851e-032	0.1	6046.4
8481	1.1017	7.5301e-032	0.1	6006.3
8482	0.9181	6.2751e-032	0.1	5916.9
8483	0.73448	5.0201e-032	0.1	5750.1
8484	0.55086	3.7651e-032	0.1	5450.5
8485	0.36724	2.51e-032	0.1	4919.8
8486	0.18362	1.255e-032	0.1	3785.4
8487	0.	0.	0.1	2243.9
8488	3.937e-014	6.	0.1	2243.9
8489	0.18362	6.	0.1	3785.4
8490	0.36724	6.	0.1	4919.8
8491	0.55086	6.	0.1	5450.5
8492	0.73448	6.	0.1	5750.1
8493	0.9181	6.	0.1	5916.9
8494	1.1017	6.	0.1	6006.3
8495	1.2853	6.	0.1	6046.4
8496	1.469	6.	0.1	6053.7
8497	1.6526	6.	0.1	6038.3
8498	1.8362	6.	0.1	6007.1
8499	2.0198	6.	0.1	5964.6
8500	2.2034	6.	0.1	5914.
8501	2.3871	6.	0.1	5857.7
8502	2.5707	6.	0.1	5797.4
8503	2.7543	6.	0.1	5734.3
8504	2.9379	6.	0.1	5669.3
8505	3.1216	6.	0.1	5603.1
8506	3.3052	6.	0.1	5536.2
8507	3.4888	6.	0.1	5469.1
8508	3.6724	6.	0.1	5402.
8509	3.856	6.	0.1	5335.1
8510	4.0397	6.	0.1	5268.6
8511	4.2233	6.	0.1	5202.5
8512	4.4069	6.	0.1	5137.
8513	4.5905	6.	0.1	5072.1
8514	4.7741	6.	0.1	5007.7
8515	4.9578	6.	0.1	4944.
8516	5.1414	6.	0.1	4880.9
8517	5.325	6.	0.1	4818.5
8518	5.5086	6.	0.1	4756.6
8519	5.6922	6.	0.1	4695.3
8520	5.8759	6.	0.1	4634.6
8521	6.0595	6.	0.1	4574.4
8522	6.2431	6.	0.1	4514.7
8523	6.4267	6.	0.1	4455.6
8524	6.6103	6.	0.1	4396.9
8525	6.794	6.	0.1	4338.7
8526	6.9776	6.	0.1	4280.9
8527	7.1612	6.	0.1	4223.6
8528	7.3448	6.	0.1	4166.6
8529	7.5284	6.	0.1	4110.1
8530	7.7121	6.	0.1	4053.9
8531	7.8957	6.	0.1	3998.1
8532	8.0793	6.	0.1	3942.6
8533	8.2629	6.	0.1	3887.5
8534	8.4466	6.	0.1	3832.7
8535	8.6302	6.	0.1	3778.2
8536	8.8138	6.	0.1	3724.
8537	8.9974	6.	0.1	3670.1
8538	9.181	6.	0.1	3616.5
8539	9.3647	6.	0.1	3563.2
8540	9.5483	6.	0.1	3510.1
8541	9.7319	6.	0.1	3457.3
8542	9.9155	6.	0.1	3404.8
8543	10.099	6.	0.1	3352.5
8544	10.283	6.	0.1	3300.5
8545	10.466	6.	0.1	3248.7
8546	10.65	6.	0.1	3197.1
8547	10.834	6.	0.1	3145.8
8548	11.017	6.	0.1	3094.8
8549	11.201	6.	0.1	3043.9
8550	11.384	6.	0.1	2993.3
8551	11.568	6.	0.1	2942.9
8552	11.752	6.	0.1	2892.7
8553	11.935	6.	0.1	2842.8
8554	12.119	6.	0.1	2793.
8555	12.303	6.	0.1	2743.5
8556	12.486	6.	0.1	2694.2
8557	12.67	6.	0.1	2645.1
8558	12.853	6.	0.1	2596.2
8559	13.037	6.	0.1	2547.5
8560	13.221	6.	0.1	2499.
8561	13.404	6.	0.1	2450.6
8562	13.588	6.	0.1	2402.5
8563	13.772	6.	0.1	2354.6
8564	13.955	6.	0.1	2306.9
8565	14.139	6.	0.1	2259.3
8566	14.322	6.	0.1	2212.
8567	14.506	6.	0.1	2164.8
8568	14.69	6.	0.1	2117.7
8569	14.873	6.	0.1	2070.9
8570	15.057	6.	0.1	2024.2
8571	15.241	6.	0.1	1977.7
8572	15.424	6.	0.1	1931.3
8573	15.608	6.	0.1	1885.
8574	15.791	6.	0.1	1838.9
8575	15.975	6.	0.1	1792.9
8576	16.159	6.	0.1	1747.
8577	16.342	6.	0.1	1701.1
8578	16.526	6.	0.1	1655.3
8579	16.709	6.	0.1	1609.5
8580	16.893	6.	0.1	1563.7
8581	17.077	6.	0.1	1517.9
8582	17.26	6.	0.1	1471.8
8583	17.444	6.	0.1	1425.6
8584	17.628	6.	0.1	1379.1
8585	17.811	6.	0.1	1332.2
8586	17.995	6.	0.1	1284.8
8587	18.178	6.	0.1	1236.6
8588	18.362	6.	0.1	1187.6
8589	18.546	6.	0.1	1137.3
8590	18.729	6.	0.1	1085.7
8591	18.913	6.	0.1	1032.2
8592	19.097	6.	0.1	976.49
8593	19.28	6.	0.1	918.09
8594	19.464	6.	0.1	856.44
8595	19.647	6.	0.1	790.98
8596	19.831	6.	0.1	721.13
8597	20.015	6.	0.1	646.37
8598	20.198	6.	0.1	566.33
8599	20.382	6.	0.1	480.91
8600	20.566	6.	0.1	390.39
8601	20.749	6.	0.1	295.46
8602	20.933	6.	0.1	197.28
8603	21.116	6.	0.1	95.406
8604	21.3	6.	0.1	9.3504
8605	21.116	6.	0.	95.406
8606	20.933	6.	0.	197.28
8607	20.749	6.	0.	295.46
8608	20.566	6.	0.	390.39
8609	20.382	6.	0.	480.91
8610	20.198	6.	0.	566.33
8611	20.015	6.	0.	646.37
8612	19.831	6.	0.	721.13
8613	19.647	6.	0.	790.98
8614	19.464	6.	0.	856.44
8615	19.28	6.	0.	918.09
8616	19.097	6.	0.	976.49
8617	18.913	6.	0.	1032.2
8618	18.729	6.	0.	1085.7
8619	18.546	6.	0.	1137.3
8620	18.362	6.	0.	1187.6
8621	18.178	6.	0.	1236.6
8622	17.995	6.	0.	1284.8
8623	17.811	6.	0.	1332.2
8624	17.628	6.	0.	1379.1
8625	17.444	6.	0.	1425.6
8626	17.26	6.	0.	1471.8
8627	17.077	6.	0.	1517.9
8628	16.893	6.	0.	1563.7
8629	16.709	6.	0.	1609.5
8630	16.526	6.	0.	1655.3
8631	16.342	6.	0.	1701.1
8632	16.159	6.	0.	1747.
8633	15.975	6.	0.	1792.9
8634	15.791	6.	0.	1838.9
8635	15.608	6.	0.	1885.
8636	15.424	6.	0.	1931.3
8637	15.241	6.	0.	1977.7
8638	15.057	6.	0.	2024.2
8639	14.873	6.	0.	2070.9
8640	14.69	6.	0.	2117.7
8641	14.506	6.	0.	2164.8
8642	14.322	6.	0.	2212.
8643	14.139	6.	0.	2259.3
8644	13.955	6.	0.	2306.9
8645	13.772	6.	0.	2354.6
8646	13.588	6.	0.	2402.5
8647	13.404	6.	0.	2450.6
8648	13.221	6.	0.	2499.
8649	13.037	6.	0.	2547.5
8650	12.853	6.	0.	2596.2
8651	12.67	6.	0.	2645.1
8652	12.486	6.	0.	2694.2
8653	12.303	6.	0.	2743.5
8654	12.119	6.	0.	2793.
8655	11.935	6.	0.	2842.8
8656	11.752	6.	0.	2892.7
8657	11.568	6.	0.	2942.9
8658	11.384	6.	0.	2993.3
8659	11.201	6.	0.	3043.9
8660	11.017	6.	0.	3094.8
8661	10.834	6.	0.	3145.8
8662	10.65	6.	0.	3197.1
8663	10.466	6.	0.	3248.7
8664	10.283	6.	0.	3300.5
8665	10.099	6.	0.	3352.5
8666	9.9155	6.	0.	3404.8
8667	9.7319	6.	0.	3457.3
8668	9.5483	6.	0.	3510.1
8669	9.3647	6.	0.	3563.2
8670	9.181	6.	0.	3616.5
8671	8.9974	6.	0.	3670.1
8672	8.8138	6.	0.	3724.
8673	8.6302	6.	0.	3778.2
8674	8.4466	6.	0.	3832.7
8675	8.2629	6.	0.	3887.5
8676	8.0793	6.	0.	3942.6
8677	7.8957	6.	0.	3998.1
8678	7.7121	6.	0.	4053.9
8679	7.5284	6.	0.	4110.1
8680	7.3448	6.	0.	4166.6
8681	7.1612	6.	0.	4223.6
8682	6.9776	6.	0.	4280.9
8683	6.794	6.	0.	4338.7
8684	6.6103	6.	0.	4396.9
8685	6.4267	6.	0.	4455.6
8686	6.2431	6.	0.	4514.7
8687	6.0595	6.	0.	4574.4
8688	5.8759	6.	0.	4634.6
8689	5.6922	6.	0.	4695.3
8690	5.5086	6.	0.	4756.6
8691	5.325	6.	0.	4818.5
8692	5.1414	6.	0.	4880.9
8693	4.9578	6.	0.	4944.
8694	4.7741	6.	0.	5007.7
8695	4.5905	6.	0.	5072.1
8696	4.4069	6.	0.	5137.
8697	4.2233	6.	0.	5202.5
8698	4.0397	6.	0.	5268.6
8699	3.856	6.	0.	5335.1
8700	3.6724	6.	0.	5402.
8701	3.4888	6.	0.	5469.1
8702	3.3052	6.	0.	5536.2
8703	3.1216	6.	0.	5603.1
8704	2.9379	6.	0.	5669.3
8705	2.7543	6.	0.	5734.3
8706	2.5707	6.	0.	5797.4
8707	2.3871	6.	0.	5857.7
8708	2.2034	6.	0.	5914.
8709	2.0198	6.	0.	5964.6
8710	1.8362	6.	0.	6007.1
8711	1.6526	6.	0.	6038.3
8712	1.469	6.	0.	6053.7
8713	1.2853	6.	0.	6046.4
8714	1.1017	6.	0.	6006.3
8715	0.9181	6.	0.	5916.9
8716	0.73448	6.	0.	5750.1
8717	0.55086	6.	0.	5450.5
8718	0.36724	6.	0.	4919.8
8719	0.18362	6.	0.	3785.4
8720	21.3	6.	0.	9.3504
8721	3.937e-014	6.	0.	2243.9
8722	0.18362	1.255e-032	0.	3785.4
8723	0.36724	2.51e-032	0.	4919.8
8724	0.55086	3.7651e-032	0.	5450.5
8725	0.73448	5.0201e-032	0.	5750.1
8726	0.9181	6.2751e-032	0.	5916.9
8727	1.1017	7.5301e-032	0.	6006.3
8728	1.2853	8.7851e-032	0.	6046.4
8729	1.469	1.004e-031	0.	6053.7
8730	1.6526	1.1295e-031	0.	6038.3
8731	1.8362	1.255e-031	0.	6007.1
8732	2.0198	1.3805e-031	0.	5964.6
8733	2.2034	1.506e-031	0.	5914.
8734	2.3871	1.6315e-031	0.	5857.7
8735	2.5707	1.757e-031	0.	5797.4
8736	2.7543	1.8825e-031	0.	5734.3
8737	2.9379	2.008e-031	0.	5669.3
8738	3.1216	2.1335e-031	0.	5603.1
8739	3.3052	2.259e-031	0.	5536.2
8740	3.4888	2.3845e-031	0.	5469.1
8741	3.6724	2.51e-031	0.	5402.
8742	3.856	2.6355e-031	0.	5335.1
8743	4.0397	2.761e-031	0.	5268.6
8744	4.2233	2.8865e-031	0.	5202.5
8745	4.4069	3.012e-031	0.	5137.
8746	4.5905	3.1375e-031	0.	5072.1
8747	4.7741	3.263e-031	0.	5007.7
8748	4.9578	3.3885e-031	0.	4944.
8749	5.1414	3.5141e-031	0.	4880.9
8750	5.325	3.6396e-031	0.	4818.5
8751	5.5086	3.7651e-031	0.	4756.6
8752	5.6922	3.8906e-031	0.	4695.3
8753	5.8759	4.0161e-031	0.	4634.6
8754	6.0595	4.1416e-031	0.	4574.4
8755	6.2431	4.2671e-031	0.	4514.7
8756	6.4267	4.3926e-031	0.	4455.6
8757	6.6103	4.5181e-031	0.	4396.9
8758	6.794	4.6436e-031	0.	4338.7
8759	6.9776	4.7691e-031	0.	4280.9
8760	7.1612	4.8946e-031	0.	4223.6
8761	7.3448	5.0201e-031	0.	4166.6
8762	7.5284	5.1456e-031	0.	4110.1
8763	7.7121	5.2711e-031	0.	4053.9
8764	7.8957	5.3966e-031	0.	3998.1
8765	8.0793	5.5221e-031	0.	3942.6
8766	8.2629	5.6476e-031	0.	3887.5
8767	8.4466	5.7731e-031	0.	3832.7
8768	8.6302	5.8986e-031	0.	3778.2
8769	8.8138	6.0241e-031	0.	3724.
8770	8.9974	6.1496e-031	0.	3670.1
8771	9.181	6.2751e-031	0.	3616.5
8772	9.3647	6.4006e-031	0.	3563.2
8773	9.5483	6.5261e-031	0.	3510.1
8774	9.7319	6.6516e-031	0.	3457.3
8775	9.9155	6.7771e-031	0.	3404.8
8776	10.099	6.9026e-031	0.	3352.5
8777	10.283	7.0281e-031	0.	3300.5
8778	10.466	7.1536e-031	0.	3248.7
8779	10.65	7.2791e-031	0.	3197.1
8780	10.834	7.4046e-031	0.	3145.8
8781	11.017	7.5301e-031	0.	3094.8
8782	11.201	7.6556e-031	0.	3043.9
8783	11.384	7.7811e-031	0.	2993.3
8784	11.568	7.9066e-031	0.	2942.9
8785	11.752	8.0321e-031	0.	2892.7
8786	11.935	8.1576e-031	0.	2842.8
8787	12.119	8.2831e-031	0.	2793.
8788	12.303	8.4086e-031	0.	2743.5
8789	12.486	8.5341e-031	0.	2694.2
8790	12.67	8.6596e-031	0.	2645.1
8791	12.853	8.7851e-031	0.	2596.2
8792	13.037	8.9106e-031	0.	2547.5
8793	13.221	9.0361e-031	0.	2499.
8794	13.404	9.1616e-031	0.	2450.6
8795	13.588	9.2871e-031	0.	2402.5
8796	13.772	9.4126e-031	0.	2354.6
8797	13.955	9.5381e-031	0.	2306.9
8798	14.139	9.6636e-031	0.	2259.3
8799	14.322	9.7891e-031	0.	2212.
8800	14.506	9.9146e-031	0.	2164.8
8801	14.69	1.004e-030	0.	2117.7
8802	14.873	1.0166e-030	0.	2070.9
8803	15.057	1.0291e-030	0.	2024.2
8804	15.241	1.0417e-030	0.	1977.7
8805	15.424	1.0542e-030	0.	1931.3
8806	15.608	1.0668e-030	0.	1885.
8807	15.791	1.0793e-030	0.	1838.9
8808	15.975	1.0919e-030	0.	1792.9
8809	16.159	1.1044e-030	0.	1747.
8810	16.342	1.117e-030	0.	1701.1
8811	16.526	1.1295e-030	0.	1655.3
8812	16.709	1.1421e-030	0.	1609.5
8813	16.893	1.1546e-030	0.	1563.7
8814	17.077	1.1672e-030	0.	1517.9
8815	17.26	1.1797e-030	0.	1471.8
8816	17.444	1.1923e-030	0.	1425.6
8817	17.628	1.2048e-030	0.	1379.1
8818	17.811	1.2174e-030	0.	1332.2
8819	17.995	1.2299e-030	0.	1284.8
8820	18.178	1.2425e-030	0.	1236.6
8821	18.362	1.255e-030	0.	1187.6
8822	18.546	1.2676e-030	0.	1137.3
8823	18.729	1.2801e-030	0.	1085.7
8824	18.913	1.2927e-030	0.	1032.2
8825	19.097	1.3052e-030	0.	976.49
8826	19.28	1.3178e-030	0.	918.09
8827	19.464	1.3303e-030	0.	856.44
8828	19.647	1.3429e-030	0.	790.98
8829	19.831	1.3554e-030	0.	721.13
8830	20.015	1.368e-030	0.	646.37
8831	20.198	1.3805e-030	0.	566.33
8832	20.382	1.3931e-030	0.	480.91
8833	20.566	1.4056e-030	0.	390.39
8834	20.749	1.4182e-030	0.	295.46
8835	20.933	1.4307e-030	0.	197.28
8836	21.116	1.4433e-030	0.	95.406
8837	21.3	0.	0.	9.3504
8838	0.	0.	0.	2243.9
8839	21.648	0.	0.	42.457
8840	21.829	0.	0.	78.163
8841	22.01	0.	0.	104.94
8842	22.19	0.	0.	123.85
8843	22.371	0.	0.	135.04
8844	22.552	0.	0.	139.
8845	22.733	0.	0.	136.41
8846	22.914	0.	0.	128.13
8847	23.095	0.	0.	115.05
8848	23.276	0.	0.	98.096
8849	23.457	0.	0.	78.111
8850	23.638	0.	0.	56.074
8851	23.819	0.	0.	32.366
8852	21.467	0.	0.	4.7106
8853	24.	0.	0.	8.9797
8854	5.0862e-014	5.8182	0.	1374.7
8855	4.9273e-014	5.6364	0.	2362.
8856	4.7683e-014	5.4545	0.	2881.
8857	4.6094e-014	5.2727	0.	3209.3
8858	4.4504e-014	5.0909	0.	3428.7
8859	4.2915e-014	4.9091	0.	3585.1
8860	4.1325e-014	4.7273	0.	3700.9
8861	3.9736e-014	4.5455	0.	3788.7
8862	3.8147e-014	4.3636	0.	3856.3
8863	3.6557e-014	4.1818	0.	3908.7
8864	3.4968e-014	4.	0.	3949.3
8865	3.3378e-014	3.8182	0.	3980.4
8866	3.1789e-014	3.6364	0.	4003.7
8867	3.0199e-014	3.4545	0.	4020.4
8868	2.861e-014	3.2727	0.	4031.
8869	2.702e-014	3.0909	0.	4036.3
8870	2.5431e-014	2.9091	0.	4036.3
8871	2.3842e-014	2.7273	0.	4031.
8872	2.2252e-014	2.5455	0.	4020.4
8873	2.0663e-014	2.3636	0.	4003.7
8874	1.9073e-014	2.1818	0.	3980.4
8875	1.7484e-014	2.	0.	3949.3
8876	1.5894e-014	1.8182	0.	3908.7
8877	1.4305e-014	1.6364	0.	3856.3
8878	1.2716e-014	1.4545	0.	3788.7
8879	1.1126e-014	1.2727	0.	3700.9
8880	9.5366e-015	1.0909	0.	3585.1
8881	7.9472e-015	0.90909	0.	3428.7
8882	6.3578e-015	0.72727	0.	3209.3
8883	4.7683e-015	0.54545	0.	2881.
8884	3.1789e-015	0.36364	0.	2362.
8885	1.5894e-015	0.18182	0.	1374.7
8886	24.	0.18182	0.	31.096
8887	24.	0.36364	0.	46.427
8888	24.	0.54545	0.	53.805
8889	24.	0.72727	0.	56.359
8890	24.	0.90909	0.	55.498
8891	24.	1.0909	0.	52.395
8892	24.	1.2727	0.	48.132
8893	24.	1.4545	0.	43.78
8894	24.	1.6364	0.	40.299
8895	24.	1.8182	0.	38.299
8896	24.	2.	0.	37.811
8897	24.	2.1818	0.	38.352
8898	24.	2.3636	0.	39.288
8899	24.	2.5455	0.	40.154
8900	24.	2.7273	0.	40.742
8901	24.	2.9091	0.	41.022
8902	24.	3.0909	0.	41.022
8903	24.	3.2727	0.	40.742
8904	24.	3.4545	0.	40.154
8905	24.	3.6364	0.	39.288
8906	24.	3.8182	0.	38.352
8907	24.	4.	0.	37.811
8908	24.	4.1818	0.	38.299
8909	24.	4.3636	0.	40.299
8910	24.	4.5455	0.	43.78
8911	24.	4.7273	0.	48.132
8912	24.	4.9091	0.	52.395
8913	24.	5.0909	0.	55.498
8914	24.	5.2727	0.	56.359
8915	24.	5.4545	0.	53.805
8916	24.	5.6364	0.	46.427
8917	24.	5.8182	0.	31.096
8918	24.	6.	0.	8.9797
8919	23.819	6.	0.	32.366
8920	23.638	6.	0.	56.074
8921	23.457	6.	0.	78.111
8922	23.276	6.	0.	98.096
8923	23.095	6.	0.	115.05
8924	22.914	6.	0.	128.13
8925	22.733	6.	0.	136.41
8926	22.552	6.	0.	139.
8927	22.371	6.	0.	135.04
8928	22.19	6.	0.	123.85
8929	22.01	6.	0.	104.94
8930	21.829	6.	0.	78.163
8931	21.648	6.	0.	42.457
8932	21.467	6.	0.	4.7106
8933	21.3	1.8182	0.	1554.7
8934	21.3	1.6364	0.	917.63
8935	21.3	1.4545	0.	714.36
8936	21.3	1.2727	0.	556.64
8937	21.3	1.0909	0.	440.41
8938	21.3	0.90909	0.	346.15
8939	21.3	0.72727	0.	266.42
8940	21.3	0.54545	0.	196.63
8941	21.3	0.36364	0.	133.54
8942	21.3	0.18182	0.	71.587
8943	21.3	2.	0.	3531.5
8944	21.467	0.18182	0.	39.835
8945	21.467	0.36364	0.	75.296
8946	21.467	0.54545	0.	110.57
8947	21.467	0.72727	0.	149.92
8948	21.467	0.90909	0.	196.42
8949	21.467	1.0909	0.	254.07
8950	21.467	1.2727	0.	329.11
8951	21.467	1.4545	0.	436.38
8952	21.467	1.6364	0.	575.35
8953	21.467	1.8182	0.	1004.4
8954	21.467	2.	0.	2978.7
8955	21.3	4.1818	0.	1554.7
8956	21.3	4.3636	0.	917.63
8957	21.3	4.5455	0.	714.36
8958	21.3	4.7273	0.	556.64
8959	21.3	4.9091	0.	440.41
8960	21.3	5.0909	0.	346.15
8961	21.3	5.2727	0.	266.42
8962	21.3	5.4545	0.	196.63
8963	21.3	5.6364	0.	133.54
8964	21.3	5.8182	0.	71.587
8965	21.3	4.	0.	3531.5
8966	21.467	5.8182	0.	39.835
8967	21.467	5.6364	0.	75.296
8968	21.467	5.4545	0.	110.57
8969	21.467	5.2727	0.	149.92
8970	21.467	5.0909	0.	196.42
8971	21.467	4.9091	0.	254.07
8972	21.467	4.7273	0.	329.11
8973	21.467	4.5455	0.	436.38
8974	21.467	4.3636	0.	575.35
8975	21.467	4.1818	0.	1004.4
8976	21.467	4.	0.	2978.7
8977	21.3	2.2727	0.	1968.2
8978	21.383	2.1818	0.	2141.4
8979	21.208	2.1818	0.	1948.3
8980	21.3	2.1818	5.e-002	168.61
8981	21.3	2.0909	0.	2795.6
8982	21.3	2.4545	0.	1601.2
8983	21.383	2.3636	0.	1673.4
8984	21.208	2.3636	0.	1623.
8985	21.3	2.3636	5.e-002	20.779
8986	21.3	2.6364	0.	1446.
8987	21.383	2.5455	0.	1472.4
8988	21.208	2.5455	0.	1465.8
8989	21.3	2.5455	5.e-002	8.8504
8990	21.3	2.8182	0.	1371.1
8991	21.383	2.7273	0.	1368.9
8992	21.208	2.7273	0.	1382.2
8993	21.3	2.7273	5.e-002	3.6726
8994	21.3	3.	0.	1348.9
8995	21.383	2.9091	0.	1324.7
8996	21.208	2.9091	0.	1345.2
8997	21.3	2.9091	5.e-002	1.0855
8998	21.3	3.1818	0.	1371.1
8999	21.383	3.0909	0.	1324.7
9000	21.208	3.0909	0.	1345.2
9001	21.3	3.0909	5.e-002	1.0855
9002	21.3	3.3636	0.	1446.
9003	21.383	3.2727	0.	1368.9
9004	21.208	3.2727	0.	1382.2
9005	21.3	3.2727	5.e-002	3.6726
9006	21.3	3.5455	0.	1601.2
9007	21.383	3.4545	0.	1472.4
9008	21.208	3.4545	0.	1465.8
9009	21.3	3.4545	5.e-002	8.8504
9010	21.3	3.7273	0.	1968.2
9011	21.383	3.6364	0.	1673.4
9012	21.208	3.6364	0.	1623.
9013	21.3	3.6364	5.e-002	20.779
9014	21.383	3.8182	0.	2141.4
9015	21.208	3.8182	0.	1948.3
9016	21.3	3.8182	5.e-002	168.61
9017	21.3	3.9091	0.	2795.6
9018	21.467	2.2727	0.	1881.3
9019	21.557	2.1818	0.	1788.1
9020	21.467	2.1818	5.e-002	122.94
9021	21.467	2.0909	0.	2469.7
9022	21.467	2.4545	0.	1554.4
9023	21.557	2.3636	0.	1526.5
9024	21.467	2.3636	5.e-002	27.462
9025	21.467	2.6364	0.	1397.5
9026	21.557	2.5455	0.	1367.4
9027	21.467	2.5455	5.e-002	12.633
9028	21.467	2.8182	0.	1322.4
9029	21.557	2.7273	0.	1282.8
9030	21.467	2.7273	5.e-002	7.606
9031	21.467	3.	0.	1299.9
9032	21.557	2.9091	0.	1245.1
9033	21.467	2.9091	5.e-002	5.855
9034	21.467	3.1818	0.	1322.4
9035	21.557	3.0909	0.	1245.1
9036	21.467	3.0909	5.e-002	5.855
9037	21.467	3.3636	0.	1397.5
9038	21.557	3.2727	0.	1282.8
9039	21.467	3.2727	5.e-002	7.606
9040	21.467	3.5455	0.	1554.4
9041	21.557	3.4545	0.	1367.4
9042	21.467	3.4545	5.e-002	12.633
9043	21.467	3.7273	0.	1881.3
9044	21.557	3.6364	0.	1526.5
9045	21.467	3.6364	5.e-002	27.462
9046	21.557	3.8182	0.	1788.1
9047	21.467	3.8182	5.e-002	122.94
9048	21.467	3.9091	0.	2469.7
9049	21.116	5.7273	0.	172.86
9050	21.025	5.8182	0.	177.37
9051	21.116	5.8182	5.e-002	18.887
9052	21.116	5.9091	0.	111.45
9053	21.208	5.8182	0.	94.288
9054	21.116	5.5455	0.	253.01
9055	21.025	5.6364	0.	230.97
9056	21.116	5.6364	5.e-002	17.276
9057	21.208	5.6364	0.	158.84
9058	21.116	5.3636	0.	348.73
9059	21.025	5.4545	0.	308.41
9060	21.116	5.4545	5.e-002	18.038
9061	21.208	5.4545	0.	233.31
9062	21.116	5.1818	0.	457.59
9063	21.025	5.2727	0.	401.36
9064	21.116	5.2727	5.e-002	19.632
9065	21.208	5.2727	0.	316.63
9066	21.116	5.	0.	582.66
9067	21.025	5.0909	0.	508.99
9068	21.116	5.0909	5.e-002	22.078
9069	21.208	5.0909	0.	411.21
9070	21.116	4.8182	0.	730.55
9071	21.025	4.9091	0.	633.95
9072	21.116	4.9091	5.e-002	25.609
9073	21.208	4.9091	0.	521.6
9074	21.116	4.6364	0.	913.91
9075	21.025	4.7273	0.	782.27
9076	21.116	4.7273	5.e-002	31.265
9077	21.208	4.7273	0.	655.52
9078	21.116	4.4545	0.	1157.9
9079	21.025	4.5455	0.	963.27
9080	21.116	4.5455	5.e-002	38.451
9081	21.208	4.5455	0.	830.59
9082	21.116	4.2727	0.	1500.7
9083	21.025	4.3636	0.	1193.
9084	21.116	4.3636	5.e-002	58.466
9085	21.208	4.3636	0.	1062.1
9086	21.116	4.0909	0.	1806.2
9087	21.025	4.1818	0.	1493.6
9088	21.116	4.1818	5.e-002	119.03
9089	21.208	4.1818	0.	1526.2
9090	21.116	3.9091	0.	1802.4
9091	21.025	4.	0.	1658.5
9092	21.116	4.	5.e-002	211.77
9093	21.208	4.	0.	2682.2
9094	21.116	3.7273	0.	1633.
9095	21.025	3.8182	0.	1550.9
9096	21.116	3.8182	5.e-002	71.238
9097	21.116	3.5455	0.	1494.5
9098	21.025	3.6364	0.	1455.4
9099	21.116	3.6364	5.e-002	32.189
9100	21.116	3.3636	0.	1404.1
9101	21.025	3.4545	0.	1382.7
9102	21.116	3.4545	5.e-002	16.097
9103	21.116	3.1818	0.	1356.7
9104	21.025	3.2727	0.	1338.8
9105	21.116	3.2727	5.e-002	8.4806
9106	21.116	3.	0.	1341.6
9107	21.025	3.0909	0.	1317.5
9108	21.116	3.0909	5.e-002	5.7996
9109	21.116	2.8182	0.	1356.7
9110	21.025	2.9091	0.	1317.5
9111	21.116	2.9091	5.e-002	5.7996
9112	21.116	2.6364	0.	1404.1
9113	21.025	2.7273	0.	1338.8
9114	21.116	2.7273	5.e-002	8.4806
9115	21.116	2.4545	0.	1494.5
9116	21.025	2.5455	0.	1382.7
9117	21.116	2.5455	5.e-002	16.097
9118	21.116	2.2727	0.	1633.
9119	21.025	2.3636	0.	1455.4
9120	21.116	2.3636	5.e-002	32.189
9121	21.116	2.0909	0.	1802.4
9122	21.025	2.1818	0.	1550.9
9123	21.116	2.1818	5.e-002	71.238
9124	21.116	1.9091	0.	1806.2
9125	21.025	2.	0.	1658.5
9126	21.116	2.	5.e-002	211.77
9127	21.208	2.	0.	2682.2
9128	21.116	1.7273	0.	1500.7
9129	21.025	1.8182	0.	1493.6
9130	21.116	1.8182	5.e-002	119.03
9131	21.208	1.8182	0.	1526.2
9132	21.116	1.5455	0.	1157.9
9133	21.025	1.6364	0.	1193.
9134	21.116	1.6364	5.e-002	58.466
9135	21.208	1.6364	0.	1062.1
9136	21.116	1.3636	0.	913.91
9137	21.025	1.4545	0.	963.27
9138	21.116	1.4545	5.e-002	38.451
9139	21.208	1.4545	0.	830.59
9140	21.116	1.1818	0.	730.55
9141	21.025	1.2727	0.	782.27
9142	21.116	1.2727	5.e-002	31.265
9143	21.208	1.2727	0.	655.52
9144	21.116	1.	0.	582.66
9145	21.025	1.0909	0.	633.95
9146	21.116	1.0909	5.e-002	25.609
9147	21.208	1.0909	0.	521.6
9148	21.116	0.81818	0.	457.59
9149	21.025	0.90909	0.	508.99
9150	21.116	0.90909	5.e-002	22.078
9151	21.208	0.90909	0.	411.21
9152	21.116	0.63636	0.	348.73
9153	21.025	0.72727	0.	401.37
9154	21.116	0.72727	5.e-002	19.632
9155	21.208	0.72727	0.	316.63
9156	21.116	0.45455	0.	253.01
9157	21.025	0.54545	0.	308.41
9158	21.116	0.54545	5.e-002	18.038
9159	21.208	0.54545	0.	233.31
9160	21.116	0.27273	0.	172.86
9161	21.025	0.36364	0.	230.97
9162	21.116	0.36364	5.e-002	17.276
9163	21.208	0.36364	0.	158.84
9164	21.025	0.18182	0.	177.37
9165	21.116	0.18182	5.e-002	18.887
9166	21.116	9.0909e-002	0.	111.45
9167	21.208	0.18182	0.	94.288
9168	20.933	5.7273	0.	244.18
9169	20.841	5.8182	0.	270.03
9170	20.933	5.8182	5.e-002	18.356
9171	20.933	5.9091	0.	207.57
9172	20.933	5.5455	0.	299.14
9173	20.841	5.6364	0.	308.13
9174	20.933	5.6364	5.e-002	16.974
9175	20.933	5.3636	0.	374.84
9176	20.841	5.4545	0.	367.32
9177	20.933	5.4545	5.e-002	17.393
9178	20.933	5.1818	0.	467.11
9179	20.841	5.2727	0.	444.11
9180	20.933	5.2727	5.e-002	18.45
9181	20.933	5.	0.	575.73
9182	20.841	5.0909	0.	536.71
9183	20.933	5.0909	5.e-002	20.122
9184	20.933	4.8182	0.	703.48
9185	20.841	4.9091	0.	645.24
9186	20.933	4.9091	5.e-002	22.509
9187	20.933	4.6364	0.	853.61
9188	20.841	4.7273	0.	771.36
9189	20.933	4.7273	5.e-002	25.64
9190	20.933	4.4545	0.	1030.
9191	20.841	4.5455	0.	915.32
9192	20.933	4.5455	5.e-002	30.99
9193	20.933	4.2727	0.	1212.7
9194	20.841	4.3636	0.	1075.2
9195	20.933	4.3636	5.e-002	28.81
9196	20.933	4.0909	0.	1333.7
9197	20.841	4.1818	0.	1216.7
9198	20.933	4.1818	5.e-002	36.395
9199	20.933	3.9091	0.	1377.5
9200	20.841	4.	0.	1287.4
9201	20.933	4.	5.e-002	27.641
9202	20.933	3.7273	0.	1369.7
9203	20.841	3.8182	0.	1302.5
9204	20.933	3.8182	5.e-002	36.445
9205	20.933	3.5455	0.	1343.2
9206	20.841	3.6364	0.	1294.8
9207	20.933	3.6364	5.e-002	22.821
9208	20.933	3.3636	0.	1317.5
9209	20.841	3.4545	0.	1282.
9210	20.933	3.4545	5.e-002	15.758
9211	20.933	3.1818	0.	1299.6
9212	20.841	3.2727	0.	1269.8
9213	20.933	3.2727	5.e-002	10.254
9214	20.933	3.	0.	1293.3
9215	20.841	3.0909	0.	1262.9
9216	20.933	3.0909	5.e-002	7.9828
9217	20.933	2.8182	0.	1299.6
9218	20.841	2.9091	0.	1262.9
9219	20.933	2.9091	5.e-002	7.9828
9220	20.933	2.6364	0.	1317.5
9221	20.841	2.7273	0.	1269.8
9222	20.933	2.7273	5.e-002	10.254
9223	20.933	2.4545	0.	1343.2
9224	20.841	2.5455	0.	1282.
9225	20.933	2.5455	5.e-002	15.758
9226	20.933	2.2727	0.	1369.7
9227	20.841	2.3636	0.	1294.8
9228	20.933	2.3636	5.e-002	22.821
9229	20.933	2.0909	0.	1377.5
9230	20.841	2.1818	0.	1302.5
9231	20.933	2.1818	5.e-002	36.445
9232	20.933	1.9091	0.	1333.7
9233	20.841	2.	0.	1287.4
9234	20.933	2.	5.e-002	27.641
9235	20.933	1.7273	0.	1212.7
9236	20.841	1.8182	0.	1216.7
9237	20.933	1.8182	5.e-002	36.395
9238	20.933	1.5455	0.	1030.
9239	20.841	1.6364	0.	1075.2
9240	20.933	1.6364	5.e-002	28.81
9241	20.933	1.3636	0.	853.61
9242	20.841	1.4545	0.	915.32
9243	20.933	1.4545	5.e-002	30.99
9244	20.933	1.1818	0.	703.48
9245	20.841	1.2727	0.	771.36
9246	20.933	1.2727	5.e-002	25.64
9247	20.933	1.	0.	575.73
9248	20.841	1.0909	0.	645.24
9249	20.933	1.0909	5.e-002	22.509
9250	20.933	0.81818	0.	467.11
9251	20.841	0.90909	0.	536.71
9252	20.933	0.90909	5.e-002	20.122
9253	20.933	0.63636	0.	374.84
9254	20.841	0.72727	0.	444.11
9255	20.933	0.72727	5.e-002	18.45
9256	20.933	0.45455	0.	299.14
9257	20.841	0.54545	0.	367.32
9258	20.933	0.54545	5.e-002	17.393
9259	20.933	0.27273	0.	244.18
9260	20.841	0.36364	0.	308.13
9261	20.933	0.36364	5.e-002	16.974
9262	20.841	0.18182	0.	270.03
9263	20.933	0.18182	5.e-002	18.356
9264	20.933	9.0909e-002	0.	207.57
9265	20.749	5.7273	0.	335.65
9266	20.657	5.8182	0.	364.41
9267	20.749	5.8182	5.e-002	17.903
9268	20.749	5.9091	0.	305.19
9269	20.749	5.5455	0.	380.69
9270	20.657	5.6364	0.	398.65
9271	20.749	5.6364	5.e-002	16.877
9272	20.749	5.3636	0.	443.38
9273	20.657	5.4545	0.	448.29
9274	20.749	5.4545	5.e-002	17.171
9275	20.749	5.1818	0.	522.19
9276	20.657	5.2727	0.	513.18
9277	20.749	5.2727	5.e-002	17.87
9278	20.749	5.	0.	616.05
9279	20.657	5.0909	0.	592.34
9280	20.749	5.0909	5.e-002	18.875
9281	20.749	4.8182	0.	724.27
9282	20.657	4.9091	0.	684.67
9283	20.749	4.9091	5.e-002	20.11
9284	20.749	4.6364	0.	845.29
9285	20.657	4.7273	0.	788.54
9286	20.749	4.7273	5.e-002	21.16
9287	20.749	4.4545	0.	971.37
9288	20.657	4.5455	0.	900.38
9289	20.749	4.5455	5.e-002	20.999
9290	20.749	4.2727	0.	1085.
9291	20.657	4.3636	0.	1009.4
9292	20.749	4.3636	5.e-002	20.227
9293	20.749	4.0909	0.	1166.2
9294	20.657	4.1818	0.	1098.2
9295	20.749	4.1818	5.e-002	14.983
9296	20.749	3.9091	0.	1207.9
9297	20.657	4.	0.	1153.3
9298	20.749	4.	5.e-002	17.068
9299	20.749	3.7273	0.	1225.3
9300	20.657	3.8182	0.	1179.3
9301	20.749	3.8182	5.e-002	17.753
9302	20.749	3.5455	0.	1232.5
9303	20.657	3.6364	0.	1193.3
9304	20.749	3.6364	5.e-002	14.989
9305	20.749	3.3636	0.	1233.7
9306	20.657	3.4545	0.	1200.6
9307	20.749	3.4545	5.e-002	11.432
9308	20.749	3.1818	0.	1232.7
9309	20.657	3.2727	0.	1203.8
9310	20.749	3.2727	5.e-002	8.8779
9311	20.749	3.	0.	1232.1
9312	20.657	3.0909	0.	1204.8
9313	20.749	3.0909	5.e-002	7.5494
9314	20.749	2.8182	0.	1232.7
9315	20.657	2.9091	0.	1204.8
9316	20.749	2.9091	5.e-002	7.5494
9317	20.749	2.6364	0.	1233.7
9318	20.657	2.7273	0.	1203.8
9319	20.749	2.7273	5.e-002	8.8779
9320	20.749	2.4545	0.	1232.5
9321	20.657	2.5455	0.	1200.6
9322	20.749	2.5455	5.e-002	11.432
9323	20.749	2.2727	0.	1225.3
9324	20.657	2.3636	0.	1193.3
9325	20.749	2.3636	5.e-002	14.989
9326	20.749	2.0909	0.	1207.9
9327	20.657	2.1818	0.	1179.3
9328	20.749	2.1818	5.e-002	17.753
9329	20.749	1.9091	0.	1166.2
9330	20.657	2.	0.	1153.3
9331	20.749	2.	5.e-002	17.068
9332	20.749	1.7273	0.	1085.
9333	20.657	1.8182	0.	1098.2
9334	20.749	1.8182	5.e-002	14.983
9335	20.749	1.5455	0.	971.37
9336	20.657	1.6364	0.	1009.4
9337	20.749	1.6364	5.e-002	20.227
9338	20.749	1.3636	0.	845.29
9339	20.657	1.4545	0.	900.38
9340	20.749	1.4545	5.e-002	20.999
9341	20.749	1.1818	0.	724.27
9342	20.657	1.2727	0.	788.54
9343	20.749	1.2727	5.e-002	21.16
9344	20.749	1.	0.	616.05
9345	20.657	1.0909	0.	684.67
9346	20.749	1.0909	5.e-002	20.11
9347	20.749	0.81818	0.	522.19
9348	20.657	0.90909	0.	592.34
9349	20.749	0.90909	5.e-002	18.875
9350	20.749	0.63636	0.	443.38
9351	20.657	0.72727	0.	513.18
9352	20.749	0.72727	5.e-002	17.87
9353	20.749	0.45455	0.	380.69
9354	20.657	0.54545	0.	448.29
9355	20.749	0.54545	5.e-002	17.171
9356	20.749	0.27273	0.	335.65
9357	20.657	0.36364	0.	398.65
9358	20.749	0.36364	5.e-002	16.877
9359	20.657	0.18182	0.	364.41
9360	20.749	0.18182	5.e-002	17.903
9361	20.749	9.0909e-002	0.	305.19
9362	20.566	5.7273	0.	427.83
9363	20.474	5.8182	0.	455.84
9364	20.566	5.8182	5.e-002	16.945
9365	20.566	5.9091	0.	400.
9366	20.566	5.5455	0.	468.01
9367	20.474	5.6364	0.	488.39
9368	20.566	5.6364	5.e-002	16.25
9369	20.566	5.3636	0.	521.58
9370	20.474	5.4545	0.	532.
9371	20.566	5.4545	5.e-002	16.384
9372	20.566	5.1818	0.	588.37
9373	20.474	5.2727	0.	587.47
9374	20.566	5.2727	5.e-002	16.697
9375	20.566	5.	0.	667.22
9376	20.474	5.0909	0.	654.25
9377	20.566	5.0909	5.e-002	17.066
9378	20.566	4.8182	0.	755.98
9379	20.474	4.9091	0.	730.75
9380	20.566	4.9091	5.e-002	17.3
9381	20.566	4.6364	0.	850.64
9382	20.474	4.7273	0.	814.16
9383	20.566	4.7273	5.e-002	17.069
9384	20.566	4.4545	0.	943.97
9385	20.474	4.5455	0.	899.51
9386	20.566	4.5455	5.e-002	15.95
9387	20.566	4.2727	0.	1025.1
9388	20.474	4.3636	0.	978.98
9389	20.566	4.3636	5.e-002	13.477
9390	20.566	4.0909	0.	1085.2
9391	20.474	4.1818	0.	1043.1
9392	20.566	4.1818	5.e-002	11.36
9393	20.566	3.9091	0.	1123.6
9394	20.474	4.	0.	1087.4
9395	20.566	4.	5.e-002	10.852
9396	20.566	3.7273	0.	1146.4
9397	20.474	3.8182	0.	1115.2
9398	20.566	3.8182	5.e-002	10.316
9399	20.566	3.5455	0.	1160.8
9400	20.474	3.6364	0.	1132.9
9401	20.566	3.6364	5.e-002	9.2173
9402	20.566	3.3636	0.	1170.3
9403	20.474	3.4545	0.	1145.2
9404	20.566	3.4545	5.e-002	7.6163
9405	20.566	3.1818	0.	1175.5
9406	20.474	3.2727	0.	1153.1
9407	20.566	3.2727	5.e-002	6.3558
9408	20.566	3.	0.	1177.2
9409	20.474	3.0909	0.	1156.9
9410	20.566	3.0909	5.e-002	5.6663
9411	20.566	2.8182	0.	1175.5
9412	20.474	2.9091	0.	1156.9
9413	20.566	2.9091	5.e-002	5.6663
9414	20.566	2.6364	0.	1170.3
9415	20.474	2.7273	0.	1153.1
9416	20.566	2.7273	5.e-002	6.3558
9417	20.566	2.4545	0.	1160.8
9418	20.474	2.5455	0.	1145.2
9419	20.566	2.5455	5.e-002	7.6163
9420	20.566	2.2727	0.	1146.4
9421	20.474	2.3636	0.	1132.9
9422	20.566	2.3636	5.e-002	9.2173
9423	20.566	2.0909	0.	1123.6
9424	20.474	2.1818	0.	1115.2
9425	20.566	2.1818	5.e-002	10.316
9426	20.566	1.9091	0.	1085.2
9427	20.474	2.	0.	1087.4
9428	20.566	2.	5.e-002	10.852
9429	20.566	1.7273	0.	1025.1
9430	20.474	1.8182	0.	1043.1
9431	20.566	1.8182	5.e-002	11.36
9432	20.566	1.5455	0.	943.97
9433	20.474	1.6364	0.	978.98
9434	20.566	1.6364	5.e-002	13.477
9435	20.566	1.3636	0.	850.64
9436	20.474	1.4545	0.	899.51
9437	20.566	1.4545	5.e-002	15.95
9438	20.566	1.1818	0.	755.98
9439	20.474	1.2727	0.	814.16
9440	20.566	1.2727	5.e-002	17.069
9441	20.566	1.	0.	667.22
9442	20.474	1.0909	0.	730.75
9443	20.566	1.0909	5.e-002	17.3
9444	20.566	0.81818	0.	588.37
9445	20.474	0.90909	0.	654.25
9446	20.566	0.90909	5.e-002	17.066
9447	20.566	0.63636	0.	521.58
9448	20.474	0.72727	0.	587.47
9449	20.566	0.72727	5.e-002	16.697
9450	20.566	0.45455	0.	468.01
9451	20.474	0.54545	0.	532.
9452	20.566	0.54545	5.e-002	16.384
9453	20.566	0.27273	0.	427.83
9454	20.474	0.36364	0.	488.39
9455	20.566	0.36364	5.e-002	16.25
9456	20.474	0.18182	0.	455.84
9457	20.566	0.18182	5.e-002	16.945
9458	20.566	9.0909e-002	0.	400.
9459	20.382	5.7273	0.	516.44
9460	20.29	5.8182	0.	542.84
9461	20.382	5.8182	5.e-002	15.654
9462	20.382	5.9091	0.	490.38
9463	20.382	5.5455	0.	553.19
9464	20.29	5.6364	0.	573.74
9465	20.382	5.6364	5.e-002	15.376
9466	20.382	5.3636	0.	599.77
9467	20.29	5.4545	0.	612.64
9468	20.382	5.4545	5.e-002	15.366
9469	20.382	5.1818	0.	656.29
9470	20.29	5.2727	0.	660.31
9471	20.382	5.2727	5.e-002	15.375
9472	20.382	5.	0.	721.57
9473	20.29	5.0909	0.	716.26
9474	20.382	5.0909	5.e-002	15.298
9475	20.382	4.8182	0.	793.16
9476	20.29	4.9091	0.	778.81
9477	20.382	4.9091	5.e-002	14.976
9478	20.382	4.6364	0.	867.09
9479	20.29	4.7273	0.	845.1
9480	20.382	4.7273	5.e-002	14.212
9481	20.382	4.4545	0.	937.64
9482	20.29	4.5455	0.	910.85
9483	20.382	4.5455	5.e-002	12.83
9484	20.382	4.2727	0.	998.61
9485	20.29	4.3636	0.	970.66
9486	20.382	4.3636	5.e-002	10.969
9487	20.382	4.0909	0.	1045.7
9488	20.29	4.1818	0.	1019.7
9489	20.382	4.1818	5.e-002	9.2309
9490	20.382	3.9091	0.	1078.9
9491	20.29	4.	0.	1056.
9492	20.382	4.	5.e-002	8.1214
9493	20.382	3.7273	0.	1101.4
9494	20.29	3.8182	0.	1081.2
9495	20.382	3.8182	5.e-002	7.2246
9496	20.382	3.5455	0.	1117.
9497	20.29	3.6364	0.	1098.8
9498	20.382	3.6364	5.e-002	6.0517
9499	20.382	3.3636	0.	1127.8
9500	20.29	3.4545	0.	1111.2
9501	20.382	3.4545	5.e-002	4.8426
9502	20.382	3.1818	0.	1134.3
9503	20.29	3.2727	0.	1119.5
9504	20.382	3.2727	5.e-002	3.8919
9505	20.382	3.	0.	1136.5
9506	20.29	3.0909	0.	1123.7
9507	20.382	3.0909	5.e-002	3.3774
9508	20.382	2.8182	0.	1134.3
9509	20.29	2.9091	0.	1123.7
9510	20.382	2.9091	5.e-002	3.3774
9511	20.382	2.6364	0.	1127.8
9512	20.29	2.7273	0.	1119.5
9513	20.382	2.7273	5.e-002	3.8919
9514	20.382	2.4545	0.	1117.
9515	20.29	2.5455	0.	1111.2
9516	20.382	2.5455	5.e-002	4.8426
9517	20.382	2.2727	0.	1101.4
9518	20.29	2.3636	0.	1098.8
9519	20.382	2.3636	5.e-002	6.0517
9520	20.382	2.0909	0.	1078.9
9521	20.29	2.1818	0.	1081.2
9522	20.382	2.1818	5.e-002	7.2246
9523	20.382	1.9091	0.	1045.7
9524	20.29	2.	0.	1056.
9525	20.382	2.	5.e-002	8.1214
9526	20.382	1.7273	0.	998.61
9527	20.29	1.8182	0.	1019.7
9528	20.382	1.8182	5.e-002	9.2309
9529	20.382	1.5455	0.	937.64
9530	20.29	1.6364	0.	970.66
9531	20.382	1.6364	5.e-002	10.969
9532	20.382	1.3636	0.	867.09
9533	20.29	1.4545	0.	910.85
9534	20.382	1.4545	5.e-002	12.83
9535	20.382	1.1818	0.	793.16
9536	20.29	1.2727	0.	845.1
9537	20.382	1.2727	5.e-002	14.212
9538	20.382	1.	0.	721.57
9539	20.29	1.0909	0.	778.81
9540	20.382	1.0909	5.e-002	14.976
9541	20.382	0.81818	0.	656.29
9542	20.29	0.90909	0.	716.26
9543	20.382	0.90909	5.e-002	15.298
9544	20.382	0.63636	0.	599.77
9545	20.29	0.72727	0.	660.31
9546	20.382	0.72727	5.e-002	15.375
9547	20.382	0.45455	0.	553.19
9548	20.29	0.54545	0.	612.64
9549	20.382	0.54545	5.e-002	15.366
9550	20.382	0.27273	0.	516.44
9551	20.29	0.36364	0.	573.74
9552	20.382	0.36364	5.e-002	15.376
9553	20.29	0.18182	0.	542.84
9554	20.382	0.18182	5.e-002	15.654
9555	20.382	9.0909e-002	0.	490.38
9556	20.198	5.7273	0.	600.02
9557	20.106	5.8182	0.	624.79
9558	20.198	5.8182	5.e-002	14.184
9559	20.198	5.9091	0.	575.58
9560	20.198	5.5455	0.	633.57
9561	20.106	5.6364	0.	653.58
9562	20.198	5.6364	5.e-002	14.39
9563	20.198	5.3636	0.	674.23
9564	20.106	5.4545	0.	688.25
9565	20.198	5.4545	5.e-002	14.282
9566	20.198	5.1818	0.	722.
9567	20.106	5.2727	0.	729.22
9568	20.198	5.2727	5.e-002	14.093
9569	20.198	5.	0.	775.75
9570	20.106	5.0909	0.	775.93
9571	20.198	5.0909	5.e-002	13.764
9572	20.198	4.8182	0.	833.24
9573	20.106	4.9091	0.	826.85
9574	20.198	4.9091	5.e-002	13.199
9575	20.198	4.6364	0.	891.22
9576	20.106	4.7273	0.	879.52
9577	20.198	4.7273	5.e-002	12.3
9578	20.198	4.4545	0.	945.71
9579	20.106	4.5455	0.	930.72
9580	20.198	4.5455	5.e-002	11.046
9581	20.198	4.2727	0.	992.92
9582	20.106	4.3636	0.	976.95
9583	20.198	4.3636	5.e-002	9.5708
9584	20.198	4.0909	0.	1030.5
9585	20.106	4.1818	0.	1015.4
9586	20.198	4.1818	5.e-002	8.1508
9587	20.198	3.9091	0.	1058.5
9588	20.106	4.	0.	1045.1
9589	20.198	4.	5.e-002	6.9282
9590	20.198	3.7273	0.	1078.6
9591	20.106	3.8182	0.	1066.8
9592	20.198	3.8182	5.e-002	5.7759
9593	20.198	3.5455	0.	1092.9
9594	20.106	3.6364	0.	1082.5
9595	20.198	3.6364	5.e-002	4.5462
9596	20.198	3.3636	0.	1102.8
9597	20.106	3.4545	0.	1093.6
9598	20.198	3.4545	5.e-002	3.2849
9599	20.198	3.1818	0.	1108.8
9600	20.106	3.2727	0.	1101.
9601	20.198	3.2727	5.e-002	2.1271
9602	20.198	3.	0.	1110.8
9603	20.106	3.0909	0.	1104.7
9604	20.198	3.0909	5.e-002	1.2836
9605	20.198	2.8182	0.	1108.8
9606	20.106	2.9091	0.	1104.7
9607	20.198	2.9091	5.e-002	1.2836
9608	20.198	2.6364	0.	1102.8
9609	20.106	2.7273	0.	1101.
9610	20.198	2.7273	5.e-002	2.1271
9611	20.198	2.4545	0.	1092.9
9612	20.106	2.5455	0.	1093.6
9613	20.198	2.5455	5.e-002	3.2849
9614	20.198	2.2727	0.	1078.6
9615	20.106	2.3636	0.	1082.5
9616	20.198	2.3636	5.e-002	4.5462
9617	20.198	2.0909	0.	1058.5
9618	20.106	2.1818	0.	1066.8
9619	20.198	2.1818	5.e-002	5.7759
9620	20.198	1.9091	0.	1030.5
9621	20.106	2.	0.	1045.1
9622	20.198	2.	5.e-002	6.9282
9623	20.198	1.7273	0.	992.92
9624	20.106	1.8182	0.	1015.4
9625	20.198	1.8182	5.e-002	8.1508
9626	20.198	1.5455	0.	945.71
9627	20.106	1.6364	0.	976.95
9628	20.198	1.6364	5.e-002	9.5708
9629	20.198	1.3636	0.	891.22
9630	20.106	1.4545	0.	930.72
9631	20.198	1.4545	5.e-002	11.046
9632	20.198	1.1818	0.	833.24
9633	20.106	1.2727	0.	879.52
9634	20.198	1.2727	5.e-002	12.3
9635	20.198	1.	0.	775.75
9636	20.106	1.0909	0.	826.85
9637	20.198	1.0909	5.e-002	13.199
9638	20.198	0.81818	0.	722.
9639	20.106	0.90909	0.	775.93
9640	20.198	0.90909	5.e-002	13.764
9641	20.198	0.63636	0.	674.23
9642	20.106	0.72727	0.	729.22
9643	20.198	0.72727	5.e-002	14.093
9644	20.198	0.45455	0.	633.57
9645	20.106	0.54545	0.	688.25
9646	20.198	0.54545	5.e-002	14.282
9647	20.198	0.27273	0.	600.02
9648	20.106	0.36364	0.	653.58
9649	20.198	0.36364	5.e-002	14.39
9650	20.106	0.18182	0.	624.79
9651	20.198	0.18182	5.e-002	14.184
9652	20.198	9.0909e-002	0.	575.58
9653	20.015	5.7273	0.	678.15
9654	19.923	5.8182	0.	701.54
9655	20.015	5.8182	5.e-002	12.659
9656	20.015	5.9091	0.	655.33
9657	20.015	5.5455	0.	708.44
9658	19.923	5.6364	0.	727.82
9659	20.015	5.6364	5.e-002	13.393
9660	20.015	5.3636	0.	743.83
9661	19.923	5.4545	0.	758.5
9662	20.015	5.4545	5.e-002	13.242
9663	20.015	5.1818	0.	784.16
9664	19.923	5.2727	0.	793.62
9665	20.015	5.2727	5.e-002	12.947
9666	20.015	5.	0.	828.36
9667	19.923	5.0909	0.	832.57
9668	20.015	5.0909	5.e-002	12.51
9669	20.015	4.8182	0.	874.6
9670	19.923	4.9091	0.	874.04
9671	20.015	4.9091	5.e-002	11.879
9672	20.015	4.6364	0.	920.42
9673	19.923	4.7273	0.	916.08
9674	20.015	4.7273	5.e-002	11.022
9675	20.015	4.4545	0.	963.09
9676	19.923	4.5455	0.	956.39
9677	20.015	4.5455	5.e-002	9.9562
9678	20.015	4.2727	0.	1000.2
9679	19.923	4.3636	0.	992.67
9680	20.015	4.3636	5.e-002	8.7733
9681	20.015	4.0909	0.	1030.4
9682	19.923	4.1818	0.	1023.2
9683	20.015	4.1818	5.e-002	7.5907
9684	20.015	3.9091	0.	1053.6
9685	19.923	4.	0.	1047.4
9686	20.015	4.	5.e-002	6.4643
9687	20.015	3.7273	0.	1070.8
9688	19.923	3.8182	0.	1065.7
9689	20.015	3.8182	5.e-002	5.3522
9690	20.015	3.5455	0.	1083.2
9691	19.923	3.6364	0.	1079.1
9692	20.015	3.6364	5.e-002	4.2025
9693	20.015	3.3636	0.	1091.8
9694	19.923	3.4545	0.	1088.6
9695	20.015	3.4545	5.e-002	3.0255
9696	20.015	3.1818	0.	1096.8
9697	19.923	3.2727	0.	1094.8
9698	20.015	3.2727	5.e-002	1.8836
9699	20.015	3.	0.	1098.5
9700	19.923	3.0909	0.	1097.9
9701	20.015	3.0909	5.e-002	0.91547
9702	20.015	2.8182	0.	1096.8
9703	19.923	2.9091	0.	1097.9
9704	20.015	2.9091	5.e-002	0.91547
9705	20.015	2.6364	0.	1091.8
9706	19.923	2.7273	0.	1094.8
9707	20.015	2.7273	5.e-002	1.8836
9708	20.015	2.4545	0.	1083.2
9709	19.923	2.5455	0.	1088.6
9710	20.015	2.5455	5.e-002	3.0255
9711	20.015	2.2727	0.	1070.8
9712	19.923	2.3636	0.	1079.1
9713	20.015	2.3636	5.e-002	4.2025
9714	20.015	2.0909	0.	1053.6
9715	19.923	2.1818	0.	1065.7
9716	20.015	2.1818	5.e-002	5.3522
9717	20.015	1.9091	0.	1030.4
9718	19.923	2.	0.	1047.4
9719	20.015	2.	5.e-002	6.4643
9720	20.015	1.7273	0.	1000.2
9721	19.923	1.8182	0.	1023.2
9722	20.015	1.8182	5.e-002	7.5907
9723	20.015	1.5455	0.	963.09
9724	19.923	1.6364	0.	992.67
9725	20.015	1.6364	5.e-002	8.7733
9726	20.015	1.3636	0.	920.42
9727	19.923	1.4545	0.	956.39
9728	20.015	1.4545	5.e-002	9.9562
9729	20.015	1.1818	0.	874.6
9730	19.923	1.2727	0.	916.08
9731	20.015	1.2727	5.e-002	11.022
9732	20.015	1.	0.	828.36
9733	19.923	1.0909	0.	874.04
9734	20.015	1.0909	5.e-002	11.879
9735	20.015	0.81818	0.	784.16
9736	19.923	0.90909	0.	832.57
9737	20.015	0.90909	5.e-002	12.51
9738	20.015	0.63636	0.	743.83
9739	19.923	0.72727	0.	793.62
9740	20.015	0.72727	5.e-002	12.947
9741	20.015	0.45455	0.	708.44
9742	19.923	0.54545	0.	758.5
9743	20.015	0.54545	5.e-002	13.242
9744	20.015	0.27273	0.	678.15
9745	19.923	0.36364	0.	727.82
9746	20.015	0.36364	5.e-002	13.393
9747	19.923	0.18182	0.	701.54
9748	20.015	0.18182	5.e-002	12.659
9749	20.015	9.0909e-002	0.	655.33
9750	19.831	5.7273	0.	750.97
9751	19.739	5.8182	0.	773.31
9752	19.831	5.8182	5.e-002	11.171
9753	19.831	5.9091	0.	729.76
9754	19.831	5.5455	0.	777.95
9755	19.739	5.6364	0.	796.84
9756	19.831	5.6364	5.e-002	12.45
9757	19.831	5.3636	0.	808.62
9758	19.739	5.4545	0.	823.77
9759	19.831	5.4545	5.e-002	12.301
9760	19.831	5.1818	0.	842.62
9761	19.739	5.2727	0.	853.79
9762	19.831	5.2727	5.e-002	11.969
9763	19.831	5.	0.	879.03
9764	19.739	5.0909	0.	886.28
9765	19.831	5.0909	5.e-002	11.51
9766	19.831	4.8182	0.	916.39
9767	19.739	4.9091	0.	920.14
9768	19.831	4.9091	5.e-002	10.903
9769	19.831	4.6364	0.	952.89
9770	19.739	4.7273	0.	953.92
9771	19.831	4.7273	5.e-002	10.145
9772	19.831	4.4545	0.	986.67
9773	19.739	4.5455	0.	985.96
9774	19.831	4.5455	5.e-002	9.2605
9775	19.831	4.2727	0.	1016.2
9776	19.739	4.3636	0.	1014.8
9777	19.831	4.3636	5.e-002	8.3034
9778	19.831	4.0909	0.	1040.5
9779	19.739	4.1818	0.	1039.2
9780	19.831	4.1818	5.e-002	7.3317
9781	19.831	3.9091	0.	1059.6
9782	19.739	4.	0.	1058.9
9783	19.831	4.	5.e-002	6.3731
9784	19.831	3.7273	0.	1074.
9785	19.739	3.8182	0.	1074.
9786	19.831	3.8182	5.e-002	5.4216
9787	19.831	3.5455	0.	1084.5
9788	19.739	3.6364	0.	1085.3
9789	19.831	3.6364	5.e-002	4.4727
9790	19.831	3.3636	0.	1091.6
9791	19.739	3.4545	0.	1093.2
9792	19.831	3.4545	5.e-002	3.5605
9793	19.831	3.1818	0.	1095.8
9794	19.739	3.2727	0.	1098.3
9795	19.831	3.2727	5.e-002	2.776
9796	19.831	3.	0.	1097.2
9797	19.739	3.0909	0.	1100.8
9798	19.831	3.0909	5.e-002	2.2845
9799	19.831	2.8182	0.	1095.8
9800	19.739	2.9091	0.	1100.8
9801	19.831	2.9091	5.e-002	2.2845
9802	19.831	2.6364	0.	1091.6
9803	19.739	2.7273	0.	1098.3
9804	19.831	2.7273	5.e-002	2.776
9805	19.831	2.4545	0.	1084.5
9806	19.739	2.5455	0.	1093.2
9807	19.831	2.5455	5.e-002	3.5605
9808	19.831	2.2727	0.	1074.
9809	19.739	2.3636	0.	1085.3
9810	19.831	2.3636	5.e-002	4.4727
9811	19.831	2.0909	0.	1059.6
9812	19.739	2.1818	0.	1074.
9813	19.831	2.1818	5.e-002	5.4216
9814	19.831	1.9091	0.	1040.5
9815	19.739	2.	0.	1058.9
9816	19.831	2.	5.e-002	6.3731
9817	19.831	1.7273	0.	1016.2
9818	19.739	1.8182	0.	1039.2
9819	19.831	1.8182	5.e-002	7.3317
9820	19.831	1.5455	0.	986.67
9821	19.739	1.6364	0.	1014.8
9822	19.831	1.6364	5.e-002	8.3034
9823	19.831	1.3636	0.	952.89
9824	19.739	1.4545	0.	985.96
9825	19.831	1.4545	5.e-002	9.2605
9826	19.831	1.1818	0.	916.39
9827	19.739	1.2727	0.	953.92
9828	19.831	1.2727	5.e-002	10.145
9829	19.831	1.	0.	879.03
9830	19.739	1.0909	0.	920.14
9831	19.831	1.0909	5.e-002	10.903
9832	19.831	0.81818	0.	842.62
9833	19.739	0.90909	0.	886.28
9834	19.831	0.90909	5.e-002	11.51
9835	19.831	0.63636	0.	808.62
9836	19.739	0.72727	0.	853.79
9837	19.831	0.72727	5.e-002	11.969
9838	19.831	0.45455	0.	777.95
9839	19.739	0.54545	0.	823.77
9840	19.831	0.54545	5.e-002	12.301
9841	19.831	0.27273	0.	750.97
9842	19.739	0.36364	0.	796.84
9843	19.831	0.36364	5.e-002	12.45
9844	19.739	0.18182	0.	773.31
9845	19.831	0.18182	5.e-002	11.171
9846	19.831	9.0909e-002	0.	729.76
9847	19.647	5.7273	0.	818.92
9848	19.556	5.8182	0.	840.54
9849	19.647	5.8182	5.e-002	9.7796
9850	19.647	5.9091	0.	799.27
9851	19.647	5.5455	0.	842.66
9852	19.556	5.6364	0.	861.24
9853	19.647	5.6364	5.e-002	11.597
9854	19.647	5.3636	0.	869.11
9855	19.556	5.4545	0.	884.71
9856	19.647	5.4545	5.e-002	11.481
9857	19.647	5.1818	0.	897.78
9858	19.556	5.2727	0.	910.3
9859	19.647	5.2727	5.e-002	11.154
9860	19.647	5.	0.	927.84
9861	19.556	5.0909	0.	937.43
9862	19.647	5.0909	5.e-002	10.72
9863	19.647	4.8182	0.	958.18
9864	19.556	4.9091	0.	965.2
9865	19.647	4.9091	5.e-002	10.176
9866	19.647	4.6364	0.	987.49
9867	19.556	4.7273	0.	992.52
9868	19.647	4.7273	5.e-002	9.5298
9869	19.647	4.4545	0.	1014.5
9870	19.556	4.5455	0.	1018.2
9871	19.647	4.5455	5.e-002	8.8021
9872	19.647	4.2727	0.	1038.1
9873	19.556	4.3636	0.	1041.3
9874	19.647	4.3636	5.e-002	8.0272
9875	19.647	4.0909	0.	1057.8
9876	19.556	4.1818	0.	1061.
9877	19.647	4.1818	5.e-002	7.2379
9878	19.647	3.9091	0.	1073.4
9879	19.556	4.	0.	1077.
9880	19.647	4.	5.e-002	6.454
9881	19.647	3.7273	0.	1085.4
9882	19.556	3.8182	0.	1089.5
9883	19.647	3.8182	5.e-002	5.685
9884	19.647	3.5455	0.	1094.
9885	19.556	3.6364	0.	1098.8
9886	19.647	3.6364	5.e-002	4.9463
9887	19.647	3.3636	0.	1100.
9888	19.556	3.4545	0.	1105.4
9889	19.647	3.4545	5.e-002	4.2773
9890	19.647	3.1818	0.	1103.4
9891	19.556	3.2727	0.	1109.6
9892	19.647	3.2727	5.e-002	3.7479
9893	19.647	3.	0.	1104.5
9894	19.556	3.0909	0.	1111.6
9895	19.647	3.0909	5.e-002	3.4477
9896	19.647	2.8182	0.	1103.4
9897	19.556	2.9091	0.	1111.6
9898	19.647	2.9091	5.e-002	3.4477
9899	19.647	2.6364	0.	1100.
9900	19.556	2.7273	0.	1109.6
9901	19.647	2.7273	5.e-002	3.7479
9902	19.647	2.4545	0.	1094.
9903	19.556	2.5455	0.	1105.4
9904	19.647	2.5455	5.e-002	4.2773
9905	19.647	2.2727	0.	1085.4
9906	19.556	2.3636	0.	1098.8
9907	19.647	2.3636	5.e-002	4.9463
9908	19.647	2.0909	0.	1073.4
9909	19.556	2.1818	0.	1089.5
9910	19.647	2.1818	5.e-002	5.685
9911	19.647	1.9091	0.	1057.8
9912	19.556	2.	0.	1077.
9913	19.647	2.	5.e-002	6.454
9914	19.647	1.7273	0.	1038.1
9915	19.556	1.8182	0.	1061.
9916	19.647	1.8182	5.e-002	7.2379
9917	19.647	1.5455	0.	1014.5
9918	19.556	1.6364	0.	1041.3
9919	19.647	1.6364	5.e-002	8.0272
9920	19.647	1.3636	0.	987.49
9921	19.556	1.4545	0.	1018.2
9922	19.647	1.4545	5.e-002	8.8021
9923	19.647	1.1818	0.	958.18
9924	19.556	1.2727	0.	992.52
9925	19.647	1.2727	5.e-002	9.5298
9926	19.647	1.	0.	927.84
9927	19.556	1.0909	0.	965.2
9928	19.647	1.0909	5.e-002	10.176
9929	19.647	0.81818	0.	897.78
9930	19.556	0.90909	0.	937.43
9931	19.647	0.90909	5.e-002	10.72
9932	19.647	0.63636	0.	869.11
9933	19.556	0.72727	0.	910.3
9934	19.647	0.72727	5.e-002	11.154
9935	19.647	0.45455	0.	842.66
9936	19.556	0.54545	0.	884.71
9937	19.647	0.54545	5.e-002	11.481
9938	19.647	0.27273	0.	818.92
9939	19.556	0.36364	0.	861.24
9940	19.647	0.36364	5.e-002	11.597
9941	19.556	0.18182	0.	840.54
9942	19.647	0.18182	5.e-002	9.7796
9943	19.647	9.0909e-002	0.	799.27
9944	19.464	5.7273	0.	882.59
9945	19.372	5.8182	0.	903.74
9946	19.464	5.8182	5.e-002	8.5152
9947	19.464	5.9091	0.	864.39
9948	19.464	5.5455	0.	903.24
9949	19.372	5.6364	0.	921.68
9950	19.464	5.6364	5.e-002	10.848
9951	19.464	5.3636	0.	925.98
9952	19.372	5.4545	0.	942.02
9953	19.464	5.4545	5.e-002	10.783
9954	19.464	5.1818	0.	950.14
9955	19.372	5.2727	0.	963.81
9956	19.464	5.2727	5.e-002	10.485
9957	19.464	5.	0.	975.06
9958	19.372	5.0909	0.	986.5
9959	19.464	5.0909	5.e-002	10.098
9960	19.464	4.8182	0.	999.84
9961	19.372	4.9091	0.	1009.4
9962	19.464	4.9091	5.e-002	9.6291
9963	19.464	4.6364	0.	1023.6
9964	19.372	4.7273	0.	1031.6
9965	19.464	4.7273	5.e-002	9.0886
9966	19.464	4.4545	0.	1045.3
9967	19.372	4.5455	0.	1052.4
9968	19.464	4.5455	5.e-002	8.494
9969	19.464	4.2727	0.	1064.3
9970	19.372	4.3636	0.	1071.
9971	19.464	4.3636	5.e-002	7.868
9972	19.464	4.0909	0.	1080.3
9973	19.372	4.1818	0.	1086.9
9974	19.464	4.1818	5.e-002	7.2325
9975	19.464	3.9091	0.	1093.1
9976	19.372	4.	0.	1100.
9977	19.464	4.	5.e-002	6.6043
9978	19.464	3.7273	0.	1102.9
9979	19.372	3.8182	0.	1110.3
9980	19.464	3.8182	5.e-002	5.9978
9981	19.464	3.5455	0.	1110.1
9982	19.372	3.6364	0.	1118.
9983	19.464	3.6364	5.e-002	5.4328
9984	19.464	3.3636	0.	1115.
9985	19.372	3.4545	0.	1123.4
9986	19.464	3.4545	5.e-002	4.9423
9987	19.464	3.1818	0.	1117.8
9988	19.372	3.2727	0.	1126.9
9989	19.464	3.2727	5.e-002	4.5718
9990	19.464	3.	0.	1118.8
9991	19.372	3.0909	0.	1128.6
9992	19.464	3.0909	5.e-002	4.3702
9993	19.464	2.8182	0.	1117.8
9994	19.372	2.9091	0.	1128.6
9995	19.464	2.9091	5.e-002	4.3702
9996	19.464	2.6364	0.	1115.
9997	19.372	2.7273	0.	1126.9
9998	19.464	2.7273	5.e-002	4.5718
9999	19.464	2.4545	0.	1110.1
10000	19.372	2.5455	0.	1123.4
10001	19.464	2.5455	5.e-002	4.9423
10002	19.464	2.2727	0.	1102.9
10003	19.372	2.3636	0.	1118.
10004	19.464	2.3636	5.e-002	5.4328
10005	19.464	2.0909	0.	1093.1
10006	19.372	2.1818	0.	1110.3
10007	19.464	2.1818	5.e-002	5.9978
10008	19.464	1.9091	0.	1080.3
10009	19.372	2.	0.	1100.
10010	19.464	2.	5.e-002	6.6043
10011	19.464	1.7273	0.	1064.3
10012	19.372	1.8182	0.	1086.9
10013	19.464	1.8182	5.e-002	7.2325
10014	19.464	1.5455	0.	1045.3
10015	19.372	1.6364	0.	1071.
10016	19.464	1.6364	5.e-002	7.868
10017	19.464	1.3636	0.	1023.6
10018	19.372	1.4545	0.	1052.4
10019	19.464	1.4545	5.e-002	8.494
10020	19.464	1.1818	0.	999.84
10021	19.372	1.2727	0.	1031.6
10022	19.464	1.2727	5.e-002	9.0886
10023	19.464	1.	0.	975.06
10024	19.372	1.0909	0.	1009.4
10025	19.464	1.0909	5.e-002	9.6291
10026	19.464	0.81818	0.	950.14
10027	19.372	0.90909	0.	986.5
10028	19.464	0.90909	5.e-002	10.098
10029	19.464	0.63636	0.	925.98
10030	19.372	0.72727	0.	963.81
10031	19.464	0.72727	5.e-002	10.485
10032	19.464	0.45455	0.	903.24
10033	19.372	0.54545	0.	942.02
10034	19.464	0.54545	5.e-002	10.783
10035	19.464	0.27273	0.	882.59
10036	19.372	0.36364	0.	921.68
10037	19.464	0.36364	5.e-002	10.848
10038	19.372	0.18182	0.	903.74
10039	19.464	0.18182	5.e-002	8.5152
10040	19.464	9.0909e-002	0.	864.39
10041	19.28	5.7273	0.	942.57
10042	19.188	5.8182	0.	963.48
10043	19.28	5.8182	5.e-002	7.3897
10044	19.28	5.9091	0.	925.72
10045	19.28	5.5455	0.	960.39
10046	19.188	5.6364	0.	978.83
10047	19.28	5.6364	5.e-002	10.205
10048	19.28	5.3636	0.	979.87
10049	19.188	5.4545	0.	996.36
10050	19.28	5.4545	5.e-002	10.198
10051	19.28	5.1818	0.	1000.3
10052	19.188	5.2727	0.	1014.9
10053	19.28	5.2727	5.e-002	9.941
10054	19.28	5.	0.	1021.
10055	19.188	5.0909	0.	1033.9
10056	19.28	5.0909	5.e-002	9.6074
10057	19.28	4.8182	0.	1041.3
10058	19.188	4.9091	0.	1052.9
10059	19.28	4.9091	5.e-002	9.2129
10060	19.28	4.6364	0.	1060.7
10061	19.188	4.7273	0.	1071.1
10062	19.28	4.7273	5.e-002	8.767
10063	19.28	4.4545	0.	1078.3
10064	19.188	4.5455	0.	1088.
10065	19.28	4.5455	5.e-002	8.2838
10066	19.28	4.2727	0.	1093.8
10067	19.188	4.3636	0.	1103.1
10068	19.28	4.3636	5.e-002	7.7799
10069	19.28	4.0909	0.	1106.8
10070	19.188	4.1818	0.	1116.1
10071	19.28	4.1818	5.e-002	7.2714
10072	19.28	3.9091	0.	1117.2
10073	19.188	4.	0.	1126.8
10074	19.28	4.	5.e-002	6.7729
10075	19.28	3.7273	0.	1125.4
10076	19.188	3.8182	0.	1135.3
10077	19.28	3.8182	5.e-002	6.2989
10078	19.28	3.5455	0.	1131.3
10079	19.188	3.6364	0.	1141.6
10080	19.28	3.6364	5.e-002	5.8678
10081	19.28	3.3636	0.	1135.3
10082	19.188	3.4545	0.	1146.1
10083	19.28	3.4545	5.e-002	5.5041
10084	19.28	3.1818	0.	1137.7
10085	19.188	3.2727	0.	1149.
10086	19.28	3.2727	5.e-002	5.2372
10087	19.28	3.	0.	1138.4
10088	19.188	3.0909	0.	1150.4
10089	19.28	3.0909	5.e-002	5.095
10090	19.28	2.8182	0.	1137.7
10091	19.188	2.9091	0.	1150.4
10092	19.28	2.9091	5.e-002	5.095
10093	19.28	2.6364	0.	1135.3
10094	19.188	2.7273	0.	1149.
10095	19.28	2.7273	5.e-002	5.2372
10096	19.28	2.4545	0.	1131.3
10097	19.188	2.5455	0.	1146.1
10098	19.28	2.5455	5.e-002	5.5041
10099	19.28	2.2727	0.	1125.4
10100	19.188	2.3636	0.	1141.6
10101	19.28	2.3636	5.e-002	5.8678
10102	19.28	2.0909	0.	1117.2
10103	19.188	2.1818	0.	1135.3
10104	19.28	2.1818	5.e-002	6.2989
10105	19.28	1.9091	0.	1106.8
10106	19.188	2.	0.	1126.8
10107	19.28	2.	5.e-002	6.7729
10108	19.28	1.7273	0.	1093.8
10109	19.188	1.8182	0.	1116.1
10110	19.28	1.8182	5.e-002	7.2714
10111	19.28	1.5455	0.	1078.3
10112	19.188	1.6364	0.	1103.1
10113	19.28	1.6364	5.e-002	7.7799
10114	19.28	1.3636	0.	1060.7
10115	19.188	1.4545	0.	1088.
10116	19.28	1.4545	5.e-002	8.2838
10117	19.28	1.1818	0.	1041.3
10118	19.188	1.2727	0.	1071.1
10119	19.28	1.2727	5.e-002	8.767
10120	19.28	1.	0.	1021.
10121	19.188	1.0909	0.	1052.9
10122	19.28	1.0909	5.e-002	9.2129
10123	19.28	0.81818	0.	1000.3
10124	19.188	0.90909	0.	1033.9
10125	19.28	0.90909	5.e-002	9.6074
10126	19.28	0.63636	0.	979.87
10127	19.188	0.72727	0.	1014.9
10128	19.28	0.72727	5.e-002	9.941
10129	19.28	0.45455	0.	960.39
10130	19.188	0.54545	0.	996.36
10131	19.28	0.54545	5.e-002	10.198
10132	19.28	0.27273	0.	942.57
10133	19.188	0.36364	0.	978.83
10134	19.28	0.36364	5.e-002	10.205
10135	19.188	0.18182	0.	963.48
10136	19.28	0.18182	5.e-002	7.3897
10137	19.28	9.0909e-002	0.	925.72
10138	19.097	5.7273	0.	999.48
10139	19.005	5.8182	0.	1020.3
10140	19.097	5.8182	5.e-002	6.4022
10141	19.097	5.9091	0.	983.83
10142	19.097	5.5455	0.	1014.7
10143	19.005	5.6364	0.	1033.3
10144	19.097	5.6364	5.e-002	9.6625
10145	19.097	5.3636	0.	1031.4
10146	19.005	5.4545	0.	1048.3
10147	19.097	5.4545	5.e-002	9.7153
10148	19.097	5.1818	0.	1048.6
10149	19.005	5.2727	0.	1064.1
10150	19.097	5.2727	5.e-002	9.5006
10151	19.097	5.	0.	1065.9
10152	19.005	5.0909	0.	1080.1
10153	19.097	5.0909	5.e-002	9.2207
10154	19.097	4.8182	0.	1082.7
10155	19.005	4.9091	0.	1095.8
10156	19.097	4.9091	5.e-002	8.8939
10157	19.097	4.6364	0.	1098.6
10158	19.005	4.7273	0.	1110.9
10159	19.097	4.7273	5.e-002	8.5296
10160	19.097	4.4545	0.	1113.
10161	19.005	4.5455	0.	1124.8
10162	19.097	4.5455	5.e-002	8.139
10163	19.097	4.2727	0.	1125.6
10164	19.005	4.3636	0.	1137.1
10165	19.097	4.3636	5.e-002	7.7347
10166	19.097	4.0909	0.	1136.2
10167	19.005	4.1818	0.	1147.8
10168	19.097	4.1818	5.e-002	7.3295
10169	19.097	3.9091	0.	1144.9
10170	19.005	4.	0.	1156.6
10171	19.097	4.	5.e-002	6.9358
10172	19.097	3.7273	0.	1151.6
10173	19.005	3.8182	0.	1163.5
10174	19.097	3.8182	5.e-002	6.5664
10175	19.097	3.5455	0.	1156.5
10176	19.005	3.6364	0.	1168.8
10177	19.097	3.6364	5.e-002	6.2364
10178	19.097	3.3636	0.	1159.9
10179	19.005	3.4545	0.	1172.6
10180	19.097	3.4545	5.e-002	5.9635
10181	19.097	3.1818	0.	1161.8
10182	19.005	3.2727	0.	1175.
10183	19.097	3.2727	5.e-002	5.767
10184	19.097	3.	0.	1162.4
10185	19.005	3.0909	0.	1176.1
10186	19.097	3.0909	5.e-002	5.6637
10187	19.097	2.8182	0.	1161.8
10188	19.005	2.9091	0.	1176.1
10189	19.097	2.9091	5.e-002	5.6637
10190	19.097	2.6364	0.	1159.9
10191	19.005	2.7273	0.	1175.
10192	19.097	2.7273	5.e-002	5.767
10193	19.097	2.4545	0.	1156.5
10194	19.005	2.5455	0.	1172.6
10195	19.097	2.5455	5.e-002	5.9635
10196	19.097	2.2727	0.	1151.6
10197	19.005	2.3636	0.	1168.8
10198	19.097	2.3636	5.e-002	6.2364
10199	19.097	2.0909	0.	1144.9
10200	19.005	2.1818	0.	1163.5
10201	19.097	2.1818	5.e-002	6.5664
10202	19.097	1.9091	0.	1136.2
10203	19.005	2.	0.	1156.6
10204	19.097	2.	5.e-002	6.9358
10205	19.097	1.7273	0.	1125.6
10206	19.005	1.8182	0.	1147.8
10207	19.097	1.8182	5.e-002	7.3295
10208	19.097	1.5455	0.	1113.
10209	19.005	1.6364	0.	1137.1
10210	19.097	1.6364	5.e-002	7.7347
10211	19.097	1.3636	0.	1098.6
10212	19.005	1.4545	0.	1124.8
10213	19.097	1.4545	5.e-002	8.139
10214	19.097	1.1818	0.	1082.7
10215	19.005	1.2727	0.	1110.9
10216	19.097	1.2727	5.e-002	8.5296
10217	19.097	1.	0.	1065.9
10218	19.005	1.0909	0.	1095.8
10219	19.097	1.0909	5.e-002	8.8939
10220	19.097	0.81818	0.	1048.6
10221	19.005	0.90909	0.	1080.1
10222	19.097	0.90909	5.e-002	9.2207
10223	19.097	0.63636	0.	1031.4
10224	19.005	0.72727	0.	1064.1
10225	19.097	0.72727	5.e-002	9.5006
10226	19.097	0.45455	0.	1014.7
10227	19.005	0.54545	0.	1048.3
10228	19.097	0.54545	5.e-002	9.7153
10229	19.097	0.27273	0.	999.48
10230	19.005	0.36364	0.	1033.3
10231	19.097	0.36364	5.e-002	9.6625
10232	19.005	0.18182	0.	1020.3
10233	19.097	0.18182	5.e-002	6.4022
10234	19.097	9.0909e-002	0.	983.83
10235	18.913	5.7273	0.	1053.8
10236	18.821	5.8182	0.	1074.7
10237	18.913	5.8182	5.e-002	5.5444
10238	18.913	5.9091	0.	1039.3
10239	18.913	5.5455	0.	1066.8
10240	18.821	5.6364	0.	1085.5
10241	18.913	5.6364	5.e-002	9.2105
10242	18.913	5.3636	0.	1081.
10243	18.821	5.4545	0.	1098.4
10244	18.913	5.4545	5.e-002	9.3199
10245	18.913	5.1818	0.	1095.6
10246	18.821	5.2727	0.	1111.8
10247	18.913	5.2727	5.e-002	9.1462
10248	18.913	5.	0.	1110.1
10249	18.821	5.0909	0.	1125.3
10250	18.913	5.0909	5.e-002	8.9155
10251	18.913	4.8182	0.	1124.
10252	18.821	4.9091	0.	1138.5
10253	18.913	4.9091	5.e-002	8.6482
10254	18.913	4.6364	0.	1137.1
10255	18.821	4.7273	0.	1150.9
10256	18.913	4.7273	5.e-002	8.3528
10257	18.913	4.4545	0.	1149.
10258	18.821	4.5455	0.	1162.4
10259	18.913	4.5455	5.e-002	8.0384
10260	18.913	4.2727	0.	1159.4
10261	18.821	4.3636	0.	1172.6
10262	18.913	4.3636	5.e-002	7.7151
10263	18.913	4.0909	0.	1168.1
10264	18.821	4.1818	0.	1181.4
10265	18.913	4.1818	5.e-002	7.3932
10266	18.913	3.9091	0.	1175.2
10267	18.821	4.	0.	1188.6
10268	18.913	4.	5.e-002	7.0829
10269	18.913	3.7273	0.	1180.8
10270	18.821	3.8182	0.	1194.4
10271	18.913	3.8182	5.e-002	6.795
10272	18.913	3.5455	0.	1184.9
10273	18.821	3.6364	0.	1198.8
10274	18.913	3.6364	5.e-002	6.5412
10275	18.913	3.3636	0.	1187.7
10276	18.821	3.4545	0.	1202.
10277	18.913	3.4545	5.e-002	6.3344
10278	18.913	3.1818	0.	1189.3
10279	18.821	3.2727	0.	1204.
10280	18.913	3.2727	5.e-002	6.1874
10281	18.913	3.	0.	1189.9
10282	18.821	3.0909	0.	1205.
10283	18.913	3.0909	5.e-002	6.1109
10284	18.913	2.8182	0.	1189.3
10285	18.821	2.9091	0.	1205.
10286	18.913	2.9091	5.e-002	6.1109
10287	18.913	2.6364	0.	1187.7
10288	18.821	2.7273	0.	1204.
10289	18.913	2.7273	5.e-002	6.1874
10290	18.913	2.4545	0.	1184.9
10291	18.821	2.5455	0.	1202.
10292	18.913	2.5455	5.e-002	6.3344
10293	18.913	2.2727	0.	1180.8
10294	18.821	2.3636	0.	1198.8
10295	18.913	2.3636	5.e-002	6.5412
10296	18.913	2.0909	0.	1175.2
10297	18.821	2.1818	0.	1194.4
10298	18.913	2.1818	5.e-002	6.795
10299	18.913	1.9091	0.	1168.1
10300	18.821	2.	0.	1188.6
10301	18.913	2.	5.e-002	7.0829
10302	18.913	1.7273	0.	1159.4
10303	18.821	1.8182	0.	1181.4
10304	18.913	1.8182	5.e-002	7.3932
10305	18.913	1.5455	0.	1149.
10306	18.821	1.6364	0.	1172.6
10307	18.913	1.6364	5.e-002	7.7151
10308	18.913	1.3636	0.	1137.1
10309	18.821	1.4545	0.	1162.4
10310	18.913	1.4545	5.e-002	8.0384
10311	18.913	1.1818	0.	1124.
10312	18.821	1.2727	0.	1150.9
10313	18.913	1.2727	5.e-002	8.3528
10314	18.913	1.	0.	1110.1
10315	18.821	1.0909	0.	1138.5
10316	18.913	1.0909	5.e-002	8.6482
10317	18.913	0.81818	0.	1095.6
10318	18.821	0.90909	0.	1125.3
10319	18.913	0.90909	5.e-002	8.9155
10320	18.913	0.63636	0.	1081.
10321	18.821	0.72727	0.	1111.8
10322	18.913	0.72727	5.e-002	9.1462
10323	18.913	0.45455	0.	1066.8
10324	18.821	0.54545	0.	1098.4
10325	18.913	0.54545	5.e-002	9.3199
10326	18.913	0.27273	0.	1053.8
10327	18.821	0.36364	0.	1085.5
10328	18.913	0.36364	5.e-002	9.2105
10329	18.821	0.18182	0.	1074.7
10330	18.913	0.18182	5.e-002	5.5444
10331	18.913	9.0909e-002	0.	1039.3
10332	18.729	5.7273	0.	1106.1
10333	18.638	5.8182	0.	1127.1
10334	18.729	5.8182	5.e-002	4.8039
10335	18.729	5.9091	0.	1092.5
10336	18.729	5.5455	0.	1117.1
10337	18.638	5.6364	0.	1136.
10338	18.729	5.6364	5.e-002	8.8381
10339	18.729	5.3636	0.	1129.2
10340	18.638	5.4545	0.	1147.1
10341	18.729	5.4545	5.e-002	8.9991
10342	18.729	5.1818	0.	1141.5
10343	18.638	5.2727	0.	1158.5
10344	18.729	5.2727	5.e-002	8.8622
10345	18.729	5.	0.	1153.7
10346	18.638	5.0909	0.	1169.8
10347	18.729	5.0909	5.e-002	8.6748
10348	18.729	4.8182	0.	1165.4
10349	18.638	4.9091	0.	1180.9
10350	18.729	4.9091	5.e-002	8.4584
10351	18.729	4.6364	0.	1176.2
10352	18.638	4.7273	0.	1191.3
10353	18.729	4.7273	5.e-002	8.2203
10354	18.729	4.4545	0.	1186.1
10355	18.638	4.5455	0.	1200.8
10356	18.729	4.5455	5.e-002	7.9684
10357	18.729	4.2727	0.	1194.6
10358	18.638	4.3636	0.	1209.3
10359	18.729	4.3636	5.e-002	7.7106
10360	18.729	4.0909	0.	1201.9
10361	18.638	4.1818	0.	1216.5
10362	18.729	4.1818	5.e-002	7.4554
10363	18.729	3.9091	0.	1207.8
10364	18.638	4.	0.	1222.6
10365	18.729	4.	5.e-002	7.2111
10366	18.729	3.7273	0.	1212.5
10367	18.638	3.8182	0.	1227.4
10368	18.729	3.8182	5.e-002	6.9864
10369	18.729	3.5455	0.	1215.9
10370	18.638	3.6364	0.	1231.1
10371	18.729	3.6364	5.e-002	6.7904
10372	18.729	3.3636	0.	1218.2
10373	18.638	3.4545	0.	1233.7
10374	18.729	3.4545	5.e-002	6.6324
10375	18.729	3.1818	0.	1219.6
10376	18.638	3.2727	0.	1235.4
10377	18.729	3.2727	5.e-002	6.5211
10378	18.729	3.	0.	1220.1
10379	18.638	3.0909	0.	1236.3
10380	18.729	3.0909	5.e-002	6.4635
10381	18.729	2.8182	0.	1219.6
10382	18.638	2.9091	0.	1236.3
10383	18.729	2.9091	5.e-002	6.4635
10384	18.729	2.6364	0.	1218.2
10385	18.638	2.7273	0.	1235.4
10386	18.729	2.7273	5.e-002	6.5211
10387	18.729	2.4545	0.	1215.9
10388	18.638	2.5455	0.	1233.7
10389	18.729	2.5455	5.e-002	6.6324
10390	18.729	2.2727	0.	1212.5
10391	18.638	2.3636	0.	1231.1
10392	18.729	2.3636	5.e-002	6.7904
10393	18.729	2.0909	0.	1207.8
10394	18.638	2.1818	0.	1227.4
10395	18.729	2.1818	5.e-002	6.9864
10396	18.729	1.9091	0.	1201.9
10397	18.638	2.	0.	1222.6
10398	18.729	2.	5.e-002	7.2111
10399	18.729	1.7273	0.	1194.6
10400	18.638	1.8182	0.	1216.5
10401	18.729	1.8182	5.e-002	7.4554
10402	18.729	1.5455	0.	1186.1
10403	18.638	1.6364	0.	1209.3
10404	18.729	1.6364	5.e-002	7.7106
10405	18.729	1.3636	0.	1176.2
10406	18.638	1.4545	0.	1200.8
10407	18.729	1.4545	5.e-002	7.9684
10408	18.729	1.1818	0.	1165.4
10409	18.638	1.2727	0.	1191.3
10410	18.729	1.2727	5.e-002	8.2203
10411	18.729	1.	0.	1153.7
10412	18.638	1.0909	0.	1180.9
10413	18.729	1.0909	5.e-002	8.4584
10414	18.729	0.81818	0.	1141.5
10415	18.638	0.90909	0.	1169.8
10416	18.729	0.90909	5.e-002	8.6748
10417	18.729	0.63636	0.	1129.2
10418	18.638	0.72727	0.	1158.5
10419	18.729	0.72727	5.e-002	8.8622
10420	18.729	0.45455	0.	1117.1
10421	18.638	0.54545	0.	1147.1
10422	18.729	0.54545	5.e-002	8.9991
10423	18.729	0.27273	0.	1106.1
10424	18.638	0.36364	0.	1136.
10425	18.729	0.36364	5.e-002	8.8381
10426	18.638	0.18182	0.	1127.1
10427	18.729	0.18182	5.e-002	4.8039
10428	18.729	9.0909e-002	0.	1092.5
10429	18.546	5.7273	0.	1156.7
10430	18.454	5.8182	0.	1177.9
10431	18.546	5.8182	5.e-002	4.1674
10432	18.546	5.9091	0.	1144.
10433	18.546	5.5455	0.	1165.9
10434	18.454	5.6364	0.	1185.1
10435	18.546	5.6364	5.e-002	8.5341
10436	18.546	5.3636	0.	1176.3
10437	18.454	5.4545	0.	1194.6
10438	18.546	5.4545	5.e-002	8.7408
10439	18.546	5.1818	0.	1186.7
10440	18.454	5.2727	0.	1204.3
10441	18.546	5.2727	5.e-002	8.636
10442	18.546	5.	0.	1197.
10443	18.454	5.0909	0.	1213.9
10444	18.546	5.0909	5.e-002	8.4856
10445	18.546	4.8182	0.	1206.8
10446	18.454	4.9091	0.	1223.2
10447	18.546	4.9091	5.e-002	8.3116
10448	18.546	4.6364	0.	1215.9
10449	18.454	4.7273	0.	1231.9
10450	18.546	4.7273	5.e-002	8.1209
10451	18.546	4.4545	0.	1224.
10452	18.454	4.5455	0.	1239.9
10453	18.546	4.5455	5.e-002	7.9198
10454	18.546	4.2727	0.	1231.2
10455	18.454	4.3636	0.	1246.9
10456	18.546	4.3636	5.e-002	7.7149
10457	18.546	4.0909	0.	1237.2
10458	18.454	4.1818	0.	1253.
10459	18.546	4.1818	5.e-002	7.5129
10460	18.546	3.9091	0.	1242.2
10461	18.454	4.	0.	1258.1
10462	18.546	4.	5.e-002	7.3207
10463	18.546	3.7273	0.	1246.1
10464	18.454	3.8182	0.	1262.1
10465	18.546	3.8182	5.e-002	7.1451
10466	18.546	3.5455	0.	1249.
10467	18.454	3.6364	0.	1265.2
10468	18.546	3.6364	5.e-002	6.9931
10469	18.546	3.3636	0.	1250.9
10470	18.454	3.4545	0.	1267.5
10471	18.546	3.4545	5.e-002	6.8716
10472	18.546	3.1818	0.	1252.1
10473	18.454	3.2727	0.	1268.9
10474	18.546	3.2727	5.e-002	6.7865
10475	18.546	3.	0.	1252.5
10476	18.454	3.0909	0.	1269.6
10477	18.546	3.0909	5.e-002	6.7427
10478	18.546	2.8182	0.	1252.1
10479	18.454	2.9091	0.	1269.6
10480	18.546	2.9091	5.e-002	6.7427
10481	18.546	2.6364	0.	1250.9
10482	18.454	2.7273	0.	1268.9
10483	18.546	2.7273	5.e-002	6.7865
10484	18.546	2.4545	0.	1249.
10485	18.454	2.5455	0.	1267.5
10486	18.546	2.5455	5.e-002	6.8716
10487	18.546	2.2727	0.	1246.1
10488	18.454	2.3636	0.	1265.2
10489	18.546	2.3636	5.e-002	6.9931
10490	18.546	2.0909	0.	1242.2
10491	18.454	2.1818	0.	1262.1
10492	18.546	2.1818	5.e-002	7.1451
10493	18.546	1.9091	0.	1237.2
10494	18.454	2.	0.	1258.1
10495	18.546	2.	5.e-002	7.3207
10496	18.546	1.7273	0.	1231.2
10497	18.454	1.8182	0.	1253.
10498	18.546	1.8182	5.e-002	7.5129
10499	18.546	1.5455	0.	1224.
10500	18.454	1.6364	0.	1246.9
10501	18.546	1.6364	5.e-002	7.7149
10502	18.546	1.3636	0.	1215.9
10503	18.454	1.4545	0.	1239.9
10504	18.546	1.4545	5.e-002	7.9198
10505	18.546	1.1818	0.	1206.8
10506	18.454	1.2727	0.	1231.9
10507	18.546	1.2727	5.e-002	8.1209
10508	18.546	1.	0.	1197.
10509	18.454	1.0909	0.	1223.2
10510	18.546	1.0909	5.e-002	8.3116
10511	18.546	0.81818	0.	1186.7
10512	18.454	0.90909	0.	1213.9
10513	18.546	0.90909	5.e-002	8.4856
10514	18.546	0.63636	0.	1176.3
10515	18.454	0.72727	0.	1204.3
10516	18.546	0.72727	5.e-002	8.636
10517	18.546	0.45455	0.	1165.9
10518	18.454	0.54545	0.	1194.6
10519	18.546	0.54545	5.e-002	8.7409
10520	18.546	0.27273	0.	1156.7
10521	18.454	0.36364	0.	1185.1
10522	18.546	0.36364	5.e-002	8.5341
10523	18.454	0.18182	0.	1177.9
10524	18.546	0.18182	5.e-002	4.1674
10525	18.546	9.0909e-002	0.	1144.
10526	18.362	5.7273	0.	1206.
10527	18.27	5.8182	0.	1227.4
10528	18.362	5.8182	5.e-002	3.6214
10529	18.362	5.9091	0.	1194.
10530	18.362	5.5455	0.	1213.7
10531	18.27	5.6364	0.	1233.2
10532	18.362	5.6364	5.e-002	8.2881
10533	18.362	5.3636	0.	1222.5
10534	18.27	5.4545	0.	1241.2
10535	18.362	5.4545	5.e-002	8.5347
10536	18.362	5.1818	0.	1231.4
10537	18.27	5.2727	0.	1249.4
10538	18.362	5.2727	5.e-002	8.457
10539	18.362	5.	0.	1240.1
10540	18.27	5.0909	0.	1257.6
10541	18.362	5.0909	5.e-002	8.3374
10542	18.362	4.8182	0.	1248.3
10543	18.27	4.9091	0.	1265.5
10544	18.362	4.9091	5.e-002	8.1987
10545	18.362	4.6364	0.	1255.9
10546	18.27	4.7273	0.	1272.8
10547	18.362	4.7273	5.e-002	8.0467
10548	18.362	4.4545	0.	1262.8
10549	18.27	4.5455	0.	1279.5
10550	18.362	4.5455	5.e-002	7.8868
10551	18.362	4.2727	0.	1268.8
10552	18.27	4.3636	0.	1285.5
10553	18.362	4.3636	5.e-002	7.7243
10554	18.362	4.0909	0.	1273.9
10555	18.27	4.1818	0.	1290.6
10556	18.362	4.1818	5.e-002	7.5647
10557	18.362	3.9091	0.	1278.
10558	18.27	4.	0.	1294.8
10559	18.362	4.	5.e-002	7.4135
10560	18.362	3.7273	0.	1281.3
10561	18.27	3.8182	0.	1298.3
10562	18.362	3.8182	5.e-002	7.2761
10563	18.362	3.5455	0.	1283.7
10564	18.27	3.6364	0.	1300.9
10565	18.362	3.6364	5.e-002	7.1579
10566	18.362	3.3636	0.	1285.4
10567	18.27	3.4545	0.	1302.8
10568	18.362	3.4545	5.e-002	7.0639
10569	18.362	3.1818	0.	1286.4
10570	18.27	3.2727	0.	1304.
10571	18.362	3.2727	5.e-002	6.9985
10572	18.362	3.	0.	1286.7
10573	18.27	3.0909	0.	1304.6
10574	18.362	3.0909	5.e-002	6.9649
10575	18.362	2.8182	0.	1286.4
10576	18.27	2.9091	0.	1304.6
10577	18.362	2.9091	5.e-002	6.9649
10578	18.362	2.6364	0.	1285.4
10579	18.27	2.7273	0.	1304.
10580	18.362	2.7273	5.e-002	6.9985
10581	18.362	2.4545	0.	1283.7
10582	18.27	2.5455	0.	1302.8
10583	18.362	2.5455	5.e-002	7.0639
10584	18.362	2.2727	0.	1281.3
10585	18.27	2.3636	0.	1300.9
10586	18.362	2.3636	5.e-002	7.1579
10587	18.362	2.0909	0.	1278.
10588	18.27	2.1818	0.	1298.3
10589	18.362	2.1818	5.e-002	7.2761
10590	18.362	1.9091	0.	1273.9
10591	18.27	2.	0.	1294.8
10592	18.362	2.	5.e-002	7.4135
10593	18.362	1.7273	0.	1268.8
10594	18.27	1.8182	0.	1290.6
10595	18.362	1.8182	5.e-002	7.5647
10596	18.362	1.5455	0.	1262.8
10597	18.27	1.6364	0.	1285.5
10598	18.362	1.6364	5.e-002	7.7243
10599	18.362	1.3636	0.	1255.9
10600	18.27	1.4545	0.	1279.5
10601	18.362	1.4545	5.e-002	7.8868
10602	18.362	1.1818	0.	1248.3
10603	18.27	1.2727	0.	1272.8
10604	18.362	1.2727	5.e-002	8.0467
10605	18.362	1.	0.	1240.1
10606	18.27	1.0909	0.	1265.5
10607	18.362	1.0909	5.e-002	8.1987
10608	18.362	0.81818	0.	1231.4
10609	18.27	0.90909	0.	1257.6
10610	18.362	0.90909	5.e-002	8.3374
10611	18.362	0.63636	0.	1222.5
10612	18.27	0.72727	0.	1249.4
10613	18.362	0.72727	5.e-002	8.457
10614	18.362	0.45455	0.	1213.7
10615	18.27	0.54545	0.	1241.2
10616	18.362	0.54545	5.e-002	8.5347
10617	18.362	0.27273	0.	1206.
10618	18.27	0.36364	0.	1233.2
10619	18.362	0.36364	5.e-002	8.2881
10620	18.27	0.18182	0.	1227.4
10621	18.362	0.18182	5.e-002	3.6214
10622	18.362	9.0909e-002	0.	1194.
10623	18.178	5.7273	0.	1254.3
10624	18.087	5.8182	0.	1275.8
10625	18.178	5.8182	5.e-002	3.1534
10626	18.178	5.9091	0.	1242.9
10627	18.178	5.5455	0.	1260.6
10628	18.087	5.6364	0.	1280.4
10629	18.178	5.6364	5.e-002	8.0908
10630	18.178	5.3636	0.	1268.1
10631	18.087	5.4545	0.	1287.2
10632	18.178	5.4545	5.e-002	8.3718
10633	18.178	5.1818	0.	1275.7
10634	18.087	5.2727	0.	1294.2
10635	18.178	5.2727	5.e-002	8.3165
10636	18.178	5.	0.	1283.
10637	18.087	5.0909	0.	1301.2
10638	18.178	5.0909	5.e-002	8.2224
10639	18.178	4.8182	0.	1290.
10640	18.087	4.9091	0.	1307.8
10641	18.178	4.9091	5.e-002	8.1124
10642	18.178	4.6364	0.	1296.4
10643	18.087	4.7273	0.	1314.
10644	18.178	4.7273	5.e-002	7.9919
10645	18.178	4.4545	0.	1302.2
10646	18.087	4.5455	0.	1319.7
10647	18.178	4.5455	5.e-002	7.8652
10648	18.178	4.2727	0.	1307.2
10649	18.087	4.3636	0.	1324.7
10650	18.178	4.3636	5.e-002	7.7367
10651	18.178	4.0909	0.	1311.5
10652	18.087	4.1818	0.	1329.
10653	18.178	4.1818	5.e-002	7.6108
10654	18.178	3.9091	0.	1315.1
10655	18.087	4.	0.	1332.6
10656	18.178	4.	5.e-002	7.4919
10657	18.178	3.7273	0.	1317.8
10658	18.087	3.8182	0.	1335.6
10659	18.178	3.8182	5.e-002	7.3844
10660	18.178	3.5455	0.	1319.9
10661	18.087	3.6364	0.	1337.8
10662	18.178	3.6364	5.e-002	7.2923
10663	18.178	3.3636	0.	1321.4
10664	18.087	3.4545	0.	1339.4
10665	18.178	3.4545	5.e-002	7.2193
10666	18.178	3.1818	0.	1322.2
10667	18.087	3.2727	0.	1340.5
10668	18.178	3.2727	5.e-002	7.1687
10669	18.178	3.	0.	1322.5
10670	18.087	3.0909	0.	1341.
10671	18.178	3.0909	5.e-002	7.1428
10672	18.178	2.8182	0.	1322.2
10673	18.087	2.9091	0.	1341.
10674	18.178	2.9091	5.e-002	7.1428
10675	18.178	2.6364	0.	1321.4
10676	18.087	2.7273	0.	1340.5
10677	18.178	2.7273	5.e-002	7.1687
10678	18.178	2.4545	0.	1319.9
10679	18.087	2.5455	0.	1339.4
10680	18.178	2.5455	5.e-002	7.2193
10681	18.178	2.2727	0.	1317.8
10682	18.087	2.3636	0.	1337.8
10683	18.178	2.3636	5.e-002	7.2923
10684	18.178	2.0909	0.	1315.1
10685	18.087	2.1818	0.	1335.6
10686	18.178	2.1818	5.e-002	7.3844
10687	18.178	1.9091	0.	1311.5
10688	18.087	2.	0.	1332.6
10689	18.178	2.	5.e-002	7.4919
10690	18.178	1.7273	0.	1307.2
10691	18.087	1.8182	0.	1329.
10692	18.178	1.8182	5.e-002	7.6108
10693	18.178	1.5455	0.	1302.2
10694	18.087	1.6364	0.	1324.7
10695	18.178	1.6364	5.e-002	7.7367
10696	18.178	1.3636	0.	1296.4
10697	18.087	1.4545	0.	1319.7
10698	18.178	1.4545	5.e-002	7.8652
10699	18.178	1.1818	0.	1290.
10700	18.087	1.2727	0.	1314.
10701	18.178	1.2727	5.e-002	7.9919
10702	18.178	1.	0.	1283.
10703	18.087	1.0909	0.	1307.8
10704	18.178	1.0909	5.e-002	8.1124
10705	18.178	0.81818	0.	1275.7
10706	18.087	0.90909	0.	1301.2
10707	18.178	0.90909	5.e-002	8.2224
10708	18.178	0.63636	0.	1268.1
10709	18.087	0.72727	0.	1294.2
10710	18.178	0.72727	5.e-002	8.3165
10711	18.178	0.45455	0.	1260.6
10712	18.087	0.54545	0.	1287.2
10713	18.178	0.54545	5.e-002	8.3718
10714	18.178	0.27273	0.	1254.3
10715	18.087	0.36364	0.	1280.4
10716	18.178	0.36364	5.e-002	8.0908
10717	18.087	0.18182	0.	1275.8
10718	18.178	0.18182	5.e-002	3.1534
10719	18.178	9.0909e-002	0.	1242.9
10720	17.995	5.7273	0.	1301.7
10721	17.903	5.8182	0.	1323.5
10722	17.995	5.8182	5.e-002	2.752
10723	17.995	5.9091	0.	1290.9
10724	17.995	5.5455	0.	1306.9
10725	17.903	5.6364	0.	1326.9
10726	17.995	5.6364	5.e-002	7.9339
10727	17.995	5.3636	0.	1313.3
10728	17.903	5.4545	0.	1332.7
10729	17.995	5.4545	5.e-002	8.2443
10730	17.995	5.1818	0.	1319.7
10731	17.903	5.2727	0.	1338.7
10732	17.995	5.2727	5.e-002	8.2074
10733	17.995	5.	0.	1325.9
10734	17.903	5.0909	0.	1344.6
10735	17.995	5.0909	5.e-002	8.134
10736	17.995	4.8182	0.	1331.8
10737	17.903	4.9091	0.	1350.3
10738	17.995	4.9091	5.e-002	8.0474
10739	17.995	4.6364	0.	1337.3
10740	17.903	4.7273	0.	1355.5
10741	17.995	4.7273	5.e-002	7.9523
10742	17.995	4.4545	0.	1342.2
10743	17.903	4.5455	0.	1360.3
10744	17.995	4.5455	5.e-002	7.8523
10745	17.995	4.2727	0.	1346.5
10746	17.903	4.3636	0.	1364.6
10747	17.995	4.3636	5.e-002	7.751
10748	17.995	4.0909	0.	1350.1
10749	17.903	4.1818	0.	1368.3
10750	17.995	4.1818	5.e-002	7.6518
10751	17.995	3.9091	0.	1353.1
10752	17.903	4.	0.	1371.4
10753	17.995	4.	5.e-002	7.5585
10754	17.995	3.7273	0.	1355.5
10755	17.903	3.8182	0.	1373.8
10756	17.995	3.8182	5.e-002	7.4742
10757	17.995	3.5455	0.	1357.3
10758	17.903	3.6364	0.	1375.8
10759	17.995	3.6364	5.e-002	7.4023
10760	17.995	3.3636	0.	1358.5
10761	17.903	3.4545	0.	1377.2
10762	17.995	3.4545	5.e-002	7.3456
10763	17.995	3.1818	0.	1359.3
10764	17.903	3.2727	0.	1378.1
10765	17.995	3.2727	5.e-002	7.3063
10766	17.995	3.	0.	1359.5
10767	17.903	3.0909	0.	1378.5
10768	17.995	3.0909	5.e-002	7.2862
10769	17.995	2.8182	0.	1359.3
10770	17.903	2.9091	0.	1378.5
10771	17.995	2.9091	5.e-002	7.2862
10772	17.995	2.6364	0.	1358.5
10773	17.903	2.7273	0.	1378.1
10774	17.995	2.7273	5.e-002	7.3063
10775	17.995	2.4545	0.	1357.3
10776	17.903	2.5455	0.	1377.2
10777	17.995	2.5455	5.e-002	7.3456
10778	17.995	2.2727	0.	1355.5
10779	17.903	2.3636	0.	1375.8
10780	17.995	2.3636	5.e-002	7.4023
10781	17.995	2.0909	0.	1353.1
10782	17.903	2.1818	0.	1373.8
10783	17.995	2.1818	5.e-002	7.4742
10784	17.995	1.9091	0.	1350.1
10785	17.903	2.	0.	1371.4
10786	17.995	2.	5.e-002	7.5585
10787	17.995	1.7273	0.	1346.5
10788	17.903	1.8182	0.	1368.3
10789	17.995	1.8182	5.e-002	7.6518
10790	17.995	1.5455	0.	1342.2
10791	17.903	1.6364	0.	1364.6
10792	17.995	1.6364	5.e-002	7.751
10793	17.995	1.3636	0.	1337.3
10794	17.903	1.4545	0.	1360.3
10795	17.995	1.4545	5.e-002	7.8523
10796	17.995	1.1818	0.	1331.8
10797	17.903	1.2727	0.	1355.5
10798	17.995	1.2727	5.e-002	7.9523
10799	17.995	1.	0.	1325.9
10800	17.903	1.0909	0.	1350.3
10801	17.995	1.0909	5.e-002	8.0474
10802	17.995	0.81818	0.	1319.7
10803	17.903	0.90909	0.	1344.6
10804	17.995	0.90909	5.e-002	8.134
10805	17.995	0.63636	0.	1313.3
10806	17.903	0.72727	0.	1338.7
10807	17.995	0.72727	5.e-002	8.2074
10808	17.995	0.45455	0.	1306.9
10809	17.903	0.54545	0.	1332.7
10810	17.995	0.54545	5.e-002	8.2443
10811	17.995	0.27273	0.	1301.7
10812	17.903	0.36364	0.	1326.9
10813	17.995	0.36364	5.e-002	7.9339
10814	17.903	0.18182	0.	1323.5
10815	17.995	0.18182	5.e-002	2.752
10816	17.995	9.0909e-002	0.	1290.9
10817	17.811	5.7273	0.	1348.5
10818	17.719	5.8182	0.	1370.5
10819	17.811	5.8182	5.e-002	2.4073
10820	17.811	5.9091	0.	1338.2
10821	17.811	5.5455	0.	1352.7
10822	17.719	5.6364	0.	1373.
10823	17.811	5.6364	5.e-002	7.8104
10824	17.811	5.3636	0.	1358.1
10825	17.719	5.4545	0.	1377.9
10826	17.811	5.4545	5.e-002	8.146
10827	17.811	5.1818	0.	1363.6
10828	17.719	5.2727	0.	1383.
10829	17.811	5.2727	5.e-002	8.124
10830	17.811	5.	0.	1368.9
10831	17.719	5.0909	0.	1388.
10832	17.811	5.0909	5.e-002	8.0672
10833	17.811	4.8182	0.	1373.9
10834	17.719	4.9091	0.	1392.8
10835	17.811	4.9091	5.e-002	7.9995
10836	17.811	4.6364	0.	1378.6
10837	17.719	4.7273	0.	1397.3
10838	17.811	4.7273	5.e-002	7.9248
10839	17.811	4.4545	0.	1382.7
10840	17.719	4.5455	0.	1401.4
10841	17.811	4.5455	5.e-002	7.8462
10842	17.811	4.2727	0.	1386.4
10843	17.719	4.3636	0.	1405.1
10844	17.811	4.3636	5.e-002	7.7664
10845	17.811	4.0909	0.	1389.5
10846	17.719	4.1818	0.	1408.2
10847	17.811	4.1818	5.e-002	7.6886
10848	17.811	3.9091	0.	1392.
10849	17.719	4.	0.	1410.8
10850	17.811	4.	5.e-002	7.6153
10851	17.811	3.7273	0.	1394.1
10852	17.719	3.8182	0.	1413.
10853	17.811	3.8182	5.e-002	7.5494
10854	17.811	3.5455	0.	1395.6
10855	17.719	3.6364	0.	1414.6
10856	17.811	3.6364	5.e-002	7.4932
10857	17.811	3.3636	0.	1396.7
10858	17.719	3.4545	0.	1415.8
10859	17.811	3.4545	5.e-002	7.449
10860	17.811	3.1818	0.	1397.3
10861	17.719	3.2727	0.	1416.6
10862	17.811	3.2727	5.e-002	7.4184
10863	17.811	3.	0.	1397.5
10864	17.719	3.0909	0.	1417.
10865	17.811	3.0909	5.e-002	7.4028
10866	17.811	2.8182	0.	1397.3
10867	17.719	2.9091	0.	1417.
10868	17.811	2.9091	5.e-002	7.4028
10869	17.811	2.6364	0.	1396.7
10870	17.719	2.7273	0.	1416.6
10871	17.811	2.7273	5.e-002	7.4184
10872	17.811	2.4545	0.	1395.6
10873	17.719	2.5455	0.	1415.8
10874	17.811	2.5455	5.e-002	7.449
10875	17.811	2.2727	0.	1394.1
10876	17.719	2.3636	0.	1414.6
10877	17.811	2.3636	5.e-002	7.4932
10878	17.811	2.0909	0.	1392.
10879	17.719	2.1818	0.	1413.
10880	17.811	2.1818	5.e-002	7.5494
10881	17.811	1.9091	0.	1389.5
10882	17.719	2.	0.	1410.8
10883	17.811	2.	5.e-002	7.6153
10884	17.811	1.7273	0.	1386.4
10885	17.719	1.8182	0.	1408.2
10886	17.811	1.8182	5.e-002	7.6886
10887	17.811	1.5455	0.	1382.7
10888	17.719	1.6364	0.	1405.1
10889	17.811	1.6364	5.e-002	7.7664
10890	17.811	1.3636	0.	1378.6
10891	17.719	1.4545	0.	1401.4
10892	17.811	1.4545	5.e-002	7.8462
10893	17.811	1.1818	0.	1373.9
10894	17.719	1.2727	0.	1397.3
10895	17.811	1.2727	5.e-002	7.9248
10896	17.811	1.	0.	1368.9
10897	17.719	1.0909	0.	1392.8
10898	17.811	1.0909	5.e-002	7.9995
10899	17.811	0.81818	0.	1363.6
10900	17.719	0.90909	0.	1388.
10901	17.811	0.90909	5.e-002	8.0672
10902	17.811	0.63636	0.	1358.1
10903	17.719	0.72727	0.	1383.
10904	17.811	0.72727	5.e-002	8.124
10905	17.811	0.45455	0.	1352.7
10906	17.719	0.54545	0.	1377.9
10907	17.811	0.54545	5.e-002	8.146
10908	17.811	0.27273	0.	1348.5
10909	17.719	0.36364	0.	1373.
10910	17.811	0.36364	5.e-002	7.8104
10911	17.719	0.18182	0.	1370.5
10912	17.811	0.18182	5.e-002	2.4073
10913	17.811	9.0909e-002	0.	1338.2
10914	17.628	5.7273	0.	1394.8
10915	17.536	5.8182	0.	1417.1
10916	17.628	5.8182	5.e-002	2.1108
10917	17.628	5.9091	0.	1384.9
10918	17.628	5.5455	0.	1398.2
10919	17.536	5.6364	0.	1418.8
10920	17.628	5.6364	5.e-002	7.7144
10921	17.628	5.3636	0.	1402.8
10922	17.536	5.4545	0.	1422.9
10923	17.628	5.4545	5.e-002	8.0715
10924	17.628	5.1818	0.	1407.4
10925	17.536	5.2727	0.	1427.2
10926	17.628	5.2727	5.e-002	8.0614
10927	17.628	5.	0.	1411.9
10928	17.536	5.0909	0.	1431.5
10929	17.628	5.0909	5.e-002	8.018
10930	17.628	4.8182	0.	1416.2
10931	17.536	4.9091	0.	1435.6
10932	17.628	4.9091	5.e-002	7.9653
10933	17.628	4.6364	0.	1420.2
10934	17.536	4.7273	0.	1439.4
10935	17.628	4.7273	5.e-002	7.907
10936	17.628	4.4545	0.	1423.7
10937	17.536	4.5455	0.	1442.9
10938	17.628	4.5455	5.e-002	7.8454
10939	17.628	4.2727	0.	1426.9
10940	17.536	4.3636	0.	1446.
10941	17.628	4.3636	5.e-002	7.7829
10942	17.628	4.0909	0.	1429.5
10943	17.536	4.1818	0.	1448.7
10944	17.628	4.1818	5.e-002	7.7219
10945	17.628	3.9091	0.	1431.7
10946	17.536	4.	0.	1451.
10947	17.628	4.	5.e-002	7.6645
10948	17.628	3.7273	0.	1433.5
10949	17.536	3.8182	0.	1452.8
10950	17.628	3.8182	5.e-002	7.6129
10951	17.628	3.5455	0.	1434.8
10952	17.536	3.6364	0.	1454.3
10953	17.628	3.6364	5.e-002	7.5691
10954	17.628	3.3636	0.	1435.7
10955	17.536	3.4545	0.	1455.3
10956	17.628	3.4545	5.e-002	7.5346
10957	17.628	3.1818	0.	1436.3
10958	17.536	3.2727	0.	1456.
10959	17.628	3.2727	5.e-002	7.5108
10960	17.628	3.	0.	1436.5
10961	17.536	3.0909	0.	1456.3
10962	17.628	3.0909	5.e-002	7.4987
10963	17.628	2.8182	0.	1436.3
10964	17.536	2.9091	0.	1456.3
10965	17.628	2.9091	5.e-002	7.4987
10966	17.628	2.6364	0.	1435.7
10967	17.536	2.7273	0.	1456.
10968	17.628	2.7273	5.e-002	7.5108
10969	17.628	2.4545	0.	1434.8
10970	17.536	2.5455	0.	1455.3
10971	17.628	2.5455	5.e-002	7.5346
10972	17.628	2.2727	0.	1433.5
10973	17.536	2.3636	0.	1454.3
10974	17.628	2.3636	5.e-002	7.5691
10975	17.628	2.0909	0.	1431.7
10976	17.536	2.1818	0.	1452.8
10977	17.628	2.1818	5.e-002	7.6129
10978	17.628	1.9091	0.	1429.5
10979	17.536	2.	0.	1451.
10980	17.628	2.	5.e-002	7.6645
10981	17.628	1.7273	0.	1426.9
10982	17.536	1.8182	0.	1448.7
10983	17.628	1.8182	5.e-002	7.7219
10984	17.628	1.5455	0.	1423.7
10985	17.536	1.6364	0.	1446.
10986	17.628	1.6364	5.e-002	7.7829
10987	17.628	1.3636	0.	1420.2
10988	17.536	1.4545	0.	1442.9
10989	17.628	1.4545	5.e-002	7.8454
10990	17.628	1.1818	0.	1416.2
10991	17.536	1.2727	0.	1439.4
10992	17.628	1.2727	5.e-002	7.907
10993	17.628	1.	0.	1411.9
10994	17.536	1.0909	0.	1435.6
10995	17.628	1.0909	5.e-002	7.9653
10996	17.628	0.81818	0.	1407.4
10997	17.536	0.90909	0.	1431.5
10998	17.628	0.90909	5.e-002	8.018
10999	17.628	0.63636	0.	1402.8
11000	17.536	0.72727	0.	1427.2
11001	17.628	0.72727	5.e-002	8.0614
11002	17.628	0.45455	0.	1398.2
11003	17.536	0.54545	0.	1422.9
11004	17.628	0.54545	5.e-002	8.0715
11005	17.628	0.27273	0.	1394.8
11006	17.536	0.36364	0.	1418.8
11007	17.628	0.36364	5.e-002	7.7144
11008	17.536	0.18182	0.	1417.1
11009	17.628	0.18182	5.e-002	2.1108
11010	17.628	9.0909e-002	0.	1384.9
11011	17.444	5.7273	0.	1440.8
11012	17.352	5.8182	0.	1463.3
11013	17.444	5.8182	5.e-002	1.8551
11014	17.444	5.9091	0.	1431.3
11015	17.444	5.5455	0.	1443.4
11016	17.352	5.6364	0.	1464.3
11017	17.444	5.6364	5.e-002	7.6408
11018	17.444	5.3636	0.	1447.3
11019	17.352	5.4545	0.	1467.8
11020	17.444	5.4545	5.e-002	8.0164
11021	17.444	5.1818	0.	1451.3
11022	17.352	5.2727	0.	1471.4
11023	17.444	5.2727	5.e-002	8.0158
11024	17.444	5.	0.	1455.1
11025	17.352	5.0909	0.	1475.1
11026	17.444	5.0909	5.e-002	7.9831
11027	17.444	4.8182	0.	1458.8
11028	17.352	4.9091	0.	1478.5
11029	17.444	4.9091	5.e-002	7.9424
11030	17.444	4.6364	0.	1462.1
11031	17.352	4.7273	0.	1481.8
11032	17.444	4.7273	5.e-002	7.8971
11033	17.444	4.4545	0.	1465.2
11034	17.352	4.5455	0.	1484.8
11035	17.444	4.5455	5.e-002	7.849
11036	17.444	4.2727	0.	1467.9
11037	17.352	4.3636	0.	1487.5
11038	17.444	4.3636	5.e-002	7.8002
11039	17.444	4.0909	0.	1470.2
11040	17.352	4.1818	0.	1489.8
11041	17.444	4.1818	5.e-002	7.7525
11042	17.444	3.9091	0.	1472.1
11043	17.352	4.	0.	1491.7
11044	17.444	4.	5.e-002	7.7077
11045	17.444	3.7273	0.	1473.6
11046	17.352	3.8182	0.	1493.3
11047	17.444	3.8182	5.e-002	7.6674
11048	17.444	3.5455	0.	1474.7
11049	17.352	3.6364	0.	1494.6
11050	17.444	3.6364	5.e-002	7.6332
11051	17.444	3.3636	0.	1475.5
11052	17.352	3.4545	0.	1495.5
11053	17.444	3.4545	5.e-002	7.6063
11054	17.444	3.1818	0.	1476.
11055	17.352	3.2727	0.	1496.1
11056	17.444	3.2727	5.e-002	7.5878
11057	17.444	3.	0.	1476.2
11058	17.352	3.0909	0.	1496.4
11059	17.444	3.0909	5.e-002	7.5784
11060	17.444	2.8182	0.	1476.
11061	17.352	2.9091	0.	1496.4
11062	17.444	2.9091	5.e-002	7.5784
11063	17.444	2.6364	0.	1475.5
11064	17.352	2.7273	0.	1496.1
11065	17.444	2.7273	5.e-002	7.5878
11066	17.444	2.4545	0.	1474.7
11067	17.352	2.5455	0.	1495.5
11068	17.444	2.5455	5.e-002	7.6063
11069	17.444	2.2727	0.	1473.6
11070	17.352	2.3636	0.	1494.6
11071	17.444	2.3636	5.e-002	7.6332
11072	17.444	2.0909	0.	1472.1
11073	17.352	2.1818	0.	1493.3
11074	17.444	2.1818	5.e-002	7.6674
11075	17.444	1.9091	0.	1470.2
11076	17.352	2.	0.	1491.7
11077	17.444	2.	5.e-002	7.7077
11078	17.444	1.7273	0.	1467.9
11079	17.352	1.8182	0.	1489.8
11080	17.444	1.8182	5.e-002	7.7525
11081	17.444	1.5455	0.	1465.2
11082	17.352	1.6364	0.	1487.5
11083	17.444	1.6364	5.e-002	7.8002
11084	17.444	1.3636	0.	1462.1
11085	17.352	1.4545	0.	1484.8
11086	17.444	1.4545	5.e-002	7.849
11087	17.444	1.1818	0.	1458.8
11088	17.352	1.2727	0.	1481.8
11089	17.444	1.2727	5.e-002	7.8971
11090	17.444	1.	0.	1455.1
11091	17.352	1.0909	0.	1478.5
11092	17.444	1.0909	5.e-002	7.9424
11093	17.444	0.81818	0.	1451.3
11094	17.352	0.90909	0.	1475.1
11095	17.444	0.90909	5.e-002	7.9831
11096	17.444	0.63636	0.	1447.3
11097	17.352	0.72727	0.	1471.4
11098	17.444	0.72727	5.e-002	8.0158
11099	17.444	0.45455	0.	1443.4
11100	17.352	0.54545	0.	1467.8
11101	17.444	0.54545	5.e-002	8.0164
11102	17.444	0.27273	0.	1440.8
11103	17.352	0.36364	0.	1464.3
11104	17.444	0.36364	5.e-002	7.6409
11105	17.352	0.18182	0.	1463.3
11106	17.444	0.18182	5.e-002	1.8551
11107	17.444	9.0909e-002	0.	1431.3
11108	17.26	5.7273	0.	1486.6
11109	17.169	5.8182	0.	1509.3
11110	17.26	5.8182	5.e-002	1.6342
11111	17.26	5.9091	0.	1477.4
11112	17.26	5.5455	0.	1488.6
11113	17.169	5.6364	0.	1509.7
11114	17.26	5.6364	5.e-002	7.5857
11115	17.26	5.3636	0.	1491.8
11116	17.169	5.4545	0.	1512.6
11117	17.26	5.4545	5.e-002	7.9772
11118	17.26	5.1818	0.	1495.2
11119	17.169	5.2727	0.	1515.6
11120	17.26	5.2727	5.e-002	7.9842
11121	17.26	5.	0.	1498.4
11122	17.169	5.0909	0.	1518.7
11123	17.26	5.0909	5.e-002	7.9598
11124	17.26	4.8182	0.	1501.6
11125	17.169	4.9091	0.	1521.7
11126	17.26	4.9091	5.e-002	7.9287
11127	17.26	4.6364	0.	1504.4
11128	17.169	4.7273	0.	1524.5
11129	17.26	4.7273	5.e-002	7.8936
11130	17.26	4.4545	0.	1507.
11131	17.169	4.5455	0.	1527.
11132	17.26	4.5455	5.e-002	7.8564
11133	17.26	4.2727	0.	1509.3
11134	17.169	4.3636	0.	1529.3
11135	17.26	4.3636	5.e-002	7.8184
11136	17.26	4.0909	0.	1511.3
11137	17.169	4.1818	0.	1531.3
11138	17.26	4.1818	5.e-002	7.7813
11139	17.26	3.9091	0.	1513.
11140	17.169	4.	0.	1533.
11141	17.26	4.	5.e-002	7.7464
11142	17.26	3.7273	0.	1514.3
11143	17.169	3.8182	0.	1534.4
11144	17.26	3.8182	5.e-002	7.715
11145	17.26	3.5455	0.	1515.3
11146	17.169	3.6364	0.	1535.5
11147	17.26	3.6364	5.e-002	7.6883
11148	17.26	3.3636	0.	1516.
11149	17.169	3.4545	0.	1536.3
11150	17.26	3.4545	5.e-002	7.6674
11151	17.26	3.1818	0.	1516.4
11152	17.169	3.2727	0.	1536.8
11153	17.26	3.2727	5.e-002	7.653
11154	17.26	3.	0.	1516.5
11155	17.169	3.0909	0.	1537.
11156	17.26	3.0909	5.e-002	7.6456
11157	17.26	2.8182	0.	1516.4
11158	17.169	2.9091	0.	1537.
11159	17.26	2.9091	5.e-002	7.6456
11160	17.26	2.6364	0.	1516.
11161	17.169	2.7273	0.	1536.8
11162	17.26	2.7273	5.e-002	7.653
11163	17.26	2.4545	0.	1515.3
11164	17.169	2.5455	0.	1536.3
11165	17.26	2.5455	5.e-002	7.6674
11166	17.26	2.2727	0.	1514.3
11167	17.169	2.3636	0.	1535.5
11168	17.26	2.3636	5.e-002	7.6883
11169	17.26	2.0909	0.	1513.
11170	17.169	2.1818	0.	1534.4
11171	17.26	2.1818	5.e-002	7.715
11172	17.26	1.9091	0.	1511.3
11173	17.169	2.	0.	1533.
11174	17.26	2.	5.e-002	7.7464
11175	17.26	1.7273	0.	1509.3
11176	17.169	1.8182	0.	1531.3
11177	17.26	1.8182	5.e-002	7.7813
11178	17.26	1.5455	0.	1507.
11179	17.169	1.6364	0.	1529.3
11180	17.26	1.6364	5.e-002	7.8184
11181	17.26	1.3636	0.	1504.4
11182	17.169	1.4545	0.	1527.
11183	17.26	1.4545	5.e-002	7.8564
11184	17.26	1.1818	0.	1501.6
11185	17.169	1.2727	0.	1524.5
11186	17.26	1.2727	5.e-002	7.8936
11187	17.26	1.	0.	1498.4
11188	17.169	1.0909	0.	1521.7
11189	17.26	1.0909	5.e-002	7.9287
11190	17.26	0.81818	0.	1495.2
11191	17.169	0.90909	0.	1518.7
11192	17.26	0.90909	5.e-002	7.9598
11193	17.26	0.63636	0.	1491.8
11194	17.169	0.72727	0.	1515.6
11195	17.26	0.72727	5.e-002	7.9842
11196	17.26	0.45455	0.	1488.6
11197	17.169	0.54545	0.	1512.6
11198	17.26	0.54545	5.e-002	7.9772
11199	17.26	0.27273	0.	1486.6
11200	17.169	0.36364	0.	1509.7
11201	17.26	0.36364	5.e-002	7.5857
11202	17.169	0.18182	0.	1509.3
11203	17.26	0.18182	5.e-002	1.6342
11204	17.26	9.0909e-002	0.	1477.4
11205	17.077	5.7273	0.	1532.2
11206	16.985	5.8182	0.	1555.1
11207	17.077	5.8182	5.e-002	1.4428
11208	17.077	5.9091	0.	1523.3
11209	17.077	5.5455	0.	1533.6
11210	16.985	5.6364	0.	1554.9
11211	17.077	5.6364	5.e-002	7.5456
11212	17.077	5.3636	0.	1536.3
11213	16.985	5.4545	0.	1557.3
11214	17.077	5.4545	5.e-002	7.9509
11215	17.077	5.1818	0.	1539.2
11216	16.985	5.2727	0.	1559.9
11217	17.077	5.2727	5.e-002	7.9638
11218	17.077	5.	0.	1541.9
11219	16.985	5.0909	0.	1562.5
11220	17.077	5.0909	5.e-002	7.9461
11221	17.077	4.8182	0.	1544.6
11222	16.985	4.9091	0.	1565.
11223	17.077	4.9091	5.e-002	7.9225
11224	17.077	4.6364	0.	1547.
11225	16.985	4.7273	0.	1567.4
11226	17.077	4.7273	5.e-002	7.8956
11227	17.077	4.4545	0.	1549.3
11228	16.985	4.5455	0.	1569.6
11229	17.077	4.5455	5.e-002	7.8669
11230	17.077	4.2727	0.	1551.2
11231	16.985	4.3636	0.	1571.6
11232	17.077	4.3636	5.e-002	7.8375
11233	17.077	4.0909	0.	1552.9
11234	16.985	4.1818	0.	1573.3
11235	17.077	4.1818	5.e-002	7.8087
11236	17.077	3.9091	0.	1554.4
11237	16.985	4.	0.	1574.7
11238	17.077	4.	5.e-002	7.7816
11239	17.077	3.7273	0.	1555.5
11240	16.985	3.8182	0.	1575.9
11241	17.077	3.8182	5.e-002	7.7572
11242	17.077	3.5455	0.	1556.4
11243	16.985	3.6364	0.	1576.9
11244	17.077	3.6364	5.e-002	7.7365
11245	17.077	3.3636	0.	1557.
11246	16.985	3.4545	0.	1577.6
11247	17.077	3.4545	5.e-002	7.7202
11248	17.077	3.1818	0.	1557.4
11249	16.985	3.2727	0.	1578.
11250	17.077	3.2727	5.e-002	7.709
11251	17.077	3.	0.	1557.5
11252	16.985	3.0909	0.	1578.3
11253	17.077	3.0909	5.e-002	7.7033
11254	17.077	2.8182	0.	1557.4
11255	16.985	2.9091	0.	1578.3
11256	17.077	2.9091	5.e-002	7.7033
11257	17.077	2.6364	0.	1557.
11258	16.985	2.7273	0.	1578.
11259	17.077	2.7273	5.e-002	7.709
11260	17.077	2.4545	0.	1556.4
11261	16.985	2.5455	0.	1577.6
11262	17.077	2.5455	5.e-002	7.7202
11263	17.077	2.2727	0.	1555.5
11264	16.985	2.3636	0.	1576.9
11265	17.077	2.3636	5.e-002	7.7365
11266	17.077	2.0909	0.	1554.4
11267	16.985	2.1818	0.	1575.9
11268	17.077	2.1818	5.e-002	7.7572
11269	17.077	1.9091	0.	1552.9
11270	16.985	2.	0.	1574.7
11271	17.077	2.	5.e-002	7.7816
11272	17.077	1.7273	0.	1551.2
11273	16.985	1.8182	0.	1573.3
11274	17.077	1.8182	5.e-002	7.8087
11275	17.077	1.5455	0.	1549.3
11276	16.985	1.6364	0.	1571.6
11277	17.077	1.6364	5.e-002	7.8375
11278	17.077	1.3636	0.	1547.
11279	16.985	1.4545	0.	1569.6
11280	17.077	1.4545	5.e-002	7.8669
11281	17.077	1.1818	0.	1544.6
11282	16.985	1.2727	0.	1567.4
11283	17.077	1.2727	5.e-002	7.8956
11284	17.077	1.	0.	1541.9
11285	16.985	1.0909	0.	1565.
11286	17.077	1.0909	5.e-002	7.9225
11287	17.077	0.81818	0.	1539.2
11288	16.985	0.90909	0.	1562.5
11289	17.077	0.90909	5.e-002	7.9461
11290	17.077	0.63636	0.	1536.3
11291	16.985	0.72727	0.	1559.9
11292	17.077	0.72727	5.e-002	7.9638
11293	17.077	0.45455	0.	1533.6
11294	16.985	0.54545	0.	1557.3
11295	17.077	0.54545	5.e-002	7.9509
11296	17.077	0.27273	0.	1532.2
11297	16.985	0.36364	0.	1554.9
11298	17.077	0.36364	5.e-002	7.5456
11299	16.985	0.18182	0.	1555.1
11300	17.077	0.18182	5.e-002	1.4428
11301	17.077	9.0909e-002	0.	1523.3
11302	16.893	5.7273	0.	1577.7
11303	16.801	5.8182	0.	1600.8
11304	16.893	5.8182	5.e-002	1.2766
11305	16.893	5.9091	0.	1569.1
11306	16.893	5.5455	0.	1578.6
11307	16.801	5.6364	0.	1600.2
11308	16.893	5.6364	5.e-002	7.5177
11309	16.893	5.3636	0.	1580.9
11310	16.801	5.4545	0.	1602.1
11311	16.893	5.4545	5.e-002	7.9351
11312	16.893	5.1818	0.	1583.3
11313	16.801	5.2727	0.	1604.3
11314	16.893	5.2727	5.e-002	7.9528
11315	16.893	5.	0.	1585.6
11316	16.801	5.0909	0.	1606.5
11317	16.893	5.0909	5.e-002	7.9402
11318	16.893	4.8182	0.	1587.9
11319	16.801	4.9091	0.	1608.6
11320	16.893	4.9091	5.e-002	7.9225
11321	16.893	4.6364	0.	1589.9
11322	16.801	4.7273	0.	1610.6
11323	16.893	4.7273	5.e-002	7.9021
11324	16.893	4.4545	0.	1591.9
11325	16.801	4.5455	0.	1612.5
11326	16.893	4.5455	5.e-002	7.8801
11327	16.893	4.2727	0.	1593.5
11328	16.801	4.3636	0.	1614.2
11329	16.893	4.3636	5.e-002	7.8575
11330	16.893	4.0909	0.	1595.
11331	16.801	4.1818	0.	1615.6
11332	16.893	4.1818	5.e-002	7.8352
11333	16.893	3.9091	0.	1596.2
11334	16.801	4.	0.	1616.9
11335	16.893	4.	5.e-002	7.8143
11336	16.893	3.7273	0.	1597.2
11337	16.801	3.8182	0.	1617.9
11338	16.893	3.8182	5.e-002	7.7954
11339	16.893	3.5455	0.	1598.
11340	16.801	3.6364	0.	1618.7
11341	16.893	3.6364	5.e-002	7.7794
11342	16.893	3.3636	0.	1598.5
11343	16.801	3.4545	0.	1619.4
11344	16.893	3.4545	5.e-002	7.7667
11345	16.893	3.1818	0.	1598.9
11346	16.801	3.2727	0.	1619.8
11347	16.893	3.2727	5.e-002	7.7581
11348	16.893	3.	0.	1599.
11349	16.801	3.0909	0.	1620.
11350	16.893	3.0909	5.e-002	7.7536
11351	16.893	2.8182	0.	1598.9
11352	16.801	2.9091	0.	1620.
11353	16.893	2.9091	5.e-002	7.7536
11354	16.893	2.6364	0.	1598.5
11355	16.801	2.7273	0.	1619.8
11356	16.893	2.7273	5.e-002	7.7581
11357	16.893	2.4545	0.	1598.
11358	16.801	2.5455	0.	1619.4
11359	16.893	2.5455	5.e-002	7.7667
11360	16.893	2.2727	0.	1597.2
11361	16.801	2.3636	0.	1618.7
11362	16.893	2.3636	5.e-002	7.7794
11363	16.893	2.0909	0.	1596.2
11364	16.801	2.1818	0.	1617.9
11365	16.893	2.1818	5.e-002	7.7954
11366	16.893	1.9091	0.	1595.
11367	16.801	2.	0.	1616.9
11368	16.893	2.	5.e-002	7.8143
11369	16.893	1.7273	0.	1593.5
11370	16.801	1.8182	0.	1615.6
11371	16.893	1.8182	5.e-002	7.8352
11372	16.893	1.5455	0.	1591.9
11373	16.801	1.6364	0.	1614.2
11374	16.893	1.6364	5.e-002	7.8575
11375	16.893	1.3636	0.	1589.9
11376	16.801	1.4545	0.	1612.5
11377	16.893	1.4545	5.e-002	7.8801
11378	16.893	1.1818	0.	1587.9
11379	16.801	1.2727	0.	1610.6
11380	16.893	1.2727	5.e-002	7.9021
11381	16.893	1.	0.	1585.6
11382	16.801	1.0909	0.	1608.6
11383	16.893	1.0909	5.e-002	7.9225
11384	16.893	0.81818	0.	1583.3
11385	16.801	0.90909	0.	1606.5
11386	16.893	0.90909	5.e-002	7.9402
11387	16.893	0.63636	0.	1580.9
11388	16.801	0.72727	0.	1604.3
11389	16.893	0.72727	5.e-002	7.9528
11390	16.893	0.45455	0.	1578.6
11391	16.801	0.54545	0.	1602.1
11392	16.893	0.54545	5.e-002	7.9351
11393	16.893	0.27273	0.	1577.7
11394	16.801	0.36364	0.	1600.2
11395	16.893	0.36364	5.e-002	7.5177
11396	16.801	0.18182	0.	1600.8
11397	16.893	0.18182	5.e-002	1.2766
11398	16.893	9.0909e-002	0.	1569.1
11399	16.709	5.7273	0.	1623.1
11400	16.618	5.8182	0.	1646.4
11401	16.709	5.8182	5.e-002	1.1321
11402	16.709	5.9091	0.	1614.8
11403	16.709	5.5455	0.	1623.6
11404	16.618	5.6364	0.	1645.4
11405	16.709	5.6364	5.e-002	7.4999
11406	16.709	5.3636	0.	1625.5
11407	16.618	5.4545	0.	1647.
11408	16.709	5.4545	5.e-002	7.9278
11409	16.709	5.1818	0.	1627.5
11410	16.618	5.2727	0.	1648.8
11411	16.709	5.2727	5.e-002	7.9493
11412	16.709	5.	0.	1629.5
11413	16.618	5.0909	0.	1650.6
11414	16.709	5.0909	5.e-002	7.9408
11415	16.709	4.8182	0.	1631.4
11416	16.618	4.9091	0.	1652.4
11417	16.709	4.9091	5.e-002	7.9277
11418	16.709	4.6364	0.	1633.1
11419	16.618	4.7273	0.	1654.1
11420	16.709	4.7273	5.e-002	7.9123
11421	16.709	4.4545	0.	1634.8
11422	16.618	4.5455	0.	1655.7
11423	16.709	4.5455	5.e-002	7.8956
11424	16.709	4.2727	0.	1636.2
11425	16.618	4.3636	0.	1657.1
11426	16.709	4.3636	5.e-002	7.8784
11427	16.709	4.0909	0.	1637.5
11428	16.618	4.1818	0.	1658.4
11429	16.709	4.1818	5.e-002	7.8613
11430	16.709	3.9091	0.	1638.5
11431	16.618	4.	0.	1659.5
11432	16.709	4.	5.e-002	7.8452
11433	16.709	3.7273	0.	1639.4
11434	16.618	3.8182	0.	1660.3
11435	16.709	3.8182	5.e-002	7.8307
11436	16.709	3.5455	0.	1640.1
11437	16.618	3.6364	0.	1661.1
11438	16.709	3.6364	5.e-002	7.8183
11439	16.709	3.3636	0.	1640.5
11440	16.618	3.4545	0.	1661.6
11441	16.709	3.4545	5.e-002	7.8086
11442	16.709	3.1818	0.	1640.8
11443	16.618	3.2727	0.	1661.9
11444	16.709	3.2727	5.e-002	7.8019
11445	16.709	3.	0.	1640.9
11446	16.618	3.0909	0.	1662.1
11447	16.709	3.0909	5.e-002	7.7984
11448	16.709	2.8182	0.	1640.8
11449	16.618	2.9091	0.	1662.1
11450	16.709	2.9091	5.e-002	7.7984
11451	16.709	2.6364	0.	1640.5
11452	16.618	2.7273	0.	1661.9
11453	16.709	2.7273	5.e-002	7.8019
11454	16.709	2.4545	0.	1640.1
11455	16.618	2.5455	0.	1661.6
11456	16.709	2.5455	5.e-002	7.8086
11457	16.709	2.2727	0.	1639.4
11458	16.618	2.3636	0.	1661.1
11459	16.709	2.3636	5.e-002	7.8183
11460	16.709	2.0909	0.	1638.5
11461	16.618	2.1818	0.	1660.3
11462	16.709	2.1818	5.e-002	7.8307
11463	16.709	1.9091	0.	1637.5
11464	16.618	2.	0.	1659.5
11465	16.709	2.	5.e-002	7.8452
11466	16.709	1.7273	0.	1636.2
11467	16.618	1.8182	0.	1658.4
11468	16.709	1.8182	5.e-002	7.8613
11469	16.709	1.5455	0.	1634.8
11470	16.618	1.6364	0.	1657.1
11471	16.709	1.6364	5.e-002	7.8784
11472	16.709	1.3636	0.	1633.1
11473	16.618	1.4545	0.	1655.7
11474	16.709	1.4545	5.e-002	7.8956
11475	16.709	1.1818	0.	1631.4
11476	16.618	1.2727	0.	1654.1
11477	16.709	1.2727	5.e-002	7.9123
11478	16.709	1.	0.	1629.5
11479	16.618	1.0909	0.	1652.4
11480	16.709	1.0909	5.e-002	7.9277
11481	16.709	0.81818	0.	1627.5
11482	16.618	0.90909	0.	1650.6
11483	16.709	0.90909	5.e-002	7.9408
11484	16.709	0.63636	0.	1625.5
11485	16.618	0.72727	0.	1648.8
11486	16.709	0.72727	5.e-002	7.9493
11487	16.709	0.45455	0.	1623.6
11488	16.618	0.54545	0.	1647.
11489	16.709	0.54545	5.e-002	7.9278
11490	16.709	0.27273	0.	1623.1
11491	16.618	0.36364	0.	1645.4
11492	16.709	0.36364	5.e-002	7.4999
11493	16.618	0.18182	0.	1646.4
11494	16.709	0.18182	5.e-002	1.1321
11495	16.709	9.0909e-002	0.	1614.8
11496	16.526	5.7273	0.	1668.6
11497	16.434	5.8182	0.	1692.1
11498	16.526	5.8182	5.e-002	1.0061
11499	16.526	5.9091	0.	1660.5
11500	16.526	5.5455	0.	1668.7
11501	16.434	5.6364	0.	1690.7
11502	16.526	5.6364	5.e-002	7.4903
11503	16.526	5.3636	0.	1670.2
11504	16.434	5.4545	0.	1692.
11505	16.526	5.4545	5.e-002	7.9276
11506	16.526	5.1818	0.	1671.9
11507	16.434	5.2727	0.	1693.4
11508	16.526	5.2727	5.e-002	7.952
11509	16.526	5.	0.	1673.5
11510	16.434	5.0909	0.	1694.9
11511	16.526	5.0909	5.e-002	7.9466
11512	16.526	4.8182	0.	1675.1
11513	16.434	4.9091	0.	1696.4
11514	16.526	4.9091	5.e-002	7.9372
11515	16.526	4.6364	0.	1676.6
11516	16.434	4.7273	0.	1697.9
11517	16.526	4.7273	5.e-002	7.9258
11518	16.526	4.4545	0.	1678.
11519	16.434	4.5455	0.	1699.2
11520	16.526	4.5455	5.e-002	7.9133
11521	16.526	4.2727	0.	1679.2
11522	16.434	4.3636	0.	1700.4
11523	16.526	4.3636	5.e-002	7.9002
11524	16.526	4.0909	0.	1680.3
11525	16.434	4.1818	0.	1701.5
11526	16.526	4.1818	5.e-002	7.8872
11527	16.526	3.9091	0.	1681.2
11528	16.434	4.	0.	1702.4
11529	16.526	4.	5.e-002	7.8749
11530	16.526	3.7273	0.	1682.
11531	16.434	3.8182	0.	1703.1
11532	16.526	3.8182	5.e-002	7.8638
11533	16.526	3.5455	0.	1682.5
11534	16.434	3.6364	0.	1703.8
11535	16.526	3.6364	5.e-002	7.8543
11536	16.526	3.3636	0.	1683.
11537	16.434	3.4545	0.	1704.2
11538	16.526	3.4545	5.e-002	7.8468
11539	16.526	3.1818	0.	1683.2
11540	16.434	3.2727	0.	1704.5
11541	16.526	3.2727	5.e-002	7.8417
11542	16.526	3.	0.	1683.3
11543	16.434	3.0909	0.	1704.7
11544	16.526	3.0909	5.e-002	7.8391
11545	16.526	2.8182	0.	1683.2
11546	16.434	2.9091	0.	1704.7
11547	16.526	2.9091	5.e-002	7.8391
11548	16.526	2.6364	0.	1683.
11549	16.434	2.7273	0.	1704.5
11550	16.526	2.7273	5.e-002	7.8417
11551	16.526	2.4545	0.	1682.5
11552	16.434	2.5455	0.	1704.2
11553	16.526	2.5455	5.e-002	7.8468
11554	16.526	2.2727	0.	1682.
11555	16.434	2.3636	0.	1703.8
11556	16.526	2.3636	5.e-002	7.8543
11557	16.526	2.0909	0.	1681.2
11558	16.434	2.1818	0.	1703.1
11559	16.526	2.1818	5.e-002	7.8638
11560	16.526	1.9091	0.	1680.3
11561	16.434	2.	0.	1702.4
11562	16.526	2.	5.e-002	7.8749
11563	16.526	1.7273	0.	1679.2
11564	16.434	1.8182	0.	1701.5
11565	16.526	1.8182	5.e-002	7.8872
11566	16.526	1.5455	0.	1678.
11567	16.434	1.6364	0.	1700.4
11568	16.526	1.6364	5.e-002	7.9002
11569	16.526	1.3636	0.	1676.6
11570	16.434	1.4545	0.	1699.2
11571	16.526	1.4545	5.e-002	7.9133
11572	16.526	1.1818	0.	1675.1
11573	16.434	1.2727	0.	1697.9
11574	16.526	1.2727	5.e-002	7.9258
11575	16.526	1.	0.	1673.5
11576	16.434	1.0909	0.	1696.4
11577	16.526	1.0909	5.e-002	7.9372
11578	16.526	0.81818	0.	1671.9
11579	16.434	0.90909	0.	1694.9
11580	16.526	0.90909	5.e-002	7.9466
11581	16.526	0.63636	0.	1670.2
11582	16.434	0.72727	0.	1693.4
11583	16.526	0.72727	5.e-002	7.952
11584	16.526	0.45455	0.	1668.7
11585	16.434	0.54545	0.	1692.
11586	16.526	0.54545	5.e-002	7.9276
11587	16.526	0.27273	0.	1668.6
11588	16.434	0.36364	0.	1690.7
11589	16.526	0.36364	5.e-002	7.4903
11590	16.434	0.18182	0.	1692.1
11591	16.526	0.18182	5.e-002	1.0061
11592	16.526	9.0909e-002	0.	1660.5
11593	16.342	5.7273	0.	1714.
11594	16.25	5.8182	0.	1737.8
11595	16.342	5.8182	5.e-002	0.89617
11596	16.342	5.9091	0.	1706.2
11597	16.342	5.5455	0.	1713.9
11598	16.25	5.6364	0.	1736.1
11599	16.342	5.6364	5.e-002	7.4875
11600	16.342	5.3636	0.	1715.1
11601	16.25	5.4545	0.	1737.
11602	16.342	5.4545	5.e-002	7.9331
11603	16.342	5.1818	0.	1716.4
11604	16.25	5.2727	0.	1738.2
11605	16.342	5.2727	5.e-002	7.9598
11606	16.342	5.	0.	1717.8
11607	16.25	5.0909	0.	1739.4
11608	16.342	5.0909	5.e-002	7.9569
11609	16.342	4.8182	0.	1719.1
11610	16.25	4.9091	0.	1740.7
11611	16.342	4.9091	5.e-002	7.9502
11612	16.342	4.6364	0.	1720.4
11613	16.25	4.7273	0.	1741.8
11614	16.342	4.7273	5.e-002	7.942
11615	16.342	4.4545	0.	1721.5
11616	16.25	4.5455	0.	1743.
11617	16.342	4.5455	5.e-002	7.9327
11618	16.342	4.2727	0.	1722.6
11619	16.25	4.3636	0.	1744.
11620	16.342	4.3636	5.e-002	7.9229
11621	16.342	4.0909	0.	1723.5
11622	16.25	4.1818	0.	1744.9
11623	16.342	4.1818	5.e-002	7.9132
11624	16.342	3.9091	0.	1724.3
11625	16.25	4.	0.	1745.7
11626	16.342	4.	5.e-002	7.9039
11627	16.342	3.7273	0.	1724.9
11628	16.25	3.8182	0.	1746.3
11629	16.342	3.8182	5.e-002	7.8954
11630	16.342	3.5455	0.	1725.4
11631	16.25	3.6364	0.	1746.8
11632	16.342	3.6364	5.e-002	7.8882
11633	16.342	3.3636	0.	1725.8
11634	16.25	3.4545	0.	1747.2
11635	16.342	3.4545	5.e-002	7.8825
11636	16.342	3.1818	0.	1726.
11637	16.25	3.2727	0.	1747.5
11638	16.342	3.2727	5.e-002	7.8786
11639	16.342	3.	0.	1726.
11640	16.25	3.0909	0.	1747.6
11641	16.342	3.0909	5.e-002	7.8766
11642	16.342	2.8182	0.	1726.
11643	16.25	2.9091	0.	1747.6
11644	16.342	2.9091	5.e-002	7.8766
11645	16.342	2.6364	0.	1725.8
11646	16.25	2.7273	0.	1747.5
11647	16.342	2.7273	5.e-002	7.8786
11648	16.342	2.4545	0.	1725.4
11649	16.25	2.5455	0.	1747.2
11650	16.342	2.5455	5.e-002	7.8825
11651	16.342	2.2727	0.	1724.9
11652	16.25	2.3636	0.	1746.8
11653	16.342	2.3636	5.e-002	7.8882
11654	16.342	2.0909	0.	1724.3
11655	16.25	2.1818	0.	1746.3
11656	16.342	2.1818	5.e-002	7.8954
11657	16.342	1.9091	0.	1723.5
11658	16.25	2.	0.	1745.7
11659	16.342	2.	5.e-002	7.9039
11660	16.342	1.7273	0.	1722.6
11661	16.25	1.8182	0.	1744.9
11662	16.342	1.8182	5.e-002	7.9132
11663	16.342	1.5455	0.	1721.5
11664	16.25	1.6364	0.	1744.
11665	16.342	1.6364	5.e-002	7.9229
11666	16.342	1.3636	0.	1720.4
11667	16.25	1.4545	0.	1743.
11668	16.342	1.4545	5.e-002	7.9327
11669	16.342	1.1818	0.	1719.1
11670	16.25	1.2727	0.	1741.8
11671	16.342	1.2727	5.e-002	7.942
11672	16.342	1.	0.	1717.8
11673	16.25	1.0909	0.	1740.7
11674	16.342	1.0909	5.e-002	7.9502
11675	16.342	0.81818	0.	1716.4
11676	16.25	0.90909	0.	1739.4
11677	16.342	0.90909	5.e-002	7.9569
11678	16.342	0.63636	0.	1715.1
11679	16.25	0.72727	0.	1738.2
11680	16.342	0.72727	5.e-002	7.9598
11681	16.342	0.45455	0.	1713.9
11682	16.25	0.54545	0.	1737.
11683	16.342	0.54545	5.e-002	7.9331
11684	16.342	0.27273	0.	1714.
11685	16.25	0.36364	0.	1736.1
11686	16.342	0.36364	5.e-002	7.4875
11687	16.25	0.18182	0.	1737.8
11688	16.342	0.18182	5.e-002	0.89617
11689	16.342	9.0909e-002	0.	1706.2
11690	16.159	5.7273	0.	1759.6
11691	16.067	5.8182	0.	1783.5
11692	16.159	5.8182	5.e-002	0.8002
11693	16.159	5.9091	0.	1752.
11694	16.159	5.5455	0.	1759.2
11695	16.067	5.6364	0.	1781.6
11696	16.159	5.6364	5.e-002	7.4902
11697	16.159	5.3636	0.	1760.1
11698	16.067	5.4545	0.	1782.2
11699	16.159	5.4545	5.e-002	7.9433
11700	16.159	5.1818	0.	1761.2
11701	16.067	5.2727	0.	1783.2
11702	16.159	5.2727	5.e-002	7.9718
11703	16.159	5.	0.	1762.3
11704	16.067	5.0909	0.	1784.1
11705	16.159	5.0909	5.e-002	7.9708
11706	16.159	4.8182	0.	1763.4
11707	16.067	4.9091	0.	1785.1
11708	16.159	4.9091	5.e-002	7.9663
11709	16.159	4.6364	0.	1764.4
11710	16.067	4.7273	0.	1786.1
11711	16.159	4.7273	5.e-002	7.9605
11712	16.159	4.4545	0.	1765.4
11713	16.067	4.5455	0.	1787.
11714	16.159	4.5455	5.e-002	7.9538
11715	16.159	4.2727	0.	1766.2
11716	16.067	4.3636	0.	1787.8
11717	16.159	4.3636	5.e-002	7.9466
11718	16.159	4.0909	0.	1767.
11719	16.067	4.1818	0.	1788.6
11720	16.159	4.1818	5.e-002	7.9394
11721	16.159	3.9091	0.	1767.7
11722	16.067	4.	0.	1789.2
11723	16.159	4.	5.e-002	7.9324
11724	16.159	3.7273	0.	1768.2
11725	16.067	3.8182	0.	1789.8
11726	16.159	3.8182	5.e-002	7.9261
11727	16.159	3.5455	0.	1768.6
11728	16.067	3.6364	0.	1790.2
11729	16.159	3.6364	5.e-002	7.9206
11730	16.159	3.3636	0.	1768.9
11731	16.067	3.4545	0.	1790.6
11732	16.159	3.4545	5.e-002	7.9163
11733	16.159	3.1818	0.	1769.1
11734	16.067	3.2727	0.	1790.8
11735	16.159	3.2727	5.e-002	7.9134
11736	16.159	3.	0.	1769.2
11737	16.067	3.0909	0.	1790.9
11738	16.159	3.0909	5.e-002	7.9119
11739	16.159	2.8182	0.	1769.1
11740	16.067	2.9091	0.	1790.9
11741	16.159	2.9091	5.e-002	7.9119
11742	16.159	2.6364	0.	1768.9
11743	16.067	2.7273	0.	1790.8
11744	16.159	2.7273	5.e-002	7.9134
11745	16.159	2.4545	0.	1768.6
11746	16.067	2.5455	0.	1790.6
11747	16.159	2.5455	5.e-002	7.9163
11748	16.159	2.2727	0.	1768.2
11749	16.067	2.3636	0.	1790.2
11750	16.159	2.3636	5.e-002	7.9206
11751	16.159	2.0909	0.	1767.7
11752	16.067	2.1818	0.	1789.8
11753	16.159	2.1818	5.e-002	7.9261
11754	16.159	1.9091	0.	1767.
11755	16.067	2.	0.	1789.2
11756	16.159	2.	5.e-002	7.9324
11757	16.159	1.7273	0.	1766.2
11758	16.067	1.8182	0.	1788.6
11759	16.159	1.8182	5.e-002	7.9394
11760	16.159	1.5455	0.	1765.4
11761	16.067	1.6364	0.	1787.8
11762	16.159	1.6364	5.e-002	7.9466
11763	16.159	1.3636	0.	1764.4
11764	16.067	1.4545	0.	1787.
11765	16.159	1.4545	5.e-002	7.9538
11766	16.159	1.1818	0.	1763.4
11767	16.067	1.2727	0.	1786.1
11768	16.159	1.2727	5.e-002	7.9605
11769	16.159	1.	0.	1762.3
11770	16.067	1.0909	0.	1785.1
11771	16.159	1.0909	5.e-002	7.9663
11772	16.159	0.81818	0.	1761.2
11773	16.067	0.90909	0.	1784.1
11774	16.159	0.90909	5.e-002	7.9708
11775	16.159	0.63636	0.	1760.1
11776	16.067	0.72727	0.	1783.2
11777	16.159	0.72727	5.e-002	7.9718
11778	16.159	0.45455	0.	1759.2
11779	16.067	0.54545	0.	1782.2
11780	16.159	0.54545	5.e-002	7.9433
11781	16.159	0.27273	0.	1759.6
11782	16.067	0.36364	0.	1781.6
11783	16.159	0.36364	5.e-002	7.4902
11784	16.067	0.18182	0.	1783.5
11785	16.159	0.18182	5.e-002	0.80021
11786	16.159	9.0909e-002	0.	1752.
11787	15.975	5.7273	0.	1805.2
11788	15.883	5.8182	0.	1829.3
11789	15.975	5.8182	5.e-002	0.71643
11790	15.975	5.9091	0.	1797.8
11791	15.975	5.5455	0.	1804.6
11792	15.883	5.6364	0.	1827.1
11793	15.975	5.6364	5.e-002	7.4975
11794	15.975	5.3636	0.	1805.3
11795	15.883	5.4545	0.	1827.6
11796	15.975	5.4545	5.e-002	7.9574
11797	15.975	5.1818	0.	1806.1
11798	15.883	5.2727	0.	1828.3
11799	15.975	5.2727	5.e-002	7.9874
11800	15.975	5.	0.	1806.9
11801	15.883	5.0909	0.	1829.
11802	15.975	5.0909	5.e-002	7.9878
11803	15.975	4.8182	0.	1807.8
11804	15.883	4.9091	0.	1829.8
11805	15.975	4.9091	5.e-002	7.9851
11806	15.975	4.6364	0.	1808.7
11807	15.883	4.7273	0.	1830.6
11808	15.975	4.7273	5.e-002	7.9811
11809	15.975	4.4545	0.	1809.4
11810	15.883	4.5455	0.	1831.3
11811	15.975	4.5455	5.e-002	7.9764
11812	15.975	4.2727	0.	1810.2
11813	15.883	4.3636	0.	1832.
11814	15.975	4.3636	5.e-002	7.9712
11815	15.975	4.0909	0.	1810.8
11816	15.883	4.1818	0.	1832.6
11817	15.975	4.1818	5.e-002	7.966
11818	15.975	3.9091	0.	1811.4
11819	15.883	4.	0.	1833.1
11820	15.975	4.	5.e-002	7.9609
11821	15.975	3.7273	0.	1811.8
11822	15.883	3.8182	0.	1833.6
11823	15.975	3.8182	5.e-002	7.9562
11824	15.975	3.5455	0.	1812.2
11825	15.883	3.6364	0.	1834.
11826	15.975	3.6364	5.e-002	7.9521
11827	15.975	3.3636	0.	1812.4
11828	15.883	3.4545	0.	1834.2
11829	15.975	3.4545	5.e-002	7.9489
11830	15.975	3.1818	0.	1812.6
11831	15.883	3.2727	0.	1834.4
11832	15.975	3.2727	5.e-002	7.9467
11833	15.975	3.	0.	1812.6
11834	15.883	3.0909	0.	1834.5
11835	15.975	3.0909	5.e-002	7.9456
11836	15.975	2.8182	0.	1812.6
11837	15.883	2.9091	0.	1834.5
11838	15.975	2.9091	5.e-002	7.9456
11839	15.975	2.6364	0.	1812.4
11840	15.883	2.7273	0.	1834.4
11841	15.975	2.7273	5.e-002	7.9467
11842	15.975	2.4545	0.	1812.2
11843	15.883	2.5455	0.	1834.2
11844	15.975	2.5455	5.e-002	7.9489
11845	15.975	2.2727	0.	1811.8
11846	15.883	2.3636	0.	1834.
11847	15.975	2.3636	5.e-002	7.9521
11848	15.975	2.0909	0.	1811.4
11849	15.883	2.1818	0.	1833.6
11850	15.975	2.1818	5.e-002	7.9562
11851	15.975	1.9091	0.	1810.8
11852	15.883	2.	0.	1833.1
11853	15.975	2.	5.e-002	7.9609
11854	15.975	1.7273	0.	1810.2
11855	15.883	1.8182	0.	1832.6
11856	15.975	1.8182	5.e-002	7.966
11857	15.975	1.5455	0.	1809.4
11858	15.883	1.6364	0.	1832.
11859	15.975	1.6364	5.e-002	7.9712
11860	15.975	1.3636	0.	1808.7
11861	15.883	1.4545	0.	1831.3
11862	15.975	1.4545	5.e-002	7.9764
11863	15.975	1.1818	0.	1807.8
11864	15.883	1.2727	0.	1830.6
11865	15.975	1.2727	5.e-002	7.9811
11866	15.975	1.	0.	1806.9
11867	15.883	1.0909	0.	1829.8
11868	15.975	1.0909	5.e-002	7.9851
11869	15.975	0.81818	0.	1806.1
11870	15.883	0.90909	0.	1829.
11871	15.975	0.90909	5.e-002	7.9878
11872	15.975	0.63636	0.	1805.3
11873	15.883	0.72727	0.	1828.3
11874	15.975	0.72727	5.e-002	7.9874
11875	15.975	0.45455	0.	1804.6
11876	15.883	0.54545	0.	1827.6
11877	15.975	0.54545	5.e-002	7.9574
11878	15.975	0.27273	0.	1805.2
11879	15.883	0.36364	0.	1827.1
11880	15.975	0.36364	5.e-002	7.4975
11881	15.883	0.18182	0.	1829.3
11882	15.975	0.18182	5.e-002	0.71643
11883	15.975	9.0909e-002	0.	1797.8
11884	15.791	5.7273	0.	1851.
11885	15.7	5.8182	0.	1875.2
11886	15.791	5.8182	5.e-002	0.64328
11887	15.791	5.9091	0.	1843.8
11888	15.791	5.5455	0.	1850.1
11889	15.7	5.6364	0.	1872.8
11890	15.791	5.6364	5.e-002	7.5087
11891	15.791	5.3636	0.	1850.6
11892	15.7	5.4545	0.	1873.1
11893	15.791	5.4545	5.e-002	7.9748
11894	15.791	5.1818	0.	1851.2
11895	15.7	5.2727	0.	1873.6
11896	15.791	5.2727	5.e-002	8.0059
11897	15.791	5.	0.	1851.8
11898	15.7	5.0909	0.	1874.1
11899	15.791	5.0909	5.e-002	8.0074
11900	15.791	4.8182	0.	1852.5
11901	15.7	4.9091	0.	1874.7
11902	15.791	4.9091	5.e-002	8.006
11903	15.791	4.6364	0.	1853.2
11904	15.7	4.7273	0.	1875.3
11905	15.791	4.7273	5.e-002	8.0035
11906	15.791	4.4545	0.	1853.8
11907	15.7	4.5455	0.	1875.9
11908	15.791	4.5455	5.e-002	8.0003
11909	15.791	4.2727	0.	1854.4
11910	15.7	4.3636	0.	1876.4
11911	15.791	4.3636	5.e-002	7.9968
11912	15.791	4.0909	0.	1854.9
11913	15.7	4.1818	0.	1876.9
11914	15.791	4.1818	5.e-002	7.993
11915	15.791	3.9091	0.	1855.4
11916	15.7	4.	0.	1877.3
11917	15.791	4.	5.e-002	7.9894
11918	15.791	3.7273	0.	1855.7
11919	15.7	3.8182	0.	1877.7
11920	15.791	3.8182	5.e-002	7.986
11921	15.791	3.5455	0.	1856.
11922	15.7	3.6364	0.	1878.
11923	15.791	3.6364	5.e-002	7.983
11924	15.791	3.3636	0.	1856.2
11925	15.7	3.4545	0.	1878.2
11926	15.791	3.4545	5.e-002	7.9807
11927	15.791	3.1818	0.	1856.4
11928	15.7	3.2727	0.	1878.4
11929	15.791	3.2727	5.e-002	7.9791
11930	15.791	3.	0.	1856.4
11931	15.7	3.0909	0.	1878.5
11932	15.791	3.0909	5.e-002	7.9782
11933	15.791	2.8182	0.	1856.4
11934	15.7	2.9091	0.	1878.5
11935	15.791	2.9091	5.e-002	7.9782
11936	15.791	2.6364	0.	1856.2
11937	15.7	2.7273	0.	1878.4
11938	15.791	2.7273	5.e-002	7.9791
11939	15.791	2.4545	0.	1856.
11940	15.7	2.5455	0.	1878.2
11941	15.791	2.5455	5.e-002	7.9807
11942	15.791	2.2727	0.	1855.7
11943	15.7	2.3636	0.	1878.
11944	15.791	2.3636	5.e-002	7.983
11945	15.791	2.0909	0.	1855.4
11946	15.7	2.1818	0.	1877.7
11947	15.791	2.1818	5.e-002	7.986
11948	15.791	1.9091	0.	1854.9
11949	15.7	2.	0.	1877.3
11950	15.791	2.	5.e-002	7.9894
11951	15.791	1.7273	0.	1854.4
11952	15.7	1.8182	0.	1876.9
11953	15.791	1.8182	5.e-002	7.993
11954	15.791	1.5455	0.	1853.8
11955	15.7	1.6364	0.	1876.4
11956	15.791	1.6364	5.e-002	7.9968
11957	15.791	1.3636	0.	1853.2
11958	15.7	1.4545	0.	1875.9
11959	15.791	1.4545	5.e-002	8.0003
11960	15.791	1.1818	0.	1852.5
11961	15.7	1.2727	0.	1875.3
11962	15.791	1.2727	5.e-002	8.0035
11963	15.791	1.	0.	1851.8
11964	15.7	1.0909	0.	1874.7
11965	15.791	1.0909	5.e-002	8.006
11966	15.791	0.81818	0.	1851.2
11967	15.7	0.90909	0.	1874.1
11968	15.791	0.90909	5.e-002	8.0074
11969	15.791	0.63636	0.	1850.6
11970	15.7	0.72727	0.	1873.6
11971	15.791	0.72727	5.e-002	8.0059
11972	15.791	0.45455	0.	1850.1
11973	15.7	0.54545	0.	1873.1
11974	15.791	0.54545	5.e-002	7.9748
11975	15.791	0.27273	0.	1851.
11976	15.7	0.36364	0.	1872.8
11977	15.791	0.36364	5.e-002	7.5087
11978	15.7	0.18182	0.	1875.2
11979	15.791	0.18182	5.e-002	0.64328
11980	15.791	9.0909e-002	0.	1843.8
11981	15.608	5.7273	0.	1896.8
11982	15.516	5.8182	0.	1921.2
11983	15.608	5.8182	5.e-002	0.57939
11984	15.608	5.9091	0.	1889.8
11985	15.608	5.5455	0.	1895.8
11986	15.516	5.6364	0.	1918.7
11987	15.608	5.6364	5.e-002	7.523
11988	15.608	5.3636	0.	1896.
11989	15.516	5.4545	0.	1918.7
11990	15.608	5.4545	5.e-002	7.9947
11991	15.608	5.1818	0.	1896.5
11992	15.516	5.2727	0.	1919.
11993	15.608	5.2727	5.e-002	8.0268
11994	15.608	5.	0.	1896.9
11995	15.516	5.0909	0.	1919.4
11996	15.608	5.0909	5.e-002	8.0291
11997	15.608	4.8182	0.	1897.4
11998	15.516	4.9091	0.	1919.8
11999	15.608	4.9091	5.e-002	8.0287
12000	15.608	4.6364	0.	1897.9
12001	15.516	4.7273	0.	1920.2
12002	15.608	4.7273	5.e-002	8.0273
12003	15.608	4.4545	0.	1898.4
12004	15.516	4.5455	0.	1920.7
12005	15.608	4.5455	5.e-002	8.0254
12006	15.608	4.2727	0.	1898.9
12007	15.516	4.3636	0.	1921.1
12008	15.608	4.3636	5.e-002	8.023
12009	15.608	4.0909	0.	1899.3
12010	15.516	4.1818	0.	1921.5
12011	15.608	4.1818	5.e-002	8.0205
12012	15.608	3.9091	0.	1899.6
12013	15.516	4.	0.	1921.8
12014	15.608	4.	5.e-002	8.018
12015	15.608	3.7273	0.	1899.9
12016	15.516	3.8182	0.	1922.1
12017	15.608	3.8182	5.e-002	8.0156
12018	15.608	3.5455	0.	1900.2
12019	15.516	3.6364	0.	1922.3
12020	15.608	3.6364	5.e-002	8.0135
12021	15.608	3.3636	0.	1900.3
12022	15.516	3.4545	0.	1922.5
12023	15.608	3.4545	5.e-002	8.0118
12024	15.608	3.1818	0.	1900.4
12025	15.516	3.2727	0.	1922.6
12026	15.608	3.2727	5.e-002	8.0107
12027	15.608	3.	0.	1900.5
12028	15.516	3.0909	0.	1922.7
12029	15.608	3.0909	5.e-002	8.0101
12030	15.608	2.8182	0.	1900.4
12031	15.516	2.9091	0.	1922.7
12032	15.608	2.9091	5.e-002	8.0101
12033	15.608	2.6364	0.	1900.3
12034	15.516	2.7273	0.	1922.6
12035	15.608	2.7273	5.e-002	8.0107
12036	15.608	2.4545	0.	1900.2
12037	15.516	2.5455	0.	1922.5
12038	15.608	2.5455	5.e-002	8.0118
12039	15.608	2.2727	0.	1899.9
12040	15.516	2.3636	0.	1922.3
12041	15.608	2.3636	5.e-002	8.0135
12042	15.608	2.0909	0.	1899.6
12043	15.516	2.1818	0.	1922.1
12044	15.608	2.1818	5.e-002	8.0156
12045	15.608	1.9091	0.	1899.3
12046	15.516	2.	0.	1921.8
12047	15.608	2.	5.e-002	8.018
12048	15.608	1.7273	0.	1898.9
12049	15.516	1.8182	0.	1921.5
12050	15.608	1.8182	5.e-002	8.0205
12051	15.608	1.5455	0.	1898.4
12052	15.516	1.6364	0.	1921.1
12053	15.608	1.6364	5.e-002	8.023
12054	15.608	1.3636	0.	1897.9
12055	15.516	1.4545	0.	1920.7
12056	15.608	1.4545	5.e-002	8.0254
12057	15.608	1.1818	0.	1897.4
12058	15.516	1.2727	0.	1920.2
12059	15.608	1.2727	5.e-002	8.0273
12060	15.608	1.	0.	1896.9
12061	15.516	1.0909	0.	1919.8
12062	15.608	1.0909	5.e-002	8.0287
12063	15.608	0.81818	0.	1896.5
12064	15.516	0.90909	0.	1919.4
12065	15.608	0.90909	5.e-002	8.0291
12066	15.608	0.63636	0.	1896.
12067	15.516	0.72727	0.	1919.
12068	15.608	0.72727	5.e-002	8.0268
12069	15.608	0.45455	0.	1895.8
12070	15.516	0.54545	0.	1918.7
12071	15.608	0.54545	5.e-002	7.9947
12072	15.608	0.27273	0.	1896.8
12073	15.516	0.36364	0.	1918.7
12074	15.608	0.36364	5.e-002	7.523
12075	15.516	0.18182	0.	1921.2
12076	15.608	0.18182	5.e-002	0.5794
12077	15.608	9.0909e-002	0.	1889.8
12078	15.424	5.7273	0.	1942.8
12079	15.332	5.8182	0.	1967.4
12080	15.424	5.8182	5.e-002	0.52365
12081	15.424	5.9091	0.	1936.
12082	15.424	5.5455	0.	1941.6
12083	15.332	5.6364	0.	1964.7
12084	15.424	5.6364	5.e-002	7.5399
12085	15.424	5.3636	0.	1941.7
12086	15.332	5.4545	0.	1964.5
12087	15.424	5.4545	5.e-002	8.0168
12088	15.424	5.1818	0.	1941.9
12089	15.332	5.2727	0.	1964.7
12090	15.424	5.2727	5.e-002	8.0497
12091	15.424	5.	0.	1942.2
12092	15.332	5.0909	0.	1964.9
12093	15.424	5.0909	5.e-002	8.0527
12094	15.424	4.8182	0.	1942.6
12095	15.332	4.9091	0.	1965.1
12096	15.424	4.9091	5.e-002	8.053
12097	15.424	4.6364	0.	1942.9
12098	15.332	4.7273	0.	1965.4
12099	15.424	4.7273	5.e-002	8.0525
12100	15.424	4.4545	0.	1943.3
12101	15.332	4.5455	0.	1965.7
12102	15.424	4.5455	5.e-002	8.0515
12103	15.424	4.2727	0.	1943.6
12104	15.332	4.3636	0.	1966.
12105	15.424	4.3636	5.e-002	8.0501
12106	15.424	4.0909	0.	1943.9
12107	15.332	4.1818	0.	1966.3
12108	15.424	4.1818	5.e-002	8.0485
12109	15.424	3.9091	0.	1944.2
12110	15.332	4.	0.	1966.5
12111	15.424	4.	5.e-002	8.0469
12112	15.424	3.7273	0.	1944.4
12113	15.332	3.8182	0.	1966.7
12114	15.424	3.8182	5.e-002	8.0453
12115	15.424	3.5455	0.	1944.6
12116	15.332	3.6364	0.	1966.9
12117	15.424	3.6364	5.e-002	8.0439
12118	15.424	3.3636	0.	1944.7
12119	15.332	3.4545	0.	1967.1
12120	15.424	3.4545	5.e-002	8.0428
12121	15.424	3.1818	0.	1944.8
12122	15.332	3.2727	0.	1967.1
12123	15.424	3.2727	5.e-002	8.0419
12124	15.424	3.	0.	1944.9
12125	15.332	3.0909	0.	1967.2
12126	15.424	3.0909	5.e-002	8.0415
12127	15.424	2.8182	0.	1944.8
12128	15.332	2.9091	0.	1967.2
12129	15.424	2.9091	5.e-002	8.0415
12130	15.424	2.6364	0.	1944.7
12131	15.332	2.7273	0.	1967.1
12132	15.424	2.7273	5.e-002	8.0419
12133	15.424	2.4545	0.	1944.6
12134	15.332	2.5455	0.	1967.1
12135	15.424	2.5455	5.e-002	8.0428
12136	15.424	2.2727	0.	1944.4
12137	15.332	2.3636	0.	1966.9
12138	15.424	2.3636	5.e-002	8.0439
12139	15.424	2.0909	0.	1944.2
12140	15.332	2.1818	0.	1966.7
12141	15.424	2.1818	5.e-002	8.0453
12142	15.424	1.9091	0.	1943.9
12143	15.332	2.	0.	1966.5
12144	15.424	2.	5.e-002	8.0469
12145	15.424	1.7273	0.	1943.6
12146	15.332	1.8182	0.	1966.3
12147	15.424	1.8182	5.e-002	8.0485
12148	15.424	1.5455	0.	1943.3
12149	15.332	1.6364	0.	1966.
12150	15.424	1.6364	5.e-002	8.0501
12151	15.424	1.3636	0.	1942.9
12152	15.332	1.4545	0.	1965.7
12153	15.424	1.4545	5.e-002	8.0515
12154	15.424	1.1818	0.	1942.6
12155	15.332	1.2727	0.	1965.4
12156	15.424	1.2727	5.e-002	8.0525
12157	15.424	1.	0.	1942.2
12158	15.332	1.0909	0.	1965.1
12159	15.424	1.0909	5.e-002	8.053
12160	15.424	0.81818	0.	1941.9
12161	15.332	0.90909	0.	1964.9
12162	15.424	0.90909	5.e-002	8.0527
12163	15.424	0.63636	0.	1941.7
12164	15.332	0.72727	0.	1964.7
12165	15.424	0.72727	5.e-002	8.0497
12166	15.424	0.45455	0.	1941.6
12167	15.332	0.54545	0.	1964.5
12168	15.424	0.54545	5.e-002	8.0168
12169	15.424	0.27273	0.	1942.8
12170	15.332	0.36364	0.	1964.7
12171	15.424	0.36364	5.e-002	7.5399
12172	15.332	0.18182	0.	1967.4
12173	15.424	0.18182	5.e-002	0.52365
12174	15.424	9.0909e-002	0.	1936.
12175	15.241	5.7273	0.	1989.
12176	15.149	5.8182	0.	2013.6
12177	15.241	5.8182	5.e-002	0.475
12178	15.241	5.9091	0.	1982.3
12179	15.241	5.5455	0.	1987.6
12180	15.149	5.6364	0.	2010.8
12181	15.241	5.6364	5.e-002	7.5592
12182	15.241	5.3636	0.	1987.5
12183	15.149	5.4545	0.	2010.5
12184	15.241	5.4545	5.e-002	8.0408
12185	15.241	5.1818	0.	1987.6
12186	15.149	5.2727	0.	2010.5
12187	15.241	5.2727	5.e-002	8.0743
12188	15.241	5.	0.	1987.7
12189	15.149	5.0909	0.	2010.6
12190	15.241	5.0909	5.e-002	8.0778
12191	15.241	4.8182	0.	1987.9
12192	15.149	4.9091	0.	2010.7
12193	15.241	4.9091	5.e-002	8.0787
12194	15.241	4.6364	0.	1988.2
12195	15.149	4.7273	0.	2010.8
12196	15.241	4.7273	5.e-002	8.0789
12197	15.241	4.4545	0.	1988.4
12198	15.149	4.5455	0.	2011.
12199	15.241	4.5455	5.e-002	8.0786
12200	15.241	4.2727	0.	1988.6
12201	15.149	4.3636	0.	2011.2
12202	15.241	4.3636	5.e-002	8.078
12203	15.241	4.0909	0.	1988.8
12204	15.149	4.1818	0.	2011.4
12205	15.241	4.1818	5.e-002	8.0771
12206	15.241	3.9091	0.	1989.
12207	15.149	4.	0.	2011.5
12208	15.241	4.	5.e-002	8.0762
12209	15.241	3.7273	0.	1989.2
12210	15.149	3.8182	0.	2011.7
12211	15.241	3.8182	5.e-002	8.0752
12212	15.241	3.5455	0.	1989.3
12213	15.149	3.6364	0.	2011.8
12214	15.241	3.6364	5.e-002	8.0743
12215	15.241	3.3636	0.	1989.4
12216	15.149	3.4545	0.	2011.9
12217	15.241	3.4545	5.e-002	8.0736
12218	15.241	3.1818	0.	1989.5
12219	15.149	3.2727	0.	2011.9
12220	15.241	3.2727	5.e-002	8.0731
12221	15.241	3.	0.	1989.5
12222	15.149	3.0909	0.	2012.
12223	15.241	3.0909	5.e-002	8.0728
12224	15.241	2.8182	0.	1989.5
12225	15.149	2.9091	0.	2012.
12226	15.241	2.9091	5.e-002	8.0728
12227	15.241	2.6364	0.	1989.4
12228	15.149	2.7273	0.	2011.9
12229	15.241	2.7273	5.e-002	8.0731
12230	15.241	2.4545	0.	1989.3
12231	15.149	2.5455	0.	2011.9
12232	15.241	2.5455	5.e-002	8.0736
12233	15.241	2.2727	0.	1989.2
12234	15.149	2.3636	0.	2011.8
12235	15.241	2.3636	5.e-002	8.0743
12236	15.241	2.0909	0.	1989.
12237	15.149	2.1818	0.	2011.7
12238	15.241	2.1818	5.e-002	8.0752
12239	15.241	1.9091	0.	1988.8
12240	15.149	2.	0.	2011.5
12241	15.241	2.	5.e-002	8.0762
12242	15.241	1.7273	0.	1988.6
12243	15.149	1.8182	0.	2011.4
12244	15.241	1.8182	5.e-002	8.0771
12245	15.241	1.5455	0.	1988.4
12246	15.149	1.6364	0.	2011.2
12247	15.241	1.6364	5.e-002	8.078
12248	15.241	1.3636	0.	1988.2
12249	15.149	1.4545	0.	2011.
12250	15.241	1.4545	5.e-002	8.0786
12251	15.241	1.1818	0.	1987.9
12252	15.149	1.2727	0.	2010.8
12253	15.241	1.2727	5.e-002	8.0789
12254	15.241	1.	0.	1987.7
12255	15.149	1.0909	0.	2010.7
12256	15.241	1.0909	5.e-002	8.0787
12257	15.241	0.81818	0.	1987.6
12258	15.149	0.90909	0.	2010.6
12259	15.241	0.90909	5.e-002	8.0778
12260	15.241	0.63636	0.	1987.5
12261	15.149	0.72727	0.	2010.5
12262	15.241	0.72727	5.e-002	8.0743
12263	15.241	0.45455	0.	1987.6
12264	15.149	0.54545	0.	2010.5
12265	15.241	0.54545	5.e-002	8.0408
12266	15.241	0.27273	0.	1989.
12267	15.149	0.36364	0.	2010.8
12268	15.241	0.36364	5.e-002	7.5592
12269	15.149	0.18182	0.	2013.6
12270	15.241	0.18182	5.e-002	0.475
12271	15.241	9.0909e-002	0.	1982.3
12272	15.057	5.7273	0.	2035.3
12273	14.965	5.8182	0.	2060.1
12274	15.057	5.8182	5.e-002	0.43249
12275	15.057	5.9091	0.	2028.7
12276	15.057	5.5455	0.	2033.7
12277	14.965	5.6364	0.	2057.1
12278	15.057	5.6364	5.e-002	7.5804
12279	15.057	5.3636	0.	2033.5
12280	14.965	5.4545	0.	2056.7
12281	15.057	5.4545	5.e-002	8.0664
12282	15.057	5.1818	0.	2033.4
12283	14.965	5.2727	0.	2056.5
12284	15.057	5.2727	5.e-002	8.1004
12285	15.057	5.	0.	2033.5
12286	14.965	5.0909	0.	2056.4
12287	15.057	5.0909	5.e-002	8.1043
12288	15.057	4.8182	0.	2033.5
12289	14.965	4.9091	0.	2056.4
12290	15.057	4.9091	5.e-002	8.1056
12291	15.057	4.6364	0.	2033.6
12292	14.965	4.7273	0.	2056.5
12293	15.057	4.7273	5.e-002	8.1064
12294	15.057	4.4545	0.	2033.7
12295	14.965	4.5455	0.	2056.5
12296	15.057	4.5455	5.e-002	8.1066
12297	15.057	4.2727	0.	2033.9
12298	14.965	4.3636	0.	2056.6
12299	15.057	4.3636	5.e-002	8.1066
12300	15.057	4.0909	0.	2034.
12301	14.965	4.1818	0.	2056.7
12302	15.057	4.1818	5.e-002	8.1063
12303	15.057	3.9091	0.	2034.1
12304	14.965	4.	0.	2056.8
12305	15.057	4.	5.e-002	8.1059
12306	15.057	3.7273	0.	2034.2
12307	14.965	3.8182	0.	2056.8
12308	15.057	3.8182	5.e-002	8.1054
12309	15.057	3.5455	0.	2034.3
12310	14.965	3.6364	0.	2056.9
12311	15.057	3.6364	5.e-002	8.105
12312	15.057	3.3636	0.	2034.4
12313	14.965	3.4545	0.	2057.
12314	15.057	3.4545	5.e-002	8.1046
12315	15.057	3.1818	0.	2034.4
12316	14.965	3.2727	0.	2057.
12317	15.057	3.2727	5.e-002	8.1043
12318	15.057	3.	0.	2034.4
12319	14.965	3.0909	0.	2057.
12320	15.057	3.0909	5.e-002	8.1041
12321	15.057	2.8182	0.	2034.4
12322	14.965	2.9091	0.	2057.
12323	15.057	2.9091	5.e-002	8.1041
12324	15.057	2.6364	0.	2034.4
12325	14.965	2.7273	0.	2057.
12326	15.057	2.7273	5.e-002	8.1043
12327	15.057	2.4545	0.	2034.3
12328	14.965	2.5455	0.	2057.
12329	15.057	2.5455	5.e-002	8.1046
12330	15.057	2.2727	0.	2034.2
12331	14.965	2.3636	0.	2056.9
12332	15.057	2.3636	5.e-002	8.105
12333	15.057	2.0909	0.	2034.1
12334	14.965	2.1818	0.	2056.8
12335	15.057	2.1818	5.e-002	8.1054
12336	15.057	1.9091	0.	2034.
12337	14.965	2.	0.	2056.8
12338	15.057	2.	5.e-002	8.1059
12339	15.057	1.7273	0.	2033.9
12340	14.965	1.8182	0.	2056.7
12341	15.057	1.8182	5.e-002	8.1063
12342	15.057	1.5455	0.	2033.7
12343	14.965	1.6364	0.	2056.6
12344	15.057	1.6364	5.e-002	8.1066
12345	15.057	1.3636	0.	2033.6
12346	14.965	1.4545	0.	2056.5
12347	15.057	1.4545	5.e-002	8.1066
12348	15.057	1.1818	0.	2033.5
12349	14.965	1.2727	0.	2056.5
12350	15.057	1.2727	5.e-002	8.1064
12351	15.057	1.	0.	2033.5
12352	14.965	1.0909	0.	2056.4
12353	15.057	1.0909	5.e-002	8.1056
12354	15.057	0.81818	0.	2033.4
12355	14.965	0.90909	0.	2056.4
12356	15.057	0.90909	5.e-002	8.1043
12357	15.057	0.63636	0.	2033.5
12358	14.965	0.72727	0.	2056.5
12359	15.057	0.72727	5.e-002	8.1004
12360	15.057	0.45455	0.	2033.7
12361	14.965	0.54545	0.	2056.7
12362	15.057	0.54545	5.e-002	8.0664
12363	15.057	0.27273	0.	2035.3
12364	14.965	0.36364	0.	2057.1
12365	15.057	0.36364	5.e-002	7.5804
12366	14.965	0.18182	0.	2060.1
12367	15.057	0.18182	5.e-002	0.43249
12368	15.057	9.0909e-002	0.	2028.7
12369	14.873	5.7273	0.	2081.7
12370	14.781	5.8182	0.	2106.7
12371	14.873	5.8182	5.e-002	0.39521
12372	14.873	5.9091	0.	2075.3
12373	14.873	5.5455	0.	2080.
12374	14.781	5.6364	0.	2103.6
12375	14.873	5.6364	5.e-002	7.6032
12376	14.873	5.3636	0.	2079.7
12377	14.781	5.4545	0.	2103.
12378	14.873	5.4545	5.e-002	8.0933
12379	14.873	5.1818	0.	2079.5
12380	14.781	5.2727	0.	2102.7
12381	14.873	5.2727	5.e-002	8.1278
12382	14.873	5.	0.	2079.4
12383	14.781	5.0909	0.	2102.5
12384	14.873	5.0909	5.e-002	8.132
12385	14.873	4.8182	0.	2079.3
12386	14.781	4.9091	0.	2102.4
12387	14.873	4.9091	5.e-002	8.1337
12388	14.873	4.6364	0.	2079.3
12389	14.781	4.7273	0.	2102.3
12390	14.873	4.7273	5.e-002	8.1348
12391	14.873	4.4545	0.	2079.3
12392	14.781	4.5455	0.	2102.2
12393	14.873	4.5455	5.e-002	8.1355
12394	14.873	4.2727	0.	2079.4
12395	14.781	4.3636	0.	2102.2
12396	14.873	4.3636	5.e-002	8.1359
12397	14.873	4.0909	0.	2079.4
12398	14.781	4.1818	0.	2102.2
12399	14.873	4.1818	5.e-002	8.1361
12400	14.873	3.9091	0.	2079.4
12401	14.781	4.	0.	2102.2
12402	14.873	4.	5.e-002	8.1361
12403	14.873	3.7273	0.	2079.5
12404	14.781	3.8182	0.	2102.3
12405	14.873	3.8182	5.e-002	8.136
12406	14.873	3.5455	0.	2079.5
12407	14.781	3.6364	0.	2102.3
12408	14.873	3.6364	5.e-002	8.1359
12409	14.873	3.3636	0.	2079.6
12410	14.781	3.4545	0.	2102.3
12411	14.873	3.4545	5.e-002	8.1357
12412	14.873	3.1818	0.	2079.6
12413	14.781	3.2727	0.	2102.3
12414	14.873	3.2727	5.e-002	8.1356
12415	14.873	3.	0.	2079.6
12416	14.781	3.0909	0.	2102.3
12417	14.873	3.0909	5.e-002	8.1355
12418	14.873	2.8182	0.	2079.6
12419	14.781	2.9091	0.	2102.3
12420	14.873	2.9091	5.e-002	8.1355
12421	14.873	2.6364	0.	2079.6
12422	14.781	2.7273	0.	2102.3
12423	14.873	2.7273	5.e-002	8.1356
12424	14.873	2.4545	0.	2079.5
12425	14.781	2.5455	0.	2102.3
12426	14.873	2.5455	5.e-002	8.1357
12427	14.873	2.2727	0.	2079.5
12428	14.781	2.3636	0.	2102.3
12429	14.873	2.3636	5.e-002	8.1359
12430	14.873	2.0909	0.	2079.4
12431	14.781	2.1818	0.	2102.3
12432	14.873	2.1818	5.e-002	8.136
12433	14.873	1.9091	0.	2079.4
12434	14.781	2.	0.	2102.2
12435	14.873	2.	5.e-002	8.1361
12436	14.873	1.7273	0.	2079.4
12437	14.781	1.8182	0.	2102.2
12438	14.873	1.8182	5.e-002	8.1361
12439	14.873	1.5455	0.	2079.3
12440	14.781	1.6364	0.	2102.2
12441	14.873	1.6364	5.e-002	8.1359
12442	14.873	1.3636	0.	2079.3
12443	14.781	1.4545	0.	2102.2
12444	14.873	1.4545	5.e-002	8.1355
12445	14.873	1.1818	0.	2079.3
12446	14.781	1.2727	0.	2102.3
12447	14.873	1.2727	5.e-002	8.1348
12448	14.873	1.	0.	2079.4
12449	14.781	1.0909	0.	2102.4
12450	14.873	1.0909	5.e-002	8.1337
12451	14.873	0.81818	0.	2079.5
12452	14.781	0.90909	0.	2102.5
12453	14.873	0.90909	5.e-002	8.132
12454	14.873	0.63636	0.	2079.7
12455	14.781	0.72727	0.	2102.7
12456	14.873	0.72727	5.e-002	8.1278
12457	14.873	0.45455	0.	2080.
12458	14.781	0.54545	0.	2103.
12459	14.873	0.54545	5.e-002	8.0933
12460	14.873	0.27273	0.	2081.7
12461	14.781	0.36364	0.	2103.6
12462	14.873	0.36364	5.e-002	7.6032
12463	14.781	0.18182	0.	2106.7
12464	14.873	0.18182	5.e-002	0.39521
12465	14.873	9.0909e-002	0.	2075.3
12466	14.69	5.7273	0.	2128.3
12467	14.598	5.8182	0.	2153.4
12468	14.69	5.8182	5.e-002	0.36233
12469	14.69	5.9091	0.	2122.1
12470	14.69	5.5455	0.	2126.5
12471	14.598	5.6364	0.	2150.2
12472	14.69	5.6364	5.e-002	7.6276
12473	14.69	5.3636	0.	2126.
12474	14.598	5.4545	0.	2149.6
12475	14.69	5.4545	5.e-002	8.1214
12476	14.69	5.1818	0.	2125.7
12477	14.598	5.2727	0.	2149.1
12478	14.69	5.2727	5.e-002	8.1563
12479	14.69	5.	0.	2125.5
12480	14.598	5.0909	0.	2148.8
12481	14.69	5.0909	5.e-002	8.1607
12482	14.69	4.8182	0.	2125.3
12483	14.598	4.9091	0.	2148.5
12484	14.69	4.9091	5.e-002	8.1627
12485	14.69	4.6364	0.	2125.2
12486	14.598	4.7273	0.	2148.4
12487	14.69	4.7273	5.e-002	8.1641
12488	14.69	4.4545	0.	2125.1
12489	14.598	4.5455	0.	2148.2
12490	14.69	4.5455	5.e-002	8.1652
12491	14.69	4.2727	0.	2125.1
12492	14.598	4.3636	0.	2148.1
12493	14.69	4.3636	5.e-002	8.166
12494	14.69	4.0909	0.	2125.
12495	14.598	4.1818	0.	2148.
12496	14.69	4.1818	5.e-002	8.1665
12497	14.69	3.9091	0.	2125.
12498	14.598	4.	0.	2148.
12499	14.69	4.	5.e-002	8.1669
12500	14.69	3.7273	0.	2125.
12501	14.598	3.8182	0.	2147.9
12502	14.69	3.8182	5.e-002	8.1671
12503	14.69	3.5455	0.	2125.
12504	14.598	3.6364	0.	2147.9
12505	14.69	3.6364	5.e-002	8.1672
12506	14.69	3.3636	0.	2125.
12507	14.598	3.4545	0.	2147.9
12508	14.69	3.4545	5.e-002	8.1672
12509	14.69	3.1818	0.	2125.
12510	14.598	3.2727	0.	2147.8
12511	14.69	3.2727	5.e-002	8.1672
12512	14.69	3.	0.	2125.
12513	14.598	3.0909	0.	2147.8
12514	14.69	3.0909	5.e-002	8.1672
12515	14.69	2.8182	0.	2125.
12516	14.598	2.9091	0.	2147.8
12517	14.69	2.9091	5.e-002	8.1672
12518	14.69	2.6364	0.	2125.
12519	14.598	2.7273	0.	2147.8
12520	14.69	2.7273	5.e-002	8.1672
12521	14.69	2.4545	0.	2125.
12522	14.598	2.5455	0.	2147.9
12523	14.69	2.5455	5.e-002	8.1672
12524	14.69	2.2727	0.	2125.
12525	14.598	2.3636	0.	2147.9
12526	14.69	2.3636	5.e-002	8.1672
12527	14.69	2.0909	0.	2125.
12528	14.598	2.1818	0.	2147.9
12529	14.69	2.1818	5.e-002	8.1671
12530	14.69	1.9091	0.	2125.
12531	14.598	2.	0.	2148.
12532	14.69	2.	5.e-002	8.1669
12533	14.69	1.7273	0.	2125.1
12534	14.598	1.8182	0.	2148.
12535	14.69	1.8182	5.e-002	8.1665
12536	14.69	1.5455	0.	2125.1
12537	14.598	1.6364	0.	2148.1
12538	14.69	1.6364	5.e-002	8.166
12539	14.69	1.3636	0.	2125.2
12540	14.598	1.4545	0.	2148.2
12541	14.69	1.4545	5.e-002	8.1652
12542	14.69	1.1818	0.	2125.3
12543	14.598	1.2727	0.	2148.4
12544	14.69	1.2727	5.e-002	8.1641
12545	14.69	1.	0.	2125.5
12546	14.598	1.0909	0.	2148.5
12547	14.69	1.0909	5.e-002	8.1627
12548	14.69	0.81818	0.	2125.7
12549	14.598	0.90909	0.	2148.8
12550	14.69	0.90909	5.e-002	8.1607
12551	14.69	0.63636	0.	2126.
12552	14.598	0.72727	0.	2149.1
12553	14.69	0.72727	5.e-002	8.1563
12554	14.69	0.45455	0.	2126.5
12555	14.598	0.54545	0.	2149.6
12556	14.69	0.54545	5.e-002	8.1214
12557	14.69	0.27273	0.	2128.3
12558	14.598	0.36364	0.	2150.2
12559	14.69	0.36364	5.e-002	7.6276
12560	14.598	0.18182	0.	2153.4
12561	14.69	0.18182	5.e-002	0.36233
12562	14.69	9.0909e-002	0.	2122.1
12563	14.506	5.7273	0.	2175.1
12564	14.414	5.8182	0.	2200.3
12565	14.506	5.8182	5.e-002	0.33303
12566	14.506	5.9091	0.	2169.
12567	14.506	5.5455	0.	2173.2
12568	14.414	5.6364	0.	2197.
12569	14.506	5.6364	5.e-002	7.6532
12570	14.506	5.3636	0.	2172.6
12571	14.414	5.4545	0.	2196.3
12572	14.506	5.4545	5.e-002	8.1506
12573	14.506	5.1818	0.	2172.2
12574	14.414	5.2727	0.	2195.7
12575	14.506	5.2727	5.e-002	8.1858
12576	14.506	5.	0.	2171.8
12577	14.414	5.0909	0.	2195.3
12578	14.506	5.0909	5.e-002	8.1904
12579	14.506	4.8182	0.	2171.5
12580	14.414	4.9091	0.	2194.9
12581	14.506	4.9091	5.e-002	8.1926
12582	14.506	4.6364	0.	2171.3
12583	14.414	4.7273	0.	2194.6
12584	14.506	4.7273	5.e-002	8.1943
12585	14.506	4.4545	0.	2171.1
12586	14.414	4.5455	0.	2194.4
12587	14.506	4.5455	5.e-002	8.1956
12588	14.506	4.2727	0.	2171.
12589	14.414	4.3636	0.	2194.2
12590	14.506	4.3636	5.e-002	8.1967
12591	14.506	4.0909	0.	2170.9
12592	14.414	4.1818	0.	2194.
12593	14.506	4.1818	5.e-002	8.1975
12594	14.506	3.9091	0.	2170.8
12595	14.414	4.	0.	2193.9
12596	14.506	4.	5.e-002	8.1981
12597	14.506	3.7273	0.	2170.7
12598	14.414	3.8182	0.	2193.8
12599	14.506	3.8182	5.e-002	8.1985
12600	14.506	3.5455	0.	2170.7
12601	14.414	3.6364	0.	2193.7
12602	14.506	3.6364	5.e-002	8.1989
12603	14.506	3.3636	0.	2170.7
12604	14.414	3.4545	0.	2193.7
12605	14.506	3.4545	5.e-002	8.1991
12606	14.506	3.1818	0.	2170.7
12607	14.414	3.2727	0.	2193.6
12608	14.506	3.2727	5.e-002	8.1992
12609	14.506	3.	0.	2170.7
12610	14.414	3.0909	0.	2193.6
12611	14.506	3.0909	5.e-002	8.1992
12612	14.506	2.8182	0.	2170.7
12613	14.414	2.9091	0.	2193.6
12614	14.506	2.9091	5.e-002	8.1992
12615	14.506	2.6364	0.	2170.7
12616	14.414	2.7273	0.	2193.6
12617	14.506	2.7273	5.e-002	8.1992
12618	14.506	2.4545	0.	2170.7
12619	14.414	2.5455	0.	2193.7
12620	14.506	2.5455	5.e-002	8.1991
12621	14.506	2.2727	0.	2170.7
12622	14.414	2.3636	0.	2193.7
12623	14.506	2.3636	5.e-002	8.1989
12624	14.506	2.0909	0.	2170.8
12625	14.414	2.1818	0.	2193.8
12626	14.506	2.1818	5.e-002	8.1985
12627	14.506	1.9091	0.	2170.9
12628	14.414	2.	0.	2193.9
12629	14.506	2.	5.e-002	8.1981
12630	14.506	1.7273	0.	2171.
12631	14.414	1.8182	0.	2194.
12632	14.506	1.8182	5.e-002	8.1975
12633	14.506	1.5455	0.	2171.1
12634	14.414	1.6364	0.	2194.2
12635	14.506	1.6364	5.e-002	8.1967
12636	14.506	1.3636	0.	2171.3
12637	14.414	1.4545	0.	2194.4
12638	14.506	1.4545	5.e-002	8.1956
12639	14.506	1.1818	0.	2171.5
12640	14.414	1.2727	0.	2194.6
12641	14.506	1.2727	5.e-002	8.1943
12642	14.506	1.	0.	2171.8
12643	14.414	1.0909	0.	2194.9
12644	14.506	1.0909	5.e-002	8.1926
12645	14.506	0.81818	0.	2172.2
12646	14.414	0.90909	0.	2195.3
12647	14.506	0.90909	5.e-002	8.1904
12648	14.506	0.63636	0.	2172.6
12649	14.414	0.72727	0.	2195.7
12650	14.506	0.72727	5.e-002	8.1858
12651	14.506	0.45455	0.	2173.2
12652	14.414	0.54545	0.	2196.3
12653	14.506	0.54545	5.e-002	8.1506
12654	14.506	0.27273	0.	2175.1
12655	14.414	0.36364	0.	2197.
12656	14.506	0.36364	5.e-002	7.6532
12657	14.414	0.18182	0.	2200.3
12658	14.506	0.18182	5.e-002	0.33303
12659	14.506	9.0909e-002	0.	2169.
12660	14.322	5.7273	0.	2222.1
12661	14.231	5.8182	0.	2247.4
12662	14.322	5.8182	5.e-002	0.30655
12663	14.322	5.9091	0.	2216.2
12664	14.322	5.5455	0.	2220.
12665	14.231	5.6364	0.	2244.
12666	14.322	5.6364	5.e-002	7.68
12667	14.322	5.3636	0.	2219.3
12668	14.231	5.4545	0.	2243.1
12669	14.322	5.4545	5.e-002	8.1807
12670	14.322	5.1818	0.	2218.8
12671	14.231	5.2727	0.	2242.5
12672	14.322	5.2727	5.e-002	8.2162
12673	14.322	5.	0.	2218.3
12674	14.231	5.0909	0.	2241.9
12675	14.322	5.0909	5.e-002	8.2209
12676	14.322	4.8182	0.	2218.
12677	14.231	4.9091	0.	2241.5
12678	14.322	4.9091	5.e-002	8.2233
12679	14.322	4.6364	0.	2217.6
12680	14.231	4.7273	0.	2241.1
12681	14.322	4.7273	5.e-002	8.2252
12682	14.322	4.4545	0.	2217.4
12683	14.231	4.5455	0.	2240.8
12684	14.322	4.5455	5.e-002	8.2268
12685	14.322	4.2727	0.	2217.2
12686	14.231	4.3636	0.	2240.5
12687	14.322	4.3636	5.e-002	8.228
12688	14.322	4.0909	0.	2217.
12689	14.231	4.1818	0.	2240.2
12690	14.322	4.1818	5.e-002	8.2291
12691	14.322	3.9091	0.	2216.8
12692	14.231	4.	0.	2240.
12693	14.322	4.	5.e-002	8.2299
12694	14.322	3.7273	0.	2216.7
12695	14.231	3.8182	0.	2239.9
12696	14.322	3.8182	5.e-002	8.2305
12697	14.322	3.5455	0.	2216.6
12698	14.231	3.6364	0.	2239.8
12699	14.322	3.6364	5.e-002	8.231
12700	14.322	3.3636	0.	2216.6
12701	14.231	3.4545	0.	2239.7
12702	14.322	3.4545	5.e-002	8.2313
12703	14.322	3.1818	0.	2216.5
12704	14.231	3.2727	0.	2239.6
12705	14.322	3.2727	5.e-002	8.2315
12706	14.322	3.	0.	2216.5
12707	14.231	3.0909	0.	2239.6
12708	14.322	3.0909	5.e-002	8.2317
12709	14.322	2.8182	0.	2216.5
12710	14.231	2.9091	0.	2239.6
12711	14.322	2.9091	5.e-002	8.2317
12712	14.322	2.6364	0.	2216.6
12713	14.231	2.7273	0.	2239.6
12714	14.322	2.7273	5.e-002	8.2315
12715	14.322	2.4545	0.	2216.6
12716	14.231	2.5455	0.	2239.7
12717	14.322	2.5455	5.e-002	8.2313
12718	14.322	2.2727	0.	2216.7
12719	14.231	2.3636	0.	2239.8
12720	14.322	2.3636	5.e-002	8.231
12721	14.322	2.0909	0.	2216.8
12722	14.231	2.1818	0.	2239.9
12723	14.322	2.1818	5.e-002	8.2305
12724	14.322	1.9091	0.	2217.
12725	14.231	2.	0.	2240.
12726	14.322	2.	5.e-002	8.2299
12727	14.322	1.7273	0.	2217.2
12728	14.231	1.8182	0.	2240.2
12729	14.322	1.8182	5.e-002	8.2291
12730	14.322	1.5455	0.	2217.4
12731	14.231	1.6364	0.	2240.5
12732	14.322	1.6364	5.e-002	8.228
12733	14.322	1.3636	0.	2217.6
12734	14.231	1.4545	0.	2240.8
12735	14.322	1.4545	5.e-002	8.2268
12736	14.322	1.1818	0.	2218.
12737	14.231	1.2727	0.	2241.1
12738	14.322	1.2727	5.e-002	8.2252
12739	14.322	1.	0.	2218.3
12740	14.231	1.0909	0.	2241.5
12741	14.322	1.0909	5.e-002	8.2233
12742	14.322	0.81818	0.	2218.8
12743	14.231	0.90909	0.	2241.9
12744	14.322	0.90909	5.e-002	8.2209
12745	14.322	0.63636	0.	2219.3
12746	14.231	0.72727	0.	2242.5
12747	14.322	0.72727	5.e-002	8.2162
12748	14.322	0.45455	0.	2220.
12749	14.231	0.54545	0.	2243.1
12750	14.322	0.54545	5.e-002	8.1807
12751	14.322	0.27273	0.	2222.1
12752	14.231	0.36364	0.	2244.
12753	14.322	0.36364	5.e-002	7.68
12754	14.231	0.18182	0.	2247.4
12755	14.322	0.18182	5.e-002	0.30656
12756	14.322	9.0909e-002	0.	2216.2
12757	14.139	5.7273	0.	2269.2
12758	14.047	5.8182	0.	2294.7
12759	14.139	5.8182	5.e-002	0.28217
12760	14.139	5.9091	0.	2263.4
12761	14.139	5.5455	0.	2267.1
12762	14.047	5.6364	0.	2291.2
12763	14.139	5.6364	5.e-002	7.7079
12764	14.139	5.3636	0.	2266.3
12765	14.047	5.4545	0.	2290.2
12766	14.139	5.4545	5.e-002	8.2116
12767	14.139	5.1818	0.	2265.6
12768	14.047	5.2727	0.	2289.5
12769	14.139	5.2727	5.e-002	8.2473
12770	14.139	5.	0.	2265.1
12771	14.047	5.0909	0.	2288.8
12772	14.139	5.0909	5.e-002	8.2522
12773	14.139	4.8182	0.	2264.6
12774	14.047	4.9091	0.	2288.2
12775	14.139	4.9091	5.e-002	8.2547
12776	14.139	4.6364	0.	2264.2
12777	14.047	4.7273	0.	2287.8
12778	14.139	4.7273	5.e-002	8.2568
12779	14.139	4.4545	0.	2263.8
12780	14.047	4.5455	0.	2287.3
12781	14.139	4.5455	5.e-002	8.2586
12782	14.139	4.2727	0.	2263.5
12783	14.047	4.3636	0.	2287.
12784	14.139	4.3636	5.e-002	8.26
12785	14.139	4.0909	0.	2263.3
12786	14.047	4.1818	0.	2286.7
12787	14.139	4.1818	5.e-002	8.2612
12788	14.139	3.9091	0.	2263.1
12789	14.047	4.	0.	2286.4
12790	14.139	4.	5.e-002	8.2622
12791	14.139	3.7273	0.	2262.9
12792	14.047	3.8182	0.	2286.2
12793	14.139	3.8182	5.e-002	8.263
12794	14.139	3.5455	0.	2262.8
12795	14.047	3.6364	0.	2286.1
12796	14.139	3.6364	5.e-002	8.2636
12797	14.139	3.3636	0.	2262.7
12798	14.047	3.4545	0.	2285.9
12799	14.139	3.4545	5.e-002	8.2641
12800	14.139	3.1818	0.	2262.7
12801	14.047	3.2727	0.	2285.9
12802	14.139	3.2727	5.e-002	8.2643
12803	14.139	3.	0.	2262.6
12804	14.047	3.0909	0.	2285.8
12805	14.139	3.0909	5.e-002	8.2645
12806	14.139	2.8182	0.	2262.7
12807	14.047	2.9091	0.	2285.8
12808	14.139	2.9091	5.e-002	8.2645
12809	14.139	2.6364	0.	2262.7
12810	14.047	2.7273	0.	2285.9
12811	14.139	2.7273	5.e-002	8.2643
12812	14.139	2.4545	0.	2262.8
12813	14.047	2.5455	0.	2285.9
12814	14.139	2.5455	5.e-002	8.2641
12815	14.139	2.2727	0.	2262.9
12816	14.047	2.3636	0.	2286.1
12817	14.139	2.3636	5.e-002	8.2636
12818	14.139	2.0909	0.	2263.1
12819	14.047	2.1818	0.	2286.2
12820	14.139	2.1818	5.e-002	8.263
12821	14.139	1.9091	0.	2263.3
12822	14.047	2.	0.	2286.4
12823	14.139	2.	5.e-002	8.2622
12824	14.139	1.7273	0.	2263.5
12825	14.047	1.8182	0.	2286.7
12826	14.139	1.8182	5.e-002	8.2612
12827	14.139	1.5455	0.	2263.8
12828	14.047	1.6364	0.	2287.
12829	14.139	1.6364	5.e-002	8.26
12830	14.139	1.3636	0.	2264.2
12831	14.047	1.4545	0.	2287.3
12832	14.139	1.4545	5.e-002	8.2586
12833	14.139	1.1818	0.	2264.6
12834	14.047	1.2727	0.	2287.8
12835	14.139	1.2727	5.e-002	8.2568
12836	14.139	1.	0.	2265.1
12837	14.047	1.0909	0.	2288.2
12838	14.139	1.0909	5.e-002	8.2547
12839	14.139	0.81818	0.	2265.6
12840	14.047	0.90909	0.	2288.8
12841	14.139	0.90909	5.e-002	8.2522
12842	14.139	0.63636	0.	2266.3
12843	14.047	0.72727	0.	2289.5
12844	14.139	0.72727	5.e-002	8.2473
12845	14.139	0.45455	0.	2267.1
12846	14.047	0.54545	0.	2290.2
12847	14.139	0.54545	5.e-002	8.2116
12848	14.139	0.27273	0.	2269.2
12849	14.047	0.36364	0.	2291.2
12850	14.139	0.36364	5.e-002	7.7079
12851	14.047	0.18182	0.	2294.7
12852	14.139	0.18182	5.e-002	0.28217
12853	14.139	9.0909e-002	0.	2263.4
12854	13.955	5.7273	0.	2316.5
12855	13.863	5.8182	0.	2342.1
12856	13.955	5.8182	5.e-002	0.25923
12857	13.955	5.9091	0.	2310.9
12858	13.955	5.5455	0.	2314.3
12859	13.863	5.6364	0.	2338.6
12860	13.955	5.6364	5.e-002	7.7367
12861	13.955	5.3636	0.	2313.4
12862	13.863	5.4545	0.	2337.5
12863	13.955	5.4545	5.e-002	8.2432
12864	13.955	5.1818	0.	2312.6
12865	13.863	5.2727	0.	2336.6
12866	13.955	5.2727	5.e-002	8.2792
12867	13.955	5.	0.	2312.
12868	13.863	5.0909	0.	2335.9
12869	13.955	5.0909	5.e-002	8.2842
12870	13.955	4.8182	0.	2311.4
12871	13.863	4.9091	0.	2335.2
12872	13.955	4.9091	5.e-002	8.2869
12873	13.955	4.6364	0.	2310.9
12874	13.863	4.7273	0.	2334.6
12875	13.955	4.7273	5.e-002	8.2891
12876	13.955	4.4545	0.	2310.5
12877	13.863	4.5455	0.	2334.1
12878	13.955	4.5455	5.e-002	8.291
12879	13.955	4.2727	0.	2310.1
12880	13.863	4.3636	0.	2333.7
12881	13.955	4.3636	5.e-002	8.2926
12882	13.955	4.0909	0.	2309.8
12883	13.863	4.1818	0.	2333.3
12884	13.955	4.1818	5.e-002	8.294
12885	13.955	3.9091	0.	2309.5
12886	13.863	4.	0.	2333.
12887	13.955	4.	5.e-002	8.2951
12888	13.955	3.7273	0.	2309.3
12889	13.863	3.8182	0.	2332.7
12890	13.955	3.8182	5.e-002	8.2961
12891	13.955	3.5455	0.	2309.2
12892	13.863	3.6364	0.	2332.5
12893	13.955	3.6364	5.e-002	8.2968
12894	13.955	3.3636	0.	2309.1
12895	13.863	3.4545	0.	2332.4
12896	13.955	3.4545	5.e-002	8.2973
12897	13.955	3.1818	0.	2309.
12898	13.863	3.2727	0.	2332.3
12899	13.955	3.2727	5.e-002	8.2976
12900	13.955	3.	0.	2309.
12901	13.863	3.0909	0.	2332.2
12902	13.955	3.0909	5.e-002	8.2978
12903	13.955	2.8182	0.	2309.
12904	13.863	2.9091	0.	2332.2
12905	13.955	2.9091	5.e-002	8.2978
12906	13.955	2.6364	0.	2309.1
12907	13.863	2.7273	0.	2332.3
12908	13.955	2.7273	5.e-002	8.2976
12909	13.955	2.4545	0.	2309.2
12910	13.863	2.5455	0.	2332.4
12911	13.955	2.5455	5.e-002	8.2973
12912	13.955	2.2727	0.	2309.3
12913	13.863	2.3636	0.	2332.5
12914	13.955	2.3636	5.e-002	8.2968
12915	13.955	2.0909	0.	2309.5
12916	13.863	2.1818	0.	2332.7
12917	13.955	2.1818	5.e-002	8.2961
12918	13.955	1.9091	0.	2309.8
12919	13.863	2.	0.	2333.
12920	13.955	2.	5.e-002	8.2951
12921	13.955	1.7273	0.	2310.1
12922	13.863	1.8182	0.	2333.3
12923	13.955	1.8182	5.e-002	8.294
12924	13.955	1.5455	0.	2310.5
12925	13.863	1.6364	0.	2333.7
12926	13.955	1.6364	5.e-002	8.2926
12927	13.955	1.3636	0.	2310.9
12928	13.863	1.4545	0.	2334.1
12929	13.955	1.4545	5.e-002	8.291
12930	13.955	1.1818	0.	2311.4
12931	13.863	1.2727	0.	2334.6
12932	13.955	1.2727	5.e-002	8.2891
12933	13.955	1.	0.	2312.
12934	13.863	1.0909	0.	2335.2
12935	13.955	1.0909	5.e-002	8.2869
12936	13.955	0.81818	0.	2312.6
12937	13.863	0.90909	0.	2335.9
12938	13.955	0.90909	5.e-002	8.2842
12939	13.955	0.63636	0.	2313.4
12940	13.863	0.72727	0.	2336.6
12941	13.955	0.72727	5.e-002	8.2792
12942	13.955	0.45455	0.	2314.3
12943	13.863	0.54545	0.	2337.5
12944	13.955	0.54545	5.e-002	8.2432
12945	13.955	0.27273	0.	2316.5
12946	13.863	0.36364	0.	2338.6
12947	13.955	0.36364	5.e-002	7.7367
12948	13.863	0.18182	0.	2342.1
12949	13.955	0.18182	5.e-002	0.25923
12950	13.955	9.0909e-002	0.	2310.9
12951	13.772	5.7273	0.	2364.
12952	13.68	5.8182	0.	2389.7
12953	13.772	5.8182	5.e-002	0.23713
12954	13.772	5.9091	0.	2358.6
12955	13.772	5.5455	0.	2361.7
12956	13.68	5.6364	0.	2386.1
12957	13.772	5.6364	5.e-002	7.7664
12958	13.772	5.3636	0.	2360.7
12959	13.68	5.4545	0.	2384.9
12960	13.772	5.4545	5.e-002	8.2756
12961	13.772	5.1818	0.	2359.8
12962	13.68	5.2727	0.	2384.
12963	13.772	5.2727	5.e-002	8.3118
12964	13.772	5.	0.	2359.1
12965	13.68	5.0909	0.	2383.1
12966	13.772	5.0909	5.e-002	8.3169
12967	13.772	4.8182	0.	2358.4
12968	13.68	4.9091	0.	2382.4
12969	13.772	4.9091	5.e-002	8.3197
12970	13.772	4.6364	0.	2357.8
12971	13.68	4.7273	0.	2381.7
12972	13.772	4.7273	5.e-002	8.3221
12973	13.772	4.4545	0.	2357.3
12974	13.68	4.5455	0.	2381.1
12975	13.772	4.5455	5.e-002	8.3241
12976	13.772	4.2727	0.	2356.9
12977	13.68	4.3636	0.	2380.6
12978	13.772	4.3636	5.e-002	8.3259
12979	13.772	4.0909	0.	2356.5
12980	13.68	4.1818	0.	2380.2
12981	13.772	4.1818	5.e-002	8.3274
12982	13.772	3.9091	0.	2356.2
12983	13.68	4.	0.	2379.8
12984	13.772	4.	5.e-002	8.3286
12985	13.772	3.7273	0.	2355.9
12986	13.68	3.8182	0.	2379.5
12987	13.772	3.8182	5.e-002	8.3296
12988	13.772	3.5455	0.	2355.7
12989	13.68	3.6364	0.	2379.2
12990	13.772	3.6364	5.e-002	8.3304
12991	13.772	3.3636	0.	2355.6
12992	13.68	3.4545	0.	2379.1
12993	13.772	3.4545	5.e-002	8.331
12994	13.772	3.1818	0.	2355.5
12995	13.68	3.2727	0.	2378.9
12996	13.772	3.2727	5.e-002	8.3314
12997	13.772	3.	0.	2355.5
12998	13.68	3.0909	0.	2378.9
12999	13.772	3.0909	5.e-002	8.3316
13000	13.772	2.8182	0.	2355.5
13001	13.68	2.9091	0.	2378.9
13002	13.772	2.9091	5.e-002	8.3316
13003	13.772	2.6364	0.	2355.6
13004	13.68	2.7273	0.	2378.9
13005	13.772	2.7273	5.e-002	8.3314
13006	13.772	2.4545	0.	2355.7
13007	13.68	2.5455	0.	2379.1
13008	13.772	2.5455	5.e-002	8.331
13009	13.772	2.2727	0.	2355.9
13010	13.68	2.3636	0.	2379.2
13011	13.772	2.3636	5.e-002	8.3304
13012	13.772	2.0909	0.	2356.2
13013	13.68	2.1818	0.	2379.5
13014	13.772	2.1818	5.e-002	8.3296
13015	13.772	1.9091	0.	2356.5
13016	13.68	2.	0.	2379.8
13017	13.772	2.	5.e-002	8.3286
13018	13.772	1.7273	0.	2356.9
13019	13.68	1.8182	0.	2380.2
13020	13.772	1.8182	5.e-002	8.3274
13021	13.772	1.5455	0.	2357.3
13022	13.68	1.6364	0.	2380.6
13023	13.772	1.6364	5.e-002	8.3259
13024	13.772	1.3636	0.	2357.8
13025	13.68	1.4545	0.	2381.1
13026	13.772	1.4545	5.e-002	8.3241
13027	13.772	1.1818	0.	2358.4
13028	13.68	1.2727	0.	2381.7
13029	13.772	1.2727	5.e-002	8.3221
13030	13.772	1.	0.	2359.1
13031	13.68	1.0909	0.	2382.4
13032	13.772	1.0909	5.e-002	8.3197
13033	13.772	0.81818	0.	2359.8
13034	13.68	0.90909	0.	2383.1
13035	13.772	0.90909	5.e-002	8.3169
13036	13.772	0.63636	0.	2360.7
13037	13.68	0.72727	0.	2384.
13038	13.772	0.72727	5.e-002	8.3118
13039	13.772	0.45455	0.	2361.7
13040	13.68	0.54545	0.	2384.9
13041	13.772	0.54545	5.e-002	8.2756
13042	13.772	0.27273	0.	2364.
13043	13.68	0.36364	0.	2386.1
13044	13.772	0.36364	5.e-002	7.7664
13045	13.68	0.18182	0.	2389.7
13046	13.772	0.18182	5.e-002	0.23713
13047	13.772	9.0909e-002	0.	2358.6
13048	13.588	5.7273	0.	2411.7
13049	13.496	5.8182	0.	2437.5
13050	13.588	5.8182	5.e-002	0.21538
13051	13.588	5.9091	0.	2406.4
13052	13.588	5.5455	0.	2409.3
13053	13.496	5.6364	0.	2433.9
13054	13.588	5.6364	5.e-002	7.797
13055	13.588	5.3636	0.	2408.2
13056	13.496	5.4545	0.	2432.6
13057	13.588	5.4545	5.e-002	8.3086
13058	13.588	5.1818	0.	2407.2
13059	13.496	5.2727	0.	2431.5
13060	13.588	5.2727	5.e-002	8.3451
13061	13.588	5.	0.	2406.4
13062	13.496	5.0909	0.	2430.6
13063	13.588	5.0909	5.e-002	8.3503
13064	13.588	4.8182	0.	2405.6
13065	13.496	4.9091	0.	2429.7
13066	13.588	4.9091	5.e-002	8.3532
13067	13.588	4.6364	0.	2405.
13068	13.496	4.7273	0.	2429.
13069	13.588	4.7273	5.e-002	8.3556
13070	13.588	4.4545	0.	2404.4
13071	13.496	4.5455	0.	2428.3
13072	13.588	4.5455	5.e-002	8.3578
13073	13.588	4.2727	0.	2403.9
13074	13.496	4.3636	0.	2427.7
13075	13.588	4.3636	5.e-002	8.3597
13076	13.588	4.0909	0.	2403.4
13077	13.496	4.1818	0.	2427.2
13078	13.588	4.1818	5.e-002	8.3613
13079	13.588	3.9091	0.	2403.
13080	13.496	4.	0.	2426.8
13081	13.588	4.	5.e-002	8.3627
13082	13.588	3.7273	0.	2402.8
13083	13.496	3.8182	0.	2426.4
13084	13.588	3.8182	5.e-002	8.3638
13085	13.588	3.5455	0.	2402.5
13086	13.496	3.6364	0.	2426.1
13087	13.588	3.6364	5.e-002	8.3647
13088	13.588	3.3636	0.	2402.4
13089	13.496	3.4545	0.	2425.9
13090	13.588	3.4545	5.e-002	8.3653
13091	13.588	3.1818	0.	2402.3
13092	13.496	3.2727	0.	2425.8
13093	13.588	3.2727	5.e-002	8.3657
13094	13.588	3.	0.	2402.2
13095	13.496	3.0909	0.	2425.7
13096	13.588	3.0909	5.e-002	8.366
13097	13.588	2.8182	0.	2402.3
13098	13.496	2.9091	0.	2425.7
13099	13.588	2.9091	5.e-002	8.366
13100	13.588	2.6364	0.	2402.4
13101	13.496	2.7273	0.	2425.8
13102	13.588	2.7273	5.e-002	8.3657
13103	13.588	2.4545	0.	2402.5
13104	13.496	2.5455	0.	2425.9
13105	13.588	2.5455	5.e-002	8.3653
13106	13.588	2.2727	0.	2402.8
13107	13.496	2.3636	0.	2426.1
13108	13.588	2.3636	5.e-002	8.3647
13109	13.588	2.0909	0.	2403.
13110	13.496	2.1818	0.	2426.4
13111	13.588	2.1818	5.e-002	8.3638
13112	13.588	1.9091	0.	2403.4
13113	13.496	2.	0.	2426.8
13114	13.588	2.	5.e-002	8.3627
13115	13.588	1.7273	0.	2403.9
13116	13.496	1.8182	0.	2427.2
13117	13.588	1.8182	5.e-002	8.3613
13118	13.588	1.5455	0.	2404.4
13119	13.496	1.6364	0.	2427.7
13120	13.588	1.6364	5.e-002	8.3597
13121	13.588	1.3636	0.	2405.
13122	13.496	1.4545	0.	2428.3
13123	13.588	1.4545	5.e-002	8.3578
13124	13.588	1.1818	0.	2405.6
13125	13.496	1.2727	0.	2429.
13126	13.588	1.2727	5.e-002	8.3556
13127	13.588	1.	0.	2406.4
13128	13.496	1.0909	0.	2429.7
13129	13.588	1.0909	5.e-002	8.3532
13130	13.588	0.81818	0.	2407.2
13131	13.496	0.90909	0.	2430.6
13132	13.588	0.90909	5.e-002	8.3503
13133	13.588	0.63636	0.	2408.2
13134	13.496	0.72727	0.	2431.5
13135	13.588	0.72727	5.e-002	8.3451
13136	13.588	0.45455	0.	2409.3
13137	13.496	0.54545	0.	2432.6
13138	13.588	0.54545	5.e-002	8.3086
13139	13.588	0.27273	0.	2411.7
13140	13.496	0.36364	0.	2433.9
13141	13.588	0.36364	5.e-002	7.797
13142	13.496	0.18182	0.	2437.5
13143	13.588	0.18182	5.e-002	0.21538
13144	13.588	9.0909e-002	0.	2406.4
13145	13.404	5.7273	0.	2459.6
13146	13.313	5.8182	0.	2485.5
13147	13.404	5.8182	5.e-002	0.19361
13148	13.404	5.9091	0.	2454.4
13149	13.404	5.5455	0.	2457.1
13150	13.313	5.6364	0.	2481.8
13151	13.404	5.6364	5.e-002	7.8284
13152	13.404	5.3636	0.	2455.9
13153	13.313	5.4545	0.	2480.4
13154	13.404	5.4545	5.e-002	8.3421
13155	13.404	5.1818	0.	2454.8
13156	13.313	5.2727	0.	2479.2
13157	13.404	5.2727	5.e-002	8.3789
13158	13.404	5.	0.	2453.9
13159	13.313	5.0909	0.	2478.2
13160	13.404	5.0909	5.e-002	8.3842
13161	13.404	4.8182	0.	2453.
13162	13.313	4.9091	0.	2477.3
13163	13.404	4.9091	5.e-002	8.3872
13164	13.404	4.6364	0.	2452.3
13165	13.313	4.7273	0.	2476.4
13166	13.404	4.7273	5.e-002	8.3898
13167	13.404	4.4545	0.	2451.6
13168	13.313	4.5455	0.	2475.7
13169	13.404	4.5455	5.e-002	8.3921
13170	13.404	4.2727	0.	2451.
13171	13.313	4.3636	0.	2475.
13172	13.404	4.3636	5.e-002	8.3941
13173	13.404	4.0909	0.	2450.5
13174	13.313	4.1818	0.	2474.4
13175	13.404	4.1818	5.e-002	8.3958
13176	13.404	3.9091	0.	2450.1
13177	13.313	4.	0.	2473.9
13178	13.404	4.	5.e-002	8.3973
13179	13.404	3.7273	0.	2449.8
13180	13.313	3.8182	0.	2473.5
13181	13.404	3.8182	5.e-002	8.3985
13182	13.404	3.5455	0.	2449.5
13183	13.313	3.6364	0.	2473.2
13184	13.404	3.6364	5.e-002	8.3994
13185	13.404	3.3636	0.	2449.3
13186	13.313	3.4545	0.	2473.
13187	13.404	3.4545	5.e-002	8.4001
13188	13.404	3.1818	0.	2449.2
13189	13.313	3.2727	0.	2472.8
13190	13.404	3.2727	5.e-002	8.4006
13191	13.404	3.	0.	2449.2
13192	13.313	3.0909	0.	2472.7
13193	13.404	3.0909	5.e-002	8.4008
13194	13.404	2.8182	0.	2449.2
13195	13.313	2.9091	0.	2472.7
13196	13.404	2.9091	5.e-002	8.4008
13197	13.404	2.6364	0.	2449.3
13198	13.313	2.7273	0.	2472.8
13199	13.404	2.7273	5.e-002	8.4006
13200	13.404	2.4545	0.	2449.5
13201	13.313	2.5455	0.	2473.
13202	13.404	2.5455	5.e-002	8.4001
13203	13.404	2.2727	0.	2449.8
13204	13.313	2.3636	0.	2473.2
13205	13.404	2.3636	5.e-002	8.3994
13206	13.404	2.0909	0.	2450.1
13207	13.313	2.1818	0.	2473.5
13208	13.404	2.1818	5.e-002	8.3985
13209	13.404	1.9091	0.	2450.5
13210	13.313	2.	0.	2473.9
13211	13.404	2.	5.e-002	8.3973
13212	13.404	1.7273	0.	2451.
13213	13.313	1.8182	0.	2474.4
13214	13.404	1.8182	5.e-002	8.3958
13215	13.404	1.5455	0.	2451.6
13216	13.313	1.6364	0.	2475.
13217	13.404	1.6364	5.e-002	8.3941
13218	13.404	1.3636	0.	2452.3
13219	13.313	1.4545	0.	2475.7
13220	13.404	1.4545	5.e-002	8.3921
13221	13.404	1.1818	0.	2453.
13222	13.313	1.2727	0.	2476.4
13223	13.404	1.2727	5.e-002	8.3898
13224	13.404	1.	0.	2453.9
13225	13.313	1.0909	0.	2477.3
13226	13.404	1.0909	5.e-002	8.3872
13227	13.404	0.81818	0.	2454.8
13228	13.313	0.90909	0.	2478.2
13229	13.404	0.90909	5.e-002	8.3842
13230	13.404	0.63636	0.	2455.9
13231	13.313	0.72727	0.	2479.2
13232	13.404	0.72727	5.e-002	8.3789
13233	13.404	0.45455	0.	2457.1
13234	13.313	0.54545	0.	2480.4
13235	13.404	0.54545	5.e-002	8.3421
13236	13.404	0.27273	0.	2459.6
13237	13.313	0.36364	0.	2481.8
13238	13.404	0.36364	5.e-002	7.8284
13239	13.313	0.18182	0.	2485.5
13240	13.404	0.18182	5.e-002	0.1936
13241	13.404	9.0909e-002	0.	2454.4
13242	13.221	5.7273	0.	2507.6
13243	13.129	5.8182	0.	2533.7
13244	13.221	5.8182	5.e-002	0.17159
13245	13.221	5.9091	0.	2502.6
13246	13.221	5.5455	0.	2505.1
13247	13.129	5.6364	0.	2529.9
13248	13.221	5.6364	5.e-002	7.8605
13249	13.221	5.3636	0.	2503.7
13250	13.129	5.4545	0.	2528.4
13251	13.221	5.4545	5.e-002	8.3763
13252	13.221	5.1818	0.	2502.6
13253	13.129	5.2727	0.	2527.2
13254	13.221	5.2727	5.e-002	8.4132
13255	13.221	5.	0.	2501.6
13256	13.129	5.0909	0.	2526.
13257	13.221	5.0909	5.e-002	8.4187
13258	13.221	4.8182	0.	2500.6
13259	13.129	4.9091	0.	2525.
13260	13.221	4.9091	5.e-002	8.4218
13261	13.221	4.6364	0.	2499.8
13262	13.129	4.7273	0.	2524.1
13263	13.221	4.7273	5.e-002	8.4245
13264	13.221	4.4545	0.	2499.
13265	13.129	4.5455	0.	2523.2
13266	13.221	4.5455	5.e-002	8.4269
13267	13.221	4.2727	0.	2498.4
13268	13.129	4.3636	0.	2522.5
13269	13.221	4.3636	5.e-002	8.429
13270	13.221	4.0909	0.	2497.8
13271	13.129	4.1818	0.	2521.9
13272	13.221	4.1818	5.e-002	8.4308
13273	13.221	3.9091	0.	2497.4
13274	13.129	4.	0.	2521.3
13275	13.221	4.	5.e-002	8.4324
13276	13.221	3.7273	0.	2497.
13277	13.129	3.8182	0.	2520.9
13278	13.221	3.8182	5.e-002	8.4337
13279	13.221	3.5455	0.	2496.7
13280	13.129	3.6364	0.	2520.5
13281	13.221	3.6364	5.e-002	8.4347
13282	13.221	3.3636	0.	2496.5
13283	13.129	3.4545	0.	2520.2
13284	13.221	3.4545	5.e-002	8.4354
13285	13.221	3.1818	0.	2496.3
13286	13.129	3.2727	0.	2520.
13287	13.221	3.2727	5.e-002	8.4359
13288	13.221	3.	0.	2496.3
13289	13.129	3.0909	0.	2520.
13290	13.221	3.0909	5.e-002	8.4362
13291	13.221	2.8182	0.	2496.3
13292	13.129	2.9091	0.	2520.
13293	13.221	2.9091	5.e-002	8.4362
13294	13.221	2.6364	0.	2496.5
13295	13.129	2.7273	0.	2520.
13296	13.221	2.7273	5.e-002	8.4359
13297	13.221	2.4545	0.	2496.7
13298	13.129	2.5455	0.	2520.2
13299	13.221	2.5455	5.e-002	8.4354
13300	13.221	2.2727	0.	2497.
13301	13.129	2.3636	0.	2520.5
13302	13.221	2.3636	5.e-002	8.4347
13303	13.221	2.0909	0.	2497.4
13304	13.129	2.1818	0.	2520.9
13305	13.221	2.1818	5.e-002	8.4337
13306	13.221	1.9091	0.	2497.8
13307	13.129	2.	0.	2521.3
13308	13.221	2.	5.e-002	8.4324
13309	13.221	1.7273	0.	2498.4
13310	13.129	1.8182	0.	2521.9
13311	13.221	1.8182	5.e-002	8.4308
13312	13.221	1.5455	0.	2499.
13313	13.129	1.6364	0.	2522.5
13314	13.221	1.6364	5.e-002	8.429
13315	13.221	1.3636	0.	2499.8
13316	13.129	1.4545	0.	2523.2
13317	13.221	1.4545	5.e-002	8.4269
13318	13.221	1.1818	0.	2500.6
13319	13.129	1.2727	0.	2524.1
13320	13.221	1.2727	5.e-002	8.4245
13321	13.221	1.	0.	2501.6
13322	13.129	1.0909	0.	2525.
13323	13.221	1.0909	5.e-002	8.4218
13324	13.221	0.81818	0.	2502.6
13325	13.129	0.90909	0.	2526.
13326	13.221	0.90909	5.e-002	8.4187
13327	13.221	0.63636	0.	2503.7
13328	13.129	0.72727	0.	2527.2
13329	13.221	0.72727	5.e-002	8.4132
13330	13.221	0.45455	0.	2505.1
13331	13.129	0.54545	0.	2528.4
13332	13.221	0.54545	5.e-002	8.3763
13333	13.221	0.27273	0.	2507.6
13334	13.129	0.36364	0.	2529.9
13335	13.221	0.36364	5.e-002	7.8605
13336	13.129	0.18182	0.	2533.7
13337	13.221	0.18182	5.e-002	0.17158
13338	13.221	9.0909e-002	0.	2502.6
13339	13.037	5.7273	0.	2555.9
13340	12.945	5.8182	0.	2582.1
13341	13.037	5.8182	5.e-002	0.1494
13342	13.037	5.9091	0.	2551.1
13343	13.037	5.5455	0.	2553.2
13344	12.945	5.6364	0.	2578.2
13345	13.037	5.6364	5.e-002	7.8935
13346	13.037	5.3636	0.	2551.8
13347	12.945	5.4545	0.	2576.6
13348	13.037	5.4545	5.e-002	8.411
13349	13.037	5.1818	0.	2550.6
13350	12.945	5.2727	0.	2575.3
13351	13.037	5.2727	5.e-002	8.4482
13352	13.037	5.	0.	2549.4
13353	12.945	5.0909	0.	2574.
13354	13.037	5.0909	5.e-002	8.4538
13355	13.037	4.8182	0.	2548.4
13356	12.945	4.9091	0.	2572.9
13357	13.037	4.9091	5.e-002	8.4571
13358	13.037	4.6364	0.	2547.5
13359	12.945	4.7273	0.	2571.9
13360	13.037	4.7273	5.e-002	8.4599
13361	13.037	4.4545	0.	2546.7
13362	12.945	4.5455	0.	2571.
13363	13.037	4.5455	5.e-002	8.4624
13364	13.037	4.2727	0.	2545.9
13365	12.945	4.3636	0.	2570.2
13366	13.037	4.3636	5.e-002	8.4646
13367	13.037	4.0909	0.	2545.3
13368	12.945	4.1818	0.	2569.5
13369	13.037	4.1818	5.e-002	8.4665
13370	13.037	3.9091	0.	2544.8
13371	12.945	4.	0.	2568.9
13372	13.037	4.	5.e-002	8.4682
13373	13.037	3.7273	0.	2544.4
13374	12.945	3.8182	0.	2568.4
13375	13.037	3.8182	5.e-002	8.4695
13376	13.037	3.5455	0.	2544.
13377	12.945	3.6364	0.	2568.
13378	13.037	3.6364	5.e-002	8.4706
13379	13.037	3.3636	0.	2543.8
13380	12.945	3.4545	0.	2567.6
13381	13.037	3.4545	5.e-002	8.4714
13382	13.037	3.1818	0.	2543.6
13383	12.945	3.2727	0.	2567.4
13384	13.037	3.2727	5.e-002	8.4719
13385	13.037	3.	0.	2543.6
13386	12.945	3.0909	0.	2567.3
13387	13.037	3.0909	5.e-002	8.4722
13388	13.037	2.8182	0.	2543.6
13389	12.945	2.9091	0.	2567.3
13390	13.037	2.9091	5.e-002	8.4722
13391	13.037	2.6364	0.	2543.8
13392	12.945	2.7273	0.	2567.4
13393	13.037	2.7273	5.e-002	8.4719
13394	13.037	2.4545	0.	2544.
13395	12.945	2.5455	0.	2567.6
13396	13.037	2.5455	5.e-002	8.4714
13397	13.037	2.2727	0.	2544.4
13398	12.945	2.3636	0.	2568.
13399	13.037	2.3636	5.e-002	8.4706
13400	13.037	2.0909	0.	2544.8
13401	12.945	2.1818	0.	2568.4
13402	13.037	2.1818	5.e-002	8.4695
13403	13.037	1.9091	0.	2545.3
13404	12.945	2.	0.	2568.9
13405	13.037	2.	5.e-002	8.4682
13406	13.037	1.7273	0.	2545.9
13407	12.945	1.8182	0.	2569.5
13408	13.037	1.8182	5.e-002	8.4665
13409	13.037	1.5455	0.	2546.7
13410	12.945	1.6364	0.	2570.2
13411	13.037	1.6364	5.e-002	8.4646
13412	13.037	1.3636	0.	2547.5
13413	12.945	1.4545	0.	2571.
13414	13.037	1.4545	5.e-002	8.4624
13415	13.037	1.1818	0.	2548.4
13416	12.945	1.2727	0.	2571.9
13417	13.037	1.2727	5.e-002	8.4599
13418	13.037	1.	0.	2549.4
13419	12.945	1.0909	0.	2572.9
13420	13.037	1.0909	5.e-002	8.4571
13421	13.037	0.81818	0.	2550.6
13422	12.945	0.90909	0.	2574.
13423	13.037	0.90909	5.e-002	8.4538
13424	13.037	0.63636	0.	2551.8
13425	12.945	0.72727	0.	2575.3
13426	13.037	0.72727	5.e-002	8.4482
13427	13.037	0.45455	0.	2553.2
13428	12.945	0.54545	0.	2576.6
13429	13.037	0.54545	5.e-002	8.411
13430	13.037	0.27273	0.	2555.9
13431	12.945	0.36364	0.	2578.2
13432	13.037	0.36364	5.e-002	7.8935
13433	12.945	0.18182	0.	2582.1
13434	13.037	0.18182	5.e-002	0.1494
13435	13.037	9.0909e-002	0.	2551.1
13436	12.853	5.7273	0.	2604.3
13437	12.762	5.8182	0.	2630.7
13438	12.853	5.8182	5.e-002	0.12769
13439	12.853	5.9091	0.	2599.7
13440	12.853	5.5455	0.	2601.6
13441	12.762	5.6364	0.	2626.7
13442	12.853	5.6364	5.e-002	7.9273
13443	12.853	5.3636	0.	2600.1
13444	12.762	5.4545	0.	2625.
13445	12.853	5.4545	5.e-002	8.4464
13446	12.853	5.1818	0.	2598.7
13447	12.762	5.2727	0.	2623.6
13448	12.853	5.2727	5.e-002	8.4839
13449	12.853	5.	0.	2597.5
13450	12.762	5.0909	0.	2622.2
13451	12.853	5.0909	5.e-002	8.4896
13452	12.853	4.8182	0.	2596.4
13453	12.762	4.9091	0.	2621.
13454	12.853	4.9091	5.e-002	8.493
13455	12.853	4.6364	0.	2595.4
13456	12.762	4.7273	0.	2619.9
13457	12.853	4.7273	5.e-002	8.4959
13458	12.853	4.4545	0.	2594.5
13459	12.762	4.5455	0.	2618.9
13460	12.853	4.5455	5.e-002	8.4986
13461	12.853	4.2727	0.	2593.7
13462	12.762	4.3636	0.	2618.
13463	12.853	4.3636	5.e-002	8.5009
13464	12.853	4.0909	0.	2593.
13465	12.762	4.1818	0.	2617.3
13466	12.853	4.1818	5.e-002	8.5029
13467	12.853	3.9091	0.	2592.4
13468	12.762	4.	0.	2616.6
13469	12.853	4.	5.e-002	8.5046
13470	12.853	3.7273	0.	2591.9
13471	12.762	3.8182	0.	2616.
13472	12.853	3.8182	5.e-002	8.5061
13473	12.853	3.5455	0.	2591.5
13474	12.762	3.6364	0.	2615.6
13475	12.853	3.6364	5.e-002	8.5072
13476	12.853	3.3636	0.	2591.3
13477	12.762	3.4545	0.	2615.2
13478	12.853	3.4545	5.e-002	8.508
13479	12.853	3.1818	0.	2591.1
13480	12.762	3.2727	0.	2615.
13481	12.853	3.2727	5.e-002	8.5086
13482	12.853	3.	0.	2591.1
13483	12.762	3.0909	0.	2614.9
13484	12.853	3.0909	5.e-002	8.5089
13485	12.853	2.8182	0.	2591.1
13486	12.762	2.9091	0.	2614.9
13487	12.853	2.9091	5.e-002	8.5089
13488	12.853	2.6364	0.	2591.3
13489	12.762	2.7273	0.	2615.
13490	12.853	2.7273	5.e-002	8.5086
13491	12.853	2.4545	0.	2591.5
13492	12.762	2.5455	0.	2615.2
13493	12.853	2.5455	5.e-002	8.508
13494	12.853	2.2727	0.	2591.9
13495	12.762	2.3636	0.	2615.6
13496	12.853	2.3636	5.e-002	8.5072
13497	12.853	2.0909	0.	2592.4
13498	12.762	2.1818	0.	2616.
13499	12.853	2.1818	5.e-002	8.5061
13500	12.853	1.9091	0.	2593.
13501	12.762	2.	0.	2616.6
13502	12.853	2.	5.e-002	8.5046
13503	12.853	1.7273	0.	2593.7
13504	12.762	1.8182	0.	2617.3
13505	12.853	1.8182	5.e-002	8.5029
13506	12.853	1.5455	0.	2594.5
13507	12.762	1.6364	0.	2618.
13508	12.853	1.6364	5.e-002	8.5009
13509	12.853	1.3636	0.	2595.4
13510	12.762	1.4545	0.	2618.9
13511	12.853	1.4545	5.e-002	8.4986
13512	12.853	1.1818	0.	2596.4
13513	12.762	1.2727	0.	2619.9
13514	12.853	1.2727	5.e-002	8.4959
13515	12.853	1.	0.	2597.5
13516	12.762	1.0909	0.	2621.
13517	12.853	1.0909	5.e-002	8.493
13518	12.853	0.81818	0.	2598.7
13519	12.762	0.90909	0.	2622.2
13520	12.853	0.90909	5.e-002	8.4896
13521	12.853	0.63636	0.	2600.1
13522	12.762	0.72727	0.	2623.6
13523	12.853	0.72727	5.e-002	8.4839
13524	12.853	0.45455	0.	2601.6
13525	12.762	0.54545	0.	2625.
13526	12.853	0.54545	5.e-002	8.4464
13527	12.853	0.27273	0.	2604.3
13528	12.762	0.36364	0.	2626.7
13529	12.853	0.36364	5.e-002	7.9273
13530	12.762	0.18182	0.	2630.7
13531	12.853	0.18182	5.e-002	0.12769
13532	12.853	9.0909e-002	0.	2599.7
13533	12.67	5.7273	0.	2652.9
13534	12.578	5.8182	0.	2679.4
13535	12.67	5.8182	5.e-002	0.10821
13536	12.67	5.9091	0.	2648.5
13537	12.67	5.5455	0.	2650.1
13538	12.578	5.6364	0.	2675.4
13539	12.67	5.6364	5.e-002	7.9618
13540	12.67	5.3636	0.	2648.5
13541	12.578	5.4545	0.	2673.6
13542	12.67	5.4545	5.e-002	8.4824
13543	12.67	5.1818	0.	2647.1
13544	12.578	5.2727	0.	2672.1
13545	12.67	5.2727	5.e-002	8.5201
13546	12.67	5.	0.	2645.7
13547	12.578	5.0909	0.	2670.6
13548	12.67	5.0909	5.e-002	8.526
13549	12.67	4.8182	0.	2644.5
13550	12.578	4.9091	0.	2669.3
13551	12.67	4.9091	5.e-002	8.5295
13552	12.67	4.6364	0.	2643.4
13553	12.578	4.7273	0.	2668.1
13554	12.67	4.7273	5.e-002	8.5326
13555	12.67	4.4545	0.	2642.4
13556	12.578	4.5455	0.	2667.
13557	12.67	4.5455	5.e-002	8.5354
13558	12.67	4.2727	0.	2641.6
13559	12.578	4.3636	0.	2666.1
13560	12.67	4.3636	5.e-002	8.5378
13561	12.67	4.0909	0.	2640.8
13562	12.578	4.1818	0.	2665.2
13563	12.67	4.1818	5.e-002	8.5399
13564	12.67	3.9091	0.	2640.2
13565	12.578	4.	0.	2664.5
13566	12.67	4.	5.e-002	8.5417
13567	12.67	3.7273	0.	2639.7
13568	12.578	3.8182	0.	2663.9
13569	12.67	3.8182	5.e-002	8.5432
13570	12.67	3.5455	0.	2639.3
13571	12.578	3.6364	0.	2663.4
13572	12.67	3.6364	5.e-002	8.5444
13573	12.67	3.3636	0.	2639.
13574	12.578	3.4545	0.	2663.
13575	12.67	3.4545	5.e-002	8.5453
13576	12.67	3.1818	0.	2638.8
13577	12.578	3.2727	0.	2662.8
13578	12.67	3.2727	5.e-002	8.5459
13579	12.67	3.	0.	2638.7
13580	12.578	3.0909	0.	2662.7
13581	12.67	3.0909	5.e-002	8.5462
13582	12.67	2.8182	0.	2638.8
13583	12.578	2.9091	0.	2662.7
13584	12.67	2.9091	5.e-002	8.5462
13585	12.67	2.6364	0.	2639.
13586	12.578	2.7273	0.	2662.8
13587	12.67	2.7273	5.e-002	8.5459
13588	12.67	2.4545	0.	2639.3
13589	12.578	2.5455	0.	2663.
13590	12.67	2.5455	5.e-002	8.5453
13591	12.67	2.2727	0.	2639.7
13592	12.578	2.3636	0.	2663.4
13593	12.67	2.3636	5.e-002	8.5444
13594	12.67	2.0909	0.	2640.2
13595	12.578	2.1818	0.	2663.9
13596	12.67	2.1818	5.e-002	8.5432
13597	12.67	1.9091	0.	2640.8
13598	12.578	2.	0.	2664.5
13599	12.67	2.	5.e-002	8.5417
13600	12.67	1.7273	0.	2641.6
13601	12.578	1.8182	0.	2665.2
13602	12.67	1.8182	5.e-002	8.5399
13603	12.67	1.5455	0.	2642.4
13604	12.578	1.6364	0.	2666.1
13605	12.67	1.6364	5.e-002	8.5378
13606	12.67	1.3636	0.	2643.4
13607	12.578	1.4545	0.	2667.
13608	12.67	1.4545	5.e-002	8.5354
13609	12.67	1.1818	0.	2644.5
13610	12.578	1.2727	0.	2668.1
13611	12.67	1.2727	5.e-002	8.5326
13612	12.67	1.	0.	2645.7
13613	12.578	1.0909	0.	2669.3
13614	12.67	1.0909	5.e-002	8.5295
13615	12.67	0.81818	0.	2647.1
13616	12.578	0.90909	0.	2670.6
13617	12.67	0.90909	5.e-002	8.526
13618	12.67	0.63636	0.	2648.5
13619	12.578	0.72727	0.	2672.1
13620	12.67	0.72727	5.e-002	8.5201
13621	12.67	0.45455	0.	2650.1
13622	12.578	0.54545	0.	2673.6
13623	12.67	0.54545	5.e-002	8.4824
13624	12.67	0.27273	0.	2652.9
13625	12.578	0.36364	0.	2675.4
13626	12.67	0.36364	5.e-002	7.9618
13627	12.578	0.18182	0.	2679.4
13628	12.67	0.18182	5.e-002	0.10821
13629	12.67	9.0909e-002	0.	2648.5
13630	12.486	5.7273	0.	2701.8
13631	12.394	5.8182	0.	2728.4
13632	12.486	5.8182	5.e-002	9.4836e-002
13633	12.486	5.9091	0.	2697.5
13634	12.486	5.5455	0.	2698.8
13635	12.394	5.6364	0.	2724.3
13636	12.486	5.6364	5.e-002	7.9972
13637	12.486	5.3636	0.	2697.1
13638	12.394	5.4545	0.	2722.4
13639	12.486	5.4545	5.e-002	8.519
13640	12.486	5.1818	0.	2695.6
13641	12.394	5.2727	0.	2720.7
13642	12.486	5.2727	5.e-002	8.5569
13643	12.486	5.	0.	2694.2
13644	12.394	5.0909	0.	2719.2
13645	12.486	5.0909	5.e-002	8.563
13646	12.486	4.8182	0.	2692.9
13647	12.394	4.9091	0.	2717.8
13648	12.486	4.9091	5.e-002	8.5667
13649	12.486	4.6364	0.	2691.7
13650	12.394	4.7273	0.	2716.5
13651	12.486	4.7273	5.e-002	8.5699
13652	12.486	4.4545	0.	2690.6
13653	12.394	4.5455	0.	2715.3
13654	12.486	4.5455	5.e-002	8.5728
13655	12.486	4.2727	0.	2689.7
13656	12.394	4.3636	0.	2714.3
13657	12.486	4.3636	5.e-002	8.5754
13658	12.486	4.0909	0.	2688.8
13659	12.394	4.1818	0.	2713.3
13660	12.486	4.1818	5.e-002	8.5776
13661	12.486	3.9091	0.	2688.1
13662	12.394	4.	0.	2712.5
13663	12.486	4.	5.e-002	8.5795
13664	12.486	3.7273	0.	2687.6
13665	12.394	3.8182	0.	2711.9
13666	12.486	3.8182	5.e-002	8.5811
13667	12.486	3.5455	0.	2687.1
13668	12.394	3.6364	0.	2711.3
13669	12.486	3.6364	5.e-002	8.5823
13670	12.486	3.3636	0.	2686.8
13671	12.394	3.4545	0.	2710.9
13672	12.486	3.4545	5.e-002	8.5833
13673	12.486	3.1818	0.	2686.6
13674	12.394	3.2727	0.	2710.7
13675	12.486	3.2727	5.e-002	8.5839
13676	12.486	3.	0.	2686.5
13677	12.394	3.0909	0.	2710.5
13678	12.486	3.0909	5.e-002	8.5842
13679	12.486	2.8182	0.	2686.6
13680	12.394	2.9091	0.	2710.5
13681	12.486	2.9091	5.e-002	8.5842
13682	12.486	2.6364	0.	2686.8
13683	12.394	2.7273	0.	2710.7
13684	12.486	2.7273	5.e-002	8.5839
13685	12.486	2.4545	0.	2687.1
13686	12.394	2.5455	0.	2710.9
13687	12.486	2.5455	5.e-002	8.5833
13688	12.486	2.2727	0.	2687.6
13689	12.394	2.3636	0.	2711.3
13690	12.486	2.3636	5.e-002	8.5823
13691	12.486	2.0909	0.	2688.1
13692	12.394	2.1818	0.	2711.9
13693	12.486	2.1818	5.e-002	8.5811
13694	12.486	1.9091	0.	2688.8
13695	12.394	2.	0.	2712.5
13696	12.486	2.	5.e-002	8.5795
13697	12.486	1.7273	0.	2689.7
13698	12.394	1.8182	0.	2713.3
13699	12.486	1.8182	5.e-002	8.5776
13700	12.486	1.5455	0.	2690.6
13701	12.394	1.6364	0.	2714.3
13702	12.486	1.6364	5.e-002	8.5754
13703	12.486	1.3636	0.	2691.7
13704	12.394	1.4545	0.	2715.3
13705	12.486	1.4545	5.e-002	8.5728
13706	12.486	1.1818	0.	2692.9
13707	12.394	1.2727	0.	2716.5
13708	12.486	1.2727	5.e-002	8.5699
13709	12.486	1.	0.	2694.2
13710	12.394	1.0909	0.	2717.8
13711	12.486	1.0909	5.e-002	8.5667
13712	12.486	0.81818	0.	2695.6
13713	12.394	0.90909	0.	2719.2
13714	12.486	0.90909	5.e-002	8.563
13715	12.486	0.63636	0.	2697.1
13716	12.394	0.72727	0.	2720.7
13717	12.486	0.72727	5.e-002	8.5569
13718	12.486	0.45455	0.	2698.8
13719	12.394	0.54545	0.	2722.4
13720	12.486	0.54545	5.e-002	8.519
13721	12.486	0.27273	0.	2701.8
13722	12.394	0.36364	0.	2724.3
13723	12.486	0.36364	5.e-002	7.9972
13724	12.394	0.18182	0.	2728.4
13725	12.486	0.18182	5.e-002	9.4839e-002
13726	12.486	9.0909e-002	0.	2697.5
13727	12.303	5.7273	0.	2750.8
13728	12.211	5.8182	0.	2777.6
13729	12.303	5.8182	5.e-002	9.3663e-002
13730	12.303	5.9091	0.	2746.7
13731	12.303	5.5455	0.	2747.8
13732	12.211	5.6364	0.	2773.4
13733	12.303	5.6364	5.e-002	8.0334
13734	12.303	5.3636	0.	2745.9
13735	12.211	5.4545	0.	2771.3
13736	12.303	5.4545	5.e-002	8.5562
13737	12.303	5.1818	0.	2744.3
13738	12.211	5.2727	0.	2769.6
13739	12.303	5.2727	5.e-002	8.5944
13740	12.303	5.	0.	2742.8
13741	12.211	5.0909	0.	2767.9
13742	12.303	5.0909	5.e-002	8.6006
13743	12.303	4.8182	0.	2741.4
13744	12.211	4.9091	0.	2766.4
13745	12.303	4.9091	5.e-002	8.6045
13746	12.303	4.6364	0.	2740.1
13747	12.211	4.7273	0.	2765.
13748	12.303	4.7273	5.e-002	8.6079
13749	12.303	4.4545	0.	2738.9
13750	12.211	4.5455	0.	2763.8
13751	12.303	4.5455	5.e-002	8.6109
13752	12.303	4.2727	0.	2737.9
13753	12.211	4.3636	0.	2762.6
13754	12.303	4.3636	5.e-002	8.6136
13755	12.303	4.0909	0.	2737.
13756	12.211	4.1818	0.	2761.6
13757	12.303	4.1818	5.e-002	8.616
13758	12.303	3.9091	0.	2736.3
13759	12.211	4.	0.	2760.8
13760	12.303	4.	5.e-002	8.618
13761	12.303	3.7273	0.	2735.6
13762	12.211	3.8182	0.	2760.
13763	12.303	3.8182	5.e-002	8.6196
13764	12.303	3.5455	0.	2735.1
13765	12.211	3.6364	0.	2759.5
13766	12.303	3.6364	5.e-002	8.6209
13767	12.303	3.3636	0.	2734.8
13768	12.211	3.4545	0.	2759.
13769	12.303	3.4545	5.e-002	8.6219
13770	12.303	3.1818	0.	2734.6
13771	12.211	3.2727	0.	2758.7
13772	12.303	3.2727	5.e-002	8.6226
13773	12.303	3.	0.	2734.5
13774	12.211	3.0909	0.	2758.6
13775	12.303	3.0909	5.e-002	8.6229
13776	12.303	2.8182	0.	2734.6
13777	12.211	2.9091	0.	2758.6
13778	12.303	2.9091	5.e-002	8.6229
13779	12.303	2.6364	0.	2734.8
13780	12.211	2.7273	0.	2758.7
13781	12.303	2.7273	5.e-002	8.6226
13782	12.303	2.4545	0.	2735.1
13783	12.211	2.5455	0.	2759.
13784	12.303	2.5455	5.e-002	8.6219
13785	12.303	2.2727	0.	2735.6
13786	12.211	2.3636	0.	2759.5
13787	12.303	2.3636	5.e-002	8.6209
13788	12.303	2.0909	0.	2736.3
13789	12.211	2.1818	0.	2760.
13790	12.303	2.1818	5.e-002	8.6196
13791	12.303	1.9091	0.	2737.
13792	12.211	2.	0.	2760.8
13793	12.303	2.	5.e-002	8.618
13794	12.303	1.7273	0.	2737.9
13795	12.211	1.8182	0.	2761.6
13796	12.303	1.8182	5.e-002	8.616
13797	12.303	1.5455	0.	2738.9
13798	12.211	1.6364	0.	2762.6
13799	12.303	1.6364	5.e-002	8.6136
13800	12.303	1.3636	0.	2740.1
13801	12.211	1.4545	0.	2763.8
13802	12.303	1.4545	5.e-002	8.6109
13803	12.303	1.1818	0.	2741.4
13804	12.211	1.2727	0.	2765.
13805	12.303	1.2727	5.e-002	8.6079
13806	12.303	1.	0.	2742.8
13807	12.211	1.0909	0.	2766.4
13808	12.303	1.0909	5.e-002	8.6045
13809	12.303	0.81818	0.	2744.3
13810	12.211	0.90909	0.	2767.9
13811	12.303	0.90909	5.e-002	8.6006
13812	12.303	0.63636	0.	2745.9
13813	12.211	0.72727	0.	2769.6
13814	12.303	0.72727	5.e-002	8.5944
13815	12.303	0.45455	0.	2747.8
13816	12.211	0.54545	0.	2771.3
13817	12.303	0.54545	5.e-002	8.5562
13818	12.303	0.27273	0.	2750.8
13819	12.211	0.36364	0.	2773.4
13820	12.303	0.36364	5.e-002	8.0334
13821	12.211	0.18182	0.	2777.6
13822	12.303	0.18182	5.e-002	9.3666e-002
13823	12.303	9.0909e-002	0.	2746.7
13824	12.119	5.7273	0.	2800.
13825	12.027	5.8182	0.	2826.9
13826	12.119	5.8182	5.e-002	0.10883
13827	12.119	5.9091	0.	2796.1
13828	12.119	5.5455	0.	2796.9
13829	12.027	5.6364	0.	2822.6
13830	12.119	5.6364	5.e-002	8.0705
13831	12.119	5.3636	0.	2794.9
13832	12.027	5.4545	0.	2820.5
13833	12.119	5.4545	5.e-002	8.594
13834	12.119	5.1818	0.	2793.2
13835	12.027	5.2727	0.	2818.6
13836	12.119	5.2727	5.e-002	8.6325
13837	12.119	5.	0.	2791.5
13838	12.027	5.0909	0.	2816.9
13839	12.119	5.0909	5.e-002	8.639
13840	12.119	4.8182	0.	2790.
13841	12.027	4.9091	0.	2815.2
13842	12.119	4.9091	5.e-002	8.643
13843	12.119	4.6364	0.	2788.7
13844	12.027	4.7273	0.	2813.7
13845	12.119	4.7273	5.e-002	8.6466
13846	12.119	4.4545	0.	2787.4
13847	12.027	4.5455	0.	2812.4
13848	12.119	4.5455	5.e-002	8.6498
13849	12.119	4.2727	0.	2786.3
13850	12.027	4.3636	0.	2811.1
13851	12.119	4.3636	5.e-002	8.6526
13852	12.119	4.0909	0.	2785.3
13853	12.027	4.1818	0.	2810.1
13854	12.119	4.1818	5.e-002	8.655
13855	12.119	3.9091	0.	2784.5
13856	12.027	4.	0.	2809.1
13857	12.119	4.	5.e-002	8.6571
13858	12.119	3.7273	0.	2783.9
13859	12.027	3.8182	0.	2808.4
13860	12.119	3.8182	5.e-002	8.6589
13861	12.119	3.5455	0.	2783.3
13862	12.027	3.6364	0.	2807.7
13863	12.119	3.6364	5.e-002	8.6603
13864	12.119	3.3636	0.	2783.
13865	12.027	3.4545	0.	2807.3
13866	12.119	3.4545	5.e-002	8.6613
13867	12.119	3.1818	0.	2782.7
13868	12.027	3.2727	0.	2807.
13869	12.119	3.2727	5.e-002	8.662
13870	12.119	3.	0.	2782.7
13871	12.027	3.0909	0.	2806.8
13872	12.119	3.0909	5.e-002	8.6624
13873	12.119	2.8182	0.	2782.7
13874	12.027	2.9091	0.	2806.8
13875	12.119	2.9091	5.e-002	8.6624
13876	12.119	2.6364	0.	2783.
13877	12.027	2.7273	0.	2807.
13878	12.119	2.7273	5.e-002	8.662
13879	12.119	2.4545	0.	2783.3
13880	12.027	2.5455	0.	2807.3
13881	12.119	2.5455	5.e-002	8.6613
13882	12.119	2.2727	0.	2783.9
13883	12.027	2.3636	0.	2807.7
13884	12.119	2.3636	5.e-002	8.6603
13885	12.119	2.0909	0.	2784.5
13886	12.027	2.1818	0.	2808.4
13887	12.119	2.1818	5.e-002	8.6589
13888	12.119	1.9091	0.	2785.3
13889	12.027	2.	0.	2809.1
13890	12.119	2.	5.e-002	8.6571
13891	12.119	1.7273	0.	2786.3
13892	12.027	1.8182	0.	2810.1
13893	12.119	1.8182	5.e-002	8.655
13894	12.119	1.5455	0.	2787.4
13895	12.027	1.6364	0.	2811.1
13896	12.119	1.6364	5.e-002	8.6526
13897	12.119	1.3636	0.	2788.7
13898	12.027	1.4545	0.	2812.4
13899	12.119	1.4545	5.e-002	8.6498
13900	12.119	1.1818	0.	2790.
13901	12.027	1.2727	0.	2813.7
13902	12.119	1.2727	5.e-002	8.6466
13903	12.119	1.	0.	2791.5
13904	12.027	1.0909	0.	2815.2
13905	12.119	1.0909	5.e-002	8.643
13906	12.119	0.81818	0.	2793.2
13907	12.027	0.90909	0.	2816.9
13908	12.119	0.90909	5.e-002	8.639
13909	12.119	0.63636	0.	2794.9
13910	12.027	0.72727	0.	2818.6
13911	12.119	0.72727	5.e-002	8.6325
13912	12.119	0.45455	0.	2796.9
13913	12.027	0.54545	0.	2820.5
13914	12.119	0.54545	5.e-002	8.594
13915	12.119	0.27273	0.	2800.
13916	12.027	0.36364	0.	2822.6
13917	12.119	0.36364	5.e-002	8.0705
13918	12.027	0.18182	0.	2826.9
13919	12.119	0.18182	5.e-002	0.10883
13920	12.119	9.0909e-002	0.	2796.1
13921	11.935	5.7273	0.	2849.4
13922	11.844	5.8182	0.	2876.5
13923	11.935	5.8182	5.e-002	0.1386
13924	11.935	5.9091	0.	2845.8
13925	11.935	5.5455	0.	2846.2
13926	11.844	5.6364	0.	2872.1
13927	11.935	5.6364	5.e-002	8.1085
13928	11.935	5.3636	0.	2844.1
13929	11.844	5.4545	0.	2869.8
13930	11.935	5.4545	5.e-002	8.6325
13931	11.935	5.1818	0.	2842.3
13932	11.844	5.2727	0.	2867.8
13933	11.935	5.2727	5.e-002	8.6713
13934	11.935	5.	0.	2840.5
13935	11.844	5.0909	0.	2866.
13936	11.935	5.0909	5.e-002	8.678
13937	11.935	4.8182	0.	2838.9
13938	11.844	4.9091	0.	2864.2
13939	11.935	4.9091	5.e-002	8.6822
13940	11.935	4.6364	0.	2837.4
13941	11.844	4.7273	0.	2862.6
13942	11.935	4.7273	5.e-002	8.686
13943	11.935	4.4545	0.	2836.1
13944	11.844	4.5455	0.	2861.1
13945	11.935	4.5455	5.e-002	8.6893
13946	11.935	4.2727	0.	2834.9
13947	11.844	4.3636	0.	2859.8
13948	11.935	4.3636	5.e-002	8.6923
13949	11.935	4.0909	0.	2833.8
13950	11.844	4.1818	0.	2858.7
13951	11.935	4.1818	5.e-002	8.6949
13952	11.935	3.9091	0.	2833.
13953	11.844	4.	0.	2857.7
13954	11.935	4.	5.e-002	8.6971
13955	11.935	3.7273	0.	2832.2
13956	11.844	3.8182	0.	2856.8
13957	11.935	3.8182	5.e-002	8.6989
13958	11.935	3.5455	0.	2831.7
13959	11.844	3.6364	0.	2856.2
13960	11.935	3.6364	5.e-002	8.7004
13961	11.935	3.3636	0.	2831.2
13962	11.844	3.4545	0.	2855.7
13963	11.935	3.4545	5.e-002	8.7015
13964	11.935	3.1818	0.	2831.
13965	11.844	3.2727	0.	2855.3
13966	11.935	3.2727	5.e-002	8.7022
13967	11.935	3.	0.	2830.9
13968	11.844	3.0909	0.	2855.1
13969	11.935	3.0909	5.e-002	8.7026
13970	11.935	2.8182	0.	2831.
13971	11.844	2.9091	0.	2855.1
13972	11.935	2.9091	5.e-002	8.7026
13973	11.935	2.6364	0.	2831.2
13974	11.844	2.7273	0.	2855.3
13975	11.935	2.7273	5.e-002	8.7022
13976	11.935	2.4545	0.	2831.7
13977	11.844	2.5455	0.	2855.7
13978	11.935	2.5455	5.e-002	8.7015
13979	11.935	2.2727	0.	2832.2
13980	11.844	2.3636	0.	2856.2
13981	11.935	2.3636	5.e-002	8.7004
13982	11.935	2.0909	0.	2833.
13983	11.844	2.1818	0.	2856.8
13984	11.935	2.1818	5.e-002	8.6989
13985	11.935	1.9091	0.	2833.8
13986	11.844	2.	0.	2857.7
13987	11.935	2.	5.e-002	8.6971
13988	11.935	1.7273	0.	2834.9
13989	11.844	1.8182	0.	2858.7
13990	11.935	1.8182	5.e-002	8.6949
13991	11.935	1.5455	0.	2836.1
13992	11.844	1.6364	0.	2859.8
13993	11.935	1.6364	5.e-002	8.6923
13994	11.935	1.3636	0.	2837.4
13995	11.844	1.4545	0.	2861.1
13996	11.935	1.4545	5.e-002	8.6893
13997	11.935	1.1818	0.	2838.9
13998	11.844	1.2727	0.	2862.6
13999	11.935	1.2727	5.e-002	8.686
14000	11.935	1.	0.	2840.5
14001	11.844	1.0909	0.	2864.2
14002	11.935	1.0909	5.e-002	8.6822
14003	11.935	0.81818	0.	2842.3
14004	11.844	0.90909	0.	2866.
14005	11.935	0.90909	5.e-002	8.678
14006	11.935	0.63636	0.	2844.1
14007	11.844	0.72727	0.	2867.8
14008	11.935	0.72727	5.e-002	8.6713
14009	11.935	0.45455	0.	2846.2
14010	11.844	0.54545	0.	2869.8
14011	11.935	0.54545	5.e-002	8.6325
14012	11.935	0.27273	0.	2849.4
14013	11.844	0.36364	0.	2872.1
14014	11.935	0.36364	5.e-002	8.1085
14015	11.844	0.18182	0.	2876.5
14016	11.935	0.18182	5.e-002	0.13861
14017	11.935	9.0909e-002	0.	2845.8
14018	11.752	5.7273	0.	2899.
14019	11.66	5.8182	0.	2926.3
14020	11.752	5.8182	5.e-002	0.17921
14021	11.752	5.9091	0.	2895.6
14022	11.752	5.5455	0.	2895.7
14023	11.66	5.6364	0.	2921.8
14024	11.752	5.6364	5.e-002	8.1474
14025	11.752	5.3636	0.	2893.5
14026	11.66	5.4545	0.	2919.4
14027	11.752	5.4545	5.e-002	8.6717
14028	11.752	5.1818	0.	2891.5
14029	11.66	5.2727	0.	2917.2
14030	11.752	5.2727	5.e-002	8.7107
14031	11.752	5.	0.	2889.6
14032	11.66	5.0909	0.	2915.2
14033	11.752	5.0909	5.e-002	8.7177
14034	11.752	4.8182	0.	2887.9
14035	11.66	4.9091	0.	2913.4
14036	11.752	4.9091	5.e-002	8.7222
14037	11.752	4.6364	0.	2886.3
14038	11.66	4.7273	0.	2911.6
14039	11.752	4.7273	5.e-002	8.7261
14040	11.752	4.4545	0.	2884.9
14041	11.66	4.5455	0.	2910.1
14042	11.752	4.5455	5.e-002	8.7297
14043	11.752	4.2727	0.	2883.6
14044	11.66	4.3636	0.	2908.7
14045	11.752	4.3636	5.e-002	8.7328
14046	11.752	4.0909	0.	2882.5
14047	11.66	4.1818	0.	2907.4
14048	11.752	4.1818	5.e-002	8.7355
14049	11.752	3.9091	0.	2881.5
14050	11.66	4.	0.	2906.3
14051	11.752	4.	5.e-002	8.7378
14052	11.752	3.7273	0.	2880.7
14053	11.66	3.8182	0.	2905.4
14054	11.752	3.8182	5.e-002	8.7397
14055	11.752	3.5455	0.	2880.1
14056	11.66	3.6364	0.	2904.7
14057	11.752	3.6364	5.e-002	8.7413
14058	11.752	3.3636	0.	2879.7
14059	11.66	3.4545	0.	2904.2
14060	11.752	3.4545	5.e-002	8.7424
14061	11.752	3.1818	0.	2879.4
14062	11.66	3.2727	0.	2903.8
14063	11.752	3.2727	5.e-002	8.7432
14064	11.752	3.	0.	2879.3
14065	11.66	3.0909	0.	2903.6
14066	11.752	3.0909	5.e-002	8.7436
14067	11.752	2.8182	0.	2879.4
14068	11.66	2.9091	0.	2903.6
14069	11.752	2.9091	5.e-002	8.7436
14070	11.752	2.6364	0.	2879.7
14071	11.66	2.7273	0.	2903.8
14072	11.752	2.7273	5.e-002	8.7432
14073	11.752	2.4545	0.	2880.1
14074	11.66	2.5455	0.	2904.2
14075	11.752	2.5455	5.e-002	8.7424
14076	11.752	2.2727	0.	2880.7
14077	11.66	2.3636	0.	2904.7
14078	11.752	2.3636	5.e-002	8.7413
14079	11.752	2.0909	0.	2881.5
14080	11.66	2.1818	0.	2905.4
14081	11.752	2.1818	5.e-002	8.7397
14082	11.752	1.9091	0.	2882.5
14083	11.66	2.	0.	2906.3
14084	11.752	2.	5.e-002	8.7378
14085	11.752	1.7273	0.	2883.6
14086	11.66	1.8182	0.	2907.4
14087	11.752	1.8182	5.e-002	8.7355
14088	11.752	1.5455	0.	2884.9
14089	11.66	1.6364	0.	2908.7
14090	11.752	1.6364	5.e-002	8.7328
14091	11.752	1.3636	0.	2886.3
14092	11.66	1.4545	0.	2910.1
14093	11.752	1.4545	5.e-002	8.7297
14094	11.752	1.1818	0.	2887.9
14095	11.66	1.2727	0.	2911.6
14096	11.752	1.2727	5.e-002	8.7261
14097	11.752	1.	0.	2889.6
14098	11.66	1.0909	0.	2913.4
14099	11.752	1.0909	5.e-002	8.7222
14100	11.752	0.81818	0.	2891.5
14101	11.66	0.90909	0.	2915.2
14102	11.752	0.90909	5.e-002	8.7177
14103	11.752	0.63636	0.	2893.5
14104	11.66	0.72727	0.	2917.2
14105	11.752	0.72727	5.e-002	8.7107
14106	11.752	0.45455	0.	2895.7
14107	11.66	0.54545	0.	2919.4
14108	11.752	0.54545	5.e-002	8.6717
14109	11.752	0.27273	0.	2899.
14110	11.66	0.36364	0.	2921.8
14111	11.752	0.36364	5.e-002	8.1474
14112	11.66	0.18182	0.	2926.3
14113	11.752	0.18182	5.e-002	0.17921
14114	11.752	9.0909e-002	0.	2895.6
14115	11.568	5.7273	0.	2948.8
14116	11.476	5.8182	0.	2976.2
14117	11.568	5.8182	5.e-002	0.2282
14118	11.568	5.9091	0.	2945.6
14119	11.568	5.5455	0.	2945.4
14120	11.476	5.6364	0.	2971.6
14121	11.568	5.6364	5.e-002	8.1873
14122	11.568	5.3636	0.	2943.1
14123	11.476	5.4545	0.	2969.1
14124	11.568	5.4545	5.e-002	8.7117
14125	11.568	5.1818	0.	2940.9
14126	11.476	5.2727	0.	2966.8
14127	11.568	5.2727	5.e-002	8.751
14128	11.568	5.	0.	2938.9
14129	11.476	5.0909	0.	2964.7
14130	11.568	5.0909	5.e-002	8.7582
14131	11.568	4.8182	0.	2937.1
14132	11.476	4.9091	0.	2962.7
14133	11.568	4.9091	5.e-002	8.7629
14134	11.568	4.6364	0.	2935.4
14135	11.476	4.7273	0.	2960.8
14136	11.568	4.7273	5.e-002	8.7671
14137	11.568	4.4545	0.	2933.8
14138	11.476	4.5455	0.	2959.2
14139	11.568	4.5455	5.e-002	8.7708
14140	11.568	4.2727	0.	2932.5
14141	11.476	4.3636	0.	2957.6
14142	11.568	4.3636	5.e-002	8.7741
14143	11.568	4.0909	0.	2931.3
14144	11.476	4.1818	0.	2956.3
14145	11.568	4.1818	5.e-002	8.777
14146	11.568	3.9091	0.	2930.2
14147	11.476	4.	0.	2955.1
14148	11.568	4.	5.e-002	8.7794
14149	11.568	3.7273	0.	2929.4
14150	11.476	3.8182	0.	2954.2
14151	11.568	3.8182	5.e-002	8.7814
14152	11.568	3.5455	0.	2928.7
14153	11.476	3.6364	0.	2953.4
14154	11.568	3.6364	5.e-002	8.783
14155	11.568	3.3636	0.	2928.2
14156	11.476	3.4545	0.	2952.8
14157	11.568	3.4545	5.e-002	8.7842
14158	11.568	3.1818	0.	2928.
14159	11.476	3.2727	0.	2952.4
14160	11.568	3.2727	5.e-002	8.785
14161	11.568	3.	0.	2927.9
14162	11.476	3.0909	0.	2952.2
14163	11.568	3.0909	5.e-002	8.7854
14164	11.568	2.8182	0.	2928.
14165	11.476	2.9091	0.	2952.2
14166	11.568	2.9091	5.e-002	8.7854
14167	11.568	2.6364	0.	2928.2
14168	11.476	2.7273	0.	2952.4
14169	11.568	2.7273	5.e-002	8.785
14170	11.568	2.4545	0.	2928.7
14171	11.476	2.5455	0.	2952.8
14172	11.568	2.5455	5.e-002	8.7842
14173	11.568	2.2727	0.	2929.4
14174	11.476	2.3636	0.	2953.4
14175	11.568	2.3636	5.e-002	8.783
14176	11.568	2.0909	0.	2930.2
14177	11.476	2.1818	0.	2954.2
14178	11.568	2.1818	5.e-002	8.7814
14179	11.568	1.9091	0.	2931.3
14180	11.476	2.	0.	2955.1
14181	11.568	2.	5.e-002	8.7794
14182	11.568	1.7273	0.	2932.5
14183	11.476	1.8182	0.	2956.3
14184	11.568	1.8182	5.e-002	8.777
14185	11.568	1.5455	0.	2933.8
14186	11.476	1.6364	0.	2957.6
14187	11.568	1.6364	5.e-002	8.7741
14188	11.568	1.3636	0.	2935.4
14189	11.476	1.4545	0.	2959.2
14190	11.568	1.4545	5.e-002	8.7708
14191	11.568	1.1818	0.	2937.1
14192	11.476	1.2727	0.	2960.8
14193	11.568	1.2727	5.e-002	8.7671
14194	11.568	1.	0.	2938.9
14195	11.476	1.0909	0.	2962.7
14196	11.568	1.0909	5.e-002	8.7629
14197	11.568	0.81818	0.	2940.9
14198	11.476	0.90909	0.	2964.7
14199	11.568	0.90909	5.e-002	8.7582
14200	11.568	0.63636	0.	2943.1
14201	11.476	0.72727	0.	2966.8
14202	11.568	0.72727	5.e-002	8.751
14203	11.568	0.45455	0.	2945.4
14204	11.476	0.54545	0.	2969.1
14205	11.568	0.54545	5.e-002	8.7117
14206	11.568	0.27273	0.	2948.8
14207	11.476	0.36364	0.	2971.6
14208	11.568	0.36364	5.e-002	8.1873
14209	11.476	0.18182	0.	2976.2
14210	11.568	0.18182	5.e-002	0.22821
14211	11.568	9.0909e-002	0.	2945.6
14212	11.384	5.7273	0.	2998.9
14213	11.293	5.8182	0.	3026.4
14214	11.384	5.8182	5.e-002	0.28451
14215	11.384	5.9091	0.	2995.9
14216	11.384	5.5455	0.	2995.3
14217	11.293	5.6364	0.	3021.7
14218	11.384	5.6364	5.e-002	8.2283
14219	11.384	5.3636	0.	2992.8
14220	11.293	5.4545	0.	3019.
14221	11.384	5.4545	5.e-002	8.7524
14222	11.384	5.1818	0.	2990.5
14223	11.293	5.2727	0.	3016.6
14224	11.384	5.2727	5.e-002	8.792
14225	11.384	5.	0.	2988.4
14226	11.293	5.0909	0.	3014.3
14227	11.384	5.0909	5.e-002	8.7995
14228	11.384	4.8182	0.	2986.4
14229	11.293	4.9091	0.	3012.2
14230	11.384	4.9091	5.e-002	8.8045
14231	11.384	4.6364	0.	2984.6
14232	11.293	4.7273	0.	3010.2
14233	11.384	4.7273	5.e-002	8.8089
14234	11.384	4.4545	0.	2982.9
14235	11.293	4.5455	0.	3008.4
14236	11.384	4.5455	5.e-002	8.8129
14237	11.384	4.2727	0.	2981.5
14238	11.293	4.3636	0.	3006.8
14239	11.384	4.3636	5.e-002	8.8163
14240	11.384	4.0909	0.	2980.2
14241	11.293	4.1818	0.	3005.3
14242	11.384	4.1818	5.e-002	8.8193
14243	11.384	3.9091	0.	2979.1
14244	11.293	4.	0.	3004.1
14245	11.384	4.	5.e-002	8.8219
14246	11.384	3.7273	0.	2978.2
14247	11.293	3.8182	0.	3003.
14248	11.384	3.8182	5.e-002	8.824
14249	11.384	3.5455	0.	2977.4
14250	11.293	3.6364	0.	3002.2
14251	11.384	3.6364	5.e-002	8.8257
14252	11.384	3.3636	0.	2976.9
14253	11.293	3.4545	0.	3001.6
14254	11.384	3.4545	5.e-002	8.827
14255	11.384	3.1818	0.	2976.6
14256	11.293	3.2727	0.	3001.1
14257	11.384	3.2727	5.e-002	8.8278
14258	11.384	3.	0.	2976.5
14259	11.293	3.0909	0.	3000.9
14260	11.384	3.0909	5.e-002	8.8282
14261	11.384	2.8182	0.	2976.6
14262	11.293	2.9091	0.	3000.9
14263	11.384	2.9091	5.e-002	8.8282
14264	11.384	2.6364	0.	2976.9
14265	11.293	2.7273	0.	3001.1
14266	11.384	2.7273	5.e-002	8.8278
14267	11.384	2.4545	0.	2977.4
14268	11.293	2.5455	0.	3001.6
14269	11.384	2.5455	5.e-002	8.827
14270	11.384	2.2727	0.	2978.2
14271	11.293	2.3636	0.	3002.2
14272	11.384	2.3636	5.e-002	8.8257
14273	11.384	2.0909	0.	2979.1
14274	11.293	2.1818	0.	3003.
14275	11.384	2.1818	5.e-002	8.824
14276	11.384	1.9091	0.	2980.2
14277	11.293	2.	0.	3004.1
14278	11.384	2.	5.e-002	8.8219
14279	11.384	1.7273	0.	2981.5
14280	11.293	1.8182	0.	3005.3
14281	11.384	1.8182	5.e-002	8.8193
14282	11.384	1.5455	0.	2982.9
14283	11.293	1.6364	0.	3006.8
14284	11.384	1.6364	5.e-002	8.8163
14285	11.384	1.3636	0.	2984.6
14286	11.293	1.4545	0.	3008.4
14287	11.384	1.4545	5.e-002	8.8129
14288	11.384	1.1818	0.	2986.4
14289	11.293	1.2727	0.	3010.2
14290	11.384	1.2727	5.e-002	8.8089
14291	11.384	1.	0.	2988.4
14292	11.293	1.0909	0.	3012.2
14293	11.384	1.0909	5.e-002	8.8045
14294	11.384	0.81818	0.	2990.5
14295	11.293	0.90909	0.	3014.3
14296	11.384	0.90909	5.e-002	8.7995
14297	11.384	0.63636	0.	2992.8
14298	11.293	0.72727	0.	3016.6
14299	11.384	0.72727	5.e-002	8.792
14300	11.384	0.45455	0.	2995.3
14301	11.293	0.54545	0.	3019.
14302	11.384	0.54545	5.e-002	8.7524
14303	11.384	0.27273	0.	2998.9
14304	11.293	0.36364	0.	3021.7
14305	11.384	0.36364	5.e-002	8.2283
14306	11.293	0.18182	0.	3026.4
14307	11.384	0.18182	5.e-002	0.28451
14308	11.384	9.0909e-002	0.	2995.9
14309	11.201	5.7273	0.	3049.1
14310	11.109	5.8182	0.	3076.8
14311	11.201	5.8182	5.e-002	0.34778
14312	11.201	5.9091	0.	3046.4
14313	11.201	5.5455	0.	3045.4
14314	11.109	5.6364	0.	3072.
14315	11.201	5.6364	5.e-002	8.2705
14316	11.201	5.3636	0.	3042.7
14317	11.109	5.4545	0.	3069.1
14318	11.201	5.4545	5.e-002	8.794
14319	11.201	5.1818	0.	3040.3
14320	11.109	5.2727	0.	3066.5
14321	11.201	5.2727	5.e-002	8.8339
14322	11.201	5.	0.	3038.
14323	11.109	5.0909	0.	3064.1
14324	11.201	5.0909	5.e-002	8.8417
14325	11.201	4.8182	0.	3035.9
14326	11.109	4.9091	0.	3061.8
14327	11.201	4.9091	5.e-002	8.847
14328	11.201	4.6364	0.	3034.
14329	11.109	4.7273	0.	3059.7
14330	11.201	4.7273	5.e-002	8.8517
14331	11.201	4.4545	0.	3032.2
14332	11.109	4.5455	0.	3057.8
14333	11.201	4.5455	5.e-002	8.8558
14334	11.201	4.2727	0.	3030.6
14335	11.109	4.3636	0.	3056.
14336	11.201	4.3636	5.e-002	8.8595
14337	11.201	4.0909	0.	3029.2
14338	11.109	4.1818	0.	3054.5
14339	11.201	4.1818	5.e-002	8.8626
14340	11.201	3.9091	0.	3028.
14341	11.109	4.	0.	3053.1
14342	11.201	4.	5.e-002	8.8653
14343	11.201	3.7273	0.	3027.
14344	11.109	3.8182	0.	3052.
14345	11.201	3.8182	5.e-002	8.8676
14346	11.201	3.5455	0.	3026.3
14347	11.109	3.6364	0.	3051.1
14348	11.201	3.6364	5.e-002	8.8693
14349	11.201	3.3636	0.	3025.7
14350	11.109	3.4545	0.	3050.4
14351	11.201	3.4545	5.e-002	8.8707
14352	11.201	3.1818	0.	3025.4
14353	11.109	3.2727	0.	3050.
14354	11.201	3.2727	5.e-002	8.8715
14355	11.201	3.	0.	3025.3
14356	11.109	3.0909	0.	3049.7
14357	11.201	3.0909	5.e-002	8.872
14358	11.201	2.8182	0.	3025.4
14359	11.109	2.9091	0.	3049.7
14360	11.201	2.9091	5.e-002	8.872
14361	11.201	2.6364	0.	3025.7
14362	11.109	2.7273	0.	3050.
14363	11.201	2.7273	5.e-002	8.8715
14364	11.201	2.4545	0.	3026.3
14365	11.109	2.5455	0.	3050.4
14366	11.201	2.5455	5.e-002	8.8707
14367	11.201	2.2727	0.	3027.
14368	11.109	2.3636	0.	3051.1
14369	11.201	2.3636	5.e-002	8.8693
14370	11.201	2.0909	0.	3028.
14371	11.109	2.1818	0.	3052.
14372	11.201	2.1818	5.e-002	8.8676
14373	11.201	1.9091	0.	3029.2
14374	11.109	2.	0.	3053.1
14375	11.201	2.	5.e-002	8.8653
14376	11.201	1.7273	0.	3030.6
14377	11.109	1.8182	0.	3054.5
14378	11.201	1.8182	5.e-002	8.8626
14379	11.201	1.5455	0.	3032.2
14380	11.109	1.6364	0.	3056.
14381	11.201	1.6364	5.e-002	8.8595
14382	11.201	1.3636	0.	3034.
14383	11.109	1.4545	0.	3057.8
14384	11.201	1.4545	5.e-002	8.8558
14385	11.201	1.1818	0.	3035.9
14386	11.109	1.2727	0.	3059.7
14387	11.201	1.2727	5.e-002	8.8517
14388	11.201	1.	0.	3038.
14389	11.109	1.0909	0.	3061.8
14390	11.201	1.0909	5.e-002	8.847
14391	11.201	0.81818	0.	3040.3
14392	11.109	0.90909	0.	3064.1
14393	11.201	0.90909	5.e-002	8.8417
14394	11.201	0.63636	0.	3042.7
14395	11.109	0.72727	0.	3066.5
14396	11.201	0.72727	5.e-002	8.8339
14397	11.201	0.45455	0.	3045.4
14398	11.109	0.54545	0.	3069.1
14399	11.201	0.54545	5.e-002	8.794
14400	11.201	0.27273	0.	3049.1
14401	11.109	0.36364	0.	3072.
14402	11.201	0.36364	5.e-002	8.2705
14403	11.109	0.18182	0.	3076.8
14404	11.201	0.18182	5.e-002	0.34778
14405	11.201	9.0909e-002	0.	3046.4
14406	11.017	5.7273	0.	3099.5
14407	10.925	5.8182	0.	3127.4
14408	11.017	5.8182	5.e-002	0.41806
14409	11.017	5.9091	0.	3097.1
14410	11.017	5.5455	0.	3095.7
14411	10.925	5.6364	0.	3122.4
14412	11.017	5.6364	5.e-002	8.3138
14413	11.017	5.3636	0.	3092.9
14414	10.925	5.4545	0.	3119.4
14415	11.017	5.4545	5.e-002	8.8365
14416	11.017	5.1818	0.	3090.3
14417	10.925	5.2727	0.	3116.6
14418	11.017	5.2727	5.e-002	8.8767
14419	11.017	5.	0.	3087.8
14420	10.925	5.0909	0.	3114.
14421	11.017	5.0909	5.e-002	8.8849
14422	11.017	4.8182	0.	3085.5
14423	10.925	4.9091	0.	3111.6
14424	11.017	4.9091	5.e-002	8.8905
14425	11.017	4.6364	0.	3083.5
14426	10.925	4.7273	0.	3109.3
14427	11.017	4.7273	5.e-002	8.8954
14428	11.017	4.4545	0.	3081.6
14429	10.925	4.5455	0.	3107.3
14430	11.017	4.5455	5.e-002	8.8998
14431	11.017	4.2727	0.	3079.9
14432	10.925	4.3636	0.	3105.4
14433	11.017	4.3636	5.e-002	8.9036
14434	11.017	4.0909	0.	3078.4
14435	10.925	4.1818	0.	3103.7
14436	11.017	4.1818	5.e-002	8.907
14437	11.017	3.9091	0.	3077.1
14438	10.925	4.	0.	3102.3
14439	11.017	4.	5.e-002	8.9098
14440	11.017	3.7273	0.	3076.
14441	10.925	3.8182	0.	3101.1
14442	11.017	3.8182	5.e-002	8.9121
14443	11.017	3.5455	0.	3075.2
14444	10.925	3.6364	0.	3100.1
14445	11.017	3.6364	5.e-002	8.914
14446	11.017	3.3636	0.	3074.6
14447	10.925	3.4545	0.	3099.4
14448	11.017	3.4545	5.e-002	8.9154
14449	11.017	3.1818	0.	3074.3
14450	10.925	3.2727	0.	3098.9
14451	11.017	3.2727	5.e-002	8.9163
14452	11.017	3.	0.	3074.2
14453	10.925	3.0909	0.	3098.6
14454	11.017	3.0909	5.e-002	8.9168
14455	11.017	2.8182	0.	3074.3
14456	10.925	2.9091	0.	3098.6
14457	11.017	2.9091	5.e-002	8.9168
14458	11.017	2.6364	0.	3074.6
14459	10.925	2.7273	0.	3098.9
14460	11.017	2.7273	5.e-002	8.9163
14461	11.017	2.4545	0.	3075.2
14462	10.925	2.5455	0.	3099.4
14463	11.017	2.5455	5.e-002	8.9154
14464	11.017	2.2727	0.	3076.
14465	10.925	2.3636	0.	3100.1
14466	11.017	2.3636	5.e-002	8.914
14467	11.017	2.0909	0.	3077.1
14468	10.925	2.1818	0.	3101.1
14469	11.017	2.1818	5.e-002	8.9121
14470	11.017	1.9091	0.	3078.4
14471	10.925	2.	0.	3102.3
14472	11.017	2.	5.e-002	8.9098
14473	11.017	1.7273	0.	3079.9
14474	10.925	1.8182	0.	3103.7
14475	11.017	1.8182	5.e-002	8.907
14476	11.017	1.5455	0.	3081.6
14477	10.925	1.6364	0.	3105.4
14478	11.017	1.6364	5.e-002	8.9036
14479	11.017	1.3636	0.	3083.5
14480	10.925	1.4545	0.	3107.3
14481	11.017	1.4545	5.e-002	8.8998
14482	11.017	1.1818	0.	3085.6
14483	10.925	1.2727	0.	3109.3
14484	11.017	1.2727	5.e-002	8.8954
14485	11.017	1.	0.	3087.8
14486	10.925	1.0909	0.	3111.6
14487	11.017	1.0909	5.e-002	8.8905
14488	11.017	0.81818	0.	3090.3
14489	10.925	0.90909	0.	3114.
14490	11.017	0.90909	5.e-002	8.8849
14491	11.017	0.63636	0.	3092.9
14492	10.925	0.72727	0.	3116.6
14493	11.017	0.72727	5.e-002	8.8767
14494	11.017	0.45455	0.	3095.7
14495	10.925	0.54545	0.	3119.4
14496	11.017	0.54545	5.e-002	8.8365
14497	11.017	0.27273	0.	3099.5
14498	10.925	0.36364	0.	3122.4
14499	11.017	0.36364	5.e-002	8.3138
14500	10.925	0.18182	0.	3127.4
14501	11.017	0.18182	5.e-002	0.41807
14502	11.017	9.0909e-002	0.	3097.1
14503	10.834	5.7273	0.	3150.1
14504	10.742	5.8182	0.	3178.2
14505	10.834	5.8182	5.e-002	0.49562
14506	10.834	5.9091	0.	3148.
14507	10.834	5.5455	0.	3146.1
14508	10.742	5.6364	0.	3173.1
14509	10.834	5.6364	5.e-002	8.3585
14510	10.834	5.3636	0.	3143.1
14511	10.742	5.4545	0.	3169.9
14512	10.834	5.4545	5.e-002	8.88
14513	10.834	5.1818	0.	3140.4
14514	10.742	5.2727	0.	3166.9
14515	10.834	5.2727	5.e-002	8.9205
14516	10.834	5.	0.	3137.8
14517	10.742	5.0909	0.	3164.1
14518	10.834	5.0909	5.e-002	8.9291
14519	10.834	4.8182	0.	3135.3
14520	10.742	4.9091	0.	3161.5
14521	10.834	4.9091	5.e-002	8.935
14522	10.834	4.6364	0.	3133.1
14523	10.742	4.7273	0.	3159.1
14524	10.834	4.7273	5.e-002	8.9402
14525	10.834	4.4545	0.	3131.1
14526	10.742	4.5455	0.	3156.9
14527	10.834	4.5455	5.e-002	8.9448
14528	10.834	4.2727	0.	3129.2
14529	10.742	4.3636	0.	3154.9
14530	10.834	4.3636	5.e-002	8.9489
14531	10.834	4.0909	0.	3127.6
14532	10.742	4.1818	0.	3153.1
14533	10.834	4.1818	5.e-002	8.9524
14534	10.834	3.9091	0.	3126.3
14535	10.742	4.	0.	3151.6
14536	10.834	4.	5.e-002	8.9553
14537	10.834	3.7273	0.	3125.1
14538	10.742	3.8182	0.	3150.3
14539	10.834	3.8182	5.e-002	8.9578
14540	10.834	3.5455	0.	3124.3
14541	10.742	3.6364	0.	3149.2
14542	10.834	3.6364	5.e-002	8.9597
14543	10.834	3.3636	0.	3123.6
14544	10.742	3.4545	0.	3148.4
14545	10.834	3.4545	5.e-002	8.9612
14546	10.834	3.1818	0.	3123.2
14547	10.742	3.2727	0.	3147.9
14548	10.834	3.2727	5.e-002	8.9621
14549	10.834	3.	0.	3123.1
14550	10.742	3.0909	0.	3147.6
14551	10.834	3.0909	5.e-002	8.9626
14552	10.834	2.8182	0.	3123.2
14553	10.742	2.9091	0.	3147.6
14554	10.834	2.9091	5.e-002	8.9626
14555	10.834	2.6364	0.	3123.6
14556	10.742	2.7273	0.	3147.9
14557	10.834	2.7273	5.e-002	8.9621
14558	10.834	2.4545	0.	3124.3
14559	10.742	2.5455	0.	3148.4
14560	10.834	2.5455	5.e-002	8.9612
14561	10.834	2.2727	0.	3125.1
14562	10.742	2.3636	0.	3149.2
14563	10.834	2.3636	5.e-002	8.9597
14564	10.834	2.0909	0.	3126.3
14565	10.742	2.1818	0.	3150.3
14566	10.834	2.1818	5.e-002	8.9578
14567	10.834	1.9091	0.	3127.6
14568	10.742	2.	0.	3151.6
14569	10.834	2.	5.e-002	8.9553
14570	10.834	1.7273	0.	3129.2
14571	10.742	1.8182	0.	3153.1
14572	10.834	1.8182	5.e-002	8.9524
14573	10.834	1.5455	0.	3131.1
14574	10.742	1.6364	0.	3154.9
14575	10.834	1.6364	5.e-002	8.9489
14576	10.834	1.3636	0.	3133.1
14577	10.742	1.4545	0.	3156.9
14578	10.834	1.4545	5.e-002	8.9448
14579	10.834	1.1818	0.	3135.3
14580	10.742	1.2727	0.	3159.1
14581	10.834	1.2727	5.e-002	8.9402
14582	10.834	1.	0.	3137.8
14583	10.742	1.0909	0.	3161.5
14584	10.834	1.0909	5.e-002	8.935
14585	10.834	0.81818	0.	3140.4
14586	10.742	0.90909	0.	3164.1
14587	10.834	0.90909	5.e-002	8.9291
14588	10.834	0.63636	0.	3143.1
14589	10.742	0.72727	0.	3166.9
14590	10.834	0.72727	5.e-002	8.9205
14591	10.834	0.45455	0.	3146.1
14592	10.742	0.54545	0.	3169.9
14593	10.834	0.54545	5.e-002	8.88
14594	10.834	0.27273	0.	3150.1
14595	10.742	0.36364	0.	3173.1
14596	10.834	0.36364	5.e-002	8.3585
14597	10.742	0.18182	0.	3178.2
14598	10.834	0.18182	5.e-002	0.49563
14599	10.834	9.0909e-002	0.	3148.
14600	10.65	5.7273	0.	3201.
14601	10.558	5.8182	0.	3229.2
14602	10.65	5.8182	5.e-002	0.58097
14603	10.65	5.9091	0.	3199.1
14604	10.65	5.5455	0.	3196.8
14605	10.558	5.6364	0.	3223.9
14606	10.65	5.6364	5.e-002	8.4048
14607	10.65	5.3636	0.	3193.6
14608	10.558	5.4545	0.	3220.5
14609	10.65	5.4545	5.e-002	8.9247
14610	10.65	5.1818	0.	3190.7
14611	10.558	5.2727	0.	3217.4
14612	10.65	5.2727	5.e-002	8.9656
14613	10.65	5.	0.	3187.9
14614	10.558	5.0909	0.	3214.4
14615	10.65	5.0909	5.e-002	8.9745
14616	10.65	4.8182	0.	3185.3
14617	10.558	4.9091	0.	3211.6
14618	10.65	4.9091	5.e-002	8.9808
14619	10.65	4.6364	0.	3182.9
14620	10.558	4.7273	0.	3209.
14621	10.65	4.7273	5.e-002	8.9862
14622	10.65	4.4545	0.	3180.7
14623	10.558	4.5455	0.	3206.7
14624	10.65	4.5455	5.e-002	8.9911
14625	10.65	4.2727	0.	3178.7
14626	10.558	4.3636	0.	3204.5
14627	10.65	4.3636	5.e-002	8.9954
14628	10.65	4.0909	0.	3177.
14629	10.558	4.1818	0.	3202.6
14630	10.65	4.1818	5.e-002	8.9991
14631	10.65	3.9091	0.	3175.6
14632	10.558	4.	0.	3200.9
14633	10.65	4.	5.e-002	9.0022
14634	10.65	3.7273	0.	3174.3
14635	10.558	3.8182	0.	3199.6
14636	10.65	3.8182	5.e-002	9.0048
14637	10.65	3.5455	0.	3173.4
14638	10.558	3.6364	0.	3198.4
14639	10.65	3.6364	5.e-002	9.0068
14640	10.65	3.3636	0.	3172.7
14641	10.558	3.4545	0.	3197.6
14642	10.65	3.4545	5.e-002	9.0083
14643	10.65	3.1818	0.	3172.3
14644	10.558	3.2727	0.	3197.
14645	10.65	3.2727	5.e-002	9.0093
14646	10.65	3.	0.	3172.2
14647	10.558	3.0909	0.	3196.7
14648	10.65	3.0909	5.e-002	9.0098
14649	10.65	2.8182	0.	3172.3
14650	10.558	2.9091	0.	3196.7
14651	10.65	2.9091	5.e-002	9.0098
14652	10.65	2.6364	0.	3172.7
14653	10.558	2.7273	0.	3197.
14654	10.65	2.7273	5.e-002	9.0093
14655	10.65	2.4545	0.	3173.4
14656	10.558	2.5455	0.	3197.6
14657	10.65	2.5455	5.e-002	9.0083
14658	10.65	2.2727	0.	3174.3
14659	10.558	2.3636	0.	3198.4
14660	10.65	2.3636	5.e-002	9.0068
14661	10.65	2.0909	0.	3175.6
14662	10.558	2.1818	0.	3199.6
14663	10.65	2.1818	5.e-002	9.0048
14664	10.65	1.9091	0.	3177.
14665	10.558	2.	0.	3200.9
14666	10.65	2.	5.e-002	9.0022
14667	10.65	1.7273	0.	3178.7
14668	10.558	1.8182	0.	3202.6
14669	10.65	1.8182	5.e-002	8.9991
14670	10.65	1.5455	0.	3180.7
14671	10.558	1.6364	0.	3204.5
14672	10.65	1.6364	5.e-002	8.9954
14673	10.65	1.3636	0.	3182.9
14674	10.558	1.4545	0.	3206.7
14675	10.65	1.4545	5.e-002	8.9911
14676	10.65	1.1818	0.	3185.3
14677	10.558	1.2727	0.	3209.
14678	10.65	1.2727	5.e-002	8.9862
14679	10.65	1.	0.	3187.9
14680	10.558	1.0909	0.	3211.6
14681	10.65	1.0909	5.e-002	8.9808
14682	10.65	0.81818	0.	3190.7
14683	10.558	0.90909	0.	3214.4
14684	10.65	0.90909	5.e-002	8.9745
14685	10.65	0.63636	0.	3193.6
14686	10.558	0.72727	0.	3217.4
14687	10.65	0.72727	5.e-002	8.9656
14688	10.65	0.45455	0.	3196.8
14689	10.558	0.54545	0.	3220.5
14690	10.65	0.54545	5.e-002	8.9247
14691	10.65	0.27273	0.	3201.
14692	10.558	0.36364	0.	3223.9
14693	10.65	0.36364	5.e-002	8.4048
14694	10.558	0.18182	0.	3229.2
14695	10.65	0.18182	5.e-002	0.58097
14696	10.65	9.0909e-002	0.	3199.1
14697	10.466	5.7273	0.	3252.
14698	10.375	5.8182	0.	3280.5
14699	10.466	5.8182	5.e-002	0.67447
14700	10.466	5.9091	0.	3250.5
14701	10.466	5.5455	0.	3247.6
14702	10.375	5.6364	0.	3275.
14703	10.466	5.6364	5.e-002	8.4526
14704	10.466	5.3636	0.	3244.3
14705	10.375	5.4545	0.	3271.4
14706	10.466	5.4545	5.e-002	8.9706
14707	10.466	5.1818	0.	3241.1
14708	10.375	5.2727	0.	3268.
14709	10.466	5.2727	5.e-002	9.0118
14710	10.466	5.	0.	3238.1
14711	10.375	5.0909	0.	3264.8
14712	10.466	5.0909	5.e-002	9.0211
14713	10.466	4.8182	0.	3235.3
14714	10.375	4.9091	0.	3261.8
14715	10.466	4.9091	5.e-002	9.0277
14716	10.466	4.6364	0.	3232.8
14717	10.375	4.7273	0.	3259.1
14718	10.466	4.7273	5.e-002	9.0335
14719	10.466	4.4545	0.	3230.4
14720	10.375	4.5455	0.	3256.5
14721	10.466	4.5455	5.e-002	9.0387
14722	10.466	4.2727	0.	3228.3
14723	10.375	4.3636	0.	3254.2
14724	10.466	4.3636	5.e-002	9.0432
14725	10.466	4.0909	0.	3226.5
14726	10.375	4.1818	0.	3252.2
14727	10.466	4.1818	5.e-002	9.047
14728	10.466	3.9091	0.	3224.9
14729	10.375	4.	0.	3250.4
14730	10.466	4.	5.e-002	9.0503
14731	10.466	3.7273	0.	3223.6
14732	10.375	3.8182	0.	3248.9
14733	10.466	3.8182	5.e-002	9.053
14734	10.466	3.5455	0.	3222.6
14735	10.375	3.6364	0.	3247.7
14736	10.466	3.6364	5.e-002	9.0551
14737	10.466	3.3636	0.	3221.9
14738	10.375	3.4545	0.	3246.8
14739	10.466	3.4545	5.e-002	9.0567
14740	10.466	3.1818	0.	3221.4
14741	10.375	3.2727	0.	3246.2
14742	10.466	3.2727	5.e-002	9.0577
14743	10.466	3.	0.	3221.3
14744	10.375	3.0909	0.	3245.9
14745	10.466	3.0909	5.e-002	9.0582
14746	10.466	2.8182	0.	3221.4
14747	10.375	2.9091	0.	3245.9
14748	10.466	2.9091	5.e-002	9.0582
14749	10.466	2.6364	0.	3221.9
14750	10.375	2.7273	0.	3246.2
14751	10.466	2.7273	5.e-002	9.0577
14752	10.466	2.4545	0.	3222.6
14753	10.375	2.5455	0.	3246.8
14754	10.466	2.5455	5.e-002	9.0567
14755	10.466	2.2727	0.	3223.6
14756	10.375	2.3636	0.	3247.7
14757	10.466	2.3636	5.e-002	9.0551
14758	10.466	2.0909	0.	3224.9
14759	10.375	2.1818	0.	3248.9
14760	10.466	2.1818	5.e-002	9.053
14761	10.466	1.9091	0.	3226.5
14762	10.375	2.	0.	3250.4
14763	10.466	2.	5.e-002	9.0503
14764	10.466	1.7273	0.	3228.3
14765	10.375	1.8182	0.	3252.2
14766	10.466	1.8182	5.e-002	9.047
14767	10.466	1.5455	0.	3230.4
14768	10.375	1.6364	0.	3254.2
14769	10.466	1.6364	5.e-002	9.0432
14770	10.466	1.3636	0.	3232.8
14771	10.375	1.4545	0.	3256.5
14772	10.466	1.4545	5.e-002	9.0387
14773	10.466	1.1818	0.	3235.3
14774	10.375	1.2727	0.	3259.1
14775	10.466	1.2727	5.e-002	9.0335
14776	10.466	1.	0.	3238.1
14777	10.375	1.0909	0.	3261.8
14778	10.466	1.0909	5.e-002	9.0277
14779	10.466	0.81818	0.	3241.1
14780	10.375	0.90909	0.	3264.8
14781	10.466	0.90909	5.e-002	9.0211
14782	10.466	0.63636	0.	3244.3
14783	10.375	0.72727	0.	3268.
14784	10.466	0.72727	5.e-002	9.0118
14785	10.466	0.45455	0.	3247.6
14786	10.375	0.54545	0.	3271.4
14787	10.466	0.54545	5.e-002	8.9706
14788	10.466	0.27273	0.	3252.
14789	10.375	0.36364	0.	3275.
14790	10.466	0.36364	5.e-002	8.4526
14791	10.375	0.18182	0.	3280.5
14792	10.466	0.18182	5.e-002	0.67448
14793	10.466	9.0909e-002	0.	3250.5
14794	10.283	5.7273	0.	3303.3
14795	10.191	5.8182	0.	3331.9
14796	10.283	5.8182	5.e-002	0.7766
14797	10.283	5.9091	0.	3302.1
14798	10.283	5.5455	0.	3298.7
14799	10.191	5.6364	0.	3326.3
14800	10.283	5.6364	5.e-002	8.502
14801	10.283	5.3636	0.	3295.1
14802	10.191	5.4545	0.	3322.4
14803	10.283	5.4545	5.e-002	9.0176
14804	10.283	5.1818	0.	3291.7
14805	10.191	5.2727	0.	3318.8
14806	10.283	5.2727	5.e-002	9.0591
14807	10.283	5.	0.	3288.5
14808	10.191	5.0909	0.	3315.4
14809	10.283	5.0909	5.e-002	9.0689
14810	10.283	4.8182	0.	3285.6
14811	10.191	4.9091	0.	3312.2
14812	10.283	4.9091	5.e-002	9.0759
14813	10.283	4.6364	0.	3282.8
14814	10.191	4.7273	0.	3309.2
14815	10.283	4.7273	5.e-002	9.082
14816	10.283	4.4545	0.	3280.3
14817	10.191	4.5455	0.	3306.5
14818	10.283	4.5455	5.e-002	9.0875
14819	10.283	4.2727	0.	3278.
14820	10.191	4.3636	0.	3304.
14821	10.283	4.3636	5.e-002	9.0922
14822	10.283	4.0909	0.	3276.1
14823	10.191	4.1818	0.	3301.8
14824	10.283	4.1818	5.e-002	9.0962
14825	10.283	3.9091	0.	3274.4
14826	10.191	4.	0.	3299.9
14827	10.283	4.	5.e-002	9.0996
14828	10.283	3.7273	0.	3273.
14829	10.191	3.8182	0.	3298.3
14830	10.283	3.8182	5.e-002	9.1024
14831	10.283	3.5455	0.	3271.9
14832	10.191	3.6364	0.	3297.
14833	10.283	3.6364	5.e-002	9.1047
14834	10.283	3.3636	0.	3271.1
14835	10.191	3.4545	0.	3296.
14836	10.283	3.4545	5.e-002	9.1063
14837	10.283	3.1818	0.	3270.6
14838	10.191	3.2727	0.	3295.4
14839	10.283	3.2727	5.e-002	9.1074
14840	10.283	3.	0.	3270.4
14841	10.191	3.0909	0.	3295.1
14842	10.283	3.0909	5.e-002	9.1079
14843	10.283	2.8182	0.	3270.6
14844	10.191	2.9091	0.	3295.1
14845	10.283	2.9091	5.e-002	9.1079
14846	10.283	2.6364	0.	3271.1
14847	10.191	2.7273	0.	3295.4
14848	10.283	2.7273	5.e-002	9.1074
14849	10.283	2.4545	0.	3271.9
14850	10.191	2.5455	0.	3296.
14851	10.283	2.5455	5.e-002	9.1063
14852	10.283	2.2727	0.	3273.
14853	10.191	2.3636	0.	3297.
14854	10.283	2.3636	5.e-002	9.1047
14855	10.283	2.0909	0.	3274.4
14856	10.191	2.1818	0.	3298.3
14857	10.283	2.1818	5.e-002	9.1024
14858	10.283	1.9091	0.	3276.1
14859	10.191	2.	0.	3299.9
14860	10.283	2.	5.e-002	9.0996
14861	10.283	1.7273	0.	3278.
14862	10.191	1.8182	0.	3301.8
14863	10.283	1.8182	5.e-002	9.0962
14864	10.283	1.5455	0.	3280.3
14865	10.191	1.6364	0.	3304.
14866	10.283	1.6364	5.e-002	9.0922
14867	10.283	1.3636	0.	3282.8
14868	10.191	1.4545	0.	3306.5
14869	10.283	1.4545	5.e-002	9.0875
14870	10.283	1.1818	0.	3285.6
14871	10.191	1.2727	0.	3309.2
14872	10.283	1.2727	5.e-002	9.082
14873	10.283	1.	0.	3288.5
14874	10.191	1.0909	0.	3312.2
14875	10.283	1.0909	5.e-002	9.0759
14876	10.283	0.81818	0.	3291.7
14877	10.191	0.90909	0.	3315.4
14878	10.283	0.90909	5.e-002	9.0689
14879	10.283	0.63636	0.	3295.1
14880	10.191	0.72727	0.	3318.8
14881	10.283	0.72727	5.e-002	9.0591
14882	10.283	0.45455	0.	3298.7
14883	10.191	0.54545	0.	3322.4
14884	10.283	0.54545	5.e-002	9.0176
14885	10.283	0.27273	0.	3303.3
14886	10.191	0.36364	0.	3326.3
14887	10.283	0.36364	5.e-002	8.502
14888	10.191	0.18182	0.	3331.9
14889	10.283	0.18182	5.e-002	0.7766
14890	10.283	9.0909e-002	0.	3302.1
14891	10.099	5.7273	0.	3354.8
14892	10.007	5.8182	0.	3383.6
14893	10.099	5.8182	5.e-002	0.88809
14894	10.099	5.9091	0.	3353.9
14895	10.099	5.5455	0.	3349.9
14896	10.007	5.6364	0.	3377.7
14897	10.099	5.6364	5.e-002	8.5532
14898	10.099	5.3636	0.	3346.1
14899	10.007	5.4545	0.	3373.6
14900	10.099	5.4545	5.e-002	9.0661
14901	10.099	5.1818	0.	3342.5
14902	10.007	5.2727	0.	3369.8
14903	10.099	5.2727	5.e-002	9.1079
14904	10.099	5.	0.	3339.1
14905	10.007	5.0909	0.	3366.1
14906	10.099	5.0909	5.e-002	9.1181
14907	10.099	4.8182	0.	3335.9
14908	10.007	4.9091	0.	3362.7
14909	10.099	4.9091	5.e-002	9.1255
14910	10.099	4.6364	0.	3332.9
14911	10.007	4.7273	0.	3359.5
14912	10.099	4.7273	5.e-002	9.132
14913	10.099	4.4545	0.	3330.2
14914	10.007	4.5455	0.	3356.6
14915	10.099	4.5455	5.e-002	9.1377
14916	10.099	4.2727	0.	3327.8
14917	10.007	4.3636	0.	3353.9
14918	10.099	4.3636	5.e-002	9.1426
14919	10.099	4.0909	0.	3325.7
14920	10.007	4.1818	0.	3351.6
14921	10.099	4.1818	5.e-002	9.1469
14922	10.099	3.9091	0.	3323.9
14923	10.007	4.	0.	3349.5
14924	10.099	4.	5.e-002	9.1504
14925	10.099	3.7273	0.	3322.4
14926	10.007	3.8182	0.	3347.8
14927	10.099	3.8182	5.e-002	9.1534
14928	10.099	3.5455	0.	3321.2
14929	10.007	3.6364	0.	3346.4
14930	10.099	3.6364	5.e-002	9.1556
14931	10.099	3.3636	0.	3320.3
14932	10.007	3.4545	0.	3345.3
14933	10.099	3.4545	5.e-002	9.1573
14934	10.099	3.1818	0.	3319.8
14935	10.007	3.2727	0.	3344.6
14936	10.099	3.2727	5.e-002	9.1585
14937	10.099	3.	0.	3319.6
14938	10.007	3.0909	0.	3344.3
14939	10.099	3.0909	5.e-002	9.159
14940	10.099	2.8182	0.	3319.8
14941	10.007	2.9091	0.	3344.3
14942	10.099	2.9091	5.e-002	9.159
14943	10.099	2.6364	0.	3320.3
14944	10.007	2.7273	0.	3344.6
14945	10.099	2.7273	5.e-002	9.1585
14946	10.099	2.4545	0.	3321.2
14947	10.007	2.5455	0.	3345.3
14948	10.099	2.5455	5.e-002	9.1573
14949	10.099	2.2727	0.	3322.4
14950	10.007	2.3636	0.	3346.4
14951	10.099	2.3636	5.e-002	9.1556
14952	10.099	2.0909	0.	3323.9
14953	10.007	2.1818	0.	3347.8
14954	10.099	2.1818	5.e-002	9.1534
14955	10.099	1.9091	0.	3325.7
14956	10.007	2.	0.	3349.5
14957	10.099	2.	5.e-002	9.1504
14958	10.099	1.7273	0.	3327.8
14959	10.007	1.8182	0.	3351.6
14960	10.099	1.8182	5.e-002	9.1469
14961	10.099	1.5455	0.	3330.2
14962	10.007	1.6364	0.	3353.9
14963	10.099	1.6364	5.e-002	9.1426
14964	10.099	1.3636	0.	3332.9
14965	10.007	1.4545	0.	3356.6
14966	10.099	1.4545	5.e-002	9.1377
14967	10.099	1.1818	0.	3335.9
14968	10.007	1.2727	0.	3359.5
14969	10.099	1.2727	5.e-002	9.132
14970	10.099	1.	0.	3339.1
14971	10.007	1.0909	0.	3362.7
14972	10.099	1.0909	5.e-002	9.1255
14973	10.099	0.81818	0.	3342.5
14974	10.007	0.90909	0.	3366.1
14975	10.099	0.90909	5.e-002	9.1181
14976	10.099	0.63636	0.	3346.1
14977	10.007	0.72727	0.	3369.8
14978	10.099	0.72727	5.e-002	9.1079
14979	10.099	0.45455	0.	3349.9
14980	10.007	0.54545	0.	3373.6
14981	10.099	0.54545	5.e-002	9.0661
14982	10.099	0.27273	0.	3354.8
14983	10.007	0.36364	0.	3377.7
14984	10.099	0.36364	5.e-002	8.5532
14985	10.007	0.18182	0.	3383.6
14986	10.099	0.18182	5.e-002	0.88809
14987	10.099	9.0909e-002	0.	3353.9
14988	9.9155	5.7273	0.	3406.4
14989	9.8237	5.8182	0.	3435.5
14990	9.9155	5.8182	5.e-002	1.0096
14991	9.9155	5.9091	0.	3406.
14992	9.9155	5.5455	0.	3401.4
14993	9.8237	5.6364	0.	3429.4
14994	9.9155	5.6364	5.e-002	8.6064
14995	9.9155	5.3636	0.	3397.3
14996	9.8237	5.4545	0.	3425.
14997	9.9155	5.4545	5.e-002	9.116
14998	9.9155	5.1818	0.	3393.4
14999	9.8237	5.2727	0.	3420.9
15000	9.9155	5.2727	5.e-002	9.1581
15001	9.9155	5.	0.	3389.8
15002	9.8237	5.0909	0.	3417.
15003	9.9155	5.0909	5.e-002	9.1688
15004	9.9155	4.8182	0.	3386.3
15005	9.8237	4.9091	0.	3413.3
15006	9.9155	4.9091	5.e-002	9.1766
15007	9.9155	4.6364	0.	3383.2
15008	9.8237	4.7273	0.	3409.9
15009	9.9155	4.7273	5.e-002	9.1835
15010	9.9155	4.4545	0.	3380.3
15011	9.8237	4.5455	0.	3406.8
15012	9.9155	4.5455	5.e-002	9.1895
15013	9.9155	4.2727	0.	3377.7
15014	9.8237	4.3636	0.	3403.9
15015	9.9155	4.3636	5.e-002	9.1946
15016	9.9155	4.0909	0.	3375.4
15017	9.8237	4.1818	0.	3401.4
15018	9.9155	4.1818	5.e-002	9.1991
15019	9.9155	3.9091	0.	3373.4
15020	9.8237	4.	0.	3399.2
15021	9.9155	4.	5.e-002	9.2028
15022	9.9155	3.7273	0.	3371.8
15023	9.8237	3.8182	0.	3397.3
15024	9.9155	3.8182	5.e-002	9.2058
15025	9.9155	3.5455	0.	3370.5
15026	9.8237	3.6364	0.	3395.8
15027	9.9155	3.6364	5.e-002	9.2082
15028	9.9155	3.3636	0.	3369.6
15029	9.8237	3.4545	0.	3394.7
15030	9.9155	3.4545	5.e-002	9.2099
15031	9.9155	3.1818	0.	3369.1
15032	9.8237	3.2727	0.	3393.9
15033	9.9155	3.2727	5.e-002	9.2111
15034	9.9155	3.	0.	3368.9
15035	9.8237	3.0909	0.	3393.5
15036	9.9155	3.0909	5.e-002	9.2116
15037	9.9155	2.8182	0.	3369.1
15038	9.8237	2.9091	0.	3393.5
15039	9.9155	2.9091	5.e-002	9.2116
15040	9.9155	2.6364	0.	3369.6
15041	9.8237	2.7273	0.	3393.9
15042	9.9155	2.7273	5.e-002	9.2111
15043	9.9155	2.4545	0.	3370.5
15044	9.8237	2.5455	0.	3394.7
15045	9.9155	2.5455	5.e-002	9.2099
15046	9.9155	2.2727	0.	3371.8
15047	9.8237	2.3636	0.	3395.8
15048	9.9155	2.3636	5.e-002	9.2082
15049	9.9155	2.0909	0.	3373.4
15050	9.8237	2.1818	0.	3397.3
15051	9.9155	2.1818	5.e-002	9.2058
15052	9.9155	1.9091	0.	3375.4
15053	9.8237	2.	0.	3399.2
15054	9.9155	2.	5.e-002	9.2028
15055	9.9155	1.7273	0.	3377.7
15056	9.8237	1.8182	0.	3401.4
15057	9.9155	1.8182	5.e-002	9.1991
15058	9.9155	1.5455	0.	3380.3
15059	9.8237	1.6364	0.	3403.9
15060	9.9155	1.6364	5.e-002	9.1946
15061	9.9155	1.3636	0.	3383.2
15062	9.8237	1.4545	0.	3406.8
15063	9.9155	1.4545	5.e-002	9.1895
15064	9.9155	1.1818	0.	3386.3
15065	9.8237	1.2727	0.	3409.9
15066	9.9155	1.2727	5.e-002	9.1835
15067	9.9155	1.	0.	3389.8
15068	9.8237	1.0909	0.	3413.3
15069	9.9155	1.0909	5.e-002	9.1766
15070	9.9155	0.81818	0.	3393.4
15071	9.8237	0.90909	0.	3417.
15072	9.9155	0.90909	5.e-002	9.1688
15073	9.9155	0.63636	0.	3397.3
15074	9.8237	0.72727	0.	3420.9
15075	9.9155	0.72727	5.e-002	9.1581
15076	9.9155	0.45455	0.	3401.4
15077	9.8237	0.54545	0.	3425.
15078	9.9155	0.54545	5.e-002	9.116
15079	9.9155	0.27273	0.	3406.4
15080	9.8237	0.36364	0.	3429.4
15081	9.9155	0.36364	5.e-002	8.6064
15082	9.8237	0.18182	0.	3435.5
15083	9.9155	0.18182	5.e-002	1.0096
15084	9.9155	9.0909e-002	0.	3406.
15085	9.7319	5.7273	0.	3458.3
15086	9.6401	5.8182	0.	3487.6
15087	9.7319	5.8182	5.e-002	1.142
15088	9.7319	5.9091	0.	3458.3
15089	9.7319	5.5455	0.	3453.
15090	9.6401	5.6364	0.	3481.3
15091	9.7319	5.6364	5.e-002	8.6618
15092	9.7319	5.3636	0.	3448.6
15093	9.6401	5.4545	0.	3476.6
15094	9.7319	5.4545	5.e-002	9.1675
15095	9.7319	5.1818	0.	3444.5
15096	9.6401	5.2727	0.	3472.2
15097	9.7319	5.2727	5.e-002	9.21
15098	9.7319	5.	0.	3440.6
15099	9.6401	5.0909	0.	3468.
15100	9.7319	5.0909	5.e-002	9.2212
15101	9.7319	4.8182	0.	3436.9
15102	9.6401	4.9091	0.	3464.1
15103	9.7319	4.9091	5.e-002	9.2295
15104	9.7319	4.6364	0.	3433.5
15105	9.6401	4.7273	0.	3460.4
15106	9.7319	4.7273	5.e-002	9.2367
15107	9.7319	4.4545	0.	3430.4
15108	9.6401	4.5455	0.	3457.
15109	9.7319	4.5455	5.e-002	9.2429
15110	9.7319	4.2727	0.	3427.6
15111	9.6401	4.3636	0.	3454.
15112	9.7319	4.3636	5.e-002	9.2484
15113	9.7319	4.0909	0.	3425.1
15114	9.6401	4.1818	0.	3451.2
15115	9.7319	4.1818	5.e-002	9.253
15116	9.7319	3.9091	0.	3423.
15117	9.6401	4.	0.	3448.9
15118	9.7319	4.	5.e-002	9.2568
15119	9.7319	3.7273	0.	3421.3
15120	9.6401	3.8182	0.	3446.9
15121	9.7319	3.8182	5.e-002	9.2599
15122	9.7319	3.5455	0.	3419.9
15123	9.6401	3.6364	0.	3445.2
15124	9.7319	3.6364	5.e-002	9.2624
15125	9.7319	3.3636	0.	3418.9
15126	9.6401	3.4545	0.	3444.
15127	9.7319	3.4545	5.e-002	9.2642
15128	9.7319	3.1818	0.	3418.3
15129	9.6401	3.2727	0.	3443.2
15130	9.7319	3.2727	5.e-002	9.2654
15131	9.7319	3.	0.	3418.1
15132	9.6401	3.0909	0.	3442.8
15133	9.7319	3.0909	5.e-002	9.266
15134	9.7319	2.8182	0.	3418.3
15135	9.6401	2.9091	0.	3442.8
15136	9.7319	2.9091	5.e-002	9.266
15137	9.7319	2.6364	0.	3418.9
15138	9.6401	2.7273	0.	3443.2
15139	9.7319	2.7273	5.e-002	9.2654
15140	9.7319	2.4545	0.	3419.9
15141	9.6401	2.5455	0.	3444.
15142	9.7319	2.5455	5.e-002	9.2642
15143	9.7319	2.2727	0.	3421.3
15144	9.6401	2.3636	0.	3445.2
15145	9.7319	2.3636	5.e-002	9.2624
15146	9.7319	2.0909	0.	3423.
15147	9.6401	2.1818	0.	3446.9
15148	9.7319	2.1818	5.e-002	9.2599
15149	9.7319	1.9091	0.	3425.1
15150	9.6401	2.	0.	3448.9
15151	9.7319	2.	5.e-002	9.2568
15152	9.7319	1.7273	0.	3427.6
15153	9.6401	1.8182	0.	3451.2
15154	9.7319	1.8182	5.e-002	9.253
15155	9.7319	1.5455	0.	3430.4
15156	9.6401	1.6364	0.	3454.
15157	9.7319	1.6364	5.e-002	9.2484
15158	9.7319	1.3636	0.	3433.5
15159	9.6401	1.4545	0.	3457.
15160	9.7319	1.4545	5.e-002	9.2429
15161	9.7319	1.1818	0.	3436.9
15162	9.6401	1.2727	0.	3460.4
15163	9.7319	1.2727	5.e-002	9.2367
15164	9.7319	1.	0.	3440.6
15165	9.6401	1.0909	0.	3464.1
15166	9.7319	1.0909	5.e-002	9.2295
15167	9.7319	0.81818	0.	3444.5
15168	9.6401	0.90909	0.	3468.
15169	9.7319	0.90909	5.e-002	9.2212
15170	9.7319	0.63636	0.	3448.6
15171	9.6401	0.72727	0.	3472.2
15172	9.7319	0.72727	5.e-002	9.21
15173	9.7319	0.45455	0.	3453.
15174	9.6401	0.54545	0.	3476.6
15175	9.7319	0.54545	5.e-002	9.1675
15176	9.7319	0.27273	0.	3458.3
15177	9.6401	0.36364	0.	3481.3
15178	9.7319	0.36364	5.e-002	8.6618
15179	9.6401	0.18182	0.	3487.6
15180	9.7319	0.18182	5.e-002	1.142
15181	9.7319	9.0909e-002	0.	3458.3
15182	9.5483	5.7273	0.	3510.5
15183	9.4565	5.8182	0.	3540.
15184	9.5483	5.8182	5.e-002	1.2861
15185	9.5483	5.9091	0.	3510.9
15186	9.5483	5.5455	0.	3504.8
15187	9.4565	5.6364	0.	3533.4
15188	9.5483	5.6364	5.e-002	8.7196
15189	9.5483	5.3636	0.	3500.2
15190	9.4565	5.4545	0.	3528.4
15191	9.5483	5.4545	5.e-002	9.221
15192	9.5483	5.1818	0.	3495.7
15193	9.4565	5.2727	0.	3523.7
15194	9.5483	5.2727	5.e-002	9.2638
15195	9.5483	5.	0.	3491.5
15196	9.4565	5.0909	0.	3519.2
15197	9.5483	5.0909	5.e-002	9.2755
15198	9.5483	4.8182	0.	3487.6
15199	9.4565	4.9091	0.	3514.9
15200	9.5483	4.9091	5.e-002	9.2842
15201	9.5483	4.6364	0.	3483.9
15202	9.4565	4.7273	0.	3511.
15203	9.5483	4.7273	5.e-002	9.2918
15204	9.5483	4.4545	0.	3480.6
15205	9.4565	4.5455	0.	3507.4
15206	9.5483	4.5455	5.e-002	9.2984
15207	9.5483	4.2727	0.	3477.6
15208	9.4565	4.3636	0.	3504.1
15209	9.5483	4.3636	5.e-002	9.304
15210	9.5483	4.0909	0.	3474.9
15211	9.4565	4.1818	0.	3501.1
15212	9.5483	4.1818	5.e-002	9.3088
15213	9.5483	3.9091	0.	3472.7
15214	9.4565	4.	0.	3498.6
15215	9.5483	4.	5.e-002	9.3128
15216	9.5483	3.7273	0.	3470.8
15217	9.4565	3.8182	0.	3496.4
15218	9.5483	3.8182	5.e-002	9.316
15219	9.5483	3.5455	0.	3469.3
15220	9.4565	3.6364	0.	3494.7
15221	9.5483	3.6364	5.e-002	9.3185
15222	9.5483	3.3636	0.	3468.3
15223	9.4565	3.4545	0.	3493.4
15224	9.5483	3.4545	5.e-002	9.3203
15225	9.5483	3.1818	0.	3467.6
15226	9.4565	3.2727	0.	3492.5
15227	9.5483	3.2727	5.e-002	9.3215
15228	9.5483	3.	0.	3467.4
15229	9.4565	3.0909	0.	3492.
15230	9.5483	3.0909	5.e-002	9.3221
15231	9.5483	2.8182	0.	3467.6
15232	9.4565	2.9091	0.	3492.
15233	9.5483	2.9091	5.e-002	9.3221
15234	9.5483	2.6364	0.	3468.3
15235	9.4565	2.7273	0.	3492.5
15236	9.5483	2.7273	5.e-002	9.3215
15237	9.5483	2.4545	0.	3469.3
15238	9.4565	2.5455	0.	3493.4
15239	9.5483	2.5455	5.e-002	9.3203
15240	9.5483	2.2727	0.	3470.8
15241	9.4565	2.3636	0.	3494.7
15242	9.5483	2.3636	5.e-002	9.3185
15243	9.5483	2.0909	0.	3472.7
15244	9.4565	2.1818	0.	3496.4
15245	9.5483	2.1818	5.e-002	9.316
15246	9.5483	1.9091	0.	3474.9
15247	9.4565	2.	0.	3498.6
15248	9.5483	2.	5.e-002	9.3128
15249	9.5483	1.7273	0.	3477.6
15250	9.4565	1.8182	0.	3501.1
15251	9.5483	1.8182	5.e-002	9.3088
15252	9.5483	1.5455	0.	3480.6
15253	9.4565	1.6364	0.	3504.1
15254	9.5483	1.6364	5.e-002	9.304
15255	9.5483	1.3636	0.	3483.9
15256	9.4565	1.4545	0.	3507.4
15257	9.5483	1.4545	5.e-002	9.2984
15258	9.5483	1.1818	0.	3487.6
15259	9.4565	1.2727	0.	3511.
15260	9.5483	1.2727	5.e-002	9.2918
15261	9.5483	1.	0.	3491.5
15262	9.4565	1.0909	0.	3514.9
15263	9.5483	1.0909	5.e-002	9.2842
15264	9.5483	0.81818	0.	3495.7
15265	9.4565	0.90909	0.	3519.2
15266	9.5483	0.90909	5.e-002	9.2755
15267	9.5483	0.63636	0.	3500.2
15268	9.4565	0.72727	0.	3523.7
15269	9.5483	0.72727	5.e-002	9.2638
15270	9.5483	0.45455	0.	3504.8
15271	9.4565	0.54545	0.	3528.4
15272	9.5483	0.54545	5.e-002	9.221
15273	9.5483	0.27273	0.	3510.5
15274	9.4565	0.36364	0.	3533.4
15275	9.5483	0.36364	5.e-002	8.7196
15276	9.4565	0.18182	0.	3540.
15277	9.5483	0.18182	5.e-002	1.2862
15278	9.5483	9.0909e-002	0.	3510.9
15279	9.3647	5.7273	0.	3562.8
15280	9.2728	5.8182	0.	3592.6
15281	9.3647	5.8182	5.e-002	1.4429
15282	9.3647	5.9091	0.	3563.7
15283	9.3647	5.5455	0.	3556.9
15284	9.2728	5.6364	0.	3585.7
15285	9.3647	5.6364	5.e-002	8.7801
15286	9.3647	5.3636	0.	3551.9
15287	9.2728	5.4545	0.	3580.3
15288	9.3647	5.4545	5.e-002	9.2766
15289	9.3647	5.1818	0.	3547.1
15290	9.2728	5.2727	0.	3575.3
15291	9.3647	5.2727	5.e-002	9.3196
15292	9.3647	5.	0.	3542.6
15293	9.2728	5.0909	0.	3570.5
15294	9.3647	5.0909	5.e-002	9.3319
15295	9.3647	4.8182	0.	3538.3
15296	9.2728	4.9091	0.	3565.9
15297	9.3647	4.9091	5.e-002	9.3411
15298	9.3647	4.6364	0.	3534.4
15299	9.2728	4.7273	0.	3561.7
15300	9.3647	4.7273	5.e-002	9.349
15301	9.3647	4.4545	0.	3530.8
15302	9.2728	4.5455	0.	3557.8
15303	9.3647	4.5455	5.e-002	9.3559
15304	9.3647	4.2727	0.	3527.6
15305	9.2728	4.3636	0.	3554.2
15306	9.3647	4.3636	5.e-002	9.3617
15307	9.3647	4.0909	0.	3524.8
15308	9.2728	4.1818	0.	3551.1
15309	9.3647	4.1818	5.e-002	9.3667
15310	9.3647	3.9091	0.	3522.3
15311	9.2728	4.	0.	3548.3
15312	9.3647	4.	5.e-002	9.3708
15313	9.3647	3.7273	0.	3520.3
15314	9.2728	3.8182	0.	3546.
15315	9.3647	3.8182	5.e-002	9.374
15316	9.3647	3.5455	0.	3518.7
15317	9.2728	3.6364	0.	3544.1
15318	9.3647	3.6364	5.e-002	9.3766
15319	9.3647	3.3636	0.	3517.6
15320	9.2728	3.4545	0.	3542.7
15321	9.3647	3.4545	5.e-002	9.3785
15322	9.3647	3.1818	0.	3516.9
15323	9.2728	3.2727	0.	3541.7
15324	9.3647	3.2727	5.e-002	9.3797
15325	9.3647	3.	0.	3516.7
15326	9.2728	3.0909	0.	3541.3
15327	9.3647	3.0909	5.e-002	9.3803
15328	9.3647	2.8182	0.	3516.9
15329	9.2728	2.9091	0.	3541.3
15330	9.3647	2.9091	5.e-002	9.3803
15331	9.3647	2.6364	0.	3517.6
15332	9.2728	2.7273	0.	3541.7
15333	9.3647	2.7273	5.e-002	9.3797
15334	9.3647	2.4545	0.	3518.7
15335	9.2728	2.5455	0.	3542.7
15336	9.3647	2.5455	5.e-002	9.3785
15337	9.3647	2.2727	0.	3520.3
15338	9.2728	2.3636	0.	3544.1
15339	9.3647	2.3636	5.e-002	9.3766
15340	9.3647	2.0909	0.	3522.3
15341	9.2728	2.1818	0.	3546.
15342	9.3647	2.1818	5.e-002	9.374
15343	9.3647	1.9091	0.	3524.8
15344	9.2728	2.	0.	3548.3
15345	9.3647	2.	5.e-002	9.3708
15346	9.3647	1.7273	0.	3527.6
15347	9.2728	1.8182	0.	3551.1
15348	9.3647	1.8182	5.e-002	9.3667
15349	9.3647	1.5455	0.	3530.8
15350	9.2728	1.6364	0.	3554.2
15351	9.3647	1.6364	5.e-002	9.3617
15352	9.3647	1.3636	0.	3534.4
15353	9.2728	1.4545	0.	3557.8
15354	9.3647	1.4545	5.e-002	9.3559
15355	9.3647	1.1818	0.	3538.3
15356	9.2728	1.2727	0.	3561.7
15357	9.3647	1.2727	5.e-002	9.349
15358	9.3647	1.	0.	3542.6
15359	9.2728	1.0909	0.	3565.9
15360	9.3647	1.0909	5.e-002	9.3411
15361	9.3647	0.81818	0.	3547.1
15362	9.2728	0.90909	0.	3570.5
15363	9.3647	0.90909	5.e-002	9.3319
15364	9.3647	0.63636	0.	3551.9
15365	9.2728	0.72727	0.	3575.3
15366	9.3647	0.72727	5.e-002	9.3196
15367	9.3647	0.45455	0.	3556.9
15368	9.2728	0.54545	0.	3580.3
15369	9.3647	0.54545	5.e-002	9.2766
15370	9.3647	0.27273	0.	3562.8
15371	9.2728	0.36364	0.	3585.7
15372	9.3647	0.36364	5.e-002	8.7801
15373	9.2728	0.18182	0.	3592.6
15374	9.3647	0.18182	5.e-002	1.443
15375	9.3647	9.0909e-002	0.	3563.7
15376	9.181	5.7273	0.	3615.4
15377	9.0892	5.8182	0.	3645.5
15378	9.181	5.8182	5.e-002	1.6134
15379	9.181	5.9091	0.	3616.8
15380	9.181	5.5455	0.	3609.1
15381	9.0892	5.6364	0.	3638.2
15382	9.181	5.6364	5.e-002	8.8436
15383	9.181	5.3636	0.	3603.7
15384	9.0892	5.4545	0.	3632.5
15385	9.181	5.4545	5.e-002	9.3344
15386	9.181	5.1818	0.	3598.6
15387	9.0892	5.2727	0.	3627.
15388	9.181	5.2727	5.e-002	9.3777
15389	9.181	5.	0.	3593.8
15390	9.0892	5.0909	0.	3621.9
15391	9.181	5.0909	5.e-002	9.3905
15392	9.181	4.8182	0.	3589.2
15393	9.0892	4.9091	0.	3617.
15394	9.181	4.9091	5.e-002	9.4002
15395	9.181	4.6364	0.	3585.
15396	9.0892	4.7273	0.	3612.4
15397	9.181	4.7273	5.e-002	9.4085
15398	9.181	4.4545	0.	3581.1
15399	9.0892	4.5455	0.	3608.2
15400	9.181	4.5455	5.e-002	9.4156
15401	9.181	4.2727	0.	3577.7
15402	9.0892	4.3636	0.	3604.4
15403	9.181	4.3636	5.e-002	9.4217
15404	9.181	4.0909	0.	3574.6
15405	9.0892	4.1818	0.	3601.
15406	9.181	4.1818	5.e-002	9.4268
15407	9.181	3.9091	0.	3572.
15408	9.0892	4.	0.	3598.
15409	9.181	4.	5.e-002	9.4309
15410	9.181	3.7273	0.	3569.8
15411	9.0892	3.8182	0.	3595.5
15412	9.181	3.8182	5.e-002	9.4343
15413	9.181	3.5455	0.	3568.1
15414	9.0892	3.6364	0.	3593.5
15415	9.181	3.6364	5.e-002	9.4369
15416	9.181	3.3636	0.	3566.8
15417	9.0892	3.4545	0.	3592.
15418	9.181	3.4545	5.e-002	9.4388
15419	9.181	3.1818	0.	3566.1
15420	9.0892	3.2727	0.	3591.
15421	9.181	3.2727	5.e-002	9.44
15422	9.181	3.	0.	3565.9
15423	9.0892	3.0909	0.	3590.4
15424	9.181	3.0909	5.e-002	9.4406
15425	9.181	2.8182	0.	3566.1
15426	9.0892	2.9091	0.	3590.4
15427	9.181	2.9091	5.e-002	9.4406
15428	9.181	2.6364	0.	3566.8
15429	9.0892	2.7273	0.	3591.
15430	9.181	2.7273	5.e-002	9.44
15431	9.181	2.4545	0.	3568.1
15432	9.0892	2.5455	0.	3592.
15433	9.181	2.5455	5.e-002	9.4388
15434	9.181	2.2727	0.	3569.8
15435	9.0892	2.3636	0.	3593.5
15436	9.181	2.3636	5.e-002	9.4369
15437	9.181	2.0909	0.	3572.
15438	9.0892	2.1818	0.	3595.5
15439	9.181	2.1818	5.e-002	9.4343
15440	9.181	1.9091	0.	3574.6
15441	9.0892	2.	0.	3598.
15442	9.181	2.	5.e-002	9.4309
15443	9.181	1.7273	0.	3577.7
15444	9.0892	1.8182	0.	3601.
15445	9.181	1.8182	5.e-002	9.4268
15446	9.181	1.5455	0.	3581.1
15447	9.0892	1.6364	0.	3604.4
15448	9.181	1.6364	5.e-002	9.4217
15449	9.181	1.3636	0.	3585.
15450	9.0892	1.4545	0.	3608.2
15451	9.181	1.4545	5.e-002	9.4156
15452	9.181	1.1818	0.	3589.2
15453	9.0892	1.2727	0.	3612.4
15454	9.181	1.2727	5.e-002	9.4085
15455	9.181	1.	0.	3593.8
15456	9.0892	1.0909	0.	3617.
15457	9.181	1.0909	5.e-002	9.4002
15458	9.181	0.81818	0.	3598.6
15459	9.0892	0.90909	0.	3621.9
15460	9.181	0.90909	5.e-002	9.3905
15461	9.181	0.63636	0.	3603.7
15462	9.0892	0.72727	0.	3627.
15463	9.181	0.72727	5.e-002	9.3777
15464	9.181	0.45455	0.	3609.1
15465	9.0892	0.54545	0.	3632.5
15466	9.181	0.54545	5.e-002	9.3344
15467	9.181	0.27273	0.	3615.4
15468	9.0892	0.36364	0.	3638.2
15469	9.181	0.36364	5.e-002	8.8436
15470	9.0892	0.18182	0.	3645.5
15471	9.181	0.18182	5.e-002	1.6134
15472	9.181	9.0909e-002	0.	3616.8
15473	8.9974	5.7273	0.	3668.2
15474	8.9056	5.8182	0.	3698.6
15475	8.9974	5.8182	5.e-002	1.7985
15476	8.9974	5.9091	0.	3670.1
15477	8.9974	5.5455	0.	3661.5
15478	8.9056	5.6364	0.	3690.9
15479	8.9974	5.6364	5.e-002	8.9103
15480	8.9974	5.3636	0.	3655.8
15481	8.9056	5.4545	0.	3684.8
15482	8.9974	5.4545	5.e-002	9.3946
15483	8.9974	5.1818	0.	3650.3
15484	8.9056	5.2727	0.	3678.9
15485	8.9974	5.2727	5.e-002	9.4382
15486	8.9974	5.	0.	3645.1
15487	8.9056	5.0909	0.	3673.4
15488	8.9974	5.0909	5.e-002	9.4516
15489	8.9974	4.8182	0.	3640.2
15490	8.9056	4.9091	0.	3668.1
15491	8.9974	4.9091	5.e-002	9.4617
15492	8.9974	4.6364	0.	3635.6
15493	8.9056	4.7273	0.	3663.2
15494	8.9974	4.7273	5.e-002	9.4704
15495	8.9974	4.4545	0.	3631.5
15496	8.9056	4.5455	0.	3658.7
15497	8.9974	4.5455	5.e-002	9.4778
15498	8.9974	4.2727	0.	3627.7
15499	8.9056	4.3636	0.	3654.6
15500	8.9974	4.3636	5.e-002	9.484
15501	8.9974	4.0909	0.	3624.4
15502	8.9056	4.1818	0.	3650.9
15503	8.9974	4.1818	5.e-002	9.4892
15504	8.9974	3.9091	0.	3621.6
15505	8.9056	4.	0.	3647.7
15506	8.9974	4.	5.e-002	9.4935
15507	8.9974	3.7273	0.	3619.2
15508	8.9056	3.8182	0.	3645.1
15509	8.9974	3.8182	5.e-002	9.4969
15510	8.9974	3.5455	0.	3617.4
15511	8.9056	3.6364	0.	3642.9
15512	8.9974	3.6364	5.e-002	9.4995
15513	8.9974	3.3636	0.	3616.1
15514	8.9056	3.4545	0.	3641.2
15515	8.9974	3.4545	5.e-002	9.5014
15516	8.9974	3.1818	0.	3615.3
15517	8.9056	3.2727	0.	3640.1
15518	8.9974	3.2727	5.e-002	9.5026
15519	8.9974	3.	0.	3615.
15520	8.9056	3.0909	0.	3639.6
15521	8.9974	3.0909	5.e-002	9.5032
15522	8.9974	2.8182	0.	3615.3
15523	8.9056	2.9091	0.	3639.6
15524	8.9974	2.9091	5.e-002	9.5032
15525	8.9974	2.6364	0.	3616.1
15526	8.9056	2.7273	0.	3640.1
15527	8.9974	2.7273	5.e-002	9.5026
15528	8.9974	2.4545	0.	3617.4
15529	8.9056	2.5455	0.	3641.2
15530	8.9974	2.5455	5.e-002	9.5014
15531	8.9974	2.2727	0.	3619.2
15532	8.9056	2.3636	0.	3642.9
15533	8.9974	2.3636	5.e-002	9.4995
15534	8.9974	2.0909	0.	3621.6
15535	8.9056	2.1818	0.	3645.1
15536	8.9974	2.1818	5.e-002	9.4969
15537	8.9974	1.9091	0.	3624.4
15538	8.9056	2.	0.	3647.7
15539	8.9974	2.	5.e-002	9.4935
15540	8.9974	1.7273	0.	3627.7
15541	8.9056	1.8182	0.	3650.9
15542	8.9974	1.8182	5.e-002	9.4892
15543	8.9974	1.5455	0.	3631.5
15544	8.9056	1.6364	0.	3654.6
15545	8.9974	1.6364	5.e-002	9.484
15546	8.9974	1.3636	0.	3635.6
15547	8.9056	1.4545	0.	3658.7
15548	8.9974	1.4545	5.e-002	9.4778
15549	8.9974	1.1818	0.	3640.2
15550	8.9056	1.2727	0.	3663.2
15551	8.9974	1.2727	5.e-002	9.4704
15552	8.9974	1.	0.	3645.1
15553	8.9056	1.0909	0.	3668.1
15554	8.9974	1.0909	5.e-002	9.4617
15555	8.9974	0.81818	0.	3650.3
15556	8.9056	0.90909	0.	3673.4
15557	8.9974	0.90909	5.e-002	9.4516
15558	8.9974	0.63636	0.	3655.8
15559	8.9056	0.72727	0.	3678.9
15560	8.9974	0.72727	5.e-002	9.4382
15561	8.9974	0.45455	0.	3661.5
15562	8.9056	0.54545	0.	3684.8
15563	8.9974	0.54545	5.e-002	9.3946
15564	8.9974	0.27273	0.	3668.2
15565	8.9056	0.36364	0.	3690.9
15566	8.9974	0.36364	5.e-002	8.9103
15567	8.9056	0.18182	0.	3698.6
15568	8.9974	0.18182	5.e-002	1.7985
15569	8.9974	9.0909e-002	0.	3670.1
15570	8.8138	5.7273	0.	3721.2
15571	8.722	5.8182	0.	3751.9
15572	8.8138	5.8182	5.e-002	1.9996
15573	8.8138	5.9091	0.	3723.7
15574	8.8138	5.5455	0.	3714.2
15575	8.722	5.6364	0.	3743.9
15576	8.8138	5.6364	5.e-002	8.9805
15577	8.8138	5.3636	0.	3708.
15578	8.722	5.4545	0.	3737.3
15579	8.8138	5.4545	5.e-002	9.4577
15580	8.8138	5.1818	0.	3702.1
15581	8.722	5.2727	0.	3731.
15582	8.8138	5.2727	5.e-002	9.5015
15583	8.8138	5.	0.	3696.5
15584	8.722	5.0909	0.	3725.
15585	8.8138	5.0909	5.e-002	9.5155
15586	8.8138	4.8182	0.	3691.2
15587	8.722	4.9091	0.	3719.4
15588	8.8138	4.9091	5.e-002	9.5261
15589	8.8138	4.6364	0.	3686.3
15590	8.722	4.7273	0.	3714.1
15591	8.8138	4.7273	5.e-002	9.5351
15592	8.8138	4.4545	0.	3681.8
15593	8.722	4.5455	0.	3709.2
15594	8.8138	4.5455	5.e-002	9.5427
15595	8.8138	4.2727	0.	3677.8
15596	8.722	4.3636	0.	3704.8
15597	8.8138	4.3636	5.e-002	9.5491
15598	8.8138	4.0909	0.	3674.2
15599	8.722	4.1818	0.	3700.9
15600	8.8138	4.1818	5.e-002	9.5544
15601	8.8138	3.9091	0.	3671.2
15602	8.722	4.	0.	3697.4
15603	8.8138	4.	5.e-002	9.5587
15604	8.8138	3.7273	0.	3668.7
15605	8.722	3.8182	0.	3694.5
15606	8.8138	3.8182	5.e-002	9.5621
15607	8.8138	3.5455	0.	3666.7
15608	8.722	3.6364	0.	3692.2
15609	8.8138	3.6364	5.e-002	9.5647
15610	8.8138	3.3636	0.	3665.2
15611	8.722	3.4545	0.	3690.4
15612	8.8138	3.4545	5.e-002	9.5665
15613	8.8138	3.1818	0.	3664.4
15614	8.722	3.2727	0.	3689.2
15615	8.8138	3.2727	5.e-002	9.5677
15616	8.8138	3.	0.	3664.1
15617	8.722	3.0909	0.	3688.6
15618	8.8138	3.0909	5.e-002	9.5683
15619	8.8138	2.8182	0.	3664.4
15620	8.722	2.9091	0.	3688.6
15621	8.8138	2.9091	5.e-002	9.5683
15622	8.8138	2.6364	0.	3665.2
15623	8.722	2.7273	0.	3689.2
15624	8.8138	2.7273	5.e-002	9.5677
15625	8.8138	2.4545	0.	3666.7
15626	8.722	2.5455	0.	3690.4
15627	8.8138	2.5455	5.e-002	9.5665
15628	8.8138	2.2727	0.	3668.7
15629	8.722	2.3636	0.	3692.2
15630	8.8138	2.3636	5.e-002	9.5647
15631	8.8138	2.0909	0.	3671.2
15632	8.722	2.1818	0.	3694.5
15633	8.8138	2.1818	5.e-002	9.5621
15634	8.8138	1.9091	0.	3674.2
15635	8.722	2.	0.	3697.4
15636	8.8138	2.	5.e-002	9.5587
15637	8.8138	1.7273	0.	3677.8
15638	8.722	1.8182	0.	3700.9
15639	8.8138	1.8182	5.e-002	9.5544
15640	8.8138	1.5455	0.	3681.8
15641	8.722	1.6364	0.	3704.8
15642	8.8138	1.6364	5.e-002	9.5491
15643	8.8138	1.3636	0.	3686.3
15644	8.722	1.4545	0.	3709.2
15645	8.8138	1.4545	5.e-002	9.5427
15646	8.8138	1.1818	0.	3691.2
15647	8.722	1.2727	0.	3714.1
15648	8.8138	1.2727	5.e-002	9.5351
15649	8.8138	1.	0.	3696.5
15650	8.722	1.0909	0.	3719.4
15651	8.8138	1.0909	5.e-002	9.5261
15652	8.8138	0.81818	0.	3702.1
15653	8.722	0.90909	0.	3725.
15654	8.8138	0.90909	5.e-002	9.5155
15655	8.8138	0.63636	0.	3708.
15656	8.722	0.72727	0.	3731.
15657	8.8138	0.72727	5.e-002	9.5015
15658	8.8138	0.45455	0.	3714.2
15659	8.722	0.54545	0.	3737.3
15660	8.8138	0.54545	5.e-002	9.4577
15661	8.8138	0.27273	0.	3721.2
15662	8.722	0.36364	0.	3743.9
15663	8.8138	0.36364	5.e-002	8.9805
15664	8.722	0.18182	0.	3751.9
15665	8.8138	0.18182	5.e-002	1.9996
15666	8.8138	9.0909e-002	0.	3723.7
15667	8.6302	5.7273	0.	3774.5
15668	8.5384	5.8182	0.	3805.5
15669	8.6302	5.8182	5.e-002	2.2179
15670	8.6302	5.9091	0.	3777.6
15671	8.6302	5.5455	0.	3767.
15672	8.5384	5.6364	0.	3797.
15673	8.6302	5.6364	5.e-002	9.0546
15674	8.6302	5.3636	0.	3760.3
15675	8.5384	5.4545	0.	3790.
15676	8.6302	5.4545	5.e-002	9.5238
15677	8.6302	5.1818	0.	3754.
15678	8.5384	5.2727	0.	3783.2
15679	8.6302	5.2727	5.e-002	9.5678
15680	8.6302	5.	0.	3748.
15681	8.5384	5.0909	0.	3776.8
15682	8.6302	5.0909	5.e-002	9.5823
15683	8.6302	4.8182	0.	3742.3
15684	8.5384	4.9091	0.	3770.7
15685	8.6302	4.9091	5.e-002	9.5934
15686	8.6302	4.6364	0.	3737.
15687	8.5384	4.7273	0.	3765.
15688	8.6302	4.7273	5.e-002	9.6027
15689	8.6302	4.4545	0.	3732.2
15690	8.5384	4.5455	0.	3759.8
15691	8.6302	4.5455	5.e-002	9.6106
15692	8.6302	4.2727	0.	3727.9
15693	8.5384	4.3636	0.	3755.
15694	8.6302	4.3636	5.e-002	9.6171
15695	8.6302	4.0909	0.	3724.
15696	8.5384	4.1818	0.	3750.7
15697	8.6302	4.1818	5.e-002	9.6224
15698	8.6302	3.9091	0.	3720.7
15699	8.5384	4.	0.	3747.
15700	8.6302	4.	5.e-002	9.6267
15701	8.6302	3.7273	0.	3718.
15702	8.5384	3.8182	0.	3743.9
15703	8.6302	3.8182	5.e-002	9.63
15704	8.6302	3.5455	0.	3715.9
15705	8.5384	3.6364	0.	3741.4
15706	8.6302	3.6364	5.e-002	9.6326
15707	8.6302	3.3636	0.	3714.3
15708	8.5384	3.4545	0.	3739.4
15709	8.6302	3.4545	5.e-002	9.6344
15710	8.6302	3.1818	0.	3713.4
15711	8.5384	3.2727	0.	3738.1
15712	8.6302	3.2727	5.e-002	9.6356
15713	8.6302	3.	0.	3713.1
15714	8.5384	3.0909	0.	3737.5
15715	8.6302	3.0909	5.e-002	9.6361
15716	8.6302	2.8182	0.	3713.4
15717	8.5384	2.9091	0.	3737.5
15718	8.6302	2.9091	5.e-002	9.6361
15719	8.6302	2.6364	0.	3714.3
15720	8.5384	2.7273	0.	3738.1
15721	8.6302	2.7273	5.e-002	9.6356
15722	8.6302	2.4545	0.	3715.9
15723	8.5384	2.5455	0.	3739.4
15724	8.6302	2.5455	5.e-002	9.6344
15725	8.6302	2.2727	0.	3718.
15726	8.5384	2.3636	0.	3741.4
15727	8.6302	2.3636	5.e-002	9.6326
15728	8.6302	2.0909	0.	3720.7
15729	8.5384	2.1818	0.	3743.9
15730	8.6302	2.1818	5.e-002	9.63
15731	8.6302	1.9091	0.	3724.
15732	8.5384	2.	0.	3747.
15733	8.6302	2.	5.e-002	9.6267
15734	8.6302	1.7273	0.	3727.9
15735	8.5384	1.8182	0.	3750.7
15736	8.6302	1.8182	5.e-002	9.6224
15737	8.6302	1.5455	0.	3732.2
15738	8.5384	1.6364	0.	3755.
15739	8.6302	1.6364	5.e-002	9.6171
15740	8.6302	1.3636	0.	3737.
15741	8.5384	1.4545	0.	3759.8
15742	8.6302	1.4545	5.e-002	9.6106
15743	8.6302	1.1818	0.	3742.3
15744	8.5384	1.2727	0.	3765.
15745	8.6302	1.2727	5.e-002	9.6027
15746	8.6302	1.	0.	3748.
15747	8.5384	1.0909	0.	3770.7
15748	8.6302	1.0909	5.e-002	9.5934
15749	8.6302	0.81818	0.	3754.
15750	8.5384	0.90909	0.	3776.8
15751	8.6302	0.90909	5.e-002	9.5823
15752	8.6302	0.63636	0.	3760.3
15753	8.5384	0.72727	0.	3783.2
15754	8.6302	0.72727	5.e-002	9.5678
15755	8.6302	0.45455	0.	3767.
15756	8.5384	0.54545	0.	3790.
15757	8.6302	0.54545	5.e-002	9.5238
15758	8.6302	0.27273	0.	3774.5
15759	8.5384	0.36364	0.	3797.
15760	8.6302	0.36364	5.e-002	9.0546
15761	8.5384	0.18182	0.	3805.5
15762	8.6302	0.18182	5.e-002	2.2179
15763	8.6302	9.0909e-002	0.	3777.6
15764	8.4466	5.7273	0.	3828.
15765	8.3547	5.8182	0.	3859.4
15766	8.4466	5.8182	5.e-002	2.4547
15767	8.4466	5.9091	0.	3831.8
15768	8.4466	5.5455	0.	3820.
15769	8.3547	5.6364	0.	3850.4
15770	8.4466	5.6364	5.e-002	9.1331
15771	8.4466	5.3636	0.	3812.9
15772	8.3547	5.4545	0.	3842.8
15773	8.4466	5.4545	5.e-002	9.5933
15774	8.4466	5.1818	0.	3806.
15775	8.3547	5.2727	0.	3835.6
15776	8.4466	5.2727	5.e-002	9.6374
15777	8.4466	5.	0.	3799.5
15778	8.3547	5.0909	0.	3828.7
15779	8.4466	5.0909	5.e-002	9.6525
15780	8.4466	4.8182	0.	3793.4
15781	8.3547	4.9091	0.	3822.1
15782	8.4466	4.9091	5.e-002	9.664
15783	8.4466	4.6364	0.	3787.8
15784	8.3547	4.7273	0.	3816.
15785	8.4466	4.7273	5.e-002	9.6736
15786	8.4466	4.4545	0.	3782.6
15787	8.3547	4.5455	0.	3810.3
15788	8.4466	4.5455	5.e-002	9.6817
15789	8.4466	4.2727	0.	3777.9
15790	8.3547	4.3636	0.	3805.2
15791	8.4466	4.3636	5.e-002	9.6883
15792	8.4466	4.0909	0.	3773.7
15793	8.3547	4.1818	0.	3800.6
15794	8.4466	4.1818	5.e-002	9.6936
15795	8.4466	3.9091	0.	3770.2
15796	8.3547	4.	0.	3796.6
15797	8.4466	4.	5.e-002	9.6978
15798	8.4466	3.7273	0.	3767.2
15799	8.3547	3.8182	0.	3793.2
15800	8.4466	3.8182	5.e-002	9.7011
15801	8.4466	3.5455	0.	3764.9
15802	8.3547	3.6364	0.	3790.4
15803	8.4466	3.6364	5.e-002	9.7035
15804	8.4466	3.3636	0.	3763.3
15805	8.3547	3.4545	0.	3788.4
15806	8.4466	3.4545	5.e-002	9.7053
15807	8.4466	3.1818	0.	3762.3
15808	8.3547	3.2727	0.	3787.
15809	8.4466	3.2727	5.e-002	9.7064
15810	8.4466	3.	0.	3761.9
15811	8.3547	3.0909	0.	3786.3
15812	8.4466	3.0909	5.e-002	9.7069
15813	8.4466	2.8182	0.	3762.3
15814	8.3547	2.9091	0.	3786.3
15815	8.4466	2.9091	5.e-002	9.7069
15816	8.4466	2.6364	0.	3763.3
15817	8.3547	2.7273	0.	3787.
15818	8.4466	2.7273	5.e-002	9.7064
15819	8.4466	2.4545	0.	3764.9
15820	8.3547	2.5455	0.	3788.4
15821	8.4466	2.5455	5.e-002	9.7053
15822	8.4466	2.2727	0.	3767.2
15823	8.3547	2.3636	0.	3790.4
15824	8.4466	2.3636	5.e-002	9.7035
15825	8.4466	2.0909	0.	3770.2
15826	8.3547	2.1818	0.	3793.2
15827	8.4466	2.1818	5.e-002	9.7011
15828	8.4466	1.9091	0.	3773.7
15829	8.3547	2.	0.	3796.6
15830	8.4466	2.	5.e-002	9.6978
15831	8.4466	1.7273	0.	3777.9
15832	8.3547	1.8182	0.	3800.6
15833	8.4466	1.8182	5.e-002	9.6936
15834	8.4466	1.5455	0.	3782.6
15835	8.3547	1.6364	0.	3805.2
15836	8.4466	1.6364	5.e-002	9.6883
15837	8.4466	1.3636	0.	3787.8
15838	8.3547	1.4545	0.	3810.3
15839	8.4466	1.4545	5.e-002	9.6817
15840	8.4466	1.1818	0.	3793.4
15841	8.3547	1.2727	0.	3816.
15842	8.4466	1.2727	5.e-002	9.6736
15843	8.4466	1.	0.	3799.5
15844	8.3547	1.0909	0.	3822.1
15845	8.4466	1.0909	5.e-002	9.664
15846	8.4466	0.81818	0.	3806.
15847	8.3547	0.90909	0.	3828.7
15848	8.4466	0.90909	5.e-002	9.6525
15849	8.4466	0.63636	0.	3812.9
15850	8.3547	0.72727	0.	3835.6
15851	8.4466	0.72727	5.e-002	9.6374
15852	8.4466	0.45455	0.	3820.
15853	8.3547	0.54545	0.	3842.8
15854	8.4466	0.54545	5.e-002	9.5933
15855	8.4466	0.27273	0.	3828.
15856	8.3547	0.36364	0.	3850.4
15857	8.4466	0.36364	5.e-002	9.1331
15858	8.3547	0.18182	0.	3859.4
15859	8.4466	0.18182	5.e-002	2.4547
15860	8.4466	9.0909e-002	0.	3831.8
15861	8.2629	5.7273	0.	3881.7
15862	8.1711	5.8182	0.	3913.5
15863	8.2629	5.8182	5.e-002	2.7115
15864	8.2629	5.9091	0.	3886.2
15865	8.2629	5.5455	0.	3873.2
15866	8.1711	5.6364	0.	3904.1
15867	8.2629	5.6364	5.e-002	9.2163
15868	8.2629	5.3636	0.	3865.6
15869	8.1711	5.4545	0.	3895.9
15870	8.2629	5.4545	5.e-002	9.6665
15871	8.2629	5.1818	0.	3858.2
15872	8.1711	5.2727	0.	3888.1
15873	8.2629	5.2727	5.e-002	9.7108
15874	8.2629	5.	0.	3851.2
15875	8.1711	5.0909	0.	3880.6
15876	8.2629	5.0909	5.e-002	9.7264
15877	8.2629	4.8182	0.	3844.6
15878	8.1711	4.9091	0.	3873.6
15879	8.2629	4.9091	5.e-002	9.7383
15880	8.2629	4.6364	0.	3838.5
15881	8.1711	4.7273	0.	3867.
15882	8.2629	4.7273	5.e-002	9.7482
15883	8.2629	4.4545	0.	3832.9
15884	8.1711	4.5455	0.	3860.9
15885	8.2629	4.5455	5.e-002	9.7564
15886	8.2629	4.2727	0.	3827.9
15887	8.1711	4.3636	0.	3855.3
15888	8.2629	4.3636	5.e-002	9.763
15889	8.2629	4.0909	0.	3823.4
15890	8.1711	4.1818	0.	3850.3
15891	8.2629	4.1818	5.e-002	9.7682
15892	8.2629	3.9091	0.	3819.6
15893	8.1711	4.	0.	3846.
15894	8.2629	4.	5.e-002	9.7723
15895	8.2629	3.7273	0.	3816.4
15896	8.1711	3.8182	0.	3842.4
15897	8.2629	3.8182	5.e-002	9.7755
15898	8.2629	3.5455	0.	3813.9
15899	8.1711	3.6364	0.	3839.4
15900	8.2629	3.6364	5.e-002	9.7778
15901	8.2629	3.3636	0.	3812.1
15902	8.1711	3.4545	0.	3837.2
15903	8.2629	3.4545	5.e-002	9.7794
15904	8.2629	3.1818	0.	3811.
15905	8.1711	3.2727	0.	3835.7
15906	8.2629	3.2727	5.e-002	9.7804
15907	8.2629	3.	0.	3810.6
15908	8.1711	3.0909	0.	3834.9
15909	8.2629	3.0909	5.e-002	9.7809
15910	8.2629	2.8182	0.	3811.
15911	8.1711	2.9091	0.	3834.9
15912	8.2629	2.9091	5.e-002	9.7809
15913	8.2629	2.6364	0.	3812.1
15914	8.1711	2.7273	0.	3835.7
15915	8.2629	2.7273	5.e-002	9.7804
15916	8.2629	2.4545	0.	3813.9
15917	8.1711	2.5455	0.	3837.2
15918	8.2629	2.5455	5.e-002	9.7794
15919	8.2629	2.2727	0.	3816.4
15920	8.1711	2.3636	0.	3839.4
15921	8.2629	2.3636	5.e-002	9.7778
15922	8.2629	2.0909	0.	3819.6
15923	8.1711	2.1818	0.	3842.4
15924	8.2629	2.1818	5.e-002	9.7755
15925	8.2629	1.9091	0.	3823.4
15926	8.1711	2.	0.	3846.
15927	8.2629	2.	5.e-002	9.7723
15928	8.2629	1.7273	0.	3827.9
15929	8.1711	1.8182	0.	3850.3
15930	8.2629	1.8182	5.e-002	9.7682
15931	8.2629	1.5455	0.	3832.9
15932	8.1711	1.6364	0.	3855.3
15933	8.2629	1.6364	5.e-002	9.763
15934	8.2629	1.3636	0.	3838.5
15935	8.1711	1.4545	0.	3860.9
15936	8.2629	1.4545	5.e-002	9.7564
15937	8.2629	1.1818	0.	3844.6
15938	8.1711	1.2727	0.	3867.
15939	8.2629	1.2727	5.e-002	9.7482
15940	8.2629	1.	0.	3851.2
15941	8.1711	1.0909	0.	3873.6
15942	8.2629	1.0909	5.e-002	9.7383
15943	8.2629	0.81818	0.	3858.2
15944	8.1711	0.90909	0.	3880.6
15945	8.2629	0.90909	5.e-002	9.7264
15946	8.2629	0.63636	0.	3865.6
15947	8.1711	0.72727	0.	3888.1
15948	8.2629	0.72727	5.e-002	9.7108
15949	8.2629	0.45455	0.	3873.2
15950	8.1711	0.54545	0.	3895.9
15951	8.2629	0.54545	5.e-002	9.6665
15952	8.2629	0.27273	0.	3881.7
15953	8.1711	0.36364	0.	3904.1
15954	8.2629	0.36364	5.e-002	9.2163
15955	8.1711	0.18182	0.	3913.5
15956	8.2629	0.18182	5.e-002	2.7115
15957	8.2629	9.0909e-002	0.	3886.2
15958	8.0793	5.7273	0.	3935.8
15959	7.9875	5.8182	0.	3967.9
15960	8.0793	5.8182	5.e-002	2.9901
15961	8.0793	5.9091	0.	3941.
15962	8.0793	5.5455	0.	3926.7
15963	7.9875	5.6364	0.	3957.9
15964	8.0793	5.6364	5.e-002	9.3048
15965	8.0793	5.3636	0.	3918.4
15966	7.9875	5.4545	0.	3949.1
15967	8.0793	5.4545	5.e-002	9.744
15968	8.0793	5.1818	0.	3910.5
15969	7.9875	5.2727	0.	3940.7
15970	8.0793	5.2727	5.e-002	9.7883
15971	8.0793	5.	0.	3903.
15972	7.9875	5.0909	0.	3932.7
15973	8.0793	5.0909	5.e-002	9.8044
15974	8.0793	4.8182	0.	3895.9
15975	7.9875	4.9091	0.	3925.1
15976	8.0793	4.9091	5.e-002	9.8167
15977	8.0793	4.6364	0.	3889.3
15978	7.9875	4.7273	0.	3917.9
15979	8.0793	4.7273	5.e-002	9.8268
15980	8.0793	4.4545	0.	3883.2
15981	7.9875	4.5455	0.	3911.4
15982	8.0793	4.5455	5.e-002	9.835
15983	8.0793	4.2727	0.	3877.8
15984	7.9875	4.3636	0.	3905.4
15985	8.0793	4.3636	5.e-002	9.8415
15986	8.0793	4.0909	0.	3873.
15987	7.9875	4.1818	0.	3900.
15988	8.0793	4.1818	5.e-002	9.8467
15989	8.0793	3.9091	0.	3868.8
15990	7.9875	4.	0.	3895.3
15991	8.0793	4.	5.e-002	9.8506
15992	8.0793	3.7273	0.	3865.4
15993	7.9875	3.8182	0.	3891.4
15994	8.0793	3.8182	5.e-002	9.8535
15995	8.0793	3.5455	0.	3862.7
15996	7.9875	3.6364	0.	3888.2
15997	8.0793	3.6364	5.e-002	9.8556
15998	8.0793	3.3636	0.	3860.7
15999	7.9875	3.4545	0.	3885.8
16000	8.0793	3.4545	5.e-002	9.857
16001	8.0793	3.1818	0.	3859.6
16002	7.9875	3.2727	0.	3884.1
16003	8.0793	3.2727	5.e-002	9.8579
16004	8.0793	3.	0.	3859.2
16005	7.9875	3.0909	0.	3883.3
16006	8.0793	3.0909	5.e-002	9.8584
16007	8.0793	2.8182	0.	3859.6
16008	7.9875	2.9091	0.	3883.3
16009	8.0793	2.9091	5.e-002	9.8584
16010	8.0793	2.6364	0.	3860.7
16011	7.9875	2.7273	0.	3884.1
16012	8.0793	2.7273	5.e-002	9.8579
16013	8.0793	2.4545	0.	3862.7
16014	7.9875	2.5455	0.	3885.8
16015	8.0793	2.5455	5.e-002	9.857
16016	8.0793	2.2727	0.	3865.4
16017	7.9875	2.3636	0.	3888.2
16018	8.0793	2.3636	5.e-002	9.8556
16019	8.0793	2.0909	0.	3868.8
16020	7.9875	2.1818	0.	3891.4
16021	8.0793	2.1818	5.e-002	9.8535
16022	8.0793	1.9091	0.	3873.
16023	7.9875	2.	0.	3895.3
16024	8.0793	2.	5.e-002	9.8506
16025	8.0793	1.7273	0.	3877.8
16026	7.9875	1.8182	0.	3900.
16027	8.0793	1.8182	5.e-002	9.8467
16028	8.0793	1.5455	0.	3883.2
16029	7.9875	1.6364	0.	3905.4
16030	8.0793	1.6364	5.e-002	9.8415
16031	8.0793	1.3636	0.	3889.3
16032	7.9875	1.4545	0.	3911.4
16033	8.0793	1.4545	5.e-002	9.835
16034	8.0793	1.1818	0.	3895.9
16035	7.9875	1.2727	0.	3917.9
16036	8.0793	1.2727	5.e-002	9.8268
16037	8.0793	1.	0.	3903.
16038	7.9875	1.0909	0.	3925.1
16039	8.0793	1.0909	5.e-002	9.8167
16040	8.0793	0.81818	0.	3910.5
16041	7.9875	0.90909	0.	3932.7
16042	8.0793	0.90909	5.e-002	9.8044
16043	8.0793	0.63636	0.	3918.4
16044	7.9875	0.72727	0.	3940.7
16045	8.0793	0.72727	5.e-002	9.7883
16046	8.0793	0.45455	0.	3926.7
16047	7.9875	0.54545	0.	3949.1
16048	8.0793	0.54545	5.e-002	9.744
16049	8.0793	0.27273	0.	3935.8
16050	7.9875	0.36364	0.	3957.9
16051	8.0793	0.36364	5.e-002	9.3048
16052	7.9875	0.18182	0.	3967.9
16053	8.0793	0.18182	5.e-002	2.9901
16054	8.0793	9.0909e-002	0.	3941.
16055	7.8957	5.7273	0.	3990.
16056	7.8039	5.8182	0.	4022.7
16057	7.8957	5.8182	5.e-002	3.292
16058	7.8957	5.9091	0.	3996.
16059	7.8957	5.5455	0.	3980.3
16060	7.8039	5.6364	0.	4012.
16061	7.8957	5.6364	5.e-002	9.3991
16062	7.8957	5.3636	0.	3971.4
16063	7.8039	5.4545	0.	4002.6
16064	7.8957	5.4545	5.e-002	9.826
16065	7.8957	5.1818	0.	3962.9
16066	7.8039	5.2727	0.	3993.5
16067	7.8957	5.2727	5.e-002	9.8703
16068	7.8957	5.	0.	3954.8
16069	7.8039	5.0909	0.	3984.8
16070	7.8957	5.0909	5.e-002	9.8869
16071	7.8957	4.8182	0.	3947.1
16072	7.8039	4.9091	0.	3976.6
16073	7.8957	4.9091	5.e-002	9.8995
16074	7.8957	4.6364	0.	3940.
16075	7.8039	4.7273	0.	3968.9
16076	7.8957	4.7273	5.e-002	9.9097
16077	7.8957	4.4545	0.	3933.5
16078	7.8039	4.5455	0.	3961.8
16079	7.8957	4.5455	5.e-002	9.9179
16080	7.8957	4.2727	0.	3927.6
16081	7.8039	4.3636	0.	3955.4
16082	7.8957	4.3636	5.e-002	9.9243
16083	7.8957	4.0909	0.	3922.4
16084	7.8039	4.1818	0.	3949.6
16085	7.8957	4.1818	5.e-002	9.9292
16086	7.8957	3.9091	0.	3917.9
16087	7.8039	4.	0.	3944.5
16088	7.8957	4.	5.e-002	9.9329
16089	7.8957	3.7273	0.	3914.2
16090	7.8039	3.8182	0.	3940.2
16091	7.8957	3.8182	5.e-002	9.9355
16092	7.8957	3.5455	0.	3911.3
16093	7.8039	3.6364	0.	3936.8
16094	7.8957	3.6364	5.e-002	9.9374
16095	7.8957	3.3636	0.	3909.2
16096	7.8039	3.4545	0.	3934.2
16097	7.8957	3.4545	5.e-002	9.9386
16098	7.8957	3.1818	0.	3907.9
16099	7.8039	3.2727	0.	3932.4
16100	7.8957	3.2727	5.e-002	9.9393
16101	7.8957	3.	0.	3907.5
16102	7.8039	3.0909	0.	3931.5
16103	7.8957	3.0909	5.e-002	9.9396
16104	7.8957	2.8182	0.	3907.9
16105	7.8039	2.9091	0.	3931.5
16106	7.8957	2.9091	5.e-002	9.9396
16107	7.8957	2.6364	0.	3909.2
16108	7.8039	2.7273	0.	3932.4
16109	7.8957	2.7273	5.e-002	9.9393
16110	7.8957	2.4545	0.	3911.3
16111	7.8039	2.5455	0.	3934.2
16112	7.8957	2.5455	5.e-002	9.9386
16113	7.8957	2.2727	0.	3914.2
16114	7.8039	2.3636	0.	3936.8
16115	7.8957	2.3636	5.e-002	9.9374
16116	7.8957	2.0909	0.	3917.9
16117	7.8039	2.1818	0.	3940.2
16118	7.8957	2.1818	5.e-002	9.9355
16119	7.8957	1.9091	0.	3922.4
16120	7.8039	2.	0.	3944.5
16121	7.8957	2.	5.e-002	9.9329
16122	7.8957	1.7273	0.	3927.6
16123	7.8039	1.8182	0.	3949.6
16124	7.8957	1.8182	5.e-002	9.9292
16125	7.8957	1.5455	0.	3933.5
16126	7.8039	1.6364	0.	3955.4
16127	7.8957	1.6364	5.e-002	9.9243
16128	7.8957	1.3636	0.	3940.
16129	7.8039	1.4545	0.	3961.8
16130	7.8957	1.4545	5.e-002	9.9179
16131	7.8957	1.1818	0.	3947.1
16132	7.8039	1.2727	0.	3968.9
16133	7.8957	1.2727	5.e-002	9.9097
16134	7.8957	1.	0.	3954.8
16135	7.8039	1.0909	0.	3976.6
16136	7.8957	1.0909	5.e-002	9.8995
16137	7.8957	0.81818	0.	3962.9
16138	7.8039	0.90909	0.	3984.8
16139	7.8957	0.90909	5.e-002	9.8869
16140	7.8957	0.63636	0.	3971.4
16141	7.8039	0.72727	0.	3993.5
16142	7.8957	0.72727	5.e-002	9.8703
16143	7.8957	0.45455	0.	3980.3
16144	7.8039	0.54545	0.	4002.6
16145	7.8957	0.54545	5.e-002	9.826
16146	7.8957	0.27273	0.	3990.
16147	7.8039	0.36364	0.	4012.
16148	7.8957	0.36364	5.e-002	9.3991
16149	7.8039	0.18182	0.	4022.7
16150	7.8957	0.18182	5.e-002	3.292
16151	7.8957	9.0909e-002	0.	3996.
16152	7.7121	5.7273	0.	4044.6
16153	7.6203	5.8182	0.	4077.7
16154	7.7121	5.8182	5.e-002	3.6191
16155	7.7121	5.9091	0.	4051.4
16156	7.7121	5.5455	0.	4034.2
16157	7.6203	5.6364	0.	4066.4
16158	7.7121	5.6364	5.e-002	9.4999
16159	7.7121	5.3636	0.	4024.6
16160	7.6203	5.4545	0.	4056.2
16161	7.7121	5.4545	5.e-002	9.9133
16162	7.7121	5.1818	0.	4015.4
16163	7.6203	5.2727	0.	4046.4
16164	7.7121	5.2727	5.e-002	9.9573
16165	7.7121	5.	0.	4006.7
16166	7.6203	5.0909	0.	4037.1
16167	7.7121	5.0909	5.e-002	9.9745
16168	7.7121	4.8182	0.	3998.4
16169	7.6203	4.9091	0.	4028.2
16170	7.7121	4.9091	5.e-002	9.9873
16171	7.7121	4.6364	0.	3990.7
16172	7.6203	4.7273	0.	4019.9
16173	7.7121	4.7273	5.e-002	9.9976
16174	7.7121	4.4545	0.	3983.7
16175	7.6203	4.5455	0.	4012.2
16176	7.7121	4.5455	5.e-002	10.006
16177	7.7121	4.2727	0.	3977.3
16178	7.6203	4.3636	0.	4005.2
16179	7.7121	4.3636	5.e-002	10.012
16180	7.7121	4.0909	0.	3971.7
16181	7.6203	4.1818	0.	3999.
16182	7.7121	4.1818	5.e-002	10.016
16183	7.7121	3.9091	0.	3966.8
16184	7.6203	4.	0.	3993.5
16185	7.7121	4.	5.e-002	10.02
16186	7.7121	3.7273	0.	3962.8
16187	7.6203	3.8182	0.	3988.9
16188	7.7121	3.8182	5.e-002	10.022
16189	7.7121	3.5455	0.	3959.7
16190	7.6203	3.6364	0.	3985.2
16191	7.7121	3.6364	5.e-002	10.023
16192	7.7121	3.3636	0.	3957.4
16193	7.6203	3.4545	0.	3982.3
16194	7.7121	3.4545	5.e-002	10.024
16195	7.7121	3.1818	0.	3956.
16196	7.6203	3.2727	0.	3980.4
16197	7.7121	3.2727	5.e-002	10.025
16198	7.7121	3.	0.	3955.6
16199	7.6203	3.0909	0.	3979.5
16200	7.7121	3.0909	5.e-002	10.025
16201	7.7121	2.8182	0.	3956.
16202	7.6203	2.9091	0.	3979.5
16203	7.7121	2.9091	5.e-002	10.025
16204	7.7121	2.6364	0.	3957.4
16205	7.6203	2.7273	0.	3980.4
16206	7.7121	2.7273	5.e-002	10.025
16207	7.7121	2.4545	0.	3959.7
16208	7.6203	2.5455	0.	3982.3
16209	7.7121	2.5455	5.e-002	10.024
16210	7.7121	2.2727	0.	3962.8
16211	7.6203	2.3636	0.	3985.2
16212	7.7121	2.3636	5.e-002	10.023
16213	7.7121	2.0909	0.	3966.8
16214	7.6203	2.1818	0.	3988.9
16215	7.7121	2.1818	5.e-002	10.022
16216	7.7121	1.9091	0.	3971.7
16217	7.6203	2.	0.	3993.5
16218	7.7121	2.	5.e-002	10.02
16219	7.7121	1.7273	0.	3977.3
16220	7.6203	1.8182	0.	3999.
16221	7.7121	1.8182	5.e-002	10.016
16222	7.7121	1.5455	0.	3983.7
16223	7.6203	1.6364	0.	4005.2
16224	7.7121	1.6364	5.e-002	10.012
16225	7.7121	1.3636	0.	3990.7
16226	7.6203	1.4545	0.	4012.2
16227	7.7121	1.4545	5.e-002	10.006
16228	7.7121	1.1818	0.	3998.4
16229	7.6203	1.2727	0.	4019.9
16230	7.7121	1.2727	5.e-002	9.9976
16231	7.7121	1.	0.	4006.7
16232	7.6203	1.0909	0.	4028.2
16233	7.7121	1.0909	5.e-002	9.9873
16234	7.7121	0.81818	0.	4015.4
16235	7.6203	0.90909	0.	4037.1
16236	7.7121	0.90909	5.e-002	9.9745
16237	7.7121	0.63636	0.	4024.6
16238	7.6203	0.72727	0.	4046.4
16239	7.7121	0.72727	5.e-002	9.9573
16240	7.7121	0.45455	0.	4034.2
16241	7.6203	0.54545	0.	4056.2
16242	7.7121	0.54545	5.e-002	9.9133
16243	7.7121	0.27273	0.	4044.6
16244	7.6203	0.36364	0.	4066.4
16245	7.7121	0.36364	5.e-002	9.4999
16246	7.6203	0.18182	0.	4077.7
16247	7.7121	0.18182	5.e-002	3.6191
16248	7.7121	9.0909e-002	0.	4051.4
16249	7.5284	5.7273	0.	4099.4
16250	7.4366	5.8182	0.	4133.
16251	7.5284	5.8182	5.e-002	3.9735
16252	7.5284	5.9091	0.	4107.2
16253	7.5284	5.5455	0.	4088.3
16254	7.4366	5.6364	0.	4121.
16255	7.5284	5.6364	5.e-002	9.6078
16256	7.5284	5.3636	0.	4078.
16257	7.4366	5.4545	0.	4110.
16258	7.5284	5.4545	5.e-002	10.006
16259	7.5284	5.1818	0.	4068.
16260	7.4366	5.2727	0.	4099.5
16261	7.5284	5.2727	5.e-002	10.05
16262	7.5284	5.	0.	4058.6
16263	7.4366	5.0909	0.	4089.4
16264	7.5284	5.0909	5.e-002	10.068
16265	7.5284	4.8182	0.	4049.7
16266	7.4366	4.9091	0.	4079.8
16267	7.5284	4.9091	5.e-002	10.081
16268	7.5284	4.6364	0.	4041.4
16269	7.4366	4.7273	0.	4070.8
16270	7.5284	4.7273	5.e-002	10.091
16271	7.5284	4.4545	0.	4033.8
16272	7.4366	4.5455	0.	4062.5
16273	7.5284	4.5455	5.e-002	10.099
16274	7.5284	4.2727	0.	4026.9
16275	7.4366	4.3636	0.	4055.
16276	7.5284	4.3636	5.e-002	10.105
16277	7.5284	4.0909	0.	4020.8
16278	7.4366	4.1818	0.	4048.2
16279	7.5284	4.1818	5.e-002	10.109
16280	7.5284	3.9091	0.	4015.6
16281	7.4366	4.	0.	4042.3
16282	7.5284	4.	5.e-002	10.111
16283	7.5284	3.7273	0.	4011.2
16284	7.4366	3.8182	0.	4037.3
16285	7.5284	3.8182	5.e-002	10.113
16286	7.5284	3.5455	0.	4007.8
16287	7.4366	3.6364	0.	4033.3
16288	7.5284	3.6364	5.e-002	10.114
16289	7.5284	3.3636	0.	4005.4
16290	7.4366	3.4545	0.	4030.2
16291	7.5284	3.4545	5.e-002	10.115
16292	7.5284	3.1818	0.	4003.9
16293	7.4366	3.2727	0.	4028.2
16294	7.5284	3.2727	5.e-002	10.115
16295	7.5284	3.	0.	4003.4
16296	7.4366	3.0909	0.	4027.1
16297	7.5284	3.0909	5.e-002	10.115
16298	7.5284	2.8182	0.	4003.9
16299	7.4366	2.9091	0.	4027.1
16300	7.5284	2.9091	5.e-002	10.115
16301	7.5284	2.6364	0.	4005.4
16302	7.4366	2.7273	0.	4028.2
16303	7.5284	2.7273	5.e-002	10.115
16304	7.5284	2.4545	0.	4007.8
16305	7.4366	2.5455	0.	4030.2
16306	7.5284	2.5455	5.e-002	10.115
16307	7.5284	2.2727	0.	4011.2
16308	7.4366	2.3636	0.	4033.3
16309	7.5284	2.3636	5.e-002	10.114
16310	7.5284	2.0909	0.	4015.6
16311	7.4366	2.1818	0.	4037.3
16312	7.5284	2.1818	5.e-002	10.113
16313	7.5284	1.9091	0.	4020.8
16314	7.4366	2.	0.	4042.3
16315	7.5284	2.	5.e-002	10.111
16316	7.5284	1.7273	0.	4026.9
16317	7.4366	1.8182	0.	4048.2
16318	7.5284	1.8182	5.e-002	10.109
16319	7.5284	1.5455	0.	4033.8
16320	7.4366	1.6364	0.	4055.
16321	7.5284	1.6364	5.e-002	10.105
16322	7.5284	1.3636	0.	4041.4
16323	7.4366	1.4545	0.	4062.5
16324	7.5284	1.4545	5.e-002	10.099
16325	7.5284	1.1818	0.	4049.7
16326	7.4366	1.2727	0.	4070.8
16327	7.5284	1.2727	5.e-002	10.091
16328	7.5284	1.	0.	4058.6
16329	7.4366	1.0909	0.	4079.8
16330	7.5284	1.0909	5.e-002	10.081
16331	7.5284	0.81818	0.	4068.
16332	7.4366	0.90909	0.	4089.4
16333	7.5284	0.90909	5.e-002	10.068
16334	7.5284	0.63636	0.	4078.
16335	7.4366	0.72727	0.	4099.5
16336	7.5284	0.72727	5.e-002	10.05
16337	7.5284	0.45455	0.	4088.3
16338	7.4366	0.54545	0.	4110.
16339	7.5284	0.54545	5.e-002	10.006
16340	7.5284	0.27273	0.	4099.4
16341	7.4366	0.36364	0.	4121.
16342	7.5284	0.36364	5.e-002	9.6078
16343	7.4366	0.18182	0.	4133.
16344	7.5284	0.18182	5.e-002	3.9736
16345	7.5284	9.0909e-002	0.	4107.2
16346	7.3448	5.7273	0.	4154.5
16347	7.253	5.8182	0.	4188.6
16348	7.3448	5.8182	5.e-002	4.3574
16349	7.3448	5.9091	0.	4163.2
16350	7.3448	5.5455	0.	4142.6
16351	7.253	5.6364	0.	4175.8
16352	7.3448	5.6364	5.e-002	9.7235
16353	7.3448	5.3636	0.	4131.5
16354	7.253	5.4545	0.	4164.
16355	7.3448	5.4545	5.e-002	10.106
16356	7.3448	5.1818	0.	4120.8
16357	7.253	5.2727	0.	4152.6
16358	7.3448	5.2727	5.e-002	10.149
16359	7.3448	5.	0.	4110.6
16360	7.253	5.0909	0.	4141.7
16361	7.3448	5.0909	5.e-002	10.167
16362	7.3448	4.8182	0.	4101.
16363	7.253	4.9091	0.	4131.4
16364	7.3448	4.9091	5.e-002	10.18
16365	7.3448	4.6364	0.	4092.
16366	7.253	4.7273	0.	4121.7
16367	7.3448	4.7273	5.e-002	10.19
16368	7.3448	4.4545	0.	4083.8
16369	7.253	4.5455	0.	4112.8
16370	7.3448	4.5455	5.e-002	10.198
16371	7.3448	4.2727	0.	4076.3
16372	7.253	4.3636	0.	4104.6
16373	7.3448	4.3636	5.e-002	10.203
16374	7.3448	4.0909	0.	4069.8
16375	7.253	4.1818	0.	4097.3
16376	7.3448	4.1818	5.e-002	10.206
16377	7.3448	3.9091	0.	4064.1
16378	7.253	4.	0.	4090.9
16379	7.3448	4.	5.e-002	10.209
16380	7.3448	3.7273	0.	4059.4
16381	7.253	3.8182	0.	4085.5
16382	7.3448	3.8182	5.e-002	10.21
16383	7.3448	3.5455	0.	4055.7
16384	7.253	3.6364	0.	4081.1
16385	7.3448	3.6364	5.e-002	10.21
16386	7.3448	3.3636	0.	4053.
16387	7.253	3.4545	0.	4077.8
16388	7.3448	3.4545	5.e-002	10.21
16389	7.3448	3.1818	0.	4051.4
16390	7.253	3.2727	0.	4075.6
16391	7.3448	3.2727	5.e-002	10.21
16392	7.3448	3.	0.	4050.9
16393	7.253	3.0909	0.	4074.5
16394	7.3448	3.0909	5.e-002	10.21
16395	7.3448	2.8182	0.	4051.4
16396	7.253	2.9091	0.	4074.5
16397	7.3448	2.9091	5.e-002	10.21
16398	7.3448	2.6364	0.	4053.
16399	7.253	2.7273	0.	4075.6
16400	7.3448	2.7273	5.e-002	10.21
16401	7.3448	2.4545	0.	4055.7
16402	7.253	2.5455	0.	4077.8
16403	7.3448	2.5455	5.e-002	10.21
16404	7.3448	2.2727	0.	4059.4
16405	7.253	2.3636	0.	4081.1
16406	7.3448	2.3636	5.e-002	10.21
16407	7.3448	2.0909	0.	4064.1
16408	7.253	2.1818	0.	4085.5
16409	7.3448	2.1818	5.e-002	10.21
16410	7.3448	1.9091	0.	4069.8
16411	7.253	2.	0.	4090.9
16412	7.3448	2.	5.e-002	10.209
16413	7.3448	1.7273	0.	4076.3
16414	7.253	1.8182	0.	4097.3
16415	7.3448	1.8182	5.e-002	10.206
16416	7.3448	1.5455	0.	4083.8
16417	7.253	1.6364	0.	4104.6
16418	7.3448	1.6364	5.e-002	10.203
16419	7.3448	1.3636	0.	4092.
16420	7.253	1.4545	0.	4112.8
16421	7.3448	1.4545	5.e-002	10.198
16422	7.3448	1.1818	0.	4101.
16423	7.253	1.2727	0.	4121.7
16424	7.3448	1.2727	5.e-002	10.19
16425	7.3448	1.	0.	4110.6
16426	7.253	1.0909	0.	4131.4
16427	7.3448	1.0909	5.e-002	10.18
16428	7.3448	0.81818	0.	4120.8
16429	7.253	0.90909	0.	4141.7
16430	7.3448	0.90909	5.e-002	10.167
16431	7.3448	0.63636	0.	4131.5
16432	7.253	0.72727	0.	4152.6
16433	7.3448	0.72727	5.e-002	10.149
16434	7.3448	0.45455	0.	4142.6
16435	7.253	0.54545	0.	4164.
16436	7.3448	0.54545	5.e-002	10.106
16437	7.3448	0.27273	0.	4154.5
16438	7.253	0.36364	0.	4175.8
16439	7.3448	0.36364	5.e-002	9.7235
16440	7.253	0.18182	0.	4188.6
16441	7.3448	0.18182	5.e-002	4.3574
16442	7.3448	9.0909e-002	0.	4163.2
16443	7.1612	5.7273	0.	4209.9
16444	7.0694	5.8182	0.	4244.6
16445	7.1612	5.8182	5.e-002	4.7729
16446	7.1612	5.9091	0.	4219.7
16447	7.1612	5.5455	0.	4197.2
16448	7.0694	5.6364	0.	4230.9
16449	7.1612	5.6364	5.e-002	9.8478
16450	7.1612	5.3636	0.	4185.1
16451	7.0694	5.4545	0.	4218.2
16452	7.1612	5.4545	5.e-002	10.212
16453	7.1612	5.1818	0.	4173.6
16454	7.0694	5.2727	0.	4205.9
16455	7.1612	5.2727	5.e-002	10.255
16456	7.1612	5.	0.	4162.6
16457	7.0694	5.0909	0.	4194.2
16458	7.1612	5.0909	5.e-002	10.273
16459	7.1612	4.8182	0.	4152.2
16460	7.0694	4.9091	0.	4183.
16461	7.1612	4.9091	5.e-002	10.286
16462	7.1612	4.6364	0.	4142.5
16463	7.0694	4.7273	0.	4172.6
16464	7.1612	4.7273	5.e-002	10.296
16465	7.1612	4.4545	0.	4133.6
16466	7.0694	4.5455	0.	4162.9
16467	7.1612	4.5455	5.e-002	10.303
16468	7.1612	4.2727	0.	4125.6
16469	7.0694	4.3636	0.	4154.
16470	7.1612	4.3636	5.e-002	10.308
16471	7.1612	4.0909	0.	4118.5
16472	7.0694	4.1818	0.	4146.1
16473	7.1612	4.1818	5.e-002	10.31
16474	7.1612	3.9091	0.	4112.3
16475	7.0694	4.	0.	4139.2
16476	7.1612	4.	5.e-002	10.312
16477	7.1612	3.7273	0.	4107.3
16478	7.0694	3.8182	0.	4133.4
16479	7.1612	3.8182	5.e-002	10.312
16480	7.1612	3.5455	0.	4103.3
16481	7.0694	3.6364	0.	4128.7
16482	7.1612	3.6364	5.e-002	10.312
16483	7.1612	3.3636	0.	4100.4
16484	7.0694	3.4545	0.	4125.1
16485	7.1612	3.4545	5.e-002	10.311
16486	7.1612	3.1818	0.	4098.6
16487	7.0694	3.2727	0.	4122.7
16488	7.1612	3.2727	5.e-002	10.311
16489	7.1612	3.	0.	4098.1
16490	7.0694	3.0909	0.	4121.5
16491	7.1612	3.0909	5.e-002	10.311
16492	7.1612	2.8182	0.	4098.6
16493	7.0694	2.9091	0.	4121.5
16494	7.1612	2.9091	5.e-002	10.311
16495	7.1612	2.6364	0.	4100.4
16496	7.0694	2.7273	0.	4122.7
16497	7.1612	2.7273	5.e-002	10.311
16498	7.1612	2.4545	0.	4103.3
16499	7.0694	2.5455	0.	4125.1
16500	7.1612	2.5455	5.e-002	10.311
16501	7.1612	2.2727	0.	4107.3
16502	7.0694	2.3636	0.	4128.7
16503	7.1612	2.3636	5.e-002	10.312
16504	7.1612	2.0909	0.	4112.3
16505	7.0694	2.1818	0.	4133.4
16506	7.1612	2.1818	5.e-002	10.312
16507	7.1612	1.9091	0.	4118.5
16508	7.0694	2.	0.	4139.2
16509	7.1612	2.	5.e-002	10.312
16510	7.1612	1.7273	0.	4125.6
16511	7.0694	1.8182	0.	4146.1
16512	7.1612	1.8182	5.e-002	10.31
16513	7.1612	1.5455	0.	4133.6
16514	7.0694	1.6364	0.	4154.
16515	7.1612	1.6364	5.e-002	10.308
16516	7.1612	1.3636	0.	4142.5
16517	7.0694	1.4545	0.	4162.9
16518	7.1612	1.4545	5.e-002	10.303
16519	7.1612	1.1818	0.	4152.2
16520	7.0694	1.2727	0.	4172.6
16521	7.1612	1.2727	5.e-002	10.296
16522	7.1612	1.	0.	4162.6
16523	7.0694	1.0909	0.	4183.
16524	7.1612	1.0909	5.e-002	10.286
16525	7.1612	0.81818	0.	4173.6
16526	7.0694	0.90909	0.	4194.2
16527	7.1612	0.90909	5.e-002	10.273
16528	7.1612	0.63636	0.	4185.1
16529	7.0694	0.72727	0.	4205.9
16530	7.1612	0.72727	5.e-002	10.255
16531	7.1612	0.45455	0.	4197.2
16532	7.0694	0.54545	0.	4218.2
16533	7.1612	0.54545	5.e-002	10.212
16534	7.1612	0.27273	0.	4209.9
16535	7.0694	0.36364	0.	4230.9
16536	7.1612	0.36364	5.e-002	9.8478
16537	7.0694	0.18182	0.	4244.6
16538	7.1612	0.18182	5.e-002	4.7729
16539	7.1612	9.0909e-002	0.	4219.7
16540	6.9776	5.7273	0.	4265.6
16541	6.8858	5.8182	0.	4301.
16542	6.9776	5.8182	5.e-002	5.2226
16543	6.9776	5.9091	0.	4276.5
16544	6.9776	5.5455	0.	4251.9
16545	6.8858	5.6364	0.	4286.3
16546	6.9776	5.6364	5.e-002	9.9818
16547	6.9776	5.3636	0.	4239.
16548	6.8858	5.4545	0.	4272.6
16549	6.9776	5.4545	5.e-002	10.326
16550	6.9776	5.1818	0.	4226.5
16551	6.8858	5.2727	0.	4259.4
16552	6.9776	5.2727	5.e-002	10.368
16553	6.9776	5.	0.	4214.6
16554	6.8858	5.0909	0.	4246.7
16555	6.9776	5.0909	5.e-002	10.387
16556	6.9776	4.8182	0.	4203.4
16557	6.8858	4.9091	0.	4234.6
16558	6.9776	4.9091	5.e-002	10.4
16559	6.9776	4.6364	0.	4192.9
16560	6.8858	4.7273	0.	4223.3
16561	6.9776	4.7273	5.e-002	10.409
16562	6.9776	4.4545	0.	4183.3
16563	6.8858	4.5455	0.	4212.8
16564	6.9776	4.5455	5.e-002	10.415
16565	6.9776	4.2727	0.	4174.6
16566	6.8858	4.3636	0.	4203.3
16567	6.9776	4.3636	5.e-002	10.419
16568	6.9776	4.0909	0.	4166.9
16569	6.8858	4.1818	0.	4194.7
16570	6.9776	4.1818	5.e-002	10.421
16571	6.9776	3.9091	0.	4160.3
16572	6.8858	4.	0.	4187.3
16573	6.9776	4.	5.e-002	10.421
16574	6.9776	3.7273	0.	4154.8
16575	6.8858	3.8182	0.	4181.
16576	6.9776	3.8182	5.e-002	10.421
16577	6.9776	3.5455	0.	4150.5
16578	6.8858	3.6364	0.	4175.8
16579	6.9776	3.6364	5.e-002	10.42
16580	6.9776	3.3636	0.	4147.4
16581	6.8858	3.4545	0.	4171.9
16582	6.9776	3.4545	5.e-002	10.419
16583	6.9776	3.1818	0.	4145.5
16584	6.8858	3.2727	0.	4169.3
16585	6.9776	3.2727	5.e-002	10.418
16586	6.9776	3.	0.	4144.8
16587	6.8858	3.0909	0.	4168.
16588	6.9776	3.0909	5.e-002	10.417
16589	6.9776	2.8182	0.	4145.5
16590	6.8858	2.9091	0.	4168.
16591	6.9776	2.9091	5.e-002	10.417
16592	6.9776	2.6364	0.	4147.4
16593	6.8858	2.7273	0.	4169.3
16594	6.9776	2.7273	5.e-002	10.418
16595	6.9776	2.4545	0.	4150.5
16596	6.8858	2.5455	0.	4171.9
16597	6.9776	2.5455	5.e-002	10.419
16598	6.9776	2.2727	0.	4154.8
16599	6.8858	2.3636	0.	4175.8
16600	6.9776	2.3636	5.e-002	10.42
16601	6.9776	2.0909	0.	4160.3
16602	6.8858	2.1818	0.	4181.
16603	6.9776	2.1818	5.e-002	10.421
16604	6.9776	1.9091	0.	4166.9
16605	6.8858	2.	0.	4187.3
16606	6.9776	2.	5.e-002	10.421
16607	6.9776	1.7273	0.	4174.6
16608	6.8858	1.8182	0.	4194.7
16609	6.9776	1.8182	5.e-002	10.421
16610	6.9776	1.5455	0.	4183.3
16611	6.8858	1.6364	0.	4203.3
16612	6.9776	1.6364	5.e-002	10.419
16613	6.9776	1.3636	0.	4192.9
16614	6.8858	1.4545	0.	4212.8
16615	6.9776	1.4545	5.e-002	10.415
16616	6.9776	1.1818	0.	4203.4
16617	6.8858	1.2727	0.	4223.3
16618	6.9776	1.2727	5.e-002	10.409
16619	6.9776	1.	0.	4214.6
16620	6.8858	1.0909	0.	4234.6
16621	6.9776	1.0909	5.e-002	10.4
16622	6.9776	0.81818	0.	4226.5
16623	6.8858	0.90909	0.	4246.7
16624	6.9776	0.90909	5.e-002	10.387
16625	6.9776	0.63636	0.	4239.
16626	6.8858	0.72727	0.	4259.4
16627	6.9776	0.72727	5.e-002	10.368
16628	6.9776	0.45455	0.	4251.9
16629	6.8858	0.54545	0.	4272.6
16630	6.9776	0.54545	5.e-002	10.326
16631	6.9776	0.27273	0.	4265.6
16632	6.8858	0.36364	0.	4286.3
16633	6.9776	0.36364	5.e-002	9.9818
16634	6.8858	0.18182	0.	4301.
16635	6.9776	0.18182	5.e-002	5.2226
16636	6.9776	9.0909e-002	0.	4276.5
16637	6.794	5.7273	0.	4321.6
16638	6.7022	5.8182	0.	4357.7
16639	6.794	5.8182	5.e-002	5.7092
16640	6.794	5.9091	0.	4333.7
16641	6.794	5.5455	0.	4307.
16642	6.7022	5.6364	0.	4342.
16643	6.794	5.6364	5.e-002	10.126
16644	6.794	5.3636	0.	4293.
16645	6.7022	5.4545	0.	4327.2
16646	6.794	5.4545	5.e-002	10.449
16647	6.794	5.1818	0.	4279.5
16648	6.7022	5.2727	0.	4312.9
16649	6.794	5.2727	5.e-002	10.49
16650	6.794	5.	0.	4266.7
16651	6.7022	5.0909	0.	4299.2
16652	6.794	5.0909	5.e-002	10.509
16653	6.794	4.8182	0.	4254.5
16654	6.7022	4.9091	0.	4286.2
16655	6.794	4.9091	5.e-002	10.522
16656	6.794	4.6364	0.	4243.2
16657	6.7022	4.7273	0.	4274.
16658	6.794	4.7273	5.e-002	10.53
16659	6.794	4.4545	0.	4232.8
16660	6.7022	4.5455	0.	4262.6
16661	6.794	4.5455	5.e-002	10.536
16662	6.794	4.2727	0.	4223.4
16663	6.7022	4.3636	0.	4252.3
16664	6.794	4.3636	5.e-002	10.539
16665	6.794	4.0909	0.	4215.1
16666	6.7022	4.1818	0.	4243.1
16667	6.794	4.1818	5.e-002	10.539
16668	6.794	3.9091	0.	4207.9
16669	6.7022	4.	0.	4235.
16670	6.794	4.	5.e-002	10.538
16671	6.794	3.7273	0.	4202.
16672	6.7022	3.8182	0.	4228.1
16673	6.794	3.8182	5.e-002	10.537
16674	6.794	3.5455	0.	4197.3
16675	6.7022	3.6364	0.	4222.6
16676	6.794	3.6364	5.e-002	10.535
16677	6.794	3.3636	0.	4193.9
16678	6.7022	3.4545	0.	4218.4
16679	6.794	3.4545	5.e-002	10.533
16680	6.794	3.1818	0.	4191.9
16681	6.7022	3.2727	0.	4215.6
16682	6.794	3.2727	5.e-002	10.531
16683	6.794	3.	0.	4191.2
16684	6.7022	3.0909	0.	4214.1
16685	6.794	3.0909	5.e-002	10.53
16686	6.794	2.8182	0.	4191.9
16687	6.7022	2.9091	0.	4214.1
16688	6.794	2.9091	5.e-002	10.53
16689	6.794	2.6364	0.	4193.9
16690	6.7022	2.7273	0.	4215.6
16691	6.794	2.7273	5.e-002	10.531
16692	6.794	2.4545	0.	4197.3
16693	6.7022	2.5455	0.	4218.4
16694	6.794	2.5455	5.e-002	10.533
16695	6.794	2.2727	0.	4202.
16696	6.7022	2.3636	0.	4222.6
16697	6.794	2.3636	5.e-002	10.535
16698	6.794	2.0909	0.	4207.9
16699	6.7022	2.1818	0.	4228.1
16700	6.794	2.1818	5.e-002	10.537
16701	6.794	1.9091	0.	4215.1
16702	6.7022	2.	0.	4235.
16703	6.794	2.	5.e-002	10.538
16704	6.794	1.7273	0.	4223.4
16705	6.7022	1.8182	0.	4243.1
16706	6.794	1.8182	5.e-002	10.539
16707	6.794	1.5455	0.	4232.8
16708	6.7022	1.6364	0.	4252.3
16709	6.794	1.6364	5.e-002	10.539
16710	6.794	1.3636	0.	4243.2
16711	6.7022	1.4545	0.	4262.6
16712	6.794	1.4545	5.e-002	10.536
16713	6.794	1.1818	0.	4254.5
16714	6.7022	1.2727	0.	4274.
16715	6.794	1.2727	5.e-002	10.53
16716	6.794	1.	0.	4266.7
16717	6.7022	1.0909	0.	4286.2
16718	6.794	1.0909	5.e-002	10.522
16719	6.794	0.81818	0.	4279.5
16720	6.7022	0.90909	0.	4299.2
16721	6.794	0.90909	5.e-002	10.509
16722	6.794	0.63636	0.	4293.
16723	6.7022	0.72727	0.	4312.9
16724	6.794	0.72727	5.e-002	10.49
16725	6.794	0.45455	0.	4307.
16726	6.7022	0.54545	0.	4327.2
16727	6.794	0.54545	5.e-002	10.449
16728	6.794	0.27273	0.	4321.6
16729	6.7022	0.36364	0.	4342.
16730	6.794	0.36364	5.e-002	10.126
16731	6.7022	0.18182	0.	4357.7
16732	6.794	0.18182	5.e-002	5.7092
16733	6.794	9.0909e-002	0.	4333.7
16734	6.6103	5.7273	0.	4378.
16735	6.5185	5.8182	0.	4414.8
16736	6.6103	5.8182	5.e-002	6.2354
16737	6.6103	5.9091	0.	4391.3
16738	6.6103	5.5455	0.	4362.2
16739	6.5185	5.6364	0.	4398.
16740	6.6103	5.6364	5.e-002	10.282
16741	6.6103	5.3636	0.	4347.1
16742	6.5185	5.4545	0.	4382.
16743	6.6103	5.4545	5.e-002	10.582
16744	6.6103	5.1818	0.	4332.6
16745	6.5185	5.2727	0.	4366.6
16746	6.6103	5.2727	5.e-002	10.622
16747	6.6103	5.	0.	4318.7
16748	6.5185	5.0909	0.	4351.8
16749	6.6103	5.0909	5.e-002	10.64
16750	6.6103	4.8182	0.	4305.6
16751	6.5185	4.9091	0.	4337.7
16752	6.6103	4.9091	5.e-002	10.653
16753	6.6103	4.6364	0.	4293.4
16754	6.5185	4.7273	0.	4324.5
16755	6.6103	4.7273	5.e-002	10.661
16756	6.6103	4.4545	0.	4282.1
16757	6.5185	4.5455	0.	4312.3
16758	6.6103	4.5455	5.e-002	10.665
16759	6.6103	4.2727	0.	4272.
16760	6.5185	4.3636	0.	4301.1
16761	6.6103	4.3636	5.e-002	10.666
16762	6.6103	4.0909	0.	4263.
16763	6.5185	4.1818	0.	4291.1
16764	6.6103	4.1818	5.e-002	10.666
16765	6.6103	3.9091	0.	4255.2
16766	6.5185	4.	0.	4282.3
16767	6.6103	4.	5.e-002	10.663
16768	6.6103	3.7273	0.	4248.8
16769	6.5185	3.8182	0.	4274.9
16770	6.6103	3.8182	5.e-002	10.66
16771	6.6103	3.5455	0.	4243.7
16772	6.5185	3.6364	0.	4268.9
16773	6.6103	3.6364	5.e-002	10.657
16774	6.6103	3.3636	0.	4240.
16775	6.5185	3.4545	0.	4264.4
16776	6.6103	3.4545	5.e-002	10.654
16777	6.6103	3.1818	0.	4237.8
16778	6.5185	3.2727	0.	4261.3
16779	6.6103	3.2727	5.e-002	10.652
16780	6.6103	3.	0.	4237.1
16781	6.5185	3.0909	0.	4259.8
16782	6.6103	3.0909	5.e-002	10.651
16783	6.6103	2.8182	0.	4237.8
16784	6.5185	2.9091	0.	4259.8
16785	6.6103	2.9091	5.e-002	10.651
16786	6.6103	2.6364	0.	4240.
16787	6.5185	2.7273	0.	4261.3
16788	6.6103	2.7273	5.e-002	10.652
16789	6.6103	2.4545	0.	4243.7
16790	6.5185	2.5455	0.	4264.4
16791	6.6103	2.5455	5.e-002	10.654
16792	6.6103	2.2727	0.	4248.8
16793	6.5185	2.3636	0.	4268.9
16794	6.6103	2.3636	5.e-002	10.657
16795	6.6103	2.0909	0.	4255.2
16796	6.5185	2.1818	0.	4274.9
16797	6.6103	2.1818	5.e-002	10.66
16798	6.6103	1.9091	0.	4263.
16799	6.5185	2.	0.	4282.3
16800	6.6103	2.	5.e-002	10.663
16801	6.6103	1.7273	0.	4272.
16802	6.5185	1.8182	0.	4291.1
16803	6.6103	1.8182	5.e-002	10.666
16804	6.6103	1.5455	0.	4282.1
16805	6.5185	1.6364	0.	4301.1
16806	6.6103	1.6364	5.e-002	10.666
16807	6.6103	1.3636	0.	4293.4
16808	6.5185	1.4545	0.	4312.3
16809	6.6103	1.4545	5.e-002	10.665
16810	6.6103	1.1818	0.	4305.6
16811	6.5185	1.2727	0.	4324.5
16812	6.6103	1.2727	5.e-002	10.661
16813	6.6103	1.	0.	4318.7
16814	6.5185	1.0909	0.	4337.7
16815	6.6103	1.0909	5.e-002	10.653
16816	6.6103	0.81818	0.	4332.6
16817	6.5185	0.90909	0.	4351.8
16818	6.6103	0.90909	5.e-002	10.64
16819	6.6103	0.63636	0.	4347.1
16820	6.5185	0.72727	0.	4366.6
16821	6.6103	0.72727	5.e-002	10.622
16822	6.6103	0.45455	0.	4362.2
16823	6.5185	0.54545	0.	4382.
16824	6.6103	0.54545	5.e-002	10.582
16825	6.6103	0.27273	0.	4378.
16826	6.5185	0.36364	0.	4398.
16827	6.6103	0.36364	5.e-002	10.282
16828	6.5185	0.18182	0.	4414.8
16829	6.6103	0.18182	5.e-002	6.2354
16830	6.6103	9.0909e-002	0.	4391.3
16831	6.4267	5.7273	0.	4434.8
16832	6.3349	5.8182	0.	4472.4
16833	6.4267	5.8182	5.e-002	6.8042
16834	6.4267	5.9091	0.	4449.4
16835	6.4267	5.5455	0.	4417.8
16836	6.3349	5.6364	0.	4454.3
16837	6.4267	5.6364	5.e-002	10.451
16838	6.4267	5.3636	0.	4401.5
16839	6.3349	5.4545	0.	4437.1
16840	6.4267	5.4545	5.e-002	10.725
16841	6.4267	5.1818	0.	4385.8
16842	6.3349	5.2727	0.	4420.4
16843	6.4267	5.2727	5.e-002	10.764
16844	6.4267	5.	0.	4370.8
16845	6.3349	5.0909	0.	4404.4
16846	6.4267	5.0909	5.e-002	10.782
16847	6.4267	4.8182	0.	4356.6
16848	6.3349	4.9091	0.	4389.2
16849	6.4267	4.9091	5.e-002	10.794
16850	6.4267	4.6364	0.	4343.4
16851	6.3349	4.7273	0.	4374.9
16852	6.4267	4.7273	5.e-002	10.801
16853	6.4267	4.4545	0.	4331.2
16854	6.3349	4.5455	0.	4361.7
16855	6.4267	4.5455	5.e-002	10.804
16856	6.4267	4.2727	0.	4320.2
16857	6.3349	4.3636	0.	4349.6
16858	6.4267	4.3636	5.e-002	10.804
16859	6.4267	4.0909	0.	4310.5
16860	6.3349	4.1818	0.	4338.8
16861	6.4267	4.1818	5.e-002	10.801
16862	6.4267	3.9091	0.	4302.1
16863	6.3349	4.	0.	4329.3
16864	6.4267	4.	5.e-002	10.797
16865	6.4267	3.7273	0.	4295.1
16866	6.3349	3.8182	0.	4321.3
16867	6.4267	3.8182	5.e-002	10.793
16868	6.4267	3.5455	0.	4289.6
16869	6.3349	3.6364	0.	4314.8
16870	6.4267	3.6364	5.e-002	10.788
16871	6.4267	3.3636	0.	4285.7
16872	6.3349	3.4545	0.	4309.8
16873	6.4267	3.4545	5.e-002	10.784
16874	6.4267	3.1818	0.	4283.3
16875	6.3349	3.2727	0.	4306.5
16876	6.4267	3.2727	5.e-002	10.781
16877	6.4267	3.	0.	4282.5
16878	6.3349	3.0909	0.	4304.9
16879	6.4267	3.0909	5.e-002	10.779
16880	6.4267	2.8182	0.	4283.3
16881	6.3349	2.9091	0.	4304.9
16882	6.4267	2.9091	5.e-002	10.779
16883	6.4267	2.6364	0.	4285.7
16884	6.3349	2.7273	0.	4306.5
16885	6.4267	2.7273	5.e-002	10.781
16886	6.4267	2.4545	0.	4289.6
16887	6.3349	2.5455	0.	4309.8
16888	6.4267	2.5455	5.e-002	10.784
16889	6.4267	2.2727	0.	4295.1
16890	6.3349	2.3636	0.	4314.8
16891	6.4267	2.3636	5.e-002	10.788
16892	6.4267	2.0909	0.	4302.1
16893	6.3349	2.1818	0.	4321.3
16894	6.4267	2.1818	5.e-002	10.793
16895	6.4267	1.9091	0.	4310.5
16896	6.3349	2.	0.	4329.3
16897	6.4267	2.	5.e-002	10.797
16898	6.4267	1.7273	0.	4320.2
16899	6.3349	1.8182	0.	4338.8
16900	6.4267	1.8182	5.e-002	10.801
16901	6.4267	1.5455	0.	4331.2
16902	6.3349	1.6364	0.	4349.6
16903	6.4267	1.6364	5.e-002	10.804
16904	6.4267	1.3636	0.	4343.4
16905	6.3349	1.4545	0.	4361.7
16906	6.4267	1.4545	5.e-002	10.804
16907	6.4267	1.1818	0.	4356.6
16908	6.3349	1.2727	0.	4374.9
16909	6.4267	1.2727	5.e-002	10.801
16910	6.4267	1.	0.	4370.8
16911	6.3349	1.0909	0.	4389.2
16912	6.4267	1.0909	5.e-002	10.794
16913	6.4267	0.81818	0.	4385.8
16914	6.3349	0.90909	0.	4404.4
16915	6.4267	0.90909	5.e-002	10.782
16916	6.4267	0.63636	0.	4401.5
16917	6.3349	0.72727	0.	4420.4
16918	6.4267	0.72727	5.e-002	10.764
16919	6.4267	0.45455	0.	4417.8
16920	6.3349	0.54545	0.	4437.1
16921	6.4267	0.54545	5.e-002	10.725
16922	6.4267	0.27273	0.	4434.8
16923	6.3349	0.36364	0.	4454.3
16924	6.4267	0.36364	5.e-002	10.451
16925	6.3349	0.18182	0.	4472.4
16926	6.4267	0.18182	5.e-002	6.8043
16927	6.4267	9.0909e-002	0.	4449.4
16928	6.2431	5.7273	0.	4491.9
16929	6.1513	5.8182	0.	4530.3
16930	6.2431	5.8182	5.e-002	7.4189
16931	6.2431	5.9091	0.	4507.9
16932	6.2431	5.5455	0.	4473.6
16933	6.1513	5.6364	0.	4510.9
16934	6.2431	5.6364	5.e-002	10.634
16935	6.2431	5.3636	0.	4456.
16936	6.1513	5.4545	0.	4492.3
16937	6.2431	5.4545	5.e-002	10.88
16938	6.2431	5.1818	0.	4439.
16939	6.1513	5.2727	0.	4474.3
16940	6.2431	5.2727	5.e-002	10.918
16941	6.2431	5.	0.	4422.8
16942	6.1513	5.0909	0.	4457.
16943	6.2431	5.0909	5.e-002	10.936
16944	6.2431	4.8182	0.	4407.5
16945	6.1513	4.9091	0.	4440.6
16946	6.2431	4.9091	5.e-002	10.947
16947	6.2431	4.6364	0.	4393.2
16948	6.1513	4.7273	0.	4425.2
16949	6.2431	4.7273	5.e-002	10.952
16950	6.2431	4.4545	0.	4380.
16951	6.1513	4.5455	0.	4410.8
16952	6.2431	4.5455	5.e-002	10.954
16953	6.2431	4.2727	0.	4368.1
16954	6.1513	4.3636	0.	4397.8
16955	6.2431	4.3636	5.e-002	10.952
16956	6.2431	4.0909	0.	4357.6
16957	6.1513	4.1818	0.	4386.1
16958	6.2431	4.1818	5.e-002	10.947
16959	6.2431	3.9091	0.	4348.5
16960	6.1513	4.	0.	4375.8
16961	6.2431	4.	5.e-002	10.941
16962	6.2431	3.7273	0.	4341.
16963	6.1513	3.8182	0.	4367.1
16964	6.2431	3.8182	5.e-002	10.935
16965	6.2431	3.5455	0.	4335.
16966	6.1513	3.6364	0.	4360.1
16967	6.2431	3.6364	5.e-002	10.929
16968	6.2431	3.3636	0.	4330.7
16969	6.1513	3.4545	0.	4354.8
16970	6.2431	3.4545	5.e-002	10.923
16971	6.2431	3.1818	0.	4328.1
16972	6.1513	3.2727	0.	4351.2
16973	6.2431	3.2727	5.e-002	10.919
16974	6.2431	3.	0.	4327.3
16975	6.1513	3.0909	0.	4349.4
16976	6.2431	3.0909	5.e-002	10.917
16977	6.2431	2.8182	0.	4328.1
16978	6.1513	2.9091	0.	4349.4
16979	6.2431	2.9091	5.e-002	10.917
16980	6.2431	2.6364	0.	4330.7
16981	6.1513	2.7273	0.	4351.2
16982	6.2431	2.7273	5.e-002	10.919
16983	6.2431	2.4545	0.	4335.
16984	6.1513	2.5455	0.	4354.8
16985	6.2431	2.5455	5.e-002	10.923
16986	6.2431	2.2727	0.	4341.
16987	6.1513	2.3636	0.	4360.1
16988	6.2431	2.3636	5.e-002	10.929
16989	6.2431	2.0909	0.	4348.5
16990	6.1513	2.1818	0.	4367.1
16991	6.2431	2.1818	5.e-002	10.935
16992	6.2431	1.9091	0.	4357.6
16993	6.1513	2.	0.	4375.8
16994	6.2431	2.	5.e-002	10.941
16995	6.2431	1.7273	0.	4368.1
16996	6.1513	1.8182	0.	4386.1
16997	6.2431	1.8182	5.e-002	10.947
16998	6.2431	1.5455	0.	4380.
16999	6.1513	1.6364	0.	4397.8
17000	6.2431	1.6364	5.e-002	10.952
17001	6.2431	1.3636	0.	4393.2
17002	6.1513	1.4545	0.	4410.8
17003	6.2431	1.4545	5.e-002	10.954
17004	6.2431	1.1818	0.	4407.5
17005	6.1513	1.2727	0.	4425.2
17006	6.2431	1.2727	5.e-002	10.952
17007	6.2431	1.	0.	4422.8
17008	6.1513	1.0909	0.	4440.6
17009	6.2431	1.0909	5.e-002	10.947
17010	6.2431	0.81818	0.	4439.
17011	6.1513	0.90909	0.	4457.
17012	6.2431	0.90909	5.e-002	10.936
17013	6.2431	0.63636	0.	4456.
17014	6.1513	0.72727	0.	4474.3
17015	6.2431	0.72727	5.e-002	10.918
17016	6.2431	0.45455	0.	4473.6
17017	6.1513	0.54545	0.	4492.3
17018	6.2431	0.54545	5.e-002	10.88
17019	6.2431	0.27273	0.	4491.9
17020	6.1513	0.36364	0.	4510.9
17021	6.2431	0.36364	5.e-002	10.634
17022	6.1513	0.18182	0.	4530.3
17023	6.2431	0.18182	5.e-002	7.4189
17024	6.2431	9.0909e-002	0.	4507.9
17025	6.0595	5.7273	0.	4549.4
17026	5.9677	5.8182	0.	4588.8
17027	6.0595	5.8182	5.e-002	8.0827
17028	6.0595	5.9091	0.	4566.8
17029	6.0595	5.5455	0.	4529.7
17030	5.9677	5.6364	0.	4567.9
17031	6.0595	5.6364	5.e-002	10.832
17032	6.0595	5.3636	0.	4510.7
17033	5.9677	5.4545	0.	4547.8
17034	6.0595	5.4545	5.e-002	11.049
17035	6.0595	5.1818	0.	4492.3
17036	5.9677	5.2727	0.	4528.4
17037	6.0595	5.2727	5.e-002	11.084
17038	6.0595	5.	0.	4474.8
17039	5.9677	5.0909	0.	4509.7
17040	6.0595	5.0909	5.e-002	11.102
17041	6.0595	4.8182	0.	4458.3
17042	5.9677	4.9091	0.	4491.9
17043	6.0595	4.9091	5.e-002	11.112
17044	6.0595	4.6364	0.	4442.8
17045	5.9677	4.7273	0.	4475.2
17046	6.0595	4.7273	5.e-002	11.116
17047	6.0595	4.4545	0.	4428.6
17048	5.9677	4.5455	0.	4459.8
17049	6.0595	4.5455	5.e-002	11.116
17050	6.0595	4.2727	0.	4415.7
17051	5.9677	4.3636	0.	4445.6
17052	6.0595	4.3636	5.e-002	11.112
17053	6.0595	4.0909	0.	4404.3
17054	5.9677	4.1818	0.	4433.
17055	6.0595	4.1818	5.e-002	11.105
17056	6.0595	3.9091	0.	4394.5
17057	5.9677	4.	0.	4421.9
17058	6.0595	4.	5.e-002	11.097
17059	6.0595	3.7273	0.	4386.3
17060	5.9677	3.8182	0.	4412.5
17061	6.0595	3.8182	5.e-002	11.088
17062	6.0595	3.5455	0.	4379.8
17063	5.9677	3.6364	0.	4404.8
17064	6.0595	3.6364	5.e-002	11.08
17065	6.0595	3.3636	0.	4375.2
17066	5.9677	3.4545	0.	4399.1
17067	6.0595	3.4545	5.e-002	11.073
17068	6.0595	3.1818	0.	4372.4
17069	5.9677	3.2727	0.	4395.2
17070	6.0595	3.2727	5.e-002	11.068
17071	6.0595	3.	0.	4371.5
17072	5.9677	3.0909	0.	4393.2
17073	6.0595	3.0909	5.e-002	11.065
17074	6.0595	2.8182	0.	4372.4
17075	5.9677	2.9091	0.	4393.2
17076	6.0595	2.9091	5.e-002	11.065
17077	6.0595	2.6364	0.	4375.2
17078	5.9677	2.7273	0.	4395.2
17079	6.0595	2.7273	5.e-002	11.068
17080	6.0595	2.4545	0.	4379.8
17081	5.9677	2.5455	0.	4399.1
17082	6.0595	2.5455	5.e-002	11.073
17083	6.0595	2.2727	0.	4386.3
17084	5.9677	2.3636	0.	4404.8
17085	6.0595	2.3636	5.e-002	11.08
17086	6.0595	2.0909	0.	4394.5
17087	5.9677	2.1818	0.	4412.5
17088	6.0595	2.1818	5.e-002	11.088
17089	6.0595	1.9091	0.	4404.3
17090	5.9677	2.	0.	4421.9
17091	6.0595	2.	5.e-002	11.097
17092	6.0595	1.7273	0.	4415.7
17093	5.9677	1.8182	0.	4433.
17094	6.0595	1.8182	5.e-002	11.105
17095	6.0595	1.5455	0.	4428.6
17096	5.9677	1.6364	0.	4445.6
17097	6.0595	1.6364	5.e-002	11.112
17098	6.0595	1.3636	0.	4442.8
17099	5.9677	1.4545	0.	4459.8
17100	6.0595	1.4545	5.e-002	11.116
17101	6.0595	1.1818	0.	4458.3
17102	5.9677	1.2727	0.	4475.2
17103	6.0595	1.2727	5.e-002	11.116
17104	6.0595	1.	0.	4474.8
17105	5.9677	1.0909	0.	4491.9
17106	6.0595	1.0909	5.e-002	11.112
17107	6.0595	0.81818	0.	4492.3
17108	5.9677	0.90909	0.	4509.7
17109	6.0595	0.90909	5.e-002	11.102
17110	6.0595	0.63636	0.	4510.7
17111	5.9677	0.72727	0.	4528.4
17112	6.0595	0.72727	5.e-002	11.084
17113	6.0595	0.45455	0.	4529.7
17114	5.9677	0.54545	0.	4547.8
17115	6.0595	0.54545	5.e-002	11.049
17116	6.0595	0.27273	0.	4549.4
17117	5.9677	0.36364	0.	4567.9
17118	6.0595	0.36364	5.e-002	10.832
17119	5.9677	0.18182	0.	4588.8
17120	6.0595	0.18182	5.e-002	8.0828
17121	6.0595	9.0909e-002	0.	4566.8
17122	5.8759	5.7273	0.	4607.3
17123	5.7841	5.8182	0.	4647.7
17124	5.8759	5.8182	5.e-002	8.7993
17125	5.8759	5.9091	0.	4626.3
17126	5.8759	5.5455	0.	4586.
17127	5.7841	5.6364	0.	4625.2
17128	5.8759	5.6364	5.e-002	11.046
17129	5.8759	5.3636	0.	4565.5
17130	5.7841	5.4545	0.	4603.6
17131	5.8759	5.4545	5.e-002	11.231
17132	5.8759	5.1818	0.	4545.7
17133	5.7841	5.2727	0.	4582.6
17134	5.8759	5.2727	5.e-002	11.265
17135	5.8759	5.	0.	4526.8
17136	5.7841	5.0909	0.	4562.4
17137	5.8759	5.0909	5.e-002	11.282
17138	5.8759	4.8182	0.	4508.9
17139	5.7841	4.9091	0.	4543.2
17140	5.8759	4.9091	5.e-002	11.291
17141	5.8759	4.6364	0.	4492.2
17142	5.7841	4.7273	0.	4525.1
17143	5.8759	4.7273	5.e-002	11.294
17144	5.8759	4.4545	0.	4476.8
17145	5.7841	4.5455	0.	4508.4
17146	5.8759	4.5455	5.e-002	11.291
17147	5.8759	4.2727	0.	4462.9
17148	5.7841	4.3636	0.	4493.1
17149	5.8759	4.3636	5.e-002	11.284
17150	5.8759	4.0909	0.	4450.5
17151	5.7841	4.1818	0.	4479.4
17152	5.8759	4.1818	5.e-002	11.275
17153	5.8759	3.9091	0.	4439.9
17154	5.7841	4.	0.	4467.4
17155	5.8759	4.	5.e-002	11.264
17156	5.8759	3.7273	0.	4431.
17157	5.7841	3.8182	0.	4457.2
17158	5.8759	3.8182	5.e-002	11.253
17159	5.8759	3.5455	0.	4424.1
17160	5.7841	3.6364	0.	4449.
17161	5.8759	3.6364	5.e-002	11.243
17162	5.8759	3.3636	0.	4419.
17163	5.7841	3.4545	0.	4442.7
17164	5.8759	3.4545	5.e-002	11.234
17165	5.8759	3.1818	0.	4416.
17166	5.7841	3.2727	0.	4438.5
17167	5.8759	3.2727	5.e-002	11.228
17168	5.8759	3.	0.	4415.
17169	5.7841	3.0909	0.	4436.4
17170	5.8759	3.0909	5.e-002	11.224
17171	5.8759	2.8182	0.	4416.
17172	5.7841	2.9091	0.	4436.4
17173	5.8759	2.9091	5.e-002	11.224
17174	5.8759	2.6364	0.	4419.
17175	5.7841	2.7273	0.	4438.5
17176	5.8759	2.7273	5.e-002	11.228
17177	5.8759	2.4545	0.	4424.1
17178	5.7841	2.5455	0.	4442.7
17179	5.8759	2.5455	5.e-002	11.234
17180	5.8759	2.2727	0.	4431.
17181	5.7841	2.3636	0.	4449.
17182	5.8759	2.3636	5.e-002	11.243
17183	5.8759	2.0909	0.	4439.9
17184	5.7841	2.1818	0.	4457.2
17185	5.8759	2.1818	5.e-002	11.253
17186	5.8759	1.9091	0.	4450.5
17187	5.7841	2.	0.	4467.4
17188	5.8759	2.	5.e-002	11.264
17189	5.8759	1.7273	0.	4462.9
17190	5.7841	1.8182	0.	4479.4
17191	5.8759	1.8182	5.e-002	11.275
17192	5.8759	1.5455	0.	4476.8
17193	5.7841	1.6364	0.	4493.1
17194	5.8759	1.6364	5.e-002	11.284
17195	5.8759	1.3636	0.	4492.2
17196	5.7841	1.4545	0.	4508.4
17197	5.8759	1.4545	5.e-002	11.291
17198	5.8759	1.1818	0.	4508.9
17199	5.7841	1.2727	0.	4525.1
17200	5.8759	1.2727	5.e-002	11.294
17201	5.8759	1.	0.	4526.8
17202	5.7841	1.0909	0.	4543.2
17203	5.8759	1.0909	5.e-002	11.291
17204	5.8759	0.81818	0.	4545.7
17205	5.7841	0.90909	0.	4562.4
17206	5.8759	0.90909	5.e-002	11.282
17207	5.8759	0.63636	0.	4565.5
17208	5.7841	0.72727	0.	4582.6
17209	5.8759	0.72727	5.e-002	11.265
17210	5.8759	0.45455	0.	4586.
17211	5.7841	0.54545	0.	4603.6
17212	5.8759	0.54545	5.e-002	11.231
17213	5.8759	0.27273	0.	4607.3
17214	5.7841	0.36364	0.	4625.2
17215	5.8759	0.36364	5.e-002	11.046
17216	5.7841	0.18182	0.	4647.7
17217	5.8759	0.18182	5.e-002	8.7993
17218	5.8759	9.0909e-002	0.	4626.3
17219	5.6922	5.7273	0.	4665.6
17220	5.6004	5.8182	0.	4707.1
17221	5.6922	5.8182	5.e-002	9.5723
17222	5.6922	5.9091	0.	4686.2
17223	5.6922	5.5455	0.	4642.7
17224	5.6004	5.6364	0.	4682.9
17225	5.6922	5.6364	5.e-002	11.279
17226	5.6922	5.3636	0.	4620.6
17227	5.6004	5.4545	0.	4659.5
17228	5.6922	5.4545	5.e-002	11.43
17229	5.6922	5.1818	0.	4599.2
17230	5.6004	5.2727	0.	4636.9
17231	5.6922	5.2727	5.e-002	11.461
17232	5.6922	5.	0.	4578.8
17233	5.6004	5.0909	0.	4615.1
17234	5.6922	5.0909	5.e-002	11.478
17235	5.6922	4.8182	0.	4559.4
17236	5.6004	4.9091	0.	4594.3
17237	5.6922	4.9091	5.e-002	11.486
17238	5.6922	4.6364	0.	4541.3
17239	5.6004	4.7273	0.	4574.8
17240	5.6922	4.7273	5.e-002	11.486
17241	5.6922	4.4545	0.	4524.7
17242	5.6004	4.5455	0.	4556.7
17243	5.6922	4.5455	5.e-002	11.481
17244	5.6922	4.2727	0.	4509.6
17245	5.6004	4.3636	0.	4540.2
17246	5.6922	4.3636	5.e-002	11.472
17247	5.6922	4.0909	0.	4496.3
17248	5.6004	4.1818	0.	4525.4
17249	5.6922	4.1818	5.e-002	11.46
17250	5.6922	3.9091	0.	4484.8
17251	5.6004	4.	0.	4512.4
17252	5.6922	4.	5.e-002	11.446
17253	5.6922	3.7273	0.	4475.2
17254	5.6004	3.8182	0.	4501.4
17255	5.6922	3.8182	5.e-002	11.432
17256	5.6922	3.5455	0.	4467.6
17257	5.6004	3.6364	0.	4492.5
17258	5.6922	3.6364	5.e-002	11.419
17259	5.6922	3.3636	0.	4462.2
17260	5.6004	3.4545	0.	4485.7
17261	5.6922	3.4545	5.e-002	11.408
17262	5.6922	3.1818	0.	4458.9
17263	5.6004	3.2727	0.	4481.1
17264	5.6922	3.2727	5.e-002	11.401
17265	5.6922	3.	0.	4457.8
17266	5.6004	3.0909	0.	4478.9
17267	5.6922	3.0909	5.e-002	11.397
17268	5.6922	2.8182	0.	4458.9
17269	5.6004	2.9091	0.	4478.9
17270	5.6922	2.9091	5.e-002	11.397
17271	5.6922	2.6364	0.	4462.2
17272	5.6004	2.7273	0.	4481.1
17273	5.6922	2.7273	5.e-002	11.401
17274	5.6922	2.4545	0.	4467.6
17275	5.6004	2.5455	0.	4485.7
17276	5.6922	2.5455	5.e-002	11.408
17277	5.6922	2.2727	0.	4475.2
17278	5.6004	2.3636	0.	4492.5
17279	5.6922	2.3636	5.e-002	11.419
17280	5.6922	2.0909	0.	4484.8
17281	5.6004	2.1818	0.	4501.4
17282	5.6922	2.1818	5.e-002	11.432
17283	5.6922	1.9091	0.	4496.3
17284	5.6004	2.	0.	4512.4
17285	5.6922	2.	5.e-002	11.446
17286	5.6922	1.7273	0.	4509.6
17287	5.6004	1.8182	0.	4525.4
17288	5.6922	1.8182	5.e-002	11.46
17289	5.6922	1.5455	0.	4524.7
17290	5.6004	1.6364	0.	4540.2
17291	5.6922	1.6364	5.e-002	11.472
17292	5.6922	1.3636	0.	4541.3
17293	5.6004	1.4545	0.	4556.7
17294	5.6922	1.4545	5.e-002	11.481
17295	5.6922	1.1818	0.	4559.4
17296	5.6004	1.2727	0.	4574.8
17297	5.6922	1.2727	5.e-002	11.486
17298	5.6922	1.	0.	4578.8
17299	5.6004	1.0909	0.	4594.3
17300	5.6922	1.0909	5.e-002	11.486
17301	5.6922	0.81818	0.	4599.2
17302	5.6004	0.90909	0.	4615.1
17303	5.6922	0.90909	5.e-002	11.478
17304	5.6922	0.63636	0.	4620.6
17305	5.6004	0.72727	0.	4636.9
17306	5.6922	0.72727	5.e-002	11.461
17307	5.6922	0.45455	0.	4642.7
17308	5.6004	0.54545	0.	4659.5
17309	5.6922	0.54545	5.e-002	11.43
17310	5.6922	0.27273	0.	4665.6
17311	5.6004	0.36364	0.	4682.9
17312	5.6922	0.36364	5.e-002	11.279
17313	5.6004	0.18182	0.	4707.1
17314	5.6922	0.18182	5.e-002	9.5723
17315	5.6922	9.0909e-002	0.	4686.3
17316	5.5086	5.7273	0.	4724.4
17317	5.4168	5.8182	0.	4767.1
17318	5.5086	5.8182	5.e-002	10.406
17319	5.5086	5.9091	0.	4746.8
17320	5.5086	5.5455	0.	4699.7
17321	5.4168	5.6364	0.	4741.
17322	5.5086	5.6364	5.e-002	11.531
17323	5.5086	5.3636	0.	4675.8
17324	5.4168	5.4545	0.	4715.8
17325	5.5086	5.4545	5.e-002	11.645
17326	5.5086	5.1818	0.	4652.7
17327	5.4168	5.2727	0.	4691.3
17328	5.5086	5.2727	5.e-002	11.675
17329	5.5086	5.	0.	4630.6
17330	5.4168	5.0909	0.	4667.7
17331	5.5086	5.0909	5.e-002	11.691
17332	5.5086	4.8182	0.	4609.7
17333	5.4168	4.9091	0.	4645.3
17334	5.5086	4.9091	5.e-002	11.697
17335	5.5086	4.6364	0.	4590.2
17336	5.4168	4.7273	0.	4624.3
17337	5.5086	4.7273	5.e-002	11.696
17338	5.5086	4.4545	0.	4572.2
17339	5.4168	4.5455	0.	4604.7
17340	5.5086	4.5455	5.e-002	11.688
17341	5.5086	4.2727	0.	4555.9
17342	5.4168	4.3636	0.	4586.8
17343	5.5086	4.3636	5.e-002	11.676
17344	5.5086	4.0909	0.	4541.5
17345	5.4168	4.1818	0.	4570.8
17346	5.5086	4.1818	5.e-002	11.66
17347	5.5086	3.9091	0.	4529.
17348	5.4168	4.	0.	4556.8
17349	5.5086	4.	5.e-002	11.643
17350	5.5086	3.7273	0.	4518.7
17351	5.4168	3.8182	0.	4544.9
17352	5.5086	3.8182	5.e-002	11.626
17353	5.5086	3.5455	0.	4510.5
17354	5.4168	3.6364	0.	4535.2
17355	5.5086	3.6364	5.e-002	11.61
17356	5.5086	3.3636	0.	4504.6
17357	5.4168	3.4545	0.	4527.9
17358	5.5086	3.4545	5.e-002	11.597
17359	5.5086	3.1818	0.	4501.1
17360	5.4168	3.2727	0.	4523.
17361	5.5086	3.2727	5.e-002	11.588
17362	5.5086	3.	0.	4499.9
17363	5.4168	3.0909	0.	4520.5
17364	5.5086	3.0909	5.e-002	11.583
17365	5.5086	2.8182	0.	4501.1
17366	5.4168	2.9091	0.	4520.5
17367	5.5086	2.9091	5.e-002	11.583
17368	5.5086	2.6364	0.	4504.6
17369	5.4168	2.7273	0.	4523.
17370	5.5086	2.7273	5.e-002	11.588
17371	5.5086	2.4545	0.	4510.5
17372	5.4168	2.5455	0.	4527.9
17373	5.5086	2.5455	5.e-002	11.597
17374	5.5086	2.2727	0.	4518.7
17375	5.4168	2.3636	0.	4535.2
17376	5.5086	2.3636	5.e-002	11.61
17377	5.5086	2.0909	0.	4529.
17378	5.4168	2.1818	0.	4544.9
17379	5.5086	2.1818	5.e-002	11.626
17380	5.5086	1.9091	0.	4541.5
17381	5.4168	2.	0.	4556.8
17382	5.5086	2.	5.e-002	11.643
17383	5.5086	1.7273	0.	4555.9
17384	5.4168	1.8182	0.	4570.8
17385	5.5086	1.8182	5.e-002	11.66
17386	5.5086	1.5455	0.	4572.2
17387	5.4168	1.6364	0.	4586.8
17388	5.5086	1.6364	5.e-002	11.676
17389	5.5086	1.3636	0.	4590.2
17390	5.4168	1.4545	0.	4604.7
17391	5.5086	1.4545	5.e-002	11.688
17392	5.5086	1.1818	0.	4609.7
17393	5.4168	1.2727	0.	4624.3
17394	5.5086	1.2727	5.e-002	11.696
17395	5.5086	1.	0.	4630.6
17396	5.4168	1.0909	0.	4645.3
17397	5.5086	1.0909	5.e-002	11.697
17398	5.5086	0.81818	0.	4652.7
17399	5.4168	0.90909	0.	4667.7
17400	5.5086	0.90909	5.e-002	11.691
17401	5.5086	0.63636	0.	4675.8
17402	5.4168	0.72727	0.	4691.3
17403	5.5086	0.72727	5.e-002	11.675
17404	5.5086	0.45455	0.	4699.7
17405	5.4168	0.54545	0.	4715.8
17406	5.5086	0.54545	5.e-002	11.645
17407	5.5086	0.27273	0.	4724.4
17408	5.4168	0.36364	0.	4741.
17409	5.5086	0.36364	5.e-002	11.531
17410	5.4168	0.18182	0.	4767.1
17411	5.5086	0.18182	5.e-002	10.406
17412	5.5086	9.0909e-002	0.	4746.8
17413	5.325	5.7273	0.	4783.7
17414	5.2332	5.8182	0.	4827.6
17415	5.325	5.8182	5.e-002	11.303
17416	5.325	5.9091	0.	4807.8
17417	5.325	5.5455	0.	4757.
17418	5.2332	5.6364	0.	4799.5
17419	5.325	5.6364	5.e-002	11.805
17420	5.325	5.3636	0.	4731.2
17421	5.2332	5.4545	0.	4772.2
17422	5.325	5.4545	5.e-002	11.88
17423	5.325	5.1818	0.	4706.3
17424	5.2332	5.2727	0.	4745.8
17425	5.325	5.2727	5.e-002	11.908
17426	5.325	5.	0.	4682.4
17427	5.2332	5.0909	0.	4720.4
17428	5.325	5.0909	5.e-002	11.923
17429	5.325	4.8182	0.	4659.9
17430	5.2332	4.9091	0.	4696.2
17431	5.325	4.9091	5.e-002	11.928
17432	5.325	4.6364	0.	4638.8
17433	5.2332	4.7273	0.	4673.4
17434	5.325	4.7273	5.e-002	11.925
17435	5.325	4.4545	0.	4619.3
17436	5.2332	4.5455	0.	4652.3
17437	5.325	4.5455	5.e-002	11.914
17438	5.325	4.2727	0.	4601.7
17439	5.2332	4.3636	0.	4633.
17440	5.325	4.3636	5.e-002	11.898
17441	5.325	4.0909	0.	4586.1
17442	5.2332	4.1818	0.	4615.7
17443	5.325	4.1818	5.e-002	11.879
17444	5.325	3.9091	0.	4572.7
17445	5.2332	4.	0.	4600.5
17446	5.325	4.	5.e-002	11.858
17447	5.325	3.7273	0.	4561.5
17448	5.2332	3.8182	0.	4587.7
17449	5.325	3.8182	5.e-002	11.837
17450	5.325	3.5455	0.	4552.7
17451	5.2332	3.6364	0.	4577.3
17452	5.325	3.6364	5.e-002	11.818
17453	5.325	3.3636	0.	4546.3
17454	5.2332	3.4545	0.	4569.4
17455	5.325	3.4545	5.e-002	11.803
17456	5.325	3.1818	0.	4542.5
17457	5.2332	3.2727	0.	4564.1
17458	5.325	3.2727	5.e-002	11.792
17459	5.325	3.	0.	4541.2
17460	5.2332	3.0909	0.	4561.4
17461	5.325	3.0909	5.e-002	11.786
17462	5.325	2.8182	0.	4542.5
17463	5.2332	2.9091	0.	4561.4
17464	5.325	2.9091	5.e-002	11.786
17465	5.325	2.6364	0.	4546.3
17466	5.2332	2.7273	0.	4564.1
17467	5.325	2.7273	5.e-002	11.792
17468	5.325	2.4545	0.	4552.7
17469	5.2332	2.5455	0.	4569.4
17470	5.325	2.5455	5.e-002	11.803
17471	5.325	2.2727	0.	4561.5
17472	5.2332	2.3636	0.	4577.3
17473	5.325	2.3636	5.e-002	11.818
17474	5.325	2.0909	0.	4572.7
17475	5.2332	2.1818	0.	4587.7
17476	5.325	2.1818	5.e-002	11.837
17477	5.325	1.9091	0.	4586.1
17478	5.2332	2.	0.	4600.5
17479	5.325	2.	5.e-002	11.858
17480	5.325	1.7273	0.	4601.7
17481	5.2332	1.8182	0.	4615.7
17482	5.325	1.8182	5.e-002	11.879
17483	5.325	1.5455	0.	4619.3
17484	5.2332	1.6364	0.	4633.
17485	5.325	1.6364	5.e-002	11.898
17486	5.325	1.3636	0.	4638.8
17487	5.2332	1.4545	0.	4652.3
17488	5.325	1.4545	5.e-002	11.914
17489	5.325	1.1818	0.	4659.9
17490	5.2332	1.2727	0.	4673.4
17491	5.325	1.2727	5.e-002	11.925
17492	5.325	1.	0.	4682.4
17493	5.2332	1.0909	0.	4696.2
17494	5.325	1.0909	5.e-002	11.928
17495	5.325	0.81818	0.	4706.3
17496	5.2332	0.90909	0.	4720.4
17497	5.325	0.90909	5.e-002	11.923
17498	5.325	0.63636	0.	4731.2
17499	5.2332	0.72727	0.	4745.8
17500	5.325	0.72727	5.e-002	11.908
17501	5.325	0.45455	0.	4757.
17502	5.2332	0.54545	0.	4772.2
17503	5.325	0.54545	5.e-002	11.88
17504	5.325	0.27273	0.	4783.7
17505	5.2332	0.36364	0.	4799.5
17506	5.325	0.36364	5.e-002	11.805
17507	5.2332	0.18182	0.	4827.6
17508	5.325	0.18182	5.e-002	11.303
17509	5.325	9.0909e-002	0.	4807.8
17510	5.1414	5.7273	0.	4843.4
17511	5.0496	5.8182	0.	4888.8
17512	5.1414	5.8182	5.e-002	12.269
17513	5.1414	5.9091	0.	4869.5
17514	5.1414	5.5455	0.	4814.7
17515	5.0496	5.6364	0.	4858.4
17516	5.1414	5.6364	5.e-002	12.102
17517	5.1414	5.3636	0.	4786.8
17518	5.0496	5.4545	0.	4829.
17519	5.1414	5.4545	5.e-002	12.136
17520	5.1414	5.1818	0.	4759.9
17521	5.0496	5.2727	0.	4800.5
17522	5.1414	5.2727	5.e-002	12.162
17523	5.1414	5.	0.	4734.2
17524	5.0496	5.0909	0.	4773.1
17525	5.1414	5.0909	5.e-002	12.176
17526	5.1414	4.8182	0.	4709.8
17527	5.0496	4.9091	0.	4746.9
17528	5.1414	4.9091	5.e-002	12.18
17529	5.1414	4.6364	0.	4687.
17530	5.0496	4.7273	0.	4722.3
17531	5.1414	4.7273	5.e-002	12.174
17532	5.1414	4.4545	0.	4666.
17533	5.0496	4.5455	0.	4699.5
17534	5.1414	4.5455	5.e-002	12.161
17535	5.1414	4.2727	0.	4647.
17536	5.0496	4.3636	0.	4678.7
17537	5.1414	4.3636	5.e-002	12.141
17538	5.1414	4.0909	0.	4630.1
17539	5.0496	4.1818	0.	4660.
17540	5.1414	4.1818	5.e-002	12.118
17541	5.1414	3.9091	0.	4615.6
17542	5.0496	4.	0.	4643.6
17543	5.1414	4.	5.e-002	12.093
17544	5.1414	3.7273	0.	4603.5
17545	5.0496	3.8182	0.	4629.8
17546	5.1414	3.8182	5.e-002	12.068
17547	5.1414	3.5455	0.	4594.
17548	5.0496	3.6364	0.	4618.5
17549	5.1414	3.6364	5.e-002	12.046
17550	5.1414	3.3636	0.	4587.2
17551	5.0496	3.4545	0.	4610.
17552	5.1414	3.4545	5.e-002	12.027
17553	5.1414	3.1818	0.	4583.
17554	5.0496	3.2727	0.	4604.3
17555	5.1414	3.2727	5.e-002	12.014
17556	5.1414	3.	0.	4581.6
17557	5.0496	3.0909	0.	4601.4
17558	5.1414	3.0909	5.e-002	12.008
17559	5.1414	2.8182	0.	4583.
17560	5.0496	2.9091	0.	4601.4
17561	5.1414	2.9091	5.e-002	12.008
17562	5.1414	2.6364	0.	4587.2
17563	5.0496	2.7273	0.	4604.3
17564	5.1414	2.7273	5.e-002	12.014
17565	5.1414	2.4545	0.	4594.
17566	5.0496	2.5455	0.	4610.
17567	5.1414	2.5455	5.e-002	12.027
17568	5.1414	2.2727	0.	4603.5
17569	5.0496	2.3636	0.	4618.5
17570	5.1414	2.3636	5.e-002	12.046
17571	5.1414	2.0909	0.	4615.6
17572	5.0496	2.1818	0.	4629.8
17573	5.1414	2.1818	5.e-002	12.068
17574	5.1414	1.9091	0.	4630.1
17575	5.0496	2.	0.	4643.6
17576	5.1414	2.	5.e-002	12.093
17577	5.1414	1.7273	0.	4647.
17578	5.0496	1.8182	0.	4660.
17579	5.1414	1.8182	5.e-002	12.118
17580	5.1414	1.5455	0.	4666.
17581	5.0496	1.6364	0.	4678.7
17582	5.1414	1.6364	5.e-002	12.141
17583	5.1414	1.3636	0.	4687.
17584	5.0496	1.4545	0.	4699.5
17585	5.1414	1.4545	5.e-002	12.161
17586	5.1414	1.1818	0.	4709.8
17587	5.0496	1.2727	0.	4722.3
17588	5.1414	1.2727	5.e-002	12.174
17589	5.1414	1.	0.	4734.2
17590	5.0496	1.0909	0.	4746.9
17591	5.1414	1.0909	5.e-002	12.18
17592	5.1414	0.81818	0.	4759.9
17593	5.0496	0.90909	0.	4773.1
17594	5.1414	0.90909	5.e-002	12.176
17595	5.1414	0.63636	0.	4786.8
17596	5.0496	0.72727	0.	4800.5
17597	5.1414	0.72727	5.e-002	12.162
17598	5.1414	0.45455	0.	4814.7
17599	5.0496	0.54545	0.	4829.
17600	5.1414	0.54545	5.e-002	12.136
17601	5.1414	0.27273	0.	4843.4
17602	5.0496	0.36364	0.	4858.4
17603	5.1414	0.36364	5.e-002	12.102
17604	5.0496	0.18182	0.	4888.8
17605	5.1414	0.18182	5.e-002	12.269
17606	5.1414	9.0909e-002	0.	4869.5
17607	4.9578	5.7273	0.	4903.7
17608	4.8659	5.8182	0.	4950.5
17609	4.9578	5.8182	5.e-002	13.308
17610	4.9578	5.9091	0.	4931.7
17611	4.9578	5.5455	0.	4872.7
17612	4.8659	5.6364	0.	4917.8
17613	4.9578	5.6364	5.e-002	12.423
17614	4.9578	5.3636	0.	4842.6
17615	4.8659	5.4545	0.	4886.
17616	4.9578	5.4545	5.e-002	12.414
17617	4.9578	5.1818	0.	4813.6
17618	4.8659	5.2727	0.	4855.3
17619	4.9578	5.2727	5.e-002	12.438
17620	4.9578	5.	0.	4785.8
17621	4.8659	5.0909	0.	4825.7
17622	4.9578	5.0909	5.e-002	12.453
17623	4.9578	4.8182	0.	4759.5
17624	4.8659	4.9091	0.	4797.5
17625	4.9578	4.9091	5.e-002	12.456
17626	4.9578	4.6364	0.	4734.9
17627	4.8659	4.7273	0.	4770.9
17628	4.9578	4.7273	5.e-002	12.448
17629	4.9578	4.4545	0.	4712.2
17630	4.8659	4.5455	0.	4746.3
17631	4.9578	4.5455	5.e-002	12.431
17632	4.9578	4.2727	0.	4691.7
17633	4.8659	4.3636	0.	4723.8
17634	4.9578	4.3636	5.e-002	12.407
17635	4.9578	4.0909	0.	4673.5
17636	4.8659	4.1818	0.	4703.7
17637	4.9578	4.1818	5.e-002	12.379
17638	4.9578	3.9091	0.	4657.8
17639	4.8659	4.	0.	4686.1
17640	4.9578	4.	5.e-002	12.35
17641	4.9578	3.7273	0.	4644.8
17642	4.8659	3.8182	0.	4671.1
17643	4.9578	3.8182	5.e-002	12.321
17644	4.9578	3.5455	0.	4634.6
17645	4.8659	3.6364	0.	4659.
17646	4.9578	3.6364	5.e-002	12.295
17647	4.9578	3.3636	0.	4627.2
17648	4.8659	3.4545	0.	4649.8
17649	4.9578	3.4545	5.e-002	12.274
17650	4.9578	3.1818	0.	4622.7
17651	4.8659	3.2727	0.	4643.6
17652	4.9578	3.2727	5.e-002	12.259
17653	4.9578	3.	0.	4621.2
17654	4.8659	3.0909	0.	4640.5
17655	4.9578	3.0909	5.e-002	12.251
17656	4.9578	2.8182	0.	4622.7
17657	4.8659	2.9091	0.	4640.5
17658	4.9578	2.9091	5.e-002	12.251
17659	4.9578	2.6364	0.	4627.2
17660	4.8659	2.7273	0.	4643.6
17661	4.9578	2.7273	5.e-002	12.259
17662	4.9578	2.4545	0.	4634.6
17663	4.8659	2.5455	0.	4649.8
17664	4.9578	2.5455	5.e-002	12.274
17665	4.9578	2.2727	0.	4644.8
17666	4.8659	2.3636	0.	4659.
17667	4.9578	2.3636	5.e-002	12.295
17668	4.9578	2.0909	0.	4657.8
17669	4.8659	2.1818	0.	4671.1
17670	4.9578	2.1818	5.e-002	12.321
17671	4.9578	1.9091	0.	4673.5
17672	4.8659	2.	0.	4686.1
17673	4.9578	2.	5.e-002	12.35
17674	4.9578	1.7273	0.	4691.7
17675	4.8659	1.8182	0.	4703.7
17676	4.9578	1.8182	5.e-002	12.379
17677	4.9578	1.5455	0.	4712.2
17678	4.8659	1.6364	0.	4723.8
17679	4.9578	1.6364	5.e-002	12.407
17680	4.9578	1.3636	0.	4734.9
17681	4.8659	1.4545	0.	4746.3
17682	4.9578	1.4545	5.e-002	12.431
17683	4.9578	1.1818	0.	4759.5
17684	4.8659	1.2727	0.	4770.9
17685	4.9578	1.2727	5.e-002	12.448
17686	4.9578	1.	0.	4785.8
17687	4.8659	1.0909	0.	4797.5
17688	4.9578	1.0909	5.e-002	12.456
17689	4.9578	0.81818	0.	4813.6
17690	4.8659	0.90909	0.	4825.7
17691	4.9578	0.90909	5.e-002	12.453
17692	4.9578	0.63636	0.	4842.6
17693	4.8659	0.72727	0.	4855.3
17694	4.9578	0.72727	5.e-002	12.438
17695	4.9578	0.45455	0.	4872.7
17696	4.8659	0.54545	0.	4886.
17697	4.9578	0.54545	5.e-002	12.414
17698	4.9578	0.27273	0.	4903.7
17699	4.8659	0.36364	0.	4917.8
17700	4.9578	0.36364	5.e-002	12.423
17701	4.8659	0.18182	0.	4950.5
17702	4.9578	0.18182	5.e-002	13.308
17703	4.9578	9.0909e-002	0.	4931.7
17704	4.7741	5.7273	0.	4964.6
17705	4.6823	5.8182	0.	5013.
17706	4.7741	5.8182	5.e-002	14.423
17707	4.7741	5.9091	0.	4994.5
17708	4.7741	5.5455	0.	4931.1
17709	4.6823	5.6364	0.	4977.6
17710	4.7741	5.6364	5.e-002	12.77
17711	4.7741	5.3636	0.	4898.6
17712	4.6823	5.4545	0.	4943.3
17713	4.7741	5.4545	5.e-002	12.717
17714	4.7741	5.1818	0.	4867.3
17715	4.6823	5.2727	0.	4910.1
17716	4.7741	5.2727	5.e-002	12.74
17717	4.7741	5.	0.	4837.3
17718	4.6823	5.0909	0.	4878.2
17719	4.7741	5.0909	5.e-002	12.755
17720	4.7741	4.8182	0.	4808.9
17721	4.6823	4.9091	0.	4847.8
17722	4.7741	4.9091	5.e-002	12.757
17723	4.7741	4.6364	0.	4782.4
17724	4.6823	4.7273	0.	4819.2
17725	4.7741	4.7273	5.e-002	12.747
17726	4.7741	4.4545	0.	4758.
17727	4.6823	4.5455	0.	4792.7
17728	4.7741	4.5455	5.e-002	12.727
17729	4.7741	4.2727	0.	4735.8
17730	4.6823	4.3636	0.	4768.4
17731	4.7741	4.3636	5.e-002	12.699
17732	4.7741	4.0909	0.	4716.2
17733	4.6823	4.1818	0.	4746.7
17734	4.7741	4.1818	5.e-002	12.667
17735	4.7741	3.9091	0.	4699.3
17736	4.6823	4.	0.	4727.8
17737	4.7741	4.	5.e-002	12.633
17738	4.7741	3.7273	0.	4685.3
17739	4.6823	3.8182	0.	4711.7
17740	4.7741	3.8182	5.e-002	12.6
17741	4.7741	3.5455	0.	4674.3
17742	4.6823	3.6364	0.	4698.6
17743	4.7741	3.6364	5.e-002	12.569
17744	4.7741	3.3636	0.	4666.3
17745	4.6823	3.4545	0.	4688.8
17746	4.7741	3.4545	5.e-002	12.545
17747	4.7741	3.1818	0.	4661.5
17748	4.6823	3.2727	0.	4682.1
17749	4.7741	3.2727	5.e-002	12.527
17750	4.7741	3.	0.	4659.9
17751	4.6823	3.0909	0.	4678.8
17752	4.7741	3.0909	5.e-002	12.518
17753	4.7741	2.8182	0.	4661.5
17754	4.6823	2.9091	0.	4678.8
17755	4.7741	2.9091	5.e-002	12.518
17756	4.7741	2.6364	0.	4666.3
17757	4.6823	2.7273	0.	4682.1
17758	4.7741	2.7273	5.e-002	12.527
17759	4.7741	2.4545	0.	4674.3
17760	4.6823	2.5455	0.	4688.8
17761	4.7741	2.5455	5.e-002	12.545
17762	4.7741	2.2727	0.	4685.3
17763	4.6823	2.3636	0.	4698.6
17764	4.7741	2.3636	5.e-002	12.569
17765	4.7741	2.0909	0.	4699.3
17766	4.6823	2.1818	0.	4711.7
17767	4.7741	2.1818	5.e-002	12.6
17768	4.7741	1.9091	0.	4716.2
17769	4.6823	2.	0.	4727.8
17770	4.7741	2.	5.e-002	12.633
17771	4.7741	1.7273	0.	4735.8
17772	4.6823	1.8182	0.	4746.7
17773	4.7741	1.8182	5.e-002	12.667
17774	4.7741	1.5455	0.	4758.
17775	4.6823	1.6364	0.	4768.4
17776	4.7741	1.6364	5.e-002	12.699
17777	4.7741	1.3636	0.	4782.4
17778	4.6823	1.4545	0.	4792.7
17779	4.7741	1.4545	5.e-002	12.727
17780	4.7741	1.1818	0.	4808.9
17781	4.6823	1.2727	0.	4819.2
17782	4.7741	1.2727	5.e-002	12.747
17783	4.7741	1.	0.	4837.3
17784	4.6823	1.0909	0.	4847.8
17785	4.7741	1.0909	5.e-002	12.757
17786	4.7741	0.81818	0.	4867.3
17787	4.6823	0.90909	0.	4878.2
17788	4.7741	0.90909	5.e-002	12.755
17789	4.7741	0.63636	0.	4898.6
17790	4.6823	0.72727	0.	4910.1
17791	4.7741	0.72727	5.e-002	12.74
17792	4.7741	0.45455	0.	4931.1
17793	4.6823	0.54545	0.	4943.3
17794	4.7741	0.54545	5.e-002	12.717
17795	4.7741	0.27273	0.	4964.6
17796	4.6823	0.36364	0.	4977.6
17797	4.7741	0.36364	5.e-002	12.77
17798	4.6823	0.18182	0.	5013.
17799	4.7741	0.18182	5.e-002	14.423
17800	4.7741	9.0909e-002	0.	4994.5
17801	4.5905	5.7273	0.	5026.
17802	4.4987	5.8182	0.	5076.1
17803	4.5905	5.8182	5.e-002	15.62
17804	4.5905	5.9091	0.	5058.
17805	4.5905	5.5455	0.	4989.8
17806	4.4987	5.6364	0.	5037.8
17807	4.5905	5.6364	5.e-002	13.146
17808	4.5905	5.3636	0.	4954.8
17809	4.4987	5.4545	0.	5000.9
17810	4.5905	5.4545	5.e-002	13.047
17811	4.5905	5.1818	0.	4921.
17812	4.4987	5.2727	0.	4965.1
17813	4.5905	5.2727	5.e-002	13.07
17814	4.5905	5.	0.	4888.7
17815	4.4987	5.0909	0.	4930.7
17816	4.5905	5.0909	5.e-002	13.086
17817	4.5905	4.8182	0.	4858.1
17818	4.4987	4.9091	0.	4897.9
17819	4.5905	4.9091	5.e-002	13.088
17820	4.5905	4.6364	0.	4829.5
17821	4.4987	4.7273	0.	4867.1
17822	4.5905	4.7273	5.e-002	13.076
17823	4.5905	4.4545	0.	4803.2
17824	4.4987	4.5455	0.	4838.5
17825	4.5905	4.5455	5.e-002	13.053
17826	4.5905	4.2727	0.	4779.4
17827	4.4987	4.3636	0.	4812.5
17828	4.5905	4.3636	5.e-002	13.021
17829	4.5905	4.0909	0.	4758.3
17830	4.4987	4.1818	0.	4789.1
17831	4.5905	4.1818	5.e-002	12.984
17832	4.5905	3.9091	0.	4740.1
17833	4.4987	4.	0.	4768.7
17834	4.5905	4.	5.e-002	12.945
17835	4.5905	3.7273	0.	4725.
17836	4.4987	3.8182	0.	4751.4
17837	4.5905	3.8182	5.e-002	12.907
17838	4.5905	3.5455	0.	4713.1
17839	4.4987	3.6364	0.	4737.4
17840	4.5905	3.6364	5.e-002	12.873
17841	4.5905	3.3636	0.	4704.6
17842	4.4987	3.4545	0.	4726.8
17843	4.5905	3.4545	5.e-002	12.845
17844	4.5905	3.1818	0.	4699.4
17845	4.4987	3.2727	0.	4719.7
17846	4.5905	3.2727	5.e-002	12.825
17847	4.5905	3.	0.	4697.7
17848	4.4987	3.0909	0.	4716.2
17849	4.5905	3.0909	5.e-002	12.815
17850	4.5905	2.8182	0.	4699.4
17851	4.4987	2.9091	0.	4716.2
17852	4.5905	2.9091	5.e-002	12.815
17853	4.5905	2.6364	0.	4704.6
17854	4.4987	2.7273	0.	4719.7
17855	4.5905	2.7273	5.e-002	12.825
17856	4.5905	2.4545	0.	4713.1
17857	4.4987	2.5455	0.	4726.8
17858	4.5905	2.5455	5.e-002	12.845
17859	4.5905	2.2727	0.	4725.
17860	4.4987	2.3636	0.	4737.4
17861	4.5905	2.3636	5.e-002	12.873
17862	4.5905	2.0909	0.	4740.1
17863	4.4987	2.1818	0.	4751.4
17864	4.5905	2.1818	5.e-002	12.907
17865	4.5905	1.9091	0.	4758.3
17866	4.4987	2.	0.	4768.7
17867	4.5905	2.	5.e-002	12.945
17868	4.5905	1.7273	0.	4779.4
17869	4.4987	1.8182	0.	4789.1
17870	4.5905	1.8182	5.e-002	12.984
17871	4.5905	1.5455	0.	4803.2
17872	4.4987	1.6364	0.	4812.5
17873	4.5905	1.6364	5.e-002	13.021
17874	4.5905	1.3636	0.	4829.5
17875	4.4987	1.4545	0.	4838.5
17876	4.5905	1.4545	5.e-002	13.053
17877	4.5905	1.1818	0.	4858.1
17878	4.4987	1.2727	0.	4867.1
17879	4.5905	1.2727	5.e-002	13.076
17880	4.5905	1.	0.	4888.7
17881	4.4987	1.0909	0.	4897.9
17882	4.5905	1.0909	5.e-002	13.088
17883	4.5905	0.81818	0.	4921.
17884	4.4987	0.90909	0.	4930.7
17885	4.5905	0.90909	5.e-002	13.086
17886	4.5905	0.63636	0.	4954.8
17887	4.4987	0.72727	0.	4965.1
17888	4.5905	0.72727	5.e-002	13.07
17889	4.5905	0.45455	0.	4989.8
17890	4.4987	0.54545	0.	5000.9
17891	4.5905	0.54545	5.e-002	13.047
17892	4.5905	0.27273	0.	5026.
17893	4.4987	0.36364	0.	5037.8
17894	4.5905	0.36364	5.e-002	13.146
17895	4.4987	0.18182	0.	5076.1
17896	4.5905	0.18182	5.e-002	15.62
17897	4.5905	9.0909e-002	0.	5058.
17898	4.4069	5.7273	0.	5087.9
17899	4.3151	5.8182	0.	5139.9
17900	4.4069	5.8182	5.e-002	16.901
17901	4.4069	5.9091	0.	5122.1
17902	4.4069	5.5455	0.	5048.8
17903	4.3151	5.6364	0.	5098.4
17904	4.4069	5.6364	5.e-002	13.552
17905	4.4069	5.3636	0.	5011.1
17906	4.3151	5.4545	0.	5058.7
17907	4.4069	5.4545	5.e-002	13.407
17908	4.4069	5.1818	0.	4974.7
17909	4.3151	5.2727	0.	5020.1
17910	4.4069	5.2727	5.e-002	13.43
17911	4.4069	5.	0.	4939.9
17912	4.3151	5.0909	0.	4983.
17913	4.4069	5.0909	5.e-002	13.449
17914	4.4069	4.8182	0.	4906.9
17915	4.3151	4.9091	0.	4947.8
17916	4.4069	4.9091	5.e-002	13.451
17917	4.4069	4.6364	0.	4876.2
17918	4.3151	4.7273	0.	4914.6
17919	4.4069	4.7273	5.e-002	13.437
17920	4.4069	4.4545	0.	4847.8
17921	4.3151	4.5455	0.	4883.9
17922	4.4069	4.5455	5.e-002	13.411
17923	4.4069	4.2727	0.	4822.2
17924	4.3151	4.3636	0.	4855.9
17925	4.4069	4.3636	5.e-002	13.376
17926	4.4069	4.0909	0.	4799.6
17927	4.3151	4.1818	0.	4830.8
17928	4.4069	4.1818	5.e-002	13.334
17929	4.4069	3.9091	0.	4780.1
17930	4.3151	4.	0.	4808.9
17931	4.4069	4.	5.e-002	13.29
17932	4.4069	3.7273	0.	4763.9
17933	4.3151	3.8182	0.	4790.4
17934	4.4069	3.8182	5.e-002	13.247
17935	4.4069	3.5455	0.	4751.2
17936	4.3151	3.6364	0.	4775.4
17937	4.4069	3.6364	5.e-002	13.209
17938	4.4069	3.3636	0.	4742.
17939	4.3151	3.4545	0.	4764.1
17940	4.4069	3.4545	5.e-002	13.177
17941	4.4069	3.1818	0.	4736.5
17942	4.3151	3.2727	0.	4756.5
17943	4.4069	3.2727	5.e-002	13.155
17944	4.4069	3.	0.	4734.6
17945	4.3151	3.0909	0.	4752.7
17946	4.4069	3.0909	5.e-002	13.143
17947	4.4069	2.8182	0.	4736.5
17948	4.3151	2.9091	0.	4752.7
17949	4.4069	2.9091	5.e-002	13.143
17950	4.4069	2.6364	0.	4742.
17951	4.3151	2.7273	0.	4756.5
17952	4.4069	2.7273	5.e-002	13.155
17953	4.4069	2.4545	0.	4751.2
17954	4.3151	2.5455	0.	4764.1
17955	4.4069	2.5455	5.e-002	13.177
17956	4.4069	2.2727	0.	4763.9
17957	4.3151	2.3636	0.	4775.4
17958	4.4069	2.3636	5.e-002	13.209
17959	4.4069	2.0909	0.	4780.1
17960	4.3151	2.1818	0.	4790.4
17961	4.4069	2.1818	5.e-002	13.247
17962	4.4069	1.9091	0.	4799.6
17963	4.3151	2.	0.	4808.9
17964	4.4069	2.	5.e-002	13.29
17965	4.4069	1.7273	0.	4822.2
17966	4.3151	1.8182	0.	4830.8
17967	4.4069	1.8182	5.e-002	13.334
17968	4.4069	1.5455	0.	4847.8
17969	4.3151	1.6364	0.	4855.9
17970	4.4069	1.6364	5.e-002	13.376
17971	4.4069	1.3636	0.	4876.2
17972	4.3151	1.4545	0.	4883.9
17973	4.4069	1.4545	5.e-002	13.411
17974	4.4069	1.1818	0.	4906.9
17975	4.3151	1.2727	0.	4914.6
17976	4.4069	1.2727	5.e-002	13.437
17977	4.4069	1.	0.	4939.9
17978	4.3151	1.0909	0.	4947.8
17979	4.4069	1.0909	5.e-002	13.451
17980	4.4069	0.81818	0.	4974.7
17981	4.3151	0.90909	0.	4983.
17982	4.4069	0.90909	5.e-002	13.449
17983	4.4069	0.63636	0.	5011.1
17984	4.3151	0.72727	0.	5020.1
17985	4.4069	0.72727	5.e-002	13.43
17986	4.4069	0.45455	0.	5048.8
17987	4.3151	0.54545	0.	5058.7
17988	4.4069	0.54545	5.e-002	13.407
17989	4.4069	0.27273	0.	5087.9
17990	4.3151	0.36364	0.	5098.4
17991	4.4069	0.36364	5.e-002	13.552
17992	4.3151	0.18182	0.	5139.9
17993	4.4069	0.18182	5.e-002	16.901
17994	4.4069	9.0909e-002	0.	5122.1
17995	4.2233	5.7273	0.	5150.4
17996	4.1315	5.8182	0.	5204.4
17997	4.2233	5.8182	5.e-002	18.272
17998	4.2233	5.9091	0.	5186.7
17999	4.2233	5.5455	0.	5108.2
18000	4.1315	5.6364	0.	5159.5
18001	4.2233	5.6364	5.e-002	13.989
18002	4.2233	5.3636	0.	5067.6
18003	4.1315	5.4545	0.	5116.6
18004	4.2233	5.4545	5.e-002	13.798
18005	4.2233	5.1818	0.	5028.4
18006	4.1315	5.2727	0.	5075.1
18007	4.2233	5.2727	5.e-002	13.823
18008	4.2233	5.	0.	4990.9
18009	4.1315	5.0909	0.	5035.2
18010	4.2233	5.0909	5.e-002	13.846
18011	4.2233	4.8182	0.	4955.4
18012	4.1315	4.9091	0.	4997.3
18013	4.2233	4.9091	5.e-002	13.85
18014	4.2233	4.6364	0.	4922.3
18015	4.1315	4.7273	0.	4961.7
18016	4.2233	4.7273	5.e-002	13.836
18017	4.2233	4.4545	0.	4891.9
18018	4.1315	4.5455	0.	4928.7
18019	4.2233	4.5455	5.e-002	13.808
18020	4.2233	4.2727	0.	4864.5
18021	4.1315	4.3636	0.	4898.7
18022	4.2233	4.3636	5.e-002	13.768
18023	4.2233	4.0909	0.	4840.2
18024	4.1315	4.1818	0.	4871.8
18025	4.2233	4.1818	5.e-002	13.722
18026	4.2233	3.9091	0.	4819.3
18027	4.1315	4.	0.	4848.4
18028	4.2233	4.	5.e-002	13.674
18029	4.2233	3.7273	0.	4802.
18030	4.1315	3.8182	0.	4828.7
18031	4.2233	3.8182	5.e-002	13.626
18032	4.2233	3.5455	0.	4788.4
18033	4.1315	3.6364	0.	4812.7
18034	4.2233	3.6364	5.e-002	13.583
18035	4.2233	3.3636	0.	4778.6
18036	4.1315	3.4545	0.	4800.6
18037	4.2233	3.4545	5.e-002	13.548
18038	4.2233	3.1818	0.	4772.7
18039	4.1315	3.2727	0.	4792.5
18040	4.2233	3.2727	5.e-002	13.524
18041	4.2233	3.	0.	4770.7
18042	4.1315	3.0909	0.	4788.4
18043	4.2233	3.0909	5.e-002	13.511
18044	4.2233	2.8182	0.	4772.7
18045	4.1315	2.9091	0.	4788.4
18046	4.2233	2.9091	5.e-002	13.511
18047	4.2233	2.6364	0.	4778.6
18048	4.1315	2.7273	0.	4792.5
18049	4.2233	2.7273	5.e-002	13.524
18050	4.2233	2.4545	0.	4788.4
18051	4.1315	2.5455	0.	4800.6
18052	4.2233	2.5455	5.e-002	13.548
18053	4.2233	2.2727	0.	4802.
18054	4.1315	2.3636	0.	4812.7
18055	4.2233	2.3636	5.e-002	13.583
18056	4.2233	2.0909	0.	4819.3
18057	4.1315	2.1818	0.	4828.7
18058	4.2233	2.1818	5.e-002	13.626
18059	4.2233	1.9091	0.	4840.2
18060	4.1315	2.	0.	4848.4
18061	4.2233	2.	5.e-002	13.674
18062	4.2233	1.7273	0.	4864.5
18063	4.1315	1.8182	0.	4871.8
18064	4.2233	1.8182	5.e-002	13.722
18065	4.2233	1.5455	0.	4891.9
18066	4.1315	1.6364	0.	4898.7
18067	4.2233	1.6364	5.e-002	13.768
18068	4.2233	1.3636	0.	4922.3
18069	4.1315	1.4545	0.	4928.7
18070	4.2233	1.4545	5.e-002	13.808
18071	4.2233	1.1818	0.	4955.4
18072	4.1315	1.2727	0.	4961.7
18073	4.2233	1.2727	5.e-002	13.836
18074	4.2233	1.	0.	4990.9
18075	4.1315	1.0909	0.	4997.3
18076	4.2233	1.0909	5.e-002	13.85
18077	4.2233	0.81818	0.	5028.4
18078	4.1315	0.90909	0.	5035.2
18079	4.2233	0.90909	5.e-002	13.846
18080	4.2233	0.63636	0.	5067.6
18081	4.1315	0.72727	0.	5075.1
18082	4.2233	0.72727	5.e-002	13.823
18083	4.2233	0.45455	0.	5108.2
18084	4.1315	0.54545	0.	5116.6
18085	4.2233	0.54545	5.e-002	13.798
18086	4.2233	0.27273	0.	5150.4
18087	4.1315	0.36364	0.	5159.5
18088	4.2233	0.36364	5.e-002	13.989
18089	4.1315	0.18182	0.	5204.4
18090	4.2233	0.18182	5.e-002	18.272
18091	4.2233	9.0909e-002	0.	5186.7
18092	4.0397	5.7273	0.	5213.5
18093	3.9478	5.8182	0.	5269.5
18094	4.0397	5.8182	5.e-002	19.735
18095	4.0397	5.9091	0.	5252.
18096	4.0397	5.5455	0.	5167.9
18097	3.9478	5.6364	0.	5221.
18098	4.0397	5.6364	5.e-002	14.459
18099	4.0397	5.3636	0.	5124.2
18100	3.9478	5.4545	0.	5174.8
18101	4.0397	5.4545	5.e-002	14.223
18102	4.0397	5.1818	0.	5082.
18103	3.9478	5.2727	0.	5130.1
18104	4.0397	5.2727	5.e-002	14.254
18105	4.0397	5.	0.	5041.6
18106	3.9478	5.0909	0.	5087.2
18107	4.0397	5.0909	5.e-002	14.282
18108	4.0397	4.8182	0.	5003.5
18109	3.9478	4.9091	0.	5046.5
18110	4.0397	4.9091	5.e-002	14.289
18111	4.0397	4.6364	0.	4968.
18112	3.9478	4.7273	0.	5008.2
18113	4.0397	4.7273	5.e-002	14.276
18114	4.0397	4.4545	0.	4935.4
18115	3.9478	4.5455	0.	4972.9
18116	4.0397	4.5455	5.e-002	14.246
18117	4.0397	4.2727	0.	4906.
18118	3.9478	4.3636	0.	4940.8
18119	4.0397	4.3636	5.e-002	14.204
18120	4.0397	4.0909	0.	4880.1
18121	3.9478	4.1818	0.	4912.1
18122	4.0397	4.1818	5.e-002	14.154
18123	4.0397	3.9091	0.	4857.8
18124	3.9478	4.	0.	4887.2
18125	4.0397	4.	5.e-002	14.1
18126	4.0397	3.7273	0.	4839.3
18127	3.9478	3.8182	0.	4866.2
18128	4.0397	3.8182	5.e-002	14.048
18129	4.0397	3.5455	0.	4824.9
18130	3.9478	3.6364	0.	4849.2
18131	4.0397	3.6364	5.e-002	14.002
18132	4.0397	3.3636	0.	4814.4
18133	3.9478	3.4545	0.	4836.3
18134	4.0397	3.4545	5.e-002	13.963
18135	4.0397	3.1818	0.	4808.2
18136	3.9478	3.2727	0.	4827.7
18137	4.0397	3.2727	5.e-002	13.937
18138	4.0397	3.	0.	4806.1
18139	3.9478	3.0909	0.	4823.4
18140	4.0397	3.0909	5.e-002	13.923
18141	4.0397	2.8182	0.	4808.2
18142	3.9478	2.9091	0.	4823.4
18143	4.0397	2.9091	5.e-002	13.923
18144	4.0397	2.6364	0.	4814.4
18145	3.9478	2.7273	0.	4827.7
18146	4.0397	2.7273	5.e-002	13.937
18147	4.0397	2.4545	0.	4824.9
18148	3.9478	2.5455	0.	4836.3
18149	4.0397	2.5455	5.e-002	13.963
18150	4.0397	2.2727	0.	4839.3
18151	3.9478	2.3636	0.	4849.2
18152	4.0397	2.3636	5.e-002	14.002
18153	4.0397	2.0909	0.	4857.8
18154	3.9478	2.1818	0.	4866.2
18155	4.0397	2.1818	5.e-002	14.048
18156	4.0397	1.9091	0.	4880.1
18157	3.9478	2.	0.	4887.2
18158	4.0397	2.	5.e-002	14.1
18159	4.0397	1.7273	0.	4906.
18160	3.9478	1.8182	0.	4912.1
18161	4.0397	1.8182	5.e-002	14.154
18162	4.0397	1.5455	0.	4935.4
18163	3.9478	1.6364	0.	4940.8
18164	4.0397	1.6364	5.e-002	14.204
18165	4.0397	1.3636	0.	4968.
18166	3.9478	1.4545	0.	4972.9
18167	4.0397	1.4545	5.e-002	14.246
18168	4.0397	1.1818	0.	5003.5
18169	3.9478	1.2727	0.	5008.2
18170	4.0397	1.2727	5.e-002	14.276
18171	4.0397	1.	0.	5041.6
18172	3.9478	1.0909	0.	5046.5
18173	4.0397	1.0909	5.e-002	14.289
18174	4.0397	0.81818	0.	5082.
18175	3.9478	0.90909	0.	5087.2
18176	4.0397	0.90909	5.e-002	14.282
18177	4.0397	0.63636	0.	5124.2
18178	3.9478	0.72727	0.	5130.1
18179	4.0397	0.72727	5.e-002	14.254
18180	4.0397	0.45455	0.	5167.9
18181	3.9478	0.54545	0.	5174.8
18182	4.0397	0.54545	5.e-002	14.223
18183	4.0397	0.27273	0.	5213.5
18184	3.9478	0.36364	0.	5221.
18185	4.0397	0.36364	5.e-002	14.459
18186	3.9478	0.18182	0.	5269.5
18187	4.0397	0.18182	5.e-002	19.735
18188	4.0397	9.0909e-002	0.	5252.
18189	3.856	5.7273	0.	5277.
18190	3.7642	5.8182	0.	5335.3
18191	3.856	5.8182	5.e-002	21.293
18192	3.856	5.9091	0.	5317.7
18193	3.856	5.5455	0.	5227.8
18194	3.7642	5.6364	0.	5282.7
18195	3.856	5.6364	5.e-002	14.965
18196	3.856	5.3636	0.	5180.7
18197	3.7642	5.4545	0.	5233.
18198	3.856	5.4545	5.e-002	14.687
18199	3.856	5.1818	0.	5135.3
18200	3.7642	5.2727	0.	5185.
18201	3.856	5.2727	5.e-002	14.725
18202	3.856	5.	0.	5092.
18203	3.7642	5.0909	0.	5138.9
18204	3.856	5.0909	5.e-002	14.762
18205	3.856	4.8182	0.	5051.2
18206	3.7642	4.9091	0.	5095.2
18207	3.856	4.9091	5.e-002	14.774
18208	3.856	4.6364	0.	5013.1
18209	3.7642	4.7273	0.	5054.2
18210	3.856	4.7273	5.e-002	14.763
18211	3.856	4.4545	0.	4978.3
18212	3.7642	4.5455	0.	5016.5
18213	3.856	4.5455	5.e-002	14.733
18214	3.856	4.2727	0.	4946.9
18215	3.7642	4.3636	0.	4982.3
18216	3.856	4.3636	5.e-002	14.688
18217	3.856	4.0909	0.	4919.3
18218	3.7642	4.1818	0.	4951.8
18219	3.856	4.1818	5.e-002	14.634
18220	3.856	3.9091	0.	4895.6
18221	3.7642	4.	0.	4925.3
18222	3.856	4.	5.e-002	14.577
18223	3.856	3.7273	0.	4876.
18224	3.7642	3.8182	0.	4903.
18225	3.856	3.8182	5.e-002	14.521
18226	3.856	3.5455	0.	4860.7
18227	3.7642	3.6364	0.	4885.1
18228	3.856	3.6364	5.e-002	14.471
18229	3.856	3.3636	0.	4849.6
18230	3.7642	3.4545	0.	4871.5
18231	3.856	3.4545	5.e-002	14.431
18232	3.856	3.1818	0.	4843.
18233	3.7642	3.2727	0.	4862.5
18234	3.856	3.2727	5.e-002	14.402
18235	3.856	3.	0.	4840.8
18236	3.7642	3.0909	0.	4857.9
18237	3.856	3.0909	5.e-002	14.387
18238	3.856	2.8182	0.	4843.
18239	3.7642	2.9091	0.	4857.9
18240	3.856	2.9091	5.e-002	14.387
18241	3.856	2.6364	0.	4849.6
18242	3.7642	2.7273	0.	4862.5
18243	3.856	2.7273	5.e-002	14.402
18244	3.856	2.4545	0.	4860.7
18245	3.7642	2.5455	0.	4871.5
18246	3.856	2.5455	5.e-002	14.431
18247	3.856	2.2727	0.	4876.
18248	3.7642	2.3636	0.	4885.1
18249	3.856	2.3636	5.e-002	14.471
18250	3.856	2.0909	0.	4895.6
18251	3.7642	2.1818	0.	4903.
18252	3.856	2.1818	5.e-002	14.521
18253	3.856	1.9091	0.	4919.3
18254	3.7642	2.	0.	4925.3
18255	3.856	2.	5.e-002	14.577
18256	3.856	1.7273	0.	4946.9
18257	3.7642	1.8182	0.	4951.8
18258	3.856	1.8182	5.e-002	14.634
18259	3.856	1.5455	0.	4978.3
18260	3.7642	1.6364	0.	4982.3
18261	3.856	1.6364	5.e-002	14.688
18262	3.856	1.3636	0.	5013.1
18263	3.7642	1.4545	0.	5016.5
18264	3.856	1.4545	5.e-002	14.733
18265	3.856	1.1818	0.	5051.2
18266	3.7642	1.2727	0.	5054.2
18267	3.856	1.2727	5.e-002	14.763
18268	3.856	1.	0.	5092.
18269	3.7642	1.0909	0.	5095.2
18270	3.856	1.0909	5.e-002	14.774
18271	3.856	0.81818	0.	5135.3
18272	3.7642	0.90909	0.	5138.9
18273	3.856	0.90909	5.e-002	14.762
18274	3.856	0.63636	0.	5180.7
18275	3.7642	0.72727	0.	5185.
18276	3.856	0.72727	5.e-002	14.725
18277	3.856	0.45455	0.	5227.8
18278	3.7642	0.54545	0.	5233.
18279	3.856	0.54545	5.e-002	14.687
18280	3.856	0.27273	0.	5277.
18281	3.7642	0.36364	0.	5282.7
18282	3.856	0.36364	5.e-002	14.965
18283	3.7642	0.18182	0.	5335.3
18284	3.856	0.18182	5.e-002	21.293
18285	3.856	9.0909e-002	0.	5317.7
18286	3.6724	5.7273	0.	5341.
18287	3.5806	5.8182	0.	5401.7
18288	3.6724	5.8182	5.e-002	22.949
18289	3.6724	5.9091	0.	5383.9
18290	3.6724	5.5455	0.	5287.9
18291	3.5806	5.6364	0.	5344.7
18292	3.6724	5.6364	5.e-002	15.508
18293	3.6724	5.3636	0.	5237.2
18294	3.5806	5.4545	0.	5291.2
18295	3.6724	5.4545	5.e-002	15.192
18296	3.6724	5.1818	0.	5188.5
18297	3.5806	5.2727	0.	5239.6
18298	3.6724	5.2727	5.e-002	15.242
18299	3.6724	5.	0.	5142.
18300	3.5806	5.0909	0.	5190.1
18301	3.6724	5.0909	5.e-002	15.291
18302	3.6724	4.8182	0.	5098.2
18303	3.5806	4.9091	0.	5143.3
18304	3.6724	4.9091	5.e-002	15.311
18305	3.6724	4.6364	0.	5057.6
18306	3.5806	4.7273	0.	5099.6
18307	3.6724	4.7273	5.e-002	15.303
18308	3.6724	4.4545	0.	5020.5
18309	3.5806	4.5455	0.	5059.4
18310	3.6724	4.5455	5.e-002	15.274
18311	3.6724	4.2727	0.	4987.1
18312	3.5806	4.3636	0.	5023.
18313	3.6724	4.3636	5.e-002	15.227
18314	3.6724	4.0909	0.	4957.8
18315	3.5806	4.1818	0.	4990.8
18316	3.6724	4.1818	5.e-002	15.171
18317	3.6724	3.9091	0.	4932.8
18318	3.5806	4.	0.	4962.8
18319	3.6724	4.	5.e-002	15.111
18320	3.6724	3.7273	0.	4912.1
18321	3.5806	3.8182	0.	4939.4
18322	3.6724	3.8182	5.e-002	15.053
18323	3.6724	3.5455	0.	4895.9
18324	3.5806	3.6364	0.	4920.5
18325	3.6724	3.6364	5.e-002	15.
18326	3.6724	3.3636	0.	4884.4
18327	3.5806	3.4545	0.	4906.3
18328	3.6724	3.4545	5.e-002	14.958
18329	3.6724	3.1818	0.	4877.4
18330	3.5806	3.2727	0.	4896.9
18331	3.6724	3.2727	5.e-002	14.928
18332	3.6724	3.	0.	4875.1
18333	3.5806	3.0909	0.	4892.1
18334	3.6724	3.0909	5.e-002	14.913
18335	3.6724	2.8182	0.	4877.4
18336	3.5806	2.9091	0.	4892.1
18337	3.6724	2.9091	5.e-002	14.913
18338	3.6724	2.6364	0.	4884.4
18339	3.5806	2.7273	0.	4896.9
18340	3.6724	2.7273	5.e-002	14.928
18341	3.6724	2.4545	0.	4895.9
18342	3.5806	2.5455	0.	4906.3
18343	3.6724	2.5455	5.e-002	14.958
18344	3.6724	2.2727	0.	4912.1
18345	3.5806	2.3636	0.	4920.5
18346	3.6724	2.3636	5.e-002	15.
18347	3.6724	2.0909	0.	4932.8
18348	3.5806	2.1818	0.	4939.4
18349	3.6724	2.1818	5.e-002	15.053
18350	3.6724	1.9091	0.	4957.8
18351	3.5806	2.	0.	4962.8
18352	3.6724	2.	5.e-002	15.111
18353	3.6724	1.7273	0.	4987.1
18354	3.5806	1.8182	0.	4990.8
18355	3.6724	1.8182	5.e-002	15.171
18356	3.6724	1.5455	0.	5020.5
18357	3.5806	1.6364	0.	5023.
18358	3.6724	1.6364	5.e-002	15.227
18359	3.6724	1.3636	0.	5057.6
18360	3.5806	1.4545	0.	5059.4
18361	3.6724	1.4545	5.e-002	15.274
18362	3.6724	1.1818	0.	5098.2
18363	3.5806	1.2727	0.	5099.6
18364	3.6724	1.2727	5.e-002	15.303
18365	3.6724	1.	0.	5142.
18366	3.5806	1.0909	0.	5143.3
18367	3.6724	1.0909	5.e-002	15.311
18368	3.6724	0.81818	0.	5188.5
18369	3.5806	0.90909	0.	5190.1
18370	3.6724	0.90909	5.e-002	15.291
18371	3.6724	0.63636	0.	5237.2
18372	3.5806	0.72727	0.	5239.6
18373	3.6724	0.72727	5.e-002	15.242
18374	3.6724	0.45455	0.	5287.9
18375	3.5806	0.54545	0.	5291.2
18376	3.6724	0.54545	5.e-002	15.192
18377	3.6724	0.27273	0.	5341.
18378	3.5806	0.36364	0.	5344.7
18379	3.6724	0.36364	5.e-002	15.508
18380	3.5806	0.18182	0.	5401.7
18381	3.6724	0.18182	5.e-002	22.949
18382	3.6724	9.0909e-002	0.	5383.9
18383	3.4888	5.7273	0.	5405.3
18384	3.397	5.8182	0.	5468.5
18385	3.4888	5.8182	5.e-002	24.704
18386	3.4888	5.9091	0.	5450.3
18387	3.4888	5.5455	0.	5347.9
18388	3.397	5.6364	0.	5406.7
18389	3.4888	5.6364	5.e-002	16.091
18390	3.4888	5.3636	0.	5293.5
18391	3.397	5.4545	0.	5349.1
18392	3.4888	5.4545	5.e-002	15.743
18393	3.4888	5.1818	0.	5241.2
18394	3.397	5.2727	0.	5293.7
18395	3.4888	5.2727	5.e-002	15.811
18396	3.4888	5.	0.	5191.4
18397	3.397	5.0909	0.	5240.8
18398	3.4888	5.0909	5.e-002	15.876
18399	3.4888	4.8182	0.	5144.7
18400	3.397	4.9091	0.	5190.8
18401	3.4888	4.9091	5.e-002	15.906
18402	3.4888	4.6364	0.	5101.4
18403	3.397	4.7273	0.	5144.2
18404	3.4888	4.7273	5.e-002	15.904
18405	3.4888	4.4545	0.	5062.
18406	3.397	4.5455	0.	5101.6
18407	3.4888	4.5455	5.e-002	15.876
18408	3.4888	4.2727	0.	5026.7
18409	3.397	4.3636	0.	5063.1
18410	3.4888	4.3636	5.e-002	15.83
18411	3.4888	4.0909	0.	4995.8
18412	3.397	4.1818	0.	5029.2
18413	3.4888	4.1818	5.e-002	15.773
18414	3.4888	3.9091	0.	4969.4
18415	3.397	4.	0.	4999.9
18416	3.4888	4.	5.e-002	15.711
18417	3.4888	3.7273	0.	4947.8
18418	3.397	3.8182	0.	4975.4
18419	3.4888	3.8182	5.e-002	15.652
18420	3.4888	3.5455	0.	4930.9
18421	3.397	3.6364	0.	4955.7
18422	3.4888	3.6364	5.e-002	15.598
18423	3.4888	3.3636	0.	4918.8
18424	3.397	3.4545	0.	4941.
18425	3.4888	3.4545	5.e-002	15.556
18426	3.4888	3.1818	0.	4911.6
18427	3.397	3.2727	0.	4931.2
18428	3.4888	3.2727	5.e-002	15.526
18429	3.4888	3.	0.	4909.1
18430	3.397	3.0909	0.	4926.3
18431	3.4888	3.0909	5.e-002	15.511
18432	3.4888	2.8182	0.	4911.6
18433	3.397	2.9091	0.	4926.3
18434	3.4888	2.9091	5.e-002	15.511
18435	3.4888	2.6364	0.	4918.8
18436	3.397	2.7273	0.	4931.2
18437	3.4888	2.7273	5.e-002	15.526
18438	3.4888	2.4545	0.	4930.9
18439	3.397	2.5455	0.	4941.
18440	3.4888	2.5455	5.e-002	15.556
18441	3.4888	2.2727	0.	4947.8
18442	3.397	2.3636	0.	4955.7
18443	3.4888	2.3636	5.e-002	15.598
18444	3.4888	2.0909	0.	4969.4
18445	3.397	2.1818	0.	4975.4
18446	3.4888	2.1818	5.e-002	15.652
18447	3.4888	1.9091	0.	4995.8
18448	3.397	2.	0.	4999.9
18449	3.4888	2.	5.e-002	15.711
18450	3.4888	1.7273	0.	5026.7
18451	3.397	1.8182	0.	5029.2
18452	3.4888	1.8182	5.e-002	15.773
18453	3.4888	1.5455	0.	5062.
18454	3.397	1.6364	0.	5063.1
18455	3.4888	1.6364	5.e-002	15.83
18456	3.4888	1.3636	0.	5101.4
18457	3.397	1.4545	0.	5101.6
18458	3.4888	1.4545	5.e-002	15.876
18459	3.4888	1.1818	0.	5144.7
18460	3.397	1.2727	0.	5144.2
18461	3.4888	1.2727	5.e-002	15.904
18462	3.4888	1.	0.	5191.4
18463	3.397	1.0909	0.	5190.8
18464	3.4888	1.0909	5.e-002	15.906
18465	3.4888	0.81818	0.	5241.2
18466	3.397	0.90909	0.	5240.8
18467	3.4888	0.90909	5.e-002	15.876
18468	3.4888	0.63636	0.	5293.5
18469	3.397	0.72727	0.	5293.7
18470	3.4888	0.72727	5.e-002	15.811
18471	3.4888	0.45455	0.	5347.9
18472	3.397	0.54545	0.	5349.1
18473	3.4888	0.54545	5.e-002	15.743
18474	3.4888	0.27273	0.	5405.3
18475	3.397	0.36364	0.	5406.7
18476	3.4888	0.36364	5.e-002	16.091
18477	3.397	0.18182	0.	5468.5
18478	3.4888	0.18182	5.e-002	24.704
18479	3.4888	9.0909e-002	0.	5450.3
18480	3.3052	5.7273	0.	5469.8
18481	3.2134	5.8182	0.	5535.6
18482	3.3052	5.8182	5.e-002	26.556
18483	3.3052	5.9091	0.	5516.8
18484	3.3052	5.5455	0.	5407.8
18485	3.2134	5.6364	0.	5468.5
18486	3.3052	5.6364	5.e-002	16.717
18487	3.3052	5.3636	0.	5349.3
18488	3.2134	5.4545	0.	5406.7
18489	3.3052	5.4545	5.e-002	16.348
18490	3.3052	5.1818	0.	5293.3
18491	3.2134	5.2727	0.	5347.3
18492	3.3052	5.2727	5.e-002	16.44
18493	3.3052	5.	0.	5240.1
18494	3.2134	5.0909	0.	5290.6
18495	3.3052	5.0909	5.e-002	16.524
18496	3.3052	4.8182	0.	5190.3
18497	3.2134	4.9091	0.	5237.4
18498	3.3052	4.9091	5.e-002	16.568
18499	3.3052	4.6364	0.	5144.4
18500	3.2134	4.7273	0.	5188.
18501	3.3052	4.7273	5.e-002	16.574
18502	3.3052	4.4545	0.	5102.7
18503	3.2134	4.5455	0.	5142.9
18504	3.3052	4.5455	5.e-002	16.55
18505	3.3052	4.2727	0.	5065.6
18506	3.2134	4.3636	0.	5102.5
18507	3.3052	4.3636	5.e-002	16.506
18508	3.3052	4.0909	0.	5033.2
18509	3.2134	4.1818	0.	5067.
18510	3.3052	4.1818	5.e-002	16.449
18511	3.3052	3.9091	0.	5005.8
18512	3.2134	4.	0.	5036.5
18513	3.3052	4.	5.e-002	16.388
18514	3.3052	3.7273	0.	4983.3
18515	3.2134	3.8182	0.	5011.2
18516	3.3052	3.8182	5.e-002	16.329
18517	3.3052	3.5455	0.	4965.8
18518	3.2134	3.6364	0.	4991.
18519	3.3052	3.6364	5.e-002	16.277
18520	3.3052	3.3636	0.	4953.3
18521	3.2134	3.4545	0.	4975.9
18522	3.3052	3.4545	5.e-002	16.236
18523	3.3052	3.1818	0.	4945.9
18524	3.2134	3.2727	0.	4965.8
18525	3.3052	3.2727	5.e-002	16.208
18526	3.3052	3.	0.	4943.4
18527	3.2134	3.0909	0.	4960.8
18528	3.3052	3.0909	5.e-002	16.194
18529	3.3052	2.8182	0.	4945.9
18530	3.2134	2.9091	0.	4960.8
18531	3.3052	2.9091	5.e-002	16.194
18532	3.3052	2.6364	0.	4953.3
18533	3.2134	2.7273	0.	4965.8
18534	3.3052	2.7273	5.e-002	16.208
18535	3.3052	2.4545	0.	4965.8
18536	3.2134	2.5455	0.	4975.9
18537	3.3052	2.5455	5.e-002	16.236
18538	3.3052	2.2727	0.	4983.3
18539	3.2134	2.3636	0.	4991.
18540	3.3052	2.3636	5.e-002	16.277
18541	3.3052	2.0909	0.	5005.8
18542	3.2134	2.1818	0.	5011.2
18543	3.3052	2.1818	5.e-002	16.329
18544	3.3052	1.9091	0.	5033.2
18545	3.2134	2.	0.	5036.6
18546	3.3052	2.	5.e-002	16.388
18547	3.3052	1.7273	0.	5065.6
18548	3.2134	1.8182	0.	5067.
18549	3.3052	1.8182	5.e-002	16.449
18550	3.3052	1.5455	0.	5102.7
18551	3.2134	1.6364	0.	5102.5
18552	3.3052	1.6364	5.e-002	16.506
18553	3.3052	1.3636	0.	5144.4
18554	3.2134	1.4545	0.	5142.9
18555	3.3052	1.4545	5.e-002	16.55
18556	3.3052	1.1818	0.	5190.3
18557	3.2134	1.2727	0.	5188.
18558	3.3052	1.2727	5.e-002	16.574
18559	3.3052	1.	0.	5240.1
18560	3.2134	1.0909	0.	5237.4
18561	3.3052	1.0909	5.e-002	16.568
18562	3.3052	0.81818	0.	5293.3
18563	3.2134	0.90909	0.	5290.6
18564	3.3052	0.90909	5.e-002	16.524
18565	3.3052	0.63636	0.	5349.3
18566	3.2134	0.72727	0.	5347.3
18567	3.3052	0.72727	5.e-002	16.44
18568	3.3052	0.45455	0.	5407.8
18569	3.2134	0.54545	0.	5406.7
18570	3.3052	0.54545	5.e-002	16.348
18571	3.3052	0.27273	0.	5469.8
18572	3.2134	0.36364	0.	5468.5
18573	3.3052	0.36364	5.e-002	16.717
18574	3.2134	0.18182	0.	5535.6
18575	3.3052	0.18182	5.e-002	26.556
18576	3.3052	9.0909e-002	0.	5516.8
18577	3.1216	5.7273	0.	5534.3
18578	3.0297	5.8182	0.	5602.7
18579	3.1216	5.8182	5.e-002	28.505
18580	3.1216	5.9091	0.	5583.2
18581	3.1216	5.5455	0.	5467.3
18582	3.0297	5.6364	0.	5529.9
18583	3.1216	5.6364	5.e-002	17.39
18584	3.1216	5.3636	0.	5404.5
18585	3.0297	5.4545	0.	5463.4
18586	3.1216	5.4545	5.e-002	17.013
18587	3.1216	5.1818	0.	5344.5
18588	3.0297	5.2727	0.	5399.8
18589	3.1216	5.2727	5.e-002	17.137
18590	3.1216	5.	0.	5287.8
18591	3.0297	5.0909	0.	5339.4
18592	3.1216	5.0909	5.e-002	17.248
18593	3.1216	4.8182	0.	5235.
18594	3.0297	4.9091	0.	5282.8
18595	3.1216	4.9091	5.e-002	17.308
18596	3.1216	4.6364	0.	5186.4
18597	3.0297	4.7273	0.	5230.6
18598	3.1216	4.7273	5.e-002	17.324
18599	3.1216	4.4545	0.	5142.7
18600	3.0297	4.5455	0.	5183.3
18601	3.1216	4.5455	5.e-002	17.306
18602	3.1216	4.2727	0.	5103.9
18603	3.0297	4.3636	0.	5141.2
18604	3.1216	4.3636	5.e-002	17.264
18605	3.1216	4.0909	0.	5070.3
18606	3.0297	4.1818	0.	5104.4
18607	3.1216	4.1818	5.e-002	17.21
18608	3.1216	3.9091	0.	5041.9
18609	3.0297	4.	0.	5073.1
18610	3.1216	4.	5.e-002	17.152
18611	3.1216	3.7273	0.	5018.9
18612	3.0297	3.8182	0.	5047.2
18613	3.1216	3.8182	5.e-002	17.097
18614	3.1216	3.5455	0.	5001.
18615	3.0297	3.6364	0.	5026.6
18616	3.1216	3.6364	5.e-002	17.05
18617	3.1216	3.3636	0.	4988.3
18618	3.0297	3.4545	0.	5011.4
18619	3.1216	3.4545	5.e-002	17.013
18620	3.1216	3.1818	0.	4980.7
18621	3.0297	3.2727	0.	5001.2
18622	3.1216	3.2727	5.e-002	16.988
18623	3.1216	3.	0.	4978.2
18624	3.0297	3.0909	0.	4996.2
18625	3.1216	3.0909	5.e-002	16.976
18626	3.1216	2.8182	0.	4980.7
18627	3.0297	2.9091	0.	4996.2
18628	3.1216	2.9091	5.e-002	16.976
18629	3.1216	2.6364	0.	4988.3
18630	3.0297	2.7273	0.	5001.2
18631	3.1216	2.7273	5.e-002	16.988
18632	3.1216	2.4545	0.	5001.
18633	3.0297	2.5455	0.	5011.4
18634	3.1216	2.5455	5.e-002	17.013
18635	3.1216	2.2727	0.	5018.9
18636	3.0297	2.3636	0.	5026.6
18637	3.1216	2.3636	5.e-002	17.05
18638	3.1216	2.0909	0.	5041.9
18639	3.0297	2.1818	0.	5047.2
18640	3.1216	2.1818	5.e-002	17.097
18641	3.1216	1.9091	0.	5070.3
18642	3.0297	2.	0.	5073.1
18643	3.1216	2.	5.e-002	17.152
18644	3.1216	1.7273	0.	5103.9
18645	3.0297	1.8182	0.	5104.4
18646	3.1216	1.8182	5.e-002	17.21
18647	3.1216	1.5455	0.	5142.7
18648	3.0297	1.6364	0.	5141.2
18649	3.1216	1.6364	5.e-002	17.264
18650	3.1216	1.3636	0.	5186.4
18651	3.0297	1.4545	0.	5183.3
18652	3.1216	1.4545	5.e-002	17.306
18653	3.1216	1.1818	0.	5235.
18654	3.0297	1.2727	0.	5230.6
18655	3.1216	1.2727	5.e-002	17.324
18656	3.1216	1.	0.	5287.8
18657	3.0297	1.0909	0.	5282.8
18658	3.1216	1.0909	5.e-002	17.308
18659	3.1216	0.81818	0.	5344.5
18660	3.0297	0.90909	0.	5339.4
18661	3.1216	0.90909	5.e-002	17.248
18662	3.1216	0.63636	0.	5404.5
18663	3.0297	0.72727	0.	5399.8
18664	3.1216	0.72727	5.e-002	17.137
18665	3.1216	0.45455	0.	5467.3
18666	3.0297	0.54545	0.	5463.4
18667	3.1216	0.54545	5.e-002	17.013
18668	3.1216	0.27273	0.	5534.3
18669	3.0297	0.36364	0.	5529.9
18670	3.1216	0.36364	5.e-002	17.39
18671	3.0297	0.18182	0.	5602.7
18672	3.1216	0.18182	5.e-002	28.505
18673	3.1216	9.0909e-002	0.	5583.2
18674	2.9379	5.7273	0.	5598.3
18675	2.8461	5.8182	0.	5669.5
18676	2.9379	5.8182	5.e-002	30.546
18677	2.9379	5.9091	0.	5649.1
18678	2.9379	5.5455	0.	5526.
18679	2.8461	5.6364	0.	5590.5
18680	2.9379	5.6364	5.e-002	18.117
18681	2.9379	5.3636	0.	5458.7
18682	2.8461	5.4545	0.	5519.
18683	2.9379	5.4545	5.e-002	17.752
18684	2.9379	5.1818	0.	5394.6
18685	2.8461	5.2727	0.	5451.
18686	2.9379	5.2727	5.e-002	17.917
18687	2.9379	5.	0.	5334.3
18688	2.8461	5.0909	0.	5386.6
18689	2.9379	5.0909	5.e-002	18.059
18690	2.9379	4.8182	0.	5278.4
18691	2.8461	4.9091	0.	5326.8
18692	2.9379	4.9091	5.e-002	18.14
18693	2.9379	4.6364	0.	5227.4
18694	2.8461	4.7273	0.	5272.
18695	2.9379	4.7273	5.e-002	18.168
18696	2.9379	4.4545	0.	5181.8
18697	2.8461	4.5455	0.	5222.7
18698	2.9379	4.5455	5.e-002	18.156
18699	2.9379	4.2727	0.	5141.7
18700	2.8461	4.3636	0.	5179.2
18701	2.9379	4.3636	5.e-002	18.118
18702	2.9379	4.0909	0.	5107.2
18703	2.8461	4.1818	0.	5141.5
18704	2.9379	4.1818	5.e-002	18.069
18705	2.9379	3.9091	0.	5078.3
18706	2.8461	4.	0.	5109.8
18707	2.9379	4.	5.e-002	18.017
18708	2.9379	3.7273	0.	5054.9
18709	2.8461	3.8182	0.	5083.7
18710	2.9379	3.8182	5.e-002	17.97
18711	2.9379	3.5455	0.	5037.
18712	2.8461	3.6364	0.	5063.2
18713	2.9379	3.6364	5.e-002	17.931
18714	2.9379	3.3636	0.	5024.2
18715	2.8461	3.4545	0.	5048.1
18716	2.9379	3.4545	5.e-002	17.902
18717	2.9379	3.1818	0.	5016.7
18718	2.8461	3.2727	0.	5038.1
18719	2.9379	3.2727	5.e-002	17.883
18720	2.9379	3.	0.	5014.2
18721	2.8461	3.0909	0.	5033.1
18722	2.9379	3.0909	5.e-002	17.874
18723	2.9379	2.8182	0.	5016.7
18724	2.8461	2.9091	0.	5033.1
18725	2.9379	2.9091	5.e-002	17.874
18726	2.9379	2.6364	0.	5024.2
18727	2.8461	2.7273	0.	5038.1
18728	2.9379	2.7273	5.e-002	17.883
18729	2.9379	2.4545	0.	5037.
18730	2.8461	2.5455	0.	5048.1
18731	2.9379	2.5455	5.e-002	17.902
18732	2.9379	2.2727	0.	5054.9
18733	2.8461	2.3636	0.	5063.2
18734	2.9379	2.3636	5.e-002	17.931
18735	2.9379	2.0909	0.	5078.3
18736	2.8461	2.1818	0.	5083.7
18737	2.9379	2.1818	5.e-002	17.97
18738	2.9379	1.9091	0.	5107.2
18739	2.8461	2.	0.	5109.8
18740	2.9379	2.	5.e-002	18.017
18741	2.9379	1.7273	0.	5141.7
18742	2.8461	1.8182	0.	5141.5
18743	2.9379	1.8182	5.e-002	18.069
18744	2.9379	1.5455	0.	5181.8
18745	2.8461	1.6364	0.	5179.2
18746	2.9379	1.6364	5.e-002	18.118
18747	2.9379	1.3636	0.	5227.4
18748	2.8461	1.4545	0.	5222.7
18749	2.9379	1.4545	5.e-002	18.156
18750	2.9379	1.1818	0.	5278.4
18751	2.8461	1.2727	0.	5272.
18752	2.9379	1.2727	5.e-002	18.168
18753	2.9379	1.	0.	5334.3
18754	2.8461	1.0909	0.	5326.8
18755	2.9379	1.0909	5.e-002	18.14
18756	2.9379	0.81818	0.	5394.6
18757	2.8461	0.90909	0.	5386.6
18758	2.9379	0.90909	5.e-002	18.059
18759	2.9379	0.63636	0.	5458.7
18760	2.8461	0.72727	0.	5451.
18761	2.9379	0.72727	5.e-002	17.917
18762	2.9379	0.45455	0.	5526.
18763	2.8461	0.54545	0.	5519.
18764	2.9379	0.54545	5.e-002	17.752
18765	2.9379	0.27273	0.	5598.3
18766	2.8461	0.36364	0.	5590.5
18767	2.9379	0.36364	5.e-002	18.117
18768	2.8461	0.18182	0.	5669.5
18769	2.9379	0.18182	5.e-002	30.546
18770	2.9379	9.0909e-002	0.	5649.1
18771	2.7543	5.7273	0.	5661.6
18772	2.6625	5.8182	0.	5735.6
18773	2.7543	5.8182	5.e-002	32.669
18774	2.7543	5.9091	0.	5714.
18775	2.7543	5.5455	0.	5583.4
18776	2.6625	5.6364	0.	5649.5
18777	2.7543	5.6364	5.e-002	18.909
18778	2.7543	5.3636	0.	5511.3
18779	2.6625	5.4545	0.	5572.9
18780	2.7543	5.4545	5.e-002	18.58
18781	2.7543	5.1818	0.	5442.9
18782	2.6625	5.2727	0.	5500.2
18783	2.7543	5.2727	5.e-002	18.798
18784	2.7543	5.	0.	5379.
18785	2.6625	5.0909	0.	5431.9
18786	2.7543	5.0909	5.e-002	18.978
18787	2.7543	4.8182	0.	5320.3
18788	2.6625	4.9091	0.	5368.9
18789	2.7543	4.9091	5.e-002	19.081
18790	2.7543	4.6364	0.	5267.1
18791	2.6625	4.7273	0.	5311.7
18792	2.7543	4.7273	5.e-002	19.12
18793	2.7543	4.4545	0.	5220.
18794	2.6625	4.5455	0.	5260.9
18795	2.7543	4.5455	5.e-002	19.115
18796	2.7543	4.2727	0.	5179.
18797	2.6625	4.3636	0.	5216.5
18798	2.7543	4.3636	5.e-002	19.083
18799	2.7543	4.0909	0.	5144.1
18800	2.6625	4.1818	0.	5178.6
18801	2.7543	4.1818	5.e-002	19.04
18802	2.7543	3.9091	0.	5115.1
18803	2.6625	4.	0.	5146.9
18804	2.7543	4.	5.e-002	18.999
18805	2.7543	3.7273	0.	5092.
18806	2.6625	3.8182	0.	5121.3
18807	2.7543	3.8182	5.e-002	18.964
18808	2.7543	3.5455	0.	5074.3
18809	2.6625	3.6364	0.	5101.4
18810	2.7543	3.6364	5.e-002	18.939
18811	2.7543	3.3636	0.	5061.9
18812	2.6625	3.4545	0.	5086.7
18813	2.7543	3.4545	5.e-002	18.922
18814	2.7543	3.1818	0.	5054.5
18815	2.6625	3.2727	0.	5077.2
18816	2.7543	3.2727	5.e-002	18.913
18817	2.7543	3.	0.	5052.1
18818	2.6625	3.0909	0.	5072.4
18819	2.7543	3.0909	5.e-002	18.909
18820	2.7543	2.8182	0.	5054.5
18821	2.6625	2.9091	0.	5072.4
18822	2.7543	2.9091	5.e-002	18.909
18823	2.7543	2.6364	0.	5061.9
18824	2.6625	2.7273	0.	5077.2
18825	2.7543	2.7273	5.e-002	18.913
18826	2.7543	2.4545	0.	5074.3
18827	2.6625	2.5455	0.	5086.7
18828	2.7543	2.5455	5.e-002	18.922
18829	2.7543	2.2727	0.	5092.
18830	2.6625	2.3636	0.	5101.4
18831	2.7543	2.3636	5.e-002	18.939
18832	2.7543	2.0909	0.	5115.1
18833	2.6625	2.1818	0.	5121.3
18834	2.7543	2.1818	5.e-002	18.964
18835	2.7543	1.9091	0.	5144.1
18836	2.6625	2.	0.	5146.9
18837	2.7543	2.	5.e-002	18.999
18838	2.7543	1.7273	0.	5179.
18839	2.6625	1.8182	0.	5178.6
18840	2.7543	1.8182	5.e-002	19.04
18841	2.7543	1.5455	0.	5220.
18842	2.6625	1.6364	0.	5216.5
18843	2.7543	1.6364	5.e-002	19.083
18844	2.7543	1.3636	0.	5267.1
18845	2.6625	1.4545	0.	5260.9
18846	2.7543	1.4545	5.e-002	19.115
18847	2.7543	1.1818	0.	5320.3
18848	2.6625	1.2727	0.	5311.7
18849	2.7543	1.2727	5.e-002	19.12
18850	2.7543	1.	0.	5379.
18851	2.6625	1.0909	0.	5368.9
18852	2.7543	1.0909	5.e-002	19.081
18853	2.7543	0.81818	0.	5442.9
18854	2.6625	0.90909	0.	5431.9
18855	2.7543	0.90909	5.e-002	18.978
18856	2.7543	0.63636	0.	5511.3
18857	2.6625	0.72727	0.	5500.2
18858	2.7543	0.72727	5.e-002	18.798
18859	2.7543	0.45455	0.	5583.4
18860	2.6625	0.54545	0.	5572.9
18861	2.7543	0.54545	5.e-002	18.58
18862	2.7543	0.27273	0.	5661.6
18863	2.6625	0.36364	0.	5649.5
18864	2.7543	0.36364	5.e-002	18.909
18865	2.6625	0.18182	0.	5735.6
18866	2.7543	0.18182	5.e-002	32.669
18867	2.7543	9.0909e-002	0.	5714.
18868	2.5707	5.7273	0.	5723.4
18869	2.4789	5.8182	0.	5800.1
18870	2.5707	5.8182	5.e-002	34.864
18871	2.5707	5.9091	0.	5777.2
18872	2.5707	5.5455	0.	5638.9
18873	2.4789	5.6364	0.	5706.4
18874	2.5707	5.6364	5.e-002	19.782
18875	2.5707	5.3636	0.	5561.6
18876	2.4789	5.4545	0.	5624.1
18877	2.5707	5.4545	5.e-002	19.523
18878	2.5707	5.1818	0.	5489.
18879	2.4789	5.2727	0.	5546.6
18880	2.5707	5.2727	5.e-002	19.806
18881	2.5707	5.	0.	5421.6
18882	2.4789	5.0909	0.	5474.4
18883	2.5707	5.0909	5.e-002	20.028
18884	2.5707	4.8182	0.	5360.2
18885	2.4789	4.9091	0.	5408.5
18886	2.5707	4.9091	5.e-002	20.152
18887	2.5707	4.6364	0.	5305.3
18888	2.4789	4.7273	0.	5349.4
18889	2.5707	4.7273	5.e-002	20.201
18890	2.5707	4.4545	0.	5257.2
18891	2.4789	4.5455	0.	5297.6
18892	2.5707	4.5455	5.e-002	20.201
18893	2.5707	4.2727	0.	5215.9
18894	2.4789	4.3636	0.	5253.2
18895	2.5707	4.3636	5.e-002	20.175
18896	2.5707	4.0909	0.	5181.3
18897	2.4789	4.1818	0.	5215.8
18898	2.5707	4.1818	5.e-002	20.143
18899	2.5707	3.9091	0.	5153.
18900	2.4789	4.	0.	5185.1
18901	2.5707	4.	5.e-002	20.116
18902	2.5707	3.7273	0.	5130.6
18903	2.4789	3.8182	0.	5160.6
18904	2.5707	3.8182	5.e-002	20.099
18905	2.5707	3.5455	0.	5113.7
18906	2.4789	3.6364	0.	5141.8
18907	2.5707	3.6364	5.e-002	20.093
18908	2.5707	3.3636	0.	5102.
18909	2.4789	3.4545	0.	5128.3
18910	2.5707	3.4545	5.e-002	20.094
18911	2.5707	3.1818	0.	5095.
18912	2.4789	3.2727	0.	5119.4
18913	2.5707	3.2727	5.e-002	20.098
18914	2.5707	3.	0.	5092.7
18915	2.4789	3.0909	0.	5115.1
18916	2.5707	3.0909	5.e-002	20.101
18917	2.5707	2.8182	0.	5095.
18918	2.4789	2.9091	0.	5115.1
18919	2.5707	2.9091	5.e-002	20.101
18920	2.5707	2.6364	0.	5102.
18921	2.4789	2.7273	0.	5119.4
18922	2.5707	2.7273	5.e-002	20.098
18923	2.5707	2.4545	0.	5113.7
18924	2.4789	2.5455	0.	5128.3
18925	2.5707	2.5455	5.e-002	20.094
18926	2.5707	2.2727	0.	5130.6
18927	2.4789	2.3636	0.	5141.8
18928	2.5707	2.3636	5.e-002	20.093
18929	2.5707	2.0909	0.	5153.
18930	2.4789	2.1818	0.	5160.6
18931	2.5707	2.1818	5.e-002	20.099
18932	2.5707	1.9091	0.	5181.3
18933	2.4789	2.	0.	5185.1
18934	2.5707	2.	5.e-002	20.116
18935	2.5707	1.7273	0.	5215.9
18936	2.4789	1.8182	0.	5215.8
18937	2.5707	1.8182	5.e-002	20.143
18938	2.5707	1.5455	0.	5257.2
18939	2.4789	1.6364	0.	5253.2
18940	2.5707	1.6364	5.e-002	20.175
18941	2.5707	1.3636	0.	5305.3
18942	2.4789	1.4545	0.	5297.6
18943	2.5707	1.4545	5.e-002	20.201
18944	2.5707	1.1818	0.	5360.2
18945	2.4789	1.2727	0.	5349.4
18946	2.5707	1.2727	5.e-002	20.201
18947	2.5707	1.	0.	5421.6
18948	2.4789	1.0909	0.	5408.5
18949	2.5707	1.0909	5.e-002	20.152
18950	2.5707	0.81818	0.	5489.
18951	2.4789	0.90909	0.	5474.4
18952	2.5707	0.90909	5.e-002	20.028
18953	2.5707	0.63636	0.	5561.6
18954	2.4789	0.72727	0.	5546.6
18955	2.5707	0.72727	5.e-002	19.806
18956	2.5707	0.45455	0.	5638.9
18957	2.4789	0.54545	0.	5624.1
18958	2.5707	0.54545	5.e-002	19.523
18959	2.5707	0.27273	0.	5723.4
18960	2.4789	0.36364	0.	5706.4
18961	2.5707	0.36364	5.e-002	19.782
18962	2.4789	0.18182	0.	5800.1
18963	2.5707	0.18182	5.e-002	34.864
18964	2.5707	9.0909e-002	0.	5777.2
18965	2.3871	5.7273	0.	5782.9
18966	2.2953	5.8182	0.	5862.2
18967	2.3871	5.8182	5.e-002	37.11
18968	2.3871	5.9091	0.	5837.9
18969	2.3871	5.5455	0.	5691.5
18970	2.2953	5.6364	0.	5760.
18971	2.3871	5.6364	5.e-002	20.761
18972	2.3871	5.3636	0.	5608.9
18973	2.2953	5.4545	0.	5671.7
18974	2.3871	5.4545	5.e-002	20.616
18975	2.3871	5.1818	0.	5531.9
18976	2.2953	5.2727	0.	5589.3
18977	2.3871	5.2727	5.e-002	20.977
18978	2.3871	5.	0.	5461.2
18979	2.2953	5.0909	0.	5513.4
18980	2.3871	5.0909	5.e-002	21.241
18981	2.3871	4.8182	0.	5397.6
18982	2.2953	4.9091	0.	5444.9
18983	2.3871	4.9091	5.e-002	21.383
18984	2.3871	4.6364	0.	5341.6
18985	2.2953	4.7273	0.	5384.7
18986	2.3871	4.7273	5.e-002	21.435
18987	2.3871	4.4545	0.	5293.4
18988	2.2953	4.5455	0.	5332.9
18989	2.3871	4.5455	5.e-002	21.435
18990	2.3871	4.2727	0.	5252.8
18991	2.2953	4.3636	0.	5289.3
18992	2.3871	4.3636	5.e-002	21.414
18993	2.3871	4.0909	0.	5219.4
18994	2.2953	4.1818	0.	5253.5
18995	2.3871	4.1818	5.e-002	21.395
18996	2.3871	3.9091	0.	5192.5
18997	2.2953	4.	0.	5224.8
18998	2.3871	4.	5.e-002	21.389
18999	2.3871	3.7273	0.	5171.7
19000	2.2953	3.8182	0.	5202.5
19001	2.3871	3.8182	5.e-002	21.397
19002	2.3871	3.5455	0.	5156.2
19003	2.2953	3.6364	0.	5185.6
19004	2.3871	3.6364	5.e-002	21.417
19005	2.3871	3.3636	0.	5145.6
19006	2.2953	3.4545	0.	5173.7
19007	2.3871	3.4545	5.e-002	21.441
19008	2.3871	3.1818	0.	5139.4
19009	2.2953	3.2727	0.	5166.1
19010	2.3871	3.2727	5.e-002	21.462
19011	2.3871	3.	0.	5137.4
19012	2.2953	3.0909	0.	5162.3
19013	2.3871	3.0909	5.e-002	21.474
19014	2.3871	2.8182	0.	5139.4
19015	2.2953	2.9091	0.	5162.3
19016	2.3871	2.9091	5.e-002	21.474
19017	2.3871	2.6364	0.	5145.6
19018	2.2953	2.7273	0.	5166.1
19019	2.3871	2.7273	5.e-002	21.462
19020	2.3871	2.4545	0.	5156.2
19021	2.2953	2.5455	0.	5173.7
19022	2.3871	2.5455	5.e-002	21.441
19023	2.3871	2.2727	0.	5171.7
19024	2.2953	2.3636	0.	5185.6
19025	2.3871	2.3636	5.e-002	21.417
19026	2.3871	2.0909	0.	5192.5
19027	2.2953	2.1818	0.	5202.5
19028	2.3871	2.1818	5.e-002	21.397
19029	2.3871	1.9091	0.	5219.4
19030	2.2953	2.	0.	5224.8
19031	2.3871	2.	5.e-002	21.389
19032	2.3871	1.7273	0.	5252.8
19033	2.2953	1.8182	0.	5253.5
19034	2.3871	1.8182	5.e-002	21.395
19035	2.3871	1.5455	0.	5293.4
19036	2.2953	1.6364	0.	5289.3
19037	2.3871	1.6364	5.e-002	21.414
19038	2.3871	1.3636	0.	5341.6
19039	2.2953	1.4545	0.	5332.9
19040	2.3871	1.4545	5.e-002	21.435
19041	2.3871	1.1818	0.	5397.6
19042	2.2953	1.2727	0.	5384.7
19043	2.3871	1.2727	5.e-002	21.435
19044	2.3871	1.	0.	5461.2
19045	2.2953	1.0909	0.	5444.9
19046	2.3871	1.0909	5.e-002	21.383
19047	2.3871	0.81818	0.	5531.9
19048	2.2953	0.90909	0.	5513.4
19049	2.3871	0.90909	5.e-002	21.241
19050	2.3871	0.63636	0.	5608.9
19051	2.2953	0.72727	0.	5589.3
19052	2.3871	0.72727	5.e-002	20.977
19053	2.3871	0.45455	0.	5691.5
19054	2.2953	0.54545	0.	5671.7
19055	2.3871	0.54545	5.e-002	20.616
19056	2.3871	0.27273	0.	5782.9
19057	2.2953	0.36364	0.	5760.
19058	2.3871	0.36364	5.e-002	20.761
19059	2.2953	0.18182	0.	5862.2
19060	2.3871	0.18182	5.e-002	37.11
19061	2.3871	9.0909e-002	0.	5837.9
19062	2.2034	5.7273	0.	5839.1
19063	2.1116	5.8182	0.	5920.5
19064	2.2034	5.8182	5.e-002	39.382
19065	2.2034	5.9091	0.	5894.9
19066	2.2034	5.5455	0.	5740.1
19067	2.1116	5.6364	0.	5808.9
19068	2.2034	5.6364	5.e-002	21.892
19069	2.2034	5.3636	0.	5651.9
19070	2.1116	5.4545	0.	5714.2
19071	2.2034	5.4545	5.e-002	21.914
19072	2.2034	5.1818	0.	5570.5
19073	2.1116	5.2727	0.	5626.8
19074	2.2034	5.2727	5.e-002	22.362
19075	2.2034	5.	0.	5496.9
19076	2.1116	5.0909	0.	5547.5
19077	2.2034	5.0909	5.e-002	22.663
19078	2.2034	4.8182	0.	5431.8
19079	2.1116	4.9091	0.	5477.3
19080	2.2034	4.9091	5.e-002	22.809
19081	2.2034	4.6364	0.	5375.7
19082	2.1116	4.7273	0.	5417.
19083	2.2034	4.7273	5.e-002	22.852
19084	2.2034	4.4545	0.	5328.6
19085	2.1116	4.5455	0.	5366.4
19086	2.2034	4.5455	5.e-002	22.844
19087	2.2034	4.2727	0.	5289.8
19088	2.1116	4.3636	0.	5325.2
19089	2.2034	4.3636	5.e-002	22.826
19090	2.2034	4.0909	0.	5258.8
19091	2.1116	4.1818	0.	5292.4
19092	2.2034	4.1818	5.e-002	22.823
19093	2.2034	3.9091	0.	5234.6
19094	2.1116	4.	0.	5267.
19095	2.2034	4.	5.e-002	22.843
19096	2.2034	3.7273	0.	5216.2
19097	2.1116	3.8182	0.	5247.9
19098	2.2034	3.8182	5.e-002	22.883
19099	2.2034	3.5455	0.	5203.
19100	2.1116	3.6364	0.	5234.
19101	2.2034	3.6364	5.e-002	22.936
19102	2.2034	3.3636	0.	5194.
19103	2.1116	3.4545	0.	5224.4
19104	2.2034	3.4545	5.e-002	22.988
19105	2.2034	3.1818	0.	5188.9
19106	2.1116	3.2727	0.	5218.5
19107	2.2034	3.2727	5.e-002	23.03
19108	2.2034	3.	0.	5187.2
19109	2.1116	3.0909	0.	5215.6
19110	2.2034	3.0909	5.e-002	23.052
19111	2.2034	2.8182	0.	5188.9
19112	2.1116	2.9091	0.	5215.6
19113	2.2034	2.9091	5.e-002	23.052
19114	2.2034	2.6364	0.	5194.
19115	2.1116	2.7273	0.	5218.5
19116	2.2034	2.7273	5.e-002	23.03
19117	2.2034	2.4545	0.	5203.
19118	2.1116	2.5455	0.	5224.4
19119	2.2034	2.5455	5.e-002	22.988
19120	2.2034	2.2727	0.	5216.2
19121	2.1116	2.3636	0.	5234.
19122	2.2034	2.3636	5.e-002	22.936
19123	2.2034	2.0909	0.	5234.6
19124	2.1116	2.1818	0.	5247.9
19125	2.2034	2.1818	5.e-002	22.883
19126	2.2034	1.9091	0.	5258.8
19127	2.1116	2.	0.	5267.
19128	2.2034	2.	5.e-002	22.843
19129	2.2034	1.7273	0.	5289.8
19130	2.1116	1.8182	0.	5292.4
19131	2.2034	1.8182	5.e-002	22.823
19132	2.2034	1.5455	0.	5328.6
19133	2.1116	1.6364	0.	5325.2
19134	2.2034	1.6364	5.e-002	22.826
19135	2.2034	1.3636	0.	5375.7
19136	2.1116	1.4545	0.	5366.4
19137	2.2034	1.4545	5.e-002	22.844
19138	2.2034	1.1818	0.	5431.8
19139	2.1116	1.2727	0.	5417.
19140	2.2034	1.2727	5.e-002	22.852
19141	2.2034	1.	0.	5496.9
19142	2.1116	1.0909	0.	5477.3
19143	2.2034	1.0909	5.e-002	22.809
19144	2.2034	0.81818	0.	5570.5
19145	2.1116	0.90909	0.	5547.5
19146	2.2034	0.90909	5.e-002	22.663
19147	2.2034	0.63636	0.	5651.9
19148	2.1116	0.72727	0.	5626.8
19149	2.2034	0.72727	5.e-002	22.362
19150	2.2034	0.45455	0.	5740.1
19151	2.1116	0.54545	0.	5714.2
19152	2.2034	0.54545	5.e-002	21.914
19153	2.2034	0.27273	0.	5839.1
19154	2.1116	0.36364	0.	5808.9
19155	2.2034	0.36364	5.e-002	21.892
19156	2.1116	0.18182	0.	5920.5
19157	2.2034	0.18182	5.e-002	39.382
19158	2.2034	9.0909e-002	0.	5894.9
19159	2.0198	5.7273	0.	5890.1
19160	1.928	5.8182	0.	5973.4
19161	2.0198	5.8182	5.e-002	41.64
19162	2.0198	5.9091	0.	5946.4
19163	2.0198	5.5455	0.	5782.9
19164	1.928	5.6364	0.	5851.2
19165	2.0198	5.6364	5.e-002	23.243
19166	2.0198	5.3636	0.	5688.9
19167	1.928	5.4545	0.	5749.7
19168	2.0198	5.4545	5.e-002	23.498
19169	2.0198	5.1818	0.	5603.4
19170	1.928	5.2727	0.	5657.4
19171	2.0198	5.2727	5.e-002	24.034
19172	2.0198	5.	0.	5527.6
19173	1.928	5.0909	0.	5575.2
19174	2.0198	5.0909	5.e-002	24.353
19175	2.0198	4.8182	0.	5462.1
19176	1.928	4.9091	0.	5504.5
19177	2.0198	4.9091	5.e-002	24.477
19178	2.0198	4.6364	0.	5407.3
19179	1.928	4.7273	0.	5445.6
19180	2.0198	4.7273	5.e-002	24.489
19181	2.0198	4.4545	0.	5362.7
19182	1.928	4.5455	0.	5398.2
19183	2.0198	4.5455	5.e-002	24.459
19184	2.0198	4.2727	0.	5327.5
19185	1.928	4.3636	0.	5361.2
19186	2.0198	4.3636	5.e-002	24.44
19187	2.0198	4.0909	0.	5300.4
19188	1.928	4.1818	0.	5333.2
19189	2.0198	4.1818	5.e-002	24.455
19190	2.0198	3.9091	0.	5280.1
19191	1.928	4.	0.	5312.8
19192	2.0198	4.	5.e-002	24.507
19193	2.0198	3.7273	0.	5265.5
19194	1.928	3.8182	0.	5298.3
19195	2.0198	3.8182	5.e-002	24.587
19196	2.0198	3.5455	0.	5255.3
19197	1.928	3.6364	0.	5288.4
19198	2.0198	3.6364	5.e-002	24.677
19199	2.0198	3.3636	0.	5248.7
19200	1.928	3.4545	0.	5282.
19201	2.0198	3.4545	5.e-002	24.762
19202	2.0198	3.1818	0.	5245.
19203	1.928	3.2727	0.	5278.2
19204	2.0198	3.2727	5.e-002	24.827
19205	2.0198	3.	0.	5243.9
19206	1.928	3.0909	0.	5276.5
19207	2.0198	3.0909	5.e-002	24.862
19208	2.0198	2.8182	0.	5245.
19209	1.928	2.9091	0.	5276.5
19210	2.0198	2.9091	5.e-002	24.862
19211	2.0198	2.6364	0.	5248.7
19212	1.928	2.7273	0.	5278.2
19213	2.0198	2.7273	5.e-002	24.827
19214	2.0198	2.4545	0.	5255.3
19215	1.928	2.5455	0.	5282.
19216	2.0198	2.5455	5.e-002	24.762
19217	2.0198	2.2727	0.	5265.5
19218	1.928	2.3636	0.	5288.4
19219	2.0198	2.3636	5.e-002	24.677
19220	2.0198	2.0909	0.	5280.1
19221	1.928	2.1818	0.	5298.3
19222	2.0198	2.1818	5.e-002	24.587
19223	2.0198	1.9091	0.	5300.4
19224	1.928	2.	0.	5312.8
19225	2.0198	2.	5.e-002	24.507
19226	2.0198	1.7273	0.	5327.5
19227	1.928	1.8182	0.	5333.2
19228	2.0198	1.8182	5.e-002	24.455
19229	2.0198	1.5455	0.	5362.7
19230	1.928	1.6364	0.	5361.2
19231	2.0198	1.6364	5.e-002	24.44
19232	2.0198	1.3636	0.	5407.3
19233	1.928	1.4545	0.	5398.2
19234	2.0198	1.4545	5.e-002	24.459
19235	2.0198	1.1818	0.	5462.1
19236	1.928	1.2727	0.	5445.6
19237	2.0198	1.2727	5.e-002	24.489
19238	2.0198	1.	0.	5527.6
19239	1.928	1.0909	0.	5504.5
19240	2.0198	1.0909	5.e-002	24.477
19241	2.0198	0.81818	0.	5603.4
19242	1.928	0.90909	0.	5575.2
19243	2.0198	0.90909	5.e-002	24.353
19244	2.0198	0.63636	0.	5688.9
19245	1.928	0.72727	0.	5657.4
19246	2.0198	0.72727	5.e-002	24.034
19247	2.0198	0.45455	0.	5782.9
19248	1.928	0.54545	0.	5749.7
19249	2.0198	0.54545	5.e-002	23.498
19250	2.0198	0.27273	0.	5890.1
19251	1.928	0.36364	0.	5851.2
19252	2.0198	0.36364	5.e-002	23.243
19253	1.928	0.18182	0.	5973.4
19254	2.0198	0.18182	5.e-002	41.64
19255	2.0198	9.0909e-002	0.	5946.4
19256	1.8362	5.7273	0.	5934.
19257	1.7444	5.8182	0.	6018.1
19258	1.8362	5.8182	5.e-002	43.832
19259	1.8362	5.9091	0.	5990.3
19260	1.8362	5.5455	0.	5817.6
19261	1.7444	5.6364	0.	5884.
19262	1.8362	5.6364	5.e-002	24.932
19263	1.8362	5.3636	0.	5717.7
19264	1.7444	5.4545	0.	5775.3
19265	1.8362	5.4545	5.e-002	25.492
19266	1.8362	5.1818	0.	5628.7
19267	1.7444	5.2727	0.	5678.5
19268	1.8362	5.2727	5.e-002	26.097
19269	1.8362	5.	0.	5551.7
19270	1.7444	5.0909	0.	5594.7
19271	1.8362	5.0909	5.e-002	26.389
19272	1.8362	4.8182	0.	5487.5
19273	1.7444	4.9091	0.	5525.3
19274	1.8362	4.9091	5.e-002	26.445
19275	1.8362	4.6364	0.	5436.
19276	1.7444	4.7273	0.	5470.1
19277	1.8362	4.7273	5.e-002	26.389
19278	1.8362	4.4545	0.	5396.2
19279	1.7444	4.5455	0.	5428.3
19280	1.8362	4.5455	5.e-002	26.319
19281	1.8362	4.2727	0.	5366.5
19282	1.7444	4.3636	0.	5398.
19283	1.8362	4.3636	5.e-002	26.292
19284	1.8362	4.0909	0.	5345.3
19285	1.7444	4.1818	0.	5377.1
19286	1.8362	4.1818	5.e-002	26.328
19287	1.8362	3.9091	0.	5330.6
19288	1.7444	4.	0.	5363.5
19289	1.8362	4.	5.e-002	26.418
19290	1.8362	3.7273	0.	5321.
19291	1.7444	3.8182	0.	5355.3
19292	1.8362	3.8182	5.e-002	26.54
19293	1.8362	3.5455	0.	5314.9
19294	1.7444	3.6364	0.	5350.6
19295	1.8362	3.6364	5.e-002	26.672
19296	1.8362	3.3636	0.	5311.4
19297	1.7444	3.4545	0.	5348.3
19298	1.8362	3.4545	5.e-002	26.79
19299	1.8362	3.1818	0.	5309.6
19300	1.7444	3.2727	0.	5347.3
19301	1.8362	3.2727	5.e-002	26.877
19302	1.8362	3.	0.	5309.
19303	1.7444	3.0909	0.	5347.
19304	1.8362	3.0909	5.e-002	26.924
19305	1.8362	2.8182	0.	5309.6
19306	1.7444	2.9091	0.	5347.
19307	1.8362	2.9091	5.e-002	26.924
19308	1.8362	2.6364	0.	5311.4
19309	1.7444	2.7273	0.	5347.3
19310	1.8362	2.7273	5.e-002	26.877
19311	1.8362	2.4545	0.	5314.9
19312	1.7444	2.5455	0.	5348.3
19313	1.8362	2.5455	5.e-002	26.79
19314	1.8362	2.2727	0.	5321.
19315	1.7444	2.3636	0.	5350.6
19316	1.8362	2.3636	5.e-002	26.672
19317	1.8362	2.0909	0.	5330.6
19318	1.7444	2.1818	0.	5355.3
19319	1.8362	2.1818	5.e-002	26.54
19320	1.8362	1.9091	0.	5345.3
19321	1.7444	2.	0.	5363.5
19322	1.8362	2.	5.e-002	26.418
19323	1.8362	1.7273	0.	5366.5
19324	1.7444	1.8182	0.	5377.1
19325	1.8362	1.8182	5.e-002	26.328
19326	1.8362	1.5455	0.	5396.2
19327	1.7444	1.6364	0.	5398.
19328	1.8362	1.6364	5.e-002	26.292
19329	1.8362	1.3636	0.	5436.
19330	1.7444	1.4545	0.	5428.3
19331	1.8362	1.4545	5.e-002	26.319
19332	1.8362	1.1818	0.	5487.5
19333	1.7444	1.2727	0.	5470.1
19334	1.8362	1.2727	5.e-002	26.389
19335	1.8362	1.	0.	5551.7
19336	1.7444	1.0909	0.	5525.3
19337	1.8362	1.0909	5.e-002	26.445
19338	1.8362	0.81818	0.	5628.7
19339	1.7444	0.90909	0.	5594.7
19340	1.8362	0.90909	5.e-002	26.389
19341	1.8362	0.63636	0.	5717.7
19342	1.7444	0.72727	0.	5678.5
19343	1.8362	0.72727	5.e-002	26.097
19344	1.8362	0.45455	0.	5817.6
19345	1.7444	0.54545	0.	5775.3
19346	1.8362	0.54545	5.e-002	25.492
19347	1.8362	0.27273	0.	5934.
19348	1.7444	0.36364	0.	5884.
19349	1.8362	0.36364	5.e-002	24.932
19350	1.7444	0.18182	0.	6018.1
19351	1.8362	0.18182	5.e-002	43.832
19352	1.8362	9.0909e-002	0.	5990.3
19353	1.6526	5.7273	0.	5967.6
19354	1.5608	5.8182	0.	6051.2
19355	1.6526	5.8182	5.e-002	45.885
19356	1.6526	5.9091	0.	6023.5
19357	1.6526	5.5455	0.	5841.2
19358	1.5608	5.6364	0.	5903.5
19359	1.6526	5.6364	5.e-002	27.15
19360	1.6526	5.3636	0.	5735.5
19361	1.5608	5.4545	0.	5787.4
19362	1.6526	5.4545	5.e-002	28.078
19363	1.6526	5.1818	0.	5643.9
19364	1.5608	5.2727	0.	5686.9
19365	1.6526	5.2727	5.e-002	28.694
19366	1.6526	5.	0.	5567.6
19367	1.5608	5.0909	0.	5603.5
19368	1.6526	5.0909	5.e-002	28.875
19369	1.6526	4.8182	0.	5507.2
19370	1.5608	4.9091	0.	5538.1
19371	1.6526	4.9091	5.e-002	28.784
19372	1.6526	4.6364	0.	5461.8
19373	1.5608	4.7273	0.	5490.2
19374	1.6526	4.7273	5.e-002	28.607
19375	1.6526	4.4545	0.	5429.6
19376	1.5608	4.5455	0.	5457.4
19377	1.6526	4.5455	5.e-002	28.47
19378	1.6526	4.2727	0.	5408.2
19379	1.5608	4.3636	0.	5436.9
19380	1.6526	4.3636	5.e-002	28.429
19381	1.6526	4.0909	0.	5395.1
19382	1.5608	4.1818	0.	5425.8
19383	1.6526	4.1818	5.e-002	28.486
19384	1.6526	3.9091	0.	5387.9
19385	1.5608	4.	0.	5421.3
19386	1.6526	4.	5.e-002	28.615
19387	1.6526	3.7273	0.	5384.7
19388	1.5608	3.8182	0.	5420.9
19389	1.6526	3.8182	5.e-002	28.78
19390	1.6526	3.5455	0.	5383.8
19391	1.5608	3.6364	0.	5422.8
19392	1.6526	3.6364	5.e-002	28.948
19393	1.6526	3.3636	0.	5384.1
19394	1.5608	3.4545	0.	5425.4
19395	1.6526	3.4545	5.e-002	29.095
19396	1.6526	3.1818	0.	5384.6
19397	1.5608	3.2727	0.	5427.7
19398	1.6526	3.2727	5.e-002	29.201
19399	1.6526	3.	0.	5384.8
19400	1.5608	3.0909	0.	5429.
19401	1.6526	3.0909	5.e-002	29.256
19402	1.6526	2.8182	0.	5384.6
19403	1.5608	2.9091	0.	5429.
19404	1.6526	2.9091	5.e-002	29.256
19405	1.6526	2.6364	0.	5384.1
19406	1.5608	2.7273	0.	5427.7
19407	1.6526	2.7273	5.e-002	29.201
19408	1.6526	2.4545	0.	5383.8
19409	1.5608	2.5455	0.	5425.4
19410	1.6526	2.5455	5.e-002	29.095
19411	1.6526	2.2727	0.	5384.7
19412	1.5608	2.3636	0.	5422.8
19413	1.6526	2.3636	5.e-002	28.948
19414	1.6526	2.0909	0.	5387.9
19415	1.5608	2.1818	0.	5420.9
19416	1.6526	2.1818	5.e-002	28.78
19417	1.6526	1.9091	0.	5395.1
19418	1.5608	2.	0.	5421.3
19419	1.6526	2.	5.e-002	28.615
19420	1.6526	1.7273	0.	5408.2
19421	1.5608	1.8182	0.	5425.8
19422	1.6526	1.8182	5.e-002	28.486
19423	1.6526	1.5455	0.	5429.6
19424	1.5608	1.6364	0.	5436.9
19425	1.6526	1.6364	5.e-002	28.429
19426	1.6526	1.3636	0.	5461.8
19427	1.5608	1.4545	0.	5457.4
19428	1.6526	1.4545	5.e-002	28.47
19429	1.6526	1.1818	0.	5507.2
19430	1.5608	1.2727	0.	5490.2
19431	1.6526	1.2727	5.e-002	28.607
19432	1.6526	1.	0.	5567.6
19433	1.5608	1.0909	0.	5538.1
19434	1.6526	1.0909	5.e-002	28.784
19435	1.6526	0.81818	0.	5643.9
19436	1.5608	0.90909	0.	5603.5
19437	1.6526	0.90909	5.e-002	28.875
19438	1.6526	0.63636	0.	5735.5
19439	1.5608	0.72727	0.	5686.9
19440	1.6526	0.72727	5.e-002	28.694
19441	1.6526	0.45455	0.	5841.2
19442	1.5608	0.54545	0.	5787.4
19443	1.6526	0.54545	5.e-002	28.078
19444	1.6526	0.27273	0.	5967.6
19445	1.5608	0.36364	0.	5903.5
19446	1.6526	0.36364	5.e-002	27.15
19447	1.5608	0.18182	0.	6051.2
19448	1.6526	0.18182	5.e-002	45.885
19449	1.6526	9.0909e-002	0.	6023.5
19450	1.469	5.7273	0.	5986.4
19451	1.3772	5.8182	0.	6067.3
19452	1.469	5.8182	5.e-002	47.711
19453	1.469	5.9091	0.	6041.3
19454	1.469	5.5455	0.	5849.
19455	1.3772	5.6364	0.	5904.1
19456	1.469	5.6364	5.e-002	30.212
19457	1.469	5.3636	0.	5738.
19458	1.3772	5.4545	0.	5780.7
19459	1.469	5.4545	5.e-002	31.529
19460	1.469	5.1818	0.	5645.6
19461	1.3772	5.2727	0.	5678.4
19462	1.469	5.2727	5.e-002	32.022
19463	1.469	5.	0.	5573.2
19464	1.3772	5.0909	0.	5598.8
19465	1.469	5.0909	5.e-002	31.935
19466	1.469	4.8182	0.	5520.3
19467	1.3772	4.9091	0.	5542.2
19468	1.469	4.9091	5.e-002	31.576
19469	1.469	4.6364	0.	5485.
19470	1.3772	4.7273	0.	5506.1
19471	1.469	4.7273	5.e-002	31.209
19472	1.469	4.4545	0.	5464.1
19473	1.3772	4.5455	0.	5486.9
19474	1.469	4.5455	5.e-002	30.977
19475	1.469	4.2727	0.	5454.1
19476	1.3772	4.3636	0.	5480.2
19477	1.469	4.3636	5.e-002	30.914
19478	1.469	4.0909	0.	5451.8
19479	1.3772	4.1818	0.	5482.
19480	1.469	4.1818	5.e-002	30.989
19481	1.469	3.9091	0.	5454.1
19482	1.3772	4.	0.	5488.8
19483	1.469	4.	5.e-002	31.15
19484	1.469	3.7273	0.	5458.8
19485	1.3772	3.8182	0.	5498.
19486	1.469	3.8182	5.e-002	31.345
19487	1.469	3.5455	0.	5464.2
19488	1.3772	3.6364	0.	5507.4
19489	1.469	3.6364	5.e-002	31.537
19490	1.469	3.3636	0.	5468.8
19491	1.3772	3.4545	0.	5515.6
19492	1.469	3.4545	5.e-002	31.697
19493	1.469	3.1818	0.	5471.9
19494	1.3772	3.2727	0.	5521.6
19495	1.469	3.2727	5.e-002	31.811
19496	1.469	3.	0.	5473.
19497	1.3772	3.0909	0.	5524.8
19498	1.469	3.0909	5.e-002	31.87
19499	1.469	2.8182	0.	5471.9
19500	1.3772	2.9091	0.	5524.8
19501	1.469	2.9091	5.e-002	31.87
19502	1.469	2.6364	0.	5468.8
19503	1.3772	2.7273	0.	5521.6
19504	1.469	2.7273	5.e-002	31.811
19505	1.469	2.4545	0.	5464.2
19506	1.3772	2.5455	0.	5515.6
19507	1.469	2.5455	5.e-002	31.697
19508	1.469	2.2727	0.	5458.8
19509	1.3772	2.3636	0.	5507.4
19510	1.469	2.3636	5.e-002	31.537
19511	1.469	2.0909	0.	5454.1
19512	1.3772	2.1818	0.	5498.
19513	1.469	2.1818	5.e-002	31.345
19514	1.469	1.9091	0.	5451.8
19515	1.3772	2.	0.	5488.8
19516	1.469	2.	5.e-002	31.15
19517	1.469	1.7273	0.	5454.1
19518	1.3772	1.8182	0.	5482.
19519	1.469	1.8182	5.e-002	30.989
19520	1.469	1.5455	0.	5464.1
19521	1.3772	1.6364	0.	5480.2
19522	1.469	1.6364	5.e-002	30.914
19523	1.469	1.3636	0.	5485.
19524	1.3772	1.4545	0.	5486.9
19525	1.469	1.4545	5.e-002	30.977
19526	1.469	1.1818	0.	5520.3
19527	1.3772	1.2727	0.	5506.1
19528	1.469	1.2727	5.e-002	31.209
19529	1.469	1.	0.	5573.2
19530	1.3772	1.0909	0.	5542.2
19531	1.469	1.0909	5.e-002	31.576
19532	1.469	0.81818	0.	5645.6
19533	1.3772	0.90909	0.	5598.8
19534	1.469	0.90909	5.e-002	31.935
19535	1.469	0.63636	0.	5738.
19536	1.3772	0.72727	0.	5678.4
19537	1.469	0.72727	5.e-002	32.022
19538	1.469	0.45455	0.	5849.
19539	1.3772	0.54545	0.	5780.7
19540	1.469	0.54545	5.e-002	31.529
19541	1.469	0.27273	0.	5986.4
19542	1.3772	0.36364	0.	5904.1
19543	1.469	0.36364	5.e-002	30.212
19544	1.3772	0.18182	0.	6067.3
19545	1.469	0.18182	5.e-002	47.711
19546	1.469	9.0909e-002	0.	6041.3
19547	1.2853	5.7273	0.	5984.
19548	1.1935	5.8182	0.	6058.2
19549	1.2853	5.8182	5.e-002	49.214
19550	1.2853	5.9091	0.	6037.2
19551	1.2853	5.5455	0.	5834.9
19552	1.1935	5.6364	0.	5877.4
19553	1.2853	5.6364	5.e-002	34.63
19554	1.2853	5.3636	0.	5720.
19555	1.1935	5.4545	0.	5747.6
19556	1.2853	5.4545	5.e-002	36.243
19557	1.2853	5.1818	0.	5630.4
19558	1.1935	5.2727	0.	5647.2
19559	1.2853	5.2727	5.e-002	36.334
19560	1.2853	5.	0.	5566.7
19561	1.1935	5.0909	0.	5577.5
19562	1.2853	5.0909	5.e-002	35.715
19563	1.2853	4.8182	0.	5527.
19564	1.1935	4.9091	0.	5536.5
19565	1.2853	4.9091	5.e-002	34.913
19566	1.2853	4.6364	0.	5507.2
19567	1.1935	4.7273	0.	5519.2
19568	1.2853	4.7273	5.e-002	34.273
19569	1.2853	4.4545	0.	5502.4
19570	1.1935	4.5455	0.	5519.3
19571	1.2853	4.5455	5.e-002	33.919
19572	1.2853	4.2727	0.	5507.6
19573	1.1935	4.3636	0.	5530.7
19574	1.2853	4.3636	5.e-002	33.822
19575	1.2853	4.0909	0.	5518.7
19576	1.1935	4.1818	0.	5548.5
19577	1.2853	4.1818	5.e-002	33.901
19578	1.2853	3.9091	0.	5532.5
19579	1.1935	4.	0.	5568.8
19580	1.2853	4.	5.e-002	34.07
19581	1.2853	3.7273	0.	5546.4
19582	1.1935	3.8182	0.	5588.9
19583	1.2853	3.8182	5.e-002	34.266
19584	1.2853	3.5455	0.	5558.7
19585	1.1935	3.6364	0.	5606.7
19586	1.2853	3.6364	5.e-002	34.449
19587	1.2853	3.3636	0.	5568.3
19588	1.1935	3.4545	0.	5621.
19589	1.2853	3.4545	5.e-002	34.598
19590	1.2853	3.1818	0.	5574.4
19591	1.1935	3.2727	0.	5631.
19592	1.2853	3.2727	5.e-002	34.7
19593	1.2853	3.	0.	5576.4
19594	1.1935	3.0909	0.	5636.
19595	1.2853	3.0909	5.e-002	34.752
19596	1.2853	2.8182	0.	5574.4
19597	1.1935	2.9091	0.	5636.
19598	1.2853	2.9091	5.e-002	34.752
19599	1.2853	2.6364	0.	5568.3
19600	1.1935	2.7273	0.	5631.
19601	1.2853	2.7273	5.e-002	34.7
19602	1.2853	2.4545	0.	5558.7
19603	1.1935	2.5455	0.	5621.
19604	1.2853	2.5455	5.e-002	34.598
19605	1.2853	2.2727	0.	5546.4
19606	1.1935	2.3636	0.	5606.7
19607	1.2853	2.3636	5.e-002	34.449
19608	1.2853	2.0909	0.	5532.5
19609	1.1935	2.1818	0.	5588.9
19610	1.2853	2.1818	5.e-002	34.266
19611	1.2853	1.9091	0.	5518.7
19612	1.1935	2.	0.	5568.8
19613	1.2853	2.	5.e-002	34.07
19614	1.2853	1.7273	0.	5507.6
19615	1.1935	1.8182	0.	5548.5
19616	1.2853	1.8182	5.e-002	33.901
19617	1.2853	1.5455	0.	5502.4
19618	1.1935	1.6364	0.	5530.7
19619	1.2853	1.6364	5.e-002	33.822
19620	1.2853	1.3636	0.	5507.2
19621	1.1935	1.4545	0.	5519.3
19622	1.2853	1.4545	5.e-002	33.919
19623	1.2853	1.1818	0.	5527.
19624	1.1935	1.2727	0.	5519.2
19625	1.2853	1.2727	5.e-002	34.273
19626	1.2853	1.	0.	5566.7
19627	1.1935	1.0909	0.	5536.5
19628	1.2853	1.0909	5.e-002	34.913
19629	1.2853	0.81818	0.	5630.4
19630	1.1935	0.90909	0.	5577.5
19631	1.2853	0.90909	5.e-002	35.715
19632	1.2853	0.63636	0.	5720.
19633	1.1935	0.72727	0.	5647.2
19634	1.2853	0.72727	5.e-002	36.334
19635	1.2853	0.45455	0.	5834.9
19636	1.1935	0.54545	0.	5747.6
19637	1.2853	0.54545	5.e-002	36.243
19638	1.2853	0.27273	0.	5984.
19639	1.1935	0.36364	0.	5877.4
19640	1.2853	0.36364	5.e-002	34.63
19641	1.1935	0.18182	0.	6058.2
19642	1.2853	0.18182	5.e-002	49.214
19643	1.2853	9.0909e-002	0.	6037.2
19644	1.1017	5.7273	0.	5950.2
19645	1.0099	5.8182	0.	6011.5
19646	1.1017	5.8182	5.e-002	50.418
19647	1.1017	5.9091	0.	6001.
19648	1.1017	5.5455	0.	5788.8
19649	1.0099	5.6364	0.	5811.4
19650	1.1017	5.6364	5.e-002	41.259
19651	1.1017	5.3636	0.	5673.2
19652	1.0099	5.4545	0.	5678.8
19653	1.1017	5.4545	5.e-002	42.791
19654	1.1017	5.1818	0.	5592.7
19655	1.0099	5.2727	0.	5588.4
19656	1.1017	5.2727	5.e-002	41.94
19657	1.1017	5.	0.	5545.9
19658	1.0099	5.0909	0.	5539.3
19659	1.1017	5.0909	5.e-002	40.375
19660	1.1017	4.8182	0.	5527.6
19661	1.0099	4.9091	0.	5524.9
19662	1.1017	4.9091	5.e-002	38.917
19663	1.1017	4.6364	0.	5530.5
19664	1.0099	4.7273	0.	5535.5
19665	1.1017	4.7273	5.e-002	37.935
19666	1.1017	4.4545	0.	5547.1
19667	1.0099	4.5455	0.	5561.6
19668	1.1017	4.5455	5.e-002	37.439
19669	1.1017	4.2727	0.	5571.3
19670	1.0099	4.3636	0.	5595.7
19671	1.1017	4.3636	5.e-002	37.289
19672	1.1017	4.0909	0.	5598.4
19673	1.0099	4.1818	0.	5632.3
19674	1.1017	4.1818	5.e-002	37.331
19675	1.1017	3.9091	0.	5625.1
19676	1.0099	4.	0.	5667.5
19677	1.1017	4.	5.e-002	37.455
19678	1.1017	3.7273	0.	5649.1
19679	1.0099	3.8182	0.	5699.2
19680	1.1017	3.8182	5.e-002	37.595
19681	1.1017	3.5455	0.	5668.9
19682	1.0099	3.6364	0.	5725.7
19683	1.1017	3.6364	5.e-002	37.72
19684	1.1017	3.3636	0.	5683.5
19685	1.0099	3.4545	0.	5746.1
19686	1.1017	3.4545	5.e-002	37.816
19687	1.1017	3.1818	0.	5692.5
19688	1.0099	3.2727	0.	5759.9
19689	1.1017	3.2727	5.e-002	37.879
19690	1.1017	3.	0.	5695.6
19691	1.0099	3.0909	0.	5766.9
19692	1.1017	3.0909	5.e-002	37.91
19693	1.1017	2.8182	0.	5692.5
19694	1.0099	2.9091	0.	5766.9
19695	1.1017	2.9091	5.e-002	37.91
19696	1.1017	2.6364	0.	5683.5
19697	1.0099	2.7273	0.	5759.9
19698	1.1017	2.7273	5.e-002	37.879
19699	1.1017	2.4545	0.	5668.9
19700	1.0099	2.5455	0.	5746.1
19701	1.1017	2.5455	5.e-002	37.816
19702	1.1017	2.2727	0.	5649.1
19703	1.0099	2.3636	0.	5725.7
19704	1.1017	2.3636	5.e-002	37.72
19705	1.1017	2.0909	0.	5625.1
19706	1.0099	2.1818	0.	5699.2
19707	1.1017	2.1818	5.e-002	37.595
19708	1.1017	1.9091	0.	5598.4
19709	1.0099	2.	0.	5667.5
19710	1.1017	2.	5.e-002	37.455
19711	1.1017	1.7273	0.	5571.3
19712	1.0099	1.8182	0.	5632.3
19713	1.1017	1.8182	5.e-002	37.331
19714	1.1017	1.5455	0.	5547.1
19715	1.0099	1.6364	0.	5595.7
19716	1.1017	1.6364	5.e-002	37.289
19717	1.1017	1.3636	0.	5530.5
19718	1.0099	1.4545	0.	5561.6
19719	1.1017	1.4545	5.e-002	37.439
19720	1.1017	1.1818	0.	5527.6
19721	1.0099	1.2727	0.	5535.5
19722	1.1017	1.2727	5.e-002	37.935
19723	1.1017	1.	0.	5545.9
19724	1.0099	1.0909	0.	5524.9
19725	1.1017	1.0909	5.e-002	38.917
19726	1.1017	0.81818	0.	5592.7
19727	1.0099	0.90909	0.	5539.3
19728	1.1017	0.90909	5.e-002	40.375
19729	1.1017	0.63636	0.	5673.2
19730	1.0099	0.72727	0.	5588.4
19731	1.1017	0.72727	5.e-002	41.94
19732	1.1017	0.45455	0.	5788.8
19733	1.0099	0.54545	0.	5678.8
19734	1.1017	0.54545	5.e-002	42.791
19735	1.1017	0.27273	0.	5950.2
19736	1.0099	0.36364	0.	5811.4
19737	1.1017	0.36364	5.e-002	41.259
19738	1.0099	0.18182	0.	6011.5
19739	1.1017	0.18182	5.e-002	50.418
19740	1.1017	9.0909e-002	0.	6001.
19741	0.9181	5.7273	0.	5870.7
19742	0.82629	5.8182	0.	5904.1
19743	0.9181	5.8182	5.e-002	51.684
19744	0.9181	5.9091	0.	5916.9
19745	0.9181	5.5455	0.	5699.4
19746	0.82629	5.6364	0.	5682.4
19747	0.9181	5.6364	5.e-002	51.45
19748	0.9181	5.3636	0.	5591.6
19749	0.82629	5.4545	0.	5554.7
19750	0.9181	5.4545	5.e-002	51.955
19751	0.9181	5.1818	0.	5532.8
19752	0.82629	5.2727	0.	5490.1
19753	0.9181	5.2727	5.e-002	49.145
19754	0.9181	5.	0.	5516.6
19755	0.82629	5.0909	0.	5479.5
19756	0.9181	5.0909	5.e-002	46.024
19757	0.9181	4.8182	0.	5531.6
19758	0.82629	4.9091	0.	5506.8
19759	0.9181	4.9091	5.e-002	43.691
19760	0.9181	4.6364	0.	5565.9
19761	0.82629	4.7273	0.	5555.8
19762	0.9181	4.7273	5.e-002	42.314
19763	0.9181	4.4545	0.	5609.9
19764	0.82629	4.5455	0.	5614.4
19765	0.9181	4.5455	5.e-002	41.638
19766	0.9181	4.2727	0.	5656.5
19767	0.82629	4.3636	0.	5674.5
19768	0.9181	4.3636	5.e-002	41.359
19769	0.9181	4.0909	0.	5701.3
19770	0.82629	4.1818	0.	5731.1
19771	0.9181	4.1818	5.e-002	41.265
19772	0.9181	3.9091	0.	5741.6
19773	0.82629	4.	0.	5781.5
19774	0.9181	4.	5.e-002	41.239
19775	0.9181	3.7273	0.	5775.8
19776	0.82629	3.8182	0.	5824.3
19777	0.9181	3.8182	5.e-002	41.23
19778	0.9181	3.5455	0.	5802.9
19779	0.82629	3.6364	0.	5858.8
19780	0.9181	3.6364	5.e-002	41.219
19781	0.9181	3.3636	0.	5822.4
19782	0.82629	3.4545	0.	5884.8
19783	0.9181	3.4545	5.e-002	41.205
19784	0.9181	3.1818	0.	5834.2
19785	0.82629	3.2727	0.	5902.
19786	0.9181	3.2727	5.e-002	41.192
19787	0.9181	3.	0.	5838.2
19788	0.82629	3.0909	0.	5910.7
19789	0.9181	3.0909	5.e-002	41.184
19790	0.9181	2.8182	0.	5834.2
19791	0.82629	2.9091	0.	5910.7
19792	0.9181	2.9091	5.e-002	41.184
19793	0.9181	2.6364	0.	5822.4
19794	0.82629	2.7273	0.	5902.
19795	0.9181	2.7273	5.e-002	41.192
19796	0.9181	2.4545	0.	5802.9
19797	0.82629	2.5455	0.	5884.8
19798	0.9181	2.5455	5.e-002	41.205
19799	0.9181	2.2727	0.	5775.8
19800	0.82629	2.3636	0.	5858.8
19801	0.9181	2.3636	5.e-002	41.219
19802	0.9181	2.0909	0.	5741.6
19803	0.82629	2.1818	0.	5824.3
19804	0.9181	2.1818	5.e-002	41.23
19805	0.9181	1.9091	0.	5701.3
19806	0.82629	2.	0.	5781.5
19807	0.9181	2.	5.e-002	41.239
19808	0.9181	1.7273	0.	5656.5
19809	0.82629	1.8182	0.	5731.1
19810	0.9181	1.8182	5.e-002	41.265
19811	0.9181	1.5455	0.	5609.9
19812	0.82629	1.6364	0.	5674.5
19813	0.9181	1.6364	5.e-002	41.359
19814	0.9181	1.3636	0.	5565.9
19815	0.82629	1.4545	0.	5614.4
19816	0.9181	1.4545	5.e-002	41.638
19817	0.9181	1.1818	0.	5531.6
19818	0.82629	1.2727	0.	5555.8
19819	0.9181	1.2727	5.e-002	42.314
19820	0.9181	1.	0.	5516.6
19821	0.82629	1.0909	0.	5506.8
19822	0.9181	1.0909	5.e-002	43.691
19823	0.9181	0.81818	0.	5532.8
19824	0.82629	0.90909	0.	5479.5
19825	0.9181	0.90909	5.e-002	46.024
19826	0.9181	0.63636	0.	5591.6
19827	0.82629	0.72727	0.	5490.1
19828	0.9181	0.72727	5.e-002	49.145
19829	0.9181	0.45455	0.	5699.4
19830	0.82629	0.54545	0.	5554.7
19831	0.9181	0.54545	5.e-002	51.955
19832	0.9181	0.27273	0.	5870.7
19833	0.82629	0.36364	0.	5682.4
19834	0.9181	0.36364	5.e-002	51.45
19835	0.82629	0.18182	0.	5904.1
19836	0.9181	0.18182	5.e-002	51.684
19837	0.9181	9.0909e-002	0.	5916.9
19838	0.73448	5.7273	0.	5712.4
19839	0.64267	5.8182	0.	5701.4
19840	0.73448	5.8182	5.e-002	55.741
19841	0.73448	5.9091	0.	5755.1
19842	0.73448	5.5455	0.	5534.1
19843	0.64267	5.6364	0.	5470.8
19844	0.73448	5.6364	5.e-002	67.571
19845	0.73448	5.3636	0.	5449.5
19846	0.64267	5.4545	0.	5378.1
19847	0.73448	5.4545	5.e-002	64.644
19848	0.73448	5.1818	0.	5433.9
19849	0.64267	5.2727	0.	5376.6
19850	0.73448	5.2727	5.e-002	58.204
19851	0.73448	5.	0.	5467.8
19852	0.64267	5.0909	0.	5436.2
19853	0.73448	5.0909	5.e-002	52.981
19854	0.73448	4.8182	0.	5530.
19855	0.64267	4.9091	0.	5526.
19856	0.73448	4.9091	5.e-002	49.76
19857	0.73448	4.6364	0.	5603.9
19858	0.64267	4.7273	0.	5624.8
19859	0.73448	4.7273	5.e-002	48.023
19860	0.73448	4.4545	0.	5678.9
19861	0.64267	4.5455	0.	5720.8
19862	0.73448	4.5455	5.e-002	47.101
19863	0.73448	4.2727	0.	5749.1
19864	0.64267	4.3636	0.	5808.1
19865	0.73448	4.3636	5.e-002	46.554
19866	0.73448	4.0909	0.	5811.3
19867	0.64267	4.1818	0.	5884.2
19868	0.73448	4.1818	5.e-002	46.166
19869	0.73448	3.9091	0.	5864.2
19870	0.64267	4.	0.	5948.4
19871	0.73448	4.	5.e-002	45.847
19872	0.73448	3.7273	0.	5907.4
19873	0.64267	3.8182	0.	6000.9
19874	0.73448	3.8182	5.e-002	45.571
19875	0.73448	3.5455	0.	5940.7
19876	0.64267	3.6364	0.	6042.1
19877	0.73448	3.6364	5.e-002	45.337
19878	0.73448	3.3636	0.	5964.3
19879	0.64267	3.4545	0.	6072.4
19880	0.73448	3.4545	5.e-002	45.151
19881	0.73448	3.1818	0.	5978.4
19882	0.64267	3.2727	0.	6092.3
19883	0.73448	3.2727	5.e-002	45.022
19884	0.73448	3.	0.	5983.1
19885	0.64267	3.0909	0.	6102.2
19886	0.73448	3.0909	5.e-002	44.956
19887	0.73448	2.8182	0.	5978.4
19888	0.64267	2.9091	0.	6102.2
19889	0.73448	2.9091	5.e-002	44.956
19890	0.73448	2.6364	0.	5964.3
19891	0.64267	2.7273	0.	6092.3
19892	0.73448	2.7273	5.e-002	45.022
19893	0.73448	2.4545	0.	5940.7
19894	0.64267	2.5455	0.	6072.4
19895	0.73448	2.5455	5.e-002	45.151
19896	0.73448	2.2727	0.	5907.4
19897	0.64267	2.3636	0.	6042.1
19898	0.73448	2.3636	5.e-002	45.337
19899	0.73448	2.0909	0.	5864.2
19900	0.64267	2.1818	0.	6000.9
19901	0.73448	2.1818	5.e-002	45.571
19902	0.73448	1.9091	0.	5811.3
19903	0.64267	2.	0.	5948.4
19904	0.73448	2.	5.e-002	45.847
19905	0.73448	1.7273	0.	5749.1
19906	0.64267	1.8182	0.	5884.2
19907	0.73448	1.8182	5.e-002	46.166
19908	0.73448	1.5455	0.	5678.9
19909	0.64267	1.6364	0.	5808.1
19910	0.73448	1.6364	5.e-002	46.554
19911	0.73448	1.3636	0.	5603.9
19912	0.64267	1.4545	0.	5720.8
19913	0.73448	1.4545	5.e-002	47.101
19914	0.73448	1.1818	0.	5530.
19915	0.64267	1.2727	0.	5624.8
19916	0.73448	1.2727	5.e-002	48.023
19917	0.73448	1.	0.	5467.8
19918	0.64267	1.0909	0.	5526.
19919	0.73448	1.0909	5.e-002	49.76
19920	0.73448	0.81818	0.	5433.9
19921	0.64267	0.90909	0.	5436.2
19922	0.73448	0.90909	5.e-002	52.981
19923	0.73448	0.63636	0.	5449.5
19924	0.64267	0.72727	0.	5376.6
19925	0.73448	0.72727	5.e-002	58.204
19926	0.73448	0.45455	0.	5534.1
19927	0.64267	0.54545	0.	5378.1
19928	0.73448	0.54545	5.e-002	64.644
19929	0.73448	0.27273	0.	5712.4
19930	0.64267	0.36364	0.	5470.8
19931	0.73448	0.36364	5.e-002	67.571
19932	0.64267	0.18182	0.	5701.4
19933	0.73448	0.18182	5.e-002	55.741
19934	0.73448	9.0909e-002	0.	5755.1
19935	0.55086	5.7273	0.	5452.8
19936	0.45905	5.8182	0.	5299.2
19937	0.55086	5.8182	5.e-002	69.804
19938	0.55086	5.9091	0.	5468.9
19939	0.55086	5.5455	0.	5308.6
19940	0.45905	5.6364	0.	5060.8
19941	0.55086	5.6364	5.e-002	93.612
19942	0.55086	5.3636	0.	5300.8
19943	0.45905	5.4545	0.	5057.2
19944	0.55086	5.4545	5.e-002	81.426
19945	0.55086	5.1818	0.	5377.
19946	0.45905	5.2727	0.	5174.2
19947	0.55086	5.2727	5.e-002	68.827
19948	0.55086	5.	0.	5494.1
19949	0.45905	5.0909	0.	5334.
19950	0.55086	5.0909	5.e-002	61.052
19951	0.55086	4.8182	0.	5621.3
19952	0.45905	4.9091	0.	5496.4
19953	0.55086	4.9091	5.e-002	56.735
19954	0.55086	4.6364	0.	5742.5
19955	0.45905	4.7273	0.	5644.3
19956	0.55086	4.7273	5.e-002	54.277
19957	0.55086	4.4545	0.	5850.7
19958	0.45905	4.5455	0.	5772.5
19959	0.55086	4.5455	5.e-002	52.653
19960	0.55086	4.2727	0.	5943.8
19961	0.45905	4.3636	0.	5880.7
19962	0.55086	4.3636	5.e-002	51.415
19963	0.55086	4.0909	0.	6021.8
19964	0.45905	4.1818	0.	5970.2
19965	0.55086	4.1818	5.e-002	50.391
19966	0.55086	3.9091	0.	6085.5
19967	0.45905	4.	0.	6043.
19968	0.55086	4.	5.e-002	49.524
19969	0.55086	3.7273	0.	6135.9
19970	0.45905	3.8182	0.	6100.8
19971	0.55086	3.8182	5.e-002	48.798
19972	0.55086	3.5455	0.	6173.9
19973	0.45905	3.6364	0.	6145.2
19974	0.55086	3.6364	5.e-002	48.213
19975	0.55086	3.3636	0.	6200.5
19976	0.45905	3.4545	0.	6177.5
19977	0.55086	3.4545	5.e-002	47.771
19978	0.55086	3.1818	0.	6216.3
19979	0.45905	3.2727	0.	6198.5
19980	0.55086	3.2727	5.e-002	47.475
19981	0.55086	3.	0.	6221.5
19982	0.45905	3.0909	0.	6208.9
19983	0.55086	3.0909	5.e-002	47.326
19984	0.55086	2.8182	0.	6216.3
19985	0.45905	2.9091	0.	6208.9
19986	0.55086	2.9091	5.e-002	47.326
19987	0.55086	2.6364	0.	6200.5
19988	0.45905	2.7273	0.	6198.5
19989	0.55086	2.7273	5.e-002	47.475
19990	0.55086	2.4545	0.	6173.9
19991	0.45905	2.5455	0.	6177.5
19992	0.55086	2.5455	5.e-002	47.771
19993	0.55086	2.2727	0.	6135.9
19994	0.45905	2.3636	0.	6145.2
19995	0.55086	2.3636	5.e-002	48.213
19996	0.55086	2.0909	0.	6085.5
19997	0.45905	2.1818	0.	6100.8
19998	0.55086	2.1818	5.e-002	48.798
19999	0.55086	1.9091	0.	6021.8
20000	0.45905	2.	0.	6043.
20001	0.55086	2.	5.e-002	49.524
20002	0.55086	1.7273	0.	5943.8
20003	0.45905	1.8182	0.	5970.2
20004	0.55086	1.8182	5.e-002	50.391
20005	0.55086	1.5455	0.	5850.7
20006	0.45905	1.6364	0.	5880.7
20007	0.55086	1.6364	5.e-002	51.415
20008	0.55086	1.3636	0.	5742.5
20009	0.45905	1.4545	0.	5772.5
20010	0.55086	1.4545	5.e-002	52.653
20011	0.55086	1.1818	0.	5621.3
20012	0.45905	1.2727	0.	5644.3
20013	0.55086	1.2727	5.e-002	54.277
20014	0.55086	1.	0.	5494.1
20015	0.45905	1.0909	0.	5496.4
20016	0.55086	1.0909	5.e-002	56.735
20017	0.55086	0.81818	0.	5377.
20018	0.45905	0.90909	0.	5334.
20019	0.55086	0.90909	5.e-002	61.052
20020	0.55086	0.63636	0.	5300.8
20021	0.45905	0.72727	0.	5174.2
20022	0.55086	0.72727	5.e-002	68.827
20023	0.55086	0.45455	0.	5308.6
20024	0.45905	0.54545	0.	5057.2
20025	0.55086	0.54545	5.e-002	81.426
20026	0.55086	0.27273	0.	5452.8
20027	0.45905	0.36364	0.	5060.8
20028	0.55086	0.36364	5.e-002	93.612
20029	0.45905	0.18182	0.	5299.2
20030	0.55086	0.18182	5.e-002	69.804
20031	0.55086	9.0909e-002	0.	5468.9
20032	0.36724	5.7273	0.	4892.2
20033	0.27543	5.8182	0.	4537.
20034	0.36724	5.8182	5.e-002	122.05
20035	0.36724	5.9091	0.	4924.9
20036	0.36724	5.5455	0.	4796.1
20037	0.27543	5.6364	0.	4642.5
20038	0.36724	5.6364	5.e-002	135.39
20039	0.36724	5.3636	0.	4923.7
20040	0.27543	5.4545	0.	5004.2
20041	0.36724	5.4545	5.e-002	103.05
20042	0.36724	5.1818	0.	5129.1
20043	0.27543	5.2727	0.	5366.4
20044	0.36724	5.2727	5.e-002	84.784
20045	0.36724	5.	0.	5336.3
20046	0.27543	5.0909	0.	5673.6
20047	0.36724	5.0909	5.e-002	75.387
20048	0.36724	4.8182	0.	5520.
20049	0.27543	4.9091	0.	5922.2
20050	0.36724	4.9091	5.e-002	70.374
20051	0.36724	4.6364	0.	5675.
20052	0.27543	4.7273	0.	6120.9
20053	0.36724	4.7273	5.e-002	66.982
20054	0.36724	4.4545	0.	5803.1
20055	0.27543	4.5455	0.	6279.3
20056	0.36724	4.5455	5.e-002	64.352
20057	0.36724	4.2727	0.	5907.6
20058	0.27543	4.3636	0.	6405.6
20059	0.36724	4.3636	5.e-002	62.187
20060	0.36724	4.0909	0.	5991.7
20061	0.27543	4.1818	0.	6506.1
20062	0.36724	4.1818	5.e-002	60.377
20063	0.36724	3.9091	0.	6058.6
20064	0.27543	4.	0.	6585.5
20065	0.36724	4.	5.e-002	58.875
20066	0.36724	3.7273	0.	6110.4
20067	0.27543	3.8182	0.	6647.3
20068	0.36724	3.8182	5.e-002	57.655
20069	0.36724	3.5455	0.	6149.
20070	0.27543	3.6364	0.	6694.
20071	0.36724	3.6364	5.e-002	56.697
20072	0.36724	3.3636	0.	6175.8
20073	0.27543	3.4545	0.	6727.6
20074	0.36724	3.4545	5.e-002	55.99
20075	0.36724	3.1818	0.	6191.4
20076	0.27543	3.2727	0.	6749.3
20077	0.36724	3.2727	5.e-002	55.524
20078	0.36724	3.	0.	6196.6
20079	0.27543	3.0909	0.	6760.
20080	0.36724	3.0909	5.e-002	55.293
20081	0.36724	2.8182	0.	6191.4
20082	0.27543	2.9091	0.	6760.
20083	0.36724	2.9091	5.e-002	55.293
20084	0.36724	2.6364	0.	6175.8
20085	0.27543	2.7273	0.	6749.3
20086	0.36724	2.7273	5.e-002	55.524
20087	0.36724	2.4545	0.	6149.
20088	0.27543	2.5455	0.	6727.6
20089	0.36724	2.5455	5.e-002	55.99
20090	0.36724	2.2727	0.	6110.4
20091	0.27543	2.3636	0.	6694.
20092	0.36724	2.3636	5.e-002	56.697
20093	0.36724	2.0909	0.	6058.6
20094	0.27543	2.1818	0.	6647.3
20095	0.36724	2.1818	5.e-002	57.655
20096	0.36724	1.9091	0.	5991.7
20097	0.27543	2.	0.	6585.5
20098	0.36724	2.	5.e-002	58.875
20099	0.36724	1.7273	0.	5907.6
20100	0.27543	1.8182	0.	6506.1
20101	0.36724	1.8182	5.e-002	60.377
20102	0.36724	1.5455	0.	5803.1
20103	0.27543	1.6364	0.	6405.6
20104	0.36724	1.6364	5.e-002	62.187
20105	0.36724	1.3636	0.	5675.
20106	0.27543	1.4545	0.	6279.3
20107	0.36724	1.4545	5.e-002	64.352
20108	0.36724	1.1818	0.	5520.
20109	0.27543	1.2727	0.	6120.9
20110	0.36724	1.2727	5.e-002	66.982
20111	0.36724	1.	0.	5336.3
20112	0.27543	1.0909	0.	5922.2
20113	0.36724	1.0909	5.e-002	70.374
20114	0.36724	0.81818	0.	5129.1
20115	0.27543	0.90909	0.	5673.6
20116	0.36724	0.90909	5.e-002	75.387
20117	0.36724	0.63636	0.	4923.7
20118	0.27543	0.72727	0.	5366.4
20119	0.36724	0.72727	5.e-002	84.784
20120	0.36724	0.45455	0.	4796.1
20121	0.27543	0.54545	0.	5004.2
20122	0.36724	0.54545	5.e-002	103.05
20123	0.36724	0.27273	0.	4892.2
20124	0.27543	0.36364	0.	4642.5
20125	0.36724	0.36364	5.e-002	135.39
20126	0.27543	0.18182	0.	4537.
20127	0.36724	0.18182	5.e-002	122.05
20128	0.36724	9.0909e-002	0.	4924.9
20129	0.18362	5.7273	0.	4253.6
20130	0.18362	5.8182	5.e-002	294.48
20131	0.18362	5.9091	0.	3841.9
20132	9.181e-002	5.8182	0.	2707.9
20133	0.18362	5.5455	0.	4876.2
20134	0.18362	5.6364	5.e-002	187.58
20135	9.181e-002	5.6364	0.	3407.6
20136	0.18362	5.3636	0.	5477.2
20137	0.18362	5.4545	5.e-002	127.38
20138	9.181e-002	5.4545	0.	3988.5
20139	0.18362	5.1818	0.	5934.2
20140	0.18362	5.2727	5.e-002	97.546
20141	9.181e-002	5.2727	0.	4404.3
20142	0.18362	5.	0.	6276.7
20143	0.18362	5.0909	5.e-002	82.055
20144	9.181e-002	5.0909	0.	4703.2
20145	0.18362	4.8182	0.	6536.3
20146	0.18362	4.9091	5.e-002	71.477
20147	9.181e-002	4.9091	0.	4924.4
20148	0.18362	4.6364	0.	6735.9
20149	0.18362	4.7273	5.e-002	63.765
20150	9.181e-002	4.7273	0.	5091.7
20151	0.18362	4.4545	0.	6891.1
20152	0.18362	4.5455	5.e-002	57.88
20153	9.181e-002	4.5455	0.	5220.4
20154	0.18362	4.2727	0.	7012.6
20155	0.18362	4.3636	5.e-002	53.29
20156	9.181e-002	4.3636	0.	5320.5
20157	0.18362	4.0909	0.	7107.7
20158	0.18362	4.1818	5.e-002	49.677
20159	9.181e-002	4.1818	0.	5398.8
20160	0.18362	3.9091	0.	7181.6
20161	0.18362	4.	5.e-002	46.835
20162	9.181e-002	4.	0.	5459.7
20163	0.18362	3.7273	0.	7238.
20164	0.18362	3.8182	5.e-002	44.625
20165	9.181e-002	3.8182	0.	5506.7
20166	0.18362	3.5455	0.	7279.6
20167	0.18362	3.6364	5.e-002	42.95
20168	9.181e-002	3.6364	0.	5542.
20169	0.18362	3.3636	0.	7308.1
20170	0.18362	3.4545	5.e-002	41.745
20171	9.181e-002	3.4545	0.	5567.2
20172	0.18362	3.1818	0.	7324.7
20173	0.18362	3.2727	5.e-002	40.965
20174	9.181e-002	3.2727	0.	5583.5
20175	0.18362	3.	0.	7330.2
20176	0.18362	3.0909	5.e-002	40.581
20177	9.181e-002	3.0909	0.	5591.4
20178	0.18362	2.8182	0.	7324.7
20179	0.18362	2.9091	5.e-002	40.581
20180	9.181e-002	2.9091	0.	5591.4
20181	0.18362	2.6364	0.	7308.1
20182	0.18362	2.7273	5.e-002	40.965
20183	9.181e-002	2.7273	0.	5583.5
20184	0.18362	2.4545	0.	7279.6
20185	0.18362	2.5455	5.e-002	41.745
20186	9.181e-002	2.5455	0.	5567.2
20187	0.18362	2.2727	0.	7238.
20188	0.18362	2.3636	5.e-002	42.95
20189	9.181e-002	2.3636	0.	5542.
20190	0.18362	2.0909	0.	7181.6
20191	0.18362	2.1818	5.e-002	44.625
20192	9.181e-002	2.1818	0.	5506.7
20193	0.18362	1.9091	0.	7107.7
20194	0.18362	2.	5.e-002	46.835
20195	9.181e-002	2.	0.	5459.7
20196	0.18362	1.7273	0.	7012.6
20197	0.18362	1.8182	5.e-002	49.677
20198	9.181e-002	1.8182	0.	5398.8
20199	0.18362	1.5455	0.	6891.1
20200	0.18362	1.6364	5.e-002	53.29
20201	9.181e-002	1.6364	0.	5320.5
20202	0.18362	1.3636	0.	6735.9
20203	0.18362	1.4545	5.e-002	57.88
20204	9.181e-002	1.4545	0.	5220.4
20205	0.18362	1.1818	0.	6536.3
20206	0.18362	1.2727	5.e-002	63.765
20207	9.181e-002	1.2727	0.	5091.7
20208	0.18362	1.	0.	6276.7
20209	0.18362	1.0909	5.e-002	71.477
20210	9.181e-002	1.0909	0.	4924.4
20211	0.18362	0.81818	0.	5934.2
20212	0.18362	0.90909	5.e-002	82.054
20213	9.181e-002	0.90909	0.	4703.2
20214	0.18362	0.63636	0.	5477.2
20215	0.18362	0.72727	5.e-002	97.546
20216	9.181e-002	0.72727	0.	4404.3
20217	0.18362	0.45455	0.	4876.2
20218	0.18362	0.54545	5.e-002	127.38
20219	9.181e-002	0.54545	0.	3988.5
20220	0.18362	0.27273	0.	4253.6
20221	0.18362	0.36364	5.e-002	187.58
20222	9.181e-002	0.36364	0.	3407.6
20223	0.18362	0.18182	5.e-002	294.48
20224	0.18362	9.0909e-002	0.	3841.9
20225	9.181e-002	0.18182	0.	2707.9
20226	21.648	0.27273	0.	83.251
20227	21.738	0.18182	0.	79.776
20228	21.648	0.18182	5.e-002	8.812
20229	21.648	9.0909e-002	0.	51.144
20230	21.557	0.18182	0.	48.678
20231	21.648	0.45455	0.	121.06
20232	21.738	0.36364	0.	103.13
20233	21.648	0.36364	5.e-002	8.3997
20234	21.557	0.36364	0.	82.152
20235	21.648	0.63636	0.	166.6
20236	21.738	0.54545	0.	138.97
20237	21.648	0.54545	5.e-002	9.5762
20238	21.557	0.54545	0.	119.66
20239	21.648	0.81818	0.	220.44
20240	21.738	0.72727	0.	182.89
20241	21.648	0.72727	5.e-002	11.488
20242	21.557	0.72727	0.	162.2
20243	21.648	1.	0.	286.16
20244	21.738	0.90909	0.	236.
20245	21.648	0.90909	5.e-002	14.208
20246	21.557	0.90909	0.	212.56
20247	21.648	1.1818	0.	369.83
20248	21.738	1.0909	0.	301.47
20249	21.648	1.0909	5.e-002	18.009
20250	21.557	1.0909	0.	274.73
20251	21.648	1.3636	0.	481.33
20252	21.738	1.2727	0.	384.85
20253	21.648	1.2727	5.e-002	23.698
20254	21.557	1.2727	0.	355.18
20255	21.648	1.5455	0.	643.52
20256	21.738	1.4545	0.	494.46
20257	21.648	1.4545	5.e-002	31.559
20258	21.557	1.4545	0.	466.07
20259	21.648	1.7273	0.	893.51
20260	21.738	1.6364	0.	648.12
20261	21.648	1.6364	5.e-002	48.632
20262	21.557	1.6364	0.	622.02
20263	21.648	1.9091	0.	1207.4
20264	21.738	1.8182	0.	884.05
20265	21.648	1.8182	5.e-002	80.827
20266	21.557	1.8182	0.	924.75
20267	21.648	2.0909	0.	1417.6
20268	21.738	2.	0.	1137.
20269	21.648	2.	5.e-002	131.34
20270	21.557	2.	0.	2168.5
20271	21.648	2.2727	0.	1432.4
20272	21.738	2.1818	0.	1262.7
20273	21.648	2.1818	5.e-002	105.04
20274	21.648	2.4545	0.	1341.3
20275	21.738	2.3636	0.	1239.5
20276	21.648	2.3636	5.e-002	45.186
20277	21.648	2.6364	0.	1252.4
20278	21.738	2.5455	0.	1178.9
20279	21.648	2.5455	5.e-002	25.085
20280	21.648	2.8182	0.	1204.1
20281	21.738	2.7273	0.	1135.8
20282	21.648	2.7273	5.e-002	15.721
20283	21.648	3.	0.	1188.6
20284	21.738	2.9091	0.	1114.2
20285	21.648	2.9091	5.e-002	12.622
20286	21.648	3.1818	0.	1204.1
20287	21.738	3.0909	0.	1114.2
20288	21.648	3.0909	5.e-002	12.622
20289	21.648	3.3636	0.	1252.4
20290	21.738	3.2727	0.	1135.8
20291	21.648	3.2727	5.e-002	15.721
20292	21.648	3.5455	0.	1341.3
20293	21.738	3.4545	0.	1178.9
20294	21.648	3.4545	5.e-002	25.085
20295	21.648	3.7273	0.	1432.4
20296	21.738	3.6364	0.	1239.5
20297	21.648	3.6364	5.e-002	45.186
20298	21.648	3.9091	0.	1417.6
20299	21.738	3.8182	0.	1262.7
20300	21.648	3.8182	5.e-002	105.04
20301	21.648	4.0909	0.	1207.4
20302	21.738	4.	0.	1137.
20303	21.648	4.	5.e-002	131.34
20304	21.557	4.	0.	2168.5
20305	21.648	4.2727	0.	893.51
20306	21.738	4.1818	0.	884.05
20307	21.648	4.1818	5.e-002	80.827
20308	21.557	4.1818	0.	924.75
20309	21.648	4.4545	0.	643.52
20310	21.738	4.3636	0.	648.12
20311	21.648	4.3636	5.e-002	48.632
20312	21.557	4.3636	0.	622.02
20313	21.648	4.6364	0.	481.33
20314	21.738	4.5455	0.	494.46
20315	21.648	4.5455	5.e-002	31.559
20316	21.557	4.5455	0.	466.07
20317	21.648	4.8182	0.	369.83
20318	21.738	4.7273	0.	384.85
20319	21.648	4.7273	5.e-002	23.698
20320	21.557	4.7273	0.	355.18
20321	21.648	5.	0.	286.16
20322	21.738	4.9091	0.	301.47
20323	21.648	4.9091	5.e-002	18.009
20324	21.557	4.9091	0.	274.73
20325	21.648	5.1818	0.	220.44
20326	21.738	5.0909	0.	236.
20327	21.648	5.0909	5.e-002	14.208
20328	21.557	5.0909	0.	212.56
20329	21.648	5.3636	0.	166.6
20330	21.738	5.2727	0.	182.89
20331	21.648	5.2727	5.e-002	11.488
20332	21.557	5.2727	0.	162.2
20333	21.648	5.5455	0.	121.06
20334	21.738	5.4545	0.	138.97
20335	21.648	5.4545	5.e-002	9.5762
20336	21.557	5.4545	0.	119.66
20337	21.648	5.7273	0.	83.251
20338	21.738	5.6364	0.	103.13
20339	21.648	5.6364	5.e-002	8.3997
20340	21.557	5.6364	0.	82.152
20341	21.738	5.8182	0.	79.776
20342	21.648	5.8182	5.e-002	8.812
20343	21.648	5.9091	0.	51.144
20344	21.557	5.8182	0.	48.678
20345	21.829	0.27273	0.	101.82
20346	21.919	0.18182	0.	107.13
20347	21.829	0.18182	5.e-002	6.9964
20348	21.829	9.0909e-002	0.	83.481
20349	21.829	0.45455	0.	124.87
20350	21.919	0.36364	0.	118.7
20351	21.829	0.36364	5.e-002	6.1079
20352	21.829	0.63636	0.	159.45
20353	21.919	0.54545	0.	143.72
20354	21.829	0.54545	5.e-002	6.5776
20355	21.829	0.81818	0.	203.04
20356	21.919	0.72727	0.	178.08
20357	21.829	0.72727	5.e-002	7.469
20358	21.829	1.	0.	256.68
20359	21.919	0.90909	0.	221.3
20360	21.829	0.90909	5.e-002	8.7956
20361	21.829	1.1818	0.	323.26
20362	21.919	1.0909	0.	274.56
20363	21.829	1.0909	5.e-002	10.673
20364	21.829	1.3636	0.	406.97
20365	21.919	1.2727	0.	340.31
20366	21.829	1.2727	5.e-002	13.093
20367	21.829	1.5455	0.	512.58
20368	21.919	1.4545	0.	421.88
20369	21.829	1.4545	5.e-002	17.032
20370	21.829	1.7273	0.	651.01
20371	21.919	1.6364	0.	522.61
20372	21.829	1.6364	5.e-002	21.871
20373	21.829	1.9091	0.	810.9
20374	21.919	1.8182	0.	651.07
20375	21.829	1.8182	5.e-002	31.572
20376	21.829	2.0909	0.	960.6
20377	21.919	2.	0.	786.97
20378	21.829	2.	5.e-002	32.044
20379	21.829	2.2727	0.	1049.9
20380	21.919	2.1818	0.	905.
20381	21.829	2.1818	5.e-002	47.38
20382	21.829	2.4545	0.	1069.6
20383	21.919	2.3636	0.	957.97
20384	21.829	2.3636	5.e-002	37.7
20385	21.829	2.6364	0.	1058.
20386	21.919	2.5455	0.	968.38
20387	21.829	2.5455	5.e-002	27.571
20388	21.829	2.8182	0.	1042.5
20389	21.919	2.7273	0.	962.71
20390	21.829	2.7273	5.e-002	20.293
20391	21.829	3.	0.	1036.7
20392	21.919	2.9091	0.	957.39
20393	21.829	2.9091	5.e-002	17.125
20394	21.829	3.1818	0.	1042.5
20395	21.919	3.0909	0.	957.39
20396	21.829	3.0909	5.e-002	17.125
20397	21.829	3.3636	0.	1058.
20398	21.919	3.2727	0.	962.71
20399	21.829	3.2727	5.e-002	20.293
20400	21.829	3.5455	0.	1069.6
20401	21.919	3.4545	0.	968.38
20402	21.829	3.4545	5.e-002	27.571
20403	21.829	3.7273	0.	1049.9
20404	21.919	3.6364	0.	957.97
20405	21.829	3.6364	5.e-002	37.7
20406	21.829	3.9091	0.	960.6
20407	21.919	3.8182	0.	905.
20408	21.829	3.8182	5.e-002	47.38
20409	21.829	4.0909	0.	810.9
20410	21.919	4.	0.	786.97
20411	21.829	4.	5.e-002	32.044
20412	21.829	4.2727	0.	651.01
20413	21.919	4.1818	0.	651.07
20414	21.829	4.1818	5.e-002	31.572
20415	21.829	4.4545	0.	512.58
20416	21.919	4.3636	0.	522.61
20417	21.829	4.3636	5.e-002	21.871
20418	21.829	4.6364	0.	406.97
20419	21.919	4.5455	0.	421.88
20420	21.829	4.5455	5.e-002	17.032
20421	21.829	4.8182	0.	323.26
20422	21.919	4.7273	0.	340.31
20423	21.829	4.7273	5.e-002	13.093
20424	21.829	5.	0.	256.68
20425	21.919	4.9091	0.	274.56
20426	21.829	4.9091	5.e-002	10.673
20427	21.829	5.1818	0.	203.04
20428	21.919	5.0909	0.	221.3
20429	21.829	5.0909	5.e-002	8.7956
20430	21.829	5.3636	0.	159.45
20431	21.919	5.2727	0.	178.08
20432	21.829	5.2727	5.e-002	7.469
20433	21.829	5.5455	0.	124.87
20434	21.919	5.4545	0.	143.72
20435	21.829	5.4545	5.e-002	6.5776
20436	21.829	5.7273	0.	101.82
20437	21.919	5.6364	0.	118.7
20438	21.829	5.6364	5.e-002	6.1079
20439	21.919	5.8182	0.	107.13
20440	21.829	5.8182	5.e-002	6.9964
20441	21.829	5.9091	0.	83.481
20442	22.01	0.27273	0.	124.21
20443	22.1	0.18182	0.	129.25
20444	22.01	0.18182	5.e-002	5.8156
20445	22.01	9.0909e-002	0.	110.13
20446	22.01	0.45455	0.	139.07
20447	22.1	0.36364	0.	135.97
20448	22.01	0.36364	5.e-002	4.8288
20449	22.01	0.63636	0.	164.85
20450	22.1	0.54545	0.	153.8
20451	22.01	0.54545	5.e-002	5.2829
20452	22.01	0.81818	0.	199.48
20453	22.1	0.72727	0.	180.16
20454	22.01	0.72727	5.e-002	6.008
20455	22.01	1.	0.	242.88
20456	22.1	0.90909	0.	214.52
20457	22.01	0.90909	5.e-002	6.9863
20458	22.01	1.1818	0.	295.88
20459	22.1	1.0909	0.	257.06
20460	22.01	1.0909	5.e-002	8.2446
20461	22.01	1.3636	0.	359.99
20462	22.1	1.2727	0.	308.44
20463	22.01	1.2727	5.e-002	9.9447
20464	22.01	1.5455	0.	436.31
20465	22.1	1.4545	0.	369.76
20466	22.01	1.4545	5.e-002	12.063
20467	22.01	1.7273	0.	526.1
20468	22.1	1.6364	0.	441.42
20469	22.01	1.6364	5.e-002	14.367
20470	22.01	1.9091	0.	627.38
20471	22.1	1.8182	0.	524.12
20472	22.01	1.8182	5.e-002	18.371
20473	22.01	2.0909	0.	726.73
20474	22.1	2.	0.	613.34
20475	22.01	2.	5.e-002	22.54
20476	22.01	2.2727	0.	804.56
20477	22.1	2.1818	0.	694.36
20478	22.01	2.1818	5.e-002	26.4
20479	22.01	2.4545	0.	849.65
20480	22.1	2.3636	0.	752.14
20481	22.01	2.3636	5.e-002	28.094
20482	22.01	2.6364	0.	868.16
20483	22.1	2.5455	0.	782.78
20484	22.01	2.5455	5.e-002	24.27
20485	22.01	2.8182	0.	873.59
20486	22.1	2.7273	0.	796.15
20487	22.01	2.7273	5.e-002	20.95
20488	22.01	3.	0.	874.44
20489	22.1	2.9091	0.	800.63
20490	22.01	2.9091	5.e-002	18.988
20491	22.01	3.1818	0.	873.59
20492	22.1	3.0909	0.	800.63
20493	22.01	3.0909	5.e-002	18.988
20494	22.01	3.3636	0.	868.16
20495	22.1	3.2727	0.	796.15
20496	22.01	3.2727	5.e-002	20.95
20497	22.01	3.5455	0.	849.65
20498	22.1	3.4545	0.	782.78
20499	22.01	3.4545	5.e-002	24.27
20500	22.01	3.7273	0.	804.56
20501	22.1	3.6364	0.	752.14
20502	22.01	3.6364	5.e-002	28.094
20503	22.01	3.9091	0.	726.73
20504	22.1	3.8182	0.	694.36
20505	22.01	3.8182	5.e-002	26.4
20506	22.01	4.0909	0.	627.38
20507	22.1	4.	0.	613.34
20508	22.01	4.	5.e-002	22.54
20509	22.01	4.2727	0.	526.1
20510	22.1	4.1818	0.	524.12
20511	22.01	4.1818	5.e-002	18.371
20512	22.01	4.4545	0.	436.31
20513	22.1	4.3636	0.	441.42
20514	22.01	4.3636	5.e-002	14.367
20515	22.01	4.6364	0.	359.99
20516	22.1	4.5455	0.	369.76
20517	22.01	4.5455	5.e-002	12.063
20518	22.01	4.8182	0.	295.88
20519	22.1	4.7273	0.	308.44
20520	22.01	4.7273	5.e-002	9.9447
20521	22.01	5.	0.	242.88
20522	22.1	4.9091	0.	257.06
20523	22.01	4.9091	5.e-002	8.2446
20524	22.01	5.1818	0.	199.48
20525	22.1	5.0909	0.	214.52
20526	22.01	5.0909	5.e-002	6.9863
20527	22.01	5.3636	0.	164.85
20528	22.1	5.2727	0.	180.16
20529	22.01	5.2727	5.e-002	6.008
20530	22.01	5.5455	0.	139.07
20531	22.1	5.4545	0.	153.8
20532	22.01	5.4545	5.e-002	5.2829
20533	22.01	5.7273	0.	124.21
20534	22.1	5.6364	0.	135.97
20535	22.01	5.6364	5.e-002	4.8288
20536	22.1	5.8182	0.	129.25
20537	22.01	5.8182	5.e-002	5.8156
20538	22.01	5.9091	0.	110.13
20539	22.19	0.27273	0.	141.05
20540	22.281	0.18182	0.	143.73
20541	22.19	0.18182	5.e-002	4.5758
20542	22.19	9.0909e-002	0.	129.05
20543	22.19	0.45455	0.	151.27
20544	22.281	0.36364	0.	147.99
20545	22.19	0.36364	5.e-002	3.5505
20546	22.19	0.63636	0.	170.38
20547	22.281	0.54545	0.	161.05
20548	22.19	0.54545	5.e-002	4.0769
20549	22.19	0.81818	0.	197.02
20550	22.281	0.72727	0.	180.96
20551	22.19	0.72727	5.e-002	4.794
20552	22.19	1.	0.	230.92
20553	22.281	0.90909	0.	207.45
20554	22.19	0.90909	5.e-002	5.6803
20555	22.19	1.1818	0.	272.06
20556	22.281	1.0909	0.	240.4
20557	22.19	1.0909	5.e-002	6.7949
20558	22.19	1.3636	0.	320.65
20559	22.281	1.2727	0.	279.77
20560	22.19	1.2727	5.e-002	8.1921
20561	22.19	1.5455	0.	377.03
20562	22.281	1.4545	0.	325.64
20563	22.19	1.4545	5.e-002	10.038
20564	22.19	1.7273	0.	441.07
20565	22.281	1.6364	0.	378.08
20566	22.19	1.6364	5.e-002	12.354
20567	22.19	1.9091	0.	510.81
20568	22.281	1.8182	0.	436.39
20569	22.19	1.8182	5.e-002	14.547
20570	22.19	2.0909	0.	579.8
20571	22.281	2.	0.	497.82
20572	22.19	2.	5.e-002	17.036
20573	22.19	2.2727	0.	638.66
20574	22.281	2.1818	0.	555.38
20575	22.19	2.1818	5.e-002	19.731
20576	22.19	2.4545	0.	681.16
20577	22.281	2.3636	0.	601.63
20578	22.19	2.3636	5.e-002	21.146
20579	22.19	2.6364	0.	706.96
20580	22.281	2.5455	0.	633.24
20581	22.19	2.5455	5.e-002	20.84
20582	22.19	2.8182	0.	719.76
20583	22.281	2.7273	0.	651.41
20584	22.19	2.7273	5.e-002	19.674
20585	22.19	3.	0.	723.52
20586	22.281	2.9091	0.	659.42
20587	22.19	2.9091	5.e-002	18.855
20588	22.19	3.1818	0.	719.76
20589	22.281	3.0909	0.	659.42
20590	22.19	3.0909	5.e-002	18.855
20591	22.19	3.3636	0.	706.96
20592	22.281	3.2727	0.	651.41
20593	22.19	3.2727	5.e-002	19.674
20594	22.19	3.5455	0.	681.16
20595	22.281	3.4545	0.	633.24
20596	22.19	3.4545	5.e-002	20.84
20597	22.19	3.7273	0.	638.66
20598	22.281	3.6364	0.	601.63
20599	22.19	3.6364	5.e-002	21.146
20600	22.19	3.9091	0.	579.8
20601	22.281	3.8182	0.	555.38
20602	22.19	3.8182	5.e-002	19.731
20603	22.19	4.0909	0.	510.81
20604	22.281	4.	0.	497.82
20605	22.19	4.	5.e-002	17.036
20606	22.19	4.2727	0.	441.07
20607	22.281	4.1818	0.	436.39
20608	22.19	4.1818	5.e-002	14.547
20609	22.19	4.4545	0.	377.03
20610	22.281	4.3636	0.	378.08
20611	22.19	4.3636	5.e-002	12.354
20612	22.19	4.6364	0.	320.65
20613	22.281	4.5455	0.	325.64
20614	22.19	4.5455	5.e-002	10.038
20615	22.19	4.8182	0.	272.06
20616	22.281	4.7273	0.	279.77
20617	22.19	4.7273	5.e-002	8.1921
20618	22.19	5.	0.	230.92
20619	22.281	4.9091	0.	240.4
20620	22.19	4.9091	5.e-002	6.7949
20621	22.19	5.1818	0.	197.02
20622	22.281	5.0909	0.	207.45
20623	22.19	5.0909	5.e-002	5.6803
20624	22.19	5.3636	0.	170.38
20625	22.281	5.2727	0.	180.96
20626	22.19	5.2727	5.e-002	4.794
20627	22.19	5.5455	0.	151.27
20628	22.281	5.4545	0.	161.05
20629	22.19	5.4545	5.e-002	4.0769
20630	22.19	5.7273	0.	141.05
20631	22.281	5.6364	0.	147.99
20632	22.19	5.6364	5.e-002	3.5505
20633	22.281	5.8182	0.	143.73
20634	22.19	5.8182	5.e-002	4.5758
20635	22.19	5.9091	0.	129.05
20636	22.371	0.27273	0.	150.72
20637	22.462	0.18182	0.	150.62
20638	22.371	0.18182	5.e-002	3.3144
20639	22.371	9.0909e-002	0.	140.14
20640	22.371	0.45455	0.	158.01
20641	22.462	0.36364	0.	153.38
20642	22.371	0.36364	5.e-002	2.4427
20643	22.371	0.63636	0.	172.22
20644	22.462	0.54545	0.	163.11
20645	22.371	0.54545	5.e-002	3.1286
20646	22.371	0.81818	0.	192.33
20647	22.462	0.72727	0.	178.03
20648	22.371	0.72727	5.e-002	3.9466
20649	22.371	1.	0.	218.12
20650	22.462	0.90909	0.	198.03
20651	22.371	0.90909	5.e-002	4.8952
20652	22.371	1.1818	0.	249.41
20653	22.462	1.0909	0.	222.96
20654	22.371	1.0909	5.e-002	6.028
20655	22.371	1.3636	0.	286.03
20656	22.462	1.2727	0.	252.65
20657	22.371	1.2727	5.e-002	7.3967
20658	22.371	1.5455	0.	327.83
20659	22.462	1.4545	0.	286.91
20660	22.371	1.4545	5.e-002	8.9962
20661	22.371	1.7273	0.	374.35
20662	22.462	1.6364	0.	325.46
20663	22.371	1.6364	5.e-002	10.749
20664	22.371	1.9091	0.	423.93
20665	22.462	1.8182	0.	367.56
20666	22.371	1.8182	5.e-002	12.54
20667	22.371	2.0909	0.	473.07
20668	22.462	2.	0.	411.11
20669	22.371	2.	5.e-002	14.331
20670	22.371	2.2727	0.	516.98
20671	22.462	2.1818	0.	452.52
20672	22.371	2.1818	5.e-002	16.075
20673	22.371	2.4545	0.	551.56
20674	22.462	2.3636	0.	487.7
20675	22.371	2.3636	5.e-002	17.397
20676	22.371	2.6364	0.	575.24
20677	22.462	2.5455	0.	513.95
20678	22.371	2.5455	5.e-002	17.934
20679	22.371	2.8182	0.	588.59
20680	22.462	2.7273	0.	530.73
20681	22.371	2.7273	5.e-002	17.874
20682	22.371	3.	0.	592.86
20683	22.462	2.9091	0.	538.75
20684	22.371	2.9091	5.e-002	17.692
20685	22.371	3.1818	0.	588.59
20686	22.462	3.0909	0.	538.75
20687	22.371	3.0909	5.e-002	17.692
20688	22.371	3.3636	0.	575.24
20689	22.462	3.2727	0.	530.73
20690	22.371	3.2727	5.e-002	17.874
20691	22.371	3.5455	0.	551.56
20692	22.462	3.4545	0.	513.95
20693	22.371	3.4545	5.e-002	17.934
20694	22.371	3.7273	0.	516.98
20695	22.462	3.6364	0.	487.7
20696	22.371	3.6364	5.e-002	17.397
20697	22.371	3.9091	0.	473.07
20698	22.462	3.8182	0.	452.52
20699	22.371	3.8182	5.e-002	16.075
20700	22.371	4.0909	0.	423.93
20701	22.462	4.	0.	411.11
20702	22.371	4.	5.e-002	14.331
20703	22.371	4.2727	0.	374.35
20704	22.462	4.1818	0.	367.56
20705	22.371	4.1818	5.e-002	12.54
20706	22.371	4.4545	0.	327.83
20707	22.462	4.3636	0.	325.46
20708	22.371	4.3636	5.e-002	10.749
20709	22.371	4.6364	0.	286.03
20710	22.462	4.5455	0.	286.91
20711	22.371	4.5455	5.e-002	8.9962
20712	22.371	4.8182	0.	249.41
20713	22.462	4.7273	0.	252.65
20714	22.371	4.7273	5.e-002	7.3967
20715	22.371	5.	0.	218.12
20716	22.462	4.9091	0.	222.96
20717	22.371	4.9091	5.e-002	6.028
20718	22.371	5.1818	0.	192.33
20719	22.462	5.0909	0.	198.03
20720	22.371	5.0909	5.e-002	4.8952
20721	22.371	5.3636	0.	172.22
20722	22.462	5.2727	0.	178.03
20723	22.371	5.2727	5.e-002	3.9466
20724	22.371	5.5455	0.	158.01
20725	22.462	5.4545	0.	163.11
20726	22.371	5.4545	5.e-002	3.1286
20727	22.371	5.7273	0.	150.72
20728	22.462	5.6364	0.	153.38
20729	22.371	5.6364	5.e-002	2.4427
20730	22.462	5.8182	0.	150.62
20731	22.371	5.8182	5.e-002	3.3144
20732	22.371	5.9091	0.	140.14
20733	22.552	0.27273	0.	153.32
20734	22.643	0.18182	0.	150.58
20735	22.552	0.18182	5.e-002	2.1
20736	22.552	9.0909e-002	0.	143.91
20737	22.552	0.45455	0.	158.59
20738	22.643	0.36364	0.	152.3
20739	22.552	0.36364	5.e-002	1.7811
20740	22.552	0.63636	0.	169.19
20741	22.643	0.54545	0.	159.64
20742	22.552	0.54545	5.e-002	2.6592
20743	22.552	0.81818	0.	184.17
20744	22.643	0.72727	0.	170.77
20745	22.552	0.72727	5.e-002	3.5782
20746	22.552	1.	0.	203.44
20747	22.643	0.90909	0.	185.63
20748	22.552	0.90909	5.e-002	4.5898
20749	22.552	1.1818	0.	226.84
20750	22.643	1.0909	0.	204.15
20751	22.552	1.0909	5.e-002	5.7289
20752	22.552	1.3636	0.	254.16
20753	22.643	1.2727	0.	226.17
20754	22.552	1.2727	5.e-002	7.0087
20755	22.552	1.5455	0.	285.14
20756	22.643	1.4545	0.	251.52
20757	22.552	1.4545	5.e-002	8.4011
20758	22.552	1.7273	0.	319.2
20759	22.643	1.6364	0.	279.84
20760	22.552	1.6364	5.e-002	9.83
20761	22.552	1.9091	0.	355.07
20762	22.643	1.8182	0.	310.39
20763	22.552	1.8182	5.e-002	11.235
20764	22.552	2.0909	0.	390.49
20765	22.643	2.	0.	341.68
20766	22.552	2.	5.e-002	12.613
20767	22.552	2.2727	0.	422.62
20768	22.643	2.1818	0.	371.47
20769	22.552	2.1818	5.e-002	13.935
20770	22.552	2.4545	0.	448.94
20771	22.643	2.3636	0.	397.31
20772	22.552	2.3636	5.e-002	15.037
20773	22.552	2.6364	0.	467.96
20774	22.643	2.5455	0.	417.39
20775	22.552	2.5455	5.e-002	15.752
20776	22.552	2.8182	0.	479.26
20777	22.643	2.7273	0.	430.82
20778	22.552	2.7273	5.e-002	16.084
20779	22.552	3.	0.	482.98
20780	22.643	2.9091	0.	437.48
20781	22.552	2.9091	5.e-002	16.186
20782	22.552	3.1818	0.	479.26
20783	22.643	3.0909	0.	437.48
20784	22.552	3.0909	5.e-002	16.186
20785	22.552	3.3636	0.	467.96
20786	22.643	3.2727	0.	430.82
20787	22.552	3.2727	5.e-002	16.084
20788	22.552	3.5455	0.	448.94
20789	22.643	3.4545	0.	417.39
20790	22.552	3.4545	5.e-002	15.752
20791	22.552	3.7273	0.	422.62
20792	22.643	3.6364	0.	397.31
20793	22.552	3.6364	5.e-002	15.037
20794	22.552	3.9091	0.	390.49
20795	22.643	3.8182	0.	371.47
20796	22.552	3.8182	5.e-002	13.935
20797	22.552	4.0909	0.	355.07
20798	22.643	4.	0.	341.68
20799	22.552	4.	5.e-002	12.613
20800	22.552	4.2727	0.	319.2
20801	22.643	4.1818	0.	310.39
20802	22.552	4.1818	5.e-002	11.235
20803	22.552	4.4545	0.	285.14
20804	22.643	4.3636	0.	279.84
20805	22.552	4.3636	5.e-002	9.83
20806	22.552	4.6364	0.	254.16
20807	22.643	4.5455	0.	251.52
20808	22.552	4.5455	5.e-002	8.4011
20809	22.552	4.8182	0.	226.84
20810	22.643	4.7273	0.	226.17
20811	22.552	4.7273	5.e-002	7.0087
20812	22.552	5.	0.	203.44
20813	22.643	4.9091	0.	204.15
20814	22.552	4.9091	5.e-002	5.7289
20815	22.552	5.1818	0.	184.17
20816	22.643	5.0909	0.	185.63
20817	22.552	5.0909	5.e-002	4.5898
20818	22.552	5.3636	0.	169.19
20819	22.643	5.2727	0.	170.77
20820	22.552	5.2727	5.e-002	3.5782
20821	22.552	5.5455	0.	158.59
20822	22.643	5.4545	0.	159.64
20823	22.552	5.4545	5.e-002	2.6592
20824	22.552	5.7273	0.	153.32
20825	22.643	5.6364	0.	152.3
20826	22.552	5.6364	5.e-002	1.7811
20827	22.643	5.8182	0.	150.58
20828	22.552	5.8182	5.e-002	2.1
20829	22.552	5.9091	0.	143.91
20830	22.733	0.27273	0.	149.55
20831	22.824	0.18182	0.	144.47
20832	22.733	0.18182	5.e-002	0.98948
20833	22.733	9.0909e-002	0.	141.1
20834	22.733	0.45455	0.	153.4
20835	22.824	0.36364	0.	145.52
20836	22.733	0.36364	5.e-002	1.8419
20837	22.733	0.63636	0.	161.34
20838	22.824	0.54545	0.	151.17
20839	22.733	0.54545	5.e-002	2.7248
20840	22.733	0.81818	0.	172.42
20841	22.824	0.72727	0.	159.48
20842	22.733	0.72727	5.e-002	3.6265
20843	22.733	1.	0.	186.57
20844	22.824	0.90909	0.	170.36
20845	22.733	0.90909	5.e-002	4.6116
20846	22.733	1.1818	0.	203.75
20847	22.824	1.0909	0.	183.81
20848	22.733	1.0909	5.e-002	5.6843
20849	22.733	1.3636	0.	223.81
20850	22.824	1.2727	0.	199.81
20851	22.733	1.2727	5.e-002	6.8313
20852	22.733	1.5455	0.	246.51
20853	22.824	1.4545	0.	218.21
20854	22.733	1.4545	5.e-002	8.0191
20855	22.733	1.7273	0.	271.3
20856	22.824	1.6364	0.	238.73
20857	22.733	1.6364	5.e-002	9.2028
20858	22.733	1.9091	0.	297.19
20859	22.824	1.8182	0.	260.71
20860	22.733	1.8182	5.e-002	10.351
20861	22.733	2.0909	0.	322.64
20862	22.824	2.	0.	283.04
20863	22.733	2.	5.e-002	11.457
20864	22.733	2.2727	0.	345.84
20865	22.824	2.1818	0.	304.23
20866	22.733	2.1818	5.e-002	12.499
20867	22.733	2.4545	0.	365.14
20868	22.824	2.3636	0.	322.74
20869	22.733	2.3636	5.e-002	13.405
20870	22.733	2.6364	0.	379.38
20871	22.824	2.5455	0.	337.33
20872	22.733	2.5455	5.e-002	14.084
20873	22.733	2.8182	0.	388.04
20874	22.824	2.7273	0.	347.27
20875	22.733	2.7273	5.e-002	14.505
20876	22.733	3.	0.	390.93
20877	22.824	2.9091	0.	352.27
20878	22.733	2.9091	5.e-002	14.696
20879	22.733	3.1818	0.	388.04
20880	22.824	3.0909	0.	352.27
20881	22.733	3.0909	5.e-002	14.696
20882	22.733	3.3636	0.	379.38
20883	22.824	3.2727	0.	347.27
20884	22.733	3.2727	5.e-002	14.505
20885	22.733	3.5455	0.	365.14
20886	22.824	3.4545	0.	337.33
20887	22.733	3.4545	5.e-002	14.084
20888	22.733	3.7273	0.	345.84
20889	22.824	3.6364	0.	322.74
20890	22.733	3.6364	5.e-002	13.405
20891	22.733	3.9091	0.	322.64
20892	22.824	3.8182	0.	304.23
20893	22.733	3.8182	5.e-002	12.499
20894	22.733	4.0909	0.	297.19
20895	22.824	4.	0.	283.04
20896	22.733	4.	5.e-002	11.457
20897	22.733	4.2727	0.	271.3
20898	22.824	4.1818	0.	260.71
20899	22.733	4.1818	5.e-002	10.351
20900	22.733	4.4545	0.	246.51
20901	22.824	4.3636	0.	238.73
20902	22.733	4.3636	5.e-002	9.2028
20903	22.733	4.6364	0.	223.81
20904	22.824	4.5455	0.	218.21
20905	22.733	4.5455	5.e-002	8.0192
20906	22.733	4.8182	0.	203.75
20907	22.824	4.7273	0.	199.81
20908	22.733	4.7273	5.e-002	6.8313
20909	22.733	5.	0.	186.57
20910	22.824	4.9091	0.	183.81
20911	22.733	4.9091	5.e-002	5.6843
20912	22.733	5.1818	0.	172.42
20913	22.824	5.0909	0.	170.36
20914	22.733	5.0909	5.e-002	4.6116
20915	22.733	5.3636	0.	161.34
20916	22.824	5.2727	0.	159.48
20917	22.733	5.2727	5.e-002	3.6265
20918	22.733	5.5455	0.	153.4
20919	22.824	5.4545	0.	151.17
20920	22.733	5.4545	5.e-002	2.7248
20921	22.733	5.7273	0.	149.55
20922	22.824	5.6364	0.	145.52
20923	22.733	5.6364	5.e-002	1.8419
20924	22.824	5.8182	0.	144.47
20925	22.733	5.8182	5.e-002	0.98949
20926	22.733	5.9091	0.	141.1
20927	22.914	0.27273	0.	140.38
20928	23.005	0.18182	0.	133.27
20929	22.914	0.18182	5.e-002	0.29839
20930	22.914	9.0909e-002	0.	132.62
20931	22.914	0.45455	0.	143.31
20932	23.005	0.36364	0.	134.03
20933	22.914	0.36364	5.e-002	2.3732
20934	22.914	0.63636	0.	149.35
20935	23.005	0.54545	0.	138.6
20936	22.914	0.54545	5.e-002	3.1191
20937	22.914	0.81818	0.	157.48
20938	23.005	0.72727	0.	144.87
20939	22.914	0.72727	5.e-002	3.9158
20940	22.914	1.	0.	167.66
20941	23.005	0.90909	0.	152.69
20942	22.914	0.90909	5.e-002	4.8068
20943	22.914	1.1818	0.	179.94
20944	23.005	1.0909	0.	162.15
20945	22.914	1.0909	5.e-002	5.7669
20946	22.914	1.3636	0.	194.28
20947	23.005	1.2727	0.	173.34
20948	22.914	1.2727	5.e-002	6.7676
20949	22.914	1.5455	0.	210.52
20950	23.005	1.4545	0.	186.25
20951	22.914	1.4545	5.e-002	7.777
20952	22.914	1.7273	0.	228.23
20953	23.005	1.6364	0.	200.67
20954	22.914	1.6364	5.e-002	8.7655
20955	22.914	1.9091	0.	246.62
20956	23.005	1.8182	0.	216.07
20957	22.914	1.8182	5.e-002	9.7148
20958	22.914	2.0909	0.	264.59
20959	23.005	2.	0.	231.64
20960	22.914	2.	5.e-002	10.618
20961	22.914	2.2727	0.	280.95
20962	23.005	2.1818	0.	246.33
20963	22.914	2.1818	5.e-002	11.458
20964	22.914	2.4545	0.	294.58
20965	23.005	2.3636	0.	259.11
20966	22.914	2.3636	5.e-002	12.196
20967	22.914	2.6364	0.	304.71
20968	23.005	2.5455	0.	269.2
20969	22.914	2.5455	5.e-002	12.782
20970	22.914	2.8182	0.	310.9
20971	23.005	2.7273	0.	276.09
20972	22.914	2.7273	5.e-002	13.177
20973	22.914	3.	0.	312.97
20974	23.005	2.9091	0.	279.57
20975	22.914	2.9091	5.e-002	13.373
20976	22.914	3.1818	0.	310.9
20977	23.005	3.0909	0.	279.57
20978	22.914	3.0909	5.e-002	13.373
20979	22.914	3.3636	0.	304.71
20980	23.005	3.2727	0.	276.09
20981	22.914	3.2727	5.e-002	13.177
20982	22.914	3.5455	0.	294.58
20983	23.005	3.4545	0.	269.2
20984	22.914	3.4545	5.e-002	12.782
20985	22.914	3.7273	0.	280.95
20986	23.005	3.6364	0.	259.11
20987	22.914	3.6364	5.e-002	12.196
20988	22.914	3.9091	0.	264.59
20989	23.005	3.8182	0.	246.33
20990	22.914	3.8182	5.e-002	11.458
20991	22.914	4.0909	0.	246.62
20992	23.005	4.	0.	231.64
20993	22.914	4.	5.e-002	10.618
20994	22.914	4.2727	0.	228.23
20995	23.005	4.1818	0.	216.07
20996	22.914	4.1818	5.e-002	9.7148
20997	22.914	4.4545	0.	210.52
20998	23.005	4.3636	0.	200.67
20999	22.914	4.3636	5.e-002	8.7655
21000	22.914	4.6364	0.	194.28
21001	23.005	4.5455	0.	186.25
21002	22.914	4.5455	5.e-002	7.777
21003	22.914	4.8182	0.	179.94
21004	23.005	4.7273	0.	173.34
21005	22.914	4.7273	5.e-002	6.7676
21006	22.914	5.	0.	167.66
21007	23.005	4.9091	0.	162.15
21008	22.914	4.9091	5.e-002	5.7669
21009	22.914	5.1818	0.	157.48
21010	23.005	5.0909	0.	152.69
21011	22.914	5.0909	5.e-002	4.8068
21012	22.914	5.3636	0.	149.35
21013	23.005	5.2727	0.	144.87
21014	22.914	5.2727	5.e-002	3.9158
21015	22.914	5.5455	0.	143.31
21016	23.005	5.4545	0.	138.6
21017	22.914	5.4545	5.e-002	3.1191
21018	22.914	5.7273	0.	140.38
21019	23.005	5.6364	0.	134.03
21020	22.914	5.6364	5.e-002	2.3732
21021	23.005	5.8182	0.	133.27
21022	22.914	5.8182	5.e-002	0.29838
21023	22.914	5.9091	0.	132.62
21024	23.095	0.27273	0.	126.8
21025	23.186	0.18182	0.	117.93
21026	23.095	0.18182	5.e-002	1.0339
21027	23.095	9.0909e-002	0.	119.42
21028	23.095	0.45455	0.	129.33
21029	23.186	0.36364	0.	118.9
21030	23.095	0.36364	5.e-002	3.0035
21031	23.095	0.63636	0.	134.14
21032	23.186	0.54545	0.	123.
21033	23.095	0.54545	5.e-002	3.6195
21034	23.095	0.81818	0.	140.08
21035	23.186	0.72727	0.	127.86
21036	23.095	0.72727	5.e-002	4.2992
21037	23.095	1.	0.	147.16
21038	23.186	0.90909	0.	133.31
21039	23.095	0.90909	5.e-002	5.0766
21040	23.095	1.1818	0.	155.51
21041	23.186	1.0909	0.	139.56
21042	23.095	1.0909	5.e-002	5.9122
21043	23.095	1.3636	0.	165.26
21044	23.186	1.2727	0.	146.84
21045	23.095	1.2727	5.e-002	6.7715
21046	23.095	1.5455	0.	176.36
21047	23.186	1.4545	0.	155.29
21048	23.095	1.4545	5.e-002	7.6256
21049	23.095	1.7273	0.	188.49
21050	23.186	1.6364	0.	164.82
21051	23.095	1.6364	5.e-002	8.4531
21052	23.095	1.9091	0.	201.07
21053	23.186	1.8182	0.	175.04
21054	23.095	1.8182	5.e-002	9.2412
21055	23.095	2.0909	0.	213.31
21056	23.186	2.	0.	185.35
21057	23.095	2.	5.e-002	9.9826
21058	23.095	2.2727	0.	224.36
21059	23.186	2.1818	0.	194.99
21060	23.095	2.1818	5.e-002	10.665
21061	23.095	2.4545	0.	233.51
21062	23.186	2.3636	0.	203.3
21063	23.095	2.3636	5.e-002	11.265
21064	23.095	2.6364	0.	240.28
21065	23.186	2.5455	0.	209.78
21066	23.095	2.5455	5.e-002	11.749
21067	23.095	2.8182	0.	244.41
21068	23.186	2.7273	0.	214.16
21069	23.095	2.7273	5.e-002	12.086
21070	23.095	3.	0.	245.79
21071	23.186	2.9091	0.	216.36
21072	23.095	2.9091	5.e-002	12.258
21073	23.095	3.1818	0.	244.41
21074	23.186	3.0909	0.	216.36
21075	23.095	3.0909	5.e-002	12.258
21076	23.095	3.3636	0.	240.28
21077	23.186	3.2727	0.	214.16
21078	23.095	3.2727	5.e-002	12.086
21079	23.095	3.5455	0.	233.51
21080	23.186	3.4545	0.	209.78
21081	23.095	3.4545	5.e-002	11.749
21082	23.095	3.7273	0.	224.36
21083	23.186	3.6364	0.	203.3
21084	23.095	3.6364	5.e-002	11.265
21085	23.095	3.9091	0.	213.31
21086	23.186	3.8182	0.	194.99
21087	23.095	3.8182	5.e-002	10.665
21088	23.095	4.0909	0.	201.07
21089	23.186	4.	0.	185.35
21090	23.095	4.	5.e-002	9.9826
21091	23.095	4.2727	0.	188.49
21092	23.186	4.1818	0.	175.04
21093	23.095	4.1818	5.e-002	9.2412
21094	23.095	4.4545	0.	176.36
21095	23.186	4.3636	0.	164.82
21096	23.095	4.3636	5.e-002	8.4531
21097	23.095	4.6364	0.	165.26
21098	23.186	4.5455	0.	155.29
21099	23.095	4.5455	5.e-002	7.6256
21100	23.095	4.8182	0.	155.51
21101	23.186	4.7273	0.	146.84
21102	23.095	4.7273	5.e-002	6.7715
21103	23.095	5.	0.	147.16
21104	23.186	4.9091	0.	139.56
21105	23.095	4.9091	5.e-002	5.9122
21106	23.095	5.1818	0.	140.08
21107	23.186	5.0909	0.	133.31
21108	23.095	5.0909	5.e-002	5.0766
21109	23.095	5.3636	0.	134.14
21110	23.186	5.2727	0.	127.86
21111	23.095	5.2727	5.e-002	4.2992
21112	23.095	5.5455	0.	129.33
21113	23.186	5.4545	0.	123.
21114	23.095	5.4545	5.e-002	3.6195
21115	23.095	5.7273	0.	126.8
21116	23.186	5.6364	0.	118.9
21117	23.095	5.6364	5.e-002	3.0035
21118	23.186	5.8182	0.	117.93
21119	23.095	5.8182	5.e-002	1.0339
21120	23.095	5.9091	0.	119.42
21121	23.276	0.27273	0.	109.86
21122	23.367	0.18182	0.	99.371
21123	23.276	0.18182	5.e-002	1.8426
21124	23.276	9.0909e-002	0.	102.44
21125	23.276	0.45455	0.	112.59
21126	23.367	0.36364	0.	101.31
21127	23.276	0.36364	5.e-002	3.5991
21128	23.276	0.63636	0.	116.77
21129	23.367	0.54545	0.	105.57
21130	23.276	0.54545	5.e-002	4.1229
21131	23.276	0.81818	0.	121.12
21132	23.367	0.72727	0.	109.54
21133	23.276	0.72727	5.e-002	4.7043
21134	23.276	1.	0.	125.72
21135	23.367	0.90909	0.	113.14
21136	23.276	0.90909	5.e-002	5.3737
21137	23.276	1.1818	0.	130.85
21138	23.367	1.0909	0.	116.73
21139	23.276	1.0909	5.e-002	6.0902
21140	23.276	1.3636	0.	136.81
21141	23.367	1.2727	0.	120.72
21142	23.276	1.2727	5.e-002	6.8197
21143	23.276	1.5455	0.	143.68
21144	23.367	1.4545	0.	125.43
21145	23.276	1.4545	5.e-002	7.5378
21146	23.276	1.7273	0.	151.31
21147	23.367	1.6364	0.	130.91
21148	23.276	1.6364	5.e-002	8.2281
21149	23.276	1.9091	0.	159.26
21150	23.367	1.8182	0.	136.91
21151	23.276	1.8182	5.e-002	8.8811
21152	23.276	2.0909	0.	166.97
21153	23.367	2.	0.	142.99
21154	23.276	2.	5.e-002	9.4902
21155	23.276	2.2727	0.	173.85
21156	23.367	2.1818	0.	148.62
21157	23.276	2.1818	5.e-002	10.046
21158	23.276	2.4545	0.	179.45
21159	23.367	2.3636	0.	153.35
21160	23.276	2.3636	5.e-002	10.532
21161	23.276	2.6364	0.	183.51
21162	23.367	2.5455	0.	156.92
21163	23.276	2.5455	5.e-002	10.925
21164	23.276	2.8182	0.	185.94
21165	23.367	2.7273	0.	159.25
21166	23.276	2.7273	5.e-002	11.202
21167	23.276	3.	0.	186.75
21168	23.367	2.9091	0.	160.39
21169	23.276	2.9091	5.e-002	11.345
21170	23.276	3.1818	0.	185.94
21171	23.367	3.0909	0.	160.39
21172	23.276	3.0909	5.e-002	11.345
21173	23.276	3.3636	0.	183.51
21174	23.367	3.2727	0.	159.25
21175	23.276	3.2727	5.e-002	11.202
21176	23.276	3.5455	0.	179.45
21177	23.367	3.4545	0.	156.92
21178	23.276	3.4545	5.e-002	10.926
21179	23.276	3.7273	0.	173.85
21180	23.367	3.6364	0.	153.35
21181	23.276	3.6364	5.e-002	10.532
21182	23.276	3.9091	0.	166.97
21183	23.367	3.8182	0.	148.62
21184	23.276	3.8182	5.e-002	10.046
21185	23.276	4.0909	0.	159.26
21186	23.367	4.	0.	142.99
21187	23.276	4.	5.e-002	9.4902
21188	23.276	4.2727	0.	151.31
21189	23.367	4.1818	0.	136.91
21190	23.276	4.1818	5.e-002	8.8811
21191	23.276	4.4545	0.	143.68
21192	23.367	4.3636	0.	130.91
21193	23.276	4.3636	5.e-002	8.2281
21194	23.276	4.6364	0.	136.81
21195	23.367	4.5455	0.	125.43
21196	23.276	4.5455	5.e-002	7.5378
21197	23.276	4.8182	0.	130.85
21198	23.367	4.7273	0.	120.72
21199	23.276	4.7273	5.e-002	6.8197
21200	23.276	5.	0.	125.72
21201	23.367	4.9091	0.	116.73
21202	23.276	4.9091	5.e-002	6.0902
21203	23.276	5.1818	0.	121.12
21204	23.367	5.0909	0.	113.14
21205	23.276	5.0909	5.e-002	5.3737
21206	23.276	5.3636	0.	116.77
21207	23.367	5.2727	0.	109.54
21208	23.276	5.2727	5.e-002	4.7043
21209	23.276	5.5455	0.	112.59
21210	23.367	5.4545	0.	105.57
21211	23.276	5.4545	5.e-002	4.1229
21212	23.276	5.7273	0.	109.86
21213	23.367	5.6364	0.	101.31
21214	23.276	5.6364	5.e-002	3.5991
21215	23.367	5.8182	0.	99.371
21216	23.276	5.8182	5.e-002	1.8426
21217	23.276	5.9091	0.	102.44
21218	23.457	0.27273	0.	90.626
21219	23.548	0.18182	0.	78.587
21220	23.457	0.18182	5.e-002	2.6093
21221	23.457	9.0909e-002	0.	82.571
21222	23.457	0.45455	0.	94.388
21223	23.548	0.36364	0.	82.78
21224	23.457	0.36364	5.e-002	4.1429
21225	23.457	0.63636	0.	98.512
21226	23.548	0.54545	0.	87.89
21227	23.457	0.54545	5.e-002	4.6087
21228	23.457	0.81818	0.	101.72
21229	23.548	0.72727	0.	91.398
21230	23.457	0.72727	5.e-002	5.1107
21231	23.457	1.	0.	104.27
21232	23.548	0.90909	0.	93.516
21233	23.457	0.90909	5.e-002	5.6815
21234	23.457	1.1818	0.	106.67
21235	23.548	1.0909	0.	94.841
21236	23.457	1.0909	5.e-002	6.2864
21237	23.457	1.3636	0.	109.38
21238	23.548	1.2727	0.	95.999
21239	23.457	1.2727	5.e-002	6.8968
21240	23.457	1.5455	0.	112.66
21241	23.548	1.4545	0.	97.467
21242	23.457	1.4545	5.e-002	7.4936
21243	23.457	1.7273	0.	116.51
21244	23.548	1.6364	0.	99.46
21245	23.457	1.6364	5.e-002	8.0645
21246	23.457	1.9091	0.	120.65
21247	23.548	1.8182	0.	101.89
21248	23.457	1.8182	5.e-002	8.6022
21249	23.457	2.0909	0.	124.67
21250	23.548	2.	0.	104.45
21251	23.457	2.	5.e-002	9.1014
21252	23.457	2.2727	0.	128.16
21253	23.548	2.1818	0.	106.74
21254	23.457	2.1818	5.e-002	9.5549
21255	23.457	2.4545	0.	130.86
21256	23.548	2.3636	0.	108.49
21257	23.457	2.3636	5.e-002	9.95
21258	23.457	2.6364	0.	132.69
21259	23.548	2.5455	0.	109.61
21260	23.457	2.5455	5.e-002	10.27
21261	23.457	2.8182	0.	133.72
21262	23.548	2.7273	0.	110.18
21263	23.457	2.7273	5.e-002	10.495
21264	23.457	3.	0.	134.05
21265	23.548	2.9091	0.	110.4
21266	23.457	2.9091	5.e-002	10.612
21267	23.457	3.1818	0.	133.72
21268	23.548	3.0909	0.	110.4
21269	23.457	3.0909	5.e-002	10.612
21270	23.457	3.3636	0.	132.69
21271	23.548	3.2727	0.	110.18
21272	23.457	3.2727	5.e-002	10.495
21273	23.457	3.5455	0.	130.86
21274	23.548	3.4545	0.	109.61
21275	23.457	3.4545	5.e-002	10.27
21276	23.457	3.7273	0.	128.16
21277	23.548	3.6364	0.	108.49
21278	23.457	3.6364	5.e-002	9.95
21279	23.457	3.9091	0.	124.67
21280	23.548	3.8182	0.	106.74
21281	23.457	3.8182	5.e-002	9.5549
21282	23.457	4.0909	0.	120.65
21283	23.548	4.	0.	104.45
21284	23.457	4.	5.e-002	9.1014
21285	23.457	4.2727	0.	116.51
21286	23.548	4.1818	0.	101.89
21287	23.457	4.1818	5.e-002	8.6022
21288	23.457	4.4545	0.	112.66
21289	23.548	4.3636	0.	99.46
21290	23.457	4.3636	5.e-002	8.0645
21291	23.457	4.6364	0.	109.38
21292	23.548	4.5455	0.	97.467
21293	23.457	4.5455	5.e-002	7.4936
21294	23.457	4.8182	0.	106.67
21295	23.548	4.7273	0.	95.999
21296	23.457	4.7273	5.e-002	6.8968
21297	23.457	5.	0.	104.27
21298	23.548	4.9091	0.	94.841
21299	23.457	4.9091	5.e-002	6.2864
21300	23.457	5.1818	0.	101.72
21301	23.548	5.0909	0.	93.516
21302	23.457	5.0909	5.e-002	5.6815
21303	23.457	5.3636	0.	98.512
21304	23.548	5.2727	0.	91.398
21305	23.457	5.2727	5.e-002	5.1107
21306	23.457	5.5455	0.	94.388
21307	23.548	5.4545	0.	87.89
21308	23.457	5.4545	5.e-002	4.6088
21309	23.457	5.7273	0.	90.626
21310	23.548	5.6364	0.	82.78
21311	23.457	5.6364	5.e-002	4.1429
21312	23.548	5.8182	0.	78.587
21313	23.457	5.8182	5.e-002	2.6093
21314	23.457	5.9091	0.	82.571
21315	23.638	0.27273	0.	70.591
21316	23.729	0.18182	0.	57.555
21317	23.638	0.18182	5.e-002	3.419
21318	23.638	9.0909e-002	0.	60.822
21319	23.638	0.45455	0.	76.614
21320	23.729	0.36364	0.	66.077
21321	23.638	0.36364	5.e-002	4.7067
21322	23.638	0.63636	0.	81.231
21323	23.729	0.54545	0.	72.672
21324	23.638	0.54545	5.e-002	5.11
21325	23.638	0.81818	0.	83.675
21326	23.729	0.72727	0.	76.181
21327	23.638	0.72727	5.e-002	5.529
21328	23.638	1.	0.	84.558
21329	23.729	0.90909	0.	77.33
21330	23.638	0.90909	5.e-002	5.993
21331	23.638	1.1818	0.	84.614
21332	23.729	1.0909	0.	76.956
21333	23.638	1.0909	5.e-002	6.483
21334	23.638	1.3636	0.	84.499
21335	23.729	1.2727	0.	75.835
21336	23.638	1.2727	5.e-002	6.9775
21337	23.638	1.5455	0.	84.654
21338	23.729	1.4545	0.	74.586
21339	23.638	1.4545	5.e-002	7.4615
21340	23.638	1.7273	0.	85.232
21341	23.729	1.6364	0.	73.577
21342	23.638	1.6364	5.e-002	7.9259
21343	23.638	1.9091	0.	86.103
21344	23.729	1.8182	0.	72.866
21345	23.638	1.8182	5.e-002	8.3652
21346	23.638	2.0909	0.	86.972
21347	23.729	2.	0.	72.263
21348	23.638	2.	5.e-002	8.775
21349	23.638	2.2727	0.	87.561
21350	23.729	2.1818	0.	71.494
21351	23.638	2.1818	5.e-002	9.1488
21352	23.638	2.4545	0.	87.745
21353	23.729	2.3636	0.	70.397
21354	23.638	2.3636	5.e-002	9.4759
21355	23.638	2.6364	0.	87.602
21356	23.729	2.5455	0.	69.048
21357	23.638	2.5455	5.e-002	9.7416
21358	23.638	2.8182	0.	87.358
21359	23.729	2.7273	0.	67.767
21360	23.638	2.7273	5.e-002	9.9302
21361	23.638	3.	0.	87.245
21362	23.729	2.9091	0.	66.976
21363	23.638	2.9091	5.e-002	10.028
21364	23.638	3.1818	0.	87.358
21365	23.729	3.0909	0.	66.976
21366	23.638	3.0909	5.e-002	10.028
21367	23.638	3.3636	0.	87.602
21368	23.729	3.2727	0.	67.767
21369	23.638	3.2727	5.e-002	9.9302
21370	23.638	3.5455	0.	87.745
21371	23.729	3.4545	0.	69.048
21372	23.638	3.4545	5.e-002	9.7416
21373	23.638	3.7273	0.	87.561
21374	23.729	3.6364	0.	70.397
21375	23.638	3.6364	5.e-002	9.4759
21376	23.638	3.9091	0.	86.972
21377	23.729	3.8182	0.	71.494
21378	23.638	3.8182	5.e-002	9.1488
21379	23.638	4.0909	0.	86.103
21380	23.729	4.	0.	72.263
21381	23.638	4.	5.e-002	8.775
21382	23.638	4.2727	0.	85.232
21383	23.729	4.1818	0.	72.866
21384	23.638	4.1818	5.e-002	8.3652
21385	23.638	4.4545	0.	84.654
21386	23.729	4.3636	0.	73.577
21387	23.638	4.3636	5.e-002	7.9259
21388	23.638	4.6364	0.	84.499
21389	23.729	4.5455	0.	74.586
21390	23.638	4.5455	5.e-002	7.4615
21391	23.638	4.8182	0.	84.614
21392	23.729	4.7273	0.	75.835
21393	23.638	4.7273	5.e-002	6.9775
21394	23.638	5.	0.	84.558
21395	23.729	4.9091	0.	76.956
21396	23.638	4.9091	5.e-002	6.483
21397	23.638	5.1818	0.	83.675
21398	23.729	5.0909	0.	77.33
21399	23.638	5.0909	5.e-002	5.993
21400	23.638	5.3636	0.	81.231
21401	23.729	5.2727	0.	76.181
21402	23.638	5.2727	5.e-002	5.529
21403	23.638	5.5455	0.	76.614
21404	23.729	5.4545	0.	72.672
21405	23.638	5.4545	5.e-002	5.11
21406	23.638	5.7273	0.	70.591
21407	23.729	5.6364	0.	66.077
21408	23.638	5.6364	5.e-002	4.7067
21409	23.729	5.8182	0.	57.555
21410	23.638	5.8182	5.e-002	3.419
21411	23.638	5.9091	0.	60.822
21412	23.819	0.27273	0.	53.387
21413	23.819	0.18182	5.e-002	4.7706
21414	23.819	9.0909e-002	0.	38.792
21415	23.91	0.18182	0.	37.668
21416	23.819	0.45455	0.	63.149
21417	23.819	0.36364	5.e-002	5.5943
21418	23.91	0.36364	0.	51.226
21419	23.819	0.63636	0.	68.834
21420	23.819	0.54545	5.e-002	5.7728
21421	23.91	0.54545	0.	58.639
21422	23.819	0.81818	0.	71.194
21423	23.819	0.72727	5.e-002	5.9769
21424	23.91	0.72727	0.	61.641
21425	23.819	1.	0.	71.234
21426	23.819	0.90909	5.e-002	6.24
21427	23.91	0.90909	0.	61.489
21428	23.819	1.1818	0.	69.845
21429	23.819	1.0909	5.e-002	6.5477
21430	23.91	1.0909	0.	59.268
21431	23.819	1.3636	0.	67.771
21432	23.819	1.2727	5.e-002	6.8883
21433	23.91	1.2727	0.	55.955
21434	23.819	1.5455	0.	65.557
21435	23.819	1.4545	5.e-002	7.2514
21436	23.91	1.4545	0.	52.427
21437	23.819	1.7273	0.	63.474
21438	23.819	1.6364	5.e-002	7.6285
21439	23.91	1.6364	0.	49.362
21440	23.819	1.9091	0.	61.508
21441	23.819	1.8182	5.e-002	8.0113
21442	23.91	1.8182	0.	47.093
21443	23.819	2.0909	0.	59.469
21444	23.819	2.	5.e-002	8.3896
21445	23.91	2.	0.	45.561
21446	23.819	2.2727	0.	57.173
21447	23.819	2.1818	5.e-002	8.7496
21448	23.91	2.1818	0.	44.448
21449	23.819	2.4545	0.	54.634
21450	23.819	2.3636	5.e-002	9.0733
21451	23.91	2.3636	0.	43.431
21452	23.819	2.6364	0.	52.157
21453	23.819	2.5455	5.e-002	9.3404
21454	23.91	2.5455	0.	42.381
21455	23.819	2.8182	0.	50.29
21456	23.819	2.7273	5.e-002	9.5315
21457	23.91	2.7273	0.	41.425
21458	23.819	3.	0.	49.587
21459	23.819	2.9091	5.e-002	9.6312
21460	23.91	2.9091	0.	40.836
21461	23.819	3.1818	0.	50.29
21462	23.819	3.0909	5.e-002	9.6312
21463	23.91	3.0909	0.	40.836
21464	23.819	3.3636	0.	52.157
21465	23.819	3.2727	5.e-002	9.5315
21466	23.91	3.2727	0.	41.425
21467	23.819	3.5455	0.	54.634
21468	23.819	3.4545	5.e-002	9.3404
21469	23.91	3.4545	0.	42.381
21470	23.819	3.7273	0.	57.173
21471	23.819	3.6364	5.e-002	9.0733
21472	23.91	3.6364	0.	43.431
21473	23.819	3.9091	0.	59.469
21474	23.819	3.8182	5.e-002	8.7496
21475	23.91	3.8182	0.	44.448
21476	23.819	4.0909	0.	61.508
21477	23.819	4.	5.e-002	8.3896
21478	23.91	4.	0.	45.561
21479	23.819	4.2727	0.	63.474
21480	23.819	4.1818	5.e-002	8.0113
21481	23.91	4.1818	0.	47.093
21482	23.819	4.4545	0.	65.557
21483	23.819	4.3636	5.e-002	7.6285
21484	23.91	4.3636	0.	49.362
21485	23.819	4.6364	0.	67.771
21486	23.819	4.5455	5.e-002	7.2514
21487	23.91	4.5455	0.	52.427
21488	23.819	4.8182	0.	69.845
21489	23.819	4.7273	5.e-002	6.8883
21490	23.91	4.7273	0.	55.955
21491	23.819	5.	0.	71.234
21492	23.819	4.9091	5.e-002	6.5477
21493	23.91	4.9091	0.	59.268
21494	23.819	5.1818	0.	71.194
21495	23.819	5.0909	5.e-002	6.24
21496	23.91	5.0909	0.	61.489
21497	23.819	5.3636	0.	68.834
21498	23.819	5.2727	5.e-002	5.9769
21499	23.91	5.2727	0.	61.641
21500	23.819	5.5455	0.	63.149
21501	23.819	5.4545	5.e-002	5.7728
21502	23.91	5.4545	0.	58.639
21503	23.819	5.7273	0.	53.387
21504	23.819	5.6364	5.e-002	5.5943
21505	23.91	5.6364	0.	51.226
21506	23.819	5.8182	5.e-002	4.7706
21507	23.91	5.8182	0.	37.668
21508	23.819	5.9091	0.	38.792
21509	23.819	5.7273	0.1	53.387
21510	23.729	5.8182	0.1	57.555
21511	23.819	5.9091	0.1	38.792
21512	23.91	5.8182	0.1	37.668
21513	23.819	5.5455	0.1	63.149
21514	23.729	5.6364	0.1	66.077
21515	23.91	5.6364	0.1	51.226
21516	23.819	5.3636	0.1	68.834
21517	23.729	5.4545	0.1	72.672
21518	23.91	5.4545	0.1	58.639
21519	23.819	5.1818	0.1	71.194
21520	23.729	5.2727	0.1	76.181
21521	23.91	5.2727	0.1	61.641
21522	23.819	5.	0.1	71.234
21523	23.729	5.0909	0.1	77.33
21524	23.91	5.0909	0.1	61.489
21525	23.819	4.8182	0.1	69.845
21526	23.729	4.9091	0.1	76.956
21527	23.91	4.9091	0.1	59.268
21528	23.819	4.6364	0.1	67.771
21529	23.729	4.7273	0.1	75.835
21530	23.91	4.7273	0.1	55.955
21531	23.819	4.4545	0.1	65.557
21532	23.729	4.5455	0.1	74.586
21533	23.91	4.5455	0.1	52.427
21534	23.819	4.2727	0.1	63.474
21535	23.729	4.3636	0.1	73.577
21536	23.91	4.3636	0.1	49.362
21537	23.819	4.0909	0.1	61.508
21538	23.729	4.1818	0.1	72.866
21539	23.91	4.1818	0.1	47.093
21540	23.819	3.9091	0.1	59.469
21541	23.729	4.	0.1	72.263
21542	23.91	4.	0.1	45.561
21543	23.819	3.7273	0.1	57.173
21544	23.729	3.8182	0.1	71.494
21545	23.91	3.8182	0.1	44.448
21546	23.819	3.5455	0.1	54.634
21547	23.729	3.6364	0.1	70.397
21548	23.91	3.6364	0.1	43.431
21549	23.819	3.3636	0.1	52.157
21550	23.729	3.4545	0.1	69.048
21551	23.91	3.4545	0.1	42.381
21552	23.819	3.1818	0.1	50.29
21553	23.729	3.2727	0.1	67.767
21554	23.91	3.2727	0.1	41.425
21555	23.819	3.	0.1	49.587
21556	23.729	3.0909	0.1	66.976
21557	23.91	3.0909	0.1	40.836
21558	23.819	2.8182	0.1	50.29
21559	23.729	2.9091	0.1	66.976
21560	23.91	2.9091	0.1	40.836
21561	23.819	2.6364	0.1	52.157
21562	23.729	2.7273	0.1	67.767
21563	23.91	2.7273	0.1	41.425
21564	23.819	2.4545	0.1	54.634
21565	23.729	2.5455	0.1	69.048
21566	23.91	2.5455	0.1	42.381
21567	23.819	2.2727	0.1	57.173
21568	23.729	2.3636	0.1	70.397
21569	23.91	2.3636	0.1	43.431
21570	23.819	2.0909	0.1	59.469
21571	23.729	2.1818	0.1	71.494
21572	23.91	2.1818	0.1	44.448
21573	23.819	1.9091	0.1	61.508
21574	23.729	2.	0.1	72.263
21575	23.91	2.	0.1	45.561
21576	23.819	1.7273	0.1	63.474
21577	23.729	1.8182	0.1	72.866
21578	23.91	1.8182	0.1	47.093
21579	23.819	1.5455	0.1	65.557
21580	23.729	1.6364	0.1	73.577
21581	23.91	1.6364	0.1	49.362
21582	23.819	1.3636	0.1	67.771
21583	23.729	1.4545	0.1	74.586
21584	23.91	1.4545	0.1	52.427
21585	23.819	1.1818	0.1	69.845
21586	23.729	1.2727	0.1	75.835
21587	23.91	1.2727	0.1	55.955
21588	23.819	1.	0.1	71.234
21589	23.729	1.0909	0.1	76.956
21590	23.91	1.0909	0.1	59.268
21591	23.819	0.81818	0.1	71.194
21592	23.729	0.90909	0.1	77.33
21593	23.91	0.90909	0.1	61.489
21594	23.819	0.63636	0.1	68.834
21595	23.729	0.72727	0.1	76.181
21596	23.91	0.72727	0.1	61.641
21597	23.819	0.45455	0.1	63.149
21598	23.729	0.54545	0.1	72.672
21599	23.91	0.54545	0.1	58.639
21600	23.819	0.27273	0.1	53.387
21601	23.729	0.36364	0.1	66.077
21602	23.91	0.36364	0.1	51.226
21603	23.729	0.18182	0.1	57.555
21604	23.91	0.18182	0.1	37.668
21605	23.819	9.0909e-002	0.1	38.792
21606	23.638	5.7273	0.1	70.591
21607	23.548	5.8182	0.1	78.587
21608	23.638	5.9091	0.1	60.822
21609	23.638	5.5455	0.1	76.614
21610	23.548	5.6364	0.1	82.78
21611	23.638	5.3636	0.1	81.231
21612	23.548	5.4545	0.1	87.89
21613	23.638	5.1818	0.1	83.675
21614	23.548	5.2727	0.1	91.398
21615	23.638	5.	0.1	84.558
21616	23.548	5.0909	0.1	93.516
21617	23.638	4.8182	0.1	84.614
21618	23.548	4.9091	0.1	94.841
21619	23.638	4.6364	0.1	84.499
21620	23.548	4.7273	0.1	95.999
21621	23.638	4.4545	0.1	84.654
21622	23.548	4.5455	0.1	97.467
21623	23.638	4.2727	0.1	85.232
21624	23.548	4.3636	0.1	99.46
21625	23.638	4.0909	0.1	86.103
21626	23.548	4.1818	0.1	101.89
21627	23.638	3.9091	0.1	86.972
21628	23.548	4.	0.1	104.45
21629	23.638	3.7273	0.1	87.561
21630	23.548	3.8182	0.1	106.74
21631	23.638	3.5455	0.1	87.745
21632	23.548	3.6364	0.1	108.49
21633	23.638	3.3636	0.1	87.602
21634	23.548	3.4545	0.1	109.61
21635	23.638	3.1818	0.1	87.358
21636	23.548	3.2727	0.1	110.18
21637	23.638	3.	0.1	87.245
21638	23.548	3.0909	0.1	110.4
21639	23.638	2.8182	0.1	87.358
21640	23.548	2.9091	0.1	110.4
21641	23.638	2.6364	0.1	87.602
21642	23.548	2.7273	0.1	110.18
21643	23.638	2.4545	0.1	87.745
21644	23.548	2.5455	0.1	109.61
21645	23.638	2.2727	0.1	87.561
21646	23.548	2.3636	0.1	108.49
21647	23.638	2.0909	0.1	86.972
21648	23.548	2.1818	0.1	106.74
21649	23.638	1.9091	0.1	86.103
21650	23.548	2.	0.1	104.45
21651	23.638	1.7273	0.1	85.232
21652	23.548	1.8182	0.1	101.89
21653	23.638	1.5455	0.1	84.654
21654	23.548	1.6364	0.1	99.46
21655	23.638	1.3636	0.1	84.499
21656	23.548	1.4545	0.1	97.467
21657	23.638	1.1818	0.1	84.614
21658	23.548	1.2727	0.1	95.999
21659	23.638	1.	0.1	84.558
21660	23.548	1.0909	0.1	94.841
21661	23.638	0.81818	0.1	83.675
21662	23.548	0.90909	0.1	93.516
21663	23.638	0.63636	0.1	81.231
21664	23.548	0.72727	0.1	91.398
21665	23.638	0.45455	0.1	76.614
21666	23.548	0.54545	0.1	87.89
21667	23.638	0.27273	0.1	70.591
21668	23.548	0.36364	0.1	82.78
21669	23.548	0.18182	0.1	78.587
21670	23.638	9.0909e-002	0.1	60.822
21671	23.457	5.7273	0.1	90.626
21672	23.367	5.8182	0.1	99.371
21673	23.457	5.9091	0.1	82.571
21674	23.457	5.5455	0.1	94.387
21675	23.367	5.6364	0.1	101.31
21676	23.457	5.3636	0.1	98.512
21677	23.367	5.4545	0.1	105.57
21678	23.457	5.1818	0.1	101.72
21679	23.367	5.2727	0.1	109.54
21680	23.457	5.	0.1	104.27
21681	23.367	5.0909	0.1	113.14
21682	23.457	4.8182	0.1	106.67
21683	23.367	4.9091	0.1	116.73
21684	23.457	4.6364	0.1	109.38
21685	23.367	4.7273	0.1	120.72
21686	23.457	4.4545	0.1	112.66
21687	23.367	4.5455	0.1	125.43
21688	23.457	4.2727	0.1	116.51
21689	23.367	4.3636	0.1	130.91
21690	23.457	4.0909	0.1	120.65
21691	23.367	4.1818	0.1	136.91
21692	23.457	3.9091	0.1	124.67
21693	23.367	4.	0.1	142.99
21694	23.457	3.7273	0.1	128.16
21695	23.367	3.8182	0.1	148.62
21696	23.457	3.5455	0.1	130.86
21697	23.367	3.6364	0.1	153.35
21698	23.457	3.3636	0.1	132.69
21699	23.367	3.4545	0.1	156.92
21700	23.457	3.1818	0.1	133.72
21701	23.367	3.2727	0.1	159.25
21702	23.457	3.	0.1	134.05
21703	23.367	3.0909	0.1	160.39
21704	23.457	2.8182	0.1	133.72
21705	23.367	2.9091	0.1	160.39
21706	23.457	2.6364	0.1	132.69
21707	23.367	2.7273	0.1	159.25
21708	23.457	2.4545	0.1	130.86
21709	23.367	2.5455	0.1	156.92
21710	23.457	2.2727	0.1	128.16
21711	23.367	2.3636	0.1	153.35
21712	23.457	2.0909	0.1	124.67
21713	23.367	2.1818	0.1	148.62
21714	23.457	1.9091	0.1	120.65
21715	23.367	2.	0.1	142.99
21716	23.457	1.7273	0.1	116.51
21717	23.367	1.8182	0.1	136.91
21718	23.457	1.5455	0.1	112.66
21719	23.367	1.6364	0.1	130.91
21720	23.457	1.3636	0.1	109.38
21721	23.367	1.4545	0.1	125.43
21722	23.457	1.1818	0.1	106.67
21723	23.367	1.2727	0.1	120.72
21724	23.457	1.	0.1	104.27
21725	23.367	1.0909	0.1	116.73
21726	23.457	0.81818	0.1	101.72
21727	23.367	0.90909	0.1	113.14
21728	23.457	0.63636	0.1	98.512
21729	23.367	0.72727	0.1	109.54
21730	23.457	0.45455	0.1	94.387
21731	23.367	0.54545	0.1	105.57
21732	23.457	0.27273	0.1	90.626
21733	23.367	0.36364	0.1	101.31
21734	23.367	0.18182	0.1	99.371
21735	23.457	9.0909e-002	0.1	82.571
21736	23.276	5.7273	0.1	109.86
21737	23.186	5.8182	0.1	117.93
21738	23.276	5.9091	0.1	102.44
21739	23.276	5.5455	0.1	112.59
21740	23.186	5.6364	0.1	118.9
21741	23.276	5.3636	0.1	116.77
21742	23.186	5.4545	0.1	123.
21743	23.276	5.1818	0.1	121.12
21744	23.186	5.2727	0.1	127.86
21745	23.276	5.	0.1	125.72
21746	23.186	5.0909	0.1	133.31
21747	23.276	4.8182	0.1	130.85
21748	23.186	4.9091	0.1	139.56
21749	23.276	4.6364	0.1	136.81
21750	23.186	4.7273	0.1	146.84
21751	23.276	4.4545	0.1	143.68
21752	23.186	4.5455	0.1	155.29
21753	23.276	4.2727	0.1	151.31
21754	23.186	4.3636	0.1	164.82
21755	23.276	4.0909	0.1	159.26
21756	23.186	4.1818	0.1	175.04
21757	23.276	3.9091	0.1	166.97
21758	23.186	4.	0.1	185.35
21759	23.276	3.7273	0.1	173.85
21760	23.186	3.8182	0.1	194.99
21761	23.276	3.5455	0.1	179.45
21762	23.186	3.6364	0.1	203.3
21763	23.276	3.3636	0.1	183.51
21764	23.186	3.4545	0.1	209.78
21765	23.276	3.1818	0.1	185.94
21766	23.186	3.2727	0.1	214.16
21767	23.276	3.	0.1	186.75
21768	23.186	3.0909	0.1	216.36
21769	23.276	2.8182	0.1	185.94
21770	23.186	2.9091	0.1	216.36
21771	23.276	2.6364	0.1	183.51
21772	23.186	2.7273	0.1	214.16
21773	23.276	2.4545	0.1	179.45
21774	23.186	2.5455	0.1	209.78
21775	23.276	2.2727	0.1	173.85
21776	23.186	2.3636	0.1	203.3
21777	23.276	2.0909	0.1	166.97
21778	23.186	2.1818	0.1	194.99
21779	23.276	1.9091	0.1	159.26
21780	23.186	2.	0.1	185.35
21781	23.276	1.7273	0.1	151.31
21782	23.186	1.8182	0.1	175.04
21783	23.276	1.5455	0.1	143.68
21784	23.186	1.6364	0.1	164.82
21785	23.276	1.3636	0.1	136.81
21786	23.186	1.4545	0.1	155.29
21787	23.276	1.1818	0.1	130.85
21788	23.186	1.2727	0.1	146.84
21789	23.276	1.	0.1	125.72
21790	23.186	1.0909	0.1	139.56
21791	23.276	0.81818	0.1	121.12
21792	23.186	0.90909	0.1	133.31
21793	23.276	0.63636	0.1	116.77
21794	23.186	0.72727	0.1	127.86
21795	23.276	0.45455	0.1	112.59
21796	23.186	0.54545	0.1	123.
21797	23.276	0.27273	0.1	109.86
21798	23.186	0.36364	0.1	118.9
21799	23.186	0.18182	0.1	117.93
21800	23.276	9.0909e-002	0.1	102.44
21801	23.095	5.7273	0.1	126.8
21802	23.005	5.8182	0.1	133.27
21803	23.095	5.9091	0.1	119.42
21804	23.095	5.5455	0.1	129.33
21805	23.005	5.6364	0.1	134.03
21806	23.095	5.3636	0.1	134.14
21807	23.005	5.4545	0.1	138.6
21808	23.095	5.1818	0.1	140.08
21809	23.005	5.2727	0.1	144.87
21810	23.095	5.	0.1	147.16
21811	23.005	5.0909	0.1	152.69
21812	23.095	4.8182	0.1	155.51
21813	23.005	4.9091	0.1	162.15
21814	23.095	4.6364	0.1	165.26
21815	23.005	4.7273	0.1	173.34
21816	23.095	4.4545	0.1	176.36
21817	23.005	4.5455	0.1	186.25
21818	23.095	4.2727	0.1	188.49
21819	23.005	4.3636	0.1	200.67
21820	23.095	4.0909	0.1	201.07
21821	23.005	4.1818	0.1	216.07
21822	23.095	3.9091	0.1	213.31
21823	23.005	4.	0.1	231.64
21824	23.095	3.7273	0.1	224.36
21825	23.005	3.8182	0.1	246.33
21826	23.095	3.5455	0.1	233.51
21827	23.005	3.6364	0.1	259.11
21828	23.095	3.3636	0.1	240.28
21829	23.005	3.4545	0.1	269.2
21830	23.095	3.1818	0.1	244.41
21831	23.005	3.2727	0.1	276.09
21832	23.095	3.	0.1	245.79
21833	23.005	3.0909	0.1	279.57
21834	23.095	2.8182	0.1	244.41
21835	23.005	2.9091	0.1	279.57
21836	23.095	2.6364	0.1	240.28
21837	23.005	2.7273	0.1	276.09
21838	23.095	2.4545	0.1	233.51
21839	23.005	2.5455	0.1	269.2
21840	23.095	2.2727	0.1	224.36
21841	23.005	2.3636	0.1	259.11
21842	23.095	2.0909	0.1	213.31
21843	23.005	2.1818	0.1	246.33
21844	23.095	1.9091	0.1	201.07
21845	23.005	2.	0.1	231.64
21846	23.095	1.7273	0.1	188.49
21847	23.005	1.8182	0.1	216.07
21848	23.095	1.5455	0.1	176.36
21849	23.005	1.6364	0.1	200.67
21850	23.095	1.3636	0.1	165.26
21851	23.005	1.4545	0.1	186.25
21852	23.095	1.1818	0.1	155.51
21853	23.005	1.2727	0.1	173.34
21854	23.095	1.	0.1	147.16
21855	23.005	1.0909	0.1	162.15
21856	23.095	0.81818	0.1	140.08
21857	23.005	0.90909	0.1	152.69
21858	23.095	0.63636	0.1	134.14
21859	23.005	0.72727	0.1	144.87
21860	23.095	0.45455	0.1	129.33
21861	23.005	0.54545	0.1	138.6
21862	23.095	0.27273	0.1	126.8
21863	23.005	0.36364	0.1	134.03
21864	23.005	0.18182	0.1	133.27
21865	23.095	9.0909e-002	0.1	119.42
21866	22.914	5.7273	0.1	140.38
21867	22.824	5.8182	0.1	144.47
21868	22.914	5.9091	0.1	132.62
21869	22.914	5.5455	0.1	143.31
21870	22.824	5.6364	0.1	145.52
21871	22.914	5.3636	0.1	149.35
21872	22.824	5.4545	0.1	151.17
21873	22.914	5.1818	0.1	157.48
21874	22.824	5.2727	0.1	159.48
21875	22.914	5.	0.1	167.66
21876	22.824	5.0909	0.1	170.36
21877	22.914	4.8182	0.1	179.94
21878	22.824	4.9091	0.1	183.81
21879	22.914	4.6364	0.1	194.28
21880	22.824	4.7273	0.1	199.81
21881	22.914	4.4545	0.1	210.52
21882	22.824	4.5455	0.1	218.21
21883	22.914	4.2727	0.1	228.23
21884	22.824	4.3636	0.1	238.73
21885	22.914	4.0909	0.1	246.62
21886	22.824	4.1818	0.1	260.71
21887	22.914	3.9091	0.1	264.59
21888	22.824	4.	0.1	283.04
21889	22.914	3.7273	0.1	280.95
21890	22.824	3.8182	0.1	304.23
21891	22.914	3.5455	0.1	294.58
21892	22.824	3.6364	0.1	322.74
21893	22.914	3.3636	0.1	304.71
21894	22.824	3.4545	0.1	337.33
21895	22.914	3.1818	0.1	310.9
21896	22.824	3.2727	0.1	347.27
21897	22.914	3.	0.1	312.97
21898	22.824	3.0909	0.1	352.27
21899	22.914	2.8182	0.1	310.9
21900	22.824	2.9091	0.1	352.27
21901	22.914	2.6364	0.1	304.71
21902	22.824	2.7273	0.1	347.27
21903	22.914	2.4545	0.1	294.58
21904	22.824	2.5455	0.1	337.33
21905	22.914	2.2727	0.1	280.95
21906	22.824	2.3636	0.1	322.74
21907	22.914	2.0909	0.1	264.59
21908	22.824	2.1818	0.1	304.23
21909	22.914	1.9091	0.1	246.62
21910	22.824	2.	0.1	283.04
21911	22.914	1.7273	0.1	228.23
21912	22.824	1.8182	0.1	260.71
21913	22.914	1.5455	0.1	210.52
21914	22.824	1.6364	0.1	238.73
21915	22.914	1.3636	0.1	194.28
21916	22.824	1.4545	0.1	218.21
21917	22.914	1.1818	0.1	179.94
21918	22.824	1.2727	0.1	199.81
21919	22.914	1.	0.1	167.66
21920	22.824	1.0909	0.1	183.81
21921	22.914	0.81818	0.1	157.48
21922	22.824	0.90909	0.1	170.36
21923	22.914	0.63636	0.1	149.35
21924	22.824	0.72727	0.1	159.48
21925	22.914	0.45455	0.1	143.31
21926	22.824	0.54545	0.1	151.17
21927	22.914	0.27273	0.1	140.38
21928	22.824	0.36364	0.1	145.52
21929	22.824	0.18182	0.1	144.47
21930	22.914	9.0909e-002	0.1	132.62
21931	22.733	5.7273	0.1	149.55
21932	22.643	5.8182	0.1	150.58
21933	22.733	5.9091	0.1	141.1
21934	22.733	5.5455	0.1	153.4
21935	22.643	5.6364	0.1	152.3
21936	22.733	5.3636	0.1	161.34
21937	22.643	5.4545	0.1	159.64
21938	22.733	5.1818	0.1	172.42
21939	22.643	5.2727	0.1	170.77
21940	22.733	5.	0.1	186.57
21941	22.643	5.0909	0.1	185.63
21942	22.733	4.8182	0.1	203.75
21943	22.643	4.9091	0.1	204.15
21944	22.733	4.6364	0.1	223.81
21945	22.643	4.7273	0.1	226.17
21946	22.733	4.4545	0.1	246.51
21947	22.643	4.5455	0.1	251.52
21948	22.733	4.2727	0.1	271.3
21949	22.643	4.3636	0.1	279.84
21950	22.733	4.0909	0.1	297.19
21951	22.643	4.1818	0.1	310.39
21952	22.733	3.9091	0.1	322.64
21953	22.643	4.	0.1	341.68
21954	22.733	3.7273	0.1	345.84
21955	22.643	3.8182	0.1	371.47
21956	22.733	3.5455	0.1	365.14
21957	22.643	3.6364	0.1	397.31
21958	22.733	3.3636	0.1	379.38
21959	22.643	3.4545	0.1	417.39
21960	22.733	3.1818	0.1	388.04
21961	22.643	3.2727	0.1	430.82
21962	22.733	3.	0.1	390.93
21963	22.643	3.0909	0.1	437.48
21964	22.733	2.8182	0.1	388.04
21965	22.643	2.9091	0.1	437.48
21966	22.733	2.6364	0.1	379.38
21967	22.643	2.7273	0.1	430.82
21968	22.733	2.4545	0.1	365.14
21969	22.643	2.5455	0.1	417.39
21970	22.733	2.2727	0.1	345.84
21971	22.643	2.3636	0.1	397.31
21972	22.733	2.0909	0.1	322.64
21973	22.643	2.1818	0.1	371.47
21974	22.733	1.9091	0.1	297.19
21975	22.643	2.	0.1	341.68
21976	22.733	1.7273	0.1	271.3
21977	22.643	1.8182	0.1	310.39
21978	22.733	1.5455	0.1	246.51
21979	22.643	1.6364	0.1	279.84
21980	22.733	1.3636	0.1	223.81
21981	22.643	1.4545	0.1	251.52
21982	22.733	1.1818	0.1	203.75
21983	22.643	1.2727	0.1	226.17
21984	22.733	1.	0.1	186.57
21985	22.643	1.0909	0.1	204.15
21986	22.733	0.81818	0.1	172.42
21987	22.643	0.90909	0.1	185.63
21988	22.733	0.63636	0.1	161.34
21989	22.643	0.72727	0.1	170.77
21990	22.733	0.45455	0.1	153.4
21991	22.643	0.54545	0.1	159.64
21992	22.733	0.27273	0.1	149.55
21993	22.643	0.36364	0.1	152.3
21994	22.643	0.18182	0.1	150.58
21995	22.733	9.0909e-002	0.1	141.1
21996	22.552	5.7273	0.1	153.32
21997	22.462	5.8182	0.1	150.62
21998	22.552	5.9091	0.1	143.91
21999	22.552	5.5455	0.1	158.59
22000	22.462	5.6364	0.1	153.38
22001	22.552	5.3636	0.1	169.19
22002	22.462	5.4545	0.1	163.11
22003	22.552	5.1818	0.1	184.17
22004	22.462	5.2727	0.1	178.03
22005	22.552	5.	0.1	203.44
22006	22.462	5.0909	0.1	198.03
22007	22.552	4.8182	0.1	226.84
22008	22.462	4.9091	0.1	222.96
22009	22.552	4.6364	0.1	254.16
22010	22.462	4.7273	0.1	252.65
22011	22.552	4.4545	0.1	285.14
22012	22.462	4.5455	0.1	286.91
22013	22.552	4.2727	0.1	319.2
22014	22.462	4.3636	0.1	325.46
22015	22.552	4.0909	0.1	355.07
22016	22.462	4.1818	0.1	367.56
22017	22.552	3.9091	0.1	390.49
22018	22.462	4.	0.1	411.11
22019	22.552	3.7273	0.1	422.62
22020	22.462	3.8182	0.1	452.52
22021	22.552	3.5455	0.1	448.94
22022	22.462	3.6364	0.1	487.7
22023	22.552	3.3636	0.1	467.96
22024	22.462	3.4545	0.1	513.95
22025	22.552	3.1818	0.1	479.26
22026	22.462	3.2727	0.1	530.73
22027	22.552	3.	0.1	482.98
22028	22.462	3.0909	0.1	538.75
22029	22.552	2.8182	0.1	479.26
22030	22.462	2.9091	0.1	538.75
22031	22.552	2.6364	0.1	467.96
22032	22.462	2.7273	0.1	530.73
22033	22.552	2.4545	0.1	448.94
22034	22.462	2.5455	0.1	513.95
22035	22.552	2.2727	0.1	422.62
22036	22.462	2.3636	0.1	487.7
22037	22.552	2.0909	0.1	390.49
22038	22.462	2.1818	0.1	452.52
22039	22.552	1.9091	0.1	355.07
22040	22.462	2.	0.1	411.11
22041	22.552	1.7273	0.1	319.2
22042	22.462	1.8182	0.1	367.56
22043	22.552	1.5455	0.1	285.14
22044	22.462	1.6364	0.1	325.46
22045	22.552	1.3636	0.1	254.16
22046	22.462	1.4545	0.1	286.91
22047	22.552	1.1818	0.1	226.84
22048	22.462	1.2727	0.1	252.65
22049	22.552	1.	0.1	203.44
22050	22.462	1.0909	0.1	222.96
22051	22.552	0.81818	0.1	184.17
22052	22.462	0.90909	0.1	198.03
22053	22.552	0.63636	0.1	169.19
22054	22.462	0.72727	0.1	178.03
22055	22.552	0.45455	0.1	158.59
22056	22.462	0.54545	0.1	163.11
22057	22.552	0.27273	0.1	153.32
22058	22.462	0.36364	0.1	153.38
22059	22.462	0.18182	0.1	150.62
22060	22.552	9.0909e-002	0.1	143.91
22061	22.371	5.7273	0.1	150.72
22062	22.281	5.8182	0.1	143.73
22063	22.371	5.9091	0.1	140.14
22064	22.371	5.5455	0.1	158.01
22065	22.281	5.6364	0.1	147.99
22066	22.371	5.3636	0.1	172.22
22067	22.281	5.4545	0.1	161.05
22068	22.371	5.1818	0.1	192.33
22069	22.281	5.2727	0.1	180.96
22070	22.371	5.	0.1	218.12
22071	22.281	5.0909	0.1	207.45
22072	22.371	4.8182	0.1	249.41
22073	22.281	4.9091	0.1	240.4
22074	22.371	4.6364	0.1	286.03
22075	22.281	4.7273	0.1	279.77
22076	22.371	4.4545	0.1	327.83
22077	22.281	4.5455	0.1	325.64
22078	22.371	4.2727	0.1	374.35
22079	22.281	4.3636	0.1	378.08
22080	22.371	4.0909	0.1	423.93
22081	22.281	4.1818	0.1	436.39
22082	22.371	3.9091	0.1	473.07
22083	22.281	4.	0.1	497.82
22084	22.371	3.7273	0.1	516.98
22085	22.281	3.8182	0.1	555.38
22086	22.371	3.5455	0.1	551.56
22087	22.281	3.6364	0.1	601.63
22088	22.371	3.3636	0.1	575.24
22089	22.281	3.4545	0.1	633.24
22090	22.371	3.1818	0.1	588.59
22091	22.281	3.2727	0.1	651.41
22092	22.371	3.	0.1	592.86
22093	22.281	3.0909	0.1	659.42
22094	22.371	2.8182	0.1	588.59
22095	22.281	2.9091	0.1	659.42
22096	22.371	2.6364	0.1	575.24
22097	22.281	2.7273	0.1	651.41
22098	22.371	2.4545	0.1	551.56
22099	22.281	2.5455	0.1	633.24
22100	22.371	2.2727	0.1	516.98
22101	22.281	2.3636	0.1	601.63
22102	22.371	2.0909	0.1	473.07
22103	22.281	2.1818	0.1	555.38
22104	22.371	1.9091	0.1	423.93
22105	22.281	2.	0.1	497.82
22106	22.371	1.7273	0.1	374.35
22107	22.281	1.8182	0.1	436.39
22108	22.371	1.5455	0.1	327.83
22109	22.281	1.6364	0.1	378.08
22110	22.371	1.3636	0.1	286.03
22111	22.281	1.4545	0.1	325.64
22112	22.371	1.1818	0.1	249.41
22113	22.281	1.2727	0.1	279.77
22114	22.371	1.	0.1	218.12
22115	22.281	1.0909	0.1	240.4
22116	22.371	0.81818	0.1	192.33
22117	22.281	0.90909	0.1	207.45
22118	22.371	0.63636	0.1	172.22
22119	22.281	0.72727	0.1	180.96
22120	22.371	0.45455	0.1	158.01
22121	22.281	0.54545	0.1	161.05
22122	22.371	0.27273	0.1	150.72
22123	22.281	0.36364	0.1	147.99
22124	22.281	0.18182	0.1	143.73
22125	22.371	9.0909e-002	0.1	140.14
22126	22.19	5.7273	0.1	141.05
22127	22.1	5.8182	0.1	129.25
22128	22.19	5.9091	0.1	129.05
22129	22.19	5.5455	0.1	151.27
22130	22.1	5.6364	0.1	135.97
22131	22.19	5.3636	0.1	170.38
22132	22.1	5.4545	0.1	153.8
22133	22.19	5.1818	0.1	197.02
22134	22.1	5.2727	0.1	180.16
22135	22.19	5.	0.1	230.92
22136	22.1	5.0909	0.1	214.52
22137	22.19	4.8182	0.1	272.06
22138	22.1	4.9091	0.1	257.06
22139	22.19	4.6364	0.1	320.65
22140	22.1	4.7273	0.1	308.44
22141	22.19	4.4545	0.1	377.03
22142	22.1	4.5455	0.1	369.76
22143	22.19	4.2727	0.1	441.07
22144	22.1	4.3636	0.1	441.42
22145	22.19	4.0909	0.1	510.81
22146	22.1	4.1818	0.1	524.12
22147	22.19	3.9091	0.1	579.8
22148	22.1	4.	0.1	613.34
22149	22.19	3.7273	0.1	638.66
22150	22.1	3.8182	0.1	694.36
22151	22.19	3.5455	0.1	681.16
22152	22.1	3.6364	0.1	752.14
22153	22.19	3.3636	0.1	706.96
22154	22.1	3.4545	0.1	782.78
22155	22.19	3.1818	0.1	719.76
22156	22.1	3.2727	0.1	796.15
22157	22.19	3.	0.1	723.52
22158	22.1	3.0909	0.1	800.63
22159	22.19	2.8182	0.1	719.76
22160	22.1	2.9091	0.1	800.63
22161	22.19	2.6364	0.1	706.96
22162	22.1	2.7273	0.1	796.15
22163	22.19	2.4545	0.1	681.16
22164	22.1	2.5455	0.1	782.78
22165	22.19	2.2727	0.1	638.66
22166	22.1	2.3636	0.1	752.14
22167	22.19	2.0909	0.1	579.8
22168	22.1	2.1818	0.1	694.36
22169	22.19	1.9091	0.1	510.81
22170	22.1	2.	0.1	613.34
22171	22.19	1.7273	0.1	441.07
22172	22.1	1.8182	0.1	524.12
22173	22.19	1.5455	0.1	377.03
22174	22.1	1.6364	0.1	441.42
22175	22.19	1.3636	0.1	320.65
22176	22.1	1.4545	0.1	369.76
22177	22.19	1.1818	0.1	272.06
22178	22.1	1.2727	0.1	308.44
22179	22.19	1.	0.1	230.92
22180	22.1	1.0909	0.1	257.06
22181	22.19	0.81818	0.1	197.02
22182	22.1	0.90909	0.1	214.52
22183	22.19	0.63636	0.1	170.38
22184	22.1	0.72727	0.1	180.16
22185	22.19	0.45455	0.1	151.27
22186	22.1	0.54545	0.1	153.8
22187	22.19	0.27273	0.1	141.05
22188	22.1	0.36364	0.1	135.97
22189	22.1	0.18182	0.1	129.25
22190	22.19	9.0909e-002	0.1	129.05
22191	22.01	5.7273	0.1	124.21
22192	21.919	5.8182	0.1	107.13
22193	22.01	5.9091	0.1	110.13
22194	22.01	5.5455	0.1	139.07
22195	21.919	5.6364	0.1	118.7
22196	22.01	5.3636	0.1	164.85
22197	21.919	5.4545	0.1	143.72
22198	22.01	5.1818	0.1	199.48
22199	21.919	5.2727	0.1	178.08
22200	22.01	5.	0.1	242.88
22201	21.919	5.0909	0.1	221.3
22202	22.01	4.8182	0.1	295.88
22203	21.919	4.9091	0.1	274.56
22204	22.01	4.6364	0.1	359.99
22205	21.919	4.7273	0.1	340.31
22206	22.01	4.4545	0.1	436.31
22207	21.919	4.5455	0.1	421.88
22208	22.01	4.2727	0.1	526.1
22209	21.919	4.3636	0.1	522.61
22210	22.01	4.0909	0.1	627.38
22211	21.919	4.1818	0.1	651.07
22212	22.01	3.9091	0.1	726.73
22213	21.919	4.	0.1	786.97
22214	22.01	3.7273	0.1	804.56
22215	21.919	3.8182	0.1	905.
22216	22.01	3.5455	0.1	849.65
22217	21.919	3.6364	0.1	957.97
22218	22.01	3.3636	0.1	868.16
22219	21.919	3.4545	0.1	968.38
22220	22.01	3.1818	0.1	873.59
22221	21.919	3.2727	0.1	962.71
22222	22.01	3.	0.1	874.44
22223	21.919	3.0909	0.1	957.39
22224	22.01	2.8182	0.1	873.59
22225	21.919	2.9091	0.1	957.39
22226	22.01	2.6364	0.1	868.16
22227	21.919	2.7273	0.1	962.71
22228	22.01	2.4545	0.1	849.65
22229	21.919	2.5455	0.1	968.38
22230	22.01	2.2727	0.1	804.56
22231	21.919	2.3636	0.1	957.97
22232	22.01	2.0909	0.1	726.73
22233	21.919	2.1818	0.1	905.
22234	22.01	1.9091	0.1	627.38
22235	21.919	2.	0.1	786.97
22236	22.01	1.7273	0.1	526.1
22237	21.919	1.8182	0.1	651.07
22238	22.01	1.5455	0.1	436.31
22239	21.919	1.6364	0.1	522.61
22240	22.01	1.3636	0.1	359.99
22241	21.919	1.4545	0.1	421.88
22242	22.01	1.1818	0.1	295.88
22243	21.919	1.2727	0.1	340.31
22244	22.01	1.	0.1	242.88
22245	21.919	1.0909	0.1	274.56
22246	22.01	0.81818	0.1	199.48
22247	21.919	0.90909	0.1	221.3
22248	22.01	0.63636	0.1	164.85
22249	21.919	0.72727	0.1	178.08
22250	22.01	0.45455	0.1	139.07
22251	21.919	0.54545	0.1	143.72
22252	22.01	0.27273	0.1	124.21
22253	21.919	0.36364	0.1	118.7
22254	21.919	0.18182	0.1	107.13
22255	22.01	9.0909e-002	0.1	110.13
22256	21.829	5.7273	0.1	101.82
22257	21.738	5.8182	0.1	79.776
22258	21.829	5.9091	0.1	83.481
22259	21.829	5.5455	0.1	124.87
22260	21.738	5.6364	0.1	103.13
22261	21.829	5.3636	0.1	159.45
22262	21.738	5.4545	0.1	138.97
22263	21.829	5.1818	0.1	203.04
22264	21.738	5.2727	0.1	182.89
22265	21.829	5.	0.1	256.68
22266	21.738	5.0909	0.1	236.
22267	21.829	4.8182	0.1	323.26
22268	21.738	4.9091	0.1	301.47
22269	21.829	4.6364	0.1	406.97
22270	21.738	4.7273	0.1	384.85
22271	21.829	4.4545	0.1	512.58
22272	21.738	4.5455	0.1	494.46
22273	21.829	4.2727	0.1	651.01
22274	21.738	4.3636	0.1	648.12
22275	21.829	4.0909	0.1	810.9
22276	21.738	4.1818	0.1	884.05
22277	21.829	3.9091	0.1	960.6
22278	21.738	4.	0.1	1137.
22279	21.829	3.7273	0.1	1049.9
22280	21.738	3.8182	0.1	1262.7
22281	21.829	3.5455	0.1	1069.6
22282	21.738	3.6364	0.1	1239.5
22283	21.829	3.3636	0.1	1058.
22284	21.738	3.4545	0.1	1178.9
22285	21.829	3.1818	0.1	1042.5
22286	21.738	3.2727	0.1	1135.8
22287	21.829	3.	0.1	1036.7
22288	21.738	3.0909	0.1	1114.2
22289	21.829	2.8182	0.1	1042.5
22290	21.738	2.9091	0.1	1114.2
22291	21.829	2.6364	0.1	1058.
22292	21.738	2.7273	0.1	1135.8
22293	21.829	2.4545	0.1	1069.6
22294	21.738	2.5455	0.1	1178.9
22295	21.829	2.2727	0.1	1049.9
22296	21.738	2.3636	0.1	1239.5
22297	21.829	2.0909	0.1	960.6
22298	21.738	2.1818	0.1	1262.7
22299	21.829	1.9091	0.1	810.9
22300	21.738	2.	0.1	1137.
22301	21.829	1.7273	0.1	651.01
22302	21.738	1.8182	0.1	884.05
22303	21.829	1.5455	0.1	512.58
22304	21.738	1.6364	0.1	648.12
22305	21.829	1.3636	0.1	406.97
22306	21.738	1.4545	0.1	494.46
22307	21.829	1.1818	0.1	323.26
22308	21.738	1.2727	0.1	384.85
22309	21.829	1.	0.1	256.68
22310	21.738	1.0909	0.1	301.47
22311	21.829	0.81818	0.1	203.04
22312	21.738	0.90909	0.1	236.
22313	21.829	0.63636	0.1	159.45
22314	21.738	0.72727	0.1	182.89
22315	21.829	0.45455	0.1	124.87
22316	21.738	0.54545	0.1	138.97
22317	21.829	0.27273	0.1	101.82
22318	21.738	0.36364	0.1	103.13
22319	21.738	0.18182	0.1	79.776
22320	21.829	9.0909e-002	0.1	83.481
22321	21.648	5.7273	0.1	83.251
22322	21.557	5.8182	0.1	48.678
22323	21.648	5.9091	0.1	51.144
22324	21.648	5.5455	0.1	121.06
22325	21.557	5.6364	0.1	82.152
22326	21.648	5.3636	0.1	166.6
22327	21.557	5.4545	0.1	119.66
22328	21.648	5.1818	0.1	220.44
22329	21.557	5.2727	0.1	162.2
22330	21.648	5.	0.1	286.16
22331	21.557	5.0909	0.1	212.56
22332	21.648	4.8182	0.1	369.83
22333	21.557	4.9091	0.1	274.73
22334	21.648	4.6364	0.1	481.33
22335	21.557	4.7273	0.1	355.18
22336	21.648	4.4545	0.1	643.52
22337	21.557	4.5455	0.1	466.07
22338	21.648	4.2727	0.1	893.51
22339	21.557	4.3636	0.1	622.02
22340	21.648	4.0909	0.1	1207.4
22341	21.557	4.1818	0.1	924.75
22342	21.648	3.9091	0.1	1417.6
22343	21.557	4.	0.1	2168.5
22344	21.648	3.7273	0.1	1432.4
22345	21.557	3.8182	0.1	1788.1
22346	21.648	3.5455	0.1	1341.3
22347	21.557	3.6364	0.1	1526.5
22348	21.648	3.3636	0.1	1252.4
22349	21.557	3.4545	0.1	1367.4
22350	21.648	3.1818	0.1	1204.1
22351	21.557	3.2727	0.1	1282.8
22352	21.648	3.	0.1	1188.6
22353	21.557	3.0909	0.1	1245.1
22354	21.648	2.8182	0.1	1204.1
22355	21.557	2.9091	0.1	1245.1
22356	21.648	2.6364	0.1	1252.4
22357	21.557	2.7273	0.1	1282.8
22358	21.648	2.4545	0.1	1341.3
22359	21.557	2.5455	0.1	1367.4
22360	21.648	2.2727	0.1	1432.4
22361	21.557	2.3636	0.1	1526.5
22362	21.648	2.0909	0.1	1417.6
22363	21.557	2.1818	0.1	1788.1
22364	21.648	1.9091	0.1	1207.4
22365	21.557	2.	0.1	2168.5
22366	21.648	1.7273	0.1	893.51
22367	21.557	1.8182	0.1	924.75
22368	21.648	1.5455	0.1	643.52
22369	21.557	1.6364	0.1	622.02
22370	21.648	1.3636	0.1	481.33
22371	21.557	1.4545	0.1	466.07
22372	21.648	1.1818	0.1	369.83
22373	21.557	1.2727	0.1	355.18
22374	21.648	1.	0.1	286.16
22375	21.557	1.0909	0.1	274.73
22376	21.648	0.81818	0.1	220.44
22377	21.557	0.90909	0.1	212.56
22378	21.648	0.63636	0.1	166.6
22379	21.557	0.72727	0.1	162.2
22380	21.648	0.45455	0.1	121.06
22381	21.557	0.54545	0.1	119.66
22382	21.648	0.27273	0.1	83.251
22383	21.557	0.36364	0.1	82.152
22384	21.557	0.18182	0.1	48.678
22385	21.648	9.0909e-002	0.1	51.144
22386	0.18362	0.27273	0.1	4253.6
22387	0.27543	0.18182	0.1	4537.
22388	9.181e-002	0.18182	0.1	2707.9
22389	0.18362	9.0909e-002	0.1	3841.9
22390	0.18362	0.45455	0.1	4876.2
22391	0.27543	0.36364	0.1	4642.5
22392	9.181e-002	0.36364	0.1	3407.6
22393	0.18362	0.63636	0.1	5477.2
22394	0.27543	0.54545	0.1	5004.2
22395	9.181e-002	0.54545	0.1	3988.5
22396	0.18362	0.81818	0.1	5934.2
22397	0.27543	0.72727	0.1	5366.4
22398	9.181e-002	0.72727	0.1	4404.3
22399	0.18362	1.	0.1	6276.7
22400	0.27543	0.90909	0.1	5673.6
22401	9.181e-002	0.90909	0.1	4703.2
22402	0.18362	1.1818	0.1	6536.3
22403	0.27543	1.0909	0.1	5922.2
22404	9.181e-002	1.0909	0.1	4924.4
22405	0.18362	1.3636	0.1	6735.9
22406	0.27543	1.2727	0.1	6120.9
22407	9.181e-002	1.2727	0.1	5091.7
22408	0.18362	1.5455	0.1	6891.1
22409	0.27543	1.4545	0.1	6279.3
22410	9.181e-002	1.4545	0.1	5220.4
22411	0.18362	1.7273	0.1	7012.6
22412	0.27543	1.6364	0.1	6405.6
22413	9.181e-002	1.6364	0.1	5320.5
22414	0.18362	1.9091	0.1	7107.7
22415	0.27543	1.8182	0.1	6506.1
22416	9.181e-002	1.8182	0.1	5398.8
22417	0.18362	2.0909	0.1	7181.6
22418	0.27543	2.	0.1	6585.5
22419	9.181e-002	2.	0.1	5459.7
22420	0.18362	2.2727	0.1	7238.
22421	0.27543	2.1818	0.1	6647.3
22422	9.181e-002	2.1818	0.1	5506.7
22423	0.18362	2.4545	0.1	7279.6
22424	0.27543	2.3636	0.1	6694.
22425	9.181e-002	2.3636	0.1	5542.
22426	0.18362	2.6364	0.1	7308.1
22427	0.27543	2.5455	0.1	6727.6
22428	9.181e-002	2.5455	0.1	5567.2
22429	0.18362	2.8182	0.1	7324.7
22430	0.27543	2.7273	0.1	6749.3
22431	9.181e-002	2.7273	0.1	5583.5
22432	0.18362	3.	0.1	7330.2
22433	0.27543	2.9091	0.1	6760.
22434	9.181e-002	2.9091	0.1	5591.4
22435	0.18362	3.1818	0.1	7324.7
22436	0.27543	3.0909	0.1	6760.
22437	9.181e-002	3.0909	0.1	5591.4
22438	0.18362	3.3636	0.1	7308.1
22439	0.27543	3.2727	0.1	6749.3
22440	9.181e-002	3.2727	0.1	5583.5
22441	0.18362	3.5455	0.1	7279.6
22442	0.27543	3.4545	0.1	6727.6
22443	9.181e-002	3.4545	0.1	5567.2
22444	0.18362	3.7273	0.1	7238.
22445	0.27543	3.6364	0.1	6694.
22446	9.181e-002	3.6364	0.1	5542.
22447	0.18362	3.9091	0.1	7181.6
22448	0.27543	3.8182	0.1	6647.3
22449	9.181e-002	3.8182	0.1	5506.7
22450	0.18362	4.0909	0.1	7107.7
22451	0.27543	4.	0.1	6585.5
22452	9.181e-002	4.	0.1	5459.7
22453	0.18362	4.2727	0.1	7012.6
22454	0.27543	4.1818	0.1	6506.1
22455	9.181e-002	4.1818	0.1	5398.8
22456	0.18362	4.4545	0.1	6891.1
22457	0.27543	4.3636	0.1	6405.6
22458	9.181e-002	4.3636	0.1	5320.5
22459	0.18362	4.6364	0.1	6735.9
22460	0.27543	4.5455	0.1	6279.3
22461	9.181e-002	4.5455	0.1	5220.4
22462	0.18362	4.8182	0.1	6536.3
22463	0.27543	4.7273	0.1	6120.9
22464	9.181e-002	4.7273	0.1	5091.7
22465	0.18362	5.	0.1	6276.7
22466	0.27543	4.9091	0.1	5922.2
22467	9.181e-002	4.9091	0.1	4924.4
22468	0.18362	5.1818	0.1	5934.2
22469	0.27543	5.0909	0.1	5673.6
22470	9.181e-002	5.0909	0.1	4703.2
22471	0.18362	5.3636	0.1	5477.2
22472	0.27543	5.2727	0.1	5366.4
22473	9.181e-002	5.2727	0.1	4404.3
22474	0.18362	5.5455	0.1	4876.2
22475	0.27543	5.4545	0.1	5004.2
22476	9.181e-002	5.4545	0.1	3988.5
22477	0.18362	5.7273	0.1	4253.6
22478	0.27543	5.6364	0.1	4642.5
22479	9.181e-002	5.6364	0.1	3407.6
22480	0.27543	5.8182	0.1	4537.
22481	9.181e-002	5.8182	0.1	2707.9
22482	0.18362	5.9091	0.1	3841.9
22483	0.36724	0.27273	0.1	4892.2
22484	0.45905	0.18182	0.1	5299.2
22485	0.36724	9.0909e-002	0.1	4924.9
22486	0.36724	0.45455	0.1	4796.1
22487	0.45905	0.36364	0.1	5060.8
22488	0.36724	0.63636	0.1	4923.7
22489	0.45905	0.54545	0.1	5057.2
22490	0.36724	0.81818	0.1	5129.1
22491	0.45905	0.72727	0.1	5174.2
22492	0.36724	1.	0.1	5336.3
22493	0.45905	0.90909	0.1	5334.
22494	0.36724	1.1818	0.1	5520.
22495	0.45905	1.0909	0.1	5496.4
22496	0.36724	1.3636	0.1	5675.
22497	0.45905	1.2727	0.1	5644.3
22498	0.36724	1.5455	0.1	5803.1
22499	0.45905	1.4545	0.1	5772.5
22500	0.36724	1.7273	0.1	5907.6
22501	0.45905	1.6364	0.1	5880.7
22502	0.36724	1.9091	0.1	5991.7
22503	0.45905	1.8182	0.1	5970.2
22504	0.36724	2.0909	0.1	6058.6
22505	0.45905	2.	0.1	6043.
22506	0.36724	2.2727	0.1	6110.4
22507	0.45905	2.1818	0.1	6100.8
22508	0.36724	2.4545	0.1	6149.
22509	0.45905	2.3636	0.1	6145.2
22510	0.36724	2.6364	0.1	6175.8
22511	0.45905	2.5455	0.1	6177.5
22512	0.36724	2.8182	0.1	6191.4
22513	0.45905	2.7273	0.1	6198.5
22514	0.36724	3.	0.1	6196.6
22515	0.45905	2.9091	0.1	6208.9
22516	0.36724	3.1818	0.1	6191.4
22517	0.45905	3.0909	0.1	6208.9
22518	0.36724	3.3636	0.1	6175.8
22519	0.45905	3.2727	0.1	6198.5
22520	0.36724	3.5455	0.1	6149.
22521	0.45905	3.4545	0.1	6177.5
22522	0.36724	3.7273	0.1	6110.4
22523	0.45905	3.6364	0.1	6145.2
22524	0.36724	3.9091	0.1	6058.6
22525	0.45905	3.8182	0.1	6100.8
22526	0.36724	4.0909	0.1	5991.7
22527	0.45905	4.	0.1	6043.
22528	0.36724	4.2727	0.1	5907.6
22529	0.45905	4.1818	0.1	5970.2
22530	0.36724	4.4545	0.1	5803.1
22531	0.45905	4.3636	0.1	5880.7
22532	0.36724	4.6364	0.1	5675.
22533	0.45905	4.5455	0.1	5772.5
22534	0.36724	4.8182	0.1	5520.
22535	0.45905	4.7273	0.1	5644.3
22536	0.36724	5.	0.1	5336.3
22537	0.45905	4.9091	0.1	5496.4
22538	0.36724	5.1818	0.1	5129.1
22539	0.45905	5.0909	0.1	5334.
22540	0.36724	5.3636	0.1	4923.7
22541	0.45905	5.2727	0.1	5174.2
22542	0.36724	5.5455	0.1	4796.1
22543	0.45905	5.4545	0.1	5057.2
22544	0.36724	5.7273	0.1	4892.2
22545	0.45905	5.6364	0.1	5060.8
22546	0.45905	5.8182	0.1	5299.2
22547	0.36724	5.9091	0.1	4924.9
22548	0.55086	0.27273	0.1	5452.8
22549	0.64267	0.18182	0.1	5701.4
22550	0.55086	9.0909e-002	0.1	5468.9
22551	0.55086	0.45455	0.1	5308.6
22552	0.64267	0.36364	0.1	5470.8
22553	0.55086	0.63636	0.1	5300.8
22554	0.64267	0.54545	0.1	5378.1
22555	0.55086	0.81818	0.1	5377.
22556	0.64267	0.72727	0.1	5376.6
22557	0.55086	1.	0.1	5494.1
22558	0.64267	0.90909	0.1	5436.2
22559	0.55086	1.1818	0.1	5621.3
22560	0.64267	1.0909	0.1	5526.
22561	0.55086	1.3636	0.1	5742.5
22562	0.64267	1.2727	0.1	5624.8
22563	0.55086	1.5455	0.1	5850.7
22564	0.64267	1.4545	0.1	5720.8
22565	0.55086	1.7273	0.1	5943.8
22566	0.64267	1.6364	0.1	5808.1
22567	0.55086	1.9091	0.1	6021.8
22568	0.64267	1.8182	0.1	5884.2
22569	0.55086	2.0909	0.1	6085.5
22570	0.64267	2.	0.1	5948.4
22571	0.55086	2.2727	0.1	6135.9
22572	0.64267	2.1818	0.1	6000.9
22573	0.55086	2.4545	0.1	6173.9
22574	0.64267	2.3636	0.1	6042.1
22575	0.55086	2.6364	0.1	6200.5
22576	0.64267	2.5455	0.1	6072.4
22577	0.55086	2.8182	0.1	6216.3
22578	0.64267	2.7273	0.1	6092.3
22579	0.55086	3.	0.1	6221.5
22580	0.64267	2.9091	0.1	6102.2
22581	0.55086	3.1818	0.1	6216.3
22582	0.64267	3.0909	0.1	6102.2
22583	0.55086	3.3636	0.1	6200.5
22584	0.64267	3.2727	0.1	6092.3
22585	0.55086	3.5455	0.1	6173.9
22586	0.64267	3.4545	0.1	6072.4
22587	0.55086	3.7273	0.1	6135.9
22588	0.64267	3.6364	0.1	6042.1
22589	0.55086	3.9091	0.1	6085.5
22590	0.64267	3.8182	0.1	6000.9
22591	0.55086	4.0909	0.1	6021.8
22592	0.64267	4.	0.1	5948.4
22593	0.55086	4.2727	0.1	5943.8
22594	0.64267	4.1818	0.1	5884.2
22595	0.55086	4.4545	0.1	5850.7
22596	0.64267	4.3636	0.1	5808.1
22597	0.55086	4.6364	0.1	5742.5
22598	0.64267	4.5455	0.1	5720.8
22599	0.55086	4.8182	0.1	5621.3
22600	0.64267	4.7273	0.1	5624.8
22601	0.55086	5.	0.1	5494.1
22602	0.64267	4.9091	0.1	5526.
22603	0.55086	5.1818	0.1	5377.
22604	0.64267	5.0909	0.1	5436.2
22605	0.55086	5.3636	0.1	5300.8
22606	0.64267	5.2727	0.1	5376.6
22607	0.55086	5.5455	0.1	5308.6
22608	0.64267	5.4545	0.1	5378.1
22609	0.55086	5.7273	0.1	5452.8
22610	0.64267	5.6364	0.1	5470.8
22611	0.64267	5.8182	0.1	5701.4
22612	0.55086	5.9091	0.1	5468.9
22613	0.73448	0.27273	0.1	5712.4
22614	0.82629	0.18182	0.1	5904.1
22615	0.73448	9.0909e-002	0.1	5755.1
22616	0.73448	0.45455	0.1	5534.1
22617	0.82629	0.36364	0.1	5682.4
22618	0.73448	0.63636	0.1	5449.5
22619	0.82629	0.54545	0.1	5554.7
22620	0.73448	0.81818	0.1	5433.9
22621	0.82629	0.72727	0.1	5490.1
22622	0.73448	1.	0.1	5467.8
22623	0.82629	0.90909	0.1	5479.5
22624	0.73448	1.1818	0.1	5530.
22625	0.82629	1.0909	0.1	5506.8
22626	0.73448	1.3636	0.1	5603.9
22627	0.82629	1.2727	0.1	5555.8
22628	0.73448	1.5455	0.1	5678.9
22629	0.82629	1.4545	0.1	5614.4
22630	0.73448	1.7273	0.1	5749.1
22631	0.82629	1.6364	0.1	5674.5
22632	0.73448	1.9091	0.1	5811.3
22633	0.82629	1.8182	0.1	5731.1
22634	0.73448	2.0909	0.1	5864.2
22635	0.82629	2.	0.1	5781.5
22636	0.73448	2.2727	0.1	5907.4
22637	0.82629	2.1818	0.1	5824.3
22638	0.73448	2.4545	0.1	5940.7
22639	0.82629	2.3636	0.1	5858.8
22640	0.73448	2.6364	0.1	5964.3
22641	0.82629	2.5455	0.1	5884.8
22642	0.73448	2.8182	0.1	5978.4
22643	0.82629	2.7273	0.1	5902.
22644	0.73448	3.	0.1	5983.1
22645	0.82629	2.9091	0.1	5910.7
22646	0.73448	3.1818	0.1	5978.4
22647	0.82629	3.0909	0.1	5910.7
22648	0.73448	3.3636	0.1	5964.3
22649	0.82629	3.2727	0.1	5902.
22650	0.73448	3.5455	0.1	5940.7
22651	0.82629	3.4545	0.1	5884.8
22652	0.73448	3.7273	0.1	5907.4
22653	0.82629	3.6364	0.1	5858.8
22654	0.73448	3.9091	0.1	5864.2
22655	0.82629	3.8182	0.1	5824.3
22656	0.73448	4.0909	0.1	5811.3
22657	0.82629	4.	0.1	5781.5
22658	0.73448	4.2727	0.1	5749.1
22659	0.82629	4.1818	0.1	5731.1
22660	0.73448	4.4545	0.1	5678.9
22661	0.82629	4.3636	0.1	5674.5
22662	0.73448	4.6364	0.1	5603.9
22663	0.82629	4.5455	0.1	5614.4
22664	0.73448	4.8182	0.1	5530.
22665	0.82629	4.7273	0.1	5555.8
22666	0.73448	5.	0.1	5467.8
22667	0.82629	4.9091	0.1	5506.8
22668	0.73448	5.1818	0.1	5433.9
22669	0.82629	5.0909	0.1	5479.5
22670	0.73448	5.3636	0.1	5449.5
22671	0.82629	5.2727	0.1	5490.1
22672	0.73448	5.5455	0.1	5534.1
22673	0.82629	5.4545	0.1	5554.7
22674	0.73448	5.7273	0.1	5712.4
22675	0.82629	5.6364	0.1	5682.4
22676	0.82629	5.8182	0.1	5904.1
22677	0.73448	5.9091	0.1	5755.1
22678	0.9181	0.27273	0.1	5870.7
22679	1.0099	0.18182	0.1	6011.5
22680	0.9181	9.0909e-002	0.1	5916.9
22681	0.9181	0.45455	0.1	5699.4
22682	1.0099	0.36364	0.1	5811.4
22683	0.9181	0.63636	0.1	5591.6
22684	1.0099	0.54545	0.1	5678.8
22685	0.9181	0.81818	0.1	5532.8
22686	1.0099	0.72727	0.1	5588.4
22687	0.9181	1.	0.1	5516.6
22688	1.0099	0.90909	0.1	5539.3
22689	0.9181	1.1818	0.1	5531.6
22690	1.0099	1.0909	0.1	5524.9
22691	0.9181	1.3636	0.1	5565.9
22692	1.0099	1.2727	0.1	5535.5
22693	0.9181	1.5455	0.1	5609.9
22694	1.0099	1.4545	0.1	5561.6
22695	0.9181	1.7273	0.1	5656.5
22696	1.0099	1.6364	0.1	5595.7
22697	0.9181	1.9091	0.1	5701.3
22698	1.0099	1.8182	0.1	5632.3
22699	0.9181	2.0909	0.1	5741.6
22700	1.0099	2.	0.1	5667.5
22701	0.9181	2.2727	0.1	5775.8
22702	1.0099	2.1818	0.1	5699.2
22703	0.9181	2.4545	0.1	5802.9
22704	1.0099	2.3636	0.1	5725.7
22705	0.9181	2.6364	0.1	5822.4
22706	1.0099	2.5455	0.1	5746.1
22707	0.9181	2.8182	0.1	5834.2
22708	1.0099	2.7273	0.1	5759.9
22709	0.9181	3.	0.1	5838.2
22710	1.0099	2.9091	0.1	5766.9
22711	0.9181	3.1818	0.1	5834.2
22712	1.0099	3.0909	0.1	5766.9
22713	0.9181	3.3636	0.1	5822.4
22714	1.0099	3.2727	0.1	5759.9
22715	0.9181	3.5455	0.1	5802.9
22716	1.0099	3.4545	0.1	5746.1
22717	0.9181	3.7273	0.1	5775.8
22718	1.0099	3.6364	0.1	5725.7
22719	0.9181	3.9091	0.1	5741.6
22720	1.0099	3.8182	0.1	5699.2
22721	0.9181	4.0909	0.1	5701.3
22722	1.0099	4.	0.1	5667.5
22723	0.9181	4.2727	0.1	5656.5
22724	1.0099	4.1818	0.1	5632.3
22725	0.9181	4.4545	0.1	5609.9
22726	1.0099	4.3636	0.1	5595.7
22727	0.9181	4.6364	0.1	5565.9
22728	1.0099	4.5455	0.1	5561.6
22729	0.9181	4.8182	0.1	5531.6
22730	1.0099	4.7273	0.1	5535.5
22731	0.9181	5.	0.1	5516.6
22732	1.0099	4.9091	0.1	5524.9
22733	0.9181	5.1818	0.1	5532.8
22734	1.0099	5.0909	0.1	5539.3
22735	0.9181	5.3636	0.1	5591.6
22736	1.0099	5.2727	0.1	5588.4
22737	0.9181	5.5455	0.1	5699.4
22738	1.0099	5.4545	0.1	5678.8
22739	0.9181	5.7273	0.1	5870.7
22740	1.0099	5.6364	0.1	5811.4
22741	1.0099	5.8182	0.1	6011.5
22742	0.9181	5.9091	0.1	5916.9
22743	1.1017	0.27273	0.1	5950.2
22744	1.1935	0.18182	0.1	6058.2
22745	1.1017	9.0909e-002	0.1	6001.
22746	1.1017	0.45455	0.1	5788.8
22747	1.1935	0.36364	0.1	5877.4
22748	1.1017	0.63636	0.1	5673.2
22749	1.1935	0.54545	0.1	5747.6
22750	1.1017	0.81818	0.1	5592.7
22751	1.1935	0.72727	0.1	5647.2
22752	1.1017	1.	0.1	5545.9
22753	1.1935	0.90909	0.1	5577.5
22754	1.1017	1.1818	0.1	5527.6
22755	1.1935	1.0909	0.1	5536.5
22756	1.1017	1.3636	0.1	5530.5
22757	1.1935	1.2727	0.1	5519.2
22758	1.1017	1.5455	0.1	5547.1
22759	1.1935	1.4545	0.1	5519.3
22760	1.1017	1.7273	0.1	5571.3
22761	1.1935	1.6364	0.1	5530.7
22762	1.1017	1.9091	0.1	5598.4
22763	1.1935	1.8182	0.1	5548.5
22764	1.1017	2.0909	0.1	5625.1
22765	1.1935	2.	0.1	5568.8
22766	1.1017	2.2727	0.1	5649.1
22767	1.1935	2.1818	0.1	5588.9
22768	1.1017	2.4545	0.1	5668.9
22769	1.1935	2.3636	0.1	5606.7
22770	1.1017	2.6364	0.1	5683.5
22771	1.1935	2.5455	0.1	5621.
22772	1.1017	2.8182	0.1	5692.5
22773	1.1935	2.7273	0.1	5631.
22774	1.1017	3.	0.1	5695.6
22775	1.1935	2.9091	0.1	5636.
22776	1.1017	3.1818	0.1	5692.5
22777	1.1935	3.0909	0.1	5636.
22778	1.1017	3.3636	0.1	5683.5
22779	1.1935	3.2727	0.1	5631.
22780	1.1017	3.5455	0.1	5668.9
22781	1.1935	3.4545	0.1	5621.
22782	1.1017	3.7273	0.1	5649.1
22783	1.1935	3.6364	0.1	5606.7
22784	1.1017	3.9091	0.1	5625.1
22785	1.1935	3.8182	0.1	5588.9
22786	1.1017	4.0909	0.1	5598.4
22787	1.1935	4.	0.1	5568.8
22788	1.1017	4.2727	0.1	5571.3
22789	1.1935	4.1818	0.1	5548.5
22790	1.1017	4.4545	0.1	5547.1
22791	1.1935	4.3636	0.1	5530.7
22792	1.1017	4.6364	0.1	5530.5
22793	1.1935	4.5455	0.1	5519.3
22794	1.1017	4.8182	0.1	5527.6
22795	1.1935	4.7273	0.1	5519.2
22796	1.1017	5.	0.1	5545.9
22797	1.1935	4.9091	0.1	5536.5
22798	1.1017	5.1818	0.1	5592.7
22799	1.1935	5.0909	0.1	5577.5
22800	1.1017	5.3636	0.1	5673.2
22801	1.1935	5.2727	0.1	5647.2
22802	1.1017	5.5455	0.1	5788.8
22803	1.1935	5.4545	0.1	5747.6
22804	1.1017	5.7273	0.1	5950.2
22805	1.1935	5.6364	0.1	5877.4
22806	1.1935	5.8182	0.1	6058.2
22807	1.1017	5.9091	0.1	6001.
22808	1.2853	0.27273	0.1	5984.
22809	1.3772	0.18182	0.1	6067.3
22810	1.2853	9.0909e-002	0.1	6037.2
22811	1.2853	0.45455	0.1	5834.9
22812	1.3772	0.36364	0.1	5904.1
22813	1.2853	0.63636	0.1	5720.
22814	1.3772	0.54545	0.1	5780.7
22815	1.2853	0.81818	0.1	5630.4
22816	1.3772	0.72727	0.1	5678.4
22817	1.2853	1.	0.1	5566.7
22818	1.3772	0.90909	0.1	5598.8
22819	1.2853	1.1818	0.1	5527.
22820	1.3772	1.0909	0.1	5542.2
22821	1.2853	1.3636	0.1	5507.2
22822	1.3772	1.2727	0.1	5506.1
22823	1.2853	1.5455	0.1	5502.4
22824	1.3772	1.4545	0.1	5486.9
22825	1.2853	1.7273	0.1	5507.6
22826	1.3772	1.6364	0.1	5480.2
22827	1.2853	1.9091	0.1	5518.7
22828	1.3772	1.8182	0.1	5482.
22829	1.2853	2.0909	0.1	5532.5
22830	1.3772	2.	0.1	5488.8
22831	1.2853	2.2727	0.1	5546.4
22832	1.3772	2.1818	0.1	5498.
22833	1.2853	2.4545	0.1	5558.7
22834	1.3772	2.3636	0.1	5507.4
22835	1.2853	2.6364	0.1	5568.3
22836	1.3772	2.5455	0.1	5515.6
22837	1.2853	2.8182	0.1	5574.4
22838	1.3772	2.7273	0.1	5521.6
22839	1.2853	3.	0.1	5576.4
22840	1.3772	2.9091	0.1	5524.8
22841	1.2853	3.1818	0.1	5574.4
22842	1.3772	3.0909	0.1	5524.8
22843	1.2853	3.3636	0.1	5568.3
22844	1.3772	3.2727	0.1	5521.6
22845	1.2853	3.5455	0.1	5558.7
22846	1.3772	3.4545	0.1	5515.6
22847	1.2853	3.7273	0.1	5546.4
22848	1.3772	3.6364	0.1	5507.4
22849	1.2853	3.9091	0.1	5532.5
22850	1.3772	3.8182	0.1	5498.
22851	1.2853	4.0909	0.1	5518.7
22852	1.3772	4.	0.1	5488.8
22853	1.2853	4.2727	0.1	5507.6
22854	1.3772	4.1818	0.1	5482.
22855	1.2853	4.4545	0.1	5502.4
22856	1.3772	4.3636	0.1	5480.2
22857	1.2853	4.6364	0.1	5507.2
22858	1.3772	4.5455	0.1	5486.9
22859	1.2853	4.8182	0.1	5527.
22860	1.3772	4.7273	0.1	5506.1
22861	1.2853	5.	0.1	5566.7
22862	1.3772	4.9091	0.1	5542.2
22863	1.2853	5.1818	0.1	5630.4
22864	1.3772	5.0909	0.1	5598.8
22865	1.2853	5.3636	0.1	5720.
22866	1.3772	5.2727	0.1	5678.4
22867	1.2853	5.5455	0.1	5834.9
22868	1.3772	5.4545	0.1	5780.7
22869	1.2853	5.7273	0.1	5984.
22870	1.3772	5.6364	0.1	5904.1
22871	1.3772	5.8182	0.1	6067.3
22872	1.2853	5.9091	0.1	6037.2
22873	1.469	0.27273	0.1	5986.4
22874	1.5608	0.18182	0.1	6051.2
22875	1.469	9.0909e-002	0.1	6041.3
22876	1.469	0.45455	0.1	5849.
22877	1.5608	0.36364	0.1	5903.5
22878	1.469	0.63636	0.1	5738.
22879	1.5608	0.54545	0.1	5787.4
22880	1.469	0.81818	0.1	5645.6
22881	1.5608	0.72727	0.1	5686.9
22882	1.469	1.	0.1	5573.2
22883	1.5608	0.90909	0.1	5603.5
22884	1.469	1.1818	0.1	5520.3
22885	1.5608	1.0909	0.1	5538.1
22886	1.469	1.3636	0.1	5485.
22887	1.5608	1.2727	0.1	5490.2
22888	1.469	1.5455	0.1	5464.1
22889	1.5608	1.4545	0.1	5457.4
22890	1.469	1.7273	0.1	5454.1
22891	1.5608	1.6364	0.1	5436.9
22892	1.469	1.9091	0.1	5451.8
22893	1.5608	1.8182	0.1	5425.8
22894	1.469	2.0909	0.1	5454.1
22895	1.5608	2.	0.1	5421.3
22896	1.469	2.2727	0.1	5458.8
22897	1.5608	2.1818	0.1	5420.9
22898	1.469	2.4545	0.1	5464.2
22899	1.5608	2.3636	0.1	5422.8
22900	1.469	2.6364	0.1	5468.8
22901	1.5608	2.5455	0.1	5425.4
22902	1.469	2.8182	0.1	5471.9
22903	1.5608	2.7273	0.1	5427.7
22904	1.469	3.	0.1	5473.
22905	1.5608	2.9091	0.1	5429.
22906	1.469	3.1818	0.1	5471.9
22907	1.5608	3.0909	0.1	5429.
22908	1.469	3.3636	0.1	5468.8
22909	1.5608	3.2727	0.1	5427.7
22910	1.469	3.5455	0.1	5464.2
22911	1.5608	3.4545	0.1	5425.4
22912	1.469	3.7273	0.1	5458.8
22913	1.5608	3.6364	0.1	5422.8
22914	1.469	3.9091	0.1	5454.1
22915	1.5608	3.8182	0.1	5420.9
22916	1.469	4.0909	0.1	5451.8
22917	1.5608	4.	0.1	5421.3
22918	1.469	4.2727	0.1	5454.1
22919	1.5608	4.1818	0.1	5425.8
22920	1.469	4.4545	0.1	5464.1
22921	1.5608	4.3636	0.1	5436.9
22922	1.469	4.6364	0.1	5485.
22923	1.5608	4.5455	0.1	5457.4
22924	1.469	4.8182	0.1	5520.3
22925	1.5608	4.7273	0.1	5490.2
22926	1.469	5.	0.1	5573.2
22927	1.5608	4.9091	0.1	5538.2
22928	1.469	5.1818	0.1	5645.6
22929	1.5608	5.0909	0.1	5603.5
22930	1.469	5.3636	0.1	5738.
22931	1.5608	5.2727	0.1	5686.9
22932	1.469	5.5455	0.1	5849.
22933	1.5608	5.4545	0.1	5787.4
22934	1.469	5.7273	0.1	5986.4
22935	1.5608	5.6364	0.1	5903.5
22936	1.5608	5.8182	0.1	6051.2
22937	1.469	5.9091	0.1	6041.3
22938	1.6526	0.27273	0.1	5967.6
22939	1.7444	0.18182	0.1	6018.1
22940	1.6526	9.0909e-002	0.1	6023.5
22941	1.6526	0.45455	0.1	5841.2
22942	1.7444	0.36364	0.1	5884.
22943	1.6526	0.63636	0.1	5735.5
22944	1.7444	0.54545	0.1	5775.3
22945	1.6526	0.81818	0.1	5643.9
22946	1.7444	0.72727	0.1	5678.5
22947	1.6526	1.	0.1	5567.6
22948	1.7444	0.90909	0.1	5594.7
22949	1.6526	1.1818	0.1	5507.2
22950	1.7444	1.0909	0.1	5525.3
22951	1.6526	1.3636	0.1	5461.8
22952	1.7444	1.2727	0.1	5470.1
22953	1.6526	1.5455	0.1	5429.6
22954	1.7444	1.4545	0.1	5428.3
22955	1.6526	1.7273	0.1	5408.2
22956	1.7444	1.6364	0.1	5398.
22957	1.6526	1.9091	0.1	5395.1
22958	1.7444	1.8182	0.1	5377.1
22959	1.6526	2.0909	0.1	5387.9
22960	1.7444	2.	0.1	5363.5
22961	1.6526	2.2727	0.1	5384.7
22962	1.7444	2.1818	0.1	5355.3
22963	1.6526	2.4545	0.1	5383.8
22964	1.7444	2.3636	0.1	5350.6
22965	1.6526	2.6364	0.1	5384.1
22966	1.7444	2.5455	0.1	5348.3
22967	1.6526	2.8182	0.1	5384.6
22968	1.7444	2.7273	0.1	5347.3
22969	1.6526	3.	0.1	5384.8
22970	1.7444	2.9091	0.1	5347.
22971	1.6526	3.1818	0.1	5384.6
22972	1.7444	3.0909	0.1	5347.
22973	1.6526	3.3636	0.1	5384.1
22974	1.7444	3.2727	0.1	5347.3
22975	1.6526	3.5455	0.1	5383.8
22976	1.7444	3.4545	0.1	5348.3
22977	1.6526	3.7273	0.1	5384.7
22978	1.7444	3.6364	0.1	5350.6
22979	1.6526	3.9091	0.1	5387.9
22980	1.7444	3.8182	0.1	5355.3
22981	1.6526	4.0909	0.1	5395.1
22982	1.7444	4.	0.1	5363.5
22983	1.6526	4.2727	0.1	5408.2
22984	1.7444	4.1818	0.1	5377.1
22985	1.6526	4.4545	0.1	5429.6
22986	1.7444	4.3636	0.1	5398.
22987	1.6526	4.6364	0.1	5461.8
22988	1.7444	4.5455	0.1	5428.3
22989	1.6526	4.8182	0.1	5507.2
22990	1.7444	4.7273	0.1	5470.1
22991	1.6526	5.	0.1	5567.6
22992	1.7444	4.9091	0.1	5525.3
22993	1.6526	5.1818	0.1	5643.9
22994	1.7444	5.0909	0.1	5594.7
22995	1.6526	5.3636	0.1	5735.5
22996	1.7444	5.2727	0.1	5678.5
22997	1.6526	5.5455	0.1	5841.2
22998	1.7444	5.4545	0.1	5775.3
22999	1.6526	5.7273	0.1	5967.6
23000	1.7444	5.6364	0.1	5884.
23001	1.7444	5.8182	0.1	6018.1
23002	1.6526	5.9091	0.1	6023.5
23003	1.8362	0.27273	0.1	5934.
23004	1.928	0.18182	0.1	5973.4
23005	1.8362	9.0909e-002	0.1	5990.3
23006	1.8362	0.45455	0.1	5817.6
23007	1.928	0.36364	0.1	5851.2
23008	1.8362	0.63636	0.1	5717.7
23009	1.928	0.54545	0.1	5749.7
23010	1.8362	0.81818	0.1	5628.7
23011	1.928	0.72727	0.1	5657.4
23012	1.8362	1.	0.1	5551.7
23013	1.928	0.90909	0.1	5575.2
23014	1.8362	1.1818	0.1	5487.5
23015	1.928	1.0909	0.1	5504.5
23016	1.8362	1.3636	0.1	5436.
23017	1.928	1.2727	0.1	5445.6
23018	1.8362	1.5455	0.1	5396.2
23019	1.928	1.4545	0.1	5398.2
23020	1.8362	1.7273	0.1	5366.5
23021	1.928	1.6364	0.1	5361.2
23022	1.8362	1.9091	0.1	5345.3
23023	1.928	1.8182	0.1	5333.2
23024	1.8362	2.0909	0.1	5330.6
23025	1.928	2.	0.1	5312.8
23026	1.8362	2.2727	0.1	5321.
23027	1.928	2.1818	0.1	5298.3
23028	1.8362	2.4545	0.1	5314.9
23029	1.928	2.3636	0.1	5288.4
23030	1.8362	2.6364	0.1	5311.4
23031	1.928	2.5455	0.1	5282.
23032	1.8362	2.8182	0.1	5309.6
23033	1.928	2.7273	0.1	5278.2
23034	1.8362	3.	0.1	5309.
23035	1.928	2.9091	0.1	5276.5
23036	1.8362	3.1818	0.1	5309.6
23037	1.928	3.0909	0.1	5276.5
23038	1.8362	3.3636	0.1	5311.4
23039	1.928	3.2727	0.1	5278.2
23040	1.8362	3.5455	0.1	5314.9
23041	1.928	3.4545	0.1	5282.
23042	1.8362	3.7273	0.1	5321.
23043	1.928	3.6364	0.1	5288.4
23044	1.8362	3.9091	0.1	5330.6
23045	1.928	3.8182	0.1	5298.3
23046	1.8362	4.0909	0.1	5345.3
23047	1.928	4.	0.1	5312.8
23048	1.8362	4.2727	0.1	5366.5
23049	1.928	4.1818	0.1	5333.2
23050	1.8362	4.4545	0.1	5396.2
23051	1.928	4.3636	0.1	5361.2
23052	1.8362	4.6364	0.1	5436.
23053	1.928	4.5455	0.1	5398.2
23054	1.8362	4.8182	0.1	5487.5
23055	1.928	4.7273	0.1	5445.6
23056	1.8362	5.	0.1	5551.7
23057	1.928	4.9091	0.1	5504.5
23058	1.8362	5.1818	0.1	5628.7
23059	1.928	5.0909	0.1	5575.2
23060	1.8362	5.3636	0.1	5717.7
23061	1.928	5.2727	0.1	5657.4
23062	1.8362	5.5455	0.1	5817.6
23063	1.928	5.4545	0.1	5749.7
23064	1.8362	5.7273	0.1	5934.
23065	1.928	5.6364	0.1	5851.2
23066	1.928	5.8182	0.1	5973.4
23067	1.8362	5.9091	0.1	5990.3
23068	2.0198	0.27273	0.1	5890.1
23069	2.1116	0.18182	0.1	5920.5
23070	2.0198	9.0909e-002	0.1	5946.4
23071	2.0198	0.45455	0.1	5782.9
23072	2.1116	0.36364	0.1	5808.9
23073	2.0198	0.63636	0.1	5688.9
23074	2.1116	0.54545	0.1	5714.2
23075	2.0198	0.81818	0.1	5603.4
23076	2.1116	0.72727	0.1	5626.8
23077	2.0198	1.	0.1	5527.6
23078	2.1116	0.90909	0.1	5547.5
23079	2.0198	1.1818	0.1	5462.1
23080	2.1116	1.0909	0.1	5477.3
23081	2.0198	1.3636	0.1	5407.3
23082	2.1116	1.2727	0.1	5417.
23083	2.0198	1.5455	0.1	5362.7
23084	2.1116	1.4545	0.1	5366.4
23085	2.0198	1.7273	0.1	5327.5
23086	2.1116	1.6364	0.1	5325.2
23087	2.0198	1.9091	0.1	5300.4
23088	2.1116	1.8182	0.1	5292.4
23089	2.0198	2.0909	0.1	5280.1
23090	2.1116	2.	0.1	5267.
23091	2.0198	2.2727	0.1	5265.5
23092	2.1116	2.1818	0.1	5247.9
23093	2.0198	2.4545	0.1	5255.3
23094	2.1116	2.3636	0.1	5234.
23095	2.0198	2.6364	0.1	5248.7
23096	2.1116	2.5455	0.1	5224.4
23097	2.0198	2.8182	0.1	5245.
23098	2.1116	2.7273	0.1	5218.5
23099	2.0198	3.	0.1	5243.9
23100	2.1116	2.9091	0.1	5215.6
23101	2.0198	3.1818	0.1	5245.
23102	2.1116	3.0909	0.1	5215.6
23103	2.0198	3.3636	0.1	5248.7
23104	2.1116	3.2727	0.1	5218.5
23105	2.0198	3.5455	0.1	5255.3
23106	2.1116	3.4545	0.1	5224.4
23107	2.0198	3.7273	0.1	5265.5
23108	2.1116	3.6364	0.1	5234.
23109	2.0198	3.9091	0.1	5280.1
23110	2.1116	3.8182	0.1	5247.9
23111	2.0198	4.0909	0.1	5300.4
23112	2.1116	4.	0.1	5267.
23113	2.0198	4.2727	0.1	5327.5
23114	2.1116	4.1818	0.1	5292.4
23115	2.0198	4.4545	0.1	5362.7
23116	2.1116	4.3636	0.1	5325.2
23117	2.0198	4.6364	0.1	5407.3
23118	2.1116	4.5455	0.1	5366.4
23119	2.0198	4.8182	0.1	5462.1
23120	2.1116	4.7273	0.1	5417.
23121	2.0198	5.	0.1	5527.6
23122	2.1116	4.9091	0.1	5477.3
23123	2.0198	5.1818	0.1	5603.4
23124	2.1116	5.0909	0.1	5547.5
23125	2.0198	5.3636	0.1	5688.9
23126	2.1116	5.2727	0.1	5626.8
23127	2.0198	5.5455	0.1	5782.9
23128	2.1116	5.4545	0.1	5714.2
23129	2.0198	5.7273	0.1	5890.1
23130	2.1116	5.6364	0.1	5808.9
23131	2.1116	5.8182	0.1	5920.5
23132	2.0198	5.9091	0.1	5946.4
23133	2.2034	0.27273	0.1	5839.1
23134	2.2953	0.18182	0.1	5862.2
23135	2.2034	9.0909e-002	0.1	5894.9
23136	2.2034	0.45455	0.1	5740.1
23137	2.2953	0.36364	0.1	5760.
23138	2.2034	0.63636	0.1	5651.9
23139	2.2953	0.54545	0.1	5671.7
23140	2.2034	0.81818	0.1	5570.5
23141	2.2953	0.72727	0.1	5589.3
23142	2.2034	1.	0.1	5496.9
23143	2.2953	0.90909	0.1	5513.4
23144	2.2034	1.1818	0.1	5431.8
23145	2.2953	1.0909	0.1	5444.9
23146	2.2034	1.3636	0.1	5375.7
23147	2.2953	1.2727	0.1	5384.7
23148	2.2034	1.5455	0.1	5328.6
23149	2.2953	1.4545	0.1	5332.9
23150	2.2034	1.7273	0.1	5289.8
23151	2.2953	1.6364	0.1	5289.3
23152	2.2034	1.9091	0.1	5258.8
23153	2.2953	1.8182	0.1	5253.5
23154	2.2034	2.0909	0.1	5234.6
23155	2.2953	2.	0.1	5224.8
23156	2.2034	2.2727	0.1	5216.2
23157	2.2953	2.1818	0.1	5202.5
23158	2.2034	2.4545	0.1	5203.
23159	2.2953	2.3636	0.1	5185.6
23160	2.2034	2.6364	0.1	5194.
23161	2.2953	2.5455	0.1	5173.7
23162	2.2034	2.8182	0.1	5188.9
23163	2.2953	2.7273	0.1	5166.1
23164	2.2034	3.	0.1	5187.2
23165	2.2953	2.9091	0.1	5162.3
23166	2.2034	3.1818	0.1	5188.9
23167	2.2953	3.0909	0.1	5162.3
23168	2.2034	3.3636	0.1	5194.
23169	2.2953	3.2727	0.1	5166.1
23170	2.2034	3.5455	0.1	5203.
23171	2.2953	3.4545	0.1	5173.7
23172	2.2034	3.7273	0.1	5216.2
23173	2.2953	3.6364	0.1	5185.6
23174	2.2034	3.9091	0.1	5234.6
23175	2.2953	3.8182	0.1	5202.5
23176	2.2034	4.0909	0.1	5258.8
23177	2.2953	4.	0.1	5224.8
23178	2.2034	4.2727	0.1	5289.8
23179	2.2953	4.1818	0.1	5253.5
23180	2.2034	4.4545	0.1	5328.6
23181	2.2953	4.3636	0.1	5289.3
23182	2.2034	4.6364	0.1	5375.7
23183	2.2953	4.5455	0.1	5332.9
23184	2.2034	4.8182	0.1	5431.8
23185	2.2953	4.7273	0.1	5384.7
23186	2.2034	5.	0.1	5496.9
23187	2.2953	4.9091	0.1	5444.9
23188	2.2034	5.1818	0.1	5570.5
23189	2.2953	5.0909	0.1	5513.4
23190	2.2034	5.3636	0.1	5651.9
23191	2.2953	5.2727	0.1	5589.3
23192	2.2034	5.5455	0.1	5740.1
23193	2.2953	5.4545	0.1	5671.7
23194	2.2034	5.7273	0.1	5839.1
23195	2.2953	5.6364	0.1	5760.
23196	2.2953	5.8182	0.1	5862.2
23197	2.2034	5.9091	0.1	5894.9
23198	2.3871	0.27273	0.1	5782.9
23199	2.4789	0.18182	0.1	5800.1
23200	2.3871	9.0909e-002	0.1	5837.9
23201	2.3871	0.45455	0.1	5691.5
23202	2.4789	0.36364	0.1	5706.4
23203	2.3871	0.63636	0.1	5608.9
23204	2.4789	0.54545	0.1	5624.1
23205	2.3871	0.81818	0.1	5531.9
23206	2.4789	0.72727	0.1	5546.6
23207	2.3871	1.	0.1	5461.2
23208	2.4789	0.90909	0.1	5474.4
23209	2.3871	1.1818	0.1	5397.6
23210	2.4789	1.0909	0.1	5408.5
23211	2.3871	1.3636	0.1	5341.6
23212	2.4789	1.2727	0.1	5349.4
23213	2.3871	1.5455	0.1	5293.4
23214	2.4789	1.4545	0.1	5297.6
23215	2.3871	1.7273	0.1	5252.8
23216	2.4789	1.6364	0.1	5253.2
23217	2.3871	1.9091	0.1	5219.4
23218	2.4789	1.8182	0.1	5215.8
23219	2.3871	2.0909	0.1	5192.5
23220	2.4789	2.	0.1	5185.1
23221	2.3871	2.2727	0.1	5171.7
23222	2.4789	2.1818	0.1	5160.6
23223	2.3871	2.4545	0.1	5156.2
23224	2.4789	2.3636	0.1	5141.8
23225	2.3871	2.6364	0.1	5145.6
23226	2.4789	2.5455	0.1	5128.3
23227	2.3871	2.8182	0.1	5139.4
23228	2.4789	2.7273	0.1	5119.4
23229	2.3871	3.	0.1	5137.4
23230	2.4789	2.9091	0.1	5115.1
23231	2.3871	3.1818	0.1	5139.4
23232	2.4789	3.0909	0.1	5115.1
23233	2.3871	3.3636	0.1	5145.6
23234	2.4789	3.2727	0.1	5119.4
23235	2.3871	3.5455	0.1	5156.2
23236	2.4789	3.4545	0.1	5128.3
23237	2.3871	3.7273	0.1	5171.7
23238	2.4789	3.6364	0.1	5141.8
23239	2.3871	3.9091	0.1	5192.5
23240	2.4789	3.8182	0.1	5160.6
23241	2.3871	4.0909	0.1	5219.4
23242	2.4789	4.	0.1	5185.1
23243	2.3871	4.2727	0.1	5252.8
23244	2.4789	4.1818	0.1	5215.8
23245	2.3871	4.4545	0.1	5293.4
23246	2.4789	4.3636	0.1	5253.2
23247	2.3871	4.6364	0.1	5341.6
23248	2.4789	4.5455	0.1	5297.6
23249	2.3871	4.8182	0.1	5397.6
23250	2.4789	4.7273	0.1	5349.4
23251	2.3871	5.	0.1	5461.2
23252	2.4789	4.9091	0.1	5408.5
23253	2.3871	5.1818	0.1	5531.9
23254	2.4789	5.0909	0.1	5474.4
23255	2.3871	5.3636	0.1	5608.9
23256	2.4789	5.2727	0.1	5546.6
23257	2.3871	5.5455	0.1	5691.5
23258	2.4789	5.4545	0.1	5624.1
23259	2.3871	5.7273	0.1	5782.9
23260	2.4789	5.6364	0.1	5706.4
23261	2.4789	5.8182	0.1	5800.1
23262	2.3871	5.9091	0.1	5837.9
23263	2.5707	0.27273	0.1	5723.4
23264	2.6625	0.18182	0.1	5735.6
23265	2.5707	9.0909e-002	0.1	5777.2
23266	2.5707	0.45455	0.1	5638.9
23267	2.6625	0.36364	0.1	5649.5
23268	2.5707	0.63636	0.1	5561.6
23269	2.6625	0.54545	0.1	5572.9
23270	2.5707	0.81818	0.1	5489.
23271	2.6625	0.72727	0.1	5500.2
23272	2.5707	1.	0.1	5421.6
23273	2.6625	0.90909	0.1	5431.9
23274	2.5707	1.1818	0.1	5360.2
23275	2.6625	1.0909	0.1	5368.9
23276	2.5707	1.3636	0.1	5305.3
23277	2.6625	1.2727	0.1	5311.7
23278	2.5707	1.5455	0.1	5257.2
23279	2.6625	1.4545	0.1	5260.9
23280	2.5707	1.7273	0.1	5215.9
23281	2.6625	1.6364	0.1	5216.5
23282	2.5707	1.9091	0.1	5181.3
23283	2.6625	1.8182	0.1	5178.6
23284	2.5707	2.0909	0.1	5153.
23285	2.6625	2.	0.1	5146.9
23286	2.5707	2.2727	0.1	5130.6
23287	2.6625	2.1818	0.1	5121.3
23288	2.5707	2.4545	0.1	5113.7
23289	2.6625	2.3636	0.1	5101.4
23290	2.5707	2.6364	0.1	5102.
23291	2.6625	2.5455	0.1	5086.7
23292	2.5707	2.8182	0.1	5095.
23293	2.6625	2.7273	0.1	5077.2
23294	2.5707	3.	0.1	5092.7
23295	2.6625	2.9091	0.1	5072.4
23296	2.5707	3.1818	0.1	5095.
23297	2.6625	3.0909	0.1	5072.4
23298	2.5707	3.3636	0.1	5102.
23299	2.6625	3.2727	0.1	5077.2
23300	2.5707	3.5455	0.1	5113.7
23301	2.6625	3.4545	0.1	5086.7
23302	2.5707	3.7273	0.1	5130.6
23303	2.6625	3.6364	0.1	5101.4
23304	2.5707	3.9091	0.1	5153.
23305	2.6625	3.8182	0.1	5121.3
23306	2.5707	4.0909	0.1	5181.3
23307	2.6625	4.	0.1	5146.9
23308	2.5707	4.2727	0.1	5215.9
23309	2.6625	4.1818	0.1	5178.6
23310	2.5707	4.4545	0.1	5257.2
23311	2.6625	4.3636	0.1	5216.5
23312	2.5707	4.6364	0.1	5305.3
23313	2.6625	4.5455	0.1	5260.9
23314	2.5707	4.8182	0.1	5360.2
23315	2.6625	4.7273	0.1	5311.7
23316	2.5707	5.	0.1	5421.6
23317	2.6625	4.9091	0.1	5368.9
23318	2.5707	5.1818	0.1	5489.
23319	2.6625	5.0909	0.1	5431.9
23320	2.5707	5.3636	0.1	5561.6
23321	2.6625	5.2727	0.1	5500.2
23322	2.5707	5.5455	0.1	5638.9
23323	2.6625	5.4545	0.1	5572.9
23324	2.5707	5.7273	0.1	5723.4
23325	2.6625	5.6364	0.1	5649.5
23326	2.6625	5.8182	0.1	5735.6
23327	2.5707	5.9091	0.1	5777.2
23328	2.7543	0.27273	0.1	5661.6
23329	2.8461	0.18182	0.1	5669.5
23330	2.7543	9.0909e-002	0.1	5714.
23331	2.7543	0.45455	0.1	5583.4
23332	2.8461	0.36364	0.1	5590.5
23333	2.7543	0.63636	0.1	5511.3
23334	2.8461	0.54545	0.1	5519.
23335	2.7543	0.81818	0.1	5442.9
23336	2.8461	0.72727	0.1	5451.
23337	2.7543	1.	0.1	5379.
23338	2.8461	0.90909	0.1	5386.6
23339	2.7543	1.1818	0.1	5320.3
23340	2.8461	1.0909	0.1	5326.8
23341	2.7543	1.3636	0.1	5267.1
23342	2.8461	1.2727	0.1	5272.
23343	2.7543	1.5455	0.1	5220.
23344	2.8461	1.4545	0.1	5222.7
23345	2.7543	1.7273	0.1	5179.
23346	2.8461	1.6364	0.1	5179.2
23347	2.7543	1.9091	0.1	5144.1
23348	2.8461	1.8182	0.1	5141.5
23349	2.7543	2.0909	0.1	5115.1
23350	2.8461	2.	0.1	5109.8
23351	2.7543	2.2727	0.1	5092.
23352	2.8461	2.1818	0.1	5083.7
23353	2.7543	2.4545	0.1	5074.3
23354	2.8461	2.3636	0.1	5063.2
23355	2.7543	2.6364	0.1	5061.9
23356	2.8461	2.5455	0.1	5048.1
23357	2.7543	2.8182	0.1	5054.5
23358	2.8461	2.7273	0.1	5038.1
23359	2.7543	3.	0.1	5052.1
23360	2.8461	2.9091	0.1	5033.1
23361	2.7543	3.1818	0.1	5054.5
23362	2.8461	3.0909	0.1	5033.1
23363	2.7543	3.3636	0.1	5061.9
23364	2.8461	3.2727	0.1	5038.1
23365	2.7543	3.5455	0.1	5074.3
23366	2.8461	3.4545	0.1	5048.1
23367	2.7543	3.7273	0.1	5092.
23368	2.8461	3.6364	0.1	5063.2
23369	2.7543	3.9091	0.1	5115.1
23370	2.8461	3.8182	0.1	5083.7
23371	2.7543	4.0909	0.1	5144.1
23372	2.8461	4.	0.1	5109.8
23373	2.7543	4.2727	0.1	5179.
23374	2.8461	4.1818	0.1	5141.5
23375	2.7543	4.4545	0.1	5220.
23376	2.8461	4.3636	0.1	5179.2
23377	2.7543	4.6364	0.1	5267.1
23378	2.8461	4.5455	0.1	5222.7
23379	2.7543	4.8182	0.1	5320.3
23380	2.8461	4.7273	0.1	5272.
23381	2.7543	5.	0.1	5379.
23382	2.8461	4.9091	0.1	5326.8
23383	2.7543	5.1818	0.1	5442.9
23384	2.8461	5.0909	0.1	5386.6
23385	2.7543	5.3636	0.1	5511.3
23386	2.8461	5.2727	0.1	5451.
23387	2.7543	5.5455	0.1	5583.4
23388	2.8461	5.4545	0.1	5519.
23389	2.7543	5.7273	0.1	5661.6
23390	2.8461	5.6364	0.1	5590.5
23391	2.8461	5.8182	0.1	5669.5
23392	2.7543	5.9091	0.1	5714.
23393	2.9379	0.27273	0.1	5598.3
23394	3.0297	0.18182	0.1	5602.7
23395	2.9379	9.0909e-002	0.1	5649.1
23396	2.9379	0.45455	0.1	5526.
23397	3.0297	0.36364	0.1	5529.9
23398	2.9379	0.63636	0.1	5458.7
23399	3.0297	0.54545	0.1	5463.4
23400	2.9379	0.81818	0.1	5394.6
23401	3.0297	0.72727	0.1	5399.8
23402	2.9379	1.	0.1	5334.3
23403	3.0297	0.90909	0.1	5339.4
23404	2.9379	1.1818	0.1	5278.4
23405	3.0297	1.0909	0.1	5282.8
23406	2.9379	1.3636	0.1	5227.4
23407	3.0297	1.2727	0.1	5230.6
23408	2.9379	1.5455	0.1	5181.8
23409	3.0297	1.4545	0.1	5183.3
23410	2.9379	1.7273	0.1	5141.7
23411	3.0297	1.6364	0.1	5141.2
23412	2.9379	1.9091	0.1	5107.2
23413	3.0297	1.8182	0.1	5104.4
23414	2.9379	2.0909	0.1	5078.3
23415	3.0297	2.	0.1	5073.1
23416	2.9379	2.2727	0.1	5054.9
23417	3.0297	2.1818	0.1	5047.2
23418	2.9379	2.4545	0.1	5037.
23419	3.0297	2.3636	0.1	5026.6
23420	2.9379	2.6364	0.1	5024.2
23421	3.0297	2.5455	0.1	5011.4
23422	2.9379	2.8182	0.1	5016.7
23423	3.0297	2.7273	0.1	5001.2
23424	2.9379	3.	0.1	5014.2
23425	3.0297	2.9091	0.1	4996.2
23426	2.9379	3.1818	0.1	5016.7
23427	3.0297	3.0909	0.1	4996.2
23428	2.9379	3.3636	0.1	5024.2
23429	3.0297	3.2727	0.1	5001.2
23430	2.9379	3.5455	0.1	5037.
23431	3.0297	3.4545	0.1	5011.4
23432	2.9379	3.7273	0.1	5054.9
23433	3.0297	3.6364	0.1	5026.6
23434	2.9379	3.9091	0.1	5078.3
23435	3.0297	3.8182	0.1	5047.2
23436	2.9379	4.0909	0.1	5107.2
23437	3.0297	4.	0.1	5073.1
23438	2.9379	4.2727	0.1	5141.7
23439	3.0297	4.1818	0.1	5104.4
23440	2.9379	4.4545	0.1	5181.8
23441	3.0297	4.3636	0.1	5141.2
23442	2.9379	4.6364	0.1	5227.4
23443	3.0297	4.5455	0.1	5183.3
23444	2.9379	4.8182	0.1	5278.4
23445	3.0297	4.7273	0.1	5230.6
23446	2.9379	5.	0.1	5334.3
23447	3.0297	4.9091	0.1	5282.8
23448	2.9379	5.1818	0.1	5394.6
23449	3.0297	5.0909	0.1	5339.4
23450	2.9379	5.3636	0.1	5458.7
23451	3.0297	5.2727	0.1	5399.8
23452	2.9379	5.5455	0.1	5526.
23453	3.0297	5.4545	0.1	5463.4
23454	2.9379	5.7273	0.1	5598.3
23455	3.0297	5.6364	0.1	5529.9
23456	3.0297	5.8182	0.1	5602.7
23457	2.9379	5.9091	0.1	5649.1
23458	3.1216	0.27273	0.1	5534.3
23459	3.2134	0.18182	0.1	5535.6
23460	3.1216	9.0909e-002	0.1	5583.2
23461	3.1216	0.45455	0.1	5467.3
23462	3.2134	0.36364	0.1	5468.5
23463	3.1216	0.63636	0.1	5404.5
23464	3.2134	0.54545	0.1	5406.7
23465	3.1216	0.81818	0.1	5344.5
23466	3.2134	0.72727	0.1	5347.3
23467	3.1216	1.	0.1	5287.8
23468	3.2134	0.90909	0.1	5290.6
23469	3.1216	1.1818	0.1	5235.
23470	3.2134	1.0909	0.1	5237.4
23471	3.1216	1.3636	0.1	5186.4
23472	3.2134	1.2727	0.1	5188.
23473	3.1216	1.5455	0.1	5142.7
23474	3.2134	1.4545	0.1	5142.9
23475	3.1216	1.7273	0.1	5103.9
23476	3.2134	1.6364	0.1	5102.5
23477	3.1216	1.9091	0.1	5070.3
23478	3.2134	1.8182	0.1	5067.
23479	3.1216	2.0909	0.1	5041.9
23480	3.2134	2.	0.1	5036.5
23481	3.1216	2.2727	0.1	5018.9
23482	3.2134	2.1818	0.1	5011.2
23483	3.1216	2.4545	0.1	5001.
23484	3.2134	2.3636	0.1	4991.
23485	3.1216	2.6364	0.1	4988.3
23486	3.2134	2.5455	0.1	4975.9
23487	3.1216	2.8182	0.1	4980.7
23488	3.2134	2.7273	0.1	4965.8
23489	3.1216	3.	0.1	4978.2
23490	3.2134	2.9091	0.1	4960.8
23491	3.1216	3.1818	0.1	4980.7
23492	3.2134	3.0909	0.1	4960.8
23493	3.1216	3.3636	0.1	4988.3
23494	3.2134	3.2727	0.1	4965.8
23495	3.1216	3.5455	0.1	5001.
23496	3.2134	3.4545	0.1	4975.9
23497	3.1216	3.7273	0.1	5018.9
23498	3.2134	3.6364	0.1	4991.
23499	3.1216	3.9091	0.1	5041.9
23500	3.2134	3.8182	0.1	5011.2
23501	3.1216	4.0909	0.1	5070.3
23502	3.2134	4.	0.1	5036.6
23503	3.1216	4.2727	0.1	5103.9
23504	3.2134	4.1818	0.1	5067.
23505	3.1216	4.4545	0.1	5142.7
23506	3.2134	4.3636	0.1	5102.5
23507	3.1216	4.6364	0.1	5186.4
23508	3.2134	4.5455	0.1	5142.9
23509	3.1216	4.8182	0.1	5235.
23510	3.2134	4.7273	0.1	5188.
23511	3.1216	5.	0.1	5287.8
23512	3.2134	4.9091	0.1	5237.4
23513	3.1216	5.1818	0.1	5344.5
23514	3.2134	5.0909	0.1	5290.6
23515	3.1216	5.3636	0.1	5404.5
23516	3.2134	5.2727	0.1	5347.3
23517	3.1216	5.5455	0.1	5467.3
23518	3.2134	5.4545	0.1	5406.7
23519	3.1216	5.7273	0.1	5534.3
23520	3.2134	5.6364	0.1	5468.5
23521	3.2134	5.8182	0.1	5535.6
23522	3.1216	5.9091	0.1	5583.2
23523	3.3052	0.27273	0.1	5469.8
23524	3.397	0.18182	0.1	5468.5
23525	3.3052	9.0909e-002	0.1	5516.8
23526	3.3052	0.45455	0.1	5407.8
23527	3.397	0.36364	0.1	5406.7
23528	3.3052	0.63636	0.1	5349.3
23529	3.397	0.54545	0.1	5349.1
23530	3.3052	0.81818	0.1	5293.3
23531	3.397	0.72727	0.1	5293.7
23532	3.3052	1.	0.1	5240.1
23533	3.397	0.90909	0.1	5240.8
23534	3.3052	1.1818	0.1	5190.3
23535	3.397	1.0909	0.1	5190.8
23536	3.3052	1.3636	0.1	5144.4
23537	3.397	1.2727	0.1	5144.2
23538	3.3052	1.5455	0.1	5102.7
23539	3.397	1.4545	0.1	5101.6
23540	3.3052	1.7273	0.1	5065.6
23541	3.397	1.6364	0.1	5063.1
23542	3.3052	1.9091	0.1	5033.2
23543	3.397	1.8182	0.1	5029.2
23544	3.3052	2.0909	0.1	5005.8
23545	3.397	2.	0.1	4999.9
23546	3.3052	2.2727	0.1	4983.3
23547	3.397	2.1818	0.1	4975.4
23548	3.3052	2.4545	0.1	4965.8
23549	3.397	2.3636	0.1	4955.7
23550	3.3052	2.6364	0.1	4953.3
23551	3.397	2.5455	0.1	4941.
23552	3.3052	2.8182	0.1	4945.9
23553	3.397	2.7273	0.1	4931.2
23554	3.3052	3.	0.1	4943.4
23555	3.397	2.9091	0.1	4926.3
23556	3.3052	3.1818	0.1	4945.9
23557	3.397	3.0909	0.1	4926.3
23558	3.3052	3.3636	0.1	4953.3
23559	3.397	3.2727	0.1	4931.2
23560	3.3052	3.5455	0.1	4965.8
23561	3.397	3.4545	0.1	4941.
23562	3.3052	3.7273	0.1	4983.3
23563	3.397	3.6364	0.1	4955.7
23564	3.3052	3.9091	0.1	5005.8
23565	3.397	3.8182	0.1	4975.4
23566	3.3052	4.0909	0.1	5033.2
23567	3.397	4.	0.1	4999.9
23568	3.3052	4.2727	0.1	5065.6
23569	3.397	4.1818	0.1	5029.2
23570	3.3052	4.4545	0.1	5102.7
23571	3.397	4.3636	0.1	5063.1
23572	3.3052	4.6364	0.1	5144.4
23573	3.397	4.5455	0.1	5101.6
23574	3.3052	4.8182	0.1	5190.3
23575	3.397	4.7273	0.1	5144.2
23576	3.3052	5.	0.1	5240.1
23577	3.397	4.9091	0.1	5190.8
23578	3.3052	5.1818	0.1	5293.3
23579	3.397	5.0909	0.1	5240.8
23580	3.3052	5.3636	0.1	5349.3
23581	3.397	5.2727	0.1	5293.7
23582	3.3052	5.5455	0.1	5407.8
23583	3.397	5.4545	0.1	5349.1
23584	3.3052	5.7273	0.1	5469.8
23585	3.397	5.6364	0.1	5406.7
23586	3.397	5.8182	0.1	5468.5
23587	3.3052	5.9091	0.1	5516.8
23588	3.4888	0.27273	0.1	5405.3
23589	3.5806	0.18182	0.1	5401.7
23590	3.4888	9.0909e-002	0.1	5450.3
23591	3.4888	0.45455	0.1	5347.9
23592	3.5806	0.36364	0.1	5344.7
23593	3.4888	0.63636	0.1	5293.5
23594	3.5806	0.54545	0.1	5291.2
23595	3.4888	0.81818	0.1	5241.2
23596	3.5806	0.72727	0.1	5239.6
23597	3.4888	1.	0.1	5191.4
23598	3.5806	0.90909	0.1	5190.1
23599	3.4888	1.1818	0.1	5144.7
23600	3.5806	1.0909	0.1	5143.3
23601	3.4888	1.3636	0.1	5101.4
23602	3.5806	1.2727	0.1	5099.6
23603	3.4888	1.5455	0.1	5062.
23604	3.5806	1.4545	0.1	5059.4
23605	3.4888	1.7273	0.1	5026.7
23606	3.5806	1.6364	0.1	5023.
23607	3.4888	1.9091	0.1	4995.8
23608	3.5806	1.8182	0.1	4990.8
23609	3.4888	2.0909	0.1	4969.4
23610	3.5806	2.	0.1	4962.8
23611	3.4888	2.2727	0.1	4947.8
23612	3.5806	2.1818	0.1	4939.4
23613	3.4888	2.4545	0.1	4930.9
23614	3.5806	2.3636	0.1	4920.5
23615	3.4888	2.6364	0.1	4918.8
23616	3.5806	2.5455	0.1	4906.3
23617	3.4888	2.8182	0.1	4911.6
23618	3.5806	2.7273	0.1	4896.9
23619	3.4888	3.	0.1	4909.1
23620	3.5806	2.9091	0.1	4892.1
23621	3.4888	3.1818	0.1	4911.6
23622	3.5806	3.0909	0.1	4892.1
23623	3.4888	3.3636	0.1	4918.8
23624	3.5806	3.2727	0.1	4896.9
23625	3.4888	3.5455	0.1	4930.9
23626	3.5806	3.4545	0.1	4906.3
23627	3.4888	3.7273	0.1	4947.8
23628	3.5806	3.6364	0.1	4920.5
23629	3.4888	3.9091	0.1	4969.4
23630	3.5806	3.8182	0.1	4939.4
23631	3.4888	4.0909	0.1	4995.8
23632	3.5806	4.	0.1	4962.8
23633	3.4888	4.2727	0.1	5026.7
23634	3.5806	4.1818	0.1	4990.8
23635	3.4888	4.4545	0.1	5062.
23636	3.5806	4.3636	0.1	5023.
23637	3.4888	4.6364	0.1	5101.4
23638	3.5806	4.5455	0.1	5059.4
23639	3.4888	4.8182	0.1	5144.7
23640	3.5806	4.7273	0.1	5099.6
23641	3.4888	5.	0.1	5191.4
23642	3.5806	4.9091	0.1	5143.3
23643	3.4888	5.1818	0.1	5241.2
23644	3.5806	5.0909	0.1	5190.1
23645	3.4888	5.3636	0.1	5293.5
23646	3.5806	5.2727	0.1	5239.6
23647	3.4888	5.5455	0.1	5347.9
23648	3.5806	5.4545	0.1	5291.2
23649	3.4888	5.7273	0.1	5405.3
23650	3.5806	5.6364	0.1	5344.7
23651	3.5806	5.8182	0.1	5401.7
23652	3.4888	5.9091	0.1	5450.3
23653	3.6724	0.27273	0.1	5341.
23654	3.7642	0.18182	0.1	5335.3
23655	3.6724	9.0909e-002	0.1	5383.9
23656	3.6724	0.45455	0.1	5287.9
23657	3.7642	0.36364	0.1	5282.7
23658	3.6724	0.63636	0.1	5237.2
23659	3.7642	0.54545	0.1	5233.
23660	3.6724	0.81818	0.1	5188.5
23661	3.7642	0.72727	0.1	5185.
23662	3.6724	1.	0.1	5142.
23663	3.7642	0.90909	0.1	5138.9
23664	3.6724	1.1818	0.1	5098.2
23665	3.7642	1.0909	0.1	5095.2
23666	3.6724	1.3636	0.1	5057.6
23667	3.7642	1.2727	0.1	5054.2
23668	3.6724	1.5455	0.1	5020.5
23669	3.7642	1.4545	0.1	5016.5
23670	3.6724	1.7273	0.1	4987.1
23671	3.7642	1.6364	0.1	4982.3
23672	3.6724	1.9091	0.1	4957.8
23673	3.7642	1.8182	0.1	4951.8
23674	3.6724	2.0909	0.1	4932.8
23675	3.7642	2.	0.1	4925.3
23676	3.6724	2.2727	0.1	4912.1
23677	3.7642	2.1818	0.1	4903.
23678	3.6724	2.4545	0.1	4895.9
23679	3.7642	2.3636	0.1	4885.1
23680	3.6724	2.6364	0.1	4884.4
23681	3.7642	2.5455	0.1	4871.5
23682	3.6724	2.8182	0.1	4877.4
23683	3.7642	2.7273	0.1	4862.5
23684	3.6724	3.	0.1	4875.1
23685	3.7642	2.9091	0.1	4857.9
23686	3.6724	3.1818	0.1	4877.4
23687	3.7642	3.0909	0.1	4857.9
23688	3.6724	3.3636	0.1	4884.4
23689	3.7642	3.2727	0.1	4862.5
23690	3.6724	3.5455	0.1	4895.9
23691	3.7642	3.4545	0.1	4871.5
23692	3.6724	3.7273	0.1	4912.1
23693	3.7642	3.6364	0.1	4885.1
23694	3.6724	3.9091	0.1	4932.8
23695	3.7642	3.8182	0.1	4903.
23696	3.6724	4.0909	0.1	4957.8
23697	3.7642	4.	0.1	4925.3
23698	3.6724	4.2727	0.1	4987.1
23699	3.7642	4.1818	0.1	4951.8
23700	3.6724	4.4545	0.1	5020.5
23701	3.7642	4.3636	0.1	4982.3
23702	3.6724	4.6364	0.1	5057.6
23703	3.7642	4.5455	0.1	5016.5
23704	3.6724	4.8182	0.1	5098.2
23705	3.7642	4.7273	0.1	5054.2
23706	3.6724	5.	0.1	5142.
23707	3.7642	4.9091	0.1	5095.2
23708	3.6724	5.1818	0.1	5188.5
23709	3.7642	5.0909	0.1	5138.9
23710	3.6724	5.3636	0.1	5237.2
23711	3.7642	5.2727	0.1	5185.
23712	3.6724	5.5455	0.1	5287.9
23713	3.7642	5.4545	0.1	5233.
23714	3.6724	5.7273	0.1	5341.
23715	3.7642	5.6364	0.1	5282.7
23716	3.7642	5.8182	0.1	5335.3
23717	3.6724	5.9091	0.1	5383.9
23718	3.856	0.27273	0.1	5277.
23719	3.9478	0.18182	0.1	5269.5
23720	3.856	9.0909e-002	0.1	5317.7
23721	3.856	0.45455	0.1	5227.8
23722	3.9478	0.36364	0.1	5221.
23723	3.856	0.63636	0.1	5180.7
23724	3.9478	0.54545	0.1	5174.8
23725	3.856	0.81818	0.1	5135.3
23726	3.9478	0.72727	0.1	5130.1
23727	3.856	1.	0.1	5092.
23728	3.9478	0.90909	0.1	5087.2
23729	3.856	1.1818	0.1	5051.2
23730	3.9478	1.0909	0.1	5046.5
23731	3.856	1.3636	0.1	5013.1
23732	3.9478	1.2727	0.1	5008.2
23733	3.856	1.5455	0.1	4978.3
23734	3.9478	1.4545	0.1	4972.9
23735	3.856	1.7273	0.1	4946.9
23736	3.9478	1.6364	0.1	4940.8
23737	3.856	1.9091	0.1	4919.3
23738	3.9478	1.8182	0.1	4912.1
23739	3.856	2.0909	0.1	4895.6
23740	3.9478	2.	0.1	4887.2
23741	3.856	2.2727	0.1	4876.
23742	3.9478	2.1818	0.1	4866.2
23743	3.856	2.4545	0.1	4860.7
23744	3.9478	2.3636	0.1	4849.2
23745	3.856	2.6364	0.1	4849.6
23746	3.9478	2.5455	0.1	4836.3
23747	3.856	2.8182	0.1	4843.
23748	3.9478	2.7273	0.1	4827.7
23749	3.856	3.	0.1	4840.8
23750	3.9478	2.9091	0.1	4823.4
23751	3.856	3.1818	0.1	4843.
23752	3.9478	3.0909	0.1	4823.4
23753	3.856	3.3636	0.1	4849.6
23754	3.9478	3.2727	0.1	4827.7
23755	3.856	3.5455	0.1	4860.7
23756	3.9478	3.4545	0.1	4836.3
23757	3.856	3.7273	0.1	4876.
23758	3.9478	3.6364	0.1	4849.2
23759	3.856	3.9091	0.1	4895.6
23760	3.9478	3.8182	0.1	4866.2
23761	3.856	4.0909	0.1	4919.3
23762	3.9478	4.	0.1	4887.2
23763	3.856	4.2727	0.1	4946.9
23764	3.9478	4.1818	0.1	4912.1
23765	3.856	4.4545	0.1	4978.3
23766	3.9478	4.3636	0.1	4940.8
23767	3.856	4.6364	0.1	5013.1
23768	3.9478	4.5455	0.1	4972.9
23769	3.856	4.8182	0.1	5051.2
23770	3.9478	4.7273	0.1	5008.2
23771	3.856	5.	0.1	5092.
23772	3.9478	4.9091	0.1	5046.5
23773	3.856	5.1818	0.1	5135.3
23774	3.9478	5.0909	0.1	5087.2
23775	3.856	5.3636	0.1	5180.7
23776	3.9478	5.2727	0.1	5130.1
23777	3.856	5.5455	0.1	5227.8
23778	3.9478	5.4545	0.1	5174.8
23779	3.856	5.7273	0.1	5277.
23780	3.9478	5.6364	0.1	5221.
23781	3.9478	5.8182	0.1	5269.5
23782	3.856	5.9091	0.1	5317.7
23783	4.0397	0.27273	0.1	5213.5
23784	4.1315	0.18182	0.1	5204.4
23785	4.0397	9.0909e-002	0.1	5252.
23786	4.0397	0.45455	0.1	5167.9
23787	4.1315	0.36364	0.1	5159.5
23788	4.0397	0.63636	0.1	5124.2
23789	4.1315	0.54545	0.1	5116.6
23790	4.0397	0.81818	0.1	5082.
23791	4.1315	0.72727	0.1	5075.1
23792	4.0397	1.	0.1	5041.6
23793	4.1315	0.90909	0.1	5035.2
23794	4.0397	1.1818	0.1	5003.5
23795	4.1315	1.0909	0.1	4997.3
23796	4.0397	1.3636	0.1	4968.
23797	4.1315	1.2727	0.1	4961.7
23798	4.0397	1.5455	0.1	4935.4
23799	4.1315	1.4545	0.1	4928.7
23800	4.0397	1.7273	0.1	4906.
23801	4.1315	1.6364	0.1	4898.7
23802	4.0397	1.9091	0.1	4880.1
23803	4.1315	1.8182	0.1	4871.8
23804	4.0397	2.0909	0.1	4857.8
23805	4.1315	2.	0.1	4848.4
23806	4.0397	2.2727	0.1	4839.3
23807	4.1315	2.1818	0.1	4828.7
23808	4.0397	2.4545	0.1	4824.9
23809	4.1315	2.3636	0.1	4812.7
23810	4.0397	2.6364	0.1	4814.4
23811	4.1315	2.5455	0.1	4800.6
23812	4.0397	2.8182	0.1	4808.2
23813	4.1315	2.7273	0.1	4792.5
23814	4.0397	3.	0.1	4806.1
23815	4.1315	2.9091	0.1	4788.4
23816	4.0397	3.1818	0.1	4808.2
23817	4.1315	3.0909	0.1	4788.4
23818	4.0397	3.3636	0.1	4814.4
23819	4.1315	3.2727	0.1	4792.5
23820	4.0397	3.5455	0.1	4824.9
23821	4.1315	3.4545	0.1	4800.6
23822	4.0397	3.7273	0.1	4839.3
23823	4.1315	3.6364	0.1	4812.7
23824	4.0397	3.9091	0.1	4857.8
23825	4.1315	3.8182	0.1	4828.7
23826	4.0397	4.0909	0.1	4880.1
23827	4.1315	4.	0.1	4848.4
23828	4.0397	4.2727	0.1	4906.
23829	4.1315	4.1818	0.1	4871.8
23830	4.0397	4.4545	0.1	4935.4
23831	4.1315	4.3636	0.1	4898.7
23832	4.0397	4.6364	0.1	4968.
23833	4.1315	4.5455	0.1	4928.7
23834	4.0397	4.8182	0.1	5003.5
23835	4.1315	4.7273	0.1	4961.7
23836	4.0397	5.	0.1	5041.6
23837	4.1315	4.9091	0.1	4997.3
23838	4.0397	5.1818	0.1	5082.
23839	4.1315	5.0909	0.1	5035.2
23840	4.0397	5.3636	0.1	5124.2
23841	4.1315	5.2727	0.1	5075.1
23842	4.0397	5.5455	0.1	5167.9
23843	4.1315	5.4545	0.1	5116.6
23844	4.0397	5.7273	0.1	5213.5
23845	4.1315	5.6364	0.1	5159.5
23846	4.1315	5.8182	0.1	5204.4
23847	4.0397	5.9091	0.1	5252.
23848	4.2233	0.27273	0.1	5150.4
23849	4.3151	0.18182	0.1	5139.9
23850	4.2233	9.0909e-002	0.1	5186.7
23851	4.2233	0.45455	0.1	5108.2
23852	4.3151	0.36364	0.1	5098.4
23853	4.2233	0.63636	0.1	5067.6
23854	4.3151	0.54545	0.1	5058.7
23855	4.2233	0.81818	0.1	5028.4
23856	4.3151	0.72727	0.1	5020.1
23857	4.2233	1.	0.1	4990.9
23858	4.3151	0.90909	0.1	4983.
23859	4.2233	1.1818	0.1	4955.4
23860	4.3151	1.0909	0.1	4947.8
23861	4.2233	1.3636	0.1	4922.3
23862	4.3151	1.2727	0.1	4914.6
23863	4.2233	1.5455	0.1	4891.9
23864	4.3151	1.4545	0.1	4883.9
23865	4.2233	1.7273	0.1	4864.5
23866	4.3151	1.6364	0.1	4855.9
23867	4.2233	1.9091	0.1	4840.2
23868	4.3151	1.8182	0.1	4830.8
23869	4.2233	2.0909	0.1	4819.3
23870	4.3151	2.	0.1	4808.9
23871	4.2233	2.2727	0.1	4802.
23872	4.3151	2.1818	0.1	4790.4
23873	4.2233	2.4545	0.1	4788.4
23874	4.3151	2.3636	0.1	4775.4
23875	4.2233	2.6364	0.1	4778.6
23876	4.3151	2.5455	0.1	4764.1
23877	4.2233	2.8182	0.1	4772.7
23878	4.3151	2.7273	0.1	4756.5
23879	4.2233	3.	0.1	4770.7
23880	4.3151	2.9091	0.1	4752.7
23881	4.2233	3.1818	0.1	4772.7
23882	4.3151	3.0909	0.1	4752.7
23883	4.2233	3.3636	0.1	4778.6
23884	4.3151	3.2727	0.1	4756.5
23885	4.2233	3.5455	0.1	4788.4
23886	4.3151	3.4545	0.1	4764.1
23887	4.2233	3.7273	0.1	4802.
23888	4.3151	3.6364	0.1	4775.4
23889	4.2233	3.9091	0.1	4819.3
23890	4.3151	3.8182	0.1	4790.4
23891	4.2233	4.0909	0.1	4840.2
23892	4.3151	4.	0.1	4808.9
23893	4.2233	4.2727	0.1	4864.5
23894	4.3151	4.1818	0.1	4830.8
23895	4.2233	4.4545	0.1	4891.9
23896	4.3151	4.3636	0.1	4855.9
23897	4.2233	4.6364	0.1	4922.3
23898	4.3151	4.5455	0.1	4883.9
23899	4.2233	4.8182	0.1	4955.4
23900	4.3151	4.7273	0.1	4914.6
23901	4.2233	5.	0.1	4990.9
23902	4.3151	4.9091	0.1	4947.8
23903	4.2233	5.1818	0.1	5028.4
23904	4.3151	5.0909	0.1	4983.
23905	4.2233	5.3636	0.1	5067.6
23906	4.3151	5.2727	0.1	5020.1
23907	4.2233	5.5455	0.1	5108.2
23908	4.3151	5.4545	0.1	5058.7
23909	4.2233	5.7273	0.1	5150.4
23910	4.3151	5.6364	0.1	5098.4
23911	4.3151	5.8182	0.1	5139.9
23912	4.2233	5.9091	0.1	5186.7
23913	4.4069	0.27273	0.1	5087.9
23914	4.4987	0.18182	0.1	5076.1
23915	4.4069	9.0909e-002	0.1	5122.1
23916	4.4069	0.45455	0.1	5048.8
23917	4.4987	0.36364	0.1	5037.8
23918	4.4069	0.63636	0.1	5011.1
23919	4.4987	0.54545	0.1	5000.9
23920	4.4069	0.81818	0.1	4974.7
23921	4.4987	0.72727	0.1	4965.1
23922	4.4069	1.	0.1	4939.9
23923	4.4987	0.90909	0.1	4930.7
23924	4.4069	1.1818	0.1	4906.9
23925	4.4987	1.0909	0.1	4897.9
23926	4.4069	1.3636	0.1	4876.2
23927	4.4987	1.2727	0.1	4867.1
23928	4.4069	1.5455	0.1	4847.8
23929	4.4987	1.4545	0.1	4838.5
23930	4.4069	1.7273	0.1	4822.2
23931	4.4987	1.6364	0.1	4812.5
23932	4.4069	1.9091	0.1	4799.6
23933	4.4987	1.8182	0.1	4789.1
23934	4.4069	2.0909	0.1	4780.1
23935	4.4987	2.	0.1	4768.7
23936	4.4069	2.2727	0.1	4763.9
23937	4.4987	2.1818	0.1	4751.4
23938	4.4069	2.4545	0.1	4751.2
23939	4.4987	2.3636	0.1	4737.4
23940	4.4069	2.6364	0.1	4742.
23941	4.4987	2.5455	0.1	4726.8
23942	4.4069	2.8182	0.1	4736.5
23943	4.4987	2.7273	0.1	4719.7
23944	4.4069	3.	0.1	4734.6
23945	4.4987	2.9091	0.1	4716.2
23946	4.4069	3.1818	0.1	4736.5
23947	4.4987	3.0909	0.1	4716.2
23948	4.4069	3.3636	0.1	4742.
23949	4.4987	3.2727	0.1	4719.7
23950	4.4069	3.5455	0.1	4751.2
23951	4.4987	3.4545	0.1	4726.8
23952	4.4069	3.7273	0.1	4763.9
23953	4.4987	3.6364	0.1	4737.4
23954	4.4069	3.9091	0.1	4780.1
23955	4.4987	3.8182	0.1	4751.4
23956	4.4069	4.0909	0.1	4799.6
23957	4.4987	4.	0.1	4768.7
23958	4.4069	4.2727	0.1	4822.2
23959	4.4987	4.1818	0.1	4789.1
23960	4.4069	4.4545	0.1	4847.8
23961	4.4987	4.3636	0.1	4812.5
23962	4.4069	4.6364	0.1	4876.2
23963	4.4987	4.5455	0.1	4838.5
23964	4.4069	4.8182	0.1	4906.9
23965	4.4987	4.7273	0.1	4867.1
23966	4.4069	5.	0.1	4939.9
23967	4.4987	4.9091	0.1	4897.9
23968	4.4069	5.1818	0.1	4974.7
23969	4.4987	5.0909	0.1	4930.7
23970	4.4069	5.3636	0.1	5011.1
23971	4.4987	5.2727	0.1	4965.1
23972	4.4069	5.5455	0.1	5048.8
23973	4.4987	5.4545	0.1	5000.9
23974	4.4069	5.7273	0.1	5087.9
23975	4.4987	5.6364	0.1	5037.8
23976	4.4987	5.8182	0.1	5076.1
23977	4.4069	5.9091	0.1	5122.1
23978	4.5905	0.27273	0.1	5026.
23979	4.6823	0.18182	0.1	5013.
23980	4.5905	9.0909e-002	0.1	5058.
23981	4.5905	0.45455	0.1	4989.8
23982	4.6823	0.36364	0.1	4977.6
23983	4.5905	0.63636	0.1	4954.8
23984	4.6823	0.54545	0.1	4943.3
23985	4.5905	0.81818	0.1	4921.
23986	4.6823	0.72727	0.1	4910.1
23987	4.5905	1.	0.1	4888.7
23988	4.6823	0.90909	0.1	4878.2
23989	4.5905	1.1818	0.1	4858.1
23990	4.6823	1.0909	0.1	4847.8
23991	4.5905	1.3636	0.1	4829.5
23992	4.6823	1.2727	0.1	4819.2
23993	4.5905	1.5455	0.1	4803.2
23994	4.6823	1.4545	0.1	4792.7
23995	4.5905	1.7273	0.1	4779.4
23996	4.6823	1.6364	0.1	4768.4
23997	4.5905	1.9091	0.1	4758.3
23998	4.6823	1.8182	0.1	4746.7
23999	4.5905	2.0909	0.1	4740.1
24000	4.6823	2.	0.1	4727.8
24001	4.5905	2.2727	0.1	4725.
24002	4.6823	2.1818	0.1	4711.7
24003	4.5905	2.4545	0.1	4713.1
24004	4.6823	2.3636	0.1	4698.6
24005	4.5905	2.6364	0.1	4704.6
24006	4.6823	2.5455	0.1	4688.8
24007	4.5905	2.8182	0.1	4699.4
24008	4.6823	2.7273	0.1	4682.1
24009	4.5905	3.	0.1	4697.7
24010	4.6823	2.9091	0.1	4678.8
24011	4.5905	3.1818	0.1	4699.4
24012	4.6823	3.0909	0.1	4678.8
24013	4.5905	3.3636	0.1	4704.6
24014	4.6823	3.2727	0.1	4682.1
24015	4.5905	3.5455	0.1	4713.1
24016	4.6823	3.4545	0.1	4688.8
24017	4.5905	3.7273	0.1	4725.
24018	4.6823	3.6364	0.1	4698.6
24019	4.5905	3.9091	0.1	4740.1
24020	4.6823	3.8182	0.1	4711.7
24021	4.5905	4.0909	0.1	4758.3
24022	4.6823	4.	0.1	4727.8
24023	4.5905	4.2727	0.1	4779.4
24024	4.6823	4.1818	0.1	4746.7
24025	4.5905	4.4545	0.1	4803.2
24026	4.6823	4.3636	0.1	4768.4
24027	4.5905	4.6364	0.1	4829.5
24028	4.6823	4.5455	0.1	4792.7
24029	4.5905	4.8182	0.1	4858.1
24030	4.6823	4.7273	0.1	4819.2
24031	4.5905	5.	0.1	4888.7
24032	4.6823	4.9091	0.1	4847.8
24033	4.5905	5.1818	0.1	4921.
24034	4.6823	5.0909	0.1	4878.2
24035	4.5905	5.3636	0.1	4954.8
24036	4.6823	5.2727	0.1	4910.1
24037	4.5905	5.5455	0.1	4989.8
24038	4.6823	5.4545	0.1	4943.3
24039	4.5905	5.7273	0.1	5026.
24040	4.6823	5.6364	0.1	4977.6
24041	4.6823	5.8182	0.1	5013.
24042	4.5905	5.9091	0.1	5058.
24043	4.7741	0.27273	0.1	4964.6
24044	4.8659	0.18182	0.1	4950.5
24045	4.7741	9.0909e-002	0.1	4994.5
24046	4.7741	0.45455	0.1	4931.1
24047	4.8659	0.36364	0.1	4917.8
24048	4.7741	0.63636	0.1	4898.6
24049	4.8659	0.54545	0.1	4886.
24050	4.7741	0.81818	0.1	4867.3
24051	4.8659	0.72727	0.1	4855.3
24052	4.7741	1.	0.1	4837.3
24053	4.8659	0.90909	0.1	4825.7
24054	4.7741	1.1818	0.1	4808.9
24055	4.8659	1.0909	0.1	4797.5
24056	4.7741	1.3636	0.1	4782.4
24057	4.8659	1.2727	0.1	4770.9
24058	4.7741	1.5455	0.1	4758.
24059	4.8659	1.4545	0.1	4746.3
24060	4.7741	1.7273	0.1	4735.8
24061	4.8659	1.6364	0.1	4723.8
24062	4.7741	1.9091	0.1	4716.2
24063	4.8659	1.8182	0.1	4703.7
24064	4.7741	2.0909	0.1	4699.3
24065	4.8659	2.	0.1	4686.1
24066	4.7741	2.2727	0.1	4685.3
24067	4.8659	2.1818	0.1	4671.1
24068	4.7741	2.4545	0.1	4674.3
24069	4.8659	2.3636	0.1	4659.
24070	4.7741	2.6364	0.1	4666.3
24071	4.8659	2.5455	0.1	4649.8
24072	4.7741	2.8182	0.1	4661.5
24073	4.8659	2.7273	0.1	4643.6
24074	4.7741	3.	0.1	4659.9
24075	4.8659	2.9091	0.1	4640.5
24076	4.7741	3.1818	0.1	4661.5
24077	4.8659	3.0909	0.1	4640.5
24078	4.7741	3.3636	0.1	4666.3
24079	4.8659	3.2727	0.1	4643.6
24080	4.7741	3.5455	0.1	4674.3
24081	4.8659	3.4545	0.1	4649.8
24082	4.7741	3.7273	0.1	4685.3
24083	4.8659	3.6364	0.1	4659.
24084	4.7741	3.9091	0.1	4699.3
24085	4.8659	3.8182	0.1	4671.1
24086	4.7741	4.0909	0.1	4716.2
24087	4.8659	4.	0.1	4686.1
24088	4.7741	4.2727	0.1	4735.8
24089	4.8659	4.1818	0.1	4703.7
24090	4.7741	4.4545	0.1	4758.
24091	4.8659	4.3636	0.1	4723.8
24092	4.7741	4.6364	0.1	4782.4
24093	4.8659	4.5455	0.1	4746.3
24094	4.7741	4.8182	0.1	4808.9
24095	4.8659	4.7273	0.1	4770.9
24096	4.7741	5.	0.1	4837.3
24097	4.8659	4.9091	0.1	4797.5
24098	4.7741	5.1818	0.1	4867.3
24099	4.8659	5.0909	0.1	4825.7
24100	4.7741	5.3636	0.1	4898.6
24101	4.8659	5.2727	0.1	4855.3
24102	4.7741	5.5455	0.1	4931.1
24103	4.8659	5.4545	0.1	4886.
24104	4.7741	5.7273	0.1	4964.6
24105	4.8659	5.6364	0.1	4917.8
24106	4.8659	5.8182	0.1	4950.5
24107	4.7741	5.9091	0.1	4994.5
24108	4.9578	0.27273	0.1	4903.7
24109	5.0496	0.18182	0.1	4888.8
24110	4.9578	9.0909e-002	0.1	4931.7
24111	4.9578	0.45455	0.1	4872.7
24112	5.0496	0.36364	0.1	4858.4
24113	4.9578	0.63636	0.1	4842.6
24114	5.0496	0.54545	0.1	4829.
24115	4.9578	0.81818	0.1	4813.6
24116	5.0496	0.72727	0.1	4800.5
24117	4.9578	1.	0.1	4785.8
24118	5.0496	0.90909	0.1	4773.1
24119	4.9578	1.1818	0.1	4759.5
24120	5.0496	1.0909	0.1	4746.9
24121	4.9578	1.3636	0.1	4734.9
24122	5.0496	1.2727	0.1	4722.3
24123	4.9578	1.5455	0.1	4712.2
24124	5.0496	1.4545	0.1	4699.5
24125	4.9578	1.7273	0.1	4691.7
24126	5.0496	1.6364	0.1	4678.7
24127	4.9578	1.9091	0.1	4673.5
24128	5.0496	1.8182	0.1	4660.
24129	4.9578	2.0909	0.1	4657.8
24130	5.0496	2.	0.1	4643.6
24131	4.9578	2.2727	0.1	4644.8
24132	5.0496	2.1818	0.1	4629.8
24133	4.9578	2.4545	0.1	4634.6
24134	5.0496	2.3636	0.1	4618.5
24135	4.9578	2.6364	0.1	4627.2
24136	5.0496	2.5455	0.1	4610.
24137	4.9578	2.8182	0.1	4622.7
24138	5.0496	2.7273	0.1	4604.3
24139	4.9578	3.	0.1	4621.2
24140	5.0496	2.9091	0.1	4601.4
24141	4.9578	3.1818	0.1	4622.7
24142	5.0496	3.0909	0.1	4601.4
24143	4.9578	3.3636	0.1	4627.2
24144	5.0496	3.2727	0.1	4604.3
24145	4.9578	3.5455	0.1	4634.6
24146	5.0496	3.4545	0.1	4610.
24147	4.9578	3.7273	0.1	4644.8
24148	5.0496	3.6364	0.1	4618.5
24149	4.9578	3.9091	0.1	4657.8
24150	5.0496	3.8182	0.1	4629.8
24151	4.9578	4.0909	0.1	4673.5
24152	5.0496	4.	0.1	4643.6
24153	4.9578	4.2727	0.1	4691.7
24154	5.0496	4.1818	0.1	4660.
24155	4.9578	4.4545	0.1	4712.2
24156	5.0496	4.3636	0.1	4678.7
24157	4.9578	4.6364	0.1	4734.9
24158	5.0496	4.5455	0.1	4699.5
24159	4.9578	4.8182	0.1	4759.5
24160	5.0496	4.7273	0.1	4722.3
24161	4.9578	5.	0.1	4785.8
24162	5.0496	4.9091	0.1	4746.9
24163	4.9578	5.1818	0.1	4813.6
24164	5.0496	5.0909	0.1	4773.1
24165	4.9578	5.3636	0.1	4842.6
24166	5.0496	5.2727	0.1	4800.5
24167	4.9578	5.5455	0.1	4872.7
24168	5.0496	5.4545	0.1	4829.
24169	4.9578	5.7273	0.1	4903.7
24170	5.0496	5.6364	0.1	4858.4
24171	5.0496	5.8182	0.1	4888.8
24172	4.9578	5.9091	0.1	4931.7
24173	5.1414	0.27273	0.1	4843.4
24174	5.2332	0.18182	0.1	4827.6
24175	5.1414	9.0909e-002	0.1	4869.5
24176	5.1414	0.45455	0.1	4814.7
24177	5.2332	0.36364	0.1	4799.5
24178	5.1414	0.63636	0.1	4786.8
24179	5.2332	0.54545	0.1	4772.2
24180	5.1414	0.81818	0.1	4759.9
24181	5.2332	0.72727	0.1	4745.8
24182	5.1414	1.	0.1	4734.2
24183	5.2332	0.90909	0.1	4720.4
24184	5.1414	1.1818	0.1	4709.8
24185	5.2332	1.0909	0.1	4696.2
24186	5.1414	1.3636	0.1	4687.
24187	5.2332	1.2727	0.1	4673.4
24188	5.1414	1.5455	0.1	4666.
24189	5.2332	1.4545	0.1	4652.3
24190	5.1414	1.7273	0.1	4647.
24191	5.2332	1.6364	0.1	4633.
24192	5.1414	1.9091	0.1	4630.1
24193	5.2332	1.8182	0.1	4615.7
24194	5.1414	2.0909	0.1	4615.6
24195	5.2332	2.	0.1	4600.5
24196	5.1414	2.2727	0.1	4603.5
24197	5.2332	2.1818	0.1	4587.7
24198	5.1414	2.4545	0.1	4594.
24199	5.2332	2.3636	0.1	4577.3
24200	5.1414	2.6364	0.1	4587.2
24201	5.2332	2.5455	0.1	4569.4
24202	5.1414	2.8182	0.1	4583.
24203	5.2332	2.7273	0.1	4564.1
24204	5.1414	3.	0.1	4581.6
24205	5.2332	2.9091	0.1	4561.4
24206	5.1414	3.1818	0.1	4583.
24207	5.2332	3.0909	0.1	4561.4
24208	5.1414	3.3636	0.1	4587.2
24209	5.2332	3.2727	0.1	4564.1
24210	5.1414	3.5455	0.1	4594.
24211	5.2332	3.4545	0.1	4569.4
24212	5.1414	3.7273	0.1	4603.5
24213	5.2332	3.6364	0.1	4577.3
24214	5.1414	3.9091	0.1	4615.6
24215	5.2332	3.8182	0.1	4587.7
24216	5.1414	4.0909	0.1	4630.1
24217	5.2332	4.	0.1	4600.5
24218	5.1414	4.2727	0.1	4647.
24219	5.2332	4.1818	0.1	4615.7
24220	5.1414	4.4545	0.1	4666.
24221	5.2332	4.3636	0.1	4633.
24222	5.1414	4.6364	0.1	4687.
24223	5.2332	4.5455	0.1	4652.3
24224	5.1414	4.8182	0.1	4709.8
24225	5.2332	4.7273	0.1	4673.4
24226	5.1414	5.	0.1	4734.2
24227	5.2332	4.9091	0.1	4696.2
24228	5.1414	5.1818	0.1	4759.9
24229	5.2332	5.0909	0.1	4720.4
24230	5.1414	5.3636	0.1	4786.8
24231	5.2332	5.2727	0.1	4745.8
24232	5.1414	5.5455	0.1	4814.7
24233	5.2332	5.4545	0.1	4772.2
24234	5.1414	5.7273	0.1	4843.4
24235	5.2332	5.6364	0.1	4799.5
24236	5.2332	5.8182	0.1	4827.6
24237	5.1414	5.9091	0.1	4869.5
24238	5.325	0.27273	0.1	4783.7
24239	5.4168	0.18182	0.1	4767.1
24240	5.325	9.0909e-002	0.1	4807.8
24241	5.325	0.45455	0.1	4757.
24242	5.4168	0.36364	0.1	4741.
24243	5.325	0.63636	0.1	4731.2
24244	5.4168	0.54545	0.1	4715.8
24245	5.325	0.81818	0.1	4706.3
24246	5.4168	0.72727	0.1	4691.3
24247	5.325	1.	0.1	4682.4
24248	5.4168	0.90909	0.1	4667.7
24249	5.325	1.1818	0.1	4659.9
24250	5.4168	1.0909	0.1	4645.3
24251	5.325	1.3636	0.1	4638.8
24252	5.4168	1.2727	0.1	4624.3
24253	5.325	1.5455	0.1	4619.3
24254	5.4168	1.4545	0.1	4604.7
24255	5.325	1.7273	0.1	4601.7
24256	5.4168	1.6364	0.1	4586.8
24257	5.325	1.9091	0.1	4586.1
24258	5.4168	1.8182	0.1	4570.8
24259	5.325	2.0909	0.1	4572.7
24260	5.4168	2.	0.1	4556.8
24261	5.325	2.2727	0.1	4561.5
24262	5.4168	2.1818	0.1	4544.9
24263	5.325	2.4545	0.1	4552.7
24264	5.4168	2.3636	0.1	4535.2
24265	5.325	2.6364	0.1	4546.3
24266	5.4168	2.5455	0.1	4527.9
24267	5.325	2.8182	0.1	4542.5
24268	5.4168	2.7273	0.1	4523.
24269	5.325	3.	0.1	4541.2
24270	5.4168	2.9091	0.1	4520.5
24271	5.325	3.1818	0.1	4542.5
24272	5.4168	3.0909	0.1	4520.5
24273	5.325	3.3636	0.1	4546.3
24274	5.4168	3.2727	0.1	4523.
24275	5.325	3.5455	0.1	4552.7
24276	5.4168	3.4545	0.1	4527.9
24277	5.325	3.7273	0.1	4561.5
24278	5.4168	3.6364	0.1	4535.2
24279	5.325	3.9091	0.1	4572.7
24280	5.4168	3.8182	0.1	4544.9
24281	5.325	4.0909	0.1	4586.1
24282	5.4168	4.	0.1	4556.8
24283	5.325	4.2727	0.1	4601.7
24284	5.4168	4.1818	0.1	4570.8
24285	5.325	4.4545	0.1	4619.3
24286	5.4168	4.3636	0.1	4586.8
24287	5.325	4.6364	0.1	4638.8
24288	5.4168	4.5455	0.1	4604.7
24289	5.325	4.8182	0.1	4659.9
24290	5.4168	4.7273	0.1	4624.3
24291	5.325	5.	0.1	4682.4
24292	5.4168	4.9091	0.1	4645.3
24293	5.325	5.1818	0.1	4706.3
24294	5.4168	5.0909	0.1	4667.7
24295	5.325	5.3636	0.1	4731.2
24296	5.4168	5.2727	0.1	4691.3
24297	5.325	5.5455	0.1	4757.
24298	5.4168	5.4545	0.1	4715.8
24299	5.325	5.7273	0.1	4783.7
24300	5.4168	5.6364	0.1	4741.
24301	5.4168	5.8182	0.1	4767.1
24302	5.325	5.9091	0.1	4807.8
24303	5.5086	0.27273	0.1	4724.4
24304	5.6004	0.18182	0.1	4707.1
24305	5.5086	9.0909e-002	0.1	4746.8
24306	5.5086	0.45455	0.1	4699.7
24307	5.6004	0.36364	0.1	4682.9
24308	5.5086	0.63636	0.1	4675.8
24309	5.6004	0.54545	0.1	4659.5
24310	5.5086	0.81818	0.1	4652.7
24311	5.6004	0.72727	0.1	4636.9
24312	5.5086	1.	0.1	4630.6
24313	5.6004	0.90909	0.1	4615.1
24314	5.5086	1.1818	0.1	4609.7
24315	5.6004	1.0909	0.1	4594.3
24316	5.5086	1.3636	0.1	4590.2
24317	5.6004	1.2727	0.1	4574.8
24318	5.5086	1.5455	0.1	4572.2
24319	5.6004	1.4545	0.1	4556.7
24320	5.5086	1.7273	0.1	4555.9
24321	5.6004	1.6364	0.1	4540.2
24322	5.5086	1.9091	0.1	4541.5
24323	5.6004	1.8182	0.1	4525.4
24324	5.5086	2.0909	0.1	4529.
24325	5.6004	2.	0.1	4512.4
24326	5.5086	2.2727	0.1	4518.7
24327	5.6004	2.1818	0.1	4501.4
24328	5.5086	2.4545	0.1	4510.5
24329	5.6004	2.3636	0.1	4492.5
24330	5.5086	2.6364	0.1	4504.6
24331	5.6004	2.5455	0.1	4485.7
24332	5.5086	2.8182	0.1	4501.1
24333	5.6004	2.7273	0.1	4481.1
24334	5.5086	3.	0.1	4499.9
24335	5.6004	2.9091	0.1	4478.9
24336	5.5086	3.1818	0.1	4501.1
24337	5.6004	3.0909	0.1	4478.9
24338	5.5086	3.3636	0.1	4504.6
24339	5.6004	3.2727	0.1	4481.1
24340	5.5086	3.5455	0.1	4510.5
24341	5.6004	3.4545	0.1	4485.7
24342	5.5086	3.7273	0.1	4518.7
24343	5.6004	3.6364	0.1	4492.5
24344	5.5086	3.9091	0.1	4529.
24345	5.6004	3.8182	0.1	4501.4
24346	5.5086	4.0909	0.1	4541.5
24347	5.6004	4.	0.1	4512.4
24348	5.5086	4.2727	0.1	4555.9
24349	5.6004	4.1818	0.1	4525.4
24350	5.5086	4.4545	0.1	4572.2
24351	5.6004	4.3636	0.1	4540.2
24352	5.5086	4.6364	0.1	4590.2
24353	5.6004	4.5455	0.1	4556.7
24354	5.5086	4.8182	0.1	4609.7
24355	5.6004	4.7273	0.1	4574.8
24356	5.5086	5.	0.1	4630.6
24357	5.6004	4.9091	0.1	4594.3
24358	5.5086	5.1818	0.1	4652.7
24359	5.6004	5.0909	0.1	4615.1
24360	5.5086	5.3636	0.1	4675.8
24361	5.6004	5.2727	0.1	4636.9
24362	5.5086	5.5455	0.1	4699.7
24363	5.6004	5.4545	0.1	4659.5
24364	5.5086	5.7273	0.1	4724.4
24365	5.6004	5.6364	0.1	4682.9
24366	5.6004	5.8182	0.1	4707.1
24367	5.5086	5.9091	0.1	4746.8
24368	5.6922	0.27273	0.1	4665.6
24369	5.7841	0.18182	0.1	4647.7
24370	5.6922	9.0909e-002	0.1	4686.2
24371	5.6922	0.45455	0.1	4642.7
24372	5.7841	0.36364	0.1	4625.2
24373	5.6922	0.63636	0.1	4620.6
24374	5.7841	0.54545	0.1	4603.6
24375	5.6922	0.81818	0.1	4599.2
24376	5.7841	0.72727	0.1	4582.6
24377	5.6922	1.	0.1	4578.8
24378	5.7841	0.90909	0.1	4562.4
24379	5.6922	1.1818	0.1	4559.4
24380	5.7841	1.0909	0.1	4543.2
24381	5.6922	1.3636	0.1	4541.3
24382	5.7841	1.2727	0.1	4525.1
24383	5.6922	1.5455	0.1	4524.7
24384	5.7841	1.4545	0.1	4508.4
24385	5.6922	1.7273	0.1	4509.6
24386	5.7841	1.6364	0.1	4493.1
24387	5.6922	1.9091	0.1	4496.3
24388	5.7841	1.8182	0.1	4479.4
24389	5.6922	2.0909	0.1	4484.8
24390	5.7841	2.	0.1	4467.4
24391	5.6922	2.2727	0.1	4475.2
24392	5.7841	2.1818	0.1	4457.2
24393	5.6922	2.4545	0.1	4467.6
24394	5.7841	2.3636	0.1	4449.
24395	5.6922	2.6364	0.1	4462.2
24396	5.7841	2.5455	0.1	4442.7
24397	5.6922	2.8182	0.1	4458.9
24398	5.7841	2.7273	0.1	4438.5
24399	5.6922	3.	0.1	4457.8
24400	5.7841	2.9091	0.1	4436.4
24401	5.6922	3.1818	0.1	4458.9
24402	5.7841	3.0909	0.1	4436.4
24403	5.6922	3.3636	0.1	4462.2
24404	5.7841	3.2727	0.1	4438.5
24405	5.6922	3.5455	0.1	4467.6
24406	5.7841	3.4545	0.1	4442.7
24407	5.6922	3.7273	0.1	4475.2
24408	5.7841	3.6364	0.1	4449.
24409	5.6922	3.9091	0.1	4484.8
24410	5.7841	3.8182	0.1	4457.2
24411	5.6922	4.0909	0.1	4496.3
24412	5.7841	4.	0.1	4467.4
24413	5.6922	4.2727	0.1	4509.6
24414	5.7841	4.1818	0.1	4479.4
24415	5.6922	4.4545	0.1	4524.7
24416	5.7841	4.3636	0.1	4493.1
24417	5.6922	4.6364	0.1	4541.3
24418	5.7841	4.5455	0.1	4508.4
24419	5.6922	4.8182	0.1	4559.4
24420	5.7841	4.7273	0.1	4525.1
24421	5.6922	5.	0.1	4578.8
24422	5.7841	4.9091	0.1	4543.2
24423	5.6922	5.1818	0.1	4599.2
24424	5.7841	5.0909	0.1	4562.4
24425	5.6922	5.3636	0.1	4620.6
24426	5.7841	5.2727	0.1	4582.6
24427	5.6922	5.5455	0.1	4642.7
24428	5.7841	5.4545	0.1	4603.6
24429	5.6922	5.7273	0.1	4665.6
24430	5.7841	5.6364	0.1	4625.2
24431	5.7841	5.8182	0.1	4647.7
24432	5.6922	5.9091	0.1	4686.3
24433	5.8759	0.27273	0.1	4607.3
24434	5.9677	0.18182	0.1	4588.8
24435	5.8759	9.0909e-002	0.1	4626.3
24436	5.8759	0.45455	0.1	4586.
24437	5.9677	0.36364	0.1	4567.9
24438	5.8759	0.63636	0.1	4565.5
24439	5.9677	0.54545	0.1	4547.8
24440	5.8759	0.81818	0.1	4545.7
24441	5.9677	0.72727	0.1	4528.4
24442	5.8759	1.	0.1	4526.8
24443	5.9677	0.90909	0.1	4509.7
24444	5.8759	1.1818	0.1	4508.9
24445	5.9677	1.0909	0.1	4491.9
24446	5.8759	1.3636	0.1	4492.2
24447	5.9677	1.2727	0.1	4475.2
24448	5.8759	1.5455	0.1	4476.8
24449	5.9677	1.4545	0.1	4459.8
24450	5.8759	1.7273	0.1	4462.9
24451	5.9677	1.6364	0.1	4445.6
24452	5.8759	1.9091	0.1	4450.5
24453	5.9677	1.8182	0.1	4433.
24454	5.8759	2.0909	0.1	4439.9
24455	5.9677	2.	0.1	4421.9
24456	5.8759	2.2727	0.1	4431.
24457	5.9677	2.1818	0.1	4412.5
24458	5.8759	2.4545	0.1	4424.1
24459	5.9677	2.3636	0.1	4404.8
24460	5.8759	2.6364	0.1	4419.
24461	5.9677	2.5455	0.1	4399.1
24462	5.8759	2.8182	0.1	4416.
24463	5.9677	2.7273	0.1	4395.2
24464	5.8759	3.	0.1	4415.
24465	5.9677	2.9091	0.1	4393.2
24466	5.8759	3.1818	0.1	4416.
24467	5.9677	3.0909	0.1	4393.2
24468	5.8759	3.3636	0.1	4419.
24469	5.9677	3.2727	0.1	4395.2
24470	5.8759	3.5455	0.1	4424.1
24471	5.9677	3.4545	0.1	4399.1
24472	5.8759	3.7273	0.1	4431.
24473	5.9677	3.6364	0.1	4404.8
24474	5.8759	3.9091	0.1	4439.9
24475	5.9677	3.8182	0.1	4412.5
24476	5.8759	4.0909	0.1	4450.5
24477	5.9677	4.	0.1	4421.9
24478	5.8759	4.2727	0.1	4462.9
24479	5.9677	4.1818	0.1	4433.
24480	5.8759	4.4545	0.1	4476.8
24481	5.9677	4.3636	0.1	4445.6
24482	5.8759	4.6364	0.1	4492.2
24483	5.9677	4.5455	0.1	4459.8
24484	5.8759	4.8182	0.1	4508.9
24485	5.9677	4.7273	0.1	4475.2
24486	5.8759	5.	0.1	4526.8
24487	5.9677	4.9091	0.1	4491.9
24488	5.8759	5.1818	0.1	4545.7
24489	5.9677	5.0909	0.1	4509.7
24490	5.8759	5.3636	0.1	4565.5
24491	5.9677	5.2727	0.1	4528.4
24492	5.8759	5.5455	0.1	4586.
24493	5.9677	5.4545	0.1	4547.8
24494	5.8759	5.7273	0.1	4607.3
24495	5.9677	5.6364	0.1	4567.9
24496	5.9677	5.8182	0.1	4588.8
24497	5.8759	5.9091	0.1	4626.3
24498	6.0595	0.27273	0.1	4549.4
24499	6.1513	0.18182	0.1	4530.3
24500	6.0595	9.0909e-002	0.1	4566.8
24501	6.0595	0.45455	0.1	4529.7
24502	6.1513	0.36364	0.1	4510.9
24503	6.0595	0.63636	0.1	4510.7
24504	6.1513	0.54545	0.1	4492.3
24505	6.0595	0.81818	0.1	4492.3
24506	6.1513	0.72727	0.1	4474.3
24507	6.0595	1.	0.1	4474.8
24508	6.1513	0.90909	0.1	4457.
24509	6.0595	1.1818	0.1	4458.3
24510	6.1513	1.0909	0.1	4440.6
24511	6.0595	1.3636	0.1	4442.8
24512	6.1513	1.2727	0.1	4425.2
24513	6.0595	1.5455	0.1	4428.6
24514	6.1513	1.4545	0.1	4410.8
24515	6.0595	1.7273	0.1	4415.7
24516	6.1513	1.6364	0.1	4397.8
24517	6.0595	1.9091	0.1	4404.3
24518	6.1513	1.8182	0.1	4386.1
24519	6.0595	2.0909	0.1	4394.5
24520	6.1513	2.	0.1	4375.8
24521	6.0595	2.2727	0.1	4386.3
24522	6.1513	2.1818	0.1	4367.1
24523	6.0595	2.4545	0.1	4379.8
24524	6.1513	2.3636	0.1	4360.1
24525	6.0595	2.6364	0.1	4375.2
24526	6.1513	2.5455	0.1	4354.8
24527	6.0595	2.8182	0.1	4372.4
24528	6.1513	2.7273	0.1	4351.2
24529	6.0595	3.	0.1	4371.5
24530	6.1513	2.9091	0.1	4349.4
24531	6.0595	3.1818	0.1	4372.4
24532	6.1513	3.0909	0.1	4349.4
24533	6.0595	3.3636	0.1	4375.2
24534	6.1513	3.2727	0.1	4351.2
24535	6.0595	3.5455	0.1	4379.8
24536	6.1513	3.4545	0.1	4354.8
24537	6.0595	3.7273	0.1	4386.3
24538	6.1513	3.6364	0.1	4360.1
24539	6.0595	3.9091	0.1	4394.5
24540	6.1513	3.8182	0.1	4367.1
24541	6.0595	4.0909	0.1	4404.3
24542	6.1513	4.	0.1	4375.8
24543	6.0595	4.2727	0.1	4415.7
24544	6.1513	4.1818	0.1	4386.1
24545	6.0595	4.4545	0.1	4428.6
24546	6.1513	4.3636	0.1	4397.8
24547	6.0595	4.6364	0.1	4442.8
24548	6.1513	4.5455	0.1	4410.8
24549	6.0595	4.8182	0.1	4458.3
24550	6.1513	4.7273	0.1	4425.2
24551	6.0595	5.	0.1	4474.8
24552	6.1513	4.9091	0.1	4440.6
24553	6.0595	5.1818	0.1	4492.3
24554	6.1513	5.0909	0.1	4457.
24555	6.0595	5.3636	0.1	4510.7
24556	6.1513	5.2727	0.1	4474.3
24557	6.0595	5.5455	0.1	4529.7
24558	6.1513	5.4545	0.1	4492.3
24559	6.0595	5.7273	0.1	4549.4
24560	6.1513	5.6364	0.1	4510.9
24561	6.1513	5.8182	0.1	4530.3
24562	6.0595	5.9091	0.1	4566.8
24563	6.2431	0.27273	0.1	4491.9
24564	6.3349	0.18182	0.1	4472.4
24565	6.2431	9.0909e-002	0.1	4507.9
24566	6.2431	0.45455	0.1	4473.6
24567	6.3349	0.36364	0.1	4454.3
24568	6.2431	0.63636	0.1	4456.
24569	6.3349	0.54545	0.1	4437.1
24570	6.2431	0.81818	0.1	4439.
24571	6.3349	0.72727	0.1	4420.4
24572	6.2431	1.	0.1	4422.8
24573	6.3349	0.90909	0.1	4404.4
24574	6.2431	1.1818	0.1	4407.5
24575	6.3349	1.0909	0.1	4389.2
24576	6.2431	1.3636	0.1	4393.2
24577	6.3349	1.2727	0.1	4374.9
24578	6.2431	1.5455	0.1	4380.
24579	6.3349	1.4545	0.1	4361.7
24580	6.2431	1.7273	0.1	4368.1
24581	6.3349	1.6364	0.1	4349.6
24582	6.2431	1.9091	0.1	4357.6
24583	6.3349	1.8182	0.1	4338.8
24584	6.2431	2.0909	0.1	4348.5
24585	6.3349	2.	0.1	4329.3
24586	6.2431	2.2727	0.1	4341.
24587	6.3349	2.1818	0.1	4321.3
24588	6.2431	2.4545	0.1	4335.
24589	6.3349	2.3636	0.1	4314.8
24590	6.2431	2.6364	0.1	4330.7
24591	6.3349	2.5455	0.1	4309.8
24592	6.2431	2.8182	0.1	4328.1
24593	6.3349	2.7273	0.1	4306.5
24594	6.2431	3.	0.1	4327.3
24595	6.3349	2.9091	0.1	4304.9
24596	6.2431	3.1818	0.1	4328.1
24597	6.3349	3.0909	0.1	4304.9
24598	6.2431	3.3636	0.1	4330.7
24599	6.3349	3.2727	0.1	4306.5
24600	6.2431	3.5455	0.1	4335.
24601	6.3349	3.4545	0.1	4309.8
24602	6.2431	3.7273	0.1	4341.
24603	6.3349	3.6364	0.1	4314.8
24604	6.2431	3.9091	0.1	4348.5
24605	6.3349	3.8182	0.1	4321.3
24606	6.2431	4.0909	0.1	4357.6
24607	6.3349	4.	0.1	4329.3
24608	6.2431	4.2727	0.1	4368.1
24609	6.3349	4.1818	0.1	4338.8
24610	6.2431	4.4545	0.1	4380.
24611	6.3349	4.3636	0.1	4349.6
24612	6.2431	4.6364	0.1	4393.2
24613	6.3349	4.5455	0.1	4361.7
24614	6.2431	4.8182	0.1	4407.5
24615	6.3349	4.7273	0.1	4374.9
24616	6.2431	5.	0.1	4422.8
24617	6.3349	4.9091	0.1	4389.2
24618	6.2431	5.1818	0.1	4439.
24619	6.3349	5.0909	0.1	4404.4
24620	6.2431	5.3636	0.1	4456.
24621	6.3349	5.2727	0.1	4420.4
24622	6.2431	5.5455	0.1	4473.6
24623	6.3349	5.4545	0.1	4437.1
24624	6.2431	5.7273	0.1	4491.9
24625	6.3349	5.6364	0.1	4454.3
24626	6.3349	5.8182	0.1	4472.4
24627	6.2431	5.9091	0.1	4507.9
24628	6.4267	0.27273	0.1	4434.8
24629	6.5185	0.18182	0.1	4414.8
24630	6.4267	9.0909e-002	0.1	4449.4
24631	6.4267	0.45455	0.1	4417.8
24632	6.5185	0.36364	0.1	4398.
24633	6.4267	0.63636	0.1	4401.5
24634	6.5185	0.54545	0.1	4382.
24635	6.4267	0.81818	0.1	4385.8
24636	6.5185	0.72727	0.1	4366.6
24637	6.4267	1.	0.1	4370.8
24638	6.5185	0.90909	0.1	4351.8
24639	6.4267	1.1818	0.1	4356.6
24640	6.5185	1.0909	0.1	4337.7
24641	6.4267	1.3636	0.1	4343.4
24642	6.5185	1.2727	0.1	4324.5
24643	6.4267	1.5455	0.1	4331.2
24644	6.5185	1.4545	0.1	4312.3
24645	6.4267	1.7273	0.1	4320.2
24646	6.5185	1.6364	0.1	4301.1
24647	6.4267	1.9091	0.1	4310.5
24648	6.5185	1.8182	0.1	4291.1
24649	6.4267	2.0909	0.1	4302.1
24650	6.5185	2.	0.1	4282.3
24651	6.4267	2.2727	0.1	4295.1
24652	6.5185	2.1818	0.1	4274.9
24653	6.4267	2.4545	0.1	4289.6
24654	6.5185	2.3636	0.1	4268.9
24655	6.4267	2.6364	0.1	4285.7
24656	6.5185	2.5455	0.1	4264.4
24657	6.4267	2.8182	0.1	4283.3
24658	6.5185	2.7273	0.1	4261.3
24659	6.4267	3.	0.1	4282.5
24660	6.5185	2.9091	0.1	4259.8
24661	6.4267	3.1818	0.1	4283.3
24662	6.5185	3.0909	0.1	4259.8
24663	6.4267	3.3636	0.1	4285.7
24664	6.5185	3.2727	0.1	4261.3
24665	6.4267	3.5455	0.1	4289.6
24666	6.5185	3.4545	0.1	4264.4
24667	6.4267	3.7273	0.1	4295.1
24668	6.5185	3.6364	0.1	4268.9
24669	6.4267	3.9091	0.1	4302.1
24670	6.5185	3.8182	0.1	4274.9
24671	6.4267	4.0909	0.1	4310.5
24672	6.5185	4.	0.1	4282.3
24673	6.4267	4.2727	0.1	4320.2
24674	6.5185	4.1818	0.1	4291.1
24675	6.4267	4.4545	0.1	4331.2
24676	6.5185	4.3636	0.1	4301.1
24677	6.4267	4.6364	0.1	4343.4
24678	6.5185	4.5455	0.1	4312.3
24679	6.4267	4.8182	0.1	4356.6
24680	6.5185	4.7273	0.1	4324.5
24681	6.4267	5.	0.1	4370.8
24682	6.5185	4.9091	0.1	4337.7
24683	6.4267	5.1818	0.1	4385.8
24684	6.5185	5.0909	0.1	4351.8
24685	6.4267	5.3636	0.1	4401.5
24686	6.5185	5.2727	0.1	4366.6
24687	6.4267	5.5455	0.1	4417.8
24688	6.5185	5.4545	0.1	4382.
24689	6.4267	5.7273	0.1	4434.8
24690	6.5185	5.6364	0.1	4398.
24691	6.5185	5.8182	0.1	4414.8
24692	6.4267	5.9091	0.1	4449.4
24693	6.6103	0.27273	0.1	4378.
24694	6.7022	0.18182	0.1	4357.7
24695	6.6103	9.0909e-002	0.1	4391.3
24696	6.6103	0.45455	0.1	4362.2
24697	6.7022	0.36364	0.1	4342.
24698	6.6103	0.63636	0.1	4347.1
24699	6.7022	0.54545	0.1	4327.2
24700	6.6103	0.81818	0.1	4332.6
24701	6.7022	0.72727	0.1	4312.9
24702	6.6103	1.	0.1	4318.7
24703	6.7022	0.90909	0.1	4299.2
24704	6.6103	1.1818	0.1	4305.6
24705	6.7022	1.0909	0.1	4286.2
24706	6.6103	1.3636	0.1	4293.4
24707	6.7022	1.2727	0.1	4274.
24708	6.6103	1.5455	0.1	4282.1
24709	6.7022	1.4545	0.1	4262.6
24710	6.6103	1.7273	0.1	4272.
24711	6.7022	1.6364	0.1	4252.3
24712	6.6103	1.9091	0.1	4263.
24713	6.7022	1.8182	0.1	4243.1
24714	6.6103	2.0909	0.1	4255.2
24715	6.7022	2.	0.1	4235.
24716	6.6103	2.2727	0.1	4248.8
24717	6.7022	2.1818	0.1	4228.1
24718	6.6103	2.4545	0.1	4243.7
24719	6.7022	2.3636	0.1	4222.6
24720	6.6103	2.6364	0.1	4240.
24721	6.7022	2.5455	0.1	4218.4
24722	6.6103	2.8182	0.1	4237.8
24723	6.7022	2.7273	0.1	4215.6
24724	6.6103	3.	0.1	4237.1
24725	6.7022	2.9091	0.1	4214.1
24726	6.6103	3.1818	0.1	4237.8
24727	6.7022	3.0909	0.1	4214.1
24728	6.6103	3.3636	0.1	4240.
24729	6.7022	3.2727	0.1	4215.6
24730	6.6103	3.5455	0.1	4243.7
24731	6.7022	3.4545	0.1	4218.4
24732	6.6103	3.7273	0.1	4248.8
24733	6.7022	3.6364	0.1	4222.6
24734	6.6103	3.9091	0.1	4255.2
24735	6.7022	3.8182	0.1	4228.1
24736	6.6103	4.0909	0.1	4263.
24737	6.7022	4.	0.1	4235.
24738	6.6103	4.2727	0.1	4272.
24739	6.7022	4.1818	0.1	4243.1
24740	6.6103	4.4545	0.1	4282.1
24741	6.7022	4.3636	0.1	4252.3
24742	6.6103	4.6364	0.1	4293.4
24743	6.7022	4.5455	0.1	4262.6
24744	6.6103	4.8182	0.1	4305.6
24745	6.7022	4.7273	0.1	4274.
24746	6.6103	5.	0.1	4318.7
24747	6.7022	4.9091	0.1	4286.2
24748	6.6103	5.1818	0.1	4332.6
24749	6.7022	5.0909	0.1	4299.2
24750	6.6103	5.3636	0.1	4347.1
24751	6.7022	5.2727	0.1	4312.9
24752	6.6103	5.5455	0.1	4362.2
24753	6.7022	5.4545	0.1	4327.2
24754	6.6103	5.7273	0.1	4378.
24755	6.7022	5.6364	0.1	4342.
24756	6.7022	5.8182	0.1	4357.7
24757	6.6103	5.9091	0.1	4391.3
24758	6.794	0.27273	0.1	4321.6
24759	6.8858	0.18182	0.1	4301.
24760	6.794	9.0909e-002	0.1	4333.7
24761	6.794	0.45455	0.1	4307.
24762	6.8858	0.36364	0.1	4286.3
24763	6.794	0.63636	0.1	4293.
24764	6.8858	0.54545	0.1	4272.6
24765	6.794	0.81818	0.1	4279.5
24766	6.8858	0.72727	0.1	4259.4
24767	6.794	1.	0.1	4266.7
24768	6.8858	0.90909	0.1	4246.7
24769	6.794	1.1818	0.1	4254.5
24770	6.8858	1.0909	0.1	4234.6
24771	6.794	1.3636	0.1	4243.2
24772	6.8858	1.2727	0.1	4223.3
24773	6.794	1.5455	0.1	4232.8
24774	6.8858	1.4545	0.1	4212.8
24775	6.794	1.7273	0.1	4223.4
24776	6.8858	1.6364	0.1	4203.3
24777	6.794	1.9091	0.1	4215.1
24778	6.8858	1.8182	0.1	4194.7
24779	6.794	2.0909	0.1	4207.9
24780	6.8858	2.	0.1	4187.3
24781	6.794	2.2727	0.1	4202.
24782	6.8858	2.1818	0.1	4181.
24783	6.794	2.4545	0.1	4197.3
24784	6.8858	2.3636	0.1	4175.8
24785	6.794	2.6364	0.1	4193.9
24786	6.8858	2.5455	0.1	4171.9
24787	6.794	2.8182	0.1	4191.9
24788	6.8858	2.7273	0.1	4169.3
24789	6.794	3.	0.1	4191.2
24790	6.8858	2.9091	0.1	4168.
24791	6.794	3.1818	0.1	4191.9
24792	6.8858	3.0909	0.1	4168.
24793	6.794	3.3636	0.1	4193.9
24794	6.8858	3.2727	0.1	4169.3
24795	6.794	3.5455	0.1	4197.3
24796	6.8858	3.4545	0.1	4171.9
24797	6.794	3.7273	0.1	4202.
24798	6.8858	3.6364	0.1	4175.8
24799	6.794	3.9091	0.1	4207.9
24800	6.8858	3.8182	0.1	4181.
24801	6.794	4.0909	0.1	4215.1
24802	6.8858	4.	0.1	4187.3
24803	6.794	4.2727	0.1	4223.4
24804	6.8858	4.1818	0.1	4194.7
24805	6.794	4.4545	0.1	4232.8
24806	6.8858	4.3636	0.1	4203.3
24807	6.794	4.6364	0.1	4243.2
24808	6.8858	4.5455	0.1	4212.8
24809	6.794	4.8182	0.1	4254.5
24810	6.8858	4.7273	0.1	4223.3
24811	6.794	5.	0.1	4266.7
24812	6.8858	4.9091	0.1	4234.6
24813	6.794	5.1818	0.1	4279.5
24814	6.8858	5.0909	0.1	4246.7
24815	6.794	5.3636	0.1	4293.
24816	6.8858	5.2727	0.1	4259.4
24817	6.794	5.5455	0.1	4307.
24818	6.8858	5.4545	0.1	4272.6
24819	6.794	5.7273	0.1	4321.6
24820	6.8858	5.6364	0.1	4286.3
24821	6.8858	5.8182	0.1	4301.
24822	6.794	5.9091	0.1	4333.7
24823	6.9776	0.27273	0.1	4265.6
24824	7.0694	0.18182	0.1	4244.6
24825	6.9776	9.0909e-002	0.1	4276.5
24826	6.9776	0.45455	0.1	4251.9
24827	7.0694	0.36364	0.1	4230.9
24828	6.9776	0.63636	0.1	4239.
24829	7.0694	0.54545	0.1	4218.2
24830	6.9776	0.81818	0.1	4226.5
24831	7.0694	0.72727	0.1	4205.9
24832	6.9776	1.	0.1	4214.6
24833	7.0694	0.90909	0.1	4194.2
24834	6.9776	1.1818	0.1	4203.4
24835	7.0694	1.0909	0.1	4183.
24836	6.9776	1.3636	0.1	4192.9
24837	7.0694	1.2727	0.1	4172.6
24838	6.9776	1.5455	0.1	4183.3
24839	7.0694	1.4545	0.1	4162.9
24840	6.9776	1.7273	0.1	4174.6
24841	7.0694	1.6364	0.1	4154.
24842	6.9776	1.9091	0.1	4166.9
24843	7.0694	1.8182	0.1	4146.1
24844	6.9776	2.0909	0.1	4160.3
24845	7.0694	2.	0.1	4139.2
24846	6.9776	2.2727	0.1	4154.8
24847	7.0694	2.1818	0.1	4133.4
24848	6.9776	2.4545	0.1	4150.5
24849	7.0694	2.3636	0.1	4128.7
24850	6.9776	2.6364	0.1	4147.4
24851	7.0694	2.5455	0.1	4125.1
24852	6.9776	2.8182	0.1	4145.5
24853	7.0694	2.7273	0.1	4122.7
24854	6.9776	3.	0.1	4144.8
24855	7.0694	2.9091	0.1	4121.5
24856	6.9776	3.1818	0.1	4145.5
24857	7.0694	3.0909	0.1	4121.5
24858	6.9776	3.3636	0.1	4147.4
24859	7.0694	3.2727	0.1	4122.7
24860	6.9776	3.5455	0.1	4150.5
24861	7.0694	3.4545	0.1	4125.1
24862	6.9776	3.7273	0.1	4154.8
24863	7.0694	3.6364	0.1	4128.7
24864	6.9776	3.9091	0.1	4160.3
24865	7.0694	3.8182	0.1	4133.4
24866	6.9776	4.0909	0.1	4166.9
24867	7.0694	4.	0.1	4139.2
24868	6.9776	4.2727	0.1	4174.6
24869	7.0694	4.1818	0.1	4146.1
24870	6.9776	4.4545	0.1	4183.3
24871	7.0694	4.3636	0.1	4154.
24872	6.9776	4.6364	0.1	4192.9
24873	7.0694	4.5455	0.1	4162.9
24874	6.9776	4.8182	0.1	4203.4
24875	7.0694	4.7273	0.1	4172.6
24876	6.9776	5.	0.1	4214.6
24877	7.0694	4.9091	0.1	4183.
24878	6.9776	5.1818	0.1	4226.5
24879	7.0694	5.0909	0.1	4194.2
24880	6.9776	5.3636	0.1	4239.
24881	7.0694	5.2727	0.1	4205.9
24882	6.9776	5.5455	0.1	4251.9
24883	7.0694	5.4545	0.1	4218.2
24884	6.9776	5.7273	0.1	4265.6
24885	7.0694	5.6364	0.1	4230.9
24886	7.0694	5.8182	0.1	4244.6
24887	6.9776	5.9091	0.1	4276.5
24888	7.1612	0.27273	0.1	4209.9
24889	7.253	0.18182	0.1	4188.6
24890	7.1612	9.0909e-002	0.1	4219.7
24891	7.1612	0.45455	0.1	4197.2
24892	7.253	0.36364	0.1	4175.8
24893	7.1612	0.63636	0.1	4185.1
24894	7.253	0.54545	0.1	4164.
24895	7.1612	0.81818	0.1	4173.6
24896	7.253	0.72727	0.1	4152.6
24897	7.1612	1.	0.1	4162.6
24898	7.253	0.90909	0.1	4141.7
24899	7.1612	1.1818	0.1	4152.2
24900	7.253	1.0909	0.1	4131.4
24901	7.1612	1.3636	0.1	4142.5
24902	7.253	1.2727	0.1	4121.7
24903	7.1612	1.5455	0.1	4133.6
24904	7.253	1.4545	0.1	4112.8
24905	7.1612	1.7273	0.1	4125.6
24906	7.253	1.6364	0.1	4104.6
24907	7.1612	1.9091	0.1	4118.5
24908	7.253	1.8182	0.1	4097.3
24909	7.1612	2.0909	0.1	4112.3
24910	7.253	2.	0.1	4090.9
24911	7.1612	2.2727	0.1	4107.3
24912	7.253	2.1818	0.1	4085.5
24913	7.1612	2.4545	0.1	4103.3
24914	7.253	2.3636	0.1	4081.1
24915	7.1612	2.6364	0.1	4100.4
24916	7.253	2.5455	0.1	4077.8
24917	7.1612	2.8182	0.1	4098.6
24918	7.253	2.7273	0.1	4075.6
24919	7.1612	3.	0.1	4098.1
24920	7.253	2.9091	0.1	4074.5
24921	7.1612	3.1818	0.1	4098.6
24922	7.253	3.0909	0.1	4074.5
24923	7.1612	3.3636	0.1	4100.4
24924	7.253	3.2727	0.1	4075.6
24925	7.1612	3.5455	0.1	4103.3
24926	7.253	3.4545	0.1	4077.8
24927	7.1612	3.7273	0.1	4107.3
24928	7.253	3.6364	0.1	4081.1
24929	7.1612	3.9091	0.1	4112.3
24930	7.253	3.8182	0.1	4085.5
24931	7.1612	4.0909	0.1	4118.5
24932	7.253	4.	0.1	4090.9
24933	7.1612	4.2727	0.1	4125.6
24934	7.253	4.1818	0.1	4097.3
24935	7.1612	4.4545	0.1	4133.6
24936	7.253	4.3636	0.1	4104.6
24937	7.1612	4.6364	0.1	4142.5
24938	7.253	4.5455	0.1	4112.8
24939	7.1612	4.8182	0.1	4152.2
24940	7.253	4.7273	0.1	4121.7
24941	7.1612	5.	0.1	4162.6
24942	7.253	4.9091	0.1	4131.4
24943	7.1612	5.1818	0.1	4173.6
24944	7.253	5.0909	0.1	4141.7
24945	7.1612	5.3636	0.1	4185.1
24946	7.253	5.2727	0.1	4152.6
24947	7.1612	5.5455	0.1	4197.2
24948	7.253	5.4545	0.1	4164.
24949	7.1612	5.7273	0.1	4209.9
24950	7.253	5.6364	0.1	4175.8
24951	7.253	5.8182	0.1	4188.6
24952	7.1612	5.9091	0.1	4219.7
24953	7.3448	0.27273	0.1	4154.5
24954	7.4366	0.18182	0.1	4133.
24955	7.3448	9.0909e-002	0.1	4163.2
24956	7.3448	0.45455	0.1	4142.6
24957	7.4366	0.36364	0.1	4121.
24958	7.3448	0.63636	0.1	4131.5
24959	7.4366	0.54545	0.1	4110.
24960	7.3448	0.81818	0.1	4120.8
24961	7.4366	0.72727	0.1	4099.5
24962	7.3448	1.	0.1	4110.6
24963	7.4366	0.90909	0.1	4089.4
24964	7.3448	1.1818	0.1	4101.
24965	7.4366	1.0909	0.1	4079.8
24966	7.3448	1.3636	0.1	4092.
24967	7.4366	1.2727	0.1	4070.8
24968	7.3448	1.5455	0.1	4083.8
24969	7.4366	1.4545	0.1	4062.5
24970	7.3448	1.7273	0.1	4076.3
24971	7.4366	1.6364	0.1	4055.
24972	7.3448	1.9091	0.1	4069.8
24973	7.4366	1.8182	0.1	4048.2
24974	7.3448	2.0909	0.1	4064.1
24975	7.4366	2.	0.1	4042.3
24976	7.3448	2.2727	0.1	4059.4
24977	7.4366	2.1818	0.1	4037.3
24978	7.3448	2.4545	0.1	4055.7
24979	7.4366	2.3636	0.1	4033.3
24980	7.3448	2.6364	0.1	4053.
24981	7.4366	2.5455	0.1	4030.2
24982	7.3448	2.8182	0.1	4051.4
24983	7.4366	2.7273	0.1	4028.2
24984	7.3448	3.	0.1	4050.9
24985	7.4366	2.9091	0.1	4027.1
24986	7.3448	3.1818	0.1	4051.4
24987	7.4366	3.0909	0.1	4027.1
24988	7.3448	3.3636	0.1	4053.
24989	7.4366	3.2727	0.1	4028.2
24990	7.3448	3.5455	0.1	4055.7
24991	7.4366	3.4545	0.1	4030.2
24992	7.3448	3.7273	0.1	4059.4
24993	7.4366	3.6364	0.1	4033.3
24994	7.3448	3.9091	0.1	4064.1
24995	7.4366	3.8182	0.1	4037.3
24996	7.3448	4.0909	0.1	4069.8
24997	7.4366	4.	0.1	4042.3
24998	7.3448	4.2727	0.1	4076.3
24999	7.4366	4.1818	0.1	4048.2
25000	7.3448	4.4545	0.1	4083.8
25001	7.4366	4.3636	0.1	4055.
25002	7.3448	4.6364	0.1	4092.
25003	7.4366	4.5455	0.1	4062.5
25004	7.3448	4.8182	0.1	4101.
25005	7.4366	4.7273	0.1	4070.8
25006	7.3448	5.	0.1	4110.6
25007	7.4366	4.9091	0.1	4079.8
25008	7.3448	5.1818	0.1	4120.8
25009	7.4366	5.0909	0.1	4089.4
25010	7.3448	5.3636	0.1	4131.5
25011	7.4366	5.2727	0.1	4099.5
25012	7.3448	5.5455	0.1	4142.6
25013	7.4366	5.4545	0.1	4110.
25014	7.3448	5.7273	0.1	4154.5
25015	7.4366	5.6364	0.1	4121.
25016	7.4366	5.8182	0.1	4133.
25017	7.3448	5.9091	0.1	4163.2
25018	7.5284	0.27273	0.1	4099.4
25019	7.6203	0.18182	0.1	4077.7
25020	7.5284	9.0909e-002	0.1	4107.2
25021	7.5284	0.45455	0.1	4088.3
25022	7.6203	0.36364	0.1	4066.4
25023	7.5284	0.63636	0.1	4078.
25024	7.6203	0.54545	0.1	4056.2
25025	7.5284	0.81818	0.1	4068.
25026	7.6203	0.72727	0.1	4046.4
25027	7.5284	1.	0.1	4058.6
25028	7.6203	0.90909	0.1	4037.1
25029	7.5284	1.1818	0.1	4049.7
25030	7.6203	1.0909	0.1	4028.2
25031	7.5284	1.3636	0.1	4041.4
25032	7.6203	1.2727	0.1	4019.9
25033	7.5284	1.5455	0.1	4033.8
25034	7.6203	1.4545	0.1	4012.2
25035	7.5284	1.7273	0.1	4026.9
25036	7.6203	1.6364	0.1	4005.2
25037	7.5284	1.9091	0.1	4020.8
25038	7.6203	1.8182	0.1	3999.
25039	7.5284	2.0909	0.1	4015.6
25040	7.6203	2.	0.1	3993.5
25041	7.5284	2.2727	0.1	4011.2
25042	7.6203	2.1818	0.1	3988.9
25043	7.5284	2.4545	0.1	4007.8
25044	7.6203	2.3636	0.1	3985.2
25045	7.5284	2.6364	0.1	4005.4
25046	7.6203	2.5455	0.1	3982.3
25047	7.5284	2.8182	0.1	4003.9
25048	7.6203	2.7273	0.1	3980.4
25049	7.5284	3.	0.1	4003.4
25050	7.6203	2.9091	0.1	3979.5
25051	7.5284	3.1818	0.1	4003.9
25052	7.6203	3.0909	0.1	3979.5
25053	7.5284	3.3636	0.1	4005.4
25054	7.6203	3.2727	0.1	3980.4
25055	7.5284	3.5455	0.1	4007.8
25056	7.6203	3.4545	0.1	3982.3
25057	7.5284	3.7273	0.1	4011.2
25058	7.6203	3.6364	0.1	3985.2
25059	7.5284	3.9091	0.1	4015.6
25060	7.6203	3.8182	0.1	3988.9
25061	7.5284	4.0909	0.1	4020.8
25062	7.6203	4.	0.1	3993.5
25063	7.5284	4.2727	0.1	4026.9
25064	7.6203	4.1818	0.1	3999.
25065	7.5284	4.4545	0.1	4033.8
25066	7.6203	4.3636	0.1	4005.2
25067	7.5284	4.6364	0.1	4041.4
25068	7.6203	4.5455	0.1	4012.2
25069	7.5284	4.8182	0.1	4049.7
25070	7.6203	4.7273	0.1	4019.9
25071	7.5284	5.	0.1	4058.6
25072	7.6203	4.9091	0.1	4028.2
25073	7.5284	5.1818	0.1	4068.
25074	7.6203	5.0909	0.1	4037.1
25075	7.5284	5.3636	0.1	4078.
25076	7.6203	5.2727	0.1	4046.4
25077	7.5284	5.5455	0.1	4088.3
25078	7.6203	5.4545	0.1	4056.2
25079	7.5284	5.7273	0.1	4099.4
25080	7.6203	5.6364	0.1	4066.4
25081	7.6203	5.8182	0.1	4077.7
25082	7.5284	5.9091	0.1	4107.2
25083	7.7121	0.27273	0.1	4044.6
25084	7.8039	0.18182	0.1	4022.7
25085	7.7121	9.0909e-002	0.1	4051.4
25086	7.7121	0.45455	0.1	4034.2
25087	7.8039	0.36364	0.1	4012.
25088	7.7121	0.63636	0.1	4024.6
25089	7.8039	0.54545	0.1	4002.6
25090	7.7121	0.81818	0.1	4015.4
25091	7.8039	0.72727	0.1	3993.5
25092	7.7121	1.	0.1	4006.7
25093	7.8039	0.90909	0.1	3984.8
25094	7.7121	1.1818	0.1	3998.4
25095	7.8039	1.0909	0.1	3976.6
25096	7.7121	1.3636	0.1	3990.7
25097	7.8039	1.2727	0.1	3968.9
25098	7.7121	1.5455	0.1	3983.7
25099	7.8039	1.4545	0.1	3961.8
25100	7.7121	1.7273	0.1	3977.3
25101	7.8039	1.6364	0.1	3955.4
25102	7.7121	1.9091	0.1	3971.7
25103	7.8039	1.8182	0.1	3949.6
25104	7.7121	2.0909	0.1	3966.8
25105	7.8039	2.	0.1	3944.5
25106	7.7121	2.2727	0.1	3962.8
25107	7.8039	2.1818	0.1	3940.2
25108	7.7121	2.4545	0.1	3959.7
25109	7.8039	2.3636	0.1	3936.8
25110	7.7121	2.6364	0.1	3957.4
25111	7.8039	2.5455	0.1	3934.2
25112	7.7121	2.8182	0.1	3956.
25113	7.8039	2.7273	0.1	3932.4
25114	7.7121	3.	0.1	3955.6
25115	7.8039	2.9091	0.1	3931.5
25116	7.7121	3.1818	0.1	3956.
25117	7.8039	3.0909	0.1	3931.5
25118	7.7121	3.3636	0.1	3957.4
25119	7.8039	3.2727	0.1	3932.4
25120	7.7121	3.5455	0.1	3959.7
25121	7.8039	3.4545	0.1	3934.2
25122	7.7121	3.7273	0.1	3962.8
25123	7.8039	3.6364	0.1	3936.8
25124	7.7121	3.9091	0.1	3966.8
25125	7.8039	3.8182	0.1	3940.2
25126	7.7121	4.0909	0.1	3971.7
25127	7.8039	4.	0.1	3944.5
25128	7.7121	4.2727	0.1	3977.3
25129	7.8039	4.1818	0.1	3949.6
25130	7.7121	4.4545	0.1	3983.7
25131	7.8039	4.3636	0.1	3955.4
25132	7.7121	4.6364	0.1	3990.7
25133	7.8039	4.5455	0.1	3961.8
25134	7.7121	4.8182	0.1	3998.4
25135	7.8039	4.7273	0.1	3968.9
25136	7.7121	5.	0.1	4006.7
25137	7.8039	4.9091	0.1	3976.6
25138	7.7121	5.1818	0.1	4015.4
25139	7.8039	5.0909	0.1	3984.8
25140	7.7121	5.3636	0.1	4024.6
25141	7.8039	5.2727	0.1	3993.5
25142	7.7121	5.5455	0.1	4034.2
25143	7.8039	5.4545	0.1	4002.6
25144	7.7121	5.7273	0.1	4044.6
25145	7.8039	5.6364	0.1	4012.
25146	7.8039	5.8182	0.1	4022.7
25147	7.7121	5.9091	0.1	4051.4
25148	7.8957	0.27273	0.1	3990.
25149	7.9875	0.18182	0.1	3967.9
25150	7.8957	9.0909e-002	0.1	3996.
25151	7.8957	0.45455	0.1	3980.3
25152	7.9875	0.36364	0.1	3957.9
25153	7.8957	0.63636	0.1	3971.4
25154	7.9875	0.54545	0.1	3949.1
25155	7.8957	0.81818	0.1	3962.9
25156	7.9875	0.72727	0.1	3940.7
25157	7.8957	1.	0.1	3954.8
25158	7.9875	0.90909	0.1	3932.7
25159	7.8957	1.1818	0.1	3947.1
25160	7.9875	1.0909	0.1	3925.1
25161	7.8957	1.3636	0.1	3940.
25162	7.9875	1.2727	0.1	3917.9
25163	7.8957	1.5455	0.1	3933.5
25164	7.9875	1.4545	0.1	3911.4
25165	7.8957	1.7273	0.1	3927.6
25166	7.9875	1.6364	0.1	3905.4
25167	7.8957	1.9091	0.1	3922.4
25168	7.9875	1.8182	0.1	3900.
25169	7.8957	2.0909	0.1	3917.9
25170	7.9875	2.	0.1	3895.3
25171	7.8957	2.2727	0.1	3914.2
25172	7.9875	2.1818	0.1	3891.4
25173	7.8957	2.4545	0.1	3911.3
25174	7.9875	2.3636	0.1	3888.2
25175	7.8957	2.6364	0.1	3909.2
25176	7.9875	2.5455	0.1	3885.8
25177	7.8957	2.8182	0.1	3907.9
25178	7.9875	2.7273	0.1	3884.1
25179	7.8957	3.	0.1	3907.5
25180	7.9875	2.9091	0.1	3883.3
25181	7.8957	3.1818	0.1	3907.9
25182	7.9875	3.0909	0.1	3883.3
25183	7.8957	3.3636	0.1	3909.2
25184	7.9875	3.2727	0.1	3884.1
25185	7.8957	3.5455	0.1	3911.3
25186	7.9875	3.4545	0.1	3885.8
25187	7.8957	3.7273	0.1	3914.2
25188	7.9875	3.6364	0.1	3888.2
25189	7.8957	3.9091	0.1	3917.9
25190	7.9875	3.8182	0.1	3891.4
25191	7.8957	4.0909	0.1	3922.4
25192	7.9875	4.	0.1	3895.3
25193	7.8957	4.2727	0.1	3927.6
25194	7.9875	4.1818	0.1	3900.
25195	7.8957	4.4545	0.1	3933.5
25196	7.9875	4.3636	0.1	3905.4
25197	7.8957	4.6364	0.1	3940.
25198	7.9875	4.5455	0.1	3911.4
25199	7.8957	4.8182	0.1	3947.1
25200	7.9875	4.7273	0.1	3917.9
25201	7.8957	5.	0.1	3954.8
25202	7.9875	4.9091	0.1	3925.1
25203	7.8957	5.1818	0.1	3962.9
25204	7.9875	5.0909	0.1	3932.7
25205	7.8957	5.3636	0.1	3971.4
25206	7.9875	5.2727	0.1	3940.7
25207	7.8957	5.5455	0.1	3980.3
25208	7.9875	5.4545	0.1	3949.1
25209	7.8957	5.7273	0.1	3990.
25210	7.9875	5.6364	0.1	3957.9
25211	7.9875	5.8182	0.1	3967.9
25212	7.8957	5.9091	0.1	3996.
25213	8.0793	0.27273	0.1	3935.8
25214	8.1711	0.18182	0.1	3913.5
25215	8.0793	9.0909e-002	0.1	3941.
25216	8.0793	0.45455	0.1	3926.7
25217	8.1711	0.36364	0.1	3904.1
25218	8.0793	0.63636	0.1	3918.4
25219	8.1711	0.54545	0.1	3895.9
25220	8.0793	0.81818	0.1	3910.5
25221	8.1711	0.72727	0.1	3888.1
25222	8.0793	1.	0.1	3903.
25223	8.1711	0.90909	0.1	3880.6
25224	8.0793	1.1818	0.1	3895.9
25225	8.1711	1.0909	0.1	3873.6
25226	8.0793	1.3636	0.1	3889.3
25227	8.1711	1.2727	0.1	3867.
25228	8.0793	1.5455	0.1	3883.2
25229	8.1711	1.4545	0.1	3860.9
25230	8.0793	1.7273	0.1	3877.8
25231	8.1711	1.6364	0.1	3855.3
25232	8.0793	1.9091	0.1	3873.
25233	8.1711	1.8182	0.1	3850.3
25234	8.0793	2.0909	0.1	3868.8
25235	8.1711	2.	0.1	3846.
25236	8.0793	2.2727	0.1	3865.4
25237	8.1711	2.1818	0.1	3842.4
25238	8.0793	2.4545	0.1	3862.7
25239	8.1711	2.3636	0.1	3839.4
25240	8.0793	2.6364	0.1	3860.7
25241	8.1711	2.5455	0.1	3837.2
25242	8.0793	2.8182	0.1	3859.6
25243	8.1711	2.7273	0.1	3835.7
25244	8.0793	3.	0.1	3859.2
25245	8.1711	2.9091	0.1	3834.9
25246	8.0793	3.1818	0.1	3859.6
25247	8.1711	3.0909	0.1	3834.9
25248	8.0793	3.3636	0.1	3860.7
25249	8.1711	3.2727	0.1	3835.7
25250	8.0793	3.5455	0.1	3862.7
25251	8.1711	3.4545	0.1	3837.2
25252	8.0793	3.7273	0.1	3865.4
25253	8.1711	3.6364	0.1	3839.4
25254	8.0793	3.9091	0.1	3868.8
25255	8.1711	3.8182	0.1	3842.4
25256	8.0793	4.0909	0.1	3873.
25257	8.1711	4.	0.1	3846.
25258	8.0793	4.2727	0.1	3877.8
25259	8.1711	4.1818	0.1	3850.3
25260	8.0793	4.4545	0.1	3883.2
25261	8.1711	4.3636	0.1	3855.3
25262	8.0793	4.6364	0.1	3889.3
25263	8.1711	4.5455	0.1	3860.9
25264	8.0793	4.8182	0.1	3895.9
25265	8.1711	4.7273	0.1	3867.
25266	8.0793	5.	0.1	3903.
25267	8.1711	4.9091	0.1	3873.6
25268	8.0793	5.1818	0.1	3910.5
25269	8.1711	5.0909	0.1	3880.6
25270	8.0793	5.3636	0.1	3918.4
25271	8.1711	5.2727	0.1	3888.1
25272	8.0793	5.5455	0.1	3926.7
25273	8.1711	5.4545	0.1	3895.9
25274	8.0793	5.7273	0.1	3935.8
25275	8.1711	5.6364	0.1	3904.1
25276	8.1711	5.8182	0.1	3913.5
25277	8.0793	5.9091	0.1	3941.
25278	8.2629	0.27273	0.1	3881.7
25279	8.3547	0.18182	0.1	3859.4
25280	8.2629	9.0909e-002	0.1	3886.2
25281	8.2629	0.45455	0.1	3873.2
25282	8.3547	0.36364	0.1	3850.4
25283	8.2629	0.63636	0.1	3865.6
25284	8.3547	0.54545	0.1	3842.8
25285	8.2629	0.81818	0.1	3858.2
25286	8.3547	0.72727	0.1	3835.6
25287	8.2629	1.	0.1	3851.2
25288	8.3547	0.90909	0.1	3828.7
25289	8.2629	1.1818	0.1	3844.6
25290	8.3547	1.0909	0.1	3822.1
25291	8.2629	1.3636	0.1	3838.5
25292	8.3547	1.2727	0.1	3816.
25293	8.2629	1.5455	0.1	3832.9
25294	8.3547	1.4545	0.1	3810.3
25295	8.2629	1.7273	0.1	3827.9
25296	8.3547	1.6364	0.1	3805.2
25297	8.2629	1.9091	0.1	3823.4
25298	8.3547	1.8182	0.1	3800.6
25299	8.2629	2.0909	0.1	3819.6
25300	8.3547	2.	0.1	3796.6
25301	8.2629	2.2727	0.1	3816.4
25302	8.3547	2.1818	0.1	3793.2
25303	8.2629	2.4545	0.1	3813.9
25304	8.3547	2.3636	0.1	3790.4
25305	8.2629	2.6364	0.1	3812.1
25306	8.3547	2.5455	0.1	3788.4
25307	8.2629	2.8182	0.1	3811.
25308	8.3547	2.7273	0.1	3787.
25309	8.2629	3.	0.1	3810.6
25310	8.3547	2.9091	0.1	3786.3
25311	8.2629	3.1818	0.1	3811.
25312	8.3547	3.0909	0.1	3786.3
25313	8.2629	3.3636	0.1	3812.1
25314	8.3547	3.2727	0.1	3787.
25315	8.2629	3.5455	0.1	3813.9
25316	8.3547	3.4545	0.1	3788.4
25317	8.2629	3.7273	0.1	3816.4
25318	8.3547	3.6364	0.1	3790.4
25319	8.2629	3.9091	0.1	3819.6
25320	8.3547	3.8182	0.1	3793.2
25321	8.2629	4.0909	0.1	3823.4
25322	8.3547	4.	0.1	3796.6
25323	8.2629	4.2727	0.1	3827.9
25324	8.3547	4.1818	0.1	3800.6
25325	8.2629	4.4545	0.1	3832.9
25326	8.3547	4.3636	0.1	3805.2
25327	8.2629	4.6364	0.1	3838.5
25328	8.3547	4.5455	0.1	3810.3
25329	8.2629	4.8182	0.1	3844.6
25330	8.3547	4.7273	0.1	3816.
25331	8.2629	5.	0.1	3851.2
25332	8.3547	4.9091	0.1	3822.1
25333	8.2629	5.1818	0.1	3858.2
25334	8.3547	5.0909	0.1	3828.7
25335	8.2629	5.3636	0.1	3865.6
25336	8.3547	5.2727	0.1	3835.6
25337	8.2629	5.5455	0.1	3873.2
25338	8.3547	5.4545	0.1	3842.8
25339	8.2629	5.7273	0.1	3881.7
25340	8.3547	5.6364	0.1	3850.4
25341	8.3547	5.8182	0.1	3859.4
25342	8.2629	5.9091	0.1	3886.2
25343	8.4466	0.27273	0.1	3828.
25344	8.5384	0.18182	0.1	3805.5
25345	8.4466	9.0909e-002	0.1	3831.8
25346	8.4466	0.45455	0.1	3820.
25347	8.5384	0.36364	0.1	3797.
25348	8.4466	0.63636	0.1	3812.9
25349	8.5384	0.54545	0.1	3790.
25350	8.4466	0.81818	0.1	3806.
25351	8.5384	0.72727	0.1	3783.2
25352	8.4466	1.	0.1	3799.5
25353	8.5384	0.90909	0.1	3776.8
25354	8.4466	1.1818	0.1	3793.4
25355	8.5384	1.0909	0.1	3770.7
25356	8.4466	1.3636	0.1	3787.8
25357	8.5384	1.2727	0.1	3765.
25358	8.4466	1.5455	0.1	3782.6
25359	8.5384	1.4545	0.1	3759.8
25360	8.4466	1.7273	0.1	3777.9
25361	8.5384	1.6364	0.1	3755.
25362	8.4466	1.9091	0.1	3773.7
25363	8.5384	1.8182	0.1	3750.7
25364	8.4466	2.0909	0.1	3770.2
25365	8.5384	2.	0.1	3747.
25366	8.4466	2.2727	0.1	3767.2
25367	8.5384	2.1818	0.1	3743.9
25368	8.4466	2.4545	0.1	3764.9
25369	8.5384	2.3636	0.1	3741.4
25370	8.4466	2.6364	0.1	3763.3
25371	8.5384	2.5455	0.1	3739.4
25372	8.4466	2.8182	0.1	3762.3
25373	8.5384	2.7273	0.1	3738.1
25374	8.4466	3.	0.1	3761.9
25375	8.5384	2.9091	0.1	3737.5
25376	8.4466	3.1818	0.1	3762.3
25377	8.5384	3.0909	0.1	3737.5
25378	8.4466	3.3636	0.1	3763.3
25379	8.5384	3.2727	0.1	3738.1
25380	8.4466	3.5455	0.1	3764.9
25381	8.5384	3.4545	0.1	3739.4
25382	8.4466	3.7273	0.1	3767.2
25383	8.5384	3.6364	0.1	3741.4
25384	8.4466	3.9091	0.1	3770.2
25385	8.5384	3.8182	0.1	3743.9
25386	8.4466	4.0909	0.1	3773.7
25387	8.5384	4.	0.1	3747.
25388	8.4466	4.2727	0.1	3777.9
25389	8.5384	4.1818	0.1	3750.7
25390	8.4466	4.4545	0.1	3782.6
25391	8.5384	4.3636	0.1	3755.
25392	8.4466	4.6364	0.1	3787.8
25393	8.5384	4.5455	0.1	3759.8
25394	8.4466	4.8182	0.1	3793.4
25395	8.5384	4.7273	0.1	3765.
25396	8.4466	5.	0.1	3799.5
25397	8.5384	4.9091	0.1	3770.7
25398	8.4466	5.1818	0.1	3806.
25399	8.5384	5.0909	0.1	3776.8
25400	8.4466	5.3636	0.1	3812.9
25401	8.5384	5.2727	0.1	3783.2
25402	8.4466	5.5455	0.1	3820.
25403	8.5384	5.4545	0.1	3790.
25404	8.4466	5.7273	0.1	3828.
25405	8.5384	5.6364	0.1	3797.
25406	8.5384	5.8182	0.1	3805.5
25407	8.4466	5.9091	0.1	3831.8
25408	8.6302	0.27273	0.1	3774.5
25409	8.722	0.18182	0.1	3751.9
25410	8.6302	9.0909e-002	0.1	3777.6
25411	8.6302	0.45455	0.1	3767.
25412	8.722	0.36364	0.1	3743.9
25413	8.6302	0.63636	0.1	3760.3
25414	8.722	0.54545	0.1	3737.3
25415	8.6302	0.81818	0.1	3754.
25416	8.722	0.72727	0.1	3731.
25417	8.6302	1.	0.1	3748.
25418	8.722	0.90909	0.1	3725.
25419	8.6302	1.1818	0.1	3742.3
25420	8.722	1.0909	0.1	3719.4
25421	8.6302	1.3636	0.1	3737.
25422	8.722	1.2727	0.1	3714.1
25423	8.6302	1.5455	0.1	3732.2
25424	8.722	1.4545	0.1	3709.2
25425	8.6302	1.7273	0.1	3727.9
25426	8.722	1.6364	0.1	3704.8
25427	8.6302	1.9091	0.1	3724.
25428	8.722	1.8182	0.1	3700.9
25429	8.6302	2.0909	0.1	3720.7
25430	8.722	2.	0.1	3697.4
25431	8.6302	2.2727	0.1	3718.
25432	8.722	2.1818	0.1	3694.5
25433	8.6302	2.4545	0.1	3715.9
25434	8.722	2.3636	0.1	3692.2
25435	8.6302	2.6364	0.1	3714.3
25436	8.722	2.5455	0.1	3690.4
25437	8.6302	2.8182	0.1	3713.4
25438	8.722	2.7273	0.1	3689.2
25439	8.6302	3.	0.1	3713.1
25440	8.722	2.9091	0.1	3688.6
25441	8.6302	3.1818	0.1	3713.4
25442	8.722	3.0909	0.1	3688.6
25443	8.6302	3.3636	0.1	3714.3
25444	8.722	3.2727	0.1	3689.2
25445	8.6302	3.5455	0.1	3715.9
25446	8.722	3.4545	0.1	3690.4
25447	8.6302	3.7273	0.1	3718.
25448	8.722	3.6364	0.1	3692.2
25449	8.6302	3.9091	0.1	3720.7
25450	8.722	3.8182	0.1	3694.5
25451	8.6302	4.0909	0.1	3724.
25452	8.722	4.	0.1	3697.4
25453	8.6302	4.2727	0.1	3727.9
25454	8.722	4.1818	0.1	3700.9
25455	8.6302	4.4545	0.1	3732.2
25456	8.722	4.3636	0.1	3704.8
25457	8.6302	4.6364	0.1	3737.
25458	8.722	4.5455	0.1	3709.2
25459	8.6302	4.8182	0.1	3742.3
25460	8.722	4.7273	0.1	3714.1
25461	8.6302	5.	0.1	3748.
25462	8.722	4.9091	0.1	3719.4
25463	8.6302	5.1818	0.1	3754.
25464	8.722	5.0909	0.1	3725.
25465	8.6302	5.3636	0.1	3760.3
25466	8.722	5.2727	0.1	3731.
25467	8.6302	5.5455	0.1	3767.
25468	8.722	5.4545	0.1	3737.3
25469	8.6302	5.7273	0.1	3774.5
25470	8.722	5.6364	0.1	3743.9
25471	8.722	5.8182	0.1	3751.9
25472	8.6302	5.9091	0.1	3777.6
25473	8.8138	0.27273	0.1	3721.2
25474	8.9056	0.18182	0.1	3698.6
25475	8.8138	9.0909e-002	0.1	3723.7
25476	8.8138	0.45455	0.1	3714.2
25477	8.9056	0.36364	0.1	3690.9
25478	8.8138	0.63636	0.1	3708.
25479	8.9056	0.54545	0.1	3684.8
25480	8.8138	0.81818	0.1	3702.1
25481	8.9056	0.72727	0.1	3678.9
25482	8.8138	1.	0.1	3696.5
25483	8.9056	0.90909	0.1	3673.4
25484	8.8138	1.1818	0.1	3691.2
25485	8.9056	1.0909	0.1	3668.1
25486	8.8138	1.3636	0.1	3686.3
25487	8.9056	1.2727	0.1	3663.2
25488	8.8138	1.5455	0.1	3681.8
25489	8.9056	1.4545	0.1	3658.7
25490	8.8138	1.7273	0.1	3677.8
25491	8.9056	1.6364	0.1	3654.6
25492	8.8138	1.9091	0.1	3674.2
25493	8.9056	1.8182	0.1	3650.9
25494	8.8138	2.0909	0.1	3671.2
25495	8.9056	2.	0.1	3647.7
25496	8.8138	2.2727	0.1	3668.7
25497	8.9056	2.1818	0.1	3645.1
25498	8.8138	2.4545	0.1	3666.7
25499	8.9056	2.3636	0.1	3642.9
25500	8.8138	2.6364	0.1	3665.2
25501	8.9056	2.5455	0.1	3641.2
25502	8.8138	2.8182	0.1	3664.4
25503	8.9056	2.7273	0.1	3640.1
25504	8.8138	3.	0.1	3664.1
25505	8.9056	2.9091	0.1	3639.6
25506	8.8138	3.1818	0.1	3664.4
25507	8.9056	3.0909	0.1	3639.6
25508	8.8138	3.3636	0.1	3665.2
25509	8.9056	3.2727	0.1	3640.1
25510	8.8138	3.5455	0.1	3666.7
25511	8.9056	3.4545	0.1	3641.2
25512	8.8138	3.7273	0.1	3668.7
25513	8.9056	3.6364	0.1	3642.9
25514	8.8138	3.9091	0.1	3671.2
25515	8.9056	3.8182	0.1	3645.1
25516	8.8138	4.0909	0.1	3674.2
25517	8.9056	4.	0.1	3647.7
25518	8.8138	4.2727	0.1	3677.8
25519	8.9056	4.1818	0.1	3650.9
25520	8.8138	4.4545	0.1	3681.8
25521	8.9056	4.3636	0.1	3654.6
25522	8.8138	4.6364	0.1	3686.3
25523	8.9056	4.5455	0.1	3658.7
25524	8.8138	4.8182	0.1	3691.2
25525	8.9056	4.7273	0.1	3663.2
25526	8.8138	5.	0.1	3696.5
25527	8.9056	4.9091	0.1	3668.1
25528	8.8138	5.1818	0.1	3702.1
25529	8.9056	5.0909	0.1	3673.4
25530	8.8138	5.3636	0.1	3708.
25531	8.9056	5.2727	0.1	3678.9
25532	8.8138	5.5455	0.1	3714.2
25533	8.9056	5.4545	0.1	3684.8
25534	8.8138	5.7273	0.1	3721.2
25535	8.9056	5.6364	0.1	3690.9
25536	8.9056	5.8182	0.1	3698.6
25537	8.8138	5.9091	0.1	3723.7
25538	8.9974	0.27273	0.1	3668.2
25539	9.0892	0.18182	0.1	3645.5
25540	8.9974	9.0909e-002	0.1	3670.1
25541	8.9974	0.45455	0.1	3661.5
25542	9.0892	0.36364	0.1	3638.2
25543	8.9974	0.63636	0.1	3655.8
25544	9.0892	0.54545	0.1	3632.5
25545	8.9974	0.81818	0.1	3650.3
25546	9.0892	0.72727	0.1	3627.
25547	8.9974	1.	0.1	3645.1
25548	9.0892	0.90909	0.1	3621.9
25549	8.9974	1.1818	0.1	3640.2
25550	9.0892	1.0909	0.1	3617.
25551	8.9974	1.3636	0.1	3635.6
25552	9.0892	1.2727	0.1	3612.4
25553	8.9974	1.5455	0.1	3631.5
25554	9.0892	1.4545	0.1	3608.2
25555	8.9974	1.7273	0.1	3627.7
25556	9.0892	1.6364	0.1	3604.4
25557	8.9974	1.9091	0.1	3624.4
25558	9.0892	1.8182	0.1	3601.
25559	8.9974	2.0909	0.1	3621.6
25560	9.0892	2.	0.1	3598.
25561	8.9974	2.2727	0.1	3619.2
25562	9.0892	2.1818	0.1	3595.5
25563	8.9974	2.4545	0.1	3617.4
25564	9.0892	2.3636	0.1	3593.5
25565	8.9974	2.6364	0.1	3616.1
25566	9.0892	2.5455	0.1	3592.
25567	8.9974	2.8182	0.1	3615.3
25568	9.0892	2.7273	0.1	3591.
25569	8.9974	3.	0.1	3615.
25570	9.0892	2.9091	0.1	3590.4
25571	8.9974	3.1818	0.1	3615.3
25572	9.0892	3.0909	0.1	3590.4
25573	8.9974	3.3636	0.1	3616.1
25574	9.0892	3.2727	0.1	3591.
25575	8.9974	3.5455	0.1	3617.4
25576	9.0892	3.4545	0.1	3592.
25577	8.9974	3.7273	0.1	3619.2
25578	9.0892	3.6364	0.1	3593.5
25579	8.9974	3.9091	0.1	3621.6
25580	9.0892	3.8182	0.1	3595.5
25581	8.9974	4.0909	0.1	3624.4
25582	9.0892	4.	0.1	3598.
25583	8.9974	4.2727	0.1	3627.7
25584	9.0892	4.1818	0.1	3601.
25585	8.9974	4.4545	0.1	3631.5
25586	9.0892	4.3636	0.1	3604.4
25587	8.9974	4.6364	0.1	3635.6
25588	9.0892	4.5455	0.1	3608.2
25589	8.9974	4.8182	0.1	3640.2
25590	9.0892	4.7273	0.1	3612.4
25591	8.9974	5.	0.1	3645.1
25592	9.0892	4.9091	0.1	3617.
25593	8.9974	5.1818	0.1	3650.3
25594	9.0892	5.0909	0.1	3621.9
25595	8.9974	5.3636	0.1	3655.8
25596	9.0892	5.2727	0.1	3627.
25597	8.9974	5.5455	0.1	3661.5
25598	9.0892	5.4545	0.1	3632.5
25599	8.9974	5.7273	0.1	3668.2
25600	9.0892	5.6364	0.1	3638.2
25601	9.0892	5.8182	0.1	3645.5
25602	8.9974	5.9091	0.1	3670.1
25603	9.181	0.27273	0.1	3615.4
25604	9.2728	0.18182	0.1	3592.6
25605	9.181	9.0909e-002	0.1	3616.8
25606	9.181	0.45455	0.1	3609.1
25607	9.2728	0.36364	0.1	3585.7
25608	9.181	0.63636	0.1	3603.7
25609	9.2728	0.54545	0.1	3580.3
25610	9.181	0.81818	0.1	3598.6
25611	9.2728	0.72727	0.1	3575.3
25612	9.181	1.	0.1	3593.8
25613	9.2728	0.90909	0.1	3570.5
25614	9.181	1.1818	0.1	3589.2
25615	9.2728	1.0909	0.1	3565.9
25616	9.181	1.3636	0.1	3585.
25617	9.2728	1.2727	0.1	3561.7
25618	9.181	1.5455	0.1	3581.1
25619	9.2728	1.4545	0.1	3557.8
25620	9.181	1.7273	0.1	3577.7
25621	9.2728	1.6364	0.1	3554.2
25622	9.181	1.9091	0.1	3574.6
25623	9.2728	1.8182	0.1	3551.1
25624	9.181	2.0909	0.1	3572.
25625	9.2728	2.	0.1	3548.3
25626	9.181	2.2727	0.1	3569.8
25627	9.2728	2.1818	0.1	3546.
25628	9.181	2.4545	0.1	3568.1
25629	9.2728	2.3636	0.1	3544.1
25630	9.181	2.6364	0.1	3566.8
25631	9.2728	2.5455	0.1	3542.7
25632	9.181	2.8182	0.1	3566.1
25633	9.2728	2.7273	0.1	3541.7
25634	9.181	3.	0.1	3565.9
25635	9.2728	2.9091	0.1	3541.3
25636	9.181	3.1818	0.1	3566.1
25637	9.2728	3.0909	0.1	3541.3
25638	9.181	3.3636	0.1	3566.8
25639	9.2728	3.2727	0.1	3541.7
25640	9.181	3.5455	0.1	3568.1
25641	9.2728	3.4545	0.1	3542.7
25642	9.181	3.7273	0.1	3569.8
25643	9.2728	3.6364	0.1	3544.1
25644	9.181	3.9091	0.1	3572.
25645	9.2728	3.8182	0.1	3546.
25646	9.181	4.0909	0.1	3574.6
25647	9.2728	4.	0.1	3548.3
25648	9.181	4.2727	0.1	3577.7
25649	9.2728	4.1818	0.1	3551.1
25650	9.181	4.4545	0.1	3581.1
25651	9.2728	4.3636	0.1	3554.2
25652	9.181	4.6364	0.1	3585.
25653	9.2728	4.5455	0.1	3557.8
25654	9.181	4.8182	0.1	3589.2
25655	9.2728	4.7273	0.1	3561.7
25656	9.181	5.	0.1	3593.8
25657	9.2728	4.9091	0.1	3565.9
25658	9.181	5.1818	0.1	3598.6
25659	9.2728	5.0909	0.1	3570.5
25660	9.181	5.3636	0.1	3603.7
25661	9.2728	5.2727	0.1	3575.3
25662	9.181	5.5455	0.1	3609.1
25663	9.2728	5.4545	0.1	3580.3
25664	9.181	5.7273	0.1	3615.4
25665	9.2728	5.6364	0.1	3585.7
25666	9.2728	5.8182	0.1	3592.6
25667	9.181	5.9091	0.1	3616.8
25668	9.3647	0.27273	0.1	3562.8
25669	9.4565	0.18182	0.1	3540.
25670	9.3647	9.0909e-002	0.1	3563.7
25671	9.3647	0.45455	0.1	3556.9
25672	9.4565	0.36364	0.1	3533.4
25673	9.3647	0.63636	0.1	3551.9
25674	9.4565	0.54545	0.1	3528.4
25675	9.3647	0.81818	0.1	3547.1
25676	9.4565	0.72727	0.1	3523.7
25677	9.3647	1.	0.1	3542.6
25678	9.4565	0.90909	0.1	3519.2
25679	9.3647	1.1818	0.1	3538.3
25680	9.4565	1.0909	0.1	3514.9
25681	9.3647	1.3636	0.1	3534.4
25682	9.4565	1.2727	0.1	3511.
25683	9.3647	1.5455	0.1	3530.8
25684	9.4565	1.4545	0.1	3507.4
25685	9.3647	1.7273	0.1	3527.6
25686	9.4565	1.6364	0.1	3504.1
25687	9.3647	1.9091	0.1	3524.8
25688	9.4565	1.8182	0.1	3501.1
25689	9.3647	2.0909	0.1	3522.3
25690	9.4565	2.	0.1	3498.6
25691	9.3647	2.2727	0.1	3520.3
25692	9.4565	2.1818	0.1	3496.4
25693	9.3647	2.4545	0.1	3518.7
25694	9.4565	2.3636	0.1	3494.7
25695	9.3647	2.6364	0.1	3517.6
25696	9.4565	2.5455	0.1	3493.4
25697	9.3647	2.8182	0.1	3516.9
25698	9.4565	2.7273	0.1	3492.5
25699	9.3647	3.	0.1	3516.7
25700	9.4565	2.9091	0.1	3492.
25701	9.3647	3.1818	0.1	3516.9
25702	9.4565	3.0909	0.1	3492.
25703	9.3647	3.3636	0.1	3517.6
25704	9.4565	3.2727	0.1	3492.5
25705	9.3647	3.5455	0.1	3518.7
25706	9.4565	3.4545	0.1	3493.4
25707	9.3647	3.7273	0.1	3520.3
25708	9.4565	3.6364	0.1	3494.7
25709	9.3647	3.9091	0.1	3522.3
25710	9.4565	3.8182	0.1	3496.4
25711	9.3647	4.0909	0.1	3524.8
25712	9.4565	4.	0.1	3498.6
25713	9.3647	4.2727	0.1	3527.6
25714	9.4565	4.1818	0.1	3501.1
25715	9.3647	4.4545	0.1	3530.8
25716	9.4565	4.3636	0.1	3504.1
25717	9.3647	4.6364	0.1	3534.4
25718	9.4565	4.5455	0.1	3507.4
25719	9.3647	4.8182	0.1	3538.3
25720	9.4565	4.7273	0.1	3511.
25721	9.3647	5.	0.1	3542.6
25722	9.4565	4.9091	0.1	3514.9
25723	9.3647	5.1818	0.1	3547.1
25724	9.4565	5.0909	0.1	3519.2
25725	9.3647	5.3636	0.1	3551.9
25726	9.4565	5.2727	0.1	3523.7
25727	9.3647	5.5455	0.1	3556.9
25728	9.4565	5.4545	0.1	3528.4
25729	9.3647	5.7273	0.1	3562.8
25730	9.4565	5.6364	0.1	3533.4
25731	9.4565	5.8182	0.1	3540.
25732	9.3647	5.9091	0.1	3563.7
25733	9.5483	0.27273	0.1	3510.5
25734	9.6401	0.18182	0.1	3487.6
25735	9.5483	9.0909e-002	0.1	3510.9
25736	9.5483	0.45455	0.1	3504.8
25737	9.6401	0.36364	0.1	3481.3
25738	9.5483	0.63636	0.1	3500.2
25739	9.6401	0.54545	0.1	3476.6
25740	9.5483	0.81818	0.1	3495.7
25741	9.6401	0.72727	0.1	3472.2
25742	9.5483	1.	0.1	3491.5
25743	9.6401	0.90909	0.1	3468.
25744	9.5483	1.1818	0.1	3487.6
25745	9.6401	1.0909	0.1	3464.1
25746	9.5483	1.3636	0.1	3483.9
25747	9.6401	1.2727	0.1	3460.4
25748	9.5483	1.5455	0.1	3480.6
25749	9.6401	1.4545	0.1	3457.
25750	9.5483	1.7273	0.1	3477.6
25751	9.6401	1.6364	0.1	3454.
25752	9.5483	1.9091	0.1	3474.9
25753	9.6401	1.8182	0.1	3451.2
25754	9.5483	2.0909	0.1	3472.7
25755	9.6401	2.	0.1	3448.9
25756	9.5483	2.2727	0.1	3470.8
25757	9.6401	2.1818	0.1	3446.9
25758	9.5483	2.4545	0.1	3469.3
25759	9.6401	2.3636	0.1	3445.2
25760	9.5483	2.6364	0.1	3468.3
25761	9.6401	2.5455	0.1	3444.
25762	9.5483	2.8182	0.1	3467.6
25763	9.6401	2.7273	0.1	3443.2
25764	9.5483	3.	0.1	3467.4
25765	9.6401	2.9091	0.1	3442.8
25766	9.5483	3.1818	0.1	3467.6
25767	9.6401	3.0909	0.1	3442.8
25768	9.5483	3.3636	0.1	3468.3
25769	9.6401	3.2727	0.1	3443.2
25770	9.5483	3.5455	0.1	3469.3
25771	9.6401	3.4545	0.1	3444.
25772	9.5483	3.7273	0.1	3470.8
25773	9.6401	3.6364	0.1	3445.2
25774	9.5483	3.9091	0.1	3472.7
25775	9.6401	3.8182	0.1	3446.9
25776	9.5483	4.0909	0.1	3474.9
25777	9.6401	4.	0.1	3448.9
25778	9.5483	4.2727	0.1	3477.6
25779	9.6401	4.1818	0.1	3451.2
25780	9.5483	4.4545	0.1	3480.6
25781	9.6401	4.3636	0.1	3454.
25782	9.5483	4.6364	0.1	3483.9
25783	9.6401	4.5455	0.1	3457.
25784	9.5483	4.8182	0.1	3487.6
25785	9.6401	4.7273	0.1	3460.4
25786	9.5483	5.	0.1	3491.5
25787	9.6401	4.9091	0.1	3464.1
25788	9.5483	5.1818	0.1	3495.7
25789	9.6401	5.0909	0.1	3468.
25790	9.5483	5.3636	0.1	3500.2
25791	9.6401	5.2727	0.1	3472.2
25792	9.5483	5.5455	0.1	3504.8
25793	9.6401	5.4545	0.1	3476.6
25794	9.5483	5.7273	0.1	3510.5
25795	9.6401	5.6364	0.1	3481.3
25796	9.6401	5.8182	0.1	3487.6
25797	9.5483	5.9091	0.1	3510.9
25798	9.7319	0.27273	0.1	3458.3
25799	9.8237	0.18182	0.1	3435.5
25800	9.7319	9.0909e-002	0.1	3458.3
25801	9.7319	0.45455	0.1	3453.
25802	9.8237	0.36364	0.1	3429.4
25803	9.7319	0.63636	0.1	3448.6
25804	9.8237	0.54545	0.1	3425.
25805	9.7319	0.81818	0.1	3444.5
25806	9.8237	0.72727	0.1	3420.9
25807	9.7319	1.	0.1	3440.6
25808	9.8237	0.90909	0.1	3417.
25809	9.7319	1.1818	0.1	3436.9
25810	9.8237	1.0909	0.1	3413.3
25811	9.7319	1.3636	0.1	3433.5
25812	9.8237	1.2727	0.1	3409.9
25813	9.7319	1.5455	0.1	3430.4
25814	9.8237	1.4545	0.1	3406.8
25815	9.7319	1.7273	0.1	3427.6
25816	9.8237	1.6364	0.1	3403.9
25817	9.7319	1.9091	0.1	3425.1
25818	9.8237	1.8182	0.1	3401.4
25819	9.7319	2.0909	0.1	3423.
25820	9.8237	2.	0.1	3399.2
25821	9.7319	2.2727	0.1	3421.3
25822	9.8237	2.1818	0.1	3397.3
25823	9.7319	2.4545	0.1	3419.9
25824	9.8237	2.3636	0.1	3395.8
25825	9.7319	2.6364	0.1	3418.9
25826	9.8237	2.5455	0.1	3394.7
25827	9.7319	2.8182	0.1	3418.3
25828	9.8237	2.7273	0.1	3393.9
25829	9.7319	3.	0.1	3418.1
25830	9.8237	2.9091	0.1	3393.5
25831	9.7319	3.1818	0.1	3418.3
25832	9.8237	3.0909	0.1	3393.5
25833	9.7319	3.3636	0.1	3418.9
25834	9.8237	3.2727	0.1	3393.9
25835	9.7319	3.5455	0.1	3419.9
25836	9.8237	3.4545	0.1	3394.7
25837	9.7319	3.7273	0.1	3421.3
25838	9.8237	3.6364	0.1	3395.8
25839	9.7319	3.9091	0.1	3423.
25840	9.8237	3.8182	0.1	3397.3
25841	9.7319	4.0909	0.1	3425.1
25842	9.8237	4.	0.1	3399.2
25843	9.7319	4.2727	0.1	3427.6
25844	9.8237	4.1818	0.1	3401.4
25845	9.7319	4.4545	0.1	3430.4
25846	9.8237	4.3636	0.1	3403.9
25847	9.7319	4.6364	0.1	3433.5
25848	9.8237	4.5455	0.1	3406.8
25849	9.7319	4.8182	0.1	3436.9
25850	9.8237	4.7273	0.1	3409.9
25851	9.7319	5.	0.1	3440.6
25852	9.8237	4.9091	0.1	3413.3
25853	9.7319	5.1818	0.1	3444.5
25854	9.8237	5.0909	0.1	3417.
25855	9.7319	5.3636	0.1	3448.6
25856	9.8237	5.2727	0.1	3420.9
25857	9.7319	5.5455	0.1	3453.
25858	9.8237	5.4545	0.1	3425.
25859	9.7319	5.7273	0.1	3458.3
25860	9.8237	5.6364	0.1	3429.4
25861	9.8237	5.8182	0.1	3435.5
25862	9.7319	5.9091	0.1	3458.3
25863	9.9155	0.27273	0.1	3406.4
25864	10.007	0.18182	0.1	3383.6
25865	9.9155	9.0909e-002	0.1	3406.
25866	9.9155	0.45455	0.1	3401.4
25867	10.007	0.36364	0.1	3377.7
25868	9.9155	0.63636	0.1	3397.3
25869	10.007	0.54545	0.1	3373.6
25870	9.9155	0.81818	0.1	3393.4
25871	10.007	0.72727	0.1	3369.8
25872	9.9155	1.	0.1	3389.8
25873	10.007	0.90909	0.1	3366.1
25874	9.9155	1.1818	0.1	3386.3
25875	10.007	1.0909	0.1	3362.7
25876	9.9155	1.3636	0.1	3383.2
25877	10.007	1.2727	0.1	3359.5
25878	9.9155	1.5455	0.1	3380.3
25879	10.007	1.4545	0.1	3356.6
25880	9.9155	1.7273	0.1	3377.7
25881	10.007	1.6364	0.1	3353.9
25882	9.9155	1.9091	0.1	3375.4
25883	10.007	1.8182	0.1	3351.6
25884	9.9155	2.0909	0.1	3373.4
25885	10.007	2.	0.1	3349.5
25886	9.9155	2.2727	0.1	3371.8
25887	10.007	2.1818	0.1	3347.8
25888	9.9155	2.4545	0.1	3370.5
25889	10.007	2.3636	0.1	3346.4
25890	9.9155	2.6364	0.1	3369.6
25891	10.007	2.5455	0.1	3345.3
25892	9.9155	2.8182	0.1	3369.1
25893	10.007	2.7273	0.1	3344.6
25894	9.9155	3.	0.1	3368.9
25895	10.007	2.9091	0.1	3344.3
25896	9.9155	3.1818	0.1	3369.1
25897	10.007	3.0909	0.1	3344.3
25898	9.9155	3.3636	0.1	3369.6
25899	10.007	3.2727	0.1	3344.6
25900	9.9155	3.5455	0.1	3370.5
25901	10.007	3.4545	0.1	3345.3
25902	9.9155	3.7273	0.1	3371.8
25903	10.007	3.6364	0.1	3346.4
25904	9.9155	3.9091	0.1	3373.4
25905	10.007	3.8182	0.1	3347.8
25906	9.9155	4.0909	0.1	3375.4
25907	10.007	4.	0.1	3349.5
25908	9.9155	4.2727	0.1	3377.7
25909	10.007	4.1818	0.1	3351.6
25910	9.9155	4.4545	0.1	3380.3
25911	10.007	4.3636	0.1	3353.9
25912	9.9155	4.6364	0.1	3383.2
25913	10.007	4.5455	0.1	3356.6
25914	9.9155	4.8182	0.1	3386.3
25915	10.007	4.7273	0.1	3359.5
25916	9.9155	5.	0.1	3389.8
25917	10.007	4.9091	0.1	3362.7
25918	9.9155	5.1818	0.1	3393.4
25919	10.007	5.0909	0.1	3366.1
25920	9.9155	5.3636	0.1	3397.3
25921	10.007	5.2727	0.1	3369.8
25922	9.9155	5.5455	0.1	3401.4
25923	10.007	5.4545	0.1	3373.6
25924	9.9155	5.7273	0.1	3406.4
25925	10.007	5.6364	0.1	3377.7
25926	10.007	5.8182	0.1	3383.6
25927	9.9155	5.9091	0.1	3406.
25928	10.099	0.27273	0.1	3354.8
25929	10.191	0.18182	0.1	3331.9
25930	10.099	9.0909e-002	0.1	3353.9
25931	10.099	0.45455	0.1	3349.9
25932	10.191	0.36364	0.1	3326.3
25933	10.099	0.63636	0.1	3346.1
25934	10.191	0.54545	0.1	3322.4
25935	10.099	0.81818	0.1	3342.5
25936	10.191	0.72727	0.1	3318.8
25937	10.099	1.	0.1	3339.1
25938	10.191	0.90909	0.1	3315.4
25939	10.099	1.1818	0.1	3335.9
25940	10.191	1.0909	0.1	3312.2
25941	10.099	1.3636	0.1	3332.9
25942	10.191	1.2727	0.1	3309.2
25943	10.099	1.5455	0.1	3330.2
25944	10.191	1.4545	0.1	3306.5
25945	10.099	1.7273	0.1	3327.8
25946	10.191	1.6364	0.1	3304.
25947	10.099	1.9091	0.1	3325.7
25948	10.191	1.8182	0.1	3301.8
25949	10.099	2.0909	0.1	3323.9
25950	10.191	2.	0.1	3299.9
25951	10.099	2.2727	0.1	3322.4
25952	10.191	2.1818	0.1	3298.3
25953	10.099	2.4545	0.1	3321.2
25954	10.191	2.3636	0.1	3297.
25955	10.099	2.6364	0.1	3320.3
25956	10.191	2.5455	0.1	3296.
25957	10.099	2.8182	0.1	3319.8
25958	10.191	2.7273	0.1	3295.4
25959	10.099	3.	0.1	3319.6
25960	10.191	2.9091	0.1	3295.1
25961	10.099	3.1818	0.1	3319.8
25962	10.191	3.0909	0.1	3295.1
25963	10.099	3.3636	0.1	3320.3
25964	10.191	3.2727	0.1	3295.4
25965	10.099	3.5455	0.1	3321.2
25966	10.191	3.4545	0.1	3296.
25967	10.099	3.7273	0.1	3322.4
25968	10.191	3.6364	0.1	3297.
25969	10.099	3.9091	0.1	3323.9
25970	10.191	3.8182	0.1	3298.3
25971	10.099	4.0909	0.1	3325.7
25972	10.191	4.	0.1	3299.9
25973	10.099	4.2727	0.1	3327.8
25974	10.191	4.1818	0.1	3301.8
25975	10.099	4.4545	0.1	3330.2
25976	10.191	4.3636	0.1	3304.
25977	10.099	4.6364	0.1	3332.9
25978	10.191	4.5455	0.1	3306.5
25979	10.099	4.8182	0.1	3335.9
25980	10.191	4.7273	0.1	3309.2
25981	10.099	5.	0.1	3339.1
25982	10.191	4.9091	0.1	3312.2
25983	10.099	5.1818	0.1	3342.5
25984	10.191	5.0909	0.1	3315.4
25985	10.099	5.3636	0.1	3346.1
25986	10.191	5.2727	0.1	3318.8
25987	10.099	5.5455	0.1	3349.9
25988	10.191	5.4545	0.1	3322.4
25989	10.099	5.7273	0.1	3354.8
25990	10.191	5.6364	0.1	3326.3
25991	10.191	5.8182	0.1	3331.9
25992	10.099	5.9091	0.1	3353.9
25993	10.283	0.27273	0.1	3303.3
25994	10.375	0.18182	0.1	3280.5
25995	10.283	9.0909e-002	0.1	3302.1
25996	10.283	0.45455	0.1	3298.7
25997	10.375	0.36364	0.1	3275.
25998	10.283	0.63636	0.1	3295.1
25999	10.375	0.54545	0.1	3271.4
26000	10.283	0.81818	0.1	3291.7
26001	10.375	0.72727	0.1	3268.
26002	10.283	1.	0.1	3288.5
26003	10.375	0.90909	0.1	3264.8
26004	10.283	1.1818	0.1	3285.6
26005	10.375	1.0909	0.1	3261.8
26006	10.283	1.3636	0.1	3282.8
26007	10.375	1.2727	0.1	3259.1
26008	10.283	1.5455	0.1	3280.3
26009	10.375	1.4545	0.1	3256.5
26010	10.283	1.7273	0.1	3278.
26011	10.375	1.6364	0.1	3254.2
26012	10.283	1.9091	0.1	3276.1
26013	10.375	1.8182	0.1	3252.2
26014	10.283	2.0909	0.1	3274.4
26015	10.375	2.	0.1	3250.4
26016	10.283	2.2727	0.1	3273.
26017	10.375	2.1818	0.1	3248.9
26018	10.283	2.4545	0.1	3271.9
26019	10.375	2.3636	0.1	3247.7
26020	10.283	2.6364	0.1	3271.1
26021	10.375	2.5455	0.1	3246.8
26022	10.283	2.8182	0.1	3270.6
26023	10.375	2.7273	0.1	3246.2
26024	10.283	3.	0.1	3270.4
26025	10.375	2.9091	0.1	3245.9
26026	10.283	3.1818	0.1	3270.6
26027	10.375	3.0909	0.1	3245.9
26028	10.283	3.3636	0.1	3271.1
26029	10.375	3.2727	0.1	3246.2
26030	10.283	3.5455	0.1	3271.9
26031	10.375	3.4545	0.1	3246.8
26032	10.283	3.7273	0.1	3273.
26033	10.375	3.6364	0.1	3247.7
26034	10.283	3.9091	0.1	3274.4
26035	10.375	3.8182	0.1	3248.9
26036	10.283	4.0909	0.1	3276.1
26037	10.375	4.	0.1	3250.4
26038	10.283	4.2727	0.1	3278.
26039	10.375	4.1818	0.1	3252.2
26040	10.283	4.4545	0.1	3280.3
26041	10.375	4.3636	0.1	3254.2
26042	10.283	4.6364	0.1	3282.8
26043	10.375	4.5455	0.1	3256.5
26044	10.283	4.8182	0.1	3285.6
26045	10.375	4.7273	0.1	3259.1
26046	10.283	5.	0.1	3288.5
26047	10.375	4.9091	0.1	3261.8
26048	10.283	5.1818	0.1	3291.7
26049	10.375	5.0909	0.1	3264.8
26050	10.283	5.3636	0.1	3295.1
26051	10.375	5.2727	0.1	3268.
26052	10.283	5.5455	0.1	3298.7
26053	10.375	5.4545	0.1	3271.4
26054	10.283	5.7273	0.1	3303.3
26055	10.375	5.6364	0.1	3275.
26056	10.375	5.8182	0.1	3280.5
26057	10.283	5.9091	0.1	3302.1
26058	10.466	0.27273	0.1	3252.
26059	10.558	0.18182	0.1	3229.2
26060	10.466	9.0909e-002	0.1	3250.5
26061	10.466	0.45455	0.1	3247.6
26062	10.558	0.36364	0.1	3223.9
26063	10.466	0.63636	0.1	3244.3
26064	10.558	0.54545	0.1	3220.5
26065	10.466	0.81818	0.1	3241.1
26066	10.558	0.72727	0.1	3217.4
26067	10.466	1.	0.1	3238.1
26068	10.558	0.90909	0.1	3214.4
26069	10.466	1.1818	0.1	3235.3
26070	10.558	1.0909	0.1	3211.6
26071	10.466	1.3636	0.1	3232.8
26072	10.558	1.2727	0.1	3209.
26073	10.466	1.5455	0.1	3230.4
26074	10.558	1.4545	0.1	3206.7
26075	10.466	1.7273	0.1	3228.3
26076	10.558	1.6364	0.1	3204.5
26077	10.466	1.9091	0.1	3226.5
26078	10.558	1.8182	0.1	3202.6
26079	10.466	2.0909	0.1	3224.9
26080	10.558	2.	0.1	3200.9
26081	10.466	2.2727	0.1	3223.6
26082	10.558	2.1818	0.1	3199.6
26083	10.466	2.4545	0.1	3222.6
26084	10.558	2.3636	0.1	3198.4
26085	10.466	2.6364	0.1	3221.9
26086	10.558	2.5455	0.1	3197.6
26087	10.466	2.8182	0.1	3221.4
26088	10.558	2.7273	0.1	3197.
26089	10.466	3.	0.1	3221.3
26090	10.558	2.9091	0.1	3196.7
26091	10.466	3.1818	0.1	3221.4
26092	10.558	3.0909	0.1	3196.7
26093	10.466	3.3636	0.1	3221.9
26094	10.558	3.2727	0.1	3197.
26095	10.466	3.5455	0.1	3222.6
26096	10.558	3.4545	0.1	3197.6
26097	10.466	3.7273	0.1	3223.6
26098	10.558	3.6364	0.1	3198.4
26099	10.466	3.9091	0.1	3224.9
26100	10.558	3.8182	0.1	3199.6
26101	10.466	4.0909	0.1	3226.5
26102	10.558	4.	0.1	3200.9
26103	10.466	4.2727	0.1	3228.3
26104	10.558	4.1818	0.1	3202.6
26105	10.466	4.4545	0.1	3230.4
26106	10.558	4.3636	0.1	3204.5
26107	10.466	4.6364	0.1	3232.8
26108	10.558	4.5455	0.1	3206.7
26109	10.466	4.8182	0.1	3235.3
26110	10.558	4.7273	0.1	3209.
26111	10.466	5.	0.1	3238.1
26112	10.558	4.9091	0.1	3211.6
26113	10.466	5.1818	0.1	3241.1
26114	10.558	5.0909	0.1	3214.4
26115	10.466	5.3636	0.1	3244.3
26116	10.558	5.2727	0.1	3217.4
26117	10.466	5.5455	0.1	3247.6
26118	10.558	5.4545	0.1	3220.5
26119	10.466	5.7273	0.1	3252.
26120	10.558	5.6364	0.1	3223.9
26121	10.558	5.8182	0.1	3229.2
26122	10.466	5.9091	0.1	3250.5
26123	10.65	0.27273	0.1	3201.
26124	10.742	0.18182	0.1	3178.2
26125	10.65	9.0909e-002	0.1	3199.1
26126	10.65	0.45455	0.1	3196.8
26127	10.742	0.36364	0.1	3173.1
26128	10.65	0.63636	0.1	3193.6
26129	10.742	0.54545	0.1	3169.9
26130	10.65	0.81818	0.1	3190.7
26131	10.742	0.72727	0.1	3166.9
26132	10.65	1.	0.1	3187.9
26133	10.742	0.90909	0.1	3164.1
26134	10.65	1.1818	0.1	3185.3
26135	10.742	1.0909	0.1	3161.5
26136	10.65	1.3636	0.1	3182.9
26137	10.742	1.2727	0.1	3159.1
26138	10.65	1.5455	0.1	3180.7
26139	10.742	1.4545	0.1	3156.9
26140	10.65	1.7273	0.1	3178.7
26141	10.742	1.6364	0.1	3154.9
26142	10.65	1.9091	0.1	3177.
26143	10.742	1.8182	0.1	3153.1
26144	10.65	2.0909	0.1	3175.6
26145	10.742	2.	0.1	3151.6
26146	10.65	2.2727	0.1	3174.3
26147	10.742	2.1818	0.1	3150.3
26148	10.65	2.4545	0.1	3173.4
26149	10.742	2.3636	0.1	3149.2
26150	10.65	2.6364	0.1	3172.7
26151	10.742	2.5455	0.1	3148.4
26152	10.65	2.8182	0.1	3172.3
26153	10.742	2.7273	0.1	3147.9
26154	10.65	3.	0.1	3172.2
26155	10.742	2.9091	0.1	3147.6
26156	10.65	3.1818	0.1	3172.3
26157	10.742	3.0909	0.1	3147.6
26158	10.65	3.3636	0.1	3172.7
26159	10.742	3.2727	0.1	3147.9
26160	10.65	3.5455	0.1	3173.4
26161	10.742	3.4545	0.1	3148.4
26162	10.65	3.7273	0.1	3174.3
26163	10.742	3.6364	0.1	3149.2
26164	10.65	3.9091	0.1	3175.6
26165	10.742	3.8182	0.1	3150.3
26166	10.65	4.0909	0.1	3177.
26167	10.742	4.	0.1	3151.6
26168	10.65	4.2727	0.1	3178.7
26169	10.742	4.1818	0.1	3153.1
26170	10.65	4.4545	0.1	3180.7
26171	10.742	4.3636	0.1	3154.9
26172	10.65	4.6364	0.1	3182.9
26173	10.742	4.5455	0.1	3156.9
26174	10.65	4.8182	0.1	3185.3
26175	10.742	4.7273	0.1	3159.1
26176	10.65	5.	0.1	3187.9
26177	10.742	4.9091	0.1	3161.5
26178	10.65	5.1818	0.1	3190.7
26179	10.742	5.0909	0.1	3164.1
26180	10.65	5.3636	0.1	3193.6
26181	10.742	5.2727	0.1	3166.9
26182	10.65	5.5455	0.1	3196.8
26183	10.742	5.4545	0.1	3169.9
26184	10.65	5.7273	0.1	3201.
26185	10.742	5.6364	0.1	3173.1
26186	10.742	5.8182	0.1	3178.2
26187	10.65	5.9091	0.1	3199.1
26188	10.834	0.27273	0.1	3150.1
26189	10.925	0.18182	0.1	3127.4
26190	10.834	9.0909e-002	0.1	3148.
26191	10.834	0.45455	0.1	3146.1
26192	10.925	0.36364	0.1	3122.4
26193	10.834	0.63636	0.1	3143.1
26194	10.925	0.54545	0.1	3119.4
26195	10.834	0.81818	0.1	3140.4
26196	10.925	0.72727	0.1	3116.6
26197	10.834	1.	0.1	3137.8
26198	10.925	0.90909	0.1	3114.
26199	10.834	1.1818	0.1	3135.3
26200	10.925	1.0909	0.1	3111.6
26201	10.834	1.3636	0.1	3133.1
26202	10.925	1.2727	0.1	3109.3
26203	10.834	1.5455	0.1	3131.1
26204	10.925	1.4545	0.1	3107.3
26205	10.834	1.7273	0.1	3129.2
26206	10.925	1.6364	0.1	3105.4
26207	10.834	1.9091	0.1	3127.6
26208	10.925	1.8182	0.1	3103.7
26209	10.834	2.0909	0.1	3126.3
26210	10.925	2.	0.1	3102.3
26211	10.834	2.2727	0.1	3125.1
26212	10.925	2.1818	0.1	3101.1
26213	10.834	2.4545	0.1	3124.3
26214	10.925	2.3636	0.1	3100.1
26215	10.834	2.6364	0.1	3123.6
26216	10.925	2.5455	0.1	3099.4
26217	10.834	2.8182	0.1	3123.2
26218	10.925	2.7273	0.1	3098.9
26219	10.834	3.	0.1	3123.1
26220	10.925	2.9091	0.1	3098.6
26221	10.834	3.1818	0.1	3123.2
26222	10.925	3.0909	0.1	3098.6
26223	10.834	3.3636	0.1	3123.6
26224	10.925	3.2727	0.1	3098.9
26225	10.834	3.5455	0.1	3124.3
26226	10.925	3.4545	0.1	3099.4
26227	10.834	3.7273	0.1	3125.1
26228	10.925	3.6364	0.1	3100.1
26229	10.834	3.9091	0.1	3126.3
26230	10.925	3.8182	0.1	3101.1
26231	10.834	4.0909	0.1	3127.6
26232	10.925	4.	0.1	3102.3
26233	10.834	4.2727	0.1	3129.2
26234	10.925	4.1818	0.1	3103.7
26235	10.834	4.4545	0.1	3131.1
26236	10.925	4.3636	0.1	3105.4
26237	10.834	4.6364	0.1	3133.1
26238	10.925	4.5455	0.1	3107.3
26239	10.834	4.8182	0.1	3135.3
26240	10.925	4.7273	0.1	3109.3
26241	10.834	5.	0.1	3137.8
26242	10.925	4.9091	0.1	3111.6
26243	10.834	5.1818	0.1	3140.4
26244	10.925	5.0909	0.1	3114.
26245	10.834	5.3636	0.1	3143.1
26246	10.925	5.2727	0.1	3116.6
26247	10.834	5.5455	0.1	3146.1
26248	10.925	5.4545	0.1	3119.4
26249	10.834	5.7273	0.1	3150.1
26250	10.925	5.6364	0.1	3122.4
26251	10.925	5.8182	0.1	3127.4
26252	10.834	5.9091	0.1	3148.
26253	11.017	0.27273	0.1	3099.5
26254	11.109	0.18182	0.1	3076.8
26255	11.017	9.0909e-002	0.1	3097.1
26256	11.017	0.45455	0.1	3095.7
26257	11.109	0.36364	0.1	3072.
26258	11.017	0.63636	0.1	3092.9
26259	11.109	0.54545	0.1	3069.1
26260	11.017	0.81818	0.1	3090.3
26261	11.109	0.72727	0.1	3066.5
26262	11.017	1.	0.1	3087.8
26263	11.109	0.90909	0.1	3064.1
26264	11.017	1.1818	0.1	3085.5
26265	11.109	1.0909	0.1	3061.8
26266	11.017	1.3636	0.1	3083.5
26267	11.109	1.2727	0.1	3059.7
26268	11.017	1.5455	0.1	3081.6
26269	11.109	1.4545	0.1	3057.8
26270	11.017	1.7273	0.1	3079.9
26271	11.109	1.6364	0.1	3056.
26272	11.017	1.9091	0.1	3078.4
26273	11.109	1.8182	0.1	3054.5
26274	11.017	2.0909	0.1	3077.1
26275	11.109	2.	0.1	3053.1
26276	11.017	2.2727	0.1	3076.
26277	11.109	2.1818	0.1	3052.
26278	11.017	2.4545	0.1	3075.2
26279	11.109	2.3636	0.1	3051.1
26280	11.017	2.6364	0.1	3074.6
26281	11.109	2.5455	0.1	3050.4
26282	11.017	2.8182	0.1	3074.3
26283	11.109	2.7273	0.1	3050.
26284	11.017	3.	0.1	3074.2
26285	11.109	2.9091	0.1	3049.7
26286	11.017	3.1818	0.1	3074.3
26287	11.109	3.0909	0.1	3049.7
26288	11.017	3.3636	0.1	3074.6
26289	11.109	3.2727	0.1	3050.
26290	11.017	3.5455	0.1	3075.2
26291	11.109	3.4545	0.1	3050.4
26292	11.017	3.7273	0.1	3076.
26293	11.109	3.6364	0.1	3051.1
26294	11.017	3.9091	0.1	3077.1
26295	11.109	3.8182	0.1	3052.
26296	11.017	4.0909	0.1	3078.4
26297	11.109	4.	0.1	3053.1
26298	11.017	4.2727	0.1	3079.9
26299	11.109	4.1818	0.1	3054.5
26300	11.017	4.4545	0.1	3081.6
26301	11.109	4.3636	0.1	3056.
26302	11.017	4.6364	0.1	3083.5
26303	11.109	4.5455	0.1	3057.8
26304	11.017	4.8182	0.1	3085.6
26305	11.109	4.7273	0.1	3059.7
26306	11.017	5.	0.1	3087.8
26307	11.109	4.9091	0.1	3061.8
26308	11.017	5.1818	0.1	3090.3
26309	11.109	5.0909	0.1	3064.1
26310	11.017	5.3636	0.1	3092.9
26311	11.109	5.2727	0.1	3066.5
26312	11.017	5.5455	0.1	3095.7
26313	11.109	5.4545	0.1	3069.1
26314	11.017	5.7273	0.1	3099.5
26315	11.109	5.6364	0.1	3072.
26316	11.109	5.8182	0.1	3076.8
26317	11.017	5.9091	0.1	3097.1
26318	11.201	0.27273	0.1	3049.1
26319	11.293	0.18182	0.1	3026.4
26320	11.201	9.0909e-002	0.1	3046.4
26321	11.201	0.45455	0.1	3045.4
26322	11.293	0.36364	0.1	3021.7
26323	11.201	0.63636	0.1	3042.7
26324	11.293	0.54545	0.1	3019.
26325	11.201	0.81818	0.1	3040.3
26326	11.293	0.72727	0.1	3016.6
26327	11.201	1.	0.1	3038.
26328	11.293	0.90909	0.1	3014.3
26329	11.201	1.1818	0.1	3035.9
26330	11.293	1.0909	0.1	3012.2
26331	11.201	1.3636	0.1	3034.
26332	11.293	1.2727	0.1	3010.2
26333	11.201	1.5455	0.1	3032.2
26334	11.293	1.4545	0.1	3008.4
26335	11.201	1.7273	0.1	3030.6
26336	11.293	1.6364	0.1	3006.8
26337	11.201	1.9091	0.1	3029.2
26338	11.293	1.8182	0.1	3005.3
26339	11.201	2.0909	0.1	3028.
26340	11.293	2.	0.1	3004.1
26341	11.201	2.2727	0.1	3027.
26342	11.293	2.1818	0.1	3003.
26343	11.201	2.4545	0.1	3026.3
26344	11.293	2.3636	0.1	3002.2
26345	11.201	2.6364	0.1	3025.7
26346	11.293	2.5455	0.1	3001.6
26347	11.201	2.8182	0.1	3025.4
26348	11.293	2.7273	0.1	3001.1
26349	11.201	3.	0.1	3025.3
26350	11.293	2.9091	0.1	3000.9
26351	11.201	3.1818	0.1	3025.4
26352	11.293	3.0909	0.1	3000.9
26353	11.201	3.3636	0.1	3025.7
26354	11.293	3.2727	0.1	3001.1
26355	11.201	3.5455	0.1	3026.3
26356	11.293	3.4545	0.1	3001.6
26357	11.201	3.7273	0.1	3027.
26358	11.293	3.6364	0.1	3002.2
26359	11.201	3.9091	0.1	3028.
26360	11.293	3.8182	0.1	3003.
26361	11.201	4.0909	0.1	3029.2
26362	11.293	4.	0.1	3004.1
26363	11.201	4.2727	0.1	3030.6
26364	11.293	4.1818	0.1	3005.3
26365	11.201	4.4545	0.1	3032.2
26366	11.293	4.3636	0.1	3006.8
26367	11.201	4.6364	0.1	3034.
26368	11.293	4.5455	0.1	3008.4
26369	11.201	4.8182	0.1	3035.9
26370	11.293	4.7273	0.1	3010.2
26371	11.201	5.	0.1	3038.
26372	11.293	4.9091	0.1	3012.2
26373	11.201	5.1818	0.1	3040.3
26374	11.293	5.0909	0.1	3014.3
26375	11.201	5.3636	0.1	3042.7
26376	11.293	5.2727	0.1	3016.6
26377	11.201	5.5455	0.1	3045.4
26378	11.293	5.4545	0.1	3019.
26379	11.201	5.7273	0.1	3049.1
26380	11.293	5.6364	0.1	3021.7
26381	11.293	5.8182	0.1	3026.4
26382	11.201	5.9091	0.1	3046.4
26383	11.384	0.27273	0.1	2998.9
26384	11.476	0.18182	0.1	2976.2
26385	11.384	9.0909e-002	0.1	2995.9
26386	11.384	0.45455	0.1	2995.3
26387	11.476	0.36364	0.1	2971.6
26388	11.384	0.63636	0.1	2992.8
26389	11.476	0.54545	0.1	2969.1
26390	11.384	0.81818	0.1	2990.5
26391	11.476	0.72727	0.1	2966.8
26392	11.384	1.	0.1	2988.4
26393	11.476	0.90909	0.1	2964.7
26394	11.384	1.1818	0.1	2986.4
26395	11.476	1.0909	0.1	2962.7
26396	11.384	1.3636	0.1	2984.6
26397	11.476	1.2727	0.1	2960.8
26398	11.384	1.5455	0.1	2982.9
26399	11.476	1.4545	0.1	2959.2
26400	11.384	1.7273	0.1	2981.5
26401	11.476	1.6364	0.1	2957.6
26402	11.384	1.9091	0.1	2980.2
26403	11.476	1.8182	0.1	2956.3
26404	11.384	2.0909	0.1	2979.1
26405	11.476	2.	0.1	2955.1
26406	11.384	2.2727	0.1	2978.2
26407	11.476	2.1818	0.1	2954.2
26408	11.384	2.4545	0.1	2977.4
26409	11.476	2.3636	0.1	2953.4
26410	11.384	2.6364	0.1	2976.9
26411	11.476	2.5455	0.1	2952.8
26412	11.384	2.8182	0.1	2976.6
26413	11.476	2.7273	0.1	2952.4
26414	11.384	3.	0.1	2976.5
26415	11.476	2.9091	0.1	2952.2
26416	11.384	3.1818	0.1	2976.6
26417	11.476	3.0909	0.1	2952.2
26418	11.384	3.3636	0.1	2976.9
26419	11.476	3.2727	0.1	2952.4
26420	11.384	3.5455	0.1	2977.4
26421	11.476	3.4545	0.1	2952.8
26422	11.384	3.7273	0.1	2978.2
26423	11.476	3.6364	0.1	2953.4
26424	11.384	3.9091	0.1	2979.1
26425	11.476	3.8182	0.1	2954.2
26426	11.384	4.0909	0.1	2980.2
26427	11.476	4.	0.1	2955.1
26428	11.384	4.2727	0.1	2981.5
26429	11.476	4.1818	0.1	2956.3
26430	11.384	4.4545	0.1	2982.9
26431	11.476	4.3636	0.1	2957.6
26432	11.384	4.6364	0.1	2984.6
26433	11.476	4.5455	0.1	2959.2
26434	11.384	4.8182	0.1	2986.4
26435	11.476	4.7273	0.1	2960.8
26436	11.384	5.	0.1	2988.4
26437	11.476	4.9091	0.1	2962.7
26438	11.384	5.1818	0.1	2990.5
26439	11.476	5.0909	0.1	2964.7
26440	11.384	5.3636	0.1	2992.8
26441	11.476	5.2727	0.1	2966.8
26442	11.384	5.5455	0.1	2995.3
26443	11.476	5.4545	0.1	2969.1
26444	11.384	5.7273	0.1	2998.9
26445	11.476	5.6364	0.1	2971.6
26446	11.476	5.8182	0.1	2976.2
26447	11.384	5.9091	0.1	2995.9
26448	11.568	0.27273	0.1	2948.8
26449	11.66	0.18182	0.1	2926.3
26450	11.568	9.0909e-002	0.1	2945.6
26451	11.568	0.45455	0.1	2945.4
26452	11.66	0.36364	0.1	2921.8
26453	11.568	0.63636	0.1	2943.1
26454	11.66	0.54545	0.1	2919.4
26455	11.568	0.81818	0.1	2940.9
26456	11.66	0.72727	0.1	2917.2
26457	11.568	1.	0.1	2938.9
26458	11.66	0.90909	0.1	2915.2
26459	11.568	1.1818	0.1	2937.1
26460	11.66	1.0909	0.1	2913.4
26461	11.568	1.3636	0.1	2935.4
26462	11.66	1.2727	0.1	2911.6
26463	11.568	1.5455	0.1	2933.8
26464	11.66	1.4545	0.1	2910.1
26465	11.568	1.7273	0.1	2932.5
26466	11.66	1.6364	0.1	2908.7
26467	11.568	1.9091	0.1	2931.3
26468	11.66	1.8182	0.1	2907.4
26469	11.568	2.0909	0.1	2930.2
26470	11.66	2.	0.1	2906.3
26471	11.568	2.2727	0.1	2929.4
26472	11.66	2.1818	0.1	2905.4
26473	11.568	2.4545	0.1	2928.7
26474	11.66	2.3636	0.1	2904.7
26475	11.568	2.6364	0.1	2928.2
26476	11.66	2.5455	0.1	2904.2
26477	11.568	2.8182	0.1	2928.
26478	11.66	2.7273	0.1	2903.8
26479	11.568	3.	0.1	2927.9
26480	11.66	2.9091	0.1	2903.6
26481	11.568	3.1818	0.1	2928.
26482	11.66	3.0909	0.1	2903.6
26483	11.568	3.3636	0.1	2928.2
26484	11.66	3.2727	0.1	2903.8
26485	11.568	3.5455	0.1	2928.7
26486	11.66	3.4545	0.1	2904.2
26487	11.568	3.7273	0.1	2929.4
26488	11.66	3.6364	0.1	2904.7
26489	11.568	3.9091	0.1	2930.2
26490	11.66	3.8182	0.1	2905.4
26491	11.568	4.0909	0.1	2931.3
26492	11.66	4.	0.1	2906.3
26493	11.568	4.2727	0.1	2932.5
26494	11.66	4.1818	0.1	2907.4
26495	11.568	4.4545	0.1	2933.8
26496	11.66	4.3636	0.1	2908.7
26497	11.568	4.6364	0.1	2935.4
26498	11.66	4.5455	0.1	2910.1
26499	11.568	4.8182	0.1	2937.1
26500	11.66	4.7273	0.1	2911.6
26501	11.568	5.	0.1	2938.9
26502	11.66	4.9091	0.1	2913.4
26503	11.568	5.1818	0.1	2940.9
26504	11.66	5.0909	0.1	2915.2
26505	11.568	5.3636	0.1	2943.1
26506	11.66	5.2727	0.1	2917.2
26507	11.568	5.5455	0.1	2945.4
26508	11.66	5.4545	0.1	2919.4
26509	11.568	5.7273	0.1	2948.8
26510	11.66	5.6364	0.1	2921.8
26511	11.66	5.8182	0.1	2926.3
26512	11.568	5.9091	0.1	2945.6
26513	11.752	0.27273	0.1	2899.
26514	11.844	0.18182	0.1	2876.5
26515	11.752	9.0909e-002	0.1	2895.6
26516	11.752	0.45455	0.1	2895.7
26517	11.844	0.36364	0.1	2872.1
26518	11.752	0.63636	0.1	2893.5
26519	11.844	0.54545	0.1	2869.8
26520	11.752	0.81818	0.1	2891.5
26521	11.844	0.72727	0.1	2867.8
26522	11.752	1.	0.1	2889.6
26523	11.844	0.90909	0.1	2866.
26524	11.752	1.1818	0.1	2887.9
26525	11.844	1.0909	0.1	2864.2
26526	11.752	1.3636	0.1	2886.3
26527	11.844	1.2727	0.1	2862.6
26528	11.752	1.5455	0.1	2884.9
26529	11.844	1.4545	0.1	2861.1
26530	11.752	1.7273	0.1	2883.6
26531	11.844	1.6364	0.1	2859.8
26532	11.752	1.9091	0.1	2882.5
26533	11.844	1.8182	0.1	2858.7
26534	11.752	2.0909	0.1	2881.5
26535	11.844	2.	0.1	2857.7
26536	11.752	2.2727	0.1	2880.7
26537	11.844	2.1818	0.1	2856.8
26538	11.752	2.4545	0.1	2880.1
26539	11.844	2.3636	0.1	2856.2
26540	11.752	2.6364	0.1	2879.7
26541	11.844	2.5455	0.1	2855.7
26542	11.752	2.8182	0.1	2879.4
26543	11.844	2.7273	0.1	2855.3
26544	11.752	3.	0.1	2879.3
26545	11.844	2.9091	0.1	2855.1
26546	11.752	3.1818	0.1	2879.4
26547	11.844	3.0909	0.1	2855.1
26548	11.752	3.3636	0.1	2879.7
26549	11.844	3.2727	0.1	2855.3
26550	11.752	3.5455	0.1	2880.1
26551	11.844	3.4545	0.1	2855.7
26552	11.752	3.7273	0.1	2880.7
26553	11.844	3.6364	0.1	2856.2
26554	11.752	3.9091	0.1	2881.5
26555	11.844	3.8182	0.1	2856.8
26556	11.752	4.0909	0.1	2882.5
26557	11.844	4.	0.1	2857.7
26558	11.752	4.2727	0.1	2883.6
26559	11.844	4.1818	0.1	2858.7
26560	11.752	4.4545	0.1	2884.9
26561	11.844	4.3636	0.1	2859.8
26562	11.752	4.6364	0.1	2886.3
26563	11.844	4.5455	0.1	2861.1
26564	11.752	4.8182	0.1	2887.9
26565	11.844	4.7273	0.1	2862.6
26566	11.752	5.	0.1	2889.6
26567	11.844	4.9091	0.1	2864.2
26568	11.752	5.1818	0.1	2891.5
26569	11.844	5.0909	0.1	2866.
26570	11.752	5.3636	0.1	2893.5
26571	11.844	5.2727	0.1	2867.8
26572	11.752	5.5455	0.1	2895.7
26573	11.844	5.4545	0.1	2869.8
26574	11.752	5.7273	0.1	2899.
26575	11.844	5.6364	0.1	2872.1
26576	11.844	5.8182	0.1	2876.5
26577	11.752	5.9091	0.1	2895.6
26578	11.935	0.27273	0.1	2849.4
26579	12.027	0.18182	0.1	2826.9
26580	11.935	9.0909e-002	0.1	2845.8
26581	11.935	0.45455	0.1	2846.2
26582	12.027	0.36364	0.1	2822.6
26583	11.935	0.63636	0.1	2844.1
26584	12.027	0.54545	0.1	2820.5
26585	11.935	0.81818	0.1	2842.3
26586	12.027	0.72727	0.1	2818.6
26587	11.935	1.	0.1	2840.5
26588	12.027	0.90909	0.1	2816.9
26589	11.935	1.1818	0.1	2838.9
26590	12.027	1.0909	0.1	2815.2
26591	11.935	1.3636	0.1	2837.4
26592	12.027	1.2727	0.1	2813.7
26593	11.935	1.5455	0.1	2836.1
26594	12.027	1.4545	0.1	2812.4
26595	11.935	1.7273	0.1	2834.9
26596	12.027	1.6364	0.1	2811.1
26597	11.935	1.9091	0.1	2833.8
26598	12.027	1.8182	0.1	2810.1
26599	11.935	2.0909	0.1	2833.
26600	12.027	2.	0.1	2809.1
26601	11.935	2.2727	0.1	2832.2
26602	12.027	2.1818	0.1	2808.4
26603	11.935	2.4545	0.1	2831.7
26604	12.027	2.3636	0.1	2807.7
26605	11.935	2.6364	0.1	2831.2
26606	12.027	2.5455	0.1	2807.3
26607	11.935	2.8182	0.1	2831.
26608	12.027	2.7273	0.1	2807.
26609	11.935	3.	0.1	2830.9
26610	12.027	2.9091	0.1	2806.8
26611	11.935	3.1818	0.1	2831.
26612	12.027	3.0909	0.1	2806.8
26613	11.935	3.3636	0.1	2831.2
26614	12.027	3.2727	0.1	2807.
26615	11.935	3.5455	0.1	2831.7
26616	12.027	3.4545	0.1	2807.3
26617	11.935	3.7273	0.1	2832.2
26618	12.027	3.6364	0.1	2807.7
26619	11.935	3.9091	0.1	2833.
26620	12.027	3.8182	0.1	2808.4
26621	11.935	4.0909	0.1	2833.8
26622	12.027	4.	0.1	2809.1
26623	11.935	4.2727	0.1	2834.9
26624	12.027	4.1818	0.1	2810.1
26625	11.935	4.4545	0.1	2836.1
26626	12.027	4.3636	0.1	2811.1
26627	11.935	4.6364	0.1	2837.4
26628	12.027	4.5455	0.1	2812.4
26629	11.935	4.8182	0.1	2838.9
26630	12.027	4.7273	0.1	2813.7
26631	11.935	5.	0.1	2840.5
26632	12.027	4.9091	0.1	2815.2
26633	11.935	5.1818	0.1	2842.3
26634	12.027	5.0909	0.1	2816.9
26635	11.935	5.3636	0.1	2844.1
26636	12.027	5.2727	0.1	2818.6
26637	11.935	5.5455	0.1	2846.2
26638	12.027	5.4545	0.1	2820.5
26639	11.935	5.7273	0.1	2849.4
26640	12.027	5.6364	0.1	2822.6
26641	12.027	5.8182	0.1	2826.9
26642	11.935	5.9091	0.1	2845.8
26643	12.119	0.27273	0.1	2800.
26644	12.211	0.18182	0.1	2777.6
26645	12.119	9.0909e-002	0.1	2796.1
26646	12.119	0.45455	0.1	2796.9
26647	12.211	0.36364	0.1	2773.4
26648	12.119	0.63636	0.1	2794.9
26649	12.211	0.54545	0.1	2771.3
26650	12.119	0.81818	0.1	2793.2
26651	12.211	0.72727	0.1	2769.6
26652	12.119	1.	0.1	2791.5
26653	12.211	0.90909	0.1	2767.9
26654	12.119	1.1818	0.1	2790.
26655	12.211	1.0909	0.1	2766.4
26656	12.119	1.3636	0.1	2788.7
26657	12.211	1.2727	0.1	2765.
26658	12.119	1.5455	0.1	2787.4
26659	12.211	1.4545	0.1	2763.8
26660	12.119	1.7273	0.1	2786.3
26661	12.211	1.6364	0.1	2762.6
26662	12.119	1.9091	0.1	2785.3
26663	12.211	1.8182	0.1	2761.6
26664	12.119	2.0909	0.1	2784.5
26665	12.211	2.	0.1	2760.8
26666	12.119	2.2727	0.1	2783.9
26667	12.211	2.1818	0.1	2760.
26668	12.119	2.4545	0.1	2783.3
26669	12.211	2.3636	0.1	2759.5
26670	12.119	2.6364	0.1	2783.
26671	12.211	2.5455	0.1	2759.
26672	12.119	2.8182	0.1	2782.7
26673	12.211	2.7273	0.1	2758.7
26674	12.119	3.	0.1	2782.7
26675	12.211	2.9091	0.1	2758.6
26676	12.119	3.1818	0.1	2782.7
26677	12.211	3.0909	0.1	2758.6
26678	12.119	3.3636	0.1	2783.
26679	12.211	3.2727	0.1	2758.7
26680	12.119	3.5455	0.1	2783.3
26681	12.211	3.4545	0.1	2759.
26682	12.119	3.7273	0.1	2783.9
26683	12.211	3.6364	0.1	2759.5
26684	12.119	3.9091	0.1	2784.5
26685	12.211	3.8182	0.1	2760.
26686	12.119	4.0909	0.1	2785.3
26687	12.211	4.	0.1	2760.8
26688	12.119	4.2727	0.1	2786.3
26689	12.211	4.1818	0.1	2761.6
26690	12.119	4.4545	0.1	2787.4
26691	12.211	4.3636	0.1	2762.6
26692	12.119	4.6364	0.1	2788.7
26693	12.211	4.5455	0.1	2763.8
26694	12.119	4.8182	0.1	2790.
26695	12.211	4.7273	0.1	2765.
26696	12.119	5.	0.1	2791.5
26697	12.211	4.9091	0.1	2766.4
26698	12.119	5.1818	0.1	2793.2
26699	12.211	5.0909	0.1	2767.9
26700	12.119	5.3636	0.1	2794.9
26701	12.211	5.2727	0.1	2769.6
26702	12.119	5.5455	0.1	2796.9
26703	12.211	5.4545	0.1	2771.3
26704	12.119	5.7273	0.1	2800.
26705	12.211	5.6364	0.1	2773.4
26706	12.211	5.8182	0.1	2777.6
26707	12.119	5.9091	0.1	2796.1
26708	12.303	0.27273	0.1	2750.8
26709	12.394	0.18182	0.1	2728.4
26710	12.303	9.0909e-002	0.1	2746.7
26711	12.303	0.45455	0.1	2747.8
26712	12.394	0.36364	0.1	2724.3
26713	12.303	0.63636	0.1	2745.9
26714	12.394	0.54545	0.1	2722.4
26715	12.303	0.81818	0.1	2744.3
26716	12.394	0.72727	0.1	2720.7
26717	12.303	1.	0.1	2742.8
26718	12.394	0.90909	0.1	2719.2
26719	12.303	1.1818	0.1	2741.4
26720	12.394	1.0909	0.1	2717.8
26721	12.303	1.3636	0.1	2740.1
26722	12.394	1.2727	0.1	2716.5
26723	12.303	1.5455	0.1	2738.9
26724	12.394	1.4545	0.1	2715.3
26725	12.303	1.7273	0.1	2737.9
26726	12.394	1.6364	0.1	2714.3
26727	12.303	1.9091	0.1	2737.
26728	12.394	1.8182	0.1	2713.3
26729	12.303	2.0909	0.1	2736.3
26730	12.394	2.	0.1	2712.5
26731	12.303	2.2727	0.1	2735.6
26732	12.394	2.1818	0.1	2711.9
26733	12.303	2.4545	0.1	2735.1
26734	12.394	2.3636	0.1	2711.3
26735	12.303	2.6364	0.1	2734.8
26736	12.394	2.5455	0.1	2710.9
26737	12.303	2.8182	0.1	2734.6
26738	12.394	2.7273	0.1	2710.7
26739	12.303	3.	0.1	2734.5
26740	12.394	2.9091	0.1	2710.5
26741	12.303	3.1818	0.1	2734.6
26742	12.394	3.0909	0.1	2710.5
26743	12.303	3.3636	0.1	2734.8
26744	12.394	3.2727	0.1	2710.7
26745	12.303	3.5455	0.1	2735.1
26746	12.394	3.4545	0.1	2710.9
26747	12.303	3.7273	0.1	2735.6
26748	12.394	3.6364	0.1	2711.3
26749	12.303	3.9091	0.1	2736.3
26750	12.394	3.8182	0.1	2711.9
26751	12.303	4.0909	0.1	2737.
26752	12.394	4.	0.1	2712.5
26753	12.303	4.2727	0.1	2737.9
26754	12.394	4.1818	0.1	2713.3
26755	12.303	4.4545	0.1	2738.9
26756	12.394	4.3636	0.1	2714.3
26757	12.303	4.6364	0.1	2740.1
26758	12.394	4.5455	0.1	2715.3
26759	12.303	4.8182	0.1	2741.4
26760	12.394	4.7273	0.1	2716.5
26761	12.303	5.	0.1	2742.8
26762	12.394	4.9091	0.1	2717.8
26763	12.303	5.1818	0.1	2744.3
26764	12.394	5.0909	0.1	2719.2
26765	12.303	5.3636	0.1	2745.9
26766	12.394	5.2727	0.1	2720.7
26767	12.303	5.5455	0.1	2747.8
26768	12.394	5.4545	0.1	2722.4
26769	12.303	5.7273	0.1	2750.8
26770	12.394	5.6364	0.1	2724.3
26771	12.394	5.8182	0.1	2728.4
26772	12.303	5.9091	0.1	2746.7
26773	12.486	0.27273	0.1	2701.8
26774	12.578	0.18182	0.1	2679.4
26775	12.486	9.0909e-002	0.1	2697.5
26776	12.486	0.45455	0.1	2698.8
26777	12.578	0.36364	0.1	2675.4
26778	12.486	0.63636	0.1	2697.1
26779	12.578	0.54545	0.1	2673.6
26780	12.486	0.81818	0.1	2695.6
26781	12.578	0.72727	0.1	2672.1
26782	12.486	1.	0.1	2694.2
26783	12.578	0.90909	0.1	2670.6
26784	12.486	1.1818	0.1	2692.9
26785	12.578	1.0909	0.1	2669.3
26786	12.486	1.3636	0.1	2691.7
26787	12.578	1.2727	0.1	2668.1
26788	12.486	1.5455	0.1	2690.6
26789	12.578	1.4545	0.1	2667.
26790	12.486	1.7273	0.1	2689.7
26791	12.578	1.6364	0.1	2666.1
26792	12.486	1.9091	0.1	2688.8
26793	12.578	1.8182	0.1	2665.2
26794	12.486	2.0909	0.1	2688.1
26795	12.578	2.	0.1	2664.5
26796	12.486	2.2727	0.1	2687.6
26797	12.578	2.1818	0.1	2663.9
26798	12.486	2.4545	0.1	2687.1
26799	12.578	2.3636	0.1	2663.4
26800	12.486	2.6364	0.1	2686.8
26801	12.578	2.5455	0.1	2663.
26802	12.486	2.8182	0.1	2686.6
26803	12.578	2.7273	0.1	2662.8
26804	12.486	3.	0.1	2686.5
26805	12.578	2.9091	0.1	2662.7
26806	12.486	3.1818	0.1	2686.6
26807	12.578	3.0909	0.1	2662.7
26808	12.486	3.3636	0.1	2686.8
26809	12.578	3.2727	0.1	2662.8
26810	12.486	3.5455	0.1	2687.1
26811	12.578	3.4545	0.1	2663.
26812	12.486	3.7273	0.1	2687.6
26813	12.578	3.6364	0.1	2663.4
26814	12.486	3.9091	0.1	2688.1
26815	12.578	3.8182	0.1	2663.9
26816	12.486	4.0909	0.1	2688.8
26817	12.578	4.	0.1	2664.5
26818	12.486	4.2727	0.1	2689.7
26819	12.578	4.1818	0.1	2665.2
26820	12.486	4.4545	0.1	2690.6
26821	12.578	4.3636	0.1	2666.1
26822	12.486	4.6364	0.1	2691.7
26823	12.578	4.5455	0.1	2667.
26824	12.486	4.8182	0.1	2692.9
26825	12.578	4.7273	0.1	2668.1
26826	12.486	5.	0.1	2694.2
26827	12.578	4.9091	0.1	2669.3
26828	12.486	5.1818	0.1	2695.6
26829	12.578	5.0909	0.1	2670.6
26830	12.486	5.3636	0.1	2697.1
26831	12.578	5.2727	0.1	2672.1
26832	12.486	5.5455	0.1	2698.8
26833	12.578	5.4545	0.1	2673.6
26834	12.486	5.7273	0.1	2701.8
26835	12.578	5.6364	0.1	2675.4
26836	12.578	5.8182	0.1	2679.4
26837	12.486	5.9091	0.1	2697.5
26838	12.67	0.27273	0.1	2652.9
26839	12.762	0.18182	0.1	2630.7
26840	12.67	9.0909e-002	0.1	2648.5
26841	12.67	0.45455	0.1	2650.1
26842	12.762	0.36364	0.1	2626.7
26843	12.67	0.63636	0.1	2648.5
26844	12.762	0.54545	0.1	2625.
26845	12.67	0.81818	0.1	2647.1
26846	12.762	0.72727	0.1	2623.6
26847	12.67	1.	0.1	2645.7
26848	12.762	0.90909	0.1	2622.2
26849	12.67	1.1818	0.1	2644.5
26850	12.762	1.0909	0.1	2621.
26851	12.67	1.3636	0.1	2643.4
26852	12.762	1.2727	0.1	2619.9
26853	12.67	1.5455	0.1	2642.4
26854	12.762	1.4545	0.1	2618.9
26855	12.67	1.7273	0.1	2641.6
26856	12.762	1.6364	0.1	2618.
26857	12.67	1.9091	0.1	2640.8
26858	12.762	1.8182	0.1	2617.3
26859	12.67	2.0909	0.1	2640.2
26860	12.762	2.	0.1	2616.6
26861	12.67	2.2727	0.1	2639.7
26862	12.762	2.1818	0.1	2616.
26863	12.67	2.4545	0.1	2639.3
26864	12.762	2.3636	0.1	2615.6
26865	12.67	2.6364	0.1	2639.
26866	12.762	2.5455	0.1	2615.2
26867	12.67	2.8182	0.1	2638.8
26868	12.762	2.7273	0.1	2615.
26869	12.67	3.	0.1	2638.7
26870	12.762	2.9091	0.1	2614.9
26871	12.67	3.1818	0.1	2638.8
26872	12.762	3.0909	0.1	2614.9
26873	12.67	3.3636	0.1	2639.
26874	12.762	3.2727	0.1	2615.
26875	12.67	3.5455	0.1	2639.3
26876	12.762	3.4545	0.1	2615.2
26877	12.67	3.7273	0.1	2639.7
26878	12.762	3.6364	0.1	2615.6
26879	12.67	3.9091	0.1	2640.2
26880	12.762	3.8182	0.1	2616.
26881	12.67	4.0909	0.1	2640.8
26882	12.762	4.	0.1	2616.6
26883	12.67	4.2727	0.1	2641.6
26884	12.762	4.1818	0.1	2617.3
26885	12.67	4.4545	0.1	2642.4
26886	12.762	4.3636	0.1	2618.
26887	12.67	4.6364	0.1	2643.4
26888	12.762	4.5455	0.1	2618.9
26889	12.67	4.8182	0.1	2644.5
26890	12.762	4.7273	0.1	2619.9
26891	12.67	5.	0.1	2645.7
26892	12.762	4.9091	0.1	2621.
26893	12.67	5.1818	0.1	2647.1
26894	12.762	5.0909	0.1	2622.2
26895	12.67	5.3636	0.1	2648.5
26896	12.762	5.2727	0.1	2623.6
26897	12.67	5.5455	0.1	2650.1
26898	12.762	5.4545	0.1	2625.
26899	12.67	5.7273	0.1	2652.9
26900	12.762	5.6364	0.1	2626.7
26901	12.762	5.8182	0.1	2630.7
26902	12.67	5.9091	0.1	2648.5
26903	12.853	0.27273	0.1	2604.3
26904	12.945	0.18182	0.1	2582.1
26905	12.853	9.0909e-002	0.1	2599.7
26906	12.853	0.45455	0.1	2601.6
26907	12.945	0.36364	0.1	2578.2
26908	12.853	0.63636	0.1	2600.1
26909	12.945	0.54545	0.1	2576.6
26910	12.853	0.81818	0.1	2598.7
26911	12.945	0.72727	0.1	2575.3
26912	12.853	1.	0.1	2597.5
26913	12.945	0.90909	0.1	2574.
26914	12.853	1.1818	0.1	2596.4
26915	12.945	1.0909	0.1	2572.9
26916	12.853	1.3636	0.1	2595.4
26917	12.945	1.2727	0.1	2571.9
26918	12.853	1.5455	0.1	2594.5
26919	12.945	1.4545	0.1	2571.
26920	12.853	1.7273	0.1	2593.7
26921	12.945	1.6364	0.1	2570.2
26922	12.853	1.9091	0.1	2593.
26923	12.945	1.8182	0.1	2569.5
26924	12.853	2.0909	0.1	2592.4
26925	12.945	2.	0.1	2568.9
26926	12.853	2.2727	0.1	2591.9
26927	12.945	2.1818	0.1	2568.4
26928	12.853	2.4545	0.1	2591.5
26929	12.945	2.3636	0.1	2568.
26930	12.853	2.6364	0.1	2591.3
26931	12.945	2.5455	0.1	2567.6
26932	12.853	2.8182	0.1	2591.1
26933	12.945	2.7273	0.1	2567.4
26934	12.853	3.	0.1	2591.1
26935	12.945	2.9091	0.1	2567.3
26936	12.853	3.1818	0.1	2591.1
26937	12.945	3.0909	0.1	2567.3
26938	12.853	3.3636	0.1	2591.3
26939	12.945	3.2727	0.1	2567.4
26940	12.853	3.5455	0.1	2591.5
26941	12.945	3.4545	0.1	2567.6
26942	12.853	3.7273	0.1	2591.9
26943	12.945	3.6364	0.1	2568.
26944	12.853	3.9091	0.1	2592.4
26945	12.945	3.8182	0.1	2568.4
26946	12.853	4.0909	0.1	2593.
26947	12.945	4.	0.1	2568.9
26948	12.853	4.2727	0.1	2593.7
26949	12.945	4.1818	0.1	2569.5
26950	12.853	4.4545	0.1	2594.5
26951	12.945	4.3636	0.1	2570.2
26952	12.853	4.6364	0.1	2595.4
26953	12.945	4.5455	0.1	2571.
26954	12.853	4.8182	0.1	2596.4
26955	12.945	4.7273	0.1	2571.9
26956	12.853	5.	0.1	2597.5
26957	12.945	4.9091	0.1	2572.9
26958	12.853	5.1818	0.1	2598.7
26959	12.945	5.0909	0.1	2574.
26960	12.853	5.3636	0.1	2600.1
26961	12.945	5.2727	0.1	2575.3
26962	12.853	5.5455	0.1	2601.6
26963	12.945	5.4545	0.1	2576.6
26964	12.853	5.7273	0.1	2604.3
26965	12.945	5.6364	0.1	2578.2
26966	12.945	5.8182	0.1	2582.1
26967	12.853	5.9091	0.1	2599.7
26968	13.037	0.27273	0.1	2555.9
26969	13.129	0.18182	0.1	2533.7
26970	13.037	9.0909e-002	0.1	2551.1
26971	13.037	0.45455	0.1	2553.2
26972	13.129	0.36364	0.1	2529.9
26973	13.037	0.63636	0.1	2551.8
26974	13.129	0.54545	0.1	2528.4
26975	13.037	0.81818	0.1	2550.6
26976	13.129	0.72727	0.1	2527.2
26977	13.037	1.	0.1	2549.4
26978	13.129	0.90909	0.1	2526.
26979	13.037	1.1818	0.1	2548.4
26980	13.129	1.0909	0.1	2525.
26981	13.037	1.3636	0.1	2547.5
26982	13.129	1.2727	0.1	2524.1
26983	13.037	1.5455	0.1	2546.7
26984	13.129	1.4545	0.1	2523.2
26985	13.037	1.7273	0.1	2545.9
26986	13.129	1.6364	0.1	2522.5
26987	13.037	1.9091	0.1	2545.3
26988	13.129	1.8182	0.1	2521.9
26989	13.037	2.0909	0.1	2544.8
26990	13.129	2.	0.1	2521.3
26991	13.037	2.2727	0.1	2544.4
26992	13.129	2.1818	0.1	2520.9
26993	13.037	2.4545	0.1	2544.
26994	13.129	2.3636	0.1	2520.5
26995	13.037	2.6364	0.1	2543.8
26996	13.129	2.5455	0.1	2520.2
26997	13.037	2.8182	0.1	2543.6
26998	13.129	2.7273	0.1	2520.
26999	13.037	3.	0.1	2543.6
27000	13.129	2.9091	0.1	2520.
27001	13.037	3.1818	0.1	2543.6
27002	13.129	3.0909	0.1	2520.
27003	13.037	3.3636	0.1	2543.8
27004	13.129	3.2727	0.1	2520.
27005	13.037	3.5455	0.1	2544.
27006	13.129	3.4545	0.1	2520.2
27007	13.037	3.7273	0.1	2544.4
27008	13.129	3.6364	0.1	2520.5
27009	13.037	3.9091	0.1	2544.8
27010	13.129	3.8182	0.1	2520.9
27011	13.037	4.0909	0.1	2545.3
27012	13.129	4.	0.1	2521.3
27013	13.037	4.2727	0.1	2545.9
27014	13.129	4.1818	0.1	2521.9
27015	13.037	4.4545	0.1	2546.7
27016	13.129	4.3636	0.1	2522.5
27017	13.037	4.6364	0.1	2547.5
27018	13.129	4.5455	0.1	2523.2
27019	13.037	4.8182	0.1	2548.4
27020	13.129	4.7273	0.1	2524.1
27021	13.037	5.	0.1	2549.4
27022	13.129	4.9091	0.1	2525.
27023	13.037	5.1818	0.1	2550.6
27024	13.129	5.0909	0.1	2526.
27025	13.037	5.3636	0.1	2551.8
27026	13.129	5.2727	0.1	2527.2
27027	13.037	5.5455	0.1	2553.2
27028	13.129	5.4545	0.1	2528.4
27029	13.037	5.7273	0.1	2555.9
27030	13.129	5.6364	0.1	2529.9
27031	13.129	5.8182	0.1	2533.7
27032	13.037	5.9091	0.1	2551.1
27033	13.221	0.27273	0.1	2507.6
27034	13.313	0.18182	0.1	2485.5
27035	13.221	9.0909e-002	0.1	2502.6
27036	13.221	0.45455	0.1	2505.1
27037	13.313	0.36364	0.1	2481.8
27038	13.221	0.63636	0.1	2503.7
27039	13.313	0.54545	0.1	2480.4
27040	13.221	0.81818	0.1	2502.6
27041	13.313	0.72727	0.1	2479.2
27042	13.221	1.	0.1	2501.6
27043	13.313	0.90909	0.1	2478.2
27044	13.221	1.1818	0.1	2500.6
27045	13.313	1.0909	0.1	2477.3
27046	13.221	1.3636	0.1	2499.8
27047	13.313	1.2727	0.1	2476.4
27048	13.221	1.5455	0.1	2499.
27049	13.313	1.4545	0.1	2475.7
27050	13.221	1.7273	0.1	2498.4
27051	13.313	1.6364	0.1	2475.
27052	13.221	1.9091	0.1	2497.8
27053	13.313	1.8182	0.1	2474.4
27054	13.221	2.0909	0.1	2497.4
27055	13.313	2.	0.1	2473.9
27056	13.221	2.2727	0.1	2497.
27057	13.313	2.1818	0.1	2473.5
27058	13.221	2.4545	0.1	2496.7
27059	13.313	2.3636	0.1	2473.2
27060	13.221	2.6364	0.1	2496.5
27061	13.313	2.5455	0.1	2473.
27062	13.221	2.8182	0.1	2496.3
27063	13.313	2.7273	0.1	2472.8
27064	13.221	3.	0.1	2496.3
27065	13.313	2.9091	0.1	2472.7
27066	13.221	3.1818	0.1	2496.3
27067	13.313	3.0909	0.1	2472.7
27068	13.221	3.3636	0.1	2496.5
27069	13.313	3.2727	0.1	2472.8
27070	13.221	3.5455	0.1	2496.7
27071	13.313	3.4545	0.1	2473.
27072	13.221	3.7273	0.1	2497.
27073	13.313	3.6364	0.1	2473.2
27074	13.221	3.9091	0.1	2497.4
27075	13.313	3.8182	0.1	2473.5
27076	13.221	4.0909	0.1	2497.8
27077	13.313	4.	0.1	2473.9
27078	13.221	4.2727	0.1	2498.4
27079	13.313	4.1818	0.1	2474.4
27080	13.221	4.4545	0.1	2499.
27081	13.313	4.3636	0.1	2475.
27082	13.221	4.6364	0.1	2499.8
27083	13.313	4.5455	0.1	2475.7
27084	13.221	4.8182	0.1	2500.6
27085	13.313	4.7273	0.1	2476.4
27086	13.221	5.	0.1	2501.6
27087	13.313	4.9091	0.1	2477.3
27088	13.221	5.1818	0.1	2502.6
27089	13.313	5.0909	0.1	2478.2
27090	13.221	5.3636	0.1	2503.7
27091	13.313	5.2727	0.1	2479.2
27092	13.221	5.5455	0.1	2505.1
27093	13.313	5.4545	0.1	2480.4
27094	13.221	5.7273	0.1	2507.6
27095	13.313	5.6364	0.1	2481.8
27096	13.313	5.8182	0.1	2485.5
27097	13.221	5.9091	0.1	2502.6
27098	13.404	0.27273	0.1	2459.6
27099	13.496	0.18182	0.1	2437.5
27100	13.404	9.0909e-002	0.1	2454.4
27101	13.404	0.45455	0.1	2457.1
27102	13.496	0.36364	0.1	2433.9
27103	13.404	0.63636	0.1	2455.9
27104	13.496	0.54545	0.1	2432.6
27105	13.404	0.81818	0.1	2454.8
27106	13.496	0.72727	0.1	2431.5
27107	13.404	1.	0.1	2453.9
27108	13.496	0.90909	0.1	2430.6
27109	13.404	1.1818	0.1	2453.
27110	13.496	1.0909	0.1	2429.7
27111	13.404	1.3636	0.1	2452.3
27112	13.496	1.2727	0.1	2429.
27113	13.404	1.5455	0.1	2451.6
27114	13.496	1.4545	0.1	2428.3
27115	13.404	1.7273	0.1	2451.
27116	13.496	1.6364	0.1	2427.7
27117	13.404	1.9091	0.1	2450.5
27118	13.496	1.8182	0.1	2427.2
27119	13.404	2.0909	0.1	2450.1
27120	13.496	2.	0.1	2426.8
27121	13.404	2.2727	0.1	2449.8
27122	13.496	2.1818	0.1	2426.4
27123	13.404	2.4545	0.1	2449.5
27124	13.496	2.3636	0.1	2426.1
27125	13.404	2.6364	0.1	2449.3
27126	13.496	2.5455	0.1	2425.9
27127	13.404	2.8182	0.1	2449.2
27128	13.496	2.7273	0.1	2425.8
27129	13.404	3.	0.1	2449.2
27130	13.496	2.9091	0.1	2425.7
27131	13.404	3.1818	0.1	2449.2
27132	13.496	3.0909	0.1	2425.7
27133	13.404	3.3636	0.1	2449.3
27134	13.496	3.2727	0.1	2425.8
27135	13.404	3.5455	0.1	2449.5
27136	13.496	3.4545	0.1	2425.9
27137	13.404	3.7273	0.1	2449.8
27138	13.496	3.6364	0.1	2426.1
27139	13.404	3.9091	0.1	2450.1
27140	13.496	3.8182	0.1	2426.4
27141	13.404	4.0909	0.1	2450.5
27142	13.496	4.	0.1	2426.8
27143	13.404	4.2727	0.1	2451.
27144	13.496	4.1818	0.1	2427.2
27145	13.404	4.4545	0.1	2451.6
27146	13.496	4.3636	0.1	2427.7
27147	13.404	4.6364	0.1	2452.3
27148	13.496	4.5455	0.1	2428.3
27149	13.404	4.8182	0.1	2453.
27150	13.496	4.7273	0.1	2429.
27151	13.404	5.	0.1	2453.9
27152	13.496	4.9091	0.1	2429.7
27153	13.404	5.1818	0.1	2454.8
27154	13.496	5.0909	0.1	2430.6
27155	13.404	5.3636	0.1	2455.9
27156	13.496	5.2727	0.1	2431.5
27157	13.404	5.5455	0.1	2457.1
27158	13.496	5.4545	0.1	2432.6
27159	13.404	5.7273	0.1	2459.6
27160	13.496	5.6364	0.1	2433.9
27161	13.496	5.8182	0.1	2437.5
27162	13.404	5.9091	0.1	2454.4
27163	13.588	0.27273	0.1	2411.7
27164	13.68	0.18182	0.1	2389.7
27165	13.588	9.0909e-002	0.1	2406.4
27166	13.588	0.45455	0.1	2409.3
27167	13.68	0.36364	0.1	2386.1
27168	13.588	0.63636	0.1	2408.2
27169	13.68	0.54545	0.1	2384.9
27170	13.588	0.81818	0.1	2407.2
27171	13.68	0.72727	0.1	2384.
27172	13.588	1.	0.1	2406.4
27173	13.68	0.90909	0.1	2383.1
27174	13.588	1.1818	0.1	2405.6
27175	13.68	1.0909	0.1	2382.4
27176	13.588	1.3636	0.1	2405.
27177	13.68	1.2727	0.1	2381.7
27178	13.588	1.5455	0.1	2404.4
27179	13.68	1.4545	0.1	2381.1
27180	13.588	1.7273	0.1	2403.9
27181	13.68	1.6364	0.1	2380.6
27182	13.588	1.9091	0.1	2403.4
27183	13.68	1.8182	0.1	2380.2
27184	13.588	2.0909	0.1	2403.
27185	13.68	2.	0.1	2379.8
27186	13.588	2.2727	0.1	2402.8
27187	13.68	2.1818	0.1	2379.5
27188	13.588	2.4545	0.1	2402.5
27189	13.68	2.3636	0.1	2379.2
27190	13.588	2.6364	0.1	2402.4
27191	13.68	2.5455	0.1	2379.1
27192	13.588	2.8182	0.1	2402.3
27193	13.68	2.7273	0.1	2378.9
27194	13.588	3.	0.1	2402.2
27195	13.68	2.9091	0.1	2378.9
27196	13.588	3.1818	0.1	2402.3
27197	13.68	3.0909	0.1	2378.9
27198	13.588	3.3636	0.1	2402.4
27199	13.68	3.2727	0.1	2378.9
27200	13.588	3.5455	0.1	2402.5
27201	13.68	3.4545	0.1	2379.1
27202	13.588	3.7273	0.1	2402.8
27203	13.68	3.6364	0.1	2379.2
27204	13.588	3.9091	0.1	2403.
27205	13.68	3.8182	0.1	2379.5
27206	13.588	4.0909	0.1	2403.4
27207	13.68	4.	0.1	2379.8
27208	13.588	4.2727	0.1	2403.9
27209	13.68	4.1818	0.1	2380.2
27210	13.588	4.4545	0.1	2404.4
27211	13.68	4.3636	0.1	2380.6
27212	13.588	4.6364	0.1	2405.
27213	13.68	4.5455	0.1	2381.1
27214	13.588	4.8182	0.1	2405.6
27215	13.68	4.7273	0.1	2381.7
27216	13.588	5.	0.1	2406.4
27217	13.68	4.9091	0.1	2382.4
27218	13.588	5.1818	0.1	2407.2
27219	13.68	5.0909	0.1	2383.1
27220	13.588	5.3636	0.1	2408.2
27221	13.68	5.2727	0.1	2384.
27222	13.588	5.5455	0.1	2409.3
27223	13.68	5.4545	0.1	2384.9
27224	13.588	5.7273	0.1	2411.7
27225	13.68	5.6364	0.1	2386.1
27226	13.68	5.8182	0.1	2389.7
27227	13.588	5.9091	0.1	2406.4
27228	13.772	0.27273	0.1	2364.
27229	13.863	0.18182	0.1	2342.1
27230	13.772	9.0909e-002	0.1	2358.6
27231	13.772	0.45455	0.1	2361.7
27232	13.863	0.36364	0.1	2338.6
27233	13.772	0.63636	0.1	2360.7
27234	13.863	0.54545	0.1	2337.5
27235	13.772	0.81818	0.1	2359.8
27236	13.863	0.72727	0.1	2336.6
27237	13.772	1.	0.1	2359.1
27238	13.863	0.90909	0.1	2335.9
27239	13.772	1.1818	0.1	2358.4
27240	13.863	1.0909	0.1	2335.2
27241	13.772	1.3636	0.1	2357.8
27242	13.863	1.2727	0.1	2334.6
27243	13.772	1.5455	0.1	2357.3
27244	13.863	1.4545	0.1	2334.1
27245	13.772	1.7273	0.1	2356.9
27246	13.863	1.6364	0.1	2333.7
27247	13.772	1.9091	0.1	2356.5
27248	13.863	1.8182	0.1	2333.3
27249	13.772	2.0909	0.1	2356.2
27250	13.863	2.	0.1	2333.
27251	13.772	2.2727	0.1	2355.9
27252	13.863	2.1818	0.1	2332.7
27253	13.772	2.4545	0.1	2355.7
27254	13.863	2.3636	0.1	2332.5
27255	13.772	2.6364	0.1	2355.6
27256	13.863	2.5455	0.1	2332.4
27257	13.772	2.8182	0.1	2355.5
27258	13.863	2.7273	0.1	2332.3
27259	13.772	3.	0.1	2355.5
27260	13.863	2.9091	0.1	2332.2
27261	13.772	3.1818	0.1	2355.5
27262	13.863	3.0909	0.1	2332.2
27263	13.772	3.3636	0.1	2355.6
27264	13.863	3.2727	0.1	2332.3
27265	13.772	3.5455	0.1	2355.7
27266	13.863	3.4545	0.1	2332.4
27267	13.772	3.7273	0.1	2355.9
27268	13.863	3.6364	0.1	2332.5
27269	13.772	3.9091	0.1	2356.2
27270	13.863	3.8182	0.1	2332.7
27271	13.772	4.0909	0.1	2356.5
27272	13.863	4.	0.1	2333.
27273	13.772	4.2727	0.1	2356.9
27274	13.863	4.1818	0.1	2333.3
27275	13.772	4.4545	0.1	2357.3
27276	13.863	4.3636	0.1	2333.7
27277	13.772	4.6364	0.1	2357.8
27278	13.863	4.5455	0.1	2334.1
27279	13.772	4.8182	0.1	2358.4
27280	13.863	4.7273	0.1	2334.6
27281	13.772	5.	0.1	2359.1
27282	13.863	4.9091	0.1	2335.2
27283	13.772	5.1818	0.1	2359.8
27284	13.863	5.0909	0.1	2335.9
27285	13.772	5.3636	0.1	2360.7
27286	13.863	5.2727	0.1	2336.6
27287	13.772	5.5455	0.1	2361.7
27288	13.863	5.4545	0.1	2337.5
27289	13.772	5.7273	0.1	2364.
27290	13.863	5.6364	0.1	2338.6
27291	13.863	5.8182	0.1	2342.1
27292	13.772	5.9091	0.1	2358.6
27293	13.955	0.27273	0.1	2316.5
27294	14.047	0.18182	0.1	2294.7
27295	13.955	9.0909e-002	0.1	2310.9
27296	13.955	0.45455	0.1	2314.3
27297	14.047	0.36364	0.1	2291.2
27298	13.955	0.63636	0.1	2313.4
27299	14.047	0.54545	0.1	2290.2
27300	13.955	0.81818	0.1	2312.6
27301	14.047	0.72727	0.1	2289.5
27302	13.955	1.	0.1	2312.
27303	14.047	0.90909	0.1	2288.8
27304	13.955	1.1818	0.1	2311.4
27305	14.047	1.0909	0.1	2288.2
27306	13.955	1.3636	0.1	2310.9
27307	14.047	1.2727	0.1	2287.8
27308	13.955	1.5455	0.1	2310.5
27309	14.047	1.4545	0.1	2287.3
27310	13.955	1.7273	0.1	2310.1
27311	14.047	1.6364	0.1	2287.
27312	13.955	1.9091	0.1	2309.8
27313	14.047	1.8182	0.1	2286.7
27314	13.955	2.0909	0.1	2309.5
27315	14.047	2.	0.1	2286.4
27316	13.955	2.2727	0.1	2309.3
27317	14.047	2.1818	0.1	2286.2
27318	13.955	2.4545	0.1	2309.2
27319	14.047	2.3636	0.1	2286.1
27320	13.955	2.6364	0.1	2309.1
27321	14.047	2.5455	0.1	2285.9
27322	13.955	2.8182	0.1	2309.
27323	14.047	2.7273	0.1	2285.9
27324	13.955	3.	0.1	2309.
27325	14.047	2.9091	0.1	2285.8
27326	13.955	3.1818	0.1	2309.
27327	14.047	3.0909	0.1	2285.8
27328	13.955	3.3636	0.1	2309.1
27329	14.047	3.2727	0.1	2285.9
27330	13.955	3.5455	0.1	2309.2
27331	14.047	3.4545	0.1	2285.9
27332	13.955	3.7273	0.1	2309.3
27333	14.047	3.6364	0.1	2286.1
27334	13.955	3.9091	0.1	2309.5
27335	14.047	3.8182	0.1	2286.2
27336	13.955	4.0909	0.1	2309.8
27337	14.047	4.	0.1	2286.4
27338	13.955	4.2727	0.1	2310.1
27339	14.047	4.1818	0.1	2286.7
27340	13.955	4.4545	0.1	2310.5
27341	14.047	4.3636	0.1	2287.
27342	13.955	4.6364	0.1	2310.9
27343	14.047	4.5455	0.1	2287.3
27344	13.955	4.8182	0.1	2311.4
27345	14.047	4.7273	0.1	2287.8
27346	13.955	5.	0.1	2312.
27347	14.047	4.9091	0.1	2288.2
27348	13.955	5.1818	0.1	2312.6
27349	14.047	5.0909	0.1	2288.8
27350	13.955	5.3636	0.1	2313.4
27351	14.047	5.2727	0.1	2289.5
27352	13.955	5.5455	0.1	2314.3
27353	14.047	5.4545	0.1	2290.2
27354	13.955	5.7273	0.1	2316.5
27355	14.047	5.6364	0.1	2291.2
27356	14.047	5.8182	0.1	2294.7
27357	13.955	5.9091	0.1	2310.9
27358	14.139	0.27273	0.1	2269.2
27359	14.231	0.18182	0.1	2247.4
27360	14.139	9.0909e-002	0.1	2263.4
27361	14.139	0.45455	0.1	2267.1
27362	14.231	0.36364	0.1	2244.
27363	14.139	0.63636	0.1	2266.3
27364	14.231	0.54545	0.1	2243.1
27365	14.139	0.81818	0.1	2265.6
27366	14.231	0.72727	0.1	2242.5
27367	14.139	1.	0.1	2265.1
27368	14.231	0.90909	0.1	2241.9
27369	14.139	1.1818	0.1	2264.6
27370	14.231	1.0909	0.1	2241.5
27371	14.139	1.3636	0.1	2264.2
27372	14.231	1.2727	0.1	2241.1
27373	14.139	1.5455	0.1	2263.8
27374	14.231	1.4545	0.1	2240.8
27375	14.139	1.7273	0.1	2263.5
27376	14.231	1.6364	0.1	2240.5
27377	14.139	1.9091	0.1	2263.3
27378	14.231	1.8182	0.1	2240.2
27379	14.139	2.0909	0.1	2263.1
27380	14.231	2.	0.1	2240.
27381	14.139	2.2727	0.1	2262.9
27382	14.231	2.1818	0.1	2239.9
27383	14.139	2.4545	0.1	2262.8
27384	14.231	2.3636	0.1	2239.8
27385	14.139	2.6364	0.1	2262.7
27386	14.231	2.5455	0.1	2239.7
27387	14.139	2.8182	0.1	2262.7
27388	14.231	2.7273	0.1	2239.6
27389	14.139	3.	0.1	2262.6
27390	14.231	2.9091	0.1	2239.6
27391	14.139	3.1818	0.1	2262.7
27392	14.231	3.0909	0.1	2239.6
27393	14.139	3.3636	0.1	2262.7
27394	14.231	3.2727	0.1	2239.6
27395	14.139	3.5455	0.1	2262.8
27396	14.231	3.4545	0.1	2239.7
27397	14.139	3.7273	0.1	2262.9
27398	14.231	3.6364	0.1	2239.8
27399	14.139	3.9091	0.1	2263.1
27400	14.231	3.8182	0.1	2239.9
27401	14.139	4.0909	0.1	2263.3
27402	14.231	4.	0.1	2240.
27403	14.139	4.2727	0.1	2263.5
27404	14.231	4.1818	0.1	2240.2
27405	14.139	4.4545	0.1	2263.8
27406	14.231	4.3636	0.1	2240.5
27407	14.139	4.6364	0.1	2264.2
27408	14.231	4.5455	0.1	2240.8
27409	14.139	4.8182	0.1	2264.6
27410	14.231	4.7273	0.1	2241.1
27411	14.139	5.	0.1	2265.1
27412	14.231	4.9091	0.1	2241.5
27413	14.139	5.1818	0.1	2265.6
27414	14.231	5.0909	0.1	2241.9
27415	14.139	5.3636	0.1	2266.3
27416	14.231	5.2727	0.1	2242.5
27417	14.139	5.5455	0.1	2267.1
27418	14.231	5.4545	0.1	2243.1
27419	14.139	5.7273	0.1	2269.2
27420	14.231	5.6364	0.1	2244.
27421	14.231	5.8182	0.1	2247.4
27422	14.139	5.9091	0.1	2263.4
27423	14.322	0.27273	0.1	2222.1
27424	14.414	0.18182	0.1	2200.3
27425	14.322	9.0909e-002	0.1	2216.2
27426	14.322	0.45455	0.1	2220.
27427	14.414	0.36364	0.1	2197.
27428	14.322	0.63636	0.1	2219.3
27429	14.414	0.54545	0.1	2196.3
27430	14.322	0.81818	0.1	2218.8
27431	14.414	0.72727	0.1	2195.7
27432	14.322	1.	0.1	2218.3
27433	14.414	0.90909	0.1	2195.3
27434	14.322	1.1818	0.1	2218.
27435	14.414	1.0909	0.1	2194.9
27436	14.322	1.3636	0.1	2217.6
27437	14.414	1.2727	0.1	2194.6
27438	14.322	1.5455	0.1	2217.4
27439	14.414	1.4545	0.1	2194.4
27440	14.322	1.7273	0.1	2217.2
27441	14.414	1.6364	0.1	2194.2
27442	14.322	1.9091	0.1	2217.
27443	14.414	1.8182	0.1	2194.
27444	14.322	2.0909	0.1	2216.8
27445	14.414	2.	0.1	2193.9
27446	14.322	2.2727	0.1	2216.7
27447	14.414	2.1818	0.1	2193.8
27448	14.322	2.4545	0.1	2216.6
27449	14.414	2.3636	0.1	2193.7
27450	14.322	2.6364	0.1	2216.6
27451	14.414	2.5455	0.1	2193.7
27452	14.322	2.8182	0.1	2216.5
27453	14.414	2.7273	0.1	2193.6
27454	14.322	3.	0.1	2216.5
27455	14.414	2.9091	0.1	2193.6
27456	14.322	3.1818	0.1	2216.5
27457	14.414	3.0909	0.1	2193.6
27458	14.322	3.3636	0.1	2216.6
27459	14.414	3.2727	0.1	2193.6
27460	14.322	3.5455	0.1	2216.6
27461	14.414	3.4545	0.1	2193.7
27462	14.322	3.7273	0.1	2216.7
27463	14.414	3.6364	0.1	2193.7
27464	14.322	3.9091	0.1	2216.8
27465	14.414	3.8182	0.1	2193.8
27466	14.322	4.0909	0.1	2217.
27467	14.414	4.	0.1	2193.9
27468	14.322	4.2727	0.1	2217.2
27469	14.414	4.1818	0.1	2194.
27470	14.322	4.4545	0.1	2217.4
27471	14.414	4.3636	0.1	2194.2
27472	14.322	4.6364	0.1	2217.6
27473	14.414	4.5455	0.1	2194.4
27474	14.322	4.8182	0.1	2218.
27475	14.414	4.7273	0.1	2194.6
27476	14.322	5.	0.1	2218.3
27477	14.414	4.9091	0.1	2194.9
27478	14.322	5.1818	0.1	2218.8
27479	14.414	5.0909	0.1	2195.3
27480	14.322	5.3636	0.1	2219.3
27481	14.414	5.2727	0.1	2195.7
27482	14.322	5.5455	0.1	2220.
27483	14.414	5.4545	0.1	2196.3
27484	14.322	5.7273	0.1	2222.1
27485	14.414	5.6364	0.1	2197.
27486	14.414	5.8182	0.1	2200.3
27487	14.322	5.9091	0.1	2216.2
27488	14.506	0.27273	0.1	2175.1
27489	14.598	0.18182	0.1	2153.4
27490	14.506	9.0909e-002	0.1	2169.
27491	14.506	0.45455	0.1	2173.2
27492	14.598	0.36364	0.1	2150.2
27493	14.506	0.63636	0.1	2172.6
27494	14.598	0.54545	0.1	2149.6
27495	14.506	0.81818	0.1	2172.2
27496	14.598	0.72727	0.1	2149.1
27497	14.506	1.	0.1	2171.8
27498	14.598	0.90909	0.1	2148.8
27499	14.506	1.1818	0.1	2171.5
27500	14.598	1.0909	0.1	2148.5
27501	14.506	1.3636	0.1	2171.3
27502	14.598	1.2727	0.1	2148.4
27503	14.506	1.5455	0.1	2171.1
27504	14.598	1.4545	0.1	2148.2
27505	14.506	1.7273	0.1	2171.
27506	14.598	1.6364	0.1	2148.1
27507	14.506	1.9091	0.1	2170.9
27508	14.598	1.8182	0.1	2148.
27509	14.506	2.0909	0.1	2170.8
27510	14.598	2.	0.1	2148.
27511	14.506	2.2727	0.1	2170.7
27512	14.598	2.1818	0.1	2147.9
27513	14.506	2.4545	0.1	2170.7
27514	14.598	2.3636	0.1	2147.9
27515	14.506	2.6364	0.1	2170.7
27516	14.598	2.5455	0.1	2147.9
27517	14.506	2.8182	0.1	2170.7
27518	14.598	2.7273	0.1	2147.8
27519	14.506	3.	0.1	2170.7
27520	14.598	2.9091	0.1	2147.8
27521	14.506	3.1818	0.1	2170.7
27522	14.598	3.0909	0.1	2147.8
27523	14.506	3.3636	0.1	2170.7
27524	14.598	3.2727	0.1	2147.8
27525	14.506	3.5455	0.1	2170.7
27526	14.598	3.4545	0.1	2147.9
27527	14.506	3.7273	0.1	2170.7
27528	14.598	3.6364	0.1	2147.9
27529	14.506	3.9091	0.1	2170.8
27530	14.598	3.8182	0.1	2147.9
27531	14.506	4.0909	0.1	2170.9
27532	14.598	4.	0.1	2148.
27533	14.506	4.2727	0.1	2171.
27534	14.598	4.1818	0.1	2148.
27535	14.506	4.4545	0.1	2171.1
27536	14.598	4.3636	0.1	2148.1
27537	14.506	4.6364	0.1	2171.3
27538	14.598	4.5455	0.1	2148.2
27539	14.506	4.8182	0.1	2171.5
27540	14.598	4.7273	0.1	2148.4
27541	14.506	5.	0.1	2171.8
27542	14.598	4.9091	0.1	2148.5
27543	14.506	5.1818	0.1	2172.2
27544	14.598	5.0909	0.1	2148.8
27545	14.506	5.3636	0.1	2172.6
27546	14.598	5.2727	0.1	2149.1
27547	14.506	5.5455	0.1	2173.2
27548	14.598	5.4545	0.1	2149.6
27549	14.506	5.7273	0.1	2175.1
27550	14.598	5.6364	0.1	2150.2
27551	14.598	5.8182	0.1	2153.4
27552	14.506	5.9091	0.1	2169.
27553	14.69	0.27273	0.1	2128.3
27554	14.781	0.18182	0.1	2106.7
27555	14.69	9.0909e-002	0.1	2122.1
27556	14.69	0.45455	0.1	2126.5
27557	14.781	0.36364	0.1	2103.6
27558	14.69	0.63636	0.1	2126.
27559	14.781	0.54545	0.1	2103.
27560	14.69	0.81818	0.1	2125.7
27561	14.781	0.72727	0.1	2102.7
27562	14.69	1.	0.1	2125.5
27563	14.781	0.90909	0.1	2102.5
27564	14.69	1.1818	0.1	2125.3
27565	14.781	1.0909	0.1	2102.4
27566	14.69	1.3636	0.1	2125.2
27567	14.781	1.2727	0.1	2102.3
27568	14.69	1.5455	0.1	2125.1
27569	14.781	1.4545	0.1	2102.2
27570	14.69	1.7273	0.1	2125.1
27571	14.781	1.6364	0.1	2102.2
27572	14.69	1.9091	0.1	2125.
27573	14.781	1.8182	0.1	2102.2
27574	14.69	2.0909	0.1	2125.
27575	14.781	2.	0.1	2102.2
27576	14.69	2.2727	0.1	2125.
27577	14.781	2.1818	0.1	2102.3
27578	14.69	2.4545	0.1	2125.
27579	14.781	2.3636	0.1	2102.3
27580	14.69	2.6364	0.1	2125.
27581	14.781	2.5455	0.1	2102.3
27582	14.69	2.8182	0.1	2125.
27583	14.781	2.7273	0.1	2102.3
27584	14.69	3.	0.1	2125.
27585	14.781	2.9091	0.1	2102.3
27586	14.69	3.1818	0.1	2125.
27587	14.781	3.0909	0.1	2102.3
27588	14.69	3.3636	0.1	2125.
27589	14.781	3.2727	0.1	2102.3
27590	14.69	3.5455	0.1	2125.
27591	14.781	3.4545	0.1	2102.3
27592	14.69	3.7273	0.1	2125.
27593	14.781	3.6364	0.1	2102.3
27594	14.69	3.9091	0.1	2125.
27595	14.781	3.8182	0.1	2102.3
27596	14.69	4.0909	0.1	2125.
27597	14.781	4.	0.1	2102.2
27598	14.69	4.2727	0.1	2125.1
27599	14.781	4.1818	0.1	2102.2
27600	14.69	4.4545	0.1	2125.1
27601	14.781	4.3636	0.1	2102.2
27602	14.69	4.6364	0.1	2125.2
27603	14.781	4.5455	0.1	2102.2
27604	14.69	4.8182	0.1	2125.3
27605	14.781	4.7273	0.1	2102.3
27606	14.69	5.	0.1	2125.5
27607	14.781	4.9091	0.1	2102.4
27608	14.69	5.1818	0.1	2125.7
27609	14.781	5.0909	0.1	2102.5
27610	14.69	5.3636	0.1	2126.
27611	14.781	5.2727	0.1	2102.7
27612	14.69	5.5455	0.1	2126.5
27613	14.781	5.4545	0.1	2103.
27614	14.69	5.7273	0.1	2128.3
27615	14.781	5.6364	0.1	2103.6
27616	14.781	5.8182	0.1	2106.7
27617	14.69	5.9091	0.1	2122.1
27618	14.873	0.27273	0.1	2081.7
27619	14.965	0.18182	0.1	2060.1
27620	14.873	9.0909e-002	0.1	2075.3
27621	14.873	0.45455	0.1	2080.
27622	14.965	0.36364	0.1	2057.1
27623	14.873	0.63636	0.1	2079.7
27624	14.965	0.54545	0.1	2056.7
27625	14.873	0.81818	0.1	2079.5
27626	14.965	0.72727	0.1	2056.5
27627	14.873	1.	0.1	2079.4
27628	14.965	0.90909	0.1	2056.4
27629	14.873	1.1818	0.1	2079.3
27630	14.965	1.0909	0.1	2056.4
27631	14.873	1.3636	0.1	2079.3
27632	14.965	1.2727	0.1	2056.5
27633	14.873	1.5455	0.1	2079.3
27634	14.965	1.4545	0.1	2056.5
27635	14.873	1.7273	0.1	2079.4
27636	14.965	1.6364	0.1	2056.6
27637	14.873	1.9091	0.1	2079.4
27638	14.965	1.8182	0.1	2056.7
27639	14.873	2.0909	0.1	2079.4
27640	14.965	2.	0.1	2056.8
27641	14.873	2.2727	0.1	2079.5
27642	14.965	2.1818	0.1	2056.8
27643	14.873	2.4545	0.1	2079.5
27644	14.965	2.3636	0.1	2056.9
27645	14.873	2.6364	0.1	2079.6
27646	14.965	2.5455	0.1	2057.
27647	14.873	2.8182	0.1	2079.6
27648	14.965	2.7273	0.1	2057.
27649	14.873	3.	0.1	2079.6
27650	14.965	2.9091	0.1	2057.
27651	14.873	3.1818	0.1	2079.6
27652	14.965	3.0909	0.1	2057.
27653	14.873	3.3636	0.1	2079.6
27654	14.965	3.2727	0.1	2057.
27655	14.873	3.5455	0.1	2079.5
27656	14.965	3.4545	0.1	2057.
27657	14.873	3.7273	0.1	2079.5
27658	14.965	3.6364	0.1	2056.9
27659	14.873	3.9091	0.1	2079.4
27660	14.965	3.8182	0.1	2056.8
27661	14.873	4.0909	0.1	2079.4
27662	14.965	4.	0.1	2056.8
27663	14.873	4.2727	0.1	2079.4
27664	14.965	4.1818	0.1	2056.7
27665	14.873	4.4545	0.1	2079.3
27666	14.965	4.3636	0.1	2056.6
27667	14.873	4.6364	0.1	2079.3
27668	14.965	4.5455	0.1	2056.5
27669	14.873	4.8182	0.1	2079.3
27670	14.965	4.7273	0.1	2056.5
27671	14.873	5.	0.1	2079.4
27672	14.965	4.9091	0.1	2056.4
27673	14.873	5.1818	0.1	2079.5
27674	14.965	5.0909	0.1	2056.4
27675	14.873	5.3636	0.1	2079.7
27676	14.965	5.2727	0.1	2056.5
27677	14.873	5.5455	0.1	2080.
27678	14.965	5.4545	0.1	2056.7
27679	14.873	5.7273	0.1	2081.7
27680	14.965	5.6364	0.1	2057.1
27681	14.965	5.8182	0.1	2060.1
27682	14.873	5.9091	0.1	2075.3
27683	15.057	0.27273	0.1	2035.3
27684	15.149	0.18182	0.1	2013.6
27685	15.057	9.0909e-002	0.1	2028.7
27686	15.057	0.45455	0.1	2033.7
27687	15.149	0.36364	0.1	2010.8
27688	15.057	0.63636	0.1	2033.5
27689	15.149	0.54545	0.1	2010.5
27690	15.057	0.81818	0.1	2033.4
27691	15.149	0.72727	0.1	2010.5
27692	15.057	1.	0.1	2033.5
27693	15.149	0.90909	0.1	2010.6
27694	15.057	1.1818	0.1	2033.5
27695	15.149	1.0909	0.1	2010.7
27696	15.057	1.3636	0.1	2033.6
27697	15.149	1.2727	0.1	2010.8
27698	15.057	1.5455	0.1	2033.7
27699	15.149	1.4545	0.1	2011.
27700	15.057	1.7273	0.1	2033.9
27701	15.149	1.6364	0.1	2011.2
27702	15.057	1.9091	0.1	2034.
27703	15.149	1.8182	0.1	2011.4
27704	15.057	2.0909	0.1	2034.1
27705	15.149	2.	0.1	2011.5
27706	15.057	2.2727	0.1	2034.2
27707	15.149	2.1818	0.1	2011.7
27708	15.057	2.4545	0.1	2034.3
27709	15.149	2.3636	0.1	2011.8
27710	15.057	2.6364	0.1	2034.4
27711	15.149	2.5455	0.1	2011.9
27712	15.057	2.8182	0.1	2034.4
27713	15.149	2.7273	0.1	2011.9
27714	15.057	3.	0.1	2034.4
27715	15.149	2.9091	0.1	2012.
27716	15.057	3.1818	0.1	2034.4
27717	15.149	3.0909	0.1	2012.
27718	15.057	3.3636	0.1	2034.4
27719	15.149	3.2727	0.1	2011.9
27720	15.057	3.5455	0.1	2034.3
27721	15.149	3.4545	0.1	2011.9
27722	15.057	3.7273	0.1	2034.2
27723	15.149	3.6364	0.1	2011.8
27724	15.057	3.9091	0.1	2034.1
27725	15.149	3.8182	0.1	2011.7
27726	15.057	4.0909	0.1	2034.
27727	15.149	4.	0.1	2011.5
27728	15.057	4.2727	0.1	2033.9
27729	15.149	4.1818	0.1	2011.4
27730	15.057	4.4545	0.1	2033.7
27731	15.149	4.3636	0.1	2011.2
27732	15.057	4.6364	0.1	2033.6
27733	15.149	4.5455	0.1	2011.
27734	15.057	4.8182	0.1	2033.5
27735	15.149	4.7273	0.1	2010.8
27736	15.057	5.	0.1	2033.5
27737	15.149	4.9091	0.1	2010.7
27738	15.057	5.1818	0.1	2033.4
27739	15.149	5.0909	0.1	2010.6
27740	15.057	5.3636	0.1	2033.5
27741	15.149	5.2727	0.1	2010.5
27742	15.057	5.5455	0.1	2033.7
27743	15.149	5.4545	0.1	2010.5
27744	15.057	5.7273	0.1	2035.3
27745	15.149	5.6364	0.1	2010.8
27746	15.149	5.8182	0.1	2013.6
27747	15.057	5.9091	0.1	2028.7
27748	15.241	0.27273	0.1	1989.
27749	15.332	0.18182	0.1	1967.4
27750	15.241	9.0909e-002	0.1	1982.3
27751	15.241	0.45455	0.1	1987.6
27752	15.332	0.36364	0.1	1964.7
27753	15.241	0.63636	0.1	1987.5
27754	15.332	0.54545	0.1	1964.5
27755	15.241	0.81818	0.1	1987.6
27756	15.332	0.72727	0.1	1964.7
27757	15.241	1.	0.1	1987.7
27758	15.332	0.90909	0.1	1964.9
27759	15.241	1.1818	0.1	1987.9
27760	15.332	1.0909	0.1	1965.1
27761	15.241	1.3636	0.1	1988.2
27762	15.332	1.2727	0.1	1965.4
27763	15.241	1.5455	0.1	1988.4
27764	15.332	1.4545	0.1	1965.7
27765	15.241	1.7273	0.1	1988.6
27766	15.332	1.6364	0.1	1966.
27767	15.241	1.9091	0.1	1988.8
27768	15.332	1.8182	0.1	1966.3
27769	15.241	2.0909	0.1	1989.
27770	15.332	2.	0.1	1966.5
27771	15.241	2.2727	0.1	1989.2
27772	15.332	2.1818	0.1	1966.7
27773	15.241	2.4545	0.1	1989.3
27774	15.332	2.3636	0.1	1966.9
27775	15.241	2.6364	0.1	1989.4
27776	15.332	2.5455	0.1	1967.1
27777	15.241	2.8182	0.1	1989.5
27778	15.332	2.7273	0.1	1967.1
27779	15.241	3.	0.1	1989.5
27780	15.332	2.9091	0.1	1967.2
27781	15.241	3.1818	0.1	1989.5
27782	15.332	3.0909	0.1	1967.2
27783	15.241	3.3636	0.1	1989.4
27784	15.332	3.2727	0.1	1967.1
27785	15.241	3.5455	0.1	1989.3
27786	15.332	3.4545	0.1	1967.1
27787	15.241	3.7273	0.1	1989.2
27788	15.332	3.6364	0.1	1966.9
27789	15.241	3.9091	0.1	1989.
27790	15.332	3.8182	0.1	1966.7
27791	15.241	4.0909	0.1	1988.8
27792	15.332	4.	0.1	1966.5
27793	15.241	4.2727	0.1	1988.6
27794	15.332	4.1818	0.1	1966.3
27795	15.241	4.4545	0.1	1988.4
27796	15.332	4.3636	0.1	1966.
27797	15.241	4.6364	0.1	1988.2
27798	15.332	4.5455	0.1	1965.7
27799	15.241	4.8182	0.1	1987.9
27800	15.332	4.7273	0.1	1965.4
27801	15.241	5.	0.1	1987.7
27802	15.332	4.9091	0.1	1965.1
27803	15.241	5.1818	0.1	1987.6
27804	15.332	5.0909	0.1	1964.9
27805	15.241	5.3636	0.1	1987.5
27806	15.332	5.2727	0.1	1964.7
27807	15.241	5.5455	0.1	1987.6
27808	15.332	5.4545	0.1	1964.5
27809	15.241	5.7273	0.1	1989.
27810	15.332	5.6364	0.1	1964.7
27811	15.332	5.8182	0.1	1967.4
27812	15.241	5.9091	0.1	1982.3
27813	15.424	0.27273	0.1	1942.8
27814	15.516	0.18182	0.1	1921.2
27815	15.424	9.0909e-002	0.1	1936.
27816	15.424	0.45455	0.1	1941.6
27817	15.516	0.36364	0.1	1918.7
27818	15.424	0.63636	0.1	1941.7
27819	15.516	0.54545	0.1	1918.7
27820	15.424	0.81818	0.1	1941.9
27821	15.516	0.72727	0.1	1919.
27822	15.424	1.	0.1	1942.2
27823	15.516	0.90909	0.1	1919.4
27824	15.424	1.1818	0.1	1942.6
27825	15.516	1.0909	0.1	1919.8
27826	15.424	1.3636	0.1	1942.9
27827	15.516	1.2727	0.1	1920.2
27828	15.424	1.5455	0.1	1943.3
27829	15.516	1.4545	0.1	1920.7
27830	15.424	1.7273	0.1	1943.6
27831	15.516	1.6364	0.1	1921.1
27832	15.424	1.9091	0.1	1943.9
27833	15.516	1.8182	0.1	1921.5
27834	15.424	2.0909	0.1	1944.2
27835	15.516	2.	0.1	1921.8
27836	15.424	2.2727	0.1	1944.4
27837	15.516	2.1818	0.1	1922.1
27838	15.424	2.4545	0.1	1944.6
27839	15.516	2.3636	0.1	1922.3
27840	15.424	2.6364	0.1	1944.7
27841	15.516	2.5455	0.1	1922.5
27842	15.424	2.8182	0.1	1944.8
27843	15.516	2.7273	0.1	1922.6
27844	15.424	3.	0.1	1944.9
27845	15.516	2.9091	0.1	1922.7
27846	15.424	3.1818	0.1	1944.8
27847	15.516	3.0909	0.1	1922.7
27848	15.424	3.3636	0.1	1944.7
27849	15.516	3.2727	0.1	1922.6
27850	15.424	3.5455	0.1	1944.6
27851	15.516	3.4545	0.1	1922.5
27852	15.424	3.7273	0.1	1944.4
27853	15.516	3.6364	0.1	1922.3
27854	15.424	3.9091	0.1	1944.2
27855	15.516	3.8182	0.1	1922.1
27856	15.424	4.0909	0.1	1943.9
27857	15.516	4.	0.1	1921.8
27858	15.424	4.2727	0.1	1943.6
27859	15.516	4.1818	0.1	1921.5
27860	15.424	4.4545	0.1	1943.3
27861	15.516	4.3636	0.1	1921.1
27862	15.424	4.6364	0.1	1942.9
27863	15.516	4.5455	0.1	1920.7
27864	15.424	4.8182	0.1	1942.6
27865	15.516	4.7273	0.1	1920.2
27866	15.424	5.	0.1	1942.2
27867	15.516	4.9091	0.1	1919.8
27868	15.424	5.1818	0.1	1941.9
27869	15.516	5.0909	0.1	1919.4
27870	15.424	5.3636	0.1	1941.7
27871	15.516	5.2727	0.1	1919.
27872	15.424	5.5455	0.1	1941.6
27873	15.516	5.4545	0.1	1918.7
27874	15.424	5.7273	0.1	1942.8
27875	15.516	5.6364	0.1	1918.7
27876	15.516	5.8182	0.1	1921.2
27877	15.424	5.9091	0.1	1936.
27878	15.608	0.27273	0.1	1896.8
27879	15.7	0.18182	0.1	1875.2
27880	15.608	9.0909e-002	0.1	1889.8
27881	15.608	0.45455	0.1	1895.8
27882	15.7	0.36364	0.1	1872.8
27883	15.608	0.63636	0.1	1896.
27884	15.7	0.54545	0.1	1873.1
27885	15.608	0.81818	0.1	1896.5
27886	15.7	0.72727	0.1	1873.6
27887	15.608	1.	0.1	1896.9
27888	15.7	0.90909	0.1	1874.1
27889	15.608	1.1818	0.1	1897.4
27890	15.7	1.0909	0.1	1874.7
27891	15.608	1.3636	0.1	1897.9
27892	15.7	1.2727	0.1	1875.3
27893	15.608	1.5455	0.1	1898.4
27894	15.7	1.4545	0.1	1875.9
27895	15.608	1.7273	0.1	1898.9
27896	15.7	1.6364	0.1	1876.4
27897	15.608	1.9091	0.1	1899.3
27898	15.7	1.8182	0.1	1876.9
27899	15.608	2.0909	0.1	1899.6
27900	15.7	2.	0.1	1877.3
27901	15.608	2.2727	0.1	1899.9
27902	15.7	2.1818	0.1	1877.7
27903	15.608	2.4545	0.1	1900.2
27904	15.7	2.3636	0.1	1878.
27905	15.608	2.6364	0.1	1900.3
27906	15.7	2.5455	0.1	1878.2
27907	15.608	2.8182	0.1	1900.4
27908	15.7	2.7273	0.1	1878.4
27909	15.608	3.	0.1	1900.5
27910	15.7	2.9091	0.1	1878.5
27911	15.608	3.1818	0.1	1900.4
27912	15.7	3.0909	0.1	1878.5
27913	15.608	3.3636	0.1	1900.3
27914	15.7	3.2727	0.1	1878.4
27915	15.608	3.5455	0.1	1900.2
27916	15.7	3.4545	0.1	1878.2
27917	15.608	3.7273	0.1	1899.9
27918	15.7	3.6364	0.1	1878.
27919	15.608	3.9091	0.1	1899.6
27920	15.7	3.8182	0.1	1877.7
27921	15.608	4.0909	0.1	1899.3
27922	15.7	4.	0.1	1877.3
27923	15.608	4.2727	0.1	1898.9
27924	15.7	4.1818	0.1	1876.9
27925	15.608	4.4545	0.1	1898.4
27926	15.7	4.3636	0.1	1876.4
27927	15.608	4.6364	0.1	1897.9
27928	15.7	4.5455	0.1	1875.9
27929	15.608	4.8182	0.1	1897.4
27930	15.7	4.7273	0.1	1875.3
27931	15.608	5.	0.1	1896.9
27932	15.7	4.9091	0.1	1874.7
27933	15.608	5.1818	0.1	1896.5
27934	15.7	5.0909	0.1	1874.1
27935	15.608	5.3636	0.1	1896.
27936	15.7	5.2727	0.1	1873.6
27937	15.608	5.5455	0.1	1895.8
27938	15.7	5.4545	0.1	1873.1
27939	15.608	5.7273	0.1	1896.8
27940	15.7	5.6364	0.1	1872.8
27941	15.7	5.8182	0.1	1875.2
27942	15.608	5.9091	0.1	1889.8
27943	15.791	0.27273	0.1	1851.
27944	15.883	0.18182	0.1	1829.3
27945	15.791	9.0909e-002	0.1	1843.8
27946	15.791	0.45455	0.1	1850.1
27947	15.883	0.36364	0.1	1827.1
27948	15.791	0.63636	0.1	1850.6
27949	15.883	0.54545	0.1	1827.6
27950	15.791	0.81818	0.1	1851.2
27951	15.883	0.72727	0.1	1828.3
27952	15.791	1.	0.1	1851.8
27953	15.883	0.90909	0.1	1829.
27954	15.791	1.1818	0.1	1852.5
27955	15.883	1.0909	0.1	1829.8
27956	15.791	1.3636	0.1	1853.2
27957	15.883	1.2727	0.1	1830.6
27958	15.791	1.5455	0.1	1853.8
27959	15.883	1.4545	0.1	1831.3
27960	15.791	1.7273	0.1	1854.4
27961	15.883	1.6364	0.1	1832.
27962	15.791	1.9091	0.1	1854.9
27963	15.883	1.8182	0.1	1832.6
27964	15.791	2.0909	0.1	1855.4
27965	15.883	2.	0.1	1833.1
27966	15.791	2.2727	0.1	1855.7
27967	15.883	2.1818	0.1	1833.6
27968	15.791	2.4545	0.1	1856.
27969	15.883	2.3636	0.1	1834.
27970	15.791	2.6364	0.1	1856.2
27971	15.883	2.5455	0.1	1834.2
27972	15.791	2.8182	0.1	1856.4
27973	15.883	2.7273	0.1	1834.4
27974	15.791	3.	0.1	1856.4
27975	15.883	2.9091	0.1	1834.5
27976	15.791	3.1818	0.1	1856.4
27977	15.883	3.0909	0.1	1834.5
27978	15.791	3.3636	0.1	1856.2
27979	15.883	3.2727	0.1	1834.4
27980	15.791	3.5455	0.1	1856.
27981	15.883	3.4545	0.1	1834.2
27982	15.791	3.7273	0.1	1855.7
27983	15.883	3.6364	0.1	1834.
27984	15.791	3.9091	0.1	1855.4
27985	15.883	3.8182	0.1	1833.6
27986	15.791	4.0909	0.1	1854.9
27987	15.883	4.	0.1	1833.1
27988	15.791	4.2727	0.1	1854.4
27989	15.883	4.1818	0.1	1832.6
27990	15.791	4.4545	0.1	1853.8
27991	15.883	4.3636	0.1	1832.
27992	15.791	4.6364	0.1	1853.2
27993	15.883	4.5455	0.1	1831.3
27994	15.791	4.8182	0.1	1852.5
27995	15.883	4.7273	0.1	1830.6
27996	15.791	5.	0.1	1851.8
27997	15.883	4.9091	0.1	1829.8
27998	15.791	5.1818	0.1	1851.2
27999	15.883	5.0909	0.1	1829.
28000	15.791	5.3636	0.1	1850.6
28001	15.883	5.2727	0.1	1828.3
28002	15.791	5.5455	0.1	1850.1
28003	15.883	5.4545	0.1	1827.6
28004	15.791	5.7273	0.1	1851.
28005	15.883	5.6364	0.1	1827.1
28006	15.883	5.8182	0.1	1829.3
28007	15.791	5.9091	0.1	1843.8
28008	15.975	0.27273	0.1	1805.2
28009	16.067	0.18182	0.1	1783.5
28010	15.975	9.0909e-002	0.1	1797.8
28011	15.975	0.45455	0.1	1804.6
28012	16.067	0.36364	0.1	1781.6
28013	15.975	0.63636	0.1	1805.3
28014	16.067	0.54545	0.1	1782.2
28015	15.975	0.81818	0.1	1806.1
28016	16.067	0.72727	0.1	1783.2
28017	15.975	1.	0.1	1806.9
28018	16.067	0.90909	0.1	1784.1
28019	15.975	1.1818	0.1	1807.8
28020	16.067	1.0909	0.1	1785.1
28021	15.975	1.3636	0.1	1808.7
28022	16.067	1.2727	0.1	1786.1
28023	15.975	1.5455	0.1	1809.4
28024	16.067	1.4545	0.1	1787.
28025	15.975	1.7273	0.1	1810.2
28026	16.067	1.6364	0.1	1787.8
28027	15.975	1.9091	0.1	1810.8
28028	16.067	1.8182	0.1	1788.6
28029	15.975	2.0909	0.1	1811.4
28030	16.067	2.	0.1	1789.2
28031	15.975	2.2727	0.1	1811.8
28032	16.067	2.1818	0.1	1789.8
28033	15.975	2.4545	0.1	1812.2
28034	16.067	2.3636	0.1	1790.2
28035	15.975	2.6364	0.1	1812.4
28036	16.067	2.5455	0.1	1790.6
28037	15.975	2.8182	0.1	1812.6
28038	16.067	2.7273	0.1	1790.8
28039	15.975	3.	0.1	1812.6
28040	16.067	2.9091	0.1	1790.9
28041	15.975	3.1818	0.1	1812.6
28042	16.067	3.0909	0.1	1790.9
28043	15.975	3.3636	0.1	1812.4
28044	16.067	3.2727	0.1	1790.8
28045	15.975	3.5455	0.1	1812.2
28046	16.067	3.4545	0.1	1790.6
28047	15.975	3.7273	0.1	1811.8
28048	16.067	3.6364	0.1	1790.2
28049	15.975	3.9091	0.1	1811.4
28050	16.067	3.8182	0.1	1789.8
28051	15.975	4.0909	0.1	1810.8
28052	16.067	4.	0.1	1789.2
28053	15.975	4.2727	0.1	1810.2
28054	16.067	4.1818	0.1	1788.6
28055	15.975	4.4545	0.1	1809.4
28056	16.067	4.3636	0.1	1787.8
28057	15.975	4.6364	0.1	1808.7
28058	16.067	4.5455	0.1	1787.
28059	15.975	4.8182	0.1	1807.8
28060	16.067	4.7273	0.1	1786.1
28061	15.975	5.	0.1	1806.9
28062	16.067	4.9091	0.1	1785.1
28063	15.975	5.1818	0.1	1806.1
28064	16.067	5.0909	0.1	1784.1
28065	15.975	5.3636	0.1	1805.3
28066	16.067	5.2727	0.1	1783.2
28067	15.975	5.5455	0.1	1804.6
28068	16.067	5.4545	0.1	1782.2
28069	15.975	5.7273	0.1	1805.2
28070	16.067	5.6364	0.1	1781.6
28071	16.067	5.8182	0.1	1783.5
28072	15.975	5.9091	0.1	1797.8
28073	16.159	0.27273	0.1	1759.6
28074	16.25	0.18182	0.1	1737.8
28075	16.159	9.0909e-002	0.1	1752.
28076	16.159	0.45455	0.1	1759.2
28077	16.25	0.36364	0.1	1736.1
28078	16.159	0.63636	0.1	1760.1
28079	16.25	0.54545	0.1	1737.
28080	16.159	0.81818	0.1	1761.2
28081	16.25	0.72727	0.1	1738.2
28082	16.159	1.	0.1	1762.3
28083	16.25	0.90909	0.1	1739.4
28084	16.159	1.1818	0.1	1763.4
28085	16.25	1.0909	0.1	1740.7
28086	16.159	1.3636	0.1	1764.4
28087	16.25	1.2727	0.1	1741.8
28088	16.159	1.5455	0.1	1765.4
28089	16.25	1.4545	0.1	1743.
28090	16.159	1.7273	0.1	1766.2
28091	16.25	1.6364	0.1	1744.
28092	16.159	1.9091	0.1	1767.
28093	16.25	1.8182	0.1	1744.9
28094	16.159	2.0909	0.1	1767.7
28095	16.25	2.	0.1	1745.7
28096	16.159	2.2727	0.1	1768.2
28097	16.25	2.1818	0.1	1746.3
28098	16.159	2.4545	0.1	1768.6
28099	16.25	2.3636	0.1	1746.8
28100	16.159	2.6364	0.1	1768.9
28101	16.25	2.5455	0.1	1747.2
28102	16.159	2.8182	0.1	1769.1
28103	16.25	2.7273	0.1	1747.5
28104	16.159	3.	0.1	1769.2
28105	16.25	2.9091	0.1	1747.6
28106	16.159	3.1818	0.1	1769.1
28107	16.25	3.0909	0.1	1747.6
28108	16.159	3.3636	0.1	1768.9
28109	16.25	3.2727	0.1	1747.5
28110	16.159	3.5455	0.1	1768.6
28111	16.25	3.4545	0.1	1747.2
28112	16.159	3.7273	0.1	1768.2
28113	16.25	3.6364	0.1	1746.8
28114	16.159	3.9091	0.1	1767.7
28115	16.25	3.8182	0.1	1746.3
28116	16.159	4.0909	0.1	1767.
28117	16.25	4.	0.1	1745.7
28118	16.159	4.2727	0.1	1766.2
28119	16.25	4.1818	0.1	1744.9
28120	16.159	4.4545	0.1	1765.4
28121	16.25	4.3636	0.1	1744.
28122	16.159	4.6364	0.1	1764.4
28123	16.25	4.5455	0.1	1743.
28124	16.159	4.8182	0.1	1763.4
28125	16.25	4.7273	0.1	1741.8
28126	16.159	5.	0.1	1762.3
28127	16.25	4.9091	0.1	1740.7
28128	16.159	5.1818	0.1	1761.2
28129	16.25	5.0909	0.1	1739.4
28130	16.159	5.3636	0.1	1760.1
28131	16.25	5.2727	0.1	1738.2
28132	16.159	5.5455	0.1	1759.2
28133	16.25	5.4545	0.1	1737.
28134	16.159	5.7273	0.1	1759.6
28135	16.25	5.6364	0.1	1736.1
28136	16.25	5.8182	0.1	1737.8
28137	16.159	5.9091	0.1	1752.
28138	16.342	0.27273	0.1	1714.
28139	16.434	0.18182	0.1	1692.1
28140	16.342	9.0909e-002	0.1	1706.2
28141	16.342	0.45455	0.1	1713.9
28142	16.434	0.36364	0.1	1690.7
28143	16.342	0.63636	0.1	1715.1
28144	16.434	0.54545	0.1	1692.
28145	16.342	0.81818	0.1	1716.4
28146	16.434	0.72727	0.1	1693.4
28147	16.342	1.	0.1	1717.8
28148	16.434	0.90909	0.1	1694.9
28149	16.342	1.1818	0.1	1719.1
28150	16.434	1.0909	0.1	1696.4
28151	16.342	1.3636	0.1	1720.4
28152	16.434	1.2727	0.1	1697.9
28153	16.342	1.5455	0.1	1721.5
28154	16.434	1.4545	0.1	1699.2
28155	16.342	1.7273	0.1	1722.6
28156	16.434	1.6364	0.1	1700.4
28157	16.342	1.9091	0.1	1723.5
28158	16.434	1.8182	0.1	1701.5
28159	16.342	2.0909	0.1	1724.3
28160	16.434	2.	0.1	1702.4
28161	16.342	2.2727	0.1	1724.9
28162	16.434	2.1818	0.1	1703.1
28163	16.342	2.4545	0.1	1725.4
28164	16.434	2.3636	0.1	1703.8
28165	16.342	2.6364	0.1	1725.8
28166	16.434	2.5455	0.1	1704.2
28167	16.342	2.8182	0.1	1726.
28168	16.434	2.7273	0.1	1704.5
28169	16.342	3.	0.1	1726.
28170	16.434	2.9091	0.1	1704.7
28171	16.342	3.1818	0.1	1726.
28172	16.434	3.0909	0.1	1704.7
28173	16.342	3.3636	0.1	1725.8
28174	16.434	3.2727	0.1	1704.5
28175	16.342	3.5455	0.1	1725.4
28176	16.434	3.4545	0.1	1704.2
28177	16.342	3.7273	0.1	1724.9
28178	16.434	3.6364	0.1	1703.8
28179	16.342	3.9091	0.1	1724.3
28180	16.434	3.8182	0.1	1703.1
28181	16.342	4.0909	0.1	1723.5
28182	16.434	4.	0.1	1702.4
28183	16.342	4.2727	0.1	1722.6
28184	16.434	4.1818	0.1	1701.5
28185	16.342	4.4545	0.1	1721.5
28186	16.434	4.3636	0.1	1700.4
28187	16.342	4.6364	0.1	1720.4
28188	16.434	4.5455	0.1	1699.2
28189	16.342	4.8182	0.1	1719.1
28190	16.434	4.7273	0.1	1697.9
28191	16.342	5.	0.1	1717.8
28192	16.434	4.9091	0.1	1696.4
28193	16.342	5.1818	0.1	1716.4
28194	16.434	5.0909	0.1	1694.9
28195	16.342	5.3636	0.1	1715.1
28196	16.434	5.2727	0.1	1693.4
28197	16.342	5.5455	0.1	1713.9
28198	16.434	5.4545	0.1	1692.
28199	16.342	5.7273	0.1	1714.
28200	16.434	5.6364	0.1	1690.7
28201	16.434	5.8182	0.1	1692.1
28202	16.342	5.9091	0.1	1706.2
28203	16.526	0.27273	0.1	1668.6
28204	16.618	0.18182	0.1	1646.4
28205	16.526	9.0909e-002	0.1	1660.5
28206	16.526	0.45455	0.1	1668.7
28207	16.618	0.36364	0.1	1645.4
28208	16.526	0.63636	0.1	1670.2
28209	16.618	0.54545	0.1	1647.
28210	16.526	0.81818	0.1	1671.9
28211	16.618	0.72727	0.1	1648.8
28212	16.526	1.	0.1	1673.5
28213	16.618	0.90909	0.1	1650.6
28214	16.526	1.1818	0.1	1675.1
28215	16.618	1.0909	0.1	1652.4
28216	16.526	1.3636	0.1	1676.6
28217	16.618	1.2727	0.1	1654.1
28218	16.526	1.5455	0.1	1678.
28219	16.618	1.4545	0.1	1655.7
28220	16.526	1.7273	0.1	1679.2
28221	16.618	1.6364	0.1	1657.1
28222	16.526	1.9091	0.1	1680.3
28223	16.618	1.8182	0.1	1658.4
28224	16.526	2.0909	0.1	1681.2
28225	16.618	2.	0.1	1659.5
28226	16.526	2.2727	0.1	1682.
28227	16.618	2.1818	0.1	1660.3
28228	16.526	2.4545	0.1	1682.5
28229	16.618	2.3636	0.1	1661.1
28230	16.526	2.6364	0.1	1683.
28231	16.618	2.5455	0.1	1661.6
28232	16.526	2.8182	0.1	1683.2
28233	16.618	2.7273	0.1	1661.9
28234	16.526	3.	0.1	1683.3
28235	16.618	2.9091	0.1	1662.1
28236	16.526	3.1818	0.1	1683.2
28237	16.618	3.0909	0.1	1662.1
28238	16.526	3.3636	0.1	1683.
28239	16.618	3.2727	0.1	1661.9
28240	16.526	3.5455	0.1	1682.5
28241	16.618	3.4545	0.1	1661.6
28242	16.526	3.7273	0.1	1682.
28243	16.618	3.6364	0.1	1661.1
28244	16.526	3.9091	0.1	1681.2
28245	16.618	3.8182	0.1	1660.3
28246	16.526	4.0909	0.1	1680.3
28247	16.618	4.	0.1	1659.5
28248	16.526	4.2727	0.1	1679.2
28249	16.618	4.1818	0.1	1658.4
28250	16.526	4.4545	0.1	1678.
28251	16.618	4.3636	0.1	1657.1
28252	16.526	4.6364	0.1	1676.6
28253	16.618	4.5455	0.1	1655.7
28254	16.526	4.8182	0.1	1675.1
28255	16.618	4.7273	0.1	1654.1
28256	16.526	5.	0.1	1673.5
28257	16.618	4.9091	0.1	1652.4
28258	16.526	5.1818	0.1	1671.9
28259	16.618	5.0909	0.1	1650.6
28260	16.526	5.3636	0.1	1670.2
28261	16.618	5.2727	0.1	1648.8
28262	16.526	5.5455	0.1	1668.7
28263	16.618	5.4545	0.1	1647.
28264	16.526	5.7273	0.1	1668.6
28265	16.618	5.6364	0.1	1645.4
28266	16.618	5.8182	0.1	1646.4
28267	16.526	5.9091	0.1	1660.5
28268	16.709	0.27273	0.1	1623.1
28269	16.801	0.18182	0.1	1600.8
28270	16.709	9.0909e-002	0.1	1614.8
28271	16.709	0.45455	0.1	1623.6
28272	16.801	0.36364	0.1	1600.2
28273	16.709	0.63636	0.1	1625.5
28274	16.801	0.54545	0.1	1602.1
28275	16.709	0.81818	0.1	1627.5
28276	16.801	0.72727	0.1	1604.3
28277	16.709	1.	0.1	1629.5
28278	16.801	0.90909	0.1	1606.5
28279	16.709	1.1818	0.1	1631.4
28280	16.801	1.0909	0.1	1608.6
28281	16.709	1.3636	0.1	1633.1
28282	16.801	1.2727	0.1	1610.6
28283	16.709	1.5455	0.1	1634.8
28284	16.801	1.4545	0.1	1612.5
28285	16.709	1.7273	0.1	1636.2
28286	16.801	1.6364	0.1	1614.2
28287	16.709	1.9091	0.1	1637.5
28288	16.801	1.8182	0.1	1615.6
28289	16.709	2.0909	0.1	1638.5
28290	16.801	2.	0.1	1616.9
28291	16.709	2.2727	0.1	1639.4
28292	16.801	2.1818	0.1	1617.9
28293	16.709	2.4545	0.1	1640.1
28294	16.801	2.3636	0.1	1618.7
28295	16.709	2.6364	0.1	1640.5
28296	16.801	2.5455	0.1	1619.4
28297	16.709	2.8182	0.1	1640.8
28298	16.801	2.7273	0.1	1619.8
28299	16.709	3.	0.1	1640.9
28300	16.801	2.9091	0.1	1620.
28301	16.709	3.1818	0.1	1640.8
28302	16.801	3.0909	0.1	1620.
28303	16.709	3.3636	0.1	1640.5
28304	16.801	3.2727	0.1	1619.8
28305	16.709	3.5455	0.1	1640.1
28306	16.801	3.4545	0.1	1619.4
28307	16.709	3.7273	0.1	1639.4
28308	16.801	3.6364	0.1	1618.7
28309	16.709	3.9091	0.1	1638.5
28310	16.801	3.8182	0.1	1617.9
28311	16.709	4.0909	0.1	1637.5
28312	16.801	4.	0.1	1616.9
28313	16.709	4.2727	0.1	1636.2
28314	16.801	4.1818	0.1	1615.6
28315	16.709	4.4545	0.1	1634.8
28316	16.801	4.3636	0.1	1614.2
28317	16.709	4.6364	0.1	1633.1
28318	16.801	4.5455	0.1	1612.5
28319	16.709	4.8182	0.1	1631.4
28320	16.801	4.7273	0.1	1610.6
28321	16.709	5.	0.1	1629.5
28322	16.801	4.9091	0.1	1608.6
28323	16.709	5.1818	0.1	1627.5
28324	16.801	5.0909	0.1	1606.5
28325	16.709	5.3636	0.1	1625.5
28326	16.801	5.2727	0.1	1604.3
28327	16.709	5.5455	0.1	1623.6
28328	16.801	5.4545	0.1	1602.1
28329	16.709	5.7273	0.1	1623.1
28330	16.801	5.6364	0.1	1600.2
28331	16.801	5.8182	0.1	1600.8
28332	16.709	5.9091	0.1	1614.8
28333	16.893	0.27273	0.1	1577.7
28334	16.985	0.18182	0.1	1555.1
28335	16.893	9.0909e-002	0.1	1569.1
28336	16.893	0.45455	0.1	1578.6
28337	16.985	0.36364	0.1	1554.9
28338	16.893	0.63636	0.1	1580.9
28339	16.985	0.54545	0.1	1557.3
28340	16.893	0.81818	0.1	1583.3
28341	16.985	0.72727	0.1	1559.9
28342	16.893	1.	0.1	1585.6
28343	16.985	0.90909	0.1	1562.5
28344	16.893	1.1818	0.1	1587.9
28345	16.985	1.0909	0.1	1565.
28346	16.893	1.3636	0.1	1589.9
28347	16.985	1.2727	0.1	1567.4
28348	16.893	1.5455	0.1	1591.9
28349	16.985	1.4545	0.1	1569.6
28350	16.893	1.7273	0.1	1593.5
28351	16.985	1.6364	0.1	1571.6
28352	16.893	1.9091	0.1	1595.
28353	16.985	1.8182	0.1	1573.3
28354	16.893	2.0909	0.1	1596.2
28355	16.985	2.	0.1	1574.7
28356	16.893	2.2727	0.1	1597.2
28357	16.985	2.1818	0.1	1575.9
28358	16.893	2.4545	0.1	1598.
28359	16.985	2.3636	0.1	1576.9
28360	16.893	2.6364	0.1	1598.5
28361	16.985	2.5455	0.1	1577.6
28362	16.893	2.8182	0.1	1598.9
28363	16.985	2.7273	0.1	1578.
28364	16.893	3.	0.1	1599.
28365	16.985	2.9091	0.1	1578.3
28366	16.893	3.1818	0.1	1598.9
28367	16.985	3.0909	0.1	1578.3
28368	16.893	3.3636	0.1	1598.5
28369	16.985	3.2727	0.1	1578.
28370	16.893	3.5455	0.1	1598.
28371	16.985	3.4545	0.1	1577.6
28372	16.893	3.7273	0.1	1597.2
28373	16.985	3.6364	0.1	1576.9
28374	16.893	3.9091	0.1	1596.2
28375	16.985	3.8182	0.1	1575.9
28376	16.893	4.0909	0.1	1595.
28377	16.985	4.	0.1	1574.7
28378	16.893	4.2727	0.1	1593.5
28379	16.985	4.1818	0.1	1573.3
28380	16.893	4.4545	0.1	1591.9
28381	16.985	4.3636	0.1	1571.6
28382	16.893	4.6364	0.1	1589.9
28383	16.985	4.5455	0.1	1569.6
28384	16.893	4.8182	0.1	1587.9
28385	16.985	4.7273	0.1	1567.4
28386	16.893	5.	0.1	1585.6
28387	16.985	4.9091	0.1	1565.
28388	16.893	5.1818	0.1	1583.3
28389	16.985	5.0909	0.1	1562.5
28390	16.893	5.3636	0.1	1580.9
28391	16.985	5.2727	0.1	1559.9
28392	16.893	5.5455	0.1	1578.6
28393	16.985	5.4545	0.1	1557.3
28394	16.893	5.7273	0.1	1577.7
28395	16.985	5.6364	0.1	1554.9
28396	16.985	5.8182	0.1	1555.1
28397	16.893	5.9091	0.1	1569.1
28398	17.077	0.27273	0.1	1532.2
28399	17.169	0.18182	0.1	1509.3
28400	17.077	9.0909e-002	0.1	1523.3
28401	17.077	0.45455	0.1	1533.6
28402	17.169	0.36364	0.1	1509.7
28403	17.077	0.63636	0.1	1536.3
28404	17.169	0.54545	0.1	1512.6
28405	17.077	0.81818	0.1	1539.2
28406	17.169	0.72727	0.1	1515.6
28407	17.077	1.	0.1	1541.9
28408	17.169	0.90909	0.1	1518.7
28409	17.077	1.1818	0.1	1544.6
28410	17.169	1.0909	0.1	1521.7
28411	17.077	1.3636	0.1	1547.
28412	17.169	1.2727	0.1	1524.5
28413	17.077	1.5455	0.1	1549.3
28414	17.169	1.4545	0.1	1527.
28415	17.077	1.7273	0.1	1551.2
28416	17.169	1.6364	0.1	1529.3
28417	17.077	1.9091	0.1	1552.9
28418	17.169	1.8182	0.1	1531.3
28419	17.077	2.0909	0.1	1554.4
28420	17.169	2.	0.1	1533.
28421	17.077	2.2727	0.1	1555.5
28422	17.169	2.1818	0.1	1534.4
28423	17.077	2.4545	0.1	1556.4
28424	17.169	2.3636	0.1	1535.5
28425	17.077	2.6364	0.1	1557.
28426	17.169	2.5455	0.1	1536.3
28427	17.077	2.8182	0.1	1557.4
28428	17.169	2.7273	0.1	1536.8
28429	17.077	3.	0.1	1557.5
28430	17.169	2.9091	0.1	1537.
28431	17.077	3.1818	0.1	1557.4
28432	17.169	3.0909	0.1	1537.
28433	17.077	3.3636	0.1	1557.
28434	17.169	3.2727	0.1	1536.8
28435	17.077	3.5455	0.1	1556.4
28436	17.169	3.4545	0.1	1536.3
28437	17.077	3.7273	0.1	1555.5
28438	17.169	3.6364	0.1	1535.5
28439	17.077	3.9091	0.1	1554.4
28440	17.169	3.8182	0.1	1534.4
28441	17.077	4.0909	0.1	1552.9
28442	17.169	4.	0.1	1533.
28443	17.077	4.2727	0.1	1551.2
28444	17.169	4.1818	0.1	1531.3
28445	17.077	4.4545	0.1	1549.3
28446	17.169	4.3636	0.1	1529.3
28447	17.077	4.6364	0.1	1547.
28448	17.169	4.5455	0.1	1527.
28449	17.077	4.8182	0.1	1544.6
28450	17.169	4.7273	0.1	1524.5
28451	17.077	5.	0.1	1541.9
28452	17.169	4.9091	0.1	1521.7
28453	17.077	5.1818	0.1	1539.2
28454	17.169	5.0909	0.1	1518.7
28455	17.077	5.3636	0.1	1536.3
28456	17.169	5.2727	0.1	1515.6
28457	17.077	5.5455	0.1	1533.6
28458	17.169	5.4545	0.1	1512.6
28459	17.077	5.7273	0.1	1532.2
28460	17.169	5.6364	0.1	1509.7
28461	17.169	5.8182	0.1	1509.3
28462	17.077	5.9091	0.1	1523.3
28463	17.26	0.27273	0.1	1486.6
28464	17.352	0.18182	0.1	1463.3
28465	17.26	9.0909e-002	0.1	1477.4
28466	17.26	0.45455	0.1	1488.6
28467	17.352	0.36364	0.1	1464.3
28468	17.26	0.63636	0.1	1491.8
28469	17.352	0.54545	0.1	1467.8
28470	17.26	0.81818	0.1	1495.2
28471	17.352	0.72727	0.1	1471.4
28472	17.26	1.	0.1	1498.4
28473	17.352	0.90909	0.1	1475.1
28474	17.26	1.1818	0.1	1501.6
28475	17.352	1.0909	0.1	1478.5
28476	17.26	1.3636	0.1	1504.4
28477	17.352	1.2727	0.1	1481.8
28478	17.26	1.5455	0.1	1507.
28479	17.352	1.4545	0.1	1484.8
28480	17.26	1.7273	0.1	1509.3
28481	17.352	1.6364	0.1	1487.5
28482	17.26	1.9091	0.1	1511.3
28483	17.352	1.8182	0.1	1489.8
28484	17.26	2.0909	0.1	1513.
28485	17.352	2.	0.1	1491.7
28486	17.26	2.2727	0.1	1514.3
28487	17.352	2.1818	0.1	1493.3
28488	17.26	2.4545	0.1	1515.3
28489	17.352	2.3636	0.1	1494.6
28490	17.26	2.6364	0.1	1516.
28491	17.352	2.5455	0.1	1495.5
28492	17.26	2.8182	0.1	1516.4
28493	17.352	2.7273	0.1	1496.1
28494	17.26	3.	0.1	1516.5
28495	17.352	2.9091	0.1	1496.4
28496	17.26	3.1818	0.1	1516.4
28497	17.352	3.0909	0.1	1496.4
28498	17.26	3.3636	0.1	1516.
28499	17.352	3.2727	0.1	1496.1
28500	17.26	3.5455	0.1	1515.3
28501	17.352	3.4545	0.1	1495.5
28502	17.26	3.7273	0.1	1514.3
28503	17.352	3.6364	0.1	1494.6
28504	17.26	3.9091	0.1	1513.
28505	17.352	3.8182	0.1	1493.3
28506	17.26	4.0909	0.1	1511.3
28507	17.352	4.	0.1	1491.7
28508	17.26	4.2727	0.1	1509.3
28509	17.352	4.1818	0.1	1489.8
28510	17.26	4.4545	0.1	1507.
28511	17.352	4.3636	0.1	1487.5
28512	17.26	4.6364	0.1	1504.4
28513	17.352	4.5455	0.1	1484.8
28514	17.26	4.8182	0.1	1501.6
28515	17.352	4.7273	0.1	1481.8
28516	17.26	5.	0.1	1498.4
28517	17.352	4.9091	0.1	1478.5
28518	17.26	5.1818	0.1	1495.2
28519	17.352	5.0909	0.1	1475.1
28520	17.26	5.3636	0.1	1491.8
28521	17.352	5.2727	0.1	1471.4
28522	17.26	5.5455	0.1	1488.6
28523	17.352	5.4545	0.1	1467.8
28524	17.26	5.7273	0.1	1486.6
28525	17.352	5.6364	0.1	1464.3
28526	17.352	5.8182	0.1	1463.3
28527	17.26	5.9091	0.1	1477.4
28528	17.444	0.27273	0.1	1440.8
28529	17.536	0.18182	0.1	1417.1
28530	17.444	9.0909e-002	0.1	1431.3
28531	17.444	0.45455	0.1	1443.4
28532	17.536	0.36364	0.1	1418.8
28533	17.444	0.63636	0.1	1447.3
28534	17.536	0.54545	0.1	1422.9
28535	17.444	0.81818	0.1	1451.3
28536	17.536	0.72727	0.1	1427.2
28537	17.444	1.	0.1	1455.1
28538	17.536	0.90909	0.1	1431.5
28539	17.444	1.1818	0.1	1458.8
28540	17.536	1.0909	0.1	1435.6
28541	17.444	1.3636	0.1	1462.1
28542	17.536	1.2727	0.1	1439.4
28543	17.444	1.5455	0.1	1465.2
28544	17.536	1.4545	0.1	1442.9
28545	17.444	1.7273	0.1	1467.9
28546	17.536	1.6364	0.1	1446.
28547	17.444	1.9091	0.1	1470.2
28548	17.536	1.8182	0.1	1448.7
28549	17.444	2.0909	0.1	1472.1
28550	17.536	2.	0.1	1451.
28551	17.444	2.2727	0.1	1473.6
28552	17.536	2.1818	0.1	1452.8
28553	17.444	2.4545	0.1	1474.7
28554	17.536	2.3636	0.1	1454.3
28555	17.444	2.6364	0.1	1475.5
28556	17.536	2.5455	0.1	1455.3
28557	17.444	2.8182	0.1	1476.
28558	17.536	2.7273	0.1	1456.
28559	17.444	3.	0.1	1476.2
28560	17.536	2.9091	0.1	1456.3
28561	17.444	3.1818	0.1	1476.
28562	17.536	3.0909	0.1	1456.3
28563	17.444	3.3636	0.1	1475.5
28564	17.536	3.2727	0.1	1456.
28565	17.444	3.5455	0.1	1474.7
28566	17.536	3.4545	0.1	1455.3
28567	17.444	3.7273	0.1	1473.6
28568	17.536	3.6364	0.1	1454.3
28569	17.444	3.9091	0.1	1472.1
28570	17.536	3.8182	0.1	1452.8
28571	17.444	4.0909	0.1	1470.2
28572	17.536	4.	0.1	1451.
28573	17.444	4.2727	0.1	1467.9
28574	17.536	4.1818	0.1	1448.7
28575	17.444	4.4545	0.1	1465.2
28576	17.536	4.3636	0.1	1446.
28577	17.444	4.6364	0.1	1462.1
28578	17.536	4.5455	0.1	1442.9
28579	17.444	4.8182	0.1	1458.8
28580	17.536	4.7273	0.1	1439.4
28581	17.444	5.	0.1	1455.1
28582	17.536	4.9091	0.1	1435.6
28583	17.444	5.1818	0.1	1451.3
28584	17.536	5.0909	0.1	1431.5
28585	17.444	5.3636	0.1	1447.3
28586	17.536	5.2727	0.1	1427.2
28587	17.444	5.5455	0.1	1443.4
28588	17.536	5.4545	0.1	1422.9
28589	17.444	5.7273	0.1	1440.8
28590	17.536	5.6364	0.1	1418.8
28591	17.536	5.8182	0.1	1417.1
28592	17.444	5.9091	0.1	1431.3
28593	17.628	0.27273	0.1	1394.8
28594	17.719	0.18182	0.1	1370.5
28595	17.628	9.0909e-002	0.1	1384.9
28596	17.628	0.45455	0.1	1398.2
28597	17.719	0.36364	0.1	1373.
28598	17.628	0.63636	0.1	1402.8
28599	17.719	0.54545	0.1	1377.9
28600	17.628	0.81818	0.1	1407.4
28601	17.719	0.72727	0.1	1383.
28602	17.628	1.	0.1	1411.9
28603	17.719	0.90909	0.1	1388.
28604	17.628	1.1818	0.1	1416.2
28605	17.719	1.0909	0.1	1392.8
28606	17.628	1.3636	0.1	1420.2
28607	17.719	1.2727	0.1	1397.3
28608	17.628	1.5455	0.1	1423.7
28609	17.719	1.4545	0.1	1401.4
28610	17.628	1.7273	0.1	1426.9
28611	17.719	1.6364	0.1	1405.1
28612	17.628	1.9091	0.1	1429.5
28613	17.719	1.8182	0.1	1408.2
28614	17.628	2.0909	0.1	1431.7
28615	17.719	2.	0.1	1410.8
28616	17.628	2.2727	0.1	1433.5
28617	17.719	2.1818	0.1	1413.
28618	17.628	2.4545	0.1	1434.8
28619	17.719	2.3636	0.1	1414.6
28620	17.628	2.6364	0.1	1435.7
28621	17.719	2.5455	0.1	1415.8
28622	17.628	2.8182	0.1	1436.3
28623	17.719	2.7273	0.1	1416.6
28624	17.628	3.	0.1	1436.5
28625	17.719	2.9091	0.1	1417.
28626	17.628	3.1818	0.1	1436.3
28627	17.719	3.0909	0.1	1417.
28628	17.628	3.3636	0.1	1435.7
28629	17.719	3.2727	0.1	1416.6
28630	17.628	3.5455	0.1	1434.8
28631	17.719	3.4545	0.1	1415.8
28632	17.628	3.7273	0.1	1433.5
28633	17.719	3.6364	0.1	1414.6
28634	17.628	3.9091	0.1	1431.7
28635	17.719	3.8182	0.1	1413.
28636	17.628	4.0909	0.1	1429.5
28637	17.719	4.	0.1	1410.8
28638	17.628	4.2727	0.1	1426.9
28639	17.719	4.1818	0.1	1408.2
28640	17.628	4.4545	0.1	1423.7
28641	17.719	4.3636	0.1	1405.1
28642	17.628	4.6364	0.1	1420.2
28643	17.719	4.5455	0.1	1401.4
28644	17.628	4.8182	0.1	1416.2
28645	17.719	4.7273	0.1	1397.3
28646	17.628	5.	0.1	1411.9
28647	17.719	4.9091	0.1	1392.8
28648	17.628	5.1818	0.1	1407.4
28649	17.719	5.0909	0.1	1388.
28650	17.628	5.3636	0.1	1402.8
28651	17.719	5.2727	0.1	1383.
28652	17.628	5.5455	0.1	1398.2
28653	17.719	5.4545	0.1	1377.9
28654	17.628	5.7273	0.1	1394.8
28655	17.719	5.6364	0.1	1373.
28656	17.719	5.8182	0.1	1370.5
28657	17.628	5.9091	0.1	1384.9
28658	17.811	0.27273	0.1	1348.5
28659	17.903	0.18182	0.1	1323.5
28660	17.811	9.0909e-002	0.1	1338.2
28661	17.811	0.45455	0.1	1352.7
28662	17.903	0.36364	0.1	1326.9
28663	17.811	0.63636	0.1	1358.1
28664	17.903	0.54545	0.1	1332.7
28665	17.811	0.81818	0.1	1363.6
28666	17.903	0.72727	0.1	1338.7
28667	17.811	1.	0.1	1368.9
28668	17.903	0.90909	0.1	1344.6
28669	17.811	1.1818	0.1	1373.9
28670	17.903	1.0909	0.1	1350.3
28671	17.811	1.3636	0.1	1378.6
28672	17.903	1.2727	0.1	1355.5
28673	17.811	1.5455	0.1	1382.7
28674	17.903	1.4545	0.1	1360.3
28675	17.811	1.7273	0.1	1386.4
28676	17.903	1.6364	0.1	1364.6
28677	17.811	1.9091	0.1	1389.5
28678	17.903	1.8182	0.1	1368.3
28679	17.811	2.0909	0.1	1392.
28680	17.903	2.	0.1	1371.4
28681	17.811	2.2727	0.1	1394.1
28682	17.903	2.1818	0.1	1373.8
28683	17.811	2.4545	0.1	1395.6
28684	17.903	2.3636	0.1	1375.8
28685	17.811	2.6364	0.1	1396.7
28686	17.903	2.5455	0.1	1377.2
28687	17.811	2.8182	0.1	1397.3
28688	17.903	2.7273	0.1	1378.1
28689	17.811	3.	0.1	1397.5
28690	17.903	2.9091	0.1	1378.5
28691	17.811	3.1818	0.1	1397.3
28692	17.903	3.0909	0.1	1378.5
28693	17.811	3.3636	0.1	1396.7
28694	17.903	3.2727	0.1	1378.1
28695	17.811	3.5455	0.1	1395.6
28696	17.903	3.4545	0.1	1377.2
28697	17.811	3.7273	0.1	1394.1
28698	17.903	3.6364	0.1	1375.8
28699	17.811	3.9091	0.1	1392.
28700	17.903	3.8182	0.1	1373.8
28701	17.811	4.0909	0.1	1389.5
28702	17.903	4.	0.1	1371.4
28703	17.811	4.2727	0.1	1386.4
28704	17.903	4.1818	0.1	1368.3
28705	17.811	4.4545	0.1	1382.7
28706	17.903	4.3636	0.1	1364.6
28707	17.811	4.6364	0.1	1378.6
28708	17.903	4.5455	0.1	1360.3
28709	17.811	4.8182	0.1	1373.9
28710	17.903	4.7273	0.1	1355.5
28711	17.811	5.	0.1	1368.9
28712	17.903	4.9091	0.1	1350.3
28713	17.811	5.1818	0.1	1363.6
28714	17.903	5.0909	0.1	1344.6
28715	17.811	5.3636	0.1	1358.1
28716	17.903	5.2727	0.1	1338.7
28717	17.811	5.5455	0.1	1352.7
28718	17.903	5.4545	0.1	1332.7
28719	17.811	5.7273	0.1	1348.5
28720	17.903	5.6364	0.1	1326.9
28721	17.903	5.8182	0.1	1323.5
28722	17.811	5.9091	0.1	1338.2
28723	17.995	0.27273	0.1	1301.7
28724	18.087	0.18182	0.1	1275.8
28725	17.995	9.0909e-002	0.1	1290.9
28726	17.995	0.45455	0.1	1306.9
28727	18.087	0.36364	0.1	1280.4
28728	17.995	0.63636	0.1	1313.3
28729	18.087	0.54545	0.1	1287.2
28730	17.995	0.81818	0.1	1319.7
28731	18.087	0.72727	0.1	1294.2
28732	17.995	1.	0.1	1325.9
28733	18.087	0.90909	0.1	1301.2
28734	17.995	1.1818	0.1	1331.8
28735	18.087	1.0909	0.1	1307.8
28736	17.995	1.3636	0.1	1337.3
28737	18.087	1.2727	0.1	1314.
28738	17.995	1.5455	0.1	1342.2
28739	18.087	1.4545	0.1	1319.7
28740	17.995	1.7273	0.1	1346.5
28741	18.087	1.6364	0.1	1324.7
28742	17.995	1.9091	0.1	1350.1
28743	18.087	1.8182	0.1	1329.
28744	17.995	2.0909	0.1	1353.1
28745	18.087	2.	0.1	1332.6
28746	17.995	2.2727	0.1	1355.5
28747	18.087	2.1818	0.1	1335.6
28748	17.995	2.4545	0.1	1357.3
28749	18.087	2.3636	0.1	1337.8
28750	17.995	2.6364	0.1	1358.5
28751	18.087	2.5455	0.1	1339.4
28752	17.995	2.8182	0.1	1359.3
28753	18.087	2.7273	0.1	1340.5
28754	17.995	3.	0.1	1359.5
28755	18.087	2.9091	0.1	1341.
28756	17.995	3.1818	0.1	1359.3
28757	18.087	3.0909	0.1	1341.
28758	17.995	3.3636	0.1	1358.5
28759	18.087	3.2727	0.1	1340.5
28760	17.995	3.5455	0.1	1357.3
28761	18.087	3.4545	0.1	1339.4
28762	17.995	3.7273	0.1	1355.5
28763	18.087	3.6364	0.1	1337.8
28764	17.995	3.9091	0.1	1353.1
28765	18.087	3.8182	0.1	1335.6
28766	17.995	4.0909	0.1	1350.1
28767	18.087	4.	0.1	1332.6
28768	17.995	4.2727	0.1	1346.5
28769	18.087	4.1818	0.1	1329.
28770	17.995	4.4545	0.1	1342.2
28771	18.087	4.3636	0.1	1324.7
28772	17.995	4.6364	0.1	1337.3
28773	18.087	4.5455	0.1	1319.7
28774	17.995	4.8182	0.1	1331.8
28775	18.087	4.7273	0.1	1314.
28776	17.995	5.	0.1	1325.9
28777	18.087	4.9091	0.1	1307.8
28778	17.995	5.1818	0.1	1319.7
28779	18.087	5.0909	0.1	1301.2
28780	17.995	5.3636	0.1	1313.3
28781	18.087	5.2727	0.1	1294.2
28782	17.995	5.5455	0.1	1306.9
28783	18.087	5.4545	0.1	1287.2
28784	17.995	5.7273	0.1	1301.7
28785	18.087	5.6364	0.1	1280.4
28786	18.087	5.8182	0.1	1275.8
28787	17.995	5.9091	0.1	1290.9
28788	18.178	0.27273	0.1	1254.3
28789	18.27	0.18182	0.1	1227.4
28790	18.178	9.0909e-002	0.1	1242.9
28791	18.178	0.45455	0.1	1260.6
28792	18.27	0.36364	0.1	1233.2
28793	18.178	0.63636	0.1	1268.1
28794	18.27	0.54545	0.1	1241.2
28795	18.178	0.81818	0.1	1275.7
28796	18.27	0.72727	0.1	1249.4
28797	18.178	1.	0.1	1283.
28798	18.27	0.90909	0.1	1257.6
28799	18.178	1.1818	0.1	1290.
28800	18.27	1.0909	0.1	1265.5
28801	18.178	1.3636	0.1	1296.4
28802	18.27	1.2727	0.1	1272.8
28803	18.178	1.5455	0.1	1302.2
28804	18.27	1.4545	0.1	1279.5
28805	18.178	1.7273	0.1	1307.2
28806	18.27	1.6364	0.1	1285.5
28807	18.178	1.9091	0.1	1311.5
28808	18.27	1.8182	0.1	1290.6
28809	18.178	2.0909	0.1	1315.1
28810	18.27	2.	0.1	1294.8
28811	18.178	2.2727	0.1	1317.8
28812	18.27	2.1818	0.1	1298.3
28813	18.178	2.4545	0.1	1319.9
28814	18.27	2.3636	0.1	1300.9
28815	18.178	2.6364	0.1	1321.4
28816	18.27	2.5455	0.1	1302.8
28817	18.178	2.8182	0.1	1322.2
28818	18.27	2.7273	0.1	1304.
28819	18.178	3.	0.1	1322.5
28820	18.27	2.9091	0.1	1304.6
28821	18.178	3.1818	0.1	1322.2
28822	18.27	3.0909	0.1	1304.6
28823	18.178	3.3636	0.1	1321.4
28824	18.27	3.2727	0.1	1304.
28825	18.178	3.5455	0.1	1319.9
28826	18.27	3.4545	0.1	1302.8
28827	18.178	3.7273	0.1	1317.8
28828	18.27	3.6364	0.1	1300.9
28829	18.178	3.9091	0.1	1315.1
28830	18.27	3.8182	0.1	1298.3
28831	18.178	4.0909	0.1	1311.5
28832	18.27	4.	0.1	1294.8
28833	18.178	4.2727	0.1	1307.2
28834	18.27	4.1818	0.1	1290.6
28835	18.178	4.4545	0.1	1302.2
28836	18.27	4.3636	0.1	1285.5
28837	18.178	4.6364	0.1	1296.4
28838	18.27	4.5455	0.1	1279.5
28839	18.178	4.8182	0.1	1290.
28840	18.27	4.7273	0.1	1272.8
28841	18.178	5.	0.1	1283.
28842	18.27	4.9091	0.1	1265.5
28843	18.178	5.1818	0.1	1275.7
28844	18.27	5.0909	0.1	1257.6
28845	18.178	5.3636	0.1	1268.1
28846	18.27	5.2727	0.1	1249.4
28847	18.178	5.5455	0.1	1260.6
28848	18.27	5.4545	0.1	1241.2
28849	18.178	5.7273	0.1	1254.3
28850	18.27	5.6364	0.1	1233.2
28851	18.27	5.8182	0.1	1227.4
28852	18.178	5.9091	0.1	1242.9
28853	18.362	0.27273	0.1	1206.
28854	18.454	0.18182	0.1	1177.9
28855	18.362	9.0909e-002	0.1	1194.
28856	18.362	0.45455	0.1	1213.7
28857	18.454	0.36364	0.1	1185.1
28858	18.362	0.63636	0.1	1222.5
28859	18.454	0.54545	0.1	1194.6
28860	18.362	0.81818	0.1	1231.4
28861	18.454	0.72727	0.1	1204.3
28862	18.362	1.	0.1	1240.1
28863	18.454	0.90909	0.1	1213.9
28864	18.362	1.1818	0.1	1248.3
28865	18.454	1.0909	0.1	1223.2
28866	18.362	1.3636	0.1	1255.9
28867	18.454	1.2727	0.1	1231.9
28868	18.362	1.5455	0.1	1262.8
28869	18.454	1.4545	0.1	1239.9
28870	18.362	1.7273	0.1	1268.8
28871	18.454	1.6364	0.1	1246.9
28872	18.362	1.9091	0.1	1273.9
28873	18.454	1.8182	0.1	1253.
28874	18.362	2.0909	0.1	1278.
28875	18.454	2.	0.1	1258.1
28876	18.362	2.2727	0.1	1281.3
28877	18.454	2.1818	0.1	1262.1
28878	18.362	2.4545	0.1	1283.7
28879	18.454	2.3636	0.1	1265.2
28880	18.362	2.6364	0.1	1285.4
28881	18.454	2.5455	0.1	1267.5
28882	18.362	2.8182	0.1	1286.4
28883	18.454	2.7273	0.1	1268.9
28884	18.362	3.	0.1	1286.7
28885	18.454	2.9091	0.1	1269.6
28886	18.362	3.1818	0.1	1286.4
28887	18.454	3.0909	0.1	1269.6
28888	18.362	3.3636	0.1	1285.4
28889	18.454	3.2727	0.1	1268.9
28890	18.362	3.5455	0.1	1283.7
28891	18.454	3.4545	0.1	1267.5
28892	18.362	3.7273	0.1	1281.3
28893	18.454	3.6364	0.1	1265.2
28894	18.362	3.9091	0.1	1278.
28895	18.454	3.8182	0.1	1262.1
28896	18.362	4.0909	0.1	1273.9
28897	18.454	4.	0.1	1258.1
28898	18.362	4.2727	0.1	1268.8
28899	18.454	4.1818	0.1	1253.
28900	18.362	4.4545	0.1	1262.8
28901	18.454	4.3636	0.1	1246.9
28902	18.362	4.6364	0.1	1255.9
28903	18.454	4.5455	0.1	1239.9
28904	18.362	4.8182	0.1	1248.3
28905	18.454	4.7273	0.1	1231.9
28906	18.362	5.	0.1	1240.1
28907	18.454	4.9091	0.1	1223.2
28908	18.362	5.1818	0.1	1231.4
28909	18.454	5.0909	0.1	1213.9
28910	18.362	5.3636	0.1	1222.5
28911	18.454	5.2727	0.1	1204.3
28912	18.362	5.5455	0.1	1213.7
28913	18.454	5.4545	0.1	1194.6
28914	18.362	5.7273	0.1	1206.
28915	18.454	5.6364	0.1	1185.1
28916	18.454	5.8182	0.1	1177.9
28917	18.362	5.9091	0.1	1194.
28918	18.546	0.27273	0.1	1156.7
28919	18.638	0.18182	0.1	1127.1
28920	18.546	9.0909e-002	0.1	1144.
28921	18.546	0.45455	0.1	1165.9
28922	18.638	0.36364	0.1	1136.
28923	18.546	0.63636	0.1	1176.3
28924	18.638	0.54545	0.1	1147.1
28925	18.546	0.81818	0.1	1186.7
28926	18.638	0.72727	0.1	1158.5
28927	18.546	1.	0.1	1197.
28928	18.638	0.90909	0.1	1169.8
28929	18.546	1.1818	0.1	1206.8
28930	18.638	1.0909	0.1	1180.9
28931	18.546	1.3636	0.1	1215.9
28932	18.638	1.2727	0.1	1191.3
28933	18.546	1.5455	0.1	1224.
28934	18.638	1.4545	0.1	1200.8
28935	18.546	1.7273	0.1	1231.2
28936	18.638	1.6364	0.1	1209.3
28937	18.546	1.9091	0.1	1237.2
28938	18.638	1.8182	0.1	1216.5
28939	18.546	2.0909	0.1	1242.2
28940	18.638	2.	0.1	1222.6
28941	18.546	2.2727	0.1	1246.1
28942	18.638	2.1818	0.1	1227.4
28943	18.546	2.4545	0.1	1249.
28944	18.638	2.3636	0.1	1231.1
28945	18.546	2.6364	0.1	1250.9
28946	18.638	2.5455	0.1	1233.7
28947	18.546	2.8182	0.1	1252.1
28948	18.638	2.7273	0.1	1235.4
28949	18.546	3.	0.1	1252.5
28950	18.638	2.9091	0.1	1236.3
28951	18.546	3.1818	0.1	1252.1
28952	18.638	3.0909	0.1	1236.3
28953	18.546	3.3636	0.1	1250.9
28954	18.638	3.2727	0.1	1235.4
28955	18.546	3.5455	0.1	1249.
28956	18.638	3.4545	0.1	1233.7
28957	18.546	3.7273	0.1	1246.1
28958	18.638	3.6364	0.1	1231.1
28959	18.546	3.9091	0.1	1242.2
28960	18.638	3.8182	0.1	1227.4
28961	18.546	4.0909	0.1	1237.2
28962	18.638	4.	0.1	1222.6
28963	18.546	4.2727	0.1	1231.2
28964	18.638	4.1818	0.1	1216.5
28965	18.546	4.4545	0.1	1224.
28966	18.638	4.3636	0.1	1209.3
28967	18.546	4.6364	0.1	1215.9
28968	18.638	4.5455	0.1	1200.8
28969	18.546	4.8182	0.1	1206.8
28970	18.638	4.7273	0.1	1191.3
28971	18.546	5.	0.1	1197.
28972	18.638	4.9091	0.1	1180.9
28973	18.546	5.1818	0.1	1186.7
28974	18.638	5.0909	0.1	1169.8
28975	18.546	5.3636	0.1	1176.3
28976	18.638	5.2727	0.1	1158.5
28977	18.546	5.5455	0.1	1165.9
28978	18.638	5.4545	0.1	1147.1
28979	18.546	5.7273	0.1	1156.7
28980	18.638	5.6364	0.1	1136.
28981	18.638	5.8182	0.1	1127.1
28982	18.546	5.9091	0.1	1144.
28983	18.729	0.27273	0.1	1106.1
28984	18.821	0.18182	0.1	1074.7
28985	18.729	9.0909e-002	0.1	1092.5
28986	18.729	0.45455	0.1	1117.1
28987	18.821	0.36364	0.1	1085.5
28988	18.729	0.63636	0.1	1129.2
28989	18.821	0.54545	0.1	1098.4
28990	18.729	0.81818	0.1	1141.5
28991	18.821	0.72727	0.1	1111.8
28992	18.729	1.	0.1	1153.7
28993	18.821	0.90909	0.1	1125.3
28994	18.729	1.1818	0.1	1165.4
28995	18.821	1.0909	0.1	1138.5
28996	18.729	1.3636	0.1	1176.2
28997	18.821	1.2727	0.1	1150.9
28998	18.729	1.5455	0.1	1186.1
28999	18.821	1.4545	0.1	1162.4
29000	18.729	1.7273	0.1	1194.6
29001	18.821	1.6364	0.1	1172.6
29002	18.729	1.9091	0.1	1201.9
29003	18.821	1.8182	0.1	1181.4
29004	18.729	2.0909	0.1	1207.8
29005	18.821	2.	0.1	1188.6
29006	18.729	2.2727	0.1	1212.5
29007	18.821	2.1818	0.1	1194.4
29008	18.729	2.4545	0.1	1215.9
29009	18.821	2.3636	0.1	1198.8
29010	18.729	2.6364	0.1	1218.2
29011	18.821	2.5455	0.1	1202.
29012	18.729	2.8182	0.1	1219.6
29013	18.821	2.7273	0.1	1204.
29014	18.729	3.	0.1	1220.1
29015	18.821	2.9091	0.1	1205.
29016	18.729	3.1818	0.1	1219.6
29017	18.821	3.0909	0.1	1205.
29018	18.729	3.3636	0.1	1218.2
29019	18.821	3.2727	0.1	1204.
29020	18.729	3.5455	0.1	1215.9
29021	18.821	3.4545	0.1	1202.
29022	18.729	3.7273	0.1	1212.5
29023	18.821	3.6364	0.1	1198.8
29024	18.729	3.9091	0.1	1207.8
29025	18.821	3.8182	0.1	1194.4
29026	18.729	4.0909	0.1	1201.9
29027	18.821	4.	0.1	1188.6
29028	18.729	4.2727	0.1	1194.6
29029	18.821	4.1818	0.1	1181.4
29030	18.729	4.4545	0.1	1186.1
29031	18.821	4.3636	0.1	1172.6
29032	18.729	4.6364	0.1	1176.2
29033	18.821	4.5455	0.1	1162.4
29034	18.729	4.8182	0.1	1165.4
29035	18.821	4.7273	0.1	1150.9
29036	18.729	5.	0.1	1153.7
29037	18.821	4.9091	0.1	1138.5
29038	18.729	5.1818	0.1	1141.5
29039	18.821	5.0909	0.1	1125.3
29040	18.729	5.3636	0.1	1129.2
29041	18.821	5.2727	0.1	1111.8
29042	18.729	5.5455	0.1	1117.1
29043	18.821	5.4545	0.1	1098.4
29044	18.729	5.7273	0.1	1106.1
29045	18.821	5.6364	0.1	1085.5
29046	18.821	5.8182	0.1	1074.7
29047	18.729	5.9091	0.1	1092.5
29048	18.913	0.27273	0.1	1053.8
29049	19.005	0.18182	0.1	1020.3
29050	18.913	9.0909e-002	0.1	1039.3
29051	18.913	0.45455	0.1	1066.8
29052	19.005	0.36364	0.1	1033.3
29053	18.913	0.63636	0.1	1081.
29054	19.005	0.54545	0.1	1048.3
29055	18.913	0.81818	0.1	1095.6
29056	19.005	0.72727	0.1	1064.1
29057	18.913	1.	0.1	1110.1
29058	19.005	0.90909	0.1	1080.1
29059	18.913	1.1818	0.1	1124.
29060	19.005	1.0909	0.1	1095.8
29061	18.913	1.3636	0.1	1137.1
29062	19.005	1.2727	0.1	1110.9
29063	18.913	1.5455	0.1	1149.
29064	19.005	1.4545	0.1	1124.8
29065	18.913	1.7273	0.1	1159.4
29066	19.005	1.6364	0.1	1137.1
29067	18.913	1.9091	0.1	1168.1
29068	19.005	1.8182	0.1	1147.8
29069	18.913	2.0909	0.1	1175.2
29070	19.005	2.	0.1	1156.6
29071	18.913	2.2727	0.1	1180.8
29072	19.005	2.1818	0.1	1163.5
29073	18.913	2.4545	0.1	1184.9
29074	19.005	2.3636	0.1	1168.8
29075	18.913	2.6364	0.1	1187.7
29076	19.005	2.5455	0.1	1172.6
29077	18.913	2.8182	0.1	1189.3
29078	19.005	2.7273	0.1	1175.
29079	18.913	3.	0.1	1189.9
29080	19.005	2.9091	0.1	1176.1
29081	18.913	3.1818	0.1	1189.3
29082	19.005	3.0909	0.1	1176.1
29083	18.913	3.3636	0.1	1187.7
29084	19.005	3.2727	0.1	1175.
29085	18.913	3.5455	0.1	1184.9
29086	19.005	3.4545	0.1	1172.6
29087	18.913	3.7273	0.1	1180.8
29088	19.005	3.6364	0.1	1168.8
29089	18.913	3.9091	0.1	1175.2
29090	19.005	3.8182	0.1	1163.5
29091	18.913	4.0909	0.1	1168.1
29092	19.005	4.	0.1	1156.6
29093	18.913	4.2727	0.1	1159.4
29094	19.005	4.1818	0.1	1147.8
29095	18.913	4.4545	0.1	1149.
29096	19.005	4.3636	0.1	1137.1
29097	18.913	4.6364	0.1	1137.1
29098	19.005	4.5455	0.1	1124.8
29099	18.913	4.8182	0.1	1124.
29100	19.005	4.7273	0.1	1110.9
29101	18.913	5.	0.1	1110.1
29102	19.005	4.9091	0.1	1095.8
29103	18.913	5.1818	0.1	1095.6
29104	19.005	5.0909	0.1	1080.1
29105	18.913	5.3636	0.1	1081.
29106	19.005	5.2727	0.1	1064.1
29107	18.913	5.5455	0.1	1066.8
29108	19.005	5.4545	0.1	1048.3
29109	18.913	5.7273	0.1	1053.8
29110	19.005	5.6364	0.1	1033.3
29111	19.005	5.8182	0.1	1020.3
29112	18.913	5.9091	0.1	1039.3
29113	19.097	0.27273	0.1	999.48
29114	19.188	0.18182	0.1	963.48
29115	19.097	9.0909e-002	0.1	983.83
29116	19.097	0.45455	0.1	1014.7
29117	19.188	0.36364	0.1	978.83
29118	19.097	0.63636	0.1	1031.4
29119	19.188	0.54545	0.1	996.36
29120	19.097	0.81818	0.1	1048.6
29121	19.188	0.72727	0.1	1014.9
29122	19.097	1.	0.1	1065.9
29123	19.188	0.90909	0.1	1033.9
29124	19.097	1.1818	0.1	1082.7
29125	19.188	1.0909	0.1	1052.9
29126	19.097	1.3636	0.1	1098.6
29127	19.188	1.2727	0.1	1071.1
29128	19.097	1.5455	0.1	1113.
29129	19.188	1.4545	0.1	1088.
29130	19.097	1.7273	0.1	1125.6
29131	19.188	1.6364	0.1	1103.1
29132	19.097	1.9091	0.1	1136.2
29133	19.188	1.8182	0.1	1116.1
29134	19.097	2.0909	0.1	1144.9
29135	19.188	2.	0.1	1126.8
29136	19.097	2.2727	0.1	1151.6
29137	19.188	2.1818	0.1	1135.3
29138	19.097	2.4545	0.1	1156.5
29139	19.188	2.3636	0.1	1141.6
29140	19.097	2.6364	0.1	1159.9
29141	19.188	2.5455	0.1	1146.1
29142	19.097	2.8182	0.1	1161.8
29143	19.188	2.7273	0.1	1149.
29144	19.097	3.	0.1	1162.4
29145	19.188	2.9091	0.1	1150.4
29146	19.097	3.1818	0.1	1161.8
29147	19.188	3.0909	0.1	1150.4
29148	19.097	3.3636	0.1	1159.9
29149	19.188	3.2727	0.1	1149.
29150	19.097	3.5455	0.1	1156.5
29151	19.188	3.4545	0.1	1146.1
29152	19.097	3.7273	0.1	1151.6
29153	19.188	3.6364	0.1	1141.6
29154	19.097	3.9091	0.1	1144.9
29155	19.188	3.8182	0.1	1135.3
29156	19.097	4.0909	0.1	1136.2
29157	19.188	4.	0.1	1126.8
29158	19.097	4.2727	0.1	1125.6
29159	19.188	4.1818	0.1	1116.1
29160	19.097	4.4545	0.1	1113.
29161	19.188	4.3636	0.1	1103.1
29162	19.097	4.6364	0.1	1098.6
29163	19.188	4.5455	0.1	1088.
29164	19.097	4.8182	0.1	1082.7
29165	19.188	4.7273	0.1	1071.1
29166	19.097	5.	0.1	1065.9
29167	19.188	4.9091	0.1	1052.9
29168	19.097	5.1818	0.1	1048.6
29169	19.188	5.0909	0.1	1033.9
29170	19.097	5.3636	0.1	1031.4
29171	19.188	5.2727	0.1	1014.9
29172	19.097	5.5455	0.1	1014.7
29173	19.188	5.4545	0.1	996.36
29174	19.097	5.7273	0.1	999.48
29175	19.188	5.6364	0.1	978.83
29176	19.188	5.8182	0.1	963.48
29177	19.097	5.9091	0.1	983.83
29178	19.28	0.27273	0.1	942.57
29179	19.372	0.18182	0.1	903.74
29180	19.28	9.0909e-002	0.1	925.72
29181	19.28	0.45455	0.1	960.39
29182	19.372	0.36364	0.1	921.68
29183	19.28	0.63636	0.1	979.87
29184	19.372	0.54545	0.1	942.02
29185	19.28	0.81818	0.1	1000.3
29186	19.372	0.72727	0.1	963.81
29187	19.28	1.	0.1	1021.
29188	19.372	0.90909	0.1	986.5
29189	19.28	1.1818	0.1	1041.3
29190	19.372	1.0909	0.1	1009.4
29191	19.28	1.3636	0.1	1060.7
29192	19.372	1.2727	0.1	1031.6
29193	19.28	1.5455	0.1	1078.3
29194	19.372	1.4545	0.1	1052.4
29195	19.28	1.7273	0.1	1093.8
29196	19.372	1.6364	0.1	1071.
29197	19.28	1.9091	0.1	1106.8
29198	19.372	1.8182	0.1	1086.9
29199	19.28	2.0909	0.1	1117.2
29200	19.372	2.	0.1	1100.
29201	19.28	2.2727	0.1	1125.4
29202	19.372	2.1818	0.1	1110.3
29203	19.28	2.4545	0.1	1131.3
29204	19.372	2.3636	0.1	1118.
29205	19.28	2.6364	0.1	1135.3
29206	19.372	2.5455	0.1	1123.4
29207	19.28	2.8182	0.1	1137.7
29208	19.372	2.7273	0.1	1126.9
29209	19.28	3.	0.1	1138.4
29210	19.372	2.9091	0.1	1128.6
29211	19.28	3.1818	0.1	1137.7
29212	19.372	3.0909	0.1	1128.6
29213	19.28	3.3636	0.1	1135.3
29214	19.372	3.2727	0.1	1126.9
29215	19.28	3.5455	0.1	1131.3
29216	19.372	3.4545	0.1	1123.4
29217	19.28	3.7273	0.1	1125.4
29218	19.372	3.6364	0.1	1118.
29219	19.28	3.9091	0.1	1117.2
29220	19.372	3.8182	0.1	1110.3
29221	19.28	4.0909	0.1	1106.8
29222	19.372	4.	0.1	1100.
29223	19.28	4.2727	0.1	1093.8
29224	19.372	4.1818	0.1	1086.9
29225	19.28	4.4545	0.1	1078.3
29226	19.372	4.3636	0.1	1071.
29227	19.28	4.6364	0.1	1060.7
29228	19.372	4.5455	0.1	1052.4
29229	19.28	4.8182	0.1	1041.3
29230	19.372	4.7273	0.1	1031.6
29231	19.28	5.	0.1	1021.
29232	19.372	4.9091	0.1	1009.4
29233	19.28	5.1818	0.1	1000.3
29234	19.372	5.0909	0.1	986.5
29235	19.28	5.3636	0.1	979.87
29236	19.372	5.2727	0.1	963.81
29237	19.28	5.5455	0.1	960.39
29238	19.372	5.4545	0.1	942.02
29239	19.28	5.7273	0.1	942.57
29240	19.372	5.6364	0.1	921.68
29241	19.372	5.8182	0.1	903.74
29242	19.28	5.9091	0.1	925.72
29243	19.464	0.27273	0.1	882.59
29244	19.556	0.18182	0.1	840.54
29245	19.464	9.0909e-002	0.1	864.39
29246	19.464	0.45455	0.1	903.24
29247	19.556	0.36364	0.1	861.24
29248	19.464	0.63636	0.1	925.98
29249	19.556	0.54545	0.1	884.71
29250	19.464	0.81818	0.1	950.14
29251	19.556	0.72727	0.1	910.3
29252	19.464	1.	0.1	975.06
29253	19.556	0.90909	0.1	937.43
29254	19.464	1.1818	0.1	999.84
29255	19.556	1.0909	0.1	965.2
29256	19.464	1.3636	0.1	1023.6
29257	19.556	1.2727	0.1	992.52
29258	19.464	1.5455	0.1	1045.3
29259	19.556	1.4545	0.1	1018.2
29260	19.464	1.7273	0.1	1064.3
29261	19.556	1.6364	0.1	1041.3
29262	19.464	1.9091	0.1	1080.3
29263	19.556	1.8182	0.1	1061.
29264	19.464	2.0909	0.1	1093.1
29265	19.556	2.	0.1	1077.
29266	19.464	2.2727	0.1	1102.9
29267	19.556	2.1818	0.1	1089.5
29268	19.464	2.4545	0.1	1110.1
29269	19.556	2.3636	0.1	1098.8
29270	19.464	2.6364	0.1	1115.
29271	19.556	2.5455	0.1	1105.4
29272	19.464	2.8182	0.1	1117.8
29273	19.556	2.7273	0.1	1109.6
29274	19.464	3.	0.1	1118.8
29275	19.556	2.9091	0.1	1111.6
29276	19.464	3.1818	0.1	1117.8
29277	19.556	3.0909	0.1	1111.6
29278	19.464	3.3636	0.1	1115.
29279	19.556	3.2727	0.1	1109.6
29280	19.464	3.5455	0.1	1110.1
29281	19.556	3.4545	0.1	1105.4
29282	19.464	3.7273	0.1	1102.9
29283	19.556	3.6364	0.1	1098.8
29284	19.464	3.9091	0.1	1093.1
29285	19.556	3.8182	0.1	1089.5
29286	19.464	4.0909	0.1	1080.3
29287	19.556	4.	0.1	1077.
29288	19.464	4.2727	0.1	1064.3
29289	19.556	4.1818	0.1	1061.
29290	19.464	4.4545	0.1	1045.3
29291	19.556	4.3636	0.1	1041.3
29292	19.464	4.6364	0.1	1023.6
29293	19.556	4.5455	0.1	1018.2
29294	19.464	4.8182	0.1	999.84
29295	19.556	4.7273	0.1	992.52
29296	19.464	5.	0.1	975.06
29297	19.556	4.9091	0.1	965.2
29298	19.464	5.1818	0.1	950.14
29299	19.556	5.0909	0.1	937.43
29300	19.464	5.3636	0.1	925.98
29301	19.556	5.2727	0.1	910.3
29302	19.464	5.5455	0.1	903.24
29303	19.556	5.4545	0.1	884.71
29304	19.464	5.7273	0.1	882.59
29305	19.556	5.6364	0.1	861.24
29306	19.556	5.8182	0.1	840.54
29307	19.464	5.9091	0.1	864.39
29308	19.647	0.27273	0.1	818.92
29309	19.739	0.18182	0.1	773.31
29310	19.647	9.0909e-002	0.1	799.27
29311	19.647	0.45455	0.1	842.66
29312	19.739	0.36364	0.1	796.84
29313	19.647	0.63636	0.1	869.11
29314	19.739	0.54545	0.1	823.77
29315	19.647	0.81818	0.1	897.78
29316	19.739	0.72727	0.1	853.79
29317	19.647	1.	0.1	927.84
29318	19.739	0.90909	0.1	886.28
29319	19.647	1.1818	0.1	958.18
29320	19.739	1.0909	0.1	920.14
29321	19.647	1.3636	0.1	987.49
29322	19.739	1.2727	0.1	953.92
29323	19.647	1.5455	0.1	1014.5
29324	19.739	1.4545	0.1	985.96
29325	19.647	1.7273	0.1	1038.1
29326	19.739	1.6364	0.1	1014.8
29327	19.647	1.9091	0.1	1057.8
29328	19.739	1.8182	0.1	1039.2
29329	19.647	2.0909	0.1	1073.4
29330	19.739	2.	0.1	1058.9
29331	19.647	2.2727	0.1	1085.4
29332	19.739	2.1818	0.1	1074.
29333	19.647	2.4545	0.1	1094.
29334	19.739	2.3636	0.1	1085.3
29335	19.647	2.6364	0.1	1100.
29336	19.739	2.5455	0.1	1093.2
29337	19.647	2.8182	0.1	1103.4
29338	19.739	2.7273	0.1	1098.3
29339	19.647	3.	0.1	1104.5
29340	19.739	2.9091	0.1	1100.8
29341	19.647	3.1818	0.1	1103.4
29342	19.739	3.0909	0.1	1100.8
29343	19.647	3.3636	0.1	1100.
29344	19.739	3.2727	0.1	1098.3
29345	19.647	3.5455	0.1	1094.
29346	19.739	3.4545	0.1	1093.2
29347	19.647	3.7273	0.1	1085.4
29348	19.739	3.6364	0.1	1085.3
29349	19.647	3.9091	0.1	1073.4
29350	19.739	3.8182	0.1	1074.
29351	19.647	4.0909	0.1	1057.8
29352	19.739	4.	0.1	1058.9
29353	19.647	4.2727	0.1	1038.1
29354	19.739	4.1818	0.1	1039.2
29355	19.647	4.4545	0.1	1014.5
29356	19.739	4.3636	0.1	1014.8
29357	19.647	4.6364	0.1	987.49
29358	19.739	4.5455	0.1	985.96
29359	19.647	4.8182	0.1	958.18
29360	19.739	4.7273	0.1	953.92
29361	19.647	5.	0.1	927.84
29362	19.739	4.9091	0.1	920.14
29363	19.647	5.1818	0.1	897.78
29364	19.739	5.0909	0.1	886.28
29365	19.647	5.3636	0.1	869.11
29366	19.739	5.2727	0.1	853.79
29367	19.647	5.5455	0.1	842.66
29368	19.739	5.4545	0.1	823.77
29369	19.647	5.7273	0.1	818.92
29370	19.739	5.6364	0.1	796.84
29371	19.739	5.8182	0.1	773.31
29372	19.647	5.9091	0.1	799.27
29373	19.831	0.27273	0.1	750.97
29374	19.923	0.18182	0.1	701.54
29375	19.831	9.0909e-002	0.1	729.76
29376	19.831	0.45455	0.1	777.95
29377	19.923	0.36364	0.1	727.82
29378	19.831	0.63636	0.1	808.62
29379	19.923	0.54545	0.1	758.5
29380	19.831	0.81818	0.1	842.62
29381	19.923	0.72727	0.1	793.62
29382	19.831	1.	0.1	879.03
29383	19.923	0.90909	0.1	832.57
29384	19.831	1.1818	0.1	916.39
29385	19.923	1.0909	0.1	874.04
29386	19.831	1.3636	0.1	952.89
29387	19.923	1.2727	0.1	916.08
29388	19.831	1.5455	0.1	986.67
29389	19.923	1.4545	0.1	956.39
29390	19.831	1.7273	0.1	1016.2
29391	19.923	1.6364	0.1	992.67
29392	19.831	1.9091	0.1	1040.5
29393	19.923	1.8182	0.1	1023.2
29394	19.831	2.0909	0.1	1059.6
29395	19.923	2.	0.1	1047.4
29396	19.831	2.2727	0.1	1074.
29397	19.923	2.1818	0.1	1065.7
29398	19.831	2.4545	0.1	1084.5
29399	19.923	2.3636	0.1	1079.1
29400	19.831	2.6364	0.1	1091.6
29401	19.923	2.5455	0.1	1088.6
29402	19.831	2.8182	0.1	1095.8
29403	19.923	2.7273	0.1	1094.8
29404	19.831	3.	0.1	1097.2
29405	19.923	2.9091	0.1	1097.9
29406	19.831	3.1818	0.1	1095.8
29407	19.923	3.0909	0.1	1097.9
29408	19.831	3.3636	0.1	1091.6
29409	19.923	3.2727	0.1	1094.8
29410	19.831	3.5455	0.1	1084.5
29411	19.923	3.4545	0.1	1088.6
29412	19.831	3.7273	0.1	1074.
29413	19.923	3.6364	0.1	1079.1
29414	19.831	3.9091	0.1	1059.6
29415	19.923	3.8182	0.1	1065.7
29416	19.831	4.0909	0.1	1040.5
29417	19.923	4.	0.1	1047.4
29418	19.831	4.2727	0.1	1016.2
29419	19.923	4.1818	0.1	1023.2
29420	19.831	4.4545	0.1	986.67
29421	19.923	4.3636	0.1	992.67
29422	19.831	4.6364	0.1	952.89
29423	19.923	4.5455	0.1	956.39
29424	19.831	4.8182	0.1	916.39
29425	19.923	4.7273	0.1	916.08
29426	19.831	5.	0.1	879.03
29427	19.923	4.9091	0.1	874.04
29428	19.831	5.1818	0.1	842.62
29429	19.923	5.0909	0.1	832.57
29430	19.831	5.3636	0.1	808.62
29431	19.923	5.2727	0.1	793.62
29432	19.831	5.5455	0.1	777.95
29433	19.923	5.4545	0.1	758.5
29434	19.831	5.7273	0.1	750.97
29435	19.923	5.6364	0.1	727.82
29436	19.923	5.8182	0.1	701.54
29437	19.831	5.9091	0.1	729.76
29438	20.015	0.27273	0.1	678.15
29439	20.106	0.18182	0.1	624.79
29440	20.015	9.0909e-002	0.1	655.33
29441	20.015	0.45455	0.1	708.44
29442	20.106	0.36364	0.1	653.58
29443	20.015	0.63636	0.1	743.83
29444	20.106	0.54545	0.1	688.25
29445	20.015	0.81818	0.1	784.16
29446	20.106	0.72727	0.1	729.22
29447	20.015	1.	0.1	828.36
29448	20.106	0.90909	0.1	775.93
29449	20.015	1.1818	0.1	874.6
29450	20.106	1.0909	0.1	826.85
29451	20.015	1.3636	0.1	920.42
29452	20.106	1.2727	0.1	879.52
29453	20.015	1.5455	0.1	963.09
29454	20.106	1.4545	0.1	930.72
29455	20.015	1.7273	0.1	1000.2
29456	20.106	1.6364	0.1	976.95
29457	20.015	1.9091	0.1	1030.4
29458	20.106	1.8182	0.1	1015.4
29459	20.015	2.0909	0.1	1053.6
29460	20.106	2.	0.1	1045.1
29461	20.015	2.2727	0.1	1070.8
29462	20.106	2.1818	0.1	1066.8
29463	20.015	2.4545	0.1	1083.2
29464	20.106	2.3636	0.1	1082.5
29465	20.015	2.6364	0.1	1091.8
29466	20.106	2.5455	0.1	1093.6
29467	20.015	2.8182	0.1	1096.8
29468	20.106	2.7273	0.1	1101.
29469	20.015	3.	0.1	1098.5
29470	20.106	2.9091	0.1	1104.7
29471	20.015	3.1818	0.1	1096.8
29472	20.106	3.0909	0.1	1104.7
29473	20.015	3.3636	0.1	1091.8
29474	20.106	3.2727	0.1	1101.
29475	20.015	3.5455	0.1	1083.2
29476	20.106	3.4545	0.1	1093.6
29477	20.015	3.7273	0.1	1070.8
29478	20.106	3.6364	0.1	1082.5
29479	20.015	3.9091	0.1	1053.6
29480	20.106	3.8182	0.1	1066.8
29481	20.015	4.0909	0.1	1030.4
29482	20.106	4.	0.1	1045.1
29483	20.015	4.2727	0.1	1000.2
29484	20.106	4.1818	0.1	1015.4
29485	20.015	4.4545	0.1	963.09
29486	20.106	4.3636	0.1	976.95
29487	20.015	4.6364	0.1	920.42
29488	20.106	4.5455	0.1	930.72
29489	20.015	4.8182	0.1	874.6
29490	20.106	4.7273	0.1	879.52
29491	20.015	5.	0.1	828.36
29492	20.106	4.9091	0.1	826.85
29493	20.015	5.1818	0.1	784.16
29494	20.106	5.0909	0.1	775.93
29495	20.015	5.3636	0.1	743.83
29496	20.106	5.2727	0.1	729.22
29497	20.015	5.5455	0.1	708.44
29498	20.106	5.4545	0.1	688.25
29499	20.015	5.7273	0.1	678.15
29500	20.106	5.6364	0.1	653.58
29501	20.106	5.8182	0.1	624.79
29502	20.015	5.9091	0.1	655.33
29503	20.198	0.27273	0.1	600.02
29504	20.29	0.18182	0.1	542.84
29505	20.198	9.0909e-002	0.1	575.58
29506	20.198	0.45455	0.1	633.57
29507	20.29	0.36364	0.1	573.74
29508	20.198	0.63636	0.1	674.23
29509	20.29	0.54545	0.1	612.64
29510	20.198	0.81818	0.1	722.
29511	20.29	0.72727	0.1	660.31
29512	20.198	1.	0.1	775.75
29513	20.29	0.90909	0.1	716.26
29514	20.198	1.1818	0.1	833.24
29515	20.29	1.0909	0.1	778.81
29516	20.198	1.3636	0.1	891.22
29517	20.29	1.2727	0.1	845.1
29518	20.198	1.5455	0.1	945.71
29519	20.29	1.4545	0.1	910.85
29520	20.198	1.7273	0.1	992.92
29521	20.29	1.6364	0.1	970.66
29522	20.198	1.9091	0.1	1030.5
29523	20.29	1.8182	0.1	1019.7
29524	20.198	2.0909	0.1	1058.5
29525	20.29	2.	0.1	1056.
29526	20.198	2.2727	0.1	1078.6
29527	20.29	2.1818	0.1	1081.2
29528	20.198	2.4545	0.1	1092.9
29529	20.29	2.3636	0.1	1098.8
29530	20.198	2.6364	0.1	1102.8
29531	20.29	2.5455	0.1	1111.2
29532	20.198	2.8182	0.1	1108.8
29533	20.29	2.7273	0.1	1119.5
29534	20.198	3.	0.1	1110.8
29535	20.29	2.9091	0.1	1123.7
29536	20.198	3.1818	0.1	1108.8
29537	20.29	3.0909	0.1	1123.7
29538	20.198	3.3636	0.1	1102.8
29539	20.29	3.2727	0.1	1119.5
29540	20.198	3.5455	0.1	1092.9
29541	20.29	3.4545	0.1	1111.2
29542	20.198	3.7273	0.1	1078.6
29543	20.29	3.6364	0.1	1098.8
29544	20.198	3.9091	0.1	1058.5
29545	20.29	3.8182	0.1	1081.2
29546	20.198	4.0909	0.1	1030.5
29547	20.29	4.	0.1	1056.
29548	20.198	4.2727	0.1	992.92
29549	20.29	4.1818	0.1	1019.7
29550	20.198	4.4545	0.1	945.71
29551	20.29	4.3636	0.1	970.66
29552	20.198	4.6364	0.1	891.22
29553	20.29	4.5455	0.1	910.85
29554	20.198	4.8182	0.1	833.24
29555	20.29	4.7273	0.1	845.1
29556	20.198	5.	0.1	775.75
29557	20.29	4.9091	0.1	778.81
29558	20.198	5.1818	0.1	722.
29559	20.29	5.0909	0.1	716.26
29560	20.198	5.3636	0.1	674.23
29561	20.29	5.2727	0.1	660.31
29562	20.198	5.5455	0.1	633.57
29563	20.29	5.4545	0.1	612.64
29564	20.198	5.7273	0.1	600.02
29565	20.29	5.6364	0.1	573.74
29566	20.29	5.8182	0.1	542.84
29567	20.198	5.9091	0.1	575.58
29568	20.382	0.27273	0.1	516.44
29569	20.474	0.18182	0.1	455.84
29570	20.382	9.0909e-002	0.1	490.38
29571	20.382	0.45455	0.1	553.19
29572	20.474	0.36364	0.1	488.39
29573	20.382	0.63636	0.1	599.77
29574	20.474	0.54545	0.1	532.
29575	20.382	0.81818	0.1	656.29
29576	20.474	0.72727	0.1	587.47
29577	20.382	1.	0.1	721.57
29578	20.474	0.90909	0.1	654.25
29579	20.382	1.1818	0.1	793.16
29580	20.474	1.0909	0.1	730.75
29581	20.382	1.3636	0.1	867.09
29582	20.474	1.2727	0.1	814.16
29583	20.382	1.5455	0.1	937.64
29584	20.474	1.4545	0.1	899.51
29585	20.382	1.7273	0.1	998.61
29586	20.474	1.6364	0.1	978.98
29587	20.382	1.9091	0.1	1045.7
29588	20.474	1.8182	0.1	1043.1
29589	20.382	2.0909	0.1	1078.9
29590	20.474	2.	0.1	1087.4
29591	20.382	2.2727	0.1	1101.4
29592	20.474	2.1818	0.1	1115.2
29593	20.382	2.4545	0.1	1117.
29594	20.474	2.3636	0.1	1132.9
29595	20.382	2.6364	0.1	1127.8
29596	20.474	2.5455	0.1	1145.2
29597	20.382	2.8182	0.1	1134.3
29598	20.474	2.7273	0.1	1153.1
29599	20.382	3.	0.1	1136.5
29600	20.474	2.9091	0.1	1156.9
29601	20.382	3.1818	0.1	1134.3
29602	20.474	3.0909	0.1	1156.9
29603	20.382	3.3636	0.1	1127.8
29604	20.474	3.2727	0.1	1153.1
29605	20.382	3.5455	0.1	1117.
29606	20.474	3.4545	0.1	1145.2
29607	20.382	3.7273	0.1	1101.4
29608	20.474	3.6364	0.1	1132.9
29609	20.382	3.9091	0.1	1078.9
29610	20.474	3.8182	0.1	1115.2
29611	20.382	4.0909	0.1	1045.7
29612	20.474	4.	0.1	1087.4
29613	20.382	4.2727	0.1	998.61
29614	20.474	4.1818	0.1	1043.1
29615	20.382	4.4545	0.1	937.64
29616	20.474	4.3636	0.1	978.98
29617	20.382	4.6364	0.1	867.09
29618	20.474	4.5455	0.1	899.51
29619	20.382	4.8182	0.1	793.16
29620	20.474	4.7273	0.1	814.16
29621	20.382	5.	0.1	721.57
29622	20.474	4.9091	0.1	730.75
29623	20.382	5.1818	0.1	656.29
29624	20.474	5.0909	0.1	654.25
29625	20.382	5.3636	0.1	599.77
29626	20.474	5.2727	0.1	587.47
29627	20.382	5.5455	0.1	553.19
29628	20.474	5.4545	0.1	532.
29629	20.382	5.7273	0.1	516.44
29630	20.474	5.6364	0.1	488.39
29631	20.474	5.8182	0.1	455.84
29632	20.382	5.9091	0.1	490.38
29633	20.566	0.27273	0.1	427.83
29634	20.657	0.18182	0.1	364.41
29635	20.566	9.0909e-002	0.1	400.
29636	20.566	0.45455	0.1	468.01
29637	20.657	0.36364	0.1	398.65
29638	20.566	0.63636	0.1	521.58
29639	20.657	0.54545	0.1	448.29
29640	20.566	0.81818	0.1	588.37
29641	20.657	0.72727	0.1	513.18
29642	20.566	1.	0.1	667.22
29643	20.657	0.90909	0.1	592.34
29644	20.566	1.1818	0.1	755.98
29645	20.657	1.0909	0.1	684.67
29646	20.566	1.3636	0.1	850.64
29647	20.657	1.2727	0.1	788.54
29648	20.566	1.5455	0.1	943.97
29649	20.657	1.4545	0.1	900.38
29650	20.566	1.7273	0.1	1025.1
29651	20.657	1.6364	0.1	1009.4
29652	20.566	1.9091	0.1	1085.2
29653	20.657	1.8182	0.1	1098.2
29654	20.566	2.0909	0.1	1123.6
29655	20.657	2.	0.1	1153.3
29656	20.566	2.2727	0.1	1146.4
29657	20.657	2.1818	0.1	1179.3
29658	20.566	2.4545	0.1	1160.8
29659	20.657	2.3636	0.1	1193.3
29660	20.566	2.6364	0.1	1170.3
29661	20.657	2.5455	0.1	1200.6
29662	20.566	2.8182	0.1	1175.5
29663	20.657	2.7273	0.1	1203.8
29664	20.566	3.	0.1	1177.2
29665	20.657	2.9091	0.1	1204.8
29666	20.566	3.1818	0.1	1175.5
29667	20.657	3.0909	0.1	1204.8
29668	20.566	3.3636	0.1	1170.3
29669	20.657	3.2727	0.1	1203.8
29670	20.566	3.5455	0.1	1160.8
29671	20.657	3.4545	0.1	1200.6
29672	20.566	3.7273	0.1	1146.4
29673	20.657	3.6364	0.1	1193.3
29674	20.566	3.9091	0.1	1123.6
29675	20.657	3.8182	0.1	1179.3
29676	20.566	4.0909	0.1	1085.2
29677	20.657	4.	0.1	1153.3
29678	20.566	4.2727	0.1	1025.1
29679	20.657	4.1818	0.1	1098.2
29680	20.566	4.4545	0.1	943.97
29681	20.657	4.3636	0.1	1009.4
29682	20.566	4.6364	0.1	850.64
29683	20.657	4.5455	0.1	900.38
29684	20.566	4.8182	0.1	755.98
29685	20.657	4.7273	0.1	788.54
29686	20.566	5.	0.1	667.22
29687	20.657	4.9091	0.1	684.67
29688	20.566	5.1818	0.1	588.37
29689	20.657	5.0909	0.1	592.34
29690	20.566	5.3636	0.1	521.58
29691	20.657	5.2727	0.1	513.18
29692	20.566	5.5455	0.1	468.01
29693	20.657	5.4545	0.1	448.29
29694	20.566	5.7273	0.1	427.83
29695	20.657	5.6364	0.1	398.65
29696	20.657	5.8182	0.1	364.41
29697	20.566	5.9091	0.1	400.
29698	20.749	0.27273	0.1	335.65
29699	20.841	0.18182	0.1	270.03
29700	20.749	9.0909e-002	0.1	305.19
29701	20.749	0.45455	0.1	380.69
29702	20.841	0.36364	0.1	308.13
29703	20.749	0.63636	0.1	443.38
29704	20.841	0.54545	0.1	367.32
29705	20.749	0.81818	0.1	522.19
29706	20.841	0.72727	0.1	444.11
29707	20.749	1.	0.1	616.05
29708	20.841	0.90909	0.1	536.71
29709	20.749	1.1818	0.1	724.27
29710	20.841	1.0909	0.1	645.24
29711	20.749	1.3636	0.1	845.29
29712	20.841	1.2727	0.1	771.36
29713	20.749	1.5455	0.1	971.37
29714	20.841	1.4545	0.1	915.32
29715	20.749	1.7273	0.1	1085.
29716	20.841	1.6364	0.1	1075.2
29717	20.749	1.9091	0.1	1166.2
29718	20.841	1.8182	0.1	1216.7
29719	20.749	2.0909	0.1	1207.9
29720	20.841	2.	0.1	1287.4
29721	20.749	2.2727	0.1	1225.3
29722	20.841	2.1818	0.1	1302.5
29723	20.749	2.4545	0.1	1232.5
29724	20.841	2.3636	0.1	1294.8
29725	20.749	2.6364	0.1	1233.7
29726	20.841	2.5455	0.1	1282.
29727	20.749	2.8182	0.1	1232.7
29728	20.841	2.7273	0.1	1269.8
29729	20.749	3.	0.1	1232.1
29730	20.841	2.9091	0.1	1262.9
29731	20.749	3.1818	0.1	1232.7
29732	20.841	3.0909	0.1	1262.9
29733	20.749	3.3636	0.1	1233.7
29734	20.841	3.2727	0.1	1269.8
29735	20.749	3.5455	0.1	1232.5
29736	20.841	3.4545	0.1	1282.
29737	20.749	3.7273	0.1	1225.3
29738	20.841	3.6364	0.1	1294.8
29739	20.749	3.9091	0.1	1207.9
29740	20.841	3.8182	0.1	1302.5
29741	20.749	4.0909	0.1	1166.2
29742	20.841	4.	0.1	1287.4
29743	20.749	4.2727	0.1	1085.
29744	20.841	4.1818	0.1	1216.7
29745	20.749	4.4545	0.1	971.37
29746	20.841	4.3636	0.1	1075.2
29747	20.749	4.6364	0.1	845.29
29748	20.841	4.5455	0.1	915.32
29749	20.749	4.8182	0.1	724.27
29750	20.841	4.7273	0.1	771.36
29751	20.749	5.	0.1	616.05
29752	20.841	4.9091	0.1	645.24
29753	20.749	5.1818	0.1	522.19
29754	20.841	5.0909	0.1	536.71
29755	20.749	5.3636	0.1	443.38
29756	20.841	5.2727	0.1	444.11
29757	20.749	5.5455	0.1	380.69
29758	20.841	5.4545	0.1	367.32
29759	20.749	5.7273	0.1	335.65
29760	20.841	5.6364	0.1	308.13
29761	20.841	5.8182	0.1	270.03
29762	20.749	5.9091	0.1	305.19
29763	20.933	0.27273	0.1	244.18
29764	21.025	0.18182	0.1	177.37
29765	20.933	9.0909e-002	0.1	207.57
29766	20.933	0.45455	0.1	299.14
29767	21.025	0.36364	0.1	230.97
29768	20.933	0.63636	0.1	374.84
29769	21.025	0.54545	0.1	308.41
29770	20.933	0.81818	0.1	467.11
29771	21.025	0.72727	0.1	401.37
29772	20.933	1.	0.1	575.73
29773	21.025	0.90909	0.1	508.99
29774	20.933	1.1818	0.1	703.48
29775	21.025	1.0909	0.1	633.95
29776	20.933	1.3636	0.1	853.61
29777	21.025	1.2727	0.1	782.27
29778	20.933	1.5455	0.1	1030.
29779	21.025	1.4545	0.1	963.27
29780	20.933	1.7273	0.1	1212.7
29781	21.025	1.6364	0.1	1193.
29782	20.933	1.9091	0.1	1333.7
29783	21.025	1.8182	0.1	1493.6
29784	20.933	2.0909	0.1	1377.5
29785	21.025	2.	0.1	1658.5
29786	20.933	2.2727	0.1	1369.7
29787	21.025	2.1818	0.1	1550.9
29788	20.933	2.4545	0.1	1343.2
29789	21.025	2.3636	0.1	1455.4
29790	20.933	2.6364	0.1	1317.5
29791	21.025	2.5455	0.1	1382.7
29792	20.933	2.8182	0.1	1299.6
29793	21.025	2.7273	0.1	1338.8
29794	20.933	3.	0.1	1293.3
29795	21.025	2.9091	0.1	1317.5
29796	20.933	3.1818	0.1	1299.6
29797	21.025	3.0909	0.1	1317.5
29798	20.933	3.3636	0.1	1317.5
29799	21.025	3.2727	0.1	1338.8
29800	20.933	3.5455	0.1	1343.2
29801	21.025	3.4545	0.1	1382.7
29802	20.933	3.7273	0.1	1369.7
29803	21.025	3.6364	0.1	1455.4
29804	20.933	3.9091	0.1	1377.5
29805	21.025	3.8182	0.1	1550.9
29806	20.933	4.0909	0.1	1333.7
29807	21.025	4.	0.1	1658.5
29808	20.933	4.2727	0.1	1212.7
29809	21.025	4.1818	0.1	1493.6
29810	20.933	4.4545	0.1	1030.
29811	21.025	4.3636	0.1	1193.
29812	20.933	4.6364	0.1	853.61
29813	21.025	4.5455	0.1	963.27
29814	20.933	4.8182	0.1	703.48
29815	21.025	4.7273	0.1	782.27
29816	20.933	5.	0.1	575.73
29817	21.025	4.9091	0.1	633.95
29818	20.933	5.1818	0.1	467.11
29819	21.025	5.0909	0.1	508.99
29820	20.933	5.3636	0.1	374.84
29821	21.025	5.2727	0.1	401.37
29822	20.933	5.5455	0.1	299.14
29823	21.025	5.4545	0.1	308.41
29824	20.933	5.7273	0.1	244.18
29825	21.025	5.6364	0.1	230.97
29826	21.025	5.8182	0.1	177.37
29827	20.933	5.9091	0.1	207.57
29828	21.116	0.27273	0.1	172.86
29829	21.208	0.18182	0.1	94.288
29830	21.116	9.0909e-002	0.1	111.45
29831	21.116	0.45455	0.1	253.01
29832	21.208	0.36364	0.1	158.84
29833	21.116	0.63636	0.1	348.73
29834	21.208	0.54545	0.1	233.31
29835	21.116	0.81818	0.1	457.59
29836	21.208	0.72727	0.1	316.63
29837	21.116	1.	0.1	582.66
29838	21.208	0.90909	0.1	411.21
29839	21.116	1.1818	0.1	730.55
29840	21.208	1.0909	0.1	521.6
29841	21.116	1.3636	0.1	913.91
29842	21.208	1.2727	0.1	655.52
29843	21.116	1.5455	0.1	1157.9
29844	21.208	1.4545	0.1	830.59
29845	21.116	1.7273	0.1	1500.7
29846	21.208	1.6364	0.1	1062.1
29847	21.116	1.9091	0.1	1806.2
29848	21.208	1.8182	0.1	1526.2
29849	21.116	2.0909	0.1	1802.4
29850	21.208	2.	0.1	2682.2
29851	21.116	2.2727	0.1	1633.
29852	21.208	2.1818	0.1	1948.3
29853	21.116	2.4545	0.1	1494.5
29854	21.208	2.3636	0.1	1623.
29855	21.116	2.6364	0.1	1404.1
29856	21.208	2.5455	0.1	1465.8
29857	21.116	2.8182	0.1	1356.7
29858	21.208	2.7273	0.1	1382.2
29859	21.116	3.	0.1	1341.6
29860	21.208	2.9091	0.1	1345.2
29861	21.116	3.1818	0.1	1356.7
29862	21.208	3.0909	0.1	1345.2
29863	21.116	3.3636	0.1	1404.1
29864	21.208	3.2727	0.1	1382.2
29865	21.116	3.5455	0.1	1494.5
29866	21.208	3.4545	0.1	1465.8
29867	21.116	3.7273	0.1	1633.
29868	21.208	3.6364	0.1	1623.
29869	21.116	3.9091	0.1	1802.4
29870	21.208	3.8182	0.1	1948.3
29871	21.116	4.0909	0.1	1806.2
29872	21.208	4.	0.1	2682.2
29873	21.116	4.2727	0.1	1500.7
29874	21.208	4.1818	0.1	1526.2
29875	21.116	4.4545	0.1	1157.9
29876	21.208	4.3636	0.1	1062.1
29877	21.116	4.6364	0.1	913.91
29878	21.208	4.5455	0.1	830.59
29879	21.116	4.8182	0.1	730.55
29880	21.208	4.7273	0.1	655.52
29881	21.116	5.	0.1	582.66
29882	21.208	4.9091	0.1	521.6
29883	21.116	5.1818	0.1	457.59
29884	21.208	5.0909	0.1	411.21
29885	21.116	5.3636	0.1	348.73
29886	21.208	5.2727	0.1	316.63
29887	21.116	5.5455	0.1	253.01
29888	21.208	5.4545	0.1	233.31
29889	21.116	5.7273	0.1	172.86
29890	21.208	5.6364	0.1	158.84
29891	21.208	5.8182	0.1	94.288
29892	21.116	5.9091	0.1	111.45
29893	21.467	3.7273	0.1	1881.3
29894	21.383	3.8182	0.1	2141.4
29895	21.467	3.9091	0.1	2469.7
29896	21.467	3.5455	0.1	1554.4
29897	21.383	3.6364	0.1	1673.4
29898	21.467	3.3636	0.1	1397.5
29899	21.383	3.4545	0.1	1472.4
29900	21.467	3.1818	0.1	1322.4
29901	21.383	3.2727	0.1	1368.9
29902	21.467	3.	0.1	1299.9
29903	21.383	3.0909	0.1	1324.7
29904	21.467	2.8182	0.1	1322.4
29905	21.383	2.9091	0.1	1324.7
29906	21.467	2.6364	0.1	1397.5
29907	21.383	2.7273	0.1	1368.9
29908	21.467	2.4545	0.1	1554.4
29909	21.383	2.5455	0.1	1472.4
29910	21.467	2.2727	0.1	1881.3
29911	21.383	2.3636	0.1	1673.4
29912	21.383	2.1818	0.1	2141.4
29913	21.467	2.0909	0.1	2469.7
29914	21.3	3.7273	0.1	1968.2
29915	21.3	3.9091	0.1	2795.6
29916	21.3	3.5455	0.1	1601.2
29917	21.3	3.3636	0.1	1446.
29918	21.3	3.1818	0.1	1371.1
29919	21.3	3.	0.1	1348.9
29920	21.3	2.8182	0.1	1371.1
29921	21.3	2.6364	0.1	1446.
29922	21.3	2.4545	0.1	1601.2
29923	21.3	2.2727	0.1	1968.2
29924	21.3	2.0909	0.1	2795.6
29925	21.467	5.7273	0.1	57.53
29926	21.467	5.9091	0.1	20.299
29927	21.467	5.8182	5.e-002	11.205
29928	21.467	5.5455	0.1	92.925
29929	21.467	5.6364	5.e-002	24.711
29930	21.467	5.3636	0.1	130.24
29931	21.467	5.4545	5.e-002	38.065
29932	21.467	5.1818	0.1	173.16
29933	21.467	5.2727	5.e-002	53.059
29934	21.467	5.	0.1	225.24
29935	21.467	5.0909	5.e-002	70.871
29936	21.467	4.8182	0.1	291.58
29937	21.467	4.9091	5.e-002	93.205
29938	21.467	4.6364	0.1	382.7
29939	21.467	4.7273	5.e-002	122.83
29940	21.467	4.4545	0.1	505.49
29941	21.467	4.5455	5.e-002	165.02
29942	21.467	4.2727	0.1	784.48
29943	21.467	4.3636	5.e-002	231.64
29944	21.467	4.0909	0.1	1749.8
29945	21.467	4.1818	5.e-002	425.53
29946	21.383	4.	0.1	2652.6
29947	21.467	4.	5.e-002	455.62
29948	21.3	4.0909	0.1	2209.2
29949	21.3	4.	5.e-002	790.51
29950	21.3	4.2727	0.1	1230.1
29951	21.3	4.1818	5.e-002	757.09
29952	21.3	4.4545	0.1	815.12
29953	21.3	4.3636	5.e-002	487.69
29954	21.3	4.6364	0.1	635.17
29955	21.3	4.5455	5.e-002	368.47
29956	21.3	4.8182	0.1	498.26
29957	21.3	4.7273	5.e-002	293.16
29958	21.3	5.	0.1	393.
29959	21.3	4.9091	5.e-002	234.34
29960	21.3	5.1818	0.1	305.99
29961	21.3	5.0909	5.e-002	185.64
29962	21.3	5.3636	0.1	231.2
29963	21.3	5.2727	5.e-002	143.11
29964	21.3	5.5455	0.1	164.72
29965	21.3	5.4545	5.e-002	104.58
29966	21.3	5.7273	0.1	102.22
29967	21.3	5.6364	5.e-002	68.586
29968	21.3	5.9091	0.1	36.652
29969	21.3	5.8182	5.e-002	32.892
29970	21.467	0.27273	0.1	57.53
29971	21.467	9.0909e-002	0.1	20.299
29972	21.467	0.18182	5.e-002	11.205
29973	21.467	0.45455	0.1	92.925
29974	21.467	0.36364	5.e-002	24.711
29975	21.467	0.63636	0.1	130.24
29976	21.467	0.54545	5.e-002	38.065
29977	21.467	0.81818	0.1	173.16
29978	21.467	0.72727	5.e-002	53.059
29979	21.467	1.	0.1	225.24
29980	21.467	0.90909	5.e-002	70.871
29981	21.467	1.1818	0.1	291.58
29982	21.467	1.0909	5.e-002	93.205
29983	21.467	1.3636	0.1	382.7
29984	21.467	1.2727	5.e-002	122.83
29985	21.467	1.5455	0.1	505.49
29986	21.467	1.4545	5.e-002	165.02
29987	21.467	1.7273	0.1	784.48
29988	21.467	1.6364	5.e-002	231.64
29989	21.467	1.9091	0.1	1749.8
29990	21.467	1.8182	5.e-002	425.53
29991	21.383	2.	0.1	2652.6
29992	21.467	2.	5.e-002	455.62
29993	21.3	1.9091	0.1	2209.2
29994	21.3	2.	5.e-002	790.51
29995	21.3	1.7273	0.1	1230.1
29996	21.3	1.8182	5.e-002	757.09
29997	21.3	1.5455	0.1	815.12
29998	21.3	1.6364	5.e-002	487.69
29999	21.3	1.3636	0.1	635.17
30000	21.3	1.4545	5.e-002	368.47
30001	21.3	1.1818	0.1	498.26
30002	21.3	1.2727	5.e-002	293.16
30003	21.3	1.	0.1	393.
30004	21.3	1.0909	5.e-002	234.34
30005	21.3	0.81818	0.1	305.99
30006	21.3	0.90909	5.e-002	185.64
30007	21.3	0.63636	0.1	231.2
30008	21.3	0.72727	5.e-002	143.11
30009	21.3	0.45455	0.1	164.72
30010	21.3	0.54545	5.e-002	104.58
30011	21.3	0.27273	0.1	102.22
30012	21.3	0.36364	5.e-002	68.586
30013	21.3	9.0909e-002	0.1	36.652
30014	21.3	0.18182	5.e-002	32.892
30015	21.557	6.	0.1	21.771
30016	21.467	6.	5.e-002	4.2503
30017	21.738	6.	0.1	60.228
30018	21.648	6.	5.e-002	6.2256
30019	21.919	6.	0.1	91.535
30020	21.829	6.	5.e-002	14.141
30021	22.1	6.	0.1	114.39
30022	22.01	6.	5.e-002	19.414
30023	22.281	6.	0.1	129.45
30024	22.19	6.	5.e-002	23.22
30025	22.462	6.	0.1	137.02
30026	22.371	6.	5.e-002	25.828
30027	22.643	6.	0.1	137.7
30028	22.552	6.	5.e-002	27.495
30029	22.824	6.	0.1	132.26
30030	22.733	6.	5.e-002	28.381
30031	23.005	6.	0.1	121.58
30032	22.914	6.	5.e-002	28.583
30033	23.186	6.	0.1	106.54
30034	23.095	6.	5.e-002	28.121
30035	23.367	6.	0.1	88.046
30036	23.276	6.	5.e-002	26.94
30037	23.548	6.	0.1	66.983
30038	23.457	6.	5.e-002	24.88
30039	23.729	6.	0.1	44.024
30040	23.638	6.	5.e-002	21.593
30041	23.91	6.	0.1	19.967
30042	23.819	6.	5.e-002	15.964
30043	24.	5.9091	0.1	18.864
30044	24.	6.	5.e-002	7.3402
30045	24.	5.7273	0.1	38.702
30046	24.	5.8182	5.e-002	7.1426
30047	24.	5.5455	0.1	50.092
30048	24.	5.6364	5.e-002	10.68
30049	24.	5.3636	0.1	55.043
30050	24.	5.4545	5.e-002	13.963
30051	24.	5.1818	0.1	55.863
30052	24.	5.2727	5.e-002	16.828
30053	24.	5.	0.1	53.842
30054	24.	5.0909	5.e-002	19.241
30055	24.	4.8182	0.1	50.103
30056	24.	4.9091	5.e-002	21.15
30057	24.	4.6364	0.1	45.723
30058	24.	4.7273	5.e-002	22.494
30059	24.	4.4545	0.1	41.73
30060	24.	4.5455	5.e-002	23.214
30061	24.	4.2727	0.1	38.942
30062	24.	4.3636	5.e-002	23.26
30063	24.	4.0909	0.1	37.704
30064	24.	4.1818	5.e-002	22.601
30065	24.	3.9091	0.1	37.775
30066	24.	4.	5.e-002	21.234
30067	24.	3.7273	0.1	38.562
30068	24.	3.8182	5.e-002	19.201
30069	24.	3.5455	0.1	39.498
30070	24.	3.6364	5.e-002	16.61
30071	24.	3.3636	0.1	40.243
30072	24.	3.4545	5.e-002	13.678
30073	24.	3.1818	0.1	40.684
30074	24.	3.2727	5.e-002	10.828
30075	24.	3.	0.1	40.826
30076	24.	3.0909	5.e-002	8.8777
30077	24.	2.8182	0.1	40.684
30078	24.	2.9091	5.e-002	8.8776
30079	24.	2.6364	0.1	40.243
30080	24.	2.7273	5.e-002	10.828
30081	24.	2.4545	0.1	39.498
30082	24.	2.5455	5.e-002	13.678
30083	24.	2.2727	0.1	38.562
30084	24.	2.3636	5.e-002	16.61
30085	24.	2.0909	0.1	37.775
30086	24.	2.1818	5.e-002	19.201
30087	24.	1.9091	0.1	37.704
30088	24.	2.	5.e-002	21.234
30089	24.	1.7273	0.1	38.942
30090	24.	1.8182	5.e-002	22.601
30091	24.	1.5455	0.1	41.73
30092	24.	1.6364	5.e-002	23.26
30093	24.	1.3636	0.1	45.723
30094	24.	1.4545	5.e-002	23.214
30095	24.	1.1818	0.1	50.103
30096	24.	1.2727	5.e-002	22.494
30097	24.	1.	0.1	53.842
30098	24.	1.0909	5.e-002	21.15
30099	24.	0.81818	0.1	55.863
30100	24.	0.90909	5.e-002	19.241
30101	24.	0.63636	0.1	55.042
30102	24.	0.72727	5.e-002	16.828
30103	24.	0.45455	0.1	50.092
30104	24.	0.54545	5.e-002	13.963
30105	24.	0.27273	0.1	38.702
30106	24.	0.36364	5.e-002	10.68
30107	24.	9.0909e-002	0.1	18.864
30108	24.	0.18182	5.e-002	7.1426
30109	2.3842e-015	0.27273	0.1	1829.7
30110	7.9472e-016	9.0909e-002	0.1	1394.2
30111	1.6109e-015	0.18182	5.e-002	165.07
30112	3.9736e-015	0.45455	0.1	2620.7
30113	3.2219e-015	0.36364	5.e-002	86.127
30114	5.563e-015	0.63636	0.1	3045.1
30115	4.8328e-015	0.54545	5.e-002	77.929
30116	7.1525e-015	0.81818	0.1	3319.
30117	6.4438e-015	0.72727	5.e-002	68.581
30118	8.7419e-015	1.	0.1	3506.9
30119	8.0547e-015	0.90909	5.e-002	58.39
30120	1.0331e-014	1.1818	0.1	3643.
30121	9.6657e-015	1.0909	5.e-002	49.622
30122	1.1921e-014	1.3636	0.1	3744.8
30123	1.1277e-014	1.2727	5.e-002	42.51
30124	1.351e-014	1.5455	0.1	3822.5
30125	1.2888e-014	1.4545	5.e-002	36.733
30126	1.51e-014	1.7273	0.1	3882.5
30127	1.4498e-014	1.6364	5.e-002	32.054
30128	1.6689e-014	1.9091	0.1	3929.
30129	1.6109e-014	1.8182	5.e-002	28.281
30130	1.8279e-014	2.0909	0.1	3964.9
30131	1.772e-014	2.	5.e-002	25.264
30132	1.9868e-014	2.2727	0.1	3992.1
30133	1.9331e-014	2.1818	5.e-002	22.892
30134	2.1457e-014	2.4545	0.1	4012.1
30135	2.0942e-014	2.3636	5.e-002	21.08
30136	2.3047e-014	2.6364	0.1	4025.7
30137	2.2553e-014	2.5455	5.e-002	19.769
30138	2.4636e-014	2.8182	0.1	4033.7
30139	2.4164e-014	2.7273	5.e-002	18.916
30140	2.6226e-014	3.	0.1	4036.3
30141	2.5775e-014	2.9091	5.e-002	18.496
30142	2.7815e-014	3.1818	0.1	4033.7
30143	2.7386e-014	3.0909	5.e-002	18.496
30144	2.9405e-014	3.3636	0.1	4025.7
30145	2.8997e-014	3.2727	5.e-002	18.916
30146	3.0994e-014	3.5455	0.1	4012.1
30147	3.0608e-014	3.4545	5.e-002	19.769
30148	3.2583e-014	3.7273	0.1	3992.1
30149	3.2219e-014	3.6364	5.e-002	21.08
30150	3.4173e-014	3.9091	0.1	3964.9
30151	3.383e-014	3.8182	5.e-002	22.892
30152	3.5762e-014	4.0909	0.1	3929.
30153	3.5441e-014	4.	5.e-002	25.264
30154	3.7352e-014	4.2727	0.1	3882.5
30155	3.7052e-014	4.1818	5.e-002	28.281
30156	3.8941e-014	4.4545	0.1	3822.5
30157	3.8663e-014	4.3636	5.e-002	32.054
30158	4.0531e-014	4.6364	0.1	3744.8
30159	4.0274e-014	4.5455	5.e-002	36.733
30160	4.212e-014	4.8182	0.1	3643.
30161	4.1885e-014	4.7273	5.e-002	42.51
30162	4.371e-014	5.	0.1	3506.9
30163	4.3495e-014	4.9091	5.e-002	49.622
30164	4.5299e-014	5.1818	0.1	3319.
30165	4.5106e-014	5.0909	5.e-002	58.39
30166	4.6888e-014	5.3636	0.1	3045.1
30167	4.6717e-014	5.2727	5.e-002	68.581
30168	4.8478e-014	5.5455	0.1	2620.7
30169	4.8328e-014	5.4545	5.e-002	77.929
30170	5.0067e-014	5.7273	0.1	1829.7
30171	4.9939e-014	5.6364	5.e-002	86.127
30172	5.1657e-014	5.9091	0.1	1394.2
30173	5.155e-014	5.8182	5.e-002	165.07
30174	23.91	0.	0.1	19.967
30175	24.	0.	5.e-002	7.3402
30176	23.729	0.	0.1	44.024
30177	23.819	0.	5.e-002	15.964
30178	23.548	0.	0.1	66.983
30179	23.638	0.	5.e-002	21.593
30180	23.367	0.	0.1	88.046
30181	23.457	0.	5.e-002	24.88
30182	23.186	0.	0.1	106.54
30183	23.276	0.	5.e-002	26.94
30184	23.005	0.	0.1	121.58
30185	23.095	0.	5.e-002	28.121
30186	22.824	0.	0.1	132.26
30187	22.914	0.	5.e-002	28.583
30188	22.643	0.	0.1	137.7
30189	22.733	0.	5.e-002	28.381
30190	22.462	0.	0.1	137.02
30191	22.552	0.	5.e-002	27.495
30192	22.281	0.	0.1	129.45
30193	22.371	0.	5.e-002	25.828
30194	22.1	0.	0.1	114.39
30195	22.19	0.	5.e-002	23.22
30196	21.919	0.	0.1	91.535
30197	22.01	0.	5.e-002	19.414
30198	21.738	0.	0.1	60.228
30199	21.829	0.	5.e-002	14.141
30200	21.557	0.	0.1	21.771
30201	21.648	0.	5.e-002	6.2256
30202	21.467	0.	5.e-002	4.2503
30203	21.208	1.4495e-030	0.1	49.194
30204	21.3	1.4558e-030	5.e-002	8.4827
30205	21.025	1.437e-030	0.1	146.05
30206	21.116	0.	5.e-002	1.9499
30207	20.841	1.4244e-030	0.1	246.24
30208	20.933	0.	5.e-002	1.6738
30209	20.657	1.4119e-030	0.1	342.84
30210	20.749	0.	5.e-002	1.4911
30211	20.474	1.3993e-030	0.1	435.59
30212	20.566	0.	5.e-002	6.0569
30213	20.29	1.3868e-030	0.1	523.57
30214	20.382	0.	5.e-002	12.642
30215	20.106	1.3742e-030	0.1	606.32
30216	20.198	0.	5.e-002	20.174
30217	19.923	1.3617e-030	0.1	683.73
30218	20.015	0.	5.e-002	28.093
30219	19.739	1.3491e-030	0.1	756.04
30220	19.831	0.	5.e-002	36.006
30221	19.556	1.3366e-030	0.1	823.7
30222	19.647	0.	5.e-002	43.655
30223	19.372	1.324e-030	0.1	887.26
30224	19.464	0.	5.e-002	50.879
30225	19.188	1.3115e-030	0.1	947.29
30226	19.28	0.	5.e-002	57.596
30227	19.005	1.2989e-030	0.1	1004.3
30228	19.097	0.	5.e-002	63.772
30229	18.821	1.2864e-030	0.1	1058.9
30230	18.913	0.	5.e-002	69.411
30231	18.638	1.2738e-030	0.1	1111.5
30232	18.729	0.	5.e-002	74.536
30233	18.454	1.2613e-030	0.1	1162.5
30234	18.546	0.	5.e-002	79.183
30235	18.27	1.2487e-030	0.1	1212.1
30236	18.362	0.	5.e-002	83.394
30237	18.087	1.2362e-030	0.1	1260.7
30238	18.178	0.	5.e-002	87.21
30239	17.903	1.2236e-030	0.1	1308.5
30240	17.995	0.	5.e-002	90.674
30241	17.719	1.2111e-030	0.1	1355.7
30242	17.811	0.	5.e-002	93.823
30243	17.536	1.1985e-030	0.1	1402.4
30244	17.628	0.	5.e-002	96.692
30245	17.352	1.186e-030	0.1	1448.7
30246	17.444	0.	5.e-002	99.314
30247	17.169	1.1734e-030	0.1	1494.8
30248	17.26	0.	5.e-002	101.72
30249	16.985	1.1609e-030	0.1	1540.8
30250	17.077	0.	5.e-002	103.92
30251	16.801	1.1483e-030	0.1	1586.6
30252	16.893	0.	5.e-002	105.96
30253	16.618	1.1358e-030	0.1	1632.4
30254	16.709	0.	5.e-002	107.84
30255	16.434	1.1232e-030	0.1	1678.2
30256	16.526	0.	5.e-002	109.58
30257	16.25	1.1107e-030	0.1	1724.1
30258	16.342	0.	5.e-002	111.19
30259	16.067	1.0981e-030	0.1	1769.9
30260	16.159	0.	5.e-002	112.69
30261	15.883	1.0856e-030	0.1	1815.9
30262	15.975	0.	5.e-002	114.09
30263	15.7	1.073e-030	0.1	1862.
30264	15.791	0.	5.e-002	115.4
30265	15.516	1.0605e-030	0.1	1908.2
30266	15.608	0.	5.e-002	116.62
30267	15.332	1.0479e-030	0.1	1954.5
30268	15.424	0.	5.e-002	117.77
30269	15.149	1.0354e-030	0.1	2000.9
30270	15.241	0.	5.e-002	118.84
30271	14.965	1.0228e-030	0.1	2047.5
30272	15.057	0.	5.e-002	119.84
30273	14.781	1.0103e-030	0.1	2094.3
30274	14.873	0.	5.e-002	120.78
30275	14.598	9.9774e-031	0.1	2141.3
30276	14.69	0.	5.e-002	121.66
30277	14.414	9.8519e-031	0.1	2188.4
30278	14.506	0.	5.e-002	122.49
30279	14.231	9.7264e-031	0.1	2235.6
30280	14.322	0.	5.e-002	123.26
30281	14.047	9.6009e-031	0.1	2283.1
30282	14.139	0.	5.e-002	123.97
30283	13.863	9.4754e-031	0.1	2330.7
30284	13.955	0.	5.e-002	124.64
30285	13.68	9.3499e-031	0.1	2378.6
30286	13.772	0.	5.e-002	125.25
30287	13.496	9.2244e-031	0.1	2426.6
30288	13.588	0.	5.e-002	125.82
30289	13.313	9.0989e-031	0.1	2474.8
30290	13.404	0.	5.e-002	126.34
30291	13.129	8.9734e-031	0.1	2523.2
30292	13.221	0.	5.e-002	126.81
30293	12.945	8.8479e-031	0.1	2571.8
30294	13.037	0.	5.e-002	127.23
30295	12.762	8.7224e-031	0.1	2620.6
30296	12.853	0.	5.e-002	127.6
30297	12.578	8.5969e-031	0.1	2669.6
30298	12.67	0.	5.e-002	127.91
30299	12.394	8.4714e-031	0.1	2718.9
30300	12.486	0.	5.e-002	128.18
30301	12.211	8.3459e-031	0.1	2768.3
30302	12.303	0.	5.e-002	128.39
30303	12.027	8.2204e-031	0.1	2817.9
30304	12.119	0.	5.e-002	128.55
30305	11.844	8.0949e-031	0.1	2867.8
30306	11.935	0.	5.e-002	128.64
30307	11.66	7.9694e-031	0.1	2917.8
30308	11.752	0.	5.e-002	128.68
30309	11.476	7.8439e-031	0.1	2968.1
30310	11.568	0.	5.e-002	128.65
30311	11.293	7.7184e-031	0.1	3018.6
30312	11.384	0.	5.e-002	128.55
30313	11.109	7.5929e-031	0.1	3069.3
30314	11.201	0.	5.e-002	128.38
30315	10.925	7.4674e-031	0.1	3120.3
30316	11.017	0.	5.e-002	128.13
30317	10.742	7.3419e-031	0.1	3171.5
30318	10.834	0.	5.e-002	127.8
30319	10.558	7.2164e-031	0.1	3222.9
30320	10.65	0.	5.e-002	127.38
30321	10.375	7.0909e-031	0.1	3274.6
30322	10.466	0.	5.e-002	126.86
30323	10.191	6.9654e-031	0.1	3326.5
30324	10.283	0.	5.e-002	126.25
30325	10.007	6.8398e-031	0.1	3378.6
30326	10.099	0.	5.e-002	125.53
30327	9.8237	6.7143e-031	0.1	3431.
30328	9.9155	0.	5.e-002	124.68
30329	9.6401	6.5888e-031	0.1	3483.7
30330	9.7319	0.	5.e-002	123.72
30331	9.4565	6.4633e-031	0.1	3536.6
30332	9.5483	0.	5.e-002	122.62
30333	9.2728	6.3378e-031	0.1	3589.8
30334	9.3647	0.	5.e-002	121.37
30335	9.0892	6.2123e-031	0.1	3643.3
30336	9.181	0.	5.e-002	119.97
30337	8.9056	6.0868e-031	0.1	3697.
30338	8.9974	0.	5.e-002	118.39
30339	8.722	5.9613e-031	0.1	3751.1
30340	8.8138	0.	5.e-002	116.63
30341	8.5384	5.8358e-031	0.1	3805.4
30342	8.6302	0.	5.e-002	114.68
30343	8.3547	5.7103e-031	0.1	3860.1
30344	8.4466	0.	5.e-002	112.51
30345	8.1711	5.5848e-031	0.1	3915.1
30346	8.2629	0.	5.e-002	110.11
30347	7.9875	5.4593e-031	0.1	3970.4
30348	8.0793	0.	5.e-002	107.46
30349	7.8039	5.3338e-031	0.1	4026.
30350	7.8957	0.	5.e-002	104.54
30351	7.6203	5.2083e-031	0.1	4082.
30352	7.7121	0.	5.e-002	101.33
30353	7.4366	5.0828e-031	0.1	4138.4
30354	7.5284	0.	5.e-002	97.805
30355	7.253	4.9573e-031	0.1	4195.1
30356	7.3448	0.	5.e-002	93.938
30357	7.0694	4.8318e-031	0.1	4252.3
30358	7.1612	0.	5.e-002	89.703
30359	6.8858	4.7063e-031	0.1	4309.8
30360	6.9776	0.	5.e-002	85.069
30361	6.7022	4.5808e-031	0.1	4367.8
30362	6.794	0.	5.e-002	80.006
30363	6.5185	4.4553e-031	0.1	4426.2
30364	6.6103	0.	5.e-002	74.477
30365	6.3349	4.3298e-031	0.1	4485.2
30366	6.4267	0.	5.e-002	68.447
30367	6.1513	4.2043e-031	0.1	4544.6
30368	6.2431	0.	5.e-002	61.874
30369	5.9677	4.0788e-031	0.1	4604.5
30370	6.0595	0.	5.e-002	54.717
30371	5.7841	3.9533e-031	0.1	4664.9
30372	5.8759	0.	5.e-002	46.931
30373	5.6004	3.8278e-031	0.1	4725.9
30374	5.6922	0.	5.e-002	38.468
30375	5.4168	3.7023e-031	0.1	4787.5
30376	5.5086	0.	5.e-002	29.286
30377	5.2332	3.5768e-031	0.1	4849.7
30378	5.325	0.	5.e-002	19.36
30379	5.0496	3.4513e-031	0.1	4912.5
30380	5.1414	0.	5.e-002	8.852
30381	4.8659	3.3258e-031	0.1	4975.9
30382	4.9578	0.	5.e-002	5.0111
30383	4.6823	3.2003e-031	0.1	5039.9
30384	4.7741	0.	5.e-002	16.838
30385	4.4987	3.0748e-031	0.1	5104.5
30386	4.5905	0.	5.e-002	30.589
30387	4.3151	2.9493e-031	0.1	5169.7
30388	4.4069	0.	5.e-002	45.604
30389	4.1315	2.8238e-031	0.1	5235.5
30390	4.2233	0.	5.e-002	61.909
30391	3.9478	2.6983e-031	0.1	5301.8
30392	4.0397	0.	5.e-002	79.588
30393	3.7642	2.5728e-031	0.1	5368.5
30394	3.856	0.	5.e-002	98.741
30395	3.5806	2.4473e-031	0.1	5435.5
30396	3.6724	0.	5.e-002	119.49
30397	3.397	2.3218e-031	0.1	5502.6
30398	3.4888	0.	5.e-002	141.95
30399	3.2134	2.1963e-031	0.1	5569.6
30400	3.3052	0.	5.e-002	166.27
30401	3.0297	2.0708e-031	0.1	5636.1
30402	3.1216	0.	5.e-002	192.61
30403	2.8461	1.9453e-031	0.1	5701.7
30404	2.9379	0.	5.e-002	221.14
30405	2.6625	1.8198e-031	0.1	5765.8
30406	2.7543	0.	5.e-002	252.06
30407	2.4789	1.6943e-031	0.1	5827.5
30408	2.5707	0.	5.e-002	285.6
30409	2.2953	1.5688e-031	0.1	5885.8
30410	2.3871	0.	5.e-002	322.03
30411	2.1116	1.4433e-031	0.1	5939.2
30412	2.2034	0.	5.e-002	361.66
30413	1.928	1.3178e-031	0.1	5985.7
30414	2.0198	0.	5.e-002	404.88
30415	1.7444	1.1923e-031	0.1	6022.5
30416	1.8362	0.	5.e-002	452.15
30417	1.5608	1.0668e-031	0.1	6045.8
30418	1.6526	0.	5.e-002	504.07
30419	1.3772	9.4126e-032	0.1	6049.8
30420	1.469	0.	5.e-002	561.42
30421	1.1935	8.1576e-032	0.1	6026.
30422	1.2853	0.	5.e-002	625.25
30423	1.0099	6.9026e-032	0.1	5961.
30424	1.1017	0.	5.e-002	697.1
30425	0.82629	5.6476e-032	0.1	5832.6
30426	0.9181	0.	5.e-002	779.1
30427	0.64267	4.3926e-032	0.1	5598.6
30428	0.73448	0.	5.e-002	875.55
30429	0.45905	3.1375e-032	0.1	5180.6
30430	0.55086	0.	5.e-002	992.38
30431	0.27543	1.8825e-032	0.1	4325.6
30432	0.36724	0.	5.e-002	1150.
30433	9.181e-002	6.2751e-033	0.1	2558.1
30434	0.18362	0.	5.e-002	1463.1
30435	0.	0.	5.e-002	1937.
30436	9.181e-002	6.	0.1	2558.1
30437	5.2451e-014	6.	5.e-002	1937.
30438	0.27543	6.	0.1	4325.6
30439	0.18362	6.	5.e-002	1463.1
30440	0.45905	6.	0.1	5180.6
30441	0.36724	6.	5.e-002	1150.
30442	0.64267	6.	0.1	5598.6
30443	0.55086	6.	5.e-002	992.38
30444	0.82629	6.	0.1	5832.6
30445	0.73448	6.	5.e-002	875.55
30446	1.0099	6.	0.1	5961.
30447	0.9181	6.	5.e-002	779.1
30448	1.1935	6.	0.1	6026.
30449	1.1017	6.	5.e-002	697.1
30450	1.3772	6.	0.1	6049.8
30451	1.2853	6.	5.e-002	625.25
30452	1.5608	6.	0.1	6045.8
30453	1.469	6.	5.e-002	561.42
30454	1.7444	6.	0.1	6022.5
30455	1.6526	6.	5.e-002	504.07
30456	1.928	6.	0.1	5985.7
30457	1.8362	6.	5.e-002	452.15
30458	2.1116	6.	0.1	5939.2
30459	2.0198	6.	5.e-002	404.88
30460	2.2953	6.	0.1	5885.8
30461	2.2034	6.	5.e-002	361.66
30462	2.4789	6.	0.1	5827.5
30463	2.3871	6.	5.e-002	322.03
30464	2.6625	6.	0.1	5765.8
30465	2.5707	6.	5.e-002	285.6
30466	2.8461	6.	0.1	5701.7
30467	2.7543	6.	5.e-002	252.06
30468	3.0297	6.	0.1	5636.1
30469	2.9379	6.	5.e-002	221.14
30470	3.2134	6.	0.1	5569.6
30471	3.1216	6.	5.e-002	192.61
30472	3.397	6.	0.1	5502.6
30473	3.3052	6.	5.e-002	166.27
30474	3.5806	6.	0.1	5435.5
30475	3.4888	6.	5.e-002	141.95
30476	3.7642	6.	0.1	5368.5
30477	3.6724	6.	5.e-002	119.49
30478	3.9478	6.	0.1	5301.8
30479	3.856	6.	5.e-002	98.741
30480	4.1315	6.	0.1	5235.5
30481	4.0397	6.	5.e-002	79.588
30482	4.3151	6.	0.1	5169.7
30483	4.2233	6.	5.e-002	61.909
30484	4.4987	6.	0.1	5104.5
30485	4.4069	6.	5.e-002	45.604
30486	4.6823	6.	0.1	5039.9
30487	4.5905	6.	5.e-002	30.589
30488	4.8659	6.	0.1	4975.9
30489	4.7741	6.	5.e-002	16.838
30490	5.0496	6.	0.1	4912.5
30491	4.9578	6.	5.e-002	5.0111
30492	5.2332	6.	0.1	4849.7
30493	5.1414	6.	5.e-002	8.8521
30494	5.4168	6.	0.1	4787.5
30495	5.325	6.	5.e-002	19.361
30496	5.6004	6.	0.1	4725.9
30497	5.5086	6.	5.e-002	29.286
30498	5.7841	6.	0.1	4664.9
30499	5.6922	6.	5.e-002	38.468
30500	5.9677	6.	0.1	4604.5
30501	5.8759	6.	5.e-002	46.931
30502	6.1513	6.	0.1	4544.6
30503	6.0595	6.	5.e-002	54.717
30504	6.3349	6.	0.1	4485.2
30505	6.2431	6.	5.e-002	61.874
30506	6.5185	6.	0.1	4426.2
30507	6.4267	6.	5.e-002	68.447
30508	6.7022	6.	0.1	4367.8
30509	6.6103	6.	5.e-002	74.477
30510	6.8858	6.	0.1	4309.8
30511	6.794	6.	5.e-002	80.006
30512	7.0694	6.	0.1	4252.3
30513	6.9776	6.	5.e-002	85.069
30514	7.253	6.	0.1	4195.1
30515	7.1612	6.	5.e-002	89.703
30516	7.4366	6.	0.1	4138.4
30517	7.3448	6.	5.e-002	93.938
30518	7.6203	6.	0.1	4082.
30519	7.5284	6.	5.e-002	97.805
30520	7.8039	6.	0.1	4026.
30521	7.7121	6.	5.e-002	101.33
30522	7.9875	6.	0.1	3970.4
30523	7.8957	6.	5.e-002	104.54
30524	8.1711	6.	0.1	3915.1
30525	8.0793	6.	5.e-002	107.46
30526	8.3547	6.	0.1	3860.1
30527	8.2629	6.	5.e-002	110.11
30528	8.5384	6.	0.1	3805.4
30529	8.4466	6.	5.e-002	112.51
30530	8.722	6.	0.1	3751.1
30531	8.6302	6.	5.e-002	114.68
30532	8.9056	6.	0.1	3697.
30533	8.8138	6.	5.e-002	116.63
30534	9.0892	6.	0.1	3643.3
30535	8.9974	6.	5.e-002	118.39
30536	9.2728	6.	0.1	3589.8
30537	9.181	6.	5.e-002	119.97
30538	9.4565	6.	0.1	3536.6
30539	9.3647	6.	5.e-002	121.37
30540	9.6401	6.	0.1	3483.7
30541	9.5483	6.	5.e-002	122.62
30542	9.8237	6.	0.1	3431.
30543	9.7319	6.	5.e-002	123.72
30544	10.007	6.	0.1	3378.6
30545	9.9155	6.	5.e-002	124.68
30546	10.191	6.	0.1	3326.5
30547	10.099	6.	5.e-002	125.53
30548	10.375	6.	0.1	3274.6
30549	10.283	6.	5.e-002	126.25
30550	10.558	6.	0.1	3222.9
30551	10.466	6.	5.e-002	126.86
30552	10.742	6.	0.1	3171.5
30553	10.65	6.	5.e-002	127.38
30554	10.925	6.	0.1	3120.3
30555	10.834	6.	5.e-002	127.8
30556	11.109	6.	0.1	3069.3
30557	11.017	6.	5.e-002	128.13
30558	11.293	6.	0.1	3018.6
30559	11.201	6.	5.e-002	128.38
30560	11.476	6.	0.1	2968.1
30561	11.384	6.	5.e-002	128.55
30562	11.66	6.	0.1	2917.8
30563	11.568	6.	5.e-002	128.65
30564	11.844	6.	0.1	2867.8
30565	11.752	6.	5.e-002	128.68
30566	12.027	6.	0.1	2817.9
30567	11.935	6.	5.e-002	128.64
30568	12.211	6.	0.1	2768.3
30569	12.119	6.	5.e-002	128.55
30570	12.394	6.	0.1	2718.9
30571	12.303	6.	5.e-002	128.39
30572	12.578	6.	0.1	2669.6
30573	12.486	6.	5.e-002	128.18
30574	12.762	6.	0.1	2620.6
30575	12.67	6.	5.e-002	127.91
30576	12.945	6.	0.1	2571.8
30577	12.853	6.	5.e-002	127.6
30578	13.129	6.	0.1	2523.2
30579	13.037	6.	5.e-002	127.23
30580	13.313	6.	0.1	2474.8
30581	13.221	6.	5.e-002	126.81
30582	13.496	6.	0.1	2426.6
30583	13.404	6.	5.e-002	126.34
30584	13.68	6.	0.1	2378.6
30585	13.588	6.	5.e-002	125.82
30586	13.863	6.	0.1	2330.7
30587	13.772	6.	5.e-002	125.25
30588	14.047	6.	0.1	2283.1
30589	13.955	6.	5.e-002	124.64
30590	14.231	6.	0.1	2235.6
30591	14.139	6.	5.e-002	123.97
30592	14.414	6.	0.1	2188.4
30593	14.322	6.	5.e-002	123.26
30594	14.598	6.	0.1	2141.3
30595	14.506	6.	5.e-002	122.49
30596	14.781	6.	0.1	2094.3
30597	14.69	6.	5.e-002	121.66
30598	14.965	6.	0.1	2047.5
30599	14.873	6.	5.e-002	120.78
30600	15.149	6.	0.1	2000.9
30601	15.057	6.	5.e-002	119.84
30602	15.332	6.	0.1	1954.5
30603	15.241	6.	5.e-002	118.84
30604	15.516	6.	0.1	1908.2
30605	15.424	6.	5.e-002	117.77
30606	15.7	6.	0.1	1862.
30607	15.608	6.	5.e-002	116.62
30608	15.883	6.	0.1	1815.9
30609	15.791	6.	5.e-002	115.4
30610	16.067	6.	0.1	1769.9
30611	15.975	6.	5.e-002	114.09
30612	16.25	6.	0.1	1724.1
30613	16.159	6.	5.e-002	112.69
30614	16.434	6.	0.1	1678.2
30615	16.342	6.	5.e-002	111.19
30616	16.618	6.	0.1	1632.4
30617	16.526	6.	5.e-002	109.58
30618	16.801	6.	0.1	1586.6
30619	16.709	6.	5.e-002	107.84
30620	16.985	6.	0.1	1540.8
30621	16.893	6.	5.e-002	105.96
30622	17.169	6.	0.1	1494.8
30623	17.077	6.	5.e-002	103.92
30624	17.352	6.	0.1	1448.7
30625	17.26	6.	5.e-002	101.72
30626	17.536	6.	0.1	1402.4
30627	17.444	6.	5.e-002	99.314
30628	17.719	6.	0.1	1355.7
30629	17.628	6.	5.e-002	96.692
30630	17.903	6.	0.1	1308.5
30631	17.811	6.	5.e-002	93.823
30632	18.087	6.	0.1	1260.7
30633	17.995	6.	5.e-002	90.674
30634	18.27	6.	0.1	1212.1
30635	18.178	6.	5.e-002	87.21
30636	18.454	6.	0.1	1162.5
30637	18.362	6.	5.e-002	83.394
30638	18.638	6.	0.1	1111.5
30639	18.546	6.	5.e-002	79.184
30640	18.821	6.	0.1	1058.9
30641	18.729	6.	5.e-002	74.536
30642	19.005	6.	0.1	1004.3
30643	18.913	6.	5.e-002	69.411
30644	19.188	6.	0.1	947.29
30645	19.097	6.	5.e-002	63.772
30646	19.372	6.	0.1	887.26
30647	19.28	6.	5.e-002	57.596
30648	19.556	6.	0.1	823.7
30649	19.464	6.	5.e-002	50.879
30650	19.739	6.	0.1	756.04
30651	19.647	6.	5.e-002	43.655
30652	19.923	6.	0.1	683.73
30653	19.831	6.	5.e-002	36.006
30654	20.106	6.	0.1	606.32
30655	20.015	6.	5.e-002	28.093
30656	20.29	6.	0.1	523.57
30657	20.198	6.	5.e-002	20.174
30658	20.474	6.	0.1	435.59
30659	20.382	6.	5.e-002	12.642
30660	20.657	6.	0.1	342.84
30661	20.566	6.	5.e-002	6.0569
30662	20.841	6.	0.1	246.24
30663	20.749	6.	5.e-002	1.4911
30664	21.025	6.	0.1	146.05
30665	20.933	6.	5.e-002	1.6738
30666	21.208	6.	0.1	49.194
30667	21.116	6.	5.e-002	1.9499
30668	21.3	6.	5.e-002	8.4827
30669	21.025	6.	0.	146.05
30670	21.208	6.	0.	49.194
30671	20.841	6.	0.	246.24
30672	20.657	6.	0.	342.84
30673	20.474	6.	0.	435.59
30674	20.29	6.	0.	523.57
30675	20.106	6.	0.	606.32
30676	19.923	6.	0.	683.73
30677	19.739	6.	0.	756.04
30678	19.556	6.	0.	823.7
30679	19.372	6.	0.	887.26
30680	19.188	6.	0.	947.29
30681	19.005	6.	0.	1004.3
30682	18.821	6.	0.	1058.9
30683	18.638	6.	0.	1111.5
30684	18.454	6.	0.	1162.5
30685	18.27	6.	0.	1212.1
30686	18.087	6.	0.	1260.7
30687	17.903	6.	0.	1308.5
30688	17.719	6.	0.	1355.7
30689	17.536	6.	0.	1402.4
30690	17.352	6.	0.	1448.7
30691	17.169	6.	0.	1494.8
30692	16.985	6.	0.	1540.8
30693	16.801	6.	0.	1586.6
30694	16.618	6.	0.	1632.4
30695	16.434	6.	0.	1678.2
30696	16.25	6.	0.	1724.1
30697	16.067	6.	0.	1769.9
30698	15.883	6.	0.	1815.9
30699	15.7	6.	0.	1862.
30700	15.516	6.	0.	1908.2
30701	15.332	6.	0.	1954.5
30702	15.149	6.	0.	2000.9
30703	14.965	6.	0.	2047.5
30704	14.781	6.	0.	2094.3
30705	14.598	6.	0.	2141.3
30706	14.414	6.	0.	2188.4
30707	14.231	6.	0.	2235.6
30708	14.047	6.	0.	2283.1
30709	13.863	6.	0.	2330.7
30710	13.68	6.	0.	2378.6
30711	13.496	6.	0.	2426.6
30712	13.313	6.	0.	2474.8
30713	13.129	6.	0.	2523.2
30714	12.945	6.	0.	2571.8
30715	12.762	6.	0.	2620.6
30716	12.578	6.	0.	2669.6
30717	12.394	6.	0.	2718.9
30718	12.211	6.	0.	2768.3
30719	12.027	6.	0.	2817.9
30720	11.844	6.	0.	2867.8
30721	11.66	6.	0.	2917.8
30722	11.476	6.	0.	2968.1
30723	11.293	6.	0.	3018.6
30724	11.109	6.	0.	3069.3
30725	10.925	6.	0.	3120.3
30726	10.742	6.	0.	3171.5
30727	10.558	6.	0.	3222.9
30728	10.375	6.	0.	3274.6
30729	10.191	6.	0.	3326.5
30730	10.007	6.	0.	3378.6
30731	9.8237	6.	0.	3431.
30732	9.6401	6.	0.	3483.7
30733	9.4565	6.	0.	3536.6
30734	9.2728	6.	0.	3589.8
30735	9.0892	6.	0.	3643.3
30736	8.9056	6.	0.	3697.
30737	8.722	6.	0.	3751.1
30738	8.5384	6.	0.	3805.4
30739	8.3547	6.	0.	3860.1
30740	8.1711	6.	0.	3915.1
30741	7.9875	6.	0.	3970.4
30742	7.8039	6.	0.	4026.
30743	7.6203	6.	0.	4082.
30744	7.4366	6.	0.	4138.4
30745	7.253	6.	0.	4195.1
30746	7.0694	6.	0.	4252.3
30747	6.8858	6.	0.	4309.8
30748	6.7022	6.	0.	4367.8
30749	6.5185	6.	0.	4426.2
30750	6.3349	6.	0.	4485.2
30751	6.1513	6.	0.	4544.6
30752	5.9677	6.	0.	4604.5
30753	5.7841	6.	0.	4664.9
30754	5.6004	6.	0.	4725.9
30755	5.4168	6.	0.	4787.5
30756	5.2332	6.	0.	4849.7
30757	5.0496	6.	0.	4912.5
30758	4.8659	6.	0.	4975.9
30759	4.6823	6.	0.	5039.9
30760	4.4987	6.	0.	5104.5
30761	4.3151	6.	0.	5169.7
30762	4.1315	6.	0.	5235.5
30763	3.9478	6.	0.	5301.8
30764	3.7642	6.	0.	5368.5
30765	3.5806	6.	0.	5435.5
30766	3.397	6.	0.	5502.6
30767	3.2134	6.	0.	5569.6
30768	3.0297	6.	0.	5636.1
30769	2.8461	6.	0.	5701.7
30770	2.6625	6.	0.	5765.8
30771	2.4789	6.	0.	5827.5
30772	2.2953	6.	0.	5885.8
30773	2.1116	6.	0.	5939.2
30774	1.928	6.	0.	5985.7
30775	1.7444	6.	0.	6022.5
30776	1.5608	6.	0.	6045.8
30777	1.3772	6.	0.	6049.8
30778	1.1935	6.	0.	6026.
30779	1.0099	6.	0.	5961.
30780	0.82629	6.	0.	5832.6
30781	0.64267	6.	0.	5598.6
30782	0.45905	6.	0.	5180.6
30783	0.27543	6.	0.	4325.6
30784	9.181e-002	6.	0.	2558.1
30785	21.3	5.9091	0.	36.652
30786	5.1657e-014	5.9091	0.	1394.2
30787	0.27543	1.8825e-032	0.	4325.6
30788	9.181e-002	6.2751e-033	0.	2558.1
30789	0.45905	3.1375e-032	0.	5180.6
30790	0.64267	4.3926e-032	0.	5598.6
30791	0.82629	5.6476e-032	0.	5832.6
30792	1.0099	6.9026e-032	0.	5961.
30793	1.1935	8.1576e-032	0.	6026.
30794	1.3772	9.4126e-032	0.	6049.8
30795	1.5608	1.0668e-031	0.	6045.8
30796	1.7444	1.1923e-031	0.	6022.5
30797	1.928	1.3178e-031	0.	5985.7
30798	2.1116	1.4433e-031	0.	5939.2
30799	2.2953	1.5688e-031	0.	5885.8
30800	2.4789	1.6943e-031	0.	5827.5
30801	2.6625	1.8198e-031	0.	5765.8
30802	2.8461	1.9453e-031	0.	5701.7
30803	3.0297	2.0708e-031	0.	5636.1
30804	3.2134	2.1963e-031	0.	5569.6
30805	3.397	2.3218e-031	0.	5502.6
30806	3.5806	2.4473e-031	0.	5435.5
30807	3.7642	2.5728e-031	0.	5368.5
30808	3.9478	2.6983e-031	0.	5301.8
30809	4.1315	2.8238e-031	0.	5235.5
30810	4.3151	2.9493e-031	0.	5169.7
30811	4.4987	3.0748e-031	0.	5104.5
30812	4.6823	3.2003e-031	0.	5039.9
30813	4.8659	3.3258e-031	0.	4975.9
30814	5.0496	3.4513e-031	0.	4912.5
30815	5.2332	3.5768e-031	0.	4849.7
30816	5.4168	3.7023e-031	0.	4787.5
30817	5.6004	3.8278e-031	0.	4725.9
30818	5.7841	3.9533e-031	0.	4664.9
30819	5.9677	4.0788e-031	0.	4604.5
30820	6.1513	4.2043e-031	0.	4544.6
30821	6.3349	4.3298e-031	0.	4485.2
30822	6.5185	4.4553e-031	0.	4426.2
30823	6.7022	4.5808e-031	0.	4367.8
30824	6.8858	4.7063e-031	0.	4309.8
30825	7.0694	4.8318e-031	0.	4252.3
30826	7.253	4.9573e-031	0.	4195.1
30827	7.4366	5.0828e-031	0.	4138.4
30828	7.6203	5.2083e-031	0.	4082.
30829	7.8039	5.3338e-031	0.	4026.
30830	7.9875	5.4593e-031	0.	3970.4
30831	8.1711	5.5848e-031	0.	3915.1
30832	8.3547	5.7103e-031	0.	3860.1
30833	8.5384	5.8358e-031	0.	3805.4
30834	8.722	5.9613e-031	0.	3751.1
30835	8.9056	6.0868e-031	0.	3697.
30836	9.0892	6.2123e-031	0.	3643.3
30837	9.2728	6.3378e-031	0.	3589.8
30838	9.4565	6.4633e-031	0.	3536.6
30839	9.6401	6.5888e-031	0.	3483.7
30840	9.8237	6.7143e-031	0.	3431.
30841	10.007	6.8398e-031	0.	3378.6
30842	10.191	6.9654e-031	0.	3326.5
30843	10.375	7.0909e-031	0.	3274.6
30844	10.558	7.2164e-031	0.	3222.9
30845	10.742	7.3419e-031	0.	3171.5
30846	10.925	7.4674e-031	0.	3120.3
30847	11.109	7.5929e-031	0.	3069.3
30848	11.293	7.7184e-031	0.	3018.6
30849	11.476	7.8439e-031	0.	2968.1
30850	11.66	7.9694e-031	0.	2917.8
30851	11.844	8.0949e-031	0.	2867.8
30852	12.027	8.2204e-031	0.	2817.9
30853	12.211	8.3459e-031	0.	2768.3
30854	12.394	8.4714e-031	0.	2718.9
30855	12.578	8.5969e-031	0.	2669.6
30856	12.762	8.7224e-031	0.	2620.6
30857	12.945	8.8479e-031	0.	2571.8
30858	13.129	8.9734e-031	0.	2523.2
30859	13.313	9.0989e-031	0.	2474.8
30860	13.496	9.2244e-031	0.	2426.6
30861	13.68	9.3499e-031	0.	2378.6
30862	13.863	9.4754e-031	0.	2330.7
30863	14.047	9.6009e-031	0.	2283.1
30864	14.231	9.7264e-031	0.	2235.6
30865	14.414	9.8519e-031	0.	2188.4
30866	14.598	9.9774e-031	0.	2141.3
30867	14.781	1.0103e-030	0.	2094.3
30868	14.965	1.0228e-030	0.	2047.5
30869	15.149	1.0354e-030	0.	2000.9
30870	15.332	1.0479e-030	0.	1954.5
30871	15.516	1.0605e-030	0.	1908.2
30872	15.7	1.073e-030	0.	1862.
30873	15.883	1.0856e-030	0.	1815.9
30874	16.067	1.0981e-030	0.	1769.9
30875	16.25	1.1107e-030	0.	1724.1
30876	16.434	1.1232e-030	0.	1678.2
30877	16.618	1.1358e-030	0.	1632.4
30878	16.801	1.1483e-030	0.	1586.6
30879	16.985	1.1609e-030	0.	1540.8
30880	17.169	1.1734e-030	0.	1494.8
30881	17.352	1.186e-030	0.	1448.7
30882	17.536	1.1985e-030	0.	1402.4
30883	17.719	1.2111e-030	0.	1355.7
30884	17.903	1.2236e-030	0.	1308.5
30885	18.087	1.2362e-030	0.	1260.7
30886	18.27	1.2487e-030	0.	1212.1
30887	18.454	1.2613e-030	0.	1162.5
30888	18.638	1.2738e-030	0.	1111.5
30889	18.821	1.2864e-030	0.	1058.9
30890	19.005	1.2989e-030	0.	1004.3
30891	19.188	1.3115e-030	0.	947.29
30892	19.372	1.324e-030	0.	887.26
30893	19.556	1.3366e-030	0.	823.7
30894	19.739	1.3491e-030	0.	756.04
30895	19.923	1.3617e-030	0.	683.73
30896	20.106	1.3742e-030	0.	606.32
30897	20.29	1.3868e-030	0.	523.57
30898	20.474	1.3993e-030	0.	435.59
30899	20.657	1.4119e-030	0.	342.84
30900	20.841	1.4244e-030	0.	246.24
30901	21.025	1.437e-030	0.	146.05
30902	21.208	1.4495e-030	0.	49.194
30903	21.3	9.0909e-002	0.	36.652
30904	7.9472e-016	9.0909e-002	0.	1394.2
30905	21.738	0.	0.	60.228
30906	21.557	0.	0.	21.771
30907	21.919	0.	0.	91.535
30908	22.1	0.	0.	114.39
30909	22.281	0.	0.	129.45
30910	22.462	0.	0.	137.02
30911	22.643	0.	0.	137.7
30912	22.824	0.	0.	132.26
30913	23.005	0.	0.	121.58
30914	23.186	0.	0.	106.54
30915	23.367	0.	0.	88.045
30916	23.548	0.	0.	66.983
30917	23.729	0.	0.	44.024
30918	23.91	0.	0.	19.967
30919	21.467	9.0909e-002	0.	20.299
30920	24.	9.0909e-002	0.	18.864
30921	5.0067e-014	5.7273	0.	1829.7
30922	4.8478e-014	5.5455	0.	2620.7
30923	4.6888e-014	5.3636	0.	3045.1
30924	4.5299e-014	5.1818	0.	3319.
30925	4.371e-014	5.	0.	3506.9
30926	4.212e-014	4.8182	0.	3643.
30927	4.0531e-014	4.6364	0.	3744.8
30928	3.8941e-014	4.4545	0.	3822.5
30929	3.7352e-014	4.2727	0.	3882.5
30930	3.5762e-014	4.0909	0.	3929.
30931	3.4173e-014	3.9091	0.	3964.9
30932	3.2583e-014	3.7273	0.	3992.1
30933	3.0994e-014	3.5455	0.	4012.1
30934	2.9405e-014	3.3636	0.	4025.7
30935	2.7815e-014	3.1818	0.	4033.7
30936	2.6226e-014	3.	0.	4036.3
30937	2.4636e-014	2.8182	0.	4033.7
30938	2.3047e-014	2.6364	0.	4025.7
30939	2.1457e-014	2.4545	0.	4012.1
30940	1.9868e-014	2.2727	0.	3992.1
30941	1.8279e-014	2.0909	0.	3964.9
30942	1.6689e-014	1.9091	0.	3929.
30943	1.51e-014	1.7273	0.	3882.5
30944	1.351e-014	1.5455	0.	3822.5
30945	1.1921e-014	1.3636	0.	3744.8
30946	1.0331e-014	1.1818	0.	3643.
30947	8.7419e-015	1.	0.	3506.9
30948	7.1525e-015	0.81818	0.	3319.
30949	5.563e-015	0.63636	0.	3045.1
30950	3.9736e-015	0.45455	0.	2620.7
30951	2.3842e-015	0.27273	0.	1829.7
30952	24.	0.27273	0.	38.702
30953	24.	0.45455	0.	50.092
30954	24.	0.63636	0.	55.042
30955	24.	0.81818	0.	55.863
30956	24.	1.	0.	53.842
30957	24.	1.1818	0.	50.103
30958	24.	1.3636	0.	45.723
30959	24.	1.5455	0.	41.73
30960	24.	1.7273	0.	38.942
30961	24.	1.9091	0.	37.704
30962	24.	2.0909	0.	37.775
30963	24.	2.2727	0.	38.562
30964	24.	2.4545	0.	39.498
30965	24.	2.6364	0.	40.243
30966	24.	2.8182	0.	40.684
30967	24.	3.	0.	40.826
30968	24.	3.1818	0.	40.684
30969	24.	3.3636	0.	40.243
30970	24.	3.5455	0.	39.498
30971	24.	3.7273	0.	38.562
30972	24.	3.9091	0.	37.775
30973	24.	4.0909	0.	37.704
30974	24.	4.2727	0.	38.942
30975	24.	4.4545	0.	41.73
30976	24.	4.6364	0.	45.723
30977	24.	4.8182	0.	50.103
30978	24.	5.	0.	53.842
30979	24.	5.1818	0.	55.863
30980	24.	5.3636	0.	55.043
30981	24.	5.5455	0.	50.092
30982	24.	5.7273	0.	38.702
30983	24.	5.9091	0.	18.864
30984	23.91	6.	0.	19.967
30985	23.729	6.	0.	44.024
30986	23.548	6.	0.	66.983
30987	23.367	6.	0.	88.046
30988	23.186	6.	0.	106.54
30989	23.005	6.	0.	121.58
30990	22.824	6.	0.	132.26
30991	22.643	6.	0.	137.7
30992	22.462	6.	0.	137.02
30993	22.281	6.	0.	129.45
30994	22.1	6.	0.	114.39
30995	21.919	6.	0.	91.535
30996	21.738	6.	0.	60.228
30997	21.557	6.	0.	21.771
30998	21.467	5.9091	0.	20.299
30999	21.3	1.7273	0.	1230.1
31000	21.3	1.9091	0.	2209.2
31001	21.3	1.5455	0.	815.12
31002	21.3	1.3636	0.	635.17
31003	21.3	1.1818	0.	498.26
31004	21.3	1.	0.	393.
31005	21.3	0.81818	0.	305.99
31006	21.3	0.63636	0.	231.2
31007	21.3	0.45455	0.	164.72
31008	21.3	0.27273	0.	102.22
31009	21.383	2.	0.	2652.6
31010	21.467	0.27273	0.	57.53
31011	21.467	0.45455	0.	92.925
31012	21.467	0.63636	0.	130.24
31013	21.467	0.81818	0.	173.16
31014	21.467	1.	0.	225.24
31015	21.467	1.1818	0.	291.58
31016	21.467	1.3636	0.	382.7
31017	21.467	1.5455	0.	505.49
31018	21.467	1.7273	0.	784.48
31019	21.467	1.9091	0.	1749.8
31020	21.3	4.2727	0.	1230.1
31021	21.3	4.0909	0.	2209.2
31022	21.3	4.4545	0.	815.12
31023	21.3	4.6364	0.	635.17
31024	21.3	4.8182	0.	498.26
31025	21.3	5.	0.	393.
31026	21.3	5.1818	0.	305.99
31027	21.3	5.3636	0.	231.2
31028	21.3	5.5455	0.	164.72
31029	21.3	5.7273	0.	102.22
31030	21.383	4.	0.	2652.6
31031	21.467	5.7273	0.	57.53
31032	21.467	5.5455	0.	92.925
31033	21.467	5.3636	0.	130.24
31034	21.467	5.1818	0.	173.16
31035	21.467	5.	0.	225.24
31036	21.467	4.8182	0.	291.58
31037	21.467	4.6364	0.	382.7
31038	21.467	4.4545	0.	505.49
31039	21.467	4.2727	0.	784.48
31040	21.467	4.0909	0.	1749.8
