Node Numbers,X Locations (inches),Y Locations (inches),Z Locations (inches),Equivalent Elastic Strains (in/in),Equivalent Stress (psi),Max Principal Elastic Strain (in/in),Max Principal Stress (psi),Middle Principal Elastic Strain (in/in),Middle Principal Stress (psi),Min Principal Elastic Strain (in/in),Min Principal Stress (psi),Total Deformation (in)
1,3.7578,2.3435,0,0.0010405,9709.5,0.00049319,2079.2,0.0002032,-99.637,-0.00091942,-8534.6,0.093336
2,3.8938,3.2358,0,0.00098311,8398.6,0.00033223,913.85,0.00026736,426.47,-0.00081658,-7717.8,0.10162
3,2.4474,0.40432,0,0.00034785,3147.3,0.00014584,325.01,5.8336e-05,-332.49,-0.00030988,-3099.1,0.026847
4,2.2325,4.0531,0,0.0009436,9190.8,0.00037529,-946.87,7.7527e-05,-3184.1,-0.00096932,-11050,0.02738
5,2.0396,5.2322,0,0.00048616,4835.9,0.00017197,64.514,0.00014458,-141.29,-0.0004849,-4871,0.019303
6,4.1044,5.0573,0,0.00045292,4033.5,0.00017469,305.68,8.7605e-05,-348.64,-0.00040036,-4015,0.10404
7,4.5396,4.6846,0,0.00056534,5363.2,0.00021561,346.46,0.00014193,-207.08,-0.00053217,-5272.1,0.13786
8,5.0888,3.4303,0,0.0005922,5789,0.00020817,-672.74,9.6963e-05,-1508.3,-0.00061186,-6834.1,0.18395
9,4.3231,0.49584,0,0.00037439,3472.4,0.00016888,557.18,6.8688e-05,-195.59,-0.00033515,-3229.9,0.12137
10,1.9944,1.4429,0,0.00057605,5577.4,0.00019466,-259.45,0.00014185,-656.18,-0.00057264,-6024.6,0.021465
11,0.98005,4.996,0,0.00056896,5671.4,0.00030162,879.18,5.4071e-05,-980.78,-0.00054589,-5488.6,0.0043793
12,4.3045,5.4604,0,0.00035359,3356.8,0.00014519,404.95,8.8117e-05,-23.881,-0.00032737,-3145.7,0.11496
13,5.2724,0.80034,0,0.00048973,4608,0.00018421,353.52,0.0001292,-59.769,-0.00045472,-4447.2,0.1949
14,1.4025,3.023,0,0.00058682,5816.4,0.0003132,1178.1,7.712e-05,-595.76,-0.00055147,-5318.7,0.011459
15,1.3303,1.7636,0,0.00066176,6552.7,0.00036444,823.7,3.2475e-06,-1890.2,-0.00063023,-6649.9,0.0096225
16,1.0084,3.9722,0,0.00066788,6650.6,0.00038545,1155.2,2.5057e-06,-1722.1,-0.00062668,-6449.6,0.0054192
17,6.182,1.2949,0,0.00043658,4307.4,0.0001577,-83.924,0.00010739,-461.96,-0.00043908,-4567.9,0.27258
18,7.6701,1.2124,0,0.00039172,3894.5,0.00013744,91.23,0.00012194,-25.208,-0.00038847,-3860.2,0.41145
19,8.9453,1.215,0,0.00036518,3644.4,0.00012577,28.15,0.0001137,-62.509,-0.00036519,-3660.7,0.54491
20,10.149,1.2143,0,0.00033295,3324.5,0.00011195,2.8394,0.00010637,-39.045,-0.00033327,-3342.4,0.68185
21,11.342,1.2175,0,0.00030032,2999,0.00010008,0.27784,9.7304e-05,-20.546,-0.00030045,-3009.1,0.8271
22,12.519,1.2221,0,0.00026882,2684.6,8.9014e-05,0.15294,8.8061e-05,-7.006,-0.00026877,-2688.1,0.97877
23,13.681,1.2487,0,0.00023852,2382,7.9018e-05,3.7653,7.8406e-05,-0.83431,-0.00023832,-2380.6,1.1359
24,14.836,1.23,0,0.00020919,2089,6.9851e-05,10.354,6.847e-05,-0.023843,-0.00020887,-2083.8,1.2983
25,15.98,1.2181,0,0.00018076,1804.9,6.0856e-05,14.7,5.8833e-05,-0.49659,-0.00018037,-1797.8,1.4647
26,17.131,1.207,0,0.00015306,1528.2,5.2032e-05,18.861,4.9537e-05,0.11488,-0.00015259,-1518.6,1.6367
27,18.275,1.2049,0,0.00012616,1259.2,4.3518e-05,23.33,4.0438e-05,0.18902,-0.00012559,-1247.3,1.8118
28,19.413,1.2069,0,0.00010031,1000.9,3.5618e-05,30.685,3.1498e-05,-0.2706,-9.9605e-05,-985.32,1.9893
29,20.558,1.204,0,7.5354e-05,751.42,2.8227e-05,41.356,2.2763e-05,0.3041,-7.4401e-05,-729.75,2.1703
30,21.706,1.1932,0,5.122e-05,510.2,2.1512e-05,56.651,1.3949e-05,-0.17742,-4.9857e-05,-479.58,2.3538
31,22.852,1.1958,0,2.9133e-05,289.93,1.629e-05,83.999,5.0996e-06,-0.084813,-2.6656e-05,-238.68,2.5383
32,22.845,2.3944,0,3.2582e-05,324.69,2.045e-05,123.6,4.0026e-06,0.026076,-2.8573e-05,-244.73,2.5369
33,22.846,3.6002,0,3.2636e-05,324.92,2.0466e-05,123.67,3.9997e-06,-0.04378,-2.8592e-05,-244.93,2.5362
34,22.847,4.807,0,2.9264e-05,291.31,1.6322e-05,83.776,5.1561e-06,-0.12052,-2.6807e-05,-240.28,2.5349
35,21.696,4.8079,0,5.1432e-05,512.4,2.156e-05,56.365,1.404e-05,-0.13923,-5.0084e-05,-481.94,2.3496
36,20.552,4.8157,0,7.5406e-05,751.98,2.815e-05,40.199,2.284e-05,0.29915,-7.4481e-05,-730.93,2.1668
37,19.411,4.8294,0,0.00010039,1001.7,3.5587e-05,29.946,3.1552e-05,-0.3695,-9.9699e-05,-986.54,1.9863
38,18.268,4.8324,0,0.00012633,1261.1,4.3618e-05,23.679,4.0463e-05,-0.028387,-0.00012577,-1249.1,1.8082
39,17.123,4.8217,0,0.0001532,1529.7,5.2069e-05,18.928,4.9614e-05,0.48447,-0.00015273,-1519.9,1.633
40,15.982,4.8127,0,0.0001807,1804.7,6.0827e-05,14.428,5.8832e-05,-0.56115,-0.00018035,-1797.7,1.4623
41,14.837,4.8214,0,0.00020907,2088.2,6.9793e-05,9.9353,6.8457e-05,-0.10751,-0.0002088,-2083.3,1.2958
42,13.684,4.8167,0,0.00023838,2381.3,7.9043e-05,4.8472,7.8394e-05,-0.029238,-0.00023821,-2378.9,1.1336
43,12.523,4.813,0,0.00026845,2681.8,8.8715e-05,-0.10503,8.8293e-05,-3.2788,-0.00026843,-2683.5,0.97663
44,11.346,4.8086,0,0.00029948,2992.1,9.9802e-05,3.4844,9.7445e-05,-14.227,-0.0002996,-2997.4,0.82494
45,10.156,4.8038,0,0.00033129,3310,0.00011084,0.59078,0.00010677,-29.992,-0.00033171,-3324.6,0.68006
46,8.9461,4.7858,0,0.00036433,3640.3,0.00012267,3.8152,0.00011639,-43.363,-0.00036493,-3659.8,0.54235
47,7.6795,4.7753,0,0.00039225,3917.1,0.00013287,-51.54,0.00011861,-158.66,-0.00039545,-4021.1,0.40963
48,6.2634,4.7245,0,0.00043692,4280.2,0.00015701,232.19,0.00013595,73.953,-0.00042288,-4124.9,0.27664
49,5.3307,5.2389,0,0.00047045,4426,0.00016353,-46.263,0.00011147,-437.45,-0.00044984,-4654.9,0.19493
50,6.3729,3.5361,0,0.00042916,4244.2,0.00015253,-3.733,0.00011842,-260.01,-0.00042861,-4370.2,0.29054
51,6.296,2.3883,0,0.00039883,3856.5,0.00013968,148.36,0.00011992,-0.092265,-0.00038318,-3780.2,0.28473
52,7.5705,2.383,0,0.00041187,4108.3,0.00014379,8.104,0.00012249,-151.91,-0.00041332,-4177.8,0.40391
53,8.8511,2.4046,0,0.0003665,3661.9,0.00012651,-13.633,0.00011012,-136.76,-0.00036884,-3735.5,0.53686
54,10.093,2.4118,0,0.00033089,3306.1,0.00011313,1.6485,0.00010259,-77.6,-0.00033206,-3343.3,0.67736
55,11.303,2.4193,0,0.00029901,2987.4,0.00010054,0.82007,9.5537e-05,-36.748,-0.00029954,-3005.2,0.82405
56,12.493,2.4345,0,0.00026813,2678.8,8.9224e-05,0.12577,8.7184e-05,-15.201,-0.00026832,-2686.3,0.97696
57,13.667,2.4488,0,0.00023792,2376.9,7.8597e-05,-0.21481,7.8293e-05,-2.4988,-0.0002379,-2378.2,1.1352
58,14.833,2.4331,0,0.00020848,2082.5,6.9212e-05,5.4249,6.8521e-05,0.23122,-0.0002083,-2079.7,1.299
59,15.983,2.4242,0,0.00018015,1799.4,6.0459e-05,12.466,5.8806e-05,0.043011,-0.00017985,-1793.1,1.466
60,17.14,2.3983,0,0.00015223,1520.3,5.173e-05,18.168,4.9283e-05,-0.21344,-0.00015182,-1511.2,1.6387
61,18.262,2.4251,0,0.00012625,1260.6,4.3798e-05,26.223,4.0345e-05,0.28483,-0.00012567,-1247.1,1.8103
62,19.38,2.4152,0,0.00010125,1010.7,3.6482e-05,37.313,3.1498e-05,-0.13414,-0.00010045,-991.55,1.9843
63,20.54,2.4058,0,7.6372e-05,761.95,2.9633e-05,53.998,2.2427e-05,-0.14311,-7.5187e-05,-733.58,2.1674
64,21.694,2.3918,0,5.3231e-05,530.69,2.4119e-05,80.697,1.3367e-05,-0.091359,-5.1271e-05,-485.75,2.3517
65,21.693,3.6021,0,5.33e-05,531.11,2.415e-05,80.808,1.336e-05,-0.27044,-5.1311e-05,-486.18,2.3507
66,20.546,3.6144,0,7.6245e-05,760.38,2.9555e-05,53.636,2.2388e-05,-0.20838,-7.5038e-05,-732.23,2.1676
67,19.395,3.6402,0,0.00010091,1006.8,3.628e-05,36.666,3.1444e-05,0.32931,-0.00010007,-987.85,1.9856
68,18.262,3.6256,0,0.00012631,1260.6,4.3857e-05,26.501,4.0274e-05,-0.41532,-0.00012568,-1247.3,1.8094
69,17.129,3.6242,0,0.00015267,1523.9,5.1902e-05,18.874,4.9376e-05,-0.10936,-0.00015217,-1514.4,1.6362
70,15.989,3.6275,0,0.00018001,1796.9,6.0336e-05,12.07,5.8754e-05,0.18686,-0.0001796,-1790.7,1.4659
71,14.828,3.6252,0,0.00020871,2083.2,6.9411e-05,6.7948,6.8366e-05,-1.0577,-0.00020836,-2080.3,1.2973
72,13.66,3.6286,0,0.00023835,2378.4,7.8964e-05,2.5067,7.8056e-05,-4.3156,-0.00023803,-2379.3,1.1334
73,12.488,3.6209,0,0.00026871,2680.4,8.9335e-05,0.94692,8.7209e-05,-15.024,-0.00026846,-2687.4,0.97535
74,11.301,3.6137,0,0.00029989,2989.6,0.00010026,-1.0264,9.6029e-05,-32.832,-0.00029973,-3006.4,0.82299
75,10.097,3.6077,0,0.00033139,3300.5,0.00011234,-0.67394,0.00010323,-69.177,-0.00033141,-3334.9,0.67689
76,7.6013,3.5889,0,0.00040061,3980.6,0.00014989,62.024,0.00010506,-274.84,-0.00040088,-4076.3,0.40598
77,8.8637,3.5972,0,0.00036264,3606.6,0.00012521,-0.04769,0.00010864,-124.51,-0.00036286,-3667.2,0.53734
78,4.8512,4.1,0,0.00051591,4371.5,0.00018734,421.02,0.00010759,-178.19,-0.00043022,-4219.1,0.16421
79,2.1459,0.84496,0,0.00060114,5870.5,0.00023604,403.4,0.0001576,-185.99,-0.00058153,-5739.5,0.02255
80,2.8187,2.2201,0,0.001122,10793,0.0005389,2407.5,0.00025452,270.8,-0.0010185,-9294.4,0.04787
81,2.0422,4.5104,0,0.00059014,5784.4,0.00017971,-635.42,0.00015175,-845.5,-0.00060375,-6522,0.02183
82,4.0892,0.9295,0,0.00043117,3889,0.00015614,273.7,0.00010546,-107.07,-0.00038493,-3791.7,0.10754
83,4.3941,1.3018,0,0.00051996,4575.1,0.00017936,150.93,0.0001155,-328.85,-0.00045896,-4645.1,0.1311
84,4.3107,2.0768,0,0.00070018,5320.1,0.00016815,-1414.3,5.4525e-05,-2268,-0.00058985,-7109.6,0.12797
85,2.6229,2.7739,0,0.00095532,8844.6,0.00035146,956.23,0.00027817,405.6,-0.00086062,-8150.8,0.042047
86,3.9428,2.6896,0,0.00098459,9554.5,0.00040418,788.58,0.00023221,-503.5,-0.00094468,-9346.3,0.10521
87,5.2013,2.59,0,0.00058646,5406.7,0.00026445,141.97,2.6523e-05,-1645.7,-0.00054397,-5932.2,0.19346
88,3.648,2.1431,0,0.0016232,14786,0.00072091,1815.7,0.00023097,-1865.5,-0.0014456,-14463,0.086125
89,3.8587,2.0384,0,0.00094255,9088.7,0.00048823,2441.7,0.00018709,179.03,-0.00084352,-7564.6,0.098468
90,3.8587,2.0384,0.1,0.00094255,9088.7,0.00084352,7564.6,-0.00018709,-179.03,-0.00048823,-2441.7,0.098468
91,3.648,2.1431,0.1,0.0016232,14786,0.0014456,14463,-0.00023097,1865.5,-0.00072091,-1815.7,0.086125
92,5.2013,2.59,0.1,0.00058646,5406.7,0.00054397,5932.2,-2.6523e-05,1645.7,-0.00026445,-141.97,0.19346
93,3.9428,2.6896,0.1,0.00098459,9554.5,0.00094468,9346.3,-0.00023221,503.5,-0.00040418,-788.58,0.10521
94,2.6229,2.7739,0.1,0.00095532,8844.6,0.00086062,8150.8,-0.00027817,-405.6,-0.00035146,-956.23,0.042047
95,4.3107,2.0768,0.1,0.00070018,5320.1,0.00058985,7109.6,-5.4525e-05,2268,-0.00016815,1414.3,0.12797
96,4.3941,1.3018,0.1,0.00051996,4575.1,0.00045896,4645.1,-0.0001155,328.85,-0.00017936,-150.93,0.1311
97,4.0892,0.9295,0.1,0.00043117,3889,0.00038493,3791.7,-0.00010546,107.07,-0.00015614,-273.7,0.10754
98,2.0422,4.5104,0.1,0.00059014,5784.4,0.00060375,6522,-0.00015175,845.5,-0.00017971,635.42,0.02183
99,2.8187,2.2201,0.1,0.001122,10793,0.0010185,9294.4,-0.00025452,-270.8,-0.0005389,-2407.5,0.04787
100,2.1459,0.84496,0.1,0.00060114,5870.5,0.00058153,5739.5,-0.0001576,185.99,-0.00023604,-403.4,0.02255
101,4.8512,4.1,0.1,0.00051591,4371.5,0.00043022,4219.1,-0.00010759,178.19,-0.00018734,-421.02,0.16421
102,8.8637,3.5972,0.1,0.00036264,3606.6,0.00036286,3667.2,-0.00010864,124.51,-0.00012521,0.04769,0.53734
103,7.6013,3.5889,0.1,0.00040061,3980.6,0.00040088,4076.3,-0.00010506,274.84,-0.00014989,-62.024,0.40598
104,10.097,3.6077,0.1,0.00033139,3300.5,0.00033141,3334.9,-0.00010323,69.177,-0.00011234,0.67394,0.67689
105,11.301,3.6137,0.1,0.00029989,2989.6,0.00029973,3006.4,-9.6029e-05,32.832,-0.00010026,1.0264,0.82299
106,12.488,3.6209,0.1,0.00026871,2680.4,0.00026846,2687.4,-8.7209e-05,15.024,-8.9335e-05,-0.94692,0.97535
107,13.66,3.6286,0.1,0.00023835,2378.4,0.00023803,2379.3,-7.8056e-05,4.3156,-7.8964e-05,-2.5067,1.1334
108,14.828,3.6252,0.1,0.00020871,2083.2,0.00020836,2080.3,-6.8366e-05,1.0577,-6.9411e-05,-6.7948,1.2973
109,15.989,3.6275,0.1,0.00018001,1796.9,0.0001796,1790.7,-5.8754e-05,-0.18686,-6.0336e-05,-12.07,1.4659
110,17.129,3.6242,0.1,0.00015267,1523.9,0.00015217,1514.4,-4.9376e-05,0.10936,-5.1902e-05,-18.874,1.6362
111,18.262,3.6256,0.1,0.00012631,1260.6,0.00012568,1247.3,-4.0274e-05,0.41532,-4.3857e-05,-26.501,1.8094
112,19.395,3.6402,0.1,0.00010091,1006.8,0.00010007,987.85,-3.1444e-05,-0.32931,-3.628e-05,-36.666,1.9856
113,20.546,3.6144,0.1,7.6245e-05,760.38,7.5038e-05,732.23,-2.2388e-05,0.20838,-2.9555e-05,-53.636,2.1676
114,21.693,3.6021,0.1,5.33e-05,531.11,5.1311e-05,486.18,-1.336e-05,0.27044,-2.415e-05,-80.808,2.3507
115,21.694,2.3918,0.1,5.3231e-05,530.69,5.1271e-05,485.75,-1.3367e-05,0.09136,-2.4119e-05,-80.697,2.3517
116,20.54,2.4058,0.1,7.6372e-05,761.95,7.5187e-05,733.58,-2.2427e-05,0.14311,-2.9633e-05,-53.998,2.1674
117,19.38,2.4152,0.1,0.00010125,1010.7,0.00010045,991.55,-3.1498e-05,0.13414,-3.6482e-05,-37.313,1.9843
118,18.262,2.4251,0.1,0.00012625,1260.6,0.00012567,1247.1,-4.0345e-05,-0.28483,-4.3798e-05,-26.223,1.8103
119,17.14,2.3983,0.1,0.00015223,1520.3,0.00015182,1511.2,-4.9283e-05,0.21344,-5.173e-05,-18.168,1.6387
120,15.983,2.4242,0.1,0.00018015,1799.4,0.00017985,1793.1,-5.8806e-05,-0.043011,-6.0459e-05,-12.466,1.466
121,14.833,2.4331,0.1,0.00020848,2082.5,0.0002083,2079.7,-6.8521e-05,-0.23122,-6.9212e-05,-5.4249,1.299
122,13.667,2.4488,0.1,0.00023792,2376.9,0.0002379,2378.2,-7.8293e-05,2.4988,-7.8597e-05,0.21481,1.1352
123,12.493,2.4345,0.1,0.00026813,2678.8,0.00026832,2686.3,-8.7184e-05,15.201,-8.9224e-05,-0.12577,0.97696
124,11.303,2.4193,0.1,0.00029901,2987.4,0.00029954,3005.2,-9.5537e-05,36.748,-0.00010054,-0.82007,0.82405
125,10.093,2.4118,0.1,0.00033089,3306.1,0.00033206,3343.3,-0.00010259,77.6,-0.00011313,-1.6485,0.67736
126,8.8511,2.4046,0.1,0.0003665,3661.9,0.00036884,3735.5,-0.00011012,136.76,-0.00012651,13.633,0.53686
127,7.5705,2.383,0.1,0.00041187,4108.3,0.00041332,4177.8,-0.00012249,151.91,-0.00014379,-8.104,0.40391
128,6.296,2.3883,0.1,0.00039883,3856.5,0.00038318,3780.2,-0.00011992,0.092265,-0.00013968,-148.36,0.28473
129,6.3729,3.5361,0.1,0.00042916,4244.2,0.00042861,4370.2,-0.00011842,260.01,-0.00015253,3.733,0.29054
130,5.3307,5.2389,0.1,0.00047045,4426,0.00044984,4654.9,-0.00011147,437.45,-0.00016353,46.263,0.19493
131,6.2634,4.7245,0.1,0.00043692,4280.2,0.00042288,4124.9,-0.00013595,-73.953,-0.00015701,-232.19,0.27664
132,7.6795,4.7753,0.1,0.00039225,3917.1,0.00039545,4021.1,-0.00011861,158.66,-0.00013287,51.54,0.40963
133,8.9461,4.7858,0.1,0.00036433,3640.3,0.00036493,3659.8,-0.00011639,43.363,-0.00012267,-3.8152,0.54235
134,10.156,4.8038,0.1,0.00033129,3310,0.00033171,3324.6,-0.00010677,29.992,-0.00011084,-0.59078,0.68006
135,11.346,4.8086,0.1,0.00029948,2992.1,0.0002996,2997.4,-9.7445e-05,14.227,-9.9802e-05,-3.4844,0.82494
136,12.523,4.813,0.1,0.00026845,2681.8,0.00026843,2683.5,-8.8293e-05,3.2788,-8.8715e-05,0.10503,0.97663
137,13.684,4.8167,0.1,0.00023838,2381.3,0.00023821,2378.9,-7.8394e-05,0.029239,-7.9043e-05,-4.8472,1.1336
138,14.837,4.8214,0.1,0.00020907,2088.2,0.0002088,2083.3,-6.8457e-05,0.10751,-6.9793e-05,-9.9353,1.2958
139,15.982,4.8127,0.1,0.0001807,1804.7,0.00018035,1797.7,-5.8832e-05,0.56115,-6.0827e-05,-14.428,1.4623
140,17.123,4.8217,0.1,0.0001532,1529.7,0.00015273,1519.9,-4.9614e-05,-0.48447,-5.2069e-05,-18.928,1.633
141,18.268,4.8324,0.1,0.00012633,1261.1,0.00012577,1249.1,-4.0463e-05,0.028385,-4.3618e-05,-23.679,1.8082
142,19.411,4.8294,0.1,0.00010039,1001.7,9.9699e-05,986.54,-3.1552e-05,0.3695,-3.5587e-05,-29.946,1.9863
143,20.552,4.8157,0.1,7.5406e-05,751.98,7.4481e-05,730.93,-2.284e-05,-0.29915,-2.815e-05,-40.199,2.1668
144,21.696,4.8079,0.1,5.1432e-05,512.4,5.0084e-05,481.94,-1.404e-05,0.13923,-2.156e-05,-56.365,2.3496
145,22.847,4.807,0.1,2.9264e-05,291.31,2.6807e-05,240.28,-5.1561e-06,0.12052,-1.6322e-05,-83.776,2.5349
146,22.846,3.6002,0.1,3.2636e-05,324.92,2.8592e-05,244.93,-3.9997e-06,0.04378,-2.0466e-05,-123.67,2.5362
147,22.845,2.3944,0.1,3.2582e-05,324.69,2.8573e-05,244.73,-4.0026e-06,-0.026076,-2.045e-05,-123.6,2.5369
148,22.852,1.1958,0.1,2.9133e-05,289.93,2.6656e-05,238.68,-5.0996e-06,0.084811,-1.629e-05,-83.999,2.5383
149,21.706,1.1932,0.1,5.122e-05,510.2,4.9857e-05,479.58,-1.3949e-05,0.17742,-2.1512e-05,-56.651,2.3538
150,20.558,1.204,0.1,7.5354e-05,751.42,7.4401e-05,729.75,-2.2763e-05,-0.3041,-2.8227e-05,-41.356,2.1703
151,19.413,1.2069,0.1,0.00010031,1000.9,9.9605e-05,985.32,-3.1498e-05,0.27061,-3.5618e-05,-30.685,1.9893
152,18.275,1.2049,0.1,0.00012616,1259.2,0.00012559,1247.3,-4.0438e-05,-0.18902,-4.3518e-05,-23.33,1.8118
153,17.131,1.207,0.1,0.00015306,1528.2,0.00015259,1518.6,-4.9537e-05,-0.11488,-5.2032e-05,-18.861,1.6367
154,15.98,1.2181,0.1,0.00018076,1804.9,0.00018037,1797.8,-5.8833e-05,0.49659,-6.0856e-05,-14.7,1.4647
155,14.836,1.23,0.1,0.00020919,2089,0.00020887,2083.8,-6.847e-05,0.023844,-6.9851e-05,-10.354,1.2983
156,13.681,1.2487,0.1,0.00023852,2382,0.00023832,2380.6,-7.8406e-05,0.83431,-7.9018e-05,-3.7653,1.1359
157,12.519,1.2221,0.1,0.00026882,2684.6,0.00026877,2688.1,-8.8061e-05,7.006,-8.9014e-05,-0.15294,0.97877
158,11.342,1.2175,0.1,0.00030032,2999,0.00030045,3009.1,-9.7304e-05,20.546,-0.00010008,-0.27784,0.8271
159,10.149,1.2143,0.1,0.00033295,3324.5,0.00033327,3342.4,-0.00010637,39.045,-0.00011195,-2.8394,0.68185
160,8.9453,1.215,0.1,0.00036518,3644.4,0.00036519,3660.7,-0.0001137,62.509,-0.00012577,-28.15,0.54491
161,7.6701,1.2124,0.1,0.00039172,3894.5,0.00038847,3860.2,-0.00012194,25.208,-0.00013744,-91.23,0.41145
162,6.182,1.2949,0.1,0.00043658,4307.4,0.00043908,4567.9,-0.00010739,461.96,-0.0001577,83.924,0.27258
163,1.0084,3.9722,0.1,0.00066788,6650.6,0.00062668,6449.6,-2.5057e-06,1722.1,-0.00038545,-1155.2,0.0054192
164,1.3303,1.7636,0.1,0.00066176,6552.7,0.00063023,6649.9,-3.2475e-06,1890.2,-0.00036444,-823.7,0.0096225
165,1.4025,3.023,0.1,0.00058682,5816.4,0.00055147,5318.7,-7.712e-05,595.76,-0.0003132,-1178.1,0.011459
166,5.2724,0.80034,0.1,0.00048973,4608,0.00045472,4447.2,-0.0001292,59.769,-0.00018421,-353.52,0.1949
167,4.3045,5.4604,0.1,0.00035359,3356.8,0.00032737,3145.7,-8.8117e-05,23.881,-0.00014519,-404.95,0.11496
168,0.98005,4.996,0.1,0.00056896,5671.4,0.00054589,5488.6,-5.4071e-05,980.78,-0.00030162,-879.18,0.0043793
169,1.9944,1.4429,0.1,0.00057605,5577.4,0.00057264,6024.6,-0.00014185,656.18,-0.00019466,259.45,0.021465
170,4.3231,0.49584,0.1,0.00037439,3472.4,0.00033515,3229.9,-6.8688e-05,195.59,-0.00016888,-557.18,0.12137
171,5.0888,3.4303,0.1,0.0005922,5789,0.00061186,6834.1,-9.6963e-05,1508.3,-0.00020817,672.74,0.18395
172,4.5396,4.6846,0.1,0.00056534,5363.2,0.00053217,5272.1,-0.00014193,207.08,-0.00021561,-346.46,0.13786
173,4.1044,5.0573,0.1,0.00045292,4033.5,0.00040036,4015,-8.7605e-05,348.64,-0.00017469,-305.68,0.10404
174,2.0396,5.2322,0.1,0.00048616,4835.9,0.0004849,4871,-0.00014458,141.29,-0.00017197,-64.514,0.019303
175,2.2325,4.0531,0.1,0.0009436,9190.8,0.00096932,11050,-7.7527e-05,3184.1,-0.00037529,946.87,0.02738
176,2.4474,0.40432,0.1,0.00034785,3147.3,0.00030988,3099.1,-5.8336e-05,332.49,-0.00014584,-325.01,0.026847
177,3.8938,3.2358,0.1,0.00098311,8398.6,0.00081658,7717.8,-0.00026736,-426.47,-0.00033223,-913.85,0.10162
178,3.7578,2.3435,0.1,0.0010405,9709.5,0.00091942,8534.6,-0.0002032,99.637,-0.00049319,-2079.2,0.093336
179,3.4067,4,0.1,0.0015525,14820,0.0014902,15093,-0.00040261,871.63,-0.00055326,-260.29,0.069156
180,3.4067,4.5,0.1,0.00060397,6019.9,0.00048691,3709.8,-4.5325e-05,-289.2,-0.00043455,-3213.7,0.062751
181,3.4067,5,0.1,0.0005095,5025.3,0.00038326,2783.9,-7.3813e-06,-151.22,-0.00038901,-3018.6,0.056391
182,3.4067,5.5,0.1,0.00015796,1252.4,0.00011171,979.13,-1.5566e-05,22.863,-7.6968e-05,-438.49,0.050834
183,3.24,5.5,0.1,0.00026022,2465.6,0.00022232,1937.2,-4.0138e-05,-34.812,-0.0001456,-827.19,0.044784
184,3.24,5,0.1,0.00045847,3974.9,0.00036332,3263.9,-6.0508e-05,79.459,-0.00022957,-1190.8,0.049365
185,3.24,4.5,0.1,0.0011718,11130,0.00071758,3829.6,4.8504e-05,-1197.6,-0.00098028,-8927.5,0.054374
186,3.24,4,0.1,0.0014621,14479,0.0015159,16524,-0.00032446,2696,-0.00048747,1471.2,0.061188
187,3.4067,2,0.1,0.0022676,21370,0.0019602,17302,-0.0004161,-552.42,-0.0011912,-6375.9,0.071621
188,3.4067,1.5,0.1,0.00059522,5441.8,0.00044528,3623.2,-1.7866e-05,143.35,-0.00038935,-2647.8,0.066591
189,3.4067,1,0.1,0.00053384,5256.4,0.00045272,3764.9,-5.8289e-05,-74.616,-0.00034461,-2225.9,0.061457
190,3.4067,0.5,0.1,0.00015775,1523.1,0.0001214,829.28,-2.2312e-05,-250.55,-0.00011046,-912.86,0.056788
191,3.24,0.5,0.1,0.00018732,1795.7,0.00019903,2367.8,-3.3316e-05,622.04,-4.6095e-05,526.02,0.046411
192,3.24,1,0.1,0.00051562,5115.4,0.00036448,2423.9,1.2618e-05,-219.9,-0.00042026,-3472.4,0.051006
193,3.24,1.5,0.1,0.00094946,9429.4,0.00087515,7933.5,-0.00017369,52.939,-0.00051525,-2513.4,0.056824
194,3.24,2,0.1,0.0022578,21011,0.0020477,20193,-0.00037764,1969.2,-0.001011,-2789.5,0.063425
195,3.4067,6,0.1,9.8732e-05,986.64,9.484e-05,896.02,-2.2937e-05,11.089,-4.6752e-05,-167.85,0.045521
196,4.5507,6,0.1,0.000306,3043.9,0.00030379,3039.1,-8.1199e-05,146.44,-0.00011885,-136.43,0.12819
197,5.6948,6,0.1,0.00046015,4563.1,0.00045334,4478,-0.00013525,55.573,-0.00017112,-213.93,0.21866
198,6.8389,6,0.1,0.00038932,3885.5,0.00040026,4243.6,-9.2606e-05,540.42,-0.00013813,198.34,0.32037
199,7.983,6,0.1,0.00039834,3979.1,0.00039365,3847,-0.00013084,-93.833,-0.00014087,-169.23,0.43255
200,9.127,6,0.1,0.00036002,3597.5,0.00036123,3633.8,-0.00011751,36.706,-0.00011762,35.823,0.55494
201,10.271,6,0.1,0.00033212,3318.8,0.00033157,3302.9,-0.00010905,-7.7451,-0.00011122,-23.987,0.6868
202,11.415,6,0.1,0.00029943,2992.2,0.00029948,2993.8,-9.8226e-05,5.6014,-9.9282e-05,-2.334,0.8273
203,12.559,6,0.1,0.00026867,2684.8,0.00026852,2680.5,-8.8336e-05,-0.79542,-8.9282e-05,-7.9027,0.97562
204,13.703,6,0.1,0.00023834,2381.7,0.0002382,2377.6,-7.8196e-05,0.36556,-7.9386e-05,-8.5741,1.1309
205,14.847,6,0.1,0.00020895,2088,0.00020878,2083,-6.8513e-05,-0.41627,-6.9731e-05,-9.5736,1.2925
206,15.991,6,0.1,0.00018029,1801.7,0.0001801,1796.1,-5.9027e-05,-0.59567,-6.0342e-05,-10.476,1.4594
207,17.136,6,0.1,0.00015245,1523.4,0.00015225,1517.8,-4.9666e-05,0.63532,-5.133e-05,-11.867,1.6311
208,18.28,6,0.1,0.00012536,1252.7,0.00012514,1246.3,-4.0774e-05,-0.2967,-4.2393e-05,-12.465,1.8067
209,19.424,6,0.1,9.8929e-05,988.61,9.8679e-05,981.4,-3.1966e-05,-0.2167,-3.3809e-05,-14.065,1.9855
210,20.568,6,0.1,7.3154e-05,731.03,7.2885e-05,723.39,-2.3337e-05,0.41565,-2.5447e-05,-15.442,2.1669
211,21.712,6,0.1,4.8013e-05,479.78,4.7719e-05,471.54,-1.5112e-05,-0.54596,-1.7113e-05,-15.582,2.3501
212,22.856,6,0.1,2.2981e-05,229.61,2.2692e-05,221.88,-6.8847e-06,-0.35093,-8.762e-06,-14.456,2.5345
213,24,6,0.1,2.8972e-06,28.952,1.7912e-06,11.325,4.6614e-07,1.3694,-2.5498e-06,-21.291,2.7194
214,24,4.8,0.1,1.4553e-05,145.33,5.2931e-06,4.3367,4.3513e-06,-2.7397,-1.4503e-05,-144.41,2.7212
215,24,3.6,0.1,1.8504e-05,184.68,6.5173e-06,3.1495,5.6731e-06,-3.1929,-1.8473e-05,-184.62,2.7226
216,24,2.4,0.1,1.846e-05,184.24,6.4809e-06,2.8793,5.6714e-06,-3.2031,-1.8435e-05,-184.33,2.7234
217,24,1.2,0.1,1.4491e-05,144.71,5.207e-06,3.2329,4.3417e-06,-3.2679,-1.447e-05,-144.61,2.7237
218,0,1.2,0.1,0.00040125,3962.8,0.00052793,7826.1,7.6503e-06,3916.9,-6.3491e-06,3811.8,0
219,0,2.4,0.1,0.00041236,4088.2,0.0005381,7998.6,5.6346e-05,4378.9,-5.2037e-05,3564.6,0
220,0,3.6,0.1,0.00038403,3701.6,0.00049421,7346.7,1.4064e-05,3739.1,-1.0046e-05,3557.9,0
221,0,4.8,0.1,0.00037231,3691.9,0.00049067,7265.3,1.5297e-05,3693.6,-1.5248e-05,3464.1,0
222,24,0,0.1,2.8248e-06,28.228,1.7391e-06,10.889,4.5404e-07,1.2334,-2.4918e-06,-20.9,2.7237
223,22.856,0,0.1,2.289e-05,228.7,2.2602e-05,221.01,-6.8411e-06,-0.21165,-8.7419e-06,-14.494,2.5387
224,21.712,0,0.1,4.7983e-05,479.48,4.7698e-05,471.49,-1.5109e-05,-0.41545,-1.7079e-05,-15.215,2.3543
225,20.568,0,0.1,7.3165e-05,731.13,7.2907e-05,723.82,-2.3368e-05,0.44371,-2.5401e-05,-14.83,2.1711
226,19.424,0,0.1,9.899e-05,989.22,9.8735e-05,981.88,-3.1992e-05,-0.35964,-3.3831e-05,-14.178,1.9898
227,18.28,0,0.1,0.00012533,1252.5,0.00012512,1246.3,-4.0683e-05,0.55091,-4.2447e-05,-12.704,1.8109
228,17.136,0,0.1,0.00015247,1523.7,0.00015228,1518,-4.973e-05,0.15564,-5.1288e-05,-11.549,1.6353
229,15.991,0,0.1,0.00018036,1802.3,0.00018017,1797,-5.9057e-05,-0.50238,-6.0341e-05,-10.153,1.4637
230,14.847,0,0.1,0.00020904,2089,0.00020889,2084.4,-6.8478e-05,0.42234,-6.9798e-05,-9.4953,1.2967
231,13.703,0,0.1,0.00023846,2382.9,0.00023832,2378.8,-7.8321e-05,-0.27719,-7.9341e-05,-7.9438,1.1352
232,12.559,0,0.1,0.0002689,2687.2,0.00026877,2683.1,-8.8405e-05,-0.5022,-8.9346e-05,-7.5745,0.97989
233,11.415,0,0.1,0.00030016,2999.5,0.00030008,2997.2,-9.8498e-05,2.4531,-9.9762e-05,-7.0411,0.83159
234,10.271,0,0.1,0.00033294,3327,0.00033279,3323,-0.00010912,2.5713,-0.00011088,-10.654,0.69113
235,9.127,0,0.1,0.00036494,3645.9,0.00036599,3679.8,-0.00011716,49.606,-0.00012132,18.324,0.55936
236,7.983,0,0.1,0.00039705,3960.8,0.00039702,3982.5,-0.00012287,76.238,-0.00013709,-30.597,0.43713
237,6.8389,0,0.1,0.00044001,4389.9,0.00043461,4254.3,-0.00014225,-80.019,-0.00015678,-189.19,0.32528
238,5.6948,0,0.1,0.00042842,4173.7,0.00042196,4316,-0.00011237,301.3,-0.0001525,-0.26277,0.22445
239,4.5507,0,0.1,0.00031031,3029.2,0.00029861,2929.4,-7.7623e-05,102.56,-0.00012695,-268.04,0.13455
240,3.4067,0,0.1,0.00015675,1566.4,0.00015696,1582,-4.1369e-05,91.885,-6.0367e-05,-50.861,0.05246
241,3.24,0,0.1,0.00014708,1469.8,8.8408e-05,293.62,-3.0465e-06,-393.54,-0.00013619,-1393.9,0.042413
242,2.16,0,0.1,0.00061167,6004.3,0.00057629,5433.1,-0.00013861,61.618,-0.00028641,-1048.9,0.018298
243,1.08,0,0.1,0.00055041,5465.8,0.00054814,5600.9,-0.0001148,619.89,-0.00023007,-246.21,0.0036341
244,0,0,0.1,0.00020267,2025.3,0.00023149,2954.3,-8.5531e-07,1208.5,-6.4035e-05,733.82,0
245,0,6,0.1,0.00013227,1321.8,0.00015627,2039.6,-8.8218e-06,799.18,-2.8775e-05,649.26,0
246,1.08,6,0.1,0.00063406,6333.2,0.00061962,5919,-0.0002159,-358.75,-0.00023047,-468.24,0.0031661
247,2.16,6,0.1,0.00040614,4049.5,0.00040861,4185.6,-9.7772e-05,380.88,-0.00015788,-70.711,0.017689
248,3.24,6,0.1,9.4259e-05,941.94,7.4551e-05,484.47,-1.6493e-05,-199.61,-6.8436e-05,-589.88,0.040689
249,2.16,6,0,0.00040614,4049.5,0.00015788,70.711,9.7772e-05,-380.88,-0.00040861,-4185.6,0.017689
250,1.08,6,0,0.00063406,6333.2,0.00023047,468.24,0.0002159,358.75,-0.00061962,-5919,0.0031661
251,3.24,6,0,9.4259e-05,941.94,6.8436e-05,589.88,1.6493e-05,199.61,-7.4551e-05,-484.47,0.040689
252,0,6,0,0.00013227,1321.8,2.8775e-05,-649.26,8.8218e-06,-799.18,-0.00015627,-2039.6,0
253,1.08,0,0,0.00055041,5465.8,0.00023007,246.21,0.0001148,-619.89,-0.00054814,-5600.9,0.0036341
254,2.16,0,0,0.00061167,6004.3,0.00028641,1048.9,0.00013861,-61.618,-0.00057629,-5433.1,0.018298
255,3.24,0,0,0.00014708,1469.8,0.00013619,1393.9,3.0465e-06,393.54,-8.8408e-05,-293.62,0.042413
256,0,0,0,0.00020267,2025.3,6.4035e-05,-733.82,8.5531e-07,-1208.5,-0.00023149,-2954.3,0
257,4.5507,0,0,0.00031031,3029.2,0.00012695,268.04,7.7623e-05,-102.56,-0.00029861,-2929.4,0.13455
258,5.6948,0,0,0.00042842,4173.7,0.0001525,0.26277,0.00011237,-301.3,-0.00042196,-4316,0.22445
259,6.8389,0,0,0.00044001,4389.9,0.00015678,189.19,0.00014225,80.019,-0.00043461,-4254.3,0.32528
260,7.983,0,0,0.00039705,3960.8,0.00013709,30.597,0.00012287,-76.238,-0.00039702,-3982.5,0.43713
261,9.127,0,0,0.00036494,3645.9,0.00012132,-18.324,0.00011716,-49.606,-0.00036599,-3679.8,0.55936
262,10.271,0,0,0.00033294,3327,0.00011088,10.654,0.00010912,-2.5713,-0.00033279,-3323,0.69113
263,11.415,0,0,0.00030016,2999.5,9.9762e-05,7.0411,9.8498e-05,-2.4531,-0.00030008,-2997.2,0.83159
264,12.559,0,0,0.0002689,2687.2,8.9346e-05,7.5745,8.8405e-05,0.5022,-0.00026877,-2683.1,0.97989
265,13.703,0,0,0.00023846,2382.9,7.9341e-05,7.9438,7.8321e-05,0.27719,-0.00023832,-2378.8,1.1352
266,14.847,0,0,0.00020904,2089,6.9798e-05,9.4953,6.8478e-05,-0.42234,-0.00020889,-2084.4,1.2967
267,15.991,0,0,0.00018036,1802.3,6.0341e-05,10.153,5.9057e-05,0.50238,-0.00018017,-1797,1.4637
268,17.136,0,0,0.00015247,1523.7,5.1288e-05,11.549,4.973e-05,-0.15564,-0.00015228,-1518,1.6353
269,18.28,0,0,0.00012533,1252.5,4.2447e-05,12.704,4.0683e-05,-0.55091,-0.00012512,-1246.3,1.8109
270,19.424,0,0,9.899e-05,989.22,3.3831e-05,14.178,3.1992e-05,0.35963,-9.8735e-05,-981.88,1.9898
271,20.568,0,0,7.3165e-05,731.13,2.5401e-05,14.83,2.3368e-05,-0.44371,-7.2907e-05,-723.82,2.1711
272,21.712,0,0,4.7983e-05,479.48,1.7079e-05,15.215,1.5109e-05,0.41544,-4.7698e-05,-471.49,2.3543
273,22.856,0,0,2.289e-05,228.7,8.7419e-06,14.494,6.8411e-06,0.21165,-2.2602e-05,-221.01,2.5387
274,3.4067,0,0,0.00015675,1566.4,6.0367e-05,50.861,4.1369e-05,-91.885,-0.00015696,-1582,0.05246
275,24,0,0,2.8248e-06,28.228,2.4918e-06,20.9,-4.5404e-07,-1.2334,-1.7391e-06,-10.889,2.7237
276,0,4.8,0,0.00037231,3691.9,1.5248e-05,-3464.1,-1.5297e-05,-3693.6,-0.00049067,-7265.3,0
277,0,3.6,0,0.00038403,3701.6,1.0046e-05,-3557.9,-1.4064e-05,-3739.1,-0.00049421,-7346.7,0
278,0,2.4,0,0.00041236,4088.2,5.2037e-05,-3564.6,-5.6346e-05,-4378.9,-0.0005381,-7998.6,0
279,0,1.2,0,0.00040125,3962.8,6.3491e-06,-3811.8,-7.6503e-06,-3916.9,-0.00052793,-7826.1,0
280,24,1.2,0,1.4491e-05,144.71,1.447e-05,144.61,-4.3417e-06,3.2679,-5.207e-06,-3.2329,2.7237
281,24,2.4,0,1.846e-05,184.24,1.8435e-05,184.33,-5.6714e-06,3.2031,-6.4809e-06,-2.8793,2.7234
282,24,3.6,0,1.8504e-05,184.68,1.8473e-05,184.62,-5.6731e-06,3.1929,-6.5173e-06,-3.1495,2.7226
283,24,4.8,0,1.4553e-05,145.33,1.4503e-05,144.41,-4.3513e-06,2.7397,-5.2931e-06,-4.3367,2.7212
284,24,6,0,2.8972e-06,28.952,2.5498e-06,21.291,-4.6614e-07,-1.3694,-1.7912e-06,-11.325,2.7194
285,22.856,6,0,2.2981e-05,229.61,8.762e-06,14.456,6.8847e-06,0.35093,-2.2692e-05,-221.88,2.5345
286,21.712,6,0,4.8013e-05,479.78,1.7113e-05,15.582,1.5112e-05,0.54596,-4.7719e-05,-471.54,2.3501
287,20.568,6,0,7.3154e-05,731.03,2.5447e-05,15.442,2.3337e-05,-0.41565,-7.2885e-05,-723.39,2.1669
288,19.424,6,0,9.8929e-05,988.61,3.3809e-05,14.065,3.1966e-05,0.2167,-9.8679e-05,-981.4,1.9855
289,18.28,6,0,0.00012536,1252.7,4.2393e-05,12.465,4.0774e-05,0.2967,-0.00012514,-1246.3,1.8067
290,17.136,6,0,0.00015245,1523.4,5.133e-05,11.867,4.9666e-05,-0.63532,-0.00015225,-1517.8,1.6311
291,15.991,6,0,0.00018029,1801.7,6.0342e-05,10.476,5.9027e-05,0.59567,-0.0001801,-1796.1,1.4594
292,14.847,6,0,0.00020895,2088,6.9731e-05,9.5736,6.8513e-05,0.41627,-0.00020878,-2083,1.2925
293,13.703,6,0,0.00023834,2381.7,7.9386e-05,8.5741,7.8196e-05,-0.36557,-0.0002382,-2377.6,1.1309
294,12.559,6,0,0.00026867,2684.8,8.9282e-05,7.9027,8.8336e-05,0.79542,-0.00026852,-2680.5,0.97562
295,11.415,6,0,0.00029943,2992.2,9.9282e-05,2.334,9.8226e-05,-5.6014,-0.00029948,-2993.8,0.8273
296,10.271,6,0,0.00033212,3318.8,0.00011122,23.987,0.00010905,7.7451,-0.00033157,-3302.9,0.6868
297,9.127,6,0,0.00036002,3597.5,0.00011762,-35.823,0.00011751,-36.706,-0.00036123,-3633.8,0.55494
298,7.983,6,0,0.00039834,3979.1,0.00014087,169.23,0.00013084,93.833,-0.00039365,-3847,0.43255
299,6.8389,6,0,0.00038932,3885.5,0.00013813,-198.34,9.2606e-05,-540.42,-0.00040026,-4243.6,0.32037
300,5.6948,6,0,0.00046015,4563.1,0.00017112,213.93,0.00013525,-55.573,-0.00045334,-4478,0.21866
301,4.5507,6,0,0.000306,3043.9,0.00011885,136.43,8.1199e-05,-146.44,-0.00030379,-3039.1,0.12819
302,3.4067,6,0,9.8732e-05,986.64,4.6752e-05,167.85,2.2937e-05,-11.089,-9.484e-05,-896.02,0.045521
303,3.24,1.5,0,0.00094946,9429.4,0.00051525,2513.4,0.00017369,-52.939,-0.00087515,-7933.5,0.056824
304,3.24,1,0,0.00051562,5115.4,0.00042026,3472.4,-1.2618e-05,219.9,-0.00036448,-2423.9,0.051006
305,3.24,0.5,0,0.00018732,1795.7,4.6095e-05,-526.02,3.3316e-05,-622.04,-0.00019903,-2367.8,0.046411
306,3.24,2,0,0.0022578,21011,0.001011,2789.5,0.00037764,-1969.2,-0.0020477,-20193,0.063425
307,3.4067,0.5,0,0.00015775,1523.1,0.00011046,912.86,2.2312e-05,250.55,-0.0001214,-829.28,0.056788
308,3.4067,1,0,0.00053384,5256.4,0.00034461,2225.9,5.8289e-05,74.616,-0.00045272,-3764.9,0.061457
309,3.4067,1.5,0,0.00059522,5441.8,0.00038935,2647.8,1.7866e-05,-143.35,-0.00044528,-3623.2,0.066591
310,3.4067,2,0,0.0022676,21370,0.0011912,6375.9,0.0004161,552.42,-0.0019602,-17302,0.071621
311,3.24,4.5,0,0.0011718,11130,0.00098028,8927.5,-4.8504e-05,1197.6,-0.00071758,-3829.6,0.054374
312,3.24,5,0,0.00045847,3974.9,0.00022957,1190.8,6.0508e-05,-79.459,-0.00036332,-3263.9,0.049365
313,3.24,5.5,0,0.00026022,2465.6,0.0001456,827.19,4.0138e-05,34.812,-0.00022232,-1937.2,0.044784
314,3.24,4,0,0.0014621,14479,0.00048747,-1471.2,0.00032446,-2696,-0.0015159,-16524,0.061188
315,3.4067,5.5,0,0.00015796,1252.4,7.6968e-05,438.49,1.5566e-05,-22.863,-0.00011171,-979.13,0.050834
316,3.4067,5,0,0.0005095,5025.3,0.00038901,3018.6,7.3813e-06,151.22,-0.00038326,-2783.9,0.056391
317,3.4067,4.5,0,0.00060397,6019.9,0.00043455,3213.7,4.5325e-05,289.2,-0.00048691,-3709.8,0.062751
318,3.4067,4,0,0.0015525,14820,0.00055326,260.29,0.00040261,-871.63,-0.0014902,-15093,0.069156
319,4.0343,2.2101,0,0.00087033,7300.7,0.00032951,323.72,0.00010889,-1333.9,-0.00073349,-7663.3,0.11009
320,3.8503,2.5166,0,0.0010125,9308.6,0.00036443,800.8,0.00028306,189.48,-0.00091315,-8798.4,0.099421
321,3.7029,2.2433,0,0.0013318,12033,0.00055271,1539.2,0.00026281,-639.01,-0.0011739,-11434,0.089786
322,3.7578,2.3435,0.05,0.0010405,1277.4,9.8153e-05,737.49,-7.9476e-13,4.4572e-06,-9.8153e-05,-737.49,0.093278
323,3.4989,2.1717,0,0.0016491,14083,0.00053871,831.13,0.00041473,-100.45,-0.0013945,-13694,0.077945
324,4.4913,3.333,0,0.00078766,7051.2,0.00026456,78.173,0.00018482,-520.97,-0.00071123,-7253.5,0.1404
325,3.2584,3.0049,0,0.00096922,8496.9,0.00031406,726.32,0.0002904,548.53,-0.00082845,-7858.1,0.067884
326,3.9183,2.9627,0,0.00098385,8716,0.00031979,487.45,0.0002781,174.19,-0.00086053,-8381,0.1037
327,3.8938,3.2358,0.05,0.00098311,475.49,3.6537e-05,274.52,-4.6117e-12,-2.0264e-05,-3.6537e-05,-274.52,0.10157
328,3.6502,3.6179,0,0.0012678,11563,0.00041678,392,0.00035821,-48.082,-0.0011507,-11385,0.085867
329,2.2966,0.62464,0,0.00047449,4426.5,0.00016483,167.99,0.00012953,-97.209,-0.00044115,-4385.1,0.024859
330,2.4474,0.40432,0.05,0.00034785,585.29,4.4974e-05,337.92,-2.0097e-13,-7.1678e-14,-4.4974e-05,-337.92,0.026818
331,2.3037,0.20216,0,0.00047976,4420.6,0.00016917,334.1,0.00013697,92.21,-0.00043462,-4202.5,0.022529
332,2.8437,0.45216,0,0.00026759,2422,8.9153e-05,-151.72,4.9408e-05,-450.35,-0.00025122,-2709.1,0.03641
333,1.8175,3.5381,0,0.00076521,7456.9,0.00034325,108.09,7.3983e-05,-1915.1,-0.00075606,-8151.6,0.018828
334,2.1374,4.2817,0,0.00076687,7426.5,0.00027722,-793.24,0.00011183,-2035.9,-0.00078345,-8762.7,0.02456
335,2.2325,4.0531,0.05,0.0009436,650.59,4.9992e-05,375.62,9.586e-12,-7.9674e-14,-4.9992e-05,-375.62,0.027341
336,2.7363,4.2765,0,0.0010577,7564.6,0.00039677,1878.9,0.00015952,96.257,-0.00070745,-6417.8,0.04125
337,1.5098,5.1141,0,0.00052756,5171.9,0.00023137,431.06,0.00010188,-541.82,-0.00051252,-5158.2,0.010553
338,2.0409,4.8713,0,0.00053815,5303.7,0.00017409,-298.59,0.0001494,-484.13,-0.00054381,-5692.6,0.020686
339,2.0396,5.2322,0.05,0.00048616,188.51,1.4485e-05,108.84,-3.0725e-21,-6.5533e-14,-1.4485e-05,-108.84,0.019273
340,2.0998,5.6161,0,0.00044615,4412.5,0.00015475,-8.8521,0.00012939,-199.4,-0.00044479,-4513.5,0.018733
341,2.6398,5.3661,0,0.00037319,3088.5,0.00010965,76.689,9.5958e-05,-26.214,-0.00030807,-3061.9,0.031542
342,4.322,4.871,0,0.00050913,4645.9,0.00018096,219.48,0.00012579,-195.05,-0.0004631,-4619.8,0.12101
343,4.2045,5.2589,0,0.00040326,3675.9,0.00015814,341.83,8.8116e-05,-184.34,-0.00036232,-3568.8,0.10949
344,4.1044,5.0573,0.05,0.00045292,290.91,2.2353e-05,167.95,1.8699e-13,5.8191e-06,-2.2353e-05,-167.95,0.10397
345,3.7556,5.0287,0,0.00048121,3638.2,0.00021758,1179.3,4.8462e-05,-91.433,-0.00032851,-2923.9,0.0801
346,4.9351,4.9618,0,0.0005179,4862.7,0.0001634,-46.566,0.00015152,-135.8,-0.00048965,-4953.3,0.16589
347,4.6954,4.3923,0,0.00054063,4823.3,0.00018897,289.81,0.00013452,-119.31,-0.00047845,-4725,0.15116
348,4.5396,4.6846,0.05,0.00056534,413.93,3.1807e-05,238.98,-9.6646e-14,-5.0692e-14,-3.1807e-05,-238.98,0.13781
349,3.9731,4.5923,0,0.00058466,4850.3,0.00024552,1182.3,0.00011793,223.67,-0.00045429,-4075.8,0.09891
350,5.7308,3.4832,0,0.00051068,5012,0.00018029,-338.65,0.00010763,-884.58,-0.00052012,-5601.3,0.23538
351,4.97,3.7651,0,0.00055406,5038,0.00016646,-361.03,0.0001328,-613.93,-0.00052026,-5520.7,0.17418
352,5.145,3.0101,0,0.00058933,5570.7,0.00023359,-285.78,6.4354e-05,-1557.4,-0.00057781,-6382.3,0.18882
353,5.0888,3.4303,0.05,0.0005922,264.56,2.0329e-05,152.74,5.2958e-13,4.1007e-06,-2.0329e-05,-152.74,0.1839
354,4.7978,0.64809,0,0.00043206,3965,0.00017011,407.03,9.9704e-05,-121.98,-0.00038926,-3795.9,0.15749
355,4.2061,0.71267,0,0.00040278,3652.6,0.00015617,367.87,9.2154e-05,-113.16,-0.00035879,-3501.4,0.11445
356,4.3231,0.49584,0.05,0.00037439,203.36,1.5627e-05,117.41,-3.3147e-21,-2.4905e-14,-1.5627e-05,-117.41,0.12131
357,4.4369,0.24792,0,0.00034235,3156.2,0.00012073,208.38,9.5044e-05,15.385,-0.00031159,-3039.9,0.12795
358,3.8649,0.49792,0,0.00026607,1897.4,9.1908e-05,376.17,4.5561e-05,27.942,-0.00018058,-1671.2,0.088731
359,1.6623,1.6033,0,0.00061891,5976.3,0.00027748,266.59,7.329e-05,-1267.6,-0.00060011,-6327.3,0.014996
360,2.0701,1.1439,0,0.00058859,5695.2,0.00019611,-72.603,0.00016761,-286.72,-0.00057573,-5871.9,0.022197
361,2.4065,1.8315,0,0.00084905,8121,0.00034128,882.47,0.00022225,-11.929,-0.00079415,-7648.7,0.033086
362,1.9944,1.4429,0.05,0.00057605,250.73,1.9266e-05,144.76,1.1601e-12,-3.0706e-14,-1.9266e-05,-144.76,0.02143
363,2.6172,1.4715,0,0.00076276,6594.7,0.000262,428.6,0.00018045,-184.17,-0.00065363,-6451.1,0.03741
364,0.99423,4.4841,0,0.00061842,6153,0.00034344,1016.5,2.8321e-05,-1351.2,-0.00058622,-5968.6,0.0049952
365,0.98005,4.996,0.05,0.00056896,58.861,4.5229e-06,33.983,-3.9851e-15,-7.2084e-15,-4.5229e-06,-33.983,0.0043476
366,1.03,5.498,0,0.00060151,5944.4,0.00026594,672.9,0.0001349,-311.68,-0.00058256,-5702.3,0.0040897
367,0.49003,4.898,0,0.00047064,4610.9,0.00015104,-1348,2.4533e-05,-2298.5,-0.00051603,-6360.1,0.0011143
368,4.8176,5.3497,0,0.00041202,3861.8,0.00014769,129.19,0.00010442,-195.89,-0.00038656,-3884.9,0.15409
369,4.3045,5.4604,0.05,0.00035359,99.236,7.6253e-06,57.294,2.7422e-13,2.1799e-08,-7.6253e-06,-57.294,0.1149
370,4.4276,5.7302,0,0.0003298,3172.9,0.00011921,174.48,9.6061e-05,0.51416,-0.00031418,-3081.8,0.12156
371,3.8556,5.4802,0,0.00025578,1831.8,7.3509e-05,139.43,5.0749e-05,-31.575,-0.00018087,-1771.9,0.08259
372,5.7272,1.0476,0,0.00046315,4438.5,0.00014547,-56.656,0.00014324,-73.419,-0.00044637,-4503.5,0.23306
373,4.8332,1.0511,0,0.00050484,4451.8,0.00015538,53.857,0.00013768,-79.109,-0.00044577,-4463,0.1622
374,5.2724,0.80034,0.05,0.00048973,80.815,6.2099e-06,46.659,2.605e-13,-3.5907e-06,-6.2099e-06,-46.659,0.19485
375,5.4836,0.40017,0,0.00045907,4387.2,0.00016579,157.65,0.00012323,-162.18,-0.00043822,-4380.7,0.20976
376,1.3664,2.3933,0,0.00062429,6164.6,0.00033833,997.21,3.948e-05,-1248.3,-0.00058966,-5975.4,0.010609
377,1.2054,3.4976,0,0.00062735,6186.7,0.00034927,1166.2,3.5646e-05,-1190.2,-0.00058485,-5852.4,0.0082345
378,1.4025,3.023,0.05,0.00058682,158.52,1.2181e-05,91.522,-9.6941e-13,-7.7931e-06,-1.2181e-05,-91.522,0.01142
379,0.70123,2.7115,0,0.00049959,4882,0.00016095,-1356.1,3.118e-05,-2331.1,-0.0005439,-6652.1,0.0027873
380,2.3212,3.5115,0,0.0010245,9960.8,0.00039938,-153.79,0.00018754,-1745.4,-0.0010195,-10815,0.031389
381,1.9766,2.2688,0,0.00080854,7483.5,0.00032135,614.98,0.00017255,-503.05,-0.00074067,-7364.6,0.022635
382,1.3303,1.7636,0.05,0.00066176,317.56,2.4402e-05,183.34,8.1248e-13,2.181e-05,-2.4402e-05,-183.34,0.0095867
383,1.2051,0.88179,0,0.00060608,5943.4,0.00029541,521.06,5.8637e-05,-1257.9,-0.00058695,-6108.6,0.0069737
384,0.66514,1.4818,0,0.0005315,5160,0.00018205,-1519.2,-4.2208e-07,-2890.2,-0.00057751,-7226.2,0.0023407
385,1.5253,4.2413,0,0.00062901,6103.5,0.00028215,256.65,7.5798e-05,-1293.8,-0.00061345,-6472.5,0.012378
386,1.0084,3.9722,0.05,0.00066788,85.068,6.5367e-06,49.114,-6.7833e-14,-1.0418e-14,-6.5367e-06,-49.114,0.0053807
387,0.5042,3.7861,0,0.00052595,5055.9,0.00019308,-1236.5,-4.9376e-06,-2724.3,-0.00055662,-6869.4,0.0013494
388,6.926,1.2536,0,0.00041415,4090.7,0.00014721,0.96553,0.00011423,-246.87,-0.00041298,-4208.1,0.33965
389,6.239,1.8416,0,0.0004177,4074.6,0.0001424,-15.019,0.0001197,-185.58,-0.00041089,-4172.2,0.27912
390,5.2464,1.6858,0,0.00056838,4783.8,0.00016127,-761.57,8.0213e-05,-1370.6,-0.00051206,-5820.7,0.19622
391,6.182,1.2949,0.05,0.00043658,194.39,1.4937e-05,112.23,-1.0916e-13,-2.3806e-14,-1.4937e-05,-112.23,0.27254
392,6.5104,0.64746,0,0.00043829,4327.3,0.00015513,36.816,0.00012523,-187.84,-0.00043516,-4398.4,0.29895
393,8.3077,1.2137,0,0.00037845,3769.1,0.00013155,59.306,0.00011784,-43.713,-0.0003768,-3760.2,0.47661
394,7.6203,1.7977,0,0.0004018,3998.8,0.00014051,48.859,0.0001221,-89.474,-0.00040067,-4017.3,0.4081
395,7.6701,1.2124,0.05,0.00039172,55.016,4.2275e-06,31.764,-8.9671e-22,4.2775e-06,-4.2275e-06,-31.764,0.41142
396,7.8265,0.60618,0,0.00039438,3925.6,0.0001372,60.434,0.00012229,-51.577,-0.00039257,-3920,0.42463
397,9.5472,1.2147,0,0.00034907,3484.4,0.00011886,15.473,0.00011004,-50.767,-0.00034923,-3501.5,0.61211
398,8.8982,1.8098,0,0.00036584,3652.4,0.0001261,6.992,0.00011189,-99.829,-0.00036696,-3697.7,0.54127
399,8.9453,1.215,0.05,0.00036518,13.01,9.997e-07,7.5113,-2.3084e-13,-1.0758e-07,-9.997e-07,-7.5113,0.54488
400,9.0362,0.60749,0,0.00036506,3644.8,0.00012146,-10.721,0.00011751,-40.426,-0.00036559,-3670.3,0.55253
401,10.746,1.2159,0,0.00031664,3161.7,0.00010601,1.5535,0.00010183,-29.838,-0.00031686,-3175.7,0.75335
402,10.121,1.8131,0,0.00033192,3314.9,0.00011252,2.0497,0.00010447,-58.375,-0.00033263,-3342.6,0.67997
403,10.149,1.2143,0.05,0.00033295,11.674,8.9706e-07,6.7402,-3.1202e-13,-2.3795e-07,-8.9706e-07,-6.7402,0.68182
404,10.21,0.60717,0,0.00033295,3325.5,0.00011054,0.14752,0.00010861,-14.325,-0.00033302,-3332.6,0.68687
405,11.93,1.2198,0,0.00028457,2841.8,9.4536e-05,0.15156,9.2687e-05,-13.743,-0.0002846,-2848.6,0.90195
406,11.322,1.8184,0,0.00029967,2992.7,0.00010029,0.4541,9.6387e-05,-28.901,-0.00029995,-3006.8,0.82591
407,11.342,1.2175,0.05,0.00030032,6.2445,4.7983e-07,3.6052,-2.8081e-14,-2.3216e-06,-4.7983e-07,-3.6052,0.82707
408,11.379,0.60875,0,0.00030024,2999.1,9.9287e-05,-1.0907,9.8516e-05,-6.8772,-0.00030025,-3003,0.82969
409,13.1,1.2354,0,0.00025367,2533.3,8.386e-05,0.78831,8.3386e-05,-2.7698,-0.00025354,-2534.3,1.0565
410,12.506,1.8283,0,0.00026848,2681,8.91e-05,-0.0032462,8.7578e-05,-11.436,-0.00026848,-2686.7,0.97818
411,12.519,1.2221,0.05,0.00026882,4.2607,3.274e-07,2.4599,-2.1752e-13,-1.7824e-06,-3.274e-07,-2.4599,0.97874
412,12.539,0.61103,0,0.00026886,2685.7,8.8767e-05,0.75693,8.8628e-05,-0.28538,-0.00026875,-2685.5,0.97965
413,14.259,1.2394,0,0.00022385,2235.5,7.442e-05,6.9533,7.3449e-05,-0.34568,-0.00022359,-2232.2,1.2164
414,13.674,1.8487,0,0.00023822,2378.6,7.8659e-05,0.66365,7.8421e-05,-1.1278,-0.00023803,-2378.8,1.1359
415,13.681,1.2487,0.05,0.00023852,3.7964,2.9172e-07,2.1919,-6.1878e-23,-4.9155e-07,-2.9172e-07,-2.1919,1.1359
416,13.692,0.62435,0,0.00023849,2382.3,7.9125e-05,5.4429,7.8398e-05,-0.012738,-0.0002383,-2379.6,1.1359
417,15.408,1.2241,0,0.00019497,1946.9,6.5349e-05,12.495,6.3652e-05,-0.25256,-0.00019462,-1940.8,1.3809
418,14.835,1.8316,0,0.00020883,2084.8,6.9445e-05,7.2435,6.8496e-05,0.10904,-0.0002085,-2081.1,1.2989
419,14.836,1.23,0.05,0.00020919,3.014,2.316e-07,1.7402,-4.9126e-23,1.046e-07,-2.316e-07,-1.7402,1.2983
420,14.842,0.61502,0,0.00020912,2088.8,6.979e-05,9.6635,6.8486e-05,-0.13097,-0.00020886,-2084,1.2978
421,16.556,1.2126,0,0.00016691,1666.5,5.6439e-05,16.745,5.4185e-05,-0.18819,-0.00016648,-1658.2,1.5501
422,15.982,1.8212,0,0.00018045,1801.1,6.0564e-05,12.881,5.882e-05,-0.22015,-0.00018002,-1794.8,1.4656
423,15.98,1.2181,0.05,0.00018076,2.8352,2.1786e-07,1.6369,5.0746e-13,-3.4177e-07,-2.1785e-07,-1.6369,1.4647
424,15.986,0.60906,0,0.00018056,1803.4,6.0568e-05,12.202,5.8951e-05,0.051269,-0.00018025,-1797.2,1.4644
425,17.703,1.2059,0,0.00013961,1393.7,4.7771e-05,21.068,4.4988e-05,0.15265,-0.00013909,-1382.9,1.7238
426,17.135,1.8026,0,0.00015265,1523,5.1774e-05,17.715,4.9411e-05,-0.04515,-0.0001521,-1514.1,1.6379
427,17.131,1.207,0.05,0.00015306,2.2461,1.7259e-07,1.2968,-1.7952e-13,-7.5295e-07,-1.7259e-07,-1.2968,1.6367
428,17.133,0.6035,0,0.00015277,1525.6,5.1628e-05,14.963,4.964e-05,0.029351,-0.00015241,-1518.1,1.6362
429,18.844,1.2059,0,0.00011323,1130,3.9563e-05,26.97,3.5968e-05,-0.040468,-0.00011259,-1116.3,1.9002
430,18.269,1.815,0,0.0001262,1258.6,4.3547e-05,23.947,4.0392e-05,0.23729,-0.00012552,-1246.4,1.8112
431,18.275,1.2049,0.05,0.00012616,2.0651,1.5869e-07,1.1923,-3.366e-23,-1.7725e-06,-1.5869e-07,-1.1923,1.8118
432,18.277,0.60245,0,0.00012574,1255.5,4.2942e-05,17.714,4.057e-05,-0.10982,-0.00012533,-1246.6,1.8115
433,19.985,1.2054,0,8.7832e-05,876.06,3.1918e-05,35.988,2.713e-05,0.016969,-8.6998e-05,-857.5,2.0795
434,19.397,1.8111,0,0.00010078,1004.3,3.5925e-05,33.062,3.1498e-05,-0.2022,-9.9903e-05,-987.5,1.9869
435,19.413,1.2069,0.05,0.00010031,2.1341,1.6399e-07,1.2321,-2.4762e-14,-2.6933e-16,-1.6398e-07,-1.2321,1.9893
436,19.418,0.60345,0,9.965e-05,994.57,3.4675e-05,22.058,3.1755e-05,0.1175,-9.913e-05,-983.3,1.9896
437,21.132,1.1986,0,6.3287e-05,630.59,2.4867e-05,48.983,1.8356e-05,0.063567,-6.2126e-05,-604.64,2.2618
438,20.549,1.8049,0,7.5863e-05,755.25,2.8808e-05,46.758,2.2595e-05,0.080532,-7.4672e-05,-730.75,2.1689
439,20.558,1.204,0.05,7.5354e-05,2.5398,1.9516e-07,1.4663,1.1164e-14,-1.6731e-07,-1.9516e-07,-1.4663,2.1703
440,20.563,0.60198,0,7.4259e-05,740.53,2.6744e-05,27.566,2.3078e-05,0.022422,-7.3596e-05,-726.35,2.1708
441,22.279,1.1945,0,4.0177e-05,398.92,1.8901e-05,70.324,9.5238e-06,-0.13395,-3.8256e-05,-359.13,2.4459
442,21.7,1.7925,0,5.2226e-05,519.01,2.2703e-05,67.826,1.3658e-05,-0.13408,-5.0451e-05,-481.82,2.3528
443,21.706,1.1932,0.05,5.122e-05,2.6504,2.0366e-07,1.5302,-4.5113e-13,-3.035e-07,-2.0366e-07,-1.5302,2.3538
444,21.709,0.59658,0,4.9602e-05,493.36,1.9179e-05,35.056,1.4546e-05,0.24645,-4.8677e-05,-474.79,2.3541
445,22.849,1.7951,0,3.0858e-05,306.14,1.8298e-05,103.26,4.5512e-06,-0.028566,-2.7542e-05,-241.17,2.5377
446,22.852,1.1958,0.05,2.9133e-05,3.896,2.9937e-07,2.2494,3.0099e-14,-1.5146e-06,-2.9937e-07,-2.2494,2.5383
447,22.854,0.59789,0,2.6012e-05,255.66,1.2305e-05,47.659,5.989e-06,0.20402,-2.4437e-05,-228.4,2.5385
448,23.426,1.1979,0,2.1812e-05,202.4,1.5373e-05,114.25,1.8502e-07,0.13472,-1.573e-05,-119.44,2.631
449,22.846,2.9973,0,3.2609e-05,324.27,2.0416e-05,123.33,4.0014e-06,-0.0067487,-2.8541e-05,-244.52,2.5366
450,22.27,2.3931,0,4.2907e-05,425.6,2.2284e-05,102.15,8.6844e-06,-0.035145,-3.9921e-05,-365.24,2.4442
451,22.845,2.3944,0.05,3.2582e-05,4.1655,3.2008e-07,2.4049,-2.546e-15,-3.1409e-08,-3.2008e-07,-2.4049,2.5369
452,23.423,2.3972,0,2.5521e-05,240,1.9442e-05,153.96,-9.9459e-07,0.41111,-1.7366e-05,-122.6,2.6301
453,22.846,4.2036,0,3.095e-05,306.91,1.832e-05,103.17,4.5779e-06,-0.081881,-2.7626e-05,-242.05,2.5356
454,22.269,3.6011,0,4.2968e-05,425.93,2.2308e-05,102.24,8.6793e-06,-0.15958,-3.9951e-05,-365.55,2.4433
455,22.846,3.6002,0.05,3.2636e-05,4.3173,3.3175e-07,2.4926,1.7136e-15,-4.0128e-07,-3.3175e-07,-2.4926,2.5361
456,23.423,3.6001,0,2.557e-05,240.18,1.9452e-05,154.02,-9.897e-07,0.42501,-1.7385e-05,-122.76,2.6293
457,22.271,4.8075,0,4.0348e-05,400.71,1.8941e-05,70.07,9.5976e-06,-0.1326,-3.8445e-05,-361.11,2.4421
458,22.847,4.807,0.05,2.9264e-05,3.9068,3.002e-07,2.2556,-3.9739e-14,-2.2344e-07,-3.002e-07,-2.2556,2.5349
459,23.423,4.8035,0,2.1909e-05,203.48,1.5392e-05,113.94,2.4686e-07,0.14115,-1.5874e-05,-120.98,2.628
460,22.851,5.4035,0,2.6123e-05,256.82,1.2333e-05,47.549,6.0368e-06,0.23856,-2.4557e-05,-229.63,2.5347
461,21.124,4.8118,0,6.3419e-05,631.97,2.4853e-05,48.265,1.844e-05,0.079807,-6.228e-05,-606.42,2.258
462,21.694,4.205,0,5.2366e-05,520.27,2.2738e-05,67.709,1.37e-05,-0.20521,-5.0581e-05,-483.18,2.3502
463,21.696,4.8079,0.05,5.1432e-05,2.6228,2.0154e-07,1.5143,-4.4746e-14,-3.7535e-07,-2.0154e-07,-1.5143,2.3496
464,21.704,5.404,0,4.9723e-05,494.62,1.9222e-05,35.114,1.459e-05,0.31135,-4.8802e-05,-475.99,2.3499
465,19.982,4.8226,0,8.7896e-05,876.74,3.1865e-05,35.045,2.7196e-05,-0.035259,-8.7086e-05,-858.71,2.0763
466,20.549,4.2151,0,7.5825e-05,754.71,2.8727e-05,45.978,2.2614e-05,0.045472,-7.4635e-05,-730.64,2.1673
467,20.552,4.8157,0.05,7.5406e-05,2.3946,1.8401e-07,1.3825,1.8585e-13,-1.2845e-06,-1.84e-07,-1.3825,2.1668
468,20.56,5.4079,0,7.428e-05,740.8,2.6733e-05,27.328,2.3099e-05,0.020864,-7.3628e-05,-726.75,2.1669
469,18.84,4.8309,0,0.00011336,1131.3,3.9597e-05,26.772,3.6008e-05,-0.19873,-0.00011273,-1117.8,1.8969
470,19.403,4.2348,0,0.00010065,1002.8,3.5806e-05,32.351,3.1498e-05,-0.019245,-9.976e-05,-986.24,1.9861
471,19.411,4.8294,0.05,0.00010039,1.939,1.49e-07,1.1195,-3.1604e-23,-2.3403e-07,-1.49e-07,-1.1195,1.9863
472,19.417,5.4147,0,9.9658e-05,994.71,3.4656e-05,21.692,3.1766e-05,-0.0269,-9.9154e-05,-983.7,1.986
473,17.696,4.8271,0,0.00013976,1395.3,4.7839e-05,21.268,4.5039e-05,0.22812,-0.00013925,-1384.4,1.7201
474,18.265,4.229,0,0.00012632,1259.5,4.3622e-05,24.221,4.037e-05,-0.2112,-0.00012561,-1247.4,1.8089
475,18.268,4.8324,0.05,0.00012633,1.6749,1.287e-07,0.967,-4.4556e-13,-8.5304e-07,-1.287e-07,-0.967,1.8082
476,18.274,5.4162,0,0.00012584,1256.6,4.2975e-05,17.843,4.0621e-05,0.154,-0.00012543,-1247.5,1.8076
477,16.553,4.8172,0,0.00016695,1667.1,5.6444e-05,16.65,5.4223e-05,-0.037974,-0.00016654,-1658.8,1.5471
478,17.126,4.2229,0,0.00015293,1525.5,5.1872e-05,18.046,4.95e-05,0.22236,-0.00015234,-1516.3,1.6348
479,17.123,4.8217,0.05,0.0001532,1.827,1.4039e-07,1.0548,2.1688e-14,6.001e-07,-1.4039e-07,-1.0548,1.633
480,17.129,5.4108,0,0.00015282,1526.3,5.1673e-05,15.204,4.9641e-05,-0.064194,-0.00015247,-1518.6,1.6322
481,15.41,4.817,0,0.00019489,1946.4,6.5307e-05,12.157,6.3644e-05,-0.33383,-0.00019457,-1940.5,1.3784
482,15.986,4.2201,0,0.00018036,1799.6,6.0474e-05,12.446,5.8801e-05,-0.12556,-0.00017988,-1793.4,1.4643
483,15.982,4.8127,0.05,0.0001807,2.2699,1.7442e-07,1.3105,-6.9472e-15,2.382e-07,-1.7442e-07,-1.3105,1.4623
484,15.987,5.4063,0,0.0001805,1802.9,6.0564e-05,12.298,5.8929e-05,0.014693,-0.00018021,-1796.8,1.4611
485,14.261,4.819,0,0.00022373,2234.7,7.4415e-05,7.3676,7.3426e-05,-0.065677,-0.0002235,-2231.1,1.2139
486,14.833,4.2233,0,0.00020889,2084.7,6.948e-05,7.4449,6.8443e-05,-0.34523,-0.00020849,-2081.1,1.2968
487,14.837,4.8214,0.05,0.00020907,1.9545,1.5018e-07,1.1284,-3.1856e-23,3.8173e-07,-1.5018e-07,-1.1284,1.2957
488,14.842,5.4107,0,0.00020901,2087.9,6.9743e-05,9.6068,6.8484e-05,0.15133,-0.00020877,-2083,1.2943
489,13.104,4.8148,0,0.00025341,2531.5,8.3682e-05,0.89182,8.3537e-05,-0.19798,-0.00025332,-2531.2,1.0543
490,13.672,4.2227,0,0.00023837,2378.9,7.8766e-05,1.8893,7.8379e-05,-1.0187,-0.00023804,-2378.5,1.1338
491,13.684,4.8167,0.05,0.00023838,2.2073,1.6961e-07,1.2744,9.7579e-14,-1.4918e-15,-1.6961e-07,-1.2744,1.1336
492,13.694,5.4084,0,0.00023836,2381.3,7.9196e-05,6.5685,7.8296e-05,-0.1903,-0.00023819,-2378.1,1.1325
493,11.934,4.8108,0,0.00028396,2836.9,9.4256e-05,1.674,9.2867e-05,-8.765,-0.00028401,-2840.4,0.8998
494,12.505,4.2169,0,0.00026858,2680.2,8.8998e-05,0.21529,8.7703e-05,-9.5095,-0.00026837,-2684.9,0.9763
495,12.523,4.813,0.05,0.00026845,2.5953,1.9942e-07,1.4984,6.9274e-14,-2.0037e-08,-1.9942e-07,-1.4984,0.9766
496,12.541,5.4065,0,0.00026856,2683.1,8.8774e-05,2.2134,8.8522e-05,0.31882,-0.00026846,-2681.9,0.97643
497,10.751,4.8062,0,0.00031539,3151,0.00010532,2.0374,0.0001021,-22.148,-0.00031565,-3161,0.75138
498,11.324,4.2112,0,0.00029969,2990.2,0.0001,1.0068,9.6704e-05,-23.781,-0.0002996,-3001.5,0.8243
499,11.346,4.8086,0.05,0.00029948,2.8544,2.1933e-07,1.648,-4.6523e-23,1.0867e-06,-2.1933e-07,-1.648,0.82491
500,11.381,5.4043,0,0.00029946,2991.9,9.9012e-05,-1.0736,9.8348e-05,-6.0636,-0.00029952,-2995.5,0.82645
501,9.5512,4.7948,0,0.00034781,3475,0.00011675,2.173,0.00011157,-36.707,-0.00034831,-3492.1,0.60993
502,10.127,4.2057,0,0.00033134,3304.6,0.00011156,-0.27291,0.00010498,-49.725,-0.00033151,-3329.4,0.67884
503,10.156,4.8038,0.05,0.00033129,3.623,2.784e-07,2.0918,7.5981e-14,5.7854e-07,-2.784e-07,-2.0918,0.68003
504,10.214,5.4019,0,0.0003317,3314.1,0.00011,4.6183,0.00010891,-3.6136,-0.00033162,-3313.6,0.68379
505,8.3128,4.7805,0,0.00037829,3778.6,0.00012774,-24.12,0.00011754,-100.76,-0.00038019,-3840.5,0.47447
506,8.9049,4.1915,0,0.00036348,3622.9,0.00012394,1.8756,0.00011249,-84.174,-0.00036386,-3663.3,0.54023
507,8.9461,4.7858,0.05,0.00036433,5.2909,4.0655e-07,3.0547,-8.7216e-13,-1.7625e-06,-4.0655e-07,-3.0547,0.54232
508,9.0366,5.3929,0,0.00036217,3618.5,0.0001201,-16.354,0.00011697,-39.91,-0.00036305,-3646.6,0.54904
509,6.9715,4.7499,0,0.00041459,4098.5,0.00014476,88.96,0.00012746,-41.024,-0.00040916,-4073,0.34104
510,7.6404,4.1821,0,0.00039643,3947.4,0.00014136,5.09,0.00011184,-216.72,-0.00039815,-4048.6,0.40822
511,7.6795,4.7753,0.05,0.00039225,17.126,1.3159e-06,9.8875,-2.3732e-14,-1.0886e-08,-1.3159e-06,-9.8875,0.4096
512,7.8313,5.3876,0,0.0003953,3946.9,0.000132,22.238,0.00012956,3.9136,-0.00039451,-3933.8,0.42147
513,5.797,4.9817,0,0.00045369,4339.2,0.00014972,13.681,0.00013359,-107.53,-0.00043569,-4384.8,0.23502
514,6.3181,4.1303,0,0.00043304,4261.5,0.00015438,111.33,0.00012755,-90.311,-0.00042572,-4247.4,0.28401
515,5.5573,4.4122,0,0.00047642,4311,0.0001649,271.97,0.00012862,-0.65736,-0.00042613,-4168.8,0.21808
516,6.2634,4.7245,0.05,0.00043692,77.73,5.9728e-06,44.877,-1.5373e-14,-1.5351e-14,-5.9728e-06,-44.877,0.2766
517,6.5511,5.3622,0,0.00041312,4070.7,0.00014697,12.377,0.0001139,-236.07,-0.00041059,-4176.9,0.2986
518,5.3307,5.2389,0.05,0.00047045,269.89,2.0738e-05,155.82,2.534e-13,-3.3051e-14,-2.0738e-05,-155.82,0.19488
519,5.5128,5.6195,0,0.0004653,4463.8,0.00016518,67.729,0.00012286,-250.3,-0.00044894,-4546.5,0.20688
520,6.3344,2.9622,0,0.00041399,4047.3,0.00014028,28.566,0.00012497,-86.457,-0.00040587,-4075.1,0.288
521,6.9871,3.5625,0,0.00041488,4112,0.00015121,29.115,0.00011174,-267.46,-0.00041474,-4223.2,0.34668
522,6.3729,3.5361,0.05,0.00042916,39.512,3.0361e-06,22.812,-6.4401e-22,3.3797e-06,-3.0361e-06,-22.812,0.2905
523,6.9332,2.3857,0,0.00040535,3980.7,0.00013762,47.319,0.0001253,-45.228,-0.00039823,-3978.9,0.34265
524,5.7486,2.4892,0,0.00049264,4579.4,0.00019728,109.2,7.7603e-05,-790,-0.00046317,-4853.1,0.2377
525,6.296,2.3883,0.05,0.00039883,131.63,1.0115e-05,75.998,-2.1455e-21,4.7993e-06,-1.0115e-05,-75.998,0.28469
526,8.2108,2.3938,0,0.00038919,3885,0.00013513,-2.9459,0.00011633,-144.17,-0.00039108,-3956.7,0.4688
527,7.5859,2.986,0,0.00040624,4043.6,0.0001468,34.759,0.00011382,-213.08,-0.0004071,-4127,0.40534
528,7.5705,2.383,0.05,0.00041187,22.847,1.7556e-06,13.191,-1.066e-12,-2.4426e-06,-1.7556e-06,-13.191,0.40388
529,9.4722,2.4082,0,0.00034869,3483.8,0.00011982,-6.0039,0.00010635,-107.24,-0.00035044,-3539.3,0.60576
530,8.8574,3.0009,0,0.00036457,3634.2,0.00012583,-7.0762,0.00010941,-130.4,-0.00036585,-3701.4,0.53749
531,8.8511,2.4046,0.05,0.0003665,15.667,1.2039e-06,9.0456,1.7614e-13,1.7942e-06,-1.2039e-06,-9.0456,0.53683
532,10.698,2.4155,0,0.00031495,3146.7,0.00010683,1.2283,9.9061e-05,-57.177,-0.0003158,-3174.3,0.74955
533,10.095,3.0097,0,0.00033114,3303.1,0.00011269,0.15122,0.00010293,-73.18,-0.00033172,-3339,0.6775
534,10.093,2.4118,0.05,0.00033089,3.5512,2.7288e-07,2.0503,1.1351e-13,1.164e-06,-2.7288e-07,-2.0503,0.67733
535,11.898,2.4269,0,0.00028357,2833.1,9.4879e-05,0.46604,9.1361e-05,-25.97,-0.00028393,-2845.8,0.8995
536,11.302,3.0165,0,0.00029945,2988.1,0.00010037,-0.31802,9.5776e-05,-34.842,-0.0002996,-3005.6,0.82386
537,11.303,2.4193,0.05,0.00029901,3.1882,2.4498e-07,1.8407,-1.1928e-13,3.0998e-08,-2.4498e-07,-1.8407,0.82402
538,13.08,2.4416,0,0.00025303,2527.8,8.3908e-05,-0.058057,8.274e-05,-8.8375,-0.00025311,-2532.3,1.0552
539,12.49,3.0277,0,0.00026842,2679,8.9258e-05,0.37322,8.7171e-05,-15.303,-0.00026834,-2686.5,0.97646
540,12.493,2.4345,0.05,0.00026813,3.1911,2.4521e-07,1.8424,-1.5464e-13,-9.6545e-07,-2.4521e-07,-1.8424,0.97694
541,14.25,2.441,0,0.0002232,2229.7,7.3761e-05,1.5304,7.3549e-05,-0.062336,-0.0002231,-2228.9,1.2164
542,13.664,3.0387,0,0.00023814,2377,7.8751e-05,0.92591,7.8147e-05,-3.6127,-0.00023791,-2378.3,1.1346
543,13.667,2.4488,0.05,0.00023792,2.9203,2.244e-07,1.6861,-9.5511e-14,-1.0884e-06,-2.244e-07,-1.6861,1.1352
544,15.408,2.4287,0,0.00019431,1940.9,6.4835e-05,8.9407,6.3663e-05,0.13814,-0.00019407,-1936.4,1.3819
545,14.831,3.0292,0,0.0002086,2082,6.9226e-05,5.4636,6.8459e-05,-0.29406,-0.00020826,-2079.4,1.2984
546,14.833,2.4331,0.05,0.00020848,2.597,1.9955e-07,1.4994,-6.2604e-14,-9.0547e-07,-1.9956e-07,-1.4994,1.299
547,16.562,2.4113,0,0.00016619,1659.8,5.6094e-05,15.314,5.4044e-05,-0.084931,-0.00016583,-1652.2,1.5518
548,15.986,3.0259,0,0.00018008,1797.2,6.0306e-05,11.58,5.8788e-05,0.17369,-0.00017964,-1791.3,1.4662
549,15.983,2.4242,0.05,0.00018015,2.0655,1.5872e-07,1.1925,-3.4922e-14,-6.3286e-07,-1.5872e-07,-1.1925,1.466
550,17.701,2.4117,0,0.00013924,1390.4,4.7763e-05,22.191,4.4814e-05,0.036221,-0.00013874,-1379.2,1.7241
551,17.134,3.0112,0,0.00015245,1521,5.1719e-05,17.792,4.9335e-05,-0.12377,-0.0001519,-1512.1,1.6377
552,17.14,2.3983,0.05,0.00015223,2.0373,1.5655e-07,1.1762,1.2793e-14,-1.7486e-07,-1.5655e-07,-1.1762,1.6387
553,18.821,2.4202,0,0.00011375,1135.6,4.014e-05,31.767,3.5922e-05,0.075476,-0.00011306,-1119.3,1.8969
554,18.262,3.0253,0,0.00012628,1259.4,4.3719e-05,25.553,4.0311e-05,-0.056201,-0.00012557,-1246.4,1.81
555,18.262,2.4251,0.05,0.00012625,2.6015,1.999e-07,1.502,-2.5961e-14,-8.9917e-07,-1.999e-07,-1.502,1.8103
556,19.96,2.4105,0,8.8812e-05,886.21,3.3057e-05,45.652,2.6963e-05,-0.13854,-8.7819e-05,-862.56,2.0756
557,19.387,3.0277,0,0.00010108,1007.6,3.6278e-05,36.215,3.1471e-05,0.10057,-0.00010016,-988.93,1.9851
558,19.38,2.4152,0.05,0.00010125,2.3568,1.811e-07,1.3607,-1.345e-14,-9.7588e-07,-1.811e-07,-1.3607,1.9843
559,21.117,2.3988,0,6.4801e-05,645.93,2.6876e-05,67.347,1.7897e-05,-0.11795,-6.3229e-05,-609.67,2.2593
560,20.543,3.0101,0,7.6308e-05,760,2.9494e-05,53.064,2.2408e-05,-0.17318,-7.5013e-05,-732.16,2.1676
561,20.54,2.4058,0.05,7.6372e-05,2.4538,1.8855e-07,1.4167,3.3263e-15,-4.5251e-07,-1.8855e-07,-1.4167,2.1674
562,21.693,2.9969,0,5.3266e-05,529.98,2.4058e-05,80.179,1.3363e-05,-0.17944,-5.1215e-05,-485.39,2.3513
563,21.694,2.3918,0.05,5.3231e-05,3.5214,2.7059e-07,2.0331,-1.7325e-16,-9.5311e-07,-2.7059e-07,-2.0331,2.3517
564,21.12,3.6082,0,6.4772e-05,645.35,2.6852e-05,67.222,1.7874e-05,-0.23975,-6.3175e-05,-609.21,2.2589
565,21.693,3.6021,0.05,5.33e-05,3.6356,2.7936e-07,2.099,-1.772e-14,-2.0782e-06,-2.7936e-07,-2.099,2.3507
566,19.97,3.6273,0,8.8577e-05,883.51,3.2917e-05,45.148,2.6916e-05,0.061102,-8.7556e-05,-860.04,2.0763
567,20.546,3.6144,0.05,7.6245e-05,2.8539,2.193e-07,1.6477,-6.8062e-14,-9.0168e-07,-2.193e-07,-1.6477,2.1676
568,18.828,3.6329,0,0.00011361,1133.7,4.0067e-05,31.577,3.586e-05,-0.038384,-0.00011288,-1117.6,1.8971
569,19.395,3.6402,0.05,0.00010091,2.6539,2.0393e-07,1.5322,2.2487e-13,-8.6192e-07,-2.0393e-07,-1.5322,1.9856
570,17.696,3.6249,0,0.00013949,1392.2,4.7877e-05,22.671,4.4826e-05,-0.25246,-0.00013892,-1380.9,1.7223
571,18.262,3.6256,0.05,0.00012631,2.9442,2.2623e-07,1.6998,-2.2714e-13,-2.03e-06,-2.2623e-07,-1.6998,1.8094
572,16.559,3.6258,0,0.00016634,1660.4,5.6117e-05,15.456,5.4067e-05,0.052452,-0.00016588,-1652.6,1.5505
573,17.129,3.6242,0.05,0.00015267,3.6634,2.815e-07,2.1151,-2.8027e-13,-1.0533e-06,-2.815e-07,-2.1151,1.6362
574,15.409,3.6264,0,0.00019436,1940,6.4862e-05,9.3468,6.3571e-05,-0.35317,-0.00019398,-1935.5,1.381
575,15.989,3.6275,0.05,0.00018001,3.6465,2.802e-07,2.1053,-1.6125e-13,-3.2598e-07,-2.802e-07,-2.1053,1.4659
576,14.244,3.6269,0,0.00022353,2230.8,7.4084e-05,3.8741,7.3314e-05,-1.9138,-0.0002232,-2229.8,1.2146
577,14.828,3.6252,0.05,0.00020871,4.7538,3.6528e-07,2.7446,-1.8921e-13,-1.6137e-06,-3.6528e-07,-2.7446,1.2973
578,13.074,3.6248,0,0.00025353,2529.4,8.4116e-05,1.4761,8.2666e-05,-9.4229,-0.00025324,-2533.3,1.0535
579,13.66,3.6286,0.05,0.00023835,5.8546,4.4987e-07,3.3801,-1.6916e-13,-7.1151e-07,-4.4987e-07,-3.3801,1.1334
580,11.895,3.6173,0,0.0002843,2835,9.4794e-05,-0.07224,9.1623e-05,-23.9,-0.00028409,-2846.9,0.89817
581,12.488,3.6209,0.05,0.00026871,7.0404,5.4099e-07,4.0648,-1.1016e-13,-9.2407e-07,-5.4099e-07,-4.0648,0.97533
582,10.699,3.6107,0,0.00031564,3145,0.0001063,-0.87129,9.963e-05,-50.991,-0.00031557,-3170.7,0.74879
583,11.301,3.6137,0.05,0.00029989,9.5081,7.3061e-07,5.4895,-3.2729e-14,-1.0547e-06,-7.3061e-07,-5.4895,0.82296
584,9.4802,3.6024,0,0.00034701,3453.4,0.00011876,-0.46484,0.00010595,-96.751,-0.00034714,-3501,0.60579
585,10.097,3.6077,0.05,0.00033139,14.723,1.1313e-06,8.5005,-3.0353e-14,-2.4596e-07,-1.1313e-06,-8.5005,0.67686
586,8.2325,3.5931,0,0.00038162,3792.6,0.0001375,30.617,0.00010689,-199.36,-0.00038187,-3871.7,0.47013
587,7.6013,3.5889,0.05,0.00040061,31.712,2.4368e-06,18.309,2.2289e-13,-3.341e-15,-2.4368e-06,-18.309,0.40595
588,8.8637,3.5972,0.05,0.00036264,14.625,1.1238e-06,8.4437,2.4471e-12,-1.79e-06,-1.1238e-06,-8.4437,0.53731
589,4.8512,4.1,0.05,0.00051591,375.5,2.8854e-05,216.8,-6.1203e-21,-1.3536e-05,-2.8854e-05,-216.8,0.16417
590,4.1289,4.05,0,0.0010342,9520.7,0.00036322,287.49,0.00025605,-517.78,-0.00095408,-9610.2,0.11306
591,2.1459,0.84496,0.05,0.00060114,132.18,1.0157e-05,76.313,4.2997e-13,-5.9001e-05,-1.0157e-05,-76.313,0.02252
592,1.613,0.42248,0,0.00057577,5628.7,0.00020185,90.328,0.00016677,-173.2,-0.0005642,-5665.5,0.011371
593,2.693,0.92248,0,0.00055838,3657.6,0.00019752,956.36,7.0354e-05,0.89607,-0.00034024,-3084.1,0.036085
594,2.7208,2.497,0,0.0010387,9472.6,0.00041744,1473.5,0.00026648,339.2,-0.00091197,-8515.2,0.045265
595,3.3807,2.4549,0,0.0010533,9603.2,0.00042364,1238.1,0.00024432,-109.2,-0.00093466,-8967.6,0.073352
596,2.8187,2.2201,0.05,0.001122,574.81,4.4169e-05,331.87,3.5498e-12,7.2965e-06,-4.4169e-05,-331.87,0.047829
597,3.0293,2.1101,0,0.0016899,15710,0.00075484,2447.4,0.00032169,-807.07,-0.0015186,-14635,0.055452
598,2.0422,4.5104,0.05,0.00059014,86.831,6.6722e-06,50.132,-2.6503e-13,2.3684e-05,-6.6722e-06,-50.132,0.021797
599,2.6411,4.7552,0,0.00052431,3877.3,0.00012743,-302.43,0.00010108,-500.38,-0.00040128,-4274.9,0.035385
600,4.2416,1.1157,0,0.00047557,4217.3,0.00015257,98.316,0.00012548,-105.27,-0.00042177,-4217.1,0.11941
601,4.0892,0.9295,0.05,0.00043117,283.15,2.1758e-05,163.48,-4.6151e-21,-3.4676e-14,-2.1758e-05,-163.48,0.10748
602,3.7479,0.96475,0,0.00048251,3921.1,0.00019863,861,8.5365e-05,10.007,-0.00037057,-3415.7,0.084284
603,4.3524,1.6893,0,0.00061007,4852.7,0.0001728,-638.85,7.7124e-05,-1357.7,-0.00051556,-5810.9,0.12997
604,4.3941,1.3018,0.05,0.00051996,76.984,5.9155e-06,44.447,-2.2876e-12,-9.4278e-15,-5.9155e-06,-44.447,0.13104
605,3.9004,1.4009,0,0.00055759,4624,0.00023777,1049.4,9.6997e-05,-8.3393,-0.00043584,-4011.9,0.097762
606,4.756,2.3334,0,0.00064332,5296.6,0.00021307,-660.45,3.9332e-05,-1965.8,-0.00056249,-6487.7,0.15992
607,4.0847,2.0576,0,0.00082137,6831.9,0.00025922,-4.4933,0.00016611,-704.13,-0.00069302,-7159.3,0.11294
608,4.3107,2.0768,0.05,0.00070018,892,6.8542e-05,515,-1.4539e-20,3.8512e-06,-6.8542e-05,-515,0.12792
609,2.6229,2.7739,0.05,0.00095532,321.01,2.4667e-05,185.34,1.8574e-12,-3.4915e-06,-2.4667e-05,-185.34,0.042006
610,2.9315,3.387,0,0.0012087,11510,0.00038332,-529.07,0.00032573,-961.83,-0.0011765,-12249,0.052455
611,4.572,2.6398,0,0.00078553,7274.6,0.00024767,-185.7,0.00021033,-466.3,-0.00073865,-7596.5,0.14677
612,3.9428,2.6896,0.05,0.00098459,409.07,3.1433e-05,236.18,9.497e-13,6.8335e-06,-3.1433e-05,-236.18,0.10516
613,5.2013,2.59,0.05,0.00058646,643.72,4.9464e-05,371.65,-7.9833e-13,-7.6562e-06,-4.9464e-05,-371.65,0.19342
614,3.7533,2.0907,0,0.0012829,11764,0.00057467,1904,0.00022922,-691.51,-0.0011349,-10941,0.092205
615,3.648,2.1431,0.05,0.0016232,3714.9,0.00028546,2144.8,-9.3681e-12,-0.0003199,-0.00028546,-2144.8,0.086067
616,3.5273,2.0715,0,0.0019454,16964,0.00079646,2896.8,0.00040981,-8.2941,-0.0016296,-15332,0.07889
617,3.8587,2.0384,0.05,0.00094255,488.14,3.7509e-05,281.83,-4.5823e-12,4.0628e-05,-3.7509e-05,-281.83,0.098413
618,3.6327,1.7692,0,0.00076889,7046.9,0.00042538,2444,0.00010273,19.74,-0.00063124,-5495,0.082949
619,3.7533,2.0907,0.1,0.0012829,11764,0.0011349,10941,-0.00022922,691.51,-0.00057467,-1904,0.092205
620,4.0847,2.0576,0.1,0.00082137,6831.9,0.00069302,7159.3,-0.00016611,704.13,-0.00025922,4.4933,0.11294
621,3.6327,1.7692,0.1,0.00076889,7046.9,0.00063124,5495,-0.00010273,-19.74,-0.00042538,-2444,0.082949
622,3.7029,2.2433,0.1,0.0013318,12033,0.0011739,11434,-0.00026281,639.01,-0.00055271,-1539.2,0.089786
623,3.5273,2.0715,0.1,0.0019454,16964,0.0016296,15332,-0.00040981,8.2941,-0.00079646,-2896.8,0.07889
624,4.572,2.6398,0.1,0.00078553,7274.6,0.00073865,7596.5,-0.00021033,466.3,-0.00024767,185.7,0.14677
625,4.756,2.3334,0.1,0.00064332,5296.6,0.00056249,6487.7,-3.9332e-05,1965.8,-0.00021307,660.45,0.15992
626,5.7486,2.4892,0.1,0.00049264,4579.4,0.00046317,4853.1,-7.7603e-05,790,-0.00019728,-109.2,0.2377
627,5.145,3.0101,0.1,0.00058933,5570.7,0.00057781,6382.3,-6.4354e-05,1557.4,-0.00023359,285.78,0.18882
628,3.3807,2.4549,0.1,0.0010533,9603.2,0.00093466,8967.6,-0.00024432,109.2,-0.00042364,-1238.1,0.073352
629,3.9183,2.9627,0.1,0.00098385,8716,0.00086053,8381,-0.0002781,-174.19,-0.00031979,-487.45,0.1037
630,3.8503,2.5166,0.1,0.0010125,9308.6,0.00091315,8798.4,-0.00028306,-189.48,-0.00036443,-800.8,0.099421
631,2.7208,2.497,0.1,0.0010387,9472.6,0.00091197,8515.2,-0.00026648,-339.2,-0.00041744,-1473.5,0.045265
632,1.9766,2.2688,0.1,0.00080854,7483.5,0.00074067,7364.6,-0.00017255,503.05,-0.00032135,-614.98,0.022635
633,3.2584,3.0049,0.1,0.00096922,8496.9,0.00082845,7858.1,-0.0002904,-548.53,-0.00031406,-726.32,0.067884
634,2.9315,3.387,0.1,0.0012087,11510,0.0011765,12249,-0.00032573,961.83,-0.00038332,529.07,0.052455
635,4.3524,1.6893,0.1,0.00061007,4852.7,0.00051556,5810.9,-7.7124e-05,1357.7,-0.0001728,638.85,0.12997
636,5.2464,1.6858,0.1,0.00056838,4783.8,0.00051206,5820.7,-8.0213e-05,1370.6,-0.00016127,761.57,0.19622
637,4.0343,2.2101,0.1,0.00087033,7300.7,0.00073349,7663.3,-0.00010889,1333.9,-0.00032951,-323.72,0.11009
638,4.2416,1.1157,0.1,0.00047557,4217.3,0.00042177,4217.1,-0.00012548,105.27,-0.00015257,-98.316,0.11941
639,4.8332,1.0511,0.1,0.00050484,4451.8,0.00044577,4463,-0.00013768,79.109,-0.00015538,-53.857,0.1622
640,3.9004,1.4009,0.1,0.00055759,4624,0.00043584,4011.9,-9.6997e-05,8.3393,-0.00023777,-1049.4,0.097762
641,4.2061,0.71267,0.1,0.00040278,3652.6,0.00035879,3501.4,-9.2154e-05,113.16,-0.00015617,-367.87,0.11445
642,3.7479,0.96475,0.1,0.00048251,3921.1,0.00037057,3415.7,-8.5365e-05,-10.007,-0.00019863,-861,0.084284
643,1.5253,4.2413,0.1,0.00062901,6103.5,0.00061345,6472.5,-7.5798e-05,1293.8,-0.00028215,-256.65,0.012378
644,2.0409,4.8713,0.1,0.00053815,5303.7,0.00054381,5692.6,-0.0001494,484.13,-0.00017409,298.59,0.020686
645,2.1374,4.2817,0.1,0.00076687,7426.5,0.00078345,8762.7,-0.00011183,2035.9,-0.00027722,793.24,0.02456
646,2.6411,4.7552,0.1,0.00052431,3877.3,0.00040128,4274.9,-0.00010108,500.38,-0.00012743,302.43,0.035385
647,2.4065,1.8315,0.1,0.00084905,8121,0.00079415,7648.7,-0.00022225,11.929,-0.00034128,-882.47,0.033086
648,3.0293,2.1101,0.1,0.0016899,15710,0.0015186,14635,-0.00032169,807.07,-0.00075484,-2447.4,0.055452
649,2.0701,1.1439,0.1,0.00058859,5695.2,0.00057573,5871.9,-0.00016761,286.72,-0.00019611,72.603,0.022197
650,2.2966,0.62464,0.1,0.00047449,4426.5,0.00044115,4385.1,-0.00012953,97.209,-0.00016483,-167.99,0.024859
651,2.693,0.92248,0.1,0.00055838,3657.6,0.00034024,3084.1,-7.0354e-05,-0.89607,-0.00019752,-956.36,0.036085
652,1.613,0.42248,0.1,0.00057577,5628.7,0.0005642,5665.5,-0.00016677,173.2,-0.00020185,-90.328,0.011371
653,5.5573,4.4122,0.1,0.00047642,4311,0.00042613,4168.8,-0.00012862,0.65736,-0.0001649,-271.97,0.21808
654,4.97,3.7651,0.1,0.00055406,5038,0.00052026,5520.7,-0.0001328,613.93,-0.00016646,361.03,0.17418
655,4.6954,4.3923,0.1,0.00054063,4823.3,0.00047845,4725,-0.00013452,119.31,-0.00018897,-289.81,0.15116
656,4.1289,4.05,0.1,0.0010342,9520.7,0.00095408,9610.2,-0.00025605,517.78,-0.00036322,-287.49,0.11306
657,8.2325,3.5931,0.1,0.00038162,3792.6,0.00038187,3871.7,-0.00010689,199.36,-0.0001375,-30.617,0.47013
658,9.4802,3.6024,0.1,0.00034701,3453.4,0.00034714,3501,-0.00010595,96.751,-0.00011876,0.46484,0.60579
659,8.8574,3.0009,0.1,0.00036457,3634.2,0.00036585,3701.4,-0.00010941,130.4,-0.00012583,7.0762,0.53749
660,8.9049,4.1915,0.1,0.00036348,3622.9,0.00036386,3663.3,-0.00011249,84.174,-0.00012394,-1.8756,0.54023
661,7.5859,2.986,0.1,0.00040624,4043.6,0.0004071,4127,-0.00011382,213.08,-0.0001468,-34.759,0.40534
662,6.9871,3.5625,0.1,0.00041488,4112,0.00041474,4223.2,-0.00011174,267.46,-0.00015121,-29.115,0.34668
663,7.6404,4.1821,0.1,0.00039643,3947.4,0.00039815,4048.6,-0.00011184,216.72,-0.00014136,-5.09,0.40822
664,10.699,3.6107,0.1,0.00031564,3145,0.00031557,3170.7,-9.963e-05,50.991,-0.0001063,0.87129,0.74879
665,10.095,3.0097,0.1,0.00033114,3303.1,0.00033172,3339,-0.00010293,73.18,-0.00011269,-0.15122,0.6775
666,10.127,4.2057,0.1,0.00033134,3304.6,0.00033151,3329.4,-0.00010498,49.725,-0.00011156,0.27291,0.67884
667,11.895,3.6173,0.1,0.0002843,2835,0.00028409,2846.9,-9.1623e-05,23.9,-9.4794e-05,0.07224,0.89817
668,11.302,3.0165,0.1,0.00029945,2988.1,0.0002996,3005.6,-9.5776e-05,34.842,-0.00010037,0.31802,0.82386
669,11.324,4.2112,0.1,0.00029969,2990.2,0.0002996,3001.5,-9.6704e-05,23.781,-0.0001,-1.0068,0.8243
670,13.074,3.6248,0.1,0.00025353,2529.4,0.00025324,2533.3,-8.2666e-05,9.4229,-8.4116e-05,-1.4761,1.0535
671,12.49,3.0277,0.1,0.00026842,2679,0.00026834,2686.5,-8.7171e-05,15.303,-8.9258e-05,-0.37322,0.97646
672,12.505,4.2169,0.1,0.00026858,2680.2,0.00026837,2684.9,-8.7703e-05,9.5095,-8.8998e-05,-0.21529,0.9763
673,14.244,3.6269,0.1,0.00022353,2230.8,0.0002232,2229.8,-7.3314e-05,1.9138,-7.4084e-05,-3.8741,1.2146
674,13.664,3.0387,0.1,0.00023814,2377,0.00023791,2378.3,-7.8147e-05,3.6127,-7.8751e-05,-0.92591,1.1346
675,13.672,4.2227,0.1,0.00023837,2378.9,0.00023804,2378.5,-7.8379e-05,1.0187,-7.8766e-05,-1.8893,1.1338
676,15.409,3.6264,0.1,0.00019436,1940,0.00019398,1935.5,-6.3571e-05,0.35317,-6.4862e-05,-9.3468,1.381
677,14.831,3.0292,0.1,0.0002086,2082,0.00020826,2079.4,-6.8459e-05,0.29406,-6.9226e-05,-5.4636,1.2984
678,14.833,4.2233,0.1,0.00020889,2084.7,0.00020849,2081.1,-6.8443e-05,0.34523,-6.948e-05,-7.4449,1.2968
679,16.559,3.6258,0.1,0.00016634,1660.4,0.00016588,1652.6,-5.4067e-05,-0.052452,-5.6117e-05,-15.456,1.5505
680,15.986,3.0259,0.1,0.00018008,1797.2,0.00017964,1791.3,-5.8788e-05,-0.17369,-6.0306e-05,-11.58,1.4662
681,15.986,4.2201,0.1,0.00018036,1799.6,0.00017988,1793.4,-5.8801e-05,0.12556,-6.0474e-05,-12.446,1.4643
682,17.696,3.6249,0.1,0.00013949,1392.2,0.00013892,1380.9,-4.4826e-05,0.25246,-4.7877e-05,-22.671,1.7223
683,17.134,3.0112,0.1,0.00015245,1521,0.0001519,1512.1,-4.9335e-05,0.12377,-5.1719e-05,-17.792,1.6377
684,17.126,4.2229,0.1,0.00015293,1525.5,0.00015234,1516.3,-4.95e-05,-0.22236,-5.1872e-05,-18.046,1.6348
685,18.828,3.6329,0.1,0.00011361,1133.7,0.00011288,1117.6,-3.586e-05,0.038384,-4.0067e-05,-31.577,1.8971
686,18.262,3.0253,0.1,0.00012628,1259.4,0.00012557,1246.4,-4.0311e-05,0.056201,-4.3719e-05,-25.553,1.81
687,18.265,4.229,0.1,0.00012632,1259.5,0.00012561,1247.4,-4.037e-05,0.2112,-4.3622e-05,-24.221,1.8089
688,19.97,3.6273,0.1,8.8577e-05,883.51,8.7556e-05,860.04,-2.6916e-05,-0.061103,-3.2917e-05,-45.148,2.0763
689,19.387,3.0277,0.1,0.00010108,1007.6,0.00010016,988.93,-3.1471e-05,-0.10057,-3.6278e-05,-36.215,1.9851
690,19.403,4.2348,0.1,0.00010065,1002.8,9.976e-05,986.24,-3.1498e-05,0.019245,-3.5806e-05,-32.351,1.9861
691,21.12,3.6082,0.1,6.4772e-05,645.35,6.3175e-05,609.21,-1.7874e-05,0.23974,-2.6852e-05,-67.222,2.2589
692,20.543,3.0101,0.1,7.6308e-05,760,7.5013e-05,732.16,-2.2408e-05,0.17318,-2.9494e-05,-53.064,2.1676
693,20.549,4.2151,0.1,7.5825e-05,754.71,7.4635e-05,730.64,-2.2614e-05,-0.045473,-2.8727e-05,-45.978,2.1673
694,21.693,2.9969,0.1,5.3266e-05,529.98,5.1215e-05,485.39,-1.3363e-05,0.17944,-2.4058e-05,-80.179,2.3513
695,21.694,4.205,0.1,5.2366e-05,520.27,5.0581e-05,483.18,-1.37e-05,0.20521,-2.2738e-05,-67.709,2.3502
696,22.269,3.6011,0.1,4.2968e-05,425.93,3.9951e-05,365.55,-8.6793e-06,0.15958,-2.2308e-05,-102.24,2.4433
697,21.117,2.3988,0.1,6.4801e-05,645.93,6.3229e-05,609.67,-1.7897e-05,0.11795,-2.6876e-05,-67.347,2.2593
698,22.27,2.3931,0.1,4.2907e-05,425.6,3.9921e-05,365.24,-8.6844e-06,0.035146,-2.2284e-05,-102.15,2.4442
699,21.7,1.7925,0.1,5.2226e-05,519.01,5.0451e-05,481.82,-1.3658e-05,0.13408,-2.2703e-05,-67.826,2.3528
700,19.96,2.4105,0.1,8.8812e-05,886.21,8.7819e-05,862.56,-2.6963e-05,0.13854,-3.3057e-05,-45.652,2.0756
701,20.549,1.8049,0.1,7.5863e-05,755.25,7.4672e-05,730.75,-2.2595e-05,-0.080532,-2.8808e-05,-46.758,2.1689
702,18.821,2.4202,0.1,0.00011375,1135.6,0.00011306,1119.3,-3.5922e-05,-0.075477,-4.014e-05,-31.767,1.8969
703,19.397,1.8111,0.1,0.00010078,1004.3,9.9903e-05,987.5,-3.1498e-05,0.2022,-3.5925e-05,-33.062,1.9869
704,17.701,2.4117,0.1,0.00013924,1390.4,0.00013874,1379.2,-4.4814e-05,-0.036221,-4.7763e-05,-22.191,1.7241
705,18.269,1.815,0.1,0.0001262,1258.6,0.00012552,1246.4,-4.0392e-05,-0.23729,-4.3547e-05,-23.947,1.8112
706,16.562,2.4113,0.1,0.00016619,1659.8,0.00016583,1652.2,-5.4044e-05,0.084931,-5.6094e-05,-15.314,1.5518
707,17.135,1.8026,0.1,0.00015265,1523,0.0001521,1514.1,-4.9411e-05,0.045151,-5.1774e-05,-17.715,1.6379
708,15.408,2.4287,0.1,0.00019431,1940.9,0.00019407,1936.4,-6.3663e-05,-0.13814,-6.4835e-05,-8.9407,1.3819
709,15.982,1.8212,0.1,0.00018045,1801.1,0.00018002,1794.8,-5.882e-05,0.22015,-6.0564e-05,-12.881,1.4656
710,14.25,2.441,0.1,0.0002232,2229.7,0.0002231,2228.9,-7.3549e-05,0.062336,-7.3761e-05,-1.5304,1.2164
711,14.835,1.8316,0.1,0.00020883,2084.8,0.0002085,2081.1,-6.8496e-05,-0.10904,-6.9445e-05,-7.2435,1.2989
712,13.08,2.4416,0.1,0.00025303,2527.8,0.00025311,2532.3,-8.274e-05,8.8375,-8.3908e-05,0.058057,1.0552
713,13.674,1.8487,0.1,0.00023822,2378.6,0.00023803,2378.8,-7.8421e-05,1.1278,-7.8659e-05,-0.66365,1.1359
714,11.898,2.4269,0.1,0.00028357,2833.1,0.00028393,2845.8,-9.1361e-05,25.97,-9.4879e-05,-0.46604,0.8995
715,12.506,1.8283,0.1,0.00026848,2681,0.00026848,2686.7,-8.7578e-05,11.436,-8.91e-05,0.0032458,0.97818
716,10.698,2.4155,0.1,0.00031495,3146.7,0.0003158,3174.3,-9.9061e-05,57.177,-0.00010683,-1.2283,0.74955
717,11.322,1.8184,0.1,0.00029967,2992.7,0.00029995,3006.8,-9.6387e-05,28.901,-0.00010029,-0.4541,0.82591
718,9.4722,2.4082,0.1,0.00034869,3483.8,0.00035044,3539.3,-0.00010635,107.24,-0.00011982,6.0039,0.60576
719,10.121,1.8131,0.1,0.00033192,3314.9,0.00033263,3342.6,-0.00010447,58.375,-0.00011252,-2.0497,0.67997
720,8.2108,2.3938,0.1,0.00038919,3885,0.00039108,3956.7,-0.00011633,144.17,-0.00013513,2.9459,0.4688
721,8.8982,1.8098,0.1,0.00036584,3652.4,0.00036696,3697.7,-0.00011189,99.829,-0.0001261,-6.992,0.54127
722,6.9332,2.3857,0.1,0.00040535,3980.7,0.00039823,3978.9,-0.0001253,45.228,-0.00013762,-47.319,0.34265
723,7.6203,1.7977,0.1,0.0004018,3998.8,0.00040067,4017.3,-0.0001221,89.474,-0.00014051,-48.859,0.4081
724,6.3344,2.9622,0.1,0.00041399,4047.3,0.00040587,4075.1,-0.00012497,86.457,-0.00014028,-28.566,0.288
725,6.239,1.8416,0.1,0.0004177,4074.6,0.00041089,4172.2,-0.0001197,185.58,-0.0001424,15.019,0.27912
726,6.3181,4.1303,0.1,0.00043304,4261.5,0.00042572,4247.4,-0.00012755,90.311,-0.00015438,-111.33,0.28401
727,5.7308,3.4832,0.1,0.00051068,5012,0.00052012,5601.3,-0.00010763,884.58,-0.00018029,338.65,0.23538
728,5.797,4.9817,0.1,0.00045369,4339.2,0.00043569,4384.8,-0.00013359,107.53,-0.00014972,-13.681,0.23502
729,4.8176,5.3497,0.1,0.00041202,3861.8,0.00038656,3884.9,-0.00010442,195.89,-0.00014769,-129.19,0.15409
730,4.9351,4.9618,0.1,0.0005179,4862.7,0.00048965,4953.3,-0.00015152,135.8,-0.0001634,46.566,0.16589
731,5.5128,5.6195,0.1,0.0004653,4463.8,0.00044894,4546.5,-0.00012286,250.3,-0.00016518,-67.729,0.20688
732,6.9715,4.7499,0.1,0.00041459,4098.5,0.00040916,4073,-0.00012746,41.024,-0.00014476,-88.96,0.34104
733,6.5511,5.3622,0.1,0.00041312,4070.7,0.00041059,4176.9,-0.0001139,236.07,-0.00014697,-12.377,0.2986
734,8.3128,4.7805,0.1,0.00037829,3778.6,0.00038019,3840.5,-0.00011754,100.76,-0.00012774,24.12,0.47447
735,7.8313,5.3876,0.1,0.0003953,3946.9,0.00039451,3933.8,-0.00012956,-3.9136,-0.000132,-22.238,0.42147
736,9.5512,4.7948,0.1,0.00034781,3475,0.00034831,3492.1,-0.00011157,36.707,-0.00011675,-2.173,0.60993
737,9.0366,5.3929,0.1,0.00036217,3618.5,0.00036305,3646.6,-0.00011697,39.91,-0.0001201,16.354,0.54904
738,10.751,4.8062,0.1,0.00031539,3151,0.00031565,3161,-0.0001021,22.148,-0.00010532,-2.0374,0.75138
739,10.214,5.4019,0.1,0.0003317,3314.1,0.00033162,3313.6,-0.00010891,3.6136,-0.00011,-4.6183,0.68379
740,11.934,4.8108,0.1,0.00028396,2836.9,0.00028401,2840.4,-9.2867e-05,8.765,-9.4256e-05,-1.674,0.8998
741,11.381,5.4043,0.1,0.00029946,2991.9,0.00029952,2995.5,-9.8348e-05,6.0636,-9.9012e-05,1.0736,0.82645
742,13.104,4.8148,0.1,0.00025341,2531.5,0.00025332,2531.2,-8.3537e-05,0.19798,-8.3682e-05,-0.89182,1.0543
743,12.541,5.4065,0.1,0.00026856,2683.1,0.00026846,2681.9,-8.8522e-05,-0.31882,-8.8774e-05,-2.2134,0.97643
744,14.261,4.819,0.1,0.00022373,2234.7,0.0002235,2231.1,-7.3426e-05,0.065677,-7.4415e-05,-7.3676,1.2139
745,13.694,5.4084,0.1,0.00023836,2381.3,0.00023819,2378.1,-7.8296e-05,0.1903,-7.9196e-05,-6.5685,1.1325
746,15.41,4.817,0.1,0.00019489,1946.4,0.00019457,1940.5,-6.3644e-05,0.33383,-6.5307e-05,-12.157,1.3784
747,14.842,5.4107,0.1,0.00020901,2087.9,0.00020877,2083,-6.8484e-05,-0.15133,-6.9743e-05,-9.6068,1.2943
748,16.553,4.8172,0.1,0.00016695,1667.1,0.00016654,1658.8,-5.4223e-05,0.037974,-5.6444e-05,-16.65,1.5471
749,15.987,5.4063,0.1,0.0001805,1802.9,0.00018021,1796.8,-5.8929e-05,-0.014693,-6.0564e-05,-12.298,1.4611
750,17.696,4.8271,0.1,0.00013976,1395.3,0.00013925,1384.4,-4.5039e-05,-0.22812,-4.7839e-05,-21.268,1.7201
751,17.129,5.4108,0.1,0.00015282,1526.3,0.00015247,1518.6,-4.9641e-05,0.064194,-5.1673e-05,-15.204,1.6322
752,18.84,4.8309,0.1,0.00011336,1131.3,0.00011273,1117.8,-3.6008e-05,0.19873,-3.9597e-05,-26.772,1.8969
753,18.274,5.4162,0.1,0.00012584,1256.6,0.00012543,1247.5,-4.0621e-05,-0.154,-4.2975e-05,-17.843,1.8076
754,19.982,4.8226,0.1,8.7896e-05,876.74,8.7086e-05,858.71,-2.7196e-05,0.035259,-3.1865e-05,-35.045,2.0763
755,19.417,5.4147,0.1,9.9658e-05,994.71,9.9154e-05,983.7,-3.1766e-05,0.026902,-3.4656e-05,-21.692,1.986
756,21.124,4.8118,0.1,6.3419e-05,631.97,6.228e-05,606.42,-1.844e-05,-0.079806,-2.4853e-05,-48.265,2.258
757,20.56,5.4079,0.1,7.428e-05,740.8,7.3628e-05,726.75,-2.3099e-05,-0.020865,-2.6733e-05,-27.328,2.1669
758,22.271,4.8075,0.1,4.0348e-05,400.71,3.8445e-05,361.11,-9.5976e-06,0.1326,-1.8941e-05,-70.07,2.4421
759,21.704,5.404,0.1,4.9723e-05,494.62,4.8802e-05,475.99,-1.459e-05,-0.31135,-1.9222e-05,-35.114,2.3499
760,22.846,4.2036,0.1,3.095e-05,306.91,2.7626e-05,242.05,-4.5779e-06,0.081881,-1.832e-05,-103.17,2.5356
761,22.851,5.4035,0.1,2.6123e-05,256.82,2.4557e-05,229.63,-6.0368e-06,-0.23856,-1.2333e-05,-47.549,2.5347
762,23.423,4.8035,0.1,2.1909e-05,203.48,1.5874e-05,120.98,-2.4686e-07,-0.14115,-1.5392e-05,-113.94,2.628
763,22.846,2.9973,0.1,3.2609e-05,324.27,2.8541e-05,244.52,-4.0014e-06,0.0067492,-2.0416e-05,-123.33,2.5366
764,23.423,3.6001,0.1,2.557e-05,240.18,1.7385e-05,122.76,9.897e-07,-0.42501,-1.9452e-05,-154.02,2.6293
765,22.849,1.7951,0.1,3.0858e-05,306.14,2.7542e-05,241.17,-4.5512e-06,0.028565,-1.8298e-05,-103.26,2.5377
766,23.423,2.3972,0.1,2.5521e-05,240,1.7366e-05,122.6,9.9459e-07,-0.41111,-1.9442e-05,-153.96,2.6301
767,22.279,1.1945,0.1,4.0177e-05,398.92,3.8256e-05,359.13,-9.5238e-06,0.13395,-1.8901e-05,-70.325,2.4459
768,23.426,1.1979,0.1,2.1812e-05,202.4,1.573e-05,119.44,-1.8502e-07,-0.13472,-1.5373e-05,-114.25,2.631
769,22.854,0.59789,0.1,2.6012e-05,255.66,2.4437e-05,228.4,-5.989e-06,-0.20402,-1.2305e-05,-47.659,2.5385
770,21.132,1.1986,0.1,6.3287e-05,630.59,6.2126e-05,604.64,-1.8356e-05,-0.063566,-2.4867e-05,-48.983,2.2618
771,21.709,0.59658,0.1,4.9602e-05,493.36,4.8677e-05,474.79,-1.4546e-05,-0.24645,-1.9179e-05,-35.056,2.3541
772,19.985,1.2054,0.1,8.7832e-05,876.06,8.6998e-05,857.5,-2.713e-05,-0.016969,-3.1918e-05,-35.988,2.0795
773,20.563,0.60198,0.1,7.4259e-05,740.53,7.3596e-05,726.35,-2.3078e-05,-0.022423,-2.6744e-05,-27.566,2.1708
774,18.844,1.2059,0.1,0.00011323,1130,0.00011259,1116.3,-3.5968e-05,0.040468,-3.9563e-05,-26.97,1.9002
775,19.418,0.60345,0.1,9.965e-05,994.57,9.913e-05,983.3,-3.1755e-05,-0.1175,-3.4675e-05,-22.058,1.9896
776,17.703,1.2059,0.1,0.00013961,1393.7,0.00013909,1382.9,-4.4988e-05,-0.15265,-4.7771e-05,-21.068,1.7238
777,18.277,0.60245,0.1,0.00012574,1255.5,0.00012533,1246.6,-4.057e-05,0.10982,-4.2942e-05,-17.714,1.8115
778,16.556,1.2126,0.1,0.00016691,1666.5,0.00016648,1658.2,-5.4185e-05,0.18819,-5.6439e-05,-16.745,1.5501
779,17.133,0.6035,0.1,0.00015277,1525.6,0.00015241,1518.1,-4.964e-05,-0.02935,-5.1628e-05,-14.963,1.6362
780,15.408,1.2241,0.1,0.00019497,1946.9,0.00019462,1940.8,-6.3652e-05,0.25256,-6.5349e-05,-12.495,1.3809
781,15.986,0.60906,0.1,0.00018056,1803.4,0.00018025,1797.2,-5.8951e-05,-0.051269,-6.0568e-05,-12.202,1.4644
782,14.259,1.2394,0.1,0.00022385,2235.5,0.00022359,2232.2,-7.3449e-05,0.34568,-7.442e-05,-6.9533,1.2164
783,14.842,0.61502,0.1,0.00020912,2088.8,0.00020886,2084,-6.8486e-05,0.13097,-6.979e-05,-9.6635,1.2978
784,13.1,1.2354,0.1,0.00025367,2533.3,0.00025354,2534.3,-8.3386e-05,2.7698,-8.386e-05,-0.78831,1.0565
785,13.692,0.62435,0.1,0.00023849,2382.3,0.0002383,2379.6,-7.8398e-05,0.012738,-7.9125e-05,-5.4429,1.1359
786,11.93,1.2198,0.1,0.00028457,2841.8,0.0002846,2848.6,-9.2687e-05,13.743,-9.4536e-05,-0.15156,0.90195
787,12.539,0.61103,0.1,0.00026886,2685.7,0.00026875,2685.5,-8.8628e-05,0.28538,-8.8767e-05,-0.75693,0.97965
788,10.746,1.2159,0.1,0.00031664,3161.7,0.00031686,3175.7,-0.00010183,29.838,-0.00010601,-1.5535,0.75335
789,11.379,0.60875,0.1,0.00030024,2999.1,0.00030025,3003,-9.8516e-05,6.8772,-9.9287e-05,1.0907,0.82969
790,9.5472,1.2147,0.1,0.00034907,3484.4,0.00034923,3501.5,-0.00011004,50.767,-0.00011886,-15.473,0.61211
791,10.21,0.60717,0.1,0.00033295,3325.5,0.00033302,3332.6,-0.00010861,14.325,-0.00011054,-0.14752,0.68687
792,8.3077,1.2137,0.1,0.00037845,3769.1,0.0003768,3760.2,-0.00011784,43.713,-0.00013155,-59.306,0.47661
793,9.0362,0.60749,0.1,0.00036506,3644.8,0.00036559,3670.3,-0.00011751,40.426,-0.00012146,10.721,0.55253
794,6.926,1.2536,0.1,0.00041415,4090.7,0.00041298,4208.1,-0.00011423,246.87,-0.00014721,-0.96553,0.33965
795,7.8265,0.60618,0.1,0.00039438,3925.6,0.00039257,3920,-0.00012229,51.577,-0.0001372,-60.434,0.42463
796,5.7272,1.0476,0.1,0.00046315,4438.5,0.00044637,4503.5,-0.00014324,73.419,-0.00014547,56.656,0.23306
797,6.5104,0.64746,0.1,0.00043829,4327.3,0.00043516,4398.4,-0.00012523,187.84,-0.00015513,-36.816,0.29895
798,1.2054,3.4976,0.1,0.00062735,6186.7,0.00058485,5852.4,-3.5646e-05,1190.2,-0.00034927,-1166.2,0.0082345
799,0.99423,4.4841,0.1,0.00061842,6153,0.00058622,5968.6,-2.8321e-05,1351.2,-0.00034344,-1016.5,0.0049952
800,0.5042,3.7861,0.1,0.00052595,5055.9,0.00055662,6869.4,4.9376e-06,2724.3,-0.00019308,1236.5,0.0013494
801,1.3664,2.3933,0.1,0.00062429,6164.6,0.00058966,5975.4,-3.948e-05,1248.3,-0.00033833,-997.21,0.010609
802,1.6623,1.6033,0.1,0.00061891,5976.3,0.00060011,6327.3,-7.329e-05,1267.6,-0.00027748,-266.59,0.014996
803,0.66514,1.4818,0.1,0.0005315,5160,0.00057751,7226.2,4.2208e-07,2890.2,-0.00018205,1519.2,0.0023407
804,1.2051,0.88179,0.1,0.00060608,5943.4,0.00058695,6108.6,-5.8637e-05,1257.9,-0.00029541,-521.06,0.0069737
805,1.8175,3.5381,0.1,0.00076521,7456.9,0.00075606,8151.6,-7.3983e-05,1915.1,-0.00034325,-108.09,0.018828
806,2.3212,3.5115,0.1,0.0010245,9960.8,0.0010195,10815,-0.00018754,1745.4,-0.00039938,153.79,0.031389
807,0.70123,2.7115,0.1,0.00049959,4882,0.0005439,6652.1,-3.118e-05,2331.1,-0.00016095,1356.1,0.0027873
808,4.7978,0.64809,0.1,0.00043206,3965,0.00038926,3795.9,-9.9704e-05,121.98,-0.00017011,-407.03,0.15749
809,5.4836,0.40017,0.1,0.00045907,4387.2,0.00043822,4380.7,-0.00012323,162.18,-0.00016579,-157.65,0.20976
810,4.2045,5.2589,0.1,0.00040326,3675.9,0.00036232,3568.8,-8.8116e-05,184.34,-0.00015814,-341.83,0.10949
811,3.8556,5.4802,0.1,0.00025578,1831.8,0.00018087,1771.9,-5.0749e-05,31.575,-7.3509e-05,-139.43,0.08259
812,4.4276,5.7302,0.1,0.0003298,3172.9,0.00031418,3081.8,-9.6061e-05,-0.51416,-0.00011921,-174.48,0.12156
813,1.5098,5.1141,0.1,0.00052756,5171.9,0.00051252,5158.2,-0.00010188,541.82,-0.00023137,-431.06,0.010553
814,0.49003,4.898,0.1,0.00047064,4610.9,0.00051603,6360.1,-2.4533e-05,2298.5,-0.00015104,1348,0.0011143
815,1.03,5.498,0.1,0.00060151,5944.4,0.00058256,5702.3,-0.0001349,311.68,-0.00026594,-672.9,0.0040897
816,2.6172,1.4715,0.1,0.00076276,6594.7,0.00065363,6451.1,-0.00018045,184.17,-0.000262,-428.6,0.03741
817,3.8649,0.49792,0.1,0.00026607,1897.4,0.00018058,1671.2,-4.5561e-05,-27.942,-9.1908e-05,-376.17,0.088731
818,4.4369,0.24792,0.1,0.00034235,3156.2,0.00031159,3039.9,-9.5044e-05,-15.385,-0.00012073,-208.38,0.12795
819,4.4913,3.333,0.1,0.00078766,7051.2,0.00071123,7253.5,-0.00018482,520.97,-0.00026456,-78.173,0.1404
820,4.322,4.871,0.1,0.00050913,4645.9,0.0004631,4619.8,-0.00012579,195.05,-0.00018096,-219.48,0.12101
821,3.9731,4.5923,0.1,0.00058466,4850.3,0.00045429,4075.8,-0.00011793,-223.67,-0.00024552,-1182.3,0.09891
822,3.7556,5.0287,0.1,0.00048121,3638.2,0.00032851,2923.9,-4.8462e-05,91.433,-0.00021758,-1179.3,0.0801
823,2.6398,5.3661,0.1,0.00037319,3088.5,0.00030807,3061.9,-9.5958e-05,26.214,-0.00010965,-76.689,0.031542
824,2.0998,5.6161,0.1,0.00044615,4412.5,0.00044479,4513.5,-0.00012939,199.4,-0.00015475,8.8521,0.018733
825,2.7363,4.2765,0.1,0.0010577,7564.6,0.00070745,6417.8,-0.00015952,-96.257,-0.00039677,-1878.9,0.04125
826,2.8437,0.45216,0.1,0.00026759,2422,0.00025122,2709.1,-4.9408e-05,450.35,-8.9153e-05,151.72,0.03641
827,2.3037,0.20216,0.1,0.00047976,4420.6,0.00043462,4202.5,-0.00013697,-92.21,-0.00016917,-334.1,0.022529
828,3.6502,3.6179,0.1,0.0012678,11563,0.0011507,11385,-0.00035821,48.082,-0.00041678,-392,0.085867
829,3.4989,2.1717,0.1,0.0016491,14083,0.0013945,13694,-0.00041473,100.45,-0.00053871,-831.13,0.077945
830,3.4067,4.25,0.1,0.0010783,9362.2,0.00091329,8836.1,-0.000224,290.97,-0.0004186,-1171.2,0.066154
831,3.3233,4,0.1,0.0015073,13625,0.0014141,15140,-0.00034945,1889.7,-0.00044545,1168.3,0.065412
832,3.4067,4,0.05,0.0015525,631.01,4.8487e-05,364.32,-1.0285e-20,3.7975e-05,-4.8487e-05,-364.32,0.069091
833,3.4067,4.75,0.1,0.00055674,5339.1,0.00042264,3153.3,-2.9264e-05,-242.08,-0.00039642,-3000.7,0.059653
834,3.4067,4.5,0.05,0.00060397,433.23,3.329e-05,250.13,4.5029e-13,-1.6621e-08,-3.329e-05,-250.13,0.062665
835,3.4067,5.25,0.1,0.00033373,3076.6,0.00024698,1877.7,-1.9444e-05,-124.07,-0.00022451,-1664.9,0.05355
836,3.4067,5,0.05,0.0005095,1056.9,8.1216e-05,610.22,-1.7227e-20,1.4394e-05,-8.1216e-05,-610.22,0.056283
837,3.4067,5.75,0.1,0.00012835,655.66,6.4207e-05,644.05,-1.0207e-05,84.928,-3.1837e-05,-77.593,0.048184
838,3.4067,5.5,0.05,0.00015796,307.72,2.3646e-05,177.66,-1.7853e-20,-7.7851e-08,-2.3646e-05,-177.66,0.05071
839,3.24,5.25,0.1,0.00035935,3217.4,0.00029273,2599.9,-5.0798e-05,18.757,-0.00018702,-1004.8,0.047004
840,3.24,5.75,0.1,0.00017724,867.82,8.0064e-05,697.12,-2.1265e-05,-64.229,-4.5698e-05,-247.81,0.042681
841,3.24,5.5,0.05,0.00026022,190.68,1.4652e-05,110.09,1.7077e-12,-2.3351e-14,-1.4652e-05,-110.09,0.044765
842,3.24,4.75,0.1,0.00081516,7340.9,0.0005338,3496.8,-1.0165e-05,-590.35,-0.00059411,-4977.9,0.051736
843,3.24,5,0.05,0.00045847,464.04,3.5657e-05,267.91,-7.5634e-21,-6.8819e-08,-3.5657e-05,-267.91,0.049344
844,3.24,4.25,0.1,0.001317,10328,0.00098106,9157.3,-0.00021598,163.17,-0.00052019,-2122.5,0.058445
845,3.24,4.5,0.05,0.0011718,1018.2,7.8242e-05,587.88,-1.6596e-20,-1.247e-13,-7.8242e-05,-587.88,0.054353
846,3.24,4,0.05,0.0014621,771.91,5.9314e-05,445.66,-1.2581e-20,3.1971e-05,-5.9314e-05,-445.66,0.061136
847,3.4067,1.75,0.1,0.0014314,13112,0.0011972,10421,-0.00026847,-591.41,-0.00073319,-4083.1,0.068985
848,3.3233,2,0.1,0.0022627,18274,0.0017383,16751,-0.00026391,1707.4,-0.00096834,-3585.4,0.067431
849,3.4067,2,0.05,0.0022676,6595.6,0.00050681,3808,-1.2529e-11,-8.0773e-13,-0.00050681,-3808,0.071553
850,3.4067,1.25,0.1,0.00056453,5138.7,0.00043409,3582.1,-4.0263e-05,17.943,-0.00034989,-2308.5,0.064088
851,3.4067,1.5,0.05,0.00059522,729.26,5.6037e-05,421.04,3.9021e-13,-8.2614e-06,-5.6037e-05,-421.04,0.066513
852,3.4067,0.75,0.1,0.0003458,3350,0.00028366,2271.6,-3.9421e-05,-155.97,-0.00022502,-1550.5,0.059056
853,3.4067,1,0.05,0.00053384,636.01,4.8872e-05,367.2,-1.0366e-20,-7.7889e-14,-4.8872e-05,-367.2,0.06136
854,3.4067,0.25,0.1,0.00015725,1131.3,0.00010687,962.91,-3.1441e-05,-76.334,-5.3507e-05,-242.12,0.054624
855,3.4067,0.5,0.05,0.00015775,81.889,6.2924e-06,47.279,3.5597e-13,-1.0029e-14,-6.2924e-06,-47.279,0.056678
856,3.24,0.75,0.1,0.00035147,3105.6,0.00026228,2249.5,-1.0785e-05,197.79,-0.00021326,-1323.5,0.04865
857,3.24,0.25,0.1,0.0001672,708.15,7.267e-05,796.87,-6.8226e-06,199.59,-3.1448e-05,14.566,0.04439
858,3.24,0.5,0.05,0.00018732,236.05,1.8138e-05,136.28,-3.8474e-21,-2.8908e-14,-1.8138e-05,-136.28,0.046391
859,3.24,1.25,0.1,0.00073254,6738.7,0.00058626,4926.6,-8.1619e-05,-91.623,-0.00043311,-2732.6,0.053858
860,3.24,1,0.05,0.00051562,678.89,5.2166e-05,391.96,-1.1065e-20,-3.1515e-13,-5.2166e-05,-391.96,0.050987
861,3.24,1.75,0.1,0.0016036,12979,0.0012805,12703,-0.00028549,937.26,-0.00057235,-1218.1,0.060133
862,3.24,1.5,0.05,0.00094946,534.37,4.1061e-05,308.52,-1.5261e-13,-4.0718e-05,-4.1061e-05,-308.52,0.056792
863,3.24,2,0.05,0.0022578,3285.7,0.00025248,1897,-1.2749e-11,-1.2209e-05,-0.00025248,-1897,0.063374
864,3.9787,6,0.1,0.00020237,1996.2,0.00019842,1960.8,-5.9991e-05,19.233,-7.3979e-05,-85.863,0.086202
865,3.4067,6,0.05,9.8732e-05,56.192,4.3178e-06,32.442,-9.1587e-22,-6.8815e-15,-4.3178e-06,-32.442,0.045381
866,5.1228,6,0.1,0.00038308,3767.4,0.00037605,3739.7,-0.00012324,-11.851,-0.00012745,-43.473,0.17212
867,4.5507,6,0.05,0.000306,180,1.3832e-05,103.93,-2.9339e-21,-2.2044e-14,-1.3832e-05,-103.93,0.12813
868,6.2669,6,0.1,0.00042473,4183,0.00042377,4338,-0.00012415,221.19,-0.00014137,91.776,0.26812
869,5.6948,6,0.05,0.00046015,175.03,1.345e-05,101.05,-2.8528e-21,-2.1435e-14,-1.345e-05,-101.05,0.21861
870,7.4109,6,0.1,0.00039383,3914.5,0.00039573,4036.1,-0.00011555,194.54,-0.00013445,52.508,0.3752
871,6.8389,6,0.05,0.00038932,140.82,1.0821e-05,81.303,-2.2952e-21,-1.7246e-14,-1.0821e-05,-81.303,0.32033
872,8.555,6,0.1,0.00037918,3786.7,0.00037732,3739.4,-0.00012419,-28.665,-0.00012911,-65.663,0.49252
873,7.983,6,0.05,0.00039834,12.556,9.6478e-07,7.249,-2.0464e-22,-1.5376e-15,-9.6478e-07,-7.249,0.43252
874,9.6991,6,0.1,0.00034607,3458.1,0.0003464,3468.3,-0.00011329,14.441,-0.00011441,5.9949,0.61974
875,9.127,6,0.05,0.00036002,11.424,8.7784e-07,6.5957,-1.804e-12,-1.3991e-15,-8.7784e-07,-6.5957,0.55491
876,10.843,6,0.1,0.00031577,3155.4,0.00031552,3148.3,-0.00010365,-1.1534,-0.00010523,-13.049,0.75602
877,10.271,6,0.05,0.00033212,28.57,2.1953e-06,16.495,-4.6566e-22,-6.904e-15,-2.1953e-06,-16.495,0.68677
878,11.987,6,0.1,0.00028405,2838.5,0.000284,2837.1,-9.3282e-05,2.3983,-9.4278e-05,-5.0847,0.90053
879,11.415,6,0.05,0.00029943,27.896,2.1436e-06,16.106,-4.5468e-22,-1.2333e-14,-2.1436e-06,-16.106,0.82727
880,13.131,6,0.1,0.00025351,2533.2,0.00025335,2529,-8.3266e-05,-0.21494,-8.4329e-05,-8.2048,1.0525
881,12.559,6,0.05,0.00026867,28.195,2.1665e-06,16.279,-4.5956e-22,-6.9448e-15,-2.1665e-06,-16.279,0.97559
882,14.275,6,0.1,0.00022365,2234.8,0.00022348,2230.3,-7.3354e-05,-0.025329,-7.4554e-05,-9.0392,1.211
883,13.703,6,0.05,0.00023834,28.289,2.1738e-06,16.333,-4.6109e-22,2.9798e-07,-2.1738e-06,-16.333,1.1309
884,15.419,6,0.1,0.00019462,1944.8,0.00019443,1939.5,-6.377e-05,-0.50604,-6.5032e-05,-9.9884,1.3753
885,14.847,6,0.05,0.00020895,27.989,2.1507e-06,16.16,-4.562e-22,-2.3834e-07,-2.1507e-06,-16.16,1.2924
886,16.564,6,0.1,0.00016637,1662.5,0.00016617,1656.9,-5.4346e-05,0.019633,-5.5829e-05,-11.12,1.5447
887,15.991,6,0.05,0.00018029,26.93,2.0693e-06,15.548,-4.3893e-22,4.042e-07,-2.0693e-06,-15.548,1.4594
888,17.708,6,0.1,0.0001389,1388,0.00013869,1382,-4.522e-05,0.16861,-4.6853e-05,-12.101,1.7184
889,17.136,6,0.05,0.00015245,26.497,2.0361e-06,15.298,-4.3188e-22,5.8113e-07,-2.0361e-06,-15.298,1.6311
890,18.852,6,0.1,0.00011214,1120.5,0.00011189,1113.7,-3.637e-05,-0.25852,-3.8088e-05,-13.167,1.8957
891,18.28,6,0.05,0.00012536,25.861,1.9872e-06,14.931,-4.2151e-22,-8.2326e-07,-1.9872e-06,-14.931,1.8067
892,19.996,6,0.1,8.6042e-05,859.6,8.5763e-05,852.25,-2.7651e-05,0.099393,-2.9609e-05,-14.61,2.0759
893,19.424,6,0.05,9.8929e-05,24.309,1.8679e-06,14.035,-3.9621e-22,7.1011e-07,-1.8679e-06,-14.035,1.9855
894,21.14,6,0.1,6.0584e-05,605.03,6.027e-05,597.22,-1.9224e-05,-0.065773,-2.1247e-05,-15.267,2.2583
895,20.568,6,0.05,7.3154e-05,21.835,1.6778e-06,12.607,-2.7099e-15,4.7035e-07,-1.6778e-06,-12.607,2.1668
896,22.284,6,0.1,3.5497e-05,354.1,3.5156e-05,346.34,-1.0998e-05,-0.4484,-1.2888e-05,-14.647,2.4422
897,21.712,6,0.05,4.8013e-05,18.591,1.4285e-06,10.733,-3.0301e-22,-6.8813e-07,-1.4285e-06,-10.733,2.3501
898,23.428,6,0.1,1.2939e-05,120.33,1.174e-05,112.83,-3.1844e-06,0.69623,-5.1788e-06,-14.289,2.6269
899,22.856,6,0.05,2.2981e-05,13.899,1.068e-06,8.0245,-1.0613e-13,-1.9124e-06,-1.068e-06,-8.0245,2.5345
900,24,5.4,0.1,8.7252e-06,77.461,3.0521e-06,4.1491,2.0808e-06,-3.1491,-7.7086e-06,-76.703,2.7203
901,24,6,0.05,2.8972e-06,6.893,5.2966e-07,3.9797,1.1203e-13,9.4323e-07,-5.2966e-07,-3.9797,2.7194
902,24,4.2,0.1,1.6529e-05,164.7,5.8865e-06,3.603,5.0038e-06,-3.0298,-1.6461e-05,-164.31,2.7219
903,24,4.8,0.05,1.4553e-05,5.8301,4.4799e-07,3.366,-1.2453e-14,-7.8787e-08,-4.4799e-07,-3.366,2.7212
904,24,3,0.1,1.8482e-05,184.46,6.4988e-06,3.0121,5.6721e-06,-3.1994,-1.8454e-05,-184.47,2.723
905,24,3.6,0.05,1.8504e-05,5.4209,4.1655e-07,3.1298,-5.9103e-14,3.2519e-06,-4.1655e-07,-3.1298,2.7225
906,24,1.8,0.1,1.6476e-05,164.32,5.8352e-06,2.9907,5.0017e-06,-3.2725,-1.6439e-05,-164.37,2.7236
907,24,2.4,0.05,1.846e-05,5.2038,3.9987e-07,3.0044,-4.2129e-13,-3.5445e-06,-3.9987e-07,-3.0044,2.7234
908,24,0.6,0.1,8.6579e-06,77.343,3.037e-06,3.7848,2.0623e-06,-3.5385,-7.7094e-06,-76.959,2.7237
909,24,1.2,0.05,1.4491e-05,5.6156,4.315e-07,3.2422,-2.0115e-13,1.783e-07,-4.315e-07,-3.2422,2.7237
910,0,1.8,0.1,0.0004068,3999,0.00053236,7907.5,2.5538e-05,4099.4,-2.2081e-05,3741.6,0
911,0,0.6,0.1,0.00030196,2772.7,0.00036105,5250,1.1988e-05,2627.3,-2.5125e-05,2348.4,0
912,0,1.2,0.05,0.00040125,92.691,7.1225e-06,53.515,9.8241e-14,3.7388e-07,-7.1225e-06,-53.515,0
913,0,3,0.1,0.00039819,3862.2,0.00051521,7665.6,2.4254e-05,3976.7,-1.9146e-05,3650.6,0
914,0,2.4,0.05,0.00041236,857.16,6.5864e-05,494.88,-1.3971e-20,-1.0497e-13,-6.5864e-05,-494.88,0
915,0,4.2,0.1,0.00037817,3691.2,0.00049196,7302.4,1.4739e-05,3716.8,-1.2229e-05,3514.1,0
916,0,3.6,0.05,0.00038403,156.31,1.2011e-05,90.243,-8.3285e-21,3.2912e-07,-1.2011e-05,-90.243,0
917,0,5.4,0.1,0.00025229,2328.2,0.00030774,4534.3,9.6703e-06,2294.7,-1.2711e-05,2126.5,0
918,0,4.8,0.05,0.00037231,227.35,1.7469e-05,131.26,-1.21e-20,-2.7842e-14,-1.7469e-05,-131.26,0
919,23.428,0,0.1,1.2858e-05,119.55,1.1666e-05,112.16,-3.1665e-06,0.71404,-5.1396e-06,-14.111,2.6312
920,24,0,0.05,2.8248e-06,6.9912,5.3721e-07,4.0364,3.6939e-13,3.0986e-06,-5.3721e-07,-4.0364,2.7237
921,22.284,0,0.1,3.5437e-05,353.5,3.5101e-05,345.88,-1.0975e-05,-0.3135,-1.2861e-05,-14.487,2.4464
922,22.856,0,0.05,2.289e-05,13.862,1.0652e-06,8.0034,-1.0121e-13,-1.1515e-06,-1.0652e-06,-8.0034,2.5387
923,21.14,0,0.1,6.0574e-05,604.93,6.027e-05,597.41,-1.9239e-05,0.012668,-2.1208e-05,-14.781,2.2625
924,21.712,0,0.05,4.7983e-05,18.608,1.4298e-06,10.743,-2.0684e-14,-1.1599e-06,-1.4298e-06,-10.743,2.3543
925,19.996,0,0.1,8.6078e-05,859.96,8.5802e-05,852.71,-2.768e-05,0.041877,-2.9597e-05,-14.363,2.0802
926,20.568,0,0.05,7.3165e-05,21.697,1.6672e-06,12.527,-1.0806e-21,5.6557e-07,-1.6672e-06,-12.527,2.1711
927,18.852,0,0.1,0.00011216,1120.7,0.00011192,1114,-3.6338e-05,0.095647,-3.8126e-05,-13.341,1.9
928,19.424,0,0.05,9.899e-05,23.776,1.827e-06,13.727,-3.8753e-22,-4.58e-07,-1.827e-06,-13.727,1.9897
929,17.708,0,0.1,0.0001389,1388,0.00013869,1382.1,-4.5207e-05,0.35221,-4.6859e-05,-12.063,1.7227
930,18.28,0,0.05,0.00012533,24.994,1.9205e-06,14.43,-4.0737e-22,1.1727e-06,-1.9205e-06,-14.43,1.8109
931,16.564,0,0.1,0.00016642,1662.9,0.00016622,1657.4,-5.4394e-05,-0.17387,-5.5807e-05,-10.798,1.549
932,17.136,0,0.05,0.00015247,26.383,2.0273e-06,15.232,-4.3003e-22,-8.6425e-07,-2.0273e-06,-15.232,1.6353
933,15.419,0,0.1,0.0001947,1945.6,0.00019453,1940.7,-6.3768e-05,-0.040091,-6.5065e-05,-9.7878,1.3796
934,15.991,0,0.05,0.00018036,26.623,2.0457e-06,15.371,-4.3392e-22,6.2579e-07,-2.0457e-06,-15.371,1.4637
935,14.275,0,0.1,0.00022375,2235.9,0.0002236,2231.6,-7.34e-05,0.07239,-7.4564e-05,-8.6786,1.2152
936,14.847,0,0.05,0.00020904,27.144,2.0857e-06,15.671,-4.4242e-22,-3.1292e-07,-2.0857e-06,-15.671,1.2967
937,13.131,0,0.1,0.00025368,2535,0.00025354,2531,-8.3363e-05,-0.39048,-8.434e-05,-7.7285,1.0567
938,13.703,0,0.05,0.00023846,26.651,2.0479e-06,15.387,-4.3439e-22,-3.2639e-15,-2.0479e-06,-15.387,1.1352
939,11.987,0,0.1,0.00028453,2843.3,0.00028442,2840.1,-9.3452e-05,0.97372,-9.4548e-05,-7.2637,0.90481
940,12.559,0,0.05,0.0002689,28.067,2.1567e-06,16.204,-4.5746e-22,-3.5759e-07,-2.1567e-06,-16.204,0.97986
941,10.843,0,0.1,0.00031655,3163.2,0.00031643,3160,-0.00010381,2.5098,-0.00010531,-8.7873,0.76033
942,11.415,0,0.05,0.00030016,26.646,2.0475e-06,15.384,-4.343e-22,3.5739e-07,-2.0475e-06,-15.384,0.83156
943,9.6991,0,0.1,0.00034894,3486.2,0.00034937,3501.2,-0.00011315,26.05,-0.00011608,4.0364,0.62411
944,10.271,0,0.05,0.00033294,20.268,1.5574e-06,11.702,-3.3035e-22,-1.7592e-07,-1.5574e-06,-11.702,0.6911
945,8.555,0,0.1,0.00038099,3802.2,0.00038144,3830.6,-0.00012197,48.251,-0.00012719,9.0338,0.49702
946,9.127,0,0.05,0.00036494,6.2879,4.8317e-07,3.6303,1.3904e-12,-7.4357e-07,-4.8317e-07,-3.6303,0.55933
947,7.4109,0,0.1,0.00041853,4169.5,0.00041534,4114.8,-0.00013442,-15.864,-0.0001446,-92.371,0.37988
948,7.983,0,0.05,0.00039705,68.487,5.2626e-06,39.541,-1.1163e-21,-8.3873e-15,-5.2626e-06,-39.541,0.4371
949,6.2669,0,0.1,0.00043421,4276.5,0.00042797,4282.8,-0.00012891,98.565,-0.00015272,-80.324,0.27344
950,6.8389,0,0.05,0.00044001,191.82,1.4739e-05,110.75,-3.1264e-21,-6.901e-14,-1.4739e-05,-110.75,0.32524
951,5.1228,0,0.1,0.00036936,3585.6,0.00035999,3620.5,-0.00011489,52.445,-0.00011953,17.578,0.1782
952,5.6948,0,0.05,0.00042842,234.97,1.8055e-05,135.66,-3.8298e-21,-2.8775e-14,-1.8055e-05,-135.66,0.2244
953,3.9787,0,0.1,0.00023353,2248.6,0.00022363,2224.5,-5.9405e-05,97.903,-8.9592e-05,-128.9,0.092811
954,4.5507,0,0.05,0.00031031,271.84,2.0888e-05,156.95,-4.4307e-21,1.8238e-06,-2.0888e-05,-156.95,0.1345
955,3.4067,0,0.05,0.00015675,192.91,1.4824e-05,111.38,-3.1443e-21,-2.3625e-14,-1.4824e-05,-111.38,0.052341
956,2.7,0,0.1,0.00037938,2307.6,0.00022072,2024.6,-6.9899e-05,-158.97,-0.0001006,-389.62,0.029703
957,3.24,0,0.05,0.00014708,407.14,3.1285e-05,235.06,-7.2443e-21,9.057e-08,-3.1285e-05,-235.06,0.042395
958,1.62,0,0.1,0.00058104,5658.6,0.00056104,5508.2,-0.00018214,-75.772,-0.00020163,-222.22,0.009795
959,2.16,0,0.05,0.00061167,724.34,5.5659e-05,418.2,-1.1806e-20,-8.8706e-14,-5.5659e-05,-418.2,0.018268
960,0.54,0,0.1,0.00037654,3608.5,0.00037955,4200.5,-6.4298e-05,865.58,-0.00013031,369.59,0.0005861
961,1.08,0,0.05,0.00055041,347.75,2.6721e-05,200.77,-3.9787e-12,-4.2587e-14,-2.6721e-05,-200.77,0.0035994
962,0,0,0.05,0.00020267,881.5,6.7735e-05,508.93,3.6336e-12,-6.404e-05,-6.7735e-05,-508.93,0
963,0.54,6,0.1,0.00038317,3718.3,0.00037857,3908.8,-0.00011469,202.73,-0.00011792,178.48,0.00048499
964,0,6,0.05,0.00013227,566.76,4.3551e-05,327.22,-2.5154e-20,-6.9409e-14,-4.3551e-05,-327.22,0
965,1.62,6,0.1,0.0005201,5182.7,0.00051403,5051.7,-0.00016403,-42.989,-0.00018689,-214.77,0.0090717
966,1.08,6,0.05,0.00063406,75.432,5.7962e-06,43.551,-1.2295e-21,-9.2377e-15,-5.7962e-06,-43.551,0.0031291
967,2.7,6,0.1,0.0002502,1935.7,0.00019539,1988,-5.6195e-05,97.68,-6.7898e-05,9.7537,0.028563
968,2.16,6,0.05,0.00040614,216.86,1.6664e-05,125.2,-3.5346e-21,-2.6558e-14,-1.6664e-05,-125.2,0.01766
969,3.24,6,0.05,9.4259e-05,201.19,1.5459e-05,116.16,-3.2792e-21,-2.4639e-14,-1.5459e-05,-116.16,0.04067
970,1.62,6,0,0.0005201,5182.7,0.00018689,214.77,0.00016403,42.989,-0.00051403,-5051.7,0.0090717
971,2.7,6,0,0.0002502,1935.7,6.7898e-05,-9.7537,5.6195e-05,-97.68,-0.00019539,-1988,0.028563
972,0.54,6,0,0.00038317,3718.3,0.00011792,-178.48,0.00011469,-202.73,-0.00037857,-3908.8,0.00048499
973,3.24,5.75,0,0.00017724,867.82,4.5698e-05,247.81,2.1265e-05,64.229,-8.0064e-05,-697.12,0.042681
974,0,5.4,0,0.00025229,2328.2,1.2711e-05,-2126.5,-9.6703e-06,-2294.7,-0.00030774,-4534.3,0
975,1.62,0,0,0.00058104,5658.6,0.00020163,222.22,0.00018214,75.772,-0.00056104,-5508.2,0.009795
976,0.54,0,0,0.00037654,3608.5,0.00013031,-369.59,6.4298e-05,-865.58,-0.00037955,-4200.5,0.0005861
977,2.7,0,0,0.00037938,2307.6,0.0001006,389.62,6.9899e-05,158.97,-0.00022072,-2024.6,0.029703
978,3.24,0.25,0,0.0001672,708.15,3.1448e-05,-14.566,6.8226e-06,-199.59,-7.267e-05,-796.87,0.04439
979,0,0.6,0,0.00030196,2772.7,2.5125e-05,-2348.4,-1.1988e-05,-2627.3,-0.00036105,-5250,0
980,5.1228,0,0,0.00036936,3585.6,0.00011953,-17.578,0.00011489,-52.445,-0.00035999,-3620.5,0.1782
981,3.9787,0,0,0.00023353,2248.6,8.9592e-05,128.9,5.9405e-05,-97.903,-0.00022363,-2224.5,0.092811
982,6.2669,0,0,0.00043421,4276.5,0.00015272,80.324,0.00012891,-98.565,-0.00042797,-4282.8,0.27344
983,7.4109,0,0,0.00041853,4169.5,0.0001446,92.371,0.00013442,15.864,-0.00041534,-4114.8,0.37988
984,8.555,0,0,0.00038099,3802.2,0.00012719,-9.0338,0.00012197,-48.251,-0.00038144,-3830.6,0.49702
985,9.6991,0,0,0.00034894,3486.2,0.00011608,-4.0364,0.00011315,-26.05,-0.00034937,-3501.2,0.62411
986,10.843,0,0,0.00031655,3163.2,0.00010531,8.7873,0.00010381,-2.5098,-0.00031643,-3160,0.76033
987,11.987,0,0,0.00028453,2843.3,9.4548e-05,7.2637,9.3452e-05,-0.97372,-0.00028442,-2840.1,0.90481
988,13.131,0,0,0.00025368,2535,8.434e-05,7.7285,8.3363e-05,0.39048,-0.00025354,-2531,1.0567
989,14.275,0,0,0.00022375,2235.9,7.4564e-05,8.6786,7.34e-05,-0.07239,-0.0002236,-2231.6,1.2152
990,15.419,0,0,0.0001947,1945.6,6.5065e-05,9.7878,6.3768e-05,0.040091,-0.00019453,-1940.7,1.3796
991,16.564,0,0,0.00016642,1662.9,5.5807e-05,10.798,5.4394e-05,0.17387,-0.00016622,-1657.4,1.549
992,17.708,0,0,0.0001389,1388,4.6859e-05,12.063,4.5207e-05,-0.35221,-0.00013869,-1382.1,1.7227
993,18.852,0,0,0.00011216,1120.7,3.8126e-05,13.341,3.6338e-05,-0.095648,-0.00011192,-1114,1.9
994,19.996,0,0,8.6078e-05,859.96,2.9597e-05,14.363,2.768e-05,-0.041878,-8.5802e-05,-852.71,2.0802
995,21.14,0,0,6.0574e-05,604.93,2.1208e-05,14.781,1.9239e-05,-0.012669,-6.027e-05,-597.41,2.2625
996,22.284,0,0,3.5437e-05,353.5,1.2861e-05,14.487,1.0975e-05,0.3135,-3.5101e-05,-345.88,2.4464
997,23.428,0,0,1.2858e-05,119.55,5.1396e-06,14.111,3.1665e-06,-0.71404,-1.1666e-05,-112.16,2.6312
998,3.4067,0.25,0,0.00015725,1131.3,5.3507e-05,242.12,3.1441e-05,76.334,-0.00010687,-962.91,0.054624
999,24,0.6,0,8.6579e-06,77.343,7.7094e-06,76.959,-2.0623e-06,3.5385,-3.037e-06,-3.7848,2.7237
1000,0,4.2,0,0.00037817,3691.2,1.2229e-05,-3514.1,-1.4739e-05,-3716.8,-0.00049196,-7302.4,0
1001,0,3,0,0.00039819,3862.2,1.9146e-05,-3650.6,-2.4254e-05,-3976.7,-0.00051521,-7665.6,0
1002,0,1.8,0,0.0004068,3999,2.2081e-05,-3741.6,-2.5538e-05,-4099.4,-0.00053236,-7907.5,0
1003,24,1.8,0,1.6476e-05,164.32,1.6439e-05,164.37,-5.0017e-06,3.2725,-5.8352e-06,-2.9907,2.7236
1004,24,3,0,1.8482e-05,184.46,1.8454e-05,184.47,-5.6721e-06,3.1994,-6.4988e-06,-3.0121,2.723
1005,24,4.2,0,1.6529e-05,164.7,1.6461e-05,164.31,-5.0038e-06,3.0298,-5.8865e-06,-3.603,2.7219
1006,24,5.4,0,8.7252e-06,77.461,7.7086e-06,76.703,-2.0808e-06,3.1491,-3.0521e-06,-4.1491,2.7203
1007,23.428,6,0,1.2939e-05,120.33,5.1788e-06,14.289,3.1844e-06,-0.69623,-1.174e-05,-112.83,2.6269
1008,22.284,6,0,3.5497e-05,354.1,1.2888e-05,14.647,1.0998e-05,0.4484,-3.5156e-05,-346.34,2.4422
1009,21.14,6,0,6.0584e-05,605.03,2.1247e-05,15.267,1.9224e-05,0.065772,-6.027e-05,-597.22,2.2583
1010,19.996,6,0,8.6042e-05,859.6,2.9609e-05,14.61,2.7651e-05,-0.099392,-8.5763e-05,-852.25,2.0759
1011,18.852,6,0,0.00011214,1120.5,3.8088e-05,13.167,3.637e-05,0.25852,-0.00011189,-1113.7,1.8957
1012,17.708,6,0,0.0001389,1388,4.6853e-05,12.101,4.522e-05,-0.16861,-0.00013869,-1382,1.7184
1013,16.564,6,0,0.00016637,1662.5,5.5829e-05,11.12,5.4346e-05,-0.019633,-0.00016617,-1656.9,1.5447
1014,15.419,6,0,0.00019462,1944.8,6.5032e-05,9.9884,6.377e-05,0.50604,-0.00019443,-1939.5,1.3753
1015,14.275,6,0,0.00022365,2234.8,7.4554e-05,9.0392,7.3354e-05,0.025329,-0.00022348,-2230.3,1.211
1016,13.131,6,0,0.00025351,2533.2,8.4329e-05,8.2048,8.3266e-05,0.21494,-0.00025335,-2529,1.0525
1017,11.987,6,0,0.00028405,2838.5,9.4278e-05,5.0847,9.3282e-05,-2.3983,-0.000284,-2837.1,0.90053
1018,10.843,6,0,0.00031577,3155.4,0.00010523,13.049,0.00010365,1.1534,-0.00031552,-3148.3,0.75602
1019,9.6991,6,0,0.00034607,3458.1,0.00011441,-5.9949,0.00011329,-14.441,-0.0003464,-3468.3,0.61974
1020,8.555,6,0,0.00037918,3786.7,0.00012911,65.663,0.00012419,28.665,-0.00037732,-3739.4,0.49252
1021,7.4109,6,0,0.00039383,3914.5,0.00013445,-52.508,0.00011555,-194.54,-0.00039573,-4036.1,0.3752
1022,6.2669,6,0,0.00042473,4183,0.00014137,-91.776,0.00012415,-221.19,-0.00042377,-4338,0.26812
1023,5.1228,6,0,0.00038308,3767.4,0.00012745,43.473,0.00012324,11.851,-0.00037605,-3739.7,0.17212
1024,3.9787,6,0,0.00020237,1996.2,7.3979e-05,85.863,5.9991e-05,-19.233,-0.00019842,-1960.8,0.086202
1025,3.4067,5.75,0,0.00012835,655.66,3.1837e-05,77.593,1.0207e-05,-84.928,-6.4207e-05,-644.05,0.048184
1026,3.24,1.25,0,0.00073254,6738.7,0.00043311,2732.6,8.1619e-05,91.623,-0.00058626,-4926.6,0.053858
1027,3.24,1.75,0,0.0016036,12979,0.00057235,1218.1,0.00028549,-937.26,-0.0012805,-12703,0.060133
1028,3.24,0.75,0,0.00035147,3105.6,0.00021326,1323.5,1.0785e-05,-197.79,-0.00026228,-2249.5,0.04865
1029,3.3233,2,0,0.0022627,18274,0.00096834,3585.4,0.00026391,-1707.4,-0.0017383,-16751,0.067431
1030,3.4067,0.75,0,0.0003458,3350,0.00022502,1550.5,3.9421e-05,155.97,-0.00028366,-2271.6,0.059056
1031,3.4067,1.25,0,0.00056453,5138.7,0.00034989,2308.5,4.0263e-05,-17.943,-0.00043409,-3582.1,0.064088
1032,3.4067,1.75,0,0.0014314,13112,0.00073319,4083.1,0.00026847,591.41,-0.0011972,-10421,0.068985
1033,3.24,4.75,0,0.00081516,7340.9,0.00059411,4977.9,1.0165e-05,590.35,-0.0005338,-3496.8,0.051736
1034,3.24,4.25,0,0.001317,10328,0.00052019,2122.5,0.00021598,-163.17,-0.00098106,-9157.3,0.058445
1035,3.24,5.25,0,0.00035935,3217.4,0.00018702,1004.8,5.0798e-05,-18.757,-0.00029273,-2599.9,0.047004
1036,3.3233,4,0,0.0015073,13625,0.00044545,-1168.3,0.00034945,-1889.7,-0.0014141,-15140,0.065412
1037,3.4067,5.25,0,0.00033373,3076.6,0.00022451,1664.9,1.9444e-05,124.07,-0.00024698,-1877.7,0.05355
1038,3.4067,4.75,0,0.00055674,5339.1,0.00039642,3000.7,2.9264e-05,242.08,-0.00042264,-3153.3,0.059653
1039,3.4067,4.25,0,0.0010783,9362.2,0.0004186,1171.2,0.000224,-290.97,-0.00091329,-8836.1,0.066154
