Node Number	X Location (in)	Y Location (in)	Z Location (in)	Middle Principal Stress (psi)
1	18.	2.1818	0.	69.498
2	18.	2.3636	0.	-11.776
3	18.	2.5455	0.	0.1691
4	18.	2.7273	0.	-1.3457
5	18.	2.9091	0.	-0.73323
6	18.	3.0909	0.	-0.73323
7	18.	3.2727	0.	-1.3457
8	18.	3.4545	0.	0.1691
9	18.	3.6364	0.	-11.776
10	18.	3.8182	0.	69.498
11	18.167	2.1818	0.	1.6516
12	18.167	2.3636	0.	-13.401
13	18.167	2.5455	0.	0.5564
14	18.167	2.7273	0.	-1.383
15	18.167	2.9091	0.	-0.64634
16	18.167	3.0909	0.	-0.64634
17	18.167	3.2727	0.	-1.383
18	18.167	3.4545	0.	0.5564
19	18.167	3.6364	0.	-13.401
20	18.167	3.8182	0.	1.6516
21	17.816	5.8182	0.	-5.8768
22	17.816	5.6364	0.	-2.6271
23	17.816	5.4545	0.	-2.0547
24	17.816	5.2727	0.	-1.8536
25	17.816	5.0909	0.	-1.8206
26	17.816	4.9091	0.	-2.4211
27	17.816	4.7273	0.	-1.489
28	17.816	4.5455	0.	-7.6367
29	17.816	4.3636	0.	8.0571
30	17.816	4.1818	0.	-41.767
31	17.816	4.	0.	-190.34
32	17.816	3.8182	0.	10.336
33	17.816	3.6364	0.	-5.9819
34	17.816	3.4545	0.	1.7927
35	17.816	3.2727	0.	-1.2119
36	17.816	3.0909	0.	-0.30893
37	17.816	2.9091	0.	-0.30893
38	17.816	2.7273	0.	-1.2119
39	17.816	2.5455	0.	1.7927
40	17.816	2.3636	0.	-5.9819
41	17.816	2.1818	0.	10.336
42	17.816	2.	0.	-190.34
43	17.816	1.8182	0.	-41.767
44	17.816	1.6364	0.	8.0571
45	17.816	1.4545	0.	-7.6367
46	17.816	1.2727	0.	-1.489
47	17.816	1.0909	0.	-2.4211
48	17.816	0.90909	0.	-1.8206
49	17.816	0.72727	0.	-1.8536
50	17.816	0.54545	0.	-2.0547
51	17.816	0.36364	0.	-2.6271
52	17.816	0.18182	0.	-5.8768
53	17.633	5.8182	0.	-0.40622
54	17.633	5.6364	0.	9.522e-002
55	17.633	5.4545	0.	0.32166
56	17.633	5.2727	0.	0.49783
57	17.633	5.0909	0.	0.57249
58	17.633	4.9091	0.	0.70154
59	17.633	4.7273	0.	0.63667
60	17.633	4.5455	0.	0.56118
61	17.633	4.3636	0.	2.4174
62	17.633	4.1818	0.	6.4242
63	17.633	4.	0.	22.7
64	17.633	3.8182	0.	12.007
65	17.633	3.6364	0.	-1.7744
66	17.633	3.4545	0.	0.42466
67	17.633	3.2727	0.	-9.1511e-002
68	17.633	3.0909	0.	-0.11189
69	17.633	2.9091	0.	-0.11189
70	17.633	2.7273	0.	-9.1511e-002
71	17.633	2.5455	0.	0.42466
72	17.633	2.3636	0.	-1.7744
73	17.633	2.1818	0.	12.007
74	17.633	2.	0.	22.7
75	17.633	1.8182	0.	6.4242
76	17.633	1.6364	0.	2.4174
77	17.633	1.4545	0.	0.56118
78	17.633	1.2727	0.	0.63667
79	17.633	1.0909	0.	0.70154
80	17.633	0.90909	0.	0.5725
81	17.633	0.72727	0.	0.49783
82	17.633	0.54545	0.	0.32166
83	17.633	0.36364	0.	9.5223e-002
84	17.633	0.18182	0.	-0.40622
85	17.449	5.8182	0.	9.609e-002
86	17.449	5.6364	0.	-8.1103e-002
87	17.449	5.4545	0.	-6.9181e-002
88	17.449	5.2727	0.	-0.1159
89	17.449	5.0909	0.	-0.16704
90	17.449	4.9091	0.	-0.32294
91	17.449	4.7273	0.	-0.41019
92	17.449	4.5455	0.	-0.37518
93	17.449	4.3636	0.	-3.0377
94	17.449	4.1818	0.	-1.4259
95	17.449	4.	0.	-4.0202
96	17.449	3.8182	0.	-3.0781
97	17.449	3.6364	0.	1.7393
98	17.449	3.4545	0.	0.20944
99	17.449	3.2727	0.	0.21076
100	17.449	3.0909	0.	0.11917
101	17.449	2.9091	0.	0.11917
102	17.449	2.7273	0.	0.21076
103	17.449	2.5455	0.	0.20944
104	17.449	2.3636	0.	1.7393
105	17.449	2.1818	0.	-3.0781
106	17.449	2.	0.	-4.0202
107	17.449	1.8182	0.	-1.4259
108	17.449	1.6364	0.	-3.0377
109	17.449	1.4545	0.	-0.37518
110	17.449	1.2727	0.	-0.41018
111	17.449	1.0909	0.	-0.32294
112	17.449	0.90909	0.	-0.16703
113	17.449	0.72727	0.	-0.1159
114	17.449	0.54545	0.	-6.9182e-002
115	17.449	0.36364	0.	-8.1102e-002
116	17.449	0.18182	0.	9.6094e-002
117	17.265	5.8182	0.	0.41033
118	17.265	5.6364	0.	0.1056
119	17.265	5.4545	0.	9.9442e-002
120	17.265	5.2727	0.	2.4527e-002
121	17.265	5.0909	0.	-3.5822e-002
122	17.265	4.9091	0.	-9.4013e-002
123	17.265	4.7273	0.	-0.21125
124	17.265	4.5455	0.	-0.33022
125	17.265	4.3636	0.	0.28251
126	17.265	4.1818	0.	-8.3744e-002
127	17.265	4.	0.	0.74761
128	17.265	3.8182	0.	1.2291
129	17.265	3.6364	0.	0.16034
130	17.265	3.4545	0.	0.28224
131	17.265	3.2727	0.	0.24986
132	17.265	3.0909	0.	0.2035
133	17.265	2.9091	0.	0.2035
134	17.265	2.7273	0.	0.24986
135	17.265	2.5455	0.	0.28224
136	17.265	2.3636	0.	0.16034
137	17.265	2.1818	0.	1.2291
138	17.265	2.	0.	0.74761
139	17.265	1.8182	0.	-8.3742e-002
140	17.265	1.6364	0.	0.28251
141	17.265	1.4545	0.	-0.33022
142	17.265	1.2727	0.	-0.21125
143	17.265	1.0909	0.	-9.4011e-002
144	17.265	0.90909	0.	-3.582e-002
145	17.265	0.72727	0.	2.4529e-002
146	17.265	0.54545	0.	9.9442e-002
147	17.265	0.36364	0.	0.1056
148	17.265	0.18182	0.	0.41033
149	17.082	5.8182	0.	0.30931
150	17.082	5.6364	0.	3.9732e-002
151	17.082	5.4545	0.	7.2656e-002
152	17.082	5.2727	0.	-4.0844e-003
153	17.082	5.0909	0.	-5.731e-002
154	17.082	4.9091	0.	-0.1125
155	17.082	4.7273	0.	-0.14654
156	17.082	4.5455	0.	-0.19067
157	17.082	4.3636	0.	-0.31287
158	17.082	4.1818	0.	-0.20186
159	17.082	4.	0.	-0.28111
160	17.082	3.8182	0.	-0.25879
161	17.082	3.6364	0.	9.394e-002
162	17.082	3.4545	0.	0.18774
163	17.082	3.2727	0.	0.1907
164	17.082	3.0909	0.	0.20109
165	17.082	2.9091	0.	0.20109
166	17.082	2.7273	0.	0.1907
167	17.082	2.5455	0.	0.18774
168	17.082	2.3636	0.	9.394e-002
169	17.082	2.1818	0.	-0.25879
170	17.082	2.	0.	-0.28111
171	17.082	1.8182	0.	-0.20186
172	17.082	1.6364	0.	-0.31287
173	17.082	1.4545	0.	-0.19067
174	17.082	1.2727	0.	-0.14654
175	17.082	1.0909	0.	-0.1125
176	17.082	0.90909	0.	-5.7308e-002
177	17.082	0.72727	0.	-4.0818e-003
178	17.082	0.54545	0.	7.2657e-002
179	17.082	0.36364	0.	3.9732e-002
180	17.082	0.18182	0.	0.30931
181	16.898	5.8182	0.	0.17847
182	16.898	5.6364	0.	-9.9701e-003
183	16.898	5.4545	0.	6.6791e-002
184	16.898	5.2727	0.	5.4385e-003
185	16.898	5.0909	0.	-2.775e-002
186	16.898	4.9091	0.	-6.0966e-002
187	16.898	4.7273	0.	-8.6113e-002
188	16.898	4.5455	0.	-9.2914e-002
189	16.898	4.3636	0.	-7.7637e-002
190	16.898	4.1818	0.	-9.0012e-002
191	16.898	4.	0.	-4.6244e-002
192	16.898	3.8182	0.	9.2371e-003
193	16.898	3.6364	0.	2.7404e-002
194	16.898	3.4545	0.	8.6085e-002
195	16.898	3.2727	0.	0.14114
196	16.898	3.0909	0.	0.16154
197	16.898	2.9091	0.	0.16154
198	16.898	2.7273	0.	0.14114
199	16.898	2.5455	0.	8.6085e-002
200	16.898	2.3636	0.	2.7404e-002
201	16.898	2.1818	0.	9.2361e-003
202	16.898	2.	0.	-4.6244e-002
203	16.898	1.8182	0.	-9.0012e-002
204	16.898	1.6364	0.	-7.7636e-002
205	16.898	1.4545	0.	-9.2912e-002
206	16.898	1.2727	0.	-8.6112e-002
207	16.898	1.0909	0.	-6.0964e-002
208	16.898	0.90909	0.	-2.7747e-002
209	16.898	0.72727	0.	5.4403e-003
210	16.898	0.54545	0.	6.6789e-002
211	16.898	0.36364	0.	-9.9688e-003
212	16.898	0.18182	0.	0.17847
213	16.714	5.8182	0.	5.2795e-002
214	16.714	5.6364	0.	-5.6337e-002
215	16.714	5.4545	0.	5.1673e-002
216	16.714	5.2727	0.	7.6033e-003
217	16.714	5.0909	0.	-1.1545e-002
218	16.714	4.9091	0.	-3.2476e-002
219	16.714	4.7273	0.	-4.7065e-002
220	16.714	4.5455	0.	-5.9868e-002
221	16.714	4.3636	0.	-7.34e-002
222	16.714	4.1818	0.	-7.9468e-002
223	16.714	4.	0.	-8.343e-002
224	16.714	3.8182	0.	-6.2124e-002
225	16.714	3.6364	0.	-6.0931e-003
226	16.714	3.4545	0.	5.1609e-002
227	16.714	3.2727	0.	9.5717e-002
228	16.714	3.0909	0.	0.12025
229	16.714	2.9091	0.	0.12025
230	16.714	2.7273	0.	9.5718e-002
231	16.714	2.5455	0.	5.1607e-002
232	16.714	2.3636	0.	-6.0933e-003
233	16.714	2.1818	0.	-6.2124e-002
234	16.714	2.	0.	-8.3428e-002
235	16.714	1.8182	0.	-7.9467e-002
236	16.714	1.6364	0.	-7.3399e-002
237	16.714	1.4545	0.	-5.9868e-002
238	16.714	1.2727	0.	-4.7064e-002
239	16.714	1.0909	0.	-3.2476e-002
240	16.714	0.90909	0.	-1.1542e-002
241	16.714	0.72727	0.	7.6044e-003
242	16.714	0.54545	0.	5.1672e-002
243	16.714	0.36364	0.	-5.6336e-002
244	16.714	0.18182	0.	5.2795e-002
245	16.531	5.8182	0.	-3.5655e-002
246	16.531	5.6364	0.	-8.4889e-002
247	16.531	5.4545	0.	4.1289e-002
248	16.531	5.2727	0.	1.1774e-002
249	16.531	5.0909	0.	3.143e-003
250	16.531	4.9091	0.	-1.054e-002
251	16.531	4.7273	0.	-2.0909e-002
252	16.531	4.5455	0.	-3.0601e-002
253	16.531	4.3636	0.	-3.9793e-002
254	16.531	4.1818	0.	-4.8064e-002
255	16.531	4.	0.	-4.7469e-002
256	16.531	3.8182	0.	-3.4056e-002
257	16.531	3.6364	0.	-7.2151e-003
258	16.531	3.4545	0.	3.0554e-002
259	16.531	3.2727	0.	6.6141e-002
260	16.531	3.0909	0.	8.6939e-002
261	16.531	2.9091	0.	8.6941e-002
262	16.531	2.7273	0.	6.614e-002
263	16.531	2.5455	0.	3.0555e-002
264	16.531	2.3636	0.	-7.2157e-003
265	16.531	2.1818	0.	-3.4056e-002
266	16.531	2.	0.	-4.7469e-002
267	16.531	1.8182	0.	-4.8067e-002
268	16.531	1.6364	0.	-3.9793e-002
269	16.531	1.4545	0.	-3.06e-002
270	16.531	1.2727	0.	-2.0909e-002
271	16.531	1.0909	0.	-1.0538e-002
272	16.531	0.90909	0.	3.1438e-003
273	16.531	0.72727	0.	1.1775e-002
274	16.531	0.54545	0.	4.129e-002
275	16.531	0.36364	0.	-8.4889e-002
276	16.531	0.18182	0.	-3.5655e-002
277	16.347	5.8182	0.	-8.8861e-002
278	16.347	5.6364	0.	-0.10044
279	16.347	5.4545	0.	3.2706e-002
280	16.347	5.2727	0.	1.4137e-002
281	16.347	5.0909	0.	1.2379e-002
282	16.347	4.9091	0.	3.4321e-003
283	16.347	4.7273	0.	-4.5983e-003
284	16.347	4.5455	0.	-1.3529e-002
285	16.347	4.3636	0.	-2.2847e-002
286	16.347	4.1818	0.	-3.0502e-002
287	16.347	4.	0.	-3.2841e-002
288	16.347	3.8182	0.	-2.493e-002
289	16.347	3.6364	0.	-5.2064e-003
290	16.347	3.4545	0.	2.1526e-002
291	16.347	3.2727	0.	4.7102e-002
292	16.347	3.0909	0.	6.2733e-002
293	16.347	2.9091	0.	6.2732e-002
294	16.347	2.7273	0.	4.7103e-002
295	16.347	2.5455	0.	2.1526e-002
296	16.347	2.3636	0.	-5.2067e-003
297	16.347	2.1818	0.	-2.4931e-002
298	16.347	2.	0.	-3.2839e-002
299	16.347	1.8182	0.	-3.0502e-002
300	16.347	1.6364	0.	-2.2848e-002
301	16.347	1.4545	0.	-1.3529e-002
302	16.347	1.2727	0.	-4.5975e-003
303	16.347	1.0909	0.	3.4321e-003
304	16.347	0.90909	0.	1.238e-002
305	16.347	0.72727	0.	1.414e-002
306	16.347	0.54545	0.	3.271e-002
307	16.347	0.36364	0.	-0.10044
308	16.347	0.18182	0.	-8.8863e-002
309	16.163	5.8182	0.	-0.11361
310	16.163	5.6364	0.	-0.10618
311	16.163	5.4545	0.	2.5929e-002
312	16.163	5.2727	0.	1.5265e-002
313	16.163	5.0909	0.	1.7904e-002
314	16.163	4.9091	0.	1.2203e-002
315	16.163	4.7273	0.	6.1842e-003
316	16.163	4.5455	0.	-1.2163e-003
317	16.163	4.3636	0.	-8.882e-003
318	16.163	4.1818	0.	-1.5201e-002
319	16.163	4.	0.	-1.731e-002
320	16.163	3.8182	0.	-1.2636e-002
321	16.163	3.6364	0.	-3.4144e-004
322	16.163	3.4545	0.	1.7374e-002
323	16.163	3.2727	0.	3.4987e-002
324	16.163	3.0909	0.	4.5976e-002
325	16.163	2.9091	0.	4.5975e-002
326	16.163	2.7273	0.	3.4987e-002
327	16.163	2.5455	0.	1.7374e-002
328	16.163	2.3636	0.	-3.4079e-004
329	16.163	2.1818	0.	-1.2635e-002
330	16.163	2.	0.	-1.7309e-002
331	16.163	1.8182	0.	-1.52e-002
332	16.163	1.6364	0.	-8.8808e-003
333	16.163	1.4545	0.	-1.2163e-003
334	16.163	1.2727	0.	6.1848e-003
335	16.163	1.0909	0.	1.2203e-002
336	16.163	0.90909	0.	1.7904e-002
337	16.163	0.72727	0.	1.5266e-002
338	16.163	0.54545	0.	2.593e-002
339	16.163	0.36364	0.	-0.10618
340	16.163	0.18182	0.	-0.11361
341	15.98	5.8182	0.	-0.11885
342	15.98	5.6364	0.	-0.10557
343	15.98	5.4545	0.	2.0307e-002
344	15.98	5.2727	0.	1.5182e-002
345	15.98	5.0909	0.	2.0566e-002
346	15.98	4.9091	0.	1.7248e-002
347	15.98	4.7273	0.	1.2885e-002
348	15.98	4.5455	0.	6.9417e-003
349	15.98	4.3636	0.	6.8752e-004
350	15.98	4.1818	0.	-4.4962e-003
351	15.98	4.	0.	-6.6632e-003
352	15.98	3.8182	0.	-4.0393e-003
353	15.98	3.6364	0.	3.8938e-003
354	15.98	3.4545	0.	1.552e-002
355	15.98	3.2727	0.	2.7215e-002
356	15.98	3.0909	0.	3.4584e-002
357	15.98	2.9091	0.	3.4585e-002
358	15.98	2.7273	0.	2.7214e-002
359	15.98	2.5455	0.	1.552e-002
360	15.98	2.3636	0.	3.8937e-003
361	15.98	2.1818	0.	-4.0396e-003
362	15.98	2.	0.	-6.6624e-003
363	15.98	1.8182	0.	-4.4962e-003
364	15.98	1.6364	0.	6.8734e-004
365	15.98	1.4545	0.	6.942e-003
366	15.98	1.2727	0.	1.2886e-002
367	15.98	1.0909	0.	1.7249e-002
368	15.98	0.90909	0.	2.0568e-002
369	15.98	0.72727	0.	1.5184e-002
370	15.98	0.54545	0.	2.0305e-002
371	15.98	0.36364	0.	-0.10557
372	15.98	0.18182	0.	-0.11885
373	15.796	5.8182	0.	-0.11222
374	15.796	5.6364	0.	-0.1011
375	15.796	5.4545	0.	1.5591e-002
376	15.796	5.2727	0.	1.4269e-002
377	15.796	5.0909	0.	2.1296e-002
378	15.796	4.9091	0.	1.9774e-002
379	15.796	4.7273	0.	1.6838e-002
380	15.796	4.5455	0.	1.2269e-002
381	15.796	4.3636	0.	7.3427e-003
382	15.796	4.1818	0.	3.1733e-003
383	15.796	4.	0.	1.1504e-003
384	15.796	3.8182	0.	2.4048e-003
385	15.796	3.6364	0.	7.2294e-003
386	15.796	3.4545	0.	1.4589e-002
387	15.796	3.2727	0.	2.2099e-002
388	15.796	3.0909	0.	2.6864e-002
389	15.796	2.9091	0.	2.6864e-002
390	15.796	2.7273	0.	2.21e-002
391	15.796	2.5455	0.	1.4588e-002
392	15.796	2.3636	0.	7.2302e-003
393	15.796	2.1818	0.	2.4046e-003
394	15.796	2.	0.	1.151e-003
395	15.796	1.8182	0.	3.1733e-003
396	15.796	1.6364	0.	7.3428e-003
397	15.796	1.4545	0.	1.2269e-002
398	15.796	1.2727	0.	1.6838e-002
399	15.796	1.0909	0.	1.9776e-002
400	15.796	0.90909	0.	2.1296e-002
401	15.796	0.72727	0.	1.4271e-002
402	15.796	0.54545	0.	1.5591e-002
403	15.796	0.36364	0.	-0.1011
404	15.796	0.18182	0.	-0.11222
405	15.612	5.8182	0.	-9.9475e-002
406	15.612	5.6364	0.	-9.4516e-002
407	15.612	5.4545	0.	1.1596e-002
408	15.612	5.2727	0.	1.2823e-002
409	15.612	5.0909	0.	2.0749e-002
410	15.612	4.9091	0.	2.0582e-002
411	15.612	4.7273	0.	1.8825e-002
412	15.612	4.5455	0.	1.5443e-002
413	15.612	4.3636	0.	1.1624e-002
414	15.612	4.1818	0.	8.2678e-003
415	15.612	4.	0.	6.3847e-003
416	15.612	3.8182	0.	6.7333e-003
417	15.612	3.6364	0.	9.4951e-003
418	15.612	3.4545	0.	1.3971e-002
419	15.612	3.2727	0.	1.8623e-002
420	15.612	3.0909	0.	2.1591e-002
421	15.612	2.9091	0.	2.1591e-002
422	15.612	2.7273	0.	1.8623e-002
423	15.612	2.5455	0.	1.3972e-002
424	15.612	2.3636	0.	9.495e-003
425	15.612	2.1818	0.	6.7327e-003
426	15.612	2.	0.	6.3854e-003
427	15.612	1.8182	0.	8.2699e-003
428	15.612	1.6364	0.	1.1625e-002
429	15.612	1.4545	0.	1.5444e-002
430	15.612	1.2727	0.	1.8827e-002
431	15.612	1.0909	0.	2.0583e-002
432	15.612	0.90909	0.	2.0748e-002
433	15.612	0.72727	0.	1.2824e-002
434	15.612	0.54545	0.	1.1598e-002
435	15.612	0.36364	0.	-9.4515e-002
436	15.612	0.18182	0.	-9.9476e-002
437	15.429	5.8182	0.	-8.4449e-002
438	15.429	5.6364	0.	-8.6962e-002
439	15.429	5.4545	0.	8.2293e-003
440	15.429	5.2727	0.	1.1104e-002
441	15.429	5.0909	0.	1.9425e-002
442	15.429	4.9091	0.	2.0268e-002
443	15.429	4.7273	0.	1.9462e-002
444	15.429	4.5455	0.	1.707e-002
445	15.429	4.3636	0.	1.4162e-002
446	15.429	4.1818	0.	1.1469e-002
447	15.429	4.	0.	9.74e-003
448	15.429	3.8182	0.	9.5021e-003
449	15.429	3.6364	0.	1.0885e-002
450	15.429	3.4545	0.	1.3439e-002
451	15.429	3.2727	0.	1.6181e-002
452	15.429	3.0909	0.	1.7954e-002
453	15.429	2.9091	0.	1.7953e-002
454	15.429	2.7273	0.	1.6182e-002
455	15.429	2.5455	0.	1.3437e-002
456	15.429	2.3636	0.	1.0886e-002
457	15.429	2.1818	0.	9.5037e-003
458	15.429	2.	0.	9.7395e-003
459	15.429	1.8182	0.	1.1469e-002
460	15.429	1.6364	0.	1.4163e-002
461	15.429	1.4545	0.	1.707e-002
462	15.429	1.2727	0.	1.9463e-002
463	15.429	1.0909	0.	2.0268e-002
464	15.429	0.90909	0.	1.9426e-002
465	15.429	0.72727	0.	1.1105e-002
466	15.429	0.54545	0.	8.2306e-003
467	15.429	0.36364	0.	-8.6963e-002
468	15.429	0.18182	0.	-8.4449e-002
469	15.245	5.8182	0.	-6.951e-002
470	15.245	5.6364	0.	-7.9194e-002
471	15.245	5.4545	0.	5.3911e-003
472	15.245	5.2727	0.	9.2733e-003
473	15.245	5.0909	0.	1.7652e-002
474	15.245	4.9091	0.	1.9225e-002
475	15.245	4.7273	0.	1.9164e-002
476	15.245	4.5455	0.	1.7573e-002
477	15.245	4.3636	0.	1.5404e-002
478	15.245	4.1818	0.	1.3248e-002
479	15.245	4.	0.	1.1682e-002
480	15.245	3.8182	0.	1.1093e-002
481	15.245	3.6364	0.	1.1587e-002
482	15.245	3.4545	0.	1.2887e-002
483	15.245	3.2727	0.	1.439e-002
484	15.245	3.0909	0.	1.5385e-002
485	15.245	2.9091	0.	1.5386e-002
486	15.245	2.7273	0.	1.4391e-002
487	15.245	2.5455	0.	1.2888e-002
488	15.245	2.3636	0.	1.1586e-002
489	15.245	2.1818	0.	1.1094e-002
490	15.245	2.	0.	1.1682e-002
491	15.245	1.8182	0.	1.3249e-002
492	15.245	1.6364	0.	1.5405e-002
493	15.245	1.4545	0.	1.7575e-002
494	15.245	1.2727	0.	1.9164e-002
495	15.245	1.0909	0.	1.9226e-002
496	15.245	0.90909	0.	1.7654e-002
497	15.245	0.72727	0.	9.2735e-003
498	15.245	0.54545	0.	5.3916e-003
499	15.245	0.36364	0.	-7.9193e-002
500	15.245	0.18182	0.	-6.951e-002
501	15.061	5.8182	0.	-5.5905e-002
502	15.061	5.6364	0.	-7.1631e-002
503	15.061	5.4545	0.	3.0289e-003
504	15.061	5.2727	0.	7.4651e-003
505	15.061	5.0909	0.	1.5676e-002
506	15.061	4.9091	0.	1.7759e-002
507	15.061	4.7273	0.	1.8268e-002
508	15.061	4.5455	0.	1.7318e-002
509	15.061	4.3636	0.	1.5742e-002
510	15.061	4.1818	0.	1.403e-002
511	15.061	4.	0.	1.2637e-002
512	15.061	3.8182	0.	1.1863e-002
513	15.061	3.6364	0.	1.1808e-002
514	15.061	3.4545	0.	1.2319e-002
515	15.061	3.2727	0.	1.3039e-002
516	15.061	3.0909	0.	1.3542e-002
517	15.061	2.9091	0.	1.3542e-002
518	15.061	2.7273	0.	1.3038e-002
519	15.061	2.5455	0.	1.2319e-002
520	15.061	2.3636	0.	1.1808e-002
521	15.061	2.1818	0.	1.1863e-002
522	15.061	2.	0.	1.2637e-002
523	15.061	1.8182	0.	1.403e-002
524	15.061	1.6364	0.	1.5742e-002
525	15.061	1.4545	0.	1.7319e-002
526	15.061	1.2727	0.	1.8268e-002
527	15.061	1.0909	0.	1.776e-002
528	15.061	0.90909	0.	1.5678e-002
529	15.061	0.72727	0.	7.4671e-003
530	15.061	0.54545	0.	3.0294e-003
531	15.061	0.36364	0.	-7.1632e-002
532	15.061	0.18182	0.	-5.5905e-002
533	14.878	5.8182	0.	-4.4133e-002
534	14.878	5.6364	0.	-6.4477e-002
535	14.878	5.4545	0.	1.1282e-003
536	14.878	5.2727	0.	5.8052e-003
537	14.878	5.0909	0.	1.3702e-002
538	14.878	4.9091	0.	1.6124e-002
539	14.878	4.7273	0.	1.7057e-002
540	14.878	4.5455	0.	1.6611e-002
541	14.878	4.3636	0.	1.5514e-002
542	14.878	4.1818	0.	1.4174e-002
543	14.878	4.	0.	1.2963e-002
544	14.878	3.8182	0.	1.2121e-002
545	14.878	3.6364	0.	1.1753e-002
546	14.878	3.4545	0.	1.1789e-002
547	14.878	3.2727	0.	1.203e-002
548	14.878	3.0909	0.	1.2233e-002
549	14.878	2.9091	0.	1.2234e-002
550	14.878	2.7273	0.	1.2031e-002
551	14.878	2.5455	0.	1.1789e-002
552	14.878	2.3636	0.	1.1753e-002
553	14.878	2.1818	0.	1.2123e-002
554	14.878	2.	0.	1.2963e-002
555	14.878	1.8182	0.	1.4175e-002
556	14.878	1.6364	0.	1.5514e-002
557	14.878	1.4545	0.	1.6611e-002
558	14.878	1.2727	0.	1.7057e-002
559	14.878	1.0909	0.	1.6125e-002
560	14.878	0.90909	0.	1.3703e-002
561	14.878	0.72727	0.	5.8074e-003
562	14.878	0.54545	0.	1.1283e-003
563	14.878	0.36364	0.	-6.4477e-002
564	14.878	0.18182	0.	-4.4133e-002
565	14.694	5.8182	0.	-3.4349e-002
566	14.694	5.6364	0.	-5.7895e-002
567	14.694	5.4545	0.	-4.1176e-004
568	14.694	5.2727	0.	4.2939e-003
569	14.694	5.0909	0.	1.1787e-002
570	14.694	4.9091	0.	1.4417e-002
571	14.694	4.7273	0.	1.5655e-002
572	14.694	4.5455	0.	1.5605e-002
573	14.694	4.3636	0.	1.4895e-002
574	14.694	4.1818	0.	1.3871e-002
575	14.694	4.	0.	1.2845e-002
576	14.694	3.8182	0.	1.2017e-002
577	14.694	3.6364	0.	1.1494e-002
578	14.694	3.4545	0.	1.1266e-002
579	14.694	3.2727	0.	1.123e-002
580	14.694	3.0909	0.	1.1258e-002
581	14.694	2.9091	0.	1.1257e-002
582	14.694	2.7273	0.	1.123e-002
583	14.694	2.5455	0.	1.1266e-002
584	14.694	2.3636	0.	1.1495e-002
585	14.694	2.1818	0.	1.2018e-002
586	14.694	2.	0.	1.2844e-002
587	14.694	1.8182	0.	1.3873e-002
588	14.694	1.6364	0.	1.4895e-002
589	14.694	1.4545	0.	1.5606e-002
590	14.694	1.2727	0.	1.5655e-002
591	14.694	1.0909	0.	1.4418e-002
592	14.694	0.90909	0.	1.1789e-002
593	14.694	0.72727	0.	4.2933e-003
594	14.694	0.54545	0.	-4.1154e-004
595	14.694	0.36364	0.	-5.7895e-002
596	14.694	0.18182	0.	-3.4348e-002
597	14.51	5.8182	0.	-2.644e-002
598	14.51	5.6364	0.	-5.1931e-002
599	14.51	5.4545	0.	-1.6479e-003
600	14.51	5.2727	0.	2.9424e-003
601	14.51	5.0909	0.	9.9856e-003
602	14.51	4.9091	0.	1.2722e-002
603	14.51	4.7273	0.	1.4174e-002
604	14.51	4.5455	0.	1.4429e-002
605	14.51	4.3636	0.	1.4034e-002
606	14.51	4.1818	0.	1.3283e-002
607	14.51	4.	0.	1.2438e-002
608	14.51	3.8182	0.	1.1677e-002
609	14.51	3.6364	0.	1.1106e-002
610	14.51	3.4545	0.	1.0749e-002
611	14.51	3.2727	0.	1.0567e-002
612	14.51	3.0909	0.	1.0498e-002
613	14.51	2.9091	0.	1.0498e-002
614	14.51	2.7273	0.	1.0567e-002
615	14.51	2.5455	0.	1.0748e-002
616	14.51	2.3636	0.	1.1105e-002
617	14.51	2.1818	0.	1.1678e-002
618	14.51	2.	0.	1.2439e-002
619	14.51	1.8182	0.	1.3282e-002
620	14.51	1.6364	0.	1.4035e-002
621	14.51	1.4545	0.	1.4429e-002
622	14.51	1.2727	0.	1.4176e-002
623	14.51	1.0909	0.	1.2722e-002
624	14.51	0.90909	0.	9.9868e-003
625	14.51	0.72727	0.	2.9438e-003
626	14.51	0.54545	0.	-1.6487e-003
627	14.51	0.36364	0.	-5.1931e-002
628	14.51	0.18182	0.	-2.6439e-002
629	14.327	5.8182	0.	-2.0158e-002
630	14.327	5.6364	0.	-4.6561e-002
631	14.327	5.4545	0.	-2.6077e-003
632	14.327	5.2727	0.	1.7782e-003
633	14.327	5.0909	0.	8.3509e-003
634	14.327	4.9091	0.	1.1121e-002
635	14.327	4.7273	0.	1.2718e-002
636	14.327	4.5455	0.	1.3208e-002
637	14.327	4.3636	0.	1.3067e-002
638	14.327	4.1818	0.	1.255e-002
639	14.327	4.	0.	1.1882e-002
640	14.327	3.8182	0.	1.1219e-002
641	14.327	3.6364	0.	1.0665e-002
642	14.327	3.4545	0.	1.0265e-002
643	14.327	3.2727	0.	1.0019e-002
644	14.327	3.0909	0.	9.9052e-003
645	14.327	2.9091	0.	9.9059e-003
646	14.327	2.7273	0.	1.0019e-002
647	14.327	2.5455	0.	1.0264e-002
648	14.327	2.3636	0.	1.0665e-002
649	14.327	2.1818	0.	1.1218e-002
650	14.327	2.	0.	1.1882e-002
651	14.327	1.8182	0.	1.255e-002
652	14.327	1.6364	0.	1.3067e-002
653	14.327	1.4545	0.	1.3208e-002
654	14.327	1.2727	0.	1.2718e-002
655	14.327	1.0909	0.	1.1122e-002
656	14.327	0.90909	0.	8.3532e-003
657	14.327	0.72727	0.	1.7803e-003
658	14.327	0.54545	0.	-2.609e-003
659	14.327	0.36364	0.	-4.6562e-002
660	14.327	0.18182	0.	-2.0157e-002
661	14.143	5.8182	0.	-1.5243e-002
662	14.143	5.6364	0.	-4.1751e-002
663	14.143	5.4545	0.	-3.3354e-003
664	14.143	5.2727	0.	7.9438e-004
665	14.143	5.0909	0.	6.8952e-003
666	14.143	4.9091	0.	9.6465e-003
667	14.143	4.7273	0.	1.1331e-002
668	14.143	4.5455	0.	1.2001e-002
669	14.143	4.3636	0.	1.2067e-002
670	14.143	4.1818	0.	1.1752e-002
671	14.143	4.	0.	1.1249e-002
672	14.143	3.8182	0.	1.07e-002
673	14.143	3.6364	0.	1.0203e-002
674	14.143	3.4545	0.	9.8134e-003
675	14.143	3.2727	0.	9.5543e-003
676	14.143	3.0909	0.	9.4262e-003
677	14.143	2.9091	0.	9.4258e-003
678	14.143	2.7273	0.	9.5544e-003
679	14.143	2.5455	0.	9.8142e-003
680	14.143	2.3636	0.	1.0203e-002
681	14.143	2.1818	0.	1.07e-002
682	14.143	2.	0.	1.125e-002
683	14.143	1.8182	0.	1.1754e-002
684	14.143	1.6364	0.	1.2068e-002
685	14.143	1.4545	0.	1.2001e-002
686	14.143	1.2727	0.	1.1331e-002
687	14.143	1.0909	0.	9.6463e-003
688	14.143	0.90909	0.	6.8961e-003
689	14.143	0.72727	0.	7.9559e-004
690	14.143	0.54545	0.	-3.3355e-003
691	14.143	0.36364	0.	-4.1752e-002
692	14.143	0.18182	0.	-1.5242e-002
693	13.959	5.8182	0.	-1.1445e-002
694	13.959	5.6364	0.	-3.7454e-002
695	13.959	5.4545	0.	-3.8722e-003
696	13.959	5.2727	0.	-2.4092e-005
697	13.959	5.0909	0.	5.6162e-003
698	13.959	4.9091	0.	8.3138e-003
699	13.959	4.7273	0.	1.0045e-002
700	13.959	4.5455	0.	1.0849e-002
701	13.959	4.3636	0.	1.1085e-002
702	13.959	4.1818	0.	1.0942e-002
703	13.959	4.	0.	1.0593e-002
704	13.959	3.8182	0.	1.0162e-002
705	13.959	3.6364	0.	9.741e-003
706	13.959	3.4545	0.	9.3925e-003
707	13.959	3.2727	0.	9.1499e-003
708	13.959	3.0909	0.	9.0246e-003
709	13.959	2.9091	0.	9.0252e-003
710	13.959	2.7273	0.	9.1499e-003
711	13.959	2.5455	0.	9.3922e-003
712	13.959	2.3636	0.	9.7409e-003
713	13.959	2.1818	0.	1.0161e-002
714	13.959	2.	0.	1.0593e-002
715	13.959	1.8182	0.	1.0943e-002
716	13.959	1.6364	0.	1.1085e-002
717	13.959	1.4545	0.	1.0851e-002
718	13.959	1.2727	0.	1.0045e-002
719	13.959	1.0909	0.	8.313e-003
720	13.959	0.90909	0.	5.6185e-003
721	13.959	0.72727	0.	-2.2049e-005
722	13.959	0.54545	0.	-3.8721e-003
723	13.959	0.36364	0.	-3.7453e-002
724	13.959	0.18182	0.	-1.1444e-002
725	13.776	5.8182	0.	-8.5306e-003
726	13.776	5.6364	0.	-3.3603e-002
727	13.776	5.4545	0.	-4.2349e-003
728	13.776	5.2727	0.	-6.7922e-004
729	13.776	5.0909	0.	4.5207e-003
730	13.776	4.9091	0.	7.136e-003
731	13.776	4.7273	0.	8.8836e-003
732	13.776	4.5455	0.	9.7873e-003
733	13.776	4.3636	0.	1.016e-002
734	13.776	4.1818	0.	1.0164e-002
735	13.776	4.	0.	9.9528e-003
736	13.776	3.8182	0.	9.6357e-003
737	13.776	3.6364	0.	9.3017e-003
738	13.776	3.4545	0.	9.0102e-003
739	13.776	3.2727	0.	8.7971e-003
740	13.776	3.0909	0.	8.6884e-003
741	13.776	2.9091	0.	8.6872e-003
742	13.776	2.7273	0.	8.7979e-003
743	13.776	2.5455	0.	9.0102e-003
744	13.776	2.3636	0.	9.3021e-003
745	13.776	2.1818	0.	9.636e-003
746	13.776	2.	0.	9.9526e-003
747	13.776	1.8182	0.	1.0165e-002
748	13.776	1.6364	0.	1.016e-002
749	13.776	1.4545	0.	9.7876e-003
750	13.776	1.2727	0.	8.8845e-003
751	13.776	1.0909	0.	7.1359e-003
752	13.776	0.90909	0.	4.5232e-003
753	13.776	0.72727	0.	-6.7796e-004
754	13.776	0.54545	0.	-4.2366e-003
755	13.776	0.36364	0.	-3.3604e-002
756	13.776	0.18182	0.	-8.5293e-003
757	13.592	5.8182	0.	-6.3032e-003
758	13.592	5.6364	0.	-3.0139e-002
759	13.592	5.4545	0.	-4.45e-003
760	13.592	5.2727	0.	-1.1812e-003
761	13.592	5.0909	0.	3.6003e-003
762	13.592	4.9091	0.	6.1181e-003
763	13.592	4.7273	0.	7.858e-003
764	13.592	4.5455	0.	8.8339e-003
765	13.592	4.3636	0.	9.3136e-003
766	13.592	4.1818	0.	9.4447e-003
767	13.592	4.	0.	9.3549e-003
768	13.592	3.8182	0.	9.1458e-003
769	13.592	3.6364	0.	8.8967e-003
770	13.592	3.4545	0.	8.6675e-003
771	13.592	3.2727	0.	8.4953e-003
772	13.592	3.0909	0.	8.4019e-003
773	13.592	2.9091	0.	8.4021e-003
774	13.592	2.7273	0.	8.4954e-003
775	13.592	2.5455	0.	8.6681e-003
776	13.592	2.3636	0.	8.8977e-003
777	13.592	2.1818	0.	9.1464e-003
778	13.592	2.	0.	9.3553e-003
779	13.592	1.8182	0.	9.4447e-003
780	13.592	1.6364	0.	9.3144e-003
781	13.592	1.4545	0.	8.8347e-003
782	13.592	1.2727	0.	7.8583e-003
783	13.592	1.0909	0.	6.1186e-003
784	13.592	0.90909	0.	3.6014e-003
785	13.592	0.72727	0.	-1.18e-003
786	13.592	0.54545	0.	-4.4481e-003
787	13.592	0.36364	0.	-3.0138e-002
788	13.592	0.18182	0.	-6.3021e-003
789	13.408	5.8182	0.	-4.6439e-003
790	13.408	5.6364	0.	-2.7036e-002
791	13.408	5.4545	0.	-4.5696e-003
792	13.408	5.2727	0.	-1.5802e-003
793	13.408	5.0909	0.	2.8087e-003
794	13.408	4.9091	0.	5.2174e-003
795	13.408	4.7273	0.	6.9327e-003
796	13.408	4.5455	0.	7.9582e-003
797	13.408	4.3636	0.	8.5251e-003
798	13.408	4.1818	0.	8.7592e-003
799	13.408	4.	0.	8.7765e-003
800	13.408	3.8182	0.	8.6655e-003
801	13.408	3.6364	0.	8.4984e-003
802	13.408	3.4545	0.	8.331e-003
803	13.408	3.2727	0.	8.1978e-003
804	13.408	3.0909	0.	8.1263e-003
805	13.408	2.9091	0.	8.1259e-003
806	13.408	2.7273	0.	8.1983e-003
807	13.408	2.5455	0.	8.3315e-003
808	13.408	2.3636	0.	8.4984e-003
809	13.408	2.1818	0.	8.6654e-003
810	13.408	2.	0.	8.7764e-003
811	13.408	1.8182	0.	8.7596e-003
812	13.408	1.6364	0.	8.5254e-003
813	13.408	1.4545	0.	7.9589e-003
814	13.408	1.2727	0.	6.9335e-003
815	13.408	1.0909	0.	5.2174e-003
816	13.408	0.90909	0.	2.8102e-003
817	13.408	0.72727	0.	-1.579e-003
818	13.408	0.54545	0.	-4.5694e-003
819	13.408	0.36364	0.	-2.7036e-002
820	13.408	0.18182	0.	-4.6441e-003
821	13.224	5.8182	0.	-3.4305e-003
822	13.224	5.6364	0.	-2.4248e-002
823	13.224	5.4545	0.	-4.6153e-003
824	13.224	5.2727	0.	-1.8906e-003
825	13.224	5.0909	0.	2.1278e-003
826	13.224	4.9091	0.	4.4212e-003
827	13.224	4.7273	0.	6.1008e-003
828	13.224	4.5455	0.	7.1564e-003
829	13.224	4.3636	0.	7.7891e-003
830	13.224	4.1818	0.	8.1112e-003
831	13.224	4.	0.	8.2201e-003
832	13.224	3.8182	0.	8.1956e-003
833	13.224	3.6364	0.	8.1041e-003
834	13.224	3.4545	0.	7.9949e-003
835	13.224	3.2727	0.	7.9017e-003
836	13.224	3.0909	0.	7.8486e-003
837	13.224	2.9091	0.	7.8489e-003
838	13.224	2.7273	0.	7.9017e-003
839	13.224	2.5455	0.	7.9943e-003
840	13.224	2.3636	0.	8.1037e-003
841	13.224	2.1818	0.	8.1968e-003
842	13.224	2.	0.	8.2208e-003
843	13.224	1.8182	0.	8.1118e-003
844	13.224	1.6364	0.	7.7902e-003
845	13.224	1.4545	0.	7.1572e-003
846	13.224	1.2727	0.	6.1009e-003
847	13.224	1.0909	0.	4.422e-003
848	13.224	0.90909	0.	2.1299e-003
849	13.224	0.72727	0.	-1.8897e-003
850	13.224	0.54545	0.	-4.6154e-003
851	13.224	0.36364	0.	-2.4247e-002
852	13.224	0.18182	0.	-3.4302e-003
853	13.041	5.8182	0.	-2.5357e-003
854	13.041	5.6364	0.	-2.1693e-002
855	13.041	5.4545	0.	-4.5714e-003
856	13.041	5.2727	0.	-2.0955e-003
857	13.041	5.0909	0.	1.5763e-003
858	13.041	4.9091	0.	3.7505e-003
859	13.041	4.7273	0.	5.3823e-003
860	13.041	4.5455	0.	6.4549e-003
861	13.041	4.3636	0.	7.1404e-003
862	13.041	4.1818	0.	7.5317e-003
863	13.041	4.	0.	7.7188e-003
864	13.041	3.8182	0.	7.77e-003
865	13.041	3.6364	0.	7.7451e-003
866	13.041	3.4545	0.	7.689e-003
867	13.041	3.2727	0.	7.6321e-003
868	13.041	3.0909	0.	7.5994e-003
869	13.041	2.9091	0.	7.5982e-003
870	13.041	2.7273	0.	7.6325e-003
871	13.041	2.5455	0.	7.6891e-003
872	13.041	2.3636	0.	7.7452e-003
873	13.041	2.1818	0.	7.7706e-003
874	13.041	2.	0.	7.7192e-003
875	13.041	1.8182	0.	7.5319e-003
876	13.041	1.6364	0.	7.1397e-003
877	13.041	1.4545	0.	6.4558e-003
878	13.041	1.2727	0.	5.3829e-003
879	13.041	1.0909	0.	3.751e-003
880	13.041	0.90909	0.	1.5771e-003
881	13.041	0.72727	0.	-2.0935e-003
882	13.041	0.54545	0.	-4.5707e-003
883	13.041	0.36364	0.	-2.1693e-002
884	13.041	0.18182	0.	-2.5349e-003
885	12.857	5.8182	0.	-1.892e-003
886	12.857	5.6364	0.	-1.9339e-002
887	12.857	5.4545	0.	-4.4552e-003
888	12.857	5.2727	0.	-2.214e-003
889	12.857	5.0909	0.	1.1303e-003
890	12.857	4.9091	0.	3.1831e-003
891	12.857	4.7273	0.	4.7605e-003
892	12.857	4.5455	0.	5.8378e-003
893	12.857	4.3636	0.	6.5603e-003
894	12.857	4.1818	0.	7.0098e-003
895	12.857	4.	0.	7.2634e-003
896	12.857	3.8182	0.	7.3804e-003
897	12.857	3.6364	0.	7.4136e-003
898	12.857	3.4545	0.	7.4046e-003
899	12.857	3.2727	0.	7.3818e-003
900	12.857	3.0909	0.	7.3646e-003
901	12.857	2.9091	0.	7.3654e-003
902	12.857	2.7273	0.	7.3817e-003
903	12.857	2.5455	0.	7.405e-003
904	12.857	2.3636	0.	7.4136e-003
905	12.857	2.1818	0.	7.3799e-003
906	12.857	2.	0.	7.2638e-003
907	12.857	1.8182	0.	7.0112e-003
908	12.857	1.6364	0.	6.561e-003
909	12.857	1.4545	0.	5.8382e-003
910	12.857	1.2727	0.	4.7613e-003
911	12.857	1.0909	0.	3.1839e-003
912	12.857	0.90909	0.	1.132e-003
913	12.857	0.72727	0.	-2.2133e-003
914	12.857	0.54545	0.	-4.4557e-003
915	12.857	0.36364	0.	-1.9338e-002
916	12.857	0.18182	0.	-1.8908e-003
917	12.673	5.8182	0.	-1.4539e-003
918	12.673	5.6364	0.	-1.7156e-002
919	12.673	5.4545	0.	-4.2888e-003
920	12.673	5.2727	0.	-2.2685e-003
921	12.673	5.0909	0.	7.6543e-004
922	12.673	4.9091	0.	2.6957e-003
923	12.673	4.7273	0.	4.2123e-003
924	12.673	4.5455	0.	5.285e-003
925	12.673	4.3636	0.	6.0337e-003
926	12.673	4.1818	0.	6.53e-003
927	12.673	4.	0.	6.8391e-003
928	12.673	3.8182	0.	7.0122e-003
929	12.673	3.6364	0.	7.0972e-003
930	12.673	3.4545	0.	7.1305e-003
931	12.673	3.2727	0.	7.137e-003
932	12.673	3.0909	0.	7.1349e-003
933	12.673	2.9091	0.	7.1352e-003
934	12.673	2.7273	0.	7.1366e-003
935	12.673	2.5455	0.	7.1306e-003
936	12.673	2.3636	0.	7.0973e-003
937	12.673	2.1818	0.	7.0131e-003
938	12.673	2.	0.	6.8386e-003
939	12.673	1.8182	0.	6.5305e-003
940	12.673	1.6364	0.	6.0346e-003
941	12.673	1.4545	0.	5.2845e-003
942	12.673	1.2727	0.	4.2121e-003
943	12.673	1.0909	0.	2.6966e-003
944	12.673	0.90909	0.	7.6627e-004
945	12.673	0.72727	0.	-2.2669e-003
946	12.673	0.54545	0.	-4.2893e-003
947	12.673	0.36364	0.	-1.7156e-002
948	12.673	0.18182	0.	-1.4537e-003
949	12.49	5.8182	0.	-1.1807e-003
950	12.49	5.6364	0.	-1.5111e-002
951	12.49	5.4545	0.	-4.0788e-003
952	12.49	5.2727	0.	-2.2672e-003
953	12.49	5.0909	0.	4.6767e-004
954	12.49	4.9091	0.	2.2727e-003
955	12.49	4.7273	0.	3.7223e-003
956	12.49	4.5455	0.	4.7812e-003
957	12.49	4.3636	0.	5.5499e-003
958	12.49	4.1818	0.	6.0838e-003
959	12.49	4.	0.	6.4387e-003
960	12.49	3.8182	0.	6.6617e-003
961	12.49	3.6364	0.	6.792e-003
962	12.49	3.4545	0.	6.8633e-003
963	12.49	3.2727	0.	6.8963e-003
964	12.49	3.0909	0.	6.908e-003
965	12.49	2.9091	0.	6.9082e-003
966	12.49	2.7273	0.	6.8961e-003
967	12.49	2.5455	0.	6.8629e-003
968	12.49	2.3636	0.	6.7933e-003
969	12.49	2.1818	0.	6.6617e-003
970	12.49	2.	0.	6.4396e-003
971	12.49	1.8182	0.	6.0836e-003
972	12.49	1.6364	0.	5.5501e-003
973	12.49	1.4545	0.	4.7818e-003
974	12.49	1.2727	0.	3.723e-003
975	12.49	1.0909	0.	2.2731e-003
976	12.49	0.90909	0.	4.6896e-004
977	12.49	0.72727	0.	-2.2651e-003
978	12.49	0.54545	0.	-4.0795e-003
979	12.49	0.36364	0.	-1.5111e-002
980	12.49	0.18182	0.	-1.179e-003
981	12.306	5.8182	0.	-1.0349e-003
982	12.306	5.6364	0.	-1.3169e-002
983	12.306	5.4545	0.	-3.8264e-003
984	12.306	5.2727	0.	-2.2161e-003
985	12.306	5.0909	0.	2.2833e-004
986	12.306	4.9091	0.	1.9034e-003
987	12.306	4.7273	0.	3.2812e-003
988	12.306	4.5455	0.	4.3197e-003
989	12.306	4.3636	0.	5.0997e-003
990	12.306	4.1818	0.	5.664e-003
991	12.306	4.	0.	6.0622e-003
992	12.306	3.8182	0.	6.3282e-003
993	12.306	3.6364	0.	6.5008e-003
994	12.306	3.4545	0.	6.6061e-003
995	12.306	3.2727	0.	6.6635e-003
996	12.306	3.0909	0.	6.6884e-003
997	12.306	2.9091	0.	6.6888e-003
998	12.306	2.7273	0.	6.664e-003
999	12.306	2.5455	0.	6.6062e-003
1000	12.306	2.3636	0.	6.5013e-003
1001	12.306	2.1818	0.	6.3291e-003
1002	12.306	2.	0.	6.0621e-003
1003	12.306	1.8182	0.	5.6648e-003
1004	12.306	1.6364	0.	5.0997e-003
1005	12.306	1.4545	0.	4.3198e-003
1006	12.306	1.2727	0.	3.282e-003
1007	12.306	1.0909	0.	1.9038e-003
1008	12.306	0.90909	0.	2.3005e-004
1009	12.306	0.72727	0.	-2.2147e-003
1010	12.306	0.54545	0.	-3.8272e-003
1011	12.306	0.36364	0.	-1.3167e-002
1012	12.306	0.18182	0.	-1.0336e-003
1013	12.122	5.8182	0.	-1.0252e-003
1014	12.122	5.6364	0.	-1.1333e-002
1015	12.122	5.4545	0.	-3.5659e-003
1016	12.122	5.2727	0.	-2.1526e-003
1017	12.122	5.0909	0.	2.0832e-006
1018	12.122	4.9091	0.	1.5401e-003
1019	12.122	4.7273	0.	2.8375e-003
1020	12.122	4.5455	0.	3.849e-003
1021	12.122	4.3636	0.	4.6341e-003
1022	12.122	4.1818	0.	5.2268e-003
1023	12.122	4.	0.	5.6629e-003
1024	12.122	3.8182	0.	5.9727e-003
1025	12.122	3.6364	0.	6.1861e-003
1026	12.122	3.4545	0.	6.3259e-003
1027	12.122	3.2727	0.	6.4083e-003
1028	12.122	3.0909	0.	6.4465e-003
1029	12.122	2.9091	0.	6.4463e-003
1030	12.122	2.7273	0.	6.4082e-003
1031	12.122	2.5455	0.	6.3261e-003
1032	12.122	2.3636	0.	6.1862e-003
1033	12.122	2.1818	0.	5.9732e-003
1034	12.122	2.	0.	5.6632e-003
1035	12.122	1.8182	0.	5.2275e-003
1036	12.122	1.6364	0.	4.6345e-003
1037	12.122	1.4545	0.	3.8495e-003
1038	12.122	1.2727	0.	2.838e-003
1039	12.122	1.0909	0.	1.5407e-003
1040	12.122	0.90909	0.	3.198e-006
1041	12.122	0.72727	0.	-2.1512e-003
1042	12.122	0.54545	0.	-3.5652e-003
1043	12.122	0.36364	0.	-1.1333e-002
1044	12.122	0.18182	0.	-1.025e-003
1045	11.939	5.8182	0.	-1.1249e-003
1046	11.939	5.6364	0.	-9.5638e-003
1047	11.939	5.4545	0.	-3.2875e-003
1048	11.939	5.2727	0.	-2.0725e-003
1049	11.939	5.0909	0.	-2.1454e-004
1050	11.939	4.9091	0.	1.1727e-003
1051	11.939	4.7273	0.	2.3767e-003
1052	11.939	4.5455	0.	3.3522e-003
1053	11.939	4.3636	0.	4.1372e-003
1054	11.939	4.1818	0.	4.7557e-003
1055	11.939	4.	0.	5.2326e-003
1056	11.939	3.8182	0.	5.5896e-003
1057	11.939	3.6364	0.	5.8495e-003
1058	11.939	3.4545	0.	6.0293e-003
1059	11.939	3.2727	0.	6.1416e-003
1060	11.939	3.0909	0.	6.1947e-003
1061	11.939	2.9091	0.	6.1945e-003
1062	11.939	2.7273	0.	6.1417e-003
1063	11.939	2.5455	0.	6.0294e-003
1064	11.939	2.3636	0.	5.8498e-003
1065	11.939	2.1818	0.	5.5903e-003
1066	11.939	2.	0.	5.2328e-003
1067	11.939	1.8182	0.	4.7563e-003
1068	11.939	1.6364	0.	4.1374e-003
1069	11.939	1.4545	0.	3.3526e-003
1070	11.939	1.2727	0.	2.3774e-003
1071	11.939	1.0909	0.	1.173e-003
1072	11.939	0.90909	0.	-2.127e-004
1073	11.939	0.72727	0.	-2.072e-003
1074	11.939	0.54545	0.	-3.2867e-003
1075	11.939	0.36364	0.	-9.5651e-003
1076	11.939	0.18182	0.	-1.1235e-003
1077	11.755	5.8182	0.	-1.2649e-003
1078	11.755	5.6364	0.	-7.7806e-003
1079	11.755	5.4545	0.	-2.9302e-003
1080	11.755	5.2727	0.	-1.9253e-003
1081	11.755	5.0909	0.	-3.8408e-004
1082	11.755	4.9091	0.	8.2343e-004
1083	11.755	4.7273	0.	1.9101e-003
1084	11.755	4.5455	0.	2.8301e-003
1085	11.755	4.3636	0.	3.606e-003
1086	11.755	4.1818	0.	4.2496e-003
1087	11.755	4.	0.	4.7759e-003
1088	11.755	3.8182	0.	5.1956e-003
1089	11.755	3.6364	0.	5.5209e-003
1090	11.755	3.4545	0.	5.7602e-003
1091	11.755	3.2727	0.	5.9167e-003
1092	11.755	3.0909	0.	5.9941e-003
1093	11.755	2.9091	0.	5.9943e-003
1094	11.755	2.7273	0.	5.9167e-003
1095	11.755	2.5455	0.	5.7608e-003
1096	11.755	2.3636	0.	5.5209e-003
1097	11.755	2.1818	0.	5.1954e-003
1098	11.755	2.	0.	4.7761e-003
1099	11.755	1.8182	0.	4.2499e-003
1100	11.755	1.6364	0.	3.6067e-003
1101	11.755	1.4545	0.	2.8302e-003
1102	11.755	1.2727	0.	1.9109e-003
1103	11.755	1.0909	0.	8.2455e-004
1104	11.755	0.90909	0.	-3.8248e-004
1105	11.755	0.72727	0.	-1.924e-003
1106	11.755	0.54545	0.	-2.9306e-003
1107	11.755	0.36364	0.	-7.7799e-003
1108	11.755	0.18182	0.	-1.2636e-003
1109	11.571	5.8182	0.	-1.5057e-003
1110	11.571	5.6364	0.	-6.0253e-003
1111	11.571	5.4545	0.	-2.5612e-003
1112	11.571	5.2727	0.	-1.7873e-003
1113	11.571	5.0909	0.	-6.0735e-004
1114	11.571	4.9091	0.	3.6334e-004
1115	11.571	4.7273	0.	1.2703e-003
1116	11.571	4.5455	0.	2.0797e-003
1117	11.571	4.3636	0.	2.8049e-003
1118	11.571	4.1818	0.	3.4553e-003
1119	11.571	4.	0.	4.0357e-003
1120	11.571	3.8182	0.	4.5523e-003
1121	11.571	3.6364	0.	5.0001e-003
1122	11.571	3.4545	0.	5.3697e-003
1123	11.571	3.2727	0.	5.6366e-003
1124	11.571	3.0909	0.	5.7779e-003
1125	11.571	2.9091	0.	5.7784e-003
1126	11.571	2.7273	0.	5.6366e-003
1127	11.571	2.5455	0.	5.3695e-003
1128	11.571	2.3636	0.	5.0005e-003
1129	11.571	2.1818	0.	4.5521e-003
1130	11.571	2.	0.	4.0363e-003
1131	11.571	1.8182	0.	3.4555e-003
1132	11.571	1.6364	0.	2.8055e-003
1133	11.571	1.4545	0.	2.0795e-003
1134	11.571	1.2727	0.	1.2707e-003
1135	11.571	1.0909	0.	3.6347e-004
1136	11.571	0.90909	0.	-6.0621e-004
1137	11.571	0.72727	0.	-1.7866e-003
1138	11.571	0.54545	0.	-2.5604e-003
1139	11.571	0.36364	0.	-6.025e-003
1140	11.571	0.18182	0.	-1.5047e-003
1141	11.388	5.8182	0.	-1.8674e-003
1142	11.388	5.6364	0.	-4.296e-003
1143	11.388	5.4545	0.	-2.1987e-003
1144	11.388	5.2727	0.	-1.7002e-003
1145	11.388	5.0909	0.	-9.744e-004
1146	11.388	4.9091	0.	-3.8684e-004
1147	11.388	4.7273	0.	1.4642e-004
1148	11.388	4.5455	0.	5.991e-004
1149	11.388	4.3636	0.	9.7631e-004
1150	11.388	4.1818	0.	1.2753e-003
1151	11.388	4.	0.	1.4909e-003
1152	11.388	3.8182	0.	1.6032e-003
1153	11.388	3.6364	0.	1.5501e-003
1154	11.388	3.4545	0.	1.0224e-003
1155	11.388	3.2727	0.	-4.6023e-003
1156	11.388	3.0909	0.	-7.6557e-002
1157	11.388	2.9091	0.	-7.6556e-002
1158	11.388	2.7273	0.	-4.6029e-003
1159	11.388	2.5455	0.	1.0232e-003
1160	11.388	2.3636	0.	1.5499e-003
1161	11.388	2.1818	0.	1.6035e-003
1162	11.388	2.	0.	1.4912e-003
1163	11.388	1.8182	0.	1.2754e-003
1164	11.388	1.6364	0.	9.7622e-004
1165	11.388	1.4545	0.	6.0016e-004
1166	11.388	1.2727	0.	1.4646e-004
1167	11.388	1.0909	0.	-3.8605e-004
1168	11.388	0.90909	0.	-9.7265e-004
1169	11.388	0.72727	0.	-1.6993e-003
1170	11.388	0.54545	0.	-2.1977e-003
1171	11.388	0.36364	0.	-4.2955e-003
1172	11.388	0.18182	0.	-1.8662e-003
1173	11.204	5.8182	0.	-2.3303e-003
1174	11.204	5.6364	0.	-2.548e-003
1175	11.204	5.4545	0.	-1.8149e-003
1176	11.204	5.2727	0.	-1.6782e-003
1177	11.204	5.0909	0.	-1.6314e-003
1178	11.204	4.9091	0.	-1.8988e-003
1179	11.204	4.7273	0.	-2.7501e-003
1180	11.204	4.5455	0.	-5.2693e-003
1181	11.204	4.3636	0.	-1.8319e-002
1182	11.204	4.1818	0.	-0.41157
1183	11.204	4.	0.	-1.1226
1184	11.204	3.8182	0.	-1.741
1185	11.204	3.6364	0.	-2.2489
1186	11.204	3.4545	0.	-2.6374
1187	11.204	3.2727	0.	-2.9001
1188	11.204	3.0909	0.	-3.0325
1189	11.204	2.9091	0.	-3.0325
1190	11.204	2.7273	0.	-2.9001
1191	11.204	2.5455	0.	-2.6374
1192	11.204	2.3636	0.	-2.2489
1193	11.204	2.1818	0.	-1.741
1194	11.204	2.	0.	-1.1226
1195	11.204	1.8182	0.	-0.41157
1196	11.204	1.6364	0.	-1.8318e-002
1197	11.204	1.4545	0.	-5.2693e-003
1198	11.204	1.2727	0.	-2.7496e-003
1199	11.204	1.0909	0.	-1.8972e-003
1200	11.204	0.90909	0.	-1.6291e-003
1201	11.204	0.72727	0.	-1.6775e-003
1202	11.204	0.54545	0.	-1.8154e-003
1203	11.204	0.36364	0.	-2.5479e-003
1204	11.204	0.18182	0.	-2.3285e-003
1205	11.02	5.8182	0.	-2.9236e-003
1206	11.02	5.6364	0.	-7.786e-004
1207	11.02	5.4545	0.	-1.4295e-003
1208	11.02	5.2727	0.	-1.8371e-003
1209	11.02	5.0909	0.	-3.159e-003
1210	11.02	4.9091	0.	-7.1202e-003
1211	11.02	4.7273	0.	-4.4e-002
1212	11.02	4.5455	0.	-0.93963
1213	11.02	4.3636	0.	-2.0158
1214	11.02	4.1818	0.	-2.9908
1215	11.02	4.	0.	-3.8503
1216	11.02	3.8182	0.	-4.5838
1217	11.02	3.6364	0.	-5.1823
1218	11.02	3.4545	0.	-5.6383
1219	11.02	3.2727	0.	-5.9458
1220	11.02	3.0909	0.	-6.1006
1221	11.02	2.9091	0.	-6.1006
1222	11.02	2.7273	0.	-5.9458
1223	11.02	2.5455	0.	-5.6383
1224	11.02	2.3636	0.	-5.1823
1225	11.02	2.1818	0.	-4.5838
1226	11.02	2.	0.	-3.8503
1227	11.02	1.8182	0.	-2.9908
1228	11.02	1.6364	0.	-2.0158
1229	11.02	1.4545	0.	-0.93963
1230	11.02	1.2727	0.	-4.4e-002
1231	11.02	1.0909	0.	-7.1197e-003
1232	11.02	0.90909	0.	-3.1581e-003
1233	11.02	0.72727	0.	-1.8356e-003
1234	11.02	0.54545	0.	-1.4305e-003
1235	11.02	0.36364	0.	-7.7782e-004
1236	11.02	0.18182	0.	-2.9218e-003
1237	10.837	5.8182	0.	-3.6608e-003
1238	10.837	5.6364	0.	1.0401e-003
1239	10.837	5.4545	0.	-1.0421e-003
1240	10.837	5.2727	0.	-2.4702e-003
1241	10.837	5.0909	0.	-9.1731e-003
1242	10.837	4.9091	0.	-0.40071
1243	10.837	4.7273	0.	-1.8735
1244	10.837	4.5455	0.	-3.2638
1245	10.837	4.3636	0.	-4.5375
1246	10.837	4.1818	0.	-5.682
1247	10.837	4.	0.	-6.6864
1248	10.837	3.8182	0.	-7.5405
1249	10.837	3.6364	0.	-8.2356
1250	10.837	3.4545	0.	-8.7639
1251	10.837	3.2727	0.	-9.1195
1252	10.837	3.0909	0.	-9.2983
1253	10.837	2.9091	0.	-9.2983
1254	10.837	2.7273	0.	-9.1195
1255	10.837	2.5455	0.	-8.7639
1256	10.837	2.3636	0.	-8.2356
1257	10.837	2.1818	0.	-7.5405
1258	10.837	2.	0.	-6.6864
1259	10.837	1.8182	0.	-5.682
1260	10.837	1.6364	0.	-4.5375
1261	10.837	1.4545	0.	-3.2638
1262	10.837	1.2727	0.	-1.8735
1263	10.837	1.0909	0.	-0.40071
1264	10.837	0.90909	0.	-9.1718e-003
1265	10.837	0.72727	0.	-2.4689e-003
1266	10.837	0.54545	0.	-1.0416e-003
1267	10.837	0.36364	0.	1.0402e-003
1268	10.837	0.18182	0.	-3.6597e-003
1269	10.653	5.8182	0.	-4.5713e-003
1270	10.653	5.6364	0.	2.9227e-003
1271	10.653	5.4545	0.	-6.8145e-004
1272	10.653	5.2727	0.	-5.0753e-003
1273	10.653	5.0909	0.	-0.48726
1274	10.653	4.9091	0.	-2.3296
1275	10.653	4.7273	0.	-4.0738
1276	10.653	4.5455	0.	-5.6905
1277	10.653	4.3636	0.	-7.1662
1278	10.653	4.1818	0.	-8.4887
1279	10.653	4.	0.	-9.6465
1280	10.653	3.8182	0.	-10.629
1281	10.653	3.6364	0.	-11.427
1282	10.653	3.4545	0.	-12.033
1283	10.653	3.2727	0.	-12.44
1284	10.653	3.0909	0.	-12.645
1285	10.653	2.9091	0.	-12.645
1286	10.653	2.7273	0.	-12.44
1287	10.653	2.5455	0.	-12.033
1288	10.653	2.3636	0.	-11.427
1289	10.653	2.1818	0.	-10.629
1290	10.653	2.	0.	-9.6465
1291	10.653	1.8182	0.	-8.4887
1292	10.653	1.6364	0.	-7.1662
1293	10.653	1.4545	0.	-5.6905
1294	10.653	1.2727	0.	-4.0738
1295	10.653	1.0909	0.	-2.3296
1296	10.653	0.90909	0.	-0.48726
1297	10.653	0.72727	0.	-5.0735e-003
1298	10.653	0.54545	0.	-6.8118e-004
1299	10.653	0.36364	0.	2.9239e-003
1300	10.653	0.18182	0.	-4.5704e-003
1301	10.469	5.8182	0.	-5.7542e-003
1302	10.469	5.6364	0.	4.832e-003
1303	10.469	5.4545	0.	-5.0543e-004
1304	10.469	5.2727	0.	-8.1307e-002
1305	10.469	5.0909	0.	-2.2347
1306	10.469	4.9091	0.	-4.3731
1307	10.469	4.7273	0.	-6.3764
1308	10.469	4.5455	0.	-8.2294
1309	10.469	4.3636	0.	-9.918
1310	10.469	4.1818	0.	-11.429
1311	10.469	4.	0.	-12.75
1312	10.469	3.8182	0.	-13.869
1313	10.469	3.6364	0.	-14.777
1314	10.469	3.4545	0.	-15.465
1315	10.469	3.2727	0.	-15.928
1316	10.469	3.0909	0.	-16.16
1317	10.469	2.9091	0.	-16.16
1318	10.469	2.7273	0.	-15.928
1319	10.469	2.5455	0.	-15.465
1320	10.469	2.3636	0.	-14.777
1321	10.469	2.1818	0.	-13.869
1322	10.469	2.	0.	-12.75
1323	10.469	1.8182	0.	-11.429
1324	10.469	1.6364	0.	-9.918
1325	10.469	1.4545	0.	-8.2294
1326	10.469	1.2727	0.	-6.3764
1327	10.469	1.0909	0.	-4.3731
1328	10.469	0.90909	0.	-2.2347
1329	10.469	0.72727	0.	-8.1304e-002
1330	10.469	0.54545	0.	-5.0438e-004
1331	10.469	0.36364	0.	4.8326e-003
1332	10.469	0.18182	0.	-5.7534e-003
1333	10.286	5.8182	0.	-7.2917e-003
1334	10.286	5.6364	0.	6.7562e-003
1335	10.286	5.4545	0.	-1.1376e-003
1336	10.286	5.2727	0.	-1.518
1337	10.286	5.0909	0.	-4.0877
1338	10.286	4.9091	0.	-6.5192
1339	10.286	4.7273	0.	-8.7943
1340	10.286	4.5455	0.	-10.897
1341	10.286	4.3636	0.	-12.811
1342	10.286	4.1818	0.	-14.521
1343	10.286	4.	0.	-16.015
1344	10.286	3.8182	0.	-17.28
1345	10.286	3.6364	0.	-18.305
1346	10.286	3.4545	0.	-19.082
1347	10.286	3.2727	0.	-19.604
1348	10.286	3.0909	0.	-19.866
1349	10.286	2.9091	0.	-19.866
1350	10.286	2.7273	0.	-19.604
1351	10.286	2.5455	0.	-19.082
1352	10.286	2.3636	0.	-18.305
1353	10.286	2.1818	0.	-17.28
1354	10.286	2.	0.	-16.015
1355	10.286	1.8182	0.	-14.521
1356	10.286	1.6364	0.	-12.811
1357	10.286	1.4545	0.	-10.897
1358	10.286	1.2727	0.	-8.7943
1359	10.286	1.0909	0.	-6.5192
1360	10.286	0.90909	0.	-4.0877
1361	10.286	0.72727	0.	-1.518
1362	10.286	0.54545	0.	-1.1376e-003
1363	10.286	0.36364	0.	6.7574e-003
1364	10.286	0.18182	0.	-7.2909e-003
1365	10.102	5.8182	0.	-9.2665e-003
1366	10.102	5.6364	0.	8.6954e-003
1367	10.102	5.4545	0.	-0.12178
1368	10.102	5.2727	0.	-3.1428
1369	10.102	5.0909	0.	-6.0409
1370	10.102	4.9091	0.	-8.7807
1371	10.102	4.7273	0.	-11.343
1372	10.102	4.5455	0.	-13.709
1373	10.102	4.3636	0.	-15.862
1374	10.102	4.1818	0.	-17.786
1375	10.102	4.	0.	-19.464
1376	10.102	3.8182	0.	-20.884
1377	10.102	3.6364	0.	-22.035
1378	10.102	3.4545	0.	-22.907
1379	10.102	3.2727	0.	-23.492
1380	10.102	3.0909	0.	-23.786
1381	10.102	2.9091	0.	-23.786
1382	10.102	2.7273	0.	-23.492
1383	10.102	2.5455	0.	-22.907
1384	10.102	2.3636	0.	-22.035
1385	10.102	2.1818	0.	-20.884
1386	10.102	2.	0.	-19.464
1387	10.102	1.8182	0.	-17.786
1388	10.102	1.6364	0.	-15.862
1389	10.102	1.4545	0.	-13.709
1390	10.102	1.2727	0.	-11.343
1391	10.102	1.0909	0.	-8.7807
1392	10.102	0.90909	0.	-6.0409
1393	10.102	0.72727	0.	-3.1428
1394	10.102	0.54545	0.	-0.12177
1395	10.102	0.36364	0.	8.6969e-003
1396	10.102	0.18182	0.	-9.2656e-003
1397	9.9184	5.8182	0.	-1.1849e-002
1398	9.9184	5.6364	0.	1.0512e-002
1399	9.9184	5.4545	0.	-1.4596
1400	9.9184	5.2727	0.	-4.8617
1401	9.9184	5.0909	0.	-8.1057
1402	9.9184	4.9091	0.	-11.172
1403	9.9184	4.7273	0.	-14.039
1404	9.9184	4.5455	0.	-16.686
1405	9.9184	4.3636	0.	-19.093
1406	9.9184	4.1818	0.	-21.243
1407	9.9184	4.	0.	-23.118
1408	9.9184	3.8182	0.	-24.705
1409	9.9184	3.6364	0.	-25.989
1410	9.9184	3.4545	0.	-26.962
1411	9.9184	3.2727	0.	-27.615
1412	9.9184	3.0909	0.	-27.943
1413	9.9184	2.9091	0.	-27.943
1414	9.9184	2.7273	0.	-27.615
1415	9.9184	2.5455	0.	-26.962
1416	9.9184	2.3636	0.	-25.989
1417	9.9184	2.1818	0.	-24.705
1418	9.9184	2.	0.	-23.118
1419	9.9184	1.8182	0.	-21.243
1420	9.9184	1.6364	0.	-19.093
1421	9.9184	1.4545	0.	-16.686
1422	9.9184	1.2727	0.	-14.039
1423	9.9184	1.0909	0.	-11.172
1424	9.9184	0.90909	0.	-8.1057
1425	9.9184	0.72727	0.	-4.8617
1426	9.9184	0.54545	0.	-1.4595
1427	9.9184	0.36364	0.	1.0514e-002
1428	9.9184	0.18182	0.	-1.1848e-002
1429	9.7347	5.8182	0.	-1.5317e-002
1430	9.7347	5.6364	0.	1.1415e-002
1431	9.7347	5.4545	0.	-2.8974
1432	9.7347	5.2727	0.	-6.6835
1433	9.7347	5.0909	0.	-10.294
1434	9.7347	4.9091	0.	-13.708
1435	9.7347	4.7273	0.	-16.899
1436	9.7347	4.5455	0.	-19.845
1437	9.7347	4.3636	0.	-22.523
1438	9.7347	4.1818	0.	-24.915
1439	9.7347	4.	0.	-27.001
1440	9.7347	3.8182	0.	-28.765
1441	9.7347	3.6364	0.	-30.193
1442	9.7347	3.4545	0.	-31.275
1443	9.7347	3.2727	0.	-32.001
1444	9.7347	3.0909	0.	-32.365
1445	9.7347	2.9091	0.	-32.365
1446	9.7347	2.7273	0.	-32.001
1447	9.7347	2.5455	0.	-31.275
1448	9.7347	2.3636	0.	-30.193
1449	9.7347	2.1818	0.	-28.765
1450	9.7347	2.	0.	-27.001
1451	9.7347	1.8182	0.	-24.915
1452	9.7347	1.6364	0.	-22.523
1453	9.7347	1.4545	0.	-19.845
1454	9.7347	1.2727	0.	-16.899
1455	9.7347	1.0909	0.	-13.708
1456	9.7347	0.90909	0.	-10.294
1457	9.7347	0.72727	0.	-6.6835
1458	9.7347	0.54545	0.	-2.8974
1459	9.7347	0.36364	0.	1.1416e-002
1460	9.7347	0.18182	0.	-1.5316e-002
1461	9.551	5.8182	0.	-2.0147e-002
1462	9.551	5.6364	0.	-5.6314e-002
1463	9.551	5.4545	0.	-4.4246
1464	9.551	5.2727	0.	-8.6191
1465	9.551	5.0909	0.	-12.621
1466	9.551	4.9091	0.	-16.404
1467	9.551	4.7273	0.	-19.941
1468	9.551	4.5455	0.	-23.206
1469	9.551	4.3636	0.	-26.175
1470	9.551	4.1818	0.	-28.825
1471	9.551	4.	0.	-31.137
1472	9.551	3.8182	0.	-33.091
1473	9.551	3.6364	0.	-34.674
1474	9.551	3.4545	0.	-35.872
1475	9.551	3.2727	0.	-36.676
1476	9.551	3.0909	0.	-37.079
1477	9.551	2.9091	0.	-37.079
1478	9.551	2.7273	0.	-36.676
1479	9.551	2.5455	0.	-35.872
1480	9.551	2.3636	0.	-34.674
1481	9.551	2.1818	0.	-33.091
1482	9.551	2.	0.	-31.137
1483	9.551	1.8182	0.	-28.825
1484	9.551	1.6364	0.	-26.175
1485	9.551	1.4545	0.	-23.206
1486	9.551	1.2727	0.	-19.941
1487	9.551	1.0909	0.	-16.404
1488	9.551	0.90909	0.	-12.621
1489	9.551	0.72727	0.	-8.6191
1490	9.551	0.54545	0.	-4.4245
1491	9.551	0.36364	0.	-5.6292e-002
1492	9.551	0.18182	0.	-2.0146e-002
1493	9.3673	5.8182	0.	-2.7151e-002
1494	9.3673	5.6364	0.	-1.1852
1495	9.3673	5.4545	0.	-6.0492
1496	9.3673	5.2727	0.	-10.68
1497	9.3673	5.0909	0.	-15.099
1498	9.3673	4.9091	0.	-19.277
1499	9.3673	4.7273	0.	-23.185
1500	9.3673	4.5455	0.	-26.791
1501	9.3673	4.3636	0.	-30.071
1502	9.3673	4.1818	0.	-32.999
1503	9.3673	4.	0.	-35.552
1504	9.3673	3.8182	0.	-37.711
1505	9.3673	3.6364	0.	-39.459
1506	9.3673	3.4545	0.	-40.782
1507	9.3673	3.2727	0.	-41.67
1508	9.3673	3.0909	0.	-42.116
1509	9.3673	2.9091	0.	-42.116
1510	9.3673	2.7273	0.	-41.67
1511	9.3673	2.5455	0.	-40.782
1512	9.3673	2.3636	0.	-39.459
1513	9.3673	2.1818	0.	-37.711
1514	9.3673	2.	0.	-35.552
1515	9.3673	1.8182	0.	-32.999
1516	9.3673	1.6364	0.	-30.071
1517	9.3673	1.4545	0.	-26.791
1518	9.3673	1.2727	0.	-23.185
1519	9.3673	1.0909	0.	-19.277
1520	9.3673	0.90909	0.	-15.099
1521	9.3673	0.72727	0.	-10.68
1522	9.3673	0.54545	0.	-6.0492
1523	9.3673	0.36364	0.	-1.1851
1524	9.3673	0.18182	0.	-2.715e-002
1525	9.1837	5.8182	0.	-3.7831e-002
1526	9.1837	5.6364	0.	-2.4328
1527	9.1837	5.4545	0.	-7.7803
1528	9.1837	5.2727	0.	-12.877
1529	9.1837	5.0909	0.	-17.744
1530	9.1837	4.9091	0.	-22.346
1531	9.1837	4.7273	0.	-26.649
1532	9.1837	4.5455	0.	-30.623
1533	9.1837	4.3636	0.	-34.236
1534	9.1837	4.1818	0.	-37.461
1535	9.1837	4.	0.	-40.274
1536	9.1837	3.8182	0.	-42.653
1537	9.1837	3.6364	0.	-44.579
1538	9.1837	3.4545	0.	-46.037
1539	9.1837	3.2727	0.	-47.015
1540	9.1837	3.0909	0.	-47.506
1541	9.1837	2.9091	0.	-47.506
1542	9.1837	2.7273	0.	-47.015
1543	9.1837	2.5455	0.	-46.037
1544	9.1837	2.3636	0.	-44.579
1545	9.1837	2.1818	0.	-42.653
1546	9.1837	2.	0.	-40.274
1547	9.1837	1.8182	0.	-37.461
1548	9.1837	1.6364	0.	-34.236
1549	9.1837	1.4545	0.	-30.623
1550	9.1837	1.2727	0.	-26.649
1551	9.1837	1.0909	0.	-22.346
1552	9.1837	0.90909	0.	-17.744
1553	9.1837	0.72727	0.	-12.877
1554	9.1837	0.54545	0.	-7.7802
1555	9.1837	0.36364	0.	-2.4328
1556	9.1837	0.18182	0.	-3.783e-002
1557	9.	5.8182	0.	-5.5445e-002
1558	9.	5.6364	0.	-3.7627
1559	9.	5.4545	0.	-9.6274
1560	9.	5.2727	0.	-15.225
1561	9.	5.0909	0.	-20.571
1562	9.	4.9091	0.	-25.627
1563	9.	4.7273	0.	-30.357
1564	9.	4.5455	0.	-34.724
1565	9.	4.3636	0.	-38.696
1566	9.	4.1818	0.	-42.242
1567	9.	4.	0.	-45.334
1568	9.	3.8182	0.	-47.949
1569	9.	3.6364	0.	-50.067
1570	9.	3.4545	0.	-51.67
1571	9.	3.2727	0.	-52.745
1572	9.	3.0909	0.	-53.285
1573	9.	2.9091	0.	-53.285
1574	9.	2.7273	0.	-52.745
1575	9.	2.5455	0.	-51.67
1576	9.	2.3636	0.	-50.067
1577	9.	2.1818	0.	-47.949
1578	9.	2.	0.	-45.334
1579	9.	1.8182	0.	-42.242
1580	9.	1.6364	0.	-38.696
1581	9.	1.4545	0.	-34.724
1582	9.	1.2727	0.	-30.357
1583	9.	1.0909	0.	-25.627
1584	9.	0.90909	0.	-20.571
1585	9.	0.72727	0.	-15.225
1586	9.	0.54545	0.	-9.6274
1587	9.	0.36364	0.	-3.7626
1588	9.	0.18182	0.	-5.5444e-002
1589	8.8163	5.8182	0.	-8.8225e-002
1590	8.8163	5.6364	0.	-5.1807
1591	8.8163	5.4545	0.	-11.601
1592	8.8163	5.2727	0.	-17.736
1593	8.8163	5.0909	0.	-23.597
1594	8.8163	4.9091	0.	-29.142
1595	8.8163	4.7273	0.	-34.33
1596	8.8163	4.5455	0.	-39.121
1597	8.8163	4.3636	0.	-43.479
1598	8.8163	4.1818	0.	-47.369
1599	8.8163	4.	0.	-50.763
1600	8.8163	3.8182	0.	-53.633
1601	8.8163	3.6364	0.	-55.957
1602	8.8163	3.4545	0.	-57.717
1603	8.8163	3.2727	0.	-58.898
1604	8.8163	3.0909	0.	-59.49
1605	8.8163	2.9091	0.	-59.49
1606	8.8163	2.7273	0.	-58.898
1607	8.8163	2.5455	0.	-57.717
1608	8.8163	2.3636	0.	-55.957
1609	8.8163	2.1818	0.	-53.633
1610	8.8163	2.	0.	-50.763
1611	8.8163	1.8182	0.	-47.369
1612	8.8163	1.6364	0.	-43.479
1613	8.8163	1.4545	0.	-39.121
1614	8.8163	1.2727	0.	-34.33
1615	8.8163	1.0909	0.	-29.142
1616	8.8163	0.90909	0.	-23.597
1617	8.8163	0.72727	0.	-17.736
1618	8.8163	0.54545	0.	-11.601
1619	8.8163	0.36364	0.	-5.1807
1620	8.8163	0.18182	0.	-8.8222e-002
1621	8.6327	5.8182	0.	-0.16263
1622	8.6327	5.6364	0.	-6.6937
1623	8.6327	5.4545	0.	-13.711
1624	8.6327	5.2727	0.	-20.424
1625	8.6327	5.0909	0.	-26.84
1626	8.6327	4.9091	0.	-32.911
1627	8.6327	4.7273	0.	-38.592
1628	8.6327	4.5455	0.	-43.84
1629	8.6327	4.3636	0.	-48.614
1630	8.6327	4.1818	0.	-52.877
1631	8.6327	4.	0.	-56.596
1632	8.6327	3.8182	0.	-59.741
1633	8.6327	3.6364	0.	-62.288
1634	8.6327	3.4545	0.	-64.217
1635	8.6327	3.2727	0.	-65.511
1636	8.6327	3.0909	0.	-66.161
1637	8.6327	2.9091	0.	-66.161
1638	8.6327	2.7273	0.	-65.511
1639	8.6327	2.5455	0.	-64.217
1640	8.6327	2.3636	0.	-62.288
1641	8.6327	2.1818	0.	-59.741
1642	8.6327	2.	0.	-56.596
1643	8.6327	1.8182	0.	-52.877
1644	8.6327	1.6364	0.	-48.614
1645	8.6327	1.4545	0.	-43.84
1646	8.6327	1.2727	0.	-38.592
1647	8.6327	1.0909	0.	-32.911
1648	8.6327	0.90909	0.	-26.84
1649	8.6327	0.72727	0.	-20.424
1650	8.6327	0.54545	0.	-13.711
1651	8.6327	0.36364	0.	-6.6937
1652	8.6327	0.18182	0.	-0.16263
1653	8.449	5.8182	0.	-0.38908
1654	8.449	5.6364	0.	-8.3089
1655	8.449	5.4545	0.	-15.969
1656	8.449	5.2727	0.	-23.305
1657	8.449	5.0909	0.	-30.318
1658	8.449	4.9091	0.	-36.957
1659	8.449	4.7273	0.	-43.17
1660	8.449	4.5455	0.	-48.911
1661	8.449	4.3636	0.	-54.134
1662	8.449	4.1818	0.	-58.799
1663	8.449	4.	0.	-62.869
1664	8.449	3.8182	0.	-66.312
1665	8.449	3.6364	0.	-69.1
1666	8.449	3.4545	0.	-71.211
1667	8.449	3.2727	0.	-72.628
1668	8.449	3.0909	0.	-73.339
1669	8.449	2.9091	0.	-73.339
1670	8.449	2.7273	0.	-72.628
1671	8.449	2.5455	0.	-71.211
1672	8.449	2.3636	0.	-69.1
1673	8.449	2.1818	0.	-66.312
1674	8.449	2.	0.	-62.869
1675	8.449	1.8182	0.	-58.799
1676	8.449	1.6364	0.	-54.134
1677	8.449	1.4545	0.	-48.911
1678	8.449	1.2727	0.	-43.17
1679	8.449	1.0909	0.	-36.957
1680	8.449	0.90909	0.	-30.318
1681	8.449	0.72727	0.	-23.305
1682	8.449	0.54545	0.	-15.969
1683	8.449	0.36364	0.	-8.3089
1684	8.449	0.18182	0.	-0.38907
1685	8.2653	5.8182	0.	-1.0307
1686	8.2653	5.6364	0.	-10.034
1687	8.2653	5.4545	0.	-18.387
1688	8.2653	5.2727	0.	-26.395
1689	8.2653	5.0909	0.	-34.053
1690	8.2653	4.9091	0.	-41.303
1691	8.2653	4.7273	0.	-48.091
1692	8.2653	4.5455	0.	-54.364
1693	8.2653	4.3636	0.	-60.073
1694	8.2653	4.1818	0.	-65.172
1695	8.2653	4.	0.	-69.622
1696	8.2653	3.8182	0.	-73.386
1697	8.2653	3.6364	0.	-76.436
1698	8.2653	3.4545	0.	-78.744
1699	8.2653	3.2727	0.	-80.294
1700	8.2653	3.0909	0.	-81.072
1701	8.2653	2.9091	0.	-81.072
1702	8.2653	2.7273	0.	-80.294
1703	8.2653	2.5455	0.	-78.744
1704	8.2653	2.3636	0.	-76.436
1705	8.2653	2.1818	0.	-73.386
1706	8.2653	2.	0.	-69.622
1707	8.2653	1.8182	0.	-65.172
1708	8.2653	1.6364	0.	-60.073
1709	8.2653	1.4545	0.	-54.364
1710	8.2653	1.2727	0.	-48.091
1711	8.2653	1.0909	0.	-41.303
1712	8.2653	0.90909	0.	-34.053
1713	8.2653	0.72727	0.	-26.395
1714	8.2653	0.54545	0.	-18.387
1715	8.2653	0.36364	0.	-10.034
1716	8.2653	0.18182	0.	-1.0307
1717	8.0816	5.8182	0.	-2.0151
1718	8.0816	5.6364	0.	-11.877
1719	8.0816	5.4545	0.	-20.977
1720	8.0816	5.2727	0.	-29.71
1721	8.0816	5.0909	0.	-38.064
1722	8.0816	4.9091	0.	-45.976
1723	8.0816	4.7273	0.	-53.385
1724	8.0816	4.5455	0.	-60.233
1725	8.0816	4.3636	0.	-66.467
1726	8.0816	4.1818	0.	-72.036
1727	8.0816	4.	0.	-76.897
1728	8.0816	3.8182	0.	-81.01
1729	8.0816	3.6364	0.	-84.342
1730	8.0816	3.4545	0.	-86.865
1731	8.0816	3.2727	0.	-88.559
1732	8.0816	3.0909	0.	-89.409
1733	8.0816	2.9091	0.	-89.409
1734	8.0816	2.7273	0.	-88.559
1735	8.0816	2.5455	0.	-86.865
1736	8.0816	2.3636	0.	-84.342
1737	8.0816	2.1818	0.	-81.01
1738	8.0816	2.	0.	-76.897
1739	8.0816	1.8182	0.	-72.036
1740	8.0816	1.6364	0.	-66.467
1741	8.0816	1.4545	0.	-60.233
1742	8.0816	1.2727	0.	-53.385
1743	8.0816	1.0909	0.	-45.976
1744	8.0816	0.90909	0.	-38.064
1745	8.0816	0.72727	0.	-29.71
1746	8.0816	0.54545	0.	-20.977
1747	8.0816	0.36364	0.	-11.877
1748	8.0816	0.18182	0.	-2.015
1749	7.898	5.8182	0.	-3.1474
1750	7.898	5.6364	0.	-13.845
1751	7.898	5.4545	0.	-23.754
1752	7.898	5.2727	0.	-33.269
1753	7.898	5.0909	0.	-42.375
1754	7.898	4.9091	0.	-51.002
1755	7.898	4.7273	0.	-59.083
1756	7.898	4.5455	0.	-66.554
1757	7.898	4.3636	0.	-73.356
1758	7.898	4.1818	0.	-79.435
1759	7.898	4.	0.	-84.741
1760	7.898	3.8182	0.	-89.232
1761	7.898	3.6364	0.	-92.87
1762	7.898	3.4545	0.	-95.626
1763	7.898	3.2727	0.	-97.475
1764	7.898	3.0909	0.	-98.404
1765	7.898	2.9091	0.	-98.404
1766	7.898	2.7273	0.	-97.475
1767	7.898	2.5455	0.	-95.626
1768	7.898	2.3636	0.	-92.87
1769	7.898	2.1818	0.	-89.232
1770	7.898	2.	0.	-84.741
1771	7.898	1.8182	0.	-79.435
1772	7.898	1.6364	0.	-73.356
1773	7.898	1.4545	0.	-66.554
1774	7.898	1.2727	0.	-59.083
1775	7.898	1.0909	0.	-51.002
1776	7.898	0.90909	0.	-42.375
1777	7.898	0.72727	0.	-33.269
1778	7.898	0.54545	0.	-23.753
1779	7.898	0.36364	0.	-13.845
1780	7.898	0.18182	0.	-3.1474
1781	7.7143	5.8182	0.	-4.3749
1782	7.7143	5.6364	0.	-15.949
1783	7.7143	5.4545	0.	-26.729
1784	7.7143	5.2727	0.	-37.091
1785	7.7143	5.0909	0.	-47.01
1786	7.7143	4.9091	0.	-56.411
1787	7.7143	4.7273	0.	-65.218
1788	7.7143	4.5455	0.	-73.364
1789	7.7143	4.3636	0.	-80.782
1790	7.7143	4.1818	0.	-87.413
1791	7.7143	4.	0.	-93.202
1792	7.7143	3.8182	0.	-98.103
1793	7.7143	3.6364	0.	-102.07
1794	7.7143	3.4545	0.	-105.08
1795	7.7143	3.2727	0.	-107.1
1796	7.7143	3.0909	0.	-108.11
1797	7.7143	2.9091	0.	-108.11
1798	7.7143	2.7273	0.	-107.1
1799	7.7143	2.5455	0.	-105.08
1800	7.7143	2.3636	0.	-102.07
1801	7.7143	2.1818	0.	-98.103
1802	7.7143	2.	0.	-93.202
1803	7.7143	1.8182	0.	-87.413
1804	7.7143	1.6364	0.	-80.782
1805	7.7143	1.4545	0.	-73.364
1806	7.7143	1.2727	0.	-65.218
1807	7.7143	1.0909	0.	-56.411
1808	7.7143	0.90909	0.	-47.01
1809	7.7143	0.72727	0.	-37.091
1810	7.7143	0.54545	0.	-26.729
1811	7.7143	0.36364	0.	-15.949
1812	7.7143	0.18182	0.	-4.3749
1813	7.5306	5.8182	0.	-5.6858
1814	7.5306	5.6364	0.	-18.196
1815	7.5306	5.4545	0.	-29.919
1816	7.5306	5.2727	0.	-41.196
1817	7.5306	5.0909	0.	-51.995
1818	7.5306	4.9091	0.	-62.232
1819	7.5306	4.7273	0.	-71.828
1820	7.5306	4.5455	0.	-80.704
1821	7.5306	4.3636	0.	-88.79
1822	7.5306	4.1818	0.	-96.02
1823	7.5306	4.	0.	-102.33
1824	7.5306	3.8182	0.	-107.68
1825	7.5306	3.6364	0.	-112.01
1826	7.5306	3.4545	0.	-115.29
1827	7.5306	3.2727	0.	-117.5
1828	7.5306	3.0909	0.	-118.6
1829	7.5306	2.9091	0.	-118.6
1830	7.5306	2.7273	0.	-117.5
1831	7.5306	2.5455	0.	-115.29
1832	7.5306	2.3636	0.	-112.01
1833	7.5306	2.1818	0.	-107.68
1834	7.5306	2.	0.	-102.33
1835	7.5306	1.8182	0.	-96.02
1836	7.5306	1.6364	0.	-88.79
1837	7.5306	1.4545	0.	-80.704
1838	7.5306	1.2727	0.	-71.828
1839	7.5306	1.0909	0.	-62.232
1840	7.5306	0.90909	0.	-51.995
1841	7.5306	0.72727	0.	-41.196
1842	7.5306	0.54545	0.	-29.919
1843	7.5306	0.36364	0.	-18.196
1844	7.5306	0.18182	0.	-5.6858
1845	7.3469	5.8182	0.	-7.0777
1846	7.3469	5.6364	0.	-20.597
1847	7.3469	5.4545	0.	-33.339
1848	7.3469	5.2727	0.	-45.605
1849	7.3469	5.0909	0.	-57.357
1850	7.3469	4.9091	0.	-68.501
1851	7.3469	4.7273	0.	-78.95
1852	7.3469	4.5455	0.	-88.619
1853	7.3469	4.3636	0.	-97.43
1854	7.3469	4.1818	0.	-105.31
1855	7.3469	4.	0.	-112.19
1856	7.3469	3.8182	0.	-118.02
1857	7.3469	3.6364	0.	-122.75
1858	7.3469	3.4545	0.	-126.33
1859	7.3469	3.2727	0.	-128.73
1860	7.3469	3.0909	0.	-129.94
1861	7.3469	2.9091	0.	-129.94
1862	7.3469	2.7273	0.	-128.73
1863	7.3469	2.5455	0.	-126.33
1864	7.3469	2.3636	0.	-122.75
1865	7.3469	2.1818	0.	-118.02
1866	7.3469	2.	0.	-112.19
1867	7.3469	1.8182	0.	-105.31
1868	7.3469	1.6364	0.	-97.43
1869	7.3469	1.4545	0.	-88.619
1870	7.3469	1.2727	0.	-78.95
1871	7.3469	1.0909	0.	-68.501
1872	7.3469	0.90909	0.	-57.357
1873	7.3469	0.72727	0.	-45.605
1874	7.3469	0.54545	0.	-33.339
1875	7.3469	0.36364	0.	-20.597
1876	7.3469	0.18182	0.	-7.0776
1877	7.1633	5.8182	0.	-8.5509
1878	7.1633	5.6364	0.	-23.16
1879	7.1633	5.4545	0.	-37.004
1880	7.1633	5.2727	0.	-50.342
1881	7.1633	5.0909	0.	-63.125
1882	7.1633	4.9091	0.	-75.252
1883	7.1633	4.7273	0.	-86.626
1884	7.1633	4.5455	0.	-97.155
1885	7.1633	4.3636	0.	-106.75
1886	7.1633	4.1818	0.	-115.34
1887	7.1633	4.	0.	-122.84
1888	7.1633	3.8182	0.	-129.2
1889	7.1633	3.6364	0.	-134.35
1890	7.1633	3.4545	0.	-138.25
1891	7.1633	3.2727	0.	-140.88
1892	7.1633	3.0909	0.	-142.19
1893	7.1633	2.9091	0.	-142.19
1894	7.1633	2.7273	0.	-140.88
1895	7.1633	2.5455	0.	-138.25
1896	7.1633	2.3636	0.	-134.35
1897	7.1633	2.1818	0.	-129.2
1898	7.1633	2.	0.	-122.84
1899	7.1633	1.8182	0.	-115.34
1900	7.1633	1.6364	0.	-106.75
1901	7.1633	1.4545	0.	-97.155
1902	7.1633	1.2727	0.	-86.626
1903	7.1633	1.0909	0.	-75.252
1904	7.1633	0.90909	0.	-63.125
1905	7.1633	0.72727	0.	-50.342
1906	7.1633	0.54545	0.	-37.004
1907	7.1633	0.36364	0.	-23.16
1908	7.1633	0.18182	0.	-8.5509
1909	6.9796	5.8182	0.	-10.107
1910	6.9796	5.6364	0.	-25.895
1911	6.9796	5.4545	0.	-40.932
1912	6.9796	5.2727	0.	-55.429
1913	6.9796	5.0909	0.	-69.329
1914	6.9796	4.9091	0.	-82.522
1915	6.9796	4.7273	0.	-94.9
1916	6.9796	4.5455	0.	-106.36
1917	6.9796	4.3636	0.	-116.82
1918	6.9796	4.1818	0.	-126.17
1919	6.9796	4.	0.	-134.35
1920	6.9796	3.8182	0.	-141.28
1921	6.9796	3.6364	0.	-146.89
1922	6.9796	3.4545	0.	-151.15
1923	6.9796	3.2727	0.	-154.01
1924	6.9796	3.0909	0.	-155.45
1925	6.9796	2.9091	0.	-155.45
1926	6.9796	2.7273	0.	-154.01
1927	6.9796	2.5455	0.	-151.15
1928	6.9796	2.3636	0.	-146.89
1929	6.9796	2.1818	0.	-141.28
1930	6.9796	2.	0.	-134.35
1931	6.9796	1.8182	0.	-126.17
1932	6.9796	1.6364	0.	-116.82
1933	6.9796	1.4545	0.	-106.36
1934	6.9796	1.2727	0.	-94.9
1935	6.9796	1.0909	0.	-82.522
1936	6.9796	0.90909	0.	-69.329
1937	6.9796	0.72727	0.	-55.429
1938	6.9796	0.54545	0.	-40.932
1939	6.9796	0.36364	0.	-25.895
1940	6.9796	0.18182	0.	-10.107
1941	6.7959	5.8182	0.	-11.746
1942	6.7959	5.6364	0.	-28.812
1943	6.7959	5.4545	0.	-45.14
1944	6.7959	5.2727	0.	-60.892
1945	6.7959	5.0909	0.	-76.003
1946	6.7959	4.9091	0.	-90.351
1947	6.7959	4.7273	0.	-103.82
1948	6.7959	4.5455	0.	-116.3
1949	6.7959	4.3636	0.	-127.68
1950	6.7959	4.1818	0.	-137.87
1951	6.7959	4.	0.	-146.78
1952	6.7959	3.8182	0.	-154.33
1953	6.7959	3.6364	0.	-160.45
1954	6.7959	3.4545	0.	-165.1
1955	6.7959	3.2727	0.	-168.21
1956	6.7959	3.0909	0.	-169.78
1957	6.7959	2.9091	0.	-169.78
1958	6.7959	2.7273	0.	-168.21
1959	6.7959	2.5455	0.	-165.1
1960	6.7959	2.3636	0.	-160.45
1961	6.7959	2.1818	0.	-154.33
1962	6.7959	2.	0.	-146.78
1963	6.7959	1.8182	0.	-137.87
1964	6.7959	1.6364	0.	-127.68
1965	6.7959	1.4545	0.	-116.3
1966	6.7959	1.2727	0.	-103.82
1967	6.7959	1.0909	0.	-90.351
1968	6.7959	0.90909	0.	-76.003
1969	6.7959	0.72727	0.	-60.892
1970	6.7959	0.54545	0.	-45.14
1971	6.7959	0.36364	0.	-28.812
1972	6.7959	0.18182	0.	-11.746
1973	6.6122	5.8182	0.	-13.47
1974	6.6122	5.6364	0.	-31.921
1975	6.6122	5.4545	0.	-49.646
1976	6.6122	5.2727	0.	-66.758
1977	6.6122	5.0909	0.	-83.182
1978	6.6122	4.9091	0.	-98.783
1979	6.6122	4.7273	0.	-113.44
1980	6.6122	4.5455	0.	-127.02
1981	6.6122	4.3636	0.	-139.41
1982	6.6122	4.1818	0.	-150.51
1983	6.6122	4.	0.	-160.22
1984	6.6122	3.8182	0.	-168.45
1985	6.6122	3.6364	0.	-175.12
1986	6.6122	3.4545	0.	-180.18
1987	6.6122	3.2727	0.	-183.58
1988	6.6122	3.0909	0.	-185.29
1989	6.6122	2.9091	0.	-185.29
1990	6.6122	2.7273	0.	-183.58
1991	6.6122	2.5455	0.	-180.18
1992	6.6122	2.3636	0.	-175.12
1993	6.6122	2.1818	0.	-168.45
1994	6.6122	2.	0.	-160.22
1995	6.6122	1.8182	0.	-150.51
1996	6.6122	1.6364	0.	-139.41
1997	6.6122	1.4545	0.	-127.02
1998	6.6122	1.2727	0.	-113.44
1999	6.6122	1.0909	0.	-98.783
2000	6.6122	0.90909	0.	-83.182
2001	6.6122	0.72727	0.	-66.758
2002	6.6122	0.54545	0.	-49.646
2003	6.6122	0.36364	0.	-31.921
2004	6.6122	0.18182	0.	-13.47
2005	6.4286	5.8182	0.	-15.279
2006	6.4286	5.6364	0.	-35.233
2007	6.4286	5.4545	0.	-54.469
2008	6.4286	5.2727	0.	-73.053
2009	6.4286	5.0909	0.	-90.901
2010	6.4286	4.9091	0.	-107.86
2011	6.4286	4.7273	0.	-123.8
2012	6.4286	4.5455	0.	-138.58
2013	6.4286	4.3636	0.	-152.07
2014	6.4286	4.1818	0.	-164.16
2015	6.4286	4.	0.	-174.74
2016	6.4286	3.8182	0.	-183.71
2017	6.4286	3.6364	0.	-190.99
2018	6.4286	3.4545	0.	-196.51
2019	6.4286	3.2727	0.	-200.22
2020	6.4286	3.0909	0.	-202.08
2021	6.4286	2.9091	0.	-202.08
2022	6.4286	2.7273	0.	-200.22
2023	6.4286	2.5455	0.	-196.51
2024	6.4286	2.3636	0.	-190.99
2025	6.4286	2.1818	0.	-183.71
2026	6.4286	2.	0.	-174.74
2027	6.4286	1.8182	0.	-164.16
2028	6.4286	1.6364	0.	-152.07
2029	6.4286	1.4545	0.	-138.58
2030	6.4286	1.2727	0.	-123.8
2031	6.4286	1.0909	0.	-107.86
2032	6.4286	0.90909	0.	-90.901
2033	6.4286	0.72727	0.	-73.053
2034	6.4286	0.54545	0.	-54.469
2035	6.4286	0.36364	0.	-35.233
2036	6.4286	0.18182	0.	-15.279
2037	6.2449	5.8182	0.	-17.172
2038	6.2449	5.6364	0.	-38.755
2039	6.2449	5.4545	0.	-59.628
2040	6.2449	5.2727	0.	-79.808
2041	6.2449	5.0909	0.	-99.199
2042	6.2449	4.9091	0.	-117.64
2043	6.2449	4.7273	0.	-134.97
2044	6.2449	4.5455	0.	-151.06
2045	6.2449	4.3636	0.	-165.75
2046	6.2449	4.1818	0.	-178.92
2047	6.2449	4.	0.	-190.44
2048	6.2449	3.8182	0.	-200.22
2049	6.2449	3.6364	0.	-208.16
2050	6.2449	3.4545	0.	-214.17
2051	6.2449	3.2727	0.	-218.22
2052	6.2449	3.0909	0.	-220.25
2053	6.2449	2.9091	0.	-220.25
2054	6.2449	2.7273	0.	-218.22
2055	6.2449	2.5455	0.	-214.17
2056	6.2449	2.3636	0.	-208.16
2057	6.2449	2.1818	0.	-200.22
2058	6.2449	2.	0.	-190.44
2059	6.2449	1.8182	0.	-178.92
2060	6.2449	1.6364	0.	-165.75
2061	6.2449	1.4545	0.	-151.06
2062	6.2449	1.2727	0.	-134.97
2063	6.2449	1.0909	0.	-117.64
2064	6.2449	0.90909	0.	-99.199
2065	6.2449	0.72727	0.	-79.808
2066	6.2449	0.54545	0.	-59.628
2067	6.2449	0.36364	0.	-38.755
2068	6.2449	0.18182	0.	-17.172
2069	6.0612	5.8182	0.	-19.147
2070	6.0612	5.6364	0.	-42.499
2071	6.0612	5.4545	0.	-65.143
2072	6.0612	5.2727	0.	-87.052
2073	6.0612	5.0909	0.	-108.12
2074	6.0612	4.9091	0.	-128.16
2075	6.0612	4.7273	0.	-147.02
2076	6.0612	4.5455	0.	-164.52
2077	6.0612	4.3636	0.	-180.51
2078	6.0612	4.1818	0.	-194.86
2079	6.0612	4.	0.	-207.42
2080	6.0612	3.8182	0.	-218.08
2081	6.0612	3.6364	0.	-226.73
2082	6.0612	3.4545	0.	-233.29
2083	6.0612	3.2727	0.	-237.71
2084	6.0612	3.0909	0.	-239.92
2085	6.0612	2.9091	0.	-239.92
2086	6.0612	2.7273	0.	-237.71
2087	6.0612	2.5455	0.	-233.29
2088	6.0612	2.3636	0.	-226.73
2089	6.0612	2.1818	0.	-218.08
2090	6.0612	2.	0.	-207.42
2091	6.0612	1.8182	0.	-194.86
2092	6.0612	1.6364	0.	-180.51
2093	6.0612	1.4545	0.	-164.52
2094	6.0612	1.2727	0.	-147.02
2095	6.0612	1.0909	0.	-128.16
2096	6.0612	0.90909	0.	-108.12
2097	6.0612	0.72727	0.	-87.052
2098	6.0612	0.54545	0.	-65.143
2099	6.0612	0.36364	0.	-42.499
2100	6.0612	0.18182	0.	-19.147
2101	5.8776	5.8182	0.	-21.201
2102	5.8776	5.6364	0.	-46.472
2103	5.8776	5.4545	0.	-71.034
2104	5.8776	5.2727	0.	-94.816
2105	5.8776	5.0909	0.	-117.7
2106	5.8776	4.9091	0.	-139.48
2107	5.8776	4.7273	0.	-159.99
2108	5.8776	4.5455	0.	-179.04
2109	5.8776	4.3636	0.	-196.46
2110	5.8776	4.1818	0.	-212.08
2111	5.8776	4.	0.	-225.77
2112	5.8776	3.8182	0.	-237.39
2113	5.8776	3.6364	0.	-246.83
2114	5.8776	3.4545	0.	-253.99
2115	5.8776	3.2727	0.	-258.8
2116	5.8776	3.0909	0.	-261.22
2117	5.8776	2.9091	0.	-261.22
2118	5.8776	2.7273	0.	-258.8
2119	5.8776	2.5455	0.	-253.99
2120	5.8776	2.3636	0.	-246.83
2121	5.8776	2.1818	0.	-237.39
2122	5.8776	2.	0.	-225.77
2123	5.8776	1.8182	0.	-212.08
2124	5.8776	1.6364	0.	-196.46
2125	5.8776	1.4545	0.	-179.04
2126	5.8776	1.2727	0.	-159.99
2127	5.8776	1.0909	0.	-139.48
2128	5.8776	0.90909	0.	-117.7
2129	5.8776	0.72727	0.	-94.816
2130	5.8776	0.54545	0.	-71.034
2131	5.8776	0.36364	0.	-46.472
2132	5.8776	0.18182	0.	-21.201
2133	5.6939	5.8182	0.	-23.33
2134	5.6939	5.6364	0.	-50.684
2135	5.6939	5.4545	0.	-77.321
2136	5.6939	5.2727	0.	-103.13
2137	5.6939	5.0909	0.	-127.99
2138	5.6939	4.9091	0.	-151.67
2139	5.6939	4.7273	0.	-173.97
2140	5.6939	4.5455	0.	-194.7
2141	5.6939	4.3636	0.	-213.67
2142	5.6939	4.1818	0.	-230.69
2143	5.6939	4.	0.	-245.61
2144	5.6939	3.8182	0.	-258.28
2145	5.6939	3.6364	0.	-268.57
2146	5.6939	3.4545	0.	-276.39
2147	5.6939	3.2727	0.	-281.64
2148	5.6939	3.0909	0.	-284.28
2149	5.6939	2.9091	0.	-284.28
2150	5.6939	2.7273	0.	-281.64
2151	5.6939	2.5455	0.	-276.39
2152	5.6939	2.3636	0.	-268.57
2153	5.6939	2.1818	0.	-258.28
2154	5.6939	2.	0.	-245.61
2155	5.6939	1.8182	0.	-230.69
2156	5.6939	1.6364	0.	-213.67
2157	5.6939	1.4545	0.	-194.7
2158	5.6939	1.2727	0.	-173.97
2159	5.6939	1.0909	0.	-151.67
2160	5.6939	0.90909	0.	-127.99
2161	5.6939	0.72727	0.	-103.13
2162	5.6939	0.54545	0.	-77.321
2163	5.6939	0.36364	0.	-50.684
2164	5.6939	0.18182	0.	-23.33
2165	5.5102	5.8182	0.	-25.526
2166	5.5102	5.6364	0.	-55.14
2167	5.5102	5.4545	0.	-84.025
2168	5.5102	5.2727	0.	-112.04
2169	5.5102	5.0909	0.	-139.03
2170	5.5102	4.9091	0.	-164.77
2171	5.5102	4.7273	0.	-189.03
2172	5.5102	4.5455	0.	-211.59
2173	5.5102	4.3636	0.	-232.24
2174	5.5102	4.1818	0.	-250.8
2175	5.5102	4.	0.	-267.06
2176	5.5102	3.8182	0.	-280.88
2177	5.5102	3.6364	0.	-292.11
2178	5.5102	3.4545	0.	-300.63
2179	5.5102	3.2727	0.	-306.37
2180	5.5102	3.0909	0.	-309.25
2181	5.5102	2.9091	0.	-309.25
2182	5.5102	2.7273	0.	-306.37
2183	5.5102	2.5455	0.	-300.63
2184	5.5102	2.3636	0.	-292.11
2185	5.5102	2.1818	0.	-280.88
2186	5.5102	2.	0.	-267.06
2187	5.5102	1.8182	0.	-250.8
2188	5.5102	1.6364	0.	-232.24
2189	5.5102	1.4545	0.	-211.59
2190	5.5102	1.2727	0.	-189.03
2191	5.5102	1.0909	0.	-164.77
2192	5.5102	0.90909	0.	-139.03
2193	5.5102	0.72727	0.	-112.04
2194	5.5102	0.54545	0.	-84.025
2195	5.5102	0.36364	0.	-55.14
2196	5.5102	0.18182	0.	-25.526
2197	5.3265	5.8182	0.	-27.78
2198	5.3265	5.6364	0.	-59.849
2199	5.3265	5.4545	0.	-91.165
2200	5.3265	5.2727	0.	-121.56
2201	5.3265	5.0909	0.	-150.88
2202	5.3265	4.9091	0.	-178.85
2203	5.3265	4.7273	0.	-205.24
2204	5.3265	4.5455	0.	-229.8
2205	5.3265	4.3636	0.	-252.3
2206	5.3265	4.1818	0.	-272.51
2207	5.3265	4.	0.	-290.25
2208	5.3265	3.8182	0.	-305.32
2209	5.3265	3.6364	0.	-317.57
2210	5.3265	3.4545	0.	-326.87
2211	5.3265	3.2727	0.	-333.13
2212	5.3265	3.0909	0.	-336.28
2213	5.3265	2.9091	0.	-336.28
2214	5.3265	2.7273	0.	-333.13
2215	5.3265	2.5455	0.	-326.87
2216	5.3265	2.3636	0.	-317.57
2217	5.3265	2.1818	0.	-305.32
2218	5.3265	2.	0.	-290.25
2219	5.3265	1.8182	0.	-272.51
2220	5.3265	1.6364	0.	-252.3
2221	5.3265	1.4545	0.	-229.8
2222	5.3265	1.2727	0.	-205.24
2223	5.3265	1.0909	0.	-178.85
2224	5.3265	0.90909	0.	-150.88
2225	5.3265	0.72727	0.	-121.56
2226	5.3265	0.54545	0.	-91.165
2227	5.3265	0.36364	0.	-59.849
2228	5.3265	0.18182	0.	-27.78
2229	5.1429	5.8182	0.	-30.081
2230	5.1429	5.6364	0.	-64.813
2231	5.1429	5.4545	0.	-98.761
2232	5.1429	5.2727	0.	-131.74
2233	5.1429	5.0909	0.	-163.58
2234	5.1429	4.9091	0.	-193.99
2235	5.1429	4.7273	0.	-222.7
2236	5.1429	4.5455	0.	-249.43
2237	5.1429	4.3636	0.	-273.94
2238	5.1429	4.1818	0.	-295.97
2239	5.1429	4.	0.	-315.31
2240	5.1429	3.8182	0.	-331.75
2241	5.1429	3.6364	0.	-345.12
2242	5.1429	3.4545	0.	-355.28
2243	5.1429	3.2727	0.	-362.11
2244	5.1429	3.0909	0.	-365.55
2245	5.1429	2.9091	0.	-365.55
2246	5.1429	2.7273	0.	-362.11
2247	5.1429	2.5455	0.	-355.28
2248	5.1429	2.3636	0.	-345.12
2249	5.1429	2.1818	0.	-331.75
2250	5.1429	2.	0.	-315.31
2251	5.1429	1.8182	0.	-295.97
2252	5.1429	1.6364	0.	-273.94
2253	5.1429	1.4545	0.	-249.43
2254	5.1429	1.2727	0.	-222.7
2255	5.1429	1.0909	0.	-193.99
2256	5.1429	0.90909	0.	-163.58
2257	5.1429	0.72727	0.	-131.74
2258	5.1429	0.54545	0.	-98.761
2259	5.1429	0.36364	0.	-64.813
2260	5.1429	0.18182	0.	-30.081
2261	4.9592	5.8182	0.	-32.412
2262	4.9592	5.6364	0.	-70.036
2263	4.9592	5.4545	0.	-106.83
2264	4.9592	5.2727	0.	-142.62
2265	4.9592	5.0909	0.	-177.2
2266	4.9592	4.9091	0.	-210.25
2267	4.9592	4.7273	0.	-241.49
2268	4.9592	4.5455	0.	-270.59
2269	4.9592	4.3636	0.	-297.29
2270	4.9592	4.1818	0.	-321.31
2271	4.9592	4.	0.	-342.4
2272	4.9592	3.8182	0.	-360.34
2273	4.9592	3.6364	0.	-374.93
2274	4.9592	3.4545	0.	-386.01
2275	4.9592	3.2727	0.	-393.47
2276	4.9592	3.0909	0.	-397.22
2277	4.9592	2.9091	0.	-397.22
2278	4.9592	2.7273	0.	-393.47
2279	4.9592	2.5455	0.	-386.01
2280	4.9592	2.3636	0.	-374.93
2281	4.9592	2.1818	0.	-360.34
2282	4.9592	2.	0.	-342.4
2283	4.9592	1.8182	0.	-321.31
2284	4.9592	1.6364	0.	-297.29
2285	4.9592	1.4545	0.	-270.59
2286	4.9592	1.2727	0.	-241.49
2287	4.9592	1.0909	0.	-210.25
2288	4.9592	0.90909	0.	-177.2
2289	4.9592	0.72727	0.	-142.62
2290	4.9592	0.54545	0.	-106.83
2291	4.9592	0.36364	0.	-70.036
2292	4.9592	0.18182	0.	-32.412
2293	4.7755	5.8182	0.	-34.756
2294	4.7755	5.6364	0.	-75.519
2295	4.7755	5.4545	0.	-115.4
2296	4.7755	5.2727	0.	-154.23
2297	4.7755	5.0909	0.	-191.79
2298	4.7755	4.9091	0.	-227.72
2299	4.7755	4.7273	0.	-261.7
2300	4.7755	4.5455	0.	-293.4
2301	4.7755	4.3636	0.	-322.49
2302	4.7755	4.1818	0.	-348.68
2303	4.7755	4.	0.	-371.68
2304	4.7755	3.8182	0.	-391.25
2305	4.7755	3.6364	0.	-407.17
2306	4.7755	3.4545	0.	-419.27
2307	4.7755	3.2727	0.	-427.41
2308	4.7755	3.0909	0.	-431.51
2309	4.7755	2.9091	0.	-431.51
2310	4.7755	2.7273	0.	-427.41
2311	4.7755	2.5455	0.	-419.27
2312	4.7755	2.3636	0.	-407.17
2313	4.7755	2.1818	0.	-391.25
2314	4.7755	2.	0.	-371.68
2315	4.7755	1.8182	0.	-348.68
2316	4.7755	1.6364	0.	-322.49
2317	4.7755	1.4545	0.	-293.4
2318	4.7755	1.2727	0.	-261.7
2319	4.7755	1.0909	0.	-227.72
2320	4.7755	0.90909	0.	-191.79
2321	4.7755	0.72727	0.	-154.23
2322	4.7755	0.54545	0.	-115.4
2323	4.7755	0.36364	0.	-75.519
2324	4.7755	0.18182	0.	-34.756
2325	4.5918	5.8182	0.	-37.088
2326	4.5918	5.6364	0.	-81.261
2327	4.5918	5.4545	0.	-124.49
2328	4.5918	5.2727	0.	-166.62
2329	4.5918	5.0909	0.	-207.41
2330	4.5918	4.9091	0.	-246.48
2331	4.5918	4.7273	0.	-283.46
2332	4.5918	4.5455	0.	-317.97
2333	4.5918	4.3636	0.	-349.67
2334	4.5918	4.1818	0.	-378.22
2335	4.5918	4.	0.	-403.31
2336	4.5918	3.8182	0.	-424.66
2337	4.5918	3.6364	0.	-442.04
2338	4.5918	3.4545	0.	-455.24
2339	4.5918	3.2727	0.	-464.13
2340	4.5918	3.0909	0.	-468.6
2341	4.5918	2.9091	0.	-468.6
2342	4.5918	2.7273	0.	-464.13
2343	4.5918	2.5455	0.	-455.24
2344	4.5918	2.3636	0.	-442.04
2345	4.5918	2.1818	0.	-424.66
2346	4.5918	2.	0.	-403.31
2347	4.5918	1.8182	0.	-378.22
2348	4.5918	1.6364	0.	-349.67
2349	4.5918	1.4545	0.	-317.97
2350	4.5918	1.2727	0.	-283.46
2351	4.5918	1.0909	0.	-246.48
2352	4.5918	0.90909	0.	-207.41
2353	4.5918	0.72727	0.	-166.62
2354	4.5918	0.54545	0.	-124.49
2355	4.5918	0.36364	0.	-81.261
2356	4.5918	0.18182	0.	-37.088
2357	4.4082	5.8182	0.	-39.38
2358	4.4082	5.6364	0.	-87.258
2359	4.4082	5.4545	0.	-134.11
2360	4.4082	5.2727	0.	-179.82
2361	4.4082	5.0909	0.	-224.13
2362	4.4082	4.9091	0.	-266.61
2363	4.4082	4.7273	0.	-306.86
2364	4.4082	4.5455	0.	-344.45
2365	4.4082	4.3636	0.	-379.
2366	4.4082	4.1818	0.	-410.12
2367	4.4082	4.	0.	-437.48
2368	4.4082	3.8182	0.	-460.77
2369	4.4082	3.6364	0.	-479.73
2370	4.4082	3.4545	0.	-494.15
2371	4.4082	3.2727	0.	-503.85
2372	4.4082	3.0909	0.	-508.72
2373	4.4082	2.9091	0.	-508.72
2374	4.4082	2.7273	0.	-503.85
2375	4.4082	2.5455	0.	-494.15
2376	4.4082	2.3636	0.	-479.73
2377	4.4082	2.1818	0.	-460.77
2378	4.4082	2.	0.	-437.48
2379	4.4082	1.8182	0.	-410.12
2380	4.4082	1.6364	0.	-379.
2381	4.4082	1.4545	0.	-344.45
2382	4.4082	1.2727	0.	-306.86
2383	4.4082	1.0909	0.	-266.61
2384	4.4082	0.90909	0.	-224.13
2385	4.4082	0.72727	0.	-179.82
2386	4.4082	0.54545	0.	-134.11
2387	4.4082	0.36364	0.	-87.258
2388	4.4082	0.18182	0.	-39.38
2389	4.2245	5.8182	0.	-41.6
2390	4.2245	5.6364	0.	-93.504
2391	4.2245	5.4545	0.	-144.28
2392	4.2245	5.2727	0.	-193.88
2393	4.2245	5.0909	0.	-242.02
2394	4.2245	4.9091	0.	-288.23
2395	4.2245	4.7273	0.	-332.03
2396	4.2245	4.5455	0.	-372.98
2397	4.2245	4.3636	0.	-410.63
2398	4.2245	4.1818	0.	-444.56
2399	4.2245	4.	0.	-474.4
2400	4.2245	3.8182	0.	-499.8
2401	4.2245	3.6364	0.	-520.48
2402	4.2245	3.4545	0.	-536.19
2403	4.2245	3.2727	0.	-546.77
2404	4.2245	3.0909	0.	-552.1
2405	4.2245	2.9091	0.	-552.1
2406	4.2245	2.7273	0.	-546.77
2407	4.2245	2.5455	0.	-536.19
2408	4.2245	2.3636	0.	-520.48
2409	4.2245	2.1818	0.	-499.8
2410	4.2245	2.	0.	-474.4
2411	4.2245	1.8182	0.	-444.56
2412	4.2245	1.6364	0.	-410.63
2413	4.2245	1.4545	0.	-372.98
2414	4.2245	1.2727	0.	-332.03
2415	4.2245	1.0909	0.	-288.23
2416	4.2245	0.90909	0.	-242.02
2417	4.2245	0.72727	0.	-193.88
2418	4.2245	0.54545	0.	-144.28
2419	4.2245	0.36364	0.	-93.504
2420	4.2245	0.18182	0.	-41.6
2421	4.0408	5.8182	0.	-43.707
2422	4.0408	5.6364	0.	-99.99
2423	4.0408	5.4545	0.	-155.02
2424	4.0408	5.2727	0.	-208.86
2425	4.0408	5.0909	0.	-261.17
2426	4.0408	4.9091	0.	-311.43
2427	4.0408	4.7273	0.	-359.12
2428	4.0408	4.5455	0.	-403.72
2429	4.0408	4.3636	0.	-444.75
2430	4.0408	4.1818	0.	-481.73
2431	4.0408	4.	0.	-514.26
2432	4.0408	3.8182	0.	-541.95
2433	4.0408	3.6364	0.	-564.49
2434	4.0408	3.4545	0.	-581.62
2435	4.0408	3.2727	0.	-593.15
2436	4.0408	3.0909	0.	-598.95
2437	4.0408	2.9091	0.	-598.95
2438	4.0408	2.7273	0.	-593.15
2439	4.0408	2.5455	0.	-581.62
2440	4.0408	2.3636	0.	-564.49
2441	4.0408	2.1818	0.	-541.95
2442	4.0408	2.	0.	-514.26
2443	4.0408	1.8182	0.	-481.73
2444	4.0408	1.6364	0.	-444.75
2445	4.0408	1.4545	0.	-403.72
2446	4.0408	1.2727	0.	-359.12
2447	4.0408	1.0909	0.	-311.43
2448	4.0408	0.90909	0.	-261.17
2449	4.0408	0.72727	0.	-208.86
2450	4.0408	0.54545	0.	-155.02
2451	4.0408	0.36364	0.	-99.99
2452	4.0408	0.18182	0.	-43.707
2453	3.8571	5.8182	0.	-45.655
2454	3.8571	5.6364	0.	-106.7
2455	3.8571	5.4545	0.	-166.36
2456	3.8571	5.2727	0.	-224.8
2457	3.8571	5.0909	0.	-281.66
2458	3.8571	4.9091	0.	-336.34
2459	3.8571	4.7273	0.	-388.27
2460	3.8571	4.5455	0.	-436.86
2461	3.8571	4.3636	0.	-481.56
2462	3.8571	4.1818	0.	-521.86
2463	3.8571	4.	0.	-557.3
2464	3.8571	3.8182	0.	-587.46
2465	3.8571	3.6364	0.	-612.01
2466	3.8571	3.4545	0.	-630.67
2467	3.8571	3.2727	0.	-643.22
2468	3.8571	3.0909	0.	-649.53
2469	3.8571	2.9091	0.	-649.53
2470	3.8571	2.7273	0.	-643.22
2471	3.8571	2.5455	0.	-630.67
2472	3.8571	2.3636	0.	-612.01
2473	3.8571	2.1818	0.	-587.46
2474	3.8571	2.	0.	-557.3
2475	3.8571	1.8182	0.	-521.86
2476	3.8571	1.6364	0.	-481.56
2477	3.8571	1.4545	0.	-436.86
2478	3.8571	1.2727	0.	-388.27
2479	3.8571	1.0909	0.	-336.34
2480	3.8571	0.90909	0.	-281.66
2481	3.8571	0.72727	0.	-224.8
2482	3.8571	0.54545	0.	-166.36
2483	3.8571	0.36364	0.	-106.7
2484	3.8571	0.18182	0.	-45.655
2485	3.6735	5.8182	0.	-47.39
2486	3.6735	5.6364	0.	-113.63
2487	3.6735	5.4545	0.	-178.32
2488	3.6735	5.2727	0.	-241.77
2489	3.6735	5.0909	0.	-303.6
2490	3.6735	4.9091	0.	-363.11
2491	3.6735	4.7273	0.	-419.66
2492	3.6735	4.5455	0.	-472.59
2493	3.6735	4.3636	0.	-521.28
2494	3.6735	4.1818	0.	-565.18
2495	3.6735	4.	0.	-603.76
2496	3.6735	3.8182	0.	-636.59
2497	3.6735	3.6364	0.	-663.29
2498	3.6735	3.4545	0.	-683.58
2499	3.6735	3.2727	0.	-697.22
2500	3.6735	3.0909	0.	-704.08
2501	3.6735	2.9091	0.	-704.08
2502	3.6735	2.7273	0.	-697.22
2503	3.6735	2.5455	0.	-683.58
2504	3.6735	2.3636	0.	-663.29
2505	3.6735	2.1818	0.	-636.59
2506	3.6735	2.	0.	-603.76
2507	3.6735	1.8182	0.	-565.18
2508	3.6735	1.6364	0.	-521.28
2509	3.6735	1.4545	0.	-472.59
2510	3.6735	1.2727	0.	-419.66
2511	3.6735	1.0909	0.	-363.11
2512	3.6735	0.90909	0.	-303.6
2513	3.6735	0.72727	0.	-241.77
2514	3.6735	0.54545	0.	-178.32
2515	3.6735	0.36364	0.	-113.63
2516	3.6735	0.18182	0.	-47.39
2517	3.4898	5.8182	0.	-48.852
2518	3.4898	5.6364	0.	-120.76
2519	3.4898	5.4545	0.	-190.93
2520	3.4898	5.2727	0.	-259.86
2521	3.4898	5.0909	0.	-327.11
2522	3.4898	4.9091	0.	-391.9
2523	3.4898	4.7273	0.	-453.49
2524	3.4898	4.5455	0.	-511.14
2525	3.4898	4.3636	0.	-564.17
2526	3.4898	4.1818	0.	-611.94
2527	3.4898	4.	0.	-653.9
2528	3.4898	3.8182	0.	-689.58
2529	3.4898	3.6364	0.	-718.58
2530	3.4898	3.4545	0.	-740.6
2531	3.4898	3.2727	0.	-755.4
2532	3.4898	3.0909	0.	-762.84
2533	3.4898	2.9091	0.	-762.84
2534	3.4898	2.7273	0.	-755.4
2535	3.4898	2.5455	0.	-740.6
2536	3.4898	2.3636	0.	-718.58
2537	3.4898	2.1818	0.	-689.58
2538	3.4898	2.	0.	-653.9
2539	3.4898	1.8182	0.	-611.94
2540	3.4898	1.6364	0.	-564.17
2541	3.4898	1.4545	0.	-511.14
2542	3.4898	1.2727	0.	-453.49
2543	3.4898	1.0909	0.	-391.9
2544	3.4898	0.90909	0.	-327.11
2545	3.4898	0.72727	0.	-259.86
2546	3.4898	0.54545	0.	-190.93
2547	3.4898	0.36364	0.	-120.76
2548	3.4898	0.18182	0.	-48.852
2549	3.3061	5.8182	0.	-49.97
2550	3.3061	5.6364	0.	-128.07
2551	3.3061	5.4545	0.	-204.22
2552	3.3061	5.2727	0.	-279.16
2553	3.3061	5.0909	0.	-352.35
2554	3.3061	4.9091	0.	-422.92
2555	3.3061	4.7273	0.	-490.01
2556	3.3061	4.5455	0.	-552.79
2557	3.3061	4.3636	0.	-610.5
2558	3.3061	4.1818	0.	-662.44
2559	3.3061	4.	0.	-708.01
2560	3.3061	3.8182	0.	-746.72
2561	3.3061	3.6364	0.	-778.14
2562	3.3061	3.4545	0.	-801.98
2563	3.3061	3.2727	0.	-817.99
2564	3.3061	3.0909	0.	-826.04
2565	3.3061	2.9091	0.	-826.04
2566	3.3061	2.7273	0.	-817.99
2567	3.3061	2.5455	0.	-801.98
2568	3.3061	2.3636	0.	-778.14
2569	3.3061	2.1818	0.	-746.72
2570	3.3061	2.	0.	-708.01
2571	3.3061	1.8182	0.	-662.44
2572	3.3061	1.6364	0.	-610.5
2573	3.3061	1.4545	0.	-552.79
2574	3.3061	1.2727	0.	-490.01
2575	3.3061	1.0909	0.	-422.92
2576	3.3061	0.90909	0.	-352.35
2577	3.3061	0.72727	0.	-279.16
2578	3.3061	0.54545	0.	-204.22
2579	3.3061	0.36364	0.	-128.07
2580	3.3061	0.18182	0.	-49.97
2581	3.1224	5.8182	0.	-50.667
2582	3.1224	5.6364	0.	-135.54
2583	3.1224	5.4545	0.	-218.26
2584	3.1224	5.2727	0.	-299.78
2585	3.1224	5.0909	0.	-379.5
2586	3.1224	4.9091	0.	-456.4
2587	3.1224	4.7273	0.	-529.49
2588	3.1224	4.5455	0.	-597.84
2589	3.1224	4.3636	0.	-660.59
2590	3.1224	4.1818	0.	-716.99
2591	3.1224	4.	0.	-766.39
2592	3.1224	3.8182	0.	-808.27
2593	3.1224	3.6364	0.	-842.23
2594	3.1224	3.4545	0.	-867.95
2595	3.1224	3.2727	0.	-885.21
2596	3.1224	3.0909	0.	-893.88
2597	3.1224	2.9091	0.	-893.88
2598	3.1224	2.7273	0.	-885.21
2599	3.1224	2.5455	0.	-867.95
2600	3.1224	2.3636	0.	-842.23
2601	3.1224	2.1818	0.	-808.27
2602	3.1224	2.	0.	-766.39
2603	3.1224	1.8182	0.	-716.99
2604	3.1224	1.6364	0.	-660.59
2605	3.1224	1.4545	0.	-597.84
2606	3.1224	1.2727	0.	-529.49
2607	3.1224	1.0909	0.	-456.4
2608	3.1224	0.90909	0.	-379.5
2609	3.1224	0.72727	0.	-299.78
2610	3.1224	0.54545	0.	-218.26
2611	3.1224	0.36364	0.	-135.54
2612	3.1224	0.18182	0.	-50.667
2613	2.9388	5.8182	0.	-50.854
2614	2.9388	5.6364	0.	-143.18
2615	2.9388	5.4545	0.	-233.11
2616	2.9388	5.2727	0.	-321.9
2617	2.9388	5.0909	0.	-408.81
2618	2.9388	4.9091	0.	-492.66
2619	2.9388	4.7273	0.	-572.3
2620	2.9388	4.5455	0.	-646.67
2621	2.9388	4.3636	0.	-714.82
2622	2.9388	4.1818	0.	-775.94
2623	2.9388	4.	0.	-829.35
2624	2.9388	3.8182	0.	-874.54
2625	2.9388	3.6364	0.	-911.09
2626	2.9388	3.4545	0.	-938.73
2627	2.9388	3.2727	0.	-957.26
2628	2.9388	3.0909	0.	-966.55
2629	2.9388	2.9091	0.	-966.55
2630	2.9388	2.7273	0.	-957.26
2631	2.9388	2.5455	0.	-938.73
2632	2.9388	2.3636	0.	-911.09
2633	2.9388	2.1818	0.	-874.54
2634	2.9388	2.	0.	-829.35
2635	2.9388	1.8182	0.	-775.94
2636	2.9388	1.6364	0.	-714.82
2637	2.9388	1.4545	0.	-646.67
2638	2.9388	1.2727	0.	-572.3
2639	2.9388	1.0909	0.	-492.66
2640	2.9388	0.90909	0.	-408.81
2641	2.9388	0.72727	0.	-321.9
2642	2.9388	0.54545	0.	-233.11
2643	2.9388	0.36364	0.	-143.18
2644	2.9388	0.18182	0.	-50.855
2645	2.7551	5.8182	0.	-50.44
2646	2.7551	5.6364	0.	-150.98
2647	2.7551	5.4545	0.	-248.89
2648	2.7551	5.2727	0.	-345.73
2649	2.7551	5.0909	0.	-440.59
2650	2.7551	4.9091	0.	-532.07
2651	2.7551	4.7273	0.	-618.85
2652	2.7551	4.5455	0.	-699.72
2653	2.7551	4.3636	0.	-773.62
2654	2.7551	4.1818	0.	-839.7
2655	2.7551	4.	0.	-897.26
2656	2.7551	3.8182	0.	-945.8
2657	2.7551	3.6364	0.	-984.96
2658	2.7551	3.4545	0.	-1014.5
2659	2.7551	3.2727	0.	-1034.3
2660	2.7551	3.0909	0.	-1044.2
2661	2.7551	2.9091	0.	-1044.2
2662	2.7551	2.7273	0.	-1034.3
2663	2.7551	2.5455	0.	-1014.5
2664	2.7551	2.3636	0.	-984.96
2665	2.7551	2.1818	0.	-945.8
2666	2.7551	2.	0.	-897.26
2667	2.7551	1.8182	0.	-839.7
2668	2.7551	1.6364	0.	-773.62
2669	2.7551	1.4545	0.	-699.72
2670	2.7551	1.2727	0.	-618.85
2671	2.7551	1.0909	0.	-532.07
2672	2.7551	0.90909	0.	-440.59
2673	2.7551	0.72727	0.	-345.73
2674	2.7551	0.54545	0.	-248.89
2675	2.7551	0.36364	0.	-150.98
2676	2.7551	0.18182	0.	-50.44
2677	2.5714	5.8182	0.	-49.324
2678	2.5714	5.6364	0.	-158.94
2679	2.5714	5.4545	0.	-265.75
2680	2.5714	5.2727	0.	-371.56
2681	2.5714	5.0909	0.	-475.25
2682	2.5714	4.9091	0.	-575.15
2683	2.5714	4.7273	0.	-669.71
2684	2.5714	4.5455	0.	-757.54
2685	2.5714	4.3636	0.	-837.51
2686	2.5714	4.1818	0.	-908.7
2687	2.5714	4.	0.	-970.46
2688	2.5714	3.8182	0.	-1022.3
2689	2.5714	3.6364	0.	-1064.
2690	2.5714	3.4545	0.	-1095.4
2691	2.5714	3.2727	0.	-1116.4
2692	2.5714	3.0909	0.	-1126.8
2693	2.5714	2.9091	0.	-1126.8
2694	2.5714	2.7273	0.	-1116.4
2695	2.5714	2.5455	0.	-1095.4
2696	2.5714	2.3636	0.	-1064.
2697	2.5714	2.1818	0.	-1022.3
2698	2.5714	2.	0.	-970.46
2699	2.5714	1.8182	0.	-908.7
2700	2.5714	1.6364	0.	-837.51
2701	2.5714	1.4545	0.	-757.54
2702	2.5714	1.2727	0.	-669.71
2703	2.5714	1.0909	0.	-575.15
2704	2.5714	0.90909	0.	-475.25
2705	2.5714	0.72727	0.	-371.56
2706	2.5714	0.54545	0.	-265.75
2707	2.5714	0.36364	0.	-158.94
2708	2.5714	0.18182	0.	-49.324
2709	2.3878	5.8182	0.	-47.409
2710	2.3878	5.6364	0.	-167.13
2711	2.3878	5.4545	0.	-283.92
2712	2.3878	5.2727	0.	-399.8
2713	2.3878	5.0909	0.	-513.35
2714	2.3878	4.9091	0.	-622.54
2715	2.3878	4.7273	0.	-725.55
2716	2.3878	4.5455	0.	-820.8
2717	2.3878	4.3636	0.	-907.07
2718	2.3878	4.1818	0.	-983.45
2719	2.3878	4.	0.	-1049.4
2720	2.3878	3.8182	0.	-1104.4
2721	2.3878	3.6364	0.	-1148.5
2722	2.3878	3.4545	0.	-1181.5
2723	2.3878	3.2727	0.	-1203.5
2724	2.3878	3.0909	0.	-1214.5
2725	2.3878	2.9091	0.	-1214.5
2726	2.3878	2.7273	0.	-1203.5
2727	2.3878	2.5455	0.	-1181.5
2728	2.3878	2.3636	0.	-1148.5
2729	2.3878	2.1818	0.	-1104.4
2730	2.3878	2.	0.	-1049.4
2731	2.3878	1.8182	0.	-983.45
2732	2.3878	1.6364	0.	-907.07
2733	2.3878	1.4545	0.	-820.8
2734	2.3878	1.2727	0.	-725.55
2735	2.3878	1.0909	0.	-622.54
2736	2.3878	0.90909	0.	-513.35
2737	2.3878	0.72727	0.	-399.8
2738	2.3878	0.54545	0.	-283.92
2739	2.3878	0.36364	0.	-167.13
2740	2.3878	0.18182	0.	-47.409
2741	2.2041	5.8182	0.	-44.608
2742	2.2041	5.6364	0.	-175.61
2743	2.2041	5.4545	0.	-303.73
2744	2.2041	5.2727	0.	-431.03
2745	2.2041	5.0909	0.	-555.64
2746	2.2041	4.9091	0.	-675.11
2747	2.2041	4.7273	0.	-787.25
2748	2.2041	4.5455	0.	-890.31
2749	2.2041	4.3636	0.	-983.
2750	2.2041	4.1818	0.	-1064.5
2751	2.2041	4.	0.	-1134.3
2752	2.2041	3.8182	0.	-1192.3
2753	2.2041	3.6364	0.	-1238.4
2754	2.2041	3.4545	0.	-1272.8
2755	2.2041	3.2727	0.	-1295.6
2756	2.2041	3.0909	0.	-1307.
2757	2.2041	2.9091	0.	-1307.
2758	2.2041	2.7273	0.	-1295.6
2759	2.2041	2.5455	0.	-1272.8
2760	2.2041	2.3636	0.	-1238.4
2761	2.2041	2.1818	0.	-1192.3
2762	2.2041	2.	0.	-1134.3
2763	2.2041	1.8182	0.	-1064.5
2764	2.2041	1.6364	0.	-983.
2765	2.2041	1.4545	0.	-890.31
2766	2.2041	1.2727	0.	-787.25
2767	2.2041	1.0909	0.	-675.11
2768	2.2041	0.90909	0.	-555.64
2769	2.2041	0.72727	0.	-431.03
2770	2.2041	0.54545	0.	-303.73
2771	2.2041	0.36364	0.	-175.61
2772	2.2041	0.18182	0.	-44.608
2773	2.0204	5.8182	0.	-40.873
2774	2.0204	5.6364	0.	-184.53
2775	2.0204	5.4545	0.	-325.67
2776	2.0204	5.2727	0.	-466.04
2777	2.0204	5.0909	0.	-603.17
2778	2.0204	4.9091	0.	-733.99
2779	2.0204	4.7273	0.	-855.94
2780	2.0204	4.5455	0.	-967.07
2781	2.0204	4.3636	0.	-1066.1
2782	2.0204	4.1818	0.	-1152.4
2783	2.0204	4.	0.	-1225.7
2784	2.0204	3.8182	0.	-1286.
2785	2.0204	3.6364	0.	-1333.8
2786	2.0204	3.4545	0.	-1369.2
2787	2.0204	3.2727	0.	-1392.6
2788	2.0204	3.0909	0.	-1404.2
2789	2.0204	2.9091	0.	-1404.2
2790	2.0204	2.7273	0.	-1392.6
2791	2.0204	2.5455	0.	-1369.2
2792	2.0204	2.3636	0.	-1333.8
2793	2.0204	2.1818	0.	-1286.
2794	2.0204	2.	0.	-1225.7
2795	2.0204	1.8182	0.	-1152.4
2796	2.0204	1.6364	0.	-1066.1
2797	2.0204	1.4545	0.	-967.07
2798	2.0204	1.2727	0.	-855.94
2799	2.0204	1.0909	0.	-733.99
2800	2.0204	0.90909	0.	-603.17
2801	2.0204	0.72727	0.	-466.04
2802	2.0204	0.54545	0.	-325.67
2803	2.0204	0.36364	0.	-184.53
2804	2.0204	0.18182	0.	-40.873
2805	1.8367	5.8182	0.	-36.247
2806	1.8367	5.6364	0.	-194.16
2807	1.8367	5.4545	0.	-350.49
2808	1.8367	5.2727	0.	-506.01
2809	1.8367	5.0909	0.	-657.36
2810	1.8367	4.9091	0.	-800.71
2811	1.8367	4.7273	0.	-933.03
2812	1.8367	4.5455	0.	-1052.3
2813	1.8367	4.3636	0.	-1157.3
2814	1.8367	4.1818	0.	-1247.7
2815	1.8367	4.	0.	-1323.7
2816	1.8367	3.8182	0.	-1385.8
2817	1.8367	3.6364	0.	-1434.4
2818	1.8367	3.4545	0.	-1470.3
2819	1.8367	3.2727	0.	-1493.8
2820	1.8367	3.0909	0.	-1505.5
2821	1.8367	2.9091	0.	-1505.5
2822	1.8367	2.7273	0.	-1493.8
2823	1.8367	2.5455	0.	-1470.3
2824	1.8367	2.3636	0.	-1434.4
2825	1.8367	2.1818	0.	-1385.8
2826	1.8367	2.	0.	-1323.7
2827	1.8367	1.8182	0.	-1247.7
2828	1.8367	1.6364	0.	-1157.3
2829	1.8367	1.4545	0.	-1052.3
2830	1.8367	1.2727	0.	-933.03
2831	1.8367	1.0909	0.	-800.71
2832	1.8367	0.90909	0.	-657.37
2833	1.8367	0.72727	0.	-506.01
2834	1.8367	0.54545	0.	-350.49
2835	1.8367	0.36364	0.	-194.16
2836	1.8367	0.18182	0.	-36.247
2837	1.6531	5.8182	0.	-30.952
2838	1.6531	5.6364	0.	-204.9
2839	1.6531	5.4545	0.	-379.29
2840	1.6531	5.2727	0.	-552.62
2841	1.6531	5.0909	0.	-720.22
2842	1.6531	4.9091	0.	-877.26
2843	1.6531	4.7273	0.	-1020.3
2844	1.6531	4.5455	0.	-1147.3
2845	1.6531	4.3636	0.	-1257.5
2846	1.6531	4.1818	0.	-1351.
2847	1.6531	4.	0.	-1428.7
2848	1.6531	3.8182	0.	-1491.3
2849	1.6531	3.6364	0.	-1540.
2850	1.6531	3.4545	0.	-1575.6
2851	1.6531	3.2727	0.	-1599.
2852	1.6531	3.0909	0.	-1610.5
2853	1.6531	2.9091	0.	-1610.5
2854	1.6531	2.7273	0.	-1599.
2855	1.6531	2.5455	0.	-1575.6
2856	1.6531	2.3636	0.	-1540.
2857	1.6531	2.1818	0.	-1491.3
2858	1.6531	2.	0.	-1428.7
2859	1.6531	1.8182	0.	-1351.
2860	1.6531	1.6364	0.	-1257.5
2861	1.6531	1.4545	0.	-1147.3
2862	1.6531	1.2727	0.	-1020.3
2863	1.6531	1.0909	0.	-877.26
2864	1.6531	0.90909	0.	-720.22
2865	1.6531	0.72727	0.	-552.62
2866	1.6531	0.54545	0.	-379.29
2867	1.6531	0.36364	0.	-204.9
2868	1.6531	0.18182	0.	-30.952
2869	1.4694	5.8182	0.	-25.54
2870	1.4694	5.6364	0.	-217.53
2871	1.4694	5.4545	0.	-413.87
2872	1.4694	5.2727	0.	-608.41
2873	1.4694	5.0909	0.	-794.57
2874	1.4694	4.9091	0.	-966.3
2875	1.4694	4.7273	0.	-1119.9
2876	1.4694	4.5455	0.	-1253.6
2877	1.4694	4.3636	0.	-1367.5
2878	1.4694	4.1818	0.	-1462.6
2879	1.4694	4.	0.	-1540.4
2880	1.4694	3.8182	0.	-1602.3
2881	1.4694	3.6364	0.	-1650.
2882	1.4694	3.4545	0.	-1684.6
2883	1.4694	3.2727	0.	-1707.2
2884	1.4694	3.0909	0.	-1718.3
2885	1.4694	2.9091	0.	-1718.3
2886	1.4694	2.7273	0.	-1707.2
2887	1.4694	2.5455	0.	-1684.6
2888	1.4694	2.3636	0.	-1650.
2889	1.4694	2.1818	0.	-1602.3
2890	1.4694	2.	0.	-1540.4
2891	1.4694	1.8182	0.	-1462.6
2892	1.4694	1.6364	0.	-1367.5
2893	1.4694	1.4545	0.	-1253.6
2894	1.4694	1.2727	0.	-1119.9
2895	1.4694	1.0909	0.	-966.3
2896	1.4694	0.90909	0.	-794.57
2897	1.4694	0.72727	0.	-608.41
2898	1.4694	0.54545	0.	-413.87
2899	1.4694	0.36364	0.	-217.53
2900	1.4694	0.18182	0.	-25.54
2901	1.2857	5.8182	0.	-20.716
2902	1.2857	5.6364	0.	-233.2
2903	1.2857	5.4545	0.	-456.91
2904	1.2857	5.2727	0.	-677.01
2905	1.2857	5.0909	0.	-884.14
2906	1.2857	4.9091	0.	-1071.
2907	1.2857	4.7273	0.	-1233.9
2908	1.2857	4.5455	0.	-1372.5
2909	1.2857	4.3636	0.	-1487.8
2910	1.2857	4.1818	0.	-1582.3
2911	1.2857	4.	0.	-1658.2
2912	1.2857	3.8182	0.	-1717.9
2913	1.2857	3.6364	0.	-1763.4
2914	1.2857	3.4545	0.	-1796.2
2915	1.2857	3.2727	0.	-1817.4
2916	1.2857	3.0909	0.	-1827.8
2917	1.2857	2.9091	0.	-1827.8
2918	1.2857	2.7273	0.	-1817.4
2919	1.2857	2.5455	0.	-1796.2
2920	1.2857	2.3636	0.	-1763.4
2921	1.2857	2.1818	0.	-1717.9
2922	1.2857	2.	0.	-1658.2
2923	1.2857	1.8182	0.	-1582.3
2924	1.2857	1.6364	0.	-1487.8
2925	1.2857	1.4545	0.	-1372.5
2926	1.2857	1.2727	0.	-1233.9
2927	1.2857	1.0909	0.	-1071.
2928	1.2857	0.90909	0.	-884.14
2929	1.2857	0.72727	0.	-677.01
2930	1.2857	0.54545	0.	-456.91
2931	1.2857	0.36364	0.	-233.2
2932	1.2857	0.18182	0.	-20.716
2933	1.102	5.8182	0.	-17.521
2934	1.102	5.6364	0.	-254.59
2935	1.102	5.4545	0.	-513.58
2936	1.102	5.2727	0.	-764.76
2937	1.102	5.0909	0.	-994.91
2938	1.102	4.9091	0.	-1195.9
2939	1.102	4.7273	0.	-1365.6
2940	1.102	4.5455	0.	-1505.5
2941	1.102	4.3636	0.	-1619.
2942	1.102	4.1818	0.	-1710.
2943	1.102	4.	0.	-1781.9
2944	1.102	3.8182	0.	-1837.7
2945	1.102	3.6364	0.	-1879.8
2946	1.102	3.4545	0.	-1909.9
2947	1.102	3.2727	0.	-1929.3
2948	1.102	3.0909	0.	-1938.8
2949	1.102	2.9091	0.	-1938.8
2950	1.102	2.7273	0.	-1929.3
2951	1.102	2.5455	0.	-1909.9
2952	1.102	2.3636	0.	-1879.8
2953	1.102	2.1818	0.	-1837.7
2954	1.102	2.	0.	-1781.9
2955	1.102	1.8182	0.	-1710.
2956	1.102	1.6364	0.	-1619.
2957	1.102	1.4545	0.	-1505.5
2958	1.102	1.2727	0.	-1365.6
2959	1.102	1.0909	0.	-1195.9
2960	1.102	0.90909	0.	-994.91
2961	1.102	0.72727	0.	-764.76
2962	1.102	0.54545	0.	-513.58
2963	1.102	0.36364	0.	-254.59
2964	1.102	0.18182	0.	-17.521
2965	0.91837	5.8182	0.	-14.363
2966	0.91837	5.6364	0.	-284.57
2967	0.91837	5.4545	0.	-589.85
2968	0.91837	5.2727	0.	-877.98
2969	0.91837	5.0909	0.	-1131.1
2970	0.91837	4.9091	0.	-1342.3
2971	0.91837	4.7273	0.	-1513.3
2972	0.91837	4.5455	0.	-1649.5
2973	0.91837	4.3636	0.	-1756.9
2974	0.91837	4.1818	0.	-1841.2
2975	0.91837	4.	0.	-1906.7
2976	0.91837	3.8182	0.	-1957.
2977	0.91837	3.6364	0.	-1994.6
2978	0.91837	3.4545	0.	-2021.3
2979	0.91837	3.2727	0.	-2038.5
2980	0.91837	3.0909	0.	-2046.9
2981	0.91837	2.9091	0.	-2046.9
2982	0.91837	2.7273	0.	-2038.5
2983	0.91837	2.5455	0.	-2021.3
2984	0.91837	2.3636	0.	-1994.6
2985	0.91837	2.1818	0.	-1957.
2986	0.91837	2.	0.	-1906.7
2987	0.91837	1.8182	0.	-1841.2
2988	0.91837	1.6364	0.	-1756.9
2989	0.91837	1.4545	0.	-1649.5
2990	0.91837	1.2727	0.	-1513.3
2991	0.91837	1.0909	0.	-1342.3
2992	0.91837	0.90909	0.	-1131.1
2993	0.91837	0.72727	0.	-877.98
2994	0.91837	0.54545	0.	-589.85
2995	0.91837	0.36364	0.	-284.57
2996	0.91837	0.18182	0.	-14.363
2997	0.73469	5.8182	0.	-18.457
2998	0.73469	5.6364	0.	-338.38
2999	0.73469	5.4545	0.	-708.36
3000	0.73469	5.2727	0.	-1038.8
3001	0.73469	5.0909	0.	-1310.3
3002	0.73469	4.9091	0.	-1523.4
3003	0.73469	4.7273	0.	-1687.6
3004	0.73469	4.5455	0.	-1813.5
3005	0.73469	4.3636	0.	-1910.4
3006	0.73469	4.1818	0.	-1985.
3007	0.73469	4.	0.	-2042.3
3008	0.73469	3.8182	0.	-2085.9
3009	0.73469	3.6364	0.	-2118.4
3010	0.73469	3.4545	0.	-2141.4
3011	0.73469	3.2727	0.	-2156.1
3012	0.73469	3.0909	0.	-2163.3
3013	0.73469	2.9091	0.	-2163.3
3014	0.73469	2.7273	0.	-2156.1
3015	0.73469	2.5455	0.	-2141.4
3016	0.73469	2.3636	0.	-2118.4
3017	0.73469	2.1818	0.	-2085.9
3018	0.73469	2.	0.	-2042.3
3019	0.73469	1.8182	0.	-1985.
3020	0.73469	1.6364	0.	-1910.4
3021	0.73469	1.4545	0.	-1813.5
3022	0.73469	1.2727	0.	-1687.6
3023	0.73469	1.0909	0.	-1523.4
3024	0.73469	0.90909	0.	-1310.3
3025	0.73469	0.72727	0.	-1038.8
3026	0.73469	0.54545	0.	-708.36
3027	0.73469	0.36364	0.	-338.38
3028	0.73469	0.18182	0.	-18.457
3029	0.55102	5.8182	0.	-0.81273
3030	0.55102	5.6364	0.	-413.11
3031	0.55102	5.4545	0.	-861.75
3032	0.55102	5.2727	0.	-1224.9
3033	0.55102	5.0909	0.	-1495.8
3034	0.55102	4.9091	0.	-1693.5
3035	0.55102	4.7273	0.	-1838.5
3036	0.55102	4.5455	0.	-1946.5
3037	0.55102	4.3636	0.	-2028.1
3038	0.55102	4.1818	0.	-2090.4
3039	0.55102	4.	0.	-2138.
3040	0.55102	3.8182	0.	-2174.1
3041	0.55102	3.6364	0.	-2201.
3042	0.55102	3.4545	0.	-2220.
3043	0.55102	3.2727	0.	-2232.2
3044	0.55102	3.0909	0.	-2238.2
3045	0.55102	2.9091	0.	-2238.2
3046	0.55102	2.7273	0.	-2232.2
3047	0.55102	2.5455	0.	-2220.
3048	0.55102	2.3636	0.	-2201.
3049	0.55102	2.1818	0.	-2174.1
3050	0.55102	2.	0.	-2138.
3051	0.55102	1.8182	0.	-2090.4
3052	0.55102	1.6364	0.	-2028.1
3053	0.55102	1.4545	0.	-1946.5
3054	0.55102	1.2727	0.	-1838.5
3055	0.55102	1.0909	0.	-1693.5
3056	0.55102	0.90909	0.	-1495.8
3057	0.55102	0.72727	0.	-1224.9
3058	0.55102	0.54545	0.	-861.75
3059	0.55102	0.36364	0.	-413.11
3060	0.55102	0.18182	0.	-0.81275
3061	0.36735	5.8182	0.	-81.835
3062	0.36735	5.6364	0.	-661.1
3063	0.36735	5.4545	0.	-1220.1
3064	0.36735	5.2727	0.	-1593.
3065	0.36735	5.0909	0.	-1840.7
3066	0.36735	4.9091	0.	-2010.4
3067	0.36735	4.7273	0.	-2131.7
3068	0.36735	4.5455	0.	-2221.2
3069	0.36735	4.3636	0.	-2288.7
3070	0.36735	4.1818	0.	-2340.4
3071	0.36735	4.	0.	-2380.1
3072	0.36735	3.8182	0.	-2410.3
3073	0.36735	3.6364	0.	-2432.8
3074	0.36735	3.4545	0.	-2448.8
3075	0.36735	3.2727	0.	-2459.1
3076	0.36735	3.0909	0.	-2464.1
3077	0.36735	2.9091	0.	-2464.1
3078	0.36735	2.7273	0.	-2459.1
3079	0.36735	2.5455	0.	-2448.8
3080	0.36735	2.3636	0.	-2432.8
3081	0.36735	2.1818	0.	-2410.3
3082	0.36735	2.	0.	-2380.1
3083	0.36735	1.8182	0.	-2340.4
3084	0.36735	1.6364	0.	-2288.7
3085	0.36735	1.4545	0.	-2221.2
3086	0.36735	1.2727	0.	-2131.7
3087	0.36735	1.0909	0.	-2010.4
3088	0.36735	0.90909	0.	-1840.7
3089	0.36735	0.72727	0.	-1593.
3090	0.36735	0.54545	0.	-1220.1
3091	0.36735	0.36364	0.	-661.1
3092	0.36735	0.18182	0.	-81.835
3093	0.18367	5.8182	0.	-0.48346
3094	0.18367	5.6364	0.	-822.15
3095	0.18367	5.4545	0.	-1257.9
3096	0.18367	5.2727	0.	-1507.4
3097	0.18367	5.0909	0.	-1664.6
3098	0.18367	4.9091	0.	-1773.
3099	0.18367	4.7273	0.	-1851.7
3100	0.18367	4.5455	0.	-1910.7
3101	0.18367	4.3636	0.	-1955.9
3102	0.18367	4.1818	0.	-1990.8
3103	0.18367	4.	0.	-2017.8
3104	0.18367	3.8182	0.	-2038.5
3105	0.18367	3.6364	0.	-2054.
3106	0.18367	3.4545	0.	-2065.
3107	0.18367	3.2727	0.	-2072.1
3108	0.18367	3.0909	0.	-2075.6
3109	0.18367	2.9091	0.	-2075.6
3110	0.18367	2.7273	0.	-2072.1
3111	0.18367	2.5455	0.	-2065.
3112	0.18367	2.3636	0.	-2054.
3113	0.18367	2.1818	0.	-2038.5
3114	0.18367	2.	0.	-2017.8
3115	0.18367	1.8182	0.	-1990.8
3116	0.18367	1.6364	0.	-1955.9
3117	0.18367	1.4545	0.	-1910.8
3118	0.18367	1.2727	0.	-1851.7
3119	0.18367	1.0909	0.	-1773.
3120	0.18367	0.90909	0.	-1664.6
3121	0.18367	0.72727	0.	-1507.4
3122	0.18367	0.54545	0.	-1257.9
3123	0.18367	0.36364	0.	-822.15
3124	0.18367	0.18182	0.	-0.48363
3125	18.349	0.18182	0.	-7.1799
3126	18.349	0.36364	0.	-3.7376
3127	18.349	0.54545	0.	-2.8484
3128	18.349	0.72727	0.	-2.5489
3129	18.349	0.90909	0.	-2.5945
3130	18.349	1.0909	0.	-3.2478
3131	18.349	1.2727	0.	-3.1061
3132	18.349	1.4545	0.	-8.3337
3133	18.349	1.6364	0.	0.78135
3134	18.349	1.8182	0.	-53.037
3135	18.349	2.	0.	-173.75
3136	18.349	2.1818	0.	-22.862
3137	18.349	2.3636	0.	-6.7169
3138	18.349	2.5455	0.	1.2514
3139	18.349	2.7273	0.	-0.98414
3140	18.349	2.9091	0.	-6.3066e-002
3141	18.349	3.0909	0.	-6.3066e-002
3142	18.349	3.2727	0.	-0.98414
3143	18.349	3.4545	0.	1.2514
3144	18.349	3.6364	0.	-6.7169
3145	18.349	3.8182	0.	-22.862
3146	18.349	4.	0.	-173.75
3147	18.349	4.1818	0.	-53.037
3148	18.349	4.3636	0.	0.78136
3149	18.349	4.5455	0.	-8.3337
3150	18.349	4.7273	0.	-3.1061
3151	18.349	4.9091	0.	-3.2478
3152	18.349	5.0909	0.	-2.5945
3153	18.349	5.2727	0.	-2.5489
3154	18.349	5.4545	0.	-2.8484
3155	18.349	5.6364	0.	-3.7376
3156	18.349	5.8182	0.	-7.1799
3157	18.531	0.18182	0.	-2.8902
3158	18.531	0.36364	0.	-2.6022
3159	18.531	0.54545	0.	-1.6753
3160	18.531	0.72727	0.	-1.1284
3161	18.531	0.90909	0.	-0.95263
3162	18.531	1.0909	0.	-0.89897
3163	18.531	1.2727	0.	-1.111
3164	18.531	1.4545	0.	-1.7572
3165	18.531	1.6364	0.	-1.4161
3166	18.531	1.8182	0.	-0.1501
3167	18.531	2.	0.	25.902
3168	18.531	2.1818	0.	5.6607
3169	18.531	2.3636	0.	-6.3748
3170	18.531	2.5455	0.	-0.57872
3171	18.531	2.7273	0.	-0.11854
3172	18.531	2.9091	0.	4.0669e-002
3173	18.531	3.0909	0.	4.0669e-002
3174	18.531	3.2727	0.	-0.11854
3175	18.531	3.4545	0.	-0.57872
3176	18.531	3.6364	0.	-6.3748
3177	18.531	3.8182	0.	5.6607
3178	18.531	4.	0.	25.902
3179	18.531	4.1818	0.	-0.15009
3180	18.531	4.3636	0.	-1.4161
3181	18.531	4.5455	0.	-1.7572
3182	18.531	4.7273	0.	-1.1109
3183	18.531	4.9091	0.	-0.89897
3184	18.531	5.0909	0.	-0.95263
3185	18.531	5.2727	0.	-1.1284
3186	18.531	5.4545	0.	-1.6753
3187	18.531	5.6364	0.	-2.6022
3188	18.531	5.8182	0.	-2.8902
3189	18.714	0.18182	0.	-1.5147
3190	18.714	0.36364	0.	-1.9719
3191	18.714	0.54545	0.	-1.8823
3192	18.714	0.72727	0.	-1.6517
3193	18.714	0.90909	0.	-1.5826
3194	18.714	1.0909	0.	-1.7361
3195	18.714	1.2727	0.	-2.0352
3196	18.714	1.4545	0.	-2.5125
3197	18.714	1.6364	0.	-5.3412
3198	18.714	1.8182	0.	-8.0862
3199	18.714	2.	0.	-37.032
3200	18.714	2.1818	0.	-52.773
3201	18.714	2.3636	0.	-30.055
3202	18.714	2.5455	0.	-5.1981
3203	18.714	2.7273	0.	-0.298
3204	18.714	2.9091	0.	0.34397
3205	18.714	3.0909	0.	0.34397
3206	18.714	3.2727	0.	-0.298
3207	18.714	3.4545	0.	-5.1981
3208	18.714	3.6364	0.	-30.055
3209	18.714	3.8182	0.	-52.773
3210	18.714	4.	0.	-37.032
3211	18.714	4.1818	0.	-8.0861
3212	18.714	4.3636	0.	-5.3412
3213	18.714	4.5455	0.	-2.5125
3214	18.714	4.7273	0.	-2.0352
3215	18.714	4.9091	0.	-1.7361
3216	18.714	5.0909	0.	-1.5826
3217	18.714	5.2727	0.	-1.6517
3218	18.714	5.4545	0.	-1.8823
3219	18.714	5.6364	0.	-1.9719
3220	18.714	5.8182	0.	-1.5147
3221	18.896	0.18182	0.	-0.66258
3222	18.896	0.36364	0.	-1.072
3223	18.896	0.54545	0.	-1.3992
3224	18.896	0.72727	0.	-1.5348
3225	18.896	0.90909	0.	-1.6689
3226	18.896	1.0909	0.	-1.9276
3227	18.896	1.2727	0.	-2.5569
3228	18.896	1.4545	0.	-4.3772
3229	18.896	1.6364	0.	-14.986
3230	18.896	1.8182	0.	-51.777
3231	18.896	2.	0.	-87.23
3232	18.896	2.1818	0.	-100.58
3233	18.896	2.3636	0.	-90.692
3234	18.896	2.5455	0.	-69.971
3235	18.896	2.7273	0.	-51.42
3236	18.896	2.9091	0.	-41.232
3237	18.896	3.0909	0.	-41.232
3238	18.896	3.2727	0.	-51.42
3239	18.896	3.4545	0.	-69.971
3240	18.896	3.6364	0.	-90.692
3241	18.896	3.8182	0.	-100.58
3242	18.896	4.	0.	-87.229
3243	18.896	4.1818	0.	-51.776
3244	18.896	4.3636	0.	-14.986
3245	18.896	4.5455	0.	-4.3771
3246	18.896	4.7273	0.	-2.5569
3247	18.896	4.9091	0.	-1.9276
3248	18.896	5.0909	0.	-1.6688
3249	18.896	5.2727	0.	-1.5348
3250	18.896	5.4545	0.	-1.3992
3251	18.896	5.6364	0.	-1.072
3252	18.896	5.8182	0.	-0.66258
3253	19.078	0.18182	0.	-0.32666
3254	19.078	0.36364	0.	-0.63906
3255	19.078	0.54545	0.	-1.0205
3256	19.078	0.72727	0.	-1.4532
3257	19.078	0.90909	0.	-2.0501
3258	19.078	1.0909	0.	-3.2876
3259	19.078	1.2727	0.	-7.7106
3260	19.078	1.4545	0.	-23.915
3261	19.078	1.6364	0.	-52.653
3262	19.078	1.8182	0.	-85.903
3263	19.078	2.	0.	-113.57
3264	19.078	2.1818	0.	-127.22
3265	19.078	2.3636	0.	-126.01
3266	19.078	2.5455	0.	-116.12
3267	19.078	2.7273	0.	-105.17
3268	19.078	2.9091	0.	-98.526
3269	19.078	3.0909	0.	-98.526
3270	19.078	3.2727	0.	-105.17
3271	19.078	3.4545	0.	-116.12
3272	19.078	3.6364	0.	-126.01
3273	19.078	3.8182	0.	-127.22
3274	19.078	4.	0.	-113.57
3275	19.078	4.1818	0.	-85.903
3276	19.078	4.3636	0.	-52.653
3277	19.078	4.5455	0.	-23.915
3278	19.078	4.7273	0.	-7.7105
3279	19.078	4.9091	0.	-3.2875
3280	19.078	5.0909	0.	-2.0501
3281	19.078	5.2727	0.	-1.4531
3282	19.078	5.4545	0.	-1.0205
3283	19.078	5.6364	0.	-0.63905
3284	19.078	5.8182	0.	-0.32665
3285	19.26	0.18182	0.	-0.15705
3286	19.26	0.36364	0.	-0.39947
3287	19.26	0.54545	0.	-0.72387
3288	19.26	0.72727	0.	-1.3287
3289	19.26	0.90909	0.	-2.8709
3290	19.26	1.0909	0.	-8.9053
3291	19.26	1.2727	0.	-23.882
3292	19.26	1.4545	0.	-46.189
3293	19.26	1.6364	0.	-73.497
3294	19.26	1.8182	0.	-101.71
3295	19.26	2.	0.	-125.18
3296	19.26	2.1818	0.	-139.52
3297	19.26	2.3636	0.	-144.04
3298	19.26	2.5455	0.	-141.71
3299	19.26	2.7273	0.	-137.02
3300	19.26	2.9091	0.	-133.69
3301	19.26	3.0909	0.	-133.69
3302	19.26	3.2727	0.	-137.02
3303	19.26	3.4545	0.	-141.71
3304	19.26	3.6364	0.	-144.04
3305	19.26	3.8182	0.	-139.52
3306	19.26	4.	0.	-125.18
3307	19.26	4.1818	0.	-101.71
3308	19.26	4.3636	0.	-73.497
3309	19.26	4.5455	0.	-46.189
3310	19.26	4.7273	0.	-23.882
3311	19.26	4.9091	0.	-8.9051
3312	19.26	5.0909	0.	-2.8709
3313	19.26	5.2727	0.	-1.3287
3314	19.26	5.4545	0.	-0.72387
3315	19.26	5.6364	0.	-0.39946
3316	19.26	5.8182	0.	-0.15705
3317	19.443	0.18182	0.	-7.969e-002
3318	19.443	0.36364	0.	-0.2693
3319	19.443	0.54545	0.	-0.52584
3320	19.443	0.72727	0.	-1.2305
3321	19.443	0.90909	0.	-4.6906
3322	19.443	1.0909	0.	-16.73
3323	19.443	1.2727	0.	-34.892
3324	19.443	1.4545	0.	-57.329
3325	19.443	1.6364	0.	-82.343
3326	19.443	1.8182	0.	-107.08
3327	19.443	2.	0.	-128.13
3328	19.443	2.1818	0.	-142.89
3329	19.443	2.3636	0.	-150.77
3330	19.443	2.5455	0.	-153.25
3331	19.443	2.7273	0.	-152.88
3332	19.443	2.9091	0.	-152.02
3333	19.443	3.0909	0.	-152.02
3334	19.443	3.2727	0.	-152.88
3335	19.443	3.4545	0.	-153.25
3336	19.443	3.6364	0.	-150.77
3337	19.443	3.8182	0.	-142.89
3338	19.443	4.	0.	-128.13
3339	19.443	4.1818	0.	-107.08
3340	19.443	4.3636	0.	-82.343
3341	19.443	4.5455	0.	-57.329
3342	19.443	4.7273	0.	-34.892
3343	19.443	4.9091	0.	-16.73
3344	19.443	5.0909	0.	-4.6905
3345	19.443	5.2727	0.	-1.2305
3346	19.443	5.4545	0.	-0.52584
3347	19.443	5.6364	0.	-0.2693
3348	19.443	5.8182	0.	-7.969e-002
3349	19.625	0.18182	0.	-4.209e-002
3350	19.625	0.36364	0.	-0.18893
3351	19.625	0.54545	0.	-0.38931
3352	19.625	0.72727	0.	-1.175
3353	19.625	0.90909	0.	-7.1555
3354	19.625	1.0909	0.	-21.55
3355	19.625	1.2727	0.	-40.042
3356	19.625	1.4545	0.	-61.4
3357	19.625	1.6364	0.	-84.177
3358	19.625	1.8182	0.	-106.33
3359	19.625	2.	0.	-125.61
3360	19.625	2.1818	0.	-140.37
3361	19.625	2.3636	0.	-150.08
3362	19.625	2.5455	0.	-155.4
3363	19.625	2.7273	0.	-157.73
3364	19.625	2.9091	0.	-158.47
3365	19.625	3.0909	0.	-158.47
3366	19.625	3.2727	0.	-157.73
3367	19.625	3.4545	0.	-155.4
3368	19.625	3.6364	0.	-150.08
3369	19.625	3.8182	0.	-140.37
3370	19.625	4.	0.	-125.61
3371	19.625	4.1818	0.	-106.32
3372	19.625	4.3636	0.	-84.176
3373	19.625	4.5455	0.	-61.4
3374	19.625	4.7273	0.	-40.042
3375	19.625	4.9091	0.	-21.55
3376	19.625	5.0909	0.	-7.1554
3377	19.625	5.2727	0.	-1.175
3378	19.625	5.4545	0.	-0.38931
3379	19.625	5.6364	0.	-0.18892
3380	19.625	5.8182	0.	-4.2088e-002
3381	19.807	0.18182	0.	-2.4129e-002
3382	19.807	0.36364	0.	-0.1354
3383	19.807	0.54545	0.	-0.29303
3384	19.807	0.72727	0.	-1.1825
3385	19.807	0.90909	0.	-9.1285
3386	19.807	1.0909	0.	-23.787
3387	19.807	1.2727	0.	-41.521
3388	19.807	1.4545	0.	-61.324
3389	19.807	1.6364	0.	-81.979
3390	19.807	1.8182	0.	-101.96
3391	19.807	2.	0.	-119.72
3392	19.807	2.1818	0.	-134.08
3393	19.807	2.3636	0.	-144.55
3394	19.807	2.5455	0.	-151.37
3395	19.807	2.7273	0.	-155.23
3396	19.807	2.9091	0.	-156.92
3397	19.807	3.0909	0.	-156.92
3398	19.807	3.2727	0.	-155.23
3399	19.807	3.4545	0.	-151.37
3400	19.807	3.6364	0.	-144.55
3401	19.807	3.8182	0.	-134.08
3402	19.807	4.	0.	-119.72
3403	19.807	4.1818	0.	-101.96
3404	19.807	4.3636	0.	-81.979
3405	19.807	4.5455	0.	-61.324
3406	19.807	4.7273	0.	-41.52
3407	19.807	4.9091	0.	-23.786
3408	19.807	5.0909	0.	-9.1284
3409	19.807	5.2727	0.	-1.1824
3410	19.807	5.4545	0.	-0.29303
3411	19.807	5.6364	0.	-0.1354
3412	19.807	5.8182	0.	-2.4129e-002
3413	19.99	0.18182	0.	-1.5053e-002
3414	19.99	0.36364	0.	-9.68e-002
3415	19.99	0.54545	0.	-0.22142
3416	19.99	0.72727	0.	-1.2695
3417	19.99	0.90909	0.	-10.293
3418	19.99	1.0909	0.	-24.306
3419	19.99	1.2727	0.	-40.775
3420	19.99	1.4545	0.	-58.83
3421	19.99	1.6364	0.	-77.455
3422	19.99	1.8182	0.	-95.481
3423	19.99	2.	0.	-111.76
3424	19.99	2.1818	0.	-125.41
3425	19.99	2.3636	0.	-135.95
3426	19.99	2.5455	0.	-143.37
3427	19.99	2.7273	0.	-147.97
3428	19.99	2.9091	0.	-150.14
3429	19.99	3.0909	0.	-150.14
3430	19.99	3.2727	0.	-147.97
3431	19.99	3.4545	0.	-143.37
3432	19.99	3.6364	0.	-135.95
3433	19.99	3.8182	0.	-125.41
3434	19.99	4.	0.	-111.76
3435	19.99	4.1818	0.	-95.481
3436	19.99	4.3636	0.	-77.455
3437	19.99	4.5455	0.	-58.83
3438	19.99	4.7273	0.	-40.775
3439	19.99	4.9091	0.	-24.306
3440	19.99	5.0909	0.	-10.292
3441	19.99	5.2727	0.	-1.2695
3442	19.99	5.4545	0.	-0.22141
3443	19.99	5.6364	0.	-9.6798e-002
3444	19.99	5.8182	0.	-1.5054e-002
3445	20.172	0.18182	0.	-1.0095e-002
3446	20.172	0.36364	0.	-6.7546e-002
3447	20.172	0.54545	0.	-0.16477
3448	20.172	0.72727	0.	-1.4311
3449	20.172	0.90909	0.	-10.723
3450	20.172	1.0909	0.	-23.681
3451	20.172	1.2727	0.	-38.66
3452	20.172	1.4545	0.	-54.912
3453	20.172	1.6364	0.	-71.591
3454	20.172	1.8182	0.	-87.774
3455	20.172	2.	0.	-102.57
3456	20.172	2.1818	0.	-115.27
3457	20.172	2.3636	0.	-125.43
3458	20.172	2.5455	0.	-132.89
3459	20.172	2.7273	0.	-137.72
3460	20.172	2.9091	0.	-140.08
3461	20.172	3.0909	0.	-140.08
3462	20.172	3.2727	0.	-137.72
3463	20.172	3.4545	0.	-132.89
3464	20.172	3.6364	0.	-125.43
3465	20.172	3.8182	0.	-115.27
3466	20.172	4.	0.	-102.57
3467	20.172	4.1818	0.	-87.774
3468	20.172	4.3636	0.	-71.591
3469	20.172	4.5455	0.	-54.912
3470	20.172	4.7273	0.	-38.66
3471	20.172	4.9091	0.	-23.681
3472	20.172	5.0909	0.	-10.723
3473	20.172	5.2727	0.	-1.4311
3474	20.172	5.4545	0.	-0.16477
3475	20.172	5.6364	0.	-6.7546e-002
3476	20.172	5.8182	0.	-1.0096e-002
3477	20.354	0.18182	0.	-6.9963e-003
3478	20.354	0.36364	0.	-4.4748e-002
3479	20.354	0.54545	0.	-0.11675
3480	20.354	0.72727	0.	-1.5797
3481	20.354	0.90909	0.	-10.523
3482	20.354	1.0909	0.	-22.248
3483	20.354	1.2727	0.	-35.663
3484	20.354	1.4545	0.	-50.132
3485	20.354	1.6364	0.	-64.951
3486	20.354	1.8182	0.	-79.375
3487	20.354	2.	0.	-92.691
3488	20.354	2.1818	0.	-104.3
3489	20.354	2.3636	0.	-113.79
3490	20.354	2.5455	0.	-120.94
3491	20.354	2.7273	0.	-125.68
3492	20.354	2.9091	0.	-128.04
3493	20.354	3.0909	0.	-128.04
3494	20.354	3.2727	0.	-125.68
3495	20.354	3.4545	0.	-120.94
3496	20.354	3.6364	0.	-113.79
3497	20.354	3.8182	0.	-104.3
3498	20.354	4.	0.	-92.691
3499	20.354	4.1818	0.	-79.375
3500	20.354	4.3636	0.	-64.951
3501	20.354	4.5455	0.	-50.132
3502	20.354	4.7273	0.	-35.663
3503	20.354	4.9091	0.	-22.248
3504	20.354	5.0909	0.	-10.523
3505	20.354	5.2727	0.	-1.5797
3506	20.354	5.4545	0.	-0.11675
3507	20.354	5.6364	0.	-4.4747e-002
3508	20.354	5.8182	0.	-6.9942e-003
3509	20.536	0.18182	0.	-4.784e-003
3510	20.536	0.36364	0.	-2.7005e-002
3511	20.536	0.54545	0.	-7.417e-002
3512	20.536	0.72727	0.	-1.5485
3513	20.536	0.90909	0.	-9.767
3514	20.536	1.0909	0.	-20.202
3515	20.536	1.2727	0.	-32.06
3516	20.536	1.4545	0.	-44.807
3517	20.536	1.6364	0.	-57.857
3518	20.536	1.8182	0.	-70.6
3519	20.536	2.	0.	-82.451
3520	20.536	2.1818	0.	-92.902
3521	20.536	2.3636	0.	-101.57
3522	20.536	2.5455	0.	-108.2
3523	20.536	2.7273	0.	-112.66
3524	20.536	2.9091	0.	-114.9
3525	20.536	3.0909	0.	-114.9
3526	20.536	3.2727	0.	-112.66
3527	20.536	3.4545	0.	-108.2
3528	20.536	3.6364	0.	-101.57
3529	20.536	3.8182	0.	-92.902
3530	20.536	4.	0.	-82.451
3531	20.536	4.1818	0.	-70.6
3532	20.536	4.3636	0.	-57.857
3533	20.536	4.5455	0.	-44.806
3534	20.536	4.7273	0.	-32.06
3535	20.536	4.9091	0.	-20.202
3536	20.536	5.0909	0.	-9.7669
3537	20.536	5.2727	0.	-1.5485
3538	20.536	5.4545	0.	-7.4173e-002
3539	20.536	5.6364	0.	-2.7001e-002
3540	20.536	5.8182	0.	-4.7821e-003
3541	20.719	0.18182	0.	-3.1366e-003
3542	20.719	0.36364	0.	-1.3762e-002
3543	20.719	0.54545	0.	-3.7361e-002
3544	20.719	0.72727	0.	-1.2112
3545	20.719	0.90909	0.	-8.5079
3546	20.719	1.0909	0.	-17.654
3547	20.719	1.2727	0.	-28.004
3548	20.719	1.4545	0.	-39.111
3549	20.719	1.6364	0.	-50.49
3550	20.719	1.8182	0.	-61.637
3551	20.719	2.	0.	-72.063
3552	20.719	2.1818	0.	-81.333
3553	20.719	2.3636	0.	-89.095
3554	20.719	2.5455	0.	-95.095
3555	20.719	2.7273	0.	-99.169
3556	20.719	2.9091	0.	-101.22
3557	20.719	3.0909	0.	-101.22
3558	20.719	3.2727	0.	-99.169
3559	20.719	3.4545	0.	-95.095
3560	20.719	3.6364	0.	-89.095
3561	20.719	3.8182	0.	-81.333
3562	20.719	4.	0.	-72.063
3563	20.719	4.1818	0.	-61.637
3564	20.719	4.3636	0.	-50.49
3565	20.719	4.5455	0.	-39.111
3566	20.719	4.7273	0.	-28.004
3567	20.719	4.9091	0.	-17.654
3568	20.719	5.0909	0.	-8.5078
3569	20.719	5.2727	0.	-1.2111
3570	20.719	5.4545	0.	-3.736e-002
3571	20.719	5.6364	0.	-1.3761e-002
3572	20.719	5.8182	0.	-3.1365e-003
3573	20.901	0.18182	0.	-1.9892e-003
3574	20.901	0.36364	0.	-4.7819e-003
3575	20.901	0.54545	0.	-9.1201e-003
3576	20.901	0.72727	0.	-0.58682
3577	20.901	0.90909	0.	-6.7854
3578	20.901	1.0909	0.	-14.675
3579	20.901	1.2727	0.	-23.583
3580	20.901	1.4545	0.	-33.142
3581	20.901	1.6364	0.	-42.952
3582	20.901	1.8182	0.	-52.591
3583	20.901	2.	0.	-61.652
3584	20.901	2.1818	0.	-69.758
3585	20.901	2.3636	0.	-76.595
3586	20.901	2.5455	0.	-81.917
3587	20.901	2.7273	0.	-85.553
3588	20.901	2.9091	0.	-87.395
3589	20.901	3.0909	0.	-87.395
3590	20.901	3.2727	0.	-85.553
3591	20.901	3.4545	0.	-81.917
3592	20.901	3.6364	0.	-76.595
3593	20.901	3.8182	0.	-69.758
3594	20.901	4.	0.	-61.652
3595	20.901	4.1818	0.	-52.591
3596	20.901	4.3636	0.	-42.951
3597	20.901	4.5455	0.	-33.142
3598	20.901	4.7273	0.	-23.583
3599	20.901	4.9091	0.	-14.675
3600	20.901	5.0909	0.	-6.7853
3601	20.901	5.2727	0.	-0.58679
3602	20.901	5.4545	0.	-9.119e-003
3603	20.901	5.6364	0.	-4.7807e-003
3604	20.901	5.8182	0.	-1.9884e-003
3605	21.083	0.18182	0.	-1.3751e-003
3606	21.083	0.36364	0.	2.608e-004
3607	21.083	0.54545	0.	8.5911e-003
3608	21.083	0.72727	0.	-0.1062
3609	21.083	0.90909	0.	-4.6342
3610	21.083	1.0909	0.	-11.308
3611	21.083	1.2727	0.	-18.849
3612	21.083	1.4545	0.	-26.954
3613	21.083	1.6364	0.	-35.294
3614	21.083	1.8182	0.	-43.52
3615	21.083	2.	0.	-51.288
3616	21.083	2.1818	0.	-58.274
3617	21.083	2.3636	0.	-64.199
3618	21.083	2.5455	0.	-68.836
3619	21.083	2.7273	0.	-72.018
3620	21.083	2.9091	0.	-73.636
3621	21.083	3.0909	0.	-73.636
3622	21.083	3.2727	0.	-72.018
3623	21.083	3.4545	0.	-68.836
3624	21.083	3.6364	0.	-64.199
3625	21.083	3.8182	0.	-58.274
3626	21.083	4.	0.	-51.288
3627	21.083	4.1818	0.	-43.52
3628	21.083	4.3636	0.	-35.294
3629	21.083	4.5455	0.	-26.954
3630	21.083	4.7273	0.	-18.849
3631	21.083	4.9091	0.	-11.308
3632	21.083	5.0909	0.	-4.6342
3633	21.083	5.2727	0.	-0.1062
3634	21.083	5.4545	0.	8.5933e-003
3635	21.083	5.6364	0.	2.6288e-004
3636	21.083	5.8182	0.	-1.3732e-003
3637	21.266	0.18182	0.	-1.3745e-003
3638	21.266	0.36364	0.	1.9495e-003
3639	21.266	0.54545	0.	1.7106e-002
3640	21.266	0.72727	0.	1.0612e-003
3641	21.266	0.90909	0.	-2.0948
3642	21.266	1.0909	0.	-7.586
3643	21.266	1.2727	0.	-13.831
3644	21.266	1.4545	0.	-20.574
3645	21.266	1.6364	0.	-27.543
3646	21.266	1.8182	0.	-34.45
3647	21.266	2.	0.	-41.005
3648	21.266	2.1818	0.	-46.931
3649	21.266	2.3636	0.	-51.982
3650	21.266	2.5455	0.	-55.952
3651	21.266	2.7273	0.	-58.686
3652	21.266	2.9091	0.	-60.079
3653	21.266	3.0909	0.	-60.079
3654	21.266	3.2727	0.	-58.686
3655	21.266	3.4545	0.	-55.952
3656	21.266	3.6364	0.	-51.981
3657	21.266	3.8182	0.	-46.931
3658	21.266	4.	0.	-41.005
3659	21.266	4.1818	0.	-34.45
3660	21.266	4.3636	0.	-27.543
3661	21.266	4.5455	0.	-20.574
3662	21.266	4.7273	0.	-13.831
3663	21.266	4.9091	0.	-7.586
3664	21.266	5.0909	0.	-2.0947
3665	21.266	5.2727	0.	1.0608e-003
3666	21.266	5.4545	0.	1.7103e-002
3667	21.266	5.6364	0.	1.9538e-003
3668	21.266	5.8182	0.	-1.3739e-003
3669	21.448	0.18182	0.	-2.0565e-003
3670	21.448	0.36364	0.	1.0931e-003
3671	21.448	0.54545	0.	1.9761e-002
3672	21.448	0.72727	0.	2.1742e-002
3673	21.448	0.90909	0.	-3.1513e-002
3674	21.448	1.0909	0.	-3.5361
3675	21.448	1.2727	0.	-8.5495
3676	21.448	1.4545	0.	-14.014
3677	21.448	1.6364	0.	-19.706
3678	21.448	1.8182	0.	-25.388
3679	21.448	2.	0.	-30.814
3680	21.448	2.1818	0.	-35.748
3681	21.448	2.3636	0.	-39.974
3682	21.448	2.5455	0.	-43.312
3683	21.448	2.7273	0.	-45.617
3684	21.448	2.9091	0.	-46.795
3685	21.448	3.0909	0.	-46.795
3686	21.448	3.2727	0.	-45.617
3687	21.448	3.4545	0.	-43.312
3688	21.448	3.6364	0.	-39.974
3689	21.448	3.8182	0.	-35.747
3690	21.448	4.	0.	-30.814
3691	21.448	4.1818	0.	-25.388
3692	21.448	4.3636	0.	-19.706
3693	21.448	4.5455	0.	-14.014
3694	21.448	4.7273	0.	-8.5494
3695	21.448	4.9091	0.	-3.536
3696	21.448	5.0909	0.	-3.1508e-002
3697	21.448	5.2727	0.	2.1741e-002
3698	21.448	5.4545	0.	1.9759e-002
3699	21.448	5.6364	0.	1.0927e-003
3700	21.448	5.8182	0.	-2.0541e-003
3701	21.63	0.18182	0.	-3.468e-003
3702	21.63	0.36364	0.	-1.5232e-003
3703	21.63	0.54545	0.	1.9572e-002
3704	21.63	0.72727	0.	2.6065e-002
3705	21.63	0.90909	0.	2.7757e-002
3706	21.63	1.0909	0.	-1.923e-002
3707	21.63	1.2727	0.	-3.0203
3708	21.63	1.4545	0.	-7.2784
3709	21.63	1.6364	0.	-11.781
3710	21.63	1.8182	0.	-16.326
3711	21.63	2.	0.	-20.707
3712	21.63	2.1818	0.	-24.722
3713	21.63	2.3636	0.	-28.182
3714	21.63	2.5455	0.	-30.928
3715	21.63	2.7273	0.	-32.832
3716	21.63	2.9091	0.	-33.807
3717	21.63	3.0909	0.	-33.807
3718	21.63	3.2727	0.	-32.832
3719	21.63	3.4545	0.	-30.928
3720	21.63	3.6364	0.	-28.182
3721	21.63	3.8182	0.	-24.722
3722	21.63	4.	0.	-20.707
3723	21.63	4.1818	0.	-16.326
3724	21.63	4.3636	0.	-11.781
3725	21.63	4.5455	0.	-7.2784
3726	21.63	4.7273	0.	-3.0203
3727	21.63	4.9091	0.	-1.9229e-002
3728	21.63	5.0909	0.	2.7757e-002
3729	21.63	5.2727	0.	2.6063e-002
3730	21.63	5.4545	0.	1.9573e-002
3731	21.63	5.6364	0.	-1.5209e-003
3732	21.63	5.8182	0.	-3.4698e-003
3733	21.813	0.18182	0.	-5.6467e-003
3734	21.813	0.36364	0.	-5.2393e-003
3735	21.813	0.54545	0.	1.8439e-002
3736	21.813	0.72727	0.	2.6675e-002
3737	21.813	0.90909	0.	3.292e-002
3738	21.813	1.0909	0.	3.4416e-002
3739	21.813	1.2727	0.	2.6486e-002
3740	21.813	1.4545	0.	-0.46461
3741	21.813	1.6364	0.	-3.7632
3742	21.813	1.8182	0.	-7.2518
3743	21.813	2.	0.	-10.669
3744	21.813	2.1818	0.	-13.836
3745	21.813	2.3636	0.	-16.592
3746	21.813	2.5455	0.	-18.792
3747	21.813	2.7273	0.	-20.326
3748	21.813	2.9091	0.	-21.112
3749	21.813	3.0909	0.	-21.112
3750	21.813	3.2727	0.	-20.326
3751	21.813	3.4545	0.	-18.792
3752	21.813	3.6364	0.	-16.592
3753	21.813	3.8182	0.	-13.836
3754	21.813	4.	0.	-10.669
3755	21.813	4.1818	0.	-7.2518
3756	21.813	4.3636	0.	-3.7631
3757	21.813	4.5455	0.	-0.46457
3758	21.813	4.7273	0.	2.6487e-002
3759	21.813	4.9091	0.	3.4414e-002
3760	21.813	5.0909	0.	3.2921e-002
3761	21.813	5.2727	0.	2.6672e-002
3762	21.813	5.4545	0.	1.8443e-002
3763	21.813	5.6364	0.	-5.2351e-003
3764	21.813	5.8182	0.	-5.6487e-003
3765	21.995	0.18182	0.	-8.6362e-003
3766	21.995	0.36364	0.	-9.5929e-003
3767	21.995	0.54545	0.	1.7366e-002
3768	21.995	0.72727	0.	2.6774e-002
3769	21.995	0.90909	0.	3.4678e-002
3770	21.995	1.0909	0.	3.9018e-002
3771	21.995	1.2727	0.	4.1009e-002
3772	21.995	1.4545	0.	4.0589e-002
3773	21.995	1.6364	0.	3.6718e-002
3774	21.995	1.8182	0.	1.9936e-002
3775	21.995	2.	0.	-0.72878
3776	21.995	2.1818	0.	-3.073
3777	21.995	2.3636	0.	-5.1787
3778	21.995	2.5455	0.	-6.8802
3779	21.995	2.7273	0.	-8.074
3780	21.995	2.9091	0.	-8.6891
3781	21.995	3.0909	0.	-8.6891
3782	21.995	3.2727	0.	-8.074
3783	21.995	3.4545	0.	-6.8802
3784	21.995	3.6364	0.	-5.1786
3785	21.995	3.8182	0.	-3.073
3786	21.995	4.	0.	-0.72875
3787	21.995	4.1818	0.	1.9937e-002
3788	21.995	4.3636	0.	3.6717e-002
3789	21.995	4.5455	0.	4.0589e-002
3790	21.995	4.7273	0.	4.1011e-002
3791	21.995	4.9091	0.	3.9019e-002
3792	21.995	5.0909	0.	3.4675e-002
3793	21.995	5.2727	0.	2.6773e-002
3794	21.995	5.4545	0.	1.7364e-002
3795	21.995	5.6364	0.	-9.5902e-003
3796	21.995	5.8182	0.	-8.6352e-003
3797	22.177	0.18182	0.	-1.2522e-002
3798	22.177	0.36364	0.	-1.4304e-002
3799	22.177	0.54545	0.	1.6853e-002
3800	22.177	0.72727	0.	2.7394e-002
3801	22.177	0.90909	0.	3.6498e-002
3802	22.177	1.0909	0.	4.192e-002
3803	22.177	1.2727	0.	4.5348e-002
3804	22.177	1.4545	0.	4.7242e-002
3805	22.177	1.6364	0.	4.8179e-002
3806	22.177	1.8182	0.	4.8561e-002
3807	22.177	2.	0.	4.875e-002
3808	22.177	2.1818	0.	4.9052e-002
3809	22.177	2.3636	0.	4.9728e-002
3810	22.177	2.5455	0.	5.0931e-002
3811	22.177	2.7273	0.	5.2499e-002
3812	22.177	2.9091	0.	5.3731e-002
3813	22.177	3.0909	0.	5.373e-002
3814	22.177	3.2727	0.	5.25e-002
3815	22.177	3.4545	0.	5.0932e-002
3816	22.177	3.6364	0.	4.9726e-002
3817	22.177	3.8182	0.	4.9054e-002
3818	22.177	4.	0.	4.875e-002
3819	22.177	4.1818	0.	4.8561e-002
3820	22.177	4.3636	0.	4.8177e-002
3821	22.177	4.5455	0.	4.7242e-002
3822	22.177	4.7273	0.	4.5345e-002
3823	22.177	4.9091	0.	4.1919e-002
3824	22.177	5.0909	0.	3.6497e-002
3825	22.177	5.2727	0.	2.7393e-002
3826	22.177	5.4545	0.	1.6851e-002
3827	22.177	5.6364	0.	-1.43e-002
3828	22.177	5.8182	0.	-1.252e-002
3829	22.359	0.18182	0.	-1.7442e-002
3830	22.359	0.36364	0.	-1.9151e-002
3831	22.359	0.54545	0.	1.7234e-002
3832	22.359	0.72727	0.	2.9025e-002
3833	22.359	0.90909	0.	3.9284e-002
3834	22.359	1.0909	0.	4.546e-002
3835	22.359	1.2727	0.	4.9579e-002
3836	22.359	1.4545	0.	5.215e-002
3837	22.359	1.6364	0.	5.3776e-002
3838	22.359	1.8182	0.	5.4841e-002
3839	22.359	2.	0.	5.5621e-002
3840	22.359	2.1818	0.	5.629e-002
3841	22.359	2.3636	0.	5.6933e-002
3842	22.359	2.5455	0.	5.7537e-002
3843	22.359	2.7273	0.	5.8029e-002
3844	22.359	2.9091	0.	5.8312e-002
3845	22.359	3.0909	0.	5.8312e-002
3846	22.359	3.2727	0.	5.8031e-002
3847	22.359	3.4545	0.	5.7536e-002
3848	22.359	3.6364	0.	5.6932e-002
3849	22.359	3.8182	0.	5.6289e-002
3850	22.359	4.	0.	5.5622e-002
3851	22.359	4.1818	0.	5.4842e-002
3852	22.359	4.3636	0.	5.3778e-002
3853	22.359	4.5455	0.	5.2149e-002
3854	22.359	4.7273	0.	4.9578e-002
3855	22.359	4.9091	0.	4.546e-002
3856	22.359	5.0909	0.	3.9284e-002
3857	22.359	5.2727	0.	2.9023e-002
3858	22.359	5.4545	0.	1.7232e-002
3859	22.359	5.6364	0.	-1.9148e-002
3860	22.359	5.8182	0.	-1.7441e-002
3861	22.542	0.18182	0.	-2.3562e-002
3862	22.542	0.36364	0.	-2.388e-002
3863	22.542	0.54545	0.	1.8914e-002
3864	22.542	0.72727	0.	3.2131e-002
3865	22.542	0.90909	0.	4.3607e-002
3866	22.542	1.0909	0.	5.0451e-002
3867	22.542	1.2727	0.	5.5084e-002
3868	22.542	1.4545	0.	5.8056e-002
3869	22.542	1.6364	0.	6.0018e-002
3870	22.542	1.8182	0.	6.1331e-002
3871	22.542	2.	0.	6.2263e-002
3872	22.542	2.1818	0.	6.297e-002
3873	22.542	2.3636	0.	6.3534e-002
3874	22.542	2.5455	0.	6.3981e-002
3875	22.542	2.7273	0.	6.43e-002
3876	22.542	2.9091	0.	6.4468e-002
3877	22.542	3.0909	0.	6.4467e-002
3878	22.542	3.2727	0.	6.4299e-002
3879	22.542	3.4545	0.	6.3981e-002
3880	22.542	3.6364	0.	6.3534e-002
3881	22.542	3.8182	0.	6.2971e-002
3882	22.542	4.	0.	6.2261e-002
3883	22.542	4.1818	0.	6.1329e-002
3884	22.542	4.3636	0.	6.0018e-002
3885	22.542	4.5455	0.	5.8058e-002
3886	22.542	4.7273	0.	5.5083e-002
3887	22.542	4.9091	0.	5.045e-002
3888	22.542	5.0909	0.	4.3607e-002
3889	22.542	5.2727	0.	3.2133e-002
3890	22.542	5.4545	0.	1.8914e-002
3891	22.542	5.6364	0.	-2.3878e-002
3892	22.542	5.8182	0.	-2.3562e-002
3893	22.724	0.18182	0.	-3.13e-002
3894	22.724	0.36364	0.	-2.8313e-002
3895	22.724	0.54545	0.	2.2268e-002
3896	22.724	0.72727	0.	3.7138e-002
3897	22.724	0.90909	0.	4.9924e-002
3898	22.724	1.0909	0.	5.7413e-002
3899	22.724	1.2727	0.	6.2497e-002
3900	22.724	1.4545	0.	6.5794e-002
3901	22.724	1.6364	0.	6.8003e-002
3902	22.724	1.8182	0.	6.9503e-002
3903	22.724	2.	0.	7.0554e-002
3904	22.724	2.1818	0.	7.1317e-002
3905	22.724	2.3636	0.	7.1886e-002
3906	22.724	2.5455	0.	7.23e-002
3907	22.724	2.7273	0.	7.2578e-002
3908	22.724	2.9091	0.	7.272e-002
3909	22.724	3.0909	0.	7.2718e-002
3910	22.724	3.2727	0.	7.2579e-002
3911	22.724	3.4545	0.	7.2302e-002
3912	22.724	3.6364	0.	7.1884e-002
3913	22.724	3.8182	0.	7.1319e-002
3914	22.724	4.	0.	7.0554e-002
3915	22.724	4.1818	0.	6.9501e-002
3916	22.724	4.3636	0.	6.8003e-002
3917	22.724	4.5455	0.	6.5794e-002
3918	22.724	4.7273	0.	6.2498e-002
3919	22.724	4.9091	0.	5.7414e-002
3920	22.724	5.0909	0.	4.9924e-002
3921	22.724	5.2727	0.	3.7135e-002
3922	22.724	5.4545	0.	2.2268e-002
3923	22.724	5.6364	0.	-2.8314e-002
3924	22.724	5.8182	0.	-3.1301e-002
3925	22.906	0.18182	0.	-4.0667e-002
3926	22.906	0.36364	0.	-3.1376e-002
3927	22.906	0.54545	0.	2.8754e-002
3928	22.906	0.72727	0.	4.555e-002
3929	22.906	0.90909	0.	5.9776e-002
3930	22.906	1.0909	0.	6.7916e-002
3931	22.906	1.2727	0.	7.344e-002
3932	22.906	1.4545	0.	7.7035e-002
3933	22.906	1.6364	0.	7.9475e-002
3934	22.906	1.8182	0.	8.1145e-002
3935	22.906	2.	0.	8.2328e-002
3936	22.906	2.1818	0.	8.3177e-002
3937	22.906	2.3636	0.	8.3788e-002
3938	22.906	2.5455	0.	8.422e-002
3939	22.906	2.7273	0.	8.4501e-002
3940	22.906	2.9091	0.	8.4638e-002
3941	22.906	3.0909	0.	8.464e-002
3942	22.906	3.2727	0.	8.4502e-002
3943	22.906	3.4545	0.	8.4221e-002
3944	22.906	3.6364	0.	8.3789e-002
3945	22.906	3.8182	0.	8.3174e-002
3946	22.906	4.	0.	8.2329e-002
3947	22.906	4.1818	0.	8.1149e-002
3948	22.906	4.3636	0.	7.9472e-002
3949	22.906	4.5455	0.	7.7035e-002
3950	22.906	4.7273	0.	7.3438e-002
3951	22.906	4.9091	0.	6.7915e-002
3952	22.906	5.0909	0.	5.9778e-002
3953	22.906	5.2727	0.	4.5547e-002
3954	22.906	5.4545	0.	2.8756e-002
3955	22.906	5.6364	0.	-3.1376e-002
3956	22.906	5.8182	0.	-4.067e-002
3957	23.089	0.18182	0.	-5.3913e-002
3958	23.089	0.36364	0.	-3.4056e-002
3959	23.089	0.54545	0.	3.7706e-002
3960	23.089	0.72727	0.	5.6644e-002
3961	23.089	0.90909	0.	7.2481e-002
3962	23.089	1.0909	0.	8.1297e-002
3963	23.089	1.2727	0.	8.7284e-002
3964	23.089	1.4545	0.	9.1199e-002
3965	23.089	1.6364	0.	9.3894e-002
3966	23.089	1.8182	0.	9.5765e-002
3967	23.089	2.	0.	9.7096e-002
3968	23.089	2.1818	0.	9.805e-002
3969	23.089	2.3636	0.	9.8737e-002
3970	23.089	2.5455	0.	9.9215e-002
3971	23.089	2.7273	0.	9.9521e-002
3972	23.089	2.9091	0.	9.9668e-002
3973	23.089	3.0909	0.	9.9669e-002
3974	23.089	3.2727	0.	9.9518e-002
3975	23.089	3.4545	0.	9.9216e-002
3976	23.089	3.6364	0.	9.8738e-002
3977	23.089	3.8182	0.	9.8052e-002
3978	23.089	4.	0.	9.7095e-002
3979	23.089	4.1818	0.	9.5765e-002
3980	23.089	4.3636	0.	9.3894e-002
3981	23.089	4.5455	0.	9.1199e-002
3982	23.089	4.7273	0.	8.7283e-002
3983	23.089	4.9091	0.	8.1296e-002
3984	23.089	5.0909	0.	7.248e-002
3985	23.089	5.2727	0.	5.6642e-002
3986	23.089	5.4545	0.	3.7705e-002
3987	23.089	5.6364	0.	-3.4054e-002
3988	23.089	5.8182	0.	-5.391e-002
3989	23.271	0.18182	0.	-6.5284e-002
3990	23.271	0.36364	0.	-2.59e-002
3991	23.271	0.54545	0.	6.1513e-002
3992	23.271	0.72727	0.	8.3017e-002
3993	23.271	0.90909	0.	0.10071
3994	23.271	1.0909	0.	0.11038
3995	23.271	1.2727	0.	0.11695
3996	23.271	1.4545	0.	0.12127
3997	23.271	1.6364	0.	0.12427
3998	23.271	1.8182	0.	0.12638
3999	23.271	2.	0.	0.12789
4000	23.271	2.1818	0.	0.12897
4001	23.271	2.3636	0.	0.12974
4002	23.271	2.5455	0.	0.13027
4003	23.271	2.7273	0.	0.13061
4004	23.271	2.9091	0.	0.13077
4005	23.271	3.0909	0.	0.13077
4006	23.271	3.2727	0.	0.13061
4007	23.271	3.4545	0.	0.13027
4008	23.271	3.6364	0.	0.12974
4009	23.271	3.8182	0.	0.12897
4010	23.271	4.	0.	0.12789
4011	23.271	4.1818	0.	0.12638
4012	23.271	4.3636	0.	0.12427
4013	23.271	4.5455	0.	0.12127
4014	23.271	4.7273	0.	0.11694
4015	23.271	4.9091	0.	0.11038
4016	23.271	5.0909	0.	0.10071
4017	23.271	5.2727	0.	8.3016e-002
4018	23.271	5.4545	0.	6.1513e-002
4019	23.271	5.6364	0.	-2.5897e-002
4020	23.271	5.8182	0.	-6.5285e-002
4021	23.453	0.18182	0.	-9.9729e-002
4022	23.453	0.36364	0.	-3.2983e-002
4023	23.453	0.54545	0.	6.9851e-002
4024	23.453	0.72727	0.	9.5534e-002
4025	23.453	0.90909	0.	0.11543
4026	23.453	1.0909	0.	0.1261
4027	23.453	1.2727	0.	0.13349
4028	23.453	1.4545	0.	0.1384
4029	23.453	1.6364	0.	0.14186
4030	23.453	1.8182	0.	0.14432
4031	23.453	2.	0.	0.14609
4032	23.453	2.1818	0.	0.14737
4033	23.453	2.3636	0.	0.14829
4034	23.453	2.5455	0.	0.14892
4035	23.453	2.7273	0.	0.14932
4036	23.453	2.9091	0.	0.14951
4037	23.453	3.0909	0.	0.14951
4038	23.453	3.2727	0.	0.14932
4039	23.453	3.4545	0.	0.14892
4040	23.453	3.6364	0.	0.14829
4041	23.453	3.8182	0.	0.14737
4042	23.453	4.	0.	0.14609
4043	23.453	4.1818	0.	0.14432
4044	23.453	4.3636	0.	0.14186
4045	23.453	4.5455	0.	0.1384
4046	23.453	4.7273	0.	0.13349
4047	23.453	4.9091	0.	0.12609
4048	23.453	5.0909	0.	0.11543
4049	23.453	5.2727	0.	9.5535e-002
4050	23.453	5.4545	0.	6.9856e-002
4051	23.453	5.6364	0.	-3.2983e-002
4052	23.453	5.8182	0.	-9.9729e-002
4053	23.635	0.18182	0.	-6.2434e-002
4054	23.635	0.36364	0.	8.6714e-002
4055	23.635	0.54545	0.	0.23311
4056	23.635	0.72727	0.	0.26218
4057	23.635	0.90909	0.	0.28738
4058	23.635	1.0909	0.	0.30062
4059	23.635	1.2727	0.	0.30977
4060	23.635	1.4545	0.	0.31577
4061	23.635	1.6364	0.	0.31989
4062	23.635	1.8182	0.	0.32272
4063	23.635	2.	0.	0.32466
4064	23.635	2.1818	0.	0.32598
4065	23.635	2.3636	0.	0.32687
4066	23.635	2.5455	0.	0.32745
4067	23.635	2.7273	0.	0.32779
4068	23.635	2.9091	0.	0.32795
4069	23.635	3.0909	0.	0.32795
4070	23.635	3.2727	0.	0.32779
4071	23.635	3.4545	0.	0.32745
4072	23.635	3.6364	0.	0.32687
4073	23.635	3.8182	0.	0.32598
4074	23.635	4.	0.	0.32466
4075	23.635	4.1818	0.	0.32272
4076	23.635	4.3636	0.	0.31989
4077	23.635	4.5455	0.	0.31577
4078	23.635	4.7273	0.	0.30976
4079	23.635	4.9091	0.	0.30062
4080	23.635	5.0909	0.	0.28738
4081	23.635	5.2727	0.	0.26218
4082	23.635	5.4545	0.	0.23311
4083	23.635	5.6364	0.	8.6713e-002
4084	23.635	5.8182	0.	-6.2436e-002
4085	23.818	0.18182	0.	-0.41583
4086	23.818	0.36364	0.	-0.14784
4087	23.818	0.54545	0.	6.4597e-002
4088	23.818	0.72727	0.	0.10739
4089	23.818	0.90909	0.	0.14609
4090	23.818	1.0909	0.	0.16789
4091	23.818	1.2727	0.	0.18354
4092	23.818	1.4545	0.	0.19428
4093	23.818	1.6364	0.	0.20193
4094	23.818	1.8182	0.	0.20736
4095	23.818	2.	0.	0.21121
4096	23.818	2.1818	0.	0.21391
4097	23.818	2.3636	0.	0.21577
4098	23.818	2.5455	0.	0.217
4099	23.818	2.7273	0.	0.21774
4100	23.818	2.9091	0.	0.21809
4101	23.818	3.0909	0.	0.21809
4102	23.818	3.2727	0.	0.21774
4103	23.818	3.4545	0.	0.217
4104	23.818	3.6364	0.	0.21577
4105	23.818	3.8182	0.	0.21391
4106	23.818	4.	0.	0.21121
4107	23.818	4.1818	0.	0.20736
4108	23.818	4.3636	0.	0.20193
4109	23.818	4.5455	0.	0.19428
4110	23.818	4.7273	0.	0.18354
4111	23.818	4.9091	0.	0.1679
4112	23.818	5.0909	0.	0.14609
4113	23.818	5.2727	0.	0.10739
4114	23.818	5.4545	0.	6.4602e-002
4115	23.818	5.6364	0.	-0.14784
4116	23.818	5.8182	0.	-0.41583
4117	23.818	5.8182	0.1	0.41583
4118	23.818	5.6364	0.1	0.14784
4119	23.818	5.4545	0.1	-6.4602e-002
4120	23.818	5.2727	0.1	-0.10739
4121	23.818	5.0909	0.1	-0.14609
4122	23.818	4.9091	0.1	-0.1679
4123	23.818	4.7273	0.1	-0.18354
4124	23.818	4.5455	0.1	-0.19428
4125	23.818	4.3636	0.1	-0.20193
4126	23.818	4.1818	0.1	-0.20736
4127	23.818	4.	0.1	-0.21121
4128	23.818	3.8182	0.1	-0.21391
4129	23.818	3.6364	0.1	-0.21577
4130	23.818	3.4545	0.1	-0.217
4131	23.818	3.2727	0.1	-0.21774
4132	23.818	3.0909	0.1	-0.21809
4133	23.818	2.9091	0.1	-0.21809
4134	23.818	2.7273	0.1	-0.21774
4135	23.818	2.5455	0.1	-0.217
4136	23.818	2.3636	0.1	-0.21577
4137	23.818	2.1818	0.1	-0.21391
4138	23.818	2.	0.1	-0.21121
4139	23.818	1.8182	0.1	-0.20736
4140	23.818	1.6364	0.1	-0.20193
4141	23.818	1.4545	0.1	-0.19428
4142	23.818	1.2727	0.1	-0.18354
4143	23.818	1.0909	0.1	-0.1679
4144	23.818	0.90909	0.1	-0.14609
4145	23.818	0.72727	0.1	-0.10739
4146	23.818	0.54545	0.1	-6.4598e-002
4147	23.818	0.36364	0.1	0.14784
4148	23.818	0.18182	0.1	0.41583
4149	23.635	5.8182	0.1	6.2437e-002
4150	23.635	5.6364	0.1	-8.6713e-002
4151	23.635	5.4545	0.1	-0.23311
4152	23.635	5.2727	0.1	-0.26218
4153	23.635	5.0909	0.1	-0.28738
4154	23.635	4.9091	0.1	-0.30062
4155	23.635	4.7273	0.1	-0.30977
4156	23.635	4.5455	0.1	-0.31577
4157	23.635	4.3636	0.1	-0.31989
4158	23.635	4.1818	0.1	-0.32272
4159	23.635	4.	0.1	-0.32466
4160	23.635	3.8182	0.1	-0.32598
4161	23.635	3.6364	0.1	-0.32687
4162	23.635	3.4545	0.1	-0.32745
4163	23.635	3.2727	0.1	-0.32779
4164	23.635	3.0909	0.1	-0.32795
4165	23.635	2.9091	0.1	-0.32795
4166	23.635	2.7273	0.1	-0.32779
4167	23.635	2.5455	0.1	-0.32745
4168	23.635	2.3636	0.1	-0.32687
4169	23.635	2.1818	0.1	-0.32598
4170	23.635	2.	0.1	-0.32466
4171	23.635	1.8182	0.1	-0.32272
4172	23.635	1.6364	0.1	-0.31989
4173	23.635	1.4545	0.1	-0.31577
4174	23.635	1.2727	0.1	-0.30977
4175	23.635	1.0909	0.1	-0.30062
4176	23.635	0.90909	0.1	-0.28738
4177	23.635	0.72727	0.1	-0.26218
4178	23.635	0.54545	0.1	-0.23311
4179	23.635	0.36364	0.1	-8.6711e-002
4180	23.635	0.18182	0.1	6.2432e-002
4181	23.453	5.8182	0.1	9.973e-002
4182	23.453	5.6364	0.1	3.2985e-002
4183	23.453	5.4545	0.1	-6.9856e-002
4184	23.453	5.2727	0.1	-9.5534e-002
4185	23.453	5.0909	0.1	-0.11543
4186	23.453	4.9091	0.1	-0.12609
4187	23.453	4.7273	0.1	-0.13349
4188	23.453	4.5455	0.1	-0.1384
4189	23.453	4.3636	0.1	-0.14186
4190	23.453	4.1818	0.1	-0.14432
4191	23.453	4.	0.1	-0.14609
4192	23.453	3.8182	0.1	-0.14737
4193	23.453	3.6364	0.1	-0.14829
4194	23.453	3.4545	0.1	-0.14892
4195	23.453	3.2727	0.1	-0.14932
4196	23.453	3.0909	0.1	-0.14951
4197	23.453	2.9091	0.1	-0.14951
4198	23.453	2.7273	0.1	-0.14932
4199	23.453	2.5455	0.1	-0.14892
4200	23.453	2.3636	0.1	-0.14829
4201	23.453	2.1818	0.1	-0.14737
4202	23.453	2.	0.1	-0.14609
4203	23.453	1.8182	0.1	-0.14432
4204	23.453	1.6364	0.1	-0.14186
4205	23.453	1.4545	0.1	-0.1384
4206	23.453	1.2727	0.1	-0.13349
4207	23.453	1.0909	0.1	-0.12609
4208	23.453	0.90909	0.1	-0.11543
4209	23.453	0.72727	0.1	-9.5535e-002
4210	23.453	0.54545	0.1	-6.9852e-002
4211	23.453	0.36364	0.1	3.2988e-002
4212	23.453	0.18182	0.1	9.9726e-002
4213	23.271	5.8182	0.1	6.5285e-002
4214	23.271	5.6364	0.1	2.5897e-002
4215	23.271	5.4545	0.1	-6.1513e-002
4216	23.271	5.2727	0.1	-8.3016e-002
4217	23.271	5.0909	0.1	-0.10071
4218	23.271	4.9091	0.1	-0.11037
4219	23.271	4.7273	0.1	-0.11694
4220	23.271	4.5455	0.1	-0.12127
4221	23.271	4.3636	0.1	-0.12427
4222	23.271	4.1818	0.1	-0.12638
4223	23.271	4.	0.1	-0.12789
4224	23.271	3.8182	0.1	-0.12897
4225	23.271	3.6364	0.1	-0.12974
4226	23.271	3.4545	0.1	-0.13027
4227	23.271	3.2727	0.1	-0.13061
4228	23.271	3.0909	0.1	-0.13077
4229	23.271	2.9091	0.1	-0.13077
4230	23.271	2.7273	0.1	-0.13061
4231	23.271	2.5455	0.1	-0.13027
4232	23.271	2.3636	0.1	-0.12974
4233	23.271	2.1818	0.1	-0.12897
4234	23.271	2.	0.1	-0.12789
4235	23.271	1.8182	0.1	-0.12638
4236	23.271	1.6364	0.1	-0.12427
4237	23.271	1.4545	0.1	-0.12127
4238	23.271	1.2727	0.1	-0.11695
4239	23.271	1.0909	0.1	-0.11038
4240	23.271	0.90909	0.1	-0.10071
4241	23.271	0.72727	0.1	-8.3016e-002
4242	23.271	0.54545	0.1	-6.1512e-002
4243	23.271	0.36364	0.1	2.5899e-002
4244	23.271	0.18182	0.1	6.5284e-002
4245	23.089	5.8182	0.1	5.3912e-002
4246	23.089	5.6364	0.1	3.4053e-002
4247	23.089	5.4545	0.1	-3.7706e-002
4248	23.089	5.2727	0.1	-5.6644e-002
4249	23.089	5.0909	0.1	-7.248e-002
4250	23.089	4.9091	0.1	-8.1295e-002
4251	23.089	4.7273	0.1	-8.7283e-002
4252	23.089	4.5455	0.1	-9.1201e-002
4253	23.089	4.3636	0.1	-9.3893e-002
4254	23.089	4.1818	0.1	-9.5766e-002
4255	23.089	4.	0.1	-9.7095e-002
4256	23.089	3.8182	0.1	-9.805e-002
4257	23.089	3.6364	0.1	-9.8737e-002
4258	23.089	3.4545	0.1	-9.9216e-002
4259	23.089	3.2727	0.1	-9.9518e-002
4260	23.089	3.0909	0.1	-9.9669e-002
4261	23.089	2.9091	0.1	-9.9668e-002
4262	23.089	2.7273	0.1	-9.952e-002
4263	23.089	2.5455	0.1	-9.9215e-002
4264	23.089	2.3636	0.1	-9.8738e-002
4265	23.089	2.1818	0.1	-9.805e-002
4266	23.089	2.	0.1	-9.7096e-002
4267	23.089	1.8182	0.1	-9.5765e-002
4268	23.089	1.6364	0.1	-9.3893e-002
4269	23.089	1.4545	0.1	-9.1201e-002
4270	23.089	1.2727	0.1	-8.7283e-002
4271	23.089	1.0909	0.1	-8.1297e-002
4272	23.089	0.90909	0.1	-7.2481e-002
4273	23.089	0.72727	0.1	-5.6644e-002
4274	23.089	0.54545	0.1	-3.7706e-002
4275	23.089	0.36364	0.1	3.4058e-002
4276	23.089	0.18182	0.1	5.3915e-002
4277	22.906	5.8182	0.1	4.067e-002
4278	22.906	5.6364	0.1	3.1375e-002
4279	22.906	5.4545	0.1	-2.8756e-002
4280	22.906	5.2727	0.1	-4.5548e-002
4281	22.906	5.0909	0.1	-5.9779e-002
4282	22.906	4.9091	0.1	-6.7914e-002
4283	22.906	4.7273	0.1	-7.3438e-002
4284	22.906	4.5455	0.1	-7.7036e-002
4285	22.906	4.3636	0.1	-7.9473e-002
4286	22.906	4.1818	0.1	-8.1149e-002
4287	22.906	4.	0.1	-8.2329e-002
4288	22.906	3.8182	0.1	-8.3175e-002
4289	22.906	3.6364	0.1	-8.3789e-002
4290	22.906	3.4545	0.1	-8.422e-002
4291	22.906	3.2727	0.1	-8.4502e-002
4292	22.906	3.0909	0.1	-8.464e-002
4293	22.906	2.9091	0.1	-8.464e-002
4294	22.906	2.7273	0.1	-8.4501e-002
4295	22.906	2.5455	0.1	-8.4221e-002
4296	22.906	2.3636	0.1	-8.3788e-002
4297	22.906	2.1818	0.1	-8.3176e-002
4298	22.906	2.	0.1	-8.2328e-002
4299	22.906	1.8182	0.1	-8.1148e-002
4300	22.906	1.6364	0.1	-7.9475e-002
4301	22.906	1.4545	0.1	-7.7036e-002
4302	22.906	1.2727	0.1	-7.3439e-002
4303	22.906	1.0909	0.1	-6.7916e-002
4304	22.906	0.90909	0.1	-5.9776e-002
4305	22.906	0.72727	0.1	-4.555e-002
4306	22.906	0.54545	0.1	-2.8756e-002
4307	22.906	0.36364	0.1	3.1376e-002
4308	22.906	0.18182	0.1	4.0667e-002
4309	22.724	5.8182	0.1	3.13e-002
4310	22.724	5.6364	0.1	2.8314e-002
4311	22.724	5.4545	0.1	-2.227e-002
4312	22.724	5.2727	0.1	-3.7137e-002
4313	22.724	5.0909	0.1	-4.9925e-002
4314	22.724	4.9091	0.1	-5.7413e-002
4315	22.724	4.7273	0.1	-6.2499e-002
4316	22.724	4.5455	0.1	-6.5794e-002
4317	22.724	4.3636	0.1	-6.8002e-002
4318	22.724	4.1818	0.1	-6.9501e-002
4319	22.724	4.	0.1	-7.0553e-002
4320	22.724	3.8182	0.1	-7.1317e-002
4321	22.724	3.6364	0.1	-7.1883e-002
4322	22.724	3.4545	0.1	-7.23e-002
4323	22.724	3.2727	0.1	-7.2579e-002
4324	22.724	3.0909	0.1	-7.2719e-002
4325	22.724	2.9091	0.1	-7.2719e-002
4326	22.724	2.7273	0.1	-7.2578e-002
4327	22.724	2.5455	0.1	-7.2301e-002
4328	22.724	2.3636	0.1	-7.1886e-002
4329	22.724	2.1818	0.1	-7.1316e-002
4330	22.724	2.	0.1	-7.0554e-002
4331	22.724	1.8182	0.1	-6.9501e-002
4332	22.724	1.6364	0.1	-6.8002e-002
4333	22.724	1.4545	0.1	-6.5793e-002
4334	22.724	1.2727	0.1	-6.2498e-002
4335	22.724	1.0909	0.1	-5.7413e-002
4336	22.724	0.90909	0.1	-4.9925e-002
4337	22.724	0.72727	0.1	-3.7136e-002
4338	22.724	0.54545	0.1	-2.2268e-002
4339	22.724	0.36364	0.1	2.8314e-002
4340	22.724	0.18182	0.1	3.1302e-002
4341	22.542	5.8182	0.1	2.3563e-002
4342	22.542	5.6364	0.1	2.3879e-002
4343	22.542	5.4545	0.1	-1.8912e-002
4344	22.542	5.2727	0.1	-3.2132e-002
4345	22.542	5.0909	0.1	-4.3606e-002
4346	22.542	4.9091	0.1	-5.0449e-002
4347	22.542	4.7273	0.1	-5.5083e-002
4348	22.542	4.5455	0.1	-5.8057e-002
4349	22.542	4.3636	0.1	-6.0018e-002
4350	22.542	4.1818	0.1	-6.1332e-002
4351	22.542	4.	0.1	-6.2263e-002
4352	22.542	3.8182	0.1	-6.297e-002
4353	22.542	3.6364	0.1	-6.3535e-002
4354	22.542	3.4545	0.1	-6.398e-002
4355	22.542	3.2727	0.1	-6.43e-002
4356	22.542	3.0909	0.1	-6.4468e-002
4357	22.542	2.9091	0.1	-6.4469e-002
4358	22.542	2.7273	0.1	-6.43e-002
4359	22.542	2.5455	0.1	-6.398e-002
4360	22.542	2.3636	0.1	-6.3532e-002
4361	22.542	2.1818	0.1	-6.297e-002
4362	22.542	2.	0.1	-6.2263e-002
4363	22.542	1.8182	0.1	-6.1332e-002
4364	22.542	1.6364	0.1	-6.0018e-002
4365	22.542	1.4545	0.1	-5.8057e-002
4366	22.542	1.2727	0.1	-5.5084e-002
4367	22.542	1.0909	0.1	-5.0451e-002
4368	22.542	0.90909	0.1	-4.3607e-002
4369	22.542	0.72727	0.1	-3.2132e-002
4370	22.542	0.54545	0.1	-1.8914e-002
4371	22.542	0.36364	0.1	2.3879e-002
4372	22.542	0.18182	0.1	2.3563e-002
4373	22.359	5.8182	0.1	1.744e-002
4374	22.359	5.6364	0.1	1.9148e-002
4375	22.359	5.4545	0.1	-1.7231e-002
4376	22.359	5.2727	0.1	-2.9024e-002
4377	22.359	5.0909	0.1	-3.9284e-002
4378	22.359	4.9091	0.1	-4.546e-002
4379	22.359	4.7273	0.1	-4.9577e-002
4380	22.359	4.5455	0.1	-5.2149e-002
4381	22.359	4.3636	0.1	-5.3778e-002
4382	22.359	4.1818	0.1	-5.4842e-002
4383	22.359	4.	0.1	-5.5621e-002
4384	22.359	3.8182	0.1	-5.629e-002
4385	22.359	3.6364	0.1	-5.6932e-002
4386	22.359	3.4545	0.1	-5.7537e-002
4387	22.359	3.2727	0.1	-5.803e-002
4388	22.359	3.0909	0.1	-5.8312e-002
4389	22.359	2.9091	0.1	-5.8311e-002
4390	22.359	2.7273	0.1	-5.803e-002
4391	22.359	2.5455	0.1	-5.7537e-002
4392	22.359	2.3636	0.1	-5.6933e-002
4393	22.359	2.1818	0.1	-5.6291e-002
4394	22.359	2.	0.1	-5.5621e-002
4395	22.359	1.8182	0.1	-5.4841e-002
4396	22.359	1.6364	0.1	-5.3777e-002
4397	22.359	1.4545	0.1	-5.2151e-002
4398	22.359	1.2727	0.1	-4.9579e-002
4399	22.359	1.0909	0.1	-4.5459e-002
4400	22.359	0.90909	0.1	-3.9283e-002
4401	22.359	0.72727	0.1	-2.9025e-002
4402	22.359	0.54545	0.1	-1.7234e-002
4403	22.359	0.36364	0.1	1.9152e-002
4404	22.359	0.18182	0.1	1.7442e-002
4405	22.177	5.8182	0.1	1.2521e-002
4406	22.177	5.6364	0.1	1.43e-002
4407	22.177	5.4545	0.1	-1.6851e-002
4408	22.177	5.2727	0.1	-2.7394e-002
4409	22.177	5.0909	0.1	-3.6497e-002
4410	22.177	4.9091	0.1	-4.1919e-002
4411	22.177	4.7273	0.1	-4.5348e-002
4412	22.177	4.5455	0.1	-4.7242e-002
4413	22.177	4.3636	0.1	-4.8177e-002
4414	22.177	4.1818	0.1	-4.8561e-002
4415	22.177	4.	0.1	-4.8749e-002
4416	22.177	3.8182	0.1	-4.9052e-002
4417	22.177	3.6364	0.1	-4.9728e-002
4418	22.177	3.4545	0.1	-5.0931e-002
4419	22.177	3.2727	0.1	-5.25e-002
4420	22.177	3.0909	0.1	-5.3732e-002
4421	22.177	2.9091	0.1	-5.3731e-002
4422	22.177	2.7273	0.1	-5.25e-002
4423	22.177	2.5455	0.1	-5.0931e-002
4424	22.177	2.3636	0.1	-4.9728e-002
4425	22.177	2.1818	0.1	-4.9052e-002
4426	22.177	2.	0.1	-4.875e-002
4427	22.177	1.8182	0.1	-4.8561e-002
4428	22.177	1.6364	0.1	-4.8178e-002
4429	22.177	1.4545	0.1	-4.7242e-002
4430	22.177	1.2727	0.1	-4.5349e-002
4431	22.177	1.0909	0.1	-4.192e-002
4432	22.177	0.90909	0.1	-3.6498e-002
4433	22.177	0.72727	0.1	-2.7394e-002
4434	22.177	0.54545	0.1	-1.6854e-002
4435	22.177	0.36364	0.1	1.4303e-002
4436	22.177	0.18182	0.1	1.2524e-002
4437	21.995	5.8182	0.1	8.6364e-003
4438	21.995	5.6364	0.1	9.5914e-003
4439	21.995	5.4545	0.1	-1.7366e-002
4440	21.995	5.2727	0.1	-2.6771e-002
4441	21.995	5.0909	0.1	-3.4676e-002
4442	21.995	4.9091	0.1	-3.9017e-002
4443	21.995	4.7273	0.1	-4.101e-002
4444	21.995	4.5455	0.1	-4.0589e-002
4445	21.995	4.3636	0.1	-3.6716e-002
4446	21.995	4.1818	0.1	-1.9937e-002
4447	21.995	4.	0.1	0.72878
4448	21.995	3.8182	0.1	3.073
4449	21.995	3.6364	0.1	5.1787
4450	21.995	3.4545	0.1	6.8802
4451	21.995	3.2727	0.1	8.074
4452	21.995	3.0909	0.1	8.6891
4453	21.995	2.9091	0.1	8.6891
4454	21.995	2.7273	0.1	8.074
4455	21.995	2.5455	0.1	6.8802
4456	21.995	2.3636	0.1	5.1787
4457	21.995	2.1818	0.1	3.073
4458	21.995	2.	0.1	0.72879
4459	21.995	1.8182	0.1	-1.9938e-002
4460	21.995	1.6364	0.1	-3.6717e-002
4461	21.995	1.4545	0.1	-4.0589e-002
4462	21.995	1.2727	0.1	-4.101e-002
4463	21.995	1.0909	0.1	-3.9017e-002
4464	21.995	0.90909	0.1	-3.4677e-002
4465	21.995	0.72727	0.1	-2.6772e-002
4466	21.995	0.54545	0.1	-1.7365e-002
4467	21.995	0.36364	0.1	9.5938e-003
4468	21.995	0.18182	0.1	8.6369e-003
4469	21.813	5.8182	0.1	5.6494e-003
4470	21.813	5.6364	0.1	5.2365e-003
4471	21.813	5.4545	0.1	-1.8441e-002
4472	21.813	5.2727	0.1	-2.6672e-002
4473	21.813	5.0909	0.1	-3.2921e-002
4474	21.813	4.9091	0.1	-3.4414e-002
4475	21.813	4.7273	0.1	-2.6486e-002
4476	21.813	4.5455	0.1	0.46459
4477	21.813	4.3636	0.1	3.7632
4478	21.813	4.1818	0.1	7.2518
4479	21.813	4.	0.1	10.669
4480	21.813	3.8182	0.1	13.836
4481	21.813	3.6364	0.1	16.592
4482	21.813	3.4545	0.1	18.792
4483	21.813	3.2727	0.1	20.326
4484	21.813	3.0909	0.1	21.112
4485	21.813	2.9091	0.1	21.112
4486	21.813	2.7273	0.1	20.326
4487	21.813	2.5455	0.1	18.792
4488	21.813	2.3636	0.1	16.592
4489	21.813	2.1818	0.1	13.836
4490	21.813	2.	0.1	10.669
4491	21.813	1.8182	0.1	7.2518
4492	21.813	1.6364	0.1	3.7632
4493	21.813	1.4545	0.1	0.46462
4494	21.813	1.2727	0.1	-2.6485e-002
4495	21.813	1.0909	0.1	-3.4415e-002
4496	21.813	0.90909	0.1	-3.292e-002
4497	21.813	0.72727	0.1	-2.6675e-002
4498	21.813	0.54545	0.1	-1.8438e-002
4499	21.813	0.36364	0.1	5.2389e-003
4500	21.813	0.18182	0.1	5.6479e-003
4501	21.63	5.8182	0.1	3.4677e-003
4502	21.63	5.6364	0.1	1.5199e-003
4503	21.63	5.4545	0.1	-1.9574e-002
4504	21.63	5.2727	0.1	-2.6063e-002
4505	21.63	5.0909	0.1	-2.7758e-002
4506	21.63	4.9091	0.1	1.9229e-002
4507	21.63	4.7273	0.1	3.0203
4508	21.63	4.5455	0.1	7.2784
4509	21.63	4.3636	0.1	11.781
4510	21.63	4.1818	0.1	16.326
4511	21.63	4.	0.1	20.707
4512	21.63	3.8182	0.1	24.722
4513	21.63	3.6364	0.1	28.182
4514	21.63	3.4545	0.1	30.928
4515	21.63	3.2727	0.1	32.832
4516	21.63	3.0909	0.1	33.807
4517	21.63	2.9091	0.1	33.807
4518	21.63	2.7273	0.1	32.832
4519	21.63	2.5455	0.1	30.928
4520	21.63	2.3636	0.1	28.182
4521	21.63	2.1818	0.1	24.722
4522	21.63	2.	0.1	20.707
4523	21.63	1.8182	0.1	16.326
4524	21.63	1.6364	0.1	11.781
4525	21.63	1.4545	0.1	7.2784
4526	21.63	1.2727	0.1	3.0203
4527	21.63	1.0909	0.1	1.923e-002
4528	21.63	0.90909	0.1	-2.7758e-002
4529	21.63	0.72727	0.1	-2.6065e-002
4530	21.63	0.54545	0.1	-1.9572e-002
4531	21.63	0.36364	0.1	1.5229e-003
4532	21.63	0.18182	0.1	3.4668e-003
4533	21.448	5.8182	0.1	2.0527e-003
4534	21.448	5.6364	0.1	-1.0935e-003
4535	21.448	5.4545	0.1	-1.9761e-002
4536	21.448	5.2727	0.1	-2.1741e-002
4537	21.448	5.0909	0.1	3.1509e-002
4538	21.448	4.9091	0.1	3.5361
4539	21.448	4.7273	0.1	8.5494
4540	21.448	4.5455	0.1	14.014
4541	21.448	4.3636	0.1	19.706
4542	21.448	4.1818	0.1	25.388
4543	21.448	4.	0.1	30.814
4544	21.448	3.8182	0.1	35.747
4545	21.448	3.6364	0.1	39.974
4546	21.448	3.4545	0.1	43.312
4547	21.448	3.2727	0.1	45.617
4548	21.448	3.0909	0.1	46.795
4549	21.448	2.9091	0.1	46.795
4550	21.448	2.7273	0.1	45.617
4551	21.448	2.5455	0.1	43.312
4552	21.448	2.3636	0.1	39.974
4553	21.448	2.1818	0.1	35.748
4554	21.448	2.	0.1	30.814
4555	21.448	1.8182	0.1	25.388
4556	21.448	1.6364	0.1	19.706
4557	21.448	1.4545	0.1	14.014
4558	21.448	1.2727	0.1	8.5495
4559	21.448	1.0909	0.1	3.5361
4560	21.448	0.90909	0.1	3.151e-002
4561	21.448	0.72727	0.1	-2.1742e-002
4562	21.448	0.54545	0.1	-1.9763e-002
4563	21.448	0.36364	0.1	-1.0926e-003
4564	21.448	0.18182	0.1	2.0547e-003
4565	21.266	5.8182	0.1	1.374e-003
4566	21.266	5.6364	0.1	-1.9531e-003
4567	21.266	5.4545	0.1	-1.7105e-002
4568	21.266	5.2727	0.1	-1.0602e-003
4569	21.266	5.0909	0.1	2.0947
4570	21.266	4.9091	0.1	7.586
4571	21.266	4.7273	0.1	13.831
4572	21.266	4.5455	0.1	20.574
4573	21.266	4.3636	0.1	27.543
4574	21.266	4.1818	0.1	34.45
4575	21.266	4.	0.1	41.005
4576	21.266	3.8182	0.1	46.931
4577	21.266	3.6364	0.1	51.981
4578	21.266	3.4545	0.1	55.952
4579	21.266	3.2727	0.1	58.686
4580	21.266	3.0909	0.1	60.079
4581	21.266	2.9091	0.1	60.079
4582	21.266	2.7273	0.1	58.686
4583	21.266	2.5455	0.1	55.952
4584	21.266	2.3636	0.1	51.981
4585	21.266	2.1818	0.1	46.931
4586	21.266	2.	0.1	41.005
4587	21.266	1.8182	0.1	34.45
4588	21.266	1.6364	0.1	27.543
4589	21.266	1.4545	0.1	20.574
4590	21.266	1.2727	0.1	13.831
4591	21.266	1.0909	0.1	7.586
4592	21.266	0.90909	0.1	2.0948
4593	21.266	0.72727	0.1	-1.0618e-003
4594	21.266	0.54545	0.1	-1.7106e-002
4595	21.266	0.36364	0.1	-1.9508e-003
4596	21.266	0.18182	0.1	1.3751e-003
4597	21.083	5.8182	0.1	1.3733e-003
4598	21.083	5.6364	0.1	-2.6244e-004
4599	21.083	5.4545	0.1	-8.593e-003
4600	21.083	5.2727	0.1	0.10621
4601	21.083	5.0909	0.1	4.6342
4602	21.083	4.9091	0.1	11.308
4603	21.083	4.7273	0.1	18.849
4604	21.083	4.5455	0.1	26.954
4605	21.083	4.3636	0.1	35.294
4606	21.083	4.1818	0.1	43.52
4607	21.083	4.	0.1	51.288
4608	21.083	3.8182	0.1	58.274
4609	21.083	3.6364	0.1	64.199
4610	21.083	3.4545	0.1	68.836
4611	21.083	3.2727	0.1	72.018
4612	21.083	3.0909	0.1	73.636
4613	21.083	2.9091	0.1	73.636
4614	21.083	2.7273	0.1	72.018
4615	21.083	2.5455	0.1	68.836
4616	21.083	2.3636	0.1	64.199
4617	21.083	2.1818	0.1	58.274
4618	21.083	2.	0.1	51.288
4619	21.083	1.8182	0.1	43.52
4620	21.083	1.6364	0.1	35.294
4621	21.083	1.4545	0.1	26.954
4622	21.083	1.2727	0.1	18.849
4623	21.083	1.0909	0.1	11.308
4624	21.083	0.90909	0.1	4.6343
4625	21.083	0.72727	0.1	0.1062
4626	21.083	0.54545	0.1	-8.5915e-003
4627	21.083	0.36364	0.1	-2.6039e-004
4628	21.083	0.18182	0.1	1.3741e-003
4629	20.901	5.8182	0.1	1.9875e-003
4630	20.901	5.6364	0.1	4.7809e-003
4631	20.901	5.4545	0.1	9.1195e-003
4632	20.901	5.2727	0.1	0.5868
4633	20.901	5.0909	0.1	6.7854
4634	20.901	4.9091	0.1	14.675
4635	20.901	4.7273	0.1	23.583
4636	20.901	4.5455	0.1	33.142
4637	20.901	4.3636	0.1	42.952
4638	20.901	4.1818	0.1	52.591
4639	20.901	4.	0.1	61.652
4640	20.901	3.8182	0.1	69.758
4641	20.901	3.6364	0.1	76.595
4642	20.901	3.4545	0.1	81.917
4643	20.901	3.2727	0.1	85.553
4644	20.901	3.0909	0.1	87.395
4645	20.901	2.9091	0.1	87.395
4646	20.901	2.7273	0.1	85.553
4647	20.901	2.5455	0.1	81.917
4648	20.901	2.3636	0.1	76.595
4649	20.901	2.1818	0.1	69.758
4650	20.901	2.	0.1	61.652
4651	20.901	1.8182	0.1	52.591
4652	20.901	1.6364	0.1	42.952
4653	20.901	1.4545	0.1	33.142
4654	20.901	1.2727	0.1	23.583
4655	20.901	1.0909	0.1	14.675
4656	20.901	0.90909	0.1	6.7854
4657	20.901	0.72727	0.1	0.58682
4658	20.901	0.54545	0.1	9.1194e-003
4659	20.901	0.36364	0.1	4.7831e-003
4660	20.901	0.18182	0.1	1.9899e-003
4661	20.719	5.8182	0.1	3.1367e-003
4662	20.719	5.6364	0.1	1.3761e-002
4663	20.719	5.4545	0.1	3.736e-002
4664	20.719	5.2727	0.1	1.2112
4665	20.719	5.0909	0.1	8.5078
4666	20.719	4.9091	0.1	17.654
4667	20.719	4.7273	0.1	28.004
4668	20.719	4.5455	0.1	39.111
4669	20.719	4.3636	0.1	50.49
4670	20.719	4.1818	0.1	61.637
4671	20.719	4.	0.1	72.063
4672	20.719	3.8182	0.1	81.333
4673	20.719	3.6364	0.1	89.095
4674	20.719	3.4545	0.1	95.095
4675	20.719	3.2727	0.1	99.169
4676	20.719	3.0909	0.1	101.22
4677	20.719	2.9091	0.1	101.22
4678	20.719	2.7273	0.1	99.169
4679	20.719	2.5455	0.1	95.095
4680	20.719	2.3636	0.1	89.095
4681	20.719	2.1818	0.1	81.333
4682	20.719	2.	0.1	72.063
4683	20.719	1.8182	0.1	61.637
4684	20.719	1.6364	0.1	50.49
4685	20.719	1.4545	0.1	39.111
4686	20.719	1.2727	0.1	28.004
4687	20.719	1.0909	0.1	17.654
4688	20.719	0.90909	0.1	8.5079
4689	20.719	0.72727	0.1	1.2112
4690	20.719	0.54545	0.1	3.736e-002
4691	20.719	0.36364	0.1	1.3762e-002
4692	20.719	0.18182	0.1	3.1374e-003
4693	20.536	5.8182	0.1	4.7813e-003
4694	20.536	5.6364	0.1	2.7002e-002
4695	20.536	5.4545	0.1	7.4173e-002
4696	20.536	5.2727	0.1	1.5485
4697	20.536	5.0909	0.1	9.7669
4698	20.536	4.9091	0.1	20.202
4699	20.536	4.7273	0.1	32.06
4700	20.536	4.5455	0.1	44.806
4701	20.536	4.3636	0.1	57.857
4702	20.536	4.1818	0.1	70.6
4703	20.536	4.	0.1	82.451
4704	20.536	3.8182	0.1	92.902
4705	20.536	3.6364	0.1	101.57
4706	20.536	3.4545	0.1	108.2
4707	20.536	3.2727	0.1	112.66
4708	20.536	3.0909	0.1	114.9
4709	20.536	2.9091	0.1	114.9
4710	20.536	2.7273	0.1	112.66
4711	20.536	2.5455	0.1	108.2
4712	20.536	2.3636	0.1	101.57
4713	20.536	2.1818	0.1	92.902
4714	20.536	2.	0.1	82.451
4715	20.536	1.8182	0.1	70.6
4716	20.536	1.6364	0.1	57.857
4717	20.536	1.4545	0.1	44.806
4718	20.536	1.2727	0.1	32.06
4719	20.536	1.0909	0.1	20.202
4720	20.536	0.90909	0.1	9.767
4721	20.536	0.72727	0.1	1.5485
4722	20.536	0.54545	0.1	7.4172e-002
4723	20.536	0.36364	0.1	2.7004e-002
4724	20.536	0.18182	0.1	4.7832e-003
4725	20.354	5.8182	0.1	6.9946e-003
4726	20.354	5.6364	0.1	4.4747e-002
4727	20.354	5.4545	0.1	0.11675
4728	20.354	5.2727	0.1	1.5797
4729	20.354	5.0909	0.1	10.523
4730	20.354	4.9091	0.1	22.248
4731	20.354	4.7273	0.1	35.663
4732	20.354	4.5455	0.1	50.132
4733	20.354	4.3636	0.1	64.951
4734	20.354	4.1818	0.1	79.375
4735	20.354	4.	0.1	92.691
4736	20.354	3.8182	0.1	104.3
4737	20.354	3.6364	0.1	113.79
4738	20.354	3.4545	0.1	120.94
4739	20.354	3.2727	0.1	125.68
4740	20.354	3.0909	0.1	128.04
4741	20.354	2.9091	0.1	128.04
4742	20.354	2.7273	0.1	125.68
4743	20.354	2.5455	0.1	120.94
4744	20.354	2.3636	0.1	113.79
4745	20.354	2.1818	0.1	104.3
4746	20.354	2.	0.1	92.691
4747	20.354	1.8182	0.1	79.375
4748	20.354	1.6364	0.1	64.951
4749	20.354	1.4545	0.1	50.132
4750	20.354	1.2727	0.1	35.663
4751	20.354	1.0909	0.1	22.248
4752	20.354	0.90909	0.1	10.523
4753	20.354	0.72727	0.1	1.5797
4754	20.354	0.54545	0.1	0.11675
4755	20.354	0.36364	0.1	4.4748e-002
4756	20.354	0.18182	0.1	6.9948e-003
4757	20.172	5.8182	0.1	1.0097e-002
4758	20.172	5.6364	0.1	6.7547e-002
4759	20.172	5.4545	0.1	0.16477
4760	20.172	5.2727	0.1	1.4311
4761	20.172	5.0909	0.1	10.723
4762	20.172	4.9091	0.1	23.681
4763	20.172	4.7273	0.1	38.66
4764	20.172	4.5455	0.1	54.912
4765	20.172	4.3636	0.1	71.591
4766	20.172	4.1818	0.1	87.774
4767	20.172	4.	0.1	102.57
4768	20.172	3.8182	0.1	115.27
4769	20.172	3.6364	0.1	125.43
4770	20.172	3.4545	0.1	132.89
4771	20.172	3.2727	0.1	137.72
4772	20.172	3.0909	0.1	140.08
4773	20.172	2.9091	0.1	140.08
4774	20.172	2.7273	0.1	137.72
4775	20.172	2.5455	0.1	132.89
4776	20.172	2.3636	0.1	125.43
4777	20.172	2.1818	0.1	115.27
4778	20.172	2.	0.1	102.57
4779	20.172	1.8182	0.1	87.774
4780	20.172	1.6364	0.1	71.591
4781	20.172	1.4545	0.1	54.912
4782	20.172	1.2727	0.1	38.66
4783	20.172	1.0909	0.1	23.681
4784	20.172	0.90909	0.1	10.723
4785	20.172	0.72727	0.1	1.4311
4786	20.172	0.54545	0.1	0.16477
4787	20.172	0.36364	0.1	6.7548e-002
4788	20.172	0.18182	0.1	1.0094e-002
4789	19.99	5.8182	0.1	1.5052e-002
4790	19.99	5.6364	0.1	9.6798e-002
4791	19.99	5.4545	0.1	0.22141
4792	19.99	5.2727	0.1	1.2695
4793	19.99	5.0909	0.1	10.292
4794	19.99	4.9091	0.1	24.306
4795	19.99	4.7273	0.1	40.775
4796	19.99	4.5455	0.1	58.83
4797	19.99	4.3636	0.1	77.455
4798	19.99	4.1818	0.1	95.481
4799	19.99	4.	0.1	111.76
4800	19.99	3.8182	0.1	125.41
4801	19.99	3.6364	0.1	135.95
4802	19.99	3.4545	0.1	143.37
4803	19.99	3.2727	0.1	147.97
4804	19.99	3.0909	0.1	150.14
4805	19.99	2.9091	0.1	150.14
4806	19.99	2.7273	0.1	147.97
4807	19.99	2.5455	0.1	143.37
4808	19.99	2.3636	0.1	135.95
4809	19.99	2.1818	0.1	125.41
4810	19.99	2.	0.1	111.76
4811	19.99	1.8182	0.1	95.481
4812	19.99	1.6364	0.1	77.455
4813	19.99	1.4545	0.1	58.83
4814	19.99	1.2727	0.1	40.775
4815	19.99	1.0909	0.1	24.306
4816	19.99	0.90909	0.1	10.293
4817	19.99	0.72727	0.1	1.2695
4818	19.99	0.54545	0.1	0.22142
4819	19.99	0.36364	0.1	9.68e-002
4820	19.99	0.18182	0.1	1.5051e-002
4821	19.807	5.8182	0.1	2.4129e-002
4822	19.807	5.6364	0.1	0.1354
4823	19.807	5.4545	0.1	0.29303
4824	19.807	5.2727	0.1	1.1824
4825	19.807	5.0909	0.1	9.1284
4826	19.807	4.9091	0.1	23.786
4827	19.807	4.7273	0.1	41.521
4828	19.807	4.5455	0.1	61.324
4829	19.807	4.3636	0.1	81.979
4830	19.807	4.1818	0.1	101.96
4831	19.807	4.	0.1	119.72
4832	19.807	3.8182	0.1	134.08
4833	19.807	3.6364	0.1	144.55
4834	19.807	3.4545	0.1	151.37
4835	19.807	3.2727	0.1	155.23
4836	19.807	3.0909	0.1	156.92
4837	19.807	2.9091	0.1	156.92
4838	19.807	2.7273	0.1	155.23
4839	19.807	2.5455	0.1	151.37
4840	19.807	2.3636	0.1	144.55
4841	19.807	2.1818	0.1	134.08
4842	19.807	2.	0.1	119.72
4843	19.807	1.8182	0.1	101.96
4844	19.807	1.6364	0.1	81.979
4845	19.807	1.4545	0.1	61.324
4846	19.807	1.2727	0.1	41.521
4847	19.807	1.0909	0.1	23.787
4848	19.807	0.90909	0.1	9.1285
4849	19.807	0.72727	0.1	1.1825
4850	19.807	0.54545	0.1	0.29303
4851	19.807	0.36364	0.1	0.1354
4852	19.807	0.18182	0.1	2.4129e-002
4853	19.625	5.8182	0.1	4.2089e-002
4854	19.625	5.6364	0.1	0.18892
4855	19.625	5.4545	0.1	0.38931
4856	19.625	5.2727	0.1	1.175
4857	19.625	5.0909	0.1	7.1555
4858	19.625	4.9091	0.1	21.55
4859	19.625	4.7273	0.1	40.042
4860	19.625	4.5455	0.1	61.4
4861	19.625	4.3636	0.1	84.176
4862	19.625	4.1818	0.1	106.32
4863	19.625	4.	0.1	125.61
4864	19.625	3.8182	0.1	140.37
4865	19.625	3.6364	0.1	150.08
4866	19.625	3.4545	0.1	155.4
4867	19.625	3.2727	0.1	157.73
4868	19.625	3.0909	0.1	158.47
4869	19.625	2.9091	0.1	158.47
4870	19.625	2.7273	0.1	157.73
4871	19.625	2.5455	0.1	155.4
4872	19.625	2.3636	0.1	150.08
4873	19.625	2.1818	0.1	140.37
4874	19.625	2.	0.1	125.61
4875	19.625	1.8182	0.1	106.32
4876	19.625	1.6364	0.1	84.177
4877	19.625	1.4545	0.1	61.4
4878	19.625	1.2727	0.1	40.042
4879	19.625	1.0909	0.1	21.55
4880	19.625	0.90909	0.1	7.1555
4881	19.625	0.72727	0.1	1.175
4882	19.625	0.54545	0.1	0.38931
4883	19.625	0.36364	0.1	0.18892
4884	19.625	0.18182	0.1	4.209e-002
4885	19.443	5.8182	0.1	7.9687e-002
4886	19.443	5.6364	0.1	0.2693
4887	19.443	5.4545	0.1	0.52584
4888	19.443	5.2727	0.1	1.2305
4889	19.443	5.0909	0.1	4.6905
4890	19.443	4.9091	0.1	16.73
4891	19.443	4.7273	0.1	34.892
4892	19.443	4.5455	0.1	57.329
4893	19.443	4.3636	0.1	82.343
4894	19.443	4.1818	0.1	107.08
4895	19.443	4.	0.1	128.13
4896	19.443	3.8182	0.1	142.89
4897	19.443	3.6364	0.1	150.77
4898	19.443	3.4545	0.1	153.25
4899	19.443	3.2727	0.1	152.88
4900	19.443	3.0909	0.1	152.02
4901	19.443	2.9091	0.1	152.02
4902	19.443	2.7273	0.1	152.88
4903	19.443	2.5455	0.1	153.25
4904	19.443	2.3636	0.1	150.77
4905	19.443	2.1818	0.1	142.89
4906	19.443	2.	0.1	128.13
4907	19.443	1.8182	0.1	107.08
4908	19.443	1.6364	0.1	82.343
4909	19.443	1.4545	0.1	57.329
4910	19.443	1.2727	0.1	34.892
4911	19.443	1.0909	0.1	16.73
4912	19.443	0.90909	0.1	4.6906
4913	19.443	0.72727	0.1	1.2305
4914	19.443	0.54545	0.1	0.52584
4915	19.443	0.36364	0.1	0.2693
4916	19.443	0.18182	0.1	7.9689e-002
4917	19.26	5.8182	0.1	0.15705
4918	19.26	5.6364	0.1	0.39946
4919	19.26	5.4545	0.1	0.72387
4920	19.26	5.2727	0.1	1.3287
4921	19.26	5.0909	0.1	2.8709
4922	19.26	4.9091	0.1	8.9052
4923	19.26	4.7273	0.1	23.882
4924	19.26	4.5455	0.1	46.189
4925	19.26	4.3636	0.1	73.497
4926	19.26	4.1818	0.1	101.71
4927	19.26	4.	0.1	125.18
4928	19.26	3.8182	0.1	139.52
4929	19.26	3.6364	0.1	144.04
4930	19.26	3.4545	0.1	141.71
4931	19.26	3.2727	0.1	137.02
4932	19.26	3.0909	0.1	133.69
4933	19.26	2.9091	0.1	133.69
4934	19.26	2.7273	0.1	137.02
4935	19.26	2.5455	0.1	141.71
4936	19.26	2.3636	0.1	144.04
4937	19.26	2.1818	0.1	139.52
4938	19.26	2.	0.1	125.18
4939	19.26	1.8182	0.1	101.71
4940	19.26	1.6364	0.1	73.497
4941	19.26	1.4545	0.1	46.189
4942	19.26	1.2727	0.1	23.882
4943	19.26	1.0909	0.1	8.9053
4944	19.26	0.90909	0.1	2.8709
4945	19.26	0.72727	0.1	1.3287
4946	19.26	0.54545	0.1	0.72387
4947	19.26	0.36364	0.1	0.39947
4948	19.26	0.18182	0.1	0.15705
4949	19.078	5.8182	0.1	0.32665
4950	19.078	5.6364	0.1	0.63906
4951	19.078	5.4545	0.1	1.0205
4952	19.078	5.2727	0.1	1.4532
4953	19.078	5.0909	0.1	2.0501
4954	19.078	4.9091	0.1	3.2875
4955	19.078	4.7273	0.1	7.7105
4956	19.078	4.5455	0.1	23.915
4957	19.078	4.3636	0.1	52.653
4958	19.078	4.1818	0.1	85.903
4959	19.078	4.	0.1	113.57
4960	19.078	3.8182	0.1	127.22
4961	19.078	3.6364	0.1	126.01
4962	19.078	3.4545	0.1	116.12
4963	19.078	3.2727	0.1	105.17
4964	19.078	3.0909	0.1	98.526
4965	19.078	2.9091	0.1	98.526
4966	19.078	2.7273	0.1	105.17
4967	19.078	2.5455	0.1	116.12
4968	19.078	2.3636	0.1	126.01
4969	19.078	2.1818	0.1	127.22
4970	19.078	2.	0.1	113.57
4971	19.078	1.8182	0.1	85.903
4972	19.078	1.6364	0.1	52.653
4973	19.078	1.4545	0.1	23.915
4974	19.078	1.2727	0.1	7.7106
4975	19.078	1.0909	0.1	3.2876
4976	19.078	0.90909	0.1	2.0501
4977	19.078	0.72727	0.1	1.4532
4978	19.078	0.54545	0.1	1.0205
4979	19.078	0.36364	0.1	0.63906
4980	19.078	0.18182	0.1	0.32666
4981	18.896	5.8182	0.1	0.66258
4982	18.896	5.6364	0.1	1.072
4983	18.896	5.4545	0.1	1.3992
4984	18.896	5.2727	0.1	1.5348
4985	18.896	5.0909	0.1	1.6688
4986	18.896	4.9091	0.1	1.9276
4987	18.896	4.7273	0.1	2.5569
4988	18.896	4.5455	0.1	4.3771
4989	18.896	4.3636	0.1	14.986
4990	18.896	4.1818	0.1	51.776
4991	18.896	4.	0.1	87.229
4992	18.896	3.8182	0.1	100.58
4993	18.896	3.6364	0.1	90.692
4994	18.896	3.4545	0.1	69.971
4995	18.896	3.2727	0.1	51.42
4996	18.896	3.0909	0.1	41.232
4997	18.896	2.9091	0.1	41.232
4998	18.896	2.7273	0.1	51.42
4999	18.896	2.5455	0.1	69.971
5000	18.896	2.3636	0.1	90.692
5001	18.896	2.1818	0.1	100.58
5002	18.896	2.	0.1	87.229
5003	18.896	1.8182	0.1	51.777
5004	18.896	1.6364	0.1	14.986
5005	18.896	1.4545	0.1	4.3772
5006	18.896	1.2727	0.1	2.5569
5007	18.896	1.0909	0.1	1.9276
5008	18.896	0.90909	0.1	1.6689
5009	18.896	0.72727	0.1	1.5348
5010	18.896	0.54545	0.1	1.3992
5011	18.896	0.36364	0.1	1.072
5012	18.896	0.18182	0.1	0.66258
5013	18.714	5.8182	0.1	1.5147
5014	18.714	5.6364	0.1	1.9719
5015	18.714	5.4545	0.1	1.8823
5016	18.714	5.2727	0.1	1.6517
5017	18.714	5.0909	0.1	1.5826
5018	18.714	4.9091	0.1	1.7361
5019	18.714	4.7273	0.1	2.0352
5020	18.714	4.5455	0.1	2.5125
5021	18.714	4.3636	0.1	5.3412
5022	18.714	4.1818	0.1	8.0861
5023	18.714	4.	0.1	37.032
5024	18.714	3.8182	0.1	52.773
5025	18.714	3.6364	0.1	30.055
5026	18.714	3.4545	0.1	5.1981
5027	18.714	3.2727	0.1	0.298
5028	18.714	3.0909	0.1	-0.34397
5029	18.714	2.9091	0.1	-0.34397
5030	18.714	2.7273	0.1	0.298
5031	18.714	2.5455	0.1	5.1982
5032	18.714	2.3636	0.1	30.056
5033	18.714	2.1818	0.1	52.773
5034	18.714	2.	0.1	37.032
5035	18.714	1.8182	0.1	8.0862
5036	18.714	1.6364	0.1	5.3412
5037	18.714	1.4545	0.1	2.5125
5038	18.714	1.2727	0.1	2.0352
5039	18.714	1.0909	0.1	1.7361
5040	18.714	0.90909	0.1	1.5826
5041	18.714	0.72727	0.1	1.6517
5042	18.714	0.54545	0.1	1.8823
5043	18.714	0.36364	0.1	1.9719
5044	18.714	0.18182	0.1	1.5147
5045	18.531	5.8182	0.1	2.8902
5046	18.531	5.6364	0.1	2.6022
5047	18.531	5.4545	0.1	1.6753
5048	18.531	5.2727	0.1	1.1284
5049	18.531	5.0909	0.1	0.95263
5050	18.531	4.9091	0.1	0.89897
5051	18.531	4.7273	0.1	1.1109
5052	18.531	4.5455	0.1	1.7572
5053	18.531	4.3636	0.1	1.4161
5054	18.531	4.1818	0.1	0.15009
5055	18.531	4.	0.1	-25.902
5056	18.531	3.8182	0.1	-5.6607
5057	18.531	3.6364	0.1	6.3748
5058	18.531	3.4545	0.1	0.57872
5059	18.531	3.2727	0.1	0.11854
5060	18.531	3.0909	0.1	-4.0669e-002
5061	18.531	2.9091	0.1	-4.0669e-002
5062	18.531	2.7273	0.1	0.11854
5063	18.531	2.5455	0.1	0.57872
5064	18.531	2.3636	0.1	6.3748
5065	18.531	2.1818	0.1	-5.6607
5066	18.531	2.	0.1	-25.902
5067	18.531	1.8182	0.1	0.1501
5068	18.531	1.6364	0.1	1.4161
5069	18.531	1.4545	0.1	1.7572
5070	18.531	1.2727	0.1	1.111
5071	18.531	1.0909	0.1	0.89898
5072	18.531	0.90909	0.1	0.95263
5073	18.531	0.72727	0.1	1.1284
5074	18.531	0.54545	0.1	1.6753
5075	18.531	0.36364	0.1	2.6022
5076	18.531	0.18182	0.1	2.8902
5077	18.349	5.8182	0.1	7.1799
5078	18.349	5.6364	0.1	3.7376
5079	18.349	5.4545	0.1	2.8484
5080	18.349	5.2727	0.1	2.5489
5081	18.349	5.0909	0.1	2.5945
5082	18.349	4.9091	0.1	3.2478
5083	18.349	4.7273	0.1	3.1061
5084	18.349	4.5455	0.1	8.3337
5085	18.349	4.3636	0.1	-0.78136
5086	18.349	4.1818	0.1	53.037
5087	18.349	4.	0.1	173.75
5088	18.349	3.8182	0.1	22.862
5089	18.349	3.6364	0.1	6.7169
5090	18.349	3.4545	0.1	-1.2514
5091	18.349	3.2727	0.1	0.98414
5092	18.349	3.0909	0.1	6.3065e-002
5093	18.349	2.9091	0.1	6.3065e-002
5094	18.349	2.7273	0.1	0.98414
5095	18.349	2.5455	0.1	-1.2514
5096	18.349	2.3636	0.1	6.7169
5097	18.349	2.1818	0.1	22.862
5098	18.349	2.	0.1	173.75
5099	18.349	1.8182	0.1	53.037
5100	18.349	1.6364	0.1	-0.78135
5101	18.349	1.4545	0.1	8.3337
5102	18.349	1.2727	0.1	3.1061
5103	18.349	1.0909	0.1	3.2478
5104	18.349	0.90909	0.1	2.5945
5105	18.349	0.72727	0.1	2.5489
5106	18.349	0.54545	0.1	2.8484
5107	18.349	0.36364	0.1	3.7376
5108	18.349	0.18182	0.1	7.1799
5109	0.18367	0.18182	0.1	0.48365
5110	0.18367	0.36364	0.1	822.15
5111	0.18367	0.54545	0.1	1257.9
5112	0.18367	0.72727	0.1	1507.4
5113	0.18367	0.90909	0.1	1664.6
5114	0.18367	1.0909	0.1	1773.
5115	0.18367	1.2727	0.1	1851.7
5116	0.18367	1.4545	0.1	1910.8
5117	0.18367	1.6364	0.1	1955.9
5118	0.18367	1.8182	0.1	1990.8
5119	0.18367	2.	0.1	2017.8
5120	0.18367	2.1818	0.1	2038.5
5121	0.18367	2.3636	0.1	2054.
5122	0.18367	2.5455	0.1	2065.
5123	0.18367	2.7273	0.1	2072.1
5124	0.18367	2.9091	0.1	2075.6
5125	0.18367	3.0909	0.1	2075.6
5126	0.18367	3.2727	0.1	2072.1
5127	0.18367	3.4545	0.1	2065.
5128	0.18367	3.6364	0.1	2054.
5129	0.18367	3.8182	0.1	2038.5
5130	0.18367	4.	0.1	2017.8
5131	0.18367	4.1818	0.1	1990.8
5132	0.18367	4.3636	0.1	1955.9
5133	0.18367	4.5455	0.1	1910.7
5134	0.18367	4.7273	0.1	1851.7
5135	0.18367	4.9091	0.1	1773.
5136	0.18367	5.0909	0.1	1664.6
5137	0.18367	5.2727	0.1	1507.4
5138	0.18367	5.4545	0.1	1257.9
5139	0.18367	5.6364	0.1	822.15
5140	0.18367	5.8182	0.1	0.48346
5141	0.36735	0.18182	0.1	81.835
5142	0.36735	0.36364	0.1	661.1
5143	0.36735	0.54545	0.1	1220.1
5144	0.36735	0.72727	0.1	1593.
5145	0.36735	0.90909	0.1	1840.7
5146	0.36735	1.0909	0.1	2010.4
5147	0.36735	1.2727	0.1	2131.7
5148	0.36735	1.4545	0.1	2221.2
5149	0.36735	1.6364	0.1	2288.7
5150	0.36735	1.8182	0.1	2340.4
5151	0.36735	2.	0.1	2380.1
5152	0.36735	2.1818	0.1	2410.3
5153	0.36735	2.3636	0.1	2432.8
5154	0.36735	2.5455	0.1	2448.8
5155	0.36735	2.7273	0.1	2459.1
5156	0.36735	2.9091	0.1	2464.1
5157	0.36735	3.0909	0.1	2464.1
5158	0.36735	3.2727	0.1	2459.1
5159	0.36735	3.4545	0.1	2448.8
5160	0.36735	3.6364	0.1	2432.8
5161	0.36735	3.8182	0.1	2410.3
5162	0.36735	4.	0.1	2380.1
5163	0.36735	4.1818	0.1	2340.4
5164	0.36735	4.3636	0.1	2288.7
5165	0.36735	4.5455	0.1	2221.2
5166	0.36735	4.7273	0.1	2131.7
5167	0.36735	4.9091	0.1	2010.4
5168	0.36735	5.0909	0.1	1840.7
5169	0.36735	5.2727	0.1	1593.
5170	0.36735	5.4545	0.1	1220.1
5171	0.36735	5.6364	0.1	661.1
5172	0.36735	5.8182	0.1	81.835
5173	0.55102	0.18182	0.1	0.81275
5174	0.55102	0.36364	0.1	413.11
5175	0.55102	0.54545	0.1	861.75
5176	0.55102	0.72727	0.1	1224.9
5177	0.55102	0.90909	0.1	1495.8
5178	0.55102	1.0909	0.1	1693.5
5179	0.55102	1.2727	0.1	1838.5
5180	0.55102	1.4545	0.1	1946.5
5181	0.55102	1.6364	0.1	2028.1
5182	0.55102	1.8182	0.1	2090.4
5183	0.55102	2.	0.1	2138.
5184	0.55102	2.1818	0.1	2174.1
5185	0.55102	2.3636	0.1	2201.
5186	0.55102	2.5455	0.1	2220.
5187	0.55102	2.7273	0.1	2232.2
5188	0.55102	2.9091	0.1	2238.2
5189	0.55102	3.0909	0.1	2238.2
5190	0.55102	3.2727	0.1	2232.2
5191	0.55102	3.4545	0.1	2220.
5192	0.55102	3.6364	0.1	2201.
5193	0.55102	3.8182	0.1	2174.1
5194	0.55102	4.	0.1	2138.
5195	0.55102	4.1818	0.1	2090.4
5196	0.55102	4.3636	0.1	2028.1
5197	0.55102	4.5455	0.1	1946.5
5198	0.55102	4.7273	0.1	1838.5
5199	0.55102	4.9091	0.1	1693.5
5200	0.55102	5.0909	0.1	1495.8
5201	0.55102	5.2727	0.1	1224.9
5202	0.55102	5.4545	0.1	861.75
5203	0.55102	5.6364	0.1	413.11
5204	0.55102	5.8182	0.1	0.81273
5205	0.73469	0.18182	0.1	18.457
5206	0.73469	0.36364	0.1	338.38
5207	0.73469	0.54545	0.1	708.36
5208	0.73469	0.72727	0.1	1038.8
5209	0.73469	0.90909	0.1	1310.3
5210	0.73469	1.0909	0.1	1523.4
5211	0.73469	1.2727	0.1	1687.6
5212	0.73469	1.4545	0.1	1813.5
5213	0.73469	1.6364	0.1	1910.4
5214	0.73469	1.8182	0.1	1985.
5215	0.73469	2.	0.1	2042.3
5216	0.73469	2.1818	0.1	2085.9
5217	0.73469	2.3636	0.1	2118.4
5218	0.73469	2.5455	0.1	2141.4
5219	0.73469	2.7273	0.1	2156.1
5220	0.73469	2.9091	0.1	2163.3
5221	0.73469	3.0909	0.1	2163.3
5222	0.73469	3.2727	0.1	2156.1
5223	0.73469	3.4545	0.1	2141.4
5224	0.73469	3.6364	0.1	2118.4
5225	0.73469	3.8182	0.1	2085.9
5226	0.73469	4.	0.1	2042.3
5227	0.73469	4.1818	0.1	1985.
5228	0.73469	4.3636	0.1	1910.4
5229	0.73469	4.5455	0.1	1813.5
5230	0.73469	4.7273	0.1	1687.6
5231	0.73469	4.9091	0.1	1523.4
5232	0.73469	5.0909	0.1	1310.3
5233	0.73469	5.2727	0.1	1038.8
5234	0.73469	5.4545	0.1	708.36
5235	0.73469	5.6364	0.1	338.38
5236	0.73469	5.8182	0.1	18.457
5237	0.91837	0.18182	0.1	14.363
5238	0.91837	0.36364	0.1	284.57
5239	0.91837	0.54545	0.1	589.85
5240	0.91837	0.72727	0.1	877.98
5241	0.91837	0.90909	0.1	1131.1
5242	0.91837	1.0909	0.1	1342.3
5243	0.91837	1.2727	0.1	1513.3
5244	0.91837	1.4545	0.1	1649.5
5245	0.91837	1.6364	0.1	1756.9
5246	0.91837	1.8182	0.1	1841.2
5247	0.91837	2.	0.1	1906.7
5248	0.91837	2.1818	0.1	1957.
5249	0.91837	2.3636	0.1	1994.6
5250	0.91837	2.5455	0.1	2021.3
5251	0.91837	2.7273	0.1	2038.5
5252	0.91837	2.9091	0.1	2046.9
5253	0.91837	3.0909	0.1	2046.9
5254	0.91837	3.2727	0.1	2038.5
5255	0.91837	3.4545	0.1	2021.3
5256	0.91837	3.6364	0.1	1994.6
5257	0.91837	3.8182	0.1	1957.
5258	0.91837	4.	0.1	1906.7
5259	0.91837	4.1818	0.1	1841.2
5260	0.91837	4.3636	0.1	1756.9
5261	0.91837	4.5455	0.1	1649.5
5262	0.91837	4.7273	0.1	1513.3
5263	0.91837	4.9091	0.1	1342.3
5264	0.91837	5.0909	0.1	1131.1
5265	0.91837	5.2727	0.1	877.98
5266	0.91837	5.4545	0.1	589.85
5267	0.91837	5.6364	0.1	284.57
5268	0.91837	5.8182	0.1	14.363
5269	1.102	0.18182	0.1	17.521
5270	1.102	0.36364	0.1	254.59
5271	1.102	0.54545	0.1	513.58
5272	1.102	0.72727	0.1	764.76
5273	1.102	0.90909	0.1	994.91
5274	1.102	1.0909	0.1	1195.9
5275	1.102	1.2727	0.1	1365.6
5276	1.102	1.4545	0.1	1505.5
5277	1.102	1.6364	0.1	1619.
5278	1.102	1.8182	0.1	1710.
5279	1.102	2.	0.1	1781.9
5280	1.102	2.1818	0.1	1837.7
5281	1.102	2.3636	0.1	1879.8
5282	1.102	2.5455	0.1	1909.9
5283	1.102	2.7273	0.1	1929.3
5284	1.102	2.9091	0.1	1938.8
5285	1.102	3.0909	0.1	1938.8
5286	1.102	3.2727	0.1	1929.3
5287	1.102	3.4545	0.1	1909.9
5288	1.102	3.6364	0.1	1879.8
5289	1.102	3.8182	0.1	1837.7
5290	1.102	4.	0.1	1781.9
5291	1.102	4.1818	0.1	1710.
5292	1.102	4.3636	0.1	1619.
5293	1.102	4.5455	0.1	1505.5
5294	1.102	4.7273	0.1	1365.6
5295	1.102	4.9091	0.1	1195.9
5296	1.102	5.0909	0.1	994.91
5297	1.102	5.2727	0.1	764.76
5298	1.102	5.4545	0.1	513.58
5299	1.102	5.6364	0.1	254.59
5300	1.102	5.8182	0.1	17.521
5301	1.2857	0.18182	0.1	20.716
5302	1.2857	0.36364	0.1	233.2
5303	1.2857	0.54545	0.1	456.91
5304	1.2857	0.72727	0.1	677.01
5305	1.2857	0.90909	0.1	884.14
5306	1.2857	1.0909	0.1	1071.
5307	1.2857	1.2727	0.1	1233.9
5308	1.2857	1.4545	0.1	1372.5
5309	1.2857	1.6364	0.1	1487.8
5310	1.2857	1.8182	0.1	1582.3
5311	1.2857	2.	0.1	1658.2
5312	1.2857	2.1818	0.1	1717.9
5313	1.2857	2.3636	0.1	1763.4
5314	1.2857	2.5455	0.1	1796.2
5315	1.2857	2.7273	0.1	1817.4
5316	1.2857	2.9091	0.1	1827.8
5317	1.2857	3.0909	0.1	1827.8
5318	1.2857	3.2727	0.1	1817.4
5319	1.2857	3.4545	0.1	1796.2
5320	1.2857	3.6364	0.1	1763.4
5321	1.2857	3.8182	0.1	1717.9
5322	1.2857	4.	0.1	1658.2
5323	1.2857	4.1818	0.1	1582.3
5324	1.2857	4.3636	0.1	1487.8
5325	1.2857	4.5455	0.1	1372.5
5326	1.2857	4.7273	0.1	1233.9
5327	1.2857	4.9091	0.1	1071.
5328	1.2857	5.0909	0.1	884.14
5329	1.2857	5.2727	0.1	677.01
5330	1.2857	5.4545	0.1	456.91
5331	1.2857	5.6364	0.1	233.2
5332	1.2857	5.8182	0.1	20.716
5333	1.4694	0.18182	0.1	25.54
5334	1.4694	0.36364	0.1	217.53
5335	1.4694	0.54545	0.1	413.87
5336	1.4694	0.72727	0.1	608.41
5337	1.4694	0.90909	0.1	794.57
5338	1.4694	1.0909	0.1	966.3
5339	1.4694	1.2727	0.1	1119.9
5340	1.4694	1.4545	0.1	1253.6
5341	1.4694	1.6364	0.1	1367.5
5342	1.4694	1.8182	0.1	1462.6
5343	1.4694	2.	0.1	1540.4
5344	1.4694	2.1818	0.1	1602.3
5345	1.4694	2.3636	0.1	1650.
5346	1.4694	2.5455	0.1	1684.6
5347	1.4694	2.7273	0.1	1707.2
5348	1.4694	2.9091	0.1	1718.3
5349	1.4694	3.0909	0.1	1718.3
5350	1.4694	3.2727	0.1	1707.2
5351	1.4694	3.4545	0.1	1684.6
5352	1.4694	3.6364	0.1	1650.
5353	1.4694	3.8182	0.1	1602.3
5354	1.4694	4.	0.1	1540.4
5355	1.4694	4.1818	0.1	1462.6
5356	1.4694	4.3636	0.1	1367.5
5357	1.4694	4.5455	0.1	1253.6
5358	1.4694	4.7273	0.1	1119.9
5359	1.4694	4.9091	0.1	966.3
5360	1.4694	5.0909	0.1	794.57
5361	1.4694	5.2727	0.1	608.41
5362	1.4694	5.4545	0.1	413.87
5363	1.4694	5.6364	0.1	217.53
5364	1.4694	5.8182	0.1	25.54
5365	1.6531	0.18182	0.1	30.952
5366	1.6531	0.36364	0.1	204.9
5367	1.6531	0.54545	0.1	379.29
5368	1.6531	0.72727	0.1	552.62
5369	1.6531	0.90909	0.1	720.22
5370	1.6531	1.0909	0.1	877.26
5371	1.6531	1.2727	0.1	1020.3
5372	1.6531	1.4545	0.1	1147.3
5373	1.6531	1.6364	0.1	1257.5
5374	1.6531	1.8182	0.1	1351.
5375	1.6531	2.	0.1	1428.7
5376	1.6531	2.1818	0.1	1491.3
5377	1.6531	2.3636	0.1	1540.
5378	1.6531	2.5455	0.1	1575.6
5379	1.6531	2.7273	0.1	1599.
5380	1.6531	2.9091	0.1	1610.5
5381	1.6531	3.0909	0.1	1610.5
5382	1.6531	3.2727	0.1	1599.
5383	1.6531	3.4545	0.1	1575.6
5384	1.6531	3.6364	0.1	1540.
5385	1.6531	3.8182	0.1	1491.3
5386	1.6531	4.	0.1	1428.7
5387	1.6531	4.1818	0.1	1351.
5388	1.6531	4.3636	0.1	1257.5
5389	1.6531	4.5455	0.1	1147.3
5390	1.6531	4.7273	0.1	1020.3
5391	1.6531	4.9091	0.1	877.26
5392	1.6531	5.0909	0.1	720.22
5393	1.6531	5.2727	0.1	552.62
5394	1.6531	5.4545	0.1	379.29
5395	1.6531	5.6364	0.1	204.9
5396	1.6531	5.8182	0.1	30.952
5397	1.8367	0.18182	0.1	36.247
5398	1.8367	0.36364	0.1	194.16
5399	1.8367	0.54545	0.1	350.49
5400	1.8367	0.72727	0.1	506.01
5401	1.8367	0.90909	0.1	657.37
5402	1.8367	1.0909	0.1	800.71
5403	1.8367	1.2727	0.1	933.03
5404	1.8367	1.4545	0.1	1052.3
5405	1.8367	1.6364	0.1	1157.3
5406	1.8367	1.8182	0.1	1247.7
5407	1.8367	2.	0.1	1323.7
5408	1.8367	2.1818	0.1	1385.8
5409	1.8367	2.3636	0.1	1434.4
5410	1.8367	2.5455	0.1	1470.3
5411	1.8367	2.7273	0.1	1493.8
5412	1.8367	2.9091	0.1	1505.5
5413	1.8367	3.0909	0.1	1505.5
5414	1.8367	3.2727	0.1	1493.8
5415	1.8367	3.4545	0.1	1470.3
5416	1.8367	3.6364	0.1	1434.4
5417	1.8367	3.8182	0.1	1385.8
5418	1.8367	4.	0.1	1323.7
5419	1.8367	4.1818	0.1	1247.7
5420	1.8367	4.3636	0.1	1157.3
5421	1.8367	4.5455	0.1	1052.3
5422	1.8367	4.7273	0.1	933.03
5423	1.8367	4.9091	0.1	800.71
5424	1.8367	5.0909	0.1	657.36
5425	1.8367	5.2727	0.1	506.01
5426	1.8367	5.4545	0.1	350.49
5427	1.8367	5.6364	0.1	194.16
5428	1.8367	5.8182	0.1	36.247
5429	2.0204	0.18182	0.1	40.873
5430	2.0204	0.36364	0.1	184.53
5431	2.0204	0.54545	0.1	325.67
5432	2.0204	0.72727	0.1	466.04
5433	2.0204	0.90909	0.1	603.17
5434	2.0204	1.0909	0.1	733.99
5435	2.0204	1.2727	0.1	855.94
5436	2.0204	1.4545	0.1	967.07
5437	2.0204	1.6364	0.1	1066.1
5438	2.0204	1.8182	0.1	1152.4
5439	2.0204	2.	0.1	1225.7
5440	2.0204	2.1818	0.1	1286.
5441	2.0204	2.3636	0.1	1333.8
5442	2.0204	2.5455	0.1	1369.2
5443	2.0204	2.7273	0.1	1392.6
5444	2.0204	2.9091	0.1	1404.2
5445	2.0204	3.0909	0.1	1404.2
5446	2.0204	3.2727	0.1	1392.6
5447	2.0204	3.4545	0.1	1369.2
5448	2.0204	3.6364	0.1	1333.8
5449	2.0204	3.8182	0.1	1286.
5450	2.0204	4.	0.1	1225.7
5451	2.0204	4.1818	0.1	1152.4
5452	2.0204	4.3636	0.1	1066.1
5453	2.0204	4.5455	0.1	967.07
5454	2.0204	4.7273	0.1	855.94
5455	2.0204	4.9091	0.1	733.99
5456	2.0204	5.0909	0.1	603.17
5457	2.0204	5.2727	0.1	466.04
5458	2.0204	5.4545	0.1	325.67
5459	2.0204	5.6364	0.1	184.53
5460	2.0204	5.8182	0.1	40.873
5461	2.2041	0.18182	0.1	44.608
5462	2.2041	0.36364	0.1	175.61
5463	2.2041	0.54545	0.1	303.73
5464	2.2041	0.72727	0.1	431.03
5465	2.2041	0.90909	0.1	555.64
5466	2.2041	1.0909	0.1	675.11
5467	2.2041	1.2727	0.1	787.25
5468	2.2041	1.4545	0.1	890.31
5469	2.2041	1.6364	0.1	983.
5470	2.2041	1.8182	0.1	1064.5
5471	2.2041	2.	0.1	1134.3
5472	2.2041	2.1818	0.1	1192.3
5473	2.2041	2.3636	0.1	1238.4
5474	2.2041	2.5455	0.1	1272.8
5475	2.2041	2.7273	0.1	1295.6
5476	2.2041	2.9091	0.1	1307.
5477	2.2041	3.0909	0.1	1307.
5478	2.2041	3.2727	0.1	1295.6
5479	2.2041	3.4545	0.1	1272.8
5480	2.2041	3.6364	0.1	1238.4
5481	2.2041	3.8182	0.1	1192.3
5482	2.2041	4.	0.1	1134.3
5483	2.2041	4.1818	0.1	1064.5
5484	2.2041	4.3636	0.1	983.
5485	2.2041	4.5455	0.1	890.31
5486	2.2041	4.7273	0.1	787.25
5487	2.2041	4.9091	0.1	675.11
5488	2.2041	5.0909	0.1	555.64
5489	2.2041	5.2727	0.1	431.03
5490	2.2041	5.4545	0.1	303.73
5491	2.2041	5.6364	0.1	175.61
5492	2.2041	5.8182	0.1	44.608
5493	2.3878	0.18182	0.1	47.409
5494	2.3878	0.36364	0.1	167.13
5495	2.3878	0.54545	0.1	283.92
5496	2.3878	0.72727	0.1	399.8
5497	2.3878	0.90909	0.1	513.35
5498	2.3878	1.0909	0.1	622.54
5499	2.3878	1.2727	0.1	725.55
5500	2.3878	1.4545	0.1	820.8
5501	2.3878	1.6364	0.1	907.07
5502	2.3878	1.8182	0.1	983.45
5503	2.3878	2.	0.1	1049.4
5504	2.3878	2.1818	0.1	1104.4
5505	2.3878	2.3636	0.1	1148.5
5506	2.3878	2.5455	0.1	1181.5
5507	2.3878	2.7273	0.1	1203.5
5508	2.3878	2.9091	0.1	1214.5
5509	2.3878	3.0909	0.1	1214.5
5510	2.3878	3.2727	0.1	1203.5
5511	2.3878	3.4545	0.1	1181.5
5512	2.3878	3.6364	0.1	1148.5
5513	2.3878	3.8182	0.1	1104.4
5514	2.3878	4.	0.1	1049.4
5515	2.3878	4.1818	0.1	983.45
5516	2.3878	4.3636	0.1	907.07
5517	2.3878	4.5455	0.1	820.8
5518	2.3878	4.7273	0.1	725.55
5519	2.3878	4.9091	0.1	622.54
5520	2.3878	5.0909	0.1	513.35
5521	2.3878	5.2727	0.1	399.8
5522	2.3878	5.4545	0.1	283.92
5523	2.3878	5.6364	0.1	167.13
5524	2.3878	5.8182	0.1	47.409
5525	2.5714	0.18182	0.1	49.324
5526	2.5714	0.36364	0.1	158.94
5527	2.5714	0.54545	0.1	265.75
5528	2.5714	0.72727	0.1	371.56
5529	2.5714	0.90909	0.1	475.25
5530	2.5714	1.0909	0.1	575.15
5531	2.5714	1.2727	0.1	669.71
5532	2.5714	1.4545	0.1	757.54
5533	2.5714	1.6364	0.1	837.51
5534	2.5714	1.8182	0.1	908.7
5535	2.5714	2.	0.1	970.46
5536	2.5714	2.1818	0.1	1022.3
5537	2.5714	2.3636	0.1	1064.
5538	2.5714	2.5455	0.1	1095.4
5539	2.5714	2.7273	0.1	1116.4
5540	2.5714	2.9091	0.1	1126.8
5541	2.5714	3.0909	0.1	1126.8
5542	2.5714	3.2727	0.1	1116.4
5543	2.5714	3.4545	0.1	1095.4
5544	2.5714	3.6364	0.1	1064.
5545	2.5714	3.8182	0.1	1022.3
5546	2.5714	4.	0.1	970.46
5547	2.5714	4.1818	0.1	908.7
5548	2.5714	4.3636	0.1	837.51
5549	2.5714	4.5455	0.1	757.54
5550	2.5714	4.7273	0.1	669.71
5551	2.5714	4.9091	0.1	575.15
5552	2.5714	5.0909	0.1	475.25
5553	2.5714	5.2727	0.1	371.56
5554	2.5714	5.4545	0.1	265.75
5555	2.5714	5.6364	0.1	158.94
5556	2.5714	5.8182	0.1	49.324
5557	2.7551	0.18182	0.1	50.44
5558	2.7551	0.36364	0.1	150.98
5559	2.7551	0.54545	0.1	248.89
5560	2.7551	0.72727	0.1	345.73
5561	2.7551	0.90909	0.1	440.59
5562	2.7551	1.0909	0.1	532.07
5563	2.7551	1.2727	0.1	618.85
5564	2.7551	1.4545	0.1	699.72
5565	2.7551	1.6364	0.1	773.62
5566	2.7551	1.8182	0.1	839.7
5567	2.7551	2.	0.1	897.26
5568	2.7551	2.1818	0.1	945.8
5569	2.7551	2.3636	0.1	984.96
5570	2.7551	2.5455	0.1	1014.5
5571	2.7551	2.7273	0.1	1034.3
5572	2.7551	2.9091	0.1	1044.2
5573	2.7551	3.0909	0.1	1044.2
5574	2.7551	3.2727	0.1	1034.3
5575	2.7551	3.4545	0.1	1014.5
5576	2.7551	3.6364	0.1	984.96
5577	2.7551	3.8182	0.1	945.8
5578	2.7551	4.	0.1	897.26
5579	2.7551	4.1818	0.1	839.7
5580	2.7551	4.3636	0.1	773.62
5581	2.7551	4.5455	0.1	699.72
5582	2.7551	4.7273	0.1	618.85
5583	2.7551	4.9091	0.1	532.07
5584	2.7551	5.0909	0.1	440.59
5585	2.7551	5.2727	0.1	345.73
5586	2.7551	5.4545	0.1	248.89
5587	2.7551	5.6364	0.1	150.98
5588	2.7551	5.8182	0.1	50.44
5589	2.9388	0.18182	0.1	50.855
5590	2.9388	0.36364	0.1	143.18
5591	2.9388	0.54545	0.1	233.11
5592	2.9388	0.72727	0.1	321.9
5593	2.9388	0.90909	0.1	408.81
5594	2.9388	1.0909	0.1	492.66
5595	2.9388	1.2727	0.1	572.3
5596	2.9388	1.4545	0.1	646.67
5597	2.9388	1.6364	0.1	714.82
5598	2.9388	1.8182	0.1	775.94
5599	2.9388	2.	0.1	829.35
5600	2.9388	2.1818	0.1	874.54
5601	2.9388	2.3636	0.1	911.09
5602	2.9388	2.5455	0.1	938.73
5603	2.9388	2.7273	0.1	957.26
5604	2.9388	2.9091	0.1	966.55
5605	2.9388	3.0909	0.1	966.55
5606	2.9388	3.2727	0.1	957.26
5607	2.9388	3.4545	0.1	938.73
5608	2.9388	3.6364	0.1	911.09
5609	2.9388	3.8182	0.1	874.54
5610	2.9388	4.	0.1	829.35
5611	2.9388	4.1818	0.1	775.94
5612	2.9388	4.3636	0.1	714.82
5613	2.9388	4.5455	0.1	646.67
5614	2.9388	4.7273	0.1	572.3
5615	2.9388	4.9091	0.1	492.66
5616	2.9388	5.0909	0.1	408.81
5617	2.9388	5.2727	0.1	321.9
5618	2.9388	5.4545	0.1	233.11
5619	2.9388	5.6364	0.1	143.18
5620	2.9388	5.8182	0.1	50.854
5621	3.1224	0.18182	0.1	50.667
5622	3.1224	0.36364	0.1	135.54
5623	3.1224	0.54545	0.1	218.26
5624	3.1224	0.72727	0.1	299.78
5625	3.1224	0.90909	0.1	379.5
5626	3.1224	1.0909	0.1	456.4
5627	3.1224	1.2727	0.1	529.49
5628	3.1224	1.4545	0.1	597.84
5629	3.1224	1.6364	0.1	660.59
5630	3.1224	1.8182	0.1	716.99
5631	3.1224	2.	0.1	766.39
5632	3.1224	2.1818	0.1	808.27
5633	3.1224	2.3636	0.1	842.23
5634	3.1224	2.5455	0.1	867.95
5635	3.1224	2.7273	0.1	885.21
5636	3.1224	2.9091	0.1	893.88
5637	3.1224	3.0909	0.1	893.88
5638	3.1224	3.2727	0.1	885.21
5639	3.1224	3.4545	0.1	867.95
5640	3.1224	3.6364	0.1	842.23
5641	3.1224	3.8182	0.1	808.27
5642	3.1224	4.	0.1	766.39
5643	3.1224	4.1818	0.1	716.99
5644	3.1224	4.3636	0.1	660.59
5645	3.1224	4.5455	0.1	597.84
5646	3.1224	4.7273	0.1	529.49
5647	3.1224	4.9091	0.1	456.4
5648	3.1224	5.0909	0.1	379.5
5649	3.1224	5.2727	0.1	299.78
5650	3.1224	5.4545	0.1	218.26
5651	3.1224	5.6364	0.1	135.54
5652	3.1224	5.8182	0.1	50.667
5653	3.3061	0.18182	0.1	49.97
5654	3.3061	0.36364	0.1	128.07
5655	3.3061	0.54545	0.1	204.22
5656	3.3061	0.72727	0.1	279.16
5657	3.3061	0.90909	0.1	352.35
5658	3.3061	1.0909	0.1	422.92
5659	3.3061	1.2727	0.1	490.01
5660	3.3061	1.4545	0.1	552.79
5661	3.3061	1.6364	0.1	610.5
5662	3.3061	1.8182	0.1	662.44
5663	3.3061	2.	0.1	708.01
5664	3.3061	2.1818	0.1	746.72
5665	3.3061	2.3636	0.1	778.14
5666	3.3061	2.5455	0.1	801.98
5667	3.3061	2.7273	0.1	817.99
5668	3.3061	2.9091	0.1	826.04
5669	3.3061	3.0909	0.1	826.04
5670	3.3061	3.2727	0.1	817.99
5671	3.3061	3.4545	0.1	801.98
5672	3.3061	3.6364	0.1	778.14
5673	3.3061	3.8182	0.1	746.72
5674	3.3061	4.	0.1	708.01
5675	3.3061	4.1818	0.1	662.44
5676	3.3061	4.3636	0.1	610.5
5677	3.3061	4.5455	0.1	552.79
5678	3.3061	4.7273	0.1	490.01
5679	3.3061	4.9091	0.1	422.92
5680	3.3061	5.0909	0.1	352.35
5681	3.3061	5.2727	0.1	279.16
5682	3.3061	5.4545	0.1	204.22
5683	3.3061	5.6364	0.1	128.07
5684	3.3061	5.8182	0.1	49.97
5685	3.4898	0.18182	0.1	48.852
5686	3.4898	0.36364	0.1	120.76
5687	3.4898	0.54545	0.1	190.93
5688	3.4898	0.72727	0.1	259.86
5689	3.4898	0.90909	0.1	327.11
5690	3.4898	1.0909	0.1	391.9
5691	3.4898	1.2727	0.1	453.49
5692	3.4898	1.4545	0.1	511.14
5693	3.4898	1.6364	0.1	564.17
5694	3.4898	1.8182	0.1	611.94
5695	3.4898	2.	0.1	653.9
5696	3.4898	2.1818	0.1	689.58
5697	3.4898	2.3636	0.1	718.58
5698	3.4898	2.5455	0.1	740.6
5699	3.4898	2.7273	0.1	755.4
5700	3.4898	2.9091	0.1	762.84
5701	3.4898	3.0909	0.1	762.84
5702	3.4898	3.2727	0.1	755.4
5703	3.4898	3.4545	0.1	740.6
5704	3.4898	3.6364	0.1	718.58
5705	3.4898	3.8182	0.1	689.58
5706	3.4898	4.	0.1	653.9
5707	3.4898	4.1818	0.1	611.94
5708	3.4898	4.3636	0.1	564.17
5709	3.4898	4.5455	0.1	511.14
5710	3.4898	4.7273	0.1	453.49
5711	3.4898	4.9091	0.1	391.9
5712	3.4898	5.0909	0.1	327.11
5713	3.4898	5.2727	0.1	259.86
5714	3.4898	5.4545	0.1	190.93
5715	3.4898	5.6364	0.1	120.76
5716	3.4898	5.8182	0.1	48.852
5717	3.6735	0.18182	0.1	47.39
5718	3.6735	0.36364	0.1	113.63
5719	3.6735	0.54545	0.1	178.32
5720	3.6735	0.72727	0.1	241.77
5721	3.6735	0.90909	0.1	303.6
5722	3.6735	1.0909	0.1	363.11
5723	3.6735	1.2727	0.1	419.66
5724	3.6735	1.4545	0.1	472.59
5725	3.6735	1.6364	0.1	521.28
5726	3.6735	1.8182	0.1	565.18
5727	3.6735	2.	0.1	603.76
5728	3.6735	2.1818	0.1	636.59
5729	3.6735	2.3636	0.1	663.29
5730	3.6735	2.5455	0.1	683.58
5731	3.6735	2.7273	0.1	697.22
5732	3.6735	2.9091	0.1	704.08
5733	3.6735	3.0909	0.1	704.08
5734	3.6735	3.2727	0.1	697.22
5735	3.6735	3.4545	0.1	683.58
5736	3.6735	3.6364	0.1	663.29
5737	3.6735	3.8182	0.1	636.59
5738	3.6735	4.	0.1	603.76
5739	3.6735	4.1818	0.1	565.18
5740	3.6735	4.3636	0.1	521.28
5741	3.6735	4.5455	0.1	472.59
5742	3.6735	4.7273	0.1	419.66
5743	3.6735	4.9091	0.1	363.11
5744	3.6735	5.0909	0.1	303.6
5745	3.6735	5.2727	0.1	241.77
5746	3.6735	5.4545	0.1	178.32
5747	3.6735	5.6364	0.1	113.63
5748	3.6735	5.8182	0.1	47.39
5749	3.8571	0.18182	0.1	45.655
5750	3.8571	0.36364	0.1	106.7
5751	3.8571	0.54545	0.1	166.36
5752	3.8571	0.72727	0.1	224.8
5753	3.8571	0.90909	0.1	281.66
5754	3.8571	1.0909	0.1	336.34
5755	3.8571	1.2727	0.1	388.27
5756	3.8571	1.4545	0.1	436.86
5757	3.8571	1.6364	0.1	481.56
5758	3.8571	1.8182	0.1	521.86
5759	3.8571	2.	0.1	557.3
5760	3.8571	2.1818	0.1	587.46
5761	3.8571	2.3636	0.1	612.01
5762	3.8571	2.5455	0.1	630.67
5763	3.8571	2.7273	0.1	643.22
5764	3.8571	2.9091	0.1	649.53
5765	3.8571	3.0909	0.1	649.53
5766	3.8571	3.2727	0.1	643.22
5767	3.8571	3.4545	0.1	630.67
5768	3.8571	3.6364	0.1	612.01
5769	3.8571	3.8182	0.1	587.46
5770	3.8571	4.	0.1	557.3
5771	3.8571	4.1818	0.1	521.86
5772	3.8571	4.3636	0.1	481.56
5773	3.8571	4.5455	0.1	436.86
5774	3.8571	4.7273	0.1	388.27
5775	3.8571	4.9091	0.1	336.34
5776	3.8571	5.0909	0.1	281.66
5777	3.8571	5.2727	0.1	224.8
5778	3.8571	5.4545	0.1	166.36
5779	3.8571	5.6364	0.1	106.7
5780	3.8571	5.8182	0.1	45.655
5781	4.0408	0.18182	0.1	43.707
5782	4.0408	0.36364	0.1	99.99
5783	4.0408	0.54545	0.1	155.02
5784	4.0408	0.72727	0.1	208.86
5785	4.0408	0.90909	0.1	261.17
5786	4.0408	1.0909	0.1	311.43
5787	4.0408	1.2727	0.1	359.12
5788	4.0408	1.4545	0.1	403.72
5789	4.0408	1.6364	0.1	444.75
5790	4.0408	1.8182	0.1	481.73
5791	4.0408	2.	0.1	514.26
5792	4.0408	2.1818	0.1	541.95
5793	4.0408	2.3636	0.1	564.49
5794	4.0408	2.5455	0.1	581.62
5795	4.0408	2.7273	0.1	593.15
5796	4.0408	2.9091	0.1	598.95
5797	4.0408	3.0909	0.1	598.95
5798	4.0408	3.2727	0.1	593.15
5799	4.0408	3.4545	0.1	581.62
5800	4.0408	3.6364	0.1	564.49
5801	4.0408	3.8182	0.1	541.95
5802	4.0408	4.	0.1	514.26
5803	4.0408	4.1818	0.1	481.73
5804	4.0408	4.3636	0.1	444.75
5805	4.0408	4.5455	0.1	403.72
5806	4.0408	4.7273	0.1	359.12
5807	4.0408	4.9091	0.1	311.43
5808	4.0408	5.0909	0.1	261.17
5809	4.0408	5.2727	0.1	208.86
5810	4.0408	5.4545	0.1	155.02
5811	4.0408	5.6364	0.1	99.99
5812	4.0408	5.8182	0.1	43.707
5813	4.2245	0.18182	0.1	41.6
5814	4.2245	0.36364	0.1	93.504
5815	4.2245	0.54545	0.1	144.28
5816	4.2245	0.72727	0.1	193.88
5817	4.2245	0.90909	0.1	242.02
5818	4.2245	1.0909	0.1	288.23
5819	4.2245	1.2727	0.1	332.03
5820	4.2245	1.4545	0.1	372.98
5821	4.2245	1.6364	0.1	410.63
5822	4.2245	1.8182	0.1	444.56
5823	4.2245	2.	0.1	474.4
5824	4.2245	2.1818	0.1	499.8
5825	4.2245	2.3636	0.1	520.48
5826	4.2245	2.5455	0.1	536.19
5827	4.2245	2.7273	0.1	546.77
5828	4.2245	2.9091	0.1	552.1
5829	4.2245	3.0909	0.1	552.1
5830	4.2245	3.2727	0.1	546.77
5831	4.2245	3.4545	0.1	536.19
5832	4.2245	3.6364	0.1	520.48
5833	4.2245	3.8182	0.1	499.8
5834	4.2245	4.	0.1	474.4
5835	4.2245	4.1818	0.1	444.56
5836	4.2245	4.3636	0.1	410.63
5837	4.2245	4.5455	0.1	372.98
5838	4.2245	4.7273	0.1	332.03
5839	4.2245	4.9091	0.1	288.23
5840	4.2245	5.0909	0.1	242.02
5841	4.2245	5.2727	0.1	193.88
5842	4.2245	5.4545	0.1	144.28
5843	4.2245	5.6364	0.1	93.504
5844	4.2245	5.8182	0.1	41.6
5845	4.4082	0.18182	0.1	39.38
5846	4.4082	0.36364	0.1	87.258
5847	4.4082	0.54545	0.1	134.11
5848	4.4082	0.72727	0.1	179.82
5849	4.4082	0.90909	0.1	224.13
5850	4.4082	1.0909	0.1	266.61
5851	4.4082	1.2727	0.1	306.86
5852	4.4082	1.4545	0.1	344.45
5853	4.4082	1.6364	0.1	379.
5854	4.4082	1.8182	0.1	410.12
5855	4.4082	2.	0.1	437.48
5856	4.4082	2.1818	0.1	460.77
5857	4.4082	2.3636	0.1	479.73
5858	4.4082	2.5455	0.1	494.15
5859	4.4082	2.7273	0.1	503.85
5860	4.4082	2.9091	0.1	508.72
5861	4.4082	3.0909	0.1	508.72
5862	4.4082	3.2727	0.1	503.85
5863	4.4082	3.4545	0.1	494.15
5864	4.4082	3.6364	0.1	479.73
5865	4.4082	3.8182	0.1	460.77
5866	4.4082	4.	0.1	437.48
5867	4.4082	4.1818	0.1	410.12
5868	4.4082	4.3636	0.1	379.
5869	4.4082	4.5455	0.1	344.45
5870	4.4082	4.7273	0.1	306.86
5871	4.4082	4.9091	0.1	266.61
5872	4.4082	5.0909	0.1	224.13
5873	4.4082	5.2727	0.1	179.82
5874	4.4082	5.4545	0.1	134.11
5875	4.4082	5.6364	0.1	87.258
5876	4.4082	5.8182	0.1	39.38
5877	4.5918	0.18182	0.1	37.088
5878	4.5918	0.36364	0.1	81.261
5879	4.5918	0.54545	0.1	124.49
5880	4.5918	0.72727	0.1	166.62
5881	4.5918	0.90909	0.1	207.41
5882	4.5918	1.0909	0.1	246.48
5883	4.5918	1.2727	0.1	283.46
5884	4.5918	1.4545	0.1	317.97
5885	4.5918	1.6364	0.1	349.67
5886	4.5918	1.8182	0.1	378.22
5887	4.5918	2.	0.1	403.31
5888	4.5918	2.1818	0.1	424.66
5889	4.5918	2.3636	0.1	442.04
5890	4.5918	2.5455	0.1	455.24
5891	4.5918	2.7273	0.1	464.13
5892	4.5918	2.9091	0.1	468.6
5893	4.5918	3.0909	0.1	468.6
5894	4.5918	3.2727	0.1	464.13
5895	4.5918	3.4545	0.1	455.24
5896	4.5918	3.6364	0.1	442.04
5897	4.5918	3.8182	0.1	424.66
5898	4.5918	4.	0.1	403.31
5899	4.5918	4.1818	0.1	378.22
5900	4.5918	4.3636	0.1	349.67
5901	4.5918	4.5455	0.1	317.97
5902	4.5918	4.7273	0.1	283.46
5903	4.5918	4.9091	0.1	246.48
5904	4.5918	5.0909	0.1	207.41
5905	4.5918	5.2727	0.1	166.62
5906	4.5918	5.4545	0.1	124.49
5907	4.5918	5.6364	0.1	81.261
5908	4.5918	5.8182	0.1	37.088
5909	4.7755	0.18182	0.1	34.756
5910	4.7755	0.36364	0.1	75.519
5911	4.7755	0.54545	0.1	115.4
5912	4.7755	0.72727	0.1	154.23
5913	4.7755	0.90909	0.1	191.79
5914	4.7755	1.0909	0.1	227.72
5915	4.7755	1.2727	0.1	261.7
5916	4.7755	1.4545	0.1	293.4
5917	4.7755	1.6364	0.1	322.49
5918	4.7755	1.8182	0.1	348.68
5919	4.7755	2.	0.1	371.68
5920	4.7755	2.1818	0.1	391.25
5921	4.7755	2.3636	0.1	407.17
5922	4.7755	2.5455	0.1	419.27
5923	4.7755	2.7273	0.1	427.41
5924	4.7755	2.9091	0.1	431.51
5925	4.7755	3.0909	0.1	431.51
5926	4.7755	3.2727	0.1	427.41
5927	4.7755	3.4545	0.1	419.27
5928	4.7755	3.6364	0.1	407.17
5929	4.7755	3.8182	0.1	391.25
5930	4.7755	4.	0.1	371.68
5931	4.7755	4.1818	0.1	348.68
5932	4.7755	4.3636	0.1	322.49
5933	4.7755	4.5455	0.1	293.4
5934	4.7755	4.7273	0.1	261.7
5935	4.7755	4.9091	0.1	227.72
5936	4.7755	5.0909	0.1	191.79
5937	4.7755	5.2727	0.1	154.23
5938	4.7755	5.4545	0.1	115.4
5939	4.7755	5.6364	0.1	75.519
5940	4.7755	5.8182	0.1	34.756
5941	4.9592	0.18182	0.1	32.412
5942	4.9592	0.36364	0.1	70.036
5943	4.9592	0.54545	0.1	106.83
5944	4.9592	0.72727	0.1	142.62
5945	4.9592	0.90909	0.1	177.2
5946	4.9592	1.0909	0.1	210.25
5947	4.9592	1.2727	0.1	241.49
5948	4.9592	1.4545	0.1	270.59
5949	4.9592	1.6364	0.1	297.29
5950	4.9592	1.8182	0.1	321.31
5951	4.9592	2.	0.1	342.4
5952	4.9592	2.1818	0.1	360.34
5953	4.9592	2.3636	0.1	374.93
5954	4.9592	2.5455	0.1	386.01
5955	4.9592	2.7273	0.1	393.47
5956	4.9592	2.9091	0.1	397.22
5957	4.9592	3.0909	0.1	397.22
5958	4.9592	3.2727	0.1	393.47
5959	4.9592	3.4545	0.1	386.01
5960	4.9592	3.6364	0.1	374.93
5961	4.9592	3.8182	0.1	360.34
5962	4.9592	4.	0.1	342.4
5963	4.9592	4.1818	0.1	321.31
5964	4.9592	4.3636	0.1	297.29
5965	4.9592	4.5455	0.1	270.59
5966	4.9592	4.7273	0.1	241.49
5967	4.9592	4.9091	0.1	210.25
5968	4.9592	5.0909	0.1	177.2
5969	4.9592	5.2727	0.1	142.62
5970	4.9592	5.4545	0.1	106.83
5971	4.9592	5.6364	0.1	70.036
5972	4.9592	5.8182	0.1	32.412
5973	5.1429	0.18182	0.1	30.081
5974	5.1429	0.36364	0.1	64.813
5975	5.1429	0.54545	0.1	98.761
5976	5.1429	0.72727	0.1	131.74
5977	5.1429	0.90909	0.1	163.58
5978	5.1429	1.0909	0.1	193.99
5979	5.1429	1.2727	0.1	222.7
5980	5.1429	1.4545	0.1	249.43
5981	5.1429	1.6364	0.1	273.94
5982	5.1429	1.8182	0.1	295.97
5983	5.1429	2.	0.1	315.31
5984	5.1429	2.1818	0.1	331.75
5985	5.1429	2.3636	0.1	345.12
5986	5.1429	2.5455	0.1	355.28
5987	5.1429	2.7273	0.1	362.11
5988	5.1429	2.9091	0.1	365.55
5989	5.1429	3.0909	0.1	365.55
5990	5.1429	3.2727	0.1	362.11
5991	5.1429	3.4545	0.1	355.28
5992	5.1429	3.6364	0.1	345.12
5993	5.1429	3.8182	0.1	331.75
5994	5.1429	4.	0.1	315.31
5995	5.1429	4.1818	0.1	295.97
5996	5.1429	4.3636	0.1	273.94
5997	5.1429	4.5455	0.1	249.43
5998	5.1429	4.7273	0.1	222.7
5999	5.1429	4.9091	0.1	193.99
6000	5.1429	5.0909	0.1	163.58
6001	5.1429	5.2727	0.1	131.74
6002	5.1429	5.4545	0.1	98.761
6003	5.1429	5.6364	0.1	64.813
6004	5.1429	5.8182	0.1	30.081
6005	5.3265	0.18182	0.1	27.78
6006	5.3265	0.36364	0.1	59.849
6007	5.3265	0.54545	0.1	91.165
6008	5.3265	0.72727	0.1	121.56
6009	5.3265	0.90909	0.1	150.88
6010	5.3265	1.0909	0.1	178.85
6011	5.3265	1.2727	0.1	205.24
6012	5.3265	1.4545	0.1	229.8
6013	5.3265	1.6364	0.1	252.3
6014	5.3265	1.8182	0.1	272.51
6015	5.3265	2.	0.1	290.25
6016	5.3265	2.1818	0.1	305.32
6017	5.3265	2.3636	0.1	317.57
6018	5.3265	2.5455	0.1	326.87
6019	5.3265	2.7273	0.1	333.13
6020	5.3265	2.9091	0.1	336.28
6021	5.3265	3.0909	0.1	336.28
6022	5.3265	3.2727	0.1	333.13
6023	5.3265	3.4545	0.1	326.87
6024	5.3265	3.6364	0.1	317.57
6025	5.3265	3.8182	0.1	305.32
6026	5.3265	4.	0.1	290.25
6027	5.3265	4.1818	0.1	272.51
6028	5.3265	4.3636	0.1	252.3
6029	5.3265	4.5455	0.1	229.8
6030	5.3265	4.7273	0.1	205.24
6031	5.3265	4.9091	0.1	178.85
6032	5.3265	5.0909	0.1	150.88
6033	5.3265	5.2727	0.1	121.56
6034	5.3265	5.4545	0.1	91.165
6035	5.3265	5.6364	0.1	59.849
6036	5.3265	5.8182	0.1	27.78
6037	5.5102	0.18182	0.1	25.526
6038	5.5102	0.36364	0.1	55.14
6039	5.5102	0.54545	0.1	84.025
6040	5.5102	0.72727	0.1	112.04
6041	5.5102	0.90909	0.1	139.03
6042	5.5102	1.0909	0.1	164.77
6043	5.5102	1.2727	0.1	189.03
6044	5.5102	1.4545	0.1	211.59
6045	5.5102	1.6364	0.1	232.24
6046	5.5102	1.8182	0.1	250.8
6047	5.5102	2.	0.1	267.06
6048	5.5102	2.1818	0.1	280.88
6049	5.5102	2.3636	0.1	292.11
6050	5.5102	2.5455	0.1	300.63
6051	5.5102	2.7273	0.1	306.37
6052	5.5102	2.9091	0.1	309.25
6053	5.5102	3.0909	0.1	309.25
6054	5.5102	3.2727	0.1	306.37
6055	5.5102	3.4545	0.1	300.63
6056	5.5102	3.6364	0.1	292.11
6057	5.5102	3.8182	0.1	280.88
6058	5.5102	4.	0.1	267.06
6059	5.5102	4.1818	0.1	250.8
6060	5.5102	4.3636	0.1	232.24
6061	5.5102	4.5455	0.1	211.59
6062	5.5102	4.7273	0.1	189.03
6063	5.5102	4.9091	0.1	164.77
6064	5.5102	5.0909	0.1	139.03
6065	5.5102	5.2727	0.1	112.04
6066	5.5102	5.4545	0.1	84.025
6067	5.5102	5.6364	0.1	55.14
6068	5.5102	5.8182	0.1	25.526
6069	5.6939	0.18182	0.1	23.33
6070	5.6939	0.36364	0.1	50.684
6071	5.6939	0.54545	0.1	77.321
6072	5.6939	0.72727	0.1	103.13
6073	5.6939	0.90909	0.1	127.99
6074	5.6939	1.0909	0.1	151.67
6075	5.6939	1.2727	0.1	173.97
6076	5.6939	1.4545	0.1	194.7
6077	5.6939	1.6364	0.1	213.67
6078	5.6939	1.8182	0.1	230.69
6079	5.6939	2.	0.1	245.61
6080	5.6939	2.1818	0.1	258.28
6081	5.6939	2.3636	0.1	268.57
6082	5.6939	2.5455	0.1	276.39
6083	5.6939	2.7273	0.1	281.64
6084	5.6939	2.9091	0.1	284.28
6085	5.6939	3.0909	0.1	284.28
6086	5.6939	3.2727	0.1	281.64
6087	5.6939	3.4545	0.1	276.39
6088	5.6939	3.6364	0.1	268.57
6089	5.6939	3.8182	0.1	258.28
6090	5.6939	4.	0.1	245.61
6091	5.6939	4.1818	0.1	230.69
6092	5.6939	4.3636	0.1	213.67
6093	5.6939	4.5455	0.1	194.7
6094	5.6939	4.7273	0.1	173.97
6095	5.6939	4.9091	0.1	151.67
6096	5.6939	5.0909	0.1	127.99
6097	5.6939	5.2727	0.1	103.13
6098	5.6939	5.4545	0.1	77.321
6099	5.6939	5.6364	0.1	50.684
6100	5.6939	5.8182	0.1	23.33
6101	5.8776	0.18182	0.1	21.201
6102	5.8776	0.36364	0.1	46.472
6103	5.8776	0.54545	0.1	71.034
6104	5.8776	0.72727	0.1	94.816
6105	5.8776	0.90909	0.1	117.7
6106	5.8776	1.0909	0.1	139.48
6107	5.8776	1.2727	0.1	159.99
6108	5.8776	1.4545	0.1	179.04
6109	5.8776	1.6364	0.1	196.46
6110	5.8776	1.8182	0.1	212.08
6111	5.8776	2.	0.1	225.77
6112	5.8776	2.1818	0.1	237.39
6113	5.8776	2.3636	0.1	246.83
6114	5.8776	2.5455	0.1	253.99
6115	5.8776	2.7273	0.1	258.8
6116	5.8776	2.9091	0.1	261.22
6117	5.8776	3.0909	0.1	261.22
6118	5.8776	3.2727	0.1	258.8
6119	5.8776	3.4545	0.1	253.99
6120	5.8776	3.6364	0.1	246.83
6121	5.8776	3.8182	0.1	237.39
6122	5.8776	4.	0.1	225.77
6123	5.8776	4.1818	0.1	212.08
6124	5.8776	4.3636	0.1	196.46
6125	5.8776	4.5455	0.1	179.04
6126	5.8776	4.7273	0.1	159.99
6127	5.8776	4.9091	0.1	139.48
6128	5.8776	5.0909	0.1	117.7
6129	5.8776	5.2727	0.1	94.816
6130	5.8776	5.4545	0.1	71.034
6131	5.8776	5.6364	0.1	46.472
6132	5.8776	5.8182	0.1	21.201
6133	6.0612	0.18182	0.1	19.147
6134	6.0612	0.36364	0.1	42.499
6135	6.0612	0.54545	0.1	65.143
6136	6.0612	0.72727	0.1	87.052
6137	6.0612	0.90909	0.1	108.12
6138	6.0612	1.0909	0.1	128.16
6139	6.0612	1.2727	0.1	147.02
6140	6.0612	1.4545	0.1	164.52
6141	6.0612	1.6364	0.1	180.51
6142	6.0612	1.8182	0.1	194.86
6143	6.0612	2.	0.1	207.42
6144	6.0612	2.1818	0.1	218.08
6145	6.0612	2.3636	0.1	226.73
6146	6.0612	2.5455	0.1	233.29
6147	6.0612	2.7273	0.1	237.71
6148	6.0612	2.9091	0.1	239.92
6149	6.0612	3.0909	0.1	239.92
6150	6.0612	3.2727	0.1	237.71
6151	6.0612	3.4545	0.1	233.29
6152	6.0612	3.6364	0.1	226.73
6153	6.0612	3.8182	0.1	218.08
6154	6.0612	4.	0.1	207.42
6155	6.0612	4.1818	0.1	194.86
6156	6.0612	4.3636	0.1	180.51
6157	6.0612	4.5455	0.1	164.52
6158	6.0612	4.7273	0.1	147.02
6159	6.0612	4.9091	0.1	128.16
6160	6.0612	5.0909	0.1	108.12
6161	6.0612	5.2727	0.1	87.052
6162	6.0612	5.4545	0.1	65.143
6163	6.0612	5.6364	0.1	42.499
6164	6.0612	5.8182	0.1	19.147
6165	6.2449	0.18182	0.1	17.172
6166	6.2449	0.36364	0.1	38.755
6167	6.2449	0.54545	0.1	59.628
6168	6.2449	0.72727	0.1	79.808
6169	6.2449	0.90909	0.1	99.199
6170	6.2449	1.0909	0.1	117.64
6171	6.2449	1.2727	0.1	134.97
6172	6.2449	1.4545	0.1	151.06
6173	6.2449	1.6364	0.1	165.75
6174	6.2449	1.8182	0.1	178.92
6175	6.2449	2.	0.1	190.44
6176	6.2449	2.1818	0.1	200.22
6177	6.2449	2.3636	0.1	208.16
6178	6.2449	2.5455	0.1	214.17
6179	6.2449	2.7273	0.1	218.22
6180	6.2449	2.9091	0.1	220.25
6181	6.2449	3.0909	0.1	220.25
6182	6.2449	3.2727	0.1	218.22
6183	6.2449	3.4545	0.1	214.17
6184	6.2449	3.6364	0.1	208.16
6185	6.2449	3.8182	0.1	200.22
6186	6.2449	4.	0.1	190.44
6187	6.2449	4.1818	0.1	178.92
6188	6.2449	4.3636	0.1	165.75
6189	6.2449	4.5455	0.1	151.06
6190	6.2449	4.7273	0.1	134.97
6191	6.2449	4.9091	0.1	117.64
6192	6.2449	5.0909	0.1	99.199
6193	6.2449	5.2727	0.1	79.808
6194	6.2449	5.4545	0.1	59.628
6195	6.2449	5.6364	0.1	38.755
6196	6.2449	5.8182	0.1	17.172
6197	6.4286	0.18182	0.1	15.279
6198	6.4286	0.36364	0.1	35.233
6199	6.4286	0.54545	0.1	54.469
6200	6.4286	0.72727	0.1	73.053
6201	6.4286	0.90909	0.1	90.901
6202	6.4286	1.0909	0.1	107.86
6203	6.4286	1.2727	0.1	123.8
6204	6.4286	1.4545	0.1	138.58
6205	6.4286	1.6364	0.1	152.07
6206	6.4286	1.8182	0.1	164.16
6207	6.4286	2.	0.1	174.74
6208	6.4286	2.1818	0.1	183.71
6209	6.4286	2.3636	0.1	190.99
6210	6.4286	2.5455	0.1	196.51
6211	6.4286	2.7273	0.1	200.22
6212	6.4286	2.9091	0.1	202.08
6213	6.4286	3.0909	0.1	202.08
6214	6.4286	3.2727	0.1	200.22
6215	6.4286	3.4545	0.1	196.51
6216	6.4286	3.6364	0.1	190.99
6217	6.4286	3.8182	0.1	183.71
6218	6.4286	4.	0.1	174.74
6219	6.4286	4.1818	0.1	164.16
6220	6.4286	4.3636	0.1	152.07
6221	6.4286	4.5455	0.1	138.58
6222	6.4286	4.7273	0.1	123.8
6223	6.4286	4.9091	0.1	107.86
6224	6.4286	5.0909	0.1	90.901
6225	6.4286	5.2727	0.1	73.053
6226	6.4286	5.4545	0.1	54.469
6227	6.4286	5.6364	0.1	35.233
6228	6.4286	5.8182	0.1	15.279
6229	6.6122	0.18182	0.1	13.47
6230	6.6122	0.36364	0.1	31.921
6231	6.6122	0.54545	0.1	49.646
6232	6.6122	0.72727	0.1	66.758
6233	6.6122	0.90909	0.1	83.182
6234	6.6122	1.0909	0.1	98.783
6235	6.6122	1.2727	0.1	113.44
6236	6.6122	1.4545	0.1	127.02
6237	6.6122	1.6364	0.1	139.41
6238	6.6122	1.8182	0.1	150.51
6239	6.6122	2.	0.1	160.22
6240	6.6122	2.1818	0.1	168.45
6241	6.6122	2.3636	0.1	175.12
6242	6.6122	2.5455	0.1	180.18
6243	6.6122	2.7273	0.1	183.58
6244	6.6122	2.9091	0.1	185.29
6245	6.6122	3.0909	0.1	185.29
6246	6.6122	3.2727	0.1	183.58
6247	6.6122	3.4545	0.1	180.18
6248	6.6122	3.6364	0.1	175.12
6249	6.6122	3.8182	0.1	168.45
6250	6.6122	4.	0.1	160.22
6251	6.6122	4.1818	0.1	150.51
6252	6.6122	4.3636	0.1	139.41
6253	6.6122	4.5455	0.1	127.02
6254	6.6122	4.7273	0.1	113.44
6255	6.6122	4.9091	0.1	98.783
6256	6.6122	5.0909	0.1	83.182
6257	6.6122	5.2727	0.1	66.758
6258	6.6122	5.4545	0.1	49.646
6259	6.6122	5.6364	0.1	31.921
6260	6.6122	5.8182	0.1	13.47
6261	6.7959	0.18182	0.1	11.746
6262	6.7959	0.36364	0.1	28.812
6263	6.7959	0.54545	0.1	45.14
6264	6.7959	0.72727	0.1	60.892
6265	6.7959	0.90909	0.1	76.003
6266	6.7959	1.0909	0.1	90.351
6267	6.7959	1.2727	0.1	103.82
6268	6.7959	1.4545	0.1	116.3
6269	6.7959	1.6364	0.1	127.68
6270	6.7959	1.8182	0.1	137.87
6271	6.7959	2.	0.1	146.78
6272	6.7959	2.1818	0.1	154.33
6273	6.7959	2.3636	0.1	160.45
6274	6.7959	2.5455	0.1	165.1
6275	6.7959	2.7273	0.1	168.21
6276	6.7959	2.9091	0.1	169.78
6277	6.7959	3.0909	0.1	169.78
6278	6.7959	3.2727	0.1	168.21
6279	6.7959	3.4545	0.1	165.1
6280	6.7959	3.6364	0.1	160.45
6281	6.7959	3.8182	0.1	154.33
6282	6.7959	4.	0.1	146.78
6283	6.7959	4.1818	0.1	137.87
6284	6.7959	4.3636	0.1	127.68
6285	6.7959	4.5455	0.1	116.3
6286	6.7959	4.7273	0.1	103.82
6287	6.7959	4.9091	0.1	90.351
6288	6.7959	5.0909	0.1	76.003
6289	6.7959	5.2727	0.1	60.892
6290	6.7959	5.4545	0.1	45.14
6291	6.7959	5.6364	0.1	28.812
6292	6.7959	5.8182	0.1	11.746
6293	6.9796	0.18182	0.1	10.107
6294	6.9796	0.36364	0.1	25.895
6295	6.9796	0.54545	0.1	40.932
6296	6.9796	0.72727	0.1	55.429
6297	6.9796	0.90909	0.1	69.329
6298	6.9796	1.0909	0.1	82.522
6299	6.9796	1.2727	0.1	94.9
6300	6.9796	1.4545	0.1	106.36
6301	6.9796	1.6364	0.1	116.82
6302	6.9796	1.8182	0.1	126.17
6303	6.9796	2.	0.1	134.35
6304	6.9796	2.1818	0.1	141.28
6305	6.9796	2.3636	0.1	146.89
6306	6.9796	2.5455	0.1	151.15
6307	6.9796	2.7273	0.1	154.01
6308	6.9796	2.9091	0.1	155.45
6309	6.9796	3.0909	0.1	155.45
6310	6.9796	3.2727	0.1	154.01
6311	6.9796	3.4545	0.1	151.15
6312	6.9796	3.6364	0.1	146.89
6313	6.9796	3.8182	0.1	141.28
6314	6.9796	4.	0.1	134.35
6315	6.9796	4.1818	0.1	126.17
6316	6.9796	4.3636	0.1	116.82
6317	6.9796	4.5455	0.1	106.36
6318	6.9796	4.7273	0.1	94.9
6319	6.9796	4.9091	0.1	82.522
6320	6.9796	5.0909	0.1	69.329
6321	6.9796	5.2727	0.1	55.429
6322	6.9796	5.4545	0.1	40.932
6323	6.9796	5.6364	0.1	25.895
6324	6.9796	5.8182	0.1	10.107
6325	7.1633	0.18182	0.1	8.5509
6326	7.1633	0.36364	0.1	23.16
6327	7.1633	0.54545	0.1	37.004
6328	7.1633	0.72727	0.1	50.342
6329	7.1633	0.90909	0.1	63.125
6330	7.1633	1.0909	0.1	75.252
6331	7.1633	1.2727	0.1	86.626
6332	7.1633	1.4545	0.1	97.155
6333	7.1633	1.6364	0.1	106.75
6334	7.1633	1.8182	0.1	115.34
6335	7.1633	2.	0.1	122.84
6336	7.1633	2.1818	0.1	129.2
6337	7.1633	2.3636	0.1	134.35
6338	7.1633	2.5455	0.1	138.25
6339	7.1633	2.7273	0.1	140.88
6340	7.1633	2.9091	0.1	142.19
6341	7.1633	3.0909	0.1	142.19
6342	7.1633	3.2727	0.1	140.88
6343	7.1633	3.4545	0.1	138.25
6344	7.1633	3.6364	0.1	134.35
6345	7.1633	3.8182	0.1	129.2
6346	7.1633	4.	0.1	122.84
6347	7.1633	4.1818	0.1	115.34
6348	7.1633	4.3636	0.1	106.75
6349	7.1633	4.5455	0.1	97.155
6350	7.1633	4.7273	0.1	86.626
6351	7.1633	4.9091	0.1	75.252
6352	7.1633	5.0909	0.1	63.125
6353	7.1633	5.2727	0.1	50.342
6354	7.1633	5.4545	0.1	37.004
6355	7.1633	5.6364	0.1	23.16
6356	7.1633	5.8182	0.1	8.5509
6357	7.3469	0.18182	0.1	7.0777
6358	7.3469	0.36364	0.1	20.597
6359	7.3469	0.54545	0.1	33.339
6360	7.3469	0.72727	0.1	45.605
6361	7.3469	0.90909	0.1	57.357
6362	7.3469	1.0909	0.1	68.501
6363	7.3469	1.2727	0.1	78.95
6364	7.3469	1.4545	0.1	88.619
6365	7.3469	1.6364	0.1	97.43
6366	7.3469	1.8182	0.1	105.31
6367	7.3469	2.	0.1	112.19
6368	7.3469	2.1818	0.1	118.02
6369	7.3469	2.3636	0.1	122.75
6370	7.3469	2.5455	0.1	126.33
6371	7.3469	2.7273	0.1	128.73
6372	7.3469	2.9091	0.1	129.94
6373	7.3469	3.0909	0.1	129.94
6374	7.3469	3.2727	0.1	128.73
6375	7.3469	3.4545	0.1	126.33
6376	7.3469	3.6364	0.1	122.75
6377	7.3469	3.8182	0.1	118.02
6378	7.3469	4.	0.1	112.19
6379	7.3469	4.1818	0.1	105.31
6380	7.3469	4.3636	0.1	97.43
6381	7.3469	4.5455	0.1	88.619
6382	7.3469	4.7273	0.1	78.95
6383	7.3469	4.9091	0.1	68.501
6384	7.3469	5.0909	0.1	57.357
6385	7.3469	5.2727	0.1	45.605
6386	7.3469	5.4545	0.1	33.339
6387	7.3469	5.6364	0.1	20.597
6388	7.3469	5.8182	0.1	7.0777
6389	7.5306	0.18182	0.1	5.6858
6390	7.5306	0.36364	0.1	18.196
6391	7.5306	0.54545	0.1	29.919
6392	7.5306	0.72727	0.1	41.196
6393	7.5306	0.90909	0.1	51.995
6394	7.5306	1.0909	0.1	62.232
6395	7.5306	1.2727	0.1	71.828
6396	7.5306	1.4545	0.1	80.704
6397	7.5306	1.6364	0.1	88.79
6398	7.5306	1.8182	0.1	96.02
6399	7.5306	2.	0.1	102.33
6400	7.5306	2.1818	0.1	107.68
6401	7.5306	2.3636	0.1	112.01
6402	7.5306	2.5455	0.1	115.29
6403	7.5306	2.7273	0.1	117.5
6404	7.5306	2.9091	0.1	118.6
6405	7.5306	3.0909	0.1	118.6
6406	7.5306	3.2727	0.1	117.5
6407	7.5306	3.4545	0.1	115.29
6408	7.5306	3.6364	0.1	112.01
6409	7.5306	3.8182	0.1	107.68
6410	7.5306	4.	0.1	102.33
6411	7.5306	4.1818	0.1	96.02
6412	7.5306	4.3636	0.1	88.79
6413	7.5306	4.5455	0.1	80.704
6414	7.5306	4.7273	0.1	71.828
6415	7.5306	4.9091	0.1	62.232
6416	7.5306	5.0909	0.1	51.995
6417	7.5306	5.2727	0.1	41.196
6418	7.5306	5.4545	0.1	29.919
6419	7.5306	5.6364	0.1	18.196
6420	7.5306	5.8182	0.1	5.6858
6421	7.7143	0.18182	0.1	4.3749
6422	7.7143	0.36364	0.1	15.949
6423	7.7143	0.54545	0.1	26.729
6424	7.7143	0.72727	0.1	37.091
6425	7.7143	0.90909	0.1	47.01
6426	7.7143	1.0909	0.1	56.411
6427	7.7143	1.2727	0.1	65.218
6428	7.7143	1.4545	0.1	73.364
6429	7.7143	1.6364	0.1	80.782
6430	7.7143	1.8182	0.1	87.413
6431	7.7143	2.	0.1	93.202
6432	7.7143	2.1818	0.1	98.103
6433	7.7143	2.3636	0.1	102.07
6434	7.7143	2.5455	0.1	105.08
6435	7.7143	2.7273	0.1	107.1
6436	7.7143	2.9091	0.1	108.11
6437	7.7143	3.0909	0.1	108.11
6438	7.7143	3.2727	0.1	107.1
6439	7.7143	3.4545	0.1	105.08
6440	7.7143	3.6364	0.1	102.07
6441	7.7143	3.8182	0.1	98.103
6442	7.7143	4.	0.1	93.202
6443	7.7143	4.1818	0.1	87.413
6444	7.7143	4.3636	0.1	80.782
6445	7.7143	4.5455	0.1	73.364
6446	7.7143	4.7273	0.1	65.218
6447	7.7143	4.9091	0.1	56.411
6448	7.7143	5.0909	0.1	47.01
6449	7.7143	5.2727	0.1	37.091
6450	7.7143	5.4545	0.1	26.729
6451	7.7143	5.6364	0.1	15.949
6452	7.7143	5.8182	0.1	4.3749
6453	7.898	0.18182	0.1	3.1474
6454	7.898	0.36364	0.1	13.845
6455	7.898	0.54545	0.1	23.754
6456	7.898	0.72727	0.1	33.269
6457	7.898	0.90909	0.1	42.375
6458	7.898	1.0909	0.1	51.002
6459	7.898	1.2727	0.1	59.083
6460	7.898	1.4545	0.1	66.554
6461	7.898	1.6364	0.1	73.356
6462	7.898	1.8182	0.1	79.435
6463	7.898	2.	0.1	84.741
6464	7.898	2.1818	0.1	89.232
6465	7.898	2.3636	0.1	92.87
6466	7.898	2.5455	0.1	95.626
6467	7.898	2.7273	0.1	97.475
6468	7.898	2.9091	0.1	98.404
6469	7.898	3.0909	0.1	98.404
6470	7.898	3.2727	0.1	97.475
6471	7.898	3.4545	0.1	95.626
6472	7.898	3.6364	0.1	92.87
6473	7.898	3.8182	0.1	89.232
6474	7.898	4.	0.1	84.741
6475	7.898	4.1818	0.1	79.435
6476	7.898	4.3636	0.1	73.356
6477	7.898	4.5455	0.1	66.554
6478	7.898	4.7273	0.1	59.083
6479	7.898	4.9091	0.1	51.002
6480	7.898	5.0909	0.1	42.375
6481	7.898	5.2727	0.1	33.269
6482	7.898	5.4545	0.1	23.754
6483	7.898	5.6364	0.1	13.845
6484	7.898	5.8182	0.1	3.1474
6485	8.0816	0.18182	0.1	2.015
6486	8.0816	0.36364	0.1	11.877
6487	8.0816	0.54545	0.1	20.977
6488	8.0816	0.72727	0.1	29.71
6489	8.0816	0.90909	0.1	38.064
6490	8.0816	1.0909	0.1	45.976
6491	8.0816	1.2727	0.1	53.385
6492	8.0816	1.4545	0.1	60.233
6493	8.0816	1.6364	0.1	66.467
6494	8.0816	1.8182	0.1	72.036
6495	8.0816	2.	0.1	76.897
6496	8.0816	2.1818	0.1	81.01
6497	8.0816	2.3636	0.1	84.342
6498	8.0816	2.5455	0.1	86.865
6499	8.0816	2.7273	0.1	88.559
6500	8.0816	2.9091	0.1	89.409
6501	8.0816	3.0909	0.1	89.409
6502	8.0816	3.2727	0.1	88.559
6503	8.0816	3.4545	0.1	86.865
6504	8.0816	3.6364	0.1	84.342
6505	8.0816	3.8182	0.1	81.01
6506	8.0816	4.	0.1	76.897
6507	8.0816	4.1818	0.1	72.036
6508	8.0816	4.3636	0.1	66.467
6509	8.0816	4.5455	0.1	60.233
6510	8.0816	4.7273	0.1	53.385
6511	8.0816	4.9091	0.1	45.976
6512	8.0816	5.0909	0.1	38.064
6513	8.0816	5.2727	0.1	29.71
6514	8.0816	5.4545	0.1	20.977
6515	8.0816	5.6364	0.1	11.877
6516	8.0816	5.8182	0.1	2.0151
6517	8.2653	0.18182	0.1	1.0307
6518	8.2653	0.36364	0.1	10.034
6519	8.2653	0.54545	0.1	18.387
6520	8.2653	0.72727	0.1	26.395
6521	8.2653	0.90909	0.1	34.053
6522	8.2653	1.0909	0.1	41.303
6523	8.2653	1.2727	0.1	48.091
6524	8.2653	1.4545	0.1	54.364
6525	8.2653	1.6364	0.1	60.073
6526	8.2653	1.8182	0.1	65.172
6527	8.2653	2.	0.1	69.622
6528	8.2653	2.1818	0.1	73.386
6529	8.2653	2.3636	0.1	76.436
6530	8.2653	2.5455	0.1	78.744
6531	8.2653	2.7273	0.1	80.294
6532	8.2653	2.9091	0.1	81.072
6533	8.2653	3.0909	0.1	81.072
6534	8.2653	3.2727	0.1	80.294
6535	8.2653	3.4545	0.1	78.744
6536	8.2653	3.6364	0.1	76.436
6537	8.2653	3.8182	0.1	73.386
6538	8.2653	4.	0.1	69.622
6539	8.2653	4.1818	0.1	65.172
6540	8.2653	4.3636	0.1	60.073
6541	8.2653	4.5455	0.1	54.364
6542	8.2653	4.7273	0.1	48.091
6543	8.2653	4.9091	0.1	41.303
6544	8.2653	5.0909	0.1	34.053
6545	8.2653	5.2727	0.1	26.395
6546	8.2653	5.4545	0.1	18.387
6547	8.2653	5.6364	0.1	10.034
6548	8.2653	5.8182	0.1	1.0307
6549	8.449	0.18182	0.1	0.38907
6550	8.449	0.36364	0.1	8.3089
6551	8.449	0.54545	0.1	15.969
6552	8.449	0.72727	0.1	23.305
6553	8.449	0.90909	0.1	30.318
6554	8.449	1.0909	0.1	36.957
6555	8.449	1.2727	0.1	43.17
6556	8.449	1.4545	0.1	48.911
6557	8.449	1.6364	0.1	54.134
6558	8.449	1.8182	0.1	58.799
6559	8.449	2.	0.1	62.869
6560	8.449	2.1818	0.1	66.312
6561	8.449	2.3636	0.1	69.1
6562	8.449	2.5455	0.1	71.211
6563	8.449	2.7273	0.1	72.628
6564	8.449	2.9091	0.1	73.339
6565	8.449	3.0909	0.1	73.339
6566	8.449	3.2727	0.1	72.628
6567	8.449	3.4545	0.1	71.211
6568	8.449	3.6364	0.1	69.1
6569	8.449	3.8182	0.1	66.312
6570	8.449	4.	0.1	62.869
6571	8.449	4.1818	0.1	58.799
6572	8.449	4.3636	0.1	54.134
6573	8.449	4.5455	0.1	48.911
6574	8.449	4.7273	0.1	43.17
6575	8.449	4.9091	0.1	36.957
6576	8.449	5.0909	0.1	30.318
6577	8.449	5.2727	0.1	23.305
6578	8.449	5.4545	0.1	15.969
6579	8.449	5.6364	0.1	8.3089
6580	8.449	5.8182	0.1	0.38908
6581	8.6327	0.18182	0.1	0.16263
6582	8.6327	0.36364	0.1	6.6937
6583	8.6327	0.54545	0.1	13.711
6584	8.6327	0.72727	0.1	20.424
6585	8.6327	0.90909	0.1	26.84
6586	8.6327	1.0909	0.1	32.911
6587	8.6327	1.2727	0.1	38.592
6588	8.6327	1.4545	0.1	43.84
6589	8.6327	1.6364	0.1	48.614
6590	8.6327	1.8182	0.1	52.877
6591	8.6327	2.	0.1	56.596
6592	8.6327	2.1818	0.1	59.741
6593	8.6327	2.3636	0.1	62.288
6594	8.6327	2.5455	0.1	64.217
6595	8.6327	2.7273	0.1	65.511
6596	8.6327	2.9091	0.1	66.161
6597	8.6327	3.0909	0.1	66.161
6598	8.6327	3.2727	0.1	65.511
6599	8.6327	3.4545	0.1	64.217
6600	8.6327	3.6364	0.1	62.288
6601	8.6327	3.8182	0.1	59.741
6602	8.6327	4.	0.1	56.596
6603	8.6327	4.1818	0.1	52.877
6604	8.6327	4.3636	0.1	48.614
6605	8.6327	4.5455	0.1	43.84
6606	8.6327	4.7273	0.1	38.592
6607	8.6327	4.9091	0.1	32.911
6608	8.6327	5.0909	0.1	26.84
6609	8.6327	5.2727	0.1	20.424
6610	8.6327	5.4545	0.1	13.711
6611	8.6327	5.6364	0.1	6.6937
6612	8.6327	5.8182	0.1	0.16263
6613	8.8163	0.18182	0.1	8.8223e-002
6614	8.8163	0.36364	0.1	5.1807
6615	8.8163	0.54545	0.1	11.601
6616	8.8163	0.72727	0.1	17.736
6617	8.8163	0.90909	0.1	23.597
6618	8.8163	1.0909	0.1	29.142
6619	8.8163	1.2727	0.1	34.33
6620	8.8163	1.4545	0.1	39.121
6621	8.8163	1.6364	0.1	43.479
6622	8.8163	1.8182	0.1	47.369
6623	8.8163	2.	0.1	50.763
6624	8.8163	2.1818	0.1	53.633
6625	8.8163	2.3636	0.1	55.957
6626	8.8163	2.5455	0.1	57.717
6627	8.8163	2.7273	0.1	58.898
6628	8.8163	2.9091	0.1	59.49
6629	8.8163	3.0909	0.1	59.49
6630	8.8163	3.2727	0.1	58.898
6631	8.8163	3.4545	0.1	57.717
6632	8.8163	3.6364	0.1	55.957
6633	8.8163	3.8182	0.1	53.633
6634	8.8163	4.	0.1	50.763
6635	8.8163	4.1818	0.1	47.369
6636	8.8163	4.3636	0.1	43.479
6637	8.8163	4.5455	0.1	39.121
6638	8.8163	4.7273	0.1	34.33
6639	8.8163	4.9091	0.1	29.142
6640	8.8163	5.0909	0.1	23.597
6641	8.8163	5.2727	0.1	17.736
6642	8.8163	5.4545	0.1	11.601
6643	8.8163	5.6364	0.1	5.1807
6644	8.8163	5.8182	0.1	8.8225e-002
6645	9.	0.18182	0.1	5.5444e-002
6646	9.	0.36364	0.1	3.7626
6647	9.	0.54545	0.1	9.6274
6648	9.	0.72727	0.1	15.225
6649	9.	0.90909	0.1	20.571
6650	9.	1.0909	0.1	25.627
6651	9.	1.2727	0.1	30.357
6652	9.	1.4545	0.1	34.724
6653	9.	1.6364	0.1	38.696
6654	9.	1.8182	0.1	42.242
6655	9.	2.	0.1	45.334
6656	9.	2.1818	0.1	47.949
6657	9.	2.3636	0.1	50.067
6658	9.	2.5455	0.1	51.67
6659	9.	2.7273	0.1	52.745
6660	9.	2.9091	0.1	53.285
6661	9.	3.0909	0.1	53.285
6662	9.	3.2727	0.1	52.745
6663	9.	3.4545	0.1	51.67
6664	9.	3.6364	0.1	50.067
6665	9.	3.8182	0.1	47.949
6666	9.	4.	0.1	45.334
6667	9.	4.1818	0.1	42.242
6668	9.	4.3636	0.1	38.696
6669	9.	4.5455	0.1	34.724
6670	9.	4.7273	0.1	30.357
6671	9.	4.9091	0.1	25.627
6672	9.	5.0909	0.1	20.571
6673	9.	5.2727	0.1	15.225
6674	9.	5.4545	0.1	9.6274
6675	9.	5.6364	0.1	3.7627
6676	9.	5.8182	0.1	5.5445e-002
6677	9.1837	0.18182	0.1	3.783e-002
6678	9.1837	0.36364	0.1	2.4328
6679	9.1837	0.54545	0.1	7.7802
6680	9.1837	0.72727	0.1	12.877
6681	9.1837	0.90909	0.1	17.744
6682	9.1837	1.0909	0.1	22.346
6683	9.1837	1.2727	0.1	26.649
6684	9.1837	1.4545	0.1	30.623
6685	9.1837	1.6364	0.1	34.236
6686	9.1837	1.8182	0.1	37.461
6687	9.1837	2.	0.1	40.274
6688	9.1837	2.1818	0.1	42.653
6689	9.1837	2.3636	0.1	44.579
6690	9.1837	2.5455	0.1	46.037
6691	9.1837	2.7273	0.1	47.015
6692	9.1837	2.9091	0.1	47.506
6693	9.1837	3.0909	0.1	47.506
6694	9.1837	3.2727	0.1	47.015
6695	9.1837	3.4545	0.1	46.037
6696	9.1837	3.6364	0.1	44.579
6697	9.1837	3.8182	0.1	42.653
6698	9.1837	4.	0.1	40.274
6699	9.1837	4.1818	0.1	37.461
6700	9.1837	4.3636	0.1	34.236
6701	9.1837	4.5455	0.1	30.623
6702	9.1837	4.7273	0.1	26.649
6703	9.1837	4.9091	0.1	22.346
6704	9.1837	5.0909	0.1	17.744
6705	9.1837	5.2727	0.1	12.877
6706	9.1837	5.4545	0.1	7.7803
6707	9.1837	5.6364	0.1	2.4328
6708	9.1837	5.8182	0.1	3.7831e-002
6709	9.3673	0.18182	0.1	2.715e-002
6710	9.3673	0.36364	0.1	1.1851
6711	9.3673	0.54545	0.1	6.0492
6712	9.3673	0.72727	0.1	10.68
6713	9.3673	0.90909	0.1	15.099
6714	9.3673	1.0909	0.1	19.277
6715	9.3673	1.2727	0.1	23.185
6716	9.3673	1.4545	0.1	26.791
6717	9.3673	1.6364	0.1	30.071
6718	9.3673	1.8182	0.1	32.999
6719	9.3673	2.	0.1	35.552
6720	9.3673	2.1818	0.1	37.711
6721	9.3673	2.3636	0.1	39.459
6722	9.3673	2.5455	0.1	40.782
6723	9.3673	2.7273	0.1	41.67
6724	9.3673	2.9091	0.1	42.116
6725	9.3673	3.0909	0.1	42.116
6726	9.3673	3.2727	0.1	41.67
6727	9.3673	3.4545	0.1	40.782
6728	9.3673	3.6364	0.1	39.459
6729	9.3673	3.8182	0.1	37.711
6730	9.3673	4.	0.1	35.552
6731	9.3673	4.1818	0.1	32.999
6732	9.3673	4.3636	0.1	30.071
6733	9.3673	4.5455	0.1	26.791
6734	9.3673	4.7273	0.1	23.185
6735	9.3673	4.9091	0.1	19.277
6736	9.3673	5.0909	0.1	15.099
6737	9.3673	5.2727	0.1	10.68
6738	9.3673	5.4545	0.1	6.0492
6739	9.3673	5.6364	0.1	1.1852
6740	9.3673	5.8182	0.1	2.7151e-002
6741	9.551	0.18182	0.1	2.0146e-002
6742	9.551	0.36364	0.1	5.6294e-002
6743	9.551	0.54545	0.1	4.4245
6744	9.551	0.72727	0.1	8.6191
6745	9.551	0.90909	0.1	12.621
6746	9.551	1.0909	0.1	16.404
6747	9.551	1.2727	0.1	19.941
6748	9.551	1.4545	0.1	23.206
6749	9.551	1.6364	0.1	26.175
6750	9.551	1.8182	0.1	28.825
6751	9.551	2.	0.1	31.137
6752	9.551	2.1818	0.1	33.091
6753	9.551	2.3636	0.1	34.674
6754	9.551	2.5455	0.1	35.872
6755	9.551	2.7273	0.1	36.676
6756	9.551	2.9091	0.1	37.079
6757	9.551	3.0909	0.1	37.079
6758	9.551	3.2727	0.1	36.676
6759	9.551	3.4545	0.1	35.872
6760	9.551	3.6364	0.1	34.674
6761	9.551	3.8182	0.1	33.091
6762	9.551	4.	0.1	31.137
6763	9.551	4.1818	0.1	28.825
6764	9.551	4.3636	0.1	26.175
6765	9.551	4.5455	0.1	23.206
6766	9.551	4.7273	0.1	19.941
6767	9.551	4.9091	0.1	16.404
6768	9.551	5.0909	0.1	12.621
6769	9.551	5.2727	0.1	8.6191
6770	9.551	5.4545	0.1	4.4246
6771	9.551	5.6364	0.1	5.6315e-002
6772	9.551	5.8182	0.1	2.0147e-002
6773	9.7347	0.18182	0.1	1.5316e-002
6774	9.7347	0.36364	0.1	-1.1416e-002
6775	9.7347	0.54545	0.1	2.8974
6776	9.7347	0.72727	0.1	6.6835
6777	9.7347	0.90909	0.1	10.294
6778	9.7347	1.0909	0.1	13.708
6779	9.7347	1.2727	0.1	16.899
6780	9.7347	1.4545	0.1	19.845
6781	9.7347	1.6364	0.1	22.523
6782	9.7347	1.8182	0.1	24.915
6783	9.7347	2.	0.1	27.001
6784	9.7347	2.1818	0.1	28.765
6785	9.7347	2.3636	0.1	30.193
6786	9.7347	2.5455	0.1	31.275
6787	9.7347	2.7273	0.1	32.001
6788	9.7347	2.9091	0.1	32.365
6789	9.7347	3.0909	0.1	32.365
6790	9.7347	3.2727	0.1	32.001
6791	9.7347	3.4545	0.1	31.275
6792	9.7347	3.6364	0.1	30.193
6793	9.7347	3.8182	0.1	28.765
6794	9.7347	4.	0.1	27.001
6795	9.7347	4.1818	0.1	24.915
6796	9.7347	4.3636	0.1	22.523
6797	9.7347	4.5455	0.1	19.845
6798	9.7347	4.7273	0.1	16.899
6799	9.7347	4.9091	0.1	13.708
6800	9.7347	5.0909	0.1	10.294
6801	9.7347	5.2727	0.1	6.6835
6802	9.7347	5.4545	0.1	2.8974
6803	9.7347	5.6364	0.1	-1.1415e-002
6804	9.7347	5.8182	0.1	1.5317e-002
6805	9.9184	0.18182	0.1	1.1848e-002
6806	9.9184	0.36364	0.1	-1.0514e-002
6807	9.9184	0.54545	0.1	1.4596
6808	9.9184	0.72727	0.1	4.8617
6809	9.9184	0.90909	0.1	8.1057
6810	9.9184	1.0909	0.1	11.172
6811	9.9184	1.2727	0.1	14.039
6812	9.9184	1.4545	0.1	16.686
6813	9.9184	1.6364	0.1	19.093
6814	9.9184	1.8182	0.1	21.243
6815	9.9184	2.	0.1	23.118
6816	9.9184	2.1818	0.1	24.705
6817	9.9184	2.3636	0.1	25.989
6818	9.9184	2.5455	0.1	26.962
6819	9.9184	2.7273	0.1	27.615
6820	9.9184	2.9091	0.1	27.943
6821	9.9184	3.0909	0.1	27.943
6822	9.9184	3.2727	0.1	27.615
6823	9.9184	3.4545	0.1	26.962
6824	9.9184	3.6364	0.1	25.989
6825	9.9184	3.8182	0.1	24.705
6826	9.9184	4.	0.1	23.118
6827	9.9184	4.1818	0.1	21.243
6828	9.9184	4.3636	0.1	19.093
6829	9.9184	4.5455	0.1	16.686
6830	9.9184	4.7273	0.1	14.039
6831	9.9184	4.9091	0.1	11.172
6832	9.9184	5.0909	0.1	8.1057
6833	9.9184	5.2727	0.1	4.8617
6834	9.9184	5.4545	0.1	1.4596
6835	9.9184	5.6364	0.1	-1.0512e-002
6836	9.9184	5.8182	0.1	1.1849e-002
6837	10.102	0.18182	0.1	9.2656e-003
6838	10.102	0.36364	0.1	-8.6963e-003
6839	10.102	0.54545	0.1	0.12177
6840	10.102	0.72727	0.1	3.1428
6841	10.102	0.90909	0.1	6.0409
6842	10.102	1.0909	0.1	8.7807
6843	10.102	1.2727	0.1	11.343
6844	10.102	1.4545	0.1	13.709
6845	10.102	1.6364	0.1	15.862
6846	10.102	1.8182	0.1	17.786
6847	10.102	2.	0.1	19.464
6848	10.102	2.1818	0.1	20.884
6849	10.102	2.3636	0.1	22.035
6850	10.102	2.5455	0.1	22.907
6851	10.102	2.7273	0.1	23.492
6852	10.102	2.9091	0.1	23.786
6853	10.102	3.0909	0.1	23.786
6854	10.102	3.2727	0.1	23.492
6855	10.102	3.4545	0.1	22.907
6856	10.102	3.6364	0.1	22.035
6857	10.102	3.8182	0.1	20.884
6858	10.102	4.	0.1	19.464
6859	10.102	4.1818	0.1	17.786
6860	10.102	4.3636	0.1	15.862
6861	10.102	4.5455	0.1	13.709
6862	10.102	4.7273	0.1	11.343
6863	10.102	4.9091	0.1	8.7807
6864	10.102	5.0909	0.1	6.0409
6865	10.102	5.2727	0.1	3.1428
6866	10.102	5.4545	0.1	0.12178
6867	10.102	5.6364	0.1	-8.6955e-003
6868	10.102	5.8182	0.1	9.2662e-003
6869	10.286	0.18182	0.1	7.2911e-003
6870	10.286	0.36364	0.1	-6.7568e-003
6871	10.286	0.54545	0.1	1.1376e-003
6872	10.286	0.72727	0.1	1.518
6873	10.286	0.90909	0.1	4.0877
6874	10.286	1.0909	0.1	6.5192
6875	10.286	1.2727	0.1	8.7943
6876	10.286	1.4545	0.1	10.897
6877	10.286	1.6364	0.1	12.811
6878	10.286	1.8182	0.1	14.521
6879	10.286	2.	0.1	16.015
6880	10.286	2.1818	0.1	17.28
6881	10.286	2.3636	0.1	18.305
6882	10.286	2.5455	0.1	19.082
6883	10.286	2.7273	0.1	19.604
6884	10.286	2.9091	0.1	19.866
6885	10.286	3.0909	0.1	19.866
6886	10.286	3.2727	0.1	19.604
6887	10.286	3.4545	0.1	19.082
6888	10.286	3.6364	0.1	18.305
6889	10.286	3.8182	0.1	17.28
6890	10.286	4.	0.1	16.015
6891	10.286	4.1818	0.1	14.521
6892	10.286	4.3636	0.1	12.811
6893	10.286	4.5455	0.1	10.897
6894	10.286	4.7273	0.1	8.7943
6895	10.286	4.9091	0.1	6.5192
6896	10.286	5.0909	0.1	4.0877
6897	10.286	5.2727	0.1	1.518
6898	10.286	5.4545	0.1	1.1378e-003
6899	10.286	5.6364	0.1	-6.7563e-003
6900	10.286	5.8182	0.1	7.292e-003
6901	10.469	0.18182	0.1	5.7529e-003
6902	10.469	0.36364	0.1	-4.8328e-003
6903	10.469	0.54545	0.1	5.0411e-004
6904	10.469	0.72727	0.1	8.1304e-002
6905	10.469	0.90909	0.1	2.2347
6906	10.469	1.0909	0.1	4.3731
6907	10.469	1.2727	0.1	6.3764
6908	10.469	1.4545	0.1	8.2294
6909	10.469	1.6364	0.1	9.918
6910	10.469	1.8182	0.1	11.429
6911	10.469	2.	0.1	12.75
6912	10.469	2.1818	0.1	13.869
6913	10.469	2.3636	0.1	14.777
6914	10.469	2.5455	0.1	15.465
6915	10.469	2.7273	0.1	15.928
6916	10.469	2.9091	0.1	16.16
6917	10.469	3.0909	0.1	16.16
6918	10.469	3.2727	0.1	15.928
6919	10.469	3.4545	0.1	15.465
6920	10.469	3.6364	0.1	14.777
6921	10.469	3.8182	0.1	13.869
6922	10.469	4.	0.1	12.75
6923	10.469	4.1818	0.1	11.429
6924	10.469	4.3636	0.1	9.918
6925	10.469	4.5455	0.1	8.2294
6926	10.469	4.7273	0.1	6.3764
6927	10.469	4.9091	0.1	4.3731
6928	10.469	5.0909	0.1	2.2347
6929	10.469	5.2727	0.1	8.1308e-002
6930	10.469	5.4545	0.1	5.0494e-004
6931	10.469	5.6364	0.1	-4.8318e-003
6932	10.469	5.8182	0.1	5.7543e-003
6933	10.653	0.18182	0.1	4.5705e-003
6934	10.653	0.36364	0.1	-2.9235e-003
6935	10.653	0.54545	0.1	6.812e-004
6936	10.653	0.72727	0.1	5.0738e-003
6937	10.653	0.90909	0.1	0.48726
6938	10.653	1.0909	0.1	2.3296
6939	10.653	1.2727	0.1	4.0738
6940	10.653	1.4545	0.1	5.6905
6941	10.653	1.6364	0.1	7.1663
6942	10.653	1.8182	0.1	8.4887
6943	10.653	2.	0.1	9.6465
6944	10.653	2.1818	0.1	10.629
6945	10.653	2.3636	0.1	11.427
6946	10.653	2.5455	0.1	12.033
6947	10.653	2.7273	0.1	12.44
6948	10.653	2.9091	0.1	12.645
6949	10.653	3.0909	0.1	12.645
6950	10.653	3.2727	0.1	12.44
6951	10.653	3.4545	0.1	12.033
6952	10.653	3.6364	0.1	11.427
6953	10.653	3.8182	0.1	10.629
6954	10.653	4.	0.1	9.6465
6955	10.653	4.1818	0.1	8.4887
6956	10.653	4.3636	0.1	7.1662
6957	10.653	4.5455	0.1	5.6905
6958	10.653	4.7273	0.1	4.0738
6959	10.653	4.9091	0.1	2.3296
6960	10.653	5.0909	0.1	0.48726
6961	10.653	5.2727	0.1	5.075e-003
6962	10.653	5.4545	0.1	6.8135e-004
6963	10.653	5.6364	0.1	-2.9228e-003
6964	10.653	5.8182	0.1	4.5714e-003
6965	10.837	0.18182	0.1	3.6597e-003
6966	10.837	0.36364	0.1	-1.0403e-003
6967	10.837	0.54545	0.1	1.0417e-003
6968	10.837	0.72727	0.1	2.469e-003
6969	10.837	0.90909	0.1	9.1718e-003
6970	10.837	1.0909	0.1	0.40071
6971	10.837	1.2727	0.1	1.8735
6972	10.837	1.4545	0.1	3.2638
6973	10.837	1.6364	0.1	4.5375
6974	10.837	1.8182	0.1	5.682
6975	10.837	2.	0.1	6.6864
6976	10.837	2.1818	0.1	7.5405
6977	10.837	2.3636	0.1	8.2356
6978	10.837	2.5455	0.1	8.7639
6979	10.837	2.7273	0.1	9.1195
6980	10.837	2.9091	0.1	9.2983
6981	10.837	3.0909	0.1	9.2983
6982	10.837	3.2727	0.1	9.1195
6983	10.837	3.4545	0.1	8.7639
6984	10.837	3.6364	0.1	8.2356
6985	10.837	3.8182	0.1	7.5405
6986	10.837	4.	0.1	6.6864
6987	10.837	4.1818	0.1	5.682
6988	10.837	4.3636	0.1	4.5375
6989	10.837	4.5455	0.1	3.2638
6990	10.837	4.7273	0.1	1.8735
6991	10.837	4.9091	0.1	0.40071
6992	10.837	5.0909	0.1	9.1733e-003
6993	10.837	5.2727	0.1	2.47e-003
6994	10.837	5.4545	0.1	1.0419e-003
6995	10.837	5.6364	0.1	-1.0397e-003
6996	10.837	5.8182	0.1	3.6606e-003
6997	11.02	0.18182	0.1	2.9222e-003
6998	11.02	0.36364	0.1	7.7749e-004
6999	11.02	0.54545	0.1	1.4308e-003
7000	11.02	0.72727	0.1	1.8352e-003
7001	11.02	0.90909	0.1	3.1579e-003
7002	11.02	1.0909	0.1	7.1201e-003
7003	11.02	1.2727	0.1	4.4001e-002
7004	11.02	1.4545	0.1	0.93964
7005	11.02	1.6364	0.1	2.0158
7006	11.02	1.8182	0.1	2.9908
7007	11.02	2.	0.1	3.8503
7008	11.02	2.1818	0.1	4.5838
7009	11.02	2.3636	0.1	5.1823
7010	11.02	2.5455	0.1	5.6383
7011	11.02	2.7273	0.1	5.9458
7012	11.02	2.9091	0.1	6.1006
7013	11.02	3.0909	0.1	6.1006
7014	11.02	3.2727	0.1	5.9458
7015	11.02	3.4545	0.1	5.6383
7016	11.02	3.6364	0.1	5.1823
7017	11.02	3.8182	0.1	4.5838
7018	11.02	4.	0.1	3.8503
7019	11.02	4.1818	0.1	2.9908
7020	11.02	4.3636	0.1	2.0158
7021	11.02	4.5455	0.1	0.93963
7022	11.02	4.7273	0.1	4.4e-002
7023	11.02	4.9091	0.1	7.1202e-003
7024	11.02	5.0909	0.1	3.1591e-003
7025	11.02	5.2727	0.1	1.837e-003
7026	11.02	5.4545	0.1	1.4299e-003
7027	11.02	5.6364	0.1	7.7843e-004
7028	11.02	5.8182	0.1	2.9237e-003
7029	11.204	0.18182	0.1	2.3283e-003
7030	11.204	0.36364	0.1	2.5478e-003
7031	11.204	0.54545	0.1	1.8158e-003
7032	11.204	0.72727	0.1	1.6774e-003
7033	11.204	0.90909	0.1	1.63e-003
7034	11.204	1.0909	0.1	1.8973e-003
7035	11.204	1.2727	0.1	2.7494e-003
7036	11.204	1.4545	0.1	5.2693e-003
7037	11.204	1.6364	0.1	1.8319e-002
7038	11.204	1.8182	0.1	0.41158
7039	11.204	2.	0.1	1.1226
7040	11.204	2.1818	0.1	1.741
7041	11.204	2.3636	0.1	2.2489
7042	11.204	2.5455	0.1	2.6374
7043	11.204	2.7273	0.1	2.9001
7044	11.204	2.9091	0.1	3.0325
7045	11.204	3.0909	0.1	3.0325
7046	11.204	3.2727	0.1	2.9001
7047	11.204	3.4545	0.1	2.6374
7048	11.204	3.6364	0.1	2.2489
7049	11.204	3.8182	0.1	1.741
7050	11.204	4.	0.1	1.1226
7051	11.204	4.1818	0.1	0.41157
7052	11.204	4.3636	0.1	1.8318e-002
7053	11.204	4.5455	0.1	5.2695e-003
7054	11.204	4.7273	0.1	2.7503e-003
7055	11.204	4.9091	0.1	1.8983e-003
7056	11.204	5.0909	0.1	1.6309e-003
7057	11.204	5.2727	0.1	1.6781e-003
7058	11.204	5.4545	0.1	1.815e-003
7059	11.204	5.6364	0.1	2.5483e-003
7060	11.204	5.8182	0.1	2.3306e-003
7061	11.388	0.18182	0.1	1.8666e-003
7062	11.388	0.36364	0.1	4.2955e-003
7063	11.388	0.54545	0.1	2.1978e-003
7064	11.388	0.72727	0.1	1.6993e-003
7065	11.388	0.90909	0.1	9.7297e-004
7066	11.388	1.0909	0.1	3.8623e-004
7067	11.388	1.2727	0.1	-1.4657e-004
7068	11.388	1.4545	0.1	-6.0033e-004
7069	11.388	1.6364	0.1	-9.7645e-004
7070	11.388	1.8182	0.1	-1.2756e-003
7071	11.388	2.	0.1	-1.4909e-003
7072	11.388	2.1818	0.1	-1.6037e-003
7073	11.388	2.3636	0.1	-1.5498e-003
7074	11.388	2.5455	0.1	-1.0227e-003
7075	11.388	2.7273	0.1	4.6037e-003
7076	11.388	2.9091	0.1	7.6559e-002
7077	11.388	3.0909	0.1	7.6559e-002
7078	11.388	3.2727	0.1	4.6023e-003
7079	11.388	3.4545	0.1	-1.0228e-003
7080	11.388	3.6364	0.1	-1.5499e-003
7081	11.388	3.8182	0.1	-1.6035e-003
7082	11.388	4.	0.1	-1.4911e-003
7083	11.388	4.1818	0.1	-1.2756e-003
7084	11.388	4.3636	0.1	-9.7628e-004
7085	11.388	4.5455	0.1	-5.9959e-004
7086	11.388	4.7273	0.1	-1.4636e-004
7087	11.388	4.9091	0.1	3.8673e-004
7088	11.388	5.0909	0.1	9.7458e-004
7089	11.388	5.2727	0.1	1.7001e-003
7090	11.388	5.4545	0.1	2.1983e-003
7091	11.388	5.6364	0.1	4.2962e-003
7092	11.388	5.8182	0.1	1.8668e-003
7093	11.571	0.18182	0.1	1.5049e-003
7094	11.571	0.36364	0.1	6.0248e-003
7095	11.571	0.54545	0.1	2.5608e-003
7096	11.571	0.72727	0.1	1.7862e-003
7097	11.571	0.90909	0.1	6.0556e-004
7098	11.571	1.0909	0.1	-3.6339e-004
7099	11.571	1.2727	0.1	-1.2709e-003
7100	11.571	1.4545	0.1	-2.0804e-003
7101	11.571	1.6364	0.1	-2.8053e-003
7102	11.571	1.8182	0.1	-3.4555e-003
7103	11.571	2.	0.1	-4.0368e-003
7104	11.571	2.1818	0.1	-4.552e-003
7105	11.571	2.3636	0.1	-5.0004e-003
7106	11.571	2.5455	0.1	-5.3695e-003
7107	11.571	2.7273	0.1	-5.6368e-003
7108	11.571	2.9091	0.1	-5.778e-003
7109	11.571	3.0909	0.1	-5.7779e-003
7110	11.571	3.2727	0.1	-5.6363e-003
7111	11.571	3.4545	0.1	-5.3696e-003
7112	11.571	3.6364	0.1	-4.9998e-003
7113	11.571	3.8182	0.1	-4.5518e-003
7114	11.571	4.	0.1	-4.0364e-003
7115	11.571	4.1818	0.1	-3.4548e-003
7116	11.571	4.3636	0.1	-2.8049e-003
7117	11.571	4.5455	0.1	-2.0791e-003
7118	11.571	4.7273	0.1	-1.2702e-003
7119	11.571	4.9091	0.1	-3.6308e-004
7120	11.571	5.0909	0.1	6.0722e-004
7121	11.571	5.2727	0.1	1.7875e-003
7122	11.571	5.4545	0.1	2.5611e-003
7123	11.571	5.6364	0.1	6.0253e-003
7124	11.571	5.8182	0.1	1.5053e-003
7125	11.755	0.18182	0.1	1.264e-003
7126	11.755	0.36364	0.1	7.7805e-003
7127	11.755	0.54545	0.1	2.9305e-003
7128	11.755	0.72727	0.1	1.9244e-003
7129	11.755	0.90909	0.1	3.8275e-004
7130	11.755	1.0909	0.1	-8.2429e-004
7131	11.755	1.2727	0.1	-1.9103e-003
7132	11.755	1.4545	0.1	-2.8301e-003
7133	11.755	1.6364	0.1	-3.6061e-003
7134	11.755	1.8182	0.1	-4.25e-003
7135	11.755	2.	0.1	-4.7758e-003
7136	11.755	2.1818	0.1	-5.1956e-003
7137	11.755	2.3636	0.1	-5.5207e-003
7138	11.755	2.5455	0.1	-5.7602e-003
7139	11.755	2.7273	0.1	-5.9163e-003
7140	11.755	2.9091	0.1	-5.994e-003
7141	11.755	3.0909	0.1	-5.994e-003
7142	11.755	3.2727	0.1	-5.9165e-003
7143	11.755	3.4545	0.1	-5.7603e-003
7144	11.755	3.6364	0.1	-5.5203e-003
7145	11.755	3.8182	0.1	-5.1953e-003
7146	11.755	4.	0.1	-4.7754e-003
7147	11.755	4.1818	0.1	-4.2498e-003
7148	11.755	4.3636	0.1	-3.6058e-003
7149	11.755	4.5455	0.1	-2.8296e-003
7150	11.755	4.7273	0.1	-1.91e-003
7151	11.755	4.9091	0.1	-8.2377e-004
7152	11.755	5.0909	0.1	3.8366e-004
7153	11.755	5.2727	0.1	1.9256e-003
7154	11.755	5.4545	0.1	2.9306e-003
7155	11.755	5.6364	0.1	7.7811e-003
7156	11.755	5.8182	0.1	1.2648e-003
7157	11.939	0.18182	0.1	1.1229e-003
7158	11.939	0.36364	0.1	9.5651e-003
7159	11.939	0.54545	0.1	3.2874e-003
7160	11.939	0.72727	0.1	2.0721e-003
7161	11.939	0.90909	0.1	2.1298e-004
7162	11.939	1.0909	0.1	-1.1733e-003
7163	11.939	1.2727	0.1	-2.3773e-003
7164	11.939	1.4545	0.1	-3.3526e-003
7165	11.939	1.6364	0.1	-4.1376e-003
7166	11.939	1.8182	0.1	-4.7562e-003
7167	11.939	2.	0.1	-5.2328e-003
7168	11.939	2.1818	0.1	-5.5901e-003
7169	11.939	2.3636	0.1	-5.8496e-003
7170	11.939	2.5455	0.1	-6.0294e-003
7171	11.939	2.7273	0.1	-6.1417e-003
7172	11.939	2.9091	0.1	-6.1946e-003
7173	11.939	3.0909	0.1	-6.1946e-003
7174	11.939	3.2727	0.1	-6.1412e-003
7175	11.939	3.4545	0.1	-6.0297e-003
7176	11.939	3.6364	0.1	-5.8488e-003
7177	11.939	3.8182	0.1	-5.5898e-003
7178	11.939	4.	0.1	-5.2325e-003
7179	11.939	4.1818	0.1	-4.7558e-003
7180	11.939	4.3636	0.1	-4.1373e-003
7181	11.939	4.5455	0.1	-3.3522e-003
7182	11.939	4.7273	0.1	-2.3766e-003
7183	11.939	4.9091	0.1	-1.1722e-003
7184	11.939	5.0909	0.1	2.1469e-004
7185	11.939	5.2727	0.1	2.0727e-003
7186	11.939	5.4545	0.1	3.2873e-003
7187	11.939	5.6364	0.1	9.5642e-003
7188	11.939	5.8182	0.1	1.1248e-003
7189	12.122	0.18182	0.1	1.0251e-003
7190	12.122	0.36364	0.1	1.1332e-002
7191	12.122	0.54545	0.1	3.5648e-003
7192	12.122	0.72727	0.1	2.1512e-003
7193	12.122	0.90909	0.1	-3.1144e-006
7194	12.122	1.0909	0.1	-1.5409e-003
7195	12.122	1.2727	0.1	-2.8381e-003
7196	12.122	1.4545	0.1	-3.8503e-003
7197	12.122	1.6364	0.1	-4.6352e-003
7198	12.122	1.8182	0.1	-5.2273e-003
7199	12.122	2.	0.1	-5.663e-003
7200	12.122	2.1818	0.1	-5.9732e-003
7201	12.122	2.3636	0.1	-6.1864e-003
7202	12.122	2.5455	0.1	-6.3259e-003
7203	12.122	2.7273	0.1	-6.4088e-003
7204	12.122	2.9091	0.1	-6.4466e-003
7205	12.122	3.0909	0.1	-6.4463e-003
7206	12.122	3.2727	0.1	-6.4088e-003
7207	12.122	3.4545	0.1	-6.3261e-003
7208	12.122	3.6364	0.1	-6.1858e-003
7209	12.122	3.8182	0.1	-5.973e-003
7210	12.122	4.	0.1	-5.663e-003
7211	12.122	4.1818	0.1	-5.2266e-003
7212	12.122	4.3636	0.1	-4.6345e-003
7213	12.122	4.5455	0.1	-3.8496e-003
7214	12.122	4.7273	0.1	-2.8381e-003
7215	12.122	4.9091	0.1	-1.5403e-003
7216	12.122	5.0909	0.1	-2.5982e-006
7217	12.122	5.2727	0.1	2.1525e-003
7218	12.122	5.4545	0.1	3.5658e-003
7219	12.122	5.6364	0.1	1.1333e-002
7220	12.122	5.8182	0.1	1.0255e-003
7221	12.306	0.18182	0.1	1.0336e-003
7222	12.306	0.36364	0.1	1.3168e-002
7223	12.306	0.54545	0.1	3.8271e-003
7224	12.306	0.72727	0.1	2.2146e-003
7225	12.306	0.90909	0.1	-2.2966e-004
7226	12.306	1.0909	0.1	-1.9039e-003
7227	12.306	1.2727	0.1	-3.282e-003
7228	12.306	1.4545	0.1	-4.32e-003
7229	12.306	1.6364	0.1	-5.1001e-003
7230	12.306	1.8182	0.1	-5.6648e-003
7231	12.306	2.	0.1	-6.062e-003
7232	12.306	2.1818	0.1	-6.329e-003
7233	12.306	2.3636	0.1	-6.5008e-003
7234	12.306	2.5455	0.1	-6.6064e-003
7235	12.306	2.7273	0.1	-6.6635e-003
7236	12.306	2.9091	0.1	-6.6888e-003
7237	12.306	3.0909	0.1	-6.6885e-003
7238	12.306	3.2727	0.1	-6.664e-003
7239	12.306	3.4545	0.1	-6.6061e-003
7240	12.306	3.6364	0.1	-6.5005e-003
7241	12.306	3.8182	0.1	-6.3286e-003
7242	12.306	4.	0.1	-6.0619e-003
7243	12.306	4.1818	0.1	-5.6647e-003
7244	12.306	4.3636	0.1	-5.0996e-003
7245	12.306	4.5455	0.1	-4.3202e-003
7246	12.306	4.7273	0.1	-3.2818e-003
7247	12.306	4.9091	0.1	-1.9032e-003
7248	12.306	5.0909	0.1	-2.2854e-004
7249	12.306	5.2727	0.1	2.2161e-003
7250	12.306	5.4545	0.1	3.8266e-003
7251	12.306	5.6364	0.1	1.3169e-002
7252	12.306	5.8182	0.1	1.0349e-003
7253	12.49	0.18182	0.1	1.1792e-003
7254	12.49	0.36364	0.1	1.5111e-002
7255	12.49	0.54545	0.1	4.0796e-003
7256	12.49	0.72727	0.1	2.266e-003
7257	12.49	0.90909	0.1	-4.6925e-004
7258	12.49	1.0909	0.1	-2.2728e-003
7259	12.49	1.2727	0.1	-3.7225e-003
7260	12.49	1.4545	0.1	-4.7829e-003
7261	12.49	1.6364	0.1	-5.5497e-003
7262	12.49	1.8182	0.1	-6.0839e-003
7263	12.49	2.	0.1	-6.4394e-003
7264	12.49	2.1818	0.1	-6.6615e-003
7265	12.49	2.3636	0.1	-6.7928e-003
7266	12.49	2.5455	0.1	-6.8632e-003
7267	12.49	2.7273	0.1	-6.8964e-003
7268	12.49	2.9091	0.1	-6.908e-003
7269	12.49	3.0909	0.1	-6.9082e-003
7270	12.49	3.2727	0.1	-6.8964e-003
7271	12.49	3.4545	0.1	-6.8628e-003
7272	12.49	3.6364	0.1	-6.7925e-003
7273	12.49	3.8182	0.1	-6.6617e-003
7274	12.49	4.	0.1	-6.4393e-003
7275	12.49	4.1818	0.1	-6.0833e-003
7276	12.49	4.3636	0.1	-5.5496e-003
7277	12.49	4.5455	0.1	-4.7813e-003
7278	12.49	4.7273	0.1	-3.7223e-003
7279	12.49	4.9091	0.1	-2.2727e-003
7280	12.49	5.0909	0.1	-4.6748e-004
7281	12.49	5.2727	0.1	2.2675e-003
7282	12.49	5.4545	0.1	4.079e-003
7283	12.49	5.6364	0.1	1.5112e-002
7284	12.49	5.8182	0.1	1.1805e-003
7285	12.673	0.18182	0.1	1.4537e-003
7286	12.673	0.36364	0.1	1.7156e-002
7287	12.673	0.54545	0.1	4.2886e-003
7288	12.673	0.72727	0.1	2.2664e-003
7289	12.673	0.90909	0.1	-7.6659e-004
7290	12.673	1.0909	0.1	-2.6963e-003
7291	12.673	1.2727	0.1	-4.2126e-003
7292	12.673	1.4545	0.1	-5.2848e-003
7293	12.673	1.6364	0.1	-6.0348e-003
7294	12.673	1.8182	0.1	-6.5308e-003
7295	12.673	2.	0.1	-6.8393e-003
7296	12.673	2.1818	0.1	-7.0132e-003
7297	12.673	2.3636	0.1	-7.0971e-003
7298	12.673	2.5455	0.1	-7.1306e-003
7299	12.673	2.7273	0.1	-7.1366e-003
7300	12.673	2.9091	0.1	-7.1357e-003
7301	12.673	3.0909	0.1	-7.1355e-003
7302	12.673	3.2727	0.1	-7.137e-003
7303	12.673	3.4545	0.1	-7.1304e-003
7304	12.673	3.6364	0.1	-7.0971e-003
7305	12.673	3.8182	0.1	-7.0124e-003
7306	12.673	4.	0.1	-6.8391e-003
7307	12.673	4.1818	0.1	-6.5304e-003
7308	12.673	4.3636	0.1	-6.0338e-003
7309	12.673	4.5455	0.1	-5.2849e-003
7310	12.673	4.7273	0.1	-4.2122e-003
7311	12.673	4.9091	0.1	-2.6957e-003
7312	12.673	5.0909	0.1	-7.658e-004
7313	12.673	5.2727	0.1	2.2681e-003
7314	12.673	5.4545	0.1	4.2882e-003
7315	12.673	5.6364	0.1	1.7156e-002
7316	12.673	5.8182	0.1	1.4541e-003
7317	12.857	0.18182	0.1	1.8905e-003
7318	12.857	0.36364	0.1	1.9339e-002
7319	12.857	0.54545	0.1	4.4557e-003
7320	12.857	0.72727	0.1	2.2132e-003
7321	12.857	0.90909	0.1	-1.1316e-003
7322	12.857	1.0909	0.1	-3.1841e-003
7323	12.857	1.2727	0.1	-4.7611e-003
7324	12.857	1.4545	0.1	-5.8384e-003
7325	12.857	1.6364	0.1	-6.5611e-003
7326	12.857	1.8182	0.1	-7.0107e-003
7327	12.857	2.	0.1	-7.2637e-003
7328	12.857	2.1818	0.1	-7.3802e-003
7329	12.857	2.3636	0.1	-7.414e-003
7330	12.857	2.5455	0.1	-7.405e-003
7331	12.857	2.7273	0.1	-7.3818e-003
7332	12.857	2.9091	0.1	-7.3652e-003
7333	12.857	3.0909	0.1	-7.3645e-003
7334	12.857	3.2727	0.1	-7.3817e-003
7335	12.857	3.4545	0.1	-7.405e-003
7336	12.857	3.6364	0.1	-7.4135e-003
7337	12.857	3.8182	0.1	-7.3806e-003
7338	12.857	4.	0.1	-7.2636e-003
7339	12.857	4.1818	0.1	-7.0101e-003
7340	12.857	4.3636	0.1	-6.5607e-003
7341	12.857	4.5455	0.1	-5.8381e-003
7342	12.857	4.7273	0.1	-4.7605e-003
7343	12.857	4.9091	0.1	-3.1839e-003
7344	12.857	5.0909	0.1	-1.1297e-003
7345	12.857	5.2727	0.1	2.2143e-003
7346	12.857	5.4545	0.1	4.4553e-003
7347	12.857	5.6364	0.1	1.934e-002
7348	12.857	5.8182	0.1	1.8919e-003
7349	13.041	0.18182	0.1	2.5353e-003
7350	13.041	0.36364	0.1	2.1694e-002
7351	13.041	0.54545	0.1	4.5707e-003
7352	13.041	0.72727	0.1	2.0937e-003
7353	13.041	0.90909	0.1	-1.5772e-003
7354	13.041	1.0909	0.1	-3.7506e-003
7355	13.041	1.2727	0.1	-5.3828e-003
7356	13.041	1.4545	0.1	-6.4554e-003
7357	13.041	1.6364	0.1	-7.1405e-003
7358	13.041	1.8182	0.1	-7.5319e-003
7359	13.041	2.	0.1	-7.7194e-003
7360	13.041	2.1818	0.1	-7.7707e-003
7361	13.041	2.3636	0.1	-7.7454e-003
7362	13.041	2.5455	0.1	-7.6889e-003
7363	13.041	2.7273	0.1	-7.6327e-003
7364	13.041	2.9091	0.1	-7.5985e-003
7365	13.041	3.0909	0.1	-7.5993e-003
7366	13.041	3.2727	0.1	-7.6324e-003
7367	13.041	3.4545	0.1	-7.6889e-003
7368	13.041	3.6364	0.1	-7.7455e-003
7369	13.041	3.8182	0.1	-7.77e-003
7370	13.041	4.	0.1	-7.719e-003
7371	13.041	4.1818	0.1	-7.5321e-003
7372	13.041	4.3636	0.1	-7.1402e-003
7373	13.041	4.5455	0.1	-6.4546e-003
7374	13.041	4.7273	0.1	-5.3825e-003
7375	13.041	4.9091	0.1	-3.7508e-003
7376	13.041	5.0909	0.1	-1.576e-003
7377	13.041	5.2727	0.1	2.0955e-003
7378	13.041	5.4545	0.1	4.5708e-003
7379	13.041	5.6364	0.1	2.1694e-002
7380	13.041	5.8182	0.1	2.5356e-003
7381	13.224	0.18182	0.1	3.4302e-003
7382	13.224	0.36364	0.1	2.4248e-002
7383	13.224	0.54545	0.1	4.6159e-003
7384	13.224	0.72727	0.1	1.8898e-003
7385	13.224	0.90909	0.1	-2.1296e-003
7386	13.224	1.0909	0.1	-4.4221e-003
7387	13.224	1.2727	0.1	-6.1005e-003
7388	13.224	1.4545	0.1	-7.1566e-003
7389	13.224	1.6364	0.1	-7.7909e-003
7390	13.224	1.8182	0.1	-8.1113e-003
7391	13.224	2.	0.1	-8.2204e-003
7392	13.224	2.1818	0.1	-8.1959e-003
7393	13.224	2.3636	0.1	-8.1034e-003
7394	13.224	2.5455	0.1	-7.9943e-003
7395	13.224	2.7273	0.1	-7.9014e-003
7396	13.224	2.9091	0.1	-7.8491e-003
7397	13.224	3.0909	0.1	-7.8487e-003
7398	13.224	3.2727	0.1	-7.9014e-003
7399	13.224	3.4545	0.1	-7.9941e-003
7400	13.224	3.6364	0.1	-8.1035e-003
7401	13.224	3.8182	0.1	-8.1959e-003
7402	13.224	4.	0.1	-8.22e-003
7403	13.224	4.1818	0.1	-8.111e-003
7404	13.224	4.3636	0.1	-7.7897e-003
7405	13.224	4.5455	0.1	-7.1562e-003
7406	13.224	4.7273	0.1	-6.1001e-003
7407	13.224	4.9091	0.1	-4.4217e-003
7408	13.224	5.0909	0.1	-2.1274e-003
7409	13.224	5.2727	0.1	1.8911e-003
7410	13.224	5.4545	0.1	4.6157e-003
7411	13.224	5.6364	0.1	2.4248e-002
7412	13.224	5.8182	0.1	3.4305e-003
7413	13.408	0.18182	0.1	4.6435e-003
7414	13.408	0.36364	0.1	2.7036e-002
7415	13.408	0.54545	0.1	4.5692e-003
7416	13.408	0.72727	0.1	1.5785e-003
7417	13.408	0.90909	0.1	-2.8101e-003
7418	13.408	1.0909	0.1	-5.2173e-003
7419	13.408	1.2727	0.1	-6.9336e-003
7420	13.408	1.4545	0.1	-7.959e-003
7421	13.408	1.6364	0.1	-8.5256e-003
7422	13.408	1.8182	0.1	-8.7599e-003
7423	13.408	2.	0.1	-8.7769e-003
7424	13.408	2.1818	0.1	-8.6659e-003
7425	13.408	2.3636	0.1	-8.4988e-003
7426	13.408	2.5455	0.1	-8.3306e-003
7427	13.408	2.7273	0.1	-8.1981e-003
7428	13.408	2.9091	0.1	-8.1265e-003
7429	13.408	3.0909	0.1	-8.1263e-003
7430	13.408	3.2727	0.1	-8.1985e-003
7431	13.408	3.4545	0.1	-8.3314e-003
7432	13.408	3.6364	0.1	-8.499e-003
7433	13.408	3.8182	0.1	-8.6654e-003
7434	13.408	4.	0.1	-8.7769e-003
7435	13.408	4.1818	0.1	-8.7593e-003
7436	13.408	4.3636	0.1	-8.525e-003
7437	13.408	4.5455	0.1	-7.958e-003
7438	13.408	4.7273	0.1	-6.9332e-003
7439	13.408	4.9091	0.1	-5.2171e-003
7440	13.408	5.0909	0.1	-2.8087e-003
7441	13.408	5.2727	0.1	1.5796e-003
7442	13.408	5.4545	0.1	4.5694e-003
7443	13.408	5.6364	0.1	2.7036e-002
7444	13.408	5.8182	0.1	4.6444e-003
7445	13.592	0.18182	0.1	6.3025e-003
7446	13.592	0.36364	0.1	3.0138e-002
7447	13.592	0.54545	0.1	4.4484e-003
7448	13.592	0.72727	0.1	1.1803e-003
7449	13.592	0.90909	0.1	-3.6016e-003
7450	13.592	1.0909	0.1	-6.1181e-003
7451	13.592	1.2727	0.1	-7.8585e-003
7452	13.592	1.4545	0.1	-8.835e-003
7453	13.592	1.6364	0.1	-9.3147e-003
7454	13.592	1.8182	0.1	-9.4447e-003
7455	13.592	2.	0.1	-9.3554e-003
7456	13.592	2.1818	0.1	-9.1464e-003
7457	13.592	2.3636	0.1	-8.898e-003
7458	13.592	2.5455	0.1	-8.6682e-003
7459	13.592	2.7273	0.1	-8.4948e-003
7460	13.592	2.9091	0.1	-8.4022e-003
7461	13.592	3.0909	0.1	-8.4027e-003
7462	13.592	3.2727	0.1	-8.4948e-003
7463	13.592	3.4545	0.1	-8.6675e-003
7464	13.592	3.6364	0.1	-8.8969e-003
7465	13.592	3.8182	0.1	-9.1461e-003
7466	13.592	4.	0.1	-9.3549e-003
7467	13.592	4.1818	0.1	-9.4447e-003
7468	13.592	4.3636	0.1	-9.3143e-003
7469	13.592	4.5455	0.1	-8.8345e-003
7470	13.592	4.7273	0.1	-7.8579e-003
7471	13.592	4.9091	0.1	-6.118e-003
7472	13.592	5.0909	0.1	-3.6002e-003
7473	13.592	5.2727	0.1	1.1816e-003
7474	13.592	5.4545	0.1	4.45e-003
7475	13.592	5.6364	0.1	3.0138e-002
7476	13.592	5.8182	0.1	6.3033e-003
7477	13.776	0.18182	0.1	8.5297e-003
7478	13.776	0.36364	0.1	3.3604e-002
7479	13.776	0.54545	0.1	4.2367e-003
7480	13.776	0.72727	0.1	6.7727e-004
7481	13.776	0.90909	0.1	-4.5222e-003
7482	13.776	1.0909	0.1	-7.1358e-003
7483	13.776	1.2727	0.1	-8.8839e-003
7484	13.776	1.4545	0.1	-9.7882e-003
7485	13.776	1.6364	0.1	-1.016e-002
7486	13.776	1.8182	0.1	-1.0165e-002
7487	13.776	2.	0.1	-9.9526e-003
7488	13.776	2.1818	0.1	-9.6359e-003
7489	13.776	2.3636	0.1	-9.3014e-003
7490	13.776	2.5455	0.1	-9.0101e-003
7491	13.776	2.7273	0.1	-8.798e-003
7492	13.776	2.9091	0.1	-8.6872e-003
7493	13.776	3.0909	0.1	-8.6872e-003
7494	13.776	3.2727	0.1	-8.7983e-003
7495	13.776	3.4545	0.1	-9.0101e-003
7496	13.776	3.6364	0.1	-9.3018e-003
7497	13.776	3.8182	0.1	-9.6359e-003
7498	13.776	4.	0.1	-9.9529e-003
7499	13.776	4.1818	0.1	-1.0164e-002
7500	13.776	4.3636	0.1	-1.0159e-002
7501	13.776	4.5455	0.1	-9.7875e-003
7502	13.776	4.7273	0.1	-8.8842e-003
7503	13.776	4.9091	0.1	-7.1355e-003
7504	13.776	5.0909	0.1	-4.5206e-003
7505	13.776	5.2727	0.1	6.7876e-004
7506	13.776	5.4545	0.1	4.2351e-003
7507	13.776	5.6364	0.1	3.3604e-002
7508	13.776	5.8182	0.1	8.5306e-003
7509	13.959	0.18182	0.1	1.1444e-002
7510	13.959	0.36364	0.1	3.7453e-002
7511	13.959	0.54545	0.1	3.872e-003
7512	13.959	0.72727	0.1	2.2277e-005
7513	13.959	0.90909	0.1	-5.6185e-003
7514	13.959	1.0909	0.1	-8.313e-003
7515	13.959	1.2727	0.1	-1.0045e-002
7516	13.959	1.4545	0.1	-1.085e-002
7517	13.959	1.6364	0.1	-1.1085e-002
7518	13.959	1.8182	0.1	-1.0943e-002
7519	13.959	2.	0.1	-1.0593e-002
7520	13.959	2.1818	0.1	-1.0161e-002
7521	13.959	2.3636	0.1	-9.7415e-003
7522	13.959	2.5455	0.1	-9.3929e-003
7523	13.959	2.7273	0.1	-9.1495e-003
7524	13.959	2.9091	0.1	-9.0249e-003
7525	13.959	3.0909	0.1	-9.0246e-003
7526	13.959	3.2727	0.1	-9.1492e-003
7527	13.959	3.4545	0.1	-9.3928e-003
7528	13.959	3.6364	0.1	-9.74e-003
7529	13.959	3.8182	0.1	-1.0161e-002
7530	13.959	4.	0.1	-1.0592e-002
7531	13.959	4.1818	0.1	-1.0942e-002
7532	13.959	4.3636	0.1	-1.1085e-002
7533	13.959	4.5455	0.1	-1.0849e-002
7534	13.959	4.7273	0.1	-1.0044e-002
7535	13.959	4.9091	0.1	-8.3136e-003
7536	13.959	5.0909	0.1	-5.6167e-003
7537	13.959	5.2727	0.1	2.4056e-005
7538	13.959	5.4545	0.1	3.8723e-003
7539	13.959	5.6364	0.1	3.7454e-002
7540	13.959	5.8182	0.1	1.1445e-002
7541	14.143	0.18182	0.1	1.5243e-002
7542	14.143	0.36364	0.1	4.1752e-002
7543	14.143	0.54545	0.1	3.3364e-003
7544	14.143	0.72727	0.1	-7.946e-004
7545	14.143	0.90909	0.1	-6.8962e-003
7546	14.143	1.0909	0.1	-9.6463e-003
7547	14.143	1.2727	0.1	-1.1331e-002
7548	14.143	1.4545	0.1	-1.2e-002
7549	14.143	1.6364	0.1	-1.2068e-002
7550	14.143	1.8182	0.1	-1.1753e-002
7551	14.143	2.	0.1	-1.1249e-002
7552	14.143	2.1818	0.1	-1.07e-002
7553	14.143	2.3636	0.1	-1.0202e-002
7554	14.143	2.5455	0.1	-9.8137e-003
7555	14.143	2.7273	0.1	-9.5539e-003
7556	14.143	2.9091	0.1	-9.4257e-003
7557	14.143	3.0909	0.1	-9.4261e-003
7558	14.143	3.2727	0.1	-9.5541e-003
7559	14.143	3.4545	0.1	-9.8131e-003
7560	14.143	3.6364	0.1	-1.0202e-002
7561	14.143	3.8182	0.1	-1.07e-002
7562	14.143	4.	0.1	-1.1249e-002
7563	14.143	4.1818	0.1	-1.1752e-002
7564	14.143	4.3636	0.1	-1.2067e-002
7565	14.143	4.5455	0.1	-1.2e-002
7566	14.143	4.7273	0.1	-1.1331e-002
7567	14.143	4.9091	0.1	-9.6464e-003
7568	14.143	5.0909	0.1	-6.8944e-003
7569	14.143	5.2727	0.1	-7.9404e-004
7570	14.143	5.4545	0.1	3.3367e-003
7571	14.143	5.6364	0.1	4.1751e-002
7572	14.143	5.8182	0.1	1.5244e-002
7573	14.327	0.18182	0.1	2.0157e-002
7574	14.327	0.36364	0.1	4.6562e-002
7575	14.327	0.54545	0.1	2.6085e-003
7576	14.327	0.72727	0.1	-1.7802e-003
7577	14.327	0.90909	0.1	-8.3524e-003
7578	14.327	1.0909	0.1	-1.1121e-002
7579	14.327	1.2727	0.1	-1.2718e-002
7580	14.327	1.4545	0.1	-1.3208e-002
7581	14.327	1.6364	0.1	-1.3068e-002
7582	14.327	1.8182	0.1	-1.255e-002
7583	14.327	2.	0.1	-1.1882e-002
7584	14.327	2.1818	0.1	-1.1219e-002
7585	14.327	2.3636	0.1	-1.0665e-002
7586	14.327	2.5455	0.1	-1.0265e-002
7587	14.327	2.7273	0.1	-1.0019e-002
7588	14.327	2.9091	0.1	-9.9053e-003
7589	14.327	3.0909	0.1	-9.9053e-003
7590	14.327	3.2727	0.1	-1.0019e-002
7591	14.327	3.4545	0.1	-1.0265e-002
7592	14.327	3.6364	0.1	-1.0665e-002
7593	14.327	3.8182	0.1	-1.1219e-002
7594	14.327	4.	0.1	-1.1882e-002
7595	14.327	4.1818	0.1	-1.255e-002
7596	14.327	4.3636	0.1	-1.3067e-002
7597	14.327	4.5455	0.1	-1.3208e-002
7598	14.327	4.7273	0.1	-1.2717e-002
7599	14.327	4.9091	0.1	-1.1122e-002
7600	14.327	5.0909	0.1	-8.3508e-003
7601	14.327	5.2727	0.1	-1.7785e-003
7602	14.327	5.4545	0.1	2.608e-003
7603	14.327	5.6364	0.1	4.6561e-002
7604	14.327	5.8182	0.1	2.0157e-002
7605	14.51	0.18182	0.1	2.6439e-002
7606	14.51	0.36364	0.1	5.1931e-002
7607	14.51	0.54545	0.1	1.649e-003
7608	14.51	0.72727	0.1	-2.9442e-003
7609	14.51	0.90909	0.1	-9.9877e-003
7610	14.51	1.0909	0.1	-1.2723e-002
7611	14.51	1.2727	0.1	-1.4175e-002
7612	14.51	1.4545	0.1	-1.443e-002
7613	14.51	1.6364	0.1	-1.4034e-002
7614	14.51	1.8182	0.1	-1.3284e-002
7615	14.51	2.	0.1	-1.2439e-002
7616	14.51	2.1818	0.1	-1.1678e-002
7617	14.51	2.3636	0.1	-1.1107e-002
7618	14.51	2.5455	0.1	-1.0748e-002
7619	14.51	2.7273	0.1	-1.0566e-002
7620	14.51	2.9091	0.1	-1.0498e-002
7621	14.51	3.0909	0.1	-1.0499e-002
7622	14.51	3.2727	0.1	-1.0567e-002
7623	14.51	3.4545	0.1	-1.0749e-002
7624	14.51	3.6364	0.1	-1.1106e-002
7625	14.51	3.8182	0.1	-1.1679e-002
7626	14.51	4.	0.1	-1.2439e-002
7627	14.51	4.1818	0.1	-1.3283e-002
7628	14.51	4.3636	0.1	-1.4034e-002
7629	14.51	4.5455	0.1	-1.443e-002
7630	14.51	4.7273	0.1	-1.4175e-002
7631	14.51	4.9091	0.1	-1.2722e-002
7632	14.51	5.0909	0.1	-9.986e-003
7633	14.51	5.2727	0.1	-2.9429e-003
7634	14.51	5.4545	0.1	1.6472e-003
7635	14.51	5.6364	0.1	5.1931e-002
7636	14.51	5.8182	0.1	2.644e-002
7637	14.694	0.18182	0.1	3.4347e-002
7638	14.694	0.36364	0.1	5.7894e-002
7639	14.694	0.54545	0.1	4.108e-004
7640	14.694	0.72727	0.1	-4.2941e-003
7641	14.694	0.90909	0.1	-1.1789e-002
7642	14.694	1.0909	0.1	-1.4418e-002
7643	14.694	1.2727	0.1	-1.5655e-002
7644	14.694	1.4545	0.1	-1.5605e-002
7645	14.694	1.6364	0.1	-1.4895e-002
7646	14.694	1.8182	0.1	-1.3873e-002
7647	14.694	2.	0.1	-1.2845e-002
7648	14.694	2.1818	0.1	-1.2018e-002
7649	14.694	2.3636	0.1	-1.1496e-002
7650	14.694	2.5455	0.1	-1.1266e-002
7651	14.694	2.7273	0.1	-1.1231e-002
7652	14.694	2.9091	0.1	-1.1257e-002
7653	14.694	3.0909	0.1	-1.1258e-002
7654	14.694	3.2727	0.1	-1.123e-002
7655	14.694	3.4545	0.1	-1.1266e-002
7656	14.694	3.6364	0.1	-1.1495e-002
7657	14.694	3.8182	0.1	-1.2018e-002
7658	14.694	4.	0.1	-1.2845e-002
7659	14.694	4.1818	0.1	-1.3872e-002
7660	14.694	4.3636	0.1	-1.4895e-002
7661	14.694	4.5455	0.1	-1.5604e-002
7662	14.694	4.7273	0.1	-1.5655e-002
7663	14.694	4.9091	0.1	-1.4417e-002
7664	14.694	5.0909	0.1	-1.1787e-002
7665	14.694	5.2727	0.1	-4.295e-003
7666	14.694	5.4545	0.1	4.1086e-004
7667	14.694	5.6364	0.1	5.7895e-002
7668	14.694	5.8182	0.1	3.4348e-002
7669	14.878	0.18182	0.1	4.4134e-002
7670	14.878	0.36364	0.1	6.4477e-002
7671	14.878	0.54545	0.1	-1.128e-003
7672	14.878	0.72727	0.1	-5.8059e-003
7673	14.878	0.90909	0.1	-1.3703e-002
7674	14.878	1.0909	0.1	-1.6124e-002
7675	14.878	1.2727	0.1	-1.7056e-002
7676	14.878	1.4545	0.1	-1.6611e-002
7677	14.878	1.6364	0.1	-1.5514e-002
7678	14.878	1.8182	0.1	-1.4174e-002
7679	14.878	2.	0.1	-1.2963e-002
7680	14.878	2.1818	0.1	-1.2122e-002
7681	14.878	2.3636	0.1	-1.1752e-002
7682	14.878	2.5455	0.1	-1.1789e-002
7683	14.878	2.7273	0.1	-1.203e-002
7684	14.878	2.9091	0.1	-1.2233e-002
7685	14.878	3.0909	0.1	-1.2234e-002
7686	14.878	3.2727	0.1	-1.203e-002
7687	14.878	3.4545	0.1	-1.1789e-002
7688	14.878	3.6364	0.1	-1.1752e-002
7689	14.878	3.8182	0.1	-1.2122e-002
7690	14.878	4.	0.1	-1.2962e-002
7691	14.878	4.1818	0.1	-1.4174e-002
7692	14.878	4.3636	0.1	-1.5514e-002
7693	14.878	4.5455	0.1	-1.6611e-002
7694	14.878	4.7273	0.1	-1.7056e-002
7695	14.878	4.9091	0.1	-1.6124e-002
7696	14.878	5.0909	0.1	-1.3702e-002
7697	14.878	5.2727	0.1	-5.8054e-003
7698	14.878	5.4545	0.1	-1.1276e-003
7699	14.878	5.6364	0.1	6.4478e-002
7700	14.878	5.8182	0.1	4.4133e-002
7701	15.061	0.18182	0.1	5.5905e-002
7702	15.061	0.36364	0.1	7.1631e-002
7703	15.061	0.54545	0.1	-3.0295e-003
7704	15.061	0.72727	0.1	-7.4666e-003
7705	15.061	0.90909	0.1	-1.5678e-002
7706	15.061	1.0909	0.1	-1.776e-002
7707	15.061	1.2727	0.1	-1.8269e-002
7708	15.061	1.4545	0.1	-1.7319e-002
7709	15.061	1.6364	0.1	-1.5742e-002
7710	15.061	1.8182	0.1	-1.403e-002
7711	15.061	2.	0.1	-1.2638e-002
7712	15.061	2.1818	0.1	-1.1864e-002
7713	15.061	2.3636	0.1	-1.1808e-002
7714	15.061	2.5455	0.1	-1.2319e-002
7715	15.061	2.7273	0.1	-1.3038e-002
7716	15.061	2.9091	0.1	-1.3542e-002
7717	15.061	3.0909	0.1	-1.3542e-002
7718	15.061	3.2727	0.1	-1.3038e-002
7719	15.061	3.4545	0.1	-1.2319e-002
7720	15.061	3.6364	0.1	-1.1807e-002
7721	15.061	3.8182	0.1	-1.1863e-002
7722	15.061	4.	0.1	-1.2637e-002
7723	15.061	4.1818	0.1	-1.403e-002
7724	15.061	4.3636	0.1	-1.5742e-002
7725	15.061	4.5455	0.1	-1.7318e-002
7726	15.061	4.7273	0.1	-1.8268e-002
7727	15.061	4.9091	0.1	-1.7759e-002
7728	15.061	5.0909	0.1	-1.5676e-002
7729	15.061	5.2727	0.1	-7.4656e-003
7730	15.061	5.4545	0.1	-3.0285e-003
7731	15.061	5.6364	0.1	7.1631e-002
7732	15.061	5.8182	0.1	5.5905e-002
7733	15.245	0.18182	0.1	6.951e-002
7734	15.245	0.36364	0.1	7.9194e-002
7735	15.245	0.54545	0.1	-5.3912e-003
7736	15.245	0.72727	0.1	-9.2742e-003
7737	15.245	0.90909	0.1	-1.7654e-002
7738	15.245	1.0909	0.1	-1.9226e-002
7739	15.245	1.2727	0.1	-1.9165e-002
7740	15.245	1.4545	0.1	-1.7575e-002
7741	15.245	1.6364	0.1	-1.5405e-002
7742	15.245	1.8182	0.1	-1.3248e-002
7743	15.245	2.	0.1	-1.1682e-002
7744	15.245	2.1818	0.1	-1.1094e-002
7745	15.245	2.3636	0.1	-1.1586e-002
7746	15.245	2.5455	0.1	-1.2888e-002
7747	15.245	2.7273	0.1	-1.439e-002
7748	15.245	2.9091	0.1	-1.5385e-002
7749	15.245	3.0909	0.1	-1.5386e-002
7750	15.245	3.2727	0.1	-1.4391e-002
7751	15.245	3.4545	0.1	-1.2887e-002
7752	15.245	3.6364	0.1	-1.1587e-002
7753	15.245	3.8182	0.1	-1.1094e-002
7754	15.245	4.	0.1	-1.1682e-002
7755	15.245	4.1818	0.1	-1.3248e-002
7756	15.245	4.3636	0.1	-1.5404e-002
7757	15.245	4.5455	0.1	-1.7574e-002
7758	15.245	4.7273	0.1	-1.9165e-002
7759	15.245	4.9091	0.1	-1.9225e-002
7760	15.245	5.0909	0.1	-1.7652e-002
7761	15.245	5.2727	0.1	-9.2724e-003
7762	15.245	5.4545	0.1	-5.3913e-003
7763	15.245	5.6364	0.1	7.9194e-002
7764	15.245	5.8182	0.1	6.951e-002
7765	15.429	0.18182	0.1	8.445e-002
7766	15.429	0.36364	0.1	8.6964e-002
7767	15.429	0.54545	0.1	-8.2305e-003
7768	15.429	0.72727	0.1	-1.1104e-002
7769	15.429	0.90909	0.1	-1.9426e-002
7770	15.429	1.0909	0.1	-2.0268e-002
7771	15.429	1.2727	0.1	-1.9462e-002
7772	15.429	1.4545	0.1	-1.707e-002
7773	15.429	1.6364	0.1	-1.4162e-002
7774	15.429	1.8182	0.1	-1.1469e-002
7775	15.429	2.	0.1	-9.7393e-003
7776	15.429	2.1818	0.1	-9.5031e-003
7777	15.429	2.3636	0.1	-1.0886e-002
7778	15.429	2.5455	0.1	-1.3438e-002
7779	15.429	2.7273	0.1	-1.6182e-002
7780	15.429	2.9091	0.1	-1.7953e-002
7781	15.429	3.0909	0.1	-1.7953e-002
7782	15.429	3.2727	0.1	-1.6182e-002
7783	15.429	3.4545	0.1	-1.3439e-002
7784	15.429	3.6364	0.1	-1.0884e-002
7785	15.429	3.8182	0.1	-9.5027e-003
7786	15.429	4.	0.1	-9.7393e-003
7787	15.429	4.1818	0.1	-1.1469e-002
7788	15.429	4.3636	0.1	-1.4163e-002
7789	15.429	4.5455	0.1	-1.7069e-002
7790	15.429	4.7273	0.1	-1.9462e-002
7791	15.429	4.9091	0.1	-2.0268e-002
7792	15.429	5.0909	0.1	-1.9426e-002
7793	15.429	5.2727	0.1	-1.1104e-002
7794	15.429	5.4545	0.1	-8.2289e-003
7795	15.429	5.6364	0.1	8.6964e-002
7796	15.429	5.8182	0.1	8.4449e-002
7797	15.612	0.18182	0.1	9.9475e-002
7798	15.612	0.36364	0.1	9.4516e-002
7799	15.612	0.54545	0.1	-1.1599e-002
7800	15.612	0.72727	0.1	-1.2824e-002
7801	15.612	0.90909	0.1	-2.0748e-002
7802	15.612	1.0909	0.1	-2.0583e-002
7803	15.612	1.2727	0.1	-1.8827e-002
7804	15.612	1.4545	0.1	-1.5444e-002
7805	15.612	1.6364	0.1	-1.1625e-002
7806	15.612	1.8182	0.1	-8.269e-003
7807	15.612	2.	0.1	-6.3848e-003
7808	15.612	2.1818	0.1	-6.733e-003
7809	15.612	2.3636	0.1	-9.4947e-003
7810	15.612	2.5455	0.1	-1.3972e-002
7811	15.612	2.7273	0.1	-1.8622e-002
7812	15.612	2.9091	0.1	-2.1591e-002
7813	15.612	3.0909	0.1	-2.1591e-002
7814	15.612	3.2727	0.1	-1.8622e-002
7815	15.612	3.4545	0.1	-1.397e-002
7816	15.612	3.6364	0.1	-9.4949e-003
7817	15.612	3.8182	0.1	-6.7332e-003
7818	15.612	4.	0.1	-6.3841e-003
7819	15.612	4.1818	0.1	-8.2683e-003
7820	15.612	4.3636	0.1	-1.1623e-002
7821	15.612	4.5455	0.1	-1.5443e-002
7822	15.612	4.7273	0.1	-1.8826e-002
7823	15.612	4.9091	0.1	-2.0583e-002
7824	15.612	5.0909	0.1	-2.0748e-002
7825	15.612	5.2727	0.1	-1.2823e-002
7826	15.612	5.4545	0.1	-1.1596e-002
7827	15.612	5.6364	0.1	9.4515e-002
7828	15.612	5.8182	0.1	9.9475e-002
7829	15.796	0.18182	0.1	0.11222
7830	15.796	0.36364	0.1	0.1011
7831	15.796	0.54545	0.1	-1.5591e-002
7832	15.796	0.72727	0.1	-1.4271e-002
7833	15.796	0.90909	0.1	-2.1297e-002
7834	15.796	1.0909	0.1	-1.9776e-002
7835	15.796	1.2727	0.1	-1.6838e-002
7836	15.796	1.4545	0.1	-1.227e-002
7837	15.796	1.6364	0.1	-7.3433e-003
7838	15.796	1.8182	0.1	-3.1738e-003
7839	15.796	2.	0.1	-1.1521e-003
7840	15.796	2.1818	0.1	-2.4051e-003
7841	15.796	2.3636	0.1	-7.2307e-003
7842	15.796	2.5455	0.1	-1.4589e-002
7843	15.796	2.7273	0.1	-2.21e-002
7844	15.796	2.9091	0.1	-2.6864e-002
7845	15.796	3.0909	0.1	-2.6864e-002
7846	15.796	3.2727	0.1	-2.21e-002
7847	15.796	3.4545	0.1	-1.4589e-002
7848	15.796	3.6364	0.1	-7.2294e-003
7849	15.796	3.8182	0.1	-2.4049e-003
7850	15.796	4.	0.1	-1.1517e-003
7851	15.796	4.1818	0.1	-3.1734e-003
7852	15.796	4.3636	0.1	-7.3431e-003
7853	15.796	4.5455	0.1	-1.2269e-002
7854	15.796	4.7273	0.1	-1.6838e-002
7855	15.796	4.9091	0.1	-1.9775e-002
7856	15.796	5.0909	0.1	-2.1296e-002
7857	15.796	5.2727	0.1	-1.427e-002
7858	15.796	5.4545	0.1	-1.5591e-002
7859	15.796	5.6364	0.1	0.1011
7860	15.796	5.8182	0.1	0.11222
7861	15.98	0.18182	0.1	0.11885
7862	15.98	0.36364	0.1	0.10557
7863	15.98	0.54545	0.1	-2.0305e-002
7864	15.98	0.72727	0.1	-1.5184e-002
7865	15.98	0.90909	0.1	-2.0568e-002
7866	15.98	1.0909	0.1	-1.7249e-002
7867	15.98	1.2727	0.1	-1.2887e-002
7868	15.98	1.4545	0.1	-6.9427e-003
7869	15.98	1.6364	0.1	-6.8733e-004
7870	15.98	1.8182	0.1	4.4961e-003
7871	15.98	2.	0.1	6.6619e-003
7872	15.98	2.1818	0.1	4.0387e-003
7873	15.98	2.3636	0.1	-3.894e-003
7874	15.98	2.5455	0.1	-1.552e-002
7875	15.98	2.7273	0.1	-2.7214e-002
7876	15.98	2.9091	0.1	-3.4585e-002
7877	15.98	3.0909	0.1	-3.4585e-002
7878	15.98	3.2727	0.1	-2.7214e-002
7879	15.98	3.4545	0.1	-1.552e-002
7880	15.98	3.6364	0.1	-3.8938e-003
7881	15.98	3.8182	0.1	4.0393e-003
7882	15.98	4.	0.1	6.6627e-003
7883	15.98	4.1818	0.1	4.4961e-003
7884	15.98	4.3636	0.1	-6.875e-004
7885	15.98	4.5455	0.1	-6.9415e-003
7886	15.98	4.7273	0.1	-1.2886e-002
7887	15.98	4.9091	0.1	-1.7248e-002
7888	15.98	5.0909	0.1	-2.0567e-002
7889	15.98	5.2727	0.1	-1.5182e-002
7890	15.98	5.4545	0.1	-2.0307e-002
7891	15.98	5.6364	0.1	0.10557
7892	15.98	5.8182	0.1	0.11885
7893	16.163	0.18182	0.1	0.11361
7894	16.163	0.36364	0.1	0.10618
7895	16.163	0.54545	0.1	-2.5929e-002
7896	16.163	0.72727	0.1	-1.5267e-002
7897	16.163	0.90909	0.1	-1.7904e-002
7898	16.163	1.0909	0.1	-1.2204e-002
7899	16.163	1.2727	0.1	-6.1848e-003
7900	16.163	1.4545	0.1	1.2163e-003
7901	16.163	1.6364	0.1	8.8805e-003
7902	16.163	1.8182	0.1	1.52e-002
7903	16.163	2.	0.1	1.7309e-002
7904	16.163	2.1818	0.1	1.2636e-002
7905	16.163	2.3636	0.1	3.4065e-004
7906	16.163	2.5455	0.1	-1.7374e-002
7907	16.163	2.7273	0.1	-3.4987e-002
7908	16.163	2.9091	0.1	-4.5976e-002
7909	16.163	3.0909	0.1	-4.5974e-002
7910	16.163	3.2727	0.1	-3.4987e-002
7911	16.163	3.4545	0.1	-1.7373e-002
7912	16.163	3.6364	0.1	3.4132e-004
7913	16.163	3.8182	0.1	1.2636e-002
7914	16.163	4.	0.1	1.731e-002
7915	16.163	4.1818	0.1	1.52e-002
7916	16.163	4.3636	0.1	8.881e-003
7917	16.163	4.5455	0.1	1.217e-003
7918	16.163	4.7273	0.1	-6.1849e-003
7919	16.163	4.9091	0.1	-1.2203e-002
7920	16.163	5.0909	0.1	-1.7903e-002
7921	16.163	5.2727	0.1	-1.5265e-002
7922	16.163	5.4545	0.1	-2.5928e-002
7923	16.163	5.6364	0.1	0.10618
7924	16.163	5.8182	0.1	0.11361
7925	16.347	0.18182	0.1	8.8862e-002
7926	16.347	0.36364	0.1	0.10044
7927	16.347	0.54545	0.1	-3.2709e-002
7928	16.347	0.72727	0.1	-1.414e-002
7929	16.347	0.90909	0.1	-1.238e-002
7930	16.347	1.0909	0.1	-3.4321e-003
7931	16.347	1.2727	0.1	4.5975e-003
7932	16.347	1.4545	0.1	1.353e-002
7933	16.347	1.6364	0.1	2.2847e-002
7934	16.347	1.8182	0.1	3.0501e-002
7935	16.347	2.	0.1	3.284e-002
7936	16.347	2.1818	0.1	2.4931e-002
7937	16.347	2.3636	0.1	5.2063e-003
7938	16.347	2.5455	0.1	-2.1526e-002
7939	16.347	2.7273	0.1	-4.7102e-002
7940	16.347	2.9091	0.1	-6.2732e-002
7941	16.347	3.0909	0.1	-6.2732e-002
7942	16.347	3.2727	0.1	-4.7101e-002
7943	16.347	3.4545	0.1	-2.1526e-002
7944	16.347	3.6364	0.1	5.2069e-003
7945	16.347	3.8182	0.1	2.4931e-002
7946	16.347	4.	0.1	3.2841e-002
7947	16.347	4.1818	0.1	3.0502e-002
7948	16.347	4.3636	0.1	2.2848e-002
7949	16.347	4.5455	0.1	1.353e-002
7950	16.347	4.7273	0.1	4.5973e-003
7951	16.347	4.9091	0.1	-3.4313e-003
7952	16.347	5.0909	0.1	-1.2379e-002
7953	16.347	5.2727	0.1	-1.4138e-002
7954	16.347	5.4545	0.1	-3.2707e-002
7955	16.347	5.6364	0.1	0.10044
7956	16.347	5.8182	0.1	8.8861e-002
7957	16.531	0.18182	0.1	3.5657e-002
7958	16.531	0.36364	0.1	8.4889e-002
7959	16.531	0.54545	0.1	-4.1289e-002
7960	16.531	0.72727	0.1	-1.1776e-002
7961	16.531	0.90909	0.1	-3.1444e-003
7962	16.531	1.0909	0.1	1.054e-002
7963	16.531	1.2727	0.1	2.0909e-002
7964	16.531	1.4545	0.1	3.06e-002
7965	16.531	1.6364	0.1	3.9793e-002
7966	16.531	1.8182	0.1	4.8067e-002
7967	16.531	2.	0.1	4.7469e-002
7968	16.531	2.1818	0.1	3.4056e-002
7969	16.531	2.3636	0.1	7.2152e-003
7970	16.531	2.5455	0.1	-3.0555e-002
7971	16.531	2.7273	0.1	-6.614e-002
7972	16.531	2.9091	0.1	-8.6939e-002
7973	16.531	3.0909	0.1	-8.6939e-002
7974	16.531	3.2727	0.1	-6.6142e-002
7975	16.531	3.4545	0.1	-3.0553e-002
7976	16.531	3.6364	0.1	7.2154e-003
7977	16.531	3.8182	0.1	3.4056e-002
7978	16.531	4.	0.1	4.7469e-002
7979	16.531	4.1818	0.1	4.8066e-002
7980	16.531	4.3636	0.1	3.9793e-002
7981	16.531	4.5455	0.1	3.0601e-002
7982	16.531	4.7273	0.1	2.0909e-002
7983	16.531	4.9091	0.1	1.054e-002
7984	16.531	5.0909	0.1	-3.1432e-003
7985	16.531	5.2727	0.1	-1.1773e-002
7986	16.531	5.4545	0.1	-4.1289e-002
7987	16.531	5.6364	0.1	8.489e-002
7988	16.531	5.8182	0.1	3.5655e-002
7989	16.714	0.18182	0.1	-5.2796e-002
7990	16.714	0.36364	0.1	5.6338e-002
7991	16.714	0.54545	0.1	-5.1672e-002
7992	16.714	0.72727	0.1	-7.6047e-003
7993	16.714	0.90909	0.1	1.1542e-002
7994	16.714	1.0909	0.1	3.2476e-002
7995	16.714	1.2727	0.1	4.7064e-002
7996	16.714	1.4545	0.1	5.9868e-002
7997	16.714	1.6364	0.1	7.3399e-002
7998	16.714	1.8182	0.1	7.9468e-002
7999	16.714	2.	0.1	8.3428e-002
8000	16.714	2.1818	0.1	6.2124e-002
8001	16.714	2.3636	0.1	6.0932e-003
8002	16.714	2.5455	0.1	-5.1607e-002
8003	16.714	2.7273	0.1	-9.5718e-002
8004	16.714	2.9091	0.1	-0.12025
8005	16.714	3.0909	0.1	-0.12025
8006	16.714	3.2727	0.1	-9.5717e-002
8007	16.714	3.4545	0.1	-5.1608e-002
8008	16.714	3.6364	0.1	6.0935e-003
8009	16.714	3.8182	0.1	6.2125e-002
8010	16.714	4.	0.1	8.3429e-002
8011	16.714	4.1818	0.1	7.9468e-002
8012	16.714	4.3636	0.1	7.34e-002
8013	16.714	4.5455	0.1	5.9869e-002
8014	16.714	4.7273	0.1	4.7065e-002
8015	16.714	4.9091	0.1	3.2477e-002
8016	16.714	5.0909	0.1	1.1544e-002
8017	16.714	5.2727	0.1	-7.6035e-003
8018	16.714	5.4545	0.1	-5.1673e-002
8019	16.714	5.6364	0.1	5.6337e-002
8020	16.714	5.8182	0.1	-5.2795e-002
8021	16.898	0.18182	0.1	-0.17847
8022	16.898	0.36364	0.1	9.9693e-003
8023	16.898	0.54545	0.1	-6.679e-002
8024	16.898	0.72727	0.1	-5.4406e-003
8025	16.898	0.90909	0.1	2.7748e-002
8026	16.898	1.0909	0.1	6.0964e-002
8027	16.898	1.2727	0.1	8.6113e-002
8028	16.898	1.4545	0.1	9.2912e-002
8029	16.898	1.6364	0.1	7.7637e-002
8030	16.898	1.8182	0.1	9.0011e-002
8031	16.898	2.	0.1	4.6244e-002
8032	16.898	2.1818	0.1	-9.2368e-003
8033	16.898	2.3636	0.1	-2.7404e-002
8034	16.898	2.5455	0.1	-8.6085e-002
8035	16.898	2.7273	0.1	-0.14114
8036	16.898	2.9091	0.1	-0.16154
8037	16.898	3.0909	0.1	-0.16154
8038	16.898	3.2727	0.1	-0.14114
8039	16.898	3.4545	0.1	-8.6085e-002
8040	16.898	3.6364	0.1	-2.7404e-002
8041	16.898	3.8182	0.1	-9.2364e-003
8042	16.898	4.	0.1	4.6244e-002
8043	16.898	4.1818	0.1	9.0011e-002
8044	16.898	4.3636	0.1	7.7637e-002
8045	16.898	4.5455	0.1	9.2914e-002
8046	16.898	4.7273	0.1	8.6113e-002
8047	16.898	4.9091	0.1	6.0966e-002
8048	16.898	5.0909	0.1	2.775e-002
8049	16.898	5.2727	0.1	-5.4384e-003
8050	16.898	5.4545	0.1	-6.6792e-002
8051	16.898	5.6364	0.1	9.9707e-003
8052	16.898	5.8182	0.1	-0.17847
8053	17.082	0.18182	0.1	-0.30931
8054	17.082	0.36364	0.1	-3.9732e-002
8055	17.082	0.54545	0.1	-7.2657e-002
8056	17.082	0.72727	0.1	4.0828e-003
8057	17.082	0.90909	0.1	5.7307e-002
8058	17.082	1.0909	0.1	0.1125
8059	17.082	1.2727	0.1	0.14654
8060	17.082	1.4545	0.1	0.19067
8061	17.082	1.6364	0.1	0.31287
8062	17.082	1.8182	0.1	0.20186
8063	17.082	2.	0.1	0.28111
8064	17.082	2.1818	0.1	0.25879
8065	17.082	2.3636	0.1	-9.394e-002
8066	17.082	2.5455	0.1	-0.18774
8067	17.082	2.7273	0.1	-0.1907
8068	17.082	2.9091	0.1	-0.20109
8069	17.082	3.0909	0.1	-0.20109
8070	17.082	3.2727	0.1	-0.1907
8071	17.082	3.4545	0.1	-0.18774
8072	17.082	3.6364	0.1	-9.394e-002
8073	17.082	3.8182	0.1	0.25879
8074	17.082	4.	0.1	0.28111
8075	17.082	4.1818	0.1	0.20186
8076	17.082	4.3636	0.1	0.31287
8077	17.082	4.5455	0.1	0.19067
8078	17.082	4.7273	0.1	0.14654
8079	17.082	4.9091	0.1	0.11251
8080	17.082	5.0909	0.1	5.7309e-002
8081	17.082	5.2727	0.1	4.0838e-003
8082	17.082	5.4545	0.1	-7.2656e-002
8083	17.082	5.6364	0.1	-3.9733e-002
8084	17.082	5.8182	0.1	-0.30931
8085	17.265	0.18182	0.1	-0.41033
8086	17.265	0.36364	0.1	-0.1056
8087	17.265	0.54545	0.1	-9.9442e-002
8088	17.265	0.72727	0.1	-2.4529e-002
8089	17.265	0.90909	0.1	3.582e-002
8090	17.265	1.0909	0.1	9.4011e-002
8091	17.265	1.2727	0.1	0.21125
8092	17.265	1.4545	0.1	0.33022
8093	17.265	1.6364	0.1	-0.28251
8094	17.265	1.8182	0.1	8.3742e-002
8095	17.265	2.	0.1	-0.74761
8096	17.265	2.1818	0.1	-1.2291
8097	17.265	2.3636	0.1	-0.16034
8098	17.265	2.5455	0.1	-0.28224
8099	17.265	2.7273	0.1	-0.24986
8100	17.265	2.9091	0.1	-0.2035
8101	17.265	3.0909	0.1	-0.2035
8102	17.265	3.2727	0.1	-0.24987
8103	17.265	3.4545	0.1	-0.28224
8104	17.265	3.6364	0.1	-0.16034
8105	17.265	3.8182	0.1	-1.2291
8106	17.265	4.	0.1	-0.74761
8107	17.265	4.1818	0.1	8.3743e-002
8108	17.265	4.3636	0.1	-0.2825
8109	17.265	4.5455	0.1	0.33022
8110	17.265	4.7273	0.1	0.21125
8111	17.265	4.9091	0.1	9.4013e-002
8112	17.265	5.0909	0.1	3.5822e-002
8113	17.265	5.2727	0.1	-2.4527e-002
8114	17.265	5.4545	0.1	-9.9442e-002
8115	17.265	5.6364	0.1	-0.1056
8116	17.265	5.8182	0.1	-0.41033
8117	17.449	0.18182	0.1	-9.6093e-002
8118	17.449	0.36364	0.1	8.1102e-002
8119	17.449	0.54545	0.1	6.918e-002
8120	17.449	0.72727	0.1	0.1159
8121	17.449	0.90909	0.1	0.16703
8122	17.449	1.0909	0.1	0.32294
8123	17.449	1.2727	0.1	0.41018
8124	17.449	1.4545	0.1	0.37518
8125	17.449	1.6364	0.1	3.0377
8126	17.449	1.8182	0.1	1.4259
8127	17.449	2.	0.1	4.0202
8128	17.449	2.1818	0.1	3.0781
8129	17.449	2.3636	0.1	-1.7393
8130	17.449	2.5455	0.1	-0.20944
8131	17.449	2.7273	0.1	-0.21076
8132	17.449	2.9091	0.1	-0.11917
8133	17.449	3.0909	0.1	-0.11917
8134	17.449	3.2727	0.1	-0.21076
8135	17.449	3.4545	0.1	-0.20944
8136	17.449	3.6364	0.1	-1.7393
8137	17.449	3.8182	0.1	3.0781
8138	17.449	4.	0.1	4.0202
8139	17.449	4.1818	0.1	1.4259
8140	17.449	4.3636	0.1	3.0377
8141	17.449	4.5455	0.1	0.37518
8142	17.449	4.7273	0.1	0.41019
8143	17.449	4.9091	0.1	0.32294
8144	17.449	5.0909	0.1	0.16704
8145	17.449	5.2727	0.1	0.1159
8146	17.449	5.4545	0.1	6.9181e-002
8147	17.449	5.6364	0.1	8.1102e-002
8148	17.449	5.8182	0.1	-9.6091e-002
8149	17.633	0.18182	0.1	0.40621
8150	17.633	0.36364	0.1	-9.5221e-002
8151	17.633	0.54545	0.1	-0.32166
8152	17.633	0.72727	0.1	-0.49783
8153	17.633	0.90909	0.1	-0.5725
8154	17.633	1.0909	0.1	-0.70154
8155	17.633	1.2727	0.1	-0.63667
8156	17.633	1.4545	0.1	-0.56118
8157	17.633	1.6364	0.1	-2.4174
8158	17.633	1.8182	0.1	-6.4242
8159	17.633	2.	0.1	-22.7
8160	17.633	2.1818	0.1	-12.007
8161	17.633	2.3636	0.1	1.7744
8162	17.633	2.5455	0.1	-0.42466
8163	17.633	2.7273	0.1	9.1511e-002
8164	17.633	2.9091	0.1	0.11189
8165	17.633	3.0909	0.1	0.11189
8166	17.633	3.2727	0.1	9.1511e-002
8167	17.633	3.4545	0.1	-0.42466
8168	17.633	3.6364	0.1	1.7744
8169	17.633	3.8182	0.1	-12.007
8170	17.633	4.	0.1	-22.7
8171	17.633	4.1818	0.1	-6.4242
8172	17.633	4.3636	0.1	-2.4174
8173	17.633	4.5455	0.1	-0.56118
8174	17.633	4.7273	0.1	-0.63667
8175	17.633	4.9091	0.1	-0.70154
8176	17.633	5.0909	0.1	-0.57249
8177	17.633	5.2727	0.1	-0.49783
8178	17.633	5.4545	0.1	-0.32165
8179	17.633	5.6364	0.1	-9.522e-002
8180	17.633	5.8182	0.1	0.40622
8181	17.816	0.18182	0.1	5.8768
8182	17.816	0.36364	0.1	2.6271
8183	17.816	0.54545	0.1	2.0547
8184	17.816	0.72727	0.1	1.8536
8185	17.816	0.90909	0.1	1.8206
8186	17.816	1.0909	0.1	2.4211
8187	17.816	1.2727	0.1	1.489
8188	17.816	1.4545	0.1	7.6367
8189	17.816	1.6364	0.1	-8.0571
8190	17.816	1.8182	0.1	41.767
8191	17.816	2.	0.1	190.34
8192	17.816	2.1818	0.1	-10.336
8193	17.816	2.3636	0.1	5.9819
8194	17.816	2.5455	0.1	-1.7927
8195	17.816	2.7273	0.1	1.2119
8196	17.816	2.9091	0.1	0.30893
8197	17.816	3.0909	0.1	0.30893
8198	17.816	3.2727	0.1	1.2119
8199	17.816	3.4545	0.1	-1.7927
8200	17.816	3.6364	0.1	5.9819
8201	17.816	3.8182	0.1	-10.336
8202	17.816	4.	0.1	190.34
8203	17.816	4.1818	0.1	41.767
8204	17.816	4.3636	0.1	-8.0571
8205	17.816	4.5455	0.1	7.6367
8206	17.816	4.7273	0.1	1.489
8207	17.816	4.9091	0.1	2.4211
8208	17.816	5.0909	0.1	1.8206
8209	17.816	5.2727	0.1	1.8536
8210	17.816	5.4545	0.1	2.0547
8211	17.816	5.6364	0.1	2.6271
8212	17.816	5.8182	0.1	5.8768
8213	18.167	3.8182	0.1	-1.6516
8214	18.167	3.6364	0.1	13.401
8215	18.167	3.4545	0.1	-0.5564
8216	18.167	3.2727	0.1	1.383
8217	18.167	3.0909	0.1	0.64634
8218	18.167	2.9091	0.1	0.64634
8219	18.167	2.7273	0.1	1.383
8220	18.167	2.5455	0.1	-0.5564
8221	18.167	2.3636	0.1	13.401
8222	18.167	2.1818	0.1	-1.6515
8223	18.	3.8182	0.1	-69.498
8224	18.	3.6364	0.1	11.776
8225	18.	3.4545	0.1	-0.1691
8226	18.	3.2727	0.1	1.3457
8227	18.	3.0909	0.1	0.73323
8228	18.	2.9091	0.1	0.73323
8229	18.	2.7273	0.1	1.3457
8230	18.	2.5455	0.1	-0.1691
8231	18.	2.3636	0.1	11.776
8232	18.	2.1818	0.1	-69.498
8233	18.167	5.8182	0.1	-2.6291
8234	18.167	5.6364	0.1	-4.0762
8235	18.167	5.4545	0.1	-4.1584
8236	18.167	5.2727	0.1	-4.6937
8237	18.167	5.0909	0.1	-5.5596
8238	18.167	4.9091	0.1	-6.3663
8239	18.167	4.7273	0.1	-9.5005
8240	18.167	4.5455	0.1	-8.6959
8241	18.167	4.3636	0.1	-34.56
8242	18.167	4.1818	0.1	7.927
8243	18.167	4.	0.1	506.85
8244	18.	4.	0.1	207.35
8245	18.	4.1818	0.1	6.0204
8246	18.	4.3636	0.1	-40.817
8247	18.	4.5455	0.1	-10.522
8248	18.	4.7273	0.1	-12.511
8249	18.	4.9091	0.1	-8.7156
8250	18.	5.0909	0.1	-7.9482
8251	18.	5.2727	0.1	-6.9571
8252	18.	5.4545	0.1	-6.3557
8253	18.	5.6364	0.1	-6.2207
8254	18.	5.8182	0.1	-4.85
8255	18.167	0.18182	0.1	-2.6291
8256	18.167	0.36364	0.1	-4.0762
8257	18.167	0.54545	0.1	-4.1584
8258	18.167	0.72727	0.1	-4.6937
8259	18.167	0.90909	0.1	-5.5596
8260	18.167	1.0909	0.1	-6.3663
8261	18.167	1.2727	0.1	-9.5005
8262	18.167	1.4545	0.1	-8.6959
8263	18.167	1.6364	0.1	-34.56
8264	18.167	1.8182	0.1	7.927
8265	18.167	2.	0.1	506.85
8266	18.	2.	0.1	207.35
8267	18.	1.8182	0.1	6.0203
8268	18.	1.6364	0.1	-40.817
8269	18.	1.4545	0.1	-10.522
8270	18.	1.2727	0.1	-12.511
8271	18.	1.0909	0.1	-8.7156
8272	18.	0.90909	0.1	-7.9482
8273	18.	0.72727	0.1	-6.9571
8274	18.	0.54545	0.1	-6.3557
8275	18.	0.36364	0.1	-6.2207
8276	18.	0.18182	0.1	-4.85
8277	18.167	6.	0.1	9.2585
8278	18.349	6.	0.1	0.79179
8279	18.531	6.	0.1	-1.0384
8280	18.714	6.	0.1	-0.42064
8281	18.896	6.	0.1	-0.25889
8282	19.078	6.	0.1	-6.0192e-002
8283	19.26	6.	0.1	4.8862e-002
8284	19.443	6.	0.1	0.1118
8285	19.625	6.	0.1	0.13607
8286	19.807	6.	0.1	0.13706
8287	19.99	6.	0.1	0.12481
8288	20.172	6.	0.1	0.1069
8289	20.354	6.	0.1	8.8196e-002
8290	20.536	6.	0.1	7.1697e-002
8291	20.719	6.	0.1	5.908e-002
8292	20.901	6.	0.1	5.1125e-002
8293	21.083	6.	0.1	4.8051e-002
8294	21.266	6.	0.1	4.9791e-002
8295	21.448	6.	0.1	5.611e-002
8296	21.63	6.	0.1	6.6741e-002
8297	21.813	6.	0.1	8.143e-002
8298	21.995	6.	0.1	9.9982e-002
8299	22.177	6.	0.1	0.12234
8300	22.359	6.	0.1	0.14857
8301	22.542	6.	0.1	0.17892
8302	22.724	6.	0.1	0.21402
8303	22.906	6.	0.1	0.25449
8304	23.089	6.	0.1	0.30296
8305	23.271	6.	0.1	0.35736
8306	23.453	6.	0.1	0.4426
8307	23.635	6.	0.1	0.50213
8308	23.818	6.	0.1	0.87346
8309	24.	6.	0.1	-1.1128
8310	24.	5.8182	0.1	-2.2746
8311	24.	5.6364	0.1	-2.3
8312	24.	5.4545	0.1	-2.4607
8313	24.	5.2727	0.1	-2.4794
8314	24.	5.0909	0.1	-2.5018
8315	24.	4.9091	0.1	-2.5117
8316	24.	4.7273	0.1	-2.5184
8317	24.	4.5455	0.1	-2.5217
8318	24.	4.3636	0.1	-2.5233
8319	24.	4.1818	0.1	-2.5235
8320	24.	4.	0.1	-2.523
8321	24.	3.8182	0.1	-2.5222
8322	24.	3.6364	0.1	-2.5212
8323	24.	3.4545	0.1	-2.5202
8324	24.	3.2727	0.1	-2.5195
8325	24.	3.0909	0.1	-2.5192
8326	24.	2.9091	0.1	-2.5192
8327	24.	2.7273	0.1	-2.5195
8328	24.	2.5455	0.1	-2.5202
8329	24.	2.3636	0.1	-2.5212
8330	24.	2.1818	0.1	-2.5222
8331	24.	2.	0.1	-2.523
8332	24.	1.8182	0.1	-2.5235
8333	24.	1.6364	0.1	-2.5233
8334	24.	1.4545	0.1	-2.5217
8335	24.	1.2727	0.1	-2.5183
8336	24.	1.0909	0.1	-2.5117
8337	24.	0.90909	0.1	-2.5018
8338	24.	0.72727	0.1	-2.4794
8339	24.	0.54545	0.1	-2.4607
8340	24.	0.36364	0.1	-2.3
8341	24.	0.18182	0.1	-2.2746
8342	1.5894e-015	0.18182	0.1	1193.6
8343	3.1789e-015	0.36364	0.1	2307.6
8344	4.7683e-015	0.54545	0.1	2824.2
8345	6.3578e-015	0.72727	0.1	3133.4
8346	7.9472e-015	0.90909	0.1	3340.7
8347	9.5366e-015	1.0909	0.1	3489.3
8348	1.1126e-014	1.2727	0.1	3599.5
8349	1.2716e-014	1.4545	0.1	3683.2
8350	1.4305e-014	1.6364	0.1	3747.8
8351	1.5894e-014	1.8182	0.1	3797.9
8352	1.7484e-014	2.	0.1	3836.7
8353	1.9073e-014	2.1818	0.1	3866.5
8354	2.0663e-014	2.3636	0.1	3888.8
8355	2.2252e-014	2.5455	0.1	3904.6
8356	2.3842e-014	2.7273	0.1	3914.7
8357	2.5431e-014	2.9091	0.1	3919.6
8358	2.702e-014	3.0909	0.1	3919.6
8359	2.861e-014	3.2727	0.1	3914.7
8360	3.0199e-014	3.4545	0.1	3904.6
8361	3.1789e-014	3.6364	0.1	3888.8
8362	3.3378e-014	3.8182	0.1	3866.5
8363	3.4968e-014	4.	0.1	3836.7
8364	3.6557e-014	4.1818	0.1	3797.9
8365	3.8147e-014	4.3636	0.1	3747.8
8366	3.9736e-014	4.5455	0.1	3683.2
8367	4.1325e-014	4.7273	0.1	3599.5
8368	4.2915e-014	4.9091	0.1	3489.3
8369	4.4504e-014	5.0909	0.1	3340.7
8370	4.6094e-014	5.2727	0.1	3133.4
8371	4.7683e-014	5.4545	0.1	2824.2
8372	4.9273e-014	5.6364	0.1	2307.6
8373	5.0862e-014	5.8182	0.1	1193.6
8374	24.	0.	0.1	-1.1128
8375	23.818	0.	0.1	0.87346
8376	23.635	0.	0.1	0.50213
8377	23.453	0.	0.1	0.44261
8378	23.271	0.	0.1	0.35737
8379	23.089	0.	0.1	0.30296
8380	22.906	0.	0.1	0.25449
8381	22.724	0.	0.1	0.21402
8382	22.542	0.	0.1	0.17893
8383	22.359	0.	0.1	0.14857
8384	22.177	0.	0.1	0.12233
8385	21.995	0.	0.1	9.9978e-002
8386	21.813	0.	0.1	8.1427e-002
8387	21.63	0.	0.1	6.6744e-002
8388	21.448	0.	0.1	5.611e-002
8389	21.266	0.	0.1	4.9789e-002
8390	21.083	0.	0.1	4.8053e-002
8391	20.901	0.	0.1	5.1124e-002
8392	20.719	0.	0.1	5.9079e-002
8393	20.536	0.	0.1	7.1699e-002
8394	20.354	0.	0.1	8.8198e-002
8395	20.172	0.	0.1	0.1069
8396	19.99	0.	0.1	0.12481
8397	19.807	0.	0.1	0.13706
8398	19.625	0.	0.1	0.13607
8399	19.443	0.	0.1	0.1118
8400	19.26	0.	0.1	4.8862e-002
8401	19.078	0.	0.1	-6.0193e-002
8402	18.896	0.	0.1	-0.25889
8403	18.714	0.	0.1	-0.42064
8404	18.531	0.	0.1	-1.0384
8405	18.349	0.	0.1	0.79179
8406	18.167	0.	0.1	9.2585
8407	18.	0.	0.1	11.692
8408	17.816	8.6458e-030	0.1	1.6083
8409	17.633	8.5567e-030	0.1	-0.52685
8410	17.449	8.4675e-030	0.1	0.31507
8411	17.265	8.3784e-030	0.1	0.54168
8412	17.082	8.2893e-030	0.1	0.82329
8413	16.898	8.2001e-030	0.1	0.97184
8414	16.714	8.111e-030	0.1	1.0437
8415	16.531	8.0219e-030	0.1	1.0475
8416	16.347	7.9327e-030	0.1	1.0063
8417	16.163	7.8436e-030	0.1	0.9373
8418	15.98	7.7545e-030	0.1	0.85441
8419	15.796	7.6653e-030	0.1	0.76725
8420	15.612	7.5762e-030	0.1	0.68197
8421	15.429	7.4871e-030	0.1	0.60207
8422	15.245	7.3979e-030	0.1	0.5293
8423	15.061	7.3088e-030	0.1	0.46424
8424	14.878	7.2197e-030	0.1	0.40675
8425	14.694	7.1306e-030	0.1	0.3564
8426	14.51	7.0414e-030	0.1	0.31251
8427	14.327	6.9523e-030	0.1	0.27435
8428	14.143	6.8632e-030	0.1	0.24117
8429	13.959	6.774e-030	0.1	0.2123
8430	13.776	6.6849e-030	0.1	0.18709
8431	13.592	6.5958e-030	0.1	0.16498
8432	13.408	6.5066e-030	0.1	0.14548
8433	13.224	6.4175e-030	0.1	0.12818
8434	13.041	6.3284e-030	0.1	0.11268
8435	12.857	6.2392e-030	0.1	9.8644e-002
8436	12.673	6.1501e-030	0.1	8.5818e-002
8437	12.49	6.061e-030	0.1	7.3957e-002
8438	12.306	5.9718e-030	0.1	6.2857e-002
8439	12.122	5.8827e-030	0.1	5.235e-002
8440	11.939	5.7936e-030	0.1	4.2279e-002
8441	11.755	5.7044e-030	0.1	3.2454e-002
8442	11.571	5.6153e-030	0.1	2.2798e-002
8443	11.388	5.5262e-030	0.1	1.3218e-002
8444	11.204	5.437e-030	0.1	3.5864e-003
8445	11.02	5.3479e-030	0.1	-6.181e-003
8446	10.837	5.2588e-030	0.1	-1.6187e-002
8447	10.653	5.1697e-030	0.1	-2.6519e-002
8448	10.469	5.0805e-030	0.1	-3.723e-002
8449	10.286	4.9914e-030	0.1	-4.8395e-002
8450	10.102	4.9023e-030	0.1	-6.0131e-002
8451	9.9184	4.8131e-030	0.1	-7.2523e-002
8452	9.7347	4.724e-030	0.1	-8.5663e-002
8453	9.551	4.6349e-030	0.1	-9.9622e-002
8454	9.3673	4.5457e-030	0.1	-0.11448
8455	9.1837	4.4566e-030	0.1	-0.13037
8456	9.	4.3675e-030	0.1	-0.14737
8457	8.8163	4.2783e-030	0.1	-0.16559
8458	8.6327	4.1892e-030	0.1	-0.18516
8459	8.449	4.1001e-030	0.1	-0.20621
8460	8.2653	4.0109e-030	0.1	-0.22885
8461	8.0816	3.9218e-030	0.1	-0.25325
8462	7.898	3.8327e-030	0.1	-0.27953
8463	7.7143	3.7435e-030	0.1	-0.30788
8464	7.5306	3.6544e-030	0.1	-0.33847
8465	7.3469	3.5653e-030	0.1	-0.37147
8466	7.1633	3.4761e-030	0.1	-0.40702
8467	6.9796	3.387e-030	0.1	-0.41971
8468	6.7959	3.2979e-030	0.1	-7.8793e-002
8469	6.6122	3.2087e-030	0.1	0.27159
8470	6.4286	3.1196e-030	0.1	0.62614
8471	6.2449	3.0305e-030	0.1	0.98202
8472	6.0612	2.9414e-030	0.1	1.3358
8473	5.8776	2.8522e-030	0.1	1.6831
8474	5.6939	2.7631e-030	0.1	2.0189
8475	5.5102	2.674e-030	0.1	2.3367
8476	5.3265	2.5848e-030	0.1	2.6291
8477	5.1429	2.4957e-030	0.1	2.887
8478	4.9592	2.4066e-030	0.1	3.0996
8479	4.7755	2.3174e-030	0.1	3.2541
8480	4.5918	2.2283e-030	0.1	3.3357
8481	4.4082	2.1392e-030	0.1	3.3266
8482	4.2245	2.05e-030	0.1	3.2066
8483	4.0408	1.9609e-030	0.1	2.9518
8484	3.8571	1.8718e-030	0.1	2.5356
8485	3.6735	1.7826e-030	0.1	1.9282
8486	3.4898	1.6935e-030	0.1	1.1003
8487	3.3061	1.6044e-030	0.1	3.7363e-002
8488	3.1224	1.5152e-030	0.1	-1.1803
8489	2.9388	1.4261e-030	0.1	-2.1247
8490	2.7551	1.337e-030	0.1	-2.6054
8491	2.5714	1.2478e-030	0.1	-2.9392
8492	2.3878	1.1587e-030	0.1	-3.247
8493	2.2041	1.0696e-030	0.1	-3.5625
8494	2.0204	9.8045e-031	0.1	-3.9009
8495	1.8367	8.9132e-031	0.1	-4.2721
8496	1.6531	8.0219e-031	0.1	-4.6906
8497	1.4694	7.1306e-031	0.1	-5.1567
8498	1.2857	6.2392e-031	0.1	-5.7335
8499	1.102	5.3479e-031	0.1	-6.2916
8500	0.91837	4.4566e-031	0.1	-7.3597
8501	0.73469	3.5653e-031	0.1	-7.5229
8502	0.55102	2.674e-031	0.1	-10.26
8503	0.36735	1.7826e-031	0.1	-16.511
8504	0.18367	8.9132e-032	0.1	51.847
8505	0.	0.	0.1	-354.47
8506	3.937e-014	6.	0.1	-354.47
8507	0.18367	6.	0.1	51.847
8508	0.36735	6.	0.1	-16.511
8509	0.55102	6.	0.1	-10.26
8510	0.73469	6.	0.1	-7.5229
8511	0.91837	6.	0.1	-7.3597
8512	1.102	6.	0.1	-6.2916
8513	1.2857	6.	0.1	-5.7335
8514	1.4694	6.	0.1	-5.1567
8515	1.6531	6.	0.1	-4.6906
8516	1.8367	6.	0.1	-4.2721
8517	2.0204	6.	0.1	-3.9009
8518	2.2041	6.	0.1	-3.5625
8519	2.3878	6.	0.1	-3.247
8520	2.5714	6.	0.1	-2.9392
8521	2.7551	6.	0.1	-2.6054
8522	2.9388	6.	0.1	-2.1247
8523	3.1224	6.	0.1	-1.1803
8524	3.3061	6.	0.1	3.7346e-002
8525	3.4898	6.	0.1	1.1003
8526	3.6735	6.	0.1	1.9281
8527	3.8571	6.	0.1	2.5356
8528	4.0408	6.	0.1	2.9518
8529	4.2245	6.	0.1	3.2066
8530	4.4082	6.	0.1	3.3266
8531	4.5918	6.	0.1	3.3357
8532	4.7755	6.	0.1	3.2541
8533	4.9592	6.	0.1	3.0996
8534	5.1429	6.	0.1	2.887
8535	5.3265	6.	0.1	2.6291
8536	5.5102	6.	0.1	2.3367
8537	5.6939	6.	0.1	2.0189
8538	5.8776	6.	0.1	1.6831
8539	6.0612	6.	0.1	1.3358
8540	6.2449	6.	0.1	0.98203
8541	6.4286	6.	0.1	0.62615
8542	6.6122	6.	0.1	0.2716
8543	6.7959	6.	0.1	-7.8782e-002
8544	6.9796	6.	0.1	-0.4197
8545	7.1633	6.	0.1	-0.40702
8546	7.3469	6.	0.1	-0.37147
8547	7.5306	6.	0.1	-0.33847
8548	7.7143	6.	0.1	-0.30788
8549	7.898	6.	0.1	-0.27953
8550	8.0816	6.	0.1	-0.25325
8551	8.2653	6.	0.1	-0.22885
8552	8.449	6.	0.1	-0.20621
8553	8.6327	6.	0.1	-0.18516
8554	8.8163	6.	0.1	-0.16559
8555	9.	6.	0.1	-0.14737
8556	9.1837	6.	0.1	-0.13037
8557	9.3673	6.	0.1	-0.11448
8558	9.551	6.	0.1	-9.9621e-002
8559	9.7347	6.	0.1	-8.5662e-002
8560	9.9184	6.	0.1	-7.2523e-002
8561	10.102	6.	0.1	-6.013e-002
8562	10.286	6.	0.1	-4.8395e-002
8563	10.469	6.	0.1	-3.7229e-002
8564	10.653	6.	0.1	-2.6519e-002
8565	10.837	6.	0.1	-1.6185e-002
8566	11.02	6.	0.1	-6.1807e-003
8567	11.204	6.	0.1	3.5873e-003
8568	11.388	6.	0.1	1.3218e-002
8569	11.571	6.	0.1	2.2799e-002
8570	11.755	6.	0.1	3.2453e-002
8571	11.939	6.	0.1	4.2281e-002
8572	12.122	6.	0.1	5.235e-002
8573	12.306	6.	0.1	6.2855e-002
8574	12.49	6.	0.1	7.3958e-002
8575	12.673	6.	0.1	8.5817e-002
8576	12.857	6.	0.1	9.8644e-002
8577	13.041	6.	0.1	0.11268
8578	13.224	6.	0.1	0.12818
8579	13.408	6.	0.1	0.14548
8580	13.592	6.	0.1	0.16498
8581	13.776	6.	0.1	0.18709
8582	13.959	6.	0.1	0.2123
8583	14.143	6.	0.1	0.24117
8584	14.327	6.	0.1	0.27435
8585	14.51	6.	0.1	0.31251
8586	14.694	6.	0.1	0.3564
8587	14.878	6.	0.1	0.40675
8588	15.061	6.	0.1	0.46424
8589	15.245	6.	0.1	0.5293
8590	15.429	6.	0.1	0.60207
8591	15.612	6.	0.1	0.68197
8592	15.796	6.	0.1	0.76725
8593	15.98	6.	0.1	0.8544
8594	16.163	6.	0.1	0.9373
8595	16.347	6.	0.1	1.0063
8596	16.531	6.	0.1	1.0475
8597	16.714	6.	0.1	1.0437
8598	16.898	6.	0.1	0.97184
8599	17.082	6.	0.1	0.82329
8600	17.265	6.	0.1	0.54168
8601	17.449	6.	0.1	0.31507
8602	17.633	6.	0.1	-0.52685
8603	17.816	6.	0.1	1.6083
8604	18.	6.	0.1	11.692
8605	17.816	6.	0.	-1.6083
8606	17.633	6.	0.	0.52685
8607	17.449	6.	0.	-0.31507
8608	17.265	6.	0.	-0.54168
8609	17.082	6.	0.	-0.82329
8610	16.898	6.	0.	-0.97184
8611	16.714	6.	0.	-1.0437
8612	16.531	6.	0.	-1.0475
8613	16.347	6.	0.	-1.0063
8614	16.163	6.	0.	-0.9373
8615	15.98	6.	0.	-0.8544
8616	15.796	6.	0.	-0.76725
8617	15.612	6.	0.	-0.68197
8618	15.429	6.	0.	-0.60207
8619	15.245	6.	0.	-0.5293
8620	15.061	6.	0.	-0.46424
8621	14.878	6.	0.	-0.40675
8622	14.694	6.	0.	-0.35639
8623	14.51	6.	0.	-0.31251
8624	14.327	6.	0.	-0.27434
8625	14.143	6.	0.	-0.24117
8626	13.959	6.	0.	-0.2123
8627	13.776	6.	0.	-0.18709
8628	13.592	6.	0.	-0.16498
8629	13.408	6.	0.	-0.14548
8630	13.224	6.	0.	-0.12818
8631	13.041	6.	0.	-0.11268
8632	12.857	6.	0.	-9.8643e-002
8633	12.673	6.	0.	-8.5816e-002
8634	12.49	6.	0.	-7.3958e-002
8635	12.306	6.	0.	-6.2854e-002
8636	12.122	6.	0.	-5.2351e-002
8637	11.939	6.	0.	-4.2281e-002
8638	11.755	6.	0.	-3.2453e-002
8639	11.571	6.	0.	-2.2799e-002
8640	11.388	6.	0.	-1.3218e-002
8641	11.204	6.	0.	-3.5871e-003
8642	11.02	6.	0.	6.1814e-003
8643	10.837	6.	0.	1.6186e-002
8644	10.653	6.	0.	2.652e-002
8645	10.469	6.	0.	3.723e-002
8646	10.286	6.	0.	4.8395e-002
8647	10.102	6.	0.	6.013e-002
8648	9.9184	6.	0.	7.2523e-002
8649	9.7347	6.	0.	8.5663e-002
8650	9.551	6.	0.	9.9621e-002
8651	9.3673	6.	0.	0.11448
8652	9.1837	6.	0.	0.13037
8653	9.	6.	0.	0.14737
8654	8.8163	6.	0.	0.16559
8655	8.6327	6.	0.	0.18516
8656	8.449	6.	0.	0.20621
8657	8.2653	6.	0.	0.22885
8658	8.0816	6.	0.	0.25325
8659	7.898	6.	0.	0.27953
8660	7.7143	6.	0.	0.30788
8661	7.5306	6.	0.	0.33847
8662	7.3469	6.	0.	0.37147
8663	7.1633	6.	0.	0.40702
8664	6.9796	6.	0.	0.4197
8665	6.7959	6.	0.	7.8784e-002
8666	6.6122	6.	0.	-0.2716
8667	6.4286	6.	0.	-0.62615
8668	6.2449	6.	0.	-0.98202
8669	6.0612	6.	0.	-1.3358
8670	5.8776	6.	0.	-1.6831
8671	5.6939	6.	0.	-2.0189
8672	5.5102	6.	0.	-2.3367
8673	5.3265	6.	0.	-2.6291
8674	5.1429	6.	0.	-2.887
8675	4.9592	6.	0.	-3.0996
8676	4.7755	6.	0.	-3.2541
8677	4.5918	6.	0.	-3.3357
8678	4.4082	6.	0.	-3.3266
8679	4.2245	6.	0.	-3.2065
8680	4.0408	6.	0.	-2.9518
8681	3.8571	6.	0.	-2.5356
8682	3.6735	6.	0.	-1.9281
8683	3.4898	6.	0.	-1.1003
8684	3.3061	6.	0.	-3.7347e-002
8685	3.1224	6.	0.	1.1803
8686	2.9388	6.	0.	2.1247
8687	2.7551	6.	0.	2.6054
8688	2.5714	6.	0.	2.9392
8689	2.3878	6.	0.	3.247
8690	2.2041	6.	0.	3.5625
8691	2.0204	6.	0.	3.9009
8692	1.8367	6.	0.	4.2721
8693	1.6531	6.	0.	4.6906
8694	1.4694	6.	0.	5.1567
8695	1.2857	6.	0.	5.7335
8696	1.102	6.	0.	6.2916
8697	0.91837	6.	0.	7.3597
8698	0.73469	6.	0.	7.5229
8699	0.55102	6.	0.	10.26
8700	0.36735	6.	0.	16.511
8701	0.18367	6.	0.	-51.847
8702	18.	6.	0.	-11.692
8703	3.937e-014	6.	0.	354.47
8704	0.18367	8.9132e-032	0.	-51.847
8705	0.36735	1.7826e-031	0.	16.511
8706	0.55102	2.674e-031	0.	10.26
8707	0.73469	3.5653e-031	0.	7.5229
8708	0.91837	4.4566e-031	0.	7.3597
8709	1.102	5.3479e-031	0.	6.2916
8710	1.2857	6.2392e-031	0.	5.7335
8711	1.4694	7.1306e-031	0.	5.1567
8712	1.6531	8.0219e-031	0.	4.6906
8713	1.8367	8.9132e-031	0.	4.2721
8714	2.0204	9.8045e-031	0.	3.9009
8715	2.2041	1.0696e-030	0.	3.5625
8716	2.3878	1.1587e-030	0.	3.247
8717	2.5714	1.2478e-030	0.	2.9392
8718	2.7551	1.337e-030	0.	2.6054
8719	2.9388	1.4261e-030	0.	2.1247
8720	3.1224	1.5152e-030	0.	1.1803
8721	3.3061	1.6044e-030	0.	-3.7363e-002
8722	3.4898	1.6935e-030	0.	-1.1003
8723	3.6735	1.7826e-030	0.	-1.9282
8724	3.8571	1.8718e-030	0.	-2.5356
8725	4.0408	1.9609e-030	0.	-2.9518
8726	4.2245	2.05e-030	0.	-3.2066
8727	4.4082	2.1392e-030	0.	-3.3266
8728	4.5918	2.2283e-030	0.	-3.3357
8729	4.7755	2.3174e-030	0.	-3.2541
8730	4.9592	2.4066e-030	0.	-3.0996
8731	5.1429	2.4957e-030	0.	-2.887
8732	5.3265	2.5848e-030	0.	-2.6291
8733	5.5102	2.674e-030	0.	-2.3367
8734	5.6939	2.7631e-030	0.	-2.0189
8735	5.8776	2.8522e-030	0.	-1.6831
8736	6.0612	2.9414e-030	0.	-1.3358
8737	6.2449	3.0305e-030	0.	-0.98202
8738	6.4286	3.1196e-030	0.	-0.62614
8739	6.6122	3.2087e-030	0.	-0.27159
8740	6.7959	3.2979e-030	0.	7.8794e-002
8741	6.9796	3.387e-030	0.	0.41971
8742	7.1633	3.4761e-030	0.	0.40702
8743	7.3469	3.5653e-030	0.	0.37147
8744	7.5306	3.6544e-030	0.	0.33847
8745	7.7143	3.7435e-030	0.	0.30788
8746	7.898	3.8327e-030	0.	0.27953
8747	8.0816	3.9218e-030	0.	0.25325
8748	8.2653	4.0109e-030	0.	0.22885
8749	8.449	4.1001e-030	0.	0.20621
8750	8.6327	4.1892e-030	0.	0.18516
8751	8.8163	4.2783e-030	0.	0.16559
8752	9.	4.3675e-030	0.	0.14737
8753	9.1837	4.4566e-030	0.	0.13037
8754	9.3673	4.5457e-030	0.	0.11448
8755	9.551	4.6349e-030	0.	9.9622e-002
8756	9.7347	4.724e-030	0.	8.5663e-002
8757	9.9184	4.8131e-030	0.	7.2523e-002
8758	10.102	4.9023e-030	0.	6.013e-002
8759	10.286	4.9914e-030	0.	4.8395e-002
8760	10.469	5.0805e-030	0.	3.723e-002
8761	10.653	5.1697e-030	0.	2.652e-002
8762	10.837	5.2588e-030	0.	1.6187e-002
8763	11.02	5.3479e-030	0.	6.1809e-003
8764	11.204	5.437e-030	0.	-3.5869e-003
8765	11.388	5.5262e-030	0.	-1.3217e-002
8766	11.571	5.6153e-030	0.	-2.2798e-002
8767	11.755	5.7044e-030	0.	-3.2453e-002
8768	11.939	5.7936e-030	0.	-4.2277e-002
8769	12.122	5.8827e-030	0.	-5.2351e-002
8770	12.306	5.9718e-030	0.	-6.2856e-002
8771	12.49	6.061e-030	0.	-7.3957e-002
8772	12.673	6.1501e-030	0.	-8.5817e-002
8773	12.857	6.2392e-030	0.	-9.8643e-002
8774	13.041	6.3284e-030	0.	-0.11268
8775	13.224	6.4175e-030	0.	-0.12818
8776	13.408	6.5066e-030	0.	-0.14548
8777	13.592	6.5958e-030	0.	-0.16497
8778	13.776	6.6849e-030	0.	-0.18709
8779	13.959	6.774e-030	0.	-0.2123
8780	14.143	6.8632e-030	0.	-0.24117
8781	14.327	6.9523e-030	0.	-0.27435
8782	14.51	7.0414e-030	0.	-0.31251
8783	14.694	7.1306e-030	0.	-0.35639
8784	14.878	7.2197e-030	0.	-0.40675
8785	15.061	7.3088e-030	0.	-0.46424
8786	15.245	7.3979e-030	0.	-0.5293
8787	15.429	7.4871e-030	0.	-0.60207
8788	15.612	7.5762e-030	0.	-0.68197
8789	15.796	7.6653e-030	0.	-0.76725
8790	15.98	7.7545e-030	0.	-0.85441
8791	16.163	7.8436e-030	0.	-0.9373
8792	16.347	7.9327e-030	0.	-1.0063
8793	16.531	8.0219e-030	0.	-1.0475
8794	16.714	8.111e-030	0.	-1.0437
8795	16.898	8.2001e-030	0.	-0.97184
8796	17.082	8.2893e-030	0.	-0.82329
8797	17.265	8.3784e-030	0.	-0.54168
8798	17.449	8.4675e-030	0.	-0.31507
8799	17.633	8.5567e-030	0.	0.52685
8800	17.816	8.6458e-030	0.	-1.6083
8801	18.	0.	0.	-11.692
8802	0.	0.	0.	354.47
8803	18.349	0.	0.	-0.7918
8804	18.531	0.	0.	1.0384
8805	18.714	0.	0.	0.42064
8806	18.896	0.	0.	0.25889
8807	19.078	0.	0.	6.0193e-002
8808	19.26	0.	0.	-4.8862e-002
8809	19.443	0.	0.	-0.1118
8810	19.625	0.	0.	-0.13607
8811	19.807	0.	0.	-0.13706
8812	19.99	0.	0.	-0.12481
8813	20.172	0.	0.	-0.1069
8814	20.354	0.	0.	-8.8198e-002
8815	20.536	0.	0.	-7.1699e-002
8816	20.719	0.	0.	-5.9081e-002
8817	20.901	0.	0.	-5.1123e-002
8818	21.083	0.	0.	-4.8052e-002
8819	21.266	0.	0.	-4.979e-002
8820	21.448	0.	0.	-5.6109e-002
8821	21.63	0.	0.	-6.6741e-002
8822	21.813	0.	0.	-8.1427e-002
8823	21.995	0.	0.	-9.9981e-002
8824	22.177	0.	0.	-0.12233
8825	22.359	0.	0.	-0.14856
8826	22.542	0.	0.	-0.17893
8827	22.724	0.	0.	-0.21402
8828	22.906	0.	0.	-0.25449
8829	23.089	0.	0.	-0.30296
8830	23.271	0.	0.	-0.35737
8831	23.453	0.	0.	-0.4426
8832	23.635	0.	0.	-0.50213
8833	23.818	0.	0.	-0.87346
8834	18.167	0.	0.	-9.2585
8835	24.	0.	0.	1.1128
8836	5.0862e-014	5.8182	0.	-1193.6
8837	4.9273e-014	5.6364	0.	-2307.6
8838	4.7683e-014	5.4545	0.	-2824.2
8839	4.6094e-014	5.2727	0.	-3133.4
8840	4.4504e-014	5.0909	0.	-3340.7
8841	4.2915e-014	4.9091	0.	-3489.3
8842	4.1325e-014	4.7273	0.	-3599.5
8843	3.9736e-014	4.5455	0.	-3683.2
8844	3.8147e-014	4.3636	0.	-3747.8
8845	3.6557e-014	4.1818	0.	-3797.9
8846	3.4968e-014	4.	0.	-3836.7
8847	3.3378e-014	3.8182	0.	-3866.5
8848	3.1789e-014	3.6364	0.	-3888.8
8849	3.0199e-014	3.4545	0.	-3904.6
8850	2.861e-014	3.2727	0.	-3914.7
8851	2.702e-014	3.0909	0.	-3919.6
8852	2.5431e-014	2.9091	0.	-3919.6
8853	2.3842e-014	2.7273	0.	-3914.7
8854	2.2252e-014	2.5455	0.	-3904.6
8855	2.0663e-014	2.3636	0.	-3888.8
8856	1.9073e-014	2.1818	0.	-3866.5
8857	1.7484e-014	2.	0.	-3836.7
8858	1.5894e-014	1.8182	0.	-3797.9
8859	1.4305e-014	1.6364	0.	-3747.8
8860	1.2716e-014	1.4545	0.	-3683.2
8861	1.1126e-014	1.2727	0.	-3599.5
8862	9.5366e-015	1.0909	0.	-3489.3
8863	7.9472e-015	0.90909	0.	-3340.7
8864	6.3578e-015	0.72727	0.	-3133.4
8865	4.7683e-015	0.54545	0.	-2824.2
8866	3.1789e-015	0.36364	0.	-2307.6
8867	1.5894e-015	0.18182	0.	-1193.6
8868	24.	0.18182	0.	2.2746
8869	24.	0.36364	0.	2.3
8870	24.	0.54545	0.	2.4607
8871	24.	0.72727	0.	2.4794
8872	24.	0.90909	0.	2.5018
8873	24.	1.0909	0.	2.5118
8874	24.	1.2727	0.	2.5184
8875	24.	1.4545	0.	2.5217
8876	24.	1.6364	0.	2.5233
8877	24.	1.8182	0.	2.5235
8878	24.	2.	0.	2.523
8879	24.	2.1818	0.	2.5222
8880	24.	2.3636	0.	2.5212
8881	24.	2.5455	0.	2.5202
8882	24.	2.7273	0.	2.5195
8883	24.	2.9091	0.	2.5192
8884	24.	3.0909	0.	2.5192
8885	24.	3.2727	0.	2.5195
8886	24.	3.4545	0.	2.5202
8887	24.	3.6364	0.	2.5212
8888	24.	3.8182	0.	2.5222
8889	24.	4.	0.	2.523
8890	24.	4.1818	0.	2.5235
8891	24.	4.3636	0.	2.5233
8892	24.	4.5455	0.	2.5217
8893	24.	4.7273	0.	2.5184
8894	24.	4.9091	0.	2.5118
8895	24.	5.0909	0.	2.5018
8896	24.	5.2727	0.	2.4794
8897	24.	5.4545	0.	2.4607
8898	24.	5.6364	0.	2.3
8899	24.	5.8182	0.	2.2746
8900	24.	6.	0.	1.1128
8901	23.818	6.	0.	-0.87346
8902	23.635	6.	0.	-0.50213
8903	23.453	6.	0.	-0.4426
8904	23.271	6.	0.	-0.35737
8905	23.089	6.	0.	-0.30296
8906	22.906	6.	0.	-0.25449
8907	22.724	6.	0.	-0.21401
8908	22.542	6.	0.	-0.17892
8909	22.359	6.	0.	-0.14857
8910	22.177	6.	0.	-0.12234
8911	21.995	6.	0.	-9.9981e-002
8912	21.813	6.	0.	-8.1428e-002
8913	21.63	6.	0.	-6.6742e-002
8914	21.448	6.	0.	-5.6108e-002
8915	21.266	6.	0.	-4.979e-002
8916	21.083	6.	0.	-4.8049e-002
8917	20.901	6.	0.	-5.1124e-002
8918	20.719	6.	0.	-5.908e-002
8919	20.536	6.	0.	-7.1697e-002
8920	20.354	6.	0.	-8.8198e-002
8921	20.172	6.	0.	-0.1069
8922	19.99	6.	0.	-0.12481
8923	19.807	6.	0.	-0.13705
8924	19.625	6.	0.	-0.13607
8925	19.443	6.	0.	-0.1118
8926	19.26	6.	0.	-4.8862e-002
8927	19.078	6.	0.	6.0192e-002
8928	18.896	6.	0.	0.25889
8929	18.714	6.	0.	0.42063
8930	18.531	6.	0.	1.0384
8931	18.349	6.	0.	-0.79179
8932	18.167	6.	0.	-9.2585
8933	18.	1.8182	0.	-6.0204
8934	18.	1.6364	0.	40.817
8935	18.	1.4545	0.	10.522
8936	18.	1.2727	0.	12.511
8937	18.	1.0909	0.	8.7156
8938	18.	0.90909	0.	7.9482
8939	18.	0.72727	0.	6.9571
8940	18.	0.54545	0.	6.3557
8941	18.	0.36364	0.	6.2207
8942	18.	0.18182	0.	4.85
8943	18.	2.	0.	-207.35
8944	18.167	0.18182	0.	2.6291
8945	18.167	0.36364	0.	4.0762
8946	18.167	0.54545	0.	4.1584
8947	18.167	0.72727	0.	4.6937
8948	18.167	0.90909	0.	5.5596
8949	18.167	1.0909	0.	6.3663
8950	18.167	1.2727	0.	9.5005
8951	18.167	1.4545	0.	8.6959
8952	18.167	1.6364	0.	34.56
8953	18.167	1.8182	0.	-7.927
8954	18.167	2.	0.	-506.85
8955	18.	4.1818	0.	-6.0203
8956	18.	4.3636	0.	40.817
8957	18.	4.5455	0.	10.522
8958	18.	4.7273	0.	12.511
8959	18.	4.9091	0.	8.7156
8960	18.	5.0909	0.	7.9482
8961	18.	5.2727	0.	6.9571
8962	18.	5.4545	0.	6.3557
8963	18.	5.6364	0.	6.2207
8964	18.	5.8182	0.	4.85
8965	18.	4.	0.	-207.35
8966	18.167	5.8182	0.	2.6291
8967	18.167	5.6364	0.	4.0762
8968	18.167	5.4545	0.	4.1584
8969	18.167	5.2727	0.	4.6937
8970	18.167	5.0909	0.	5.5596
8971	18.167	4.9091	0.	6.3663
8972	18.167	4.7273	0.	9.5005
8973	18.167	4.5455	0.	8.6959
8974	18.167	4.3636	0.	34.56
8975	18.167	4.1818	0.	-7.927
8976	18.167	4.	0.	-506.85
8977	18.	2.2727	0.	27.814
8978	18.083	2.1818	0.	41.761
8979	17.908	2.1818	0.	40.017
8980	18.	2.1818	5.e-002	4.0376e-004
8981	18.	2.0909	0.	-81.298
8982	18.	2.4545	0.	-5.7438
8983	18.083	2.3636	0.	-12.468
8984	17.908	2.3636	0.	-8.8424
8985	18.	2.3636	5.e-002	2.4579e-004
8986	18.	2.6364	0.	-0.58904
8987	18.083	2.5455	0.	0.35795
8988	17.908	2.5455	0.	0.97301
8989	18.	2.5455	5.e-002	1.7761e-004
8990	18.	2.8182	0.	-1.0343
8991	18.083	2.7273	0.	-1.3706
8992	17.908	2.7273	0.	-1.2841
8993	18.	2.7273	5.e-002	1.1326e-004
8994	18.	3.	0.	-0.72946
8995	18.083	2.9091	0.	-0.69626
8996	17.908	2.9091	0.	-0.52614
8997	18.	2.9091	5.e-002	4.9996e-005
8998	18.	3.1818	0.	-1.0343
8999	18.083	3.0909	0.	-0.69626
9000	17.908	3.0909	0.	-0.52614
9001	18.	3.0909	5.e-002	-6.3213e-006
9002	18.	3.3636	0.	-0.58904
9003	18.083	3.2727	0.	-1.3706
9004	17.908	3.2727	0.	-1.2841
9005	18.	3.2727	5.e-002	-7.2105e-005
9006	18.	3.5455	0.	-5.7438
9007	18.083	3.4545	0.	0.35796
9008	17.908	3.4545	0.	0.97302
9009	18.	3.4545	5.e-002	-1.1581e-004
9010	18.	3.7273	0.	27.814
9011	18.083	3.6364	0.	-12.468
9012	17.908	3.6364	0.	-8.8424
9013	18.	3.6364	5.e-002	-2.0381e-004
9014	18.083	3.8182	0.	41.761
9015	17.908	3.8182	0.	40.017
9016	18.	3.8182	5.e-002	-3.123e-004
9017	18.	3.9091	0.	-81.298
9018	18.167	2.2727	0.	-2.0035
9019	18.258	2.1818	0.	-11.021
9020	18.167	2.1818	5.e-002	2.7384e-004
9021	18.167	2.0909	0.	-257.69
9022	18.167	2.4545	0.	-6.2616
9023	18.258	2.3636	0.	-9.8594
9024	18.167	2.3636	5.e-002	2.418e-004
9025	18.167	2.6364	0.	-0.39756
9026	18.258	2.5455	0.	1.0181
9027	18.167	2.5455	5.e-002	1.2241e-004
9028	18.167	2.8182	0.	-1.0035
9029	18.258	2.7273	0.	-1.1814
9030	18.167	2.7273	5.e-002	4.9969e-005
9031	18.167	3.	0.	-0.6384
9032	18.258	2.9091	0.	-0.36103
9033	18.167	2.9091	5.e-002	1.8344e-005
9034	18.167	3.1818	0.	-1.0035
9035	18.258	3.0909	0.	-0.36103
9036	18.167	3.0909	5.e-002	2.6636e-005
9037	18.167	3.3636	0.	-0.39756
9038	18.258	3.2727	0.	-1.1814
9039	18.167	3.2727	5.e-002	-1.3009e-005
9040	18.167	3.5455	0.	-6.2616
9041	18.258	3.4545	0.	1.0181
9042	18.167	3.4545	5.e-002	-6.9332e-005
9043	18.167	3.7273	0.	-2.0035
9044	18.258	3.6364	0.	-9.8594
9045	18.167	3.6364	5.e-002	-1.8653e-004
9046	18.258	3.8182	0.	-11.021
9047	18.167	3.8182	5.e-002	-1.559e-004
9048	18.167	3.9091	0.	-257.69
9049	17.816	5.7273	0.	-3.7932
9050	17.724	5.8182	0.	-3.2514
9051	17.816	5.8182	5.e-002	7.5294e-006
9052	17.816	5.9091	0.	-3.9677
9053	17.908	5.8182	0.	1.0103
9054	17.816	5.5455	0.	-2.2198
9055	17.724	5.6364	0.	-1.3671
9056	17.816	5.6364	5.e-002	8.1596e-006
9057	17.908	5.6364	0.	1.1
9058	17.816	5.3636	0.	-1.9207
9059	17.724	5.4545	0.	-0.89923
9060	17.816	5.4545	5.e-002	-2.6937e-007
9061	17.908	5.4545	0.	0.73078
9062	17.816	5.1818	0.	-1.8247
9063	17.724	5.2727	0.	-0.68218
9064	17.816	5.2727	5.e-002	-3.1204e-006
9065	17.908	5.2727	0.	0.71543
9066	17.816	5.	0.	-2.1153
9067	17.724	5.0909	0.	-0.61036
9068	17.816	5.0909	5.e-002	-7.6428e-006
9069	17.908	5.0909	0.	0.85285
9070	17.816	4.8182	0.	-1.9541
9071	17.724	4.9091	0.	-0.82962
9072	17.816	4.9091	5.e-002	-2.1015e-005
9073	17.908	4.9091	0.	0.27833
9074	17.816	4.6364	0.	-4.5633
9075	17.724	4.7273	0.	-0.36233
9076	17.816	4.7273	5.e-002	-5.3763e-005
9077	17.908	4.7273	0.	2.3725
9078	17.816	4.4545	0.	0.218
9079	17.724	4.5455	0.	-3.4798
9080	17.816	4.5455	5.e-002	-5.3816e-005
9081	17.908	4.5455	0.	-6.2775
9082	17.816	4.2727	0.	-17.159
9083	17.724	4.3636	0.	5.4138
9084	17.816	4.3636	5.e-002	-1.3513e-004
9085	17.908	4.3636	0.	25.5
9086	17.816	4.0909	0.	-118.8
9087	17.724	4.1818	0.	-18.043
9088	17.816	4.1818	5.e-002	-2.8799e-004
9089	17.908	4.1818	0.	-112.5
9090	17.816	3.9091	0.	-85.53
9091	17.724	4.	0.	-83.914
9092	17.816	4.	5.e-002	-2.3605e-004
9093	17.908	4.	0.	-110.43
9094	17.816	3.7273	0.	2.1187
9095	17.724	3.8182	0.	11.674
9096	17.816	3.8182	5.e-002	-7.4291e-005
9097	17.816	3.5455	0.	-2.1173
9098	17.724	3.6364	0.	-3.8566
9099	17.816	3.6364	5.e-002	-1.0448e-004
9100	17.816	3.3636	0.	0.29624
9101	17.724	3.4545	0.	1.1209
9102	17.816	3.4545	5.e-002	-5.1347e-005
9103	17.816	3.1818	0.	-0.75895
9104	17.724	3.2727	0.	-0.65299
9105	17.816	3.2727	5.e-002	-2.4474e-005
9106	17.816	3.	0.	-0.30648
9107	17.724	3.0909	0.	-0.21221
9108	17.816	3.0909	5.e-002	1.0969e-005
9109	17.816	2.8182	0.	-0.75895
9110	17.724	2.9091	0.	-0.21221
9111	17.816	2.9091	5.e-002	3.1338e-005
9112	17.816	2.6364	0.	0.29624
9113	17.724	2.7273	0.	-0.65299
9114	17.816	2.7273	5.e-002	6.4953e-005
9115	17.816	2.4545	0.	-2.1173
9116	17.724	2.5455	0.	1.1209
9117	17.816	2.5455	5.e-002	9.8021e-005
9118	17.816	2.2727	0.	2.1187
9119	17.724	2.3636	0.	-3.8566
9120	17.816	2.3636	5.e-002	1.4208e-004
9121	17.816	2.0909	0.	-85.53
9122	17.724	2.1818	0.	11.674
9123	17.816	2.1818	5.e-002	1.1281e-004
9124	17.816	1.9091	0.	-118.8
9125	17.724	2.	0.	-83.914
9126	17.816	2.	5.e-002	2.9304e-004
9127	17.908	2.	0.	-110.43
9128	17.816	1.7273	0.	-17.159
9129	17.724	1.8182	0.	-18.043
9130	17.816	1.8182	5.e-002	3.5664e-004
9131	17.908	1.8182	0.	-112.5
9132	17.816	1.5455	0.	0.218
9133	17.724	1.6364	0.	5.4138
9134	17.816	1.6364	5.e-002	1.5527e-004
9135	17.908	1.6364	0.	25.5
9136	17.816	1.3636	0.	-4.5633
9137	17.724	1.4545	0.	-3.4798
9138	17.816	1.4545	5.e-002	8.2253e-005
9139	17.908	1.4545	0.	-6.2775
9140	17.816	1.1818	0.	-1.9541
9141	17.724	1.2727	0.	-0.36232
9142	17.816	1.2727	5.e-002	3.4816e-005
9143	17.908	1.2727	0.	2.3725
9144	17.816	1.	0.	-2.1153
9145	17.724	1.0909	0.	-0.82962
9146	17.816	1.0909	5.e-002	2.6462e-005
9147	17.908	1.0909	0.	0.27833
9148	17.816	0.81818	0.	-1.8247
9149	17.724	0.90909	0.	-0.61036
9150	17.816	0.90909	5.e-002	1.9481e-005
9151	17.908	0.90909	0.	0.85286
9152	17.816	0.63636	0.	-1.9207
9153	17.724	0.72727	0.	-0.68218
9154	17.816	0.72727	5.e-002	1.4773e-005
9155	17.908	0.72727	0.	0.71543
9156	17.816	0.45455	0.	-2.2198
9157	17.724	0.54545	0.	-0.89923
9158	17.816	0.54545	5.e-002	3.6698e-006
9159	17.908	0.54545	0.	0.73078
9160	17.816	0.27273	0.	-3.7932
9161	17.724	0.36364	0.	-1.3671
9162	17.816	0.36364	5.e-002	8.2375e-008
9163	17.908	0.36364	0.	1.1
9164	17.724	0.18182	0.	-3.2514
9165	17.816	0.18182	5.e-002	6.7435e-007
9166	17.816	9.0909e-002	0.	-3.9677
9167	17.908	0.18182	0.	1.0103
9168	17.633	5.7273	0.	-8.7975e-002
9169	17.541	5.8182	0.	-3.0928e-002
9170	17.633	5.8182	5.e-002	4.1195e-006
9171	17.633	5.9091	0.	0.10732
9172	17.633	5.5455	0.	0.24961
9173	17.541	5.6364	0.	5.0605e-002
9174	17.633	5.6364	5.e-002	2.328e-006
9175	17.633	5.3636	0.	0.42426
9176	17.541	5.4545	0.	0.14216
9177	17.633	5.4545	5.e-002	-1.3772e-014
9178	17.633	5.1818	0.	0.541
9179	17.541	5.2727	0.	0.19972
9180	17.633	5.2727	5.e-002	-9.3499e-006
9181	17.633	5.	0.	0.63952
9182	17.541	5.0909	0.	0.20887
9183	17.633	5.0909	5.e-002	-1.6288e-005
9184	17.633	4.8182	0.	0.6706
9185	17.541	4.9091	0.	0.19393
9186	17.633	4.9091	5.e-002	-2.9238e-005
9187	17.633	4.6364	0.	0.59898
9188	17.541	4.7273	0.	0.11352
9189	17.633	4.7273	5.e-002	-4.4801e-005
9190	17.633	4.4545	0.	1.4729
9191	17.541	4.5455	0.	8.5193e-002
9192	17.633	4.5455	5.e-002	-7.1903e-005
9193	17.633	4.2727	0.	4.5092
9194	17.541	4.3636	0.	-0.31016
9195	17.633	4.3636	5.e-002	-1.3295e-004
9196	17.633	4.0909	0.	14.543
9197	17.541	4.1818	0.	2.5593
9198	17.633	4.1818	5.e-002	-2.2613e-004
9199	17.633	3.9091	0.	17.346
9200	17.541	4.	0.	9.3149
9201	17.633	4.	5.e-002	-9.0536e-005
9202	17.633	3.7273	0.	5.1524
9203	17.541	3.8182	0.	4.4043
9204	17.633	3.8182	5.e-002	-6.4108e-005
9205	17.633	3.5455	0.	-0.67766
9206	17.541	3.6364	0.	-4.5093e-003
9207	17.633	3.6364	5.e-002	-5.2057e-005
9208	17.633	3.3636	0.	0.16252
9209	17.541	3.4545	0.	0.32532
9210	17.633	3.4545	5.e-002	-3.0555e-005
9211	17.633	3.1818	0.	-0.10134
9212	17.541	3.2727	0.	6.1981e-002
9213	17.633	3.2727	5.e-002	-1.1401e-005
9214	17.633	3.	0.	-0.11093
9215	17.541	3.0909	0.	3.6447e-003
9216	17.633	3.0909	5.e-002	1.4877e-005
9217	17.633	2.8182	0.	-0.10134
9218	17.541	2.9091	0.	3.6455e-003
9219	17.633	2.9091	5.e-002	2.7052e-005
9220	17.633	2.6364	0.	0.16252
9221	17.541	2.7273	0.	6.1981e-002
9222	17.633	2.7273	5.e-002	3.7771e-005
9223	17.633	2.4545	0.	-0.67766
9224	17.541	2.5455	0.	0.32532
9225	17.633	2.5455	5.e-002	6.1073e-005
9226	17.633	2.2727	0.	5.1524
9227	17.541	2.3636	0.	-4.5081e-003
9228	17.633	2.3636	5.e-002	8.088e-005
9229	17.633	2.0909	0.	17.346
9230	17.541	2.1818	0.	4.4043
9231	17.633	2.1818	5.e-002	9.0648e-005
9232	17.633	1.9091	0.	14.543
9233	17.541	2.	0.	9.3149
9234	17.633	2.	5.e-002	1.4627e-004
9235	17.633	1.7273	0.	4.5092
9236	17.541	1.8182	0.	2.5593
9237	17.633	1.8182	5.e-002	3.0691e-004
9238	17.633	1.5455	0.	1.4729
9239	17.541	1.6364	0.	-0.31016
9240	17.633	1.6364	5.e-002	1.6828e-004
9241	17.633	1.3636	0.	0.59898
9242	17.541	1.4545	0.	8.5194e-002
9243	17.633	1.4545	5.e-002	9.4765e-005
9244	17.633	1.1818	0.	0.6706
9245	17.541	1.2727	0.	0.11352
9246	17.633	1.2727	5.e-002	5.7662e-005
9247	17.633	1.	0.	0.63952
9248	17.541	1.0909	0.	0.19393
9249	17.633	1.0909	5.e-002	3.782e-005
9250	17.633	0.81818	0.	0.541
9251	17.541	0.90909	0.	0.20887
9252	17.633	0.90909	5.e-002	2.5824e-005
9253	17.633	0.63636	0.	0.42426
9254	17.541	0.72727	0.	0.19972
9255	17.633	0.72727	5.e-002	1.8356e-005
9256	17.633	0.45455	0.	0.24961
9257	17.541	0.54545	0.	0.14216
9258	17.633	0.54545	5.e-002	1.186e-005
9259	17.633	0.27273	0.	-8.7973e-002
9260	17.541	0.36364	0.	5.0607e-002
9261	17.633	0.36364	5.e-002	6.9215e-006
9262	17.541	0.18182	0.	-3.0926e-002
9263	17.633	0.18182	5.e-002	4.6527e-006
9264	17.633	9.0909e-002	0.	0.10732
9265	17.449	5.7273	0.	8.3996e-003
9266	17.357	5.8182	0.	0.29803
9267	17.449	5.8182	5.e-002	4.111e-006
9268	17.449	5.9091	0.	-4.637e-002
9269	17.449	5.5455	0.	-7.1291e-002
9270	17.357	5.6364	0.	3.3224e-002
9271	17.449	5.6364	5.e-002	5.8686e-007
9272	17.449	5.3636	0.	-9.0068e-002
9273	17.357	5.4545	0.	2.4561e-002
9274	17.449	5.4545	5.e-002	-2.4846e-006
9275	17.449	5.1818	0.	-0.1403
9276	17.357	5.2727	0.	-4.1483e-002
9277	17.449	5.2727	5.e-002	-1.1336e-005
9278	17.449	5.	0.	-0.24464
9279	17.357	5.0909	0.	-9.9878e-002
9280	17.449	5.0909	5.e-002	-1.8733e-005
9281	17.449	4.8182	0.	-0.36739
9282	17.357	4.9091	0.	-0.20897
9283	17.449	4.9091	5.e-002	-2.7675e-005
9284	17.449	4.6364	0.	-0.39519
9285	17.357	4.7273	0.	-0.3124
9286	17.449	4.7273	5.e-002	-4.1939e-005
9287	17.449	4.4545	0.	-1.708
9288	17.357	4.5455	0.	-0.35472
9289	17.449	4.5455	5.e-002	-6.8465e-005
9290	17.449	4.2727	0.	-2.2492
9291	17.357	4.3636	0.	-1.3799
9292	17.449	4.3636	5.e-002	-1.2148e-004
9293	17.449	4.0909	0.	-2.73
9294	17.357	4.1818	0.	-0.75711
9295	17.449	4.1818	5.e-002	-2.0622e-004
9296	17.449	3.9091	0.	-3.5493
9297	17.357	4.	0.	-1.6487
9298	17.449	4.	5.e-002	-1.5295e-004
9299	17.449	3.7273	0.	-0.63944
9300	17.357	3.8182	0.	-0.93458
9301	17.449	3.8182	5.e-002	-1.0659e-004
9302	17.449	3.5455	0.	0.98045
9303	17.357	3.6364	0.	0.94684
9304	17.449	3.6364	5.e-002	-4.8617e-005
9305	17.449	3.3636	0.	0.21029
9306	17.357	3.4545	0.	0.24819
9307	17.449	3.4545	5.e-002	-1.908e-005
9308	17.449	3.1818	0.	0.16468
9309	17.357	3.2727	0.	0.23158
9310	17.449	3.2727	5.e-002	-8.0039e-006
9311	17.449	3.	0.	0.11919
9312	17.357	3.0909	0.	0.16141
9313	17.449	3.0909	5.e-002	1.7293e-006
9314	17.449	2.8182	0.	0.16468
9315	17.357	2.9091	0.	0.16141
9316	17.449	2.9091	5.e-002	1.7369e-005
9317	17.449	2.6364	0.	0.21029
9318	17.357	2.7273	0.	0.23158
9319	17.449	2.7273	5.e-002	2.9319e-005
9320	17.449	2.4545	0.	0.98045
9321	17.357	2.5455	0.	0.24819
9322	17.449	2.5455	5.e-002	4.2899e-005
9323	17.449	2.2727	0.	-0.63945
9324	17.357	2.3636	0.	0.94684
9325	17.449	2.3636	5.e-002	6.0186e-005
9326	17.449	2.0909	0.	-3.5493
9327	17.357	2.1818	0.	-0.93458
9328	17.449	2.1818	5.e-002	1.2578e-004
9329	17.449	1.9091	0.	-2.73
9330	17.357	2.	0.	-1.6487
9331	17.449	2.	5.e-002	1.7469e-004
9332	17.449	1.7273	0.	-2.2492
9333	17.357	1.8182	0.	-0.75711
9334	17.449	1.8182	5.e-002	2.7128e-004
9335	17.449	1.5455	0.	-1.708
9336	17.357	1.6364	0.	-1.3799
9337	17.449	1.6364	5.e-002	1.6093e-004
9338	17.449	1.3636	0.	-0.39519
9339	17.357	1.4545	0.	-0.35471
9340	17.449	1.4545	5.e-002	9.52e-005
9341	17.449	1.1818	0.	-0.36739
9342	17.357	1.2727	0.	-0.3124
9343	17.449	1.2727	5.e-002	5.9484e-005
9344	17.449	1.	0.	-0.24464
9345	17.357	1.0909	0.	-0.20897
9346	17.449	1.0909	5.e-002	3.7095e-005
9347	17.449	0.81818	0.	-0.1403
9348	17.357	0.90909	0.	-9.9876e-002
9349	17.449	0.90909	5.e-002	2.8703e-005
9350	17.449	0.63636	0.	-9.0066e-002
9351	17.357	0.72727	0.	-4.1481e-002
9352	17.449	0.72727	5.e-002	2.018e-005
9353	17.449	0.45455	0.	-7.1291e-002
9354	17.357	0.54545	0.	2.456e-002
9355	17.449	0.54545	5.e-002	1.2497e-005
9356	17.449	0.27273	0.	8.4018e-003
9357	17.357	0.36364	0.	3.3224e-002
9358	17.449	0.36364	5.e-002	7.394e-006
9359	17.357	0.18182	0.	0.29803
9360	17.449	0.18182	5.e-002	5.2994e-006
9361	17.449	9.0909e-002	0.	-4.6369e-002
9362	17.265	5.7273	0.	0.25333
9363	17.173	5.8182	0.	0.37379
9364	17.265	5.8182	5.e-002	3.1161e-006
9365	17.265	5.9091	0.	0.10923
9366	17.265	5.5455	0.	0.10115
9367	17.173	5.6364	0.	7.9158e-002
9368	17.265	5.6364	5.e-002	1.4199e-006
9369	17.265	5.3636	0.	6.1249e-002
9370	17.173	5.4545	0.	8.9484e-002
9371	17.265	5.4545	5.e-002	-7.9269e-007
9372	17.265	5.1818	0.	-6.2659e-003
9373	17.173	5.2727	0.	1.1633e-002
9374	17.265	5.2727	5.e-002	-9.5613e-006
9375	17.265	5.	0.	-6.5773e-002
9376	17.173	5.0909	0.	-4.6414e-002
9377	17.265	5.0909	5.e-002	-1.7091e-005
9378	17.265	4.8182	0.	-0.15395
9379	17.173	4.9091	0.	-0.10381
9380	17.265	4.9091	5.e-002	-2.5743e-005
9381	17.265	4.6364	0.	-0.27261
9382	17.173	4.7273	0.	-0.17967
9383	17.265	4.7273	5.e-002	-4.5458e-005
9384	17.265	4.4545	0.	-2.636e-002
9385	17.173	4.5455	0.	-0.2608
9386	17.265	4.5455	5.e-002	-6.1872e-005
9387	17.265	4.2727	0.	9.7846e-002
9388	17.173	4.3636	0.	-1.5219e-002
9389	17.265	4.3636	5.e-002	-1.1251e-004
9390	17.265	4.0909	0.	0.33104
9391	17.173	4.1818	0.	-0.14405
9392	17.265	4.1818	5.e-002	-1.5925e-004
9393	17.265	3.9091	0.	0.98795
9394	17.173	4.	0.	0.22969
9395	17.265	4.	5.e-002	-1.3688e-004
9396	17.265	3.7273	0.	0.69875
9397	17.173	3.8182	0.	0.47993
9398	17.265	3.8182	5.e-002	-9.7238e-005
9399	17.265	3.5455	0.	0.22799
9400	17.173	3.6364	0.	0.12372
9401	17.265	3.6364	5.e-002	-4.5617e-005
9402	17.265	3.3636	0.	0.26883
9403	17.173	3.4545	0.	0.23433
9404	17.265	3.4545	5.e-002	-2.7092e-005
9405	17.265	3.1818	0.	0.22754
9406	17.173	3.2727	0.	0.22023
9407	17.265	3.2727	5.e-002	-9.9792e-006
9408	17.265	3.	0.	0.20399
9409	17.173	3.0909	0.	0.20191
9410	17.265	3.0909	5.e-002	2.2051e-006
9411	17.265	2.8182	0.	0.22754
9412	17.173	2.9091	0.	0.20191
9413	17.265	2.9091	5.e-002	1.5033e-005
9414	17.265	2.6364	0.	0.26883
9415	17.173	2.7273	0.	0.22023
9416	17.265	2.7273	5.e-002	2.5007e-005
9417	17.265	2.4545	0.	0.22799
9418	17.173	2.5455	0.	0.23433
9419	17.265	2.5455	5.e-002	3.6981e-005
9420	17.265	2.2727	0.	0.69875
9421	17.173	2.3636	0.	0.12372
9422	17.265	2.3636	5.e-002	7.3562e-005
9423	17.265	2.0909	0.	0.98795
9424	17.173	2.1818	0.	0.47993
9425	17.265	2.1818	5.e-002	1.0846e-004
9426	17.265	1.9091	0.	0.33104
9427	17.173	2.	0.	0.22969
9428	17.265	2.	5.e-002	1.8189e-004
9429	17.265	1.7273	0.	9.7847e-002
9430	17.173	1.8182	0.	-0.14405
9431	17.265	1.8182	5.e-002	2.1267e-004
9432	17.265	1.5455	0.	-2.6359e-002
9433	17.173	1.6364	0.	-1.5218e-002
9434	17.265	1.6364	5.e-002	1.5705e-004
9435	17.265	1.3636	0.	-0.27261
9436	17.173	1.4545	0.	-0.2608
9437	17.265	1.4545	5.e-002	8.8238e-005
9438	17.265	1.1818	0.	-0.15395
9439	17.173	1.2727	0.	-0.17967
9440	17.265	1.2727	5.e-002	5.959e-005
9441	17.265	1.	0.	-6.5771e-002
9442	17.173	1.0909	0.	-0.10381
9443	17.265	1.0909	5.e-002	3.8209e-005
9444	17.265	0.81818	0.	-6.2642e-003
9445	17.173	0.90909	0.	-4.6412e-002
9446	17.265	0.90909	5.e-002	2.9478e-005
9447	17.265	0.63636	0.	6.1249e-002
9448	17.173	0.72727	0.	1.1635e-002
9449	17.265	0.72727	5.e-002	2.0811e-005
9450	17.265	0.45455	0.	0.10115
9451	17.173	0.54545	0.	8.9484e-002
9452	17.265	0.54545	5.e-002	1.1369e-005
9453	17.265	0.27273	0.	0.25333
9454	17.173	0.36364	0.	7.9157e-002
9455	17.265	0.36364	5.e-002	7.8331e-006
9456	17.173	0.18182	0.	0.37379
9457	17.265	0.18182	5.e-002	6.4989e-006
9458	17.265	9.0909e-002	0.	0.10923
9459	17.082	5.7273	0.	0.17946
9460	16.99	5.8182	0.	0.24575
9461	17.082	5.8182	5.e-002	4.7817e-006
9462	17.082	5.9091	0.	6.1666e-002
9463	17.082	5.5455	0.	5.6263e-002
9464	16.99	5.6364	0.	1.5998e-002
9465	17.082	5.6364	5.e-002	3.1164e-006
9466	17.082	5.3636	0.	3.3716e-002
9467	16.99	5.4545	0.	7.037e-002
9468	17.082	5.4545	5.e-002	1.6059e-006
9469	17.082	5.1818	0.	-3.1409e-002
9470	16.99	5.2727	0.	8.2506e-004
9471	17.082	5.2727	5.e-002	-7.8317e-006
9472	17.082	5.	0.	-8.5767e-002
9473	16.99	5.0909	0.	-4.2732e-002
9474	17.082	5.0909	5.e-002	-1.5103e-005
9475	17.082	4.8182	0.	-0.13057
9476	16.99	4.9091	0.	-8.705e-002
9477	17.082	4.9091	5.e-002	-2.2638e-005
9478	17.082	4.6364	0.	-0.16974
9479	16.99	4.7273	0.	-0.11652
9480	17.082	4.7273	5.e-002	-3.6376e-005
9481	17.082	4.4545	0.	-0.25259
9482	16.99	4.5455	0.	-0.1418
9483	17.082	4.5455	5.e-002	-5.7029e-005
9484	17.082	4.2727	0.	-0.25762
9485	16.99	4.3636	0.	-0.19539
9486	17.082	4.3636	5.e-002	-1.0801e-004
9487	17.082	4.0909	0.	-0.24182
9488	16.99	4.1818	0.	-0.14679
9489	17.082	4.1818	5.e-002	-1.4715e-004
9490	17.082	3.9091	0.	-0.27035
9491	16.99	4.	0.	-0.16546
9492	17.082	4.	5.e-002	-1.6956e-004
9493	17.082	3.7273	0.	-8.0935e-002
9494	16.99	3.8182	0.	-0.1271
9495	17.082	3.8182	5.e-002	-1.1963e-004
9496	17.082	3.5455	0.	0.14435
9497	16.99	3.6364	0.	5.8556e-002
9498	17.082	3.6364	5.e-002	-6.1249e-005
9499	17.082	3.3636	0.	0.19232
9500	16.99	3.4545	0.	0.13568
9501	17.082	3.4545	5.e-002	-3.286e-005
9502	17.082	3.1818	0.	0.19792
9503	16.99	3.2727	0.	0.16525
9504	17.082	3.2727	5.e-002	-1.3641e-005
9505	17.082	3.	0.	0.20271
9506	16.99	3.0909	0.	0.18069
9507	17.082	3.0909	5.e-002	6.2533e-007
9508	17.082	2.8182	0.	0.19792
9509	16.99	2.9091	0.	0.18069
9510	17.082	2.9091	5.e-002	1.2675e-005
9511	17.082	2.6364	0.	0.19232
9512	16.99	2.7273	0.	0.16524
9513	17.082	2.7273	5.e-002	2.6967e-005
9514	17.082	2.4545	0.	0.14435
9515	16.99	2.5455	0.	0.13568
9516	17.082	2.5455	5.e-002	4.1279e-005
9517	17.082	2.2727	0.	-8.0935e-002
9518	16.99	2.3636	0.	5.8556e-002
9519	17.082	2.3636	5.e-002	7.1449e-005
9520	17.082	2.0909	0.	-0.27035
9521	16.99	2.1818	0.	-0.1271
9522	17.082	2.1818	5.e-002	1.3749e-004
9523	17.082	1.9091	0.	-0.24182
9524	16.99	2.	0.	-0.16546
9525	17.082	2.	5.e-002	1.8107e-004
9526	17.082	1.7273	0.	-0.25762
9527	16.99	1.8182	0.	-0.14679
9528	17.082	1.8182	5.e-002	1.8728e-004
9529	17.082	1.5455	0.	-0.25259
9530	16.99	1.6364	0.	-0.19539
9531	17.082	1.6364	5.e-002	1.3851e-004
9532	17.082	1.3636	0.	-0.16974
9533	16.99	1.4545	0.	-0.1418
9534	17.082	1.4545	5.e-002	8.4858e-005
9535	17.082	1.1818	0.	-0.13057
9536	16.99	1.2727	0.	-0.11652
9537	17.082	1.2727	5.e-002	5.0476e-005
9538	17.082	1.	0.	-8.5765e-002
9539	16.99	1.0909	0.	-8.7049e-002
9540	17.082	1.0909	5.e-002	3.3558e-005
9541	17.082	0.81818	0.	-3.1407e-002
9542	16.99	0.90909	0.	-4.273e-002
9543	17.082	0.90909	5.e-002	2.3158e-005
9544	17.082	0.63636	0.	3.3718e-002
9545	16.99	0.72727	0.	8.2724e-004
9546	17.082	0.72727	5.e-002	1.8145e-005
9547	17.082	0.45455	0.	5.6264e-002
9548	16.99	0.54545	0.	7.037e-002
9549	17.082	0.54545	5.e-002	1.323e-005
9550	17.082	0.27273	0.	0.17946
9551	16.99	0.36364	0.	1.5999e-002
9552	17.082	0.36364	5.e-002	6.2167e-006
9553	16.99	0.18182	0.	0.24575
9554	17.082	0.18182	5.e-002	3.4462e-006
9555	17.082	9.0909e-002	0.	6.1667e-002
9556	16.898	5.7273	0.	0.10197
9557	16.806	5.8182	0.	0.11329
9558	16.898	5.8182	5.e-002	5.5463e-006
9559	16.898	5.9091	0.	4.2897e-002
9560	16.898	5.5455	0.	3.0544e-002
9561	16.806	5.6364	0.	-3.3682e-002
9562	16.898	5.6364	5.e-002	3.6203e-006
9563	16.898	5.3636	0.	3.6393e-002
9564	16.806	5.4545	0.	5.8961e-002
9565	16.898	5.4545	5.e-002	3.561e-006
9566	16.898	5.1818	0.	-1.1397e-002
9567	16.806	5.2727	0.	6.2937e-003
9568	16.898	5.2727	5.e-002	-3.3006e-006
9569	16.898	5.	0.	-4.4806e-002
9570	16.806	5.0909	0.	-1.9851e-002
9571	16.898	5.0909	5.e-002	-9.2272e-006
9572	16.898	4.8182	0.	-7.4072e-002
9573	16.806	4.9091	0.	-4.6849e-002
9574	16.898	4.9091	5.e-002	-1.9146e-005
9575	16.898	4.6364	0.	-8.9968e-002
9576	16.806	4.7273	0.	-6.6599e-002
9577	16.898	4.7273	5.e-002	-2.8721e-005
9578	16.898	4.4545	0.	-8.5496e-002
9579	16.806	4.5455	0.	-7.6344e-002
9580	16.898	4.5455	5.e-002	-5.3073e-005
9581	16.898	4.2727	0.	-8.3833e-002
9582	16.806	4.3636	0.	-7.5607e-002
9583	16.898	4.3636	5.e-002	-8.8361e-005
9584	16.898	4.0909	0.	-6.827e-002
9585	16.806	4.1818	0.	-8.5154e-002
9586	16.898	4.1818	5.e-002	-1.0919e-004
9587	16.898	3.9091	0.	-1.8786e-002
9588	16.806	4.	0.	-6.5638e-002
9589	16.898	4.	5.e-002	-1.222e-004
9590	16.898	3.7273	0.	1.8792e-002
9591	16.806	3.8182	0.	-2.7559e-002
9592	16.898	3.8182	5.e-002	-1.0637e-004
9593	16.898	3.5455	0.	5.8565e-002
9594	16.806	3.6364	0.	9.456e-003
9595	16.898	3.6364	5.e-002	-6.0565e-005
9596	16.898	3.3636	0.	0.11617
9597	16.806	3.4545	0.	6.7866e-002
9598	16.898	3.4545	5.e-002	-4.4166e-005
9599	16.898	3.1818	0.	0.15385
9600	16.806	3.2727	0.	0.11772
9601	16.898	3.2727	5.e-002	-1.7691e-005
9602	16.898	3.	0.	0.16393
9603	16.806	3.0909	0.	0.14029
9604	16.898	3.0909	5.e-002	-3.2987e-006
9605	16.898	2.8182	0.	0.15385
9606	16.806	2.9091	0.	0.14029
9607	16.898	2.9091	5.e-002	1.1193e-005
9608	16.898	2.6364	0.	0.11617
9609	16.806	2.7273	0.	0.11772
9610	16.898	2.7273	5.e-002	2.8593e-005
9611	16.898	2.4545	0.	5.8565e-002
9612	16.806	2.5455	0.	6.7865e-002
9613	16.898	2.5455	5.e-002	5.1376e-005
9614	16.898	2.2727	0.	1.8791e-002
9615	16.806	2.3636	0.	9.4562e-003
9616	16.898	2.3636	5.e-002	9.1278e-005
9617	16.898	2.0909	0.	-1.8787e-002
9618	16.806	2.1818	0.	-2.756e-002
9619	16.898	2.1818	5.e-002	1.2468e-004
9620	16.898	1.9091	0.	-6.827e-002
9621	16.806	2.	0.	-6.5637e-002
9622	16.898	2.	5.e-002	1.529e-004
9623	16.898	1.7273	0.	-8.3833e-002
9624	16.806	1.8182	0.	-8.5154e-002
9625	16.898	1.8182	5.e-002	1.6282e-004
9626	16.898	1.5455	0.	-8.5495e-002
9627	16.806	1.6364	0.	-7.5606e-002
9628	16.898	1.6364	5.e-002	1.1965e-004
9629	16.898	1.3636	0.	-8.9967e-002
9630	16.806	1.4545	0.	-7.6343e-002
9631	16.898	1.4545	5.e-002	7.1391e-005
9632	16.898	1.1818	0.	-7.4071e-002
9633	16.806	1.2727	0.	-6.6598e-002
9634	16.898	1.2727	5.e-002	4.5308e-005
9635	16.898	1.	0.	-4.4804e-002
9636	16.806	1.0909	0.	-4.6848e-002
9637	16.898	1.0909	5.e-002	2.8019e-005
9638	16.898	0.81818	0.	-1.1395e-002
9639	16.806	0.90909	0.	-1.9849e-002
9640	16.898	0.90909	5.e-002	1.7784e-005
9641	16.898	0.63636	0.	3.6393e-002
9642	16.806	0.72727	0.	6.2951e-003
9643	16.898	0.72727	5.e-002	1.3604e-005
9644	16.898	0.45455	0.	3.0544e-002
9645	16.806	0.54545	0.	5.8959e-002
9646	16.898	0.54545	5.e-002	6.9973e-006
9647	16.898	0.27273	0.	0.10197
9648	16.806	0.36364	0.	-3.3681e-002
9649	16.898	0.36364	5.e-002	4.3349e-006
9650	16.806	0.18182	0.	0.11329
9651	16.898	0.18182	5.e-002	1.8106e-006
9652	16.898	9.0909e-002	0.	4.2898e-002
9653	16.714	5.7273	0.	2.6025e-002
9654	16.622	5.8182	0.	5.2606e-003
9655	16.714	5.8182	5.e-002	7.5978e-006
9656	16.714	5.9091	0.	2.0732e-002
9657	16.714	5.5455	0.	1.3545e-003
9658	16.622	5.6364	0.	-7.148e-002
9659	16.714	5.6364	5.e-002	7.5249e-006
9660	16.714	5.3636	0.	3.0647e-002
9661	16.622	5.4545	0.	4.6026e-002
9662	16.714	5.4545	5.e-002	5.8129e-006
9663	16.714	5.1818	0.	-1.7313e-003
9664	16.622	5.2727	0.	9.4234e-003
9665	16.714	5.2727	5.e-002	4.8293e-007
9666	16.714	5.	0.	-2.2051e-002
9667	16.622	5.0909	0.	-4.3384e-003
9668	16.714	5.0909	5.e-002	-4.6621e-006
9669	16.714	4.8182	0.	-3.9901e-002
9670	16.622	4.9091	0.	-2.1535e-002
9671	16.714	4.9091	5.e-002	-9.1624e-006
9672	16.714	4.6364	0.	-5.3564e-002
9673	16.622	4.7273	0.	-3.3929e-002
9674	16.714	4.7273	5.e-002	-2.5223e-005
9675	16.714	4.4545	0.	-6.663e-002
9676	16.622	4.5455	0.	-4.5158e-002
9677	16.714	4.5455	5.e-002	-3.9344e-005
9678	16.714	4.2727	0.	-7.6398e-002
9679	16.622	4.3636	0.	-5.6592e-002
9680	16.714	4.3636	5.e-002	-6.0972e-005
9681	16.714	4.0909	0.	-8.1543e-002
9682	16.622	4.1818	0.	-6.3911e-002
9683	16.714	4.1818	5.e-002	-6.9672e-005
9684	16.714	3.9091	0.	-7.2974e-002
9685	16.622	4.	0.	-6.5773e-002
9686	16.714	4.	5.e-002	-8.9891e-005
9687	16.714	3.7273	0.	-3.3956e-002
9688	16.622	3.8182	0.	-4.8588e-002
9689	16.714	3.8182	5.e-002	-9.0768e-005
9690	16.714	3.5455	0.	2.3789e-002
9691	16.622	3.6364	0.	-7.2661e-003
9692	16.714	3.6364	5.e-002	-8.3171e-005
9693	16.714	3.3636	0.	7.5586e-002
9694	16.622	3.4545	0.	4.0471e-002
9695	16.714	3.4545	5.e-002	-5.1469e-005
9696	16.714	3.1818	0.	0.11039
9697	16.622	3.2727	0.	8.0401e-002
9698	16.714	3.2727	5.e-002	-2.9213e-005
9699	16.714	3.	0.	0.12279
9700	16.622	3.0909	0.	0.10313
9701	16.714	3.0909	5.e-002	-7.3701e-006
9702	16.714	2.8182	0.	0.11039
9703	16.622	2.9091	0.	0.10313
9704	16.714	2.9091	5.e-002	1.1953e-005
9705	16.714	2.6364	0.	7.5586e-002
9706	16.622	2.7273	0.	8.04e-002
9707	16.714	2.7273	5.e-002	3.3134e-005
9708	16.714	2.4545	0.	2.3788e-002
9709	16.622	2.5455	0.	4.047e-002
9710	16.714	2.5455	5.e-002	7.0424e-005
9711	16.714	2.2727	0.	-3.3956e-002
9712	16.622	2.3636	0.	-7.2666e-003
9713	16.714	2.3636	5.e-002	9.7244e-005
9714	16.714	2.0909	0.	-7.2973e-002
9715	16.622	2.1818	0.	-4.8588e-002
9716	16.714	2.1818	5.e-002	1.3086e-004
9717	16.714	1.9091	0.	-8.1542e-002
9718	16.622	2.	0.	-6.5772e-002
9719	16.714	2.	5.e-002	1.4047e-004
9720	16.714	1.7273	0.	-7.6397e-002
9721	16.622	1.8182	0.	-6.3912e-002
9722	16.714	1.8182	5.e-002	1.2322e-004
9723	16.714	1.5455	0.	-6.663e-002
9724	16.622	1.6364	0.	-5.6592e-002
9725	16.714	1.6364	5.e-002	9.7942e-005
9726	16.714	1.3636	0.	-5.3564e-002
9727	16.622	1.4545	0.	-4.5157e-002
9728	16.714	1.4545	5.e-002	6.6744e-005
9729	16.714	1.1818	0.	-3.99e-002
9730	16.622	1.2727	0.	-3.3929e-002
9731	16.714	1.2727	5.e-002	3.4831e-005
9732	16.714	1.	0.	-2.2049e-002
9733	16.622	1.0909	0.	-2.1534e-002
9734	16.714	1.0909	5.e-002	2.1921e-005
9735	16.714	0.81818	0.	-1.7291e-003
9736	16.622	0.90909	0.	-4.3364e-003
9737	16.714	0.90909	5.e-002	1.2963e-005
9738	16.714	0.63636	0.	3.0647e-002
9739	16.622	0.72727	0.	9.4246e-003
9740	16.714	0.72727	5.e-002	7.0162e-006
9741	16.714	0.45455	0.	1.3542e-003
9742	16.622	0.54545	0.	4.6026e-002
9743	16.714	0.54545	5.e-002	4.1818e-006
9744	16.714	0.27273	0.	2.6026e-002
9745	16.622	0.36364	0.	-7.1479e-002
9746	16.714	0.36364	5.e-002	2.1812e-007
9747	16.622	0.18182	0.	5.2612e-003
9748	16.714	0.18182	5.e-002	1.0509e-006
9749	16.714	9.0909e-002	0.	2.0732e-002
9750	16.531	5.7273	0.	-2.7248e-002
9751	16.439	5.8182	0.	-6.5261e-002
9752	16.531	5.8182	5.e-002	7.4425e-006
9753	16.531	5.9091	0.	7.3461e-003
9754	16.531	5.5455	0.	-1.7211e-002
9755	16.439	5.6364	0.	-9.3456e-002
9756	16.531	5.6364	5.e-002	9.1507e-006
9757	16.531	5.3636	0.	2.8002e-002
9758	16.439	5.4545	0.	3.6591e-002
9759	16.531	5.4545	5.e-002	9.1031e-006
9760	16.531	5.1818	0.	8.0274e-003
9761	16.439	5.2727	0.	1.2745e-002
9762	16.531	5.2727	5.e-002	3.4639e-006
9763	16.531	5.	0.	-3.4618e-003
9764	16.439	5.0909	0.	7.6833e-003
9765	16.531	5.0909	5.e-002	1.5058e-006
9766	16.531	4.8182	0.	-1.5615e-002
9767	16.439	4.9091	0.	-3.5323e-003
9768	16.531	4.9091	5.e-002	-8.3445e-006
9769	16.531	4.6364	0.	-2.5675e-002
9770	16.439	4.7273	0.	-1.2668e-002
9771	16.531	4.7273	5.e-002	-1.6684e-005
9772	16.531	4.4545	0.	-3.5116e-002
9773	16.439	4.5455	0.	-2.1961e-002
9774	16.531	4.5455	5.e-002	-2.4093e-005
9775	16.531	4.2727	0.	-4.3889e-002
9776	16.439	4.3636	0.	-3.1244e-002
9777	16.531	4.3636	5.e-002	-5.0698e-005
9778	16.531	4.0909	0.	-4.7838e-002
9779	16.439	4.1818	0.	-3.9271e-002
9780	16.531	4.1818	5.e-002	-6.9372e-005
9781	16.531	3.9091	0.	-4.0905e-002
9782	16.439	4.	0.	-4.0228e-002
9783	16.531	4.	5.e-002	-7.6987e-005
9784	16.531	3.7273	0.	-2.0583e-002
9785	16.439	3.8182	0.	-2.9663e-002
9786	16.531	3.8182	5.e-002	-5.8489e-005
9787	16.531	3.5455	0.	1.23e-002
9788	16.439	3.6364	0.	-6.4749e-003
9789	16.531	3.6364	5.e-002	-8.1334e-005
9790	16.531	3.3636	0.	4.9753e-002
9791	16.439	3.4545	0.	2.5718e-002
9792	16.531	3.4545	5.e-002	-5.5591e-005
9793	16.531	3.1818	0.	7.8564e-002
9794	16.439	3.2727	0.	5.6291e-002
9795	16.531	3.2727	5.e-002	-4.1098e-005
9796	16.531	3.	0.	8.9191e-002
9797	16.439	3.0909	0.	7.4516e-002
9798	16.531	3.0909	5.e-002	-1.0578e-005
9799	16.531	2.8182	0.	7.8565e-002
9800	16.439	2.9091	0.	7.4517e-002
9801	16.531	2.9091	5.e-002	1.4384e-005
9802	16.531	2.6364	0.	4.9753e-002
9803	16.439	2.7273	0.	5.6291e-002
9804	16.531	2.7273	5.e-002	4.3926e-005
9805	16.531	2.4545	0.	1.23e-002
9806	16.439	2.5455	0.	2.5719e-002
9807	16.531	2.5455	5.e-002	8.8522e-005
9808	16.531	2.2727	0.	-2.0583e-002
9809	16.439	2.3636	0.	-6.4753e-003
9810	16.531	2.3636	5.e-002	1.1931e-004
9811	16.531	2.0909	0.	-4.0904e-002
9812	16.439	2.1818	0.	-2.9664e-002
9813	16.531	2.1818	5.e-002	1.2128e-004
9814	16.531	1.9091	0.	-4.7839e-002
9815	16.439	2.	0.	-4.0227e-002
9816	16.531	2.	5.e-002	1.1281e-004
9817	16.531	1.7273	0.	-4.389e-002
9818	16.439	1.8182	0.	-3.9272e-002
9819	16.531	1.8182	5.e-002	8.6851e-005
9820	16.531	1.5455	0.	-3.5115e-002
9821	16.439	1.6364	0.	-3.1245e-002
9822	16.531	1.6364	5.e-002	6.2377e-005
9823	16.531	1.3636	0.	-2.5674e-002
9824	16.439	1.4545	0.	-2.196e-002
9825	16.531	1.4545	5.e-002	5.2404e-005
9826	16.531	1.1818	0.	-1.5614e-002
9827	16.439	1.2727	0.	-1.2667e-002
9828	16.531	1.2727	5.e-002	2.9499e-005
9829	16.531	1.	0.	-3.4606e-003
9830	16.439	1.0909	0.	-3.5315e-003
9831	16.531	1.0909	5.e-002	1.5593e-005
9832	16.531	0.81818	0.	8.0284e-003
9833	16.439	0.90909	0.	7.6844e-003
9834	16.531	0.90909	5.e-002	9.5112e-006
9835	16.531	0.63636	0.	2.8003e-002
9836	16.439	0.72727	0.	1.2747e-002
9837	16.531	0.72727	5.e-002	3.9252e-006
9838	16.531	0.45455	0.	-1.721e-002
9839	16.439	0.54545	0.	3.6593e-002
9840	16.531	0.54545	5.e-002	-6.939e-007
9841	16.531	0.27273	0.	-2.7247e-002
9842	16.439	0.36364	0.	-9.3456e-002
9843	16.531	0.36364	5.e-002	5.0491e-007
9844	16.439	0.18182	0.	-6.5261e-002
9845	16.531	0.18182	5.e-002	1.0941e-006
9846	16.531	9.0909e-002	0.	7.346e-003
9847	16.347	5.7273	0.	-6.1061e-002
9848	16.255	5.8182	0.	-0.10354
9849	16.347	5.8182	5.e-002	5.5748e-006
9850	16.347	5.9091	0.	-1.2318e-003
9851	16.347	5.5455	0.	-2.8925e-002
9852	16.255	5.6364	0.	-0.10393
9853	16.347	5.6364	5.e-002	1.0745e-005
9854	16.347	5.3636	0.	2.5115e-002
9855	16.255	5.4545	0.	2.9008e-002
9856	16.347	5.4545	5.e-002	1.1301e-005
9857	16.347	5.1818	0.	1.4002e-002
9858	16.255	5.2727	0.	1.4553e-002
9859	16.347	5.2727	5.e-002	6.6429e-006
9860	16.347	5.	0.	8.2905e-003
9861	16.255	5.0909	0.	1.5105e-002
9862	16.347	5.0909	5.e-002	4.8619e-006
9863	16.347	4.8182	0.	-3.5526e-004
9864	16.255	4.9091	0.	7.8607e-003
9865	16.347	4.9091	5.e-002	-1.5142e-006
9866	16.347	4.6364	0.	-8.9088e-003
9867	16.255	4.7273	0.	8.8759e-004
9868	16.347	4.7273	5.e-002	-4.7223e-006
9869	16.347	4.4545	0.	-1.8083e-002
9870	16.255	4.5455	0.	-7.2552e-003
9871	16.347	4.5455	5.e-002	-1.5827e-005
9872	16.347	4.2727	0.	-2.6637e-002
9873	16.255	4.3636	0.	-1.575e-002
9874	16.347	4.3636	5.e-002	-2.4535e-005
9875	16.347	4.0909	0.	-3.1726e-002
9876	16.255	4.1818	0.	-2.276e-002
9877	16.347	4.1818	5.e-002	-2.7989e-005
9878	16.347	3.9091	0.	-2.899e-002
9879	16.255	4.	0.	-2.5023e-002
9880	16.347	4.	5.e-002	-4.4287e-005
9881	16.347	3.7273	0.	-1.5049e-002
9882	16.255	3.8182	0.	-1.8787e-002
9883	16.347	3.8182	5.e-002	-4.1398e-005
9884	16.347	3.5455	0.	8.5744e-003
9885	16.255	3.6364	0.	-2.8464e-003
9886	16.347	3.6364	5.e-002	-5.4351e-005
9887	16.347	3.3636	0.	3.5328e-002
9888	16.255	3.4545	0.	1.9311e-002
9889	16.347	3.4545	5.e-002	-5.4408e-005
9890	16.347	3.1818	0.	5.6485e-002
9891	16.255	3.2727	0.	4.086e-002
9892	16.347	3.2727	5.e-002	-3.9218e-005
9893	16.347	3.	0.	6.4523e-002
9894	16.255	3.0909	0.	5.4149e-002
9895	16.347	3.0909	5.e-002	-1.9422e-005
9896	16.347	2.8182	0.	5.6484e-002
9897	16.255	2.9091	0.	5.4149e-002
9898	16.347	2.9091	5.e-002	2.3696e-005
9899	16.347	2.6364	0.	3.5329e-002
9900	16.255	2.7273	0.	4.086e-002
9901	16.347	2.7273	5.e-002	5.6039e-005
9902	16.347	2.4545	0.	8.5742e-003
9903	16.255	2.5455	0.	1.9311e-002
9904	16.347	2.5455	5.e-002	1.1059e-004
9905	16.347	2.2727	0.	-1.505e-002
9906	16.255	2.3636	0.	-2.8462e-003
9907	16.347	2.3636	5.e-002	7.1744e-005
9908	16.347	2.0909	0.	-2.8989e-002
9909	16.255	2.1818	0.	-1.8787e-002
9910	16.347	2.1818	5.e-002	1.0157e-004
9911	16.347	1.9091	0.	-3.1725e-002
9912	16.255	2.	0.	-2.5022e-002
9913	16.347	2.	5.e-002	8.6395e-005
9914	16.347	1.7273	0.	-2.6637e-002
9915	16.255	1.8182	0.	-2.276e-002
9916	16.347	1.8182	5.e-002	5.6941e-005
9917	16.347	1.5455	0.	-1.8083e-002
9918	16.255	1.6364	0.	-1.575e-002
9919	16.347	1.6364	5.e-002	4.8904e-005
9920	16.347	1.3636	0.	-8.9083e-003
9921	16.255	1.4545	0.	-7.2552e-003
9922	16.347	1.4545	5.e-002	2.8485e-005
9923	16.347	1.1818	0.	-3.5482e-004
9924	16.255	1.2727	0.	8.8833e-004
9925	16.347	1.2727	5.e-002	2.0737e-005
9926	16.347	1.	0.	8.2912e-003
9927	16.255	1.0909	0.	7.8608e-003
9928	16.347	1.0909	5.e-002	1.1771e-005
9929	16.347	0.81818	0.	1.4005e-002
9930	16.255	0.90909	0.	1.5106e-002
9931	16.347	0.90909	5.e-002	5.764e-006
9932	16.347	0.63636	0.	2.5118e-002
9933	16.255	0.72727	0.	1.4556e-002
9934	16.347	0.72727	5.e-002	1.6531e-006
9935	16.347	0.45455	0.	-2.8924e-002
9936	16.255	0.54545	0.	2.901e-002
9937	16.347	0.54545	5.e-002	-2.1097e-006
9938	16.347	0.27273	0.	-6.1062e-002
9939	16.255	0.36364	0.	-0.10393
9940	16.347	0.36364	5.e-002	-2.6058e-007
9941	16.255	0.18182	0.	-0.10354
9942	16.347	0.18182	5.e-002	-1.3058e-006
9943	16.347	9.0909e-002	0.	-1.2325e-003
9944	16.163	5.7273	0.	-7.9153e-002
9945	16.071	5.8182	0.	-0.11783
9946	16.163	5.8182	5.e-002	4.4891e-006
9947	16.163	5.9091	0.	-5.9692e-003
9948	16.163	5.5455	0.	-3.5228e-002
9949	16.071	5.6364	0.	-0.10633
9950	16.163	5.6364	5.e-002	8.4418e-006
9951	16.163	5.3636	0.	2.234e-002
9952	16.071	5.4545	0.	2.2898e-002
9953	16.163	5.4545	5.e-002	1.1026e-005
9954	16.163	5.1818	0.	1.7391e-002
9955	16.071	5.2727	0.	1.5127e-002
9956	16.163	5.2727	5.e-002	6.9406e-006
9957	16.163	5.	0.	1.5497e-002
9958	16.071	5.0909	0.	1.9224e-002
9959	16.163	5.0909	5.e-002	4.8548e-006
9960	16.163	4.8182	0.	9.4662e-003
9961	16.071	4.9091	0.	1.4776e-002
9962	16.163	4.9091	5.e-002	-3.0387e-007
9963	16.163	4.6364	0.	2.6614e-003
9964	16.071	4.7273	0.	9.6276e-003
9965	16.163	4.7273	5.e-002	-2.2731e-006
9966	16.163	4.4545	0.	-4.9425e-003
9967	16.071	4.5455	0.	2.9798e-003
9968	16.163	4.5455	5.e-002	-5.8117e-006
9969	16.163	4.2727	0.	-1.2008e-002
9970	16.071	4.3636	0.	-3.9712e-003
9971	16.163	4.3636	5.e-002	-1.7414e-005
9972	16.163	4.0909	0.	-1.6297e-002
9973	16.071	4.1818	0.	-9.7263e-003
9974	16.163	4.1818	5.e-002	-2.4224e-005
9975	16.163	3.9091	0.	-1.5049e-002
9976	16.071	4.	0.	-1.1881e-002
9977	16.163	4.	5.e-002	-1.6785e-005
9978	16.163	3.7273	0.	-6.4788e-003
9979	16.071	3.8182	0.	-8.2654e-003
9980	16.163	3.8182	5.e-002	-2.0167e-005
9981	16.163	3.5455	0.	8.8022e-003
9982	16.071	3.6364	0.	1.7984e-003
9983	16.163	3.6364	5.e-002	-2.3926e-005
9984	16.163	3.3636	0.	2.6904e-002
9985	16.071	3.4545	0.	1.6409e-002
9986	16.163	3.4545	5.e-002	-5.1293e-006
9987	16.163	3.1818	0.	4.1631e-002
9988	16.071	3.2727	0.	3.1008e-002
9989	16.163	3.2727	5.e-002	-1.0906e-005
9990	16.163	3.	0.	4.7304e-002
9991	16.071	3.0909	0.	4.0154e-002
9992	16.163	3.0909	5.e-002	1.6992e-005
9993	16.163	2.8182	0.	4.163e-002
9994	16.071	2.9091	0.	4.0155e-002
9995	16.163	2.9091	5.e-002	1.1454e-005
9996	16.163	2.6364	0.	2.6904e-002
9997	16.071	2.7273	0.	3.1008e-002
9998	16.163	2.7273	5.e-002	2.6571e-005
9999	16.163	2.4545	0.	8.8025e-003
10000	16.071	2.5455	0.	1.6409e-002
10001	16.163	2.5455	5.e-002	3.4548e-005
10002	16.163	2.2727	0.	-6.478e-003
10003	16.071	2.3636	0.	1.7986e-003
10004	16.163	2.3636	5.e-002	4.1411e-005
10005	16.163	2.0909	0.	-1.5048e-002
10006	16.071	2.1818	0.	-8.265e-003
10007	16.163	2.1818	5.e-002	3.7774e-005
10008	16.163	1.9091	0.	-1.6296e-002
10009	16.071	2.	0.	-1.188e-002
10010	16.163	2.	5.e-002	4.081e-005
10011	16.163	1.7273	0.	-1.2007e-002
10012	16.071	1.8182	0.	-9.726e-003
10013	16.163	1.8182	5.e-002	3.4879e-005
10014	16.163	1.5455	0.	-4.9419e-003
10015	16.071	1.6364	0.	-3.9707e-003
10016	16.163	1.6364	5.e-002	3.2614e-005
10017	16.163	1.3636	0.	2.6617e-003
10018	16.071	1.4545	0.	2.9799e-003
10019	16.163	1.4545	5.e-002	1.7576e-005
10020	16.163	1.1818	0.	9.4666e-003
10021	16.071	1.2727	0.	9.6282e-003
10022	16.163	1.2727	5.e-002	1.0919e-005
10023	16.163	1.	0.	1.5498e-002
10024	16.071	1.0909	0.	1.4777e-002
10025	16.163	1.0909	5.e-002	3.9765e-006
10026	16.163	0.81818	0.	1.7393e-002
10027	16.071	0.90909	0.	1.9225e-002
10028	16.163	0.90909	5.e-002	-1.6372e-007
10029	16.163	0.63636	0.	2.2342e-002
10030	16.071	0.72727	0.	1.5129e-002
10031	16.163	0.72727	5.e-002	-2.5064e-006
10032	16.163	0.45455	0.	-3.5228e-002
10033	16.071	0.54545	0.	2.2898e-002
10034	16.163	0.54545	5.e-002	9.1967e-007
10035	16.163	0.27273	0.	-7.9154e-002
10036	16.071	0.36364	0.	-0.10633
10037	16.163	0.36364	5.e-002	-4.1396e-006
10038	16.071	0.18182	0.	-0.11782
10039	16.163	0.18182	5.e-002	-4.3783e-006
10040	16.163	9.0909e-002	0.	-5.9689e-003
10041	15.98	5.7273	0.	-8.6277e-002
10042	15.888	5.8182	0.	-0.11655
10043	15.98	5.8182	5.e-002	3.8818e-006
10044	15.98	5.9091	0.	-8.3612e-003
10045	15.98	5.5455	0.	-3.8038e-002
10046	15.888	5.6364	0.	-0.10365
10047	15.98	5.6364	5.e-002	8.6525e-006
10048	15.98	5.3636	0.	1.9429e-002
10049	15.888	5.4545	0.	1.7799e-002
10050	15.98	5.4545	5.e-002	1.0731e-005
10051	15.98	5.1818	0.	1.8674e-002
10052	15.888	5.2727	0.	1.4667e-002
10053	15.98	5.2727	5.e-002	9.101e-006
10054	15.98	5.	0.	1.9356e-002
10055	15.888	5.0909	0.	2.0935e-002
10056	15.98	5.0909	5.e-002	7.7012e-006
10057	15.98	4.8182	0.	1.5344e-002
10058	15.888	4.9091	0.	1.8562e-002
10059	15.98	4.9091	5.e-002	4.0995e-006
10060	15.98	4.6364	0.	1.0088e-002
10061	15.888	4.7273	0.	1.4947e-002
10062	15.98	4.7273	5.e-002	-8.6232e-007
10063	15.98	4.4545	0.	3.9131e-003
10064	15.888	4.5455	0.	9.7134e-003
10065	15.98	4.5455	5.e-002	-1.9473e-006
10066	15.98	4.2727	0.	-1.875e-003
10067	15.888	4.3636	0.	4.1366e-003
10068	15.98	4.3636	5.e-002	-3.2882e-006
10069	15.98	4.0909	0.	-5.6107e-003
10070	15.888	4.1818	0.	-5.3583e-004
10071	15.98	4.1818	5.e-002	-8.2434e-006
10072	15.98	3.9091	0.	-5.406e-003
10073	15.888	4.	0.	-2.6373e-003
10074	15.98	4.	5.e-002	-5.8579e-006
10075	15.98	3.7273	0.	-6.475e-005
10076	15.888	3.8182	0.	-7.1894e-004
10077	15.98	3.8182	5.e-002	-4.2112e-006
10078	15.98	3.5455	0.	9.9085e-003
10079	15.888	3.6364	0.	5.6223e-003
10080	15.98	3.6364	5.e-002	4.5154e-006
10081	15.98	3.3636	0.	2.1876e-002
10082	15.888	3.4545	0.	1.5064e-002
10083	15.98	3.4545	5.e-002	1.9128e-005
10084	15.98	3.1818	0.	3.171e-002
10085	15.888	3.2727	0.	2.4616e-002
10086	15.98	3.2727	5.e-002	1.5275e-005
10087	15.98	3.	0.	3.5524e-002
10088	15.888	3.0909	0.	3.065e-002
10089	15.98	3.0909	5.e-002	1.1729e-005
10090	15.98	2.8182	0.	3.171e-002
10091	15.888	2.9091	0.	3.065e-002
10092	15.98	2.9091	5.e-002	-1.4817e-005
10093	15.98	2.6364	0.	2.1876e-002
10094	15.888	2.7273	0.	2.4616e-002
10095	15.98	2.7273	5.e-002	-7.5568e-006
10096	15.98	2.4545	0.	9.9084e-003
10097	15.888	2.5455	0.	1.5064e-002
10098	15.98	2.5455	5.e-002	9.9462e-007
10099	15.98	2.2727	0.	-6.4929e-005
10100	15.888	2.3636	0.	5.6227e-003
10101	15.98	2.3636	5.e-002	7.449e-006
10102	15.98	2.0909	0.	-5.4058e-003
10103	15.888	2.1818	0.	-7.1915e-004
10104	15.98	2.1818	5.e-002	1.1217e-005
10105	15.98	1.9091	0.	-5.6103e-003
10106	15.888	2.	0.	-2.6366e-003
10107	15.98	2.	5.e-002	2.1867e-005
10108	15.98	1.7273	0.	-1.8751e-003
10109	15.888	1.8182	0.	-5.3582e-004
10110	15.98	1.8182	5.e-002	1.2874e-005
10111	15.98	1.5455	0.	3.9132e-003
10112	15.888	1.6364	0.	4.1365e-003
10113	15.98	1.6364	5.e-002	1.3108e-005
10114	15.98	1.3636	0.	1.0089e-002
10115	15.888	1.4545	0.	9.7137e-003
10116	15.98	1.4545	5.e-002	8.1866e-006
10117	15.98	1.1818	0.	1.5344e-002
10118	15.888	1.2727	0.	1.4947e-002
10119	15.98	1.2727	5.e-002	5.9598e-006
10120	15.98	1.	0.	1.9357e-002
10121	15.888	1.0909	0.	1.8564e-002
10122	15.98	1.0909	5.e-002	1.279e-006
10123	15.98	0.81818	0.	1.8676e-002
10124	15.888	0.90909	0.	2.0936e-002
10125	15.98	0.90909	5.e-002	-1.2143e-006
10126	15.98	0.63636	0.	1.943e-002
10127	15.888	0.72727	0.	1.4668e-002
10128	15.98	0.72727	5.e-002	-3.1152e-006
10129	15.98	0.45455	0.	-3.804e-002
10130	15.888	0.54545	0.	1.7798e-002
10131	15.98	0.54545	5.e-002	-3.3361e-006
10132	15.98	0.27273	0.	-8.6277e-002
10133	15.888	0.36364	0.	-0.10365
10134	15.98	0.36364	5.e-002	-1.3505e-006
10135	15.888	0.18182	0.	-0.11655
10136	15.98	0.18182	5.e-002	4.0057e-006
10137	15.98	9.0909e-002	0.	-8.361e-003
10138	15.796	5.7273	0.	-8.6248e-002
10139	15.704	5.8182	0.	-0.10643
10140	15.796	5.8182	5.e-002	2.2172e-006
10141	15.796	5.9091	0.	-9.3378e-003
10142	15.796	5.5455	0.	-3.8606e-002
10143	15.704	5.6364	0.	-9.8026e-002
10144	15.796	5.6364	5.e-002	7.8021e-006
10145	15.796	5.3636	0.	1.6494e-002
10146	15.704	5.4545	0.	1.3493e-002
10147	15.796	5.4545	5.e-002	9.3726e-006
10148	15.796	5.1818	0.	1.8536e-002
10149	15.704	5.2727	0.	1.3512e-002
10150	15.796	5.2727	5.e-002	8.3113e-006
10151	15.796	5.	0.	2.0961e-002
10152	15.704	5.0909	0.	2.1035e-002
10153	15.796	5.0909	5.e-002	6.6625e-006
10154	15.796	4.8182	0.	1.8567e-002
10155	15.704	4.9091	0.	2.0226e-002
10156	15.796	4.9091	5.e-002	5.075e-006
10157	15.796	4.6364	0.	1.4714e-002
10158	15.704	4.7273	0.	1.7907e-002
10159	15.796	4.7273	5.e-002	1.4294e-006
10160	15.796	4.4545	0.	9.8932e-003
10161	15.704	4.5455	0.	1.3951e-002
10162	15.796	4.5455	5.e-002	2.4208e-006
10163	15.796	4.2727	0.	5.2841e-003
10164	15.704	4.3636	0.	9.5919e-003
10165	15.796	4.3636	5.e-002	-9.4756e-007
10166	15.796	4.0909	0.	2.1398e-003
10167	15.704	4.1818	0.	5.8357e-003
10168	15.796	4.1818	5.e-002	-1.1269e-006
10169	15.796	3.9091	0.	1.739e-003
10170	15.704	4.	0.	3.8804e-003
10171	15.796	4.	5.e-002	3.6047e-007
10172	15.796	3.7273	0.	4.8245e-003
10173	15.704	3.8182	0.	4.6675e-003
10174	15.796	3.8182	5.e-002	2.1608e-006
10175	15.796	3.5455	0.	1.1051e-002
10176	15.704	3.6364	0.	8.4317e-003
10177	15.796	3.6364	5.e-002	1.4102e-005
10178	15.796	3.3636	0.	1.8695e-002
10179	15.704	3.4545	0.	1.4308e-002
10180	15.796	3.4545	5.e-002	1.1212e-005
10181	15.796	3.1818	0.	2.5037e-002
10182	15.704	3.2727	0.	2.0347e-002
10183	15.796	3.2727	5.e-002	1.1565e-005
10184	15.796	3.	0.	2.7505e-002
10185	15.704	3.0909	0.	2.4185e-002
10186	15.796	3.0909	5.e-002	2.9814e-006
10187	15.796	2.8182	0.	2.5037e-002
10188	15.704	2.9091	0.	2.4185e-002
10189	15.796	2.9091	5.e-002	-8.9513e-006
10190	15.796	2.6364	0.	1.8695e-002
10191	15.704	2.7273	0.	2.0347e-002
10192	15.796	2.7273	5.e-002	-1.6689e-005
10193	15.796	2.4545	0.	1.1051e-002
10194	15.704	2.5455	0.	1.4308e-002
10195	15.796	2.5455	5.e-002	-9.5633e-006
10196	15.796	2.2727	0.	4.8248e-003
10197	15.704	2.3636	0.	8.4321e-003
10198	15.796	2.3636	5.e-002	-5.2058e-006
10199	15.796	2.0909	0.	1.7392e-003
10200	15.704	2.1818	0.	4.6671e-003
10201	15.796	2.1818	5.e-002	-1.2426e-006
10202	15.796	1.9091	0.	2.1401e-003
10203	15.704	2.	0.	3.8811e-003
10204	15.796	2.	5.e-002	5.1811e-006
10205	15.796	1.7273	0.	5.2841e-003
10206	15.704	1.8182	0.	5.8368e-003
10207	15.796	1.8182	5.e-002	5.6932e-006
10208	15.796	1.5455	0.	9.8934e-003
10209	15.704	1.6364	0.	9.5924e-003
10210	15.796	1.6364	5.e-002	4.0127e-006
10211	15.796	1.3636	0.	1.4714e-002
10212	15.704	1.4545	0.	1.3952e-002
10213	15.796	1.4545	5.e-002	1.6542e-006
10214	15.796	1.1818	0.	1.8567e-002
10215	15.704	1.2727	0.	1.7907e-002
10216	15.796	1.2727	5.e-002	-7.9687e-007
10217	15.796	1.	0.	2.0962e-002
10218	15.704	1.0909	0.	2.0228e-002
10219	15.796	1.0909	5.e-002	-1.4768e-006
10220	15.796	0.81818	0.	1.8537e-002
10221	15.704	0.90909	0.	2.1035e-002
10222	15.796	0.90909	5.e-002	-4.3842e-006
10223	15.796	0.63636	0.	1.6495e-002
10224	15.704	0.72727	0.	1.3513e-002
10225	15.796	0.72727	5.e-002	-6.0658e-006
10226	15.796	0.45455	0.	-3.8607e-002
10227	15.704	0.54545	0.	1.3494e-002
10228	15.796	0.54545	5.e-002	-8.1335e-006
10229	15.796	0.27273	0.	-8.6249e-002
10230	15.704	0.36364	0.	-9.8027e-002
10231	15.796	0.36364	5.e-002	-5.9871e-006
10232	15.704	0.18182	0.	-0.10643
10233	15.796	0.18182	5.e-002	1.2207e-006
10234	15.796	9.0909e-002	0.	-9.338e-003
10235	15.612	5.7273	0.	-8.1957e-002
10236	15.52	5.8182	0.	-9.2258e-002
10237	15.612	5.8182	5.e-002	1.145e-006
10238	15.612	5.9091	0.	-9.549e-003
10239	15.612	5.5455	0.	-3.7821e-002
10240	15.52	5.6364	0.	-9.0888e-002
10241	15.612	5.6364	5.e-002	6.3969e-006
10242	15.612	5.3636	0.	1.3623e-002
10243	15.52	5.4545	0.	9.8467e-003
10244	15.612	5.4545	5.e-002	9.4743e-006
10245	15.612	5.1818	0.	1.7474e-002
10246	15.52	5.2727	0.	1.1945e-002
10247	15.612	5.2727	5.e-002	6.407e-006
10248	15.612	5.	0.	2.1054e-002
10249	15.52	5.0909	0.	2.0104e-002
10250	15.612	5.0909	5.e-002	7.3368e-006
10251	15.612	4.8182	0.	1.994e-002
10252	15.52	4.9091	0.	2.0468e-002
10253	15.612	4.9091	5.e-002	7.5804e-006
10254	15.612	4.6364	0.	1.7277e-002
10255	15.52	4.7273	0.	1.9208e-002
10256	15.612	4.7273	5.e-002	2.9582e-006
10257	15.612	4.4545	0.	1.361e-002
10258	15.52	4.5455	0.	1.6338e-002
10259	15.612	4.5455	5.e-002	3.8869e-006
10260	15.612	4.2727	0.	9.9694e-003
10261	15.52	4.3636	0.	1.2986e-002
10262	15.612	4.3636	5.e-002	3.6989e-006
10263	15.612	4.0909	0.	7.3116e-003
10264	15.52	4.1818	0.	9.9673e-003
10265	15.612	4.1818	5.e-002	2.5928e-006
10266	15.612	3.9091	0.	6.5323e-003
10267	15.52	4.	0.	8.1603e-003
10268	15.612	4.	5.e-002	4.222e-006
10269	15.612	3.7273	0.	8.1206e-003
10270	15.52	3.8182	0.	8.2047e-003
10271	15.612	3.8182	5.e-002	6.3346e-006
10272	15.612	3.5455	0.	1.1832e-002
10273	15.52	3.6364	0.	1.0254e-002
10274	15.612	3.6364	5.e-002	1.0985e-005
10275	15.612	3.3636	0.	1.6534e-002
10276	15.52	3.4545	0.	1.3737e-002
10277	15.612	3.4545	5.e-002	1.1944e-005
10278	15.612	3.1818	0.	2.0477e-002
10279	15.52	3.2727	0.	1.7401e-002
10280	15.612	3.2727	5.e-002	6.7096e-006
10281	15.612	3.	0.	2.2017e-002
10282	15.52	3.0909	0.	1.9749e-002
10283	15.612	3.0909	5.e-002	8.2892e-007
10284	15.612	2.8182	0.	2.0477e-002
10285	15.52	2.9091	0.	1.9749e-002
10286	15.612	2.9091	5.e-002	-6.1201e-006
10287	15.612	2.6364	0.	1.6535e-002
10288	15.52	2.7273	0.	1.7401e-002
10289	15.612	2.7273	5.e-002	-1.2066e-005
10290	15.612	2.4545	0.	1.1832e-002
10291	15.52	2.5455	0.	1.3737e-002
10292	15.612	2.5455	5.e-002	-1.3615e-005
10293	15.612	2.2727	0.	8.1203e-003
10294	15.52	2.3636	0.	1.0255e-002
10295	15.612	2.3636	5.e-002	-1.0548e-005
10296	15.612	2.0909	0.	6.5323e-003
10297	15.52	2.1818	0.	8.2052e-003
10298	15.612	2.1818	5.e-002	-5.8162e-006
10299	15.612	1.9091	0.	7.313e-003
10300	15.52	2.	0.	8.1604e-003
10301	15.612	2.	5.e-002	-3.9649e-006
10302	15.612	1.7273	0.	9.9708e-003
10303	15.52	1.8182	0.	9.9684e-003
10304	15.612	1.8182	5.e-002	-6.0379e-007
10305	15.612	1.5455	0.	1.3611e-002
10306	15.52	1.6364	0.	1.2987e-002
10307	15.612	1.6364	5.e-002	1.0599e-006
10308	15.612	1.3636	0.	1.7278e-002
10309	15.52	1.4545	0.	1.6338e-002
10310	15.612	1.4545	5.e-002	1.743e-007
10311	15.612	1.1818	0.	1.9941e-002
10312	15.52	1.2727	0.	1.9209e-002
10313	15.612	1.2727	5.e-002	-2.3426e-006
10314	15.612	1.	0.	2.1055e-002
10315	15.52	1.0909	0.	2.0469e-002
10316	15.612	1.0909	5.e-002	-1.7047e-006
10317	15.612	0.81818	0.	1.7474e-002
10318	15.52	0.90909	0.	2.0104e-002
10319	15.612	0.90909	5.e-002	-4.3664e-006
10320	15.612	0.63636	0.	1.3624e-002
10321	15.52	0.72727	0.	1.1947e-002
10322	15.612	0.72727	5.e-002	-3.2394e-006
10323	15.612	0.45455	0.	-3.782e-002
10324	15.52	0.54545	0.	9.848e-003
10325	15.612	0.54545	5.e-002	-5.3541e-006
10326	15.612	0.27273	0.	-8.1957e-002
10327	15.52	0.36364	0.	-9.0889e-002
10328	15.612	0.36364	5.e-002	-3.4965e-006
10329	15.52	0.18182	0.	-9.2258e-002
10330	15.612	0.18182	5.e-002	3.9257e-006
10331	15.612	9.0909e-002	0.	-9.5489e-003
10332	15.429	5.7273	0.	-7.5397e-002
10333	15.337	5.8182	0.	-7.7094e-002
10334	15.429	5.8182	5.e-002	-2.2736e-006
10335	15.429	5.9091	0.	-9.3696e-003
10336	15.429	5.5455	0.	-3.6246e-002
10337	15.337	5.6364	0.	-8.3179e-002
10338	15.429	5.6364	5.e-002	7.3187e-006
10339	15.429	5.3636	0.	1.0919e-002
10340	15.337	5.4545	0.	6.7672e-003
10341	15.429	5.4545	5.e-002	8.6765e-006
10342	15.429	5.1818	0.	1.588e-002
10343	15.337	5.2727	0.	1.0181e-002
10344	15.429	5.2727	5.e-002	7.2619e-006
10345	15.429	5.	0.	2.0195e-002
10346	15.337	5.0909	0.	1.8557e-002
10347	15.429	5.0909	5.e-002	8.7626e-006
10348	15.429	4.8182	0.	2.0075e-002
10349	15.337	4.9091	0.	1.9784e-002
10350	15.429	4.9091	5.e-002	6.8473e-006
10351	15.429	4.6364	0.	1.8392e-002
10352	15.337	4.7273	0.	1.9368e-002
10353	15.429	4.7273	5.e-002	6.6186e-006
10354	15.429	4.4545	0.	1.5683e-002
10355	15.337	4.5455	0.	1.7389e-002
10356	15.429	4.5455	5.e-002	5.9561e-006
10357	15.429	4.2727	0.	1.2837e-002
10358	15.337	4.3636	0.	1.486e-002
10359	15.429	4.3636	5.e-002	4.9847e-006
10360	15.429	4.0909	0.	1.0595e-002
10361	15.337	4.1818	0.	1.244e-002
10362	15.429	4.1818	5.e-002	4.8891e-006
10363	15.429	3.9091	0.	9.6029e-003
10364	15.337	4.	0.	1.0792e-002
10365	15.429	4.	5.e-002	5.7219e-006
10366	15.429	3.7273	0.	1.0198e-002
10367	15.337	3.8182	0.	1.037e-002
10368	15.429	3.8182	5.e-002	9.0013e-006
10369	15.429	3.5455	0.	1.2229e-002
10370	15.337	3.6364	0.	1.129e-002
10371	15.429	3.6364	5.e-002	9.9296e-006
10372	15.429	3.3636	0.	1.4967e-002
10373	15.337	3.4545	0.	1.3192e-002
10374	15.429	3.4545	5.e-002	7.1916e-006
10375	15.429	3.1818	0.	1.7309e-002
10376	15.337	3.2727	0.	1.529e-002
10377	15.429	3.2727	5.e-002	4.3336e-006
10378	15.429	3.	0.	1.8229e-002
10379	15.337	3.0909	0.	1.6657e-002
10380	15.429	3.0909	5.e-002	7.3383e-007
10381	15.429	2.8182	0.	1.7309e-002
10382	15.337	2.9091	0.	1.6657e-002
10383	15.429	2.9091	5.e-002	-3.9634e-006
10384	15.429	2.6364	0.	1.4966e-002
10385	15.337	2.7273	0.	1.529e-002
10386	15.429	2.7273	5.e-002	-8.3659e-006
10387	15.429	2.4545	0.	1.2228e-002
10388	15.337	2.5455	0.	1.3192e-002
10389	15.429	2.5455	5.e-002	-1.0161e-005
10390	15.429	2.2727	0.	1.02e-002
10391	15.337	2.3636	0.	1.129e-002
10392	15.429	2.3636	5.e-002	-1.0107e-005
10393	15.429	2.0909	0.	9.6034e-003
10394	15.337	2.1818	0.	1.0371e-002
10395	15.429	2.1818	5.e-002	-6.6347e-006
10396	15.429	1.9091	0.	1.0595e-002
10397	15.337	2.	0.	1.0792e-002
10398	15.429	2.	5.e-002	-5.273e-006
10399	15.429	1.7273	0.	1.2838e-002
10400	15.337	1.8182	0.	1.244e-002
10401	15.429	1.8182	5.e-002	-4.701e-006
10402	15.429	1.5455	0.	1.5683e-002
10403	15.337	1.6364	0.	1.4861e-002
10404	15.429	1.6364	5.e-002	-3.47e-006
10405	15.429	1.3636	0.	1.8392e-002
10406	15.337	1.4545	0.	1.739e-002
10407	15.429	1.4545	5.e-002	-3.4016e-006
10408	15.429	1.1818	0.	2.0076e-002
10409	15.337	1.2727	0.	1.9368e-002
10410	15.429	1.2727	5.e-002	-3.2343e-006
10411	15.429	1.	0.	2.0195e-002
10412	15.337	1.0909	0.	1.9785e-002
10413	15.429	1.0909	5.e-002	-3.3157e-006
10414	15.429	0.81818	0.	1.5881e-002
10415	15.337	0.90909	0.	1.8558e-002
10416	15.429	0.90909	5.e-002	-2.1362e-006
10417	15.429	0.63636	0.	1.092e-002
10418	15.337	0.72727	0.	1.0182e-002
10419	15.429	0.72727	5.e-002	-1.7451e-006
10420	15.429	0.45455	0.	-3.6246e-002
10421	15.337	0.54545	0.	6.7682e-003
10422	15.429	0.54545	5.e-002	-1.2685e-006
10423	15.429	0.27273	0.	-7.5398e-002
10424	15.337	0.36364	0.	-8.3179e-002
10425	15.429	0.36364	5.e-002	4.0482e-007
10426	15.337	0.18182	0.	-7.7094e-002
10427	15.429	0.18182	5.e-002	7.9671e-006
10428	15.429	9.0909e-002	0.	-9.3694e-003
10429	15.245	5.7273	0.	-6.7915e-002
10430	15.153	5.8182	0.	-6.2716e-002
10431	15.245	5.8182	5.e-002	-7.526e-006
10432	15.245	5.9091	0.	-9.0407e-003
10433	15.245	5.5455	0.	-3.4273e-002
10434	15.153	5.6364	0.	-7.548e-002
10435	15.245	5.6364	5.e-002	5.1786e-006
10436	15.245	5.3636	0.	8.4274e-003
10437	15.153	5.4545	0.	4.1824e-003
10438	15.245	5.4545	5.e-002	8.3553e-006
10439	15.245	5.1818	0.	1.4007e-002
10440	15.153	5.2727	0.	8.3679e-003
10441	15.245	5.2727	5.e-002	7.5449e-006
10442	15.245	5.	0.	1.8746e-002
10443	15.153	5.0909	0.	1.6682e-002
10444	15.245	5.0909	5.e-002	7.1367e-006
10445	15.245	4.8182	0.	1.9379e-002
10446	15.153	4.9091	0.	1.8525e-002
10447	15.245	4.9091	5.e-002	5.8078e-006
10448	15.245	4.6364	0.	1.8478e-002
10449	15.153	4.7273	0.	1.8761e-002
10450	15.245	4.7273	5.e-002	6.2853e-006
10451	15.245	4.4545	0.	1.6547e-002
10452	15.153	4.5455	0.	1.7501e-002
10453	15.245	4.5455	5.e-002	7.0528e-006
10454	15.245	4.2727	0.	1.4346e-002
10455	15.153	4.3636	0.	1.5635e-002
10456	15.245	4.3636	5.e-002	5.5867e-006
10457	15.245	4.0909	0.	1.2461e-002
10458	15.153	4.1818	0.	1.3705e-002
10459	15.245	4.1818	5.e-002	4.6562e-006
10460	15.245	3.9091	0.	1.1376e-002
10461	15.153	4.	0.	1.2224e-002
10462	15.245	4.	5.e-002	6.9785e-006
10463	15.245	3.7273	0.	1.1343e-002
10464	15.153	3.8182	0.	1.1535e-002
10465	15.245	3.8182	5.e-002	5.1317e-006
10466	15.245	3.5455	0.	1.228e-002
10467	15.153	3.6364	0.	1.174e-002
10468	15.245	3.6364	5.e-002	6.627e-006
10469	15.245	3.3636	0.	1.3739e-002
10470	15.153	3.4545	0.	1.2627e-002
10471	15.245	3.4545	5.e-002	6.2069e-006
10472	15.245	3.1818	0.	1.5041e-002
10473	15.153	3.2727	0.	1.372e-002
10474	15.245	3.2727	5.e-002	2.6258e-006
10475	15.245	3.	0.	1.556e-002
10476	15.153	3.0909	0.	1.4458e-002
10477	15.245	3.0909	5.e-002	-6.0647e-007
10478	15.245	2.8182	0.	1.5042e-002
10479	15.153	2.9091	0.	1.4458e-002
10480	15.245	2.9091	5.e-002	-3.1337e-006
10481	15.245	2.6364	0.	1.374e-002
10482	15.153	2.7273	0.	1.372e-002
10483	15.245	2.7273	5.e-002	-6.4573e-006
10484	15.245	2.4545	0.	1.228e-002
10485	15.153	2.5455	0.	1.2628e-002
10486	15.245	2.5455	5.e-002	-7.2269e-006
10487	15.245	2.2727	0.	1.1343e-002
10488	15.153	2.3636	0.	1.174e-002
10489	15.245	2.3636	5.e-002	-6.9614e-006
10490	15.245	2.0909	0.	1.1376e-002
10491	15.153	2.1818	0.	1.1535e-002
10492	15.245	2.1818	5.e-002	-8.9342e-006
10493	15.245	1.9091	0.	1.2461e-002
10494	15.153	2.	0.	1.2224e-002
10495	15.245	2.	5.e-002	-6.6439e-006
10496	15.245	1.7273	0.	1.4347e-002
10497	15.153	1.8182	0.	1.3705e-002
10498	15.245	1.8182	5.e-002	-4.7994e-006
10499	15.245	1.5455	0.	1.6548e-002
10500	15.153	1.6364	0.	1.5636e-002
10501	15.245	1.6364	5.e-002	-4.0559e-006
10502	15.245	1.3636	0.	1.8479e-002
10503	15.153	1.4545	0.	1.7502e-002
10504	15.245	1.4545	5.e-002	-4.4155e-006
10505	15.245	1.1818	0.	1.938e-002
10506	15.153	1.2727	0.	1.8761e-002
10507	15.245	1.2727	5.e-002	-4.3019e-006
10508	15.245	1.	0.	1.8748e-002
10509	15.153	1.0909	0.	1.8526e-002
10510	15.245	1.0909	5.e-002	-5.4168e-006
10511	15.245	0.81818	0.	1.4008e-002
10512	15.153	0.90909	0.	1.6683e-002
10513	15.245	0.90909	5.e-002	-2.5394e-006
10514	15.245	0.63636	0.	8.4278e-003
10515	15.153	0.72727	0.	8.369e-003
10516	15.245	0.72727	5.e-002	-9.5751e-007
10517	15.245	0.45455	0.	-3.4272e-002
10518	15.153	0.54545	0.	4.183e-003
10519	15.245	0.54545	5.e-002	2.3631e-007
10520	15.245	0.27273	0.	-6.7915e-002
10521	15.153	0.36364	0.	-7.548e-002
10522	15.245	0.36364	5.e-002	3.8937e-006
10523	15.153	0.18182	0.	-6.2716e-002
10524	15.245	0.18182	5.e-002	8.5073e-006
10525	15.245	9.0909e-002	0.	-9.04e-003
10526	15.061	5.7273	0.	-6.0321e-002
10527	14.969	5.8182	0.	-4.9972e-002
10528	15.061	5.8182	5.e-002	-5.8706e-006
10529	15.061	5.9091	0.	-8.6652e-003
10530	15.061	5.5455	0.	-3.212e-002
10531	14.969	5.6364	0.	-6.8099e-002
10532	15.061	5.6364	5.e-002	3.3229e-006
10533	15.061	5.3636	0.	6.1951e-003
10534	14.969	5.4545	0.	2.0611e-003
10535	15.061	5.4545	5.e-002	7.4583e-006
10536	15.061	5.1818	0.	1.2048e-002
10537	14.969	5.2727	0.	6.6374e-003
10538	15.061	5.2727	5.e-002	5.9855e-006
10539	15.061	5.	0.	1.6988e-002
10540	14.969	5.0909	0.	1.4706e-002
10541	15.061	5.0909	5.e-002	6.733e-006
10542	15.061	4.8182	0.	1.8176e-002
10543	14.969	4.9091	0.	1.697e-002
10544	15.061	4.9091	5.e-002	6.3243e-006
10545	15.061	4.6364	0.	1.7889e-002
10546	14.969	4.7273	0.	1.77e-002
10547	15.061	4.7273	5.e-002	4.8738e-006
10548	15.061	4.4545	0.	1.6581e-002
10549	14.969	4.5455	0.	1.7009e-002
10550	15.061	4.5455	5.e-002	6.5284e-006
10551	15.061	4.2727	0.	1.4905e-002
10552	14.969	4.3636	0.	1.5677e-002
10553	15.061	4.3636	5.e-002	5.2221e-006
10554	15.061	4.0909	0.	1.3333e-002
10555	14.969	4.1818	0.	1.4154e-002
10556	15.061	4.1818	5.e-002	5.5374e-006
10557	15.061	3.9091	0.	1.2242e-002
10558	14.969	4.	0.	1.285e-002
10559	15.061	4.	5.e-002	5.4638e-006
10560	15.061	3.7273	0.	1.1837e-002
10561	14.969	3.8182	0.	1.2036e-002
10562	15.061	3.8182	5.e-002	4.9518e-006
10563	15.061	3.5455	0.	1.209e-002
10564	14.969	3.6364	0.	1.1813e-002
10565	15.061	3.6364	5.e-002	6.456e-006
10566	15.061	3.3636	0.	1.2741e-002
10567	14.969	3.4545	0.	1.2073e-002
10568	15.061	3.4545	5.e-002	3.6437e-006
10569	15.061	3.1818	0.	1.3385e-002
10570	14.969	3.2727	0.	1.254e-002
10571	15.061	3.2727	5.e-002	9.2049e-007
10572	15.061	3.	0.	1.3649e-002
10573	14.969	3.0909	0.	1.2885e-002
10574	15.061	3.0909	5.e-002	-1.7556e-006
10575	15.061	2.8182	0.	1.3385e-002
10576	14.969	2.9091	0.	1.2885e-002
10577	15.061	2.9091	5.e-002	-2.9684e-006
10578	15.061	2.6364	0.	1.2741e-002
10579	14.969	2.7273	0.	1.254e-002
10580	15.061	2.7273	5.e-002	-6.2147e-006
10581	15.061	2.4545	0.	1.209e-002
10582	14.969	2.5455	0.	1.2073e-002
10583	15.061	2.5455	5.e-002	-6.7587e-006
10584	15.061	2.2727	0.	1.1837e-002
10585	14.969	2.3636	0.	1.1813e-002
10586	15.061	2.3636	5.e-002	-8.9173e-006
10587	15.061	2.0909	0.	1.2242e-002
10588	14.969	2.1818	0.	1.2037e-002
10589	15.061	2.1818	5.e-002	-9.3476e-006
10590	15.061	1.9091	0.	1.3333e-002
10591	14.969	2.	0.	1.285e-002
10592	15.061	2.	5.e-002	-8.5065e-006
10593	15.061	1.7273	0.	1.4905e-002
10594	14.969	1.8182	0.	1.4154e-002
10595	15.061	1.8182	5.e-002	-6.9581e-006
10596	15.061	1.5455	0.	1.6581e-002
10597	14.969	1.6364	0.	1.5678e-002
10598	15.061	1.6364	5.e-002	-5.3652e-006
10599	15.061	1.3636	0.	1.7889e-002
10600	14.969	1.4545	0.	1.7009e-002
10601	15.061	1.4545	5.e-002	-5.3464e-006
10602	15.061	1.1818	0.	1.8176e-002
10603	14.969	1.2727	0.	1.77e-002
10604	15.061	1.2727	5.e-002	-5.6369e-006
10605	15.061	1.	0.	1.699e-002
10606	14.969	1.0909	0.	1.6971e-002
10607	15.061	1.0909	5.e-002	-5.2246e-006
10608	15.061	0.81818	0.	1.205e-002
10609	14.969	0.90909	0.	1.4707e-002
10610	15.061	0.90909	5.e-002	-4.1622e-006
10611	15.061	0.63636	0.	6.1963e-003
10612	14.969	0.72727	0.	6.6395e-003
10613	15.061	0.72727	5.e-002	-2.1471e-006
10614	15.061	0.45455	0.	-3.212e-002
10615	14.969	0.54545	0.	2.0614e-003
10616	15.061	0.54545	5.e-002	2.1468e-007
10617	15.061	0.27273	0.	-6.0322e-002
10618	14.969	0.36364	0.	-6.81e-002
10619	15.061	0.36364	5.e-002	3.3095e-006
10620	14.969	0.18182	0.	-4.9973e-002
10621	15.061	0.18182	5.e-002	1.5187e-005
10622	15.061	9.0909e-002	0.	-8.6642e-003
10623	14.878	5.7273	0.	-5.3052e-002
10624	14.786	5.8182	0.	-3.9171e-002
10625	14.878	5.8182	5.e-002	-1.1165e-005
10626	14.878	5.9091	0.	-8.2527e-003
10627	14.878	5.5455	0.	-2.9888e-002
10628	14.786	5.6364	0.	-6.1216e-002
10629	14.878	5.6364	5.e-002	3.9931e-006
10630	14.878	5.3636	0.	4.281e-003
10631	14.786	5.4545	0.	3.4731e-004
10632	14.878	5.4545	5.e-002	7.4317e-006
10633	14.878	5.1818	0.	1.017e-002
10634	14.786	5.2727	0.	5.0536e-003
10635	14.878	5.2727	5.e-002	5.8095e-006
10636	14.878	5.	0.	1.5151e-002
10637	14.786	5.0909	0.	1.276e-002
10638	14.878	5.0909	5.e-002	6.8653e-006
10639	14.878	4.8182	0.	1.6732e-002
10640	14.786	4.9091	0.	1.5294e-002
10641	14.878	4.9091	5.e-002	6.6443e-006
10642	14.878	4.6364	0.	1.6918e-002
10643	14.786	4.7273	0.	1.6386e-002
10644	14.878	4.7273	5.e-002	4.9754e-006
10645	14.878	4.4545	0.	1.6108e-002
10646	14.786	4.5455	0.	1.6143e-002
10647	14.878	4.5455	5.e-002	6.588e-006
10648	14.878	4.2727	0.	1.4863e-002
10649	14.786	4.3636	0.	1.5243e-002
10650	14.878	4.3636	5.e-002	5.3551e-006
10651	14.878	4.0909	0.	1.357e-002
10652	14.786	4.1818	0.	1.4063e-002
10653	14.878	4.1818	5.e-002	4.5747e-006
10654	14.878	3.9091	0.	1.2537e-002
10655	14.786	4.	0.	1.2942e-002
10656	14.878	4.	5.e-002	4.745e-006
10657	14.878	3.7273	0.	1.1937e-002
10658	14.786	3.8182	0.	1.2102e-002
10659	14.878	3.8182	5.e-002	4.5318e-006
10660	14.878	3.5455	0.	1.1787e-002
10661	14.786	3.6364	0.	1.1648e-002
10662	14.878	3.6364	5.e-002	5.888e-006
10663	14.878	3.3636	0.	1.1946e-002
10664	14.786	3.4545	0.	1.1542e-002
10665	14.878	3.4545	5.e-002	3.4244e-006
10666	14.878	3.1818	0.	1.2188e-002
10667	14.786	3.2727	0.	1.1635e-002
10668	14.878	3.2727	5.e-002	5.3144e-007
10669	14.878	3.	0.	1.2297e-002
10670	14.786	3.0909	0.	1.1744e-002
10671	14.878	3.0909	5.e-002	-4.3688e-007
10672	14.878	2.8182	0.	1.2188e-002
10673	14.786	2.9091	0.	1.1744e-002
10674	14.878	2.9091	5.e-002	-2.4069e-006
10675	14.878	2.6364	0.	1.1947e-002
10676	14.786	2.7273	0.	1.1635e-002
10677	14.878	2.7273	5.e-002	-3.6933e-006
10678	14.878	2.4545	0.	1.1786e-002
10679	14.786	2.5455	0.	1.1542e-002
10680	14.878	2.5455	5.e-002	-6.2918e-006
10681	14.878	2.2727	0.	1.1938e-002
10682	14.786	2.3636	0.	1.1649e-002
10683	14.878	2.3636	5.e-002	-6.778e-006
10684	14.878	2.0909	0.	1.2538e-002
10685	14.786	2.1818	0.	1.2103e-002
10686	14.878	2.1818	5.e-002	-6.9691e-006
10687	14.878	1.9091	0.	1.3571e-002
10688	14.786	2.	0.	1.2942e-002
10689	14.878	2.	5.e-002	-6.2012e-006
10690	14.878	1.7273	0.	1.4863e-002
10691	14.786	1.8182	0.	1.4064e-002
10692	14.878	1.8182	5.e-002	-5.2789e-006
10693	14.878	1.5455	0.	1.6108e-002
10694	14.786	1.6364	0.	1.5243e-002
10695	14.878	1.6364	5.e-002	-5.6223e-006
10696	14.878	1.3636	0.	1.6918e-002
10697	14.786	1.4545	0.	1.6144e-002
10698	14.878	1.4545	5.e-002	-4.21e-006
10699	14.878	1.1818	0.	1.6733e-002
10700	14.786	1.2727	0.	1.6386e-002
10701	14.878	1.2727	5.e-002	-4.161e-006
10702	14.878	1.	0.	1.5152e-002
10703	14.786	1.0909	0.	1.5295e-002
10704	14.878	1.0909	5.e-002	-4.2471e-006
10705	14.878	0.81818	0.	1.0172e-002
10706	14.786	0.90909	0.	1.2761e-002
10707	14.878	0.90909	5.e-002	-3.6536e-006
10708	14.878	0.63636	0.	4.2822e-003
10709	14.786	0.72727	0.	5.0544e-003
10710	14.878	0.72727	5.e-002	7.7705e-007
10711	14.878	0.45455	0.	-2.9888e-002
10712	14.786	0.54545	0.	3.475e-004
10713	14.878	0.54545	5.e-002	2.2985e-007
10714	14.878	0.27273	0.	-5.3053e-002
10715	14.786	0.36364	0.	-6.1216e-002
10716	14.878	0.36364	5.e-002	1.9332e-006
10717	14.786	0.18182	0.	-3.917e-002
10718	14.878	0.18182	5.e-002	1.9484e-005
10719	14.878	9.0909e-002	0.	-8.2525e-003
10720	14.694	5.7273	0.	-4.64e-002
10721	14.602	5.8182	0.	-3.0318e-002
10722	14.694	5.8182	5.e-002	-8.2442e-006
10723	14.694	5.9091	0.	-7.8653e-003
10724	14.694	5.5455	0.	-2.7708e-002
10725	14.602	5.6364	0.	-5.4933e-002
10726	14.694	5.6364	5.e-002	2.9076e-006
10727	14.694	5.3636	0.	2.6362e-003
10728	14.602	5.4545	0.	-1.0365e-003
10729	14.694	5.4545	5.e-002	6.5021e-006
10730	14.694	5.1818	0.	8.4024e-003
10731	14.602	5.2727	0.	3.623e-003
10732	14.694	5.2727	5.e-002	3.7145e-006
10733	14.694	5.	0.	1.331e-002
10734	14.602	5.0909	0.	1.09e-002
10735	14.694	5.0909	5.e-002	4.321e-006
10736	14.694	4.8182	0.	1.5161e-002
10737	14.602	4.9091	0.	1.3589e-002
10738	14.694	4.9091	5.e-002	3.5129e-006
10739	14.694	4.6364	0.	1.5704e-002
10740	14.602	4.7273	0.	1.4939e-002
10741	14.694	4.7273	5.e-002	2.9927e-006
10742	14.694	4.4545	0.	1.5291e-002
10743	14.602	4.5455	0.	1.5045e-002
10744	14.694	4.5455	5.e-002	3.9635e-006
10745	14.694	4.2727	0.	1.4402e-002
10746	14.602	4.3636	0.	1.4495e-002
10747	14.694	4.3636	5.e-002	2.6635e-006
10748	14.694	4.0909	0.	1.3362e-002
10749	14.602	4.1818	0.	1.3608e-002
10750	14.694	4.1818	5.e-002	2.0423e-006
10751	14.694	3.9091	0.	1.2429e-002
10752	14.602	4.	0.	1.2671e-002
10753	14.694	4.	5.e-002	2.412e-006
10754	14.694	3.7273	0.	1.1755e-002
10755	14.602	3.8182	0.	1.1872e-002
10756	14.694	3.8182	5.e-002	1.2894e-006
10757	14.694	3.5455	0.	1.1388e-002
10758	14.602	3.6364	0.	1.1318e-002
10759	14.694	3.6364	5.e-002	1.4013e-006
10760	14.694	3.3636	0.	1.1268e-002
10761	14.602	3.4545	0.	1.1018e-002
10762	14.694	3.4545	5.e-002	5.0445e-007
10763	14.694	3.1818	0.	1.1276e-002
10764	14.602	3.2727	0.	1.0902e-002
10765	14.694	3.2727	5.e-002	-1.5114e-006
10766	14.694	3.	0.	1.1294e-002
10767	14.602	3.0909	0.	1.0878e-002
10768	14.694	3.0909	5.e-002	-2.8906e-006
10769	14.694	2.8182	0.	1.1275e-002
10770	14.602	2.9091	0.	1.0877e-002
10771	14.694	2.9091	5.e-002	-3.7742e-006
10772	14.694	2.6364	0.	1.1269e-002
10773	14.602	2.7273	0.	1.0902e-002
10774	14.694	2.7273	5.e-002	-4.1046e-006
10775	14.694	2.4545	0.	1.1388e-002
10776	14.602	2.5455	0.	1.1018e-002
10777	14.694	2.5455	5.e-002	-6.3395e-006
10778	14.694	2.2727	0.	1.1756e-002
10779	14.602	2.3636	0.	1.1318e-002
10780	14.694	2.3636	5.e-002	-6.6438e-006
10781	14.694	2.0909	0.	1.2429e-002
10782	14.602	2.1818	0.	1.1872e-002
10783	14.694	2.1818	5.e-002	-7.6089e-006
10784	14.694	1.9091	0.	1.3362e-002
10785	14.602	2.	0.	1.267e-002
10786	14.694	2.	5.e-002	-7.847e-006
10787	14.694	1.7273	0.	1.4402e-002
10788	14.602	1.8182	0.	1.3608e-002
10789	14.694	1.8182	5.e-002	-7.3388e-006
10790	14.694	1.5455	0.	1.5291e-002
10791	14.602	1.6364	0.	1.4495e-002
10792	14.694	1.6364	5.e-002	-7.1722e-006
10793	14.694	1.3636	0.	1.5705e-002
10794	14.602	1.4545	0.	1.5046e-002
10795	14.694	1.4545	5.e-002	-6.3611e-006
10796	14.694	1.1818	0.	1.5161e-002
10797	14.602	1.2727	0.	1.494e-002
10798	14.694	1.2727	5.e-002	-6.1286e-006
10799	14.694	1.	0.	1.3312e-002
10800	14.602	1.0909	0.	1.359e-002
10801	14.694	1.0909	5.e-002	-5.0087e-006
10802	14.694	0.81818	0.	8.4033e-003
10803	14.602	0.90909	0.	1.0901e-002
10804	14.694	0.90909	5.e-002	-4.3413e-006
10805	14.694	0.63636	0.	2.636e-003
10806	14.602	0.72727	0.	3.6234e-003
10807	14.694	0.72727	5.e-002	-4.2273e-006
10808	14.694	0.45455	0.	-2.7708e-002
10809	14.602	0.54545	0.	-1.0368e-003
10810	14.694	0.54545	5.e-002	-3.3834e-006
10811	14.694	0.27273	0.	-4.6399e-002
10812	14.602	0.36364	0.	-5.4933e-002
10813	14.694	0.36364	5.e-002	6.8085e-007
10814	14.602	0.18182	0.	-3.0317e-002
10815	14.694	0.18182	5.e-002	2.0751e-005
10816	14.694	9.0909e-002	0.	-7.8647e-003
10817	14.51	5.7273	0.	-4.0472e-002
10818	14.418	5.8182	0.	-2.3226e-002
10819	14.51	5.8182	5.e-002	-9.0234e-006
10820	14.51	5.9091	0.	-7.5116e-003
10821	14.51	5.5455	0.	-2.5632e-002
10822	14.418	5.6364	0.	-4.9259e-002
10823	14.51	5.6364	5.e-002	3.289e-006
10824	14.51	5.3636	0.	1.2376e-003
10825	14.418	5.4545	0.	-2.1318e-003
10826	14.51	5.4545	5.e-002	4.2861e-006
10827	14.51	5.1818	0.	6.7781e-003
10828	14.418	5.2727	0.	2.3653e-003
10829	14.51	5.2727	5.e-002	2.506e-006
10830	14.51	5.	0.	1.1536e-002
10831	14.418	5.0909	0.	9.1799e-003
10832	14.51	5.0909	5.e-002	3.5013e-006
10833	14.51	4.8182	0.	1.3558e-002
10834	14.418	4.9091	0.	1.1938e-002
10835	14.51	4.9091	5.e-002	2.6218e-006
10836	14.51	4.6364	0.	1.4368e-002
10837	14.418	4.7273	0.	1.3466e-002
10838	14.51	4.7273	5.e-002	1.8021e-006
10839	14.51	4.4545	0.	1.4269e-002
10840	14.418	4.5455	0.	1.3841e-002
10841	14.51	4.5455	5.e-002	2.4207e-006
10842	14.51	4.2727	0.	1.3676e-002
10843	14.418	4.3636	0.	1.3574e-002
10844	14.51	4.3636	5.e-002	7.469e-007
10845	14.51	4.0909	0.	1.2866e-002
10846	14.418	4.1818	0.	1.294e-002
10847	14.51	4.1818	5.e-002	6.9455e-007
10848	14.51	3.9091	0.	1.2057e-002
10849	14.418	4.	0.	1.2181e-002
10850	14.51	4.	5.e-002	9.4864e-007
10851	14.51	3.7273	0.	1.139e-002
10852	14.418	3.8182	0.	1.1466e-002
10853	14.51	3.8182	5.e-002	1.1155e-008
10854	14.51	3.5455	0.	1.0931e-002
10855	14.418	3.6364	0.	1.0899e-002
10856	14.51	3.6364	5.e-002	1.6167e-006
10857	14.51	3.3636	0.	1.0668e-002
10858	14.418	3.4545	0.	1.0515e-002
10859	14.51	3.4545	5.e-002	-1.9933e-007
10860	14.51	3.1818	0.	1.0549e-002
10861	14.418	3.2727	0.	1.0296e-002
10862	14.51	3.2727	5.e-002	-2.0033e-006
10863	14.51	3.	0.	1.0517e-002
10864	14.418	3.0909	0.	1.0202e-002
10865	14.51	3.0909	5.e-002	-2.8985e-006
10866	14.51	2.8182	0.	1.0549e-002
10867	14.418	2.9091	0.	1.0202e-002
10868	14.51	2.9091	5.e-002	-3.2897e-006
10869	14.51	2.6364	0.	1.0668e-002
10870	14.418	2.7273	0.	1.0296e-002
10871	14.51	2.7273	5.e-002	-4.583e-006
10872	14.51	2.4545	0.	1.093e-002
10873	14.418	2.5455	0.	1.0514e-002
10874	14.51	2.5455	5.e-002	-5.3057e-006
10875	14.51	2.2727	0.	1.139e-002
10876	14.418	2.3636	0.	1.0899e-002
10877	14.51	2.3636	5.e-002	-6.0635e-006
10878	14.51	2.0909	0.	1.2057e-002
10879	14.418	2.1818	0.	1.1466e-002
10880	14.51	2.1818	5.e-002	-7.7106e-006
10881	14.51	1.9091	0.	1.2866e-002
10882	14.418	2.	0.	1.2182e-002
10883	14.51	2.	5.e-002	-7.4538e-006
10884	14.51	1.7273	0.	1.3677e-002
10885	14.418	1.8182	0.	1.294e-002
10886	14.51	1.8182	5.e-002	-6.3969e-006
10887	14.51	1.5455	0.	1.4269e-002
10888	14.418	1.6364	0.	1.3575e-002
10889	14.51	1.6364	5.e-002	-6.5159e-006
10890	14.51	1.3636	0.	1.4369e-002
10891	14.418	1.4545	0.	1.3841e-002
10892	14.51	1.4545	5.e-002	-6.4712e-006
10893	14.51	1.1818	0.	1.356e-002
10894	14.418	1.2727	0.	1.3467e-002
10895	14.51	1.2727	5.e-002	-5.0952e-006
10896	14.51	1.	0.	1.1537e-002
10897	14.418	1.0909	0.	1.1939e-002
10898	14.51	1.0909	5.e-002	-4.175e-006
10899	14.51	0.81818	0.	6.7794e-003
10900	14.418	0.90909	0.	9.1817e-003
10901	14.51	0.90909	5.e-002	-5.5099e-006
10902	14.51	0.63636	0.	1.2379e-003
10903	14.418	0.72727	0.	2.367e-003
10904	14.51	0.72727	5.e-002	-6.3189e-006
10905	14.51	0.45455	0.	-2.5633e-002
10906	14.418	0.54545	0.	-2.1329e-003
10907	14.51	0.54545	5.e-002	-4.1939e-006
10908	14.51	0.27273	0.	-4.0471e-002
10909	14.418	0.36364	0.	-4.926e-002
10910	14.51	0.36364	5.e-002	-7.0713e-007
10911	14.418	0.18182	0.	-2.3225e-002
10912	14.51	0.18182	5.e-002	2.2159e-005
10913	14.51	9.0909e-002	0.	-7.5106e-003
10914	14.327	5.7273	0.	-3.5262e-002
10915	14.235	5.8182	0.	-1.7636e-002
10916	14.327	5.8182	5.e-002	-2.4226e-005
10917	14.327	5.9091	0.	-7.1682e-003
10918	14.327	5.5455	0.	-2.3668e-002
10919	14.235	5.6364	0.	-4.4164e-002
10920	14.327	5.6364	5.e-002	3.1861e-006
10921	14.327	5.3636	0.	8.4347e-005
10922	14.235	5.4545	0.	-2.9739e-003
10923	14.327	5.4545	5.e-002	4.7941e-006
10924	14.327	5.1818	0.	5.3366e-003
10925	14.235	5.2727	0.	1.291e-003
10926	14.327	5.2727	5.e-002	2.2552e-006
10927	14.327	5.	0.	9.8965e-003
10928	14.235	5.0909	0.	7.633e-003
10929	14.327	5.0909	5.e-002	3.0518e-006
10930	14.327	4.8182	0.	1.2018e-002
10931	14.235	4.9091	0.	1.0398e-002
10932	14.327	4.9091	5.e-002	3.1611e-006
10933	14.327	4.6364	0.	1.3023e-002
10934	14.235	4.7273	0.	1.2041e-002
10935	14.327	4.7273	5.e-002	1.4629e-006
10936	14.327	4.4545	0.	1.3172e-002
10937	14.235	4.5455	0.	1.2622e-002
10938	14.327	4.5455	5.e-002	3.1698e-006
10939	14.327	4.2727	0.	1.2826e-002
10940	14.235	4.3636	0.	1.2586e-002
10941	14.327	4.3636	5.e-002	1.5425e-006
10942	14.327	4.0909	0.	1.2223e-002
10943	14.235	4.1818	0.	1.2169e-002
10944	14.327	4.1818	5.e-002	9.5074e-007
10945	14.327	3.9091	0.	1.1551e-002
10946	14.235	4.	0.	1.1581e-002
10947	14.327	4.	5.e-002	-5.12e-007
10948	14.327	3.7273	0.	1.0941e-002
10949	14.235	3.8182	0.	1.0973e-002
10950	14.327	3.8182	5.e-002	8.2992e-008
10951	14.327	3.5455	0.	1.0466e-002
10952	14.235	3.6364	0.	1.0443e-002
10953	14.327	3.6364	5.e-002	1.6274e-006
10954	14.327	3.3636	0.	1.0147e-002
10955	14.235	3.4545	0.	1.0045e-002
10956	14.327	3.4545	5.e-002	2.575e-007
10957	14.327	3.1818	0.	9.9703e-003
10958	14.235	3.2727	0.	9.789e-003
10959	14.327	3.2727	5.e-002	-1.0689e-006
10960	14.327	3.	0.	9.915e-003
10961	14.235	3.0909	0.	9.6659e-003
10962	14.327	3.0909	5.e-002	-1.9517e-006
10963	14.327	2.8182	0.	9.9705e-003
10964	14.235	2.9091	0.	9.6661e-003
10965	14.327	2.9091	5.e-002	-3.7647e-006
10966	14.327	2.6364	0.	1.0146e-002
10967	14.235	2.7273	0.	9.7889e-003
10968	14.327	2.7273	5.e-002	-3.649e-006
10969	14.327	2.4545	0.	1.0466e-002
10970	14.235	2.5455	0.	1.0045e-002
10971	14.327	2.5455	5.e-002	-4.3955e-006
10972	14.327	2.2727	0.	1.0941e-002
10973	14.235	2.3636	0.	1.0444e-002
10974	14.327	2.3636	5.e-002	-5.2059e-006
10975	14.327	2.0909	0.	1.1551e-002
10976	14.235	2.1818	0.	1.0972e-002
10977	14.327	2.1818	5.e-002	-6.404e-006
10978	14.327	1.9091	0.	1.2223e-002
10979	14.235	2.	0.	1.1582e-002
10980	14.327	2.	5.e-002	-6.3268e-006
10981	14.327	1.7273	0.	1.2827e-002
10982	14.235	1.8182	0.	1.217e-002
10983	14.327	1.8182	5.e-002	-5.3803e-006
10984	14.327	1.5455	0.	1.3173e-002
10985	14.235	1.6364	0.	1.2586e-002
10986	14.327	1.6364	5.e-002	-5.1066e-006
10987	14.327	1.3636	0.	1.3023e-002
10988	14.235	1.4545	0.	1.2622e-002
10989	14.327	1.4545	5.e-002	-4.8748e-006
10990	14.327	1.1818	0.	1.2018e-002
10991	14.235	1.2727	0.	1.2041e-002
10992	14.327	1.2727	5.e-002	-4.3511e-006
10993	14.327	1.	0.	9.8979e-003
10994	14.235	1.0909	0.	1.0398e-002
10995	14.327	1.0909	5.e-002	-4.1968e-006
10996	14.327	0.81818	0.	5.3388e-003
10997	14.235	0.90909	0.	7.6347e-003
10998	14.327	0.90909	5.e-002	-4.1652e-006
10999	14.327	0.63636	0.	8.4726e-005
11000	14.235	0.72727	0.	1.2926e-003
11001	14.327	0.72727	5.e-002	-3.6909e-006
11002	14.327	0.45455	0.	-2.3669e-002
11003	14.235	0.54545	0.	-2.9746e-003
11004	14.327	0.54545	5.e-002	-3.3976e-006
11005	14.327	0.27273	0.	-3.5262e-002
11006	14.235	0.36364	0.	-4.4165e-002
11007	14.327	0.36364	5.e-002	-8.9196e-007
11008	14.235	0.18182	0.	-1.7635e-002
11009	14.327	0.18182	5.e-002	2.5714e-005
11010	14.327	9.0909e-002	0.	-7.1673e-003
11011	14.143	5.7273	0.	-3.0732e-002
11012	14.051	5.8182	0.	-1.3289e-002
11013	14.143	5.8182	5.e-002	-1.1026e-005
11014	14.143	5.9091	0.	-6.8338e-003
11015	14.143	5.5455	0.	-2.1825e-002
11016	14.051	5.6364	0.	-3.9608e-002
11017	14.143	5.6364	5.e-002	4.2326e-006
11018	14.143	5.3636	0.	-8.5037e-004
11019	14.051	5.4545	0.	-3.6051e-003
11020	14.143	5.4545	5.e-002	5.1066e-006
11021	14.143	5.1818	0.	4.0801e-003
11022	14.051	5.2727	0.	3.8945e-004
11023	14.143	5.2727	5.e-002	3.4383e-006
11024	14.143	5.	0.	8.4118e-003
11025	14.051	5.0909	0.	6.2642e-003
11026	14.143	5.0909	5.e-002	3.654e-006
11027	14.143	4.8182	0.	1.0576e-002
11028	14.051	4.9091	0.	8.9916e-003
11029	14.143	4.9091	5.e-002	2.6819e-006
11030	14.143	4.6364	0.	1.172e-002
11031	14.051	4.7273	0.	1.0701e-002
11032	14.143	4.7273	5.e-002	2.0275e-006
11033	14.143	4.4545	0.	1.2066e-002
11034	14.051	4.5455	0.	1.1439e-002
11035	14.143	4.5455	5.e-002	2.8023e-006
11036	14.143	4.2727	0.	1.1927e-002
11037	14.051	4.3636	0.	1.1591e-002
11038	14.143	4.3636	5.e-002	1.2492e-006
11039	14.143	4.0909	0.	1.1509e-002
11040	14.051	4.1818	0.	1.1361e-002
11041	14.143	4.1818	5.e-002	1.6331e-006
11042	14.143	3.9091	0.	1.0977e-002
11043	14.051	4.	0.	1.0933e-002
11044	14.143	4.	5.e-002	1.1456e-006
11045	14.143	3.7273	0.	1.0451e-002
11046	14.051	3.8182	0.	1.044e-002
11047	14.143	3.8182	5.e-002	1.1618e-006
11048	14.143	3.5455	0.	1.0008e-002
11049	14.051	3.6364	0.	9.9788e-003
11050	14.143	3.6364	5.e-002	2.6522e-006
11051	14.143	3.3636	0.	9.6853e-003
11052	14.051	3.4545	0.	9.607e-003
11053	14.143	3.4545	5.e-002	8.1392e-007
11054	14.143	3.1818	0.	9.4934e-003
11055	14.051	3.2727	0.	9.3537e-003
11056	14.143	3.2727	5.e-002	-1.5235e-006
11057	14.143	3.	0.	9.4299e-003
11058	14.051	3.0909	0.	9.2256e-003
11059	14.143	3.0909	5.e-002	-1.4671e-006
11060	14.143	2.8182	0.	9.4933e-003
11061	14.051	2.9091	0.	9.2257e-003
11062	14.143	2.9091	5.e-002	-9.1424e-007
11063	14.143	2.6364	0.	9.6858e-003
11064	14.051	2.7273	0.	9.3537e-003
11065	14.143	2.7273	5.e-002	-2.2441e-006
11066	14.143	2.4545	0.	1.0008e-002
11067	14.051	2.5455	0.	9.6072e-003
11068	14.143	2.5455	5.e-002	-3.1075e-006
11069	14.143	2.2727	0.	1.0451e-002
11070	14.051	2.3636	0.	9.9786e-003
11071	14.143	2.3636	5.e-002	-3.4481e-006
11072	14.143	2.0909	0.	1.0977e-002
11073	14.051	2.1818	0.	1.044e-002
11074	14.143	2.1818	5.e-002	-3.3845e-006
11075	14.143	1.9091	0.	1.151e-002
11076	14.051	2.	0.	1.0933e-002
11077	14.143	2.	5.e-002	-3.848e-006
11078	14.143	1.7273	0.	1.1928e-002
11079	14.051	1.8182	0.	1.1362e-002
11080	14.143	1.8182	5.e-002	-3.8408e-006
11081	14.143	1.5455	0.	1.2067e-002
11082	14.051	1.6364	0.	1.1591e-002
11083	14.143	1.6364	5.e-002	-3.9792e-006
11084	14.143	1.3636	0.	1.172e-002
11085	14.051	1.4545	0.	1.144e-002
11086	14.143	1.4545	5.e-002	-2.7616e-006
11087	14.143	1.1818	0.	1.0576e-002
11088	14.051	1.2727	0.	1.0702e-002
11089	14.143	1.2727	5.e-002	-2.0994e-006
11090	14.143	1.	0.	8.4122e-003
11091	14.051	1.0909	0.	8.9911e-003
11092	14.143	1.0909	5.e-002	-1.8543e-006
11093	14.143	0.81818	0.	4.0812e-003
11094	14.051	0.90909	0.	6.2659e-003
11095	14.143	0.90909	5.e-002	-2.0778e-006
11096	14.143	0.63636	0.	-8.4983e-004
11097	14.051	0.72727	0.	3.9108e-004
11098	14.143	0.72727	5.e-002	-1.1805e-006
11099	14.143	0.45455	0.	-2.1826e-002
11100	14.051	0.54545	0.	-3.6051e-003
11101	14.143	0.54545	5.e-002	-1.3418e-006
11102	14.143	0.27273	0.	-3.0732e-002
11103	14.051	0.36364	0.	-3.9608e-002
11104	14.143	0.36364	5.e-002	2.8006e-007
11105	14.051	0.18182	0.	-1.3288e-002
11106	14.143	0.18182	5.e-002	2.8439e-005
11107	14.143	9.0909e-002	0.	-6.8334e-003
11108	13.959	5.7273	0.	-2.6821e-002
11109	13.867	5.8182	0.	-9.9414e-003
11110	13.959	5.8182	5.e-002	-2.8389e-005
11111	13.959	5.9091	0.	-6.5039e-003
11112	13.959	5.5455	0.	-2.0108e-002
11113	13.867	5.6364	0.	-3.5532e-002
11114	13.959	5.6364	5.e-002	2.6068e-006
11115	13.959	5.3636	0.	-1.596e-003
11116	13.867	5.4545	0.	-4.0543e-003
11117	13.959	5.4545	5.e-002	4.5898e-006
11118	13.959	5.1818	0.	2.9992e-003
11119	13.867	5.2727	0.	-3.478e-004
11120	13.959	5.2727	5.e-002	2.9837e-006
11121	13.959	5.	0.	7.0891e-003
11122	13.867	5.0909	0.	5.0758e-003
11123	13.959	5.0909	5.e-002	2.675e-006
11124	13.959	4.8182	0.	9.2574e-003
11125	13.867	4.9091	0.	7.7344e-003
11126	13.959	4.9091	5.e-002	2.6287e-006
11127	13.959	4.6364	0.	1.0496e-002
11128	13.867	4.7273	0.	9.475e-003
11129	13.959	4.7273	5.e-002	1.0757e-006
11130	13.959	4.4545	0.	1.0998e-002
11131	13.867	4.5455	0.	1.033e-002
11132	13.959	4.5455	5.e-002	2.4111e-006
11133	13.959	4.2727	0.	1.1031e-002
11134	13.867	4.3636	0.	1.0634e-002
11135	13.959	4.3636	5.e-002	8.9855e-007
11136	13.959	4.0909	0.	1.0776e-002
11137	13.867	4.1818	0.	1.0564e-002
11138	13.959	4.1818	5.e-002	3.1363e-007
11139	13.959	3.9091	0.	1.0381e-002
11140	13.867	4.	0.	1.0282e-002
11141	13.959	4.	5.e-002	1.2315e-006
11142	13.959	3.7273	0.	9.952e-003
11143	13.867	3.8182	0.	9.9058e-003
11144	13.959	3.8182	5.e-002	7.7563e-007
11145	13.959	3.5455	0.	9.5666e-003
11146	13.867	3.6364	0.	9.5264e-003
11147	13.959	3.6364	5.e-002	2.2447e-006
11148	13.959	3.3636	0.	9.2553e-003
11149	13.867	3.4545	0.	9.2042e-003
11150	13.959	3.4545	5.e-002	3.435e-007
11151	13.959	3.1818	0.	9.0881e-003
11152	13.867	3.2727	0.	8.9746e-003
11153	13.959	3.2727	5.e-002	-5.4764e-007
11154	13.959	3.	0.	9.026e-003
11155	13.867	3.0909	0.	8.8566e-003
11156	13.959	3.0909	5.e-002	-2.7714e-008
11157	13.959	2.8182	0.	9.0884e-003
11158	13.867	2.9091	0.	8.8563e-003
11159	13.959	2.9091	5.e-002	-4.4714e-007
11160	13.959	2.6364	0.	9.2553e-003
11161	13.867	2.7273	0.	8.975e-003
11162	13.959	2.7273	5.e-002	-8.5988e-007
11163	13.959	2.4545	0.	9.5664e-003
11164	13.867	2.5455	0.	9.2041e-003
11165	13.959	2.5455	5.e-002	-1.7456e-006
11166	13.959	2.2727	0.	9.9518e-003
11167	13.867	2.3636	0.	9.5265e-003
11168	13.959	2.3636	5.e-002	-2.148e-006
11169	13.959	2.0909	0.	1.0381e-002
11170	13.867	2.1818	0.	9.9058e-003
11171	13.959	2.1818	5.e-002	-2.5785e-006
11172	13.959	1.9091	0.	1.0777e-002
11173	13.867	2.	0.	1.0282e-002
11174	13.959	2.	5.e-002	-3.5291e-006
11175	13.959	1.7273	0.	1.1031e-002
11176	13.867	1.8182	0.	1.0564e-002
11177	13.959	1.8182	5.e-002	-2.128e-006
11178	13.959	1.5455	0.	1.0998e-002
11179	13.867	1.6364	0.	1.0634e-002
11180	13.959	1.6364	5.e-002	-2.7522e-006
11181	13.959	1.3636	0.	1.0498e-002
11182	13.867	1.4545	0.	1.0331e-002
11183	13.959	1.4545	5.e-002	-1.9571e-006
11184	13.959	1.1818	0.	9.2574e-003
11185	13.867	1.2727	0.	9.4758e-003
11186	13.959	1.2727	5.e-002	-2.1366e-006
11187	13.959	1.	0.	7.0899e-003
11188	13.867	1.0909	0.	7.734e-003
11189	13.959	1.0909	5.e-002	-2.2576e-006
11190	13.959	0.81818	0.	3.0014e-003
11191	13.867	0.90909	0.	5.0782e-003
11192	13.959	0.90909	5.e-002	-1.4907e-006
11193	13.959	0.63636	0.	-1.595e-003
11194	13.867	0.72727	0.	-3.4615e-004
11195	13.959	0.72727	5.e-002	-2.2861e-007
11196	13.959	0.45455	0.	-2.0107e-002
11197	13.867	0.54545	0.	-4.055e-003
11198	13.959	0.54545	5.e-002	-1.0425e-007
11199	13.959	0.27273	0.	-2.682e-002
11200	13.867	0.36364	0.	-3.5532e-002
11201	13.959	0.36364	5.e-002	2.361e-006
11202	13.867	0.18182	0.	-9.9401e-003
11203	13.959	0.18182	5.e-002	3.2695e-005
11204	13.959	9.0909e-002	0.	-6.5028e-003
11205	13.776	5.7273	0.	-2.3443e-002
11206	13.684	5.8182	0.	-7.3783e-003
11207	13.776	5.8182	5.e-002	-2.2465e-005
11208	13.776	5.9091	0.	-6.1647e-003
11209	13.776	5.5455	0.	-1.8496e-002
11210	13.684	5.6364	0.	-3.1873e-002
11211	13.776	5.6364	5.e-002	1.5524e-006
11212	13.776	5.3636	0.	-2.1635e-003
11213	13.684	5.4545	0.	-4.3428e-003
11214	13.776	5.4545	5.e-002	3.2446e-006
11215	13.776	5.1818	0.	2.0957e-003
11216	13.684	5.2727	0.	-9.2681e-004
11217	13.776	5.2727	5.e-002	1.7019e-006
11218	13.776	5.	0.	5.9377e-003
11219	13.684	5.0909	0.	4.0668e-003
11220	13.776	5.0909	5.e-002	2.2465e-006
11221	13.776	4.8182	0.	8.08e-003
11222	13.684	4.9091	0.	6.6351e-003
11223	13.776	4.9091	5.e-002	1.4695e-006
11224	13.776	4.6364	0.	9.3809e-003
11225	13.684	4.7273	0.	8.3798e-003
11226	13.776	4.7273	5.e-002	1.3688e-007
11227	13.776	4.4545	0.	1.0002e-002
11228	13.684	4.5455	0.	9.3199e-003
11229	13.776	4.5455	5.e-002	1.7326e-006
11230	13.776	4.2727	0.	1.018e-002
11231	13.684	4.3636	0.	9.7457e-003
11232	13.776	4.3636	5.e-002	4.6748e-007
11233	13.776	4.0909	0.	1.0068e-002
11234	13.684	4.1818	0.	9.8128e-003
11235	13.776	4.1818	5.e-002	-6.1983e-008
11236	13.776	3.9091	0.	9.799e-003
11237	13.684	4.	0.	9.6608e-003
11238	13.776	4.	5.e-002	3.831e-007
11239	13.776	3.7273	0.	9.4705e-003
11240	13.684	3.8182	0.	9.3961e-003
11241	13.776	3.8182	5.e-002	-1.1297e-007
11242	13.776	3.5455	0.	9.1564e-003
11243	13.684	3.6364	0.	9.1028e-003
11244	13.776	3.6364	5.e-002	3.7754e-007
11245	13.776	3.3636	0.	8.9037e-003
11246	13.684	3.4545	0.	8.8409e-003
11247	13.776	3.4545	5.e-002	3.8677e-007
11248	13.776	3.1818	0.	8.7428e-003
11249	13.684	3.2727	0.	8.6469e-003
11250	13.776	3.2727	5.e-002	-1.0091e-006
11251	13.776	3.	0.	8.6879e-003
11252	13.684	3.0909	0.	8.5451e-003
11253	13.776	3.0909	5.e-002	-4.9724e-007
11254	13.776	2.8182	0.	8.7426e-003
11255	13.684	2.9091	0.	8.5447e-003
11256	13.776	2.9091	5.e-002	-4.5543e-007
11257	13.776	2.6364	0.	8.904e-003
11258	13.684	2.7273	0.	8.6473e-003
11259	13.776	2.7273	5.e-002	-8.8707e-007
11260	13.776	2.4545	0.	9.1565e-003
11261	13.684	2.5455	0.	8.8412e-003
11262	13.776	2.5455	5.e-002	-1.7899e-006
11263	13.776	2.2727	0.	9.4709e-003
11264	13.684	2.3636	0.	9.1036e-003
11265	13.776	2.3636	5.e-002	-2.2288e-006
11266	13.776	2.0909	0.	9.7991e-003
11267	13.684	2.1818	0.	9.3966e-003
11268	13.776	2.1818	5.e-002	-2.2348e-006
11269	13.776	1.9091	0.	1.0069e-002
11270	13.684	2.	0.	9.6609e-003
11271	13.776	2.	5.e-002	-2.6941e-006
11272	13.776	1.7273	0.	1.018e-002
11273	13.684	1.8182	0.	9.8131e-003
11274	13.776	1.8182	5.e-002	-3.2204e-006
11275	13.776	1.5455	0.	1.0003e-002
11276	13.684	1.6364	0.	9.7462e-003
11277	13.776	1.6364	5.e-002	-2.1308e-006
11278	13.776	1.3636	0.	9.3815e-003
11279	13.684	1.4545	0.	9.3204e-003
11280	13.776	1.4545	5.e-002	-2.0258e-006
11281	13.776	1.1818	0.	8.0804e-003
11282	13.684	1.2727	0.	8.3804e-003
11283	13.776	1.2727	5.e-002	-2.142e-006
11284	13.776	1.	0.	5.9389e-003
11285	13.684	1.0909	0.	6.6353e-003
11286	13.776	1.0909	5.e-002	-1.5791e-006
11287	13.776	0.81818	0.	2.0976e-003
11288	13.684	0.90909	0.	4.0686e-003
11289	13.776	0.90909	5.e-002	-1.7694e-006
11290	13.776	0.63636	0.	-2.1637e-003
11291	13.684	0.72727	0.	-9.2557e-004
11292	13.776	0.72727	5.e-002	-7.2228e-007
11293	13.776	0.45455	0.	-1.8497e-002
11294	13.684	0.54545	0.	-4.3427e-003
11295	13.776	0.54545	5.e-002	7.531e-007
11296	13.776	0.27273	0.	-2.3442e-002
11297	13.684	0.36364	0.	-3.1873e-002
11298	13.776	0.36364	5.e-002	1.4127e-006
11299	13.684	0.18182	0.	-7.3771e-003
11300	13.776	0.18182	5.e-002	3.2343e-005
11301	13.776	9.0909e-002	0.	-6.1638e-003
11302	13.592	5.7273	0.	-2.0516e-002
11303	13.5	5.8182	0.	-5.4417e-003
11304	13.592	5.8182	5.e-002	-3.2736e-005
11305	13.592	5.9091	0.	-5.8088e-003
11306	13.592	5.5455	0.	-1.6978e-002
11307	13.5	5.6364	0.	-2.8588e-002
11308	13.592	5.6364	5.e-002	1.7511e-006
11309	13.592	5.3636	0.	-2.5723e-003
11310	13.5	5.4545	0.	-4.5099e-003
11311	13.592	5.4545	5.e-002	3.4421e-006
11312	13.592	5.1818	0.	1.3597e-003
11313	13.5	5.2727	0.	-1.3777e-003
11314	13.592	5.2727	5.e-002	1.4406e-006
11315	13.592	5.	0.	4.9553e-003
11316	13.5	5.0909	0.	3.2099e-003
11317	13.592	5.0909	5.e-002	1.8726e-006
11318	13.592	4.8182	0.	7.0511e-003
11319	13.5	4.9091	0.	5.6746e-003
11320	13.592	4.9091	5.e-002	1.1222e-006
11321	13.592	4.6364	0.	8.3876e-003
11322	13.5	4.7273	0.	7.4029e-003
11323	13.592	4.7273	5.e-002	-3.1729e-007
11324	13.592	4.4545	0.	9.1011e-003
11325	13.5	4.5455	0.	8.4037e-003
11326	13.592	4.5455	5.e-002	1.3114e-006
11327	13.592	4.2727	0.	9.3968e-003
11328	13.5	4.3636	0.	8.9266e-003
11329	13.592	4.3636	5.e-002	-6.8325e-007
11330	13.592	4.0909	0.	9.4106e-003
11331	13.5	4.1818	0.	9.1087e-003
11332	13.592	4.1818	5.e-002	-2.1928e-008
11333	13.592	3.9091	0.	9.2562e-003
11334	13.5	4.	0.	9.0711e-003
11335	13.592	4.	5.e-002	-5.1586e-008
11336	13.592	3.7273	0.	9.0242e-003
11337	13.5	3.8182	0.	8.9097e-003
11338	13.592	3.8182	5.e-002	-8.0868e-008
11339	13.592	3.5455	0.	8.7834e-003
11340	13.5	3.6364	0.	8.7002e-003
11341	13.592	3.6364	5.e-002	3.9875e-007
11342	13.592	3.3636	0.	8.5819e-003
11343	13.5	3.4545	0.	8.5007e-003
11344	13.592	3.4545	5.e-002	6.5176e-007
11345	13.592	3.1818	0.	8.4488e-003
11346	13.5	3.2727	0.	8.347e-003
11347	13.592	3.2727	5.e-002	-9.9603e-007
11348	13.592	3.	0.	8.4021e-003
11349	13.5	3.0909	0.	8.264e-003
11350	13.592	3.0909	5.e-002	-7.3096e-007
11351	13.592	2.8182	0.	8.4489e-003
11352	13.5	2.9091	0.	8.2639e-003
11353	13.592	2.9091	5.e-002	-9.3726e-007
11354	13.592	2.6364	0.	8.5822e-003
11355	13.5	2.7273	0.	8.3473e-003
11356	13.592	2.7273	5.e-002	-4.269e-007
11357	13.592	2.4545	0.	8.7842e-003
11358	13.5	2.5455	0.	8.5012e-003
11359	13.592	2.5455	5.e-002	-1.5864e-006
11360	13.592	2.2727	0.	9.025e-003
11361	13.5	2.3636	0.	8.7008e-003
11362	13.592	2.3636	5.e-002	-1.8069e-006
11363	13.592	2.0909	0.	9.2567e-003
11364	13.5	2.1818	0.	8.91e-003
11365	13.592	2.1818	5.e-002	-1.5664e-006
11366	13.592	1.9091	0.	9.4107e-003
11367	13.5	2.	0.	9.0712e-003
11368	13.592	2.	5.e-002	-1.8179e-006
11369	13.592	1.7273	0.	9.3972e-003
11370	13.5	1.8182	0.	9.1088e-003
11371	13.592	1.8182	5.e-002	-1.6353e-006
11372	13.592	1.5455	0.	9.1019e-003
11373	13.5	1.6364	0.	8.9272e-003
11374	13.592	1.6364	5.e-002	-1.7198e-006
11375	13.592	1.3636	0.	8.3882e-003
11376	13.5	1.4545	0.	8.4045e-003
11377	13.592	1.4545	5.e-002	-1.3512e-006
11378	13.592	1.1818	0.	7.0515e-003
11379	13.5	1.2727	0.	7.4035e-003
11380	13.592	1.2727	5.e-002	-1.2216e-006
11381	13.592	1.	0.	4.9561e-003
11382	13.5	1.0909	0.	5.6749e-003
11383	13.592	1.0909	5.e-002	-8.4059e-007
11384	13.592	0.81818	0.	1.3609e-003
11385	13.5	0.90909	0.	3.2112e-003
11386	13.592	0.90909	5.e-002	-8.336e-007
11387	13.592	0.63636	0.	-2.5707e-003
11388	13.5	0.72727	0.	-1.3765e-003
11389	13.592	0.72727	5.e-002	-2.8346e-007
11390	13.592	0.45455	0.	-1.6976e-002
11391	13.5	0.54545	0.	-4.5088e-003
11392	13.592	0.54545	5.e-002	1.3102e-006
11393	13.592	0.27273	0.	-2.0515e-002
11394	13.5	0.36364	0.	-2.8588e-002
11395	13.592	0.36364	5.e-002	1.6272e-006
11396	13.5	0.18182	0.	-5.4412e-003
11397	13.592	0.18182	5.e-002	2.6345e-005
11398	13.592	9.0909e-002	0.	-5.8079e-003
11399	13.408	5.7273	0.	-1.8001e-002
11400	13.316	5.8182	0.	-4.0108e-003
11401	13.408	5.8182	5.e-002	-1.4644e-005
11402	13.408	5.9091	0.	-5.4664e-003
11403	13.408	5.5455	0.	-1.5571e-002
11404	13.316	5.6364	0.	-2.5642e-002
11405	13.408	5.6364	5.e-002	2.1924e-006
11406	13.408	5.3636	0.	-2.8748e-003
11407	13.316	5.4545	0.	-4.5923e-003
11408	13.408	5.4545	5.e-002	3.4848e-006
11409	13.408	5.1818	0.	7.4248e-004
11410	13.316	5.2727	0.	-1.7327e-003
11411	13.408	5.2727	5.e-002	1.2559e-006
11412	13.408	5.	0.	4.0974e-003
11413	13.316	5.0909	0.	2.4731e-003
11414	13.408	5.0909	5.e-002	1.3616e-006
11415	13.408	4.8182	0.	6.1317e-003
11416	13.316	4.9091	0.	4.8253e-003
11417	13.408	4.9091	5.e-002	1.0953e-006
11418	13.408	4.6364	0.	7.4838e-003
11419	13.316	4.7273	0.	6.5233e-003
11420	13.408	4.7273	5.e-002	-3.3724e-007
11421	13.408	4.4545	0.	8.2676e-003
11422	13.316	4.5455	0.	7.5638e-003
11423	13.408	4.5455	5.e-002	8.3403e-007
11424	13.408	4.2727	0.	8.6593e-003
11425	13.316	4.3636	0.	8.1631e-003
11426	13.408	4.3636	5.e-002	-4.2993e-007
11427	13.408	4.0909	0.	8.7789e-003
11428	13.316	4.1818	0.	8.4405e-003
11429	13.408	4.1818	5.e-002	-4.6255e-007
11430	13.408	3.9091	0.	8.7279e-003
11431	13.316	4.	0.	8.5026e-003
11432	13.408	4.	5.e-002	-4.931e-007
11433	13.408	3.7273	0.	8.586e-003
11434	13.316	3.8182	0.	8.4337e-003
11435	13.408	3.8182	5.e-002	-5.1025e-007
11436	13.408	3.5455	0.	8.417e-003
11437	13.316	3.6364	0.	8.3033e-003
11438	13.408	3.6364	5.e-002	6.7583e-007
11439	13.408	3.3636	0.	8.2657e-003
11440	13.316	3.4545	0.	8.1639e-003
11441	13.408	3.4545	5.e-002	6.7821e-007
11442	13.408	3.1818	0.	8.1629e-003
11443	13.316	3.2727	0.	8.05e-003
11444	13.408	3.2727	5.e-002	-5.0161e-007
11445	13.408	3.	0.	8.1268e-003
11446	13.316	3.0909	0.	7.9873e-003
11447	13.408	3.0909	5.e-002	-2.4816e-007
11448	13.408	2.8182	0.	8.1629e-003
11449	13.316	2.9091	0.	7.9872e-003
11450	13.408	2.9091	5.e-002	2.484e-007
11451	13.408	2.6364	0.	8.2662e-003
11452	13.316	2.7273	0.	8.0503e-003
11453	13.408	2.7273	5.e-002	3.013e-008
11454	13.408	2.4545	0.	8.4172e-003
11455	13.316	2.5455	0.	8.1639e-003
11456	13.408	2.5455	5.e-002	-6.7185e-007
11457	13.408	2.2727	0.	8.586e-003
11458	13.316	2.3636	0.	8.3031e-003
11459	13.408	2.3636	5.e-002	-6.586e-007
11460	13.408	2.0909	0.	8.7278e-003
11461	13.316	2.1818	0.	8.4343e-003
11462	13.408	2.1818	5.e-002	-9.0513e-007
11463	13.408	1.9091	0.	8.7791e-003
11464	13.316	2.	0.	8.5029e-003
11465	13.408	2.	5.e-002	-1.1651e-006
11466	13.408	1.7273	0.	8.6597e-003
11467	13.316	1.8182	0.	8.441e-003
11468	13.408	1.8182	5.e-002	-7.3385e-007
11469	13.408	1.5455	0.	8.2681e-003
11470	13.316	1.6364	0.	8.1639e-003
11471	13.408	1.6364	5.e-002	-7.9819e-007
11472	13.408	1.3636	0.	7.4846e-003
11473	13.316	1.4545	0.	7.5646e-003
11474	13.408	1.4545	5.e-002	-4.0008e-007
11475	13.408	1.1818	0.	6.1321e-003
11476	13.316	1.2727	0.	6.5238e-003
11477	13.408	1.2727	5.e-002	-2.9086e-007
11478	13.408	1.	0.	4.0981e-003
11479	13.316	1.0909	0.	4.8257e-003
11480	13.408	1.0909	5.e-002	4.1067e-007
11481	13.408	0.81818	0.	7.4384e-004
11482	13.316	0.90909	0.	2.4748e-003
11483	13.408	0.90909	5.e-002	7.3403e-007
11484	13.408	0.63636	0.	-2.8741e-003
11485	13.316	0.72727	0.	-1.7316e-003
11486	13.408	0.72727	5.e-002	3.8726e-007
11487	13.408	0.45455	0.	-1.5571e-002
11488	13.316	0.54545	0.	-4.5923e-003
11489	13.408	0.54545	5.e-002	1.0072e-007
11490	13.408	0.27273	0.	-1.8002e-002
11491	13.316	0.36364	0.	-2.5642e-002
11492	13.408	0.36364	5.e-002	4.5055e-007
11493	13.316	0.18182	0.	-4.0107e-003
11494	13.408	0.18182	5.e-002	2.5058e-005
11495	13.408	9.0909e-002	0.	-5.4659e-003
11496	13.224	5.7273	0.	-1.5838e-002
11497	13.133	5.8182	0.	-2.9611e-003
11498	13.224	5.8182	5.e-002	-3.2446e-005
11499	13.224	5.9091	0.	-5.1384e-003
11500	13.224	5.5455	0.	-1.4269e-002
11501	13.133	5.6364	0.	-2.297e-002
11502	13.224	5.6364	5.e-002	2.8494e-006
11503	13.224	5.3636	0.	-3.0901e-003
11504	13.133	5.4545	0.	-4.5931e-003
11505	13.224	5.4545	5.e-002	4.2309e-006
11506	13.224	5.1818	0.	2.2731e-004
11507	13.133	5.2727	0.	-1.9906e-003
11508	13.224	5.2727	5.e-002	1.9615e-006
11509	13.224	5.	0.	3.3481e-003
11510	13.133	5.0909	0.	1.8564e-003
11511	13.224	5.0909	5.e-002	2.2155e-006
11512	13.224	4.8182	0.	5.3117e-003
11513	13.133	4.9091	0.	4.0913e-003
11514	13.224	4.9091	5.e-002	1.3235e-006
11515	13.224	4.6364	0.	6.6639e-003
11516	13.133	4.7273	0.	5.7474e-003
11517	13.224	4.7273	5.e-002	6.2811e-007
11518	13.224	4.4545	0.	7.4973e-003
11519	13.133	4.5455	0.	6.8114e-003
11520	13.224	4.5455	5.e-002	1.5333e-006
11521	13.224	4.2727	0.	7.9671e-003
11522	13.133	4.3636	0.	7.47e-003
11523	13.224	4.3636	5.e-002	2.634e-007
11524	13.224	4.0909	0.	8.1772e-003
11525	13.133	4.1818	0.	7.826e-003
11526	13.224	4.1818	5.e-002	2.6436e-007
11527	13.224	3.9091	0.	8.2156e-003
11528	13.133	4.	0.	7.9731e-003
11529	13.224	4.	5.e-002	4.8199e-007
11530	13.224	3.7273	0.	8.1549e-003
11531	13.133	3.8182	0.	7.9854e-003
11532	13.224	3.8182	5.e-002	2.2917e-007
11533	13.224	3.5455	0.	8.0528e-003
11534	13.133	3.6364	0.	7.9262e-003
11535	13.224	3.6364	5.e-002	1.6524e-006
11536	13.224	3.3636	0.	7.9506e-003
11537	13.133	3.4545	0.	7.8427e-003
11538	13.224	3.4545	5.e-002	1.4124e-006
11539	13.224	3.1818	0.	7.8769e-003
11540	13.133	3.2727	0.	7.767e-003
11541	13.224	3.2727	5.e-002	7.0173e-007
11542	13.224	3.	0.	7.8503e-003
11543	13.133	3.0909	0.	7.7238e-003
11544	13.224	3.0909	5.e-002	4.7165e-007
11545	13.224	2.8182	0.	7.877e-003
11546	13.133	2.9091	0.	7.7233e-003
11547	13.224	2.9091	5.e-002	1.1974e-006
11548	13.224	2.6364	0.	7.9503e-003
11549	13.133	2.7273	0.	7.7672e-003
11550	13.224	2.7273	5.e-002	1.2076e-006
11551	13.224	2.4545	0.	8.0523e-003
11552	13.133	2.5455	0.	7.8424e-003
11553	13.224	2.5455	5.e-002	4.9916e-007
11554	13.224	2.2727	0.	8.1553e-003
11555	13.133	2.3636	0.	7.926e-003
11556	13.224	2.3636	5.e-002	7.4029e-007
11557	13.224	2.0909	0.	8.2165e-003
11558	13.133	2.1818	0.	7.9862e-003
11559	13.224	2.1818	5.e-002	4.908e-007
11560	13.224	1.9091	0.	8.1778e-003
11561	13.133	2.	0.	7.9736e-003
11562	13.224	2.	5.e-002	-8.8255e-009
11563	13.224	1.7273	0.	7.9679e-003
11564	13.133	1.8182	0.	7.8264e-003
11565	13.224	1.8182	5.e-002	6.6752e-007
11566	13.224	1.5455	0.	7.4982e-003
11567	13.133	1.6364	0.	7.4702e-003
11568	13.224	1.6364	5.e-002	6.2806e-007
11569	13.224	1.3636	0.	6.6644e-003
11570	13.133	1.4545	0.	6.8123e-003
11571	13.224	1.4545	5.e-002	1.0171e-006
11572	13.224	1.1818	0.	5.3122e-003
11573	13.133	1.2727	0.	5.7478e-003
11574	13.224	1.2727	5.e-002	1.4411e-006
11575	13.224	1.	0.	3.3495e-003
11576	13.133	1.0909	0.	4.092e-003
11577	13.224	1.0909	5.e-002	1.9311e-006
11578	13.224	0.81818	0.	2.2877e-004
11579	13.133	0.90909	0.	1.8578e-003
11580	13.224	0.90909	5.e-002	2.2638e-006
11581	13.224	0.63636	0.	-3.0898e-003
11582	13.133	0.72727	0.	-1.9891e-003
11583	13.224	0.72727	5.e-002	1.3256e-006
11584	13.224	0.45455	0.	-1.4268e-002
11585	13.133	0.54545	0.	-4.5929e-003
11586	13.224	0.54545	5.e-002	1.2768e-006
11587	13.224	0.27273	0.	-1.5837e-002
11588	13.133	0.36364	0.	-2.297e-002
11589	13.224	0.36364	5.e-002	2.6722e-006
11590	13.133	0.18182	0.	-2.9605e-003
11591	13.224	0.18182	5.e-002	3.6684e-005
11592	13.224	9.0909e-002	0.	-5.1377e-003
11593	13.041	5.7273	0.	-1.3935e-002
11594	12.949	5.8182	0.	-2.1952e-003
11595	13.041	5.8182	5.e-002	-2.3815e-005
11596	13.041	5.9091	0.	-4.7949e-003
11597	13.041	5.5455	0.	-1.3024e-002
11598	12.949	5.6364	0.	-2.0516e-002
11599	13.041	5.6364	5.e-002	2.3609e-006
11600	13.041	5.3636	0.	-3.2029e-003
11601	12.949	5.4545	0.	-4.513e-003
11602	13.041	5.4545	5.e-002	2.9511e-006
11603	13.041	5.1818	0.	-1.6847e-004
11604	12.949	5.2727	0.	-2.1524e-003
11605	13.041	5.2727	5.e-002	1.5863e-006
11606	13.041	5.	0.	2.7271e-003
11607	12.949	5.0909	0.	1.3574e-003
11608	13.041	5.0909	5.e-002	1.3384e-006
11609	13.041	4.8182	0.	4.6115e-003
11610	12.949	4.9091	0.	3.4719e-003
11611	13.041	4.9091	5.e-002	5.5352e-007
11612	13.041	4.6364	0.	5.9509e-003
11613	12.949	4.7273	0.	5.0769e-003
11614	13.041	4.7273	5.e-002	-1.2846e-007
11615	13.041	4.4545	0.	6.8208e-003
11616	12.949	4.5455	0.	6.1517e-003
11617	13.041	4.5455	5.e-002	1.0469e-006
11618	13.041	4.2727	0.	7.3527e-003
11619	12.949	4.3636	0.	6.8552e-003
11620	13.041	4.3636	5.e-002	-4.1243e-007
11621	13.041	4.0909	0.	7.6371e-003
11622	12.949	4.1818	0.	7.2749e-003
11623	13.041	4.1818	5.e-002	-4.3611e-007
11624	13.041	3.9091	0.	7.7528e-003
11625	12.949	4.	0.	7.4943e-003
11626	13.041	4.	5.e-002	-4.5797e-007
11627	13.041	3.7273	0.	7.7635e-003
11628	12.949	3.8182	0.	7.5774e-003
11629	13.041	3.8182	5.e-002	3.7563e-009
11630	13.041	3.5455	0.	7.7214e-003
11631	12.949	3.6364	0.	7.5807e-003
11632	13.041	3.6364	5.e-002	9.4957e-007
11633	13.041	3.3636	0.	7.6638e-003
11634	12.949	3.4545	0.	7.5474e-003
11635	13.041	3.4545	5.e-002	7.0727e-007
11636	13.041	3.1818	0.	7.6185e-003
11637	12.949	3.2727	0.	7.507e-003
11638	13.041	3.2727	5.e-002	-2.4515e-007
11639	13.041	3.	0.	7.6013e-003
11640	12.949	3.0909	0.	7.4818e-003
11641	13.041	3.0909	5.e-002	4.7408e-007
11642	13.041	2.8182	0.	7.6181e-003
11643	12.949	2.9091	0.	7.4815e-003
11644	13.041	2.9091	5.e-002	9.565e-007
11645	13.041	2.6364	0.	7.6641e-003
11646	12.949	2.7273	0.	7.5071e-003
11647	13.041	2.7273	5.e-002	2.4608e-007
11648	13.041	2.4545	0.	7.7215e-003
11649	12.949	2.5455	0.	7.5476e-003
11650	13.041	2.5455	5.e-002	1.0206e-008
11651	13.041	2.2727	0.	7.7639e-003
11652	12.949	2.3636	0.	7.5808e-003
11653	13.041	2.3636	5.e-002	5.6345e-009
11654	13.041	2.0909	0.	7.7533e-003
11655	12.949	2.1818	0.	7.5775e-003
11656	13.041	2.1818	5.e-002	-2.4433e-007
11657	13.041	1.9091	0.	7.6374e-003
11658	12.949	2.	0.	7.4947e-003
11659	13.041	2.	5.e-002	2.1022e-007
11660	13.041	1.7273	0.	7.3524e-003
11661	12.949	1.8182	0.	7.2756e-003
11662	13.041	1.8182	5.e-002	6.5504e-007
11663	13.041	1.5455	0.	6.8209e-003
11664	12.949	1.6364	0.	6.8552e-003
11665	13.041	1.6364	5.e-002	3.9507e-007
11666	13.041	1.3636	0.	5.9516e-003
11667	12.949	1.4545	0.	6.1523e-003
11668	13.041	1.4545	5.e-002	1.046e-006
11669	13.041	1.1818	0.	4.6121e-003
11670	12.949	1.2727	0.	5.0776e-003
11671	13.041	1.2727	5.e-002	9.7191e-007
11672	13.041	1.	0.	2.7278e-003
11673	12.949	1.0909	0.	3.4726e-003
11674	13.041	1.0909	5.e-002	1.4943e-006
11675	13.041	0.81818	0.	-1.671e-004
11676	12.949	0.90909	0.	1.3587e-003
11677	13.041	0.90909	5.e-002	1.9055e-006
11678	13.041	0.63636	0.	-3.2015e-003
11679	12.949	0.72727	0.	-2.1511e-003
11680	13.041	0.72727	5.e-002	1.8205e-006
11681	13.041	0.45455	0.	-1.3024e-002
11682	12.949	0.54545	0.	-4.5129e-003
11683	13.041	0.54545	5.e-002	1.7512e-006
11684	13.041	0.27273	0.	-1.3935e-002
11685	12.949	0.36364	0.	-2.0516e-002
11686	13.041	0.36364	5.e-002	1.9174e-006
11687	12.949	0.18182	0.	-2.1942e-003
11688	13.041	0.18182	5.e-002	2.5425e-005
11689	13.041	9.0909e-002	0.	-4.7941e-003
11690	12.857	5.7273	0.	-1.2253e-002
11691	12.765	5.8182	0.	-1.6569e-003
11692	12.857	5.8182	5.e-002	-2.308e-005
11693	12.857	5.9091	0.	-4.4418e-003
11694	12.857	5.5455	0.	-1.1832e-002
11695	12.765	5.6364	0.	-1.8248e-002
11696	12.857	5.6364	5.e-002	2.1754e-006
11697	12.857	5.3636	0.	-3.232e-003
11698	12.765	5.4545	0.	-4.3717e-003
11699	12.857	5.4545	5.e-002	3.4964e-006
11700	12.857	5.1818	0.	-4.6666e-004
11701	12.765	5.2727	0.	-2.2389e-003
11702	12.857	5.2727	5.e-002	1.3848e-006
11703	12.857	5.	0.	2.2112e-003
11704	12.765	5.0909	0.	9.5191e-004
11705	12.857	5.0909	5.e-002	1.4885e-006
11706	12.857	4.8182	0.	4.0116e-003
11707	12.765	4.9091	0.	2.9445e-003
11708	12.857	4.9091	5.e-002	8.4268e-007
11709	12.857	4.6364	0.	5.3285e-003
11710	12.765	4.7273	0.	4.4919e-003
11711	12.857	4.7273	5.e-002	-2.398e-007
11712	12.857	4.4545	0.	6.2208e-003
11713	12.765	4.5455	0.	5.5668e-003
11714	12.857	4.5455	5.e-002	1.1328e-006
11715	12.857	4.2727	0.	6.8012e-003
11716	12.765	4.3636	0.	6.3018e-003
11717	12.857	4.3636	5.e-002	-6.466e-007
11718	12.857	4.0909	0.	7.1486e-003
11719	12.765	4.1818	0.	6.7739e-003
11720	12.857	4.1818	5.e-002	-9.0869e-007
11721	12.857	3.9091	0.	7.3309e-003
11722	12.765	4.	0.	7.0543e-003
11723	12.857	4.	5.e-002	-4.5432e-007
11724	12.857	3.7273	0.	7.4038e-003
11725	12.765	3.8182	0.	7.1984e-003
11726	12.857	3.8182	5.e-002	-4.6575e-007
11727	12.857	3.5455	0.	7.4144e-003
11728	12.765	3.6364	0.	7.2567e-003
11729	12.857	3.6364	5.e-002	9.5802e-007
11730	12.857	3.3636	0.	7.3975e-003
11731	12.765	3.4545	0.	7.2681e-003
11732	12.857	3.4545	5.e-002	4.7621e-007
11733	12.857	3.1818	0.	7.377e-003
11734	12.765	3.2727	0.	7.2594e-003
11735	12.857	3.2727	5.e-002	2.3636e-007
11736	12.857	3.	0.	7.3686e-003
11737	12.765	3.0909	0.	7.2495e-003
11738	12.857	3.0909	5.e-002	7.1421e-007
11739	12.857	2.8182	0.	7.3773e-003
11740	12.765	2.9091	0.	7.25e-003
11741	12.857	2.9091	5.e-002	1.4316e-006
11742	12.857	2.6364	0.	7.3976e-003
11743	12.765	2.7273	0.	7.2591e-003
11744	12.857	2.7273	5.e-002	9.559e-007
11745	12.857	2.4545	0.	7.4146e-003
11746	12.765	2.5455	0.	7.2683e-003
11747	12.857	2.5455	5.e-002	7.1603e-007
11748	12.857	2.2727	0.	7.4036e-003
11749	12.765	2.3636	0.	7.2567e-003
11750	12.857	2.3636	5.e-002	7.0994e-007
11751	12.857	2.0909	0.	7.3308e-003
11752	12.765	2.1818	0.	7.1986e-003
11753	12.857	2.1818	5.e-002	4.58e-007
11754	12.857	1.9091	0.	7.1495e-003
11755	12.765	2.	0.	7.0543e-003
11756	12.857	2.	5.e-002	6.7649e-007
11757	12.857	1.7273	0.	6.8022e-003
11758	12.765	1.8182	0.	6.7748e-003
11759	12.857	1.8182	5.e-002	1.1263e-006
11760	12.857	1.5455	0.	6.2213e-003
11761	12.765	1.6364	0.	6.3026e-003
11762	12.857	1.6364	5.e-002	1.311e-006
11763	12.857	1.3636	0.	5.329e-003
11764	12.765	1.4545	0.	5.5667e-003
11765	12.857	1.4545	5.e-002	1.2e-006
11766	12.857	1.1818	0.	4.0124e-003
11767	12.765	1.2727	0.	4.4922e-003
11768	12.857	1.2727	5.e-002	1.6011e-006
11769	12.857	1.	0.	2.2125e-003
11770	12.765	1.0909	0.	2.9454e-003
11771	12.857	1.0909	5.e-002	1.5402e-006
11772	12.857	0.81818	0.	-4.6543e-004
11773	12.765	0.90909	0.	9.5321e-004
11774	12.857	0.90909	5.e-002	2.3575e-006
11775	12.857	0.63636	0.	-3.2319e-003
11776	12.765	0.72727	0.	-2.2378e-003
11777	12.857	0.72727	5.e-002	3.6028e-006
11778	12.857	0.45455	0.	-1.1832e-002
11779	12.765	0.54545	0.	-4.3722e-003
11780	12.857	0.54545	5.e-002	3.3612e-006
11781	12.857	0.27273	0.	-1.2252e-002
11782	12.765	0.36364	0.	-1.8247e-002
11783	12.857	0.36364	5.e-002	1.2115e-006
11784	12.765	0.18182	0.	-1.6562e-003
11785	12.857	0.18182	5.e-002	3.096e-005
11786	12.857	9.0909e-002	0.	-4.4409e-003
11787	12.673	5.7273	0.	-1.0759e-002
11788	12.582	5.8182	0.	-1.3032e-003
11789	12.673	5.8182	5.e-002	-3.0188e-005
11790	12.673	5.9091	0.	-4.0904e-003
11791	12.673	5.5455	0.	-1.0691e-002
11792	12.582	5.6364	0.	-1.6133e-002
11793	12.673	5.6364	5.e-002	2.1711e-006
11794	12.673	5.3636	0.	-3.2005e-003
11795	12.582	5.4545	0.	-4.1834e-003
11796	12.673	5.4545	5.e-002	2.6013e-006
11797	12.673	5.1818	0.	-6.9093e-004
11798	12.582	5.2727	0.	-2.2655e-003
11799	12.673	5.2727	5.e-002	5.67e-007
11800	12.673	5.	0.	1.7762e-003
11801	12.582	5.0909	0.	6.2076e-004
11802	12.673	5.0909	5.e-002	7.2214e-007
11803	12.673	4.8182	0.	3.4886e-003
11804	12.582	4.9091	0.	2.4896e-003
11805	12.673	4.9091	5.e-002	2.1196e-007
11806	12.673	4.6364	0.	4.775e-003
11807	12.582	4.7273	0.	3.9732e-003
11808	12.673	4.7273	5.e-002	-7.4016e-007
11809	12.673	4.4545	0.	5.6795e-003
11810	12.582	4.5455	0.	5.0388e-003
11811	12.673	4.5455	5.e-002	8.5584e-008
11812	12.673	4.2727	0.	6.2974e-003
11813	12.582	4.3636	0.	5.797e-003
11814	12.673	4.3636	5.e-002	-1.0066e-006
11815	12.673	4.0909	0.	6.6966e-003
11816	12.582	4.1818	0.	6.3112e-003
11817	12.673	4.1818	5.e-002	-1.3965e-006
11818	12.673	3.9091	0.	6.9351e-003
11819	12.582	4.	0.	6.6422e-003
11820	12.673	4.	5.e-002	-6.8287e-007
11821	12.673	3.7273	0.	7.0622e-003
11822	12.582	3.8182	0.	6.8392e-003
11823	12.673	3.8182	5.e-002	-4.5996e-007
11824	12.673	3.5455	0.	7.12e-003
11825	12.582	3.6364	0.	6.9459e-003
11826	12.673	3.6364	5.e-002	4.8616e-007
11827	12.673	3.3636	0.	7.139e-003
11828	12.582	3.4545	0.	6.9975e-003
11829	12.673	3.4545	5.e-002	2.4204e-007
11830	12.673	3.1818	0.	7.1407e-003
11831	12.582	3.2727	0.	7.0166e-003
11832	12.673	3.2727	5.e-002	-4.7589e-007
11833	12.673	3.	0.	7.1396e-003
11834	12.582	3.0909	0.	7.0211e-003
11835	12.673	3.0909	5.e-002	2.3852e-007
11836	12.673	2.8182	0.	7.1406e-003
11837	12.582	2.9091	0.	7.0214e-003
11838	12.673	2.9091	5.e-002	4.7673e-007
11839	12.673	2.6364	0.	7.1388e-003
11840	12.582	2.7273	0.	7.0163e-003
11841	12.673	2.7273	5.e-002	7.1416e-007
11842	12.673	2.4545	0.	7.1201e-003
11843	12.582	2.5455	0.	6.9973e-003
11844	12.673	2.5455	5.e-002	-4.2226e-009
11845	12.673	2.2727	0.	7.0627e-003
11846	12.582	2.3636	0.	6.9467e-003
11847	12.673	2.3636	5.e-002	4.6648e-007
11848	12.673	2.0909	0.	6.9353e-003
11849	12.582	2.1818	0.	6.8397e-003
11850	12.673	2.1818	5.e-002	-2.6147e-007
11851	12.673	1.9091	0.	6.6966e-003
11852	12.582	2.	0.	6.6424e-003
11853	12.673	2.	5.e-002	7.5736e-008
11854	12.673	1.7273	0.	6.2981e-003
11855	12.582	1.8182	0.	6.3113e-003
11856	12.673	1.8182	5.e-002	8.9624e-007
11857	12.673	1.5455	0.	5.6797e-003
11858	12.582	1.6364	0.	5.7975e-003
11859	12.673	1.6364	5.e-002	6.5143e-007
11860	12.673	1.3636	0.	4.7746e-003
11861	12.582	1.4545	0.	5.0389e-003
11862	12.673	1.4545	5.e-002	1.1111e-006
11863	12.673	1.1818	0.	3.4889e-003
11864	12.582	1.2727	0.	3.9734e-003
11865	12.673	1.2727	5.e-002	1.1541e-006
11866	12.673	1.	0.	1.7771e-003
11867	12.582	1.0909	0.	2.4902e-003
11868	12.673	1.0909	5.e-002	1.4165e-006
11869	12.673	0.81818	0.	-6.8972e-004
11870	12.582	0.90909	0.	6.2182e-004
11871	12.673	0.90909	5.e-002	2.0594e-006
11872	12.673	0.63636	0.	-3.1999e-003
11873	12.582	0.72727	0.	-2.2636e-003
11874	12.673	0.72727	5.e-002	3.6028e-006
11875	12.673	0.45455	0.	-1.0691e-002
11876	12.582	0.54545	0.	-4.184e-003
11877	12.673	0.54545	5.e-002	3.5573e-006
11878	12.673	0.27273	0.	-1.0759e-002
11879	12.582	0.36364	0.	-1.6133e-002
11880	12.673	0.36364	5.e-002	1.8227e-006
11881	12.582	0.18182	0.	-1.3022e-003
11882	12.673	0.18182	5.e-002	3.2089e-005
11883	12.673	9.0909e-002	0.	-4.0908e-003
11884	12.49	5.7273	0.	-9.4193e-003
11885	12.398	5.8182	0.	-1.095e-003
11886	12.49	5.8182	5.e-002	-1.909e-005
11887	12.49	5.9091	0.	-3.7433e-003
11888	12.49	5.5455	0.	-9.5901e-003
11889	12.398	5.6364	0.	-1.414e-002
11890	12.49	5.6364	5.e-002	2.6769e-006
11891	12.49	5.3636	0.	-3.1163e-003
11892	12.398	5.4545	0.	-3.9522e-003
11893	12.49	5.4545	5.e-002	3.129e-006
11894	12.49	5.1818	0.	-8.5278e-004
11895	12.398	5.2727	0.	-2.2391e-003
11896	12.49	5.2727	5.e-002	1.1869e-006
11897	12.49	5.	0.	1.4073e-003
11898	12.398	5.0909	0.	3.5264e-004
11899	12.49	5.0909	5.e-002	1.2735e-006
11900	12.49	4.8182	0.	3.0267e-003
11901	12.398	4.9091	0.	2.0941e-003
11902	12.49	4.9091	5.e-002	4.4162e-007
11903	12.49	4.6364	0.	4.2748e-003
11904	12.398	4.7273	0.	3.5085e-003
11905	12.49	4.7273	5.e-002	-3.9366e-007
11906	12.49	4.4545	0.	5.1839e-003
11907	12.398	4.5455	0.	4.5572e-003
11908	12.49	4.5455	5.e-002	4.3125e-007
11909	12.49	4.2727	0.	5.8316e-003
11910	12.398	4.3636	0.	5.331e-003
11911	12.49	4.3636	5.e-002	-4.1622e-007
11912	12.49	4.0909	0.	6.2731e-003
11913	12.398	4.1818	0.	5.8791e-003
11914	12.49	4.1818	5.e-002	-8.0151e-007
11915	12.49	3.9091	0.	6.5599e-003
11916	12.398	4.	0.	6.2545e-003
11917	12.49	4.	5.e-002	-6.8627e-007
11918	12.49	3.7273	0.	6.735e-003
11919	12.398	3.8182	0.	6.4978e-003
11920	12.49	3.8182	5.e-002	-1.0181e-007
11921	12.49	3.5455	0.	6.8346e-003
11922	12.398	3.6364	0.	6.6481e-003
11923	12.49	3.6364	5.e-002	8.4432e-007
11924	12.49	3.3636	0.	6.886e-003
11925	12.398	3.4545	0.	6.7354e-003
11926	12.49	3.4545	5.e-002	7.1947e-007
11927	12.49	3.1818	0.	6.9079e-003
11928	12.398	3.2727	0.	6.78e-003
11929	12.49	3.2727	5.e-002	-1.1708e-007
11930	12.49	3.	0.	6.9137e-003
11931	12.398	3.0909	0.	6.7979e-003
11932	12.49	3.0909	5.e-002	5.9661e-007
11933	12.49	2.8182	0.	6.9079e-003
11934	12.398	2.9091	0.	6.7982e-003
11935	12.49	2.9091	5.e-002	1.5491e-006
11936	12.49	2.6364	0.	6.8857e-003
11937	12.398	2.7273	0.	6.7801e-003
11938	12.49	2.7273	5.e-002	1.0706e-006
11939	12.49	2.4545	0.	6.8351e-003
11940	12.398	2.5455	0.	6.7353e-003
11941	12.49	2.5455	5.e-002	8.2875e-007
11942	12.49	2.2727	0.	6.7356e-003
11943	12.398	2.3636	0.	6.649e-003
11944	12.49	2.3636	5.e-002	1.4195e-006
11945	12.49	2.0909	0.	6.5604e-003
11946	12.398	2.1818	0.	6.4982e-003
11947	12.49	2.1818	5.e-002	8.1263e-007
11948	12.49	1.9091	0.	6.2735e-003
11949	12.398	2.	0.	6.2549e-003
11950	12.49	2.	5.e-002	6.8397e-007
11951	12.49	1.7273	0.	5.8316e-003
11952	12.398	1.8182	0.	5.8794e-003
11953	12.49	1.8182	5.e-002	1.3776e-006
11954	12.49	1.5455	0.	5.1843e-003
11955	12.398	1.6364	0.	5.3311e-003
11956	12.49	1.6364	5.e-002	1.4598e-006
11957	12.49	1.3636	0.	4.2755e-003
11958	12.398	1.4545	0.	4.5575e-003
11959	12.49	1.4545	5.e-002	1.4333e-006
11960	12.49	1.1818	0.	3.0273e-003
11961	12.398	1.2727	0.	3.5093e-003
11962	12.49	1.2727	5.e-002	2.1537e-006
11963	12.49	1.	0.	1.4081e-003
11964	12.398	1.0909	0.	2.0945e-003
11965	12.49	1.0909	5.e-002	2.3938e-006
11966	12.49	0.81818	0.	-8.5109e-004
11967	12.398	0.90909	0.	3.5415e-004
11968	12.49	0.90909	5.e-002	2.9221e-006
11969	12.49	0.63636	0.	-3.1156e-003
11970	12.398	0.72727	0.	-2.2374e-003
11971	12.49	0.72727	5.e-002	4.1738e-006
11972	12.49	0.45455	0.	-9.5904e-003
11973	12.398	0.54545	0.	-3.9529e-003
11974	12.49	0.54545	5.e-002	4.5229e-006
11975	12.49	0.27273	0.	-9.4183e-003
11976	12.398	0.36364	0.	-1.4139e-002
11977	12.49	0.36364	5.e-002	3.5285e-006
11978	12.398	0.18182	0.	-1.0935e-003
11979	12.49	0.18182	5.e-002	2.991e-005
11980	12.49	9.0909e-002	0.	-3.7418e-003
11981	12.306	5.7273	0.	-8.1989e-003
11982	12.214	5.8182	0.	-1.0181e-003
11983	12.306	5.8182	5.e-002	-1.0285e-005
11984	12.306	5.9091	0.	-3.3944e-003
11985	12.306	5.5455	0.	-8.5129e-003
11986	12.214	5.6364	0.	-1.2251e-002
11987	12.306	5.6364	5.e-002	2.2109e-006
11988	12.306	5.3636	0.	-2.9834e-003
11989	12.214	5.4545	0.	-3.6956e-003
11990	12.306	5.4545	5.e-002	2.898e-006
11991	12.306	5.1818	0.	-9.5968e-004
11992	12.214	5.2727	0.	-2.1815e-003
11993	12.306	5.2727	5.e-002	9.7749e-007
11994	12.306	5.	0.	1.0945e-003
11995	12.214	5.0909	0.	1.2069e-004
11996	12.306	5.0909	5.e-002	8.3763e-007
11997	12.306	4.8182	0.	2.6159e-003
11998	12.214	4.9091	0.	1.7292e-003
11999	12.306	4.9091	5.e-002	2.1585e-007
12000	12.306	4.6364	0.	3.82e-003
12001	12.214	4.7273	0.	3.068e-003
12002	12.306	4.7273	5.e-002	-7.731e-007
12003	12.306	4.4545	0.	4.7259e-003
12004	12.214	4.5455	0.	4.0932e-003
12005	12.306	4.5455	5.e-002	4.3005e-007
12006	12.306	4.2727	0.	5.3955e-003
12007	12.214	4.3636	0.	4.8752e-003
12008	12.306	4.3636	5.e-002	-9.1638e-007
12009	12.306	4.0909	0.	5.8746e-003
12010	12.214	4.1818	0.	5.4525e-003
12011	12.306	4.1818	5.e-002	-1.0364e-006
12012	12.306	3.9091	0.	6.2051e-003
12013	12.214	4.	0.	5.8682e-003
12014	12.306	4.	5.e-002	-9.3177e-007
12015	12.306	3.7273	0.	6.4232e-003
12016	12.214	3.8182	0.	6.1545e-003
12017	12.306	3.8182	5.e-002	-4.5924e-007
12018	12.306	3.5455	0.	6.5612e-003
12019	12.214	3.6364	0.	6.346e-003
12020	12.306	3.6364	5.e-002	6.0513e-007
12021	12.306	3.3636	0.	6.6419e-003
12022	12.214	3.4545	0.	6.4672e-003
12023	12.306	3.4545	5.e-002	3.6323e-007
12024	12.306	3.1818	0.	6.6827e-003
12025	12.214	3.2727	0.	6.5361e-003
12026	12.306	3.2727	5.e-002	-2.36e-007
12027	12.306	3.	0.	6.6952e-003
12028	12.214	3.0909	0.	6.5672e-003
12029	12.306	3.0909	5.e-002	2.3911e-007
12030	12.306	2.8182	0.	6.6831e-003
12031	12.214	2.9091	0.	6.5672e-003
12032	12.306	2.9091	5.e-002	9.5296e-007
12033	12.306	2.6364	0.	6.6422e-003
12034	12.214	2.7273	0.	6.5363e-003
12035	12.306	2.7273	5.e-002	1.0703e-006
12036	12.306	2.4545	0.	6.5615e-003
12037	12.214	2.5455	0.	6.4673e-003
12038	12.306	2.5455	5.e-002	8.2857e-007
12039	12.306	2.2727	0.	6.4238e-003
12040	12.214	2.3636	0.	6.3463e-003
12041	12.306	2.3636	5.e-002	1.0616e-006
12042	12.306	2.0909	0.	6.2055e-003
12043	12.214	2.1818	0.	6.1552e-003
12044	12.306	2.1818	5.e-002	9.3607e-007
12045	12.306	1.9091	0.	5.875e-003
12046	12.214	2.	0.	5.8683e-003
12047	12.306	2.	5.e-002	8.0304e-007
12048	12.306	1.7273	0.	5.3959e-003
12049	12.214	1.8182	0.	5.4533e-003
12050	12.306	1.8182	5.e-002	1.394e-006
12051	12.306	1.5455	0.	4.726e-003
12052	12.214	1.6364	0.	4.8754e-003
12053	12.306	1.6364	5.e-002	1.3798e-006
12054	12.306	1.3636	0.	3.8205e-003
12055	12.214	1.4545	0.	4.0934e-003
12056	12.306	1.4545	5.e-002	1.581e-006
12057	12.306	1.1818	0.	2.6166e-003
12058	12.214	1.2727	0.	3.0686e-003
12059	12.306	1.2727	5.e-002	1.8819e-006
12060	12.306	1.	0.	1.0955e-003
12061	12.214	1.0909	0.	1.7297e-003
12062	12.306	1.0909	5.e-002	2.2876e-006
12063	12.306	0.81818	0.	-9.5815e-004
12064	12.214	0.90909	0.	1.221e-004
12065	12.306	0.90909	5.e-002	2.8802e-006
12066	12.306	0.63636	0.	-2.9831e-003
12067	12.214	0.72727	0.	-2.1801e-003
12068	12.306	0.72727	5.e-002	3.048e-006
12069	12.306	0.45455	0.	-8.512e-003
12070	12.214	0.54545	0.	-3.6957e-003
12071	12.306	0.54545	5.e-002	4.0137e-006
12072	12.306	0.27273	0.	-8.197e-003
12073	12.214	0.36364	0.	-1.2249e-002
12074	12.306	0.36364	5.e-002	2.9242e-006
12075	12.214	0.18182	0.	-1.0174e-003
12076	12.306	0.18182	5.e-002	2.4882e-005
12077	12.306	9.0909e-002	0.	-3.3956e-003
12078	12.122	5.7273	0.	-7.1038e-003
12079	12.031	5.8182	0.	-1.0636e-003
12080	12.122	5.8182	5.e-002	-1.288e-005
12081	12.122	5.9091	0.	-3.0751e-003
12082	12.122	5.5455	0.	-7.4785e-003
12083	12.031	5.6364	0.	-1.0448e-002
12084	12.122	5.6364	5.e-002	1.7244e-006
12085	12.122	5.3636	0.	-2.8379e-003
12086	12.031	5.4545	0.	-3.4261e-003
12087	12.122	5.4545	5.e-002	2.5957e-006
12088	12.122	5.1818	0.	-1.0532e-003
12089	12.031	5.2727	0.	-2.1091e-003
12090	12.122	5.2727	5.e-002	9.2291e-007
12091	12.122	5.	0.	7.91e-004
12092	12.031	5.0909	0.	-9.9229e-005
12093	12.122	5.0909	5.e-002	9.3668e-007
12094	12.122	4.8182	0.	2.2064e-003
12095	12.031	4.9091	0.	1.3665e-003
12096	12.122	4.9091	5.e-002	1.8115e-007
12097	12.122	4.6364	0.	3.3587e-003
12098	12.031	4.7273	0.	2.6193e-003
12099	12.122	4.7273	5.e-002	-7.2413e-007
12100	12.122	4.4545	0.	4.2552e-003
12101	12.031	4.5455	0.	3.6137e-003
12102	12.122	4.5455	5.e-002	1.1561e-007
12103	12.122	4.2727	0.	4.9425e-003
12104	12.031	4.3636	0.	4.3985e-003
12105	12.122	4.3636	5.e-002	-9.824e-007
12106	12.122	4.0909	0.	5.4556e-003
12107	12.031	4.1818	0.	5.0027e-003
12108	12.122	4.1818	5.e-002	-9.3239e-007
12109	12.122	3.9091	0.	5.8276e-003
12110	12.031	4.	0.	5.4573e-003
12111	12.122	4.	5.e-002	-8.1523e-007
12112	12.122	3.7273	0.	6.0884e-003
12113	12.031	3.8182	0.	5.7882e-003
12114	12.122	3.8182	5.e-002	-5.8423e-007
12115	12.122	3.5455	0.	6.2645e-003
12116	12.031	3.6364	0.	6.0224e-003
12117	12.122	3.6364	5.e-002	8.4016e-007
12118	12.122	3.3636	0.	6.3752e-003
12119	12.031	3.4545	0.	6.18e-003
12120	12.122	3.4545	5.e-002	4.8019e-007
12121	12.122	3.1818	0.	6.4353e-003
12122	12.031	3.2727	0.	6.2756e-003
12123	12.122	3.2727	5.e-002	-1.1785e-007
12124	12.122	3.	0.	6.4542e-003
12125	12.031	3.0909	0.	6.3204e-003
12126	12.122	3.0909	5.e-002	8.3483e-007
12127	12.122	2.8182	0.	6.4351e-003
12128	12.031	2.9091	0.	6.3202e-003
12129	12.122	2.9091	5.e-002	1.1917e-006
12130	12.122	2.6364	0.	6.3752e-003
12131	12.031	2.7273	0.	6.2756e-003
12132	12.122	2.7273	5.e-002	9.5215e-007
12133	12.122	2.4545	0.	6.2646e-003
12134	12.031	2.5455	0.	6.1801e-003
12135	12.122	2.5455	5.e-002	9.4973e-007
12136	12.122	2.2727	0.	6.0888e-003
12137	12.031	2.3636	0.	6.0226e-003
12138	12.122	2.3636	5.e-002	1.1831e-006
12139	12.122	2.0909	0.	5.828e-003
12140	12.031	2.1818	0.	5.7888e-003
12141	12.122	2.1818	5.e-002	9.3898e-007
12142	12.122	1.9091	0.	5.4562e-003
12143	12.031	2.	0.	5.4575e-003
12144	12.122	2.	5.e-002	9.9201e-007
12145	12.122	1.7273	0.	4.9431e-003
12146	12.031	1.8182	0.	5.0034e-003
12147	12.122	1.8182	5.e-002	1.3348e-006
12148	12.122	1.5455	0.	4.2556e-003
12149	12.031	1.6364	0.	4.3987e-003
12150	12.122	1.6364	5.e-002	1.3294e-006
12151	12.122	1.3636	0.	3.3592e-003
12152	12.031	1.4545	0.	3.6141e-003
12153	12.122	1.4545	5.e-002	1.555e-006
12154	12.122	1.1818	0.	2.2069e-003
12155	12.031	1.2727	0.	2.6199e-003
12156	12.122	1.2727	5.e-002	1.9598e-006
12157	12.122	1.	0.	7.9183e-004
12158	12.031	1.0909	0.	1.3669e-003
12159	12.122	1.0909	5.e-002	2.4649e-006
12160	12.122	0.81818	0.	-1.0519e-003
12161	12.031	0.90909	0.	-9.7749e-005
12162	12.122	0.90909	5.e-002	2.8175e-006
12163	12.122	0.63636	0.	-2.8368e-003
12164	12.031	0.72727	0.	-2.1081e-003
12165	12.122	0.72727	5.e-002	2.3346e-006
12166	12.122	0.45455	0.	-7.478e-003
12167	12.031	0.54545	0.	-3.4254e-003
12168	12.122	0.54545	5.e-002	2.1934e-006
12169	12.122	0.27273	0.	-7.1035e-003
12170	12.031	0.36364	0.	-1.0448e-002
12171	12.122	0.36364	5.e-002	3.0401e-006
12172	12.031	0.18182	0.	-1.0628e-003
12173	12.122	0.18182	5.e-002	1.923e-005
12174	12.122	9.0909e-002	0.	-3.0743e-003
12175	11.939	5.7273	0.	-6.1012e-003
12176	11.847	5.8182	0.	-1.1835e-003
12177	11.939	5.8182	5.e-002	-8.0245e-006
12178	11.939	5.9091	0.	-2.7752e-003
12179	11.939	5.5455	0.	-6.4635e-003
12180	11.847	5.6364	0.	-8.6716e-003
12181	11.939	5.6364	5.e-002	2.3121e-006
12182	11.939	5.3636	0.	-2.6727e-003
12183	11.847	5.4545	0.	-3.1081e-003
12184	11.939	5.4545	5.e-002	3.0145e-006
12185	11.939	5.1818	0.	-1.133e-003
12186	11.847	5.2727	0.	-1.9944e-003
12187	11.939	5.2727	5.e-002	1.2779e-006
12188	11.939	5.	0.	4.8993e-004
12189	11.847	5.0909	0.	-2.8953e-004
12190	11.939	5.0909	5.e-002	1.3176e-006
12191	11.939	4.8182	0.	1.7854e-003
12192	11.847	4.9091	0.	1.0133e-003
12193	11.939	4.9091	5.e-002	7.7812e-007
12194	11.939	4.6364	0.	2.8749e-003
12195	11.847	4.7273	0.	2.1632e-003
12196	11.939	4.7273	5.e-002	-3.3631e-007
12197	11.939	4.4545	0.	3.7547e-003
12198	11.847	4.5455	0.	3.1139e-003
12199	11.939	4.5455	5.e-002	6.3552e-007
12200	11.939	4.2727	0.	4.4562e-003
12201	11.847	4.3636	0.	3.8955e-003
12202	11.939	4.3636	5.e-002	-4.0357e-007
12203	11.939	4.0909	0.	5.0037e-003
12204	11.847	4.1818	0.	4.5256e-003
12205	11.939	4.1818	5.e-002	-6.367e-007
12206	11.939	3.9091	0.	5.4205e-003
12207	11.847	4.	0.	5.0245e-003
12208	11.939	4.	5.e-002	-2.8801e-007
12209	11.939	3.7273	0.	5.7289e-003
12210	11.847	3.8182	0.	5.4087e-003
12211	11.939	3.8182	5.e-002	4.4388e-009
12212	11.939	3.5455	0.	5.9487e-003
12213	11.847	3.6364	0.	5.6964e-003
12214	11.939	3.6364	5.e-002	1.254e-006
12215	11.939	3.3636	0.	6.0948e-003
12216	11.847	3.4545	0.	5.901e-003
12217	11.939	3.4545	5.e-002	8.3491e-007
12218	11.939	3.1818	0.	6.1775e-003
12219	11.847	3.2727	0.	6.0314e-003
12220	11.939	3.2727	5.e-002	4.1695e-007
12221	11.939	3.	0.	6.204e-003
12222	11.847	3.0909	0.	6.0943e-003
12223	11.939	3.0909	5.e-002	1.1323e-006
12224	11.939	2.8182	0.	6.1775e-003
12225	11.847	2.9091	0.	6.0944e-003
12226	11.939	2.9091	5.e-002	1.6691e-006
12227	11.939	2.6364	0.	6.0949e-003
12228	11.847	2.7273	0.	6.0314e-003
12229	11.939	2.7273	5.e-002	1.6692e-006
12230	11.939	2.4545	0.	5.9489e-003
12231	11.847	2.5455	0.	5.9013e-003
12232	11.939	2.5455	5.e-002	1.4896e-006
12233	11.939	2.2727	0.	5.7293e-003
12234	11.847	2.3636	0.	5.6965e-003
12235	11.939	2.3636	5.e-002	1.5468e-006
12236	11.939	2.0909	0.	5.4209e-003
12237	11.847	2.1818	0.	5.409e-003
12238	11.939	2.1818	5.e-002	1.5431e-006
12239	11.939	1.9091	0.	5.004e-003
12240	11.847	2.	0.	5.0247e-003
12241	11.939	2.	5.e-002	1.598e-006
12242	11.939	1.7273	0.	4.4566e-003
12243	11.847	1.8182	0.	4.526e-003
12244	11.939	1.8182	5.e-002	1.8838e-006
12245	11.939	1.5455	0.	3.755e-003
12246	11.847	1.6364	0.	3.8959e-003
12247	11.939	1.6364	5.e-002	1.9464e-006
12248	11.939	1.3636	0.	2.8753e-003
12249	11.847	1.4545	0.	3.1141e-003
12250	11.939	1.4545	5.e-002	2.1183e-006
12251	11.939	1.1818	0.	1.7859e-003
12252	11.847	1.2727	0.	2.1639e-003
12253	11.939	1.2727	5.e-002	2.2158e-006
12254	11.939	1.	0.	4.9101e-004
12255	11.847	1.0909	0.	1.014e-003
12256	11.939	1.0909	5.e-002	2.4521e-006
12257	11.939	0.81818	0.	-1.1319e-003
12258	11.847	0.90909	0.	-2.8781e-004
12259	11.939	0.90909	5.e-002	2.9146e-006
12260	11.939	0.63636	0.	-2.6721e-003
12261	11.847	0.72727	0.	-1.9935e-003
12262	11.939	0.72727	5.e-002	3.4063e-006
12263	11.939	0.45455	0.	-6.4638e-003
12264	11.847	0.54545	0.	-3.108e-003
12265	11.939	0.54545	5.e-002	3.7318e-006
12266	11.939	0.27273	0.	-6.1011e-003
12267	11.847	0.36364	0.	-8.6719e-003
12268	11.939	0.36364	5.e-002	3.0863e-006
12269	11.847	0.18182	0.	-1.1822e-003
12270	11.939	0.18182	5.e-002	1.575e-005
12271	11.939	9.0909e-002	0.	-2.7721e-003
12272	11.755	5.7273	0.	-5.1156e-003
12273	11.663	5.8182	0.	-1.3736e-003
12274	11.755	5.8182	5.e-002	-1.5893e-006
12275	11.755	5.9091	0.	-2.4387e-003
12276	11.755	5.5455	0.	-5.3967e-003
12277	11.663	5.6364	0.	-6.9023e-003
12278	11.755	5.6364	5.e-002	3.0237e-006
12279	11.755	5.3636	0.	-2.432e-003
12280	11.663	5.4545	0.	-2.7448e-003
12281	11.755	5.4545	5.e-002	3.5862e-006
12282	11.755	5.1818	0.	-1.155e-003
12283	11.663	5.2727	0.	-1.85e-003
12284	11.755	5.2727	5.e-002	1.816e-006
12285	11.755	5.	0.	2.2107e-004
12286	11.663	5.0909	0.	-4.8048e-004
12287	11.755	5.0909	5.e-002	1.6649e-006
12288	11.755	4.8182	0.	1.3694e-003
12289	11.663	4.9091	0.	6.1978e-004
12290	11.755	4.9091	5.e-002	1.0909e-006
12291	11.755	4.6364	0.	2.3737e-003
12292	11.663	4.7273	0.	1.6285e-003
12293	11.755	4.7273	5.e-002	3.231e-007
12294	11.755	4.4545	0.	3.2227e-003
12295	11.663	4.5455	0.	2.5045e-003
12296	11.755	4.5455	5.e-002	1.3045e-006
12297	11.755	4.2727	0.	3.9334e-003
12298	11.663	4.3636	0.	3.2642e-003
12299	11.755	4.3636	5.e-002	9.9783e-008
12300	11.755	4.0909	0.	4.5194e-003
12301	11.663	4.1818	0.	3.9165e-003
12302	11.755	4.1818	5.e-002	-1.1228e-007
12303	11.755	3.9091	0.	4.9936e-003
12304	11.663	4.	0.	4.4699e-003
12305	11.755	4.	5.e-002	2.402e-007
12306	11.755	3.7273	0.	5.3673e-003
12307	11.663	3.8182	0.	4.9317e-003
12308	11.755	3.8182	5.e-002	3.5612e-007
12309	11.755	3.5455	0.	5.6508e-003
12310	11.663	3.6364	0.	5.3055e-003
12311	11.755	3.6364	5.e-002	1.6654e-006
12312	11.755	3.3636	0.	5.8497e-003
12313	11.663	3.4545	0.	5.593e-003
12314	11.755	3.4545	5.e-002	1.3674e-006
12315	11.755	3.1818	0.	5.9674e-003
12316	11.663	3.2727	0.	5.7881e-003
12317	11.755	3.2727	5.e-002	9.8068e-007
12318	11.755	3.	0.	6.0064e-003
12319	11.663	3.0909	0.	5.8871e-003
12320	11.755	3.0909	5.e-002	1.6678e-006
12321	11.755	2.8182	0.	5.9675e-003
12322	11.663	2.9091	0.	5.8875e-003
12323	11.755	2.9091	5.e-002	2.3257e-006
12324	11.755	2.6364	0.	5.8501e-003
12325	11.663	2.7273	0.	5.7881e-003
12326	11.755	2.7273	5.e-002	2.2978e-006
12327	11.755	2.4545	0.	5.6511e-003
12328	11.663	2.5455	0.	5.5932e-003
12329	11.755	2.5455	5.e-002	2.1201e-006
12330	11.755	2.2727	0.	5.3672e-003
12331	11.663	2.3636	0.	5.3056e-003
12332	11.755	2.3636	5.e-002	2.1799e-006
12333	11.755	2.0909	0.	4.9936e-003
12334	11.663	2.1818	0.	4.9315e-003
12335	11.755	2.1818	5.e-002	1.9688e-006
12336	11.755	1.9091	0.	4.5197e-003
12337	11.663	2.	0.	4.4703e-003
12338	11.755	2.	5.e-002	2.1438e-006
12339	11.755	1.7273	0.	3.9339e-003
12340	11.663	1.8182	0.	3.9168e-003
12341	11.755	1.8182	5.e-002	2.3458e-006
12342	11.755	1.5455	0.	3.2231e-003
12343	11.663	1.6364	0.	3.2648e-003
12344	11.755	1.6364	5.e-002	2.6087e-006
12345	11.755	1.3636	0.	2.3742e-003
12346	11.663	1.4545	0.	2.5045e-003
12347	11.755	1.4545	5.e-002	2.606e-006
12348	11.755	1.1818	0.	1.3704e-003
12349	11.663	1.2727	0.	1.6292e-003
12350	11.755	1.2727	5.e-002	2.6801e-006
12351	11.755	1.	0.	2.2242e-004
12352	11.663	1.0909	0.	6.204e-004
12353	11.755	1.0909	5.e-002	2.4288e-006
12354	11.755	0.81818	0.	-1.1535e-003
12355	11.663	0.90909	0.	-4.7911e-004
12356	11.755	0.90909	5.e-002	3.1781e-006
12357	11.755	0.63636	0.	-2.4315e-003
12358	11.663	0.72727	0.	-1.849e-003
12359	11.755	0.72727	5.e-002	3.7362e-006
12360	11.755	0.45455	0.	-5.3966e-003
12361	11.663	0.54545	0.	-2.7446e-003
12362	11.755	0.54545	5.e-002	4.0626e-006
12363	11.755	0.27273	0.	-5.1146e-003
12364	11.663	0.36364	0.	-6.9018e-003
12365	11.755	0.36364	5.e-002	3.1713e-006
12366	11.663	0.18182	0.	-1.3724e-003
12367	11.755	0.18182	5.e-002	1.0803e-005
12368	11.755	9.0909e-002	0.	-2.4385e-003
12369	11.571	5.7273	0.	-4.1977e-003
12370	11.48	5.8182	0.	-1.674e-003
12371	11.571	5.8182	5.e-002	-1.9752e-006
12372	11.571	5.9091	0.	-2.1313e-003
12373	11.571	5.5455	0.	-4.3322e-003
12374	11.48	5.6364	0.	-5.1599e-003
12375	11.571	5.6364	5.e-002	2.1812e-006
12376	11.571	5.3636	0.	-2.1862e-003
12377	11.48	5.4545	0.	-2.3787e-003
12378	11.571	5.4545	5.e-002	3.012e-006
12379	11.571	5.1818	0.	-1.2064e-003
12380	11.48	5.2727	0.	-1.734e-003
12381	11.571	5.2727	5.e-002	1.4656e-006
12382	11.571	5.	0.	-1.2975e-004
12383	11.48	5.0909	0.	-7.6356e-004
12384	11.571	5.0909	5.e-002	1.3818e-006
12385	11.571	4.8182	0.	8.1022e-004
12386	11.48	4.9091	0.	4.4132e-005
12387	11.571	4.9091	5.e-002	7.5526e-007
12388	11.571	4.6364	0.	1.6696e-003
12389	11.48	4.7273	0.	8.0571e-004
12390	11.571	4.7273	5.e-002	1.1659e-008
12391	11.571	4.4545	0.	2.4382e-003
12392	11.48	4.5455	0.	1.4982e-003
12393	11.571	4.5455	5.e-002	9.0165e-007
12394	11.571	4.2727	0.	3.1275e-003
12395	11.48	4.3636	0.	2.1348e-003
12396	11.571	4.3636	5.e-002	-1.8802e-007
12397	11.571	4.0909	0.	3.7449e-003
12398	11.48	4.1818	0.	2.7298e-003
12399	11.571	4.1818	5.e-002	-3.3624e-007
12400	11.571	3.9091	0.	4.2961e-003
12401	11.48	4.	0.	3.2979e-003
12402	11.571	4.	5.e-002	-3.6332e-007
12403	11.571	3.7273	0.	4.782e-003
12404	11.48	3.8182	0.	3.8544e-003
12405	11.571	3.8182	5.e-002	1.8341e-007
12406	11.571	3.5455	0.	5.1952e-003
12407	11.48	3.6364	0.	4.4055e-003
12408	11.571	3.6364	5.e-002	1.1961e-006
12409	11.571	3.3636	0.	5.5183e-003
12410	11.48	3.4545	0.	4.934e-003
12411	11.571	3.4545	5.e-002	9.7366e-007
12412	11.571	3.1818	0.	5.7263e-003
12413	11.48	3.2727	0.	5.3789e-003
12414	11.571	3.2727	5.e-002	6.9398e-007
12415	11.571	3.	0.	5.7987e-003
12416	11.48	3.0909	0.	5.6428e-003
12417	11.571	3.0909	5.e-002	1.1452e-006
12418	11.571	2.8182	0.	5.7265e-003
12419	11.48	2.9091	0.	5.6431e-003
12420	11.571	2.9091	5.e-002	1.8575e-006
12421	11.571	2.6364	0.	5.5181e-003
12422	11.48	2.7273	0.	5.3789e-003
12423	11.571	2.7273	5.e-002	1.7798e-006
12424	11.571	2.4545	0.	5.1952e-003
12425	11.48	2.5455	0.	4.9344e-003
12426	11.571	2.5455	5.e-002	1.5726e-006
12427	11.571	2.2727	0.	4.782e-003
12428	11.48	2.3636	0.	4.4056e-003
12429	11.571	2.3636	5.e-002	1.6588e-006
12430	11.571	2.0909	0.	4.2963e-003
12431	11.48	2.1818	0.	3.8545e-003
12432	11.571	2.1818	5.e-002	1.6334e-006
12433	11.571	1.9091	0.	3.7453e-003
12434	11.48	2.	0.	3.2984e-003
12435	11.571	2.	5.e-002	1.5802e-006
12436	11.571	1.7273	0.	3.1279e-003
12437	11.48	1.8182	0.	2.73e-003
12438	11.571	1.8182	5.e-002	1.9327e-006
12439	11.571	1.5455	0.	2.4383e-003
12440	11.48	1.6364	0.	2.1351e-003
12441	11.571	1.6364	5.e-002	2.1077e-006
12442	11.571	1.3636	0.	1.6697e-003
12443	11.48	1.4545	0.	1.4987e-003
12444	11.571	1.4545	5.e-002	1.9361e-006
12445	11.571	1.1818	0.	8.1051e-004
12446	11.48	1.2727	0.	8.06e-004
12447	11.571	1.2727	5.e-002	2.0969e-006
12448	11.571	1.	0.	-1.2912e-004
12449	11.48	1.0909	0.	4.4586e-005
12450	11.571	1.0909	5.e-002	2.434e-006
12451	11.571	0.81818	0.	-1.2055e-003
12452	11.48	0.90909	0.	-7.6211e-004
12453	11.571	0.90909	5.e-002	2.4027e-006
12454	11.571	0.63636	0.	-2.1855e-003
12455	11.48	0.72727	0.	-1.7332e-003
12456	11.571	0.72727	5.e-002	1.9888e-006
12457	11.571	0.45455	0.	-4.3317e-003
12458	11.48	0.54545	0.	-2.3778e-003
12459	11.571	0.54545	5.e-002	1.8985e-006
12460	11.571	0.27273	0.	-4.197e-003
12461	11.48	0.36364	0.	-5.1595e-003
12462	11.571	0.36364	5.e-002	1.1879e-006
12463	11.48	0.18182	0.	-1.6729e-003
12464	11.571	0.18182	5.e-002	5.9155e-006
12465	11.571	9.0909e-002	0.	-2.1301e-003
12466	11.388	5.7273	0.	-3.3568e-003
12467	11.296	5.8182	0.	-2.0849e-003
12468	11.388	5.8182	5.e-002	8.0985e-007
12469	11.388	5.9091	0.	-1.8733e-003
12470	11.388	5.5455	0.	-3.2768e-003
12471	11.296	5.6364	0.	-3.4211e-003
12472	11.388	5.6364	5.e-002	2.1171e-006
12473	11.388	5.3636	0.	-1.9629e-003
12474	11.296	5.4545	0.	-2.0049e-003
12475	11.388	5.4545	5.e-002	2.8089e-006
12476	11.388	5.1818	0.	-1.3494e-003
12477	11.296	5.2727	0.	-1.6721e-003
12478	11.388	5.2727	5.e-002	1.3532e-006
12479	11.388	5.	0.	-6.9221e-004
12480	11.296	5.0909	0.	-1.243e-003
12481	11.388	5.0909	5.e-002	1.312e-006
12482	11.388	4.8182	0.	-1.3124e-004
12483	11.296	4.9091	0.	-9.7897e-004
12484	11.388	4.9091	5.e-002	6.3685e-007
12485	11.388	4.6364	0.	3.6253e-004
12486	11.296	4.7273	0.	-8.7027e-004
12487	11.388	4.7273	5.e-002	-2.2049e-007
12488	11.388	4.4545	0.	7.7873e-004
12489	11.296	4.5455	0.	-1.0363e-003
12490	11.388	4.5455	5.e-002	5.6838e-007
12491	11.388	4.2727	0.	1.1189e-003
12492	11.296	4.3636	0.	-1.7487e-003
12493	11.388	4.3636	5.e-002	-3.1858e-007
12494	11.388	4.0909	0.	1.3802e-003
12495	11.296	4.1818	0.	-4.0942e-003
12496	11.388	4.1818	5.e-002	-5.7878e-007
12497	11.388	3.9091	0.	1.5528e-003
12498	11.296	4.	0.	-2.0007e-002
12499	11.388	4.	5.e-002	-3.8477e-007
12500	11.388	3.7273	0.	1.606e-003
12501	11.296	3.8182	0.	-0.37438
12502	11.388	3.8182	5.e-002	-8.247e-008
12503	11.388	3.5455	0.	1.4191e-003
12504	11.296	3.6364	0.	-0.83434
12505	11.388	3.6364	5.e-002	9.8963e-007
12506	11.388	3.3636	0.	1.8895e-004
12507	11.296	3.4545	0.	-1.1905
12508	11.388	3.4545	5.e-002	8.1723e-007
12509	11.388	3.1818	0.	-3.3189e-002
12510	11.296	3.2727	0.	-1.4322
12511	11.388	3.2727	5.e-002	4.3547e-007
12512	11.388	3.	0.	-8.446e-002
12513	11.296	3.0909	0.	-1.5543
12514	11.388	3.0909	5.e-002	1.0391e-006
12515	11.388	2.8182	0.	-3.3188e-002
12516	11.296	2.9091	0.	-1.5543
12517	11.388	2.9091	5.e-002	1.673e-006
12518	11.388	2.6364	0.	1.8914e-004
12519	11.296	2.7273	0.	-1.4322
12520	11.388	2.7273	5.e-002	1.5914e-006
12521	11.388	2.4545	0.	1.4194e-003
12522	11.296	2.5455	0.	-1.1905
12523	11.388	2.5455	5.e-002	1.5371e-006
12524	11.388	2.2727	0.	1.6062e-003
12525	11.296	2.3636	0.	-0.83435
12526	11.388	2.3636	5.e-002	1.5757e-006
12527	11.388	2.0909	0.	1.5532e-003
12528	11.296	2.1818	0.	-0.37438
12529	11.388	2.1818	5.e-002	1.4288e-006
12530	11.388	1.9091	0.	1.3805e-003
12531	11.296	2.	0.	-2.0007e-002
12532	11.388	2.	5.e-002	1.5229e-006
12533	11.388	1.7273	0.	1.119e-003
12534	11.296	1.8182	0.	-4.0937e-003
12535	11.388	1.8182	5.e-002	1.8511e-006
12536	11.388	1.5455	0.	7.7922e-004
12537	11.296	1.6364	0.	-1.7485e-003
12538	11.388	1.6364	5.e-002	1.7791e-006
12539	11.388	1.3636	0.	3.6308e-004
12540	11.296	1.4545	0.	-1.0359e-003
12541	11.388	1.4545	5.e-002	1.9095e-006
12542	11.388	1.1818	0.	-1.3083e-004
12543	11.296	1.2727	0.	-8.7003e-004
12544	11.388	1.2727	5.e-002	2.0832e-006
12545	11.388	1.	0.	-6.9095e-004
12546	11.296	1.0909	0.	-9.7778e-004
12547	11.388	1.0909	5.e-002	2.3596e-006
12548	11.388	0.81818	0.	-1.3481e-003
12549	11.296	0.90909	0.	-1.241e-003
12550	11.388	0.90909	5.e-002	2.2769e-006
12551	11.388	0.63636	0.	-1.9619e-003
12552	11.296	0.72727	0.	-1.6712e-003
12553	11.388	0.72727	5.e-002	1.6183e-006
12554	11.388	0.45455	0.	-3.276e-003
12555	11.296	0.54545	0.	-2.0047e-003
12556	11.388	0.54545	5.e-002	9.3987e-007
12557	11.388	0.27273	0.	-3.356e-003
12558	11.296	0.36364	0.	-3.4207e-003
12559	11.388	0.36364	5.e-002	4.731e-007
12560	11.296	0.18182	0.	-2.0834e-003
12561	11.388	0.18182	5.e-002	2.5042e-006
12562	11.388	9.0909e-002	0.	-1.8729e-003
12563	11.204	5.7273	0.	-2.5616e-003
12564	11.112	5.8182	0.	-2.611e-003
12565	11.204	5.8182	5.e-002	2.2459e-006
12566	11.204	5.9091	0.	-1.6462e-003
12567	11.204	5.5455	0.	-2.1918e-003
12568	11.112	5.6364	0.	-1.6621e-003
12569	11.204	5.6364	5.e-002	2.1739e-006
12570	11.204	5.3636	0.	-1.7484e-003
12571	11.112	5.4545	0.	-1.6192e-003
12572	11.204	5.4545	5.e-002	2.7652e-006
12573	11.204	5.1818	0.	-1.6487e-003
12574	11.112	5.2727	0.	-1.7218e-003
12575	11.204	5.2727	5.e-002	1.2009e-006
12576	11.204	5.	0.	-1.74e-003
12577	11.112	5.0909	0.	-2.2114e-003
12578	11.204	5.0909	5.e-002	1.006e-006
12579	11.204	4.8182	0.	-2.2428e-003
12580	11.112	4.9091	0.	-3.5241e-003
12581	11.204	4.9091	5.e-002	5.026e-007
12582	11.204	4.6364	0.	-3.6825e-003
12583	11.112	4.7273	0.	-7.6096e-003
12584	11.204	4.7273	5.e-002	-3.2174e-007
12585	11.204	4.4545	0.	-8.6549e-003
12586	11.112	4.5455	0.	-4.6039e-002
12587	11.204	4.5455	5.e-002	5.8034e-007
12588	11.204	4.2727	0.	-8.873e-002
12589	11.112	4.3636	0.	-0.80518
12590	11.204	4.3636	5.e-002	-5.9642e-007
12591	11.204	4.0909	0.	-0.77269
12592	11.112	4.1818	0.	-1.6952
12593	11.204	4.1818	5.e-002	-6.9365e-007
12594	11.204	3.9091	0.	-1.4401
12595	11.112	4.	0.	-2.4855
12596	11.204	4.	5.e-002	-4.4196e-007
12597	11.204	3.7273	0.	-2.0034
12598	11.112	3.8182	0.	-3.1622
12599	11.204	3.8182	5.e-002	-2.0273e-007
12600	11.204	3.5455	0.	-2.4515
12601	11.112	3.6364	0.	-3.7155
12602	11.204	3.6364	5.e-002	7.4258e-007
12603	11.204	3.3636	0.	-2.777
12604	11.112	3.4545	0.	-4.1378
12605	11.204	3.4545	5.e-002	6.2438e-007
12606	11.204	3.1818	0.	-2.9746
12607	11.112	3.2727	0.	-4.4229
12608	11.204	3.2727	5.e-002	2.39e-007
12609	11.204	3.	0.	-3.0408
12610	11.112	3.0909	0.	-4.5666
12611	11.204	3.0909	5.e-002	8.1425e-007
12612	11.204	2.8182	0.	-2.9746
12613	11.112	2.9091	0.	-4.5666
12614	11.204	2.9091	5.e-002	1.4433e-006
12615	11.204	2.6364	0.	-2.777
12616	11.112	2.7273	0.	-4.4229
12617	11.204	2.7273	5.e-002	1.3602e-006
12618	11.204	2.4545	0.	-2.4515
12619	11.112	2.5455	0.	-4.1378
12620	11.204	2.5455	5.e-002	1.2599e-006
12621	11.204	2.2727	0.	-2.0034
12622	11.112	2.3636	0.	-3.7155
12623	11.204	2.3636	5.e-002	1.3918e-006
12624	11.204	2.0909	0.	-1.4401
12625	11.112	2.1818	0.	-3.1622
12626	11.204	2.1818	5.e-002	1.2155e-006
12627	11.204	1.9091	0.	-0.77269
12628	11.112	2.	0.	-2.4855
12629	11.204	2.	5.e-002	1.3329e-006
12630	11.204	1.7273	0.	-8.873e-002
12631	11.112	1.8182	0.	-1.6952
12632	11.204	1.8182	5.e-002	1.5607e-006
12633	11.204	1.5455	0.	-8.6546e-003
12634	11.112	1.6364	0.	-0.80518
12635	11.204	1.6364	5.e-002	1.5905e-006
12636	11.204	1.3636	0.	-3.6823e-003
12637	11.112	1.4545	0.	-4.6039e-002
12638	11.204	1.4545	5.e-002	1.6294e-006
12639	11.204	1.1818	0.	-2.2418e-003
12640	11.112	1.2727	0.	-7.6092e-003
12641	11.204	1.2727	5.e-002	1.738e-006
12642	11.204	1.	0.	-1.738e-003
12643	11.112	1.0909	0.	-3.523e-003
12644	11.204	1.0909	5.e-002	1.9628e-006
12645	11.204	0.81818	0.	-1.6472e-003
12646	11.112	0.90909	0.	-2.2098e-003
12647	11.204	0.90909	5.e-002	1.631e-006
12648	11.204	0.63636	0.	-1.7483e-003
12649	11.112	0.72727	0.	-1.7207e-003
12650	11.204	0.72727	5.e-002	1.1136e-006
12651	11.204	0.45455	0.	-2.192e-003
12652	11.112	0.54545	0.	-1.6199e-003
12653	11.204	0.54545	5.e-002	6.3851e-007
12654	11.204	0.27273	0.	-2.5605e-003
12655	11.112	0.36364	0.	-1.6616e-003
12656	11.204	0.36364	5.e-002	9.289e-007
12657	11.112	0.18182	0.	-2.6092e-003
12658	11.204	0.18182	5.e-002	1.7828e-006
12659	11.204	9.0909e-002	0.	-1.6445e-003
12660	11.02	5.7273	0.	-1.8277e-003
12661	10.929	5.8182	0.	-3.2732e-003
12662	11.02	5.8182	5.e-002	1.8724e-006
12663	11.02	5.9091	0.	-1.4721e-003
12664	11.02	5.5455	0.	-1.0809e-003
12665	10.929	5.6364	0.	1.3248e-004
12666	11.02	5.6364	5.e-002	2.4099e-006
12667	11.02	5.3636	0.	-1.5905e-003
12668	10.929	5.4545	0.	-1.2302e-003
12669	11.02	5.4545	5.e-002	2.964e-006
12670	11.02	5.1818	0.	-2.3691e-003
12671	10.929	5.2727	0.	-2.0545e-003
12672	11.02	5.2727	5.e-002	1.3093e-006
12673	11.02	5.	0.	-4.551e-003
12674	10.929	5.0909	0.	-4.9402e-003
12675	11.02	5.0909	5.e-002	1.1425e-006
12676	11.02	4.8182	0.	-1.3504e-002
12677	10.929	4.9091	0.	-2.2049e-002
12678	11.02	4.9091	5.e-002	5.9451e-007
12679	11.02	4.6364	0.	-0.38038
12680	10.929	4.7273	0.	-0.8232
12681	11.02	4.7273	5.e-002	-1.6985e-007
12682	11.02	4.4545	0.	-1.4854
12683	10.929	4.5455	0.	-2.0994
12684	11.02	4.5455	5.e-002	5.1588e-007
12685	11.02	4.2727	0.	-2.5119
12686	10.929	4.3636	0.	-3.2763
12687	11.02	4.3636	5.e-002	-4.6363e-007
12688	11.02	4.0909	0.	-3.4291
12689	10.929	4.1818	0.	-4.3363
12690	11.02	4.1818	5.e-002	-5.2001e-007
12691	11.02	3.9091	0.	-4.2255
12692	10.929	4.	0.	-5.2683
12693	11.02	4.	5.e-002	-3.1448e-007
12694	11.02	3.7273	0.	-4.8914
12695	10.929	3.8182	0.	-6.0622
12696	11.02	3.8182	5.e-002	-1.6751e-007
12697	11.02	3.5455	0.	-5.4186
12698	10.929	3.6364	0.	-6.709
12699	11.02	3.6364	5.e-002	8.2516e-007
12700	11.02	3.3636	0.	-5.8002
12701	10.929	3.4545	0.	-7.2011
12702	11.02	3.4545	5.e-002	7.4609e-007
12703	11.02	3.1818	0.	-6.0313
12704	10.929	3.2727	0.	-7.5326
12705	11.02	3.2727	5.e-002	3.6934e-007
12706	11.02	3.	0.	-6.1087
12707	10.929	3.0909	0.	-7.6995
12708	11.02	3.0909	5.e-002	1.007e-006
12709	11.02	2.8182	0.	-6.0313
12710	10.929	2.9091	0.	-7.6995
12711	11.02	2.9091	5.e-002	1.586e-006
12712	11.02	2.6364	0.	-5.8002
12713	10.929	2.7273	0.	-7.5326
12714	11.02	2.7273	5.e-002	1.3895e-006
12715	11.02	2.4545	0.	-5.4186
12716	10.929	2.5455	0.	-7.2011
12717	11.02	2.5455	5.e-002	1.4039e-006
12718	11.02	2.2727	0.	-4.8914
12719	10.929	2.3636	0.	-6.709
12720	11.02	2.3636	5.e-002	1.2871e-006
12721	11.02	2.0909	0.	-4.2255
12722	10.929	2.1818	0.	-6.0622
12723	11.02	2.1818	5.e-002	1.2702e-006
12724	11.02	1.9091	0.	-3.4291
12725	10.929	2.	0.	-5.2683
12726	11.02	2.	5.e-002	1.3638e-006
12727	11.02	1.7273	0.	-2.5119
12728	10.929	1.8182	0.	-4.3363
12729	11.02	1.8182	5.e-002	1.5205e-006
12730	11.02	1.5455	0.	-1.4854
12731	10.929	1.6364	0.	-3.2763
12732	11.02	1.6364	5.e-002	1.5066e-006
12733	11.02	1.3636	0.	-0.38038
12734	10.929	1.4545	0.	-2.0994
12735	11.02	1.4545	5.e-002	1.4753e-006
12736	11.02	1.1818	0.	-1.3504e-002
12737	10.929	1.2727	0.	-0.82319
12738	11.02	1.2727	5.e-002	1.5595e-006
12739	11.02	1.	0.	-4.5502e-003
12740	10.929	1.0909	0.	-2.2049e-002
12741	11.02	1.0909	5.e-002	1.5443e-006
12742	11.02	0.81818	0.	-2.3679e-003
12743	10.929	0.90909	0.	-4.939e-003
12744	11.02	0.90909	5.e-002	5.5823e-007
12745	11.02	0.63636	0.	-1.5903e-003
12746	10.929	0.72727	0.	-2.0531e-003
12747	11.02	0.72727	5.e-002	1.0571e-006
12748	11.02	0.45455	0.	-1.081e-003
12749	10.929	0.54545	0.	-1.2304e-003
12750	11.02	0.54545	5.e-002	1.7713e-006
12751	11.02	0.27273	0.	-1.8264e-003
12752	10.929	0.36364	0.	1.3291e-004
12753	11.02	0.36364	5.e-002	1.2854e-006
12754	10.929	0.18182	0.	-3.2717e-003
12755	11.02	0.18182	5.e-002	2.0374e-006
12756	11.02	9.0909e-002	0.	-1.4715e-003
12757	10.837	5.7273	0.	-1.153e-003
12758	10.745	5.8182	0.	-4.0927e-003
12759	10.837	5.8182	5.e-002	3.853e-007
12760	10.837	5.9091	0.	-1.3557e-003
12761	10.837	5.5455	0.	7.9411e-005
12762	10.745	5.6364	0.	1.984e-003
12763	10.837	5.6364	5.e-002	2.4733e-006
12764	10.837	5.3636	0.	-1.5588e-003
12765	10.745	5.4545	0.	-8.4935e-004
12766	10.837	5.4545	5.e-002	2.6781e-006
12767	10.837	5.1818	0.	-4.512e-003
12768	10.745	5.2727	0.	-3.2862e-003
12769	10.837	5.2727	5.e-002	1.1916e-006
12770	10.837	5.	0.	-2.9765e-002
12771	10.745	5.0909	0.	-3.0707e-002
12772	10.837	5.0909	5.e-002	1.1081e-006
12773	10.837	4.8182	0.	-1.1374
12774	10.745	4.9091	0.	-1.3549
12775	10.837	4.9091	5.e-002	5.0057e-007
12776	10.837	4.6364	0.	-2.5774
12777	10.745	4.7273	0.	-2.9732
12778	10.837	4.7273	5.e-002	-2.3191e-007
12779	10.837	4.4545	0.	-3.9095
12780	10.745	4.5455	0.	-4.4772
12781	10.837	4.5455	5.e-002	4.8998e-007
12782	10.837	4.2727	0.	-5.1184
12783	10.745	4.3636	0.	-5.852
12784	10.837	4.3636	5.e-002	-2.4288e-007
12785	10.837	4.0909	0.	-6.1926
12786	10.745	4.1818	0.	-7.0855
12787	10.837	4.1818	5.e-002	-7.1397e-007
12788	10.837	3.9091	0.	-7.1217
12789	10.745	4.	0.	-8.1665
12790	10.837	4.	5.e-002	-5.4463e-007
12791	10.837	3.7273	0.	-7.8962
12792	10.745	3.8182	0.	-9.0849
12793	10.837	3.8182	5.e-002	-1.3089e-007
12794	10.837	3.5455	0.	-8.5077
12795	10.745	3.6364	0.	-9.8314
12796	10.837	3.6364	5.e-002	6.0538e-007
12797	10.837	3.3636	0.	-8.9496
12798	10.745	3.4545	0.	-10.398
12799	10.837	3.4545	5.e-002	7.3554e-007
12800	10.837	3.1818	0.	-9.2168
12801	10.745	3.2727	0.	-10.78
12802	10.837	3.2727	5.e-002	2.7442e-007
12803	10.837	3.	0.	-9.3062
12804	10.745	3.0909	0.	-10.971
12805	10.837	3.0909	5.e-002	9.4554e-007
12806	10.837	2.8182	0.	-9.2168
12807	10.745	2.9091	0.	-10.971
12808	10.837	2.9091	5.e-002	1.2002e-006
12809	10.837	2.6364	0.	-8.9496
12810	10.745	2.7273	0.	-10.78
12811	10.837	2.7273	5.e-002	1.2163e-006
12812	10.837	2.4545	0.	-8.5077
12813	10.745	2.5455	0.	-10.398
12814	10.837	2.5455	5.e-002	9.9464e-007
12815	10.837	2.2727	0.	-7.8962
12816	10.745	2.3636	0.	-9.8314
12817	10.837	2.3636	5.e-002	1.2434e-006
12818	10.837	2.0909	0.	-7.1217
12819	10.745	2.1818	0.	-9.0849
12820	10.837	2.1818	5.e-002	1.1914e-006
12821	10.837	1.9091	0.	-6.1926
12822	10.745	2.	0.	-8.1665
12823	10.837	2.	5.e-002	1.2598e-006
12824	10.837	1.7273	0.	-5.1184
12825	10.745	1.8182	0.	-7.0855
12826	10.837	1.8182	5.e-002	1.4875e-006
12827	10.837	1.5455	0.	-3.9095
12828	10.745	1.6364	0.	-5.852
12829	10.837	1.6364	5.e-002	1.4551e-006
12830	10.837	1.3636	0.	-2.5774
12831	10.745	1.4545	0.	-4.4772
12832	10.837	1.4545	5.e-002	1.4469e-006
12833	10.837	1.1818	0.	-1.1374
12834	10.745	1.2727	0.	-2.9732
12835	10.837	1.2727	5.e-002	1.3536e-006
12836	10.837	1.	0.	-2.9764e-002
12837	10.745	1.0909	0.	-1.3549
12838	10.837	1.0909	5.e-002	1.1278e-006
12839	10.837	0.81818	0.	-4.5107e-003
12840	10.745	0.90909	0.	-3.0706e-002
12841	10.837	0.90909	5.e-002	1.0197e-006
12842	10.837	0.63636	0.	-1.5579e-003
12843	10.745	0.72727	0.	-3.2846e-003
12844	10.837	0.72727	5.e-002	9.4044e-007
12845	10.837	0.45455	0.	7.9683e-005
12846	10.745	0.54545	0.	-8.4899e-004
12847	10.837	0.54545	5.e-002	1.2106e-006
12848	10.837	0.27273	0.	-1.1524e-003
12849	10.745	0.36364	0.	1.9846e-003
12850	10.837	0.36364	5.e-002	1.4155e-006
12851	10.745	0.18182	0.	-4.0917e-003
12852	10.837	0.18182	5.e-002	3.6928e-006
12853	10.837	9.0909e-002	0.	-1.3545e-003
12854	10.653	5.7273	0.	-5.546e-004
12855	10.561	5.8182	0.	-5.1331e-003
12856	10.653	5.8182	5.e-002	-1.0835e-006
12857	10.653	5.9091	0.	-1.3116e-003
12858	10.653	5.5455	0.	1.3037e-003
12859	10.561	5.6364	0.	3.8816e-003
12860	10.653	5.6364	5.e-002	2.0233e-006
12861	10.653	5.3636	0.	-1.9117e-003
12862	10.561	5.4545	0.	-5.5687e-004
12863	10.653	5.4545	5.e-002	2.5077e-006
12864	10.653	5.1818	0.	-2.0895e-002
12865	10.561	5.2727	0.	-1.0792e-002
12866	10.653	5.2727	5.e-002	9.6286e-007
12867	10.653	5.	0.	-1.4114
12868	10.561	5.0909	0.	-1.3545
12869	10.653	5.0909	5.e-002	9.0486e-007
12870	10.653	4.8182	0.	-3.2108
12871	10.561	4.9091	0.	-3.3513
12872	10.653	4.9091	5.e-002	4.3696e-007
12873	10.653	4.6364	0.	-4.8912
12874	10.561	4.7273	0.	-5.2253
12875	10.653	4.7273	5.e-002	-5.4221e-007
12876	10.653	4.4545	0.	-6.4371
12877	10.561	4.5455	0.	-6.9602
12878	10.653	4.5455	5.e-002	3.4554e-007
12879	10.653	4.2727	0.	-7.836
12880	10.561	4.3636	0.	-8.5423
12881	10.653	4.3636	5.e-002	-5.8591e-007
12882	10.653	4.0909	0.	-9.0759
12883	10.561	4.1818	0.	-9.9589
12884	10.653	4.1818	5.e-002	-6.3929e-007
12885	10.653	3.9091	0.	-10.146
12886	10.561	4.	0.	-11.198
12887	10.653	4.	5.e-002	-5.729e-007
12888	10.653	3.7273	0.	-11.036
12889	10.561	3.8182	0.	-12.249
12890	10.653	3.8182	5.e-002	-4.3821e-007
12891	10.653	3.5455	0.	-11.738
12892	10.561	3.6364	0.	-13.102
12893	10.653	3.6364	5.e-002	5.3378e-007
12894	10.653	3.3636	0.	-12.244
12895	10.561	3.4545	0.	-13.749
12896	10.653	3.4545	5.e-002	4.3156e-007
12897	10.653	3.1818	0.	-12.55
12898	10.561	3.2727	0.	-14.184
12899	10.653	3.2727	5.e-002	2.094e-007
12900	10.653	3.	0.	-12.652
12901	10.561	3.0909	0.	-14.402
12902	10.653	3.0909	5.e-002	8.2448e-007
12903	10.653	2.8182	0.	-12.55
12904	10.561	2.9091	0.	-14.402
12905	10.653	2.9091	5.e-002	1.3214e-006
12906	10.653	2.6364	0.	-12.244
12907	10.561	2.7273	0.	-14.184
12908	10.653	2.7273	5.e-002	1.103e-006
12909	10.653	2.4545	0.	-11.738
12910	10.561	2.5455	0.	-13.749
12911	10.653	2.5455	5.e-002	8.8644e-007
12912	10.653	2.2727	0.	-11.036
12913	10.561	2.3636	0.	-13.102
12914	10.653	2.3636	5.e-002	1.2628e-006
12915	10.653	2.0909	0.	-10.146
12916	10.561	2.1818	0.	-12.249
12917	10.653	2.1818	5.e-002	7.9833e-007
12918	10.653	1.9091	0.	-9.0759
12919	10.561	2.	0.	-11.198
12920	10.653	2.	5.e-002	9.798e-007
12921	10.653	1.7273	0.	-7.836
12922	10.561	1.8182	0.	-9.9589
12923	10.653	1.8182	5.e-002	1.0611e-006
12924	10.653	1.5455	0.	-6.4371
12925	10.561	1.6364	0.	-8.5423
12926	10.653	1.6364	5.e-002	1.2077e-006
12927	10.653	1.3636	0.	-4.8912
12928	10.561	1.4545	0.	-6.9602
12929	10.653	1.4545	5.e-002	1.0847e-006
12930	10.653	1.1818	0.	-3.2108
12931	10.561	1.2727	0.	-5.2253
12932	10.653	1.2727	5.e-002	1.391e-006
12933	10.653	1.	0.	-1.4114
12934	10.561	1.0909	0.	-3.3513
12935	10.653	1.0909	5.e-002	1.3068e-006
12936	10.653	0.81818	0.	-2.0893e-002
12937	10.561	0.90909	0.	-1.3545
12938	10.653	0.90909	5.e-002	1.2199e-006
12939	10.653	0.63636	0.	-1.9106e-003
12940	10.561	0.72727	0.	-1.0791e-002
12941	10.653	0.72727	5.e-002	1.093e-006
12942	10.653	0.45455	0.	1.3044e-003
12943	10.561	0.54545	0.	-5.5621e-004
12944	10.653	0.54545	5.e-002	5.5026e-007
12945	10.653	0.27273	0.	-5.5355e-004
12946	10.561	0.36364	0.	3.8825e-003
12947	10.653	0.36364	5.e-002	1.1171e-006
12948	10.561	0.18182	0.	-5.1322e-003
12949	10.653	0.18182	5.e-002	5.5676e-006
12950	10.653	9.0909e-002	0.	-1.3108e-003
12951	10.469	5.7273	0.	-1.1869e-004
12952	10.378	5.8182	0.	-6.484e-003
12953	10.469	5.8182	5.e-002	-5.3451e-006
12954	10.469	5.9091	0.	-1.4127e-003
12955	10.469	5.5455	0.	2.558e-003
12956	10.378	5.6364	0.	5.802e-003
12957	10.469	5.6364	5.e-002	1.6314e-006
12958	10.469	5.3636	0.	-4.1616e-003
12959	10.378	5.4545	0.	-6.1949e-004
12960	10.469	5.4545	5.e-002	2.3405e-006
12961	10.469	5.1818	0.	-1.1178
12962	10.378	5.2727	0.	-0.75187
12963	10.469	5.2727	5.e-002	8.9933e-007
12964	10.469	5.	0.	-3.3131
12965	10.378	5.0909	0.	-3.1614
12966	10.469	5.0909	5.e-002	1.0258e-006
12967	10.469	4.8182	0.	-5.3839
12968	10.378	4.9091	0.	-5.4465
12969	10.469	4.9091	5.e-002	2.3762e-007
12970	10.469	4.6364	0.	-7.3117
12971	10.378	4.7273	0.	-7.5857
12972	10.469	4.7273	5.e-002	-7.0656e-007
12973	10.469	4.4545	0.	-9.0822
12974	10.378	4.5455	0.	-9.5633
12975	10.469	4.5455	5.e-002	3.5271e-007
12976	10.469	4.2727	0.	-10.682
12977	10.378	4.3636	0.	-11.364
12978	10.469	4.3636	5.e-002	-6.2973e-007
12979	10.469	4.0909	0.	-12.097
12980	10.378	4.1818	0.	-12.975
12981	10.469	4.1818	5.e-002	-5.9821e-007
12982	10.469	3.9091	0.	-13.317
12983	10.378	4.	0.	-14.382
12984	10.469	4.	5.e-002	-3.5617e-007
12985	10.469	3.7273	0.	-14.33
12986	10.378	3.8182	0.	-15.574
12987	10.469	3.8182	5.e-002	-6.9787e-007
12988	10.469	3.5455	0.	-15.128
12989	10.378	3.6364	0.	-16.541
12990	10.469	3.6364	5.e-002	2.8257e-007
12991	10.469	3.3636	0.	-15.704
12992	10.378	3.4545	0.	-17.274
12993	10.469	3.4545	5.e-002	1.7974e-007
12994	10.469	3.1818	0.	-16.051
12995	10.378	3.2727	0.	-17.766
12996	10.469	3.2727	5.e-002	2.0268e-007
12997	10.469	3.	0.	-16.167
12998	10.378	3.0909	0.	-18.013
12999	10.469	3.0909	5.e-002	4.6471e-007
13000	10.469	2.8182	0.	-16.051
13001	10.378	2.9091	0.	-18.013
13002	10.469	2.9091	5.e-002	1.085e-006
13003	10.469	2.6364	0.	-15.704
13004	10.378	2.7273	0.	-17.766
13005	10.469	2.7273	5.e-002	9.9077e-007
13006	10.469	2.4545	0.	-15.128
13007	10.378	2.5455	0.	-17.274
13008	10.469	2.5455	5.e-002	1.0153e-006
13009	10.469	2.2727	0.	-14.33
13010	10.378	2.3636	0.	-16.541
13011	10.469	2.3636	5.e-002	1.037e-006
13012	10.469	2.0909	0.	-13.317
13013	10.378	2.1818	0.	-15.574
13014	10.469	2.1818	5.e-002	8.1706e-007
13015	10.469	1.9091	0.	-12.097
13016	10.378	2.	0.	-14.382
13017	10.469	2.	5.e-002	8.3292e-007
13018	10.469	1.7273	0.	-10.682
13019	10.378	1.8182	0.	-12.975
13020	10.469	1.8182	5.e-002	1.3133e-006
13021	10.469	1.5455	0.	-9.0822
13022	10.378	1.6364	0.	-11.364
13023	10.469	1.6364	5.e-002	1.2256e-006
13024	10.469	1.3636	0.	-7.3117
13025	10.378	1.4545	0.	-9.5633
13026	10.469	1.4545	5.e-002	1.2512e-006
13027	10.469	1.1818	0.	-5.3839
13028	10.378	1.2727	0.	-7.5857
13029	10.469	1.2727	5.e-002	1.1946e-006
13030	10.469	1.	0.	-3.3131
13031	10.378	1.0909	0.	-5.4465
13032	10.469	1.0909	5.e-002	1.4255e-006
13033	10.469	0.81818	0.	-1.1178
13034	10.378	0.90909	0.	-3.1614
13035	10.469	0.90909	5.e-002	9.5355e-007
13036	10.469	0.63636	0.	-4.1609e-003
13037	10.378	0.72727	0.	-0.75186
13038	10.469	0.72727	5.e-002	1.089e-006
13039	10.469	0.45455	0.	2.5588e-003
13040	10.378	0.54545	0.	-6.1893e-004
13041	10.469	0.54545	5.e-002	1.1512e-006
13042	10.469	0.27273	0.	-1.1797e-004
13043	10.378	0.36364	0.	5.8029e-003
13044	10.469	0.36364	5.e-002	1.3933e-006
13045	10.378	0.18182	0.	-6.4832e-003
13046	10.469	0.18182	5.e-002	8.0065e-006
13047	10.469	9.0909e-002	0.	-1.4118e-003
13048	10.286	5.7273	0.	7.4177e-005
13049	10.194	5.8182	0.	-8.2261e-003
13050	10.286	5.8182	5.e-002	-5.0829e-006
13051	10.286	5.9091	0.	-1.7072e-003
13052	10.286	5.5455	0.	3.8463e-003
13053	10.194	5.6364	0.	7.743e-003
13054	10.286	5.6364	5.e-002	1.6716e-006
13055	10.286	5.3636	0.	-0.20381
13056	10.194	5.4545	0.	-3.6031e-003
13057	10.286	5.4545	5.e-002	2.0747e-006
13058	10.286	5.1818	0.	-2.8121
13059	10.194	5.2727	0.	-2.3305
13060	10.286	5.2727	5.e-002	7.8748e-007
13061	10.286	5.	0.	-5.3128
13062	10.194	5.0909	0.	-5.0648
13063	10.286	5.0909	5.e-002	7.0667e-007
13064	10.286	4.8182	0.	-7.6657
13065	10.194	4.9091	0.	-7.6504
13066	10.286	4.9091	5.e-002	3.7015e-007
13067	10.286	4.6364	0.	-9.8541
13068	10.194	4.7273	0.	-10.069
13069	10.286	4.7273	5.e-002	-5.5844e-007
13070	10.286	4.4545	0.	-11.862
13071	10.194	4.5455	0.	-12.303
13072	10.286	4.5455	5.e-002	1.6151e-007
13073	10.286	4.2727	0.	-13.674
13074	10.194	4.3636	0.	-14.337
13075	10.286	4.3636	5.e-002	-6.4159e-007
13076	10.286	4.0909	0.	-15.276
13077	10.194	4.1818	0.	-16.154
13078	10.286	4.1818	5.e-002	-8.7131e-007
13079	10.286	3.9091	0.	-16.655
13080	10.194	4.	0.	-17.74
13081	10.286	4.	5.e-002	-7.3705e-007
13082	10.286	3.7273	0.	-17.8
13083	10.194	3.8182	0.	-19.082
13084	10.286	3.8182	5.e-002	-2.4356e-007
13085	10.286	3.5455	0.	-18.701
13086	10.194	3.6364	0.	-20.17
13087	10.286	3.6364	5.e-002	2.5908e-007
13088	10.286	3.3636	0.	-19.35
13089	10.194	3.4545	0.	-20.994
13090	10.286	3.4545	5.e-002	6.5645e-007
13091	10.286	3.1818	0.	-19.742
13092	10.194	3.2727	0.	-21.548
13093	10.286	3.2727	5.e-002	-4.2099e-008
13094	10.286	3.	0.	-19.873
13095	10.194	3.0909	0.	-21.826
13096	10.286	3.0909	5.e-002	4.6256e-007
13097	10.286	2.8182	0.	-19.742
13098	10.194	2.9091	0.	-21.826
13099	10.286	2.9091	5.e-002	1.2065e-006
13100	10.286	2.6364	0.	-19.35
13101	10.194	2.7273	0.	-21.548
13102	10.286	2.7273	5.e-002	9.9791e-007
13103	10.286	2.4545	0.	-18.701
13104	10.194	2.5455	0.	-20.994
13105	10.286	2.5455	5.e-002	1.0284e-006
13106	10.286	2.2727	0.	-17.8
13107	10.194	2.3636	0.	-20.17
13108	10.286	2.3636	5.e-002	1.0487e-006
13109	10.286	2.0909	0.	-16.655
13110	10.194	2.1818	0.	-19.082
13111	10.286	2.1818	5.e-002	9.6908e-007
13112	10.286	1.9091	0.	-15.276
13113	10.194	2.	0.	-17.74
13114	10.286	2.	5.e-002	8.785e-007
13115	10.286	1.7273	0.	-13.674
13116	10.194	1.8182	0.	-16.154
13117	10.286	1.8182	5.e-002	1.1097e-006
13118	10.286	1.5455	0.	-11.862
13119	10.194	1.6364	0.	-14.337
13120	10.286	1.6364	5.e-002	1.1427e-006
13121	10.286	1.3636	0.	-9.8541
13122	10.194	1.4545	0.	-12.303
13123	10.286	1.4545	5.e-002	1.1075e-006
13124	10.286	1.1818	0.	-7.6657
13125	10.194	1.2727	0.	-10.069
13126	10.286	1.2727	5.e-002	9.9034e-007
13127	10.286	1.	0.	-5.3128
13128	10.194	1.0909	0.	-7.6504
13129	10.286	1.0909	5.e-002	1.2097e-006
13130	10.286	0.81818	0.	-2.8121
13131	10.194	0.90909	0.	-5.0648
13132	10.286	0.90909	5.e-002	1.1599e-006
13133	10.286	0.63636	0.	-0.2038
13134	10.194	0.72727	0.	-2.3305
13135	10.286	0.72727	5.e-002	1.2972e-006
13136	10.286	0.45455	0.	3.8469e-003
13137	10.194	0.54545	0.	-3.603e-003
13138	10.286	0.54545	5.e-002	1.3476e-006
13139	10.286	0.27273	0.	7.5242e-005
13140	10.194	0.36364	0.	7.7443e-003
13141	10.286	0.36364	5.e-002	1.8396e-006
13142	10.194	0.18182	0.	-8.2253e-003
13143	10.286	0.18182	5.e-002	1.0389e-005
13144	10.286	9.0909e-002	0.	-1.7061e-003
13145	10.102	5.7273	0.	-7.9321e-005
13146	10.01	5.8182	0.	-1.0483e-002
13147	10.102	5.8182	5.e-002	-6.4647e-006
13148	10.102	5.9091	0.	-2.2228e-003
13149	10.102	5.5455	0.	5.2074e-003
13150	10.01	5.6364	0.	9.6535e-003
13151	10.102	5.6364	5.e-002	1.6877e-006
13152	10.102	5.3636	0.	-1.6334
13153	10.01	5.4545	0.	-0.78275
13154	10.102	5.4545	5.e-002	2.0462e-006
13155	10.102	5.1818	0.	-4.6014
13156	10.01	5.2727	0.	-4.0028
13157	10.102	5.2727	5.e-002	8.3099e-007
13158	10.102	5.	0.	-7.42
13159	10.01	5.0909	0.	-7.0739
13160	10.102	5.0909	5.e-002	6.6176e-007
13161	10.102	4.8182	0.	-10.071
13162	10.01	4.9091	0.	-9.9768
13163	10.102	4.9091	5.e-002	2.8221e-007
13164	10.102	4.6364	0.	-12.535
13165	10.01	4.7273	0.	-12.691
13166	10.102	4.7273	5.e-002	-3.2465e-007
13167	10.102	4.4545	0.	-14.794
13168	10.01	4.5455	0.	-15.198
13169	10.102	4.5455	5.e-002	2.4799e-007
13170	10.102	4.2727	0.	-16.832
13171	10.01	4.3636	0.	-17.478
13172	10.102	4.3636	5.e-002	-5.2573e-007
13173	10.102	4.0909	0.	-18.632
13174	10.01	4.1818	0.	-19.514
13175	10.102	4.1818	5.e-002	-1.1268e-006
13176	10.102	3.9091	0.	-20.182
13177	10.01	4.	0.	-21.291
13178	10.102	4.	5.e-002	-6.2563e-007
13179	10.102	3.7273	0.	-21.467
13180	10.01	3.8182	0.	-22.795
13181	10.102	3.8182	5.e-002	-1.3751e-007
13182	10.102	3.5455	0.	-22.478
13183	10.01	3.6364	0.	-24.012
13184	10.102	3.6364	5.e-002	8.5039e-007
13185	10.102	3.3636	0.	-23.206
13186	10.01	3.4545	0.	-24.935
13187	10.102	3.4545	5.e-002	3.9807e-007
13188	10.102	3.1818	0.	-23.646
13189	10.01	3.2727	0.	-25.554
13190	10.102	3.2727	5.e-002	-4.7621e-008
13191	10.102	3.	0.	-23.793
13192	10.01	3.0909	0.	-25.865
13193	10.102	3.0909	5.e-002	9.3752e-007
13194	10.102	2.8182	0.	-23.646
13195	10.01	2.9091	0.	-25.865
13196	10.102	2.9091	5.e-002	1.2082e-006
13197	10.102	2.6364	0.	-23.206
13198	10.01	2.7273	0.	-25.554
13199	10.102	2.7273	5.e-002	1.2405e-006
13200	10.102	2.4545	0.	-22.478
13201	10.01	2.5455	0.	-24.935
13202	10.102	2.5455	5.e-002	1.0346e-006
13203	10.102	2.2727	0.	-21.467
13204	10.01	2.3636	0.	-24.012
13205	10.102	2.3636	5.e-002	8.227e-007
13206	10.102	2.0909	0.	-20.182
13207	10.01	2.1818	0.	-22.795
13208	10.102	2.1818	5.e-002	8.381e-007
13209	10.102	1.9091	0.	-18.632
13210	10.01	2.	0.	-21.291
13211	10.102	2.	5.e-002	8.8133e-007
13212	10.102	1.7273	0.	-16.832
13213	10.01	1.8182	0.	-19.514
13214	10.102	1.8182	5.e-002	1.1268e-006
13215	10.102	1.5455	0.	-14.794
13216	10.01	1.6364	0.	-17.478
13217	10.102	1.6364	5.e-002	1.1832e-006
13218	10.102	1.3636	0.	-12.535
13219	10.01	1.4545	0.	-15.198
13220	10.102	1.4545	5.e-002	1.2307e-006
13221	10.102	1.1818	0.	-10.071
13222	10.01	1.2727	0.	-12.691
13223	10.102	1.2727	5.e-002	1.2348e-006
13224	10.102	1.	0.	-7.42
13225	10.01	1.0909	0.	-9.9768
13226	10.102	1.0909	5.e-002	1.2293e-006
13227	10.102	0.81818	0.	-4.6014
13228	10.01	0.90909	0.	-7.0739
13229	10.102	0.90909	5.e-002	1.4809e-006
13230	10.102	0.63636	0.	-1.6334
13231	10.01	0.72727	0.	-4.0028
13232	10.102	0.72727	5.e-002	1.3431e-006
13233	10.102	0.45455	0.	5.2083e-003
13234	10.01	0.54545	0.	-0.78274
13235	10.102	0.54545	5.e-002	1.6434e-006
13236	10.102	0.27273	0.	-7.8102e-005
13237	10.01	0.36364	0.	9.6549e-003
13238	10.102	0.36364	5.e-002	1.8139e-006
13239	10.01	0.18182	0.	-1.0482e-002
13240	10.102	0.18182	5.e-002	1.2105e-005
13241	10.102	9.0909e-002	0.	-2.2218e-003
13242	9.9184	5.7273	0.	-8.41e-004
13243	9.8265	5.8182	0.	-1.3473e-002
13244	9.9184	5.8182	5.e-002	-1.0996e-005
13245	9.9184	5.9091	0.	-3.0459e-003
13246	9.9184	5.5455	0.	6.5512e-003
13247	9.8265	5.6364	0.	1.1223e-002
13248	9.9184	5.6364	5.e-002	1.6697e-006
13249	9.9184	5.3636	0.	-3.1706
13250	9.8265	5.4545	0.	-2.1792
13251	9.9184	5.4545	5.e-002	1.8905e-006
13252	9.9184	5.1818	0.	-6.4931
13253	9.8265	5.2727	0.	-5.7734
13254	9.9184	5.2727	5.e-002	4.4123e-007
13255	9.9184	5.	0.	-9.6477
13256	9.8265	5.0909	0.	-9.2008
13257	9.9184	5.0909	5.e-002	3.7976e-007
13258	9.9184	4.8182	0.	-12.614
13259	9.8265	4.9091	0.	-12.44
13260	9.9184	4.9091	5.e-002	-1.3699e-007
13261	9.9184	4.6364	0.	-15.37
13262	9.8265	4.7273	0.	-15.469
13263	9.9184	4.7273	5.e-002	-4.2862e-007
13264	9.9184	4.4545	0.	-17.897
13265	9.8265	4.5455	0.	-18.266
13266	9.9184	4.5455	5.e-002	1.2604e-008
13267	9.9184	4.2727	0.	-20.176
13268	9.8265	4.3636	0.	-20.809
13269	9.9184	4.3636	5.e-002	-9.675e-007
13270	9.9184	4.0909	0.	-22.188
13271	9.8265	4.1818	0.	-23.079
13272	9.9184	4.1818	5.e-002	-1.1686e-006
13273	9.9184	3.9091	0.	-23.918
13274	9.8265	4.	0.	-25.06
13275	9.9184	4.	5.e-002	-6.5007e-007
13276	9.9184	3.7273	0.	-25.354
13277	9.8265	3.8182	0.	-26.735
13278	9.9184	3.8182	5.e-002	-6.268e-007
13279	9.9184	3.5455	0.	-26.483
13280	9.8265	3.6364	0.	-28.092
13281	9.9184	3.6364	5.e-002	3.7138e-007
13282	9.9184	3.3636	0.	-27.296
13283	9.8265	3.4545	0.	-29.119
13284	9.9184	3.4545	5.e-002	3.8164e-007
13285	9.9184	3.1818	0.	-27.786
13286	9.8265	3.2727	0.	-29.808
13287	9.9184	3.2727	5.e-002	1.8377e-007
13288	9.9184	3.	0.	-27.95
13289	9.8265	3.0909	0.	-30.154
13290	9.9184	3.0909	5.e-002	4.5855e-007
13291	9.9184	2.8182	0.	-27.786
13292	9.8265	2.9091	0.	-30.154
13293	9.9184	2.9091	5.e-002	9.7219e-007
13294	9.9184	2.6364	0.	-27.296
13295	9.8265	2.7273	0.	-29.808
13296	9.9184	2.7273	5.e-002	7.7242e-007
13297	9.9184	2.4545	0.	-26.483
13298	9.8265	2.5455	0.	-29.119
13299	9.9184	2.5455	5.e-002	8.0386e-007
13300	9.9184	2.2727	0.	-25.354
13301	9.8265	2.3636	0.	-28.092
13302	9.9184	2.3636	5.e-002	1.0779e-006
13303	9.9184	2.0909	0.	-23.918
13304	9.8265	2.1818	0.	-26.735
13305	9.9184	2.1818	5.e-002	8.7648e-007
13306	9.9184	1.9091	0.	-22.188
13307	9.8265	2.	0.	-25.06
13308	9.9184	2.	5.e-002	6.7007e-007
13309	9.9184	1.7273	0.	-20.176
13310	9.8265	1.8182	0.	-23.079
13311	9.9184	1.8182	5.e-002	1.2096e-006
13312	9.9184	1.5455	0.	-17.897
13313	9.8265	1.6364	0.	-20.809
13314	9.9184	1.6364	5.e-002	9.6082e-007
13315	9.9184	1.3636	0.	-15.37
13316	9.8265	1.4545	0.	-18.266
13317	9.9184	1.4545	5.e-002	7.5902e-007
13318	9.9184	1.1818	0.	-12.614
13319	9.8265	1.2727	0.	-15.469
13320	9.9184	1.2727	5.e-002	9.3672e-007
13321	9.9184	1.	0.	-9.6477
13322	9.8265	1.0909	0.	-12.44
13323	9.9184	1.0909	5.e-002	8.4507e-007
13324	9.9184	0.81818	0.	-6.4931
13325	9.8265	0.90909	0.	-9.2007
13326	9.9184	0.90909	5.e-002	8.7922e-007
13327	9.9184	0.63636	0.	-3.1706
13328	9.8265	0.72727	0.	-5.7733
13329	9.9184	0.72727	5.e-002	1.7498e-006
13330	9.9184	0.45455	0.	6.5519e-003
13331	9.8265	0.54545	0.	-2.1792
13332	9.9184	0.54545	5.e-002	1.6917e-006
13333	9.9184	0.27273	0.	-8.3963e-004
13334	9.8265	0.36364	0.	1.1224e-002
13335	9.9184	0.36364	5.e-002	1.7842e-006
13336	9.8265	0.18182	0.	-1.3471e-002
13337	9.9184	0.18182	5.e-002	1.4091e-005
13338	9.9184	9.0909e-002	0.	-3.045e-003
13339	9.7347	5.7273	0.	-2.7791e-003
13340	9.6429	5.8182	0.	-1.756e-002
13341	9.7347	5.8182	5.e-002	-1.2791e-005
13342	9.7347	5.9091	0.	-4.3111e-003
13343	9.7347	5.5455	0.	-0.91054
13344	9.6429	5.6364	0.	9.3672e-003
13345	9.7347	5.6364	5.e-002	1.308e-006
13346	9.7347	5.3636	0.	-4.8003
13347	9.6429	5.4545	0.	-3.6619
13348	9.7347	5.4545	5.e-002	1.9123e-006
13349	9.7347	5.1818	0.	-8.4983
13350	9.6429	5.2727	0.	-7.6521
13351	9.7347	5.2727	5.e-002	8.9384e-007
13352	9.7347	5.	0.	-12.01
13353	9.6429	5.0909	0.	-11.458
13354	9.7347	5.0909	5.e-002	4.2667e-007
13355	9.7347	4.8182	0.	-15.312
13356	9.6429	4.9091	0.	-15.056
13357	9.7347	4.9091	5.e-002	3.9005e-007
13358	9.7347	4.6364	0.	-18.38
13359	9.6429	4.7273	0.	-18.42
13360	9.7347	4.7273	5.e-002	-3.2432e-007
13361	9.7347	4.4545	0.	-21.192
13362	9.6429	4.5455	0.	-21.526
13363	9.7347	4.5455	5.e-002	7.5661e-007
13364	9.7347	4.2727	0.	-23.726
13365	9.6429	4.3636	0.	-24.35
13366	9.7347	4.3636	5.e-002	-4.4579e-007
13367	9.7347	4.0909	0.	-25.965
13368	9.6429	4.1818	0.	-26.87
13369	9.7347	4.1818	5.e-002	-2.3438e-007
13370	9.7347	3.9091	0.	-27.89
13371	9.6429	4.	0.	-29.069
13372	9.7347	4.	5.e-002	-7.1674e-007
13373	9.7347	3.7273	0.	-29.486
13374	9.6429	3.8182	0.	-30.928
13375	9.7347	3.8182	5.e-002	3.1256e-007
13376	9.7347	3.5455	0.	-30.741
13377	9.6429	3.6364	0.	-32.434
13378	9.7347	3.6364	5.e-002	5.8019e-007
13379	9.7347	3.3636	0.	-31.644
13380	9.6429	3.4545	0.	-33.573
13381	9.7347	3.4545	5.e-002	-1.0279e-007
13382	9.7347	3.1818	0.	-32.189
13383	9.6429	3.2727	0.	-34.338
13384	9.7347	3.2727	5.e-002	-6.2112e-008
13385	9.7347	3.	0.	-32.371
13386	9.6429	3.0909	0.	-34.722
13387	9.7347	3.0909	5.e-002	9.3223e-007
13388	9.7347	2.8182	0.	-32.189
13389	9.6429	2.9091	0.	-34.722
13390	9.7347	2.9091	5.e-002	1.2141e-006
13391	9.7347	2.6364	0.	-31.644
13392	9.6429	2.7273	0.	-34.338
13393	9.7347	2.7273	5.e-002	1.0206e-006
13394	9.7347	2.4545	0.	-30.741
13395	9.6429	2.5455	0.	-33.573
13396	9.7347	2.5455	5.e-002	5.8498e-007
13397	9.7347	2.2727	0.	-29.486
13398	9.6429	2.3636	0.	-32.434
13399	9.7347	2.3636	5.e-002	1.0959e-006
13400	9.7347	2.0909	0.	-27.89
13401	9.6429	2.1818	0.	-30.928
13402	9.7347	2.1818	5.e-002	1.1554e-006
13403	9.7347	1.9091	0.	-25.965
13404	9.6429	2.	0.	-29.069
13405	9.7347	2.	5.e-002	1.0006e-006
13406	9.7347	1.7273	0.	-23.726
13407	9.6429	1.8182	0.	-26.87
13408	9.7347	1.8182	5.e-002	1.2107e-006
13409	9.7347	1.5455	0.	-21.192
13410	9.6429	1.6364	0.	-24.35
13411	9.7347	1.6364	5.e-002	1.517e-006
13412	9.7347	1.3636	0.	-18.38
13413	9.6429	1.4545	0.	-21.526
13414	9.7347	1.4545	5.e-002	1.2855e-006
13415	9.7347	1.1818	0.	-15.312
13416	9.6429	1.2727	0.	-18.42
13417	9.7347	1.2727	5.e-002	1.2192e-006
13418	9.7347	1.	0.	-12.01
13419	9.6429	1.0909	0.	-15.056
13420	9.7347	1.0909	5.e-002	1.4428e-006
13421	9.7347	0.81818	0.	-8.4983
13422	9.6429	0.90909	0.	-11.458
13423	9.7347	0.90909	5.e-002	9.2357e-007
13424	9.7347	0.63636	0.	-4.8003
13425	9.6429	0.72727	0.	-7.6521
13426	9.7347	0.72727	5.e-002	1.999e-006
13427	9.7347	0.45455	0.	-0.91051
13428	9.6429	0.54545	0.	-3.6619
13429	9.7347	0.54545	5.e-002	2.837e-006
13430	9.7347	0.27273	0.	-2.7779e-003
13431	9.6429	0.36364	0.	9.3687e-003
13432	9.7347	0.36364	5.e-002	1.8194e-006
13433	9.6429	0.18182	0.	-1.7559e-002
13434	9.7347	0.18182	5.e-002	1.6659e-005
13435	9.7347	9.0909e-002	0.	-4.3101e-003
13436	9.551	5.7273	0.	-7.3384e-003
13437	9.4592	5.8182	0.	-2.3364e-002
13438	9.551	5.8182	5.e-002	-1.4224e-005
13439	9.551	5.9091	0.	-6.2461e-003
13440	9.551	5.5455	0.	-2.2266
13441	9.4592	5.6364	0.	-0.602
13442	9.551	5.6364	5.e-002	1.1847e-006
13443	9.551	5.3636	0.	-6.5314
13444	9.4592	5.4545	0.	-5.2379
13445	9.551	5.4545	5.e-002	1.8257e-006
13446	9.551	5.1818	0.	-10.629
13447	9.4592	5.2727	0.	-9.6503
13448	9.551	5.2727	5.e-002	6.4177e-007
13449	9.551	5.	0.	-14.521
13450	9.4592	5.0909	0.	-13.861
13451	9.551	5.0909	5.e-002	3.1856e-007
13452	9.551	4.8182	0.	-18.181
13453	9.4592	4.9091	0.	-17.841
13454	9.551	4.9091	5.e-002	6.3349e-007
13455	9.551	4.6364	0.	-21.581
13456	9.4592	4.7273	0.	-21.563
13457	9.551	4.7273	5.e-002	-5.869e-007
13458	9.551	4.4545	0.	-24.698
13459	9.4592	4.5455	0.	-24.999
13460	9.551	4.5455	5.e-002	5.6356e-007
13461	9.551	4.2727	0.	-27.507
13462	9.4592	4.3636	0.	-28.124
13463	9.551	4.3636	5.e-002	-3.4487e-007
13464	9.551	4.0909	0.	-29.988
13465	9.4592	4.1818	0.	-30.912
13466	9.551	4.1818	5.e-002	-1.0131e-006
13467	9.551	3.9091	0.	-32.12
13468	9.4592	4.	0.	-33.344
13469	9.551	4.	5.e-002	-4.926e-007
13470	9.551	3.7273	0.	-33.889
13471	9.4592	3.8182	0.	-35.401
13472	9.551	3.8182	5.e-002	4.5181e-008
13473	9.551	3.5455	0.	-35.279
13474	9.4592	3.6364	0.	-37.066
13475	9.551	3.6364	5.e-002	2.979e-007
13476	9.551	3.3636	0.	-36.28
13477	9.4592	3.4545	0.	-38.327
13478	9.551	3.4545	5.e-002	1.3082e-006
13479	9.551	3.1818	0.	-36.883
13480	9.4592	3.2727	0.	-39.173
13481	9.551	3.2727	5.e-002	-7.3741e-008
13482	9.551	3.	0.	-37.085
13483	9.4592	3.0909	0.	-39.598
13484	9.551	3.0909	5.e-002	9.287e-007
13485	9.551	2.8182	0.	-36.883
13486	9.4592	2.9091	0.	-39.598
13487	9.551	2.9091	5.e-002	1.4558e-006
13488	9.551	2.6364	0.	-36.28
13489	9.4592	2.7273	0.	-39.173
13490	9.551	2.7273	5.e-002	1.506e-006
13491	9.551	2.4545	0.	-35.279
13492	9.4592	2.5455	0.	-38.327
13493	9.551	2.5455	5.e-002	6.0384e-007
13494	9.551	2.2727	0.	-33.889
13495	9.4592	2.3636	0.	-37.066
13496	9.551	2.3636	5.e-002	2.0951e-006
13497	9.551	2.0909	0.	-32.12
13498	9.4592	2.1818	0.	-35.401
13499	9.551	2.1818	5.e-002	7.0663e-007
13500	9.551	1.9091	0.	-29.988
13501	9.4592	2.	0.	-33.344
13502	9.551	2.	5.e-002	7.3085e-007
13503	9.551	1.7273	0.	-27.507
13504	9.4592	1.8182	0.	-30.912
13505	9.551	1.8182	5.e-002	1.2514e-006
13506	9.551	1.5455	0.	-24.698
13507	9.4592	1.6364	0.	-28.124
13508	9.551	1.6364	5.e-002	1.3353e-006
13509	9.551	1.3636	0.	-21.581
13510	9.4592	1.4545	0.	-24.999
13511	9.551	1.4545	5.e-002	1.6251e-006
13512	9.551	1.1818	0.	-18.181
13513	9.4592	1.2727	0.	-21.563
13514	9.551	1.2727	5.e-002	1.6732e-006
13515	9.551	1.	0.	-14.521
13516	9.4592	1.0909	0.	-17.841
13517	9.551	1.0909	5.e-002	1.893e-006
13518	9.551	0.81818	0.	-10.629
13519	9.4592	0.90909	0.	-13.861
13520	9.551	0.90909	5.e-002	1.4044e-006
13521	9.551	0.63636	0.	-6.5314
13522	9.4592	0.72727	0.	-9.6503
13523	9.551	0.72727	5.e-002	2.2123e-006
13524	9.551	0.45455	0.	-2.2266
13525	9.4592	0.54545	0.	-5.2379
13526	9.551	0.54545	5.e-002	3.0793e-006
13527	9.551	0.27273	0.	-7.3368e-003
13528	9.4592	0.36364	0.	-0.60197
13529	9.551	0.36364	5.e-002	2.3206e-006
13530	9.4592	0.18182	0.	-2.3363e-002
13531	9.551	0.18182	5.e-002	1.6727e-005
13532	9.551	9.0909e-002	0.	-6.2448e-003
13533	9.3673	5.7273	0.	-1.9218e-002
13534	9.2755	5.8182	0.	-3.1977e-002
13535	9.3673	5.8182	5.e-002	-1.3894e-005
13536	9.3673	5.9091	0.	-9.1959e-003
13537	9.3673	5.5455	0.	-3.6259
13538	9.2755	5.6364	0.	-1.81
13539	9.3673	5.6364	5.e-002	1.1354e-006
13540	9.3673	5.3636	0.	-8.3738
13541	9.2755	5.4545	0.	-6.9159
13542	9.3673	5.4545	5.e-002	1.4616e-006
13543	9.3673	5.1818	0.	-12.898
13544	9.2755	5.2727	0.	-11.78
13545	9.3673	5.2727	5.e-002	2.541e-007
13546	9.3673	5.	0.	-17.197
13547	9.2755	5.0909	0.	-16.422
13548	9.3673	5.0909	5.e-002	2.7533e-008
13549	9.3673	4.8182	0.	-21.239
13550	9.2755	4.9091	0.	-20.812
13551	9.3673	4.9091	5.e-002	-3.0528e-007
13552	9.3673	4.6364	0.	-24.995
13553	9.2755	4.7273	0.	-24.918
13554	9.3673	4.7273	5.e-002	-4.7746e-007
13555	9.3673	4.4545	0.	-28.438
13556	9.2755	4.5455	0.	-28.708
13557	9.3673	4.5455	5.e-002	2.5358e-008
13558	9.3673	4.2727	0.	-31.542
13559	9.2755	4.3636	0.	-32.154
13560	9.3673	4.3636	5.e-002	-7.7848e-007
13561	9.3673	4.0909	0.	-34.282
13562	9.2755	4.1818	0.	-35.23
13563	9.3673	4.1818	5.e-002	-8.5358e-007
13564	9.3673	3.9091	0.	-36.637
13565	9.2755	4.	0.	-37.913
13566	9.3673	4.	5.e-002	-1.2695e-006
13567	9.3673	3.7273	0.	-38.591
13568	9.2755	3.8182	0.	-40.182
13569	9.3673	3.8182	5.e-002	-2.4072e-007
13570	9.3673	3.5455	0.	-40.126
13571	9.2755	3.6364	0.	-42.019
13572	9.3673	3.6364	5.e-002	2.8436e-007
13573	9.3673	3.3636	0.	-41.232
13574	9.2755	3.4545	0.	-43.409
13575	9.3673	3.4545	5.e-002	3.3991e-007
13576	9.3673	3.1818	0.	-41.898
13577	9.2755	3.2727	0.	-44.342
13578	9.3673	3.2727	5.e-002	-8.2632e-008
13579	9.3673	3.	0.	-42.121
13580	9.2755	3.0909	0.	-44.811
13581	9.3673	3.0909	5.e-002	9.2534e-007
13582	9.3673	2.8182	0.	-41.898
13583	9.2755	2.9091	0.	-44.811
13584	9.3673	2.9091	5.e-002	9.8199e-007
13585	9.3673	2.6364	0.	-41.232
13586	9.2755	2.7273	0.	-44.342
13587	9.3673	2.7273	5.e-002	1.513e-006
13588	9.3673	2.4545	0.	-40.126
13589	9.2755	2.5455	0.	-43.409
13590	9.3673	2.5455	5.e-002	1.567e-006
13591	9.3673	2.2727	0.	-38.591
13592	9.2755	2.3636	0.	-42.019
13593	9.3673	2.3636	5.e-002	1.1551e-006
13594	9.3673	2.0909	0.	-36.637
13595	9.2755	2.1818	0.	-40.182
13596	9.3673	2.1818	5.e-002	1.2179e-006
13597	9.3673	1.9091	0.	-34.282
13598	9.2755	2.	0.	-37.913
13599	9.3673	2.	5.e-002	1.2985e-006
13600	9.3673	1.7273	0.	-31.542
13601	9.2755	1.8182	0.	-35.23
13602	9.3673	1.8182	5.e-002	1.3341e-006
13603	9.3673	1.5455	0.	-28.438
13604	9.2755	1.6364	0.	-32.154
13605	9.3673	1.6364	5.e-002	1.7307e-006
13606	9.3673	1.3636	0.	-24.995
13607	9.2755	1.4545	0.	-28.708
13608	9.3673	1.4545	5.e-002	1.4024e-006
13609	9.3673	1.1818	0.	-21.239
13610	9.2755	1.2727	0.	-24.918
13611	9.3673	1.2727	5.e-002	1.4977e-006
13612	9.3673	1.	0.	-17.196
13613	9.2755	1.0909	0.	-20.812
13614	9.3673	1.0909	5.e-002	1.5727e-006
13615	9.3673	0.81818	0.	-12.898
13616	9.2755	0.90909	0.	-16.422
13617	9.3673	0.90909	5.e-002	1.9444e-006
13618	9.3673	0.63636	0.	-8.3738
13619	9.2755	0.72727	0.	-11.78
13620	9.3673	0.72727	5.e-002	1.4097e-006
13621	9.3673	0.45455	0.	-3.6259
13622	9.2755	0.54545	0.	-6.9158
13623	9.3673	0.54545	5.e-002	1.7531e-006
13624	9.3673	0.27273	0.	-1.9216e-002
13625	9.2755	0.36364	0.	-1.81
13626	9.3673	0.36364	5.e-002	1.742e-006
13627	9.2755	0.18182	0.	-3.1976e-002
13628	9.3673	0.18182	5.e-002	1.7866e-005
13629	9.3673	9.0909e-002	0.	-9.1945e-003
13630	9.1837	5.7273	0.	-6.5648e-002
13631	9.0918	5.8182	0.	-4.5595e-002
13632	9.1837	5.8182	5.e-002	-1.2019e-005
13633	9.1837	5.9091	0.	-1.3704e-002
13634	9.1837	5.5455	0.	-5.1158
13635	9.0918	5.6364	0.	-3.0991
13636	9.1837	5.6364	5.e-002	1.0399e-006
13637	9.1837	5.3636	0.	-10.338
13638	9.0918	5.4545	0.	-8.7051
13639	9.1837	5.4545	5.e-002	7.738e-007
13640	9.1837	5.1818	0.	-15.319
13641	9.0918	5.2727	0.	-14.052
13642	9.1837	5.2727	5.e-002	4.7303e-007
13643	9.1837	5.	0.	-20.053
13644	9.0918	5.0909	0.	-19.158
13645	9.1837	5.0909	5.e-002	1.4617e-007
13646	9.1837	4.8182	0.	-24.505
13647	9.0918	4.9091	0.	-23.987
13648	9.1837	4.9091	5.e-002	2.0099e-007
13649	9.1837	4.6364	0.	-28.643
13650	9.0918	4.7273	0.	-28.504
13651	9.1837	4.7273	5.e-002	-7.1368e-007
13652	9.1837	4.4545	0.	-32.436
13653	9.0918	4.5455	0.	-32.674
13654	9.1837	4.5455	5.e-002	1.2273e-007
13655	9.1837	4.2727	0.	-35.855
13656	9.0918	4.3636	0.	-36.466
13657	9.1837	4.3636	5.e-002	-8.7375e-007
13658	9.1837	4.0909	0.	-38.874
13659	9.0918	4.1818	0.	-39.852
13660	9.1837	4.1818	5.e-002	-2.9953e-007
13661	9.1837	3.9091	0.	-41.469
13662	9.0918	4.	0.	-42.805
13663	9.1837	4.	5.e-002	-1.2433e-006
13664	9.1837	3.7273	0.	-43.621
13665	9.0918	3.8182	0.	-45.301
13666	9.1837	3.8182	5.e-002	-7.6653e-007
13667	9.1837	3.5455	0.	-45.313
13668	9.0918	3.6364	0.	-47.323
13669	9.1837	3.6364	5.e-002	2.5621e-007
13670	9.1837	3.3636	0.	-46.531
13671	9.0918	3.4545	0.	-48.853
13672	9.1837	3.4545	5.e-002	-1.449e-007
13673	9.1837	3.1818	0.	-47.266
13674	9.0918	3.2727	0.	-49.88
13675	9.1837	3.2727	5.e-002	-9.2094e-008
13676	9.1837	3.	0.	-47.511
13677	9.0918	3.0909	0.	-50.396
13678	9.1837	3.0909	5.e-002	4.4597e-007
13679	9.1837	2.8182	0.	-47.266
13680	9.0918	2.9091	0.	-50.396
13681	9.1837	2.9091	5.e-002	5.0833e-007
13682	9.1837	2.6364	0.	-46.531
13683	9.0918	2.7273	0.	-49.88
13684	9.1837	2.7273	5.e-002	5.6658e-007
13685	9.1837	2.4545	0.	-45.313
13686	9.0918	2.5455	0.	-48.853
13687	9.1837	2.5455	5.e-002	6.3705e-007
13688	9.1837	2.2727	0.	-43.621
13689	9.0918	2.3636	0.	-47.323
13690	9.1837	2.3636	5.e-002	1.1842e-006
13691	9.1837	2.0909	0.	-41.469
13692	9.0918	2.1818	0.	-45.301
13693	9.1837	2.1818	5.e-002	1.7437e-006
13694	9.1837	1.9091	0.	-38.874
13695	9.0918	2.	0.	-42.805
13696	9.1837	2.	5.e-002	1.3456e-006
13697	9.1837	1.7273	0.	-35.855
13698	9.0918	1.8182	0.	-39.852
13699	9.1837	1.8182	5.e-002	1.2517e-006
13700	9.1837	1.5455	0.	-32.436
13701	9.0918	1.6364	0.	-36.466
13702	9.1837	1.6364	5.e-002	9.9369e-007
13703	9.1837	1.3636	0.	-28.643
13704	9.0918	1.4545	0.	-32.674
13705	9.1837	1.4545	5.e-002	1.4507e-006
13706	9.1837	1.1818	0.	-24.505
13707	9.0918	1.2727	0.	-28.504
13708	9.1837	1.2727	5.e-002	1.7659e-006
13709	9.1837	1.	0.	-20.053
13710	9.0918	1.0909	0.	-23.987
13711	9.1837	1.0909	5.e-002	2.0151e-006
13712	9.1837	0.81818	0.	-15.319
13713	9.0918	0.90909	0.	-19.158
13714	9.1837	0.90909	5.e-002	1.3982e-006
13715	9.1837	0.63636	0.	-10.338
13716	9.0918	0.72727	0.	-14.052
13717	9.1837	0.72727	5.e-002	1.6655e-006
13718	9.1837	0.45455	0.	-5.1158
13719	9.0918	0.54545	0.	-8.7051
13720	9.1837	0.54545	5.e-002	1.591e-006
13721	9.1837	0.27273	0.	-6.5643e-002
13722	9.0918	0.36364	0.	-3.099
13723	9.1837	0.36364	5.e-002	1.3893e-006
13724	9.0918	0.18182	0.	-4.5593e-002
13725	9.1837	0.18182	5.e-002	1.828e-005
13726	9.1837	9.0909e-002	0.	-1.3703e-002
13727	9.	5.7273	0.	-0.48749
13728	8.9082	5.8182	0.	-6.9314e-002
13729	9.	5.8182	5.e-002	-1.7074e-005
13730	9.	5.9091	0.	-2.0793e-002
13731	9.	5.5455	0.	-6.7043
13732	8.9082	5.6364	0.	-4.4732
13733	9.	5.6364	5.e-002	8.6742e-007
13734	9.	5.3636	0.	-12.435
13735	8.9082	5.4545	0.	-10.615
13736	9.	5.4545	5.e-002	6.2718e-007
13737	9.	5.1818	0.	-17.906
13738	8.9082	5.2727	0.	-16.482
13739	9.	5.2727	5.e-002	-2.5302e-007
13740	9.	5.	0.	-23.107
13741	8.9082	5.0909	0.	-22.085
13742	9.	5.0909	5.e-002	-5.3131e-008
13743	9.	4.8182	0.	-27.999
13744	8.9082	4.9091	0.	-27.386
13745	9.	4.9091	5.e-002	1.0612e-007
13746	9.	4.6364	0.	-32.547
13747	8.9082	4.7273	0.	-32.344
13748	9.	4.7273	5.e-002	-3.3792e-007
13749	9.	4.4545	0.	-36.716
13750	8.9082	4.5455	0.	-36.923
13751	9.	4.5455	5.e-002	-5.9603e-007
13752	9.	4.2727	0.	-40.475
13753	8.9082	4.3636	0.	-41.088
13754	9.	4.3636	5.e-002	-5.9795e-007
13755	9.	4.0909	0.	-43.794
13756	8.9082	4.1818	0.	-44.806
13757	9.	4.1818	5.e-002	-8.0869e-007
13758	9.	3.9091	0.	-46.647
13759	8.9082	4.	0.	-48.049
13760	9.	4.	5.e-002	-1.7586e-006
13761	9.	3.7273	0.	-49.013
13762	8.9082	3.8182	0.	-50.792
13763	9.	3.8182	5.e-002	-2.9809e-007
13764	9.	3.5455	0.	-50.873
13765	8.9082	3.6364	0.	-53.012
13766	9.	3.6364	5.e-002	2.5356e-007
13767	9.	3.3636	0.	-52.212
13768	8.9082	3.4545	0.	-54.693
13769	9.	3.4545	5.e-002	-1.5231e-007
13770	9.	3.1818	0.	-53.02
13771	8.9082	3.2727	0.	-55.821
13772	9.	3.2727	5.e-002	3.8228e-007
13773	9.	3.	0.	-53.29
13774	8.9082	3.0909	0.	-56.388
13775	9.	3.0909	5.e-002	-3.377e-008
13776	9.	2.8182	0.	-53.02
13777	8.9082	2.9091	0.	-56.388
13778	9.	2.9091	5.e-002	1.9414e-006
13779	9.	2.6364	0.	-52.212
13780	8.9082	2.7273	0.	-55.821
13781	9.	2.7273	5.e-002	1.0541e-006
13782	9.	2.4545	0.	-50.873
13783	8.9082	2.5455	0.	-54.693
13784	9.	2.5455	5.e-002	6.3746e-007
13785	9.	2.2727	0.	-49.013
13786	8.9082	2.3636	0.	-53.012
13787	9.	2.3636	5.e-002	1.6594e-006
13788	9.	2.0909	0.	-46.647
13789	8.9082	2.1818	0.	-50.792
13790	9.	2.1818	5.e-002	8.043e-007
13791	9.	1.9091	0.	-43.794
13792	8.9082	2.	0.	-48.049
13793	9.	2.	5.e-002	1.8377e-006
13794	9.	1.7273	0.	-40.475
13795	8.9082	1.8182	0.	-44.806
13796	9.	1.8182	5.e-002	1.8021e-006
13797	9.	1.5455	0.	-36.716
13798	8.9082	1.6364	0.	-41.088
13799	9.	1.6364	5.e-002	2.5007e-006
13800	9.	1.3636	0.	-32.547
13801	8.9082	1.4545	0.	-36.923
13802	9.	1.4545	5.e-002	1.1488e-006
13803	9.	1.1818	0.	-27.999
13804	8.9082	1.2727	0.	-32.344
13805	9.	1.2727	5.e-002	1.1394e-006
13806	9.	1.	0.	-23.107
13807	8.9082	1.0909	0.	-27.386
13808	9.	1.0909	5.e-002	1.8008e-006
13809	9.	0.81818	0.	-17.906
13810	8.9082	0.90909	0.	-22.085
13811	9.	0.90909	5.e-002	1.3765e-006
13812	9.	0.63636	0.	-12.435
13813	8.9082	0.72727	0.	-16.482
13814	9.	0.72727	5.e-002	1.292e-006
13815	9.	0.45455	0.	-6.7043
13816	8.9082	0.54545	0.	-10.615
13817	9.	0.54545	5.e-002	1.116e-006
13818	9.	0.27273	0.	-0.48746
13819	8.9082	0.36364	0.	-4.4732
13820	9.	0.36364	5.e-002	1.7461e-006
13821	8.9082	0.18182	0.	-6.9312e-002
13822	9.	0.18182	5.e-002	1.9177e-005
13823	9.	9.0909e-002	0.	-2.0791e-002
13824	8.8163	5.7273	0.	-1.5449
13825	8.7245	5.8182	0.	-0.11752
13826	8.8163	5.8182	5.e-002	-1.9253e-005
13827	8.8163	5.9091	0.	-3.2498e-002
13828	8.8163	5.5455	0.	-8.3999
13829	8.7245	5.6364	0.	-5.9389
13830	8.8163	5.6364	5.e-002	3.2789e-007
13831	8.8163	5.3636	0.	-14.677
13832	8.7245	5.4545	0.	-12.657
13833	8.8163	5.4545	5.e-002	8.6442e-007
13834	8.8163	5.1818	0.	-20.674
13835	8.7245	5.2727	0.	-19.081
13836	8.8163	5.2727	5.e-002	-4.8464e-007
13837	8.8163	5.	0.	-26.377
13838	8.7245	5.0909	0.	-25.22
13839	8.8163	5.0909	5.e-002	2.8759e-007
13840	8.8163	4.8182	0.	-31.743
13841	8.7245	4.9091	0.	-31.028
13842	8.8163	4.9091	5.e-002	-2.4412e-007
13843	8.8163	4.6364	0.	-36.732
13844	8.7245	4.7273	0.	-36.462
13845	8.8163	4.7273	5.e-002	-1.2362e-006
13846	8.8163	4.4545	0.	-41.306
13847	8.7245	4.5455	0.	-41.481
13848	8.8163	4.5455	5.e-002	-2.064e-007
13849	8.8163	4.2727	0.	-45.43
13850	8.7245	4.3636	0.	-46.047
13851	8.8163	4.3636	5.e-002	-1.1635e-006
13852	8.8163	4.0909	0.	-49.072
13853	8.7245	4.1818	0.	-50.124
13854	8.8163	4.1818	5.e-002	-9.1502e-007
13855	8.8163	3.9091	0.	-52.203
13856	8.7245	4.	0.	-53.68
13857	8.8163	4.	5.e-002	-3.5694e-007
13858	8.8163	3.7273	0.	-54.8
13859	8.7245	3.8182	0.	-56.688
13860	8.8163	3.8182	5.e-002	-3.3656e-007
13861	8.8163	3.5455	0.	-56.842
13862	8.7245	3.6364	0.	-59.123
13863	8.8163	3.6364	5.e-002	-2.335e-007
13864	8.8163	3.3636	0.	-58.312
13865	8.7245	3.4545	0.	-60.967
13866	8.8163	3.4545	5.e-002	7.6389e-007
13867	8.8163	3.1818	0.	-59.198
13868	8.7245	3.2727	0.	-62.204
13869	8.8163	3.2727	5.e-002	3.6669e-007
13870	8.8163	3.	0.	-59.495
13871	8.7245	3.0909	0.	-62.825
13872	8.8163	3.0909	5.e-002	1.3932e-006
13873	8.8163	2.8182	0.	-59.198
13874	8.7245	2.9091	0.	-62.825
13875	8.8163	2.9091	5.e-002	5.134e-007
13876	8.8163	2.6364	0.	-58.312
13877	8.7245	2.7273	0.	-62.204
13878	8.8163	2.7273	5.e-002	1.5404e-006
13879	8.8163	2.4545	0.	-56.842
13880	8.7245	2.5455	0.	-60.967
13881	8.8163	2.5455	5.e-002	1.1427e-006
13882	8.8163	2.2727	0.	-54.8
13883	8.7245	2.3636	0.	-59.123
13884	8.8163	2.3636	5.e-002	2.1976e-006
13885	8.8163	2.0909	0.	-52.203
13886	8.7245	2.1818	0.	-56.688
13887	8.8163	2.1818	5.e-002	8.1283e-007
13888	8.8163	1.9091	0.	-49.072
13889	8.7245	2.	0.	-53.68
13890	8.8163	2.	5.e-002	1.4147e-006
13891	8.8163	1.7273	0.	-45.43
13892	8.7245	1.8182	0.	-50.124
13893	8.8163	1.8182	5.e-002	1.3907e-006
13894	8.8163	1.5455	0.	-41.306
13895	8.7245	1.6364	0.	-46.047
13896	8.8163	1.6364	5.e-002	1.6389e-006
13897	8.8163	1.3636	0.	-36.732
13898	8.7245	1.4545	0.	-41.481
13899	8.8163	1.4545	5.e-002	1.6279e-006
13900	8.8163	1.1818	0.	-31.743
13901	8.7245	1.2727	0.	-36.462
13902	8.8163	1.2727	5.e-002	1.4986e-006
13903	8.8163	1.	0.	-26.377
13904	8.7245	1.0909	0.	-31.028
13905	8.8163	1.0909	5.e-002	2.5597e-006
13906	8.8163	0.81818	0.	-20.674
13907	8.7245	0.90909	0.	-25.22
13908	8.8163	0.90909	5.e-002	1.7505e-006
13909	8.8163	0.63636	0.	-14.677
13910	8.7245	0.72727	0.	-19.081
13911	8.8163	0.72727	5.e-002	1.7952e-006
13912	8.8163	0.45455	0.	-8.3999
13913	8.7245	0.54545	0.	-12.657
13914	8.8163	0.54545	5.e-002	1.7411e-006
13915	8.8163	0.27273	0.	-1.5448
13916	8.7245	0.36364	0.	-5.9389
13917	8.8163	0.36364	5.e-002	1.6243e-006
13918	8.7245	0.18182	0.	-0.11751
13919	8.8163	0.18182	5.e-002	2.4511e-005
13920	8.8163	9.0909e-002	0.	-3.2497e-002
13921	8.6327	5.7273	0.	-2.7496
13922	8.5408	5.8182	0.	-0.24409
13923	8.6327	5.8182	5.e-002	-1.3578e-005
13924	8.6327	5.9091	0.	-5.3348e-002
13925	8.6327	5.5455	0.	-10.211
13926	8.5408	5.6364	0.	-7.5031
13927	8.6327	5.6364	5.e-002	3.4107e-007
13928	8.6327	5.3636	0.	-17.076
13929	8.5408	5.4545	0.	-14.841
13930	8.6327	5.4545	5.e-002	5.2008e-007
13931	8.6327	5.1818	0.	-23.64
13932	8.5408	5.2727	0.	-21.866
13933	8.6327	5.2727	5.e-002	1.0814e-007
13934	8.6327	5.	0.	-29.883
13935	8.5408	5.0909	0.	-28.581
13936	8.6327	5.0909	5.e-002	1.8616e-008
13937	8.6327	4.8182	0.	-35.758
13938	8.5408	4.9091	0.	-34.935
13939	8.6327	4.9091	5.e-002	-3.3553e-007
13940	8.6327	4.6364	0.	-41.222
13941	8.5408	4.7273	0.	-40.882
13942	8.6327	4.7273	5.e-002	-7.3262e-007
13943	8.6327	4.4545	0.	-46.233
13944	8.5408	4.5455	0.	-46.376
13945	8.6327	4.5455	5.e-002	-1.6707e-007
13946	8.6327	4.2727	0.	-50.751
13947	8.5408	4.3636	0.	-51.375
13948	8.6327	4.3636	5.e-002	-1.0437e-006
13949	8.6327	4.0909	0.	-54.741
13950	8.5408	4.1818	0.	-55.838
13951	8.6327	4.1818	5.e-002	-1.479e-006
13952	8.6327	3.9091	0.	-58.173
13953	8.5408	4.	0.	-59.733
13954	8.6327	4.	5.e-002	-8.8964e-007
13955	8.6327	3.7273	0.	-61.019
13956	8.5408	3.8182	0.	-63.027
13957	8.6327	3.8182	5.e-002	1.8574e-007
13958	8.6327	3.5455	0.	-63.257
13959	8.5408	3.6364	0.	-65.694
13960	8.6327	3.6364	5.e-002	6.9561e-007
13961	8.6327	3.3636	0.	-64.868
13962	8.5408	3.4545	0.	-67.714
13963	8.6327	3.4545	5.e-002	-2.0599e-007
13964	8.6327	3.1818	0.	-65.84
13965	8.5408	3.2727	0.	-69.069
13966	8.6327	3.2727	5.e-002	-1.1502e-007
13967	8.6327	3.	0.	-66.165
13968	8.5408	3.0909	0.	-69.75
13969	8.6327	3.0909	5.e-002	-3.9234e-008
13970	8.6327	2.8182	0.	-65.84
13971	8.5408	2.9091	0.	-69.75
13972	8.6327	2.9091	5.e-002	1.4706e-006
13973	8.6327	2.6364	0.	-64.868
13974	8.5408	2.7273	0.	-69.069
13975	8.6327	2.7273	5.e-002	1.0768e-006
13976	8.6327	2.4545	0.	-63.257
13977	8.5408	2.5455	0.	-67.714
13978	8.6327	2.5455	5.e-002	2.3448e-007
13979	8.6327	2.2727	0.	-61.019
13980	8.5408	2.3636	0.	-65.694
13981	8.6327	2.3636	5.e-002	1.7281e-006
13982	8.6327	2.0909	0.	-58.173
13983	8.5408	2.1818	0.	-63.027
13984	8.6327	2.1818	5.e-002	1.3676e-006
13985	8.6327	1.9091	0.	-54.741
13986	8.5408	2.	0.	-59.733
13987	8.6327	2.	5.e-002	2.0366e-006
13988	8.6327	1.7273	0.	-50.751
13989	8.5408	1.8182	0.	-55.838
13990	8.6327	1.8182	5.e-002	2.1424e-006
13991	8.6327	1.5455	0.	-46.233
13992	8.5408	1.6364	0.	-51.375
13993	8.6327	1.6364	5.e-002	1.6293e-006
13994	8.6327	1.3636	0.	-41.222
13995	8.5408	1.4545	0.	-46.376
13996	8.6327	1.4545	5.e-002	2.4715e-006
13997	8.6327	1.1818	0.	-35.758
13998	8.5408	1.2727	0.	-40.882
13999	8.6327	1.2727	5.e-002	1.6813e-006
14000	8.6327	1.	0.	-29.883
14001	8.5408	1.0909	0.	-34.935
14002	8.6327	1.0909	5.e-002	1.704e-006
14003	8.6327	0.81818	0.	-23.64
14004	8.5408	0.90909	0.	-28.581
14005	8.6327	0.90909	5.e-002	2.3182e-006
14006	8.6327	0.63636	0.	-17.076
14007	8.5408	0.72727	0.	-21.866
14008	8.6327	0.72727	5.e-002	2.0102e-006
14009	8.6327	0.45455	0.	-10.211
14010	8.5408	0.54545	0.	-14.841
14011	8.6327	0.54545	5.e-002	1.7335e-006
14012	8.6327	0.27273	0.	-2.7496
14013	8.5408	0.36364	0.	-7.5031
14014	8.6327	0.36364	5.e-002	2.1241e-006
14015	8.5408	0.18182	0.	-0.24408
14016	8.6327	0.18182	5.e-002	2.6774e-005
14017	8.6327	9.0909e-002	0.	-5.3346e-002
14018	8.449	5.7273	0.	-4.045
14019	8.3571	5.8182	0.	-0.65532
14020	8.449	5.8182	5.e-002	-1.8779e-005
14021	8.449	5.9091	0.	-9.5501e-002
14022	8.449	5.5455	0.	-12.148
14023	8.3571	5.6364	0.	-9.1734
14024	8.449	5.6364	5.e-002	-4.6442e-007
14025	8.449	5.3636	0.	-19.645
14026	8.3571	5.4545	0.	-17.18
14027	8.449	5.4545	5.e-002	6.8782e-007
14028	8.449	5.1818	0.	-26.819
14029	8.3571	5.2727	0.	-24.852
14030	8.449	5.2727	5.e-002	-3.9642e-007
14031	8.449	5.	0.	-33.645
14032	8.3571	5.0909	0.	-32.187
14033	8.449	5.0909	5.e-002	-3.8163e-007
14034	8.449	4.8182	0.	-40.07
14035	8.3571	4.9091	0.	-39.132
14036	8.449	4.9091	5.e-002	-6.2005e-007
14037	8.449	4.6364	0.	-46.046
14038	8.3571	4.7273	0.	-45.632
14039	8.449	4.7273	5.e-002	-1.1856e-006
14040	8.449	4.4545	0.	-51.528
14041	8.3571	4.5455	0.	-51.638
14042	8.449	4.5455	5.e-002	-4.0939e-007
14043	8.449	4.2727	0.	-56.471
14044	8.3571	4.3636	0.	-57.104
14045	8.449	4.3636	5.e-002	-6.3689e-007
14046	8.449	4.0909	0.	-60.838
14047	8.3571	4.1818	0.	-61.986
14048	8.449	4.1818	5.e-002	-1.1299e-006
14049	8.449	3.9091	0.	-64.594
14050	8.3571	4.	0.	-66.246
14051	8.449	4.	5.e-002	-4.32e-007
14052	8.449	3.7273	0.	-67.71
14053	8.3571	3.8182	0.	-69.849
14054	8.449	3.8182	5.e-002	-1.4041e-006
14055	8.449	3.5455	0.	-70.159
14056	8.3571	3.6364	0.	-72.768
14057	8.449	3.6364	5.e-002	-2.9986e-007
14058	8.449	3.3636	0.	-71.923
14059	8.3571	3.4545	0.	-74.978
14060	8.449	3.4545	5.e-002	-1.9228e-007
14061	8.449	3.1818	0.	-72.987
14062	8.3571	3.2727	0.	-76.461
14063	8.449	3.2727	5.e-002	-1.2971e-007
14064	8.449	3.	0.	-73.343
14065	8.3571	3.0909	0.	-77.206
14066	8.449	3.0909	5.e-002	-4.3239e-008
14067	8.449	2.8182	0.	-72.987
14068	8.3571	2.9091	0.	-77.206
14069	8.449	2.9091	5.e-002	4.4638e-008
14070	8.449	2.6364	0.	-71.923
14071	8.3571	2.7273	0.	-76.461
14072	8.449	2.7273	5.e-002	2.0333e-006
14073	8.449	2.4545	0.	-70.159
14074	8.3571	2.5455	0.	-74.978
14075	8.449	2.5455	5.e-002	2.1442e-006
14076	8.449	2.2727	0.	-67.71
14077	8.3571	2.3636	0.	-72.768
14078	8.449	2.3636	5.e-002	1.2525e-006
14079	8.449	2.0909	0.	-64.594
14080	8.3571	2.1818	0.	-69.849
14081	8.449	2.1818	5.e-002	1.4576e-006
14082	8.449	1.9091	0.	-60.838
14083	8.3571	2.	0.	-66.246
14084	8.449	2.	5.e-002	1.3833e-006
14085	8.449	1.7273	0.	-56.471
14086	8.3571	1.8182	0.	-61.986
14087	8.449	1.8182	5.e-002	8.1485e-007
14088	8.449	1.5455	0.	-51.528
14089	8.3571	1.6364	0.	-57.104
14090	8.449	1.6364	5.e-002	1.2451e-006
14091	8.449	1.3636	0.	-46.046
14092	8.3571	1.4545	0.	-51.638
14093	8.449	1.4545	5.e-002	1.8565e-006
14094	8.449	1.1818	0.	-40.07
14095	8.3571	1.2727	0.	-45.632
14096	8.449	1.2727	5.e-002	2.0239e-006
14097	8.449	1.	0.	-33.645
14098	8.3571	1.0909	0.	-39.132
14099	8.449	1.0909	5.e-002	2.0269e-006
14100	8.449	0.81818	0.	-26.819
14101	8.3571	0.90909	0.	-32.187
14102	8.449	0.90909	5.e-002	2.3803e-006
14103	8.449	0.63636	0.	-19.645
14104	8.3571	0.72727	0.	-24.852
14105	8.449	0.72727	5.e-002	2.3978e-006
14106	8.449	0.45455	0.	-12.148
14107	8.3571	0.54545	0.	-17.18
14108	8.449	0.54545	5.e-002	2.0777e-006
14109	8.449	0.27273	0.	-4.045
14110	8.3571	0.36364	0.	-9.1734
14111	8.449	0.36364	5.e-002	3.2801e-006
14112	8.3571	0.18182	0.	-0.6553
14113	8.449	0.18182	5.e-002	2.5533e-005
14114	8.449	9.0909e-002	0.	-9.5497e-002
14115	8.2653	5.7273	0.	-5.429
14116	8.1735	5.8182	0.	-1.5067
14117	8.2653	5.8182	5.e-002	-1.4004e-005
14118	8.2653	5.9091	0.	-0.19847
14119	8.2653	5.5455	0.	-14.219
14120	8.1735	5.6364	0.	-10.957
14121	8.2653	5.6364	5.e-002	-2.2949e-007
14122	8.2653	5.3636	0.	-22.399
14123	8.1735	5.4545	0.	-19.684
14124	8.2653	5.4545	5.e-002	-6.7547e-008
14125	8.2653	5.1818	0.	-30.231
14126	8.1735	5.2727	0.	-28.054
14127	8.2653	5.2727	5.e-002	-8.7308e-007
14128	8.2653	5.	0.	-37.685
14129	8.1735	5.0909	0.	-36.06
14130	8.2653	5.0909	5.e-002	-8.6516e-007
14131	8.2653	4.8182	0.	-44.703
14132	8.1735	4.9091	0.	-43.641
14133	8.2653	4.9091	5.e-002	-2.3867e-007
14134	8.2653	4.6364	0.	-51.233
14135	8.1735	4.7273	0.	-50.739
14136	8.2653	4.7273	5.e-002	-1.4282e-006
14137	8.2653	4.4545	0.	-57.223
14138	8.1735	4.5455	0.	-57.3
14139	8.2653	4.5455	5.e-002	-8.0665e-007
14140	8.2653	4.2727	0.	-62.627
14141	8.1735	4.3636	0.	-63.271
14142	8.2653	4.3636	5.e-002	-7.1194e-007
14143	8.2653	4.0909	0.	-67.401
14144	8.1735	4.1818	0.	-68.605
14145	8.2653	4.1818	5.e-002	-6.7821e-007
14146	8.2653	3.9091	0.	-71.508
14147	8.1735	4.	0.	-73.26
14148	8.2653	4.	5.e-002	-6.0677e-007
14149	8.2653	3.7273	0.	-74.915
14150	8.1735	3.8182	0.	-77.199
14151	8.2653	3.8182	5.e-002	-4.3535e-007
14152	8.2653	3.5455	0.	-77.593
14153	8.1735	3.6364	0.	-80.389
14154	8.2653	3.6364	5.e-002	6.4303e-007
14155	8.2653	3.3636	0.	-79.522
14156	8.1735	3.4545	0.	-82.805
14157	8.2653	3.4545	5.e-002	7.4242e-007
14158	8.2653	3.1818	0.	-80.686
14159	8.1735	3.2727	0.	-84.427
14160	8.2653	3.2727	5.e-002	8.151e-007
14161	8.2653	3.	0.	-81.075
14162	8.1735	3.0909	0.	-85.241
14163	8.2653	3.0909	5.e-002	-4.719e-008
14164	8.2653	2.8182	0.	-80.686
14165	8.1735	2.9091	0.	-85.241
14166	8.2653	2.9091	5.e-002	1.9545e-006
14167	8.2653	2.6364	0.	-79.522
14168	8.1735	2.7273	0.	-84.427
14169	8.2653	2.7273	5.e-002	1.4208e-007
14170	8.2653	2.4545	0.	-77.593
14171	8.1735	2.5455	0.	-82.805
14172	8.2653	2.5455	5.e-002	2.4361e-007
14173	8.2653	2.2727	0.	-74.915
14174	8.1735	2.3636	0.	-80.389
14175	8.2653	2.3636	5.e-002	1.2446e-006
14176	8.2653	2.0909	0.	-71.508
14177	8.1735	2.1818	0.	-77.199
14178	8.2653	2.1818	5.e-002	1.6449e-006
14179	8.2653	1.9091	0.	-67.401
14180	8.1735	2.	0.	-73.26
14181	8.2653	2.	5.e-002	1.6506e-006
14182	8.2653	1.7273	0.	-62.627
14183	8.1735	1.8182	0.	-68.605
14184	8.2653	1.8182	5.e-002	1.8755e-006
14185	8.2653	1.5455	0.	-57.223
14186	8.1735	1.6364	0.	-63.271
14187	8.2653	1.6364	5.e-002	2.616e-006
14188	8.2653	1.3636	0.	-51.233
14189	8.1735	1.4545	0.	-57.3
14190	8.2653	1.4545	5.e-002	2.6209e-006
14191	8.2653	1.1818	0.	-44.703
14192	8.1735	1.2727	0.	-50.739
14193	8.2653	1.2727	5.e-002	3.0137e-006
14194	8.2653	1.	0.	-37.685
14195	8.1735	1.0909	0.	-43.641
14196	8.2653	1.0909	5.e-002	2.7543e-006
14197	8.2653	0.81818	0.	-30.231
14198	8.1735	0.90909	0.	-36.06
14199	8.2653	0.90909	5.e-002	3.2423e-006
14200	8.2653	0.63636	0.	-22.399
14201	8.1735	0.72727	0.	-28.054
14202	8.2653	0.72727	5.e-002	2.7598e-006
14203	8.2653	0.45455	0.	-14.219
14204	8.1735	0.54545	0.	-19.684
14205	8.2653	0.54545	5.e-002	2.7809e-006
14206	8.2653	0.27273	0.	-5.4289
14207	8.1735	0.36364	0.	-10.957
14208	8.2653	0.36364	5.e-002	2.9918e-006
14209	8.1735	0.18182	0.	-1.5066
14210	8.2653	0.18182	5.e-002	2.0855e-005
14211	8.2653	9.0909e-002	0.	-0.19846
14212	8.0816	5.7273	0.	-6.9049
14213	7.9898	5.8182	0.	-2.5787
14214	8.0816	5.8182	5.e-002	-1.718e-005
14215	8.0816	5.9091	0.	-0.47518
14216	8.0816	5.5455	0.	-16.435
14217	7.9898	5.6364	0.	-12.864
14218	8.0816	5.6364	5.e-002	6.7105e-008
14219	8.0816	5.3636	0.	-25.351
14220	7.9898	5.4545	0.	-22.368
14221	8.0816	5.4545	5.e-002	-3.5526e-007
14222	8.0816	5.1818	0.	-33.894
14223	7.9898	5.2727	0.	-31.492
14224	8.0816	5.2727	5.e-002	-1.0123e-007
14225	8.0816	5.	0.	-42.026
14226	7.9898	5.0909	0.	-40.222
14227	8.0816	5.0909	5.e-002	-8.6624e-007
14228	8.0816	4.8182	0.	-49.686
14229	7.9898	4.9091	0.	-48.491
14230	8.0816	4.9091	5.e-002	-1.3502e-006
14231	8.0816	4.6364	0.	-56.814
14232	7.9898	4.7273	0.	-56.235
14233	8.0816	4.7273	5.e-002	-1.3791e-006
14234	8.0816	4.4545	0.	-63.354
14235	7.9898	4.5455	0.	-63.395
14236	8.0816	4.5455	5.e-002	-4.97e-007
14237	8.0816	4.2727	0.	-69.256
14238	7.9898	4.3636	0.	-69.912
14239	8.0816	4.3636	5.e-002	-6.4384e-007
14240	8.0816	4.0909	0.	-74.47
14241	7.9898	4.1818	0.	-75.736
14242	8.0816	4.1818	5.e-002	-8.3358e-007
14243	8.0816	3.9091	0.	-78.957
14244	7.9898	4.	0.	-80.82
14245	8.0816	4.	5.e-002	-5.7091e-007
14246	8.0816	3.7273	0.	-82.679
14247	7.9898	3.8182	0.	-85.121
14248	8.0816	3.8182	5.e-002	-4.0568e-007
14249	8.0816	3.5455	0.	-85.607
14250	7.9898	3.6364	0.	-88.606
14251	8.0816	3.6364	5.e-002	6.3284e-007
14252	8.0816	3.3636	0.	-87.715
14253	7.9898	3.4545	0.	-91.245
14254	8.0816	3.4545	5.e-002	-2.3017e-007
14255	8.0816	3.1818	0.	-88.987
14256	7.9898	3.2727	0.	-93.017
14257	8.0816	3.2727	5.e-002	1.7638e-006
14258	8.0816	3.	0.	-89.412
14259	7.9898	3.0909	0.	-93.907
14260	8.0816	3.0909	5.e-002	-4.9548e-008
14261	8.0816	2.8182	0.	-88.987
14262	7.9898	2.9091	0.	-93.907
14263	8.0816	2.9091	5.e-002	5.1552e-008
14264	8.0816	2.6364	0.	-87.715
14265	7.9898	2.7273	0.	-93.017
14266	8.0816	2.7273	5.e-002	1.1054e-006
14267	8.0816	2.4545	0.	-85.607
14268	7.9898	2.5455	0.	-91.245
14269	8.0816	2.5455	5.e-002	1.2212e-006
14270	8.0816	2.2727	0.	-82.679
14271	7.9898	2.3636	0.	-88.606
14272	8.0816	2.3636	5.e-002	1.319e-006
14273	8.0816	2.0909	0.	-78.957
14274	7.9898	2.1818	0.	-85.121
14275	8.0816	2.1818	5.e-002	1.4336e-006
14276	8.0816	1.9091	0.	-74.47
14277	7.9898	2.	0.	-80.82
14278	8.0816	2.	5.e-002	2.7512e-006
14279	8.0816	1.7273	0.	-69.256
14280	7.9898	1.8182	0.	-75.736
14281	8.0816	1.8182	5.e-002	8.3358e-007
14282	8.0816	1.5455	0.	-63.354
14283	7.9898	1.6364	0.	-69.912
14284	8.0816	1.6364	5.e-002	1.8586e-006
14285	8.0816	1.3636	0.	-56.814
14286	7.9898	1.4545	0.	-63.395
14287	8.0816	1.4545	5.e-002	2.1515e-006
14288	8.0816	1.1818	0.	-49.686
14289	7.9898	1.2727	0.	-56.235
14290	8.0816	1.2727	5.e-002	1.3791e-006
14291	8.0816	1.	0.	-42.026
14292	7.9898	1.0909	0.	-48.491
14293	8.0816	1.0909	5.e-002	2.0165e-006
14294	8.0816	0.81818	0.	-33.894
14295	7.9898	0.90909	0.	-40.222
14296	8.0816	0.90909	5.e-002	2.4339e-006
14297	8.0816	0.63636	0.	-25.351
14298	7.9898	0.72727	0.	-31.492
14299	8.0816	0.72727	5.e-002	2.7388e-006
14300	8.0816	0.45455	0.	-16.435
14301	7.9898	0.54545	0.	-22.368
14302	8.0816	0.54545	5.e-002	2.8792e-006
14303	8.0816	0.27273	0.	-6.9049
14304	7.9898	0.36364	0.	-12.864
14305	8.0816	0.36364	5.e-002	2.9098e-006
14306	7.9898	0.18182	0.	-2.5787
14307	8.0816	0.18182	5.e-002	2.1116e-005
14308	8.0816	9.0909e-002	0.	-0.47517
14309	7.898	5.7273	0.	-8.4779
14310	7.8061	5.8182	0.	-3.7623
14311	7.898	5.8182	5.e-002	-1.9788e-005
14312	7.898	5.9091	0.	-0.99516
14313	7.898	5.5455	0.	-18.807
14314	7.8061	5.6364	0.	-14.9
14315	7.898	5.6364	5.e-002	-1.2276e-006
14316	7.898	5.3636	0.	-28.519
14317	7.8061	5.4545	0.	-25.244
14318	7.898	5.4545	5.e-002	-3.6346e-007
14319	7.898	5.1818	0.	-37.829
14320	7.8061	5.2727	0.	-35.182
14321	7.898	5.2727	5.e-002	-2.1222e-006
14322	7.898	5.	0.	-46.695
14323	7.8061	5.0909	0.	-44.695
14324	7.898	5.0909	5.e-002	-1.7365e-006
14325	7.898	4.8182	0.	-55.048
14326	7.8061	4.9091	0.	-53.708
14327	7.898	4.9091	5.e-002	-1.5229e-006
14328	7.898	4.6364	0.	-62.823
14329	7.8061	4.7273	0.	-62.152
14330	7.898	4.7273	5.e-002	-1.4541e-006
14331	7.898	4.4545	0.	-69.959
14332	7.8061	4.5455	0.	-69.96
14333	7.898	4.5455	5.e-002	-1.4757e-006
14334	7.898	4.2727	0.	-76.399
14335	7.8061	4.3636	0.	-77.07
14336	7.898	4.3636	5.e-002	-1.0316e-006
14337	7.898	4.0909	0.	-82.091
14338	7.8061	4.1818	0.	-83.425
14339	7.898	4.1818	5.e-002	-1.0447e-006
14340	7.898	3.9091	0.	-86.989
14341	7.8061	4.	0.	-88.972
14342	7.898	4.	5.e-002	-6.3366e-007
14343	7.898	3.7273	0.	-91.054
14344	7.8061	3.8182	0.	-93.668
14345	7.898	3.8182	5.e-002	-4.1641e-007
14346	7.898	3.5455	0.	-94.25
14347	7.8061	3.6364	0.	-97.472
14348	7.898	3.6364	5.e-002	-3.2781e-007
14349	7.898	3.3636	0.	-96.553
14350	7.8061	3.4545	0.	-100.35
14351	7.898	3.4545	5.e-002	-2.6582e-007
14352	7.898	3.1818	0.	-97.942
14353	7.8061	3.2727	0.	-102.29
14354	7.898	3.2727	5.e-002	-1.6046e-007
14355	7.898	3.	0.	-98.407
14356	7.8061	3.0909	0.	-103.26
14357	7.898	3.0909	5.e-002	-5.2829e-008
14358	7.898	2.8182	0.	-97.942
14359	7.8061	2.9091	0.	-103.26
14360	7.898	2.9091	5.e-002	1.9636e-006
14361	7.898	2.6364	0.	-96.553
14362	7.8061	2.7273	0.	-102.29
14363	7.898	2.7273	5.e-002	1.8626e-007
14364	7.898	2.4545	0.	-94.25
14365	7.8061	2.5455	0.	-100.35
14366	7.898	2.5455	5.e-002	2.2006e-006
14367	7.898	2.2727	0.	-91.054
14368	7.8061	2.3636	0.	-97.472
14369	7.898	2.3636	5.e-002	4.6621e-007
14370	7.898	2.0909	0.	-86.989
14371	7.8061	2.1818	0.	-93.668
14372	7.898	2.1818	5.e-002	6.248e-007
14373	7.898	1.9091	0.	-82.091
14374	7.8061	2.	0.	-88.972
14375	7.898	2.	5.e-002	8.9833e-007
14376	7.898	1.7273	0.	-76.399
14377	7.8061	1.8182	0.	-83.425
14378	7.898	1.8182	5.e-002	2.0655e-006
14379	7.898	1.5455	0.	-69.959
14380	7.8061	1.6364	0.	-77.07
14381	7.898	1.6364	5.e-002	1.342e-006
14382	7.898	1.3636	0.	-62.823
14383	7.8061	1.4545	0.	-69.96
14384	7.898	1.4545	5.e-002	1.5666e-006
14385	7.898	1.1818	0.	-55.048
14386	7.8061	1.2727	0.	-62.152
14387	7.898	1.2727	5.e-002	2.2574e-006
14388	7.898	1.	0.	-46.695
14389	7.8061	1.0909	0.	-53.708
14390	7.898	1.0909	5.e-002	3.4064e-006
14391	7.898	0.81818	0.	-37.829
14392	7.8061	0.90909	0.	-44.695
14393	7.898	0.90909	5.e-002	2.6358e-006
14394	7.898	0.63636	0.	-28.519
14395	7.8061	0.72727	0.	-35.182
14396	7.898	0.72727	5.e-002	3.2977e-006
14397	7.898	0.45455	0.	-18.807
14398	7.8061	0.54545	0.	-25.244
14399	7.898	0.54545	5.e-002	3.23e-006
14400	7.898	0.27273	0.	-8.4779
14401	7.8061	0.36364	0.	-14.9
14402	7.898	0.36364	5.e-002	3.6839e-006
14403	7.8061	0.18182	0.	-3.7623
14404	7.898	0.18182	5.e-002	2.6389e-005
14405	7.898	9.0909e-002	0.	-0.99514
14406	7.7143	5.7273	0.	-10.154
14407	7.6224	5.8182	0.	-5.033
14408	7.7143	5.8182	5.e-002	-1.5347e-005
14409	7.7143	5.9091	0.	-1.6557
14410	7.7143	5.5455	0.	-21.347
14411	7.6224	5.6364	0.	-17.076
14412	7.7143	5.6364	5.e-002	-2.4126e-006
14413	7.7143	5.3636	0.	-31.917
14414	7.6224	5.4545	0.	-28.327
14415	7.7143	5.4545	5.e-002	-1.4235e-006
14416	7.7143	5.1818	0.	-42.057
14417	7.6224	5.2727	0.	-39.146
14418	7.7143	5.2727	5.e-002	-2.2901e-007
14419	7.7143	5.	0.	-51.716
14420	7.6224	5.0909	0.	-49.505
14421	7.7143	5.0909	5.e-002	-2.0171e-006
14422	7.7143	4.8182	0.	-60.819
14423	7.6224	4.9091	0.	-59.324
14424	7.7143	4.9091	5.e-002	-2.0516e-006
14425	7.7143	4.6364	0.	-69.295
14426	7.6224	4.7273	0.	-68.525
14427	7.7143	4.7273	5.e-002	-4.3638e-006
14428	7.7143	4.4545	0.	-77.076
14429	7.6224	4.5455	0.	-77.035
14430	7.7143	4.5455	5.e-002	-1.0242e-006
14431	7.7143	4.2727	0.	-84.1
14432	7.6224	4.3636	0.	-84.787
14433	7.7143	4.3636	5.e-002	-2.023e-006
14434	7.7143	4.0909	0.	-90.31
14435	7.6224	4.1818	0.	-91.717
14436	7.7143	4.1818	5.e-002	-9.7745e-007
14437	7.7143	3.9091	0.	-95.655
14438	7.6224	4.	0.	-97.769
14439	7.7143	4.	5.e-002	-7.0256e-007
14440	7.7143	3.7273	0.	-100.09
14441	7.6224	3.8182	0.	-102.89
14442	7.7143	3.8182	5.e-002	-5.614e-007
14443	7.7143	3.5455	0.	-103.58
14444	7.6224	3.6364	0.	-107.04
14445	7.7143	3.6364	5.e-002	-4.015e-007
14446	7.7143	3.3636	0.	-106.09
14447	7.6224	3.4545	0.	-110.19
14448	7.7143	3.4545	5.e-002	-2.8942e-007
14449	7.7143	3.1818	0.	-107.61
14450	7.6224	3.2727	0.	-112.3
14451	7.7143	3.2727	5.e-002	-1.6986e-007
14452	7.7143	3.	0.	-108.12
14453	7.6224	3.0909	0.	-113.36
14454	7.7143	3.0909	5.e-002	-5.8418e-008
14455	7.7143	2.8182	0.	-107.61
14456	7.6224	2.9091	0.	-113.36
14457	7.7143	2.9091	5.e-002	1.0129e-006
14458	7.7143	2.6364	0.	-106.09
14459	7.6224	2.7273	0.	-112.3
14460	7.7143	2.7273	5.e-002	1.1358e-006
14461	7.7143	2.4545	0.	-103.58
14462	7.6224	2.5455	0.	-110.19
14463	7.7143	2.5455	5.e-002	3.322e-007
14464	7.7143	2.2727	0.	-100.09
14465	7.6224	2.3636	0.	-107.04
14466	7.7143	2.3636	5.e-002	2.327e-006
14467	7.7143	2.0909	0.	-95.655
14468	7.6224	2.1818	0.	-102.89
14469	7.7143	2.1818	5.e-002	1.6481e-006
14470	7.7143	1.9091	0.	-90.31
14471	7.6224	2.	0.	-97.769
14472	7.7143	2.	5.e-002	1.6513e-006
14473	7.7143	1.7273	0.	-84.1
14474	7.6224	1.8182	0.	-91.717
14475	7.7143	1.8182	5.e-002	1.0566e-006
14476	7.7143	1.5455	0.	-77.076
14477	7.6224	1.6364	0.	-84.787
14478	7.7143	1.6364	5.e-002	1.4378e-006
14479	7.7143	1.3636	0.	-69.295
14480	7.6224	1.4545	0.	-77.035
14481	7.7143	1.4545	5.e-002	1.2571e-006
14482	7.7143	1.1818	0.	-60.819
14483	7.6224	1.2727	0.	-68.525
14484	7.7143	1.2727	5.e-002	1.8255e-006
14485	7.7143	1.	0.	-51.716
14486	7.6224	1.0909	0.	-59.324
14487	7.7143	1.0909	5.e-002	2.5213e-006
14488	7.7143	0.81818	0.	-42.057
14489	7.6224	0.90909	0.	-49.505
14490	7.7143	0.90909	5.e-002	2.486e-006
14491	7.7143	0.63636	0.	-31.917
14492	7.6224	0.72727	0.	-39.146
14493	7.7143	0.72727	5.e-002	2.918e-006
14494	7.7143	0.45455	0.	-21.347
14495	7.6224	0.54545	0.	-28.327
14496	7.7143	0.54545	5.e-002	3.4339e-006
14497	7.7143	0.27273	0.	-10.154
14498	7.6224	0.36364	0.	-17.076
14499	7.7143	0.36364	5.e-002	3.6427e-006
14500	7.6224	0.18182	0.	-5.0329
14501	7.7143	0.18182	5.e-002	2.6415e-005
14502	7.7143	9.0909e-002	0.	-1.6557
14503	7.5306	5.7273	0.	-11.938
14504	7.4388	5.8182	0.	-6.3852
14505	7.5306	5.8182	5.e-002	-9.4616e-006
14506	7.5306	5.9091	0.	-2.3911
14507	7.5306	5.5455	0.	-24.065
14508	7.4388	5.6364	0.	-19.4
14509	7.5306	5.6364	5.e-002	-1.5277e-006
14510	7.5306	5.3636	0.	-35.564
14511	7.4388	5.4545	0.	-31.632
14512	7.5306	5.4545	5.e-002	-1.9484e-006
14513	7.5306	5.1818	0.	-46.601
14514	7.4388	5.2727	0.	-43.403
14515	7.5306	5.2727	5.e-002	-6.6305e-007
14516	7.5306	5.	0.	-57.119
14517	7.4388	5.0909	0.	-54.679
14518	7.5306	5.0909	5.e-002	-1.5333e-006
14519	7.5306	4.8182	0.	-67.034
14520	7.4388	4.9091	0.	-65.369
14521	7.5306	4.9091	5.e-002	-2.6436e-006
14522	7.5306	4.6364	0.	-76.27
14523	7.4388	4.7273	0.	-75.391
14524	7.5306	4.7273	5.e-002	-1.7473e-006
14525	7.5306	4.4545	0.	-84.75
14526	7.4388	4.5455	0.	-84.663
14527	7.5306	4.5455	5.e-002	-1.144e-006
14528	7.5306	4.2727	0.	-92.408
14529	7.4388	4.3636	0.	-93.112
14530	7.5306	4.3636	5.e-002	-1.2223e-006
14531	7.5306	4.0909	0.	-99.18
14532	7.4388	4.1818	0.	-100.67
14533	7.5306	4.1818	5.e-002	-6.0191e-007
14534	7.5306	3.9091	0.	-105.01
14535	7.4388	4.	0.	-107.27
14536	7.5306	4.	5.e-002	-9.2667e-007
14537	7.5306	3.7273	0.	-109.85
14538	7.4388	3.8182	0.	-112.85
14539	7.5306	3.8182	5.e-002	-4.9261e-007
14540	7.5306	3.5455	0.	-113.65
14541	7.4388	3.6364	0.	-117.38
14542	7.5306	3.6364	5.e-002	-3.8791e-007
14543	7.5306	3.3636	0.	-116.4
14544	7.4388	3.4545	0.	-120.81
14545	7.5306	3.4545	5.e-002	-2.884e-007
14546	7.5306	3.1818	0.	-118.05
14547	7.4388	3.2727	0.	-123.11
14548	7.5306	3.2727	5.e-002	7.7645e-007
14549	7.5306	3.	0.	-118.61
14550	7.4388	3.0909	0.	-124.27
14551	7.5306	3.0909	5.e-002	-6.0866e-008
14552	7.5306	2.8182	0.	-118.05
14553	7.4388	2.9091	0.	-124.27
14554	7.5306	2.9091	5.e-002	6.2096e-008
14555	7.5306	2.6364	0.	-116.4
14556	7.4388	2.7273	0.	-123.11
14557	7.5306	2.7273	5.e-002	2.0884e-006
14558	7.5306	2.4545	0.	-113.65
14559	7.4388	2.5455	0.	-120.81
14560	7.5306	2.5455	5.e-002	1.2495e-006
14561	7.5306	2.2727	0.	-109.85
14562	7.4388	2.3636	0.	-117.38
14563	7.5306	2.3636	5.e-002	6.4944e-007
14564	7.5306	2.0909	0.	-105.01
14565	7.4388	2.1818	0.	-112.85
14566	7.5306	2.1818	5.e-002	5.234e-007
14567	7.5306	1.9091	0.	-99.18
14568	7.4388	2.	0.	-107.27
14569	7.5306	2.	5.e-002	9.2667e-007
14570	7.5306	1.7273	0.	-92.408
14571	7.4388	1.8182	0.	-100.67
14572	7.5306	1.8182	5.e-002	6.879e-007
14573	7.5306	1.5455	0.	-84.75
14574	7.4388	1.6364	0.	-93.112
14575	7.5306	1.6364	5.e-002	2.4858e-006
14576	7.5306	1.3636	0.	-76.27
14577	7.4388	1.4545	0.	-84.663
14578	7.5306	1.4545	5.e-002	2.0854e-006
14579	7.5306	1.1818	0.	-67.034
14580	7.4388	1.2727	0.	-75.391
14581	7.5306	1.2727	5.e-002	3.0346e-006
14582	7.5306	1.	0.	-57.119
14583	7.4388	1.0909	0.	-65.369
14584	7.5306	1.0909	5.e-002	3.1121e-006
14585	7.5306	0.81818	0.	-46.601
14586	7.4388	0.90909	0.	-54.679
14587	7.5306	0.90909	5.e-002	3.6097e-006
14588	7.5306	0.63636	0.	-35.564
14589	7.4388	0.72727	0.	-43.403
14590	7.5306	0.72727	5.e-002	4.0262e-006
14591	7.5306	0.45455	0.	-24.065
14592	7.4388	0.54545	0.	-31.632
14593	7.5306	0.54545	5.e-002	4.1002e-006
14594	7.5306	0.27273	0.	-11.938
14595	7.4388	0.36364	0.	-19.4
14596	7.5306	0.36364	5.e-002	4.0466e-006
14597	7.4388	0.18182	0.	-6.3852
14598	7.5306	0.18182	5.e-002	1.0896e-005
14599	7.5306	9.0909e-002	0.	-2.3911
14600	7.3469	5.7273	0.	-13.836
14601	7.2551	5.8182	0.	-7.8184
14602	7.3469	5.8182	5.e-002	-9.6495e-006
14603	7.3469	5.9091	0.	-3.1819
14604	7.3469	5.5455	0.	-26.975
14605	7.2551	5.6364	0.	-21.882
14606	7.3469	5.6364	5.e-002	-3.2549e-006
14607	7.3469	5.3636	0.	-39.478
14608	7.2551	5.4545	0.	-35.175
14609	7.3469	5.4545	5.e-002	-1.1652e-006
14610	7.3469	5.1818	0.	-51.487
14611	7.2551	5.2727	0.	-47.977
14612	7.3469	5.2727	5.e-002	-2.7987e-006
14613	7.3469	5.	0.	-62.934
14614	7.2551	5.0909	0.	-60.244
14615	7.3469	5.0909	5.e-002	-1.9942e-006
14616	7.3469	4.8182	0.	-73.729
14617	7.2551	4.9091	0.	-71.879
14618	7.3469	4.9091	5.e-002	-1.9404e-006
14619	7.3469	4.6364	0.	-83.788
14620	7.2551	4.7273	0.	-82.79
14621	7.3469	4.7273	5.e-002	-1.8545e-006
14622	7.3469	4.4545	0.	-93.027
14623	7.2551	4.5455	0.	-92.889
14624	7.3469	4.5455	5.e-002	-5.8216e-007
14625	7.3469	4.2727	0.	-101.37
14626	7.2551	4.3636	0.	-102.09
14627	7.3469	4.3636	5.e-002	-2.7262e-006
14628	7.3469	4.0909	0.	-108.75
14629	7.2551	4.1818	0.	-110.33
14630	7.3469	4.1818	5.e-002	-1.1955e-006
14631	7.3469	3.9091	0.	-115.11
14632	7.2551	4.	0.	-117.52
14633	7.3469	4.	5.e-002	-1.5498e-006
14634	7.3469	3.7273	0.	-120.39
14635	7.2551	3.8182	0.	-123.61
14636	7.3469	3.8182	5.e-002	-4.6772e-007
14637	7.3469	3.5455	0.	-124.54
14638	7.2551	3.6364	0.	-128.55
14639	7.3469	3.6364	5.e-002	-5.8112e-007
14640	7.3469	3.3636	0.	-127.53
14641	7.2551	3.4545	0.	-132.29
14642	7.3469	3.4545	5.e-002	-2.9409e-007
14643	7.3469	3.1818	0.	-129.34
14644	7.2551	3.2727	0.	-134.8
14645	7.3469	3.2727	5.e-002	-1.833e-007
14646	7.3469	3.	0.	-129.94
14647	7.2551	3.0909	0.	-136.07
14648	7.3469	3.0909	5.e-002	-6.273e-008
14649	7.3469	2.8182	0.	-129.34
14650	7.2551	2.9091	0.	-136.07
14651	7.3469	2.9091	5.e-002	6.273e-008
14652	7.3469	2.6364	0.	-127.53
14653	7.2551	2.7273	0.	-134.8
14654	7.3469	2.7273	5.e-002	1.833e-007
14655	7.3469	2.4545	0.	-124.54
14656	7.2551	2.5455	0.	-132.29
14657	7.3469	2.5455	5.e-002	4.0037e-007
14658	7.3469	2.2727	0.	-120.39
14659	7.2551	2.3636	0.	-128.55
14660	7.3469	2.3636	5.e-002	6.2059e-007
14661	7.3469	2.0909	0.	-115.11
14662	7.2551	2.1818	0.	-123.61
14663	7.3469	2.1818	5.e-002	5.0113e-007
14664	7.3469	1.9091	0.	-108.75
14665	7.2551	2.	0.	-117.52
14666	7.3469	2.	5.e-002	9.1931e-007
14667	7.3469	1.7273	0.	-101.37
14668	7.2551	1.8182	0.	-110.33
14669	7.3469	1.8182	5.e-002	1.3354e-006
14670	7.3469	1.5455	0.	-93.027
14671	7.2551	1.6364	0.	-102.09
14672	7.3469	1.6364	5.e-002	4.233e-006
14673	7.3469	1.3636	0.	-83.788
14674	7.2551	1.4545	0.	-92.889
14675	7.3469	1.4545	5.e-002	1.5214e-006
14676	7.3469	1.1818	0.	-73.729
14677	7.2551	1.2727	0.	-82.79
14678	7.3469	1.2727	5.e-002	1.8545e-006
14679	7.3469	1.	0.	-62.934
14680	7.2551	1.0909	0.	-71.879
14681	7.3469	1.0909	5.e-002	2.8743e-006
14682	7.3469	0.81818	0.	-51.487
14683	7.2551	0.90909	0.	-60.244
14684	7.3469	0.90909	5.e-002	2.6382e-006
14685	7.3469	0.63636	0.	-39.478
14686	7.2551	0.72727	0.	-47.977
14687	7.3469	0.72727	5.e-002	4.1925e-006
14688	7.3469	0.45455	0.	-26.975
14689	7.2551	0.54545	0.	-35.175
14690	7.3469	0.54545	5.e-002	4.0211e-006
14691	7.3469	0.27273	0.	-13.836
14692	7.2551	0.36364	0.	-21.882
14693	7.3469	0.36364	5.e-002	6.563e-006
14694	7.2551	0.18182	0.	-7.8184
14695	7.3469	0.18182	5.e-002	1.2048e-005
14696	7.3469	9.0909e-002	0.	-3.1819
14697	7.1633	5.7273	0.	-15.856
14698	7.0714	5.8182	0.	-9.3336
14699	7.1633	5.8182	5.e-002	-2.0145e-005
14700	7.1633	5.9091	0.	-4.0221
14701	7.1633	5.5455	0.	-30.089
14702	7.0714	5.6364	0.	-24.532
14703	7.1633	5.6364	5.e-002	-3.9378e-006
14704	7.1633	5.3636	0.	-43.679
14705	7.0714	5.4545	0.	-38.972
14706	7.1633	5.4545	5.e-002	-1.7481e-006
14707	7.1633	5.1818	0.	-56.738
14708	7.0714	5.2727	0.	-52.889
14709	7.1633	5.2727	5.e-002	-3.8587e-006
14710	7.1633	5.	0.	-69.193
14711	7.0714	5.0909	0.	-66.23
14712	7.1633	5.0909	5.e-002	-1.824e-006
14713	7.1633	4.8182	0.	-80.942
14714	7.0714	4.9091	0.	-78.89
14715	7.1633	4.9091	5.e-002	-2.0684e-006
14716	7.1633	4.6364	0.	-91.894
14717	7.0714	4.7273	0.	-90.766
14718	7.1633	4.7273	5.e-002	-4.4044e-006
14719	7.1633	4.4545	0.	-101.96
14720	7.0714	4.5455	0.	-101.76
14721	7.1633	4.5455	5.e-002	-2.6732e-006
14722	7.1633	4.2727	0.	-111.05
14723	7.0714	4.3636	0.	-111.79
14724	7.1633	4.3636	5.e-002	-1.7378e-006
14725	7.1633	4.0909	0.	-119.09
14726	7.0714	4.1818	0.	-120.76
14727	7.1633	4.1818	5.e-002	-1.5993e-006
14728	7.1633	3.9091	0.	-126.02
14729	7.0714	4.	0.	-128.6
14730	7.1633	4.	5.e-002	-1.4682e-006
14731	7.1633	3.7273	0.	-131.78
14732	7.0714	3.8182	0.	-135.24
14733	7.1633	3.8182	5.e-002	-8.9685e-007
14734	7.1633	3.5455	0.	-136.3
14735	7.0714	3.6364	0.	-140.62
14736	7.1633	3.6364	5.e-002	-4.1354e-007
14737	7.1633	3.3636	0.	-139.57
14738	7.0714	3.4545	0.	-144.7
14739	7.1633	3.4545	5.e-002	-3.0854e-007
14740	7.1633	3.1818	0.	-141.54
14741	7.0714	3.2727	0.	-147.44
14742	7.1633	3.2727	5.e-002	-1.8632e-007
14743	7.1633	3.	0.	-142.19
14744	7.0714	3.0909	0.	-148.82
14745	7.1633	3.0909	5.e-002	-6.5164e-008
14746	7.1633	2.8182	0.	-141.54
14747	7.0714	2.9091	0.	-148.82
14748	7.1633	2.9091	5.e-002	6.4645e-008
14749	7.1633	2.6364	0.	-139.57
14750	7.0714	2.7273	0.	-147.44
14751	7.1633	2.7273	5.e-002	1.9253e-007
14752	7.1633	2.4545	0.	-136.3
14753	7.0714	2.5455	0.	-144.7
14754	7.1633	2.5455	5.e-002	2.9825e-007
14755	7.1633	2.2727	0.	-131.78
14756	7.0714	2.3636	0.	-140.62
14757	7.1633	2.3636	5.e-002	4.4206e-007
14758	7.1633	2.0909	0.	-126.02
14759	7.0714	2.1818	0.	-135.24
14760	7.1633	2.1818	5.e-002	2.7931e-006
14761	7.1633	1.9091	0.	-119.09
14762	7.0714	2.	0.	-128.6
14763	7.1633	2.	5.e-002	1.6424e-006
14764	7.1633	1.7273	0.	-111.05
14765	7.0714	1.8182	0.	-120.76
14766	7.1633	1.8182	5.e-002	2.2411e-006
14767	7.1633	1.5455	0.	-101.96
14768	7.0714	1.6364	0.	-111.79
14769	7.1633	1.6364	5.e-002	1.3407e-006
14770	7.1633	1.3636	0.	-91.894
14771	7.0714	1.4545	0.	-101.76
14772	7.1633	1.4545	5.e-002	3.8619e-006
14773	7.1633	1.1818	0.	-80.942
14774	7.0714	1.2727	0.	-90.766
14775	7.1633	1.2727	5.e-002	5.338e-006
14776	7.1633	1.	0.	-69.193
14777	7.0714	1.0909	0.	-78.89
14778	7.1633	1.0909	5.e-002	3.1457e-006
14779	7.1633	0.81818	0.	-56.738
14780	7.0714	0.90909	0.	-66.23
14781	7.1633	0.90909	5.e-002	7.7504e-006
14782	7.1633	0.63636	0.	-43.679
14783	7.0714	0.72727	0.	-52.889
14784	7.1633	0.72727	5.e-002	4.458e-006
14785	7.1633	0.45455	0.	-30.089
14786	7.0714	0.54545	0.	-38.972
14787	7.1633	0.54545	5.e-002	4.3243e-006
14788	7.1633	0.27273	0.	-15.856
14789	7.0714	0.36364	0.	-24.532
14790	7.1633	0.36364	5.e-002	5.5453e-006
14791	7.0714	0.18182	0.	-9.3335
14792	7.1633	0.18182	5.e-002	2.1775e-005
14793	7.1633	9.0909e-002	0.	-4.022
14794	6.9796	5.7273	0.	-18.001
14795	6.8878	5.8182	0.	-10.932
14796	6.9796	5.8182	5.e-002	-2.1249e-005
14797	6.9796	5.9091	0.	-4.9095
14798	6.9796	5.5455	0.	-33.42
14799	6.8878	5.6364	0.	-27.358
14800	6.9796	5.6364	5.e-002	-6.7168e-006
14801	6.9796	5.3636	0.	-48.186
14802	6.8878	5.4545	0.	-43.041
14803	6.9796	5.4545	5.e-002	-4.3843e-006
14804	6.9796	5.1818	0.	-62.384
14805	6.8878	5.2727	0.	-58.165
14806	6.9796	5.2727	5.e-002	-4.5373e-006
14807	6.9796	5.	0.	-75.93
14808	6.8878	5.0909	0.	-72.67
14809	6.9796	5.0909	5.e-002	-6.7084e-007
14810	6.9796	4.8182	0.	-88.714
14811	6.8878	4.9091	0.	-86.44
14812	6.9796	4.9091	5.e-002	-2.3674e-006
14813	6.9796	4.6364	0.	-100.63
14814	6.8878	4.7273	0.	-99.363
14815	6.9796	4.7273	5.e-002	-3.749e-006
14816	6.9796	4.4545	0.	-111.59
14817	6.8878	4.5455	0.	-111.33
14818	6.9796	4.5455	5.e-002	-3.3566e-006
14819	6.9796	4.2727	0.	-121.5
14820	6.8878	4.3636	0.	-122.25
14821	6.9796	4.3636	5.e-002	-7.3921e-007
14822	6.9796	4.0909	0.	-130.26
14823	6.8878	4.1818	0.	-132.02
14824	6.9796	4.1818	5.e-002	-6.552e-007
14825	6.9796	3.9091	0.	-137.81
14826	6.8878	4.	0.	-140.57
14827	6.9796	4.	5.e-002	-1.214e-006
14828	6.9796	3.7273	0.	-144.08
14829	6.8878	3.8182	0.	-147.8
14830	6.9796	3.8182	5.e-002	-5.4846e-007
14831	6.9796	3.5455	0.	-149.02
14832	6.8878	3.6364	0.	-153.67
14833	6.9796	3.6364	5.e-002	-4.4766e-007
14834	6.9796	3.3636	0.	-152.58
14835	6.8878	3.4545	0.	-158.12
14836	6.9796	3.4545	5.e-002	-3.2851e-007
14837	6.9796	3.1818	0.	-154.73
14838	6.8878	3.2727	0.	-161.11
14839	6.9796	3.2727	5.e-002	-2.0178e-007
14840	6.9796	3.	0.	-155.45
14841	6.8878	3.0909	0.	-162.61
14842	6.9796	3.0909	5.e-002	1.8363e-006
14843	6.9796	2.8182	0.	-154.73
14844	6.8878	2.9091	0.	-162.61
14845	6.9796	2.9091	5.e-002	7.6012e-008
14846	6.9796	2.6364	0.	-152.58
14847	6.8878	2.7273	0.	-161.11
14848	6.9796	2.7273	5.e-002	2.0851e-007
14849	6.9796	2.4545	0.	-149.02
14850	6.8878	2.5455	0.	-158.12
14851	6.9796	2.5455	5.e-002	3.4522e-007
14852	6.9796	2.2727	0.	-144.08
14853	6.8878	2.3636	0.	-153.67
14854	6.9796	2.3636	5.e-002	4.4766e-007
14855	6.9796	2.0909	0.	-137.81
14856	6.8878	2.1818	0.	-147.8
14857	6.9796	2.1818	5.e-002	9.8284e-007
14858	6.9796	1.9091	0.	-130.26
14859	6.8878	2.	0.	-140.57
14860	6.9796	2.	5.e-002	3.7512e-006
14861	6.9796	1.7273	0.	-121.5
14862	6.8878	1.8182	0.	-132.02
14863	6.9796	1.8182	5.e-002	3.4028e-006
14864	6.9796	1.5455	0.	-111.59
14865	6.8878	1.6364	0.	-122.25
14866	6.9796	1.6364	5.e-002	7.3921e-007
14867	6.9796	1.3636	0.	-100.63
14868	6.8878	1.4545	0.	-111.33
14869	6.9796	1.4545	5.e-002	4.1543e-006
14870	6.9796	1.1818	0.	-88.714
14871	6.8878	1.2727	0.	-99.363
14872	6.9796	1.2727	5.e-002	4.6791e-006
14873	6.9796	1.	0.	-75.93
14874	6.8878	1.0909	0.	-86.44
14875	6.9796	1.0909	5.e-002	3.294e-006
14876	6.9796	0.81818	0.	-62.384
14877	6.8878	0.90909	0.	-72.67
14878	6.9796	0.90909	5.e-002	2.6207e-006
14879	6.9796	0.63636	0.	-48.186
14880	6.8878	0.72727	0.	-58.165
14881	6.9796	0.72727	5.e-002	5.4575e-006
14882	6.9796	0.45455	0.	-33.42
14883	6.8878	0.54545	0.	-43.041
14884	6.9796	0.54545	5.e-002	5.9462e-006
14885	6.9796	0.27273	0.	-18.001
14886	6.8878	0.36364	0.	-27.358
14887	6.9796	0.36364	5.e-002	9.157e-006
14888	6.8878	0.18182	0.	-10.932
14889	6.9796	0.18182	5.e-002	3.2822e-005
14890	6.9796	9.0909e-002	0.	-4.9095
14891	6.7959	5.7273	0.	-20.279
14892	6.7041	5.8182	0.	-12.614
14893	6.7959	5.8182	5.e-002	3.9481e-007
14894	6.7959	5.9091	0.	-5.8434
14895	6.7959	5.5455	0.	-36.982
14896	6.7041	5.6364	0.	-30.372
14897	6.7959	5.6364	5.e-002	-9.4567e-006
14898	6.7959	5.3636	0.	-53.021
14899	6.7041	5.4545	0.	-47.398
14900	6.7959	5.4545	5.e-002	-7.1219e-006
14901	6.7959	5.1818	0.	-68.452
14902	6.7041	5.2727	0.	-63.83
14903	6.7959	5.2727	5.e-002	-3.2615e-006
14904	6.7959	5.	0.	-83.181
14905	6.7041	5.0909	0.	-79.597
14906	6.7959	5.0909	5.e-002	-5.272e-006
14907	6.7959	4.8182	0.	-97.089
14908	6.7041	4.9091	0.	-94.571
14909	6.7959	4.9091	5.e-002	-5.0702e-006
14910	6.7959	4.6364	0.	-110.06
14911	6.7041	4.7273	0.	-108.63
14912	6.7959	4.7273	5.e-002	-2.713e-006
14913	6.7959	4.4545	0.	-121.99
14914	6.7041	4.5455	0.	-121.66
14915	6.7959	4.5455	5.e-002	-9.544e-007
14916	6.7959	4.2727	0.	-132.78
14917	6.7041	4.3636	0.	-133.55
14918	6.7959	4.3636	5.e-002	-7.9779e-007
14919	6.7959	4.0909	0.	-142.33
14920	6.7041	4.1818	0.	-144.19
14921	6.7959	4.1818	5.e-002	-3.533e-006
14922	6.7959	3.9091	0.	-150.56
14923	6.7041	4.	0.	-153.5
14924	6.7959	4.	5.e-002	-1.4158e-006
14925	6.7959	3.7273	0.	-157.39
14926	6.7041	3.8182	0.	-161.39
14927	6.7959	3.8182	5.e-002	-1.1203e-006
14928	6.7959	3.5455	0.	-162.78
14929	6.7041	3.6364	0.	-167.79
14930	6.7959	3.6364	5.e-002	-5.0073e-007
14931	6.7959	3.3636	0.	-166.66
14932	6.7041	3.4545	0.	-172.64
14933	6.7959	3.4545	5.e-002	-3.7338e-007
14934	6.7959	3.1818	0.	-169.
14935	6.7041	3.2727	0.	-175.9
14936	6.7959	3.2727	5.e-002	-2.292e-007
14937	6.7959	3.	0.	-169.78
14938	6.7041	3.0909	0.	-177.54
14939	6.7959	3.0909	5.e-002	-7.1672e-008
14940	6.7959	2.8182	0.	-169.
14941	6.7041	2.9091	0.	-177.54
14942	6.7959	2.9091	5.e-002	8.4242e-008
14943	6.7959	2.6364	0.	-166.66
14944	6.7041	2.7273	0.	-175.9
14945	6.7959	2.7273	5.e-002	2.292e-007
14946	6.7959	2.4545	0.	-162.78
14947	6.7041	2.5455	0.	-172.64
14948	6.7959	2.5455	5.e-002	2.5882e-006
14949	6.7959	2.2727	0.	-157.39
14950	6.7041	2.3636	0.	-167.79
14951	6.7959	2.3636	5.e-002	8.1803e-007
14952	6.7959	2.0909	0.	-150.56
14953	6.7041	2.1818	0.	-161.39
14954	6.7959	2.1818	5.e-002	1.0991e-006
14955	6.7959	1.9091	0.	-142.33
14956	6.7041	2.	0.	-153.5
14957	6.7959	2.	5.e-002	3.3266e-006
14958	6.7959	1.7273	0.	-132.78
14959	6.7041	1.8182	0.	-144.19
14960	6.7959	1.8182	5.e-002	1.7143e-006
14961	6.7959	1.5455	0.	-121.99
14962	6.7041	1.6364	0.	-133.55
14963	6.7959	1.6364	5.e-002	7.9779e-007
14964	6.7959	1.3636	0.	-110.06
14965	6.7041	1.4545	0.	-121.66
14966	6.7959	1.4545	5.e-002	8.8098e-007
14967	6.7959	1.1818	0.	-97.089
14968	6.7041	1.2727	0.	-108.63
14969	6.7959	1.2727	5.e-002	4.5655e-006
14970	6.7959	1.	0.	-83.181
14971	6.7041	1.0909	0.	-94.571
14972	6.7959	1.0909	5.e-002	7.6738e-006
14973	6.7959	0.81818	0.	-68.452
14974	6.7041	0.90909	0.	-79.597
14975	6.7959	0.90909	5.e-002	6.1902e-006
14976	6.7959	0.63636	0.	-53.021
14977	6.7041	0.72727	0.	-63.83
14978	6.7959	0.72727	5.e-002	6.4127e-006
14979	6.7959	0.45455	0.	-36.982
14980	6.7041	0.54545	0.	-47.398
14981	6.7959	0.54545	5.e-002	8.5507e-006
14982	6.7959	0.27273	0.	-20.279
14983	6.7041	0.36364	0.	-30.372
14984	6.7959	0.36364	5.e-002	9.9862e-006
14985	6.7041	0.18182	0.	-12.614
14986	6.7959	0.18182	5.e-002	1.1289e-005
14987	6.7959	9.0909e-002	0.	-5.8434
14988	6.6122	5.7273	0.	-22.695
14989	6.5204	5.8182	0.	-14.382
14990	6.6122	5.8182	5.e-002	-1.0014e-005
14991	6.6122	5.9091	0.	-6.8231
14992	6.6122	5.5455	0.	-40.789
14993	6.5204	5.6364	0.	-33.583
14994	6.6122	5.6364	5.e-002	-3.0645e-006
14995	6.6122	5.3636	0.	-58.207
14996	6.5204	5.4545	0.	-52.064
14997	6.6122	5.4545	5.e-002	-2.0154e-006
14998	6.6122	5.1818	0.	-74.974
14999	6.5204	5.2727	0.	-69.911
15000	6.6122	5.2727	5.e-002	-6.6385e-006
15001	6.6122	5.	0.	-90.986
15002	6.5204	5.0909	0.	-87.046
15003	6.6122	5.0909	5.e-002	-2.5104e-006
15004	6.6122	4.8182	0.	-106.11
15005	6.5204	4.9091	0.	-103.33
15006	6.6122	4.9091	5.e-002	-9.1819e-007
15007	6.6122	4.6364	0.	-120.23
15008	6.5204	4.7273	0.	-118.62
15009	6.6122	4.7273	5.e-002	-1.0296e-006
15010	6.6122	4.4545	0.	-133.21
15011	6.5204	4.5455	0.	-132.8
15012	6.6122	4.5455	5.e-002	-9.4881e-007
15013	6.6122	4.2727	0.	-144.96
15014	6.5204	4.3636	0.	-145.75
15015	6.6122	4.3636	5.e-002	-2.2703e-006
15016	6.6122	4.0909	0.	-155.36
15017	6.5204	4.1818	0.	-157.34
15018	6.6122	4.1818	5.e-002	-8.5831e-007
15019	6.6122	3.9091	0.	-164.33
15020	6.5204	4.	0.	-167.48
15021	6.6122	4.	5.e-002	-1.5618e-006
15022	6.6122	3.7273	0.	-171.78
15023	6.5204	3.8182	0.	-176.08
15024	6.6122	3.8182	5.e-002	-6.6282e-007
15025	6.6122	3.5455	0.	-177.65
15026	6.5204	3.6364	0.	-183.06
15027	6.6122	3.6364	5.e-002	1.3375e-006
15028	6.6122	3.3636	0.	-181.88
15029	6.5204	3.4545	0.	-188.35
15030	6.6122	3.4545	5.e-002	1.4982e-006
15031	6.6122	3.1818	0.	-184.44
15032	6.5204	3.2727	0.	-191.9
15033	6.6122	3.2727	5.e-002	-2.4869e-007
15034	6.6122	3.	0.	-185.29
15035	6.5204	3.0909	0.	-193.69
15036	6.6122	3.0909	5.e-002	-8.4177e-008
15037	6.6122	2.8182	0.	-184.44
15038	6.5204	2.9091	0.	-193.69
15039	6.6122	2.9091	5.e-002	8.4013e-008
15040	6.6122	2.6364	0.	-181.88
15041	6.5204	2.7273	0.	-191.9
15042	6.6122	2.7273	5.e-002	3.1515e-007
15043	6.6122	2.4545	0.	-177.65
15044	6.5204	2.5455	0.	-188.35
15045	6.6122	2.5455	5.e-002	4.0992e-007
15046	6.6122	2.2727	0.	-171.78
15047	6.5204	2.3636	0.	-183.06
15048	6.6122	2.3636	5.e-002	5.4983e-007
15049	6.6122	2.0909	0.	-164.33
15050	6.5204	2.1818	0.	-176.08
15051	6.6122	2.1818	5.e-002	1.2519e-006
15052	6.6122	1.9091	0.	-155.36
15053	6.5204	2.	0.	-167.48
15054	6.6122	2.	5.e-002	1.6167e-006
15055	6.6122	1.7273	0.	-144.96
15056	6.5204	1.8182	0.	-157.34
15057	6.6122	1.8182	5.e-002	8.5831e-007
15058	6.6122	1.5455	0.	-133.21
15059	6.5204	1.6364	0.	-145.75
15060	6.6122	1.6364	5.e-002	5.5441e-006
15061	6.6122	1.3636	0.	-120.23
15062	6.5204	1.4545	0.	-132.8
15063	6.6122	1.4545	5.e-002	1.8755e-006
15064	6.6122	1.1818	0.	-106.11
15065	6.5204	1.2727	0.	-118.62
15066	6.6122	1.2727	5.e-002	3.0742e-006
15067	6.6122	1.	0.	-90.986
15068	6.5204	1.0909	0.	-103.33
15069	6.6122	1.0909	5.e-002	4.9222e-006
15070	6.6122	0.81818	0.	-74.974
15071	6.5204	0.90909	0.	-87.046
15072	6.6122	0.90909	5.e-002	5.2474e-006
15073	6.6122	0.63636	0.	-58.207
15074	6.5204	0.72727	0.	-69.911
15075	6.6122	0.72727	5.e-002	6.8893e-006
15076	6.6122	0.45455	0.	-40.789
15077	6.5204	0.54545	0.	-52.064
15078	6.6122	0.54545	5.e-002	6.9549e-006
15079	6.6122	0.27273	0.	-22.695
15080	6.5204	0.36364	0.	-33.583
15081	6.6122	0.36364	5.e-002	8.8152e-006
15082	6.5204	0.18182	0.	-14.382
15083	6.6122	0.18182	5.e-002	2.1508e-005
15084	6.6122	9.0909e-002	0.	-6.8231
15085	6.4286	5.7273	0.	-25.253
15086	6.3367	5.8182	0.	-16.233
15087	6.4286	5.8182	5.e-002	-2.0234e-005
15088	6.4286	5.9091	0.	-7.8478
15089	6.4286	5.5455	0.	-44.856
15090	6.3367	5.6364	0.	-37.001
15091	6.4286	5.6364	5.e-002	-7.665e-006
15092	6.4286	5.3636	0.	-63.766
15093	6.3367	5.4545	0.	-57.055
15094	6.4286	5.4545	5.e-002	-1.0098e-005
15095	6.4286	5.1818	0.	-81.981
15096	6.3367	5.2727	0.	-76.437
15097	6.4286	5.2727	5.e-002	-7.4075e-006
15098	6.4286	5.	0.	-99.385
15099	6.3367	5.0909	0.	-95.055
15100	6.4286	5.0909	5.e-002	-3.9022e-006
15101	6.4286	4.8182	0.	-115.83
15102	6.3367	4.9091	0.	-112.76
15103	6.4286	4.9091	5.e-002	-3.6187e-006
15104	6.4286	4.6364	0.	-131.19
15105	6.3367	4.7273	0.	-129.39
15106	6.4286	4.7273	5.e-002	-1.1063e-006
15107	6.4286	4.4545	0.	-145.33
15108	6.3367	4.5455	0.	-144.82
15109	6.4286	4.5455	5.e-002	-3.061e-006
15110	6.4286	4.2727	0.	-158.12
15111	6.3367	4.3636	0.	-158.92
15112	6.4286	4.3636	5.e-002	-6.0224e-006
15113	6.4286	4.0909	0.	-169.45
15114	6.3367	4.1818	0.	-171.54
15115	6.4286	4.1818	5.e-002	-2.1414e-006
15116	6.4286	3.9091	0.	-179.23
15117	6.3367	4.	0.	-182.59
15118	6.4286	4.	5.e-002	-3.6166e-006
15119	6.4286	3.7273	0.	-187.35
15120	6.3367	3.8182	0.	-191.97
15121	6.4286	3.8182	5.e-002	-6.7779e-007
15122	6.4286	3.5455	0.	-193.75
15123	6.3367	3.6364	0.	-199.57
15124	6.4286	3.6364	5.e-002	-5.5919e-007
15125	6.4286	3.3636	0.	-198.36
15126	6.3367	3.4545	0.	-205.34
15127	6.4286	3.4545	5.e-002	-4.1788e-007
15128	6.4286	3.1818	0.	-201.15
15129	6.3367	3.2727	0.	-209.22
15130	6.4286	3.2727	5.e-002	-2.5656e-007
15131	6.4286	3.	0.	-202.08
15132	6.3367	3.0909	0.	-211.17
15133	6.4286	3.0909	5.e-002	-8.7324e-008
15134	6.4286	2.8182	0.	-201.15
15135	6.3367	2.9091	0.	-211.17
15136	6.4286	2.9091	5.e-002	1.9941e-006
15137	6.4286	2.6364	0.	-198.36
15138	6.3367	2.7273	0.	-209.22
15139	6.4286	2.7273	5.e-002	2.5762e-007
15140	6.4286	2.4545	0.	-193.75
15141	6.3367	2.5455	0.	-205.34
15142	6.4286	2.5455	5.e-002	4.2271e-007
15143	6.4286	2.2727	0.	-187.35
15144	6.3367	2.3636	0.	-199.57
15145	6.4286	2.3636	5.e-002	5.7621e-007
15146	6.4286	2.0909	0.	-179.23
15147	6.3367	2.1818	0.	-191.97
15148	6.4286	2.1818	5.e-002	3.2486e-006
15149	6.4286	1.9091	0.	-169.45
15150	6.3367	2.	0.	-182.59
15151	6.4286	2.	5.e-002	3.6462e-006
15152	6.4286	1.7273	0.	-158.12
15153	6.3367	1.8182	0.	-171.54
15154	6.4286	1.8182	5.e-002	3.444e-006
15155	6.4286	1.5455	0.	-145.33
15156	6.3367	1.6364	0.	-158.92
15157	6.4286	1.6364	5.e-002	4.2434e-006
15158	6.4286	1.3636	0.	-131.19
15159	6.3367	1.4545	0.	-144.82
15160	6.4286	1.4545	5.e-002	4.9481e-006
15161	6.4286	1.1818	0.	-115.83
15162	6.3367	1.2727	0.	-129.39
15163	6.4286	1.2727	5.e-002	4.2124e-006
15164	6.4286	1.	0.	-99.385
15165	6.3367	1.0909	0.	-112.76
15166	6.4286	1.0909	5.e-002	3.6187e-006
15167	6.4286	0.81818	0.	-81.981
15168	6.3367	0.90909	0.	-95.055
15169	6.4286	0.90909	5.e-002	3.9022e-006
15170	6.4286	0.63636	0.	-63.766
15171	6.3367	0.72727	0.	-76.437
15172	6.4286	0.72727	5.e-002	8.5264e-006
15173	6.4286	0.45455	0.	-44.856
15174	6.3367	0.54545	0.	-57.055
15175	6.4286	0.54545	5.e-002	1.1891e-005
15176	6.4286	0.27273	0.	-25.253
15177	6.3367	0.36364	0.	-37.001
15178	6.4286	0.36364	5.e-002	1.3523e-005
15179	6.3367	0.18182	0.	-16.233
15180	6.4286	0.18182	5.e-002	2.1616e-005
15181	6.4286	9.0909e-002	0.	-7.8478
15182	6.2449	5.7273	0.	-27.959
15183	6.1531	5.8182	0.	-18.168
15184	6.2449	5.8182	5.e-002	6.9072e-007
15185	6.2449	5.9091	0.	-8.916
15186	6.2449	5.5455	0.	-49.196
15187	6.1531	5.6364	0.	-40.635
15188	6.2449	5.6364	5.e-002	-4.8988e-006
15189	6.2449	5.3636	0.	-69.722
15190	6.1531	5.4545	0.	-62.393
15191	6.2449	5.4545	5.e-002	-8.2568e-006
15192	6.2449	5.1818	0.	-89.507
15193	6.1531	5.2727	0.	-83.437
15194	6.2449	5.2727	5.e-002	-3.7103e-006
15195	6.2449	5.	0.	-108.42
15196	6.1531	5.0909	0.	-103.66
15197	6.2449	5.0909	5.e-002	-4.33e-006
15198	6.2449	4.8182	0.	-126.31
15199	6.1531	4.9091	0.	-122.91
15200	6.2449	4.9091	5.e-002	-7.2728e-006
15201	6.2449	4.6364	0.	-143.02
15202	6.1531	4.7273	0.	-141.
15203	6.2449	4.7273	5.e-002	-9.3355e-006
15204	6.2449	4.4545	0.	-158.4
15205	6.1531	4.5455	0.	-157.79
15206	6.2449	4.5455	5.e-002	-3.3067e-006
15207	6.2449	4.2727	0.	-172.33
15208	6.1531	4.3636	0.	-173.14
15209	6.2449	4.3636	5.e-002	-9.6317e-007
15210	6.2449	4.0909	0.	-184.68
15211	6.1531	4.1818	0.	-186.89
15212	6.2449	4.1818	5.e-002	-5.39e-006
15213	6.2449	3.9091	0.	-195.33
15214	6.1531	4.	0.	-198.93
15215	6.2449	4.	5.e-002	-1.9454e-006
15216	6.2449	3.7273	0.	-204.19
15217	6.1531	3.8182	0.	-209.15
15218	6.2449	3.8182	5.e-002	-1.4965e-006
15219	6.2449	3.5455	0.	-211.16
15220	6.1531	3.6364	0.	-217.44
15221	6.2449	3.6364	5.e-002	-5.9222e-007
15222	6.2449	3.3636	0.	-216.2
15223	6.1531	3.4545	0.	-223.73
15224	6.2449	3.4545	5.e-002	-4.4682e-007
15225	6.2449	3.1818	0.	-219.24
15226	6.1531	3.2727	0.	-227.96
15227	6.2449	3.2727	5.e-002	-2.7131e-007
15228	6.2449	3.	0.	-220.25
15229	6.1531	3.0909	0.	-230.09
15230	6.2449	3.0909	5.e-002	-9.2606e-008
15231	6.2449	2.8182	0.	-219.24
15232	6.1531	2.9091	0.	-230.09
15233	6.2449	2.9091	5.e-002	9.251e-008
15234	6.2449	2.6364	0.	-216.2
15235	6.1531	2.7273	0.	-227.96
15236	6.2449	2.7273	5.e-002	2.177e-006
15237	6.2449	2.4545	0.	-211.16
15238	6.1531	2.5455	0.	-223.73
15239	6.2449	2.5455	5.e-002	6.9415e-007
15240	6.2449	2.2727	0.	-204.19
15241	6.1531	2.3636	0.	-217.44
15242	6.2449	2.3636	5.e-002	2.4952e-006
15243	6.2449	2.0909	0.	-195.33
15244	6.1531	2.1818	0.	-209.15
15245	6.2449	2.1818	5.e-002	2.2696e-006
15246	6.2449	1.9091	0.	-184.68
15247	6.1531	2.	0.	-198.93
15248	6.2449	2.	5.e-002	3.8379e-006
15249	6.2449	1.7273	0.	-172.33
15250	6.1531	1.8182	0.	-186.89
15251	6.2449	1.8182	5.e-002	5.4175e-006
15252	6.2449	1.5455	0.	-158.4
15253	6.1531	1.6364	0.	-173.14
15254	6.2449	1.6364	5.e-002	2.8214e-006
15255	6.2449	1.3636	0.	-143.02
15256	6.1531	1.4545	0.	-157.79
15257	6.2449	1.4545	5.e-002	3.3067e-006
15258	6.2449	1.1818	0.	-126.31
15259	6.1531	1.2727	0.	-141.
15260	6.2449	1.2727	5.e-002	9.1872e-006
15261	6.2449	1.	0.	-108.42
15262	6.1531	1.0909	0.	-122.91
15263	6.2449	1.0909	5.e-002	7.1671e-006
15264	6.2449	0.81818	0.	-89.507
15265	6.1531	0.90909	0.	-103.66
15266	6.2449	0.90909	5.e-002	4.33e-006
15267	6.2449	0.63636	0.	-69.722
15268	6.1531	0.72727	0.	-83.437
15269	6.2449	0.72727	5.e-002	9.5153e-006
15270	6.2449	0.45455	0.	-49.196
15271	6.1531	0.54545	0.	-62.393
15272	6.2449	0.54545	5.e-002	9.6288e-006
15273	6.2449	0.27273	0.	-27.959
15274	6.1531	0.36364	0.	-40.635
15275	6.2449	0.36364	5.e-002	6.7263e-006
15276	6.1531	0.18182	0.	-18.168
15277	6.2449	0.18182	5.e-002	1.1007e-005
15278	6.2449	9.0909e-002	0.	-8.916
15279	6.0612	5.7273	0.	-30.817
15280	5.9694	5.8182	0.	-20.184
15281	6.0612	5.8182	5.e-002	1.9734e-007
15282	6.0612	5.9091	0.	-10.026
15283	6.0612	5.5455	0.	-53.825
15284	5.9694	5.6364	0.	-44.495
15285	6.0612	5.6364	5.e-002	-1.0729e-005
15286	6.0612	5.3636	0.	-76.101
15287	5.9694	5.4545	0.	-68.097
15288	6.0612	5.4545	5.e-002	-4.6559e-007
15289	6.0612	5.1818	0.	-97.587
15290	5.9694	5.2727	0.	-90.942
15291	6.0612	5.2727	5.e-002	-9.7435e-006
15292	6.0612	5.	0.	-118.14
15293	5.9694	5.0909	0.	-112.91
15294	6.0612	5.0909	5.e-002	-1.3233e-005
15295	6.0612	4.8182	0.	-137.59
15296	5.9694	4.9091	0.	-133.83
15297	6.0612	4.9091	5.e-002	-1.1962e-005
15298	6.0612	4.6364	0.	-155.77
15299	5.9694	4.7273	0.	-153.51
15300	6.0612	4.7273	5.e-002	-7.4306e-006
15301	6.0612	4.4545	0.	-172.52
15302	5.9694	4.5455	0.	-171.78
15303	6.0612	4.5455	5.e-002	-1.0641e-006
15304	6.0612	4.2727	0.	-187.69
15305	5.9694	4.3636	0.	-188.49
15306	6.0612	4.3636	5.e-002	-1.0669e-006
15307	6.0612	4.0909	0.	-201.14
15308	5.9694	4.1818	0.	-203.47
15309	6.0612	4.1818	5.e-002	-2.6775e-006
15310	6.0612	3.9091	0.	-212.75
15311	5.9694	4.	0.	-216.6
15312	6.0612	4.	5.e-002	-2.1933e-006
15313	6.0612	3.7273	0.	-222.4
15314	5.9694	3.8182	0.	-227.73
15315	6.0612	3.8182	5.e-002	-7.8555e-007
15316	6.0612	3.5455	0.	-230.01
15317	5.9694	3.6364	0.	-236.78
15318	6.0612	3.6364	5.e-002	-6.4329e-007
15319	6.0612	3.3636	0.	-235.5
15320	5.9694	3.4545	0.	-243.64
15321	6.0612	3.4545	5.e-002	-4.8136e-007
15322	6.0612	3.1818	0.	-238.81
15323	5.9694	3.2727	0.	-248.25
15324	6.0612	3.2727	5.e-002	-2.9116e-007
15325	6.0612	3.	0.	-239.92
15326	5.9694	3.0909	0.	-250.57
15327	6.0612	3.0909	5.e-002	-9.9924e-008
15328	6.0612	2.8182	0.	-238.81
15329	5.9694	2.9091	0.	-250.57
15330	6.0612	2.9091	5.e-002	9.9924e-008
15331	6.0612	2.6364	0.	-235.5
15332	5.9694	2.7273	0.	-248.25
15333	6.0612	2.7273	5.e-002	2.1977e-006
15334	6.0612	2.4545	0.	-230.01
15335	5.9694	2.5455	0.	-243.64
15336	6.0612	2.5455	5.e-002	4.8952e-007
15337	6.0612	2.2727	0.	-222.4
15338	5.9694	2.3636	0.	-236.78
15339	6.0612	2.3636	5.e-002	6.5458e-007
15340	6.0612	2.0909	0.	-212.75
15341	5.9694	2.1818	0.	-227.73
15342	6.0612	2.1818	5.e-002	8.1411e-007
15343	6.0612	1.9091	0.	-201.14
15344	5.9694	2.	0.	-216.6
15345	6.0612	2.	5.e-002	5.3636e-006
15346	6.0612	1.7273	0.	-187.69
15347	5.9694	1.8182	0.	-203.47
15348	6.0612	1.8182	5.e-002	2.7369e-006
15349	6.0612	1.5455	0.	-172.52
15350	5.9694	1.6364	0.	-188.49
15351	6.0612	1.6364	5.e-002	1.0446e-006
15352	6.0612	1.3636	0.	-155.77
15353	5.9694	1.4545	0.	-171.78
15354	6.0612	1.4545	5.e-002	2.9119e-006
15355	6.0612	1.1818	0.	-137.59
15356	5.9694	1.2727	0.	-153.51
15357	6.0612	1.2727	5.e-002	7.4041e-006
15358	6.0612	1.	0.	-118.14
15359	5.9694	1.0909	0.	-133.83
15360	6.0612	1.0909	5.e-002	1.3784e-005
15361	6.0612	0.81818	0.	-97.587
15362	5.9694	0.90909	0.	-112.91
15363	6.0612	0.90909	5.e-002	1.8155e-005
15364	6.0612	0.63636	0.	-76.101
15365	5.9694	0.72727	0.	-90.942
15366	6.0612	0.72727	5.e-002	1.4241e-005
15367	6.0612	0.45455	0.	-53.825
15368	5.9694	0.54545	0.	-68.097
15369	6.0612	0.54545	5.e-002	1.0384e-005
15370	6.0612	0.27273	0.	-30.817
15371	5.9694	0.36364	0.	-44.495
15372	6.0612	0.36364	5.e-002	1.6645e-005
15373	5.9694	0.18182	0.	-20.184
15374	6.0612	0.18182	5.e-002	1.5096e-006
15375	6.0612	9.0909e-002	0.	-10.026
15376	5.8776	5.7273	0.	-33.828
15377	5.7857	5.8182	0.	-22.277
15378	5.8776	5.8182	5.e-002	-3.0959e-005
15379	5.8776	5.9091	0.	-11.174
15380	5.8776	5.5455	0.	-58.757
15381	5.7857	5.6364	0.	-48.588
15382	5.8776	5.6364	5.e-002	-1.8165e-005
15383	5.8776	5.3636	0.	-82.928
15384	5.7857	5.4545	0.	-74.187
15385	5.8776	5.4545	5.e-002	-1.6725e-005
15386	5.8776	5.1818	0.	-106.26
15387	5.7857	5.2727	0.	-98.983
15388	5.8776	5.2727	5.e-002	-5.2247e-006
15389	5.8776	5.	0.	-128.59
15390	5.7857	5.0909	0.	-122.85
15391	5.8776	5.0909	5.e-002	-1.455e-007
15392	5.8776	4.8182	0.	-149.74
15393	5.7857	4.9091	0.	-145.58
15394	5.8776	4.9091	5.e-002	-1.0863e-006
15395	5.8776	4.6364	0.	-169.52
15396	5.7857	4.7273	0.	-166.99
15397	5.8776	4.7273	5.e-002	-4.7916e-006
15398	5.8776	4.4545	0.	-187.75
15399	5.7857	4.5455	0.	-186.87
15400	5.8776	4.5455	5.e-002	-4.2533e-006
15401	5.8776	4.2727	0.	-204.27
15402	5.7857	4.3636	0.	-205.07
15403	5.8776	4.3636	5.e-002	-3.5894e-006
15404	5.8776	4.0909	0.	-218.93
15405	5.7857	4.1818	0.	-221.39
15406	5.8776	4.1818	5.e-002	-1.0181e-006
15407	5.8776	3.9091	0.	-231.58
15408	5.7857	4.	0.	-235.69
15409	5.8776	4.	5.e-002	-2.4069e-006
15410	5.8776	3.7273	0.	-242.11
15411	5.7857	3.8182	0.	-247.84
15412	5.8776	3.8182	5.e-002	-8.5963e-007
15413	5.8776	3.5455	0.	-250.41
15414	5.7857	3.6364	0.	-257.7
15415	5.8776	3.6364	5.e-002	-6.7979e-007
15416	5.8776	3.3636	0.	-256.39
15417	5.7857	3.4545	0.	-265.19
15418	5.8776	3.4545	5.e-002	-4.9173e-007
15419	5.8776	3.1818	0.	-260.01
15420	5.7857	3.2727	0.	-270.22
15421	5.8776	3.2727	5.e-002	-3.1881e-007
15422	5.8776	3.	0.	-261.22
15423	5.7857	3.0909	0.	-272.75
15424	5.8776	3.0909	5.e-002	-1.0672e-007
15425	5.8776	2.8182	0.	-260.01
15426	5.7857	2.9091	0.	-272.75
15427	5.8776	2.9091	5.e-002	1.0672e-007
15428	5.8776	2.6364	0.	-256.39
15429	5.7857	2.7273	0.	-270.22
15430	5.8776	2.7273	5.e-002	3.135e-007
15431	5.8776	2.4545	0.	-250.41
15432	5.7857	2.5455	0.	-265.19
15433	5.8776	2.5455	5.e-002	5.2685e-007
15434	5.8776	2.2727	0.	-242.11
15435	5.7857	2.3636	0.	-257.7
15436	5.8776	2.3636	5.e-002	1.3194e-006
15437	5.8776	2.0909	0.	-231.58
15438	5.7857	2.1818	0.	-247.84
15439	5.8776	2.1818	5.e-002	8.5963e-007
15440	5.8776	1.9091	0.	-218.93
15441	5.7857	2.	0.	-235.69
15442	5.8776	2.	5.e-002	5.4558e-006
15443	5.8776	1.7273	0.	-204.27
15444	5.7857	1.8182	0.	-221.39
15445	5.8776	1.8182	5.e-002	4.8607e-006
15446	5.8776	1.5455	0.	-187.75
15447	5.7857	1.6364	0.	-205.07
15448	5.8776	1.6364	5.e-002	8.7679e-006
15449	5.8776	1.3636	0.	-169.52
15450	5.7857	1.4545	0.	-186.87
15451	5.8776	1.4545	5.e-002	4.2533e-006
15452	5.8776	1.1818	0.	-149.74
15453	5.7857	1.2727	0.	-166.99
15454	5.8776	1.2727	5.e-002	4.7916e-006
15455	5.8776	1.	0.	-128.59
15456	5.7857	1.0909	0.	-145.58
15457	5.8776	1.0909	5.e-002	2.8322e-006
15458	5.8776	0.81818	0.	-106.26
15459	5.7857	0.90909	0.	-122.85
15460	5.8776	0.90909	5.e-002	1.0018e-006
15461	5.8776	0.63636	0.	-82.928
15462	5.7857	0.72727	0.	-98.983
15463	5.8776	0.72727	5.e-002	6.0976e-006
15464	5.8776	0.45455	0.	-58.757
15465	5.7857	0.54545	0.	-74.187
15466	5.8776	0.54545	5.e-002	1.8182e-005
15467	5.8776	0.27273	0.	-33.828
15468	5.7857	0.36364	0.	-48.588
15469	5.8776	0.36364	5.e-002	1.9024e-005
15470	5.7857	0.18182	0.	-22.277
15471	5.8776	0.18182	5.e-002	3.2207e-005
15472	5.8776	9.0909e-002	0.	-11.174
15473	5.6939	5.7273	0.	-36.995
15474	5.602	5.8182	0.	-24.441
15475	5.6939	5.8182	5.e-002	-1.6286e-007
15476	5.6939	5.9091	0.	-12.357
15477	5.6939	5.5455	0.	-64.005
15478	5.602	5.6364	0.	-52.924
15479	5.6939	5.6364	5.e-002	-6.9814e-006
15480	5.6939	5.3636	0.	-90.23
15481	5.602	5.4545	0.	-80.684
15482	5.6939	5.4545	5.e-002	-1.1811e-005
15483	5.6939	5.1818	0.	-115.56
15484	5.602	5.2727	0.	-107.59
15485	5.6939	5.2727	5.e-002	-1.8681e-005
15486	5.6939	5.	0.	-139.83
15487	5.602	5.0909	0.	-133.52
15488	5.6939	5.0909	5.e-002	-6.4811e-006
15489	5.6939	4.8182	0.	-162.82
15490	5.602	4.9091	0.	-158.22
15491	5.6939	4.9091	5.e-002	-5.8504e-006
15492	5.6939	4.6364	0.	-184.34
15493	5.602	4.7273	0.	-181.51
15494	5.6939	4.7273	5.e-002	-5.2934e-006
15495	5.6939	4.4545	0.	-204.18
15496	5.602	4.5455	0.	-203.15
15497	5.6939	4.5455	5.e-002	-4.6878e-006
15498	5.6939	4.2727	0.	-222.18
15499	5.602	4.3636	0.	-222.96
15500	5.6939	4.3636	5.e-002	-4.151e-006
15501	5.6939	4.0909	0.	-238.15
15502	5.602	4.1818	0.	-240.75
15503	5.6939	4.1818	5.e-002	-5.7896e-006
15504	5.6939	3.9091	0.	-251.95
15505	5.602	4.	0.	-256.34
15506	5.6939	4.	5.e-002	-4.5176e-006
15507	5.6939	3.7273	0.	-263.43
15508	5.602	3.8182	0.	-269.58
15509	5.6939	3.8182	5.e-002	-3.2361e-006
15510	5.6939	3.5455	0.	-272.48
15511	5.602	3.6364	0.	-280.34
15512	5.6939	3.6364	5.e-002	-7.3043e-007
15513	5.6939	3.3636	0.	-279.01
15514	5.602	3.4545	0.	-288.51
15515	5.6939	3.4545	5.e-002	-5.6649e-007
15516	5.6939	3.1818	0.	-282.96
15517	5.602	3.2727	0.	-294.
15518	5.6939	3.2727	5.e-002	-3.3153e-007
15519	5.6939	3.	0.	-284.28
15520	5.602	3.0909	0.	-296.76
15521	5.6939	3.0909	5.e-002	-1.1484e-007
15522	5.6939	2.8182	0.	-282.96
15523	5.602	2.9091	0.	-296.76
15524	5.6939	2.9091	5.e-002	1.1388e-007
15525	5.6939	2.6364	0.	-279.01
15526	5.602	2.7273	0.	-294.
15527	5.6939	2.7273	5.e-002	3.3724e-007
15528	5.6939	2.4545	0.	-272.48
15529	5.602	2.5455	0.	-288.51
15530	5.6939	2.5455	5.e-002	5.2873e-007
15531	5.6939	2.2727	0.	-263.43
15532	5.602	2.3636	0.	-280.34
15533	5.6939	2.3636	5.e-002	7.5652e-007
15534	5.6939	2.0909	0.	-251.95
15535	5.602	2.1818	0.	-269.58
15536	5.6939	2.1818	5.e-002	3.3679e-006
15537	5.6939	1.9091	0.	-238.15
15538	5.602	2.	0.	-256.34
15539	5.6939	2.	5.e-002	4.4604e-006
15540	5.6939	1.7273	0.	-222.18
15541	5.602	1.8182	0.	-240.75
15542	5.6939	1.8182	5.e-002	5.6987e-006
15543	5.6939	1.5455	0.	-204.18
15544	5.602	1.6364	0.	-222.96
15545	5.6939	1.6364	5.e-002	6.9773e-006
15546	5.6939	1.3636	0.	-184.34
15547	5.602	1.4545	0.	-203.15
15548	5.6939	1.4545	5.e-002	4.7997e-006
15549	5.6939	1.1818	0.	-162.82
15550	5.602	1.2727	0.	-181.51
15551	5.6939	1.2727	5.e-002	9.6205e-006
15552	5.6939	1.	0.	-139.83
15553	5.602	1.0909	0.	-158.22
15554	5.6939	1.0909	5.e-002	7.6071e-006
15555	5.6939	0.81818	0.	-115.56
15556	5.602	0.90909	0.	-133.52
15557	5.6939	0.90909	5.e-002	1.2613e-005
15558	5.6939	0.63636	0.	-90.23
15559	5.602	0.72727	0.	-107.59
15560	5.6939	0.72727	5.e-002	1.9401e-005
15561	5.6939	0.45455	0.	-64.005
15562	5.602	0.54545	0.	-80.684
15563	5.6939	0.54545	5.e-002	2.7087e-005
15564	5.6939	0.27273	0.	-36.995
15565	5.602	0.36364	0.	-52.924
15566	5.6939	0.36364	5.e-002	2.1506e-005
15567	5.602	0.18182	0.	-24.441
15568	5.6939	0.18182	5.e-002	1.1323e-006
15569	5.6939	9.0909e-002	0.	-12.357
15570	5.5102	5.7273	0.	-40.318
15571	5.4184	5.8182	0.	-26.668
15572	5.5102	5.8182	5.e-002	-2.0727e-005
15573	5.5102	5.9091	0.	-13.568
15574	5.5102	5.5455	0.	-69.585
15575	5.4184	5.6364	0.	-57.507
15576	5.5102	5.6364	5.e-002	-7.8531e-006
15577	5.5102	5.3636	0.	-98.033
15578	5.4184	5.4545	0.	-87.607
15579	5.5102	5.4545	5.e-002	-1.5204e-005
15580	5.5102	5.1818	0.	-125.53
15581	5.4184	5.2727	0.	-116.81
15582	5.5102	5.2727	5.e-002	-7.4839e-007
15583	5.5102	5.	0.	-151.9
15584	5.4184	5.0909	0.	-144.96
15585	5.5102	5.0909	5.e-002	-7.1796e-006
15586	5.5102	4.8182	0.	-176.9
15587	5.4184	4.9091	0.	-171.82
15588	5.5102	4.9091	5.e-002	-6.7517e-006
15589	5.5102	4.6364	0.	-200.31
15590	5.4184	4.7273	0.	-197.14
15591	5.5102	4.7273	5.e-002	-1.0803e-005
15592	5.5102	4.4545	0.	-221.92
15593	5.4184	4.5455	0.	-220.7
15594	5.5102	4.5455	5.e-002	-9.149e-006
15595	5.5102	4.2727	0.	-241.52
15596	5.4184	4.3636	0.	-242.28
15597	5.5102	4.3636	5.e-002	-1.3061e-006
15598	5.5102	4.0909	0.	-258.93
15599	5.4184	4.1818	0.	-261.66
15600	5.5102	4.1818	5.e-002	-3.8181e-006
15601	5.5102	3.9091	0.	-273.97
15602	5.4184	4.	0.	-278.66
15603	5.5102	4.	5.e-002	-1.0979e-006
15604	5.5102	3.7273	0.	-286.49
15605	5.4184	3.8182	0.	-293.1
15606	5.5102	3.8182	5.e-002	-2.2908e-006
15607	5.5102	3.5455	0.	-296.37
15608	5.4184	3.6364	0.	-304.84
15609	5.5102	3.6364	5.e-002	-7.2799e-007
15610	5.5102	3.3636	0.	-303.5
15611	5.4184	3.4545	0.	-313.75
15612	5.5102	3.4545	5.e-002	-5.6794e-007
15613	5.5102	3.1818	0.	-307.81
15614	5.4184	3.2727	0.	-319.75
15615	5.5102	3.2727	5.e-002	-3.6859e-007
15616	5.5102	3.	0.	-309.25
15617	5.4184	3.0909	0.	-322.76
15618	5.5102	3.0909	5.e-002	-1.0321e-007
15619	5.5102	2.8182	0.	-307.81
15620	5.4184	2.9091	0.	-322.76
15621	5.5102	2.9091	5.e-002	1.3752e-007
15622	5.5102	2.6364	0.	-303.5
15623	5.4184	2.7273	0.	-319.75
15624	5.5102	2.7273	5.e-002	5.1882e-007
15625	5.5102	2.4545	0.	-296.37
15626	5.4184	2.5455	0.	-313.75
15627	5.5102	2.5455	5.e-002	5.6794e-007
15628	5.5102	2.2727	0.	-286.49
15629	5.4184	2.3636	0.	-304.84
15630	5.5102	2.3636	5.e-002	7.8399e-007
15631	5.5102	2.0909	0.	-273.97
15632	5.4184	2.1818	0.	-293.1
15633	5.5102	2.1818	5.e-002	2.2908e-006
15634	5.5102	1.9091	0.	-258.93
15635	5.4184	2.	0.	-278.66
15636	5.5102	2.	5.e-002	2.9924e-006
15637	5.5102	1.7273	0.	-241.52
15638	5.4184	1.8182	0.	-261.66
15639	5.5102	1.8182	5.e-002	4.0126e-006
15640	5.5102	1.5455	0.	-221.92
15641	5.4184	1.6364	0.	-242.28
15642	5.5102	1.6364	5.e-002	4.672e-006
15643	5.5102	1.3636	0.	-200.31
15644	5.4184	1.4545	0.	-220.7
15645	5.5102	1.4545	5.e-002	9.865e-006
15646	5.5102	1.1818	0.	-176.9
15647	5.4184	1.2727	0.	-197.14
15648	5.5102	1.2727	5.e-002	1.0803e-005
15649	5.5102	1.	0.	-151.9
15650	5.4184	1.0909	0.	-171.82
15651	5.5102	1.0909	5.e-002	6.6149e-006
15652	5.5102	0.81818	0.	-125.53
15653	5.4184	0.90909	0.	-144.96
15654	5.5102	0.90909	5.e-002	7.1796e-006
15655	5.5102	0.63636	0.	-98.033
15656	5.4184	0.72727	0.	-116.81
15657	5.5102	0.72727	5.e-002	8.5094e-006
15658	5.5102	0.45455	0.	-69.585
15659	5.4184	0.54545	0.	-87.607
15660	5.5102	0.54545	5.e-002	1.5281e-005
15661	5.5102	0.27273	0.	-40.318
15662	5.4184	0.36364	0.	-57.507
15663	5.5102	0.36364	5.e-002	1.6447e-005
15664	5.4184	0.18182	0.	-26.668
15665	5.5102	0.18182	5.e-002	3.2041e-005
15666	5.5102	9.0909e-002	0.	-13.568
15667	5.3265	5.7273	0.	-43.795
15668	5.2347	5.8182	0.	-28.947
15669	5.3265	5.8182	5.e-002	-1.0445e-005
15670	5.3265	5.9091	0.	-14.802
15671	5.3265	5.5455	0.	-75.508
15672	5.2347	5.6364	0.	-62.345
15673	5.3265	5.6364	5.e-002	-2.6421e-005
15674	5.3265	5.3636	0.	-106.37
15675	5.2347	5.4545	0.	-94.977
15676	5.3265	5.4545	5.e-002	-2.5527e-005
15677	5.3265	5.1818	0.	-136.22
15678	5.2347	5.2727	0.	-126.67
15679	5.3265	5.2727	5.e-002	-2.2707e-005
15680	5.3265	5.	0.	-164.87
15681	5.2347	5.0909	0.	-157.24
15682	5.3265	5.0909	5.e-002	-1.2185e-006
15683	5.3265	4.8182	0.	-192.05
15684	5.2347	4.9091	0.	-186.43
15685	5.3265	4.9091	5.e-002	-1.377e-005
15686	5.3265	4.6364	0.	-217.52
15687	5.2347	4.7273	0.	-213.98
15688	5.3265	4.7273	5.e-002	-6.8821e-006
15689	5.3265	4.4545	0.	-241.05
15690	5.2347	4.5455	0.	-239.63
15691	5.3265	4.5455	5.e-002	-1.0909e-005
15692	5.3265	4.2727	0.	-262.41
15693	5.2347	4.3636	0.	-263.13
15694	5.3265	4.3636	5.e-002	-7.0394e-006
15695	5.3265	4.0909	0.	-281.38
15696	5.2347	4.1818	0.	-284.25
15697	5.3265	4.1818	5.e-002	-4.4983e-006
15698	5.3265	3.9091	0.	-297.78
15699	5.2347	4.	0.	-302.78
15700	5.3265	4.	5.e-002	-3.359e-006
15701	5.3265	3.7273	0.	-311.45
15702	5.2347	3.8182	0.	-318.54
15703	5.3265	3.8182	5.e-002	-2.4115e-006
15704	5.3265	3.5455	0.	-322.23
15705	5.2347	3.6364	0.	-331.35
15706	5.3265	3.6364	5.e-002	-2.6872e-006
15707	5.3265	3.3636	0.	-330.01
15708	5.2347	3.4545	0.	-341.08
15709	5.3265	3.4545	5.e-002	-6.094e-007
15710	5.3265	3.1818	0.	-334.71
15711	5.2347	3.2727	0.	-347.62
15712	5.3265	3.2727	5.e-002	-3.6935e-007
15713	5.3265	3.	0.	-336.28
15714	5.2347	3.0909	0.	-350.91
15715	5.3265	3.0909	5.e-002	-1.2706e-007
15716	5.3265	2.8182	0.	-334.71
15717	5.2347	2.9091	0.	-350.91
15718	5.3265	2.9091	5.e-002	1.2706e-007
15719	5.3265	2.6364	0.	-330.01
15720	5.2347	2.7273	0.	-347.62
15721	5.3265	2.7273	5.e-002	5.6995e-007
15722	5.3265	2.4545	0.	-322.23
15723	5.2347	2.5455	0.	-341.08
15724	5.3265	2.5455	5.e-002	1.1223e-006
15725	5.3265	2.2727	0.	-311.45
15726	5.2347	2.3636	0.	-331.35
15727	5.3265	2.3636	5.e-002	2.9274e-006
15728	5.3265	2.0909	0.	-297.78
15729	5.2347	2.1818	0.	-318.54
15730	5.3265	2.1818	5.e-002	2.6386e-006
15731	5.3265	1.9091	0.	-281.38
15732	5.2347	2.	0.	-302.78
15733	5.3265	2.	5.e-002	5.6341e-006
15734	5.3265	1.7273	0.	-262.41
15735	5.2347	1.8182	0.	-284.25
15736	5.3265	1.8182	5.e-002	4.4983e-006
15737	5.3265	1.5455	0.	-241.05
15738	5.2347	1.6364	0.	-263.13
15739	5.3265	1.6364	5.e-002	8.8805e-006
15740	5.3265	1.3636	0.	-217.52
15741	5.2347	1.4545	0.	-239.63
15742	5.3265	1.4545	5.e-002	1.0655e-005
15743	5.3265	1.1818	0.	-192.05
15744	5.2347	1.2727	0.	-213.98
15745	5.3265	1.2727	5.e-002	6.6087e-006
15746	5.3265	1.	0.	-164.87
15747	5.2347	1.0909	0.	-186.43
15748	5.3265	1.0909	5.e-002	1.548e-005
15749	5.3265	0.81818	0.	-136.22
15750	5.2347	0.90909	0.	-157.24
15751	5.3265	0.90909	5.e-002	1.2185e-006
15752	5.3265	0.63636	0.	-106.37
15753	5.2347	0.72727	0.	-126.67
15754	5.3265	0.72727	5.e-002	3.2476e-005
15755	5.3265	0.45455	0.	-75.508
15756	5.2347	0.54545	0.	-94.977
15757	5.3265	0.54545	5.e-002	2.7339e-005
15758	5.3265	0.27273	0.	-43.795
15759	5.2347	0.36364	0.	-62.345
15760	5.3265	0.36364	5.e-002	3.6338e-005
15761	5.2347	0.18182	0.	-28.947
15762	5.3265	0.18182	5.e-002	2.1685e-005
15763	5.3265	9.0909e-002	0.	-14.802
15764	5.1429	5.7273	0.	-47.423
15765	5.051	5.8182	0.	-31.266
15766	5.1429	5.8182	5.e-002	-3.1799e-005
15767	5.1429	5.9091	0.	-16.049
15768	5.1429	5.5455	0.	-81.788
15769	5.051	5.6364	0.	-67.441
15770	5.1429	5.6364	5.e-002	-2.0027e-005
15771	5.1429	5.3636	0.	-115.25
15772	5.051	5.4545	0.	-102.81
15773	5.1429	5.4545	5.e-002	-1.9019e-005
15774	5.1429	5.1818	0.	-147.66
15775	5.051	5.2727	0.	-137.2
15776	5.1429	5.2727	5.e-002	-1.8494e-005
15777	5.1429	5.	0.	-178.79
15778	5.051	5.0909	0.	-170.4
15779	5.1429	5.0909	5.e-002	-1.7298e-005
15780	5.1429	4.8182	0.	-208.34
15781	5.051	4.9091	0.	-202.14
15782	5.1429	4.9091	5.e-002	-1.5896e-005
15783	5.1429	4.6364	0.	-236.07
15784	5.051	4.7273	0.	-232.1
15785	5.1429	4.7273	5.e-002	-1.7398e-006
15786	5.1429	4.4545	0.	-261.69
15787	5.051	4.5455	0.	-260.02
15788	5.1429	4.5455	5.e-002	6.6015e-007
15789	5.1429	4.2727	0.	-284.96
15790	5.051	4.3636	0.	-285.63
15791	5.1429	4.3636	5.e-002	-5.8984e-006
15792	5.1429	4.0909	0.	-305.64
15793	5.051	4.1818	0.	-308.65
15794	5.1429	4.1818	5.e-002	-4.8166e-006
15795	5.1429	3.9091	0.	-323.53
15796	5.051	4.	0.	-328.86
15797	5.1429	4.	5.e-002	-9.6468e-007
15798	5.1429	3.7273	0.	-338.44
15799	5.051	3.8182	0.	-346.05
15800	5.1429	3.8182	5.e-002	-4.7595e-006
15801	5.1429	3.5455	0.	-350.2
15802	5.051	3.6364	0.	-360.03
15803	5.1429	3.6364	5.e-002	-7.7143e-007
15804	5.1429	3.3636	0.	-358.7
15805	5.051	3.4545	0.	-370.65
15806	5.1429	3.4545	5.e-002	-6.998e-007
15807	5.1429	3.1818	0.	-363.83
15808	5.051	3.2727	0.	-377.79
15809	5.1429	3.2727	5.e-002	-4.1027e-007
15810	5.1429	3.	0.	-365.55
15811	5.051	3.0909	0.	-381.38
15812	5.1429	3.0909	5.e-002	-1.3513e-007
15813	5.1429	2.8182	0.	-363.83
15814	5.051	2.9091	0.	-381.38
15815	5.1429	2.9091	5.e-002	1.3987e-007
15816	5.1429	2.6364	0.	-358.7
15817	5.051	2.7273	0.	-377.79
15818	5.1429	2.7273	5.e-002	6.1178e-007
15819	5.1429	2.4545	0.	-350.2
15820	5.051	2.5455	0.	-370.65
15821	5.1429	2.5455	5.e-002	6.5315e-007
15822	5.1429	2.2727	0.	-338.44
15823	5.051	2.3636	0.	-360.03
15824	5.1429	2.3636	5.e-002	2.0303e-006
15825	5.1429	2.0909	0.	-323.53
15826	5.051	2.1818	0.	-346.05
15827	5.1429	2.1818	5.e-002	4.4356e-006
15828	5.1429	1.9091	0.	-305.64
15829	5.051	2.	0.	-328.86
15830	5.1429	2.	5.e-002	3.7673e-006
15831	5.1429	1.7273	0.	-284.96
15832	5.051	1.8182	0.	-308.65
15833	5.1429	1.8182	5.e-002	4.5952e-006
15834	5.1429	1.5455	0.	-261.69
15835	5.051	1.6364	0.	-285.63
15836	5.1429	1.6364	5.e-002	5.6513e-006
15837	5.1429	1.3636	0.	-236.07
15838	5.051	1.4545	0.	-260.02
15839	5.1429	1.4545	5.e-002	1.0797e-006
15840	5.1429	1.1818	0.	-208.34
15841	5.051	1.2727	0.	-232.1
15842	5.1429	1.2727	5.e-002	1.7398e-006
15843	5.1429	1.	0.	-178.79
15844	5.051	1.0909	0.	-202.14
15845	5.1429	1.0909	5.e-002	2.2769e-005
15846	5.1429	0.81818	0.	-147.66
15847	5.051	0.90909	0.	-170.4
15848	5.1429	0.90909	5.e-002	1.6976e-005
15849	5.1429	0.63636	0.	-115.25
15850	5.051	0.72727	0.	-137.2
15851	5.1429	0.72727	5.e-002	1.9311e-005
15852	5.1429	0.45455	0.	-81.788
15853	5.051	0.54545	0.	-102.81
15854	5.1429	0.54545	5.e-002	1.9482e-005
15855	5.1429	0.27273	0.	-47.423
15856	5.051	0.36364	0.	-67.441
15857	5.1429	0.36364	5.e-002	2.0875e-005
15858	5.051	0.18182	0.	-31.266
15859	5.1429	0.18182	5.e-002	3.1996e-005
15860	5.1429	9.0909e-002	0.	-16.049
15861	4.9592	5.7273	0.	-51.196
15862	4.8673	5.8182	0.	-33.605
15863	4.9592	5.8182	5.e-002	-9.7747e-006
15864	4.9592	5.9091	0.	-17.298
15865	4.9592	5.5455	0.	-88.435
15866	4.8673	5.6364	0.	-72.796
15867	4.9592	5.6364	5.e-002	-1.5214e-015
15868	4.9592	5.3636	0.	-124.73
15869	4.8673	5.4545	0.	-111.14
15870	4.9592	5.4545	5.e-002	-2.1956e-005
15871	4.9592	5.1818	0.	-159.91
15872	4.8673	5.2727	0.	-148.44
15873	4.9592	5.2727	5.e-002	-2.1208e-005
15874	4.9592	5.	0.	-193.73
15875	4.8673	5.0909	0.	-184.51
15876	4.9592	5.0909	5.e-002	-1.8833e-005
15877	4.9592	4.8182	0.	-225.87
15878	4.8673	4.9091	0.	-219.
15879	4.9592	4.9091	5.e-002	-8.8037e-006
15880	4.9592	4.6364	0.	-256.04
15881	4.8673	4.7273	0.	-251.61
15882	4.9592	4.7273	5.e-002	-1.2273e-006
15883	4.9592	4.4545	0.	-283.94
15884	4.8673	4.5455	0.	-282.01
15885	4.9592	4.5455	5.e-002	-1.7171e-006
15886	4.9592	4.2727	0.	-309.3
15887	4.8673	4.3636	0.	-309.9
15888	4.9592	4.3636	5.e-002	-6.6143e-006
15889	4.9592	4.0909	0.	-331.86
15890	4.8673	4.1818	0.	-335.
15891	4.9592	4.1818	5.e-002	-8.7302e-006
15892	4.9592	3.9091	0.	-351.37
15893	4.8673	4.	0.	-357.05
15894	4.9592	4.	5.e-002	-1.44e-006
15895	4.9592	3.7273	0.	-367.64
15896	4.8673	3.8182	0.	-375.8
15897	4.9592	3.8182	5.e-002	-1.0374e-006
15898	4.9592	3.5455	0.	-380.48
15899	4.8673	3.6364	0.	-391.05
15900	4.9592	3.6364	5.e-002	-6.8743e-007
15901	4.9592	3.3636	0.	-389.75
15902	4.8673	3.4545	0.	-402.64
15903	4.9592	3.4545	5.e-002	-1.476e-006
15904	4.9592	3.1818	0.	-395.36
15905	4.8673	3.2727	0.	-410.44
15906	4.9592	3.2727	5.e-002	-4.2432e-007
15907	4.9592	3.	0.	-397.23
15908	4.8673	3.0909	0.	-414.37
15909	4.9592	3.0909	5.e-002	-1.448e-007
15910	4.9592	2.8182	0.	-395.36
15911	4.8673	2.9091	0.	-414.37
15912	4.9592	2.9091	5.e-002	1.448e-007
15913	4.9592	2.6364	0.	-389.75
15914	4.8673	2.7273	0.	-410.44
15915	4.9592	2.7273	5.e-002	7.0222e-007
15916	4.9592	2.4545	0.	-380.48
15917	4.8673	2.5455	0.	-402.64
15918	4.9592	2.5455	5.e-002	1.4261e-006
15919	4.9592	2.2727	0.	-367.64
15920	4.8673	2.3636	0.	-391.05
15921	4.9592	2.3636	5.e-002	1.9835e-006
15922	4.9592	2.0909	0.	-351.37
15923	4.8673	2.1818	0.	-375.8
15924	4.9592	2.1818	5.e-002	1.0374e-006
15925	4.9592	1.9091	0.	-331.86
15926	4.8673	2.	0.	-357.05
15927	4.9592	2.	5.e-002	4.2206e-006
15928	4.9592	1.7273	0.	-309.3
15929	4.8673	1.8182	0.	-335.
15930	4.9592	1.8182	5.e-002	5.1647e-006
15931	4.9592	1.5455	0.	-283.94
15932	4.8673	1.6364	0.	-309.9
15933	4.9592	1.6364	5.e-002	6.6143e-006
15934	4.9592	1.3636	0.	-256.04
15935	4.8673	1.4545	0.	-282.01
15936	4.9592	1.4545	5.e-002	7.2524e-006
15937	4.9592	1.1818	0.	-225.87
15938	4.8673	1.2727	0.	-251.61
15939	4.9592	1.2727	5.e-002	1.6154e-005
15940	4.9592	1.	0.	-193.73
15941	4.8673	1.0909	0.	-219.
15942	4.9592	1.0909	5.e-002	1.8256e-005
15943	4.9592	0.81818	0.	-159.91
15944	4.8673	0.90909	0.	-184.51
15945	4.9592	0.90909	5.e-002	1.9511e-005
15946	4.9592	0.63636	0.	-124.73
15947	4.8673	0.72727	0.	-148.44
15948	4.9592	0.72727	5.e-002	1.9801e-005
15949	4.9592	0.45455	0.	-88.435
15950	4.8673	0.54545	0.	-111.14
15951	4.9592	0.54545	5.e-002	2.1594e-005
15952	4.9592	0.27273	0.	-51.196
15953	4.8673	0.36364	0.	-72.796
15954	4.9592	0.36364	5.e-002	1.449e-005
15955	4.8673	0.18182	0.	-33.605
15956	4.9592	0.18182	5.e-002	2.1324e-005
15957	4.9592	9.0909e-002	0.	-17.298
15958	4.7755	5.7273	0.	-55.103
15959	4.6837	5.8182	0.	-35.946
15960	4.7755	5.8182	5.e-002	-3.1733e-005
15961	4.7755	5.9091	0.	-18.535
15962	4.7755	5.5455	0.	-95.461
15963	4.6837	5.6364	0.	-78.412
15964	4.7755	5.6364	5.e-002	-1.3096e-005
15965	4.7755	5.3636	0.	-134.82
15966	4.6837	5.4545	0.	-119.97
15967	4.7755	5.4545	5.e-002	-1.2714e-005
15968	4.7755	5.1818	0.	-173.01
15969	4.6837	5.2727	0.	-160.44
15970	4.7755	5.2727	5.e-002	-2.3825e-005
15971	4.7755	5.	0.	-209.75
15972	4.6837	5.0909	0.	-199.62
15973	4.7755	5.0909	5.e-002	-1.0263e-005
15974	4.7755	4.8182	0.	-244.71
15975	4.6837	4.9091	0.	-237.12
15976	4.7755	4.9091	5.e-002	-1.9839e-005
15977	4.7755	4.6364	0.	-277.55
15978	4.6837	4.7273	0.	-272.6
15979	4.7755	4.7273	5.e-002	-1.0062e-005
15980	4.7755	4.4545	0.	-307.95
15981	4.6837	4.5455	0.	-305.7
15982	4.7755	4.5455	5.e-002	-8.1519e-006
15983	4.7755	4.2727	0.	-335.59
15984	4.6837	4.3636	0.	-336.09
15985	4.7755	4.3636	5.e-002	-1.6697e-006
15986	4.7755	4.0909	0.	-360.18
15987	4.6837	4.1818	0.	-363.46
15988	4.7755	4.1818	5.e-002	-1.0014e-006
15989	4.7755	3.9091	0.	-381.47
15990	4.6837	4.	0.	-387.5
15991	4.7755	4.	5.e-002	-1.7518e-006
15992	4.7755	3.7273	0.	-399.22
15993	4.6837	3.8182	0.	-407.96
15994	4.7755	3.8182	5.e-002	-1.1062e-006
15995	4.7755	3.5455	0.	-413.23
15996	4.6837	3.6364	0.	-424.61
15997	4.7755	3.6364	5.e-002	-1.0276e-006
15998	4.7755	3.3636	0.	-423.35
15999	4.6837	3.4545	0.	-437.26
16000	4.7755	3.4545	5.e-002	-6.4059e-007
16001	4.7755	3.1818	0.	-429.47
16002	4.6837	3.2727	0.	-445.77
16003	4.7755	3.2727	5.e-002	-5.1876e-007
16004	4.7755	3.	0.	-431.52
16005	4.6837	3.0909	0.	-450.06
16006	4.7755	3.0909	5.e-002	-1.5768e-007
16007	4.7755	2.8182	0.	-429.47
16008	4.6837	2.9091	0.	-450.06
16009	4.7755	2.9091	5.e-002	1.5496e-007
16010	4.7755	2.6364	0.	-423.35
16011	4.6837	2.7273	0.	-445.77
16012	4.7755	2.7273	5.e-002	7.3742e-007
16013	4.7755	2.4545	0.	-413.23
16014	4.6837	2.5455	0.	-437.26
16015	4.7755	2.5455	5.e-002	1.5222e-006
16016	4.7755	2.2727	0.	-399.22
16017	4.6837	2.3636	0.	-424.61
16018	4.7755	2.3636	5.e-002	2.3631e-006
16019	4.7755	2.0909	0.	-381.47
16020	4.6837	2.1818	0.	-407.96
16021	4.7755	2.1818	5.e-002	1.2905e-006
16022	4.7755	1.9091	0.	-360.18
16023	4.6837	2.	0.	-387.5
16024	4.7755	2.	5.e-002	8.7591e-007
16025	4.7755	1.7273	0.	-335.59
16026	4.6837	1.8182	0.	-363.46
16027	4.7755	1.8182	5.e-002	5.5453e-006
16028	4.7755	1.5455	0.	-307.95
16029	4.6837	1.6364	0.	-336.09
16030	4.7755	1.6364	5.e-002	7.9621e-006
16031	4.7755	1.3636	0.	-277.55
16032	4.6837	1.4545	0.	-305.7
16033	4.7755	1.4545	5.e-002	8.1519e-006
16034	4.7755	1.1818	0.	-244.71
16035	4.6837	1.2727	0.	-272.6
16036	4.7755	1.2727	5.e-002	9.4147e-006
16037	4.7755	1.	0.	-209.75
16038	4.6837	1.0909	0.	-237.12
16039	4.7755	1.0909	5.e-002	2.0523e-005
16040	4.7755	0.81818	0.	-173.01
16041	4.6837	0.90909	0.	-199.62
16042	4.7755	0.90909	5.e-002	3.2929e-005
16043	4.7755	0.63636	0.	-134.82
16044	4.6837	0.72727	0.	-160.44
16045	4.7755	0.72727	5.e-002	2.4645e-005
16046	4.7755	0.45455	0.	-95.461
16047	4.6837	0.54545	0.	-119.97
16048	4.7755	0.54545	5.e-002	2.6204e-005
16049	4.7755	0.27273	0.	-55.103
16050	4.6837	0.36364	0.	-78.412
16051	4.7755	0.36364	5.e-002	5.0086e-005
16052	4.6837	0.18182	0.	-35.946
16053	4.7755	0.18182	5.e-002	3.1766e-005
16054	4.7755	9.0909e-002	0.	-18.535
16055	4.5918	5.7273	0.	-59.133
16056	4.5	5.8182	0.	-38.261
16057	4.5918	5.8182	5.e-002	-1.0032e-005
16058	4.5918	5.9091	0.	-19.744
16059	4.5918	5.5455	0.	-102.87
16060	4.5	5.6364	0.	-84.284
16061	4.5918	5.6364	5.e-002	-2.3886e-006
16062	4.5918	5.3636	0.	-145.55
16063	4.5	5.4545	0.	-129.32
16064	4.5918	5.4545	5.e-002	-2.764e-005
16065	4.5918	5.1818	0.	-187.01
16066	4.5	5.2727	0.	-173.24
16067	4.5918	5.2727	5.e-002	-2.5923e-005
16068	4.5918	5.	0.	-226.94
16069	4.5	5.0909	0.	-215.79
16070	4.5918	5.0909	5.e-002	-1.3066e-005
16071	4.5918	4.8182	0.	-264.97
16072	4.5	4.9091	0.	-256.57
16073	4.5918	4.9091	5.e-002	-1.1868e-005
16074	4.5918	4.6364	0.	-300.72
16075	4.5	4.7273	0.	-295.18
16076	4.5918	4.7273	5.e-002	-2.11e-005
16077	4.5918	4.4545	0.	-333.83
16078	4.5	4.5455	0.	-331.23
16079	4.5918	4.5455	5.e-002	-1.0422e-005
16080	4.5918	4.2727	0.	-363.95
16081	4.5	4.3636	0.	-364.35
16082	4.5918	4.3636	5.e-002	-1.7663e-006
16083	4.5918	4.0909	0.	-390.77
16084	4.5	4.1818	0.	-394.18
16085	4.5918	4.1818	5.e-002	-7.2884e-006
16086	4.5918	3.9091	0.	-413.99
16087	4.5	4.	0.	-420.4
16088	4.5918	4.	5.e-002	-1.3959e-006
16089	4.5918	3.7273	0.	-433.36
16090	4.5	3.8182	0.	-442.72
16091	4.5918	3.8182	5.e-002	-1.1774e-006
16092	4.5918	3.5455	0.	-448.65
16093	4.5	3.6364	0.	-460.89
16094	4.5918	3.6364	5.e-002	-9.3895e-007
16095	4.5918	3.3636	0.	-459.7
16096	4.5	3.4545	0.	-474.7
16097	4.5918	3.4545	5.e-002	-9.1157e-007
16098	4.5918	3.1818	0.	-466.38
16099	4.5	3.2727	0.	-483.99
16100	4.5918	3.2727	5.e-002	-4.8484e-007
16101	4.5918	3.	0.	-468.62
16102	4.5	3.0909	0.	-488.66
16103	4.5918	3.0909	5.e-002	-1.6849e-007
16104	4.5918	2.8182	0.	-466.38
16105	4.5	2.9091	0.	-488.66
16106	4.5918	2.9091	5.e-002	1.6268e-007
16107	4.5918	2.6364	0.	-459.7
16108	4.5	2.7273	0.	-483.99
16109	4.5918	2.7273	5.e-002	4.8483e-007
16110	4.5918	2.4545	0.	-448.65
16111	4.5	2.5455	0.	-474.7
16112	4.5918	2.5455	5.e-002	7.9762e-007
16113	4.5918	2.2727	0.	-433.36
16114	4.5	2.3636	0.	-460.89
16115	4.5918	2.3636	5.e-002	1.0954e-006
16116	4.5918	2.0909	0.	-413.99
16117	4.5	2.1818	0.	-442.72
16118	4.5918	2.1818	5.e-002	3.8812e-006
16119	4.5918	1.9091	0.	-390.77
16120	4.5	2.	0.	-420.4
16121	4.5918	2.	5.e-002	1.3959e-006
16122	4.5918	1.7273	0.	-363.95
16123	4.5	1.8182	0.	-394.18
16124	4.5918	1.8182	5.e-002	1.2453e-005
16125	4.5918	1.5455	0.	-333.83
16126	4.5	1.6364	0.	-364.35
16127	4.5918	1.6364	5.e-002	8.2768e-006
16128	4.5918	1.3636	0.	-300.72
16129	4.5	1.4545	0.	-331.23
16130	4.5918	1.4545	5.e-002	1.0422e-005
16131	4.5918	1.1818	0.	-264.97
16132	4.5	1.2727	0.	-295.18
16133	4.5918	1.2727	5.e-002	2.9604e-005
16134	4.5918	1.	0.	-226.94
16135	4.5	1.0909	0.	-256.57
16136	4.5918	1.0909	5.e-002	1.1868e-005
16137	4.5918	0.81818	0.	-187.01
16138	4.5	0.90909	0.	-215.79
16139	4.5918	0.90909	5.e-002	2.5384e-005
16140	4.5918	0.63636	0.	-145.55
16141	4.5	0.72727	0.	-173.24
16142	4.5918	0.72727	5.e-002	3.927e-005
16143	4.5918	0.45455	0.	-102.87
16144	4.5	0.54545	0.	-129.32
16145	4.5918	0.54545	5.e-002	2.843e-005
16146	4.5918	0.27273	0.	-59.133
16147	4.5	0.36364	0.	-84.284
16148	4.5918	0.36364	5.e-002	1.4517e-005
16149	4.5	0.18182	0.	-38.261
16150	4.5918	0.18182	5.e-002	3.2985e-005
16151	4.5918	9.0909e-002	0.	-19.744
16152	4.4082	5.7273	0.	-63.27
16153	4.3163	5.8182	0.	-40.521
16154	4.4082	5.8182	5.e-002	-2.239e-005
16155	4.4082	5.9091	0.	-20.905
16156	4.4082	5.5455	0.	-110.68
16157	4.3163	5.6364	0.	-90.409
16158	4.4082	5.6364	5.e-002	1.4317e-006
16159	4.4082	5.3636	0.	-156.96
16160	4.3163	5.4545	0.	-139.22
16161	4.4082	5.4545	5.e-002	-2.944e-005
16162	4.4082	5.1818	0.	-201.97
16163	4.3163	5.2727	0.	-186.88
16164	4.4082	5.2727	5.e-002	-1.6083e-006
16165	4.4082	5.	0.	-245.37
16166	4.3163	5.0909	0.	-233.1
16167	4.4082	5.0909	5.e-002	-4.0586e-005
16168	4.4082	4.8182	0.	-286.74
16169	4.3163	4.9091	0.	-277.44
16170	4.4082	4.9091	5.e-002	-1.4756e-005
16171	4.4082	4.6364	0.	-325.66
16172	4.3163	4.7273	0.	-319.47
16173	4.4082	4.7273	5.e-002	-2.8645e-006
16174	4.4082	4.4545	0.	-361.73
16175	4.3163	4.5455	0.	-358.73
16176	4.4082	4.5455	5.e-002	-6.7279e-007
16177	4.4082	4.2727	0.	-394.57
16178	4.3163	4.3636	0.	-394.83
16179	4.4082	4.3636	5.e-002	-2.4856e-006
16180	4.4082	4.0909	0.	-423.81
16181	4.3163	4.1818	0.	-427.35
16182	4.4082	4.1818	5.e-002	-1.9244e-005
16183	4.4082	3.9091	0.	-449.14
16184	4.3163	4.	0.	-455.95
16185	4.4082	4.	5.e-002	-5.8807e-006
16186	4.4082	3.7273	0.	-470.27
16187	4.3163	3.8182	0.	-480.29
16188	4.4082	3.8182	5.e-002	-1.2507e-006
16189	4.4082	3.5455	0.	-486.95
16190	4.3163	3.6364	0.	-500.11
16191	4.4082	3.6364	5.e-002	-3.2531e-006
16192	4.4082	3.3636	0.	-499.01
16193	4.3163	3.4545	0.	-515.17
16194	4.4082	3.4545	5.e-002	-9.7111e-007
16195	4.4082	3.1818	0.	-506.3
16196	4.3163	3.2727	0.	-525.31
16197	4.4082	3.2727	5.e-002	-5.5386e-007
16198	4.4082	3.	0.	-508.74
16199	4.3163	3.0909	0.	-530.41
16200	4.4082	3.0909	5.e-002	-1.7352e-007
16201	4.4082	2.8182	0.	-506.3
16202	4.3163	2.9091	0.	-530.41
16203	4.4082	2.9091	5.e-002	1.7972e-007
16204	4.4082	2.6364	0.	-499.01
16205	4.3163	2.7273	0.	-525.31
16206	4.4082	2.7273	5.e-002	5.5386e-007
16207	4.4082	2.4545	0.	-486.95
16208	4.3163	2.5455	0.	-515.17
16209	4.4082	2.5455	5.e-002	9.7111e-007
16210	4.4082	2.2727	0.	-470.27
16211	4.3163	2.3636	0.	-500.11
16212	4.4082	2.3636	5.e-002	3.2531e-006
16213	4.4082	2.0909	0.	-449.14
16214	4.3163	2.1818	0.	-480.29
16215	4.4082	2.1818	5.e-002	1.2507e-006
16216	4.4082	1.9091	0.	-423.81
16217	4.3163	2.	0.	-455.95
16218	4.4082	2.	5.e-002	1.0281e-005
16219	4.4082	1.7273	0.	-394.57
16220	4.3163	1.8182	0.	-427.35
16221	4.4082	1.8182	5.e-002	1.9244e-005
16222	4.4082	1.5455	0.	-361.73
16223	4.3163	1.6364	0.	-394.83
16224	4.4082	1.6364	5.e-002	1.66e-005
16225	4.4082	1.3636	0.	-325.66
16226	4.3163	1.4545	0.	-358.73
16227	4.4082	1.4545	5.e-002	6.7279e-007
16228	4.4082	1.1818	0.	-286.74
16229	4.3163	1.2727	0.	-319.47
16230	4.4082	1.2727	5.e-002	1.4322e-006
16231	4.4082	1.	0.	-245.37
16232	4.3163	1.0909	0.	-277.44
16233	4.4082	1.0909	5.e-002	2.5001e-005
16234	4.4082	0.81818	0.	-201.97
16235	4.3163	0.90909	0.	-233.1
16236	4.4082	0.90909	5.e-002	5.3594e-005
16237	4.4082	0.63636	0.	-156.96
16238	4.3163	0.72727	0.	-186.88
16239	4.4082	0.72727	5.e-002	1.5719e-005
16240	4.4082	0.45455	0.	-110.68
16241	4.3163	0.54545	0.	-139.22
16242	4.4082	0.54545	5.e-002	6.0934e-005
16243	4.4082	0.27273	0.	-63.27
16244	4.3163	0.36364	0.	-90.409
16245	4.4082	0.36364	5.e-002	1.6047e-005
16246	4.3163	0.18182	0.	-40.521
16247	4.4082	0.18182	5.e-002	2.206e-005
16248	4.4082	9.0909e-002	0.	-20.905
16249	4.2245	5.7273	0.	-67.493
16250	4.1327	5.8182	0.	-42.689
16251	4.2245	5.8182	5.e-002	-9.9397e-006
16252	4.2245	5.9091	0.	-21.994
16253	4.2245	5.5455	0.	-118.89
16254	4.1327	5.6364	0.	-96.779
16255	4.2245	5.6364	5.e-002	-1.6149e-005
16256	4.2245	5.3636	0.	-169.08
16257	4.1327	5.4545	0.	-149.68
16258	4.2245	5.4545	5.e-002	-3.2166e-005
16259	4.2245	5.1818	0.	-217.95
16260	4.1327	5.2727	0.	-201.4
16261	4.2245	5.2727	5.e-002	-3.1578e-005
16262	4.2245	5.	0.	-265.12
16263	4.1327	5.0909	0.	-251.62
16264	4.2245	5.0909	5.e-002	-3.2418e-005
16265	4.2245	4.8182	0.	-310.13
16266	4.1327	4.9091	0.	-299.85
16267	4.2245	4.9091	5.e-002	-2.6388e-005
16268	4.2245	4.6364	0.	-352.51
16269	4.1327	4.7273	0.	-345.6
16270	4.2245	4.7273	5.e-002	-1.1658e-005
16271	4.2245	4.4545	0.	-391.81
16272	4.1327	4.5455	0.	-388.37
16273	4.2245	4.5455	5.e-002	-1.1426e-005
16274	4.2245	4.2727	0.	-427.6
16275	4.1327	4.3636	0.	-427.7
16276	4.2245	4.3636	5.e-002	-2.6167e-006
16277	4.2245	4.0909	0.	-459.49
16278	4.1327	4.1818	0.	-463.16
16279	4.2245	4.1818	5.e-002	-1.7782e-006
16280	4.2245	3.9091	0.	-487.11
16281	4.1327	4.	0.	-494.34
16282	4.2245	4.	5.e-002	-6.541e-006
16283	4.2245	3.7273	0.	-510.15
16284	4.1327	3.8182	0.	-520.88
16285	4.2245	3.8182	5.e-002	-5.2421e-006
16286	4.2245	3.5455	0.	-528.35
16287	4.1327	3.6364	0.	-542.49
16288	4.2245	3.6364	5.e-002	-7.0717e-007
16289	4.2245	3.3636	0.	-541.51
16290	4.1327	3.4545	0.	-558.91
16291	4.2245	3.4545	5.e-002	-7.743e-007
16292	4.2245	3.1818	0.	-549.46
16293	4.1327	3.2727	0.	-569.96
16294	4.2245	3.2727	5.e-002	-5.5004e-007
16295	4.2245	3.	0.	-552.12
16296	4.1327	3.0909	0.	-575.52
16297	4.2245	3.0909	5.e-002	-1.9791e-007
16298	4.2245	2.8182	0.	-549.46
16299	4.1327	2.9091	0.	-575.52
16300	4.2245	2.9091	5.e-002	2.3807e-007
16301	4.2245	2.6364	0.	-541.51
16302	4.1327	2.7273	0.	-569.96
16303	4.2245	2.7273	5.e-002	1.3845e-006
16304	4.2245	2.4545	0.	-528.35
16305	4.1327	2.5455	0.	-558.91
16306	4.2245	2.5455	5.e-002	2.0422e-006
16307	4.2245	2.2727	0.	-510.15
16308	4.1327	2.3636	0.	-542.49
16309	4.2245	2.3636	5.e-002	1.0608e-006
16310	4.2245	2.0909	0.	-487.11
16311	4.1327	2.1818	0.	-520.88
16312	4.2245	2.1818	5.e-002	4.3582e-006
16313	4.2245	1.9091	0.	-459.49
16314	4.1327	2.	0.	-494.34
16315	4.2245	2.	5.e-002	1.2038e-005
16316	4.2245	1.7273	0.	-427.6
16317	4.1327	1.8182	0.	-463.16
16318	4.2245	1.8182	5.e-002	1.1855e-006
16319	4.2245	1.5455	0.	-391.81
16320	4.1327	1.6364	0.	-427.71
16321	4.2245	1.6364	5.e-002	2.6167e-006
16322	4.2245	1.3636	0.	-352.51
16323	4.1327	1.4545	0.	-388.37
16324	4.2245	1.4545	5.e-002	2.144e-005
16325	4.2245	1.1818	0.	-310.13
16326	4.1327	1.2727	0.	-345.6
16327	4.2245	1.2727	5.e-002	1.3157e-005
16328	4.2245	1.	0.	-265.12
16329	4.1327	1.0909	0.	-299.85
16330	4.2245	1.0909	5.e-002	3.9582e-005
16331	4.2245	0.81818	0.	-217.95
16332	4.1327	0.90909	0.	-251.62
16333	4.2245	0.90909	5.e-002	4.7e-005
16334	4.2245	0.63636	0.	-169.08
16335	4.1327	0.72727	0.	-201.4
16336	4.2245	0.72727	5.e-002	6.4827e-005
16337	4.2245	0.45455	0.	-118.89
16338	4.1327	0.54545	0.	-149.68
16339	4.2245	0.54545	5.e-002	5.0323e-005
16340	4.2245	0.27273	0.	-67.493
16341	4.1327	0.36364	0.	-96.779
16342	4.2245	0.36364	5.e-002	3.3678e-005
16343	4.1327	0.18182	0.	-42.689
16344	4.2245	0.18182	5.e-002	2.1845e-005
16345	4.2245	9.0909e-002	0.	-21.994
16346	4.0408	5.7273	0.	-71.777
16347	3.949	5.8182	0.	-44.721
16348	4.0408	5.8182	5.e-002	-3.2401e-005
16349	4.0408	5.9091	0.	-22.983
16350	4.0408	5.5455	0.	-127.5
16351	3.949	5.6364	0.	-103.38
16352	4.0408	5.6364	5.e-002	-3.8919e-005
16353	4.0408	5.3636	0.	-181.94
16354	3.949	5.4545	0.	-160.73
16355	4.0408	5.4545	5.e-002	-3.7345e-005
16356	4.0408	5.1818	0.	-235.01
16357	3.949	5.2727	0.	-216.86
16358	4.0408	5.2727	5.e-002	-3.8694e-005
16359	4.0408	5.	0.	-286.3
16360	3.949	5.0909	0.	-271.44
16361	4.0408	5.0909	5.e-002	-1.7989e-005
16362	4.0408	4.8182	0.	-335.27
16363	3.949	4.9091	0.	-323.91
16364	4.0408	4.9091	5.e-002	-3.1183e-005
16365	4.0408	4.6364	0.	-381.42
16366	3.949	4.7273	0.	-373.72
16367	4.0408	4.7273	5.e-002	-1.3074e-005
16368	4.0408	4.4545	0.	-424.24
16369	3.949	4.5455	0.	-420.31
16370	4.0408	4.5455	5.e-002	-1.4789e-006
16371	4.0408	4.2727	0.	-463.25
16372	3.949	4.3636	0.	-463.17
16373	4.0408	4.3636	5.e-002	-9.3446e-006
16374	4.0408	4.0909	0.	-498.01
16375	3.949	4.1818	0.	-501.81
16376	4.0408	4.1818	5.e-002	-2.4959e-006
16377	4.0408	3.9091	0.	-528.12
16378	3.949	4.	0.	-535.79
16379	4.0408	4.	5.e-002	-1.6522e-006
16380	4.0408	3.7273	0.	-553.24
16381	3.949	3.8182	0.	-564.71
16382	4.0408	3.8182	5.e-002	-1.8692e-006
16383	4.0408	3.5455	0.	-573.08
16384	3.949	3.6364	0.	-588.26
16385	4.0408	3.6364	5.e-002	-1.4981e-006
16386	4.0408	3.3636	0.	-587.41
16387	3.949	3.4545	0.	-606.15
16388	4.0408	3.4545	5.e-002	-8.212e-007
16389	4.0408	3.1818	0.	-596.08
16390	3.949	3.2727	0.	-618.19
16391	4.0408	3.2727	5.e-002	-5.8385e-007
16392	4.0408	3.	0.	-598.98
16393	3.949	3.0909	0.	-624.24
16394	4.0408	3.0909	5.e-002	-2.0316e-007
16395	4.0408	2.8182	0.	-596.08
16396	3.949	2.9091	0.	-624.24
16397	4.0408	2.9091	5.e-002	1.9615e-007
16398	4.0408	2.6364	0.	-587.41
16399	3.949	2.7273	0.	-618.19
16400	4.0408	2.7273	5.e-002	1.0543e-006
16401	4.0408	2.4545	0.	-573.08
16402	3.949	2.5455	0.	-606.15
16403	4.0408	2.5455	5.e-002	9.5807e-007
16404	4.0408	2.2727	0.	-553.24
16405	3.949	2.3636	0.	-588.26
16406	4.0408	2.3636	5.e-002	1.1236e-006
16407	4.0408	2.0909	0.	-528.12
16408	3.949	2.1818	0.	-564.71
16409	4.0408	2.1818	5.e-002	1.4019e-006
16410	4.0408	1.9091	0.	-498.01
16411	3.949	2.	0.	-535.79
16412	4.0408	2.	5.e-002	1.1015e-006
16413	4.0408	1.7273	0.	-463.25
16414	3.949	1.8182	0.	-501.81
16415	4.0408	1.8182	5.e-002	1.248e-006
16416	4.0408	1.5455	0.	-424.24
16417	3.949	1.6364	0.	-463.17
16418	4.0408	1.6364	5.e-002	1.2092e-005
16419	4.0408	1.3636	0.	-381.42
16420	3.949	1.4545	0.	-420.31
16421	4.0408	1.4545	5.e-002	1.5682e-005
16422	4.0408	1.1818	0.	-335.27
16423	3.949	1.2727	0.	-373.72
16424	4.0408	1.2727	5.e-002	1.7769e-005
16425	4.0408	1.	0.	-286.3
16426	3.949	1.0909	0.	-323.91
16427	4.0408	1.0909	5.e-002	4.9225e-005
16428	4.0408	0.81818	0.	-235.01
16429	3.949	0.90909	0.	-271.44
16430	4.0408	0.90909	5.e-002	3.5979e-005
16431	4.0408	0.63636	0.	-181.94
16432	3.949	0.72727	0.	-216.86
16433	4.0408	0.72727	5.e-002	5.2855e-005
16434	4.0408	0.45455	0.	-127.5
16435	3.949	0.54545	0.	-160.73
16436	4.0408	0.54545	5.e-002	5.9533e-005
16437	4.0408	0.27273	0.	-71.777
16438	3.949	0.36364	0.	-103.38
16439	4.0408	0.36364	5.e-002	5.75e-005
16440	3.949	0.18182	0.	-44.721
16441	4.0408	0.18182	5.e-002	3.2793e-005
16442	4.0408	9.0909e-002	0.	-22.983
16443	3.8571	5.7273	0.	-76.093
16444	3.7653	5.8182	0.	-46.568
16445	3.8571	5.8182	5.e-002	-1.0503e-005
16446	3.8571	5.9091	0.	-23.839
16447	3.8571	5.5455	0.	-136.53
16448	3.7653	5.6364	0.	-110.21
16449	3.8571	5.6364	5.e-002	-4.1449e-005
16450	3.8571	5.3636	0.	-195.58
16451	3.7653	5.4545	0.	-172.38
16452	3.8571	5.4545	5.e-002	-2.2538e-005
16453	3.8571	5.1818	0.	-253.23
16454	3.7653	5.2727	0.	-233.33
16455	3.8571	5.2727	5.e-002	-2.1388e-005
16456	3.8571	5.	0.	-309.
16457	3.7653	5.0909	0.	-292.66
16458	3.8571	5.0909	5.e-002	-3.8091e-005
16459	3.8571	4.8182	0.	-362.31
16460	3.7653	4.9091	0.	-349.76
16461	3.8571	4.9091	5.e-002	-3.638e-005
16462	3.8571	4.6364	0.	-412.57
16463	3.7653	4.7273	0.	-403.99
16464	3.8571	4.7273	5.e-002	-6.0094e-005
16465	3.8571	4.4545	0.	-459.22
16466	3.7653	4.5455	0.	-454.75
16467	3.8571	4.5455	5.e-002	-1.5672e-005
16468	3.8571	4.2727	0.	-501.72
16469	3.7653	4.3636	0.	-501.44
16470	3.8571	4.3636	5.e-002	-1.0467e-005
16471	3.8571	4.0909	0.	-539.6
16472	3.7653	4.1818	0.	-543.54
16473	3.8571	4.1818	5.e-002	-1.3101e-006
16474	3.8571	3.9091	0.	-572.4
16475	3.7653	4.	0.	-580.54
16476	3.8571	4.	5.e-002	-1.0919e-005
16477	3.8571	3.7273	0.	-599.76
16478	3.7653	3.8182	0.	-612.03
16479	3.8571	3.8182	5.e-002	-6.3614e-006
16480	3.8571	3.5455	0.	-621.37
16481	3.7653	3.6364	0.	-637.66
16482	3.8571	3.6364	5.e-002	-1.5824e-006
16483	3.8571	3.3636	0.	-636.98
16484	3.7653	3.4545	0.	-657.13
16485	3.8571	3.4545	5.e-002	-1.158e-006
16486	3.8571	3.1818	0.	-646.41
16487	3.7653	3.2727	0.	-670.22
16488	3.8571	3.2727	5.e-002	-7.0629e-007
16489	3.8571	3.	0.	-649.57
16490	3.7653	3.0909	0.	-676.81
16491	3.8571	3.0909	5.e-002	-2.1513e-007
16492	3.8571	2.8182	0.	-646.41
16493	3.7653	2.9091	0.	-676.81
16494	3.8571	2.9091	5.e-002	2.6685e-007
16495	3.8571	2.6364	0.	-636.98
16496	3.7653	2.7273	0.	-670.22
16497	3.8571	2.7273	5.e-002	5.2971e-007
16498	3.8571	2.4545	0.	-621.37
16499	3.7653	2.5455	0.	-657.13
16500	3.8571	2.5455	5.e-002	1.158e-006
16501	3.8571	2.2727	0.	-599.76
16502	3.7653	2.3636	0.	-637.66
16503	3.8571	2.3636	5.e-002	1.5824e-006
16504	3.8571	2.0909	0.	-572.4
16505	3.7653	2.1818	0.	-612.03
16506	3.8571	2.1818	5.e-002	6.3614e-006
16507	3.8571	1.9091	0.	-539.6
16508	3.7653	2.	0.	-580.54
16509	3.8571	2.	5.e-002	1.2564e-005
16510	3.8571	1.7273	0.	-501.72
16511	3.7653	1.8182	0.	-543.54
16512	3.8571	1.8182	5.e-002	2.6201e-006
16513	3.8571	1.5455	0.	-459.22
16514	3.7653	1.6364	0.	-501.44
16515	3.8571	1.6364	5.e-002	3.4276e-005
16516	3.8571	1.3636	0.	-412.57
16517	3.7653	1.4545	0.	-454.75
16518	3.8571	1.4545	5.e-002	1.2585e-005
16519	3.8571	1.1818	0.	-362.31
16520	3.7653	1.2727	0.	-403.99
16521	3.8571	1.2727	5.e-002	3.2489e-005
16522	3.8571	1.	0.	-309.
16523	3.7653	1.0909	0.	-349.76
16524	3.8571	1.0909	5.e-002	4.9488e-005
16525	3.8571	0.81818	0.	-253.23
16526	3.7653	0.90909	0.	-292.66
16527	3.8571	0.90909	5.e-002	3.8091e-005
16528	3.8571	0.63636	0.	-195.58
16529	3.7653	0.72727	0.	-233.33
16530	3.8571	0.72727	5.e-002	1.9607e-005
16531	3.8571	0.45455	0.	-136.53
16532	3.7653	0.54545	0.	-172.38
16533	3.8571	0.54545	5.e-002	2.0731e-005
16534	3.8571	0.27273	0.	-76.093
16535	3.7653	0.36364	0.	-110.21
16536	3.8571	0.36364	5.e-002	4.0916e-005
16537	3.7653	0.18182	0.	-46.568
16538	3.8571	0.18182	5.e-002	2.2181e-005
16539	3.8571	9.0909e-002	0.	-23.839
16540	3.6735	5.7273	0.	-80.406
16541	3.5816	5.8182	0.	-48.173
16542	3.6735	5.8182	5.e-002	-1.0623e-005
16543	3.6735	5.9091	0.	-24.524
16544	3.6735	5.5455	0.	-145.97
16545	3.5816	5.6364	0.	-117.24
16546	3.6735	5.6364	5.e-002	-4.4962e-005
16547	3.6735	5.3636	0.	-210.04
16548	3.5816	5.4545	0.	-184.67
16549	3.6735	5.4545	5.e-002	-1.848e-006
16550	3.6735	5.1818	0.	-272.68
16551	3.5816	5.2727	0.	-250.86
16552	3.6735	5.2727	5.e-002	-2.1765e-005
16553	3.6735	5.	0.	-333.35
16554	3.5816	5.0909	0.	-315.39
16555	3.6735	5.0909	5.e-002	-1.7952e-006
16556	3.6735	4.8182	0.	-391.39
16557	3.5816	4.9091	0.	-377.54
16558	3.6735	4.9091	5.e-002	-3.6727e-005
16559	3.6735	4.6364	0.	-446.13
16560	3.5816	4.7273	0.	-436.61
16561	3.6735	4.7273	5.e-002	-1.6873e-006
16562	3.6735	4.4545	0.	-496.95
16563	3.5816	4.5455	0.	-491.89
16564	3.6735	4.5455	5.e-002	-4.5313e-005
16565	3.6735	4.2727	0.	-543.25
16566	3.5816	4.3636	0.	-542.75
16567	3.6735	4.3636	5.e-002	-3.0009e-006
16568	3.6735	4.0909	0.	-584.49
16569	3.5816	4.1818	0.	-588.58
16570	3.6735	4.1818	5.e-002	-1.0673e-005
16571	3.6735	3.9091	0.	-620.2
16572	3.5816	4.	0.	-628.85
16573	3.6735	4.	5.e-002	-8.2242e-006
16574	3.6735	3.7273	0.	-649.97
16575	3.5816	3.8182	0.	-663.09
16576	3.6735	3.8182	5.e-002	-2.0724e-006
16577	3.6735	3.5455	0.	-673.47
16578	3.5816	3.6364	0.	-690.94
16579	3.6735	3.6364	5.e-002	-3.8987e-006
16580	3.6735	3.3636	0.	-690.44
16581	3.5816	3.4545	0.	-712.09
16582	3.6735	3.4545	5.e-002	-9.1561e-007
16583	3.6735	3.1818	0.	-700.7
16584	3.5816	3.2727	0.	-726.31
16585	3.6735	3.2727	5.e-002	-6.5199e-007
16586	3.6735	3.	0.	-704.13
16587	3.5816	3.0909	0.	-733.46
16588	3.6735	3.0909	5.e-002	-2.3487e-007
16589	3.6735	2.8182	0.	-700.7
16590	3.5816	2.9091	0.	-733.46
16591	3.6735	2.9091	5.e-002	2.2704e-007
16592	3.6735	2.6364	0.	-690.44
16593	3.5816	2.7273	0.	-726.31
16594	3.6735	2.7273	5.e-002	1.2398e-006
16595	3.6735	2.4545	0.	-673.47
16596	3.5816	2.5455	0.	-712.09
16597	3.6735	2.5455	5.e-002	2.8258e-006
16598	3.6735	2.2727	0.	-649.97
16599	3.5816	2.3636	0.	-690.94
16600	3.6735	2.3636	5.e-002	7.7973e-006
16601	3.6735	2.0909	0.	-620.2
16602	3.5816	2.1818	0.	-663.09
16603	3.6735	2.1818	5.e-002	1.0362e-006
16604	3.6735	1.9091	0.	-584.49
16605	3.5816	2.	0.	-628.85
16606	3.6735	2.	5.e-002	8.2242e-006
16607	3.6735	1.7273	0.	-543.25
16608	3.5816	1.8182	0.	-588.58
16609	3.6735	1.8182	5.e-002	1.9975e-005
16610	3.6735	1.5455	0.	-496.95
16611	3.5816	1.6364	0.	-542.75
16612	3.6735	1.6364	5.e-002	4.5013e-006
16613	3.6735	1.3636	0.	-446.13
16614	3.5816	1.4545	0.	-491.89
16615	3.6735	1.4545	5.e-002	3.1279e-005
16616	3.6735	1.1818	0.	-391.39
16617	3.5816	1.2727	0.	-436.61
16618	3.6735	1.2727	5.e-002	-1.8741e-015
16619	3.6735	1.	0.	-333.35
16620	3.5816	1.0909	0.	-377.54
16621	3.6735	1.0909	5.e-002	1.8364e-005
16622	3.6735	0.81818	0.	-272.68
16623	3.5816	0.90909	0.	-315.39
16624	3.6735	0.90909	5.e-002	2.5591e-005
16625	3.6735	0.63636	0.	-210.04
16626	3.5816	0.72727	0.	-250.86
16627	3.6735	0.72727	5.e-002	2.1765e-005
16628	3.6735	0.45455	0.	-145.97
16629	3.5816	0.54545	0.	-184.67
16630	3.6735	0.54545	5.e-002	4.5923e-005
16631	3.6735	0.27273	0.	-80.406
16632	3.5816	0.36364	0.	-117.24
16633	3.6735	0.36364	5.e-002	6.9885e-005
16634	3.5816	0.18182	0.	-48.173
16635	3.6735	0.18182	5.e-002	2.2419e-005
16636	3.6735	9.0909e-002	0.	-24.524
16637	3.4898	5.7273	0.	-84.676
16638	3.398	5.8182	0.	-49.469
16639	3.4898	5.8182	5.e-002	-2.2328e-005
16640	3.4898	5.9091	0.	-24.991
16641	3.4898	5.5455	0.	-155.83
16642	3.398	5.6364	0.	-124.47
16643	3.4898	5.6364	5.e-002	-2.841e-005
16644	3.4898	5.3636	0.	-225.39
16645	3.398	5.4545	0.	-197.62
16646	3.4898	5.4545	5.e-002	-2.4261e-005
16647	3.4898	5.1818	0.	-293.48
16648	3.398	5.2727	0.	-269.56
16649	3.4898	5.2727	5.e-002	-3.7294e-006
16650	3.4898	5.	0.	-359.51
16651	3.398	5.0909	0.	-339.77
16652	3.4898	5.0909	5.e-002	-4.4808e-005
16653	3.4898	4.8182	0.	-422.7
16654	3.398	4.9091	0.	-407.45
16655	3.4898	4.9091	5.e-002	-2.398e-005
16656	3.4898	4.6364	0.	-482.33
16657	3.398	4.7273	0.	-471.79
16658	3.4898	4.7273	5.e-002	-1.9477e-015
16659	3.4898	4.4545	0.	-537.67
16660	3.398	4.5455	0.	-532.
16661	3.4898	4.5455	5.e-002	-2.0579e-005
16662	3.4898	4.2727	0.	-588.08
16663	3.398	4.3636	0.	-587.36
16664	3.4898	4.3636	5.e-002	-1.9387e-015
16665	3.4898	4.0909	0.	-632.95
16666	3.398	4.1818	0.	-637.21
16667	3.4898	4.1818	5.e-002	-2.2082e-005
16668	3.4898	3.9091	0.	-671.78
16669	3.398	4.	0.	-680.97
16670	3.4898	4.	5.e-002	-9.0453e-006
16671	3.4898	3.7273	0.	-704.12
16672	3.398	3.8182	0.	-718.16
16673	3.4898	3.8182	5.e-002	-2.1714e-006
16674	3.4898	3.5455	0.	-729.64
16675	3.398	3.6364	0.	-748.37
16676	3.4898	3.6364	5.e-002	2.4997e-006
16677	3.4898	3.3636	0.	-748.05
16678	3.398	3.4545	0.	-771.29
16679	3.4898	3.4545	5.e-002	-1.2822e-006
16680	3.4898	3.1818	0.	-759.18
16681	3.398	3.2727	0.	-786.7
16682	3.4898	3.2727	5.e-002	-7.8307e-007
16683	3.4898	3.	0.	-762.9
16684	3.398	3.0909	0.	-794.44
16685	3.4898	3.0909	5.e-002	-1.8231e-007
16686	3.4898	2.8182	0.	-759.18
16687	3.398	2.9091	0.	-794.44
16688	3.4898	2.9091	5.e-002	3.1148e-007
16689	3.4898	2.6364	0.	-748.05
16690	3.398	2.7273	0.	-786.7
16691	3.4898	2.7273	5.e-002	7.8307e-007
16692	3.4898	2.4545	0.	-729.64
16693	3.398	2.5455	0.	-771.29
16694	3.4898	2.5455	5.e-002	9.6164e-007
16695	3.4898	2.2727	0.	-704.12
16696	3.398	2.3636	0.	-748.37
16697	3.4898	2.3636	5.e-002	8.5366e-006
16698	3.4898	2.0909	0.	-671.78
16699	3.398	2.1818	0.	-718.16
16700	3.4898	2.1818	5.e-002	3.257e-006
16701	3.4898	1.9091	0.	-632.95
16702	3.398	2.	0.	-680.97
16703	3.4898	2.	5.e-002	1.6819e-005
16704	3.4898	1.7273	0.	-588.08
16705	3.398	1.8182	0.	-637.21
16706	3.4898	1.8182	5.e-002	3.2407e-005
16707	3.4898	1.5455	0.	-537.67
16708	3.398	1.6364	0.	-587.36
16709	3.4898	1.6364	5.e-002	1.6089e-005
16710	3.4898	1.3636	0.	-482.33
16711	3.398	1.4545	0.	-532.
16712	3.4898	1.4545	5.e-002	5.0093e-005
16713	3.4898	1.1818	0.	-422.7
16714	3.398	1.2727	0.	-471.79
16715	3.4898	1.2727	5.e-002	1.983e-005
16716	3.4898	1.	0.	-359.51
16717	3.398	1.0909	0.	-407.45
16718	3.4898	1.0909	5.e-002	4.2562e-005
16719	3.4898	0.81818	0.	-293.48
16720	3.398	0.90909	0.	-339.77
16721	3.4898	0.90909	5.e-002	6.7212e-005
16722	3.4898	0.63636	0.	-225.39
16723	3.398	0.72727	0.	-269.56
16724	3.4898	0.72727	5.e-002	2.4102e-005
16725	3.4898	0.45455	0.	-155.83
16726	3.398	0.54545	0.	-197.62
16727	3.4898	0.54545	5.e-002	2.5376e-005
16728	3.4898	0.27273	0.	-84.676
16729	3.398	0.36364	0.	-124.47
16730	3.4898	0.36364	5.e-002	4.9332e-005
16731	3.398	0.18182	0.	-49.469
16732	3.4898	0.18182	5.e-002	4.4655e-005
16733	3.4898	9.0909e-002	0.	-24.991
16734	3.3061	5.7273	0.	-88.858
16735	3.2143	5.8182	0.	-50.384
16736	3.3061	5.8182	5.e-002	-1.1352e-005
16737	3.3061	5.9091	0.	-25.19
16738	3.3061	5.5455	0.	-166.13
16739	3.2143	5.6364	0.	-131.87
16740	3.3061	5.6364	5.e-002	-2.7032e-005
16741	3.3061	5.3636	0.	-241.68
16742	3.2143	5.4545	0.	-211.3
16743	3.3061	5.4545	5.e-002	-2.7986e-005
16744	3.3061	5.1818	0.	-315.75
16745	3.2143	5.2727	0.	-289.53
16746	3.3061	5.2727	5.e-002	-7.9881e-005
16747	3.3061	5.	0.	-387.63
16748	3.2143	5.0909	0.	-365.98
16749	3.3061	5.0909	5.e-002	-7.4327e-005
16750	3.3061	4.8182	0.	-456.47
16751	3.2143	4.9091	0.	-439.71
16752	3.3061	4.9091	5.e-002	-2.2551e-005
16753	3.3061	4.6364	0.	-521.41
16754	3.2143	4.7273	0.	-509.79
16755	3.3061	4.7273	5.e-002	-2.0297e-015
16756	3.3061	4.4545	0.	-581.66
16757	3.2143	4.5455	0.	-575.35
16758	3.3061	4.5455	5.e-002	-1.5203e-005
16759	3.3061	4.2727	0.	-636.49
16760	3.2143	4.3636	0.	-635.57
16761	3.3061	4.3636	5.e-002	-3.2339e-006
16762	3.3061	4.0909	0.	-685.26
16763	3.2143	4.1818	0.	-689.73
16764	3.3061	4.1818	5.e-002	-2.0144e-015
16765	3.3061	3.9091	0.	-727.41
16766	3.2143	4.	0.	-737.22
16767	3.3061	4.	5.e-002	-8.5669e-006
16768	3.3061	3.7273	0.	-762.48
16769	3.2143	3.8182	0.	-777.51
16770	3.3061	3.8182	5.e-002	-2.2664e-006
16771	3.3061	3.5455	0.	-790.12
16772	3.2143	3.6364	0.	-810.19
16773	3.3061	3.6364	5.e-002	-1.3703e-006
16774	3.3061	3.3636	0.	-810.05
16775	3.2143	3.4545	0.	-834.97
16776	3.3061	3.4545	5.e-002	-1.3409e-006
16777	3.3061	3.1818	0.	-822.08
16778	3.2143	3.2727	0.	-851.61
16779	3.3061	3.2727	5.e-002	-6.1442e-007
16780	3.3061	3.	0.	-826.1
16781	3.2143	3.0909	0.	-859.96
16782	3.3061	3.0909	5.e-002	7.3611e-006
16783	3.3061	2.8182	0.	-822.08
16784	3.2143	2.9091	0.	-859.96
16785	3.3061	2.9091	5.e-002	2.5834e-007
16786	3.3061	2.6364	0.	-810.05
16787	3.2143	2.7273	0.	-851.61
16788	3.3061	2.7273	5.e-002	8.1923e-007
16789	3.3061	2.4545	0.	-790.12
16790	3.2143	2.5455	0.	-834.97
16791	3.3061	2.5455	5.e-002	1.0056e-006
16792	3.3061	2.2727	0.	-762.48
16793	3.2143	2.3636	0.	-810.19
16794	3.3061	2.3636	5.e-002	1.3703e-006
16795	3.3061	2.0909	0.	-727.41
16796	3.2143	2.1818	0.	-777.51
16797	3.3061	2.1818	5.e-002	2.2664e-006
16798	3.3061	1.9091	0.	-685.26
16799	3.2143	2.	0.	-737.22
16800	3.3061	2.	5.e-002	2.9676e-005
16801	3.3061	1.7273	0.	-636.49
16802	3.2143	1.8182	0.	-689.73
16803	3.3061	1.8182	5.e-002	1.437e-005
16804	3.3061	1.5455	0.	-581.66
16805	3.2143	1.6364	0.	-635.57
16806	3.3061	1.6364	5.e-002	1.5948e-005
16807	3.3061	1.3636	0.	-521.41
16808	3.2143	1.4545	0.	-575.35
16809	3.3061	1.4545	5.e-002	5.1727e-005
16810	3.3061	1.1818	0.	-456.47
16811	3.2143	1.2727	0.	-509.79
16812	3.3061	1.2727	5.e-002	1.7451e-005
16813	3.3061	1.	0.	-387.63
16814	3.2143	1.0909	0.	-439.71
16815	3.3061	1.0909	5.e-002	9.3887e-005
16816	3.3061	0.81818	0.	-315.75
16817	3.2143	0.90909	0.	-365.98
16818	3.3061	0.90909	5.e-002	7.8073e-005
16819	3.3061	0.63636	0.	-241.68
16820	3.2143	0.72727	0.	-289.53
16821	3.3061	0.72727	5.e-002	7.9881e-005
16822	3.3061	0.45455	0.	-166.13
16823	3.2143	0.54545	0.	-211.3
16824	3.3061	0.54545	5.e-002	8.3958e-005
16825	3.3061	0.27273	0.	-88.858
16826	3.2143	0.36364	0.	-131.87
16827	3.3061	0.36364	5.e-002	2.7032e-005
16828	3.2143	0.18182	0.	-50.384
16829	3.3061	0.18182	5.e-002	2.2704e-005
16830	3.3061	9.0909e-002	0.	-25.19
16831	3.1224	5.7273	0.	-92.902
16832	3.0306	5.8182	0.	-50.834
16833	3.1224	5.8182	5.e-002	-2.3176e-005
16834	3.1224	5.9091	0.	-25.059
16835	3.1224	5.5455	0.	-176.89
16836	3.0306	5.6364	0.	-139.43
16837	3.1224	5.6364	5.e-002	-5.9207e-005
16838	3.1224	5.3636	0.	-259.02
16839	3.0306	5.4545	0.	-225.75
16840	3.1224	5.4545	5.e-002	-3.0806e-005
16841	3.1224	5.1818	0.	-339.64
16842	3.0306	5.2727	0.	-310.91
16843	3.1224	5.2727	5.e-002	-5.8697e-005
16844	3.1224	5.	0.	-417.95
16845	3.0306	5.0909	0.	-394.21
16846	3.1224	5.0909	5.e-002	-5.4646e-005
16847	3.1224	4.8182	0.	-492.95
16848	3.0306	4.9091	0.	-474.58
16849	3.1224	4.9091	5.e-002	-5.3489e-005
16850	3.1224	4.6364	0.	-563.68
16851	3.0306	4.7273	0.	-550.94
16852	3.1224	4.7273	5.e-002	-2.1216e-015
16853	3.1224	4.4545	0.	-629.24
16854	3.0306	4.5455	0.	-622.29
16855	3.1224	4.5455	5.e-002	-4.1499e-005
16856	3.1224	4.2727	0.	-688.82
16857	3.0306	4.3636	0.	-687.74
16858	3.1224	4.3636	5.e-002	-3.651e-005
16859	3.1224	4.0909	0.	-741.73
16860	3.0306	4.1818	0.	-746.49
16861	3.1224	4.1818	5.e-002	-1.5394e-006
16862	3.1224	3.9091	0.	-787.38
16863	3.0306	4.	0.	-797.89
16864	3.1224	4.	5.e-002	-4.1257e-006
16865	3.1224	3.7273	0.	-825.31
16866	3.0306	3.8182	0.	-841.42
16867	3.1224	3.8182	5.e-002	-1.1224e-005
16868	3.1224	3.5455	0.	-855.16
16869	3.0306	3.6364	0.	-876.67
16870	3.1224	3.6364	5.e-002	-2.8507e-006
16871	3.1224	3.3636	0.	-876.66
16872	3.0306	3.4545	0.	-903.35
16873	3.1224	3.4545	5.e-002	-1.0465e-006
16874	3.1224	3.1818	0.	-889.62
16875	3.0306	3.2727	0.	-921.24
16876	3.1224	3.2727	5.e-002	-6.3944e-007
16877	3.1224	3.	0.	-893.96
16878	3.0306	3.0909	0.	-930.21
16879	3.1224	3.0909	5.e-002	-2.6887e-007
16880	3.1224	2.8182	0.	-889.62
16881	3.0306	2.9091	0.	-930.21
16882	3.1224	2.9091	5.e-002	2.6887e-007
16883	3.1224	2.6364	0.	-876.66
16884	3.0306	2.7273	0.	-921.24
16885	3.1224	2.7273	5.e-002	8.5258e-007
16886	3.1224	2.4545	0.	-855.16
16887	3.0306	2.5455	0.	-903.35
16888	3.1224	2.5455	5.e-002	3.5099e-006
16889	3.1224	2.2727	0.	-825.31
16890	3.0306	2.3636	0.	-876.67
16891	3.1224	2.3636	5.e-002	5.0071e-006
16892	3.1224	2.0909	0.	-787.38
16893	3.0306	2.1818	0.	-841.42
16894	3.1224	2.1818	5.e-002	2.0717e-005
16895	3.1224	1.9091	0.	-741.73
16896	3.0306	2.	0.	-797.89
16897	3.1224	2.	5.e-002	1.3752e-006
16898	3.1224	1.7273	0.	-688.82
16899	3.0306	1.8182	0.	-746.49
16900	3.1224	1.8182	5.e-002	1.4038e-005
16901	3.1224	1.5455	0.	-629.24
16902	3.0306	1.6364	0.	-687.74
16903	3.1224	1.6364	5.e-002	3.4841e-005
16904	3.1224	1.3636	0.	-563.68
16905	3.0306	1.4545	0.	-622.29
16906	3.1224	1.4545	5.e-002	4.1499e-005
16907	3.1224	1.1818	0.	-492.95
16908	3.0306	1.2727	0.	-550.94
16909	3.1224	1.2727	5.e-002	2.5727e-005
16910	3.1224	1.	0.	-417.95
16911	3.0306	1.0909	0.	-474.58
16912	3.1224	1.0909	5.e-002	5.3489e-005
16913	3.1224	0.81818	0.	-339.64
16914	3.0306	0.90909	0.	-394.21
16915	3.1224	0.90909	5.e-002	2.7323e-005
16916	3.1224	0.63636	0.	-259.02
16917	3.0306	0.72727	0.	-310.91
16918	3.1224	0.72727	5.e-002	2.9348e-005
16919	3.1224	0.45455	0.	-176.89
16920	3.0306	0.54545	0.	-225.75
16921	3.1224	0.54545	5.e-002	6.1611e-005
16922	3.1224	0.27273	0.	-92.903
16923	3.0306	0.36364	0.	-139.43
16924	3.1224	0.36364	5.e-002	1.1841e-004
16925	3.0306	0.18182	0.	-50.834
16926	3.1224	0.18182	5.e-002	3.4763e-005
16927	3.1224	9.0909e-002	0.	-25.059
16928	2.9388	5.7273	0.	-96.757
16929	2.8469	5.8182	0.	-50.73
16930	2.9388	5.8182	5.e-002	-1.1885e-005
16931	2.9388	5.9091	0.	-24.53
16932	2.9388	5.5455	0.	-188.13
16933	2.8469	5.6364	0.	-147.16
16934	2.9388	5.6364	5.e-002	-6.8618e-005
16935	2.9388	5.3636	0.	-277.5
16936	2.8469	5.4545	0.	-241.08
16937	2.9388	5.4545	5.e-002	-3.3844e-005
16938	2.9388	5.1818	0.	-365.35
16939	2.8469	5.2727	0.	-333.89
16940	2.9388	5.2727	5.e-002	-6.454e-005
16941	2.9388	5.	0.	-450.73
16942	2.8469	5.0909	0.	-424.76
16943	2.9388	5.0909	5.e-002	-3.3859e-005
16944	2.9388	4.8182	0.	-532.48
16945	2.8469	4.9091	0.	-512.42
16946	2.9388	4.9091	5.e-002	-5.4665e-005
16947	2.9388	4.6364	0.	-609.5
16948	2.8469	4.7273	0.	-595.62
16949	2.9388	4.7273	5.e-002	-7.2643e-005
16950	2.9388	4.4545	0.	-680.77
16951	2.8469	4.5455	0.	-673.24
16952	2.9388	4.5455	5.e-002	-3.6558e-005
16953	2.9388	4.2727	0.	-745.42
16954	2.8469	4.3636	0.	-744.25
16955	2.9388	4.3636	5.e-002	-3.4412e-005
16956	2.9388	4.0909	0.	-802.7
16957	2.8469	4.1818	0.	-807.84
16958	2.9388	4.1818	5.e-002	-4.7632e-006
16959	2.9388	3.9091	0.	-852.01
16960	2.8469	4.	0.	-863.32
16961	2.9388	4.	5.e-002	-2.8424e-006
16962	2.9388	3.7273	0.	-892.89
16963	2.8469	3.8182	0.	-910.18
16964	2.9388	3.8182	5.e-002	-3.655e-006
16965	2.9388	3.5455	0.	-924.99
16966	2.8469	3.6364	0.	-948.04
16967	2.9388	3.6364	5.e-002	-2.9498e-006
16968	2.9388	3.3636	0.	-948.08
16969	2.8469	3.4545	0.	-976.62
16970	2.9388	3.4545	5.e-002	-1.4436e-006
16971	2.9388	3.1818	0.	-961.99
16972	2.8469	3.2727	0.	-995.77
16973	2.9388	3.2727	5.e-002	6.6441e-006
16974	2.9388	3.	0.	-966.64
16975	2.8469	3.0909	0.	-1005.4
16976	2.9388	3.0909	5.e-002	-2.7808e-007
16977	2.9388	2.8182	0.	-961.99
16978	2.8469	2.9091	0.	-1005.4
16979	2.9388	2.9091	5.e-002	2.7808e-007
16980	2.9388	2.6364	0.	-948.08
16981	2.8469	2.7273	0.	-995.77
16982	2.9388	2.7273	5.e-002	1.7087e-006
16983	2.9388	2.4545	0.	-924.99
16984	2.8469	2.5455	0.	-976.62
16985	2.9388	2.5455	5.e-002	5.9831e-006
16986	2.9388	2.2727	0.	-892.89
16987	2.8469	2.3636	0.	-948.04
16988	2.9388	2.3636	5.e-002	7.3175e-006
16989	2.9388	2.0909	0.	-852.01
16990	2.8469	2.1818	0.	-910.18
16991	2.9388	2.1818	5.e-002	2.4367e-006
16992	2.9388	1.9091	0.	-802.7
16993	2.8469	2.	0.	-863.32
16994	2.9388	2.	5.e-002	1.3006e-005
16995	2.9388	1.7273	0.	-745.42
16996	2.8469	1.8182	0.	-807.84
16997	2.9388	1.8182	5.e-002	2.8802e-005
16998	2.9388	1.5455	0.	-680.77
16999	2.8469	1.6364	0.	-744.25
17000	2.9388	1.6364	5.e-002	2.0638e-005
17001	2.9388	1.3636	0.	-609.5
17002	2.8469	1.4545	0.	-673.24
17003	2.9388	1.4545	5.e-002	6.2382e-005
17004	2.9388	1.1818	0.	-532.49
17005	2.8469	1.2727	0.	-595.62
17006	2.9388	1.2727	5.e-002	-2.2249e-015
17007	2.9388	1.	0.	-450.73
17008	2.8469	1.0909	0.	-512.42
17009	2.9388	1.0909	5.e-002	2.7333e-005
17010	2.9388	0.81818	0.	-365.35
17011	2.8469	0.90909	0.	-424.76
17012	2.9388	0.90909	5.e-002	6.009e-005
17013	2.9388	0.63636	0.	-277.5
17014	2.8469	0.72727	0.	-333.89
17015	2.9388	0.72727	5.e-002	3.6078e-005
17016	2.9388	0.45455	0.	-188.13
17017	2.8469	0.54545	0.	-241.08
17018	2.9388	0.54545	5.e-002	6.7688e-005
17019	2.9388	0.27273	0.	-96.757
17020	2.8469	0.36364	0.	-147.16
17021	2.9388	0.36364	5.e-002	-2.2188e-015
17022	2.8469	0.18182	0.	-50.73
17023	2.9388	0.18182	5.e-002	3.5655e-005
17024	2.9388	9.0909e-002	0.	-24.53
17025	2.7551	5.7273	0.	-100.37
17026	2.6633	5.8182	0.	-49.974
17027	2.7551	5.8182	5.e-002	-1.2261e-005
17028	2.7551	5.9091	0.	-23.521
17029	2.7551	5.5455	0.	-199.91
17030	2.6633	5.6364	0.	-155.05
17031	2.7551	5.6364	5.e-002	-7.093e-005
17032	2.7551	5.3636	0.	-297.3
17033	2.6633	5.4545	0.	-257.41
17034	2.7551	5.4545	5.e-002	-1.1131e-004
17035	2.7551	5.1818	0.	-393.16
17036	2.6633	5.2727	0.	-358.72
17037	2.7551	5.2727	5.e-002	-3.5389e-005
17038	2.7551	5.	0.	-486.33
17039	2.6633	5.0909	0.	-457.99
17040	2.7551	5.0909	5.e-002	-2.3241e-015
17041	2.7551	4.8182	0.	-575.47
17042	2.6633	4.9091	0.	-553.67
17043	2.7551	4.9091	5.e-002	-5.9847e-005
17044	2.7551	4.6364	0.	-659.31
17045	2.6633	4.7273	0.	-644.33
17046	2.7551	4.7273	5.e-002	-3.7807e-006
17047	2.7551	4.4545	0.	-736.71
17048	2.6633	4.5455	0.	-728.67
17049	2.7551	4.5455	5.e-002	-2.6332e-005
17050	2.7551	4.2727	0.	-806.71
17051	2.6633	4.3636	0.	-805.6
17052	2.7551	4.3636	5.e-002	-1.8664e-005
17053	2.7551	4.0909	0.	-868.54
17054	2.6633	4.1818	0.	-874.22
17055	2.7551	4.1818	5.e-002	-2.3319e-015
17056	2.7551	3.9091	0.	-921.6
17057	2.6633	4.	0.	-933.88
17058	2.7551	4.	5.e-002	-1.2379e-005
17059	2.7551	3.7273	0.	-965.47
17060	2.6633	3.8182	0.	-984.08
17061	2.7551	3.8182	5.e-002	-8.7729e-006
17062	2.7551	3.5455	0.	-999.83
17063	2.6633	3.6364	0.	-1024.5
17064	2.7551	3.6364	5.e-002	-6.6675e-006
17065	2.7551	3.3636	0.	-1024.5
17066	2.6633	3.4545	0.	-1055.
17067	2.7551	3.4545	5.e-002	-1.484e-006
17068	2.7551	3.1818	0.	-1039.3
17069	2.6633	3.2727	0.	-1075.3
17070	2.7551	3.2727	5.e-002	-9.06e-007
17071	2.7551	3.	0.	-1044.3
17072	2.6633	3.0909	0.	-1085.5
17073	2.7551	3.0909	5.e-002	1.493e-005
17074	2.7551	2.8182	0.	-1039.3
17075	2.6633	2.9091	0.	-1085.5
17076	2.7551	2.9091	5.e-002	2.8555e-007
17077	2.7551	2.6364	0.	-1024.5
17078	2.6633	2.7273	0.	-1075.3
17079	2.7551	2.7273	5.e-002	2.4259e-006
17080	2.7551	2.4545	0.	-999.83
17081	2.6633	2.5455	0.	-1055.
17082	2.7551	2.5455	5.e-002	3.517e-006
17083	2.7551	2.2727	0.	-965.47
17084	2.6633	2.3636	0.	-1024.5
17085	2.7551	2.3636	5.e-002	1.0115e-006
17086	2.7551	2.0909	0.	-921.6
17087	2.6633	2.1818	0.	-984.08
17088	2.7551	2.1818	5.e-002	1.88e-005
17089	2.7551	1.9091	0.	-868.54
17090	2.6633	2.	0.	-933.88
17091	2.7551	2.	5.e-002	2.6219e-005
17092	2.7551	1.7273	0.	-806.71
17093	2.6633	1.8182	0.	-874.22
17094	2.7551	1.8182	5.e-002	6.5232e-006
17095	2.7551	1.5455	0.	-736.71
17096	2.6633	1.6364	0.	-805.6
17097	2.7551	1.6364	5.e-002	4.0843e-005
17098	2.7551	1.3636	0.	-659.31
17099	2.6633	1.4545	0.	-728.67
17100	2.7551	1.4545	5.e-002	4.5294e-005
17101	2.7551	1.1818	0.	-575.47
17102	2.6633	1.2727	0.	-644.33
17103	2.7551	1.2727	5.e-002	2.6454e-005
17104	2.7551	1.	0.	-486.33
17105	2.6633	1.0909	0.	-553.67
17106	2.7551	1.0909	5.e-002	3.3738e-005
17107	2.7551	0.81818	0.	-393.16
17108	2.6633	0.90909	0.	-457.99
17109	2.7551	0.90909	5.e-002	3.2933e-005
17110	2.7551	0.63636	0.	-297.3
17111	2.6633	0.72727	0.	-358.72
17112	2.7551	0.72727	5.e-002	7.0778e-005
17113	2.7551	0.45455	0.	-199.91
17114	2.6633	0.54545	0.	-257.41
17115	2.7551	0.54545	5.e-002	7.4209e-005
17116	2.7551	0.27273	0.	-100.37
17117	2.6633	0.36364	0.	-155.05
17118	2.7551	0.36364	5.e-002	7.093e-005
17119	2.6633	0.18182	0.	-49.974
17120	2.7551	0.18182	5.e-002	2.4522e-005
17121	2.7551	9.0909e-002	0.	-23.521
17122	2.5714	5.7273	0.	-103.68
17123	2.4796	5.8182	0.	-48.467
17124	2.5714	5.8182	5.e-002	-3.822e-005
17125	2.5714	5.9091	0.	-21.943
17126	2.5714	5.5455	0.	-212.32
17127	2.4796	5.6364	0.	-163.14
17128	2.5714	5.6364	5.e-002	-3.8804e-005
17129	2.5714	5.3636	0.	-318.65
17130	2.4796	5.4545	0.	-274.93
17131	2.5714	5.4545	5.e-002	-8.1153e-005
17132	2.5714	5.1818	0.	-423.4
17133	2.4796	5.2727	0.	-385.77
17134	2.5714	5.2727	5.e-002	-7.7378e-005
17135	2.5714	5.	0.	-525.2
17136	2.4796	5.0909	0.	-494.38
17137	2.5714	5.0909	5.e-002	-3.5969e-005
17138	2.5714	4.8182	0.	-622.44
17139	2.4796	4.9091	0.	-598.91
17140	2.5714	4.9091	5.e-002	-3.2619e-005
17141	2.5714	4.6364	0.	-713.65
17142	2.4796	4.7273	0.	-697.68
17143	2.5714	4.7273	5.e-002	-2.8748e-005
17144	2.5714	4.4545	0.	-797.57
17145	2.4796	4.5455	0.	-789.21
17146	2.5714	4.5455	5.e-002	-2.8245e-005
17147	2.5714	4.2727	0.	-873.16
17148	2.4796	4.3636	0.	-872.32
17149	2.5714	4.3636	5.e-002	-4.0169e-005
17150	2.5714	4.0909	0.	-939.66
17151	2.4796	4.1818	0.	-946.1
17152	2.5714	4.1818	5.e-002	-3.8088e-005
17153	2.5714	3.9091	0.	-996.49
17154	2.4796	4.	0.	-1009.9
17155	2.5714	4.	5.e-002	3.1874e-006
17156	2.5714	3.7273	0.	-1043.3
17157	2.4796	3.8182	0.	-1063.4
17158	2.5714	3.8182	5.e-002	-9.2145e-006
17159	2.5714	3.5455	0.	-1079.8
17160	2.4796	3.6364	0.	-1106.3
17161	2.5714	3.6364	5.e-002	-3.1008e-006
17162	2.5714	3.3636	0.	-1106.
17163	2.4796	3.4545	0.	-1138.5
17164	2.5714	3.4545	5.e-002	-1.1358e-006
17165	2.5714	3.1818	0.	-1121.7
17166	2.4796	3.2727	0.	-1159.9
17167	2.5714	3.2727	5.e-002	-9.2342e-007
17168	2.5714	3.	0.	-1126.9
17169	2.4796	3.0909	0.	-1170.7
17170	2.5714	3.0909	5.e-002	-2.9085e-007
17171	2.5714	2.8182	0.	-1121.7
17172	2.4796	2.9091	0.	-1170.7
17173	2.5714	2.9091	5.e-002	2.9085e-007
17174	2.5714	2.6364	0.	-1106.
17175	2.4796	2.7273	0.	-1159.9
17176	2.5714	2.7273	5.e-002	9.2342e-007
17177	2.5714	2.4545	0.	-1079.8
17178	2.4796	2.5455	0.	-1138.5
17179	2.5714	2.5455	5.e-002	1.5144e-006
17180	2.5714	2.2727	0.	-1043.3
17181	2.4796	2.3636	0.	-1106.3
17182	2.5714	2.3636	5.e-002	3.1008e-006
17183	2.5714	2.0909	0.	-996.49
17184	2.4796	2.1818	0.	-1063.4
17185	2.5714	2.1818	5.e-002	9.2145e-006
17186	2.5714	1.9091	0.	-939.66
17187	2.4796	2.	0.	-1009.9
17188	2.5714	2.	5.e-002	2.9927e-006
17189	2.5714	1.7273	0.	-873.16
17190	2.4796	1.8182	0.	-946.1
17191	2.5714	1.8182	5.e-002	3.8088e-005
17192	2.5714	1.5455	0.	-797.57
17193	2.4796	1.6364	0.	-872.32
17194	2.5714	1.6364	5.e-002	-2.4708e-015
17195	2.5714	1.3636	0.	-713.65
17196	2.4796	1.4545	0.	-789.21
17197	2.5714	1.4545	5.e-002	5.2749e-005
17198	2.5714	1.1818	0.	-622.44
17199	2.4796	1.2727	0.	-697.68
17200	2.5714	1.2727	5.e-002	6.1304e-005
17201	2.5714	1.	0.	-525.2
17202	2.4796	1.0909	0.	-598.91
17203	2.5714	1.0909	5.e-002	6.5238e-005
17204	2.5714	0.81818	0.	-423.4
17205	2.4796	0.90909	0.	-494.38
17206	2.5714	0.90909	5.e-002	3.5969e-005
17207	2.5714	0.63636	0.	-318.65
17208	2.4796	0.72727	0.	-385.77
17209	2.5714	0.72727	5.e-002	3.8689e-005
17210	2.5714	0.45455	0.	-212.32
17211	2.4796	0.54545	0.	-274.93
17212	2.5714	0.54545	5.e-002	1.2173e-004
17213	2.5714	0.27273	0.	-103.68
17214	2.4796	0.36364	0.	-163.14
17215	2.5714	0.36364	5.e-002	7.7608e-005
17216	2.4796	0.18182	0.	-48.467
17217	2.5714	0.18182	5.e-002	2.548e-005
17218	2.5714	9.0909e-002	0.	-21.943
17219	2.3878	5.7273	0.	-106.64
17220	2.2959	5.8182	0.	-46.116
17221	2.3878	5.8182	5.e-002	-4.0068e-005
17222	2.3878	5.9091	0.	-19.69
17223	2.3878	5.5455	0.	-225.49
17224	2.2959	5.6364	0.	-171.49
17225	2.3878	5.6364	5.e-002	-4.2428e-005
17226	2.3878	5.3636	0.	-341.85
17227	2.2959	5.4545	0.	-293.93
17228	2.3878	5.4545	5.e-002	-8.8447e-005
17229	2.3878	5.1818	0.	-456.57
17230	2.2959	5.2727	0.	-415.51
17231	2.3878	5.2727	5.e-002	-8.4267e-005
17232	2.3878	5.	0.	-567.95
17233	2.2959	5.0909	0.	-534.58
17234	2.3878	5.0909	5.e-002	-8.189e-005
17235	2.3878	4.8182	0.	-674.07
17236	2.2959	4.9091	0.	-648.9
17237	2.3878	4.9091	5.e-002	3.207e-006
17238	2.3878	4.6364	0.	-773.21
17239	2.2959	4.7273	0.	-756.45
17240	2.3878	4.7273	5.e-002	-6.2104e-005
17241	2.3878	4.4545	0.	-863.99
17242	2.2959	4.5455	0.	-855.59
17243	2.3878	4.5455	5.e-002	-5.6412e-005
17244	2.3878	4.2727	0.	-945.33
17245	2.2959	4.3636	0.	-945.06
17246	2.3878	4.3636	5.e-002	-2.6226e-015
17247	2.3878	4.0909	0.	-1016.5
17248	2.2959	4.1818	0.	-1024.
17249	2.3878	4.1818	5.e-002	-3.3956e-006
17250	2.3878	3.9091	0.	-1077.
17251	2.2959	4.	0.	-1091.8
17252	2.3878	4.	5.e-002	-1.2154e-005
17253	2.3878	3.7273	0.	-1126.6
17254	2.2959	3.8182	0.	-1148.4
17255	2.3878	3.8182	5.e-002	-8.2446e-006
17256	2.3878	3.5455	0.	-1165.1
17257	2.2959	3.6364	0.	-1193.5
17258	2.3878	3.6364	5.e-002	-2.0967e-006
17259	2.3878	3.3636	0.	-1192.6
17260	2.2959	3.4545	0.	-1227.2
17261	2.3878	3.4545	5.e-002	-1.5325e-006
17262	2.3878	3.1818	0.	-1209.1
17263	2.2959	3.2727	0.	-1249.6
17264	2.3878	3.2727	5.e-002	-6.9964e-007
17265	2.3878	3.	0.	-1214.6
17266	2.2959	3.0909	0.	-1260.8
17267	2.3878	3.0909	5.e-002	-2.544e-007
17268	2.3878	2.8182	0.	-1209.1
17269	2.2959	2.9091	0.	-1260.8
17270	2.3878	2.9091	5.e-002	3.131e-007
17271	2.3878	2.6364	0.	-1192.6
17272	2.2959	2.7273	0.	-1249.6
17273	2.3878	2.7273	5.e-002	1.8594e-006
17274	2.3878	2.4545	0.	-1165.1
17275	2.2959	2.5455	0.	-1227.2
17276	2.3878	2.5455	5.e-002	4.1036e-006
17277	2.3878	2.2727	0.	-1126.6
17278	2.2959	2.3636	0.	-1193.5
17279	2.3878	2.3636	5.e-002	2.0967e-006
17280	2.3878	2.0909	0.	-1077.
17281	2.2959	2.1818	0.	-1148.4
17282	2.3878	2.1818	5.e-002	1.7793e-005
17283	2.3878	1.9091	0.	-1016.5
17284	2.2959	2.	0.	-1091.8
17285	2.3878	2.	5.e-002	1.2154e-005
17286	2.3878	1.7273	0.	-945.33
17287	2.2959	1.8182	0.	-1024.
17288	2.3878	1.8182	5.e-002	2.3402e-005
17289	2.3878	1.5455	0.	-863.99
17290	2.2959	1.6364	0.	-945.06
17291	2.3878	1.6364	5.e-002	2.1415e-005
17292	2.3878	1.3636	0.	-773.21
17293	2.2959	1.4545	0.	-855.59
17294	2.3878	1.4545	5.e-002	3.7784e-006
17295	2.3878	1.1818	0.	-674.07
17296	2.2959	1.2727	0.	-756.45
17297	2.3878	1.2727	5.e-002	9.3156e-005
17298	2.3878	1.	0.	-567.95
17299	2.2959	1.0909	0.	-648.9
17300	2.3878	1.0909	5.e-002	1.099e-004
17301	2.3878	0.81818	0.	-456.57
17302	2.2959	0.90909	0.	-534.58
17303	2.3878	0.90909	5.e-002	8.189e-005
17304	2.3878	0.63636	0.	-341.85
17305	2.2959	0.72727	0.	-415.51
17306	2.3878	0.72727	5.e-002	8.4267e-005
17307	2.3878	0.45455	0.	-225.49
17308	2.2959	0.54545	0.	-293.93
17309	2.3878	0.54545	5.e-002	4.4223e-005
17310	2.3878	0.27273	0.	-106.64
17311	2.2959	0.36364	0.	-171.49
17312	2.3878	0.36364	5.e-002	8.4856e-005
17313	2.2959	0.18182	0.	-46.116
17314	2.3878	0.18182	5.e-002	2.6712e-005
17315	2.3878	9.0909e-002	0.	-19.69
17316	2.2041	5.7273	0.	-109.22
17317	2.1122	5.8182	0.	-42.85
17318	2.2041	5.8182	5.e-002	-4.2478e-005
17319	2.2041	5.9091	0.	-16.651
17320	2.2041	5.5455	0.	-239.63
17321	2.1122	5.6364	0.	-180.21
17322	2.2041	5.6364	5.e-002	-4.6305e-005
17323	2.2041	5.3636	0.	-367.37
17324	2.1122	5.4545	0.	-314.82
17325	2.2041	5.4545	5.e-002	-1.439e-004
17326	2.2041	5.1818	0.	-493.34
17327	2.1122	5.2727	0.	-448.64
17328	2.2041	5.2727	5.e-002	-4.5654e-005
17329	2.2041	5.	0.	-615.39
17330	2.1122	5.0909	0.	-579.5
17331	2.2041	5.0909	5.e-002	-2.7755e-015
17332	2.2041	4.8182	0.	-731.21
17333	2.1122	4.9091	0.	-704.62
17334	2.2041	4.9091	5.e-002	-7.6293e-005
17335	2.2041	4.6364	0.	-838.83
17336	2.1122	4.7273	0.	-821.65
17337	2.2041	4.7273	5.e-002	-3.3304e-005
17338	2.2041	4.4545	0.	-936.73
17339	2.1122	4.5455	0.	-928.73
17340	2.2041	4.5455	5.e-002	-5.6032e-005
17341	2.2041	4.2727	0.	-1023.8
17342	2.1122	4.3636	0.	-1024.6
17343	2.2041	4.3636	5.e-002	-2.2587e-005
17344	2.2041	4.0909	0.	-1099.5
17345	2.1122	4.1818	0.	-1108.5
17346	2.2041	4.1818	5.e-002	-2.4219e-005
17347	2.2041	3.9091	0.	-1163.4
17348	2.1122	4.	0.	-1180.
17349	2.2041	4.	5.e-002	-1.2549e-005
17350	2.2041	3.7273	0.	-1215.5
17351	2.1122	3.8182	0.	-1239.2
17352	2.2041	3.8182	5.e-002	-1.3159e-006
17353	2.2041	3.5455	0.	-1255.7
17354	2.1122	3.6364	0.	-1286.1
17355	2.2041	3.6364	5.e-002	-6.1419e-006
17356	2.2041	3.3636	0.	-1284.4
17357	2.1122	3.4545	0.	-1321.
17358	2.2041	3.4545	5.e-002	-1.5366e-006
17359	2.2041	3.1818	0.	-1301.5
17360	2.1122	3.2727	0.	-1344.1
17361	2.2041	3.2727	5.e-002	-9.3309e-007
17362	2.2041	3.	0.	-1307.2
17363	2.1122	3.0909	0.	-1355.6
17364	2.2041	3.0909	5.e-002	-2.1003e-007
17365	2.2041	2.8182	0.	-1301.5
17366	2.1122	2.9091	0.	-1355.6
17367	2.2041	2.9091	5.e-002	4.1555e-007
17368	2.2041	2.6364	0.	-1284.4
17369	2.1122	2.7273	0.	-1344.1
17370	2.2041	2.7273	5.e-002	1.8601e-006
17371	2.2041	2.4545	0.	-1255.7
17372	2.1122	2.5455	0.	-1321.
17373	2.2041	2.5455	5.e-002	1.5366e-006
17374	2.2041	2.2727	0.	-1215.5
17375	2.1122	2.3636	0.	-1286.1
17376	2.2041	2.3636	5.e-002	5.0874e-006
17377	2.2041	2.0909	0.	-1163.4
17378	2.1122	2.1818	0.	-1239.2
17379	2.2041	2.1818	5.e-002	3.9476e-006
17380	2.2041	1.9091	0.	-1099.5
17381	2.1122	2.	0.	-1180.
17382	2.2041	2.	5.e-002	3.4348e-005
17383	2.2041	1.7273	0.	-1023.8
17384	2.1122	1.8182	0.	-1108.5
17385	2.2041	1.8182	5.e-002	1.7337e-005
17386	2.2041	1.5455	0.	-936.73
17387	2.1122	1.6364	0.	-1024.6
17388	2.2041	1.6364	5.e-002	2.627e-005
17389	2.2041	1.3636	0.	-838.83
17390	2.1122	1.4545	0.	-928.73
17391	2.2041	1.4545	5.e-002	3.562e-005
17392	2.2041	1.1818	0.	-731.21
17393	2.1122	1.2727	0.	-821.65
17394	2.2041	1.2727	5.e-002	-2.7987e-015
17395	2.2041	1.	0.	-615.39
17396	2.1122	1.0909	0.	-704.62
17397	2.2041	1.0909	5.e-002	3.8146e-005
17398	2.2041	0.81818	0.	-493.34
17399	2.1122	0.90909	0.	-579.5
17400	2.2041	0.90909	5.e-002	1.6925e-004
17401	2.2041	0.63636	0.	-367.37
17402	2.1122	0.72727	0.	-448.64
17403	2.2041	0.72727	5.e-002	1.3696e-004
17404	2.2041	0.45455	0.	-239.63
17405	2.1122	0.54545	0.	-314.82
17406	2.2041	0.54545	5.e-002	4.715e-005
17407	2.2041	0.27273	0.	-109.22
17408	2.1122	0.36364	0.	-180.21
17409	2.2041	0.36364	5.e-002	1.3891e-004
17410	2.1122	0.18182	0.	-42.85
17411	2.2041	0.18182	5.e-002	2.8318e-005
17412	2.2041	9.0909e-002	0.	-16.651
17413	2.0204	5.7273	0.	-111.39
17414	1.9286	5.8182	0.	-38.659
17415	2.0204	5.8182	5.e-002	-1.5224e-005
17416	2.0204	5.9091	0.	-12.726
17417	2.0204	5.5455	0.	-255.05
17418	1.9286	5.6364	0.	-189.5
17419	2.0204	5.6364	5.e-002	-1.0067e-004
17420	2.0204	5.3636	0.	-395.84
17421	1.9286	5.4545	0.	-338.22
17422	2.0204	5.4545	5.e-002	-1.0333e-004
17423	2.0204	5.1818	0.	-534.61
17424	1.9286	5.2727	0.	-486.14
17425	2.0204	5.2727	5.e-002	-4.9143e-005
17426	2.0204	5.	0.	-668.6
17427	1.9286	5.0909	0.	-630.36
17428	2.0204	5.0909	5.e-002	-9.0945e-005
17429	2.0204	4.8182	0.	-795.01
17430	1.9286	4.9091	0.	-767.42
17431	2.0204	4.9091	5.e-002	-2.9977e-015
17432	2.0204	4.6364	0.	-911.57
17433	1.9286	4.7273	0.	-894.53
17434	2.0204	4.7273	5.e-002	-3.5418e-005
17435	2.0204	4.4545	0.	-1016.7
17436	1.9286	4.5455	0.	-1009.7
17437	2.0204	4.5455	5.e-002	-2.9513e-005
17438	2.0204	4.2727	0.	-1109.4
17439	1.9286	4.3636	0.	-1111.7
17440	2.0204	4.3636	5.e-002	-2.3516e-005
17441	2.0204	4.0909	0.	-1189.2
17442	1.9286	4.1818	0.	-1200.1
17443	2.0204	4.1818	5.e-002	-1.7818e-005
17444	2.0204	3.9091	0.	-1256.
17445	1.9286	4.	0.	-1274.7
17446	2.0204	4.	5.e-002	-1.273e-005
17447	2.0204	3.7273	0.	-1310.
17448	1.9286	3.8182	0.	-1335.9
17449	2.0204	3.8182	5.e-002	-9.7613e-006
17450	2.0204	3.5455	0.	-1351.6
17451	1.9286	3.6364	0.	-1384.1
17452	2.0204	3.6364	5.e-002	-1.0505e-006
17453	2.0204	3.3636	0.	-1381.
17454	1.9286	3.4545	0.	-1419.7
17455	2.0204	3.4545	5.e-002	-2.287e-006
17456	2.0204	3.1818	0.	-1398.5
17457	1.9286	3.2727	0.	-1443.2
17458	2.0204	3.2727	5.e-002	-9.2315e-007
17459	2.0204	3.	0.	-1404.3
17460	1.9286	3.0909	0.	-1454.9
17461	2.0204	3.0909	5.e-002	-3.0898e-007
17462	2.0204	2.8182	0.	-1398.5
17463	1.9286	2.9091	0.	-1454.9
17464	2.0204	2.9091	5.e-002	3.8994e-007
17465	2.0204	2.6364	0.	-1381.
17466	1.9286	2.7273	0.	-1443.2
17467	2.0204	2.7273	5.e-002	9.2315e-007
17468	2.0204	2.4545	0.	-1351.6
17469	1.9286	2.5455	0.	-1419.7
17470	2.0204	2.5455	5.e-002	4.0683e-006
17471	2.0204	2.2727	0.	-1310.
17472	1.9286	2.3636	0.	-1384.1
17473	2.0204	2.3636	5.e-002	2.1144e-005
17474	2.0204	2.0909	0.	-1256.
17475	1.9286	2.1818	0.	-1335.9
17476	2.0204	2.1818	5.e-002	9.7613e-006
17477	2.0204	1.9091	0.	-1189.2
17478	1.9286	2.	0.	-1274.7
17479	2.0204	2.	5.e-002	2.5459e-005
17480	2.0204	1.7273	0.	-1109.4
17481	1.9286	1.8182	0.	-1200.1
17482	2.0204	1.8182	5.e-002	3.4687e-006
17483	2.0204	1.5455	0.	-1016.7
17484	1.9286	1.6364	0.	-1111.7
17485	2.0204	1.6364	5.e-002	5.8171e-005
17486	2.0204	1.3636	0.	-911.57
17487	1.9286	1.4545	0.	-1009.7
17488	2.0204	1.4545	5.e-002	3.3325e-005
17489	2.0204	1.1818	0.	-795.01
17490	1.9286	1.2727	0.	-894.53
17491	2.0204	1.2727	5.e-002	3.5418e-005
17492	2.0204	1.	0.	-668.6
17493	1.9286	1.0909	0.	-767.42
17494	2.0204	1.0909	5.e-002	1.2252e-004
17495	2.0204	0.81818	0.	-534.61
17496	1.9286	0.90909	0.	-630.36
17497	2.0204	0.90909	5.e-002	9.0945e-005
17498	2.0204	0.63636	0.	-395.84
17499	1.9286	0.72727	0.	-486.14
17500	2.0204	0.72727	5.e-002	1.4743e-004
17501	2.0204	0.45455	0.	-255.05
17502	1.9286	0.54545	0.	-338.22
17503	2.0204	0.54545	5.e-002	1.1e-005
17504	2.0204	0.27273	0.	-111.39
17505	1.9286	0.36364	0.	-189.5
17506	2.0204	0.36364	5.e-002	1.0067e-004
17507	1.9286	0.18182	0.	-38.659
17508	2.0204	0.18182	5.e-002	4.5671e-005
17509	2.0204	9.0909e-002	0.	-12.727
17510	1.8367	5.7273	0.	-113.2
17511	1.7449	5.8182	0.	-33.663
17512	1.8367	5.8182	5.e-002	-4.9997e-005
17513	1.8367	5.9091	0.	-7.9493
17514	1.8367	5.5455	0.	-272.26
17515	1.7449	5.6364	0.	-199.71
17516	1.8367	5.6364	5.e-002	-1.0858e-004
17517	1.8367	5.3636	0.	-428.23
17518	1.7449	5.4545	0.	-365.05
17519	1.8367	5.4545	5.e-002	-5.511e-005
17520	1.8367	5.1818	0.	-581.7
17521	1.7449	5.2727	0.	-529.44
17522	1.8367	5.2727	5.e-002	-1.0489e-004
17523	1.8367	5.	0.	-729.07
17524	1.7449	5.0909	0.	-688.89
17525	1.8367	5.0909	5.e-002	-3.2319e-015
17526	1.8367	4.8182	0.	-866.94
17527	1.7449	4.9091	0.	-839.05
17528	1.8367	4.9091	5.e-002	-8.6698e-005
17529	1.8367	4.6364	0.	-992.75
17530	1.7449	4.7273	0.	-976.69
17531	1.8367	4.7273	5.e-002	-7.4562e-005
17532	1.8367	4.4545	0.	-1104.9
17533	1.7449	4.5455	0.	-1099.8
17534	1.8367	4.5455	5.e-002	-1.1444e-005
17535	1.8367	4.2727	0.	-1202.7
17536	1.7449	4.3636	0.	-1207.4
17537	1.8367	4.3636	5.e-002	-2.4101e-005
17538	1.8367	4.0909	0.	-1285.9
17539	1.7449	4.1818	0.	-1299.4
17540	1.8367	4.1818	5.e-002	-3.2245e-015
17541	1.8367	3.9091	0.	-1354.9
17542	1.7449	4.	0.	-1376.2
17543	1.8367	4.	5.e-002	-3.2356e-015
17544	1.8367	3.7273	0.	-1410.2
17545	1.7449	3.8182	0.	-1438.5
17546	1.8367	3.8182	5.e-002	-1.3059e-006
17547	1.8367	3.5455	0.	-1452.5
17548	1.7449	3.6364	0.	-1487.2
17549	1.8367	3.6364	5.e-002	-7.9955e-006
17550	1.8367	3.3636	0.	-1482.2
17551	1.7449	3.4545	0.	-1522.9
17552	1.8367	3.4545	5.e-002	-7.4778e-007
17553	1.8367	3.1818	0.	-1499.8
17554	1.7449	3.2727	0.	-1546.4
17555	1.8367	3.2727	5.e-002	-9.0242e-007
17556	1.8367	3.	0.	-1505.7
17557	1.7449	3.0909	0.	-1558.
17558	1.8367	3.0909	5.e-002	-2.6383e-007
17559	1.8367	2.8182	0.	-1499.8
17560	1.7449	2.9091	0.	-1558.
17561	1.8367	2.9091	5.e-002	1.5594e-005
17562	1.8367	2.6364	0.	-1482.2
17563	1.7449	2.7273	0.	-1546.4
17564	1.8367	2.7273	5.e-002	1.543e-006
17565	1.8367	2.4545	0.	-1452.5
17566	1.7449	2.5455	0.	-1522.9
17567	1.8367	2.5455	5.e-002	2.103e-005
17568	1.8367	2.2727	0.	-1410.2
17569	1.7449	2.3636	0.	-1487.2
17570	1.8367	2.3636	5.e-002	2.0996e-005
17571	1.8367	2.0909	0.	-1354.9
17572	1.7449	2.1818	0.	-1438.5
17573	1.8367	2.1818	5.e-002	2.4077e-005
17574	1.8367	1.9091	0.	-1285.9
17575	1.7449	2.	0.	-1376.2
17576	1.8367	2.	5.e-002	1.8832e-005
17577	1.8367	1.7273	0.	-1202.7
17578	1.7449	1.8182	0.	-1299.4
17579	1.8367	1.8182	5.e-002	3.9431e-005
17580	1.8367	1.5455	0.	-1104.9
17581	1.7449	1.6364	0.	-1207.4
17582	1.8367	1.6364	5.e-002	-3.2202e-015
17583	1.8367	1.3636	0.	-992.75
17584	1.7449	1.4545	0.	-1099.8
17585	1.8367	1.4545	5.e-002	6.5202e-005
17586	1.8367	1.1818	0.	-866.94
17587	1.7449	1.2727	0.	-976.69
17588	1.8367	1.2727	5.e-002	4.769e-005
17589	1.8367	1.	0.	-729.07
17590	1.7449	1.0909	0.	-839.05
17591	1.8367	1.0909	5.e-002	8.6698e-005
17592	1.8367	0.81818	0.	-581.7
17593	1.7449	0.90909	0.	-688.89
17594	1.8367	0.90909	5.e-002	1.9392e-004
17595	1.8367	0.63636	0.	-428.23
17596	1.7449	0.72727	0.	-529.44
17597	1.8367	0.72727	5.e-002	1.0489e-004
17598	1.8367	0.45455	0.	-272.26
17599	1.7449	0.54545	0.	-365.05
17600	1.8367	0.54545	5.e-002	1.6533e-004
17601	1.8367	0.27273	0.	-113.2
17602	1.7449	0.36364	0.	-199.71
17603	1.8367	0.36364	5.e-002	5.4292e-005
17604	1.7449	0.18182	0.	-33.663
17605	1.8367	0.18182	5.e-002	1.6666e-005
17606	1.8367	9.0909e-002	0.	-7.9494
17607	1.6531	5.7273	0.	-114.72
17608	1.5612	5.8182	0.	-28.238
17609	1.6531	5.8182	5.e-002	-3.7345e-005
17610	1.6531	5.9091	0.	-3.2328
17611	1.6531	5.5455	0.	-292.02
17612	1.5612	5.6364	0.	-211.43
17613	1.6531	5.6364	5.e-002	-1.1558e-004
17614	1.6531	5.3636	0.	-465.94
17615	1.5612	5.4545	0.	-396.76
17616	1.6531	5.4545	5.e-002	-5.8006e-005
17617	1.6531	5.1818	0.	-636.44
17618	1.5612	5.2727	0.	-580.65
17619	1.6531	5.2727	5.e-002	-1.1074e-004
17620	1.6531	5.	0.	-798.8
17621	1.5612	5.0909	0.	-757.48
17622	1.6531	5.0909	5.e-002	-5.1189e-005
17623	1.6531	4.8182	0.	-948.87
17624	1.5612	4.9091	0.	-921.83
17625	1.6531	4.9091	5.e-002	-4.5539e-005
17626	1.6531	4.6364	0.	-1083.9
17627	1.5612	4.7273	0.	-1070.1
17628	1.6531	4.7273	5.e-002	-3.8747e-005
17629	1.6531	4.4545	0.	-1202.5
17630	1.5612	4.5455	0.	-1200.4
17631	1.6531	4.5455	5.e-002	-3.5227e-005
17632	1.6531	4.2727	0.	-1304.4
17633	1.5612	4.3636	0.	-1312.5
17634	1.6531	4.3636	5.e-002	-2.4224e-005
17635	1.6531	4.0909	0.	-1390.
17636	1.5612	4.1818	0.	-1406.8
17637	1.6531	4.1818	5.e-002	-6.9277e-006
17638	1.6531	3.9091	0.	-1460.2
17639	1.5612	4.	0.	-1484.5
17640	1.6531	4.	5.e-002	-3.5048e-015
17641	1.6531	3.7273	0.	-1515.8
17642	1.5612	3.8182	0.	-1546.8
17643	1.6531	3.8182	5.e-002	-2.5615e-006
17644	1.6531	3.5455	0.	-1558.
17645	1.5612	3.6364	0.	-1595.
17646	1.6531	3.6364	5.e-002	-3.5457e-015
17647	1.6531	3.3636	0.	-1587.4
17648	1.5612	3.4545	0.	-1630.1
17649	1.6531	3.4545	5.e-002	-7.2423e-007
17650	1.6531	3.1818	0.	-1604.9
17651	1.5612	3.2727	0.	-1653.1
17652	1.6531	3.2727	5.e-002	-8.7076e-007
17653	1.6531	3.	0.	-1610.6
17654	1.5612	3.0909	0.	-1664.4
17655	1.6531	3.0909	5.e-002	-2.3594e-007
17656	1.6531	2.8182	0.	-1604.9
17657	1.5612	2.9091	0.	-1664.4
17658	1.6531	2.9091	5.e-002	2.3594e-007
17659	1.6531	2.6364	0.	-1587.4
17660	1.5612	2.7273	0.	-1653.1
17661	1.6531	2.7273	5.e-002	1.571e-005
17662	1.6531	2.4545	0.	-1558.
17663	1.5612	2.5455	0.	-1630.1
17664	1.6531	2.5455	5.e-002	-3.5636e-015
17665	1.6531	2.2727	0.	-1515.8
17666	1.5612	2.3636	0.	-1595.
17667	1.6531	2.3636	5.e-002	5.6226e-006
17668	1.6531	2.0909	0.	-1460.2
17669	1.5612	2.1818	0.	-1546.8
17670	1.6531	2.1818	5.e-002	2.6273e-005
17671	1.6531	1.9091	0.	-1390.
17672	1.5612	2.	0.	-1484.5
17673	1.6531	2.	5.e-002	3.6717e-005
17674	1.6531	1.7273	0.	-1304.4
17675	1.5612	1.8182	0.	-1406.8
17676	1.6531	1.8182	5.e-002	3.5468e-005
17677	1.6531	1.5455	0.	-1202.5
17678	1.5612	1.6364	0.	-1312.5
17679	1.6531	1.6364	5.e-002	5.218e-005
17680	1.6531	1.3636	0.	-1083.9
17681	1.5612	1.4545	0.	-1200.4
17682	1.6531	1.4545	5.e-002	9.8054e-005
17683	1.6531	1.1818	0.	-948.87
17684	1.5612	1.2727	0.	-1070.1
17685	1.6531	1.2727	5.e-002	3.8747e-005
17686	1.6531	1.	0.	-798.8
17687	1.5612	1.0909	0.	-921.83
17688	1.6531	1.0909	5.e-002	9.1078e-005
17689	1.6531	0.81818	0.	-636.44
17690	1.5612	0.90909	0.	-757.48
17691	1.6531	0.90909	5.e-002	1.5357e-004
17692	1.6531	0.63636	0.	-465.94
17693	1.5612	0.72727	0.	-580.65
17694	1.6531	0.72727	5.e-002	1.1074e-004
17695	1.6531	0.45455	0.	-292.02
17696	1.5612	0.54545	0.	-396.76
17697	1.6531	0.54545	5.e-002	5.8006e-005
17698	1.6531	0.27273	0.	-114.72
17699	1.5612	0.36364	0.	-211.43
17700	1.6531	0.36364	5.e-002	1.7336e-004
17701	1.5612	0.18182	0.	-28.238
17702	1.6531	0.18182	5.e-002	5.6018e-005
17703	1.6531	9.0909e-002	0.	-3.2328
17704	1.4694	5.7273	0.	-116.23
17705	1.3776	5.8182	0.	-23.047
17706	1.4694	5.8182	5.e-002	-1.4269e-005
17707	1.4694	5.9091	0.	-0.94944
17708	1.4694	5.5455	0.	-315.61
17709	1.3776	5.6364	0.	-225.62
17710	1.4694	5.6364	5.e-002	-1.8074e-004
17711	1.4694	5.3636	0.	-511.14
17712	1.3776	5.4545	0.	-435.59
17713	1.4694	5.4545	5.e-002	-1.8012e-004
17714	1.4694	5.1818	0.	-701.53
17715	1.3776	5.2727	0.	-642.84
17716	1.4694	5.2727	5.e-002	-1.1545e-004
17717	1.4694	5.	0.	-880.53
17718	1.3776	5.0909	0.	-839.43
17719	1.4694	5.0909	5.e-002	-5.3445e-005
17720	1.4694	4.8182	0.	-1043.2
17721	1.3776	4.9091	0.	-1018.7
17722	1.4694	4.9091	5.e-002	-1.0085e-004
17723	1.4694	4.6364	0.	-1186.9
17724	1.3776	4.7273	0.	-1176.9
17725	1.4694	4.7273	5.e-002	-3.8224e-015
17726	1.4694	4.4545	0.	-1310.8
17727	1.3776	4.5455	0.	-1313.
17728	1.4694	4.5455	5.e-002	-9.4473e-005
17729	1.4694	4.2727	0.	-1415.3
17730	1.3776	4.3636	0.	-1427.7
17731	1.4694	4.3636	5.e-002	-4.7505e-005
17732	1.4694	4.0909	0.	-1501.7
17733	1.3776	4.1818	0.	-1522.5
17734	1.4694	4.1818	5.e-002	-5.106e-005
17735	1.4694	3.9091	0.	-1571.5
17736	1.3776	4.	0.	-1599.3
17737	1.4694	4.	5.e-002	-8.9647e-006
17738	1.4694	3.7273	0.	-1626.3
17739	1.3776	3.8182	0.	-1660.1
17740	1.4694	3.8182	5.e-002	-9.8106e-006
17741	1.4694	3.5455	0.	-1667.5
17742	1.3776	3.6364	0.	-1706.7
17743	1.4694	3.6364	5.e-002	-4.2294e-006
17744	1.4694	3.3636	0.	-1696.1
17745	1.3776	3.4545	0.	-1740.4
17746	1.4694	3.4545	5.e-002	-6.917e-007
17747	1.4694	3.1818	0.	-1712.9
17748	1.3776	3.2727	0.	-1762.3
17749	1.4694	3.2727	5.e-002	-6.2137e-007
17750	1.4694	3.	0.	-1718.4
17751	1.3776	3.0909	0.	-1773.1
17752	1.4694	3.0909	5.e-002	-2.0684e-007
17753	1.4694	2.8182	0.	-1712.9
17754	1.3776	2.9091	0.	-1773.1
17755	1.4694	2.9091	5.e-002	2.0684e-007
17756	1.4694	2.6364	0.	-1696.1
17757	1.3776	2.7273	0.	-1762.3
17758	1.4694	2.7273	5.e-002	6.2137e-007
17759	1.4694	2.4545	0.	-1667.5
17760	1.3776	2.5455	0.	-1740.4
17761	1.4694	2.5455	5.e-002	1.3834e-006
17762	1.4694	2.2727	0.	-1626.3
17763	1.3776	2.3636	0.	-1706.7
17764	1.4694	2.3636	5.e-002	7.1357e-006
17765	1.4694	2.0909	0.	-1571.5
17766	1.3776	2.1818	0.	-1660.1
17767	1.4694	2.1818	5.e-002	2.4802e-006
17768	1.4694	1.9091	0.	-1501.7
17769	1.3776	2.	0.	-1599.3
17770	1.4694	2.	5.e-002	-3.8154e-015
17771	1.4694	1.7273	0.	-1415.3
17772	1.3776	1.8182	0.	-1522.5
17773	1.4694	1.8182	5.e-002	3.4213e-006
17774	1.4694	1.5455	0.	-1310.8
17775	1.3776	1.6364	0.	-1427.7
17776	1.4694	1.6364	5.e-002	3.1192e-005
17777	1.4694	1.3636	0.	-1186.9
17778	1.3776	1.4545	0.	-1313.
17779	1.4694	1.4545	5.e-002	3.8128e-006
17780	1.4694	1.1818	0.	-1043.2
17781	1.3776	1.2727	0.	-1176.9
17782	1.4694	1.2727	5.e-002	8.6522e-005
17783	1.4694	1.	0.	-880.53
17784	1.3776	1.0909	0.	-1018.7
17785	1.4694	1.0909	5.e-002	3.45e-006
17786	1.4694	0.81818	0.	-701.53
17787	1.3776	0.90909	0.	-839.43
17788	1.4694	0.90909	5.e-002	2.1473e-004
17789	1.4694	0.63636	0.	-511.14
17790	1.3776	0.72727	0.	-642.84
17791	1.4694	0.72727	5.e-002	5.7727e-005
17792	1.4694	0.45455	0.	-315.61
17793	1.3776	0.54545	0.	-435.59
17794	1.4694	0.54545	5.e-002	1.8205e-004
17795	1.4694	0.27273	0.	-116.23
17796	1.3776	0.36364	0.	-225.62
17797	1.4694	0.36364	5.e-002	1.8074e-004
17798	1.3776	0.18182	0.	-23.047
17799	1.4694	0.18182	5.e-002	4.3125e-005
17800	1.4694	9.0909e-002	0.	-0.94945
17801	1.2857	5.7273	0.	-118.12
17802	1.1939	5.8182	0.	-19.017
17803	1.2857	5.8182	5.e-002	-7.7666e-005
17804	1.2857	5.9091	0.	-0.16314
17805	1.2857	5.5455	0.	-344.95
17806	1.1939	5.6364	0.	-244.21
17807	1.2857	5.6364	5.e-002	-4.241e-015
17808	1.2857	5.3636	0.	-566.97
17809	1.1939	5.4545	0.	-485.46
17810	1.2857	5.4545	5.e-002	-1.2195e-004
17811	1.2857	5.1818	0.	-780.67
17812	1.1939	5.2727	0.	-721.
17813	1.2857	5.2727	5.e-002	-5.9382e-005
17814	1.2857	5.	0.	-977.72
17815	1.1939	5.0909	0.	-939.57
17816	1.2857	5.0909	5.e-002	-1.1021e-004
17817	1.2857	4.8182	0.	-1152.7
17818	1.1939	4.9091	0.	-1133.4
17819	1.2857	4.9091	5.e-002	-4.8224e-005
17820	1.2857	4.6364	0.	-1303.4
17821	1.1939	4.7273	0.	-1299.7
17822	1.2857	4.7273	5.e-002	-3.9652e-005
17823	1.2857	4.4545	0.	-1430.4
17824	1.1939	4.5455	0.	-1439.
17825	1.2857	4.5455	5.e-002	-6.5262e-005
17826	1.2857	4.2727	0.	-1535.3
17827	1.1939	4.3636	0.	-1553.4
17828	1.2857	4.3636	5.e-002	-2.2575e-005
17829	1.2857	4.0909	0.	-1620.4
17830	1.1939	4.1818	0.	-1646.2
17831	1.2857	4.1818	5.e-002	-6.6547e-005
17832	1.2857	3.9091	0.	-1688.2
17833	1.1939	4.	0.	-1720.1
17834	1.2857	4.	5.e-002	-1.5511e-005
17835	1.2857	3.7273	0.	-1740.8
17836	1.1939	3.8182	0.	-1777.8
17837	1.2857	3.8182	5.e-002	-2.3661e-006
17838	1.2857	3.5455	0.	-1779.9
17839	1.1939	3.6364	0.	-1821.6
17840	1.2857	3.6364	5.e-002	-4.2197e-015
17841	1.2857	3.3636	0.	-1806.9
17842	1.1939	3.4545	0.	-1853.
17843	1.2857	3.4545	5.e-002	-3.1333e-006
17844	1.2857	3.1818	0.	-1822.8
17845	1.1939	3.2727	0.	-1873.4
17846	1.2857	3.2727	5.e-002	-7.7677e-007
17847	1.2857	3.	0.	-1828.
17848	1.1939	3.0909	0.	-1883.3
17849	1.2857	3.0909	5.e-002	-1.6132e-007
17850	1.2857	2.8182	0.	-1822.8
17851	1.1939	2.9091	0.	-1883.3
17852	1.2857	2.9091	5.e-002	1.6132e-007
17853	1.2857	2.6364	0.	-1806.9
17854	1.1939	2.7273	0.	-1873.4
17855	1.2857	2.7273	5.e-002	7.7676e-007
17856	1.2857	2.4545	0.	-1779.9
17857	1.1939	2.5455	0.	-1853.
17858	1.2857	2.5455	5.e-002	6.5084e-007
17859	1.2857	2.2727	0.	-1740.8
17860	1.1939	2.3636	0.	-1821.6
17861	1.2857	2.3636	5.e-002	4.6728e-006
17862	1.2857	2.0909	0.	-1688.2
17863	1.1939	2.1818	0.	-1777.8
17864	1.2857	2.1818	5.e-002	1.183e-006
17865	1.2857	1.9091	0.	-1620.4
17866	1.1939	2.	0.	-1720.1
17867	1.2857	2.	5.e-002	1.8392e-005
17868	1.2857	1.7273	0.	-1535.3
17869	1.1939	1.8182	0.	-1646.2
17870	1.2857	1.8182	5.e-002	1.1308e-005
17871	1.2857	1.5455	0.	-1430.4
17872	1.1939	1.6364	0.	-1553.4
17873	1.2857	1.6364	5.e-002	7.734e-005
17874	1.2857	1.3636	0.	-1303.4
17875	1.1939	1.4545	0.	-1439.
17876	1.2857	1.4545	5.e-002	1.1392e-005
17877	1.2857	1.1818	0.	-1152.7
17878	1.1939	1.2727	0.	-1299.7
17879	1.2857	1.2727	5.e-002	5.4211e-005
17880	1.2857	1.	0.	-977.72
17881	1.1939	1.0909	0.	-1133.4
17882	1.2857	1.0909	5.e-002	4.8224e-005
17883	1.2857	0.81818	0.	-780.67
17884	1.1939	0.90909	0.	-939.57
17885	1.2857	0.90909	5.e-002	1.1021e-004
17886	1.2857	0.63636	0.	-566.97
17887	1.1939	0.72727	0.	-721.
17888	1.2857	0.72727	5.e-002	1.2124e-004
17889	1.2857	0.45455	0.	-344.95
17890	1.1939	0.54545	0.	-485.46
17891	1.2857	0.54545	5.e-002	1.2195e-004
17892	1.2857	0.27273	0.	-118.12
17893	1.1939	0.36364	0.	-244.21
17894	1.2857	0.36364	5.e-002	6.1021e-005
17895	1.1939	0.18182	0.	-19.017
17896	1.2857	0.18182	5.e-002	7.7666e-005
17897	1.2857	9.0909e-002	0.	-0.16314
17898	1.102	5.7273	0.	-121.71
17899	1.0102	5.8182	0.	-15.929
17900	1.102	5.8182	5.e-002	-9.7812e-005
17901	1.102	5.9091	0.	2.2395e-003
17902	1.102	5.5455	0.	-383.97
17903	1.0102	5.6364	0.	-269.96
17904	1.102	5.6364	5.e-002	-1.1941e-004
17905	1.102	5.3636	0.	-639.24
17906	1.0102	5.4545	0.	-551.93
17907	1.102	5.4545	5.e-002	-1.8246e-004
17908	1.102	5.1818	0.	-880.02
17909	1.0102	5.2727	0.	-821.44
17910	1.102	5.2727	5.e-002	-1.2063e-004
17911	1.102	5.	0.	-1095.7
17912	1.0102	5.0909	0.	-1063.
17913	1.102	5.0909	5.e-002	-4.9451e-015
17914	1.102	4.8182	0.	-1281.
17915	1.0102	4.9091	0.	-1269.1
17916	1.102	4.9091	5.e-002	-9.4458e-006
17917	1.102	4.6364	0.	-1435.8
17918	1.0102	4.7273	0.	-1439.5
17919	1.102	4.7273	5.e-002	-7.6944e-005
17920	1.102	4.4545	0.	-1562.5
17921	1.0102	4.5455	0.	-1577.5
17922	1.102	4.5455	5.e-002	-6.1531e-005
17923	1.102	4.2727	0.	-1664.7
17924	1.0102	4.3636	0.	-1688.
17925	1.102	4.3636	5.e-002	-2.4196e-005
17926	1.102	4.0909	0.	-1746.1
17927	1.0102	4.1818	0.	-1775.6
17928	1.102	4.1818	5.e-002	-1.4072e-005
17929	1.102	3.9091	0.	-1810.
17930	1.0102	4.	0.	-1844.3
17931	1.102	4.	5.e-002	-2.5916e-005
17932	1.102	3.7273	0.	-1858.9
17933	1.0102	3.8182	0.	-1897.4
17934	1.102	3.8182	5.e-002	-5.6852e-006
17935	1.102	3.5455	0.	-1895.
17936	1.0102	3.6364	0.	-1937.2
17937	1.102	3.6364	5.e-002	-4.6206e-015
17938	1.102	3.3636	0.	-1919.7
17939	1.0102	3.4545	0.	-1965.6
17940	1.102	3.4545	5.e-002	-3.0108e-007
17941	1.102	3.1818	0.	-1934.2
17942	1.0102	3.2727	0.	-1983.9
17943	1.102	3.2727	5.e-002	-3.5821e-007
17944	1.102	3.	0.	-1938.9
17945	1.0102	3.0909	0.	-1992.9
17946	1.102	3.0909	5.e-002	1.517e-005
17947	1.102	2.8182	0.	-1934.2
17948	1.0102	2.9091	0.	-1992.9
17949	1.102	2.9091	5.e-002	1.1886e-007
17950	1.102	2.6364	0.	-1919.7
17951	1.0102	2.7273	0.	-1983.9
17952	1.102	2.7273	5.e-002	1.6567e-005
17953	1.102	2.4545	0.	-1895.
17954	1.0102	2.5455	0.	-1965.6
17955	1.102	2.5455	5.e-002	2.464e-006
17956	1.102	2.2727	0.	-1858.9
17957	1.0102	2.3636	0.	-1937.2
17958	1.102	2.3636	5.e-002	4.9232e-006
17959	1.102	2.0909	0.	-1810.
17960	1.0102	2.1818	0.	-1897.4
17961	1.102	2.1818	5.e-002	1.3588e-005
17962	1.102	1.9091	0.	-1746.1
17963	1.0102	2.	0.	-1844.3
17964	1.102	2.	5.e-002	2.2161e-005
17965	1.102	1.7273	0.	-1664.7
17966	1.0102	1.8182	0.	-1775.6
17967	1.102	1.8182	5.e-002	4.3099e-005
17968	1.102	1.5455	0.	-1562.5
17969	1.0102	1.6364	0.	-1688.
17970	1.102	1.6364	5.e-002	4.4785e-005
17971	1.102	1.3636	0.	-1435.8
17972	1.0102	1.4545	0.	-1577.5
17973	1.102	1.4545	5.e-002	5.7722e-005
17974	1.102	1.1818	0.	-1281.
17975	1.0102	1.2727	0.	-1439.5
17976	1.102	1.2727	5.e-002	1.3579e-004
17977	1.102	1.	0.	-1095.7
17978	1.0102	1.0909	0.	-1269.1
17979	1.102	1.0909	5.e-002	5.4382e-005
17980	1.102	0.81818	0.	-880.02
17981	1.0102	0.90909	0.	-1063.
17982	1.102	0.90909	5.e-002	1.7635e-004
17983	1.102	0.63636	0.	-639.24
17984	1.0102	0.72727	0.	-821.44
17985	1.102	0.72727	5.e-002	1.8259e-004
17986	1.102	0.45455	0.	-383.97
17987	1.0102	0.54545	0.	-551.93
17988	1.102	0.54545	5.e-002	1.8156e-004
17989	1.102	0.27273	0.	-121.71
17990	1.0102	0.36364	0.	-269.96
17991	1.102	0.36364	5.e-002	1.7911e-004
17992	1.0102	0.18182	0.	-15.929
17993	1.102	0.18182	5.e-002	1.3042e-004
17994	1.102	9.0909e-002	0.	2.2376e-003
17995	0.91837	5.7273	0.	-127.88
17996	0.82653	5.8182	0.	-16.429
17997	0.91837	5.8182	5.e-002	-8.5942e-005
17998	0.91837	5.9091	0.	1.0261
17999	0.91837	5.5455	0.	-437.13
18000	0.82653	5.6364	0.	-311.94
18001	0.91837	5.6364	5.e-002	-6.3011e-015
18002	0.91837	5.3636	0.	-734.11
18003	0.82653	5.4545	0.	-649.28
18004	0.91837	5.4545	5.e-002	-5.994e-005
18005	0.91837	5.1818	0.	-1004.9
18006	0.82653	5.2727	0.	-958.43
18007	0.91837	5.2727	5.e-002	-6.1833e-005
18008	0.91837	5.	0.	-1237.1
18009	0.82653	5.0909	0.	-1220.7
18010	0.91837	5.0909	5.e-002	-5.7173e-005
18011	0.91837	4.8182	0.	-1428.2
18012	0.82653	4.9091	0.	-1432.9
18013	0.91837	4.9091	5.e-002	-4.6639e-005
18014	0.91837	4.6364	0.	-1581.8
18015	0.82653	4.7273	0.	-1600.6
18016	0.91837	4.7273	5.e-002	-8.6631e-005
18017	0.91837	4.4545	0.	-1703.5
18018	0.82653	4.5455	0.	-1731.6
18019	0.91837	4.5455	5.e-002	-2.9635e-005
18020	0.91837	4.2727	0.	-1799.3
18021	0.82653	4.3636	0.	-1833.8
18022	0.91837	4.3636	5.e-002	-1.078e-005
18023	0.91837	4.0909	0.	-1874.1
18024	0.82653	4.1818	0.	-1913.2
18025	0.91837	4.1818	5.e-002	-2.7285e-005
18026	0.91837	3.9091	0.	-1932.
18027	0.82653	4.	0.	-1974.6
18028	0.91837	4.	5.e-002	-1.2692e-006
18029	0.91837	3.7273	0.	-1975.9
18030	0.82653	3.8182	0.	-2021.5
18031	0.91837	3.8182	5.e-002	-1.0208e-006
18032	0.91837	3.5455	0.	-2008.
18033	0.82653	3.6364	0.	-2056.5
18034	0.91837	3.6364	5.e-002	-2.6682e-006
18035	0.91837	3.3636	0.	-2030.
18036	0.82653	3.4545	0.	-2081.4
18037	0.91837	3.4545	5.e-002	-5.0478e-015
18038	0.91837	3.1818	0.	-2042.8
18039	0.82653	3.2727	0.	-2097.3
18040	0.91837	3.2727	5.e-002	-8.1413e-008
18041	0.91837	3.	0.	-2047.
18042	0.82653	3.0909	0.	-2105.1
18043	0.91837	3.0909	5.e-002	-5.397e-008
18044	0.91837	2.8182	0.	-2042.8
18045	0.82653	2.9091	0.	-2105.1
18046	0.91837	2.9091	5.e-002	1.5301e-005
18047	0.91837	2.6364	0.	-2030.
18048	0.82653	2.7273	0.	-2097.3
18049	0.91837	2.7273	5.e-002	8.1412e-008
18050	0.91837	2.4545	0.	-2008.
18051	0.82653	2.5455	0.	-2081.4
18052	0.91837	2.5455	5.e-002	1.29e-006
18053	0.91837	2.2727	0.	-1975.9
18054	0.82653	2.3636	0.	-2056.5
18055	0.91837	2.3636	5.e-002	1.4592e-005
18056	0.91837	2.0909	0.	-1932.
18057	0.82653	2.1818	0.	-2021.5
18058	0.91837	2.1818	5.e-002	2.0854e-005
18059	0.91837	1.9091	0.	-1874.1
18060	0.82653	2.	0.	-1974.6
18061	0.91837	2.	5.e-002	2.36e-005
18062	0.91837	1.7273	0.	-1799.3
18063	0.82653	1.8182	0.	-1913.2
18064	0.91837	1.8182	5.e-002	3.6514e-005
18065	0.91837	1.5455	0.	-1703.5
18066	0.82653	1.6364	0.	-1833.8
18067	0.91837	1.6364	5.e-002	6.4525e-005
18068	0.91837	1.3636	0.	-1581.8
18069	0.82653	1.4545	0.	-1731.6
18070	0.91837	1.4545	5.e-002	2.5865e-005
18071	0.91837	1.1818	0.	-1428.2
18072	0.82653	1.2727	0.	-1600.6
18073	0.91837	1.2727	5.e-002	1.074e-004
18074	0.91837	1.	0.	-1237.1
18075	0.82653	1.0909	0.	-1432.9
18076	0.91837	1.0909	5.e-002	1.0335e-004
18077	0.91837	0.81818	0.	-1004.9
18078	0.82653	0.90909	0.	-1220.7
18079	0.91837	0.90909	5.e-002	1.7743e-004
18080	0.91837	0.63636	0.	-734.11
18081	0.82653	0.72727	0.	-958.43
18082	0.91837	0.72727	5.e-002	6.0692e-005
18083	0.91837	0.45455	0.	-437.13
18084	0.82653	0.54545	0.	-649.28
18085	0.91837	0.54545	5.e-002	6.0214e-005
18086	0.91837	0.27273	0.	-127.88
18087	0.82653	0.36364	0.	-311.94
18088	0.91837	0.36364	5.e-002	-6.3011e-015
18089	0.82653	0.18182	0.	-16.429
18090	0.91837	0.18182	5.e-002	1.2891e-004
18091	0.91837	9.0909e-002	0.	1.0261
18092	0.73469	5.7273	0.	-146.13
18093	0.64286	5.8182	0.	-9.8975
18094	0.73469	5.8182	5.e-002	-5.6057e-005
18095	0.73469	5.9091	0.	-1.4295
18096	0.73469	5.5455	0.	-523.43
18097	0.64286	5.6364	0.	-376.18
18098	0.73469	5.6364	5.e-002	-5.3709e-005
18099	0.73469	5.3636	0.	-874.13
18100	0.64286	5.4545	0.	-785.09
18101	0.73469	5.4545	5.e-002	-1.1624e-004
18102	0.73469	5.1818	0.	-1175.3
18103	0.64286	5.2727	0.	-1131.9
18104	0.73469	5.2727	5.e-002	-1.816e-004
18105	0.73469	5.	0.	-1417.5
18106	0.64286	5.0909	0.	-1403.3
18107	0.73469	5.0909	5.e-002	-4.913e-006
18108	0.73469	4.8182	0.	-1606.
18109	0.64286	4.9091	0.	-1608.8
18110	0.73469	4.9091	5.e-002	-6.3418e-005
18111	0.73469	4.6364	0.	-1750.9
18112	0.64286	4.7273	0.	-1763.4
18113	0.73469	4.7273	5.e-002	-6.5618e-005
18114	0.73469	4.4545	0.	-1862.2
18115	0.64286	4.5455	0.	-1880.4
18116	0.73469	4.5455	5.e-002	-5.6423e-005
18117	0.73469	4.2727	0.	-1947.9
18118	0.64286	4.3636	0.	-1969.5
18119	0.73469	4.3636	5.e-002	-2.8943e-005
18120	0.73469	4.0909	0.	-2013.8
18121	0.64286	4.1818	0.	-2037.9
18122	0.73469	4.1818	5.e-002	-3.1958e-005
18123	0.73469	3.9091	0.	-2064.2
18124	0.64286	4.	0.	-2090.3
18125	0.73469	4.	5.e-002	-6.1054e-006
18126	0.73469	3.7273	0.	-2102.2
18127	0.64286	3.8182	0.	-2130.1
18128	0.73469	3.8182	5.e-002	-5.5828e-015
18129	0.73469	3.5455	0.	-2129.9
18130	0.64286	3.6364	0.	-2159.7
18131	0.73469	3.6364	5.e-002	-5.5542e-015
18132	0.73469	3.3636	0.	-2148.8
18133	0.64286	3.4545	0.	-2180.7
18134	0.73469	3.4545	5.e-002	-5.5315e-015
18135	0.73469	3.1818	0.	-2159.8
18136	0.64286	3.2727	0.	-2194.2
18137	0.73469	3.2727	5.e-002	2.1637e-007
18138	0.73469	3.	0.	-2163.4
18139	0.64286	3.0909	0.	-2200.8
18140	0.73469	3.0909	5.e-002	3.5832e-008
18141	0.73469	2.8182	0.	-2159.8
18142	0.64286	2.9091	0.	-2200.8
18143	0.73469	2.9091	5.e-002	-2.986e-008
18144	0.73469	2.6364	0.	-2148.8
18145	0.64286	2.7273	0.	-2194.2
18146	0.73469	2.7273	5.e-002	-5.5157e-015
18147	0.73469	2.4545	0.	-2129.9
18148	0.64286	2.5455	0.	-2180.7
18149	0.73469	2.5455	5.e-002	-5.5315e-015
18150	0.73469	2.2727	0.	-2102.2
18151	0.64286	2.3636	0.	-2159.7
18152	0.73469	2.3636	5.e-002	4.1856e-006
18153	0.73469	2.0909	0.	-2064.2
18154	0.64286	2.1818	0.	-2130.1
18155	0.73469	2.1818	5.e-002	-5.5828e-015
18156	0.73469	1.9091	0.	-2013.8
18157	0.64286	2.	0.	-2090.3
18158	0.73469	2.	5.e-002	1.4877e-005
18159	0.73469	1.7273	0.	-1947.9
18160	0.64286	1.8182	0.	-2037.9
18161	0.73469	1.8182	5.e-002	4.1563e-006
18162	0.73469	1.5455	0.	-1862.2
18163	0.64286	1.6364	0.	-1969.5
18164	0.73469	1.6364	5.e-002	2.4206e-005
18165	0.73469	1.3636	0.	-1750.9
18166	0.64286	1.4545	0.	-1880.4
18167	0.73469	1.4545	5.e-002	5.6423e-005
18168	0.73469	1.1818	0.	-1606.
18169	0.64286	1.2727	0.	-1763.4
18170	0.73469	1.2727	5.e-002	6.9433e-005
18171	0.73469	1.	0.	-1417.5
18172	0.64286	1.0909	0.	-1608.8
18173	0.73469	1.0909	5.e-002	4.7133e-005
18174	0.73469	0.81818	0.	-1175.3
18175	0.64286	0.90909	0.	-1403.3
18176	0.73469	0.90909	5.e-002	1.0773e-004
18177	0.73469	0.63636	0.	-874.13
18178	0.64286	0.72727	0.	-1131.9
18179	0.73469	0.72727	5.e-002	1.2244e-004
18180	0.73469	0.45455	0.	-523.43
18181	0.64286	0.54545	0.	-785.09
18182	0.73469	0.54545	5.e-002	1.1878e-004
18183	0.73469	0.27273	0.	-146.13
18184	0.64286	0.36364	0.	-376.18
18185	0.73469	0.36364	5.e-002	2.1065e-004
18186	0.64286	0.18182	0.	-9.8975
18187	0.73469	0.18182	5.e-002	2.2423e-004
18188	0.73469	9.0909e-002	0.	-1.4295
18189	0.55102	5.7273	0.	-169.62
18190	0.45918	5.8182	0.	-41.549
18191	0.55102	5.8182	5.e-002	-1.8034e-004
18192	0.55102	5.9091	0.	9.0355
18193	0.55102	5.5455	0.	-638.13
18194	0.45918	5.6364	0.	-537.34
18195	0.55102	5.6364	5.e-002	-5.0907e-005
18196	0.55102	5.3636	0.	-1044.6
18197	0.45918	5.4545	0.	-1041.
18198	0.55102	5.4545	5.e-002	-1.7208e-004
18199	0.55102	5.1818	0.	-1361.5
18200	0.45918	5.2727	0.	-1409.6
18201	0.55102	5.2727	5.e-002	-1.7832e-004
18202	0.55102	5.	0.	-1595.5
18203	0.45918	5.0909	0.	-1669.2
18204	0.55102	5.0909	5.e-002	-1.0459e-004
18205	0.55102	4.8182	0.	-1766.5
18206	0.45918	4.9091	0.	-1852.8
18207	0.55102	4.9091	5.e-002	-4.0097e-005
18208	0.55102	4.6364	0.	-1892.8
18209	0.45918	4.7273	0.	-1985.8
18210	0.55102	4.7273	5.e-002	-8.1083e-005
18211	0.55102	4.4545	0.	-1987.5
18212	0.45918	4.5455	0.	-2084.3
18213	0.55102	4.5455	5.e-002	-3.1513e-005
18214	0.55102	4.2727	0.	-2059.4
18215	0.45918	4.3636	0.	-2158.8
18216	0.55102	4.3636	5.e-002	-1.1439e-005
18217	0.55102	4.0909	0.	-2114.3
18218	0.45918	4.1818	0.	-2215.6
18219	0.55102	4.1818	5.e-002	-7.5321e-006
18220	0.55102	3.9091	0.	-2156.1
18221	0.45918	4.	0.	-2259.2
18222	0.55102	4.	5.e-002	-2.7073e-005
18223	0.55102	3.7273	0.	-2187.6
18224	0.45918	3.8182	0.	-2292.3
18225	0.55102	3.8182	5.e-002	-5.9783e-015
18226	0.55102	3.5455	0.	-2210.5
18227	0.45918	3.6364	0.	-2316.9
18228	0.55102	3.6364	5.e-002	-5.9067e-015
18229	0.55102	3.3636	0.	-2226.1
18230	0.45918	3.4545	0.	-2334.4
18231	0.55102	3.4545	5.e-002	5.4474e-007
18232	0.55102	3.1818	0.	-2235.2
18233	0.45918	3.2727	0.	-2345.6
18234	0.55102	3.2727	5.e-002	3.2272e-007
18235	0.55102	3.	0.	-2238.2
18236	0.45918	3.0909	0.	-2351.1
18237	0.55102	3.0909	5.e-002	1.0154e-007
18238	0.55102	2.8182	0.	-2235.2
18239	0.45918	2.9091	0.	-2351.1
18240	0.55102	2.9091	5.e-002	-9.6198e-008
18241	0.55102	2.6364	0.	-2226.1
18242	0.45918	2.7273	0.	-2345.6
18243	0.55102	2.7273	5.e-002	2.2687e-008
18244	0.55102	2.4545	0.	-2210.5
18245	0.45918	2.5455	0.	-2334.4
18246	0.55102	2.5455	5.e-002	1.9859e-006
18247	0.55102	2.2727	0.	-2187.6
18248	0.45918	2.3636	0.	-2316.9
18249	0.55102	2.3636	5.e-002	1.3554e-006
18250	0.55102	2.0909	0.	-2156.1
18251	0.45918	2.1818	0.	-2292.3
18252	0.55102	2.1818	5.e-002	-8.1879e-007
18253	0.55102	1.9091	0.	-2114.3
18254	0.45918	2.	0.	-2259.2
18255	0.55102	2.	5.e-002	1.5517e-005
18256	0.55102	1.7273	0.	-2059.4
18257	0.45918	1.8182	0.	-2215.6
18258	0.55102	1.8182	5.e-002	1.6319e-005
18259	0.55102	1.5455	0.	-1987.5
18260	0.45918	1.6364	0.	-2158.8
18261	0.55102	1.6364	5.e-002	1.5905e-005
18262	0.55102	1.3636	0.	-1892.8
18263	0.45918	1.4545	0.	-2084.3
18264	0.55102	1.4545	5.e-002	3.1513e-005
18265	0.55102	1.1818	0.	-1766.5
18266	0.45918	1.2727	0.	-1985.8
18267	0.55102	1.2727	5.e-002	5.7993e-005
18268	0.55102	1.	0.	-1595.5
18269	0.45918	1.0909	0.	-1852.8
18270	0.55102	1.0909	5.e-002	4.3841e-005
18271	0.55102	0.81818	0.	-1361.5
18272	0.45918	0.90909	0.	-1669.2
18273	0.55102	0.90909	5.e-002	1.1075e-004
18274	0.55102	0.63636	0.	-1044.6
18275	0.45918	0.72727	0.	-1409.6
18276	0.55102	0.72727	5.e-002	1.7911e-004
18277	0.55102	0.45455	0.	-638.13
18278	0.45918	0.54545	0.	-1041.
18279	0.55102	0.54545	5.e-002	5.3043e-005
18280	0.55102	0.27273	0.	-169.62
18281	0.45918	0.36364	0.	-537.34
18282	0.55102	0.36364	5.e-002	1.4983e-004
18283	0.45918	0.18182	0.	-41.549
18284	0.55102	0.18182	5.e-002	6.0142e-005
18285	0.55102	9.0909e-002	0.	9.0355
18286	0.36735	5.7273	0.	-307.05
18287	0.27551	5.8182	0.	-3.4287
18288	0.36735	5.8182	5.e-002	-1.3968e-004
18289	0.36735	5.9091	0.	-23.652
18290	0.36735	5.5455	0.	-943.11
18291	0.27551	5.6364	0.	-743.96
18292	0.36735	5.6364	5.e-002	-4.6471e-005
18293	0.36735	5.3636	0.	-1409.
18294	0.27551	5.4545	0.	-1245.1
18295	0.36735	5.4545	5.e-002	-1.8389e-004
18296	0.36735	5.1818	0.	-1718.2
18297	0.27551	5.2727	0.	-1555.4
18298	0.36735	5.2727	5.e-002	-2.3357e-006
18299	0.36735	5.	0.	-1926.2
18300	0.27551	5.0909	0.	-1756.1
18301	0.36735	5.0909	5.e-002	-5.866e-005
18302	0.36735	4.8182	0.	-2071.4
18303	0.27551	4.9091	0.	-1893.8
18304	0.36735	4.9091	5.e-002	-7.638e-005
18305	0.36735	4.6364	0.	-2176.6
18306	0.27551	4.7273	0.	-1993.
18307	0.36735	4.7273	5.e-002	-6.1035e-005
18308	0.36735	4.4545	0.	-2255.1
18309	0.27551	4.5455	0.	-2066.8
18310	0.36735	4.5455	5.e-002	-2.1551e-005
18311	0.36735	4.2727	0.	-2314.7
18312	0.27551	4.3636	0.	-2122.8
18313	0.36735	4.3636	5.e-002	-1.3078e-005
18314	0.36735	4.0909	0.	-2360.3
18315	0.27551	4.1818	0.	-2165.9
18316	0.36735	4.1818	5.e-002	-2.6643e-005
18317	0.36735	3.9091	0.	-2395.2
18318	0.27551	4.	0.	-2199.1
18319	0.36735	4.	5.e-002	1.6522e-006
18320	0.36735	3.7273	0.	-2421.5
18321	0.27551	3.8182	0.	-2224.5
18322	0.36735	3.8182	5.e-002	9.7909e-007
18323	0.36735	3.5455	0.	-2440.8
18324	0.27551	3.6364	0.	-2243.4
18325	0.36735	3.6364	5.e-002	9.8702e-007
18326	0.36735	3.3636	0.	-2453.9
18327	0.27551	3.4545	0.	-2256.9
18328	0.36735	3.4545	5.e-002	6.901e-007
18329	0.36735	3.1818	0.	-2461.6
18330	0.27551	3.2727	0.	-2265.6
18331	0.36735	3.2727	5.e-002	4.3369e-007
18332	0.36735	3.	0.	-2464.1
18333	0.27551	3.0909	0.	-2269.8
18334	0.36735	3.0909	5.e-002	1.4775e-007
18335	0.36735	2.8182	0.	-2461.6
18336	0.27551	2.9091	0.	-2269.8
18337	0.36735	2.9091	5.e-002	-1.4353e-007
18338	0.36735	2.6364	0.	-2453.9
18339	0.27551	2.7273	0.	-2265.6
18340	0.36735	2.7273	5.e-002	-2.0746e-007
18341	0.36735	2.4545	0.	-2440.8
18342	0.27551	2.5455	0.	-2256.9
18343	0.36735	2.5455	5.e-002	-6.901e-007
18344	0.36735	2.2727	0.	-2421.5
18345	0.27551	2.3636	0.	-2243.4
18346	0.36735	2.3636	5.e-002	1.4616e-006
18347	0.36735	2.0909	0.	-2395.2
18348	0.27551	2.1818	0.	-2224.5
18349	0.36735	2.1818	5.e-002	6.0709e-005
18350	0.36735	1.9091	0.	-2360.3
18351	0.27551	2.	0.	-2199.1
18352	0.36735	2.	5.e-002	5.6087e-006
18353	0.36735	1.7273	0.	-2314.7
18354	0.27551	1.8182	0.	-2165.9
18355	0.36735	1.8182	5.e-002	4.6983e-006
18356	0.36735	1.5455	0.	-2255.1
18357	0.27551	1.6364	0.	-2122.8
18358	0.36735	1.6364	5.e-002	2.2684e-005
18359	0.36735	1.3636	0.	-2176.6
18360	0.27551	1.4545	0.	-2066.8
18361	0.36735	1.4545	5.e-002	4.6681e-005
18362	0.36735	1.1818	0.	-2071.4
18363	0.27551	1.2727	0.	-1993.
18364	0.36735	1.2727	5.e-002	6.1587e-005
18365	0.36735	1.	0.	-1926.2
18366	0.27551	1.0909	0.	-1893.8
18367	0.36735	1.0909	5.e-002	5.9376e-005
18368	0.36735	0.81818	0.	-1718.2
18369	0.27551	0.90909	0.	-1756.1
18370	0.36735	0.90909	5.e-002	1.0272e-004
18371	0.36735	0.63636	0.	-1409.
18372	0.27551	0.72727	0.	-1555.4
18373	0.36735	0.72727	5.e-002	2.1776e-004
18374	0.36735	0.45455	0.	-943.11
18375	0.27551	0.54545	0.	-1245.1
18376	0.36735	0.54545	5.e-002	1.839e-004
18377	0.36735	0.27273	0.	-307.05
18378	0.27551	0.36364	0.	-743.96
18379	0.36735	0.36364	5.e-002	1.6281e-004
18380	0.27551	0.18182	0.	-3.4288
18381	0.36735	0.18182	5.e-002	1.4014e-004
18382	0.36735	9.0909e-002	0.	-23.652
18383	0.18367	5.7273	0.	-412.82
18384	0.18367	5.8182	5.e-002	-8.641e-005
18385	0.18367	5.9091	0.	88.386
18386	9.1837e-002	5.8182	0.	-571.88
18387	0.18367	5.5455	0.	-1045.5
18388	0.18367	5.6364	5.e-002	-1.1914e-004
18389	9.1837e-002	5.6364	0.	-1564.4
18390	0.18367	5.3636	0.	-1384.3
18391	0.18367	5.4545	5.e-002	-1.7178e-004
18392	9.1837e-002	5.4545	0.	-2040.6
18393	0.18367	5.1818	0.	-1586.5
18394	0.18367	5.2727	5.e-002	-5.9774e-005
18395	9.1837e-002	5.2727	0.	-2318.9
18396	0.18367	5.	0.	-1719.
18397	0.18367	5.0909	5.e-002	-4.0112e-005
18398	9.1837e-002	5.0909	0.	-2501.
18399	0.18367	4.8182	0.	-1812.5
18400	0.18367	4.9091	5.e-002	-2.3103e-005
18401	9.1837e-002	4.9091	0.	-2629.6
18402	0.18367	4.6364	0.	-1881.3
18403	0.18367	4.7273	5.e-002	-4.9809e-005
18404	9.1837e-002	4.7273	0.	-2724.3
18405	0.18367	4.4545	0.	-1933.4
18406	0.18367	4.5455	5.e-002	7.5065e-007
18407	9.1837e-002	4.5455	0.	-2795.9
18408	0.18367	4.2727	0.	-1973.4
18409	0.18367	4.3636	5.e-002	-3.3396e-005
18410	9.1837e-002	4.3636	0.	-2851.
18411	0.18367	4.0909	0.	-2004.3
18412	0.18367	4.1818	5.e-002	-9.2338e-006
18413	9.1837e-002	4.1818	0.	-2893.6
18414	0.18367	3.9091	0.	-2028.1
18415	0.18367	4.	5.e-002	-1.5892e-005
18416	9.1837e-002	4.	0.	-2926.7
18417	0.18367	3.7273	0.	-2046.2
18418	0.18367	3.8182	5.e-002	2.2908e-006
18419	9.1837e-002	3.8182	0.	-2952.1
18420	0.18367	3.5455	0.	-2059.5
18421	0.18367	3.6364	5.e-002	1.841e-006
18422	9.1837e-002	3.6364	0.	-2971.1
18423	0.18367	3.3636	0.	-2068.5
18424	0.18367	3.4545	5.e-002	1.3591e-006
18425	9.1837e-002	3.4545	0.	-2984.6
18426	0.18367	3.1818	0.	-2073.8
18427	0.18367	3.2727	5.e-002	8.7447e-007
18428	9.1837e-002	3.2727	0.	-2993.3
18429	0.18367	3.	0.	-2075.6
18430	0.18367	3.0909	5.e-002	2.7789e-007
18431	9.1837e-002	3.0909	0.	-2997.6
18432	0.18367	2.8182	0.	-2073.8
18433	0.18367	2.9091	5.e-002	-2.4371e-007
18434	9.1837e-002	2.9091	0.	-2997.6
18435	0.18367	2.6364	0.	-2068.5
18436	0.18367	2.7273	5.e-002	1.4412e-005
18437	9.1837e-002	2.7273	0.	-2993.3
18438	0.18367	2.4545	0.	-2059.5
18439	0.18367	2.5455	5.e-002	-1.1761e-006
18440	9.1837e-002	2.5455	0.	-2984.6
18441	0.18367	2.2727	0.	-2046.2
18442	0.18367	2.3636	5.e-002	2.8225e-005
18443	9.1837e-002	2.3636	0.	-2971.1
18444	0.18367	2.0909	0.	-2028.1
18445	0.18367	2.1818	5.e-002	3.2913e-006
18446	9.1837e-002	2.1818	0.	-2952.1
18447	0.18367	1.9091	0.	-2004.3
18448	0.18367	2.	5.e-002	2.1006e-006
18449	9.1837e-002	2.	0.	-2926.7
18450	0.18367	1.7273	0.	-1973.4
18451	0.18367	1.8182	5.e-002	4.7576e-006
18452	9.1837e-002	1.8182	0.	-2893.6
18453	0.18367	1.5455	0.	-1933.4
18454	0.18367	1.6364	5.e-002	4.7872e-005
18455	9.1837e-002	1.6364	0.	-2851.
18456	0.18367	1.3636	0.	-1881.3
18457	0.18367	1.4545	5.e-002	3.7115e-005
18458	9.1837e-002	1.4545	0.	-2795.9
18459	0.18367	1.1818	0.	-1812.5
18460	0.18367	1.2727	5.e-002	4.6852e-005
18461	9.1837e-002	1.2727	0.	-2724.3
18462	0.18367	1.	0.	-1719.
18463	0.18367	1.0909	5.e-002	6.7437e-005
18464	9.1837e-002	1.0909	0.	-2629.6
18465	0.18367	0.81818	0.	-1586.5
18466	0.18367	0.90909	5.e-002	8.4038e-005
18467	9.1837e-002	0.90909	0.	-2501.
18468	0.18367	0.63636	0.	-1384.3
18469	0.18367	0.72727	5.e-002	1.0868e-004
18470	9.1837e-002	0.72727	0.	-2318.9
18471	0.18367	0.45455	0.	-1045.5
18472	0.18367	0.54545	5.e-002	1.1908e-004
18473	9.1837e-002	0.54545	0.	-2040.6
18474	0.18367	0.27273	0.	-412.82
18475	0.18367	0.36364	5.e-002	1.7612e-004
18476	9.1837e-002	0.36364	0.	-1564.4
18477	0.18367	0.18182	5.e-002	1.1089e-004
18478	0.18367	9.0909e-002	0.	88.386
18479	9.1837e-002	0.18182	0.	-571.88
18480	18.349	0.27273	0.	-5.2658
18481	18.44	0.18182	0.	-5.4873
18482	18.349	0.18182	5.e-002	1.6676e-007
18483	18.349	9.0909e-002	0.	-4.0673
18484	18.258	0.18182	0.	-0.46541
18485	18.349	0.45455	0.	-3.147
18486	18.44	0.36364	0.	-3.5709
18487	18.349	0.36364	5.e-002	-1.2463e-006
18488	18.258	0.36364	0.	0.90524
18489	18.349	0.63636	0.	-2.6573
18490	18.44	0.54545	0.	-2.4442
18491	18.349	0.54545	5.e-002	1.9073e-006
18492	18.258	0.54545	0.	0.58627
18493	18.349	0.81818	0.	-2.5581
18494	18.44	0.72727	0.	-1.9676
18495	18.349	0.72727	5.e-002	1.3046e-006
18496	18.258	0.72727	0.	0.58753
18497	18.349	1.	0.	-2.9168
18498	18.44	0.90909	0.	-1.8856
18499	18.349	0.90909	5.e-002	-2.879e-006
18500	18.258	0.90909	0.	0.68629
18501	18.349	1.1818	0.	-3.1772
18502	18.44	1.0909	0.	-2.1822
18503	18.349	1.0909	5.e-002	3.7424e-006
18504	18.258	1.0909	0.	0.29036
18505	18.349	1.3636	0.	-5.7228
18506	18.44	1.2727	0.	-2.2208
18507	18.349	1.2727	5.e-002	1.5159e-005
18508	18.258	1.2727	0.	1.8057
18509	18.349	1.5455	0.	-3.7457
18510	18.44	1.4545	0.	-5.1722
18511	18.349	1.4545	5.e-002	4.1855e-005
18512	18.258	1.4545	0.	-4.4921
18513	18.349	1.7273	0.	-25.993
18514	18.44	1.6364	0.	-0.45051
18515	18.349	1.6364	5.e-002	9.9397e-005
18516	18.258	1.6364	0.	20.471
18517	18.349	1.9091	0.	-114.89
18518	18.44	1.8182	0.	-26.562
18519	18.349	1.8182	5.e-002	3.0725e-004
18520	18.258	1.8182	0.	-90.408
18521	18.349	2.0909	0.	-76.178
18522	18.44	2.	0.	-75.751
18523	18.349	2.	5.e-002	2.2486e-004
18524	18.258	2.	0.	-196.3
18525	18.349	2.2727	0.	-10.87
18526	18.44	2.1818	0.	-8.6427
18527	18.349	2.1818	5.e-002	7.0802e-005
18528	18.349	2.4545	0.	-2.5615
18529	18.44	2.3636	0.	-6.1071
18530	18.349	2.3636	5.e-002	4.5509e-005
18531	18.349	2.6364	0.	0.24163
18532	18.44	2.5455	0.	0.41294
18533	18.349	2.5455	5.e-002	3.8548e-005
18534	18.349	2.8182	0.	-0.49988
18535	18.44	2.7273	0.	-0.52633
18536	18.349	2.7273	5.e-002	1.7225e-005
18537	18.349	3.	0.	-4.4421e-002
18538	18.44	2.9091	0.	-1.3663e-002
18539	18.349	2.9091	5.e-002	1.0238e-005
18540	18.349	3.1818	0.	-0.49988
18541	18.44	3.0909	0.	-1.3662e-002
18542	18.349	3.0909	5.e-002	2.5554e-005
18543	18.349	3.3636	0.	0.24163
18544	18.44	3.2727	0.	-0.52633
18545	18.349	3.2727	5.e-002	2.5205e-005
18546	18.349	3.5455	0.	-2.5615
18547	18.44	3.4545	0.	0.41293
18548	18.349	3.4545	5.e-002	1.1869e-005
18549	18.349	3.7273	0.	-10.87
18550	18.44	3.6364	0.	-6.1071
18551	18.349	3.6364	5.e-002	-2.9518e-005
18552	18.349	3.9091	0.	-76.178
18553	18.44	3.8182	0.	-8.6426
18554	18.349	3.8182	5.e-002	-3.7548e-005
18555	18.349	4.0909	0.	-114.89
18556	18.44	4.	0.	-75.751
18557	18.349	4.	5.e-002	-1.2164e-004
18558	18.258	4.	0.	-196.3
18559	18.349	4.2727	0.	-25.993
18560	18.44	4.1818	0.	-26.562
18561	18.349	4.1818	5.e-002	-2.572e-004
18562	18.258	4.1818	0.	-90.408
18563	18.349	4.4545	0.	-3.7457
18564	18.44	4.3636	0.	-0.4505
18565	18.349	4.3636	5.e-002	-4.0885e-005
18566	18.258	4.3636	0.	20.471
18567	18.349	4.6364	0.	-5.7228
18568	18.44	4.5455	0.	-5.1722
18569	18.349	4.5455	5.e-002	-1.9003e-005
18570	18.258	4.5455	0.	-4.492
18571	18.349	4.8182	0.	-3.1772
18572	18.44	4.7273	0.	-2.2208
18573	18.349	4.7273	5.e-002	-1.3203e-005
18574	18.258	4.7273	0.	1.8057
18575	18.349	5.	0.	-2.9168
18576	18.44	4.9091	0.	-2.1822
18577	18.349	4.9091	5.e-002	6.7293e-006
18578	18.258	4.9091	0.	0.29036
18579	18.349	5.1818	0.	-2.5581
18580	18.44	5.0909	0.	-1.8856
18581	18.349	5.0909	5.e-002	3.7765e-006
18582	18.258	5.0909	0.	0.68628
18583	18.349	5.3636	0.	-2.6573
18584	18.44	5.2727	0.	-1.9676
18585	18.349	5.2727	5.e-002	5.7072e-006
18586	18.258	5.2727	0.	0.58753
18587	18.349	5.5455	0.	-3.147
18588	18.44	5.4545	0.	-2.4442
18589	18.349	5.4545	5.e-002	3.3932e-006
18590	18.258	5.4545	0.	0.58627
18591	18.349	5.7273	0.	-5.2658
18592	18.44	5.6364	0.	-3.5709
18593	18.349	5.6364	5.e-002	5.63e-006
18594	18.258	5.6364	0.	0.90524
18595	18.44	5.8182	0.	-5.4873
18596	18.349	5.8182	5.e-002	3.1923e-006
18597	18.349	5.9091	0.	-4.0673
18598	18.258	5.8182	0.	-0.4654
18599	18.531	0.27273	0.	-2.952
18600	18.622	0.18182	0.	-2.1452
18601	18.531	0.18182	5.e-002	3.8698e-006
18602	18.531	9.0909e-002	0.	-0.24787
18603	18.531	0.45455	0.	-2.0376
18604	18.622	0.36364	0.	-2.4322
18605	18.531	0.36364	5.e-002	1.2296e-006
18606	18.531	0.63636	0.	-1.3471
18607	18.622	0.54545	0.	-1.8778
18608	18.531	0.54545	5.e-002	5.2166e-006
18609	18.531	0.81818	0.	-1.0207
18610	18.622	0.72727	0.	-1.4294
18611	18.531	0.72727	5.e-002	1.0438e-005
18612	18.531	1.	0.	-0.91971
18613	18.622	0.90909	0.	-1.2812
18614	18.531	0.90909	5.e-002	1.0978e-005
18615	18.531	1.1818	0.	-1.0034
18616	18.622	1.0909	0.	-1.3172
18617	18.531	1.0909	5.e-002	2.5152e-005
18618	18.531	1.3636	0.	-1.431
18619	18.622	1.2727	0.	-1.5474
18620	18.531	1.2727	5.e-002	4.8418e-005
18621	18.531	1.5455	0.	-1.5778
18622	18.622	1.4545	0.	-2.0817
18623	18.531	1.4545	5.e-002	8.295e-005
18624	18.531	1.7273	0.	-0.51151
18625	18.622	1.6364	0.	-3.2021
18626	18.531	1.6364	5.e-002	1.225e-004
18627	18.531	1.9091	0.	12.888
18628	18.622	1.8182	0.	-3.1054
18629	18.531	1.8182	5.e-002	1.5007e-004
18630	18.531	2.0909	0.	18.344
18631	18.622	2.	0.	6.7373
18632	18.531	2.	5.e-002	3.0497e-005
18633	18.531	2.2727	0.	-0.30928
18634	18.622	2.1818	0.	-10.651
18635	18.531	2.1818	5.e-002	1.7017e-006
18636	18.531	2.4545	0.	-3.1536
18637	18.622	2.3636	0.	-6.3008
18638	18.531	2.3636	5.e-002	1.2922e-006
18639	18.531	2.6364	0.	-0.24073
18640	18.622	2.5455	0.	-1.0703
18641	18.531	2.5455	5.e-002	-6.6564e-006
18642	18.531	2.8182	0.	1.1412e-002
18643	18.622	2.7273	0.	-4.301e-002
18644	18.531	2.7273	5.e-002	-1.095e-005
18645	18.531	3.	0.	7.3651e-002
18646	18.622	2.9091	0.	0.20213
18647	18.531	2.9091	5.e-002	5.3368e-006
18648	18.531	3.1818	0.	1.1413e-002
18649	18.622	3.0909	0.	0.20213
18650	18.531	3.0909	5.e-002	2.712e-005
18651	18.531	3.3636	0.	-0.24073
18652	18.622	3.2727	0.	-4.3008e-002
18653	18.531	3.2727	5.e-002	3.9177e-005
18654	18.531	3.5455	0.	-3.1536
18655	18.622	3.4545	0.	-1.0703
18656	18.531	3.4545	5.e-002	3.8e-005
18657	18.531	3.7273	0.	-0.30926
18658	18.622	3.6364	0.	-6.3008
18659	18.531	3.6364	5.e-002	3.0428e-005
18660	18.531	3.9091	0.	18.344
18661	18.622	3.8182	0.	-10.651
18662	18.531	3.8182	5.e-002	1.7662e-005
18663	18.531	4.0909	0.	12.888
18664	18.622	4.	0.	6.7373
18665	18.531	4.	5.e-002	-1.8529e-005
18666	18.531	4.2727	0.	-0.5115
18667	18.622	4.1818	0.	-3.1054
18668	18.531	4.1818	5.e-002	-1.3517e-004
18669	18.531	4.4545	0.	-1.5778
18670	18.622	4.3636	0.	-3.2021
18671	18.531	4.3636	5.e-002	-8.5283e-005
18672	18.531	4.6364	0.	-1.431
18673	18.622	4.5455	0.	-2.0817
18674	18.531	4.5455	5.e-002	-5.8181e-005
18675	18.531	4.8182	0.	-1.0034
18676	18.622	4.7273	0.	-1.5474
18677	18.531	4.7273	5.e-002	-3.6974e-005
18678	18.531	5.	0.	-0.91971
18679	18.622	4.9091	0.	-1.3172
18680	18.531	4.9091	5.e-002	-1.2188e-005
18681	18.531	5.1818	0.	-1.0207
18682	18.622	5.0909	0.	-1.2812
18683	18.531	5.0909	5.e-002	-6.2729e-006
18684	18.531	5.3636	0.	-1.3471
18685	18.622	5.2727	0.	-1.4294
18686	18.531	5.2727	5.e-002	-4.6142e-006
18687	18.531	5.5455	0.	-2.0376
18688	18.622	5.4545	0.	-1.8778
18689	18.531	5.4545	5.e-002	5.477e-007
18690	18.531	5.7273	0.	-2.952
18691	18.622	5.6364	0.	-2.4322
18692	18.531	5.6364	5.e-002	3.2422e-006
18693	18.622	5.8182	0.	-2.1452
18694	18.531	5.8182	5.e-002	4.5191e-006
18695	18.531	5.9091	0.	-0.24787
18696	18.714	0.27273	0.	-1.8125
18697	18.805	0.18182	0.	-1.053
18698	18.714	0.18182	5.e-002	4.0068e-006
18699	18.714	9.0909e-002	0.	-9.1895e-002
18700	18.714	0.45455	0.	-1.9472
18701	18.805	0.36364	0.	-1.527
18702	18.714	0.36364	5.e-002	8.2261e-006
18703	18.714	0.63636	0.	-1.749
18704	18.805	0.54545	0.	-1.6968
18705	18.714	0.54545	5.e-002	1.311e-005
18706	18.714	0.81818	0.	-1.6054
18707	18.805	0.72727	0.	-1.6302
18708	18.714	0.72727	5.e-002	1.9065e-005
18709	18.714	1.	0.	-1.6557
18710	18.805	0.90909	0.	-1.626
18711	18.714	0.90909	5.e-002	3.2396e-005
18712	18.714	1.1818	0.	-1.8859
18713	18.805	1.0909	0.	-1.7839
18714	18.714	1.0909	5.e-002	4.9236e-005
18715	18.714	1.3636	0.	-2.2679
18716	18.805	1.2727	0.	-2.1555
18717	18.714	1.2727	5.e-002	7.5832e-005
18718	18.714	1.5455	0.	-3.8555
18719	18.805	1.4545	0.	-2.8834
18720	18.714	1.4545	5.e-002	1.0624e-004
18721	18.714	1.7273	0.	-5.8138
18722	18.805	1.6364	0.	-5.7219
18723	18.714	1.6364	5.e-002	1.237e-004
18724	18.714	1.9091	0.	-16.307
18725	18.805	1.8182	0.	-22.951
18726	18.714	1.8182	5.e-002	1.0234e-004
18727	18.714	2.0909	0.	-45.959
18728	18.805	2.	0.	-63.331
18729	18.714	2.	5.e-002	2.3653e-005
18730	18.714	2.2727	0.	-43.319
18731	18.805	2.1818	0.	-77.45
18732	18.714	2.1818	5.e-002	-6.6373e-006
18733	18.714	2.4545	0.	-17.281
18734	18.805	2.3636	0.	-59.95
18735	18.714	2.3636	5.e-002	-1.8293e-005
18736	18.714	2.6364	0.	-1.8897
18737	18.805	2.5455	0.	-32.904
18738	18.714	2.5455	5.e-002	-2.0877e-005
18739	18.714	2.8182	0.	0.14699
18740	18.805	2.7273	0.	-11.943
18741	18.714	2.7273	5.e-002	-1.6593e-005
18742	18.714	3.	0.	0.41625
18743	18.805	2.9091	0.	-1.1106
18744	18.714	2.9091	5.e-002	2.9285e-006
18745	18.714	3.1818	0.	0.147
18746	18.805	3.0909	0.	-1.1106
18747	18.714	3.0909	5.e-002	2.5686e-005
18748	18.714	3.3636	0.	-1.8897
18749	18.805	3.2727	0.	-11.943
18750	18.714	3.2727	5.e-002	4.325e-005
18751	18.714	3.5455	0.	-17.281
18752	18.805	3.4545	0.	-32.904
18753	18.714	3.4545	5.e-002	4.6953e-005
18754	18.714	3.7273	0.	-43.319
18755	18.805	3.6364	0.	-59.95
18756	18.714	3.6364	5.e-002	4.1734e-005
18757	18.714	3.9091	0.	-45.959
18758	18.805	3.8182	0.	-77.45
18759	18.714	3.8182	5.e-002	1.136e-005
18760	18.714	4.0909	0.	-16.307
18761	18.805	4.	0.	-63.331
18762	18.714	4.	5.e-002	-1.2292e-005
18763	18.714	4.2727	0.	-5.8138
18764	18.805	4.1818	0.	-22.951
18765	18.714	4.1818	5.e-002	-5.865e-005
18766	18.714	4.4545	0.	-3.8555
18767	18.805	4.3636	0.	-5.7219
18768	18.714	4.3636	5.e-002	-8.9637e-005
18769	18.714	4.6364	0.	-2.2679
18770	18.805	4.5455	0.	-2.8834
18771	18.714	4.5455	5.e-002	-7.1064e-005
18772	18.714	4.8182	0.	-1.8858
18773	18.805	4.7273	0.	-2.1555
18774	18.714	4.7273	5.e-002	-3.6294e-005
18775	18.714	5.	0.	-1.6557
18776	18.805	4.9091	0.	-1.7839
18777	18.714	4.9091	5.e-002	-2.0546e-005
18778	18.714	5.1818	0.	-1.6054
18779	18.805	5.0909	0.	-1.626
18780	18.714	5.0909	5.e-002	-1.3019e-005
18781	18.714	5.3636	0.	-1.749
18782	18.805	5.2727	0.	-1.6302
18783	18.714	5.2727	5.e-002	-2.3567e-006
18784	18.714	5.5455	0.	-1.9472
18785	18.805	5.4545	0.	-1.6968
18786	18.714	5.4545	5.e-002	1.0796e-006
18787	18.714	5.7273	0.	-1.8125
18788	18.805	5.6364	0.	-1.527
18789	18.714	5.6364	5.e-002	4.2415e-006
18790	18.805	5.8182	0.	-1.0529
18791	18.714	5.8182	5.e-002	6.425e-006
18792	18.714	5.9091	0.	-9.1895e-002
18793	18.896	0.27273	0.	-0.88386
18794	18.987	0.18182	0.	-0.4783
18795	18.896	0.18182	5.e-002	6.5534e-006
18796	18.896	9.0909e-002	0.	7.5687e-002
18797	18.896	0.45455	0.	-1.256
18798	18.987	0.36364	0.	-0.84426
18799	18.896	0.36364	5.e-002	8.8654e-006
18800	18.896	0.63636	0.	-1.4788
18801	18.987	0.54545	0.	-1.2305
18802	18.896	0.54545	5.e-002	1.2867e-005
18803	18.896	0.81818	0.	-1.6066
18804	18.987	0.72727	0.	-1.5272
18805	18.896	0.72727	5.e-002	2.2652e-005
18806	18.896	1.	0.	-1.8004
18807	18.987	0.90909	0.	-1.8425
18808	18.896	0.90909	5.e-002	3.8515e-005
18809	18.896	1.1818	0.	-2.2297
18810	18.987	1.0909	0.	-2.3714
18811	18.896	1.0909	5.e-002	4.4248e-005
18812	18.896	1.3636	0.	-3.305
18813	18.987	1.2727	0.	-3.7096
18814	18.896	1.2727	5.e-002	7.7806e-005
18815	18.896	1.5455	0.	-7.485
18816	18.987	1.4545	0.	-9.5724
18817	18.896	1.4545	5.e-002	9.748e-005
18818	18.896	1.7273	0.	-31.98
18819	18.987	1.6364	0.	-33.352
18820	18.896	1.6364	5.e-002	1.0467e-004
18821	18.896	1.9091	0.	-69.704
18822	18.987	1.8182	0.	-69.904
18823	18.896	1.8182	5.e-002	5.6389e-005
18824	18.896	2.0909	0.	-94.537
18825	18.987	2.	0.	-101.36
18826	18.896	2.	5.e-002	3.8774e-005
18827	18.896	2.2727	0.	-96.739
18828	18.987	2.1818	0.	-114.56
18829	18.896	2.1818	5.e-002	-4.401e-006
18830	18.896	2.4545	0.	-81.838
18831	18.987	2.3636	0.	-108.7
18832	18.896	2.3636	5.e-002	-1.8518e-005
18833	18.896	2.6364	0.	-62.358
18834	18.987	2.5455	0.	-93.15
18835	18.896	2.5455	5.e-002	-2.0075e-005
18836	18.896	2.8182	0.	-47.983
18837	18.987	2.7273	0.	-78.302
18838	18.896	2.7273	5.e-002	-1.4735e-005
18839	18.896	3.	0.	-42.864
18840	18.987	2.9091	0.	-69.877
18841	18.896	2.9091	5.e-002	4.6099e-007
18842	18.896	3.1818	0.	-47.983
18843	18.987	3.0909	0.	-69.877
18844	18.896	3.0909	5.e-002	1.911e-005
18845	18.896	3.3636	0.	-62.358
18846	18.987	3.2727	0.	-78.302
18847	18.896	3.2727	5.e-002	3.3723e-005
18848	18.896	3.5455	0.	-81.838
18849	18.987	3.4545	0.	-93.15
18850	18.896	3.4545	5.e-002	3.6599e-005
18851	18.896	3.7273	0.	-96.739
18852	18.987	3.6364	0.	-108.7
18853	18.896	3.6364	5.e-002	2.9116e-005
18854	18.896	3.9091	0.	-94.537
18855	18.987	3.8182	0.	-114.56
18856	18.896	3.8182	5.e-002	1.4163e-005
18857	18.896	4.0909	0.	-69.703
18858	18.987	4.	0.	-101.36
18859	18.896	4.	5.e-002	-7.86e-006
18860	18.896	4.2727	0.	-31.98
18861	18.987	4.1818	0.	-69.903
18862	18.896	4.1818	5.e-002	-5.4901e-005
18863	18.896	4.4545	0.	-7.485
18864	18.987	4.3636	0.	-33.352
18865	18.896	4.3636	5.e-002	-6.453e-005
18866	18.896	4.6364	0.	-3.3049
18867	18.987	4.5455	0.	-9.5723
18868	18.896	4.5455	5.e-002	-4.5406e-005
18869	18.896	4.8182	0.	-2.2297
18870	18.987	4.7273	0.	-3.7096
18871	18.896	4.7273	5.e-002	-4.9021e-005
18872	18.896	5.	0.	-1.8004
18873	18.987	4.9091	0.	-2.3714
18874	18.896	4.9091	5.e-002	-3.5101e-005
18875	18.896	5.1818	0.	-1.6066
18876	18.987	5.0909	0.	-1.8425
18877	18.896	5.0909	5.e-002	-1.9467e-005
18878	18.896	5.3636	0.	-1.4788
18879	18.987	5.2727	0.	-1.5272
18880	18.896	5.2727	5.e-002	-1.1198e-005
18881	18.896	5.5455	0.	-1.256
18882	18.987	5.4545	0.	-1.2305
18883	18.896	5.4545	5.e-002	-3.6226e-006
18884	18.896	5.7273	0.	-0.88386
18885	18.987	5.6364	0.	-0.84426
18886	18.896	5.6364	5.e-002	1.6559e-006
18887	18.987	5.8182	0.	-0.4783
18888	18.896	5.8182	5.e-002	3.5383e-006
18889	18.896	5.9091	0.	7.5687e-002
18890	19.078	0.27273	0.	-0.48686
18891	19.169	0.18182	0.	-0.23475
18892	19.078	0.18182	5.e-002	5.8601e-006
18893	19.078	9.0909e-002	0.	6.5373e-002
18894	19.078	0.45455	0.	-0.82758
18895	19.169	0.36364	0.	-0.51249
18896	19.078	0.36364	5.e-002	8.8414e-006
18897	19.078	0.63636	0.	-1.2359
18898	19.169	0.54545	0.	-0.87851
18899	19.078	0.54545	5.e-002	1.7871e-005
18900	19.078	0.81818	0.	-1.7411
18901	19.169	0.72727	0.	-1.4163
18902	19.078	0.72727	5.e-002	2.755e-005
18903	19.078	1.	0.	-2.5966
18904	19.169	0.90909	0.	-2.3934
18905	19.078	0.90909	5.e-002	4.1803e-005
18906	19.078	1.1818	0.	-4.9655
18907	19.169	1.0909	0.	-5.2017
18908	19.078	1.0909	5.e-002	5.2281e-005
18909	19.078	1.3636	0.	-14.764
18910	19.169	1.2727	0.	-15.206
18911	19.078	1.2727	5.e-002	7.0759e-005
18912	19.078	1.5455	0.	-38.057
18913	19.169	1.4545	0.	-35.685
18914	19.078	1.4545	5.e-002	7.6226e-005
18915	19.078	1.7273	0.	-69.316
18916	19.169	1.6364	0.	-63.904
18917	19.078	1.6364	5.e-002	7.061e-005
18918	19.078	1.9091	0.	-99.901
18919	19.169	1.8182	0.	-94.579
18920	19.078	1.8182	5.e-002	3.7817e-005
18921	19.078	2.0909	0.	-120.72
18922	19.169	2.	0.	-120.03
18923	19.078	2.	5.e-002	2.6015e-005
18924	19.078	2.2727	0.	-127.18
18925	19.169	2.1818	0.	-133.87
18926	19.078	2.1818	5.e-002	1.1306e-006
18927	19.078	2.4545	0.	-121.89
18928	19.169	2.3636	0.	-135.34
18929	19.078	2.3636	5.e-002	-7.0319e-006
18930	19.078	2.6364	0.	-111.66
18931	19.169	2.5455	0.	-129.07
18932	19.078	2.5455	5.e-002	-1.4181e-005
18933	19.078	2.8182	0.	-102.96
18934	19.169	2.7273	0.	-121.14
18935	19.078	2.7273	5.e-002	-9.6277e-006
18936	19.078	3.	0.	-99.663
18937	19.169	2.9091	0.	-116.11
18938	19.078	2.9091	5.e-002	1.2783e-006
18939	19.078	3.1818	0.	-102.96
18940	19.169	3.0909	0.	-116.11
18941	19.078	3.0909	5.e-002	1.3032e-005
18942	19.078	3.3636	0.	-111.66
18943	19.169	3.2727	0.	-121.14
18944	19.078	3.2727	5.e-002	2.2965e-005
18945	19.078	3.5455	0.	-121.89
18946	19.169	3.4545	0.	-129.07
18947	19.078	3.4545	5.e-002	2.4237e-005
18948	19.078	3.7273	0.	-127.18
18949	19.169	3.6364	0.	-135.34
18950	19.078	3.6364	5.e-002	1.7907e-005
18951	19.078	3.9091	0.	-120.72
18952	19.169	3.8182	0.	-133.87
18953	19.078	3.8182	5.e-002	1.4569e-006
18954	19.078	4.0909	0.	-99.901
18955	19.169	4.	0.	-120.03
18956	19.078	4.	5.e-002	-1.2095e-005
18957	19.078	4.2727	0.	-69.316
18958	19.169	4.1818	0.	-94.578
18959	19.078	4.1818	5.e-002	-3.0537e-005
18960	19.078	4.4545	0.	-38.057
18961	19.169	4.3636	0.	-63.904
18962	19.078	4.3636	5.e-002	-3.794e-005
18963	19.078	4.6364	0.	-14.764
18964	19.169	4.5455	0.	-35.685
18965	19.078	4.5455	5.e-002	-4.5746e-005
18966	19.078	4.8182	0.	-4.9654
18967	19.169	4.7273	0.	-15.206
18968	19.078	4.7273	5.e-002	-4.1537e-005
18969	19.078	5.	0.	-2.5966
18970	19.169	4.9091	0.	-5.2016
18971	19.078	4.9091	5.e-002	-3.4315e-005
18972	19.078	5.1818	0.	-1.7411
18973	19.169	5.0909	0.	-2.3933
18974	19.078	5.0909	5.e-002	-1.7356e-005
18975	19.078	5.3636	0.	-1.2359
18976	19.169	5.2727	0.	-1.4163
18977	19.078	5.2727	5.e-002	-1.2742e-005
18978	19.078	5.5455	0.	-0.82758
18979	19.169	5.4545	0.	-0.87851
18980	19.078	5.4545	5.e-002	-2.3233e-006
18981	19.078	5.7273	0.	-0.48685
18982	19.169	5.6364	0.	-0.51248
18983	19.078	5.6364	5.e-002	1.5335e-006
18984	19.169	5.8182	0.	-0.23474
18985	19.078	5.8182	5.e-002	3.8028e-006
18986	19.078	5.9091	0.	6.5373e-002
18987	19.26	0.27273	0.	-0.27867
18988	19.352	0.18182	0.	-0.11528
18989	19.26	0.18182	5.e-002	4.3467e-006
18990	19.26	9.0909e-002	0.	6.4937e-002
18991	19.26	0.45455	0.	-0.54741
18992	19.352	0.36364	0.	-0.33114
18993	19.26	0.36364	5.e-002	8.7922e-006
18994	19.26	0.63636	0.	-0.98843
18995	19.352	0.54545	0.	-0.62688
18996	19.26	0.54545	5.e-002	1.8808e-005
18997	19.26	0.81818	0.	-1.9319
18998	19.352	0.72727	0.	-1.2969
18999	19.26	0.72727	5.e-002	2.7168e-005
19000	19.26	1.	0.	-5.1437
19001	19.352	0.90909	0.	-3.6563
19002	19.26	0.90909	5.e-002	4.605e-005
19003	19.26	1.1818	0.	-15.959
19004	19.352	1.0909	0.	-12.949
19005	19.26	1.0909	5.e-002	5.1046e-005
19006	19.26	1.3636	0.	-34.932
19007	19.352	1.2727	0.	-29.873
19008	19.26	1.2727	5.e-002	6.4579e-005
19009	19.26	1.5455	0.	-59.833
19010	19.352	1.4545	0.	-52.32
19011	19.26	1.4545	5.e-002	6.6333e-005
19012	19.26	1.7273	0.	-87.641
19013	19.352	1.6364	0.	-78.468
19014	19.26	1.6364	5.e-002	4.356e-005
19015	19.26	1.9091	0.	-113.53
19016	19.352	1.8182	0.	-104.9
19017	19.26	1.8182	5.e-002	4.2405e-005
19018	19.26	2.0909	0.	-132.52
19019	19.352	2.	0.	-127.09
19020	19.26	2.	5.e-002	2.4521e-005
19021	19.26	2.2727	0.	-142.08
19022	19.352	2.1818	0.	-141.54
19023	19.26	2.1818	5.e-002	7.6398e-006
19024	19.26	2.4545	0.	-143.33
19025	19.352	2.3636	0.	-147.64
19026	19.26	2.3636	5.e-002	-2.4983e-006
19027	19.26	2.6364	0.	-139.96
19028	19.352	2.5455	0.	-147.61
19029	19.26	2.5455	5.e-002	-7.7429e-006
19030	19.26	2.8182	0.	-136.04
19031	19.352	2.7273	0.	-145.
19032	19.26	2.7273	5.e-002	-7.1119e-006
19033	19.26	3.	0.	-134.41
19034	19.352	2.9091	0.	-142.86
19035	19.26	2.9091	5.e-002	-6.0382e-007
19036	19.26	3.1818	0.	-136.04
19037	19.352	3.0909	0.	-142.86
19038	19.26	3.0909	5.e-002	7.2563e-006
19039	19.26	3.3636	0.	-139.96
19040	19.352	3.2727	0.	-145.
19041	19.26	3.2727	5.e-002	1.4567e-005
19042	19.26	3.5455	0.	-143.33
19043	19.352	3.4545	0.	-147.61
19044	19.26	3.4545	5.e-002	1.6654e-005
19045	19.26	3.7273	0.	-142.08
19046	19.352	3.6364	0.	-147.64
19047	19.26	3.6364	5.e-002	1.0065e-005
19048	19.26	3.9091	0.	-132.52
19049	19.352	3.8182	0.	-141.54
19050	19.26	3.8182	5.e-002	1.7836e-006
19051	19.26	4.0909	0.	-113.53
19052	19.352	4.	0.	-127.09
19053	19.26	4.	5.e-002	-1.8778e-005
19054	19.26	4.2727	0.	-87.641
19055	19.352	4.1818	0.	-104.9
19056	19.26	4.1818	5.e-002	-2.5451e-005
19057	19.26	4.4545	0.	-59.832
19058	19.352	4.3636	0.	-78.468
19059	19.26	4.3636	5.e-002	-2.8504e-005
19060	19.26	4.6364	0.	-34.932
19061	19.352	4.5455	0.	-52.319
19062	19.26	4.5455	5.e-002	-3.5385e-005
19063	19.26	4.8182	0.	-15.959
19064	19.352	4.7273	0.	-29.873
19065	19.26	4.7273	5.e-002	-4.0213e-005
19066	19.26	5.	0.	-5.1436
19067	19.352	4.9091	0.	-12.949
19068	19.26	4.9091	5.e-002	-3.648e-005
19069	19.26	5.1818	0.	-1.9319
19070	19.352	5.0909	0.	-3.6562
19071	19.26	5.0909	5.e-002	-3.3474e-005
19072	19.26	5.3636	0.	-0.98843
19073	19.352	5.2727	0.	-1.2969
19074	19.26	5.2727	5.e-002	-1.2537e-005
19075	19.26	5.5455	0.	-0.54741
19076	19.352	5.4545	0.	-0.62688
19077	19.26	5.4545	5.e-002	-6.8841e-006
19078	19.26	5.7273	0.	-0.27867
19079	19.352	5.6364	0.	-0.33114
19080	19.26	5.6364	5.e-002	3.0159e-006
19081	19.352	5.8182	0.	-0.11528
19082	19.26	5.8182	5.e-002	5.0726e-006
19083	19.26	5.9091	0.	6.4938e-002
19084	19.443	0.27273	0.	-0.17357
19085	19.534	0.18182	0.	-5.9592e-002
19086	19.443	0.18182	5.e-002	3.8624e-006
19087	19.443	9.0909e-002	0.	5.8084e-002
19088	19.443	0.45455	0.	-0.37879
19089	19.534	0.36364	0.	-0.22762
19090	19.443	0.36364	5.e-002	1.2113e-005
19091	19.443	0.63636	0.	-0.79654
19092	19.534	0.54545	0.	-0.45834
19093	19.443	0.54545	5.e-002	2.0677e-005
19094	19.443	0.81818	0.	-2.3115
19095	19.534	0.72727	0.	-1.2125
19096	19.443	0.72727	5.e-002	3.2296e-005
19097	19.443	1.	0.	-10.114
19098	19.534	0.90909	0.	-5.9289
19099	19.443	0.90909	5.e-002	4.673e-005
19100	19.443	1.1818	0.	-25.709
19101	19.534	1.0909	0.	-19.396
19102	19.443	1.0909	5.e-002	4.2171e-005
19103	19.443	1.3636	0.	-46.085
19104	19.534	1.2727	0.	-37.795
19105	19.443	1.2727	5.e-002	5.056e-005
19106	19.443	1.5455	0.	-69.838
19107	19.534	1.4545	0.	-59.71
19108	19.443	1.4545	5.e-002	5.1161e-005
19109	19.443	1.7273	0.	-94.737
19110	19.534	1.6364	0.	-83.598
19111	19.443	1.6364	5.e-002	3.813e-005
19112	19.443	1.9091	0.	-117.66
19113	19.534	1.8182	0.	-107.02
19114	19.443	1.8182	5.e-002	2.6519e-005
19115	19.443	2.0909	0.	-135.61
19116	19.534	2.	0.	-127.15
19117	19.443	2.	5.e-002	1.4709e-005
19118	19.443	2.2727	0.	-146.99
19119	19.534	2.1818	0.	-141.85
19120	19.443	2.1818	5.e-002	8.2371e-006
19121	19.443	2.4545	0.	-152.26
19122	19.534	2.3636	0.	-150.58
19123	19.443	2.3636	5.e-002	-1.462e-006
19124	19.443	2.6364	0.	-153.41
19125	19.534	2.5455	0.	-154.41
19126	19.443	2.5455	5.e-002	-3.2946e-006
19127	19.443	2.8182	0.	-152.85
19128	19.534	2.7273	0.	-155.34
19129	19.443	2.7273	5.e-002	-7.6398e-006
19130	19.443	3.	0.	-152.45
19131	19.534	2.9091	0.	-155.25
19132	19.443	2.9091	5.e-002	-2.0703e-006
19133	19.443	3.1818	0.	-152.85
19134	19.534	3.0909	0.	-155.25
19135	19.443	3.0909	5.e-002	2.0406e-006
19136	19.443	3.3636	0.	-153.41
19137	19.534	3.2727	0.	-155.34
19138	19.443	3.2727	5.e-002	7.4634e-006
19139	19.443	3.5455	0.	-152.26
19140	19.534	3.4545	0.	-154.41
19141	19.443	3.4545	5.e-002	7.9581e-006
19142	19.443	3.7273	0.	-146.99
19143	19.534	3.6364	0.	-150.58
19144	19.443	3.6364	5.e-002	4.0629e-006
19145	19.443	3.9091	0.	-135.61
19146	19.534	3.8182	0.	-141.85
19147	19.443	3.8182	5.e-002	-1.7309e-006
19148	19.443	4.0909	0.	-117.66
19149	19.534	4.	0.	-127.15
19150	19.443	4.	5.e-002	-1.7071e-005
19151	19.443	4.2727	0.	-94.737
19152	19.534	4.1818	0.	-107.02
19153	19.443	4.1818	5.e-002	-2.3402e-005
19154	19.443	4.4545	0.	-69.838
19155	19.534	4.3636	0.	-83.598
19156	19.443	4.3636	5.e-002	-2.9463e-005
19157	19.443	4.6364	0.	-46.085
19158	19.534	4.5455	0.	-59.71
19159	19.443	4.5455	5.e-002	-3.4333e-005
19160	19.443	4.8182	0.	-25.709
19161	19.534	4.7273	0.	-37.795
19162	19.443	4.7273	5.e-002	-2.5027e-005
19163	19.443	5.	0.	-10.113
19164	19.534	4.9091	0.	-19.396
19165	19.443	4.9091	5.e-002	-4.0644e-005
19166	19.443	5.1818	0.	-2.3114
19167	19.534	5.0909	0.	-5.9288
19168	19.443	5.0909	5.e-002	-2.8751e-005
19169	19.443	5.3636	0.	-0.79654
19170	19.534	5.2727	0.	-1.2125
19171	19.443	5.2727	5.e-002	-2.5297e-005
19172	19.443	5.5455	0.	-0.37879
19173	19.534	5.4545	0.	-0.45834
19174	19.443	5.4545	5.e-002	-1.1184e-005
19175	19.443	5.7273	0.	-0.17357
19176	19.534	5.6364	0.	-0.22762
19177	19.443	5.6364	5.e-002	-3.0032e-006
19178	19.534	5.8182	0.	-5.9591e-002
19179	19.443	5.8182	5.e-002	3.1479e-006
19180	19.443	5.9091	0.	5.8085e-002
19181	19.625	0.27273	0.	-0.11405
19182	19.716	0.18182	0.	-3.26e-002
19183	19.625	0.18182	5.e-002	7.6631e-006
19184	19.625	9.0909e-002	0.	5.4729e-002
19185	19.625	0.45455	0.	-0.26907
19186	19.716	0.36364	0.	-0.16146
19187	19.625	0.36364	5.e-002	1.9267e-005
19188	19.625	0.63636	0.	-0.65191
19189	19.716	0.54545	0.	-0.34149
19190	19.625	0.54545	5.e-002	3.2384e-005
19191	19.625	0.81818	0.	-3.0048
19192	19.716	0.72727	0.	-1.1806
19193	19.625	0.72727	5.e-002	4.4254e-005
19194	19.625	1.	0.	-14.121
19195	19.716	0.90909	0.	-8.2184
19196	19.625	0.90909	5.e-002	4.114e-005
19197	19.625	1.1818	0.	-30.758
19198	19.716	1.0909	0.	-22.833
19199	19.625	1.0909	5.e-002	5.2878e-005
19200	19.625	1.3636	0.	-50.712
19201	19.716	1.2727	0.	-40.975
19202	19.625	1.2727	5.e-002	4.6123e-005
19203	19.625	1.5455	0.	-72.792
19204	19.716	1.4545	0.	-61.566
19205	19.625	1.4545	5.e-002	3.976e-005
19206	19.625	1.7273	0.	-95.266
19207	19.716	1.6364	0.	-83.281
19208	19.625	1.6364	5.e-002	2.1386e-005
19209	19.625	1.9091	0.	-116.
19210	19.716	1.8182	0.	-104.34
19211	19.625	1.8182	5.e-002	1.966e-005
19212	19.625	2.0909	0.	-133.05
19213	19.716	2.	0.	-122.84
19214	19.625	2.	5.e-002	1.1885e-005
19215	19.625	2.2727	0.	-145.32
19216	19.716	2.1818	0.	-137.37
19217	19.625	2.1818	5.e-002	6.211e-006
19218	19.625	2.4545	0.	-152.88
19219	19.716	2.3636	0.	-147.42
19220	19.625	2.3636	5.e-002	4.6064e-006
19221	19.625	2.6364	0.	-156.75
19222	19.716	2.5455	0.	-153.44
19223	19.625	2.5455	5.e-002	1.7651e-006
19224	19.625	2.8182	0.	-158.33
19225	19.716	2.7273	0.	-156.5
19226	19.625	2.7273	5.e-002	-2.8144e-006
19227	19.625	3.	0.	-158.71
19228	19.716	2.9091	0.	-157.7
19229	19.625	2.9091	5.e-002	2.9861e-007
19230	19.625	3.1818	0.	-158.33
19231	19.716	3.0909	0.	-157.7
19232	19.625	3.0909	5.e-002	3.4427e-006
19233	19.625	3.3636	0.	-156.75
19234	19.716	3.2727	0.	-156.5
19235	19.625	3.2727	5.e-002	4.5804e-006
19236	19.625	3.5455	0.	-152.88
19237	19.716	3.4545	0.	-153.44
19238	19.625	3.4545	5.e-002	7.7037e-006
19239	19.625	3.7273	0.	-145.32
19240	19.716	3.6364	0.	-147.41
19241	19.625	3.6364	5.e-002	3.748e-007
19242	19.625	3.9091	0.	-133.05
19243	19.716	3.8182	0.	-137.37
19244	19.625	3.8182	5.e-002	-3.0141e-006
19245	19.625	4.0909	0.	-116.
19246	19.716	4.	0.	-122.84
19247	19.625	4.	5.e-002	-8.7518e-006
19248	19.625	4.2727	0.	-95.266
19249	19.716	4.1818	0.	-104.34
19250	19.625	4.1818	5.e-002	-1.7066e-005
19251	19.625	4.4545	0.	-72.792
19252	19.716	4.3636	0.	-83.28
19253	19.625	4.3636	5.e-002	-1.8584e-005
19254	19.625	4.6364	0.	-50.712
19255	19.716	4.5455	0.	-61.566
19256	19.625	4.5455	5.e-002	-2.214e-005
19257	19.625	4.8182	0.	-30.757
19258	19.716	4.7273	0.	-40.975
19259	19.625	4.7273	5.e-002	-2.4412e-005
19260	19.625	5.	0.	-14.121
19261	19.716	4.9091	0.	-22.832
19262	19.625	4.9091	5.e-002	-1.0958e-005
19263	19.625	5.1818	0.	-3.0048
19264	19.716	5.0909	0.	-8.2183
19265	19.625	5.0909	5.e-002	-1.6801e-005
19266	19.625	5.3636	0.	-0.65191
19267	19.716	5.2727	0.	-1.1806
19268	19.625	5.2727	5.e-002	-2.5618e-005
19269	19.625	5.5455	0.	-0.26907
19270	19.716	5.4545	0.	-0.34149
19271	19.625	5.4545	5.e-002	-1.6638e-005
19272	19.625	5.7273	0.	-0.11405
19273	19.716	5.6364	0.	-0.16146
19274	19.625	5.6364	5.e-002	-4.3978e-006
19275	19.716	5.8182	0.	-3.26e-002
19276	19.625	5.8182	5.e-002	4.8378e-006
19277	19.625	5.9091	0.	5.4728e-002
19278	19.807	0.27273	0.	-7.8214e-002
19279	19.898	0.18182	0.	-1.9415e-002
19280	19.807	0.18182	5.e-002	7.7035e-006
19281	19.807	9.0909e-002	0.	5.2561e-002
19282	19.807	0.45455	0.	-0.1942
19283	19.898	0.36364	0.	-0.11574
19284	19.807	0.36364	5.e-002	3.2382e-005
19285	19.807	0.63636	0.	-0.54589
19286	19.898	0.54545	0.	-0.25734
19287	19.807	0.54545	5.e-002	4.4712e-005
19288	19.807	0.81818	0.	-3.9989
19289	19.898	0.72727	0.	-1.2188
19290	19.807	0.72727	5.e-002	2.9995e-005
19291	19.807	1.	0.	-16.36
19292	19.898	0.90909	0.	-9.7707
19293	19.807	0.90909	5.e-002	4.5115e-005
19294	19.807	1.1818	0.	-32.636
19295	19.898	1.0909	0.	-24.141
19296	19.807	1.0909	5.e-002	4.2016e-005
19297	19.807	1.3636	0.	-51.42
19298	19.898	1.2727	0.	-41.258
19299	19.807	1.2727	5.e-002	3.0597e-005
19300	19.807	1.5455	0.	-71.656
19301	19.898	1.4545	0.	-60.195
19302	19.807	1.4545	5.e-002	3.4313e-005
19303	19.807	1.7273	0.	-91.982
19304	19.898	1.6364	0.	-79.836
19305	19.807	1.6364	5.e-002	2.125e-005
19306	19.807	1.9091	0.	-110.86
19307	19.898	1.8182	0.	-98.836
19308	19.807	1.8182	5.e-002	2.0502e-005
19309	19.807	2.0909	0.	-126.94
19310	19.898	2.	0.	-115.85
19311	19.807	2.	5.e-002	1.5727e-005
19312	19.807	2.2727	0.	-139.37
19313	19.898	2.1818	0.	-129.83
19314	19.807	2.1818	5.e-002	9.3244e-006
19315	19.807	2.4545	0.	-148.04
19316	19.898	2.3636	0.	-140.31
19317	19.807	2.3636	5.e-002	8.9165e-006
19318	19.807	2.6364	0.	-153.4
19319	19.898	2.5455	0.	-147.4
19320	19.807	2.5455	5.e-002	3.1176e-006
19321	19.807	2.8182	0.	-156.2
19322	19.898	2.7273	0.	-151.61
19323	19.807	2.7273	5.e-002	2.8223e-006
19324	19.807	3.	0.	-157.05
19325	19.898	2.9091	0.	-153.53
19326	19.807	2.9091	5.e-002	2.2405e-006
19327	19.807	3.1818	0.	-156.2
19328	19.898	3.0909	0.	-153.53
19329	19.807	3.0909	5.e-002	3.4256e-006
19330	19.807	3.3636	0.	-153.4
19331	19.898	3.2727	0.	-151.61
19332	19.807	3.2727	5.e-002	4.5611e-006
19333	19.807	3.5455	0.	-148.04
19334	19.898	3.4545	0.	-147.4
19335	19.807	3.4545	5.e-002	1.9852e-006
19336	19.807	3.7273	0.	-139.37
19337	19.898	3.6364	0.	-140.31
19338	19.807	3.6364	5.e-002	5.1587e-007
19339	19.807	3.9091	0.	-126.94
19340	19.898	3.8182	0.	-129.83
19341	19.807	3.8182	5.e-002	-1.6458e-006
19342	19.807	4.0909	0.	-110.86
19343	19.898	4.	0.	-115.85
19344	19.807	4.	5.e-002	-5.7863e-006
19345	19.807	4.2727	0.	-91.981
19346	19.898	4.1818	0.	-98.836
19347	19.807	4.1818	5.e-002	-1.0266e-005
19348	19.807	4.4545	0.	-71.656
19349	19.898	4.3636	0.	-79.836
19350	19.807	4.3636	5.e-002	-8.3772e-006
19351	19.807	4.6364	0.	-51.42
19352	19.898	4.5455	0.	-60.195
19353	19.807	4.5455	5.e-002	-9.0767e-006
19354	19.807	4.8182	0.	-32.636
19355	19.898	4.7273	0.	-41.258
19356	19.807	4.7273	5.e-002	-1.2597e-005
19357	19.807	5.	0.	-16.36
19358	19.898	4.9091	0.	-24.141
19359	19.807	4.9091	5.e-002	-1.2415e-005
19360	19.807	5.1818	0.	-3.9988
19361	19.898	5.0909	0.	-9.7706
19362	19.807	5.0909	5.e-002	-1.1102e-005
19363	19.807	5.3636	0.	-0.54589
19364	19.898	5.2727	0.	-1.2188
19365	19.807	5.2727	5.e-002	-7.367e-006
19366	19.807	5.5455	0.	-0.1942
19367	19.898	5.4545	0.	-0.25733
19368	19.807	5.4545	5.e-002	-1.0927e-005
19369	19.807	5.7273	0.	-7.8214e-002
19370	19.898	5.6364	0.	-0.11574
19371	19.807	5.6364	5.e-002	-7.8896e-006
19372	19.898	5.8182	0.	-1.9416e-002
19373	19.807	5.8182	5.e-002	5.7367e-006
19374	19.807	5.9091	0.	5.2561e-002
19375	19.99	0.27273	0.	-5.4594e-002
19376	20.081	0.18182	0.	-1.2527e-002
19377	19.99	0.18182	5.e-002	4.001e-006
19378	19.99	9.0909e-002	0.	5.1047e-002
19379	19.99	0.45455	0.	-0.13979
19380	20.081	0.36364	0.	-8.195e-002
19381	19.99	0.36364	5.e-002	7.6201e-006
19382	19.99	0.63636	0.	-0.46633
19383	20.081	0.54545	0.	-0.19309
19384	19.99	0.54545	5.e-002	2.4313e-005
19385	19.99	0.81818	0.	-4.9686
19386	20.081	0.72727	0.	-1.3363
19387	19.99	0.72727	5.e-002	2.6904e-005
19388	19.99	1.	0.	-17.254
19389	20.081	0.90909	0.	-10.544
19390	19.99	0.90909	5.e-002	2.0024e-005
19391	19.99	1.1818	0.	-32.534
19392	20.081	1.0909	0.	-24.046
19393	19.99	1.0909	5.e-002	2.2871e-005
19394	19.99	1.3636	0.	-49.804
19395	20.081	1.2727	0.	-39.779
19396	19.99	1.2727	5.e-002	2.1693e-005
19397	19.99	1.5455	0.	-68.148
19398	20.081	1.4545	0.	-56.938
19399	19.99	1.4545	5.e-002	2.0251e-005
19400	19.99	1.7273	0.	-86.477
19401	20.081	1.6364	0.	-74.591
19402	19.99	1.6364	5.e-002	1.919e-005
19403	19.99	1.9091	0.	-103.64
19404	20.081	1.8182	0.	-91.693
19405	19.99	1.8182	5.e-002	9.8924e-006
19406	19.99	2.0909	0.	-118.61
19407	20.081	2.	0.	-107.23
19408	19.99	2.	5.e-002	1.1584e-005
19409	19.99	2.2727	0.	-130.71
19410	20.081	2.1818	0.	-120.39
19411	19.99	2.1818	5.e-002	7.4634e-006
19412	19.99	2.4545	0.	-139.7
19413	20.081	2.3636	0.	-130.72
19414	19.99	2.3636	5.e-002	8.3409e-006
19415	19.99	2.6364	0.	-145.73
19416	20.081	2.5455	0.	-138.15
19417	19.99	2.5455	5.e-002	3.1389e-006
19418	19.99	2.8182	0.	-149.12
19419	20.081	2.7273	0.	-142.85
19420	19.99	2.7273	5.e-002	8.6281e-008
19421	19.99	3.	0.	-150.21
19422	20.081	2.9091	0.	-145.11
19423	19.99	2.9091	5.e-002	3.8771e-006
19424	19.99	3.1818	0.	-149.12
19425	20.081	3.0909	0.	-145.11
19426	19.99	3.0909	5.e-002	-2.0309e-006
19427	19.99	3.3636	0.	-145.73
19428	20.081	3.2727	0.	-142.85
19429	19.99	3.2727	5.e-002	-1.8953e-007
19430	19.99	3.5455	0.	-139.7
19431	20.081	3.4545	0.	-138.15
19432	19.99	3.4545	5.e-002	1.6563e-006
19433	19.99	3.7273	0.	-130.71
19434	20.081	3.6364	0.	-130.72
19435	19.99	3.6364	5.e-002	-4.8617e-007
19436	19.99	3.9091	0.	-118.6
19437	20.081	3.8182	0.	-120.39
19438	19.99	3.8182	5.e-002	-3.9304e-006
19439	19.99	4.0909	0.	-103.64
19440	20.081	4.	0.	-107.23
19441	19.99	4.	5.e-002	-4.9066e-006
19442	19.99	4.2727	0.	-86.477
19443	20.081	4.1818	0.	-91.693
19444	19.99	4.1818	5.e-002	-1.0889e-005
19445	19.99	4.4545	0.	-68.148
19446	20.081	4.3636	0.	-74.591
19447	19.99	4.3636	5.e-002	-5.3641e-006
19448	19.99	4.6364	0.	-49.804
19449	20.081	4.5455	0.	-56.937
19450	19.99	4.5455	5.e-002	-1.1617e-005
19451	19.99	4.8182	0.	-32.534
19452	20.081	4.7273	0.	-39.778
19453	19.99	4.7273	5.e-002	-1.0638e-005
19454	19.99	5.	0.	-17.254
19455	20.081	4.9091	0.	-24.046
19456	19.99	4.9091	5.e-002	-8.6081e-006
19457	19.99	5.1818	0.	-4.9685
19458	20.081	5.0909	0.	-10.544
19459	19.99	5.0909	5.e-002	-1.6559e-005
19460	19.99	5.3636	0.	-0.46632
19461	20.081	5.2727	0.	-1.3362
19462	19.99	5.2727	5.e-002	-1.4383e-005
19463	19.99	5.5455	0.	-0.13978
19464	20.081	5.4545	0.	-0.19309
19465	19.99	5.4545	5.e-002	-1.7125e-005
19466	19.99	5.7273	0.	-5.4594e-002
19467	20.081	5.6364	0.	-8.1949e-002
19468	19.99	5.6364	5.e-002	6.6198e-009
19469	20.081	5.8182	0.	-1.2528e-002
19470	19.99	5.8182	5.e-002	3.8648e-006
19471	19.99	5.9091	0.	5.1046e-002
19472	20.172	0.27273	0.	-3.7946e-002
19473	20.263	0.18182	0.	-8.5361e-003
19474	20.172	0.18182	5.e-002	8.2069e-006
19475	20.172	9.0909e-002	0.	4.9213e-002
19476	20.172	0.45455	0.	-9.8149e-002
19477	20.263	0.36364	0.	-5.5962e-002
19478	20.172	0.36364	5.e-002	1.5417e-005
19479	20.172	0.63636	0.	-0.40103
19480	20.263	0.54545	0.	-0.14066
19481	20.172	0.54545	5.e-002	1.1618e-005
19482	20.172	0.81818	0.	-5.6097
19483	20.263	0.72727	0.	-1.4947
19484	20.172	0.72727	5.e-002	1.3678e-005
19485	20.172	1.	0.	-17.181
19486	20.263	0.90909	0.	-10.643
19487	20.172	0.90909	5.e-002	2.5464e-005
19488	20.172	1.1818	0.	-31.17
19489	20.263	1.0909	0.	-22.992
19490	20.172	1.0909	5.e-002	2.2379e-005
19491	20.172	1.3636	0.	-46.79
19492	20.263	1.2727	0.	-37.194
19493	20.172	1.2727	5.e-002	1.9041e-005
19494	20.172	1.5455	0.	-63.258
19495	20.263	1.4545	0.	-52.558
19496	20.172	1.4545	5.e-002	1.5499e-005
19497	20.172	1.7273	0.	-79.69
19498	20.263	1.6364	0.	-68.309
19499	20.172	1.6364	5.e-002	1.2154e-005
19500	20.172	1.9091	0.	-95.184
19501	20.263	1.8182	0.	-83.611
19502	20.172	1.8182	5.e-002	1.4759e-005
19503	20.172	2.0909	0.	-108.94
19504	20.263	2.	0.	-97.665
19505	20.172	2.	5.e-002	1.4482e-005
19506	20.172	2.2727	0.	-120.37
19507	20.263	2.1818	0.	-109.82
19508	20.172	2.1818	5.e-002	1.1401e-005
19509	20.172	2.4545	0.	-129.18
19510	20.263	2.3636	0.	-119.63
19511	20.172	2.3636	5.e-002	8.222e-006
19512	20.172	2.6364	0.	-135.34
19513	20.263	2.5455	0.	-126.93
19514	20.172	2.5455	5.e-002	8.5841e-006
19515	20.172	2.8182	0.	-138.93
19516	20.263	2.7273	0.	-131.71
19517	20.172	2.7273	5.e-002	6.4347e-006
19518	20.172	3.	0.	-140.11
19519	20.263	2.9091	0.	-134.06
19520	20.172	2.9091	5.e-002	7.3045e-006
19521	20.172	3.1818	0.	-138.93
19522	20.263	3.0909	0.	-134.06
19523	20.172	3.0909	5.e-002	4.1243e-006
19524	20.172	3.3636	0.	-135.34
19525	20.263	3.2727	0.	-131.71
19526	20.172	3.2727	5.e-002	2.9328e-006
19527	20.172	3.5455	0.	-129.18
19528	20.263	3.4545	0.	-126.93
19529	20.172	3.4545	5.e-002	4.1834e-006
19530	20.172	3.7273	0.	-120.37
19531	20.263	3.6364	0.	-119.63
19532	20.172	3.6364	5.e-002	2.3787e-006
19533	20.172	3.9091	0.	-108.94
19534	20.263	3.8182	0.	-109.82
19535	20.172	3.8182	5.e-002	3.9132e-007
19536	20.172	4.0909	0.	-95.184
19537	20.263	4.	0.	-97.665
19538	20.172	4.	5.e-002	-3.3467e-006
19539	20.172	4.2727	0.	-79.69
19540	20.263	4.1818	0.	-83.611
19541	20.172	4.1818	5.e-002	-4.5884e-006
19542	20.172	4.4545	0.	-63.257
19543	20.263	4.3636	0.	-68.309
19544	20.172	4.3636	5.e-002	3.6331e-006
19545	20.172	4.6364	0.	-46.79
19546	20.263	4.5455	0.	-52.558
19547	20.172	4.5455	5.e-002	2.3218e-006
19548	20.172	4.8182	0.	-31.17
19549	20.263	4.7273	0.	-37.194
19550	20.172	4.7273	5.e-002	-1.8029e-008
19551	20.172	5.	0.	-17.181
19552	20.263	4.9091	0.	-22.992
19553	20.172	4.9091	5.e-002	4.0126e-007
19554	20.172	5.1818	0.	-5.6096
19555	20.263	5.0909	0.	-10.642
19556	20.172	5.0909	5.e-002	7.8923e-006
19557	20.172	5.3636	0.	-0.40103
19558	20.263	5.2727	0.	-1.4947
19559	20.172	5.2727	5.e-002	3.8553e-006
19560	20.172	5.5455	0.	-9.8147e-002
19561	20.263	5.4545	0.	-0.14065
19562	20.172	5.4545	5.e-002	6.365e-007
19563	20.172	5.7273	0.	-3.7946e-002
19564	20.263	5.6364	0.	-5.5961e-002
19565	20.172	5.6364	5.e-002	9.9926e-006
19566	20.263	5.8182	0.	-8.5354e-003
19567	20.172	5.8182	5.e-002	7.0137e-006
19568	20.172	5.9091	0.	4.9211e-002
19569	20.354	0.27273	0.	-2.5619e-002
19570	20.445	0.18182	0.	-5.8801e-003
19571	20.354	0.18182	5.e-002	7.4181e-006
19572	20.354	9.0909e-002	0.	4.658e-002
19573	20.354	0.45455	0.	-6.4943e-002
19574	20.445	0.36364	0.	-3.5673e-002
19575	20.354	0.36364	5.e-002	7.1002e-006
19576	20.354	0.63636	0.	-0.33513
19577	20.445	0.54545	0.	-9.5153e-002
19578	20.354	0.54545	5.e-002	1.1404e-005
19579	20.354	0.81818	0.	-5.7999
19580	20.445	0.72727	0.	-1.5623
19581	20.354	0.72727	5.e-002	1.0957e-005
19582	20.354	1.	0.	-16.378
19583	20.445	0.90909	0.	-10.155
19584	20.354	0.90909	5.e-002	1.1296e-005
19585	20.354	1.1818	0.	-28.959
19586	20.445	1.0909	0.	-21.239
19587	20.354	1.0909	5.e-002	1.3925e-005
19588	20.354	1.3636	0.	-42.903
19589	20.445	1.2727	0.	-33.878
19590	20.354	1.2727	5.e-002	7.5388e-006
19591	20.354	1.5455	0.	-57.548
19592	20.445	1.4545	0.	-47.488
19593	20.354	1.4545	5.e-002	1.1345e-005
19594	20.354	1.7273	0.	-72.17
19595	20.445	1.6364	0.	-61.424
19596	20.354	1.6364	5.e-002	8.9036e-006
19597	20.354	1.9091	0.	-86.04
19598	20.445	1.8182	0.	-75.007
19599	20.354	1.8182	5.e-002	7.4347e-006
19600	20.354	2.0909	0.	-98.506
19601	20.445	2.	0.	-87.589
19602	20.354	2.	5.e-002	8.2252e-006
19603	20.354	2.2727	0.	-109.06
19604	20.445	2.1818	0.	-98.617
19605	20.354	2.1818	5.e-002	7.9271e-006
19606	20.354	2.4545	0.	-117.38
19607	20.445	2.3636	0.	-107.69
19608	20.354	2.3636	5.e-002	6.7265e-006
19609	20.354	2.6364	0.	-123.33
19610	20.445	2.5455	0.	-114.58
19611	20.354	2.5455	5.e-002	3.9726e-006
19612	20.354	2.8182	0.	-126.88
19613	20.445	2.7273	0.	-119.17
19614	20.354	2.7273	5.e-002	1.1334e-006
19615	20.354	3.	0.	-128.06
19616	20.445	2.9091	0.	-121.47
19617	20.354	2.9091	5.e-002	3.0016e-006
19618	20.354	3.1818	0.	-126.88
19619	20.445	3.0909	0.	-121.47
19620	20.354	3.0909	5.e-002	-2.067e-006
19621	20.354	3.3636	0.	-123.33
19622	20.445	3.2727	0.	-119.17
19623	20.354	3.2727	5.e-002	1.5605e-006
19624	20.354	3.5455	0.	-117.38
19625	20.445	3.4545	0.	-114.58
19626	20.354	3.4545	5.e-002	9.9426e-007
19627	20.354	3.7273	0.	-109.06
19628	20.445	3.6364	0.	-107.69
19629	20.354	3.6364	5.e-002	1.4342e-006
19630	20.354	3.9091	0.	-98.506
19631	20.445	3.8182	0.	-98.617
19632	20.354	3.8182	5.e-002	-1.1822e-006
19633	20.354	4.0909	0.	-86.04
19634	20.445	4.	0.	-87.589
19635	20.354	4.	5.e-002	-6.1667e-007
19636	20.354	4.2727	0.	-72.17
19637	20.445	4.1818	0.	-75.007
19638	20.354	4.1818	5.e-002	-1.7184e-006
19639	20.354	4.4545	0.	-57.548
19640	20.445	4.3636	0.	-61.424
19641	20.354	4.3636	5.e-002	-3.0812e-006
19642	20.354	4.6364	0.	-42.903
19643	20.445	4.5455	0.	-47.488
19644	20.354	4.5455	5.e-002	-2.328e-006
19645	20.354	4.8182	0.	-28.959
19646	20.445	4.7273	0.	-33.878
19647	20.354	4.7273	5.e-002	-1.1732e-006
19648	20.354	5.	0.	-16.378
19649	20.445	4.9091	0.	-21.239
19650	20.354	4.9091	5.e-002	4.3193e-006
19651	20.354	5.1818	0.	-5.7998
19652	20.445	5.0909	0.	-10.155
19653	20.354	5.0909	5.e-002	9.3135e-007
19654	20.354	5.3636	0.	-0.33513
19655	20.445	5.2727	0.	-1.5622
19656	20.354	5.2727	5.e-002	4.4324e-006
19657	20.354	5.5455	0.	-6.4942e-002
19658	20.445	5.4545	0.	-9.5154e-002
19659	20.354	5.4545	5.e-002	2.3585e-006
19660	20.354	5.7273	0.	-2.5618e-002
19661	20.445	5.6364	0.	-3.5671e-002
19662	20.354	5.6364	5.e-002	8.2717e-006
19663	20.445	5.8182	0.	-5.8781e-003
19664	20.354	5.8182	5.e-002	5.2807e-006
19665	20.354	5.9091	0.	4.6581e-002
19666	20.536	0.27273	0.	-1.6339e-002
19667	20.628	0.18182	0.	-3.9354e-003
19668	20.536	0.18182	5.e-002	1.1813e-005
19669	20.536	9.0909e-002	0.	4.3015e-002
19670	20.536	0.45455	0.	-3.8082e-002
19671	20.628	0.36364	0.	-2.0137e-002
19672	20.536	0.36364	5.e-002	6.9587e-006
19673	20.536	0.63636	0.	-0.25277
19674	20.628	0.54545	0.	-5.5069e-002
19675	20.536	0.54545	5.e-002	9.7168e-006
19676	20.536	0.81818	0.	-5.5109
19677	20.628	0.72727	0.	-1.3817
19678	20.536	0.72727	5.e-002	6.6578e-006
19679	20.536	1.	0.	-14.985
19680	20.628	0.90909	0.	-9.1419
19681	20.536	0.90909	5.e-002	6.0314e-006
19682	20.536	1.1818	0.	-26.138
19683	20.628	1.0909	0.	-18.935
19684	20.536	1.0909	5.e-002	4.3384e-006
19685	20.536	1.3636	0.	-38.44
19686	20.628	1.2727	0.	-30.04
19687	20.536	1.2727	5.e-002	4.9886e-006
19688	20.536	1.5455	0.	-51.339
19689	20.628	1.4545	0.	-41.968
19690	20.536	1.4545	5.e-002	4.588e-006
19691	20.536	1.7273	0.	-64.235
19692	20.628	1.6364	0.	-54.184
19693	20.536	1.6364	5.e-002	7.3104e-006
19694	20.536	1.9091	0.	-76.532
19695	20.628	1.8182	0.	-66.129
19696	20.536	1.8182	5.e-002	7.3937e-006
19697	20.536	2.0909	0.	-87.683
19698	20.628	2.	0.	-77.266
19699	20.536	2.	5.e-002	6.6872e-006
19700	20.536	2.2727	0.	-97.242
19701	20.628	2.1818	0.	-87.125
19702	20.536	2.1818	5.e-002	6.2074e-006
19703	20.536	2.4545	0.	-104.89
19704	20.628	2.3636	0.	-95.338
19705	20.536	2.3636	5.e-002	4.0254e-006
19706	20.536	2.6364	0.	-110.44
19707	20.628	2.5455	0.	-101.65
19708	20.536	2.5455	5.e-002	3.7801e-006
19709	20.536	2.8182	0.	-113.79
19710	20.628	2.7273	0.	-105.91
19711	20.536	2.7273	5.e-002	2.4154e-006
19712	20.536	3.	0.	-114.91
19713	20.628	2.9091	0.	-108.06
19714	20.536	2.9091	5.e-002	3.4408e-006
19715	20.536	3.1818	0.	-113.79
19716	20.628	3.0909	0.	-108.06
19717	20.536	3.0909	5.e-002	2.2662e-006
19718	20.536	3.3636	0.	-110.44
19719	20.628	3.2727	0.	-105.91
19720	20.536	3.2727	5.e-002	1.2808e-006
19721	20.536	3.5455	0.	-104.89
19722	20.628	3.4545	0.	-101.65
19723	20.536	3.4545	5.e-002	-3.6266e-007
19724	20.536	3.7273	0.	-97.242
19725	20.628	3.6364	0.	-95.337
19726	20.536	3.6364	5.e-002	2.6934e-006
19727	20.536	3.9091	0.	-87.683
19728	20.628	3.8182	0.	-87.125
19729	20.536	3.8182	5.e-002	1.9211e-006
19730	20.536	4.0909	0.	-76.532
19731	20.628	4.	0.	-77.266
19732	20.536	4.	5.e-002	2.6228e-007
19733	20.536	4.2727	0.	-64.235
19734	20.628	4.1818	0.	-66.129
19735	20.536	4.1818	5.e-002	1.4189e-006
19736	20.536	4.4545	0.	-51.339
19737	20.628	4.3636	0.	-54.184
19738	20.536	4.3636	5.e-002	1.5837e-006
19739	20.536	4.6364	0.	-38.44
19740	20.628	4.5455	0.	-41.968
19741	20.536	4.5455	5.e-002	1.4815e-006
19742	20.536	4.8182	0.	-26.137
19743	20.628	4.7273	0.	-30.04
19744	20.536	4.7273	5.e-002	-1.5819e-007
19745	20.536	5.	0.	-14.985
19746	20.628	4.9091	0.	-18.934
19747	20.536	4.9091	5.e-002	2.5124e-006
19748	20.536	5.1818	0.	-5.5108
19749	20.628	5.0909	0.	-9.1419
19750	20.536	5.0909	5.e-002	6.9273e-006
19751	20.536	5.3636	0.	-0.25277
19752	20.628	5.2727	0.	-1.3817
19753	20.536	5.2727	5.e-002	5.4819e-006
19754	20.536	5.5455	0.	-3.8082e-002
19755	20.628	5.4545	0.	-5.5069e-002
19756	20.536	5.4545	5.e-002	4.7698e-006
19757	20.536	5.7273	0.	-1.6336e-002
19758	20.628	5.6364	0.	-2.0135e-002
19759	20.536	5.6364	5.e-002	9.3273e-006
19760	20.628	5.8182	0.	-3.9344e-003
19761	20.536	5.8182	5.e-002	3.7189e-006
19762	20.536	5.9091	0.	4.3017e-002
19763	20.719	0.27273	0.	-9.5528e-003
19764	20.81	0.18182	0.	-2.5196e-003
19765	20.719	0.18182	5.e-002	1.0236e-005
19766	20.719	9.0909e-002	0.	3.8664e-002
19767	20.719	0.45455	0.	-1.7082e-002
19768	20.81	0.36364	0.	-8.9911e-003
19769	20.719	0.36364	5.e-002	9.1542e-006
19770	20.719	0.63636	0.	-0.15207
19771	20.81	0.54545	0.	-2.2144e-002
19772	20.719	0.54545	5.e-002	4.6342e-006
19773	20.719	0.81818	0.	-4.7481
19774	20.81	0.72727	0.	-0.88713
19775	20.719	0.72727	5.e-002	2.3895e-006
19776	20.719	1.	0.	-13.087
19777	20.81	0.90909	0.	-7.6484
19778	20.719	0.90909	5.e-002	2.3617e-006
19779	20.719	1.1818	0.	-22.838
19780	20.81	1.0909	0.	-16.167
19781	20.719	1.0909	5.e-002	3.9357e-006
19782	20.719	1.3636	0.	-33.566
19783	20.81	1.2727	0.	-25.797
19784	20.719	1.2727	5.e-002	4.3019e-006
19785	20.719	1.5455	0.	-44.808
19786	20.81	1.4545	0.	-36.131
19787	20.719	1.4545	5.e-002	5.3195e-006
19788	20.719	1.7273	0.	-56.07
19789	20.81	1.6364	0.	-46.726
19790	20.719	1.6364	5.e-002	6.7563e-006
19791	20.719	1.9091	0.	-66.856
19792	20.81	1.8182	0.	-57.119
19793	20.719	1.8182	5.e-002	6.076e-006
19794	20.719	2.0909	0.	-76.703
19795	20.81	2.	0.	-66.862
19796	20.719	2.	5.e-002	4.2105e-006
19797	20.719	2.2727	0.	-85.219
19798	20.81	2.1818	0.	-75.549
19799	20.719	2.1818	5.e-002	6.6507e-006
19800	20.719	2.4545	0.	-92.1
19801	20.81	2.3636	0.	-82.848
19802	20.719	2.3636	5.e-002	7.3724e-006
19803	20.719	2.6364	0.	-97.137
19804	20.81	2.5455	0.	-88.508
19805	20.719	2.5455	5.e-002	4.2653e-006
19806	20.719	2.8182	0.	-100.2
19807	20.81	2.7273	0.	-92.361
19808	20.719	2.7273	5.e-002	4.9614e-006
19809	20.719	3.	0.	-101.23
19810	20.81	2.9091	0.	-94.31
19811	20.719	2.9091	5.e-002	5.8249e-006
19812	20.719	3.1818	0.	-100.2
19813	20.81	3.0909	0.	-94.31
19814	20.719	3.0909	5.e-002	3.6837e-006
19815	20.719	3.3636	0.	-97.137
19816	20.81	3.2727	0.	-92.361
19817	20.719	3.2727	5.e-002	4.5685e-006
19818	20.719	3.5455	0.	-92.1
19819	20.81	3.4545	0.	-88.508
19820	20.719	3.4545	5.e-002	3.8679e-006
19821	20.719	3.7273	0.	-85.219
19822	20.81	3.6364	0.	-82.848
19823	20.719	3.6364	5.e-002	2.8017e-006
19824	20.719	3.9091	0.	-76.703
19825	20.81	3.8182	0.	-75.549
19826	20.719	3.8182	5.e-002	3.899e-006
19827	20.719	4.0909	0.	-66.855
19828	20.81	4.	0.	-66.862
19829	20.719	4.	5.e-002	4.2696e-006
19830	20.719	4.2727	0.	-56.07
19831	20.81	4.1818	0.	-57.119
19832	20.719	4.1818	5.e-002	2.6308e-006
19833	20.719	4.4545	0.	-44.808
19834	20.81	4.3636	0.	-46.726
19835	20.719	4.3636	5.e-002	3.8789e-006
19836	20.719	4.6364	0.	-33.566
19837	20.81	4.5455	0.	-36.131
19838	20.719	4.5455	5.e-002	2.91e-006
19839	20.719	4.8182	0.	-22.838
19840	20.81	4.7273	0.	-25.797
19841	20.719	4.7273	5.e-002	7.0454e-006
19842	20.719	5.	0.	-13.087
19843	20.81	4.9091	0.	-16.167
19844	20.719	4.9091	5.e-002	7.475e-006
19845	20.719	5.1818	0.	-4.748
19846	20.81	5.0909	0.	-7.6483
19847	20.719	5.0909	5.e-002	7.3982e-006
19848	20.719	5.3636	0.	-0.15207
19849	20.81	5.2727	0.	-0.8871
19850	20.719	5.2727	5.e-002	9.3456e-006
19851	20.719	5.5455	0.	-1.7081e-002
19852	20.81	5.4545	0.	-2.2143e-002
19853	20.719	5.4545	5.e-002	8.1898e-006
19854	20.719	5.7273	0.	-9.5521e-003
19855	20.81	5.6364	0.	-8.9899e-003
19856	20.719	5.6364	5.e-002	9.3459e-006
19857	20.81	5.8182	0.	-2.5192e-003
19858	20.719	5.8182	5.e-002	6.7423e-006
19859	20.719	5.9091	0.	3.8663e-002
19860	20.901	0.27273	0.	-5.0065e-003
19861	20.992	0.18182	0.	-1.6226e-003
19862	20.901	0.18182	5.e-002	9.1253e-006
19863	20.901	9.0909e-002	0.	3.3899e-002
19864	20.901	0.45455	0.	-2.1856e-003
19865	20.992	0.36364	0.	-1.9834e-003
19866	20.901	0.36364	5.e-002	6.0259e-006
19867	20.901	0.63636	0.	-6.1224e-002
19868	20.992	0.54545	0.	8.804e-004
19869	20.901	0.54545	5.e-002	2.2148e-006
19870	20.901	0.81818	0.	-3.5314
19871	20.992	0.72727	0.	-0.27014
19872	20.901	0.72727	5.e-002	3.9659e-006
19873	20.901	1.	0.	-10.739
19874	20.992	0.90909	0.	-5.7102
19875	20.901	0.90909	5.e-002	5.0356e-006
19876	20.901	1.1818	0.	-19.14
19877	20.992	1.0909	0.	-12.992
19878	20.901	1.0909	5.e-002	5.6019e-006
19879	20.901	1.3636	0.	-28.372
19880	20.992	1.2727	0.	-21.217
19881	20.901	1.2727	5.e-002	3.6239e-006
19882	20.901	1.5455	0.	-38.055
19883	20.992	1.4545	0.	-30.05
19884	20.901	1.4545	5.e-002	3.7886e-006
19885	20.901	1.7273	0.	-47.778
19886	20.992	1.6364	0.	-39.125
19887	20.901	1.6364	5.e-002	6.0573e-006
19888	20.901	1.9091	0.	-57.126
19889	20.992	1.8182	0.	-48.058
19890	20.901	1.8182	5.e-002	6.0974e-006
19891	20.901	2.0909	0.	-65.709
19892	20.992	2.	0.	-56.472
19893	20.901	2.	5.e-002	5.7516e-006
19894	20.901	2.2727	0.	-73.18
19895	20.992	2.1818	0.	-64.018
19896	20.901	2.1818	5.e-002	6.5289e-006
19897	20.901	2.4545	0.	-79.259
19898	20.992	2.3636	0.	-70.398
19899	20.901	2.3636	5.e-002	5.5764e-006
19900	20.901	2.6364	0.	-83.738
19901	20.992	2.5455	0.	-75.377
19902	20.901	2.5455	5.e-002	6.4766e-006
19903	20.901	2.8182	0.	-86.477
19904	20.992	2.7273	0.	-78.786
19905	20.901	2.7273	5.e-002	3.7803e-006
19906	20.901	3.	0.	-87.398
19907	20.992	2.9091	0.	-80.515
19908	20.901	2.9091	5.e-002	5.4647e-006
19909	20.901	3.1818	0.	-86.477
19910	20.992	3.0909	0.	-80.515
19911	20.901	3.0909	5.e-002	3.0969e-006
19912	20.901	3.3636	0.	-83.738
19913	20.992	3.2727	0.	-78.786
19914	20.901	3.2727	5.e-002	4.6634e-006
19915	20.901	3.5455	0.	-79.259
19916	20.992	3.4545	0.	-75.377
19917	20.901	3.4545	5.e-002	3.622e-006
19918	20.901	3.7273	0.	-73.18
19919	20.992	3.6364	0.	-70.398
19920	20.901	3.6364	5.e-002	4.2329e-006
19921	20.901	3.9091	0.	-65.709
19922	20.992	3.8182	0.	-64.018
19923	20.901	3.8182	5.e-002	5.2421e-006
19924	20.901	4.0909	0.	-57.126
19925	20.992	4.	0.	-56.472
19926	20.901	4.	5.e-002	3.2088e-006
19927	20.901	4.2727	0.	-47.778
19928	20.992	4.1818	0.	-48.058
19929	20.901	4.1818	5.e-002	3.4324e-006
19930	20.901	4.4545	0.	-38.055
19931	20.992	4.3636	0.	-39.125
19932	20.901	4.3636	5.e-002	6.5209e-006
19933	20.901	4.6364	0.	-28.372
19934	20.992	4.5455	0.	-30.05
19935	20.901	4.5455	5.e-002	3.7088e-006
19936	20.901	4.8182	0.	-19.14
19937	20.992	4.7273	0.	-21.217
19938	20.901	4.7273	5.e-002	6.3457e-006
19939	20.901	5.	0.	-10.739
19940	20.992	4.9091	0.	-12.992
19941	20.901	4.9091	5.e-002	7.9695e-006
19942	20.901	5.1818	0.	-3.5314
19943	20.992	5.0909	0.	-5.7101
19944	20.901	5.0909	5.e-002	6.6379e-006
19945	20.901	5.3636	0.	-6.1222e-002
19946	20.992	5.2727	0.	-0.27012
19947	20.901	5.2727	5.e-002	8.6167e-006
19948	20.901	5.5455	0.	-2.1845e-003
19949	20.992	5.4545	0.	8.8211e-004
19950	20.901	5.4545	5.e-002	8.3724e-006
19951	20.901	5.7273	0.	-5.0055e-003
19952	20.992	5.6364	0.	-1.9817e-003
19953	20.901	5.6364	5.e-002	9.3077e-006
19954	20.992	5.8182	0.	-1.6212e-003
19955	20.901	5.8182	5.e-002	6.4826e-006
19956	20.901	5.9091	0.	3.3898e-002
19957	21.083	0.27273	0.	-2.511e-003
19958	21.174	0.18182	0.	-1.3037e-003
19959	21.083	0.18182	5.e-002	6.5321e-006
19960	21.083	9.0909e-002	0.	2.9178e-002
19961	21.083	0.45455	0.	6.6853e-003
19962	21.174	0.36364	0.	1.3358e-003
19963	21.083	0.36364	5.e-002	5.4574e-006
19964	21.083	0.63636	0.	-7.4675e-003
19965	21.174	0.54545	0.	1.3679e-002
19966	21.083	0.54545	5.e-002	2.8087e-006
19967	21.083	0.81818	0.	-1.8968
19968	21.174	0.72727	0.	-2.9981e-002
19969	21.083	0.72727	5.e-002	3.031e-006
19970	21.083	1.	0.	-7.9817
19971	21.174	0.90909	0.	-3.3617
19972	21.083	0.90909	5.e-002	2.5822e-006
19973	21.083	1.1818	0.	-15.09
19974	21.174	1.0909	0.	-9.4471
19975	21.083	1.0909	5.e-002	3.5301e-006
19976	21.083	1.3636	0.	-22.911
19977	21.174	1.2727	0.	-16.34
19978	21.083	1.2727	5.e-002	3.8279e-006
19979	21.083	1.5455	0.	-31.132
19980	21.174	1.4545	0.	-23.764
19981	21.083	1.4545	5.e-002	2.965e-006
19982	21.083	1.7273	0.	-39.413
19983	21.174	1.6364	0.	-31.419
19984	21.083	1.6364	5.e-002	2.8061e-006
19985	21.083	1.9091	0.	-47.409
19986	21.174	1.8182	0.	-38.986
19987	21.083	1.8182	5.e-002	2.9306e-006
19988	21.083	2.0909	0.	-54.784
19989	21.174	2.	0.	-46.147
19990	21.083	2.	5.e-002	3.6968e-006
19991	21.083	2.2727	0.	-61.239
19992	21.174	2.1818	0.	-52.603
19993	21.083	2.1818	5.e-002	3.6748e-006
19994	21.083	2.4545	0.	-66.52
19995	21.174	2.3636	0.	-58.091
19996	21.083	2.3636	5.e-002	4.0051e-006
19997	21.083	2.6364	0.	-70.429
19998	21.174	2.5455	0.	-62.394
19999	21.083	2.5455	5.e-002	4.1532e-006
20000	21.083	2.8182	0.	-72.828
20001	21.174	2.7273	0.	-65.352
20002	21.083	2.7273	5.e-002	1.9997e-006
20003	21.083	3.	0.	-73.637
20004	21.174	2.9091	0.	-66.857
20005	21.083	2.9091	5.e-002	3.2701e-006
20006	21.083	3.1818	0.	-72.828
20007	21.174	3.0909	0.	-66.857
20008	21.083	3.0909	5.e-002	1.48e-006
20009	21.083	3.3636	0.	-70.429
20010	21.174	3.2727	0.	-65.352
20011	21.083	3.2727	5.e-002	2.5678e-006
20012	21.083	3.5455	0.	-66.52
20013	21.174	3.4545	0.	-62.394
20014	21.083	3.4545	5.e-002	2.0896e-006
20015	21.083	3.7273	0.	-61.239
20016	21.174	3.6364	0.	-58.091
20017	21.083	3.6364	5.e-002	3.8212e-006
20018	21.083	3.9091	0.	-54.784
20019	21.174	3.8182	0.	-52.603
20020	21.083	3.8182	5.e-002	4.1499e-006
20021	21.083	4.0909	0.	-47.408
20022	21.174	4.	0.	-46.147
20023	21.083	4.	5.e-002	3.1778e-006
20024	21.083	4.2727	0.	-39.413
20025	21.174	4.1818	0.	-38.986
20026	21.083	4.1818	5.e-002	2.8068e-006
20027	21.083	4.4545	0.	-31.132
20028	21.174	4.3636	0.	-31.419
20029	21.083	4.3636	5.e-002	4.1869e-006
20030	21.083	4.6364	0.	-22.911
20031	21.174	4.5455	0.	-23.764
20032	21.083	4.5455	5.e-002	1.6375e-006
20033	21.083	4.8182	0.	-15.09
20034	21.174	4.7273	0.	-16.34
20035	21.083	4.7273	5.e-002	6.3955e-006
20036	21.083	5.	0.	-7.9816
20037	21.174	4.9091	0.	-9.4471
20038	21.083	4.9091	5.e-002	5.3526e-006
20039	21.083	5.1818	0.	-1.8968
20040	21.174	5.0909	0.	-3.3617
20041	21.083	5.0909	5.e-002	4.791e-006
20042	21.083	5.3636	0.	-7.4677e-003
20043	21.174	5.2727	0.	-2.9982e-002
20044	21.083	5.2727	5.e-002	6.7399e-006
20045	21.083	5.5455	0.	6.6873e-003
20046	21.174	5.4545	0.	1.3679e-002
20047	21.083	5.4545	5.e-002	7.0179e-006
20048	21.083	5.7273	0.	-2.509e-003
20049	21.174	5.6364	0.	1.3389e-003
20050	21.083	5.6364	5.e-002	7.6297e-006
20051	21.174	5.8182	0.	-1.3025e-003
20052	21.083	5.8182	5.e-002	5.8101e-006
20053	21.083	5.9091	0.	2.9178e-002
20054	21.266	0.27273	0.	-1.8586e-003
20055	21.357	0.18182	0.	-1.6382e-003
20056	21.266	0.18182	5.e-002	8.6289e-006
20057	21.266	9.0909e-002	0.	2.4886e-002
20058	21.266	0.45455	0.	1.0508e-002
20059	21.357	0.36364	0.	1.6832e-003
20060	21.266	0.36364	5.e-002	5.6349e-006
20061	21.266	0.63636	0.	1.4953e-002
20062	21.357	0.54545	0.	1.8888e-002
20063	21.266	0.54545	5.e-002	1.937e-006
20064	21.266	0.81818	0.	-0.18418
20065	21.357	0.72727	0.	1.5065e-002
20066	21.266	0.72727	5.e-002	3.7984e-006
20067	21.266	1.	0.	-4.8467
20068	21.357	0.90909	0.	-0.6958
20069	21.266	0.90909	5.e-002	4.1053e-006
20070	21.266	1.1818	0.	-10.721
20071	21.357	1.0909	0.	-5.5598
20072	21.266	1.0909	5.e-002	4.6568e-006
20073	21.266	1.3636	0.	-17.213
20074	21.357	1.2727	0.	-11.19
20075	21.266	1.2727	5.e-002	3.3665e-006
20076	21.266	1.5455	0.	-24.066
20077	21.357	1.4545	0.	-17.294
20078	21.266	1.4545	5.e-002	3.806e-006
20079	21.266	1.7273	0.	-31.002
20080	21.357	1.6364	0.	-23.625
20081	21.266	1.6364	5.e-002	3.9744e-006
20082	21.266	1.9091	0.	-37.732
20083	21.357	1.8182	0.	-29.919
20084	21.266	1.8182	5.e-002	3.6185e-006
20085	21.266	2.0909	0.	-43.971
20086	21.357	2.	0.	-35.91
20087	21.266	2.	5.e-002	2.9979e-006
20088	21.266	2.2727	0.	-49.458
20089	21.357	2.1818	0.	-41.339
20090	21.266	2.1818	5.e-002	4.1705e-006
20091	21.266	2.4545	0.	-53.968
20092	21.357	2.3636	0.	-45.978
20093	21.266	2.3636	5.e-002	3.3559e-006
20094	21.266	2.6364	0.	-57.32
20095	21.357	2.5455	0.	-49.632
20096	21.266	2.5455	5.e-002	3.8253e-006
20097	21.266	2.8182	0.	-59.384
20098	21.357	2.7273	0.	-52.152
20099	21.266	2.7273	5.e-002	1.9298e-006
20100	21.266	3.	0.	-60.08
20101	21.357	2.9091	0.	-53.437
20102	21.266	2.9091	5.e-002	2.1238e-006
20103	21.266	3.1818	0.	-59.384
20104	21.357	3.0909	0.	-53.437
20105	21.266	3.0909	5.e-002	1.1986e-006
20106	21.266	3.3636	0.	-57.32
20107	21.357	3.2727	0.	-52.152
20108	21.266	3.2727	5.e-002	2.2268e-006
20109	21.266	3.5455	0.	-53.968
20110	21.357	3.4545	0.	-49.632
20111	21.266	3.4545	5.e-002	1.5071e-006
20112	21.266	3.7273	0.	-49.458
20113	21.357	3.6364	0.	-45.978
20114	21.266	3.6364	5.e-002	1.6628e-006
20115	21.266	3.9091	0.	-43.971
20116	21.357	3.8182	0.	-41.339
20117	21.266	3.8182	5.e-002	2.2882e-006
20118	21.266	4.0909	0.	-37.732
20119	21.357	4.	0.	-35.91
20120	21.266	4.	5.e-002	2.2003e-006
20121	21.266	4.2727	0.	-31.002
20122	21.357	4.1818	0.	-29.919
20123	21.266	4.1818	5.e-002	9.5723e-007
20124	21.266	4.4545	0.	-24.066
20125	21.357	4.3636	0.	-23.625
20126	21.266	4.3636	5.e-002	3.6057e-006
20127	21.266	4.6364	0.	-17.213
20128	21.357	4.5455	0.	-17.294
20129	21.266	4.5455	5.e-002	2.5363e-006
20130	21.266	4.8182	0.	-10.721
20131	21.357	4.7273	0.	-11.19
20132	21.266	4.7273	5.e-002	3.7214e-006
20133	21.266	5.	0.	-4.8467
20134	21.357	4.9091	0.	-5.5597
20135	21.266	4.9091	5.e-002	5.4869e-006
20136	21.266	5.1818	0.	-0.18417
20137	21.357	5.0909	0.	-0.69577
20138	21.266	5.0909	5.e-002	3.7602e-006
20139	21.266	5.3636	0.	1.4952e-002
20140	21.357	5.2727	0.	1.5064e-002
20141	21.266	5.2727	5.e-002	5.1741e-006
20142	21.266	5.5455	0.	1.0509e-002
20143	21.357	5.4545	0.	1.8885e-002
20144	21.266	5.4545	5.e-002	5.1467e-006
20145	21.266	5.7273	0.	-1.8563e-003
20146	21.357	5.6364	0.	1.6852e-003
20147	21.266	5.6364	5.e-002	7.163e-006
20148	21.357	5.8182	0.	-1.6367e-003
20149	21.266	5.8182	5.e-002	5.688e-006
20150	21.266	5.9091	0.	2.4885e-002
20151	21.448	0.27273	0.	-2.7757e-003
20152	21.539	0.18182	0.	-2.683e-003
20153	21.448	0.18182	5.e-002	4.8315e-006
20154	21.448	9.0909e-002	0.	2.1288e-002
20155	21.448	0.45455	0.	1.087e-002
20156	21.539	0.36364	0.	-1.1878e-004
20157	21.448	0.36364	5.e-002	4.2054e-006
20158	21.448	0.63636	0.	2.2033e-002
20159	21.539	0.54545	0.	1.9861e-002
20160	21.448	0.54545	5.e-002	3.932e-006
20161	21.448	0.81818	0.	1.5906e-002
20162	21.539	0.72727	0.	2.4694e-002
20163	21.448	0.72727	5.e-002	4.9766e-006
20164	21.448	1.	0.	-1.3806
20165	21.539	0.90909	0.	1.7714e-002
20166	21.448	0.90909	5.e-002	5.312e-006
20167	21.448	1.1818	0.	-6.0543
20168	21.539	1.0909	0.	-1.3735
20169	21.448	1.0909	5.e-002	4.4835e-006
20170	21.448	1.3636	0.	-11.292
20171	21.539	1.2727	0.	-5.7823
20172	21.448	1.2727	5.e-002	2.8791e-006
20173	21.448	1.5455	0.	-16.868
20174	21.539	1.4545	0.	-10.646
20175	21.448	1.4545	5.e-002	2.0135e-006
20176	21.448	1.7273	0.	-22.553
20177	21.539	1.6364	0.	-15.743
20178	21.448	1.6364	5.e-002	2.9505e-006
20179	21.448	1.9091	0.	-28.105
20180	21.539	1.8182	0.	-20.857
20181	21.448	1.8182	5.e-002	2.0523e-006
20182	21.448	2.0909	0.	-33.283
20183	21.539	2.	0.	-25.76
20184	21.448	2.	5.e-002	1.9138e-006
20185	21.448	2.2727	0.	-37.863
20186	21.539	2.1818	0.	-30.235
20187	21.448	2.1818	5.e-002	3.1737e-006
20188	21.448	2.4545	0.	-41.644
20189	21.539	2.3636	0.	-34.078
20190	21.448	2.3636	5.e-002	2.2115e-006
20191	21.448	2.6364	0.	-44.465
20192	21.539	2.5455	0.	-37.12
20193	21.448	2.5455	5.e-002	2.3651e-006
20194	21.448	2.8182	0.	-46.207
20195	21.539	2.7273	0.	-39.225
20196	21.448	2.7273	5.e-002	1.2988e-006
20197	21.448	3.	0.	-46.795
20198	21.539	2.9091	0.	-40.301
20199	21.448	2.9091	5.e-002	9.6373e-007
20200	21.448	3.1818	0.	-46.207
20201	21.539	3.0909	0.	-40.301
20202	21.448	3.0909	5.e-002	9.2904e-007
20203	21.448	3.3636	0.	-44.465
20204	21.539	3.2727	0.	-39.225
20205	21.448	3.2727	5.e-002	9.0237e-007
20206	21.448	3.5455	0.	-41.644
20207	21.539	3.4545	0.	-37.12
20208	21.448	3.4545	5.e-002	1.1866e-007
20209	21.448	3.7273	0.	-37.863
20210	21.539	3.6364	0.	-34.078
20211	21.448	3.6364	5.e-002	1.513e-006
20212	21.448	3.9091	0.	-33.283
20213	21.539	3.8182	0.	-30.235
20214	21.448	3.8182	5.e-002	1.7492e-006
20215	21.448	4.0909	0.	-28.105
20216	21.539	4.	0.	-25.76
20217	21.448	4.	5.e-002	1.459e-006
20218	21.448	4.2727	0.	-22.553
20219	21.539	4.1818	0.	-20.857
20220	21.448	4.1818	5.e-002	1.9711e-007
20221	21.448	4.4545	0.	-16.868
20222	21.539	4.3636	0.	-15.743
20223	21.448	4.3636	5.e-002	2.0128e-006
20224	21.448	4.6364	0.	-11.292
20225	21.539	4.5455	0.	-10.646
20226	21.448	4.5455	5.e-002	1.5029e-006
20227	21.448	4.8182	0.	-6.0543
20228	21.539	4.7273	0.	-5.7822
20229	21.448	4.7273	5.e-002	3.4615e-006
20230	21.448	5.	0.	-1.3806
20231	21.539	4.9091	0.	-1.3735
20232	21.448	4.9091	5.e-002	3.5056e-006
20233	21.448	5.1818	0.	1.5907e-002
20234	21.539	5.0909	0.	1.7715e-002
20235	21.448	5.0909	5.e-002	2.4973e-006
20236	21.448	5.3636	0.	2.2032e-002
20237	21.539	5.2727	0.	2.4693e-002
20238	21.448	5.2727	5.e-002	4.3822e-006
20239	21.448	5.5455	0.	1.0868e-002
20240	21.539	5.4545	0.	1.9861e-002
20241	21.448	5.4545	5.e-002	4.3976e-006
20242	21.448	5.7273	0.	-2.7747e-003
20243	21.539	5.6364	0.	-1.1784e-004
20244	21.448	5.6364	5.e-002	5.8142e-006
20245	21.539	5.8182	0.	-2.6827e-003
20246	21.448	5.8182	5.e-002	5.486e-006
20247	21.448	5.9091	0.	2.1289e-002
20248	21.63	0.27273	0.	-4.98e-003
20249	21.721	0.18182	0.	-4.4785e-003
20250	21.63	0.18182	5.e-002	3.2502e-006
20251	21.63	9.0909e-002	0.	1.8519e-002
20252	21.63	0.45455	0.	9.2681e-003
20253	21.721	0.36364	0.	-3.3352e-003
20254	21.63	0.36364	5.e-002	5.219e-006
20255	21.63	0.63636	0.	2.3312e-002
20256	21.721	0.54545	0.	1.906e-002
20257	21.63	0.54545	5.e-002	1.0439e-005
20258	21.63	0.81818	0.	2.8058e-002
20259	21.721	0.72727	0.	2.6542e-002
20260	21.63	0.72727	5.e-002	1.0402e-005
20261	21.63	1.	0.	2.1777e-002
20262	21.721	0.90909	0.	3.1252e-002
20263	21.63	0.90909	5.e-002	8.9432e-006
20264	21.63	1.1818	0.	-1.133
20265	21.721	1.0909	0.	2.7112e-002
20266	21.63	1.0909	5.e-002	7.4898e-006
20267	21.63	1.3636	0.	-5.1579
20268	21.721	1.2727	0.	-0.28191
20269	21.63	1.2727	5.e-002	5.9699e-006
20270	21.63	1.5455	0.	-9.5374
20271	21.721	1.4545	0.	-3.8245
20272	21.63	1.4545	5.e-002	5.4214e-006
20273	21.63	1.7273	0.	-14.059
20274	21.721	1.6364	0.	-7.7694
20275	21.63	1.6364	5.e-002	5.5211e-006
20276	21.63	1.9091	0.	-18.52
20277	21.721	1.8182	0.	-11.788
20278	21.63	1.8182	5.e-002	4.9444e-006
20279	21.63	2.0909	0.	-22.717
20280	21.721	2.	0.	-15.688
20281	21.63	2.	5.e-002	5.4549e-006
20282	21.63	2.2727	0.	-26.454
20283	21.721	2.1818	0.	-19.279
20284	21.63	2.1818	5.e-002	5.3443e-006
20285	21.63	2.4545	0.	-29.556
20286	21.721	2.3636	0.	-22.387
20287	21.63	2.3636	5.e-002	5.4078e-006
20288	21.63	2.6364	0.	-31.881
20289	21.721	2.5455	0.	-24.86
20290	21.63	2.5455	5.e-002	4.6214e-006
20291	21.63	2.8182	0.	-33.32
20292	21.721	2.7273	0.	-26.579
20293	21.63	2.7273	5.e-002	3.5564e-006
20294	21.63	3.	0.	-33.807
20295	21.721	2.9091	0.	-27.459
20296	21.63	2.9091	5.e-002	4.6392e-006
20297	21.63	3.1818	0.	-33.32
20298	21.721	3.0909	0.	-27.459
20299	21.63	3.0909	5.e-002	2.5018e-006
20300	21.63	3.3636	0.	-31.881
20301	21.721	3.2727	0.	-26.579
20302	21.63	3.2727	5.e-002	3.489e-006
20303	21.63	3.5455	0.	-29.556
20304	21.721	3.4545	0.	-24.86
20305	21.63	3.4545	5.e-002	2.4801e-006
20306	21.63	3.7273	0.	-26.454
20307	21.721	3.6364	0.	-22.387
20308	21.63	3.6364	5.e-002	3.8763e-006
20309	21.63	3.9091	0.	-22.717
20310	21.721	3.8182	0.	-19.279
20311	21.63	3.8182	5.e-002	4.3297e-006
20312	21.63	4.0909	0.	-18.52
20313	21.721	4.	0.	-15.688
20314	21.63	4.	5.e-002	3.4141e-006
20315	21.63	4.2727	0.	-14.059
20316	21.721	4.1818	0.	-11.788
20317	21.63	4.1818	5.e-002	3.1338e-006
20318	21.63	4.4545	0.	-9.5373
20319	21.721	4.3636	0.	-7.7694
20320	21.63	4.3636	5.e-002	5.1795e-006
20321	21.63	4.6364	0.	-5.1579
20322	21.721	4.5455	0.	-3.8244
20323	21.63	4.5455	5.e-002	3.9189e-006
20324	21.63	4.8182	0.	-1.1329
20325	21.721	4.7273	0.	-0.28189
20326	21.63	4.7273	5.e-002	5.3767e-006
20327	21.63	5.	0.	2.1778e-002
20328	21.721	4.9091	0.	2.7112e-002
20329	21.63	4.9091	5.e-002	6.0736e-006
20330	21.63	5.1818	0.	2.8057e-002
20331	21.721	5.0909	0.	3.1253e-002
20332	21.63	5.0909	5.e-002	4.7225e-006
20333	21.63	5.3636	0.	2.3311e-002
20334	21.721	5.2727	0.	2.6539e-002
20335	21.63	5.2727	5.e-002	6.5119e-006
20336	21.63	5.5455	0.	9.2698e-003
20337	21.721	5.4545	0.	1.9063e-002
20338	21.63	5.4545	5.e-002	6.5592e-006
20339	21.63	5.7273	0.	-4.9797e-003
20340	21.721	5.6364	0.	-3.332e-003
20341	21.63	5.6364	5.e-002	7.8774e-006
20342	21.721	5.8182	0.	-4.4804e-003
20343	21.63	5.8182	5.e-002	6.3383e-006
20344	21.63	5.9091	0.	1.852e-002
20345	21.813	0.27273	0.	-8.2043e-003
20346	21.904	0.18182	0.	-7.0631e-003
20347	21.813	0.18182	5.e-002	7.3154e-006
20348	21.813	9.0909e-002	0.	1.6639e-002
20349	21.813	0.45455	0.	6.7962e-003
20350	21.904	0.36364	0.	-7.4049e-003
20351	21.813	0.36364	5.e-002	7.2065e-006
20352	21.813	0.63636	0.	2.2891e-002
20353	21.904	0.54545	0.	1.7889e-002
20354	21.813	0.54545	5.e-002	1.1461e-005
20355	21.813	0.81818	0.	3.0184e-002
20356	21.904	0.72727	0.	2.6723e-002
20357	21.813	0.72727	5.e-002	1.3054e-005
20358	21.813	1.	0.	3.4297e-002
20359	21.904	0.90909	0.	3.3896e-002
20360	21.813	0.90909	5.e-002	1.2114e-005
20361	21.813	1.1818	0.	3.2747e-002
20362	21.904	1.0909	0.	3.7258e-002
20363	21.813	1.0909	5.e-002	1.1366e-005
20364	21.813	1.3636	0.	1.1092e-003
20365	21.904	1.2727	0.	3.7184e-002
20366	21.813	1.2727	5.e-002	9.1146e-006
20367	21.813	1.5455	0.	-2.083
20368	21.904	1.4545	0.	2.9814e-002
20369	21.813	1.4545	5.e-002	8.2122e-006
20370	21.813	1.7273	0.	-5.5118
20371	21.904	1.6364	0.	-9.6779e-002
20372	21.813	1.6364	5.e-002	9.2897e-006
20373	21.813	1.9091	0.	-8.9637
20374	21.904	1.8182	0.	-2.7065
20375	21.813	1.8182	5.e-002	8.6733e-006
20376	21.813	2.0909	0.	-12.255
20377	21.904	2.	0.	-5.6728
20378	21.813	2.	5.e-002	8.4202e-006
20379	21.813	2.2727	0.	-15.215
20380	21.904	2.1818	0.	-8.4516
20381	21.813	2.1818	5.e-002	8.9745e-006
20382	21.813	2.4545	0.	-17.693
20383	21.904	2.3636	0.	-10.884
20384	21.813	2.3636	5.e-002	8.7764e-006
20385	21.813	2.6364	0.	-19.56
20386	21.904	2.5455	0.	-12.836
20387	21.813	2.5455	5.e-002	8.3925e-006
20388	21.813	2.8182	0.	-20.719
20389	21.904	2.7273	0.	-14.2
20390	21.813	2.7273	5.e-002	7.9128e-006
20391	21.813	3.	0.	-21.113
20392	21.904	2.9091	0.	-14.901
20393	21.813	2.9091	5.e-002	8.2282e-006
20394	21.813	3.1818	0.	-20.719
20395	21.904	3.0909	0.	-14.901
20396	21.813	3.0909	5.e-002	6.7831e-006
20397	21.813	3.3636	0.	-19.56
20398	21.904	3.2727	0.	-14.2
20399	21.813	3.2727	5.e-002	7.5076e-006
20400	21.813	3.5455	0.	-17.693
20401	21.904	3.4545	0.	-12.836
20402	21.813	3.4545	5.e-002	7.3935e-006
20403	21.813	3.7273	0.	-15.215
20404	21.904	3.6364	0.	-10.884
20405	21.813	3.6364	5.e-002	8.0845e-006
20406	21.813	3.9091	0.	-12.255
20407	21.904	3.8182	0.	-8.4516
20408	21.813	3.8182	5.e-002	9.4517e-006
20409	21.813	4.0909	0.	-8.9636
20410	21.904	4.	0.	-5.6727
20411	21.813	4.	5.e-002	8.8142e-006
20412	21.813	4.2727	0.	-5.5117
20413	21.904	4.1818	0.	-2.7064
20414	21.813	4.1818	5.e-002	7.6357e-006
20415	21.813	4.4545	0.	-2.083
20416	21.904	4.3636	0.	-9.677e-002
20417	21.813	4.3636	5.e-002	1.0302e-005
20418	21.813	4.6364	0.	1.1106e-003
20419	21.904	4.5455	0.	2.9815e-002
20420	21.813	4.5455	5.e-002	9.0808e-006
20421	21.813	4.8182	0.	3.2747e-002
20422	21.904	4.7273	0.	3.7185e-002
20423	21.813	4.7273	5.e-002	1.0701e-005
20424	21.813	5.	0.	3.4297e-002
20425	21.904	4.9091	0.	3.7258e-002
20426	21.813	4.9091	5.e-002	1.0963e-005
20427	21.813	5.1818	0.	3.0183e-002
20428	21.904	5.0909	0.	3.3895e-002
20429	21.813	5.0909	5.e-002	9.4083e-006
20430	21.813	5.3636	0.	2.2891e-002
20431	21.904	5.2727	0.	2.6721e-002
20432	21.813	5.2727	5.e-002	1.0682e-005
20433	21.813	5.5455	0.	6.8004e-003
20434	21.904	5.4545	0.	1.789e-002
20435	21.813	5.4545	5.e-002	1.0874e-005
20436	21.813	5.7273	0.	-8.2032e-003
20437	21.904	5.6364	0.	-7.4015e-003
20438	21.813	5.6364	5.e-002	1.1393e-005
20439	21.904	5.8182	0.	-7.0636e-003
20440	21.813	5.8182	5.e-002	9.2037e-006
20441	21.813	5.9091	0.	1.6637e-002
20442	21.995	0.27273	0.	-1.2242e-002
20443	22.086	0.18182	0.	-1.05e-002
20444	21.995	0.18182	5.e-002	1.2944e-005
20445	21.995	9.0909e-002	0.	1.5658e-002
20446	21.995	0.45455	0.	4.1213e-003
20447	22.086	0.36364	0.	-1.1963e-002
20448	21.995	0.36364	5.e-002	1.0944e-005
20449	21.995	0.63636	0.	2.2402e-002
20450	22.086	0.54545	0.	1.7057e-002
20451	21.995	0.54545	5.e-002	7.5202e-006
20452	21.995	0.81818	0.	3.1012e-002
20453	22.086	0.72727	0.	2.7018e-002
20454	21.995	0.72727	5.e-002	1.045e-005
20455	21.995	1.	0.	3.7107e-002
20456	22.086	0.90909	0.	3.5534e-002
20457	21.995	0.90909	5.e-002	1.2101e-005
20458	21.995	1.1818	0.	4.0285e-002
20459	22.086	1.0909	0.	4.0475e-002
20460	21.995	1.0909	5.e-002	1.2043e-005
20461	21.995	1.3636	0.	4.1162e-002
20462	22.086	1.2727	0.	4.3352e-002
20463	21.995	1.2727	5.e-002	1.0027e-005
20464	21.995	1.5455	0.	3.9397e-002
20465	22.086	1.4545	0.	4.4542e-002
20466	21.995	1.4545	5.e-002	9.7264e-006
20467	21.995	1.7273	0.	3.2086e-002
20468	22.086	1.6364	0.	4.4476e-002
20469	21.995	1.6364	5.e-002	9.576e-006
20470	21.995	1.9091	0.	-3.3198e-002
20471	22.086	1.8182	0.	4.3311e-002
20472	21.995	1.8182	5.e-002	8.0852e-006
20473	21.995	2.0909	0.	-1.8874
20474	22.086	2.	0.	4.0794e-002
20475	21.995	2.	5.e-002	8.5028e-006
20476	21.995	2.2727	0.	-4.1262
20477	22.086	2.1818	0.	3.4854e-002
20478	21.995	2.1818	5.e-002	9.0244e-006
20479	21.995	2.4545	0.	-6.0301
20480	22.086	2.3636	0.	-6.1904e-003
20481	21.995	2.3636	5.e-002	8.7365e-006
20482	21.995	2.6364	0.	-7.4776
20483	22.086	2.5455	0.	-1.0301
20484	21.995	2.5455	5.e-002	8.8744e-006
20485	21.995	2.8182	0.	-8.3819
20486	22.086	2.7273	0.	-2.0611
20487	21.995	2.7273	5.e-002	7.4648e-006
20488	21.995	3.	0.	-8.6894
20489	22.086	2.9091	0.	-2.597
20490	21.995	2.9091	5.e-002	8.251e-006
20491	21.995	3.1818	0.	-8.3819
20492	22.086	3.0909	0.	-2.597
20493	21.995	3.0909	5.e-002	7.4183e-006
20494	21.995	3.3636	0.	-7.4776
20495	22.086	3.2727	0.	-2.0611
20496	21.995	3.2727	5.e-002	8.2135e-006
20497	21.995	3.5455	0.	-6.0301
20498	22.086	3.4545	0.	-1.0301
20499	21.995	3.4545	5.e-002	8.1455e-006
20500	21.995	3.7273	0.	-4.1262
20501	22.086	3.6364	0.	-6.1897e-003
20502	21.995	3.6364	5.e-002	9.1196e-006
20503	21.995	3.9091	0.	-1.8874
20504	22.086	3.8182	0.	3.4853e-002
20505	21.995	3.8182	5.e-002	9.9336e-006
20506	21.995	4.0909	0.	-3.3195e-002
20507	22.086	4.	0.	4.0794e-002
20508	21.995	4.	5.e-002	9.4083e-006
20509	21.995	4.2727	0.	3.2087e-002
20510	22.086	4.1818	0.	4.3311e-002
20511	21.995	4.1818	5.e-002	8.7122e-006
20512	21.995	4.4545	0.	3.9396e-002
20513	22.086	4.3636	0.	4.4474e-002
20514	21.995	4.3636	5.e-002	1.1192e-005
20515	21.995	4.6364	0.	4.1163e-002
20516	22.086	4.5455	0.	4.4542e-002
20517	21.995	4.5455	5.e-002	9.5513e-006
20518	21.995	4.8182	0.	4.0286e-002
20519	22.086	4.7273	0.	4.3352e-002
20520	21.995	4.7273	5.e-002	1.1636e-005
20521	21.995	5.	0.	3.7106e-002
20522	22.086	4.9091	0.	4.0474e-002
20523	21.995	4.9091	5.e-002	1.1778e-005
20524	21.995	5.1818	0.	3.101e-002
20525	22.086	5.0909	0.	3.5532e-002
20526	21.995	5.0909	5.e-002	9.7279e-006
20527	21.995	5.3636	0.	2.2401e-002
20528	22.086	5.2727	0.	2.7017e-002
20529	21.995	5.2727	5.e-002	1.1523e-005
20530	21.995	5.5455	0.	4.1219e-003
20531	22.086	5.4545	0.	1.7055e-002
20532	21.995	5.4545	5.e-002	1.108e-005
20533	21.995	5.7273	0.	-1.224e-002
20534	22.086	5.6364	0.	-1.196e-002
20535	21.995	5.6364	5.e-002	1.1439e-005
20536	22.086	5.8182	0.	-1.0499e-002
20537	21.995	5.8182	5.e-002	8.5425e-006
20538	21.995	5.9091	0.	1.5657e-002
20539	22.177	0.27273	0.	-1.6973e-002
20540	22.268	0.18182	0.	-1.4899e-002
20541	22.177	0.18182	5.e-002	7.0219e-006
20542	22.177	9.0909e-002	0.	1.5603e-002
20543	22.177	0.45455	0.	1.6143e-003
20544	22.268	0.36364	0.	-1.6765e-002
20545	22.177	0.36364	5.e-002	9.377e-006
20546	22.177	0.63636	0.	2.2519e-002
20547	22.268	0.54545	0.	1.6959e-002
20548	22.177	0.54545	5.e-002	7.4617e-006
20549	22.177	0.81818	0.	3.224e-002
20550	22.268	0.72727	0.	2.8103e-002
20551	22.177	0.72727	5.e-002	8.0201e-006
20552	22.177	1.	0.	3.9423e-002
20553	22.268	0.90909	0.	3.7776e-002
20554	22.177	0.90909	5.e-002	9.4153e-006
20555	22.177	1.1818	0.	4.3793e-002
20556	22.268	1.0909	0.	4.3583e-002
20557	22.177	1.0909	5.e-002	1.0325e-005
20558	22.177	1.3636	0.	4.6416e-002
20559	22.268	1.2727	0.	4.7385e-002
20560	22.177	1.2727	5.e-002	1.0499e-005
20561	22.177	1.5455	0.	4.7804e-002
20562	22.268	1.4545	0.	4.967e-002
20563	22.177	1.4545	5.e-002	9.4904e-006
20564	22.177	1.7273	0.	4.8443e-002
20565	22.268	1.6364	0.	5.1036e-002
20566	22.177	1.6364	5.e-002	9.5843e-006
20567	22.177	1.9091	0.	4.871e-002
20568	22.268	1.8182	0.	5.1877e-002
20569	22.177	1.8182	5.e-002	8.2033e-006
20570	22.177	2.0909	0.	4.8935e-002
20571	22.268	2.	0.	5.2507e-002
20572	22.177	2.	5.e-002	8.1571e-006
20573	22.177	2.2727	0.	4.9403e-002
20574	22.268	2.1818	0.	5.3138e-002
20575	22.177	2.1818	5.e-002	8.5151e-006
20576	22.177	2.4545	0.	5.0329e-002
20577	22.268	2.3636	0.	5.3878e-002
20578	22.177	2.3636	5.e-002	8.5242e-006
20579	22.177	2.6364	0.	5.1737e-002
20580	22.268	2.5455	0.	5.4705e-002
20581	22.177	2.5455	5.e-002	8.3173e-006
20582	22.177	2.8182	0.	5.3215e-002
20583	22.268	2.7273	0.	5.5469e-002
20584	22.177	2.7273	5.e-002	7.361e-006
20585	22.177	3.	0.	5.3886e-002
20586	22.268	2.9091	0.	5.594e-002
20587	22.177	2.9091	5.e-002	8.0321e-006
20588	22.177	3.1818	0.	5.3215e-002
20589	22.268	3.0909	0.	5.594e-002
20590	22.177	3.0909	5.e-002	7.117e-006
20591	22.177	3.3636	0.	5.1738e-002
20592	22.268	3.2727	0.	5.547e-002
20593	22.177	3.2727	5.e-002	8.003e-006
20594	22.177	3.5455	0.	5.0329e-002
20595	22.268	3.4545	0.	5.4705e-002
20596	22.177	3.4545	5.e-002	8.2353e-006
20597	22.177	3.7273	0.	4.9403e-002
20598	22.268	3.6364	0.	5.3877e-002
20599	22.177	3.6364	5.e-002	8.9944e-006
20600	22.177	3.9091	0.	4.8936e-002
20601	22.268	3.8182	0.	5.3138e-002
20602	22.177	3.8182	5.e-002	1.0506e-005
20603	22.177	4.0909	0.	4.871e-002
20604	22.268	4.	0.	5.2508e-002
20605	22.177	4.	5.e-002	9.8155e-006
20606	22.177	4.2727	0.	4.8442e-002
20607	22.268	4.1818	0.	5.1878e-002
20608	22.177	4.1818	5.e-002	9.2757e-006
20609	22.177	4.4545	0.	4.7804e-002
20610	22.268	4.3636	0.	5.1035e-002
20611	22.177	4.3636	5.e-002	1.1459e-005
20612	22.177	4.6364	0.	4.6415e-002
20613	22.268	4.5455	0.	4.967e-002
20614	22.177	4.5455	5.e-002	1.009e-005
20615	22.177	4.8182	0.	4.3791e-002
20616	22.268	4.7273	0.	4.7382e-002
20617	22.177	4.7273	5.e-002	1.1053e-005
20618	22.177	5.	0.	3.9423e-002
20619	22.268	4.9091	0.	4.3583e-002
20620	22.177	4.9091	5.e-002	1.1938e-005
20621	22.177	5.1818	0.	3.2239e-002
20622	22.268	5.0909	0.	3.7776e-002
20623	22.177	5.0909	5.e-002	1.0017e-005
20624	22.177	5.3636	0.	2.2517e-002
20625	22.268	5.2727	0.	2.8101e-002
20626	22.177	5.2727	5.e-002	1.1472e-005
20627	22.177	5.5455	0.	1.6147e-003
20628	22.268	5.4545	0.	1.6957e-002
20629	22.177	5.4545	5.e-002	1.1342e-005
20630	22.177	5.7273	0.	-1.697e-002
20631	22.268	5.6364	0.	-1.6762e-002
20632	22.177	5.6364	5.e-002	1.1958e-005
20633	22.268	5.8182	0.	-1.4898e-002
20634	22.177	5.8182	5.e-002	9.7488e-006
20635	22.177	5.9091	0.	1.5602e-002
20636	22.359	0.27273	0.	-2.232e-002
20637	22.451	0.18182	0.	-2.0412e-002
20638	22.359	0.18182	5.e-002	8.1772e-006
20639	22.359	9.0909e-002	0.	1.6561e-002
20640	22.359	0.45455	0.	-4.4994e-004
20641	22.451	0.36364	0.	-2.1583e-002
20642	22.359	0.36364	5.e-002	5.6256e-006
20643	22.359	0.63636	0.	2.3625e-002
20644	22.451	0.54545	0.	1.7949e-002
20645	22.359	0.54545	5.e-002	7.8571e-006
20646	22.359	0.81818	0.	3.449e-002
20647	22.451	0.72727	0.	3.0424e-002
20648	22.359	0.72727	5.e-002	8.5923e-006
20649	22.359	1.	0.	4.2594e-002
20650	22.451	0.90909	0.	4.1275e-002
20651	22.359	0.90909	5.e-002	8.6835e-006
20652	22.359	1.1818	0.	4.7666e-002
20653	22.451	1.0909	0.	4.7779e-002
20654	22.359	1.0909	5.e-002	9.7697e-006
20655	22.359	1.3636	0.	5.096e-002
20656	22.451	1.2727	0.	5.2158e-002
20657	22.359	1.2727	5.e-002	9.1725e-006
20658	22.359	1.5455	0.	5.3023e-002
20659	22.451	1.4545	0.	5.494e-002
20660	22.359	1.4545	5.e-002	8.7624e-006
20661	22.359	1.7273	0.	5.4343e-002
20662	22.451	1.6364	0.	5.6749e-002
20663	22.359	1.6364	5.e-002	9.2845e-006
20664	22.359	1.9091	0.	5.5248e-002
20665	22.451	1.8182	0.	5.7953e-002
20666	22.359	1.8182	5.e-002	7.6187e-006
20667	22.359	2.0909	0.	5.5961e-002
20668	22.451	2.	0.	5.8822e-002
20669	22.359	2.	5.e-002	8.2547e-006
20670	22.359	2.2727	0.	5.6612e-002
20671	22.451	2.1818	0.	5.9513e-002
20672	22.359	2.1818	5.e-002	8.5442e-006
20673	22.359	2.4545	0.	5.7236e-002
20674	22.451	2.3636	0.	6.0108e-002
20675	22.359	2.3636	5.e-002	8.4687e-006
20676	22.359	2.6364	0.	5.7788e-002
20677	22.451	2.5455	0.	6.0613e-002
20678	22.359	2.5455	5.e-002	8.8639e-006
20679	22.359	2.8182	0.	5.8181e-002
20680	22.451	2.7273	0.	6.0995e-002
20681	22.359	2.7273	5.e-002	7.4911e-006
20682	22.359	3.	0.	5.8325e-002
20683	22.451	2.9091	0.	6.1204e-002
20684	22.359	2.9091	5.e-002	8.1906e-006
20685	22.359	3.1818	0.	5.8182e-002
20686	22.451	3.0909	0.	6.1204e-002
20687	22.359	3.0909	5.e-002	7.5414e-006
20688	22.359	3.3636	0.	5.7788e-002
20689	22.451	3.2727	0.	6.0995e-002
20690	22.359	3.2727	5.e-002	8.8122e-006
20691	22.359	3.5455	0.	5.7234e-002
20692	22.451	3.4545	0.	6.0613e-002
20693	22.359	3.4545	5.e-002	8.4707e-006
20694	22.359	3.7273	0.	5.6611e-002
20695	22.451	3.6364	0.	6.0107e-002
20696	22.359	3.6364	5.e-002	9.7641e-006
20697	22.359	3.9091	0.	5.5961e-002
20698	22.451	3.8182	0.	5.9513e-002
20699	22.359	3.8182	5.e-002	1.1055e-005
20700	22.359	4.0909	0.	5.5249e-002
20701	22.451	4.	0.	5.8821e-002
20702	22.359	4.	5.e-002	1.0359e-005
20703	22.359	4.2727	0.	5.4345e-002
20704	22.451	4.1818	0.	5.7953e-002
20705	22.359	4.1818	5.e-002	1.0022e-005
20706	22.359	4.4545	0.	5.3023e-002
20707	22.451	4.3636	0.	5.6749e-002
20708	22.359	4.3636	5.e-002	1.2463e-005
20709	22.359	4.6364	0.	5.0959e-002
20710	22.451	4.5455	0.	5.494e-002
20711	22.359	4.5455	5.e-002	1.0434e-005
20712	22.359	4.8182	0.	4.7666e-002
20713	22.451	4.7273	0.	5.2157e-002
20714	22.359	4.7273	5.e-002	1.2024e-005
20715	22.359	5.	0.	4.2595e-002
20716	22.451	4.9091	0.	4.7779e-002
20717	22.359	4.9091	5.e-002	1.2396e-005
20718	22.359	5.1818	0.	3.449e-002
20719	22.451	5.0909	0.	4.1275e-002
20720	22.359	5.0909	5.e-002	1.0552e-005
20721	22.359	5.3636	0.	2.3623e-002
20722	22.451	5.2727	0.	3.0424e-002
20723	22.359	5.2727	5.e-002	1.2084e-005
20724	22.359	5.5455	0.	-4.4954e-004
20725	22.451	5.4545	0.	1.7948e-002
20726	22.359	5.4545	5.e-002	1.1739e-005
20727	22.359	5.7273	0.	-2.2318e-002
20728	22.451	5.6364	0.	-2.158e-002
20729	22.359	5.6364	5.e-002	1.2521e-005
20730	22.451	5.8182	0.	-2.0411e-002
20731	22.359	5.8182	5.e-002	1.1693e-005
20732	22.359	5.9091	0.	1.6561e-002
20733	22.542	0.27273	0.	-2.8196e-002
20734	22.633	0.18182	0.	-2.7328e-002
20735	22.542	0.18182	5.e-002	8.3705e-006
20736	22.542	9.0909e-002	0.	1.879e-002
20737	22.542	0.45455	0.	-1.7354e-003
20738	22.633	0.36364	0.	-2.6212e-002
20739	22.542	0.36364	5.e-002	6.5846e-006
20740	22.542	0.63636	0.	2.6148e-002
20741	22.633	0.54545	0.	2.0401e-002
20742	22.542	0.54545	5.e-002	7.8292e-006
20743	22.542	0.81818	0.	3.8264e-002
20744	22.633	0.72727	0.	3.4406e-002
20745	22.542	0.72727	5.e-002	9.5106e-006
20746	22.542	1.	0.	4.7276e-002
20747	22.633	0.90909	0.	4.6515e-002
20748	22.542	0.90909	5.e-002	1.0474e-005
20749	22.542	1.1818	0.	5.2922e-002
20750	22.633	1.0909	0.	5.3668e-002
20751	22.542	1.0909	5.e-002	1.0201e-005
20752	22.542	1.3636	0.	5.6666e-002
20753	22.633	1.2727	0.	5.852e-002
20754	22.542	1.2727	5.e-002	8.6917e-006
20755	22.542	1.5455	0.	5.9095e-002
20756	22.633	1.4545	0.	6.1653e-002
20757	22.542	1.4545	5.e-002	8.7514e-006
20758	22.542	1.7273	0.	6.0707e-002
20759	22.633	1.6364	0.	6.374e-002
20760	22.542	1.6364	5.e-002	8.8788e-006
20761	22.542	1.9091	0.	6.1813e-002
20762	22.633	1.8182	0.	6.5149e-002
20763	22.542	1.8182	5.e-002	7.3425e-006
20764	22.542	2.0909	0.	6.2623e-002
20765	22.633	2.	0.	6.6142e-002
20766	22.542	2.	5.e-002	7.9401e-006
20767	22.542	2.2727	0.	6.3254e-002
20768	22.633	2.1818	0.	6.6877e-002
20769	22.542	2.1818	5.e-002	7.7746e-006
20770	22.542	2.4545	0.	6.3757e-002
20771	22.633	2.3636	0.	6.7441e-002
20772	22.542	2.3636	5.e-002	8.5037e-006
20773	22.542	2.6364	0.	6.4141e-002
20774	22.633	2.5455	0.	6.7866e-002
20775	22.542	2.5455	5.e-002	8.4508e-006
20776	22.542	2.8182	0.	6.4385e-002
20777	22.633	2.7273	0.	6.8159e-002
20778	22.542	2.7273	5.e-002	7.3888e-006
20779	22.542	3.	0.	6.4469e-002
20780	22.633	2.9091	0.	6.831e-002
20781	22.542	2.9091	5.e-002	7.9535e-006
20782	22.542	3.1818	0.	6.4384e-002
20783	22.633	3.0909	0.	6.8309e-002
20784	22.542	3.0909	5.e-002	7.303e-006
20785	22.542	3.3636	0.	6.414e-002
20786	22.633	3.2727	0.	6.8158e-002
20787	22.542	3.2727	5.e-002	8.8064e-006
20788	22.542	3.5455	0.	6.3757e-002
20789	22.633	3.4545	0.	6.7866e-002
20790	22.542	3.4545	5.e-002	9.6295e-006
20791	22.542	3.7273	0.	6.3254e-002
20792	22.633	3.6364	0.	6.7439e-002
20793	22.542	3.6364	5.e-002	1.003e-005
20794	22.542	3.9091	0.	6.2622e-002
20795	22.633	3.8182	0.	6.6878e-002
20796	22.542	3.8182	5.e-002	1.1684e-005
20797	22.542	4.0909	0.	6.1811e-002
20798	22.633	4.	0.	6.6141e-002
20799	22.542	4.	5.e-002	1.0799e-005
20800	22.542	4.2727	0.	6.0707e-002
20801	22.633	4.1818	0.	6.5148e-002
20802	22.542	4.1818	5.e-002	9.9864e-006
20803	22.542	4.4545	0.	5.9096e-002
20804	22.633	4.3636	0.	6.3741e-002
20805	22.542	4.3636	5.e-002	1.3028e-005
20806	22.542	4.6364	0.	5.6666e-002
20807	22.633	4.5455	0.	6.1654e-002
20808	22.542	4.5455	5.e-002	1.1077e-005
20809	22.542	4.8182	0.	5.2921e-002
20810	22.633	4.7273	0.	5.852e-002
20811	22.542	4.7273	5.e-002	1.2179e-005
20812	22.542	5.	0.	4.7275e-002
20813	22.633	4.9091	0.	5.3668e-002
20814	22.542	4.9091	5.e-002	1.1535e-005
20815	22.542	5.1818	0.	3.8265e-002
20816	22.633	5.0909	0.	4.6514e-002
20817	22.542	5.0909	5.e-002	9.8689e-006
20818	22.542	5.3636	0.	2.6149e-002
20819	22.633	5.2727	0.	3.4406e-002
20820	22.542	5.2727	5.e-002	1.0632e-005
20821	22.542	5.5455	0.	-1.7341e-003
20822	22.633	5.4545	0.	2.0401e-002
20823	22.542	5.4545	5.e-002	1.0469e-005
20824	22.542	5.7273	0.	-2.8195e-002
20825	22.633	5.6364	0.	-2.6211e-002
20826	22.542	5.6364	5.e-002	1.0503e-005
20827	22.633	5.8182	0.	-2.7328e-002
20828	22.542	5.8182	5.e-002	7.3515e-006
20829	22.542	5.9091	0.	1.8792e-002
20830	22.724	0.27273	0.	-3.4657e-002
20831	22.815	0.18182	0.	-3.5862e-002
20832	22.724	0.18182	5.e-002	9.9815e-006
20833	22.724	9.0909e-002	0.	2.2626e-002
20834	22.724	0.45455	0.	-1.9508e-003
20835	22.815	0.36364	0.	-3.0047e-002
20836	22.724	0.36364	5.e-002	7.8725e-006
20837	22.724	0.63636	0.	3.0486e-002
20838	22.815	0.54545	0.	2.5204e-002
20839	22.724	0.54545	5.e-002	5.3059e-006
20840	22.724	0.81818	0.	4.3996e-002
20841	22.815	0.72727	0.	4.0985e-002
20842	22.724	0.72727	5.e-002	8.72e-006
20843	22.724	1.	0.	5.3947e-002
20844	22.815	0.90909	0.	5.446e-002
20845	22.724	0.90909	5.e-002	1.1291e-005
20846	22.724	1.1818	0.	6.0124e-002
20847	22.815	1.0909	0.	6.2254e-002
20848	22.724	1.0909	5.e-002	1.1463e-005
20849	22.724	1.3636	0.	6.4248e-002
20850	22.815	1.2727	0.	6.7545e-002
20851	22.724	1.2727	5.e-002	9.2314e-006
20852	22.724	1.5455	0.	6.696e-002
20853	22.815	1.4545	0.	7.0983e-002
20854	22.724	1.4545	5.e-002	8.7881e-006
20855	22.724	1.7273	0.	6.8789e-002
20856	22.815	1.6364	0.	7.3303e-002
20857	22.724	1.6364	5.e-002	8.871e-006
20858	22.724	1.9091	0.	7.0048e-002
20859	22.815	1.8182	0.	7.4886e-002
20860	22.724	1.8182	5.e-002	7.54e-006
20861	22.724	2.0909	0.	7.0945e-002
20862	22.815	2.	0.	7.6001e-002
20863	22.724	2.	5.e-002	7.6441e-006
20864	22.724	2.2727	0.	7.1606e-002
20865	22.815	2.1818	0.	7.6806e-002
20866	22.724	2.1818	5.e-002	8.2028e-006
20867	22.724	2.4545	0.	7.2094e-002
20868	22.815	2.3636	0.	7.7394e-002
20869	22.724	2.3636	5.e-002	7.7699e-006
20870	22.724	2.6364	0.	7.2439e-002
20871	22.815	2.5455	0.	7.7814e-002
20872	22.724	2.5455	5.e-002	8.2468e-006
20873	22.724	2.8182	0.	7.2649e-002
20874	22.815	2.7273	0.	7.8092e-002
20875	22.724	2.7273	5.e-002	6.3032e-006
20876	22.724	3.	0.	7.2719e-002
20877	22.815	2.9091	0.	7.8231e-002
20878	22.724	2.9091	5.e-002	8.1453e-006
20879	22.724	3.1818	0.	7.2648e-002
20880	22.815	3.0909	0.	7.8231e-002
20881	22.724	3.0909	5.e-002	8.543e-006
20882	22.724	3.3636	0.	7.244e-002
20883	22.815	3.2727	0.	7.8093e-002
20884	22.724	3.2727	5.e-002	9.425e-006
20885	22.724	3.5455	0.	7.2094e-002
20886	22.815	3.4545	0.	7.7816e-002
20887	22.724	3.4545	5.e-002	9.8567e-006
20888	22.724	3.7273	0.	7.1605e-002
20889	22.815	3.6364	0.	7.7393e-002
20890	22.724	3.6364	5.e-002	1.0805e-005
20891	22.724	3.9091	0.	7.0946e-002
20892	22.815	3.8182	0.	7.6806e-002
20893	22.724	3.8182	5.e-002	1.228e-005
20894	22.724	4.0909	0.	7.0047e-002
20895	22.815	4.	0.	7.6002e-002
20896	22.724	4.	5.e-002	1.0471e-005
20897	22.724	4.2727	0.	6.8788e-002
20898	22.815	4.1818	0.	7.4887e-002
20899	22.724	4.1818	5.e-002	1.1089e-005
20900	22.724	4.4545	0.	6.696e-002
20901	22.815	4.3636	0.	7.3302e-002
20902	22.724	4.3636	5.e-002	1.316e-005
20903	22.724	4.6364	0.	6.4249e-002
20904	22.815	4.5455	0.	7.0983e-002
20905	22.724	4.5455	5.e-002	1.0918e-005
20906	22.724	4.8182	0.	6.0125e-002
20907	22.815	4.7273	0.	6.7544e-002
20908	22.724	4.7273	5.e-002	1.1963e-005
20909	22.724	5.	0.	5.3947e-002
20910	22.815	4.9091	0.	6.2254e-002
20911	22.724	4.9091	5.e-002	1.2191e-005
20912	22.724	5.1818	0.	4.3995e-002
20913	22.815	5.0909	0.	5.4461e-002
20914	22.724	5.0909	5.e-002	9.4816e-006
20915	22.724	5.3636	0.	3.0485e-002
20916	22.815	5.2727	0.	4.0982e-002
20917	22.724	5.2727	5.e-002	1.0047e-005
20918	22.724	5.5455	0.	-1.9512e-003
20919	22.815	5.4545	0.	2.5205e-002
20920	22.724	5.4545	5.e-002	8.9808e-006
20921	22.724	5.7273	0.	-3.4657e-002
20922	22.815	5.6364	0.	-3.0047e-002
20923	22.724	5.6364	5.e-002	8.8943e-006
20924	22.815	5.8182	0.	-3.5864e-002
20925	22.724	5.8182	5.e-002	5.7142e-006
20926	22.724	5.9091	0.	2.2626e-002
20927	22.906	0.27273	0.	-4.1065e-002
20928	22.997	0.18182	0.	-4.7152e-002
20929	22.906	0.18182	5.e-002	1.3946e-005
20930	22.906	9.0909e-002	0.	2.9274e-002
20931	22.906	0.45455	0.	1.9565e-004
20932	22.997	0.36364	0.	-3.3096e-002
20933	22.906	0.36364	5.e-002	7.2638e-006
20934	22.906	0.63636	0.	3.8123e-002
20935	22.997	0.54545	0.	3.2695e-002
20936	22.906	0.54545	5.e-002	4.5951e-006
20937	22.906	0.81818	0.	5.3207e-002
20938	22.997	0.72727	0.	5.0487e-002
20939	22.906	0.72727	5.e-002	8.3363e-006
20940	22.906	1.	0.	6.4158e-002
20941	22.997	0.90909	0.	6.5472e-002
20942	22.906	0.90909	5.e-002	9.9914e-006
20943	22.906	1.1818	0.	7.0862e-002
20944	22.997	1.0909	0.	7.3919e-002
20945	22.906	1.0909	5.e-002	9.7402e-006
20946	22.906	1.3636	0.	7.5348e-002
20947	22.997	1.2727	0.	7.9652e-002
20948	22.906	1.2727	5.e-002	8.0448e-006
20949	22.906	1.5455	0.	7.8322e-002
20950	22.997	1.4545	0.	8.3392e-002
20951	22.906	1.4545	5.e-002	7.1231e-006
20952	22.906	1.7273	0.	8.0351e-002
20953	22.997	1.6364	0.	8.5951e-002
20954	22.906	1.6364	5.e-002	7.2042e-006
20955	22.906	1.9091	0.	8.176e-002
20956	22.997	1.8182	0.	8.7714e-002
20957	22.906	1.8182	5.e-002	5.3917e-006
20958	22.906	2.0909	0.	8.2766e-002
20959	22.997	2.	0.	8.8967e-002
20960	22.906	2.	5.e-002	5.9835e-006
20961	22.906	2.2727	0.	8.3489e-002
20962	22.997	2.1818	0.	8.9865e-002
20963	22.906	2.1818	5.e-002	6.0791e-006
20964	22.906	2.4545	0.	8.4007e-002
20965	22.997	2.3636	0.	9.0511e-002
20966	22.906	2.3636	5.e-002	6.1493e-006
20967	22.906	2.6364	0.	8.4362e-002
20968	22.997	2.5455	0.	9.0964e-002
20969	22.906	2.5455	5.e-002	5.7153e-006
20970	22.906	2.8182	0.	8.4571e-002
20971	22.997	2.7273	0.	9.1256e-002
20972	22.906	2.7273	5.e-002	5.2541e-006
20973	22.906	3.	0.	8.464e-002
20974	22.997	2.9091	0.	9.1398e-002
20975	22.906	2.9091	5.e-002	6.6811e-006
20976	22.906	3.1818	0.	8.4572e-002
20977	22.997	3.0909	0.	9.1399e-002
20978	22.906	3.0909	5.e-002	6.6702e-006
20979	22.906	3.3636	0.	8.4363e-002
20980	22.997	3.2727	0.	9.1256e-002
20981	22.906	3.2727	5.e-002	8.0967e-006
20982	22.906	3.5455	0.	8.4008e-002
20983	22.997	3.4545	0.	9.0965e-002
20984	22.906	3.4545	5.e-002	8.5906e-006
20985	22.906	3.7273	0.	8.3488e-002
20986	22.997	3.6364	0.	9.0512e-002
20987	22.906	3.6364	5.e-002	9.5935e-006
20988	22.906	3.9091	0.	8.2765e-002
20989	22.997	3.8182	0.	8.9865e-002
20990	22.906	3.8182	5.e-002	1.0637e-005
20991	22.906	4.0909	0.	8.1762e-002
20992	22.997	4.	0.	8.8966e-002
20993	22.906	4.	5.e-002	1.0764e-005
20994	22.906	4.2727	0.	8.0351e-002
20995	22.997	4.1818	0.	8.7716e-002
20996	22.906	4.1818	5.e-002	9.4876e-006
20997	22.906	4.4545	0.	7.8321e-002
20998	22.997	4.3636	0.	8.5949e-002
20999	22.906	4.3636	5.e-002	1.1543e-005
21000	22.906	4.6364	0.	7.5348e-002
21001	22.997	4.5455	0.	8.3393e-002
21002	22.906	4.5455	5.e-002	1.0238e-005
21003	22.906	4.8182	0.	7.0861e-002
21004	22.997	4.7273	0.	7.9651e-002
21005	22.906	4.7273	5.e-002	1.1234e-005
21006	22.906	5.	0.	6.4159e-002
21007	22.997	4.9091	0.	7.3918e-002
21008	22.906	4.9091	5.e-002	1.0704e-005
21009	22.906	5.1818	0.	5.3206e-002
21010	22.997	5.0909	0.	6.5473e-002
21011	22.906	5.0909	5.e-002	8.7323e-006
21012	22.906	5.3636	0.	3.8123e-002
21013	22.997	5.2727	0.	5.0485e-002
21014	22.906	5.2727	5.e-002	8.7448e-006
21015	22.906	5.5455	0.	1.9677e-004
21016	22.997	5.4545	0.	3.2696e-002
21017	22.906	5.4545	5.e-002	6.9824e-006
21018	22.906	5.7273	0.	-4.1066e-002
21019	22.997	5.6364	0.	-3.3095e-002
21020	22.906	5.6364	5.e-002	7.0275e-006
21021	22.997	5.8182	0.	-4.7151e-002
21022	22.906	5.8182	5.e-002	3.5943e-006
21023	22.906	5.9091	0.	2.9273e-002
21024	23.089	0.27273	0.	-4.8838e-002
21025	23.18	0.18182	0.	-5.9469e-002
21026	23.089	0.18182	5.e-002	1.2032e-005
21027	23.089	9.0909e-002	0.	3.8793e-002
21028	23.089	0.45455	0.	3.9182e-003
21029	23.18	0.36364	0.	-3.0758e-002
21030	23.089	0.36364	5.e-002	9.1156e-006
21031	23.089	0.63636	0.	4.8369e-002
21032	23.18	0.54545	0.	4.8581e-002
21033	23.089	0.54545	5.e-002	1.0862e-005
21034	23.089	0.81818	0.	6.5191e-002
21035	23.18	0.72727	0.	6.8681e-002
21036	23.089	0.72727	5.e-002	1.0782e-005
21037	23.089	1.	0.	7.7236e-002
21038	23.18	0.90909	0.	8.5369e-002
21039	23.089	0.90909	5.e-002	8.5778e-006
21040	23.089	1.1818	0.	8.4491e-002
21041	23.18	1.0909	0.	9.4557e-002
21042	23.089	1.0909	5.e-002	8.2667e-006
21043	23.089	1.3636	0.	8.9361e-002
21044	23.18	1.2727	0.	0.1008
21045	23.089	1.2727	5.e-002	8.0778e-006
21046	23.089	1.5455	0.	9.2619e-002
21047	23.18	1.4545	0.	0.10489
21048	23.089	1.4545	5.e-002	5.8418e-006
21049	23.089	1.7273	0.	9.4874e-002
21050	23.18	1.6364	0.	0.10772
21051	23.089	1.6364	5.e-002	6.444e-006
21052	23.089	1.9091	0.	9.6457e-002
21053	23.18	1.8182	0.	0.1097
21054	23.089	1.8182	5.e-002	5.6376e-006
21055	23.089	2.0909	0.	9.7589e-002
21056	23.18	2.	0.	0.11111
21057	23.089	2.	5.e-002	5.2986e-006
21058	23.089	2.2727	0.	9.8403e-002
21059	23.18	2.1818	0.	0.11212
21060	23.089	2.1818	5.e-002	5.8982e-006
21061	23.089	2.4545	0.	9.8982e-002
21062	23.18	2.3636	0.	0.11285
21063	23.089	2.3636	5.e-002	6.4724e-006
21064	23.089	2.6364	0.	9.9371e-002
21065	23.18	2.5455	0.	0.11335
21066	23.089	2.5455	5.e-002	7.0298e-006
21067	23.089	2.8182	0.	9.9597e-002
21068	23.18	2.7273	0.	0.11367
21069	23.089	2.7273	5.e-002	6.6109e-006
21070	23.089	3.	0.	9.9671e-002
21071	23.18	2.9091	0.	0.11382
21072	23.089	2.9091	5.e-002	7.609e-006
21073	23.089	3.1818	0.	9.9596e-002
21074	23.18	3.0909	0.	0.11382
21075	23.089	3.0909	5.e-002	7.1735e-006
21076	23.089	3.3636	0.	9.9371e-002
21077	23.18	3.2727	0.	0.11366
21078	23.089	3.2727	5.e-002	8.6521e-006
21079	23.089	3.5455	0.	9.8982e-002
21080	23.18	3.4545	0.	0.11335
21081	23.089	3.4545	5.e-002	9.1944e-006
21082	23.089	3.7273	0.	9.8404e-002
21083	23.18	3.6364	0.	0.11284
21084	23.089	3.6364	5.e-002	1.0718e-005
21085	23.089	3.9091	0.	9.759e-002
21086	23.18	3.8182	0.	0.11212
21087	23.089	3.8182	5.e-002	1.2758e-005
21088	23.089	4.0909	0.	9.6457e-002
21089	23.18	4.	0.	0.11111
21090	23.089	4.	5.e-002	1.1961e-005
21091	23.089	4.2727	0.	9.4874e-002
21092	23.18	4.1818	0.	0.1097
21093	23.089	4.1818	5.e-002	1.1191e-005
21094	23.089	4.4545	0.	9.2619e-002
21095	23.18	4.3636	0.	0.10772
21096	23.089	4.3636	5.e-002	1.3756e-005
21097	23.089	4.6364	0.	8.936e-002
21098	23.18	4.5455	0.	0.10489
21099	23.089	4.5455	5.e-002	1.1497e-005
21100	23.089	4.8182	0.	8.449e-002
21101	23.18	4.7273	0.	0.1008
21102	23.089	4.7273	5.e-002	1.3489e-005
21103	23.089	5.	0.	7.7235e-002
21104	23.18	4.9091	0.	9.4556e-002
21105	23.089	4.9091	5.e-002	1.2484e-005
21106	23.089	5.1818	0.	6.5189e-002
21107	23.18	5.0909	0.	8.537e-002
21108	23.089	5.0909	5.e-002	1.002e-005
21109	23.089	5.3636	0.	4.8368e-002
21110	23.18	5.2727	0.	6.868e-002
21111	23.089	5.2727	5.e-002	9.0617e-006
21112	23.089	5.5455	0.	3.9189e-003
21113	23.18	5.4545	0.	4.8581e-002
21114	23.089	5.4545	5.e-002	8.47e-006
21115	23.089	5.7273	0.	-4.8835e-002
21116	23.18	5.6364	0.	-3.0755e-002
21117	23.089	5.6364	5.e-002	8.506e-006
21118	23.18	5.8182	0.	-5.9468e-002
21119	23.089	5.8182	5.e-002	5.5945e-006
21120	23.089	5.9091	0.	3.8794e-002
21121	23.271	0.27273	0.	-4.9439e-002
21122	23.362	0.18182	0.	-8.257e-002
21123	23.271	0.18182	5.e-002	3.8345e-006
21124	23.271	9.0909e-002	0.	6.0527e-002
21125	23.271	0.45455	0.	2.0691e-002
21126	23.362	0.36364	0.	-3.1278e-002
21127	23.271	0.36364	5.e-002	7.2943e-006
21128	23.271	0.63636	0.	7.3717e-002
21129	23.362	0.54545	0.	6.3379e-002
21130	23.271	0.54545	5.e-002	1.1219e-005
21131	23.271	0.81818	0.	9.258e-002
21132	23.362	0.72727	0.	8.6741e-002
21133	23.271	0.72727	5.e-002	9.6818e-006
21134	23.271	1.	0.	0.10592
21135	23.362	0.90909	0.	0.10538
21136	23.271	0.90909	5.e-002	6.9282e-006
21137	23.271	1.1818	0.	0.11388
21138	23.362	1.0909	0.	0.11545
21139	23.271	1.0909	5.e-002	5.6252e-006
21140	23.271	1.3636	0.	0.11924
21141	23.362	1.2727	0.	0.12236
21142	23.271	1.2727	5.e-002	4.4505e-006
21143	23.271	1.5455	0.	0.12285
21144	23.362	1.4545	0.	0.12693
21145	23.271	1.4545	5.e-002	2.7893e-006
21146	23.271	1.7273	0.	0.12538
21147	23.362	1.6364	0.	0.13012
21148	23.271	1.6364	5.e-002	3.5956e-006
21149	23.271	1.9091	0.	0.12716
21150	23.362	1.8182	0.	0.13238
21151	23.271	1.8182	5.e-002	1.9292e-006
21152	23.271	2.0909	0.	0.12845
21153	23.362	2.	0.	0.134
21154	23.271	2.	5.e-002	3.1073e-006
21155	23.271	2.2727	0.	0.12937
21156	23.362	2.1818	0.	0.13517
21157	23.271	2.1818	5.e-002	5.1964e-006
21158	23.271	2.4545	0.	0.13002
21159	23.362	2.3636	0.	0.136
21160	23.271	2.3636	5.e-002	4.3922e-006
21161	23.271	2.6364	0.	0.13045
21162	23.362	2.5455	0.	0.13658
21163	23.271	2.5455	5.e-002	6.431e-006
21164	23.271	2.8182	0.	0.13069
21165	23.362	2.7273	0.	0.13695
21166	23.271	2.7273	5.e-002	3.6758e-006
21167	23.271	3.	0.	0.13077
21168	23.362	2.9091	0.	0.13712
21169	23.271	2.9091	5.e-002	7.5839e-006
21170	23.271	3.1818	0.	0.13069
21171	23.362	3.0909	0.	0.13712
21172	23.271	3.0909	5.e-002	6.7221e-006
21173	23.271	3.3636	0.	0.13045
21174	23.362	3.2727	0.	0.13695
21175	23.271	3.2727	5.e-002	7.7748e-006
21176	23.271	3.5455	0.	0.13001
21177	23.362	3.4545	0.	0.13658
21178	23.271	3.4545	5.e-002	7.8909e-006
21179	23.271	3.7273	0.	0.12937
21180	23.362	3.6364	0.	0.13601
21181	23.271	3.6364	5.e-002	1.1852e-005
21182	23.271	3.9091	0.	0.12845
21183	23.362	3.8182	0.	0.13517
21184	23.271	3.8182	5.e-002	1.1088e-005
21185	23.271	4.0909	0.	0.12716
21186	23.362	4.	0.	0.134
21187	23.271	4.	5.e-002	1.2258e-005
21188	23.271	4.2727	0.	0.12538
21189	23.362	4.1818	0.	0.13238
21190	23.271	4.1818	5.e-002	1.0608e-005
21191	23.271	4.4545	0.	0.12285
21192	23.362	4.3636	0.	0.13012
21193	23.271	4.3636	5.e-002	1.3711e-005
21194	23.271	4.6364	0.	0.11923
21195	23.362	4.5455	0.	0.12693
21196	23.271	4.5455	5.e-002	1.2522e-005
21197	23.271	4.8182	0.	0.11387
21198	23.362	4.7273	0.	0.12236
21199	23.271	4.7273	5.e-002	1.3199e-005
21200	23.271	5.	0.	0.10592
21201	23.362	4.9091	0.	0.11545
21202	23.271	4.9091	5.e-002	1.3206e-005
21203	23.271	5.1818	0.	9.258e-002
21204	23.362	5.0909	0.	0.10538
21205	23.271	5.0909	5.e-002	1.0037e-005
21206	23.271	5.3636	0.	7.3717e-002
21207	23.362	5.2727	0.	8.6741e-002
21208	23.271	5.2727	5.e-002	1.0738e-005
21209	23.271	5.5455	0.	2.0693e-002
21210	23.362	5.4545	0.	6.3381e-002
21211	23.271	5.4545	5.e-002	9.2372e-006
21212	23.271	5.7273	0.	-4.9438e-002
21213	23.362	5.6364	0.	-3.1277e-002
21214	23.271	5.6364	5.e-002	9.0887e-006
21215	23.362	5.8182	0.	-8.2571e-002
21216	23.271	5.8182	5.e-002	5.647e-006
21217	23.271	5.9091	0.	6.0525e-002
21218	23.453	0.27273	0.	-6.7495e-002
21219	23.544	0.18182	0.	-8.2318e-002
21220	23.453	0.18182	5.e-002	4.4402e-006
21221	23.453	9.0909e-002	0.	7.7443e-002
21222	23.453	0.45455	0.	2.241e-002
21223	23.544	0.36364	0.	2.1332e-002
21224	23.453	0.36364	5.e-002	7.5757e-006
21225	23.453	0.63636	0.	8.4426e-002
21226	23.544	0.54545	0.	0.14487
21227	23.453	0.54545	5.e-002	1.3759e-005
21228	23.453	0.81818	0.	0.10628
21229	23.544	0.72727	0.	0.17164
21230	23.453	0.72727	5.e-002	1.0813e-005
21231	23.453	1.	0.	0.12117
21232	23.544	0.90909	0.	0.19382
21233	23.453	0.90909	5.e-002	7.6189e-006
21234	23.453	1.1818	0.	0.13002
21235	23.544	1.0909	0.	0.20552
21236	23.453	1.0909	5.e-002	4.0532e-006
21237	23.453	1.3636	0.	0.13608
21238	23.544	1.2727	0.	0.21362
21239	23.453	1.2727	5.e-002	1.8366e-006
21240	23.453	1.5455	0.	0.14021
21241	23.544	1.4545	0.	0.21896
21242	23.453	1.4545	5.e-002	2.6915e-006
21243	23.453	1.7273	0.	0.14314
21244	23.544	1.6364	0.	0.22266
21245	23.453	1.6364	5.e-002	3.1934e-006
21246	23.453	1.9091	0.	0.14524
21247	23.544	1.8182	0.	0.22524
21248	23.453	1.8182	5.e-002	4.4529e-006
21249	23.453	2.0909	0.	0.14675
21250	23.544	2.	0.	0.22706
21251	23.453	2.	5.e-002	3.7984e-006
21252	23.453	2.2727	0.	0.14784
21253	23.544	2.1818	0.	0.22833
21254	23.453	2.1818	5.e-002	5.931e-006
21255	23.453	2.4545	0.	0.14861
21256	23.544	2.3636	0.	0.22921
21257	23.453	2.3636	5.e-002	6.1397e-006
21258	23.453	2.6364	0.	0.14913
21259	23.544	2.5455	0.	0.22981
21260	23.453	2.5455	5.e-002	7.2722e-006
21261	23.453	2.8182	0.	0.14942
21262	23.544	2.7273	0.	0.23017
21263	23.453	2.7273	5.e-002	5.5163e-006
21264	23.453	3.	0.	0.14952
21265	23.544	2.9091	0.	0.23034
21266	23.453	2.9091	5.e-002	7.5612e-006
21267	23.453	3.1818	0.	0.14942
21268	23.544	3.0909	0.	0.23034
21269	23.453	3.0909	5.e-002	7.6985e-006
21270	23.453	3.3636	0.	0.14913
21271	23.544	3.2727	0.	0.23017
21272	23.453	3.2727	5.e-002	1.1657e-005
21273	23.453	3.5455	0.	0.14861
21274	23.544	3.4545	0.	0.22981
21275	23.453	3.4545	5.e-002	1.1818e-005
21276	23.453	3.7273	0.	0.14785
21277	23.544	3.6364	0.	0.22922
21278	23.453	3.6364	5.e-002	1.3921e-005
21279	23.453	3.9091	0.	0.14675
21280	23.544	3.8182	0.	0.22833
21281	23.453	3.8182	5.e-002	1.6074e-005
21282	23.453	4.0909	0.	0.14524
21283	23.544	4.	0.	0.22706
21284	23.453	4.	5.e-002	1.7312e-005
21285	23.453	4.2727	0.	0.14314
21286	23.544	4.1818	0.	0.22524
21287	23.453	4.1818	5.e-002	1.4778e-005
21288	23.453	4.4545	0.	0.14021
21289	23.544	4.3636	0.	0.22266
21290	23.453	4.3636	5.e-002	1.7984e-005
21291	23.453	4.6364	0.	0.13608
21292	23.544	4.5455	0.	0.21896
21293	23.453	4.5455	5.e-002	1.7344e-005
21294	23.453	4.8182	0.	0.13002
21295	23.544	4.7273	0.	0.21362
21296	23.453	4.7273	5.e-002	1.8645e-005
21297	23.453	5.	0.	0.12117
21298	23.544	4.9091	0.	0.20552
21299	23.453	4.9091	5.e-002	1.8956e-005
21300	23.453	5.1818	0.	0.10628
21301	23.544	5.0909	0.	0.19382
21302	23.453	5.0909	5.e-002	1.6103e-005
21303	23.453	5.3636	0.	8.4429e-002
21304	23.544	5.2727	0.	0.17164
21305	23.453	5.2727	5.e-002	1.6502e-005
21306	23.453	5.5455	0.	2.2413e-002
21307	23.544	5.4545	0.	0.14487
21308	23.453	5.4545	5.e-002	1.5178e-005
21309	23.453	5.7273	0.	-6.7496e-002
21310	23.544	5.6364	0.	2.1331e-002
21311	23.453	5.6364	5.e-002	1.4667e-005
21312	23.544	5.8182	0.	-8.2319e-002
21313	23.453	5.8182	5.e-002	1.1498e-005
21314	23.453	5.9091	0.	7.7445e-002
21315	23.635	0.27273	0.	1.7752e-002
21316	23.727	0.18182	0.	-0.24754
21317	23.635	0.18182	5.e-002	-1.1289e-006
21318	23.635	9.0909e-002	0.	0.19526
21319	23.635	0.45455	0.	0.16527
21320	23.727	0.36364	0.	-5.8566e-002
21321	23.635	0.36364	5.e-002	7.0425e-006
21322	23.635	0.63636	0.	0.24969
21323	23.727	0.54545	0.	0.11596
21324	23.635	0.54545	5.e-002	9.7759e-006
21325	23.635	0.81818	0.	0.27568
21326	23.727	0.72727	0.	0.14914
21327	23.635	0.72727	5.e-002	6.3627e-006
21328	23.635	1.	0.	0.29445
21329	23.727	0.90909	0.	0.17917
21330	23.635	0.90909	5.e-002	3.8021e-006
21331	23.635	1.1818	0.	0.30545
21332	23.727	1.0909	0.	0.19534
21333	23.635	1.0909	5.e-002	1.0089e-007
21334	23.635	1.3636	0.	0.31292
21335	23.727	1.2727	0.	0.20675
21336	23.635	1.2727	5.e-002	-3.4295e-006
21337	23.635	1.5455	0.	0.31793
21338	23.727	1.4545	0.	0.2144
21339	23.635	1.4545	5.e-002	-3.4564e-006
21340	23.635	1.7273	0.	0.32137
21341	23.727	1.6364	0.	0.21978
21342	23.635	1.6364	5.e-002	5.4926e-007
21343	23.635	1.9091	0.	0.32373
21344	23.727	1.8182	0.	0.22354
21345	23.635	1.8182	5.e-002	-1.0973e-006
21346	23.635	2.0909	0.	0.32535
21347	23.727	2.	0.	0.22618
21348	23.635	2.	5.e-002	-8.7088e-007
21349	23.635	2.2727	0.	0.32645
21350	23.727	2.1818	0.	0.22802
21351	23.635	2.1818	5.e-002	1.2459e-006
21352	23.635	2.4545	0.	0.32717
21353	23.727	2.3636	0.	0.22928
21354	23.635	2.3636	5.e-002	1.4182e-006
21355	23.635	2.6364	0.	0.32763
21356	23.727	2.5455	0.	0.23012
21357	23.635	2.5455	5.e-002	2.528e-006
21358	23.635	2.8182	0.	0.32788
21359	23.727	2.7273	0.	0.23062
21360	23.635	2.7273	5.e-002	2.6677e-006
21361	23.635	3.	0.	0.32796
21362	23.727	2.9091	0.	0.23086
21363	23.635	2.9091	5.e-002	5.6572e-006
21364	23.635	3.1818	0.	0.32788
21365	23.727	3.0909	0.	0.23086
21366	23.635	3.0909	5.e-002	4.8338e-006
21367	23.635	3.3636	0.	0.32763
21368	23.727	3.2727	0.	0.23062
21369	23.635	3.2727	5.e-002	7.8286e-006
21370	23.635	3.5455	0.	0.32717
21371	23.727	3.4545	0.	0.23012
21372	23.635	3.4545	5.e-002	9.8785e-006
21373	23.635	3.7273	0.	0.32645
21374	23.727	3.6364	0.	0.22928
21375	23.635	3.6364	5.e-002	1.0999e-005
21376	23.635	3.9091	0.	0.32535
21377	23.727	3.8182	0.	0.22802
21378	23.635	3.8182	5.e-002	1.408e-005
21379	23.635	4.0909	0.	0.32373
21380	23.727	4.	0.	0.22618
21381	23.635	4.	5.e-002	1.432e-005
21382	23.635	4.2727	0.	0.32137
21383	23.727	4.1818	0.	0.22354
21384	23.635	4.1818	5.e-002	1.3634e-005
21385	23.635	4.4545	0.	0.31793
21386	23.727	4.3636	0.	0.21978
21387	23.635	4.3636	5.e-002	1.7687e-005
21388	23.635	4.6364	0.	0.31292
21389	23.727	4.5455	0.	0.2144
21390	23.635	4.5455	5.e-002	1.5107e-005
21391	23.635	4.8182	0.	0.30545
21392	23.727	4.7273	0.	0.20675
21393	23.635	4.7273	5.e-002	1.632e-005
21394	23.635	5.	0.	0.29445
21395	23.727	4.9091	0.	0.19534
21396	23.635	4.9091	5.e-002	1.7457e-005
21397	23.635	5.1818	0.	0.27568
21398	23.727	5.0909	0.	0.17917
21399	23.635	5.0909	5.e-002	1.5879e-005
21400	23.635	5.3636	0.	0.24969
21401	23.727	5.2727	0.	0.14914
21402	23.635	5.2727	5.e-002	1.5766e-005
21403	23.635	5.5455	0.	0.16527
21404	23.727	5.4545	0.	0.11596
21405	23.635	5.4545	5.e-002	1.2964e-005
21406	23.635	5.7273	0.	1.7751e-002
21407	23.727	5.6364	0.	-5.8565e-002
21408	23.635	5.6364	5.e-002	1.1969e-005
21409	23.727	5.8182	0.	-0.24755
21410	23.635	5.8182	5.e-002	7.284e-006
21411	23.635	5.9091	0.	0.19526
21412	23.818	0.27273	0.	-0.25959
21413	23.818	0.18182	5.e-002	6.5797e-007
21414	23.818	9.0909e-002	0.	2.2156e-002
21415	23.909	0.18182	0.	4.727e-002
21416	23.818	0.45455	0.	-3.4123e-002
21417	23.818	0.36364	5.e-002	1.3236e-006
21418	23.909	0.36364	0.	0.23779
21419	23.818	0.63636	0.	8.8635e-002
21420	23.818	0.54545	5.e-002	4.3822e-006
21421	23.909	0.54545	0.	0.39729
21422	23.818	0.81818	0.	0.12795
21423	23.818	0.72727	5.e-002	5.0783e-006
21424	23.909	0.72727	0.	0.40613
21425	23.818	1.	0.	0.15765
21426	23.818	0.90909	5.e-002	3.9765e-006
21427	23.909	0.90909	0.	0.42377
21428	23.818	1.1818	0.	0.17611
21429	23.818	1.0909	5.e-002	1.5951e-006
21430	23.909	1.0909	0.	0.43082
21431	23.818	1.3636	0.	0.18917
21432	23.818	1.2727	5.e-002	3.5224e-007
21433	23.909	1.2727	0.	0.43624
21434	23.818	1.5455	0.	0.19828
21435	23.818	1.4545	5.e-002	-5.0549e-007
21436	23.909	1.4545	0.	0.43965
21437	23.818	1.7273	0.	0.20477
21438	23.818	1.6364	5.e-002	-3.3747e-007
21439	23.909	1.6364	0.	0.44207
21440	23.818	1.9091	0.	0.20937
21441	23.818	1.8182	5.e-002	-1.7387e-007
21442	23.909	1.8182	0.	0.44376
21443	23.818	2.0909	0.	0.21263
21444	23.818	2.	5.e-002	9.7411e-007
21445	23.909	2.	0.	0.44497
21446	23.818	2.2727	0.	0.21489
21447	23.818	2.1818	5.e-002	1.178e-006
21448	23.909	2.1818	0.	0.44584
21449	23.818	2.4545	0.	0.21642
21450	23.818	2.3636	5.e-002	3.2587e-006
21451	23.909	2.3636	0.	0.44646
21452	23.818	2.6364	0.	0.2174
21453	23.818	2.5455	5.e-002	3.4301e-006
21454	23.909	2.5455	0.	0.44688
21455	23.818	2.8182	0.	0.21795
21456	23.818	2.7273	5.e-002	3.5853e-006
21457	23.909	2.7273	0.	0.44714
21458	23.818	3.	0.	0.21812
21459	23.818	2.9091	5.e-002	6.5981e-006
21460	23.909	2.9091	0.	0.44727
21461	23.818	3.1818	0.	0.21795
21462	23.818	3.0909	5.e-002	7.7082e-006
21463	23.909	3.0909	0.	0.44727
21464	23.818	3.3636	0.	0.2174
21465	23.818	3.2727	5.e-002	9.771e-006
21466	23.909	3.2727	0.	0.44714
21467	23.818	3.5455	0.	0.21642
21468	23.818	3.4545	5.e-002	1.2788e-005
21469	23.909	3.4545	0.	0.44688
21470	23.818	3.7273	0.	0.21489
21471	23.818	3.6364	5.e-002	1.3926e-005
21472	23.909	3.6364	0.	0.44646
21473	23.818	3.9091	0.	0.21263
21474	23.818	3.8182	5.e-002	1.7005e-005
21475	23.909	3.8182	0.	0.44584
21476	23.818	4.0909	0.	0.20937
21477	23.818	4.	5.e-002	1.8195e-005
21478	23.909	4.	0.	0.44497
21479	23.818	4.2727	0.	0.20477
21480	23.818	4.1818	5.e-002	1.7499e-005
21481	23.909	4.1818	0.	0.44376
21482	23.818	4.4545	0.	0.19828
21483	23.818	4.3636	5.e-002	2.2477e-005
21484	23.909	4.3636	0.	0.44207
21485	23.818	4.6364	0.	0.18917
21486	23.818	4.5455	5.e-002	1.9932e-005
21487	23.909	4.5455	0.	0.43965
21488	23.818	4.8182	0.	0.17611
21489	23.818	4.7273	5.e-002	2.1111e-005
21490	23.909	4.7273	0.	0.43624
21491	23.818	5.	0.	0.15765
21492	23.818	4.9091	5.e-002	2.2204e-005
21493	23.909	4.9091	0.	0.43082
21494	23.818	5.1818	0.	0.12795
21495	23.818	5.0909	5.e-002	2.0875e-005
21496	23.909	5.0909	0.	0.42377
21497	23.818	5.3636	0.	8.8638e-002
21498	23.818	5.2727	5.e-002	2.0727e-005
21499	23.909	5.2727	0.	0.40613
21500	23.818	5.5455	0.	-3.4119e-002
21501	23.818	5.4545	5.e-002	1.9317e-005
21502	23.909	5.4545	0.	0.39729
21503	23.818	5.7273	0.	-0.25959
21504	23.818	5.6364	5.e-002	1.9095e-005
21505	23.909	5.6364	0.	0.23779
21506	23.818	5.8182	5.e-002	1.3927e-005
21507	23.909	5.8182	0.	4.7271e-002
21508	23.818	5.9091	0.	2.2157e-002
21509	23.818	5.7273	0.1	0.25959
21510	23.727	5.8182	0.1	0.24755
21511	23.818	5.9091	0.1	-2.2156e-002
21512	23.909	5.8182	0.1	-4.727e-002
21513	23.818	5.5455	0.1	3.4119e-002
21514	23.727	5.6364	0.1	5.8566e-002
21515	23.909	5.6364	0.1	-0.23779
21516	23.818	5.3636	0.1	-8.8637e-002
21517	23.727	5.4545	0.1	-0.11596
21518	23.909	5.4545	0.1	-0.39729
21519	23.818	5.1818	0.1	-0.12795
21520	23.727	5.2727	0.1	-0.14914
21521	23.909	5.2727	0.1	-0.40612
21522	23.818	5.	0.1	-0.15765
21523	23.727	5.0909	0.1	-0.17917
21524	23.909	5.0909	0.1	-0.42377
21525	23.818	4.8182	0.1	-0.17611
21526	23.727	4.9091	0.1	-0.19534
21527	23.909	4.9091	0.1	-0.43082
21528	23.818	4.6364	0.1	-0.18917
21529	23.727	4.7273	0.1	-0.20675
21530	23.909	4.7273	0.1	-0.43624
21531	23.818	4.4545	0.1	-0.19828
21532	23.727	4.5455	0.1	-0.2144
21533	23.909	4.5455	0.1	-0.43965
21534	23.818	4.2727	0.1	-0.20477
21535	23.727	4.3636	0.1	-0.21978
21536	23.909	4.3636	0.1	-0.44207
21537	23.818	4.0909	0.1	-0.20937
21538	23.727	4.1818	0.1	-0.22354
21539	23.909	4.1818	0.1	-0.44376
21540	23.818	3.9091	0.1	-0.21263
21541	23.727	4.	0.1	-0.22618
21542	23.909	4.	0.1	-0.44497
21543	23.818	3.7273	0.1	-0.21489
21544	23.727	3.8182	0.1	-0.22802
21545	23.909	3.8182	0.1	-0.44584
21546	23.818	3.5455	0.1	-0.21642
21547	23.727	3.6364	0.1	-0.22928
21548	23.909	3.6364	0.1	-0.44646
21549	23.818	3.3636	0.1	-0.2174
21550	23.727	3.4545	0.1	-0.23012
21551	23.909	3.4545	0.1	-0.44688
21552	23.818	3.1818	0.1	-0.21795
21553	23.727	3.2727	0.1	-0.23062
21554	23.909	3.2727	0.1	-0.44714
21555	23.818	3.	0.1	-0.21812
21556	23.727	3.0909	0.1	-0.23086
21557	23.909	3.0909	0.1	-0.44727
21558	23.818	2.8182	0.1	-0.21795
21559	23.727	2.9091	0.1	-0.23086
21560	23.909	2.9091	0.1	-0.44727
21561	23.818	2.6364	0.1	-0.2174
21562	23.727	2.7273	0.1	-0.23062
21563	23.909	2.7273	0.1	-0.44714
21564	23.818	2.4545	0.1	-0.21642
21565	23.727	2.5455	0.1	-0.23012
21566	23.909	2.5455	0.1	-0.44688
21567	23.818	2.2727	0.1	-0.21489
21568	23.727	2.3636	0.1	-0.22928
21569	23.909	2.3636	0.1	-0.44646
21570	23.818	2.0909	0.1	-0.21263
21571	23.727	2.1818	0.1	-0.22802
21572	23.909	2.1818	0.1	-0.44584
21573	23.818	1.9091	0.1	-0.20937
21574	23.727	2.	0.1	-0.22618
21575	23.909	2.	0.1	-0.44497
21576	23.818	1.7273	0.1	-0.20477
21577	23.727	1.8182	0.1	-0.22354
21578	23.909	1.8182	0.1	-0.44376
21579	23.818	1.5455	0.1	-0.19828
21580	23.727	1.6364	0.1	-0.21978
21581	23.909	1.6364	0.1	-0.44207
21582	23.818	1.3636	0.1	-0.18917
21583	23.727	1.4545	0.1	-0.2144
21584	23.909	1.4545	0.1	-0.43965
21585	23.818	1.1818	0.1	-0.17611
21586	23.727	1.2727	0.1	-0.20675
21587	23.909	1.2727	0.1	-0.43624
21588	23.818	1.	0.1	-0.15765
21589	23.727	1.0909	0.1	-0.19534
21590	23.909	1.0909	0.1	-0.43082
21591	23.818	0.81818	0.1	-0.12795
21592	23.727	0.90909	0.1	-0.17917
21593	23.909	0.90909	0.1	-0.42377
21594	23.818	0.63636	0.1	-8.8635e-002
21595	23.727	0.72727	0.1	-0.14914
21596	23.909	0.72727	0.1	-0.40612
21597	23.818	0.45455	0.1	3.4122e-002
21598	23.727	0.54545	0.1	-0.11596
21599	23.909	0.54545	0.1	-0.39729
21600	23.818	0.27273	0.1	0.25959
21601	23.727	0.36364	0.1	5.8568e-002
21602	23.909	0.36364	0.1	-0.23779
21603	23.727	0.18182	0.1	0.24754
21604	23.909	0.18182	0.1	-4.7272e-002
21605	23.818	9.0909e-002	0.1	-2.2157e-002
21606	23.635	5.7273	0.1	-1.775e-002
21607	23.544	5.8182	0.1	8.232e-002
21608	23.635	5.9091	0.1	-0.19526
21609	23.635	5.5455	0.1	-0.16527
21610	23.544	5.6364	0.1	-2.133e-002
21611	23.635	5.3636	0.1	-0.24969
21612	23.544	5.4545	0.1	-0.14487
21613	23.635	5.1818	0.1	-0.27568
21614	23.544	5.2727	0.1	-0.17164
21615	23.635	5.	0.1	-0.29445
21616	23.544	5.0909	0.1	-0.19382
21617	23.635	4.8182	0.1	-0.30545
21618	23.544	4.9091	0.1	-0.20552
21619	23.635	4.6364	0.1	-0.31292
21620	23.544	4.7273	0.1	-0.21362
21621	23.635	4.4545	0.1	-0.31793
21622	23.544	4.5455	0.1	-0.21896
21623	23.635	4.2727	0.1	-0.32137
21624	23.544	4.3636	0.1	-0.22266
21625	23.635	4.0909	0.1	-0.32373
21626	23.544	4.1818	0.1	-0.22524
21627	23.635	3.9091	0.1	-0.32535
21628	23.544	4.	0.1	-0.22706
21629	23.635	3.7273	0.1	-0.32645
21630	23.544	3.8182	0.1	-0.22833
21631	23.635	3.5455	0.1	-0.32717
21632	23.544	3.6364	0.1	-0.22922
21633	23.635	3.3636	0.1	-0.32763
21634	23.544	3.4545	0.1	-0.22981
21635	23.635	3.1818	0.1	-0.32788
21636	23.544	3.2727	0.1	-0.23017
21637	23.635	3.	0.1	-0.32796
21638	23.544	3.0909	0.1	-0.23034
21639	23.635	2.8182	0.1	-0.32788
21640	23.544	2.9091	0.1	-0.23034
21641	23.635	2.6364	0.1	-0.32763
21642	23.544	2.7273	0.1	-0.23017
21643	23.635	2.4545	0.1	-0.32717
21644	23.544	2.5455	0.1	-0.22981
21645	23.635	2.2727	0.1	-0.32645
21646	23.544	2.3636	0.1	-0.22922
21647	23.635	2.0909	0.1	-0.32535
21648	23.544	2.1818	0.1	-0.22833
21649	23.635	1.9091	0.1	-0.32373
21650	23.544	2.	0.1	-0.22706
21651	23.635	1.7273	0.1	-0.32137
21652	23.544	1.8182	0.1	-0.22524
21653	23.635	1.5455	0.1	-0.31793
21654	23.544	1.6364	0.1	-0.22266
21655	23.635	1.3636	0.1	-0.31292
21656	23.544	1.4545	0.1	-0.21896
21657	23.635	1.1818	0.1	-0.30545
21658	23.544	1.2727	0.1	-0.21362
21659	23.635	1.	0.1	-0.29445
21660	23.544	1.0909	0.1	-0.20552
21661	23.635	0.81818	0.1	-0.27568
21662	23.544	0.90909	0.1	-0.19382
21663	23.635	0.63636	0.1	-0.24968
21664	23.544	0.72727	0.1	-0.17164
21665	23.635	0.45455	0.1	-0.16527
21666	23.544	0.54545	0.1	-0.14487
21667	23.635	0.27273	0.1	-1.7752e-002
21668	23.544	0.36364	0.1	-2.1328e-002
21669	23.544	0.18182	0.1	8.2315e-002
21670	23.635	9.0909e-002	0.1	-0.19526
21671	23.453	5.7273	0.1	6.7497e-002
21672	23.362	5.8182	0.1	8.2572e-002
21673	23.453	5.9091	0.1	-7.7444e-002
21674	23.453	5.5455	0.1	-2.2412e-002
21675	23.362	5.6364	0.1	3.1277e-002
21676	23.453	5.3636	0.1	-8.4428e-002
21677	23.362	5.4545	0.1	-6.3381e-002
21678	23.453	5.1818	0.1	-0.10628
21679	23.362	5.2727	0.1	-8.6741e-002
21680	23.453	5.	0.1	-0.12117
21681	23.362	5.0909	0.1	-0.10538
21682	23.453	4.8182	0.1	-0.13002
21683	23.362	4.9091	0.1	-0.11545
21684	23.453	4.6364	0.1	-0.13608
21685	23.362	4.7273	0.1	-0.12236
21686	23.453	4.4545	0.1	-0.14021
21687	23.362	4.5455	0.1	-0.12693
21688	23.453	4.2727	0.1	-0.14314
21689	23.362	4.3636	0.1	-0.13012
21690	23.453	4.0909	0.1	-0.14524
21691	23.362	4.1818	0.1	-0.13238
21692	23.453	3.9091	0.1	-0.14675
21693	23.362	4.	0.1	-0.134
21694	23.453	3.7273	0.1	-0.14785
21695	23.362	3.8182	0.1	-0.13517
21696	23.453	3.5455	0.1	-0.14861
21697	23.362	3.6364	0.1	-0.136
21698	23.453	3.3636	0.1	-0.14913
21699	23.362	3.4545	0.1	-0.13658
21700	23.453	3.1818	0.1	-0.14942
21701	23.362	3.2727	0.1	-0.13695
21702	23.453	3.	0.1	-0.14952
21703	23.362	3.0909	0.1	-0.13712
21704	23.453	2.8182	0.1	-0.14942
21705	23.362	2.9091	0.1	-0.13712
21706	23.453	2.6364	0.1	-0.14913
21707	23.362	2.7273	0.1	-0.13695
21708	23.453	2.4545	0.1	-0.14861
21709	23.362	2.5455	0.1	-0.13658
21710	23.453	2.2727	0.1	-0.14784
21711	23.362	2.3636	0.1	-0.13601
21712	23.453	2.0909	0.1	-0.14675
21713	23.362	2.1818	0.1	-0.13517
21714	23.453	1.9091	0.1	-0.14524
21715	23.362	2.	0.1	-0.134
21716	23.453	1.7273	0.1	-0.14314
21717	23.362	1.8182	0.1	-0.13238
21718	23.453	1.5455	0.1	-0.14021
21719	23.362	1.6364	0.1	-0.13012
21720	23.453	1.3636	0.1	-0.13608
21721	23.362	1.4545	0.1	-0.12693
21722	23.453	1.1818	0.1	-0.13002
21723	23.362	1.2727	0.1	-0.12236
21724	23.453	1.	0.1	-0.12117
21725	23.362	1.0909	0.1	-0.11545
21726	23.453	0.81818	0.1	-0.10628
21727	23.362	0.90909	0.1	-0.10538
21728	23.453	0.63636	0.1	-8.4427e-002
21729	23.362	0.72727	0.1	-8.6741e-002
21730	23.453	0.45455	0.1	-2.2409e-002
21731	23.362	0.54545	0.1	-6.3379e-002
21732	23.453	0.27273	0.1	6.7496e-002
21733	23.362	0.36364	0.1	3.128e-002
21734	23.362	0.18182	0.1	8.2569e-002
21735	23.453	9.0909e-002	0.1	-7.7446e-002
21736	23.271	5.7273	0.1	4.9438e-002
21737	23.18	5.8182	0.1	5.9469e-002
21738	23.271	5.9091	0.1	-6.0526e-002
21739	23.271	5.5455	0.1	-2.0693e-002
21740	23.18	5.6364	0.1	3.0755e-002
21741	23.271	5.3636	0.1	-7.3717e-002
21742	23.18	5.4545	0.1	-4.8581e-002
21743	23.271	5.1818	0.1	-9.258e-002
21744	23.18	5.2727	0.1	-6.8681e-002
21745	23.271	5.	0.1	-0.10592
21746	23.18	5.0909	0.1	-8.537e-002
21747	23.271	4.8182	0.1	-0.11387
21748	23.18	4.9091	0.1	-9.4556e-002
21749	23.271	4.6364	0.1	-0.11924
21750	23.18	4.7273	0.1	-0.1008
21751	23.271	4.4545	0.1	-0.12285
21752	23.18	4.5455	0.1	-0.10489
21753	23.271	4.2727	0.1	-0.12538
21754	23.18	4.3636	0.1	-0.10772
21755	23.271	4.0909	0.1	-0.12717
21756	23.18	4.1818	0.1	-0.1097
21757	23.271	3.9091	0.1	-0.12845
21758	23.18	4.	0.1	-0.11111
21759	23.271	3.7273	0.1	-0.12936
21760	23.18	3.8182	0.1	-0.11212
21761	23.271	3.5455	0.1	-0.13001
21762	23.18	3.6364	0.1	-0.11284
21763	23.271	3.3636	0.1	-0.13045
21764	23.18	3.4545	0.1	-0.11335
21765	23.271	3.1818	0.1	-0.13069
21766	23.18	3.2727	0.1	-0.11366
21767	23.271	3.	0.1	-0.13077
21768	23.18	3.0909	0.1	-0.11382
21769	23.271	2.8182	0.1	-0.13069
21770	23.18	2.9091	0.1	-0.11382
21771	23.271	2.6364	0.1	-0.13045
21772	23.18	2.7273	0.1	-0.11366
21773	23.271	2.4545	0.1	-0.13001
21774	23.18	2.5455	0.1	-0.11335
21775	23.271	2.2727	0.1	-0.12937
21776	23.18	2.3636	0.1	-0.11285
21777	23.271	2.0909	0.1	-0.12845
21778	23.18	2.1818	0.1	-0.11212
21779	23.271	1.9091	0.1	-0.12716
21780	23.18	2.	0.1	-0.11111
21781	23.271	1.7273	0.1	-0.12538
21782	23.18	1.8182	0.1	-0.1097
21783	23.271	1.5455	0.1	-0.12285
21784	23.18	1.6364	0.1	-0.10772
21785	23.271	1.3636	0.1	-0.11924
21786	23.18	1.4545	0.1	-0.10489
21787	23.271	1.1818	0.1	-0.11388
21788	23.18	1.2727	0.1	-0.1008
21789	23.271	1.	0.1	-0.10592
21790	23.18	1.0909	0.1	-9.4558e-002
21791	23.271	0.81818	0.1	-9.258e-002
21792	23.18	0.90909	0.1	-8.5369e-002
21793	23.271	0.63636	0.1	-7.3717e-002
21794	23.18	0.72727	0.1	-6.8681e-002
21795	23.271	0.45455	0.1	-2.0691e-002
21796	23.18	0.54545	0.1	-4.8581e-002
21797	23.271	0.27273	0.1	4.9439e-002
21798	23.18	0.36364	0.1	3.0758e-002
21799	23.18	0.18182	0.1	5.947e-002
21800	23.271	9.0909e-002	0.1	-6.0525e-002
21801	23.089	5.7273	0.1	4.8836e-002
21802	22.997	5.8182	0.1	4.7152e-002
21803	23.089	5.9091	0.1	-3.8793e-002
21804	23.089	5.5455	0.1	-3.9198e-003
21805	22.997	5.6364	0.1	3.3094e-002
21806	23.089	5.3636	0.1	-4.8369e-002
21807	22.997	5.4545	0.1	-3.2697e-002
21808	23.089	5.1818	0.1	-6.519e-002
21809	22.997	5.2727	0.1	-5.0486e-002
21810	23.089	5.	0.1	-7.7235e-002
21811	22.997	5.0909	0.1	-6.5473e-002
21812	23.089	4.8182	0.1	-8.449e-002
21813	22.997	4.9091	0.1	-7.3917e-002
21814	23.089	4.6364	0.1	-8.9361e-002
21815	22.997	4.7273	0.1	-7.9651e-002
21816	23.089	4.4545	0.1	-9.2619e-002
21817	22.997	4.5455	0.1	-8.3394e-002
21818	23.089	4.2727	0.1	-9.4873e-002
21819	22.997	4.3636	0.1	-8.5949e-002
21820	23.089	4.0909	0.1	-9.6457e-002
21821	22.997	4.1818	0.1	-8.7716e-002
21822	23.089	3.9091	0.1	-9.7589e-002
21823	22.997	4.	0.1	-8.8966e-002
21824	23.089	3.7273	0.1	-9.8403e-002
21825	22.997	3.8182	0.1	-8.9864e-002
21826	23.089	3.5455	0.1	-9.8982e-002
21827	22.997	3.6364	0.1	-9.0512e-002
21828	23.089	3.3636	0.1	-9.9371e-002
21829	22.997	3.4545	0.1	-9.0965e-002
21830	23.089	3.1818	0.1	-9.9596e-002
21831	22.997	3.2727	0.1	-9.1256e-002
21832	23.089	3.	0.1	-9.9671e-002
21833	22.997	3.0909	0.1	-9.1399e-002
21834	23.089	2.8182	0.1	-9.9597e-002
21835	22.997	2.9091	0.1	-9.1399e-002
21836	23.089	2.6364	0.1	-9.9371e-002
21837	22.997	2.7273	0.1	-9.1256e-002
21838	23.089	2.4545	0.1	-9.8982e-002
21839	22.997	2.5455	0.1	-9.0965e-002
21840	23.089	2.2727	0.1	-9.8403e-002
21841	22.997	2.3636	0.1	-9.0512e-002
21842	23.089	2.0909	0.1	-9.7589e-002
21843	22.997	2.1818	0.1	-8.9865e-002
21844	23.089	1.9091	0.1	-9.6457e-002
21845	22.997	2.	0.1	-8.8967e-002
21846	23.089	1.7273	0.1	-9.4873e-002
21847	22.997	1.8182	0.1	-8.7716e-002
21848	23.089	1.5455	0.1	-9.2619e-002
21849	22.997	1.6364	0.1	-8.595e-002
21850	23.089	1.3636	0.1	-8.9361e-002
21851	22.997	1.4545	0.1	-8.3394e-002
21852	23.089	1.1818	0.1	-8.449e-002
21853	22.997	1.2727	0.1	-7.9652e-002
21854	23.089	1.	0.1	-7.7236e-002
21855	22.997	1.0909	0.1	-7.3918e-002
21856	23.089	0.81818	0.1	-6.5191e-002
21857	22.997	0.90909	0.1	-6.5472e-002
21858	23.089	0.63636	0.1	-4.8369e-002
21859	22.997	0.72727	0.1	-5.0487e-002
21860	23.089	0.45455	0.1	-3.9176e-003
21861	22.997	0.54545	0.1	-3.2696e-002
21862	23.089	0.27273	0.1	4.8839e-002
21863	22.997	0.36364	0.1	3.3097e-002
21864	22.997	0.18182	0.1	4.7152e-002
21865	23.089	9.0909e-002	0.1	-3.8791e-002
21866	22.906	5.7273	0.1	4.1065e-002
21867	22.815	5.8182	0.1	3.5864e-002
21868	22.906	5.9091	0.1	-2.9273e-002
21869	22.906	5.5455	0.1	-1.9762e-004
21870	22.815	5.6364	0.1	3.0047e-002
21871	22.906	5.3636	0.1	-3.8123e-002
21872	22.815	5.4545	0.1	-2.5206e-002
21873	22.906	5.1818	0.1	-5.3207e-002
21874	22.815	5.2727	0.1	-4.0983e-002
21875	22.906	5.	0.1	-6.4159e-002
21876	22.815	5.0909	0.1	-5.4461e-002
21877	22.906	4.8182	0.1	-7.0861e-002
21878	22.815	4.9091	0.1	-6.2253e-002
21879	22.906	4.6364	0.1	-7.5348e-002
21880	22.815	4.7273	0.1	-6.7545e-002
21881	22.906	4.4545	0.1	-7.8322e-002
21882	22.815	4.5455	0.1	-7.0984e-002
21883	22.906	4.2727	0.1	-8.0351e-002
21884	22.815	4.3636	0.1	-7.3302e-002
21885	22.906	4.0909	0.1	-8.1762e-002
21886	22.815	4.1818	0.1	-7.4887e-002
21887	22.906	3.9091	0.1	-8.2765e-002
21888	22.815	4.	0.1	-7.6001e-002
21889	22.906	3.7273	0.1	-8.3489e-002
21890	22.815	3.8182	0.1	-7.6805e-002
21891	22.906	3.5455	0.1	-8.4008e-002
21892	22.815	3.6364	0.1	-7.7393e-002
21893	22.906	3.3636	0.1	-8.4363e-002
21894	22.815	3.4545	0.1	-7.7815e-002
21895	22.906	3.1818	0.1	-8.4572e-002
21896	22.815	3.2727	0.1	-7.8093e-002
21897	22.906	3.	0.1	-8.4641e-002
21898	22.815	3.0909	0.1	-7.8231e-002
21899	22.906	2.8182	0.1	-8.4572e-002
21900	22.815	2.9091	0.1	-7.8231e-002
21901	22.906	2.6364	0.1	-8.4363e-002
21902	22.815	2.7273	0.1	-7.8092e-002
21903	22.906	2.4545	0.1	-8.4008e-002
21904	22.815	2.5455	0.1	-7.7815e-002
21905	22.906	2.2727	0.1	-8.3489e-002
21906	22.815	2.3636	0.1	-7.7394e-002
21907	22.906	2.0909	0.1	-8.2765e-002
21908	22.815	2.1818	0.1	-7.6805e-002
21909	22.906	1.9091	0.1	-8.1762e-002
21910	22.815	2.	0.1	-7.6002e-002
21911	22.906	1.7273	0.1	-8.0352e-002
21912	22.815	1.8182	0.1	-7.4887e-002
21913	22.906	1.5455	0.1	-7.8322e-002
21914	22.815	1.6364	0.1	-7.3303e-002
21915	22.906	1.3636	0.1	-7.5349e-002
21916	22.815	1.4545	0.1	-7.0983e-002
21917	22.906	1.1818	0.1	-7.0862e-002
21918	22.815	1.2727	0.1	-6.7545e-002
21919	22.906	1.	0.1	-6.4158e-002
21920	22.815	1.0909	0.1	-6.2254e-002
21921	22.906	0.81818	0.1	-5.3207e-002
21922	22.815	0.90909	0.1	-5.446e-002
21923	22.906	0.63636	0.1	-3.8124e-002
21924	22.815	0.72727	0.1	-4.0984e-002
21925	22.906	0.45455	0.1	-1.9654e-004
21926	22.815	0.54545	0.1	-2.5205e-002
21927	22.906	0.27273	0.1	4.1065e-002
21928	22.815	0.36364	0.1	3.0048e-002
21929	22.815	0.18182	0.1	3.5863e-002
21930	22.906	9.0909e-002	0.1	-2.9274e-002
21931	22.724	5.7273	0.1	3.4657e-002
21932	22.633	5.8182	0.1	2.7328e-002
21933	22.724	5.9091	0.1	-2.2626e-002
21934	22.724	5.5455	0.1	1.9502e-003
21935	22.633	5.6364	0.1	2.6212e-002
21936	22.724	5.3636	0.1	-3.0486e-002
21937	22.633	5.4545	0.1	-2.0401e-002
21938	22.724	5.1818	0.1	-4.3996e-002
21939	22.633	5.2727	0.1	-3.4406e-002
21940	22.724	5.	0.1	-5.3947e-002
21941	22.633	5.0909	0.1	-4.6514e-002
21942	22.724	4.8182	0.1	-6.0125e-002
21943	22.633	4.9091	0.1	-5.3667e-002
21944	22.724	4.6364	0.1	-6.4249e-002
21945	22.633	4.7273	0.1	-5.852e-002
21946	22.724	4.4545	0.1	-6.696e-002
21947	22.633	4.5455	0.1	-6.1654e-002
21948	22.724	4.2727	0.1	-6.8788e-002
21949	22.633	4.3636	0.1	-6.374e-002
21950	22.724	4.0909	0.1	-7.0047e-002
21951	22.633	4.1818	0.1	-6.5149e-002
21952	22.724	3.9091	0.1	-7.0945e-002
21953	22.633	4.	0.1	-6.6142e-002
21954	22.724	3.7273	0.1	-7.1604e-002
21955	22.633	3.8182	0.1	-6.6877e-002
21956	22.724	3.5455	0.1	-7.2093e-002
21957	22.633	3.6364	0.1	-6.7439e-002
21958	22.724	3.3636	0.1	-7.244e-002
21959	22.633	3.4545	0.1	-6.7865e-002
21960	22.724	3.1818	0.1	-7.2649e-002
21961	22.633	3.2727	0.1	-6.8159e-002
21962	22.724	3.	0.1	-7.2719e-002
21963	22.633	3.0909	0.1	-6.8309e-002
21964	22.724	2.8182	0.1	-7.2648e-002
21965	22.633	2.9091	0.1	-6.831e-002
21966	22.724	2.6364	0.1	-7.2439e-002
21967	22.633	2.7273	0.1	-6.8159e-002
21968	22.724	2.4545	0.1	-7.2094e-002
21969	22.633	2.5455	0.1	-6.7865e-002
21970	22.724	2.2727	0.1	-7.1605e-002
21971	22.633	2.3636	0.1	-6.7439e-002
21972	22.724	2.0909	0.1	-7.0945e-002
21973	22.633	2.1818	0.1	-6.6877e-002
21974	22.724	1.9091	0.1	-7.0047e-002
21975	22.633	2.	0.1	-6.6143e-002
21976	22.724	1.7273	0.1	-6.8788e-002
21977	22.633	1.8182	0.1	-6.5149e-002
21978	22.724	1.5455	0.1	-6.696e-002
21979	22.633	1.6364	0.1	-6.374e-002
21980	22.724	1.3636	0.1	-6.4248e-002
21981	22.633	1.4545	0.1	-6.1653e-002
21982	22.724	1.1818	0.1	-6.0124e-002
21983	22.633	1.2727	0.1	-5.852e-002
21984	22.724	1.	0.1	-5.3947e-002
21985	22.633	1.0909	0.1	-5.3668e-002
21986	22.724	0.81818	0.1	-4.3996e-002
21987	22.633	0.90909	0.1	-4.6515e-002
21988	22.724	0.63636	0.1	-3.0485e-002
21989	22.633	0.72727	0.1	-3.4406e-002
21990	22.724	0.45455	0.1	1.9514e-003
21991	22.633	0.54545	0.1	-2.0401e-002
21992	22.724	0.27273	0.1	3.4658e-002
21993	22.633	0.36364	0.1	2.6211e-002
21994	22.633	0.18182	0.1	2.7329e-002
21995	22.724	9.0909e-002	0.1	-2.2621e-002
21996	22.542	5.7273	0.1	2.8196e-002
21997	22.451	5.8182	0.1	2.0411e-002
21998	22.542	5.9091	0.1	-1.879e-002
21999	22.542	5.5455	0.1	1.7359e-003
22000	22.451	5.6364	0.1	2.1581e-002
22001	22.542	5.3636	0.1	-2.6147e-002
22002	22.451	5.4545	0.1	-1.7947e-002
22003	22.542	5.1818	0.1	-3.8264e-002
22004	22.451	5.2727	0.1	-3.0424e-002
22005	22.542	5.	0.1	-4.7275e-002
22006	22.451	5.0909	0.1	-4.1275e-002
22007	22.542	4.8182	0.1	-5.2921e-002
22008	22.451	4.9091	0.1	-4.7779e-002
22009	22.542	4.6364	0.1	-5.6666e-002
22010	22.451	4.7273	0.1	-5.2157e-002
22011	22.542	4.4545	0.1	-5.9096e-002
22012	22.451	4.5455	0.1	-5.494e-002
22013	22.542	4.2727	0.1	-6.0708e-002
22014	22.451	4.3636	0.1	-5.675e-002
22015	22.542	4.0909	0.1	-6.1814e-002
22016	22.451	4.1818	0.1	-5.7955e-002
22017	22.542	3.9091	0.1	-6.2623e-002
22018	22.451	4.	0.1	-5.8822e-002
22019	22.542	3.7273	0.1	-6.3254e-002
22020	22.451	3.8182	0.1	-5.9513e-002
22021	22.542	3.5455	0.1	-6.3757e-002
22022	22.451	3.6364	0.1	-6.0108e-002
22023	22.542	3.3636	0.1	-6.414e-002
22024	22.451	3.4545	0.1	-6.0612e-002
22025	22.542	3.1818	0.1	-6.4385e-002
22026	22.451	3.2727	0.1	-6.0995e-002
22027	22.542	3.	0.1	-6.447e-002
22028	22.451	3.0909	0.1	-6.1204e-002
22029	22.542	2.8182	0.1	-6.4386e-002
22030	22.451	2.9091	0.1	-6.1204e-002
22031	22.542	2.6364	0.1	-6.414e-002
22032	22.451	2.7273	0.1	-6.0995e-002
22033	22.542	2.4545	0.1	-6.3756e-002
22034	22.451	2.5455	0.1	-6.0613e-002
22035	22.542	2.2727	0.1	-6.3253e-002
22036	22.451	2.3636	0.1	-6.0107e-002
22037	22.542	2.0909	0.1	-6.2623e-002
22038	22.451	2.1818	0.1	-5.9514e-002
22039	22.542	1.9091	0.1	-6.1814e-002
22040	22.451	2.	0.1	-5.8822e-002
22041	22.542	1.7273	0.1	-6.0708e-002
22042	22.451	1.8182	0.1	-5.7954e-002
22043	22.542	1.5455	0.1	-5.9096e-002
22044	22.451	1.6364	0.1	-5.6749e-002
22045	22.542	1.3636	0.1	-5.6666e-002
22046	22.451	1.4545	0.1	-5.4941e-002
22047	22.542	1.1818	0.1	-5.2922e-002
22048	22.451	1.2727	0.1	-5.2158e-002
22049	22.542	1.	0.1	-4.7276e-002
22050	22.451	1.0909	0.1	-4.7779e-002
22051	22.542	0.81818	0.1	-3.8264e-002
22052	22.451	0.90909	0.1	-4.1275e-002
22053	22.542	0.63636	0.1	-2.6148e-002
22054	22.451	0.72727	0.1	-3.0424e-002
22055	22.542	0.45455	0.1	1.7346e-003
22056	22.451	0.54545	0.1	-1.7949e-002
22057	22.542	0.27273	0.1	2.8196e-002
22058	22.451	0.36364	0.1	2.1583e-002
22059	22.451	0.18182	0.1	2.0412e-002
22060	22.542	9.0909e-002	0.1	-1.879e-002
22061	22.359	5.7273	0.1	2.2318e-002
22062	22.268	5.8182	0.1	1.4897e-002
22063	22.359	5.9091	0.1	-1.656e-002
22064	22.359	5.5455	0.1	4.5003e-004
22065	22.268	5.6364	0.1	1.6762e-002
22066	22.359	5.3636	0.1	-2.3623e-002
22067	22.268	5.4545	0.1	-1.6957e-002
22068	22.359	5.1818	0.1	-3.449e-002
22069	22.268	5.2727	0.1	-2.8102e-002
22070	22.359	5.	0.1	-4.2595e-002
22071	22.268	5.0909	0.1	-3.7776e-002
22072	22.359	4.8182	0.1	-4.7665e-002
22073	22.268	4.9091	0.1	-4.3583e-002
22074	22.359	4.6364	0.1	-5.0959e-002
22075	22.268	4.7273	0.1	-4.7383e-002
22076	22.359	4.4545	0.1	-5.3024e-002
22077	22.268	4.5455	0.1	-4.967e-002
22078	22.359	4.2727	0.1	-5.4345e-002
22079	22.268	4.3636	0.1	-5.1036e-002
22080	22.359	4.0909	0.1	-5.5249e-002
22081	22.268	4.1818	0.1	-5.1878e-002
22082	22.359	3.9091	0.1	-5.5961e-002
22083	22.268	4.	0.1	-5.2507e-002
22084	22.359	3.7273	0.1	-5.6611e-002
22085	22.268	3.8182	0.1	-5.3138e-002
22086	22.359	3.5455	0.1	-5.7235e-002
22087	22.268	3.6364	0.1	-5.3877e-002
22088	22.359	3.3636	0.1	-5.7789e-002
22089	22.268	3.4545	0.1	-5.4706e-002
22090	22.359	3.1818	0.1	-5.8182e-002
22091	22.268	3.2727	0.1	-5.547e-002
22092	22.359	3.	0.1	-5.8325e-002
22093	22.268	3.0909	0.1	-5.5941e-002
22094	22.359	2.8182	0.1	-5.8181e-002
22095	22.268	2.9091	0.1	-5.594e-002
22096	22.359	2.6364	0.1	-5.7788e-002
22097	22.268	2.7273	0.1	-5.5469e-002
22098	22.359	2.4545	0.1	-5.7235e-002
22099	22.268	2.5455	0.1	-5.4706e-002
22100	22.359	2.2727	0.1	-5.6612e-002
22101	22.268	2.3636	0.1	-5.3878e-002
22102	22.359	2.0909	0.1	-5.5961e-002
22103	22.268	2.1818	0.1	-5.3138e-002
22104	22.359	1.9091	0.1	-5.5248e-002
22105	22.268	2.	0.1	-5.2507e-002
22106	22.359	1.7273	0.1	-5.4344e-002
22107	22.268	1.8182	0.1	-5.1878e-002
22108	22.359	1.5455	0.1	-5.3024e-002
22109	22.268	1.6364	0.1	-5.1036e-002
22110	22.359	1.3636	0.1	-5.0961e-002
22111	22.268	1.4545	0.1	-4.9671e-002
22112	22.359	1.1818	0.1	-4.7666e-002
22113	22.268	1.2727	0.1	-4.7385e-002
22114	22.359	1.	0.1	-4.2594e-002
22115	22.268	1.0909	0.1	-4.3583e-002
22116	22.359	0.81818	0.1	-3.449e-002
22117	22.268	0.90909	0.1	-3.7776e-002
22118	22.359	0.63636	0.1	-2.3625e-002
22119	22.268	0.72727	0.1	-2.8103e-002
22120	22.359	0.45455	0.1	4.5063e-004
22121	22.268	0.54545	0.1	-1.696e-002
22122	22.359	0.27273	0.1	2.2321e-002
22123	22.268	0.36364	0.1	1.6765e-002
22124	22.268	0.18182	0.1	1.49e-002
22125	22.359	9.0909e-002	0.1	-1.6561e-002
22126	22.177	5.7273	0.1	1.697e-002
22127	22.086	5.8182	0.1	1.0499e-002
22128	22.177	5.9091	0.1	-1.5601e-002
22129	22.177	5.5455	0.1	-1.615e-003
22130	22.086	5.6364	0.1	1.196e-002
22131	22.177	5.3636	0.1	-2.2518e-002
22132	22.086	5.4545	0.1	-1.7056e-002
22133	22.177	5.1818	0.1	-3.2239e-002
22134	22.086	5.2727	0.1	-2.7017e-002
22135	22.177	5.	0.1	-3.9423e-002
22136	22.086	5.0909	0.1	-3.5533e-002
22137	22.177	4.8182	0.1	-4.3793e-002
22138	22.086	4.9091	0.1	-4.0474e-002
22139	22.177	4.6364	0.1	-4.6416e-002
22140	22.086	4.7273	0.1	-4.3352e-002
22141	22.177	4.4545	0.1	-4.7804e-002
22142	22.086	4.5455	0.1	-4.4542e-002
22143	22.177	4.2727	0.1	-4.8442e-002
22144	22.086	4.3636	0.1	-4.4474e-002
22145	22.177	4.0909	0.1	-4.8709e-002
22146	22.086	4.1818	0.1	-4.3312e-002
22147	22.177	3.9091	0.1	-4.8935e-002
22148	22.086	4.	0.1	-4.0793e-002
22149	22.177	3.7273	0.1	-4.9403e-002
22150	22.086	3.8182	0.1	-3.4852e-002
22151	22.177	3.5455	0.1	-5.033e-002
22152	22.086	3.6364	0.1	6.1924e-003
22153	22.177	3.3636	0.1	-5.1738e-002
22154	22.086	3.4545	0.1	1.0301
22155	22.177	3.1818	0.1	-5.3216e-002
22156	22.086	3.2727	0.1	2.0611
22157	22.177	3.	0.1	-5.3887e-002
22158	22.086	3.0909	0.1	2.597
22159	22.177	2.8182	0.1	-5.3215e-002
22160	22.086	2.9091	0.1	2.597
22161	22.177	2.6364	0.1	-5.1738e-002
22162	22.086	2.7273	0.1	2.0611
22163	22.177	2.4545	0.1	-5.033e-002
22164	22.086	2.5455	0.1	1.0301
22165	22.177	2.2727	0.1	-4.9403e-002
22166	22.086	2.3636	0.1	6.1914e-003
22167	22.177	2.0909	0.1	-4.8935e-002
22168	22.086	2.1818	0.1	-3.4853e-002
22169	22.177	1.9091	0.1	-4.871e-002
22170	22.086	2.	0.1	-4.0794e-002
22171	22.177	1.7273	0.1	-4.8442e-002
22172	22.086	1.8182	0.1	-4.3312e-002
22173	22.177	1.5455	0.1	-4.7804e-002
22174	22.086	1.6364	0.1	-4.4475e-002
22175	22.177	1.3636	0.1	-4.6417e-002
22176	22.086	1.4545	0.1	-4.4542e-002
22177	22.177	1.1818	0.1	-4.3794e-002
22178	22.086	1.2727	0.1	-4.3353e-002
22179	22.177	1.	0.1	-3.9424e-002
22180	22.086	1.0909	0.1	-4.0475e-002
22181	22.177	0.81818	0.1	-3.2239e-002
22182	22.086	0.90909	0.1	-3.5534e-002
22183	22.177	0.63636	0.1	-2.252e-002
22184	22.086	0.72727	0.1	-2.7018e-002
22185	22.177	0.45455	0.1	-1.6153e-003
22186	22.086	0.54545	0.1	-1.7057e-002
22187	22.177	0.27273	0.1	1.6973e-002
22188	22.086	0.36364	0.1	1.1963e-002
22189	22.086	0.18182	0.1	1.0501e-002
22190	22.177	9.0909e-002	0.1	-1.5601e-002
22191	21.995	5.7273	0.1	1.2241e-002
22192	21.904	5.8182	0.1	7.0646e-003
22193	21.995	5.9091	0.1	-1.5656e-002
22194	21.995	5.5455	0.1	-4.1222e-003
22195	21.904	5.6364	0.1	7.4028e-003
22196	21.995	5.3636	0.1	-2.2402e-002
22197	21.904	5.4545	0.1	-1.789e-002
22198	21.995	5.1818	0.1	-3.1009e-002
22199	21.904	5.2727	0.1	-2.672e-002
22200	21.995	5.	0.1	-3.7106e-002
22201	21.904	5.0909	0.1	-3.3896e-002
22202	21.995	4.8182	0.1	-4.0285e-002
22203	21.904	4.9091	0.1	-3.7257e-002
22204	21.995	4.6364	0.1	-4.1163e-002
22205	21.904	4.7273	0.1	-3.7184e-002
22206	21.995	4.4545	0.1	-3.9396e-002
22207	21.904	4.5455	0.1	-2.9814e-002
22208	21.995	4.2727	0.1	-3.2086e-002
22209	21.904	4.3636	0.1	9.6776e-002
22210	21.995	4.0909	0.1	3.3198e-002
22211	21.904	4.1818	0.1	2.7064
22212	21.995	3.9091	0.1	1.8874
22213	21.904	4.	0.1	5.6727
22214	21.995	3.7273	0.1	4.1262
22215	21.904	3.8182	0.1	8.4516
22216	21.995	3.5455	0.1	6.0301
22217	21.904	3.6364	0.1	10.884
22218	21.995	3.3636	0.1	7.4776
22219	21.904	3.4545	0.1	12.836
22220	21.995	3.1818	0.1	8.3819
22221	21.904	3.2727	0.1	14.2
22222	21.995	3.	0.1	8.6894
22223	21.904	3.0909	0.1	14.901
22224	21.995	2.8182	0.1	8.3819
22225	21.904	2.9091	0.1	14.901
22226	21.995	2.6364	0.1	7.4776
22227	21.904	2.7273	0.1	14.2
22228	21.995	2.4545	0.1	6.0301
22229	21.904	2.5455	0.1	12.836
22230	21.995	2.2727	0.1	4.1263
22231	21.904	2.3636	0.1	10.884
22232	21.995	2.0909	0.1	1.8874
22233	21.904	2.1818	0.1	8.4516
22234	21.995	1.9091	0.1	3.3198e-002
22235	21.904	2.	0.1	5.6728
22236	21.995	1.7273	0.1	-3.2087e-002
22237	21.904	1.8182	0.1	2.7065
22238	21.995	1.5455	0.1	-3.9396e-002
22239	21.904	1.6364	0.1	9.6784e-002
22240	21.995	1.3636	0.1	-4.1162e-002
22241	21.904	1.4545	0.1	-2.9815e-002
22242	21.995	1.1818	0.1	-4.0285e-002
22243	21.904	1.2727	0.1	-3.7184e-002
22244	21.995	1.	0.1	-3.7107e-002
22245	21.904	1.0909	0.1	-3.7258e-002
22246	21.995	0.81818	0.1	-3.1011e-002
22247	21.904	0.90909	0.1	-3.3896e-002
22248	21.995	0.63636	0.1	-2.2401e-002
22249	21.904	0.72727	0.1	-2.6722e-002
22250	21.995	0.45455	0.1	-4.1203e-003
22251	21.904	0.54545	0.1	-1.7888e-002
22252	21.995	0.27273	0.1	1.2243e-002
22253	21.904	0.36364	0.1	7.4053e-003
22254	21.904	0.18182	0.1	7.0641e-003
22255	21.995	9.0909e-002	0.1	-1.5656e-002
22256	21.813	5.7273	0.1	8.2043e-003
22257	21.721	5.8182	0.1	4.4796e-003
22258	21.813	5.9091	0.1	-1.6634e-002
22259	21.813	5.5455	0.1	-6.7989e-003
22260	21.721	5.6364	0.1	3.3321e-003
22261	21.813	5.3636	0.1	-2.2891e-002
22262	21.721	5.4545	0.1	-1.9063e-002
22263	21.813	5.1818	0.1	-3.0184e-002
22264	21.721	5.2727	0.1	-2.6539e-002
22265	21.813	5.	0.1	-3.4297e-002
22266	21.721	5.0909	0.1	-3.1254e-002
22267	21.813	4.8182	0.1	-3.2746e-002
22268	21.721	4.9091	0.1	-2.7112e-002
22269	21.813	4.6364	0.1	-1.11e-003
22270	21.721	4.7273	0.1	0.2819
22271	21.813	4.4545	0.1	2.083
22272	21.721	4.5455	0.1	3.8245
22273	21.813	4.2727	0.1	5.5117
22274	21.721	4.3636	0.1	7.7694
22275	21.813	4.0909	0.1	8.9637
22276	21.721	4.1818	0.1	11.788
22277	21.813	3.9091	0.1	12.255
22278	21.721	4.	0.1	15.688
22279	21.813	3.7273	0.1	15.215
22280	21.721	3.8182	0.1	19.279
22281	21.813	3.5455	0.1	17.693
22282	21.721	3.6364	0.1	22.387
22283	21.813	3.3636	0.1	19.56
22284	21.721	3.4545	0.1	24.86
22285	21.813	3.1818	0.1	20.719
22286	21.721	3.2727	0.1	26.579
22287	21.813	3.	0.1	21.113
22288	21.721	3.0909	0.1	27.459
22289	21.813	2.8182	0.1	20.719
22290	21.721	2.9091	0.1	27.459
22291	21.813	2.6364	0.1	19.56
22292	21.721	2.7273	0.1	26.579
22293	21.813	2.4545	0.1	17.693
22294	21.721	2.5455	0.1	24.86
22295	21.813	2.2727	0.1	15.215
22296	21.721	2.3636	0.1	22.387
22297	21.813	2.0909	0.1	12.255
22298	21.721	2.1818	0.1	19.279
22299	21.813	1.9091	0.1	8.9637
22300	21.721	2.	0.1	15.688
22301	21.813	1.7273	0.1	5.5118
22302	21.721	1.8182	0.1	11.788
22303	21.813	1.5455	0.1	2.0831
22304	21.721	1.6364	0.1	7.7694
22305	21.813	1.3636	0.1	-1.108e-003
22306	21.721	1.4545	0.1	3.8245
22307	21.813	1.1818	0.1	-3.2746e-002
22308	21.721	1.2727	0.1	0.28192
22309	21.813	1.	0.1	-3.4297e-002
22310	21.721	1.0909	0.1	-2.7113e-002
22311	21.813	0.81818	0.1	-3.0184e-002
22312	21.721	0.90909	0.1	-3.1253e-002
22313	21.813	0.63636	0.1	-2.2891e-002
22314	21.721	0.72727	0.1	-2.6541e-002
22315	21.813	0.45455	0.1	-6.7962e-003
22316	21.721	0.54545	0.1	-1.906e-002
22317	21.813	0.27273	0.1	8.2048e-003
22318	21.721	0.36364	0.1	3.3349e-003
22319	21.721	0.18182	0.1	4.4785e-003
22320	21.813	9.0909e-002	0.1	-1.6638e-002
22321	21.63	5.7273	0.1	4.9782e-003
22322	21.539	5.8182	0.1	2.681e-003
22323	21.63	5.9091	0.1	-1.8521e-002
22324	21.63	5.5455	0.1	-9.271e-003
22325	21.539	5.6364	0.1	1.1694e-004
22326	21.63	5.3636	0.1	-2.3312e-002
22327	21.539	5.4545	0.1	-1.9862e-002
22328	21.63	5.1818	0.1	-2.8058e-002
22329	21.539	5.2727	0.1	-2.4693e-002
22330	21.63	5.	0.1	-2.1778e-002
22331	21.539	5.0909	0.1	-1.7715e-002
22332	21.63	4.8182	0.1	1.1329
22333	21.539	4.9091	0.1	1.3735
22334	21.63	4.6364	0.1	5.1579
22335	21.539	4.7273	0.1	5.7822
22336	21.63	4.4545	0.1	9.5374
22337	21.539	4.5455	0.1	10.646
22338	21.63	4.2727	0.1	14.059
22339	21.539	4.3636	0.1	15.743
22340	21.63	4.0909	0.1	18.52
22341	21.539	4.1818	0.1	20.857
22342	21.63	3.9091	0.1	22.717
22343	21.539	4.	0.1	25.76
22344	21.63	3.7273	0.1	26.454
22345	21.539	3.8182	0.1	30.235
22346	21.63	3.5455	0.1	29.556
22347	21.539	3.6364	0.1	34.078
22348	21.63	3.3636	0.1	31.881
22349	21.539	3.4545	0.1	37.12
22350	21.63	3.1818	0.1	33.32
22351	21.539	3.2727	0.1	39.225
22352	21.63	3.	0.1	33.807
22353	21.539	3.0909	0.1	40.301
22354	21.63	2.8182	0.1	33.32
22355	21.539	2.9091	0.1	40.301
22356	21.63	2.6364	0.1	31.881
22357	21.539	2.7273	0.1	39.225
22358	21.63	2.4545	0.1	29.556
22359	21.539	2.5455	0.1	37.12
22360	21.63	2.2727	0.1	26.454
22361	21.539	2.3636	0.1	34.078
22362	21.63	2.0909	0.1	22.717
22363	21.539	2.1818	0.1	30.235
22364	21.63	1.9091	0.1	18.52
22365	21.539	2.	0.1	25.76
22366	21.63	1.7273	0.1	14.059
22367	21.539	1.8182	0.1	20.857
22368	21.63	1.5455	0.1	9.5374
22369	21.539	1.6364	0.1	15.743
22370	21.63	1.3636	0.1	5.1579
22371	21.539	1.4545	0.1	10.646
22372	21.63	1.1818	0.1	1.133
22373	21.539	1.2727	0.1	5.7823
22374	21.63	1.	0.1	-2.1778e-002
22375	21.539	1.0909	0.1	1.3735
22376	21.63	0.81818	0.1	-2.8059e-002
22377	21.539	0.90909	0.1	-1.7715e-002
22378	21.63	0.63636	0.1	-2.3312e-002
22379	21.539	0.72727	0.1	-2.4694e-002
22380	21.63	0.45455	0.1	-9.2683e-003
22381	21.539	0.54545	0.1	-1.9862e-002
22382	21.63	0.27273	0.1	4.9793e-003
22383	21.539	0.36364	0.1	1.1885e-004
22384	21.539	0.18182	0.1	2.6815e-003
22385	21.63	9.0909e-002	0.1	-1.852e-002
22386	21.448	5.7273	0.1	2.7736e-003
22387	21.357	5.8182	0.1	1.6361e-003
22388	21.448	5.9091	0.1	-2.129e-002
22389	21.448	5.5455	0.1	-1.087e-002
22390	21.357	5.6364	0.1	-1.6852e-003
22391	21.448	5.3636	0.1	-2.2033e-002
22392	21.357	5.4545	0.1	-1.8887e-002
22393	21.448	5.1818	0.1	-1.5906e-002
22394	21.357	5.2727	0.1	-1.5064e-002
22395	21.448	5.	0.1	1.3806
22396	21.357	5.0909	0.1	0.69578
22397	21.448	4.8182	0.1	6.0543
22398	21.357	4.9091	0.1	5.5598
22399	21.448	4.6364	0.1	11.292
22400	21.357	4.7273	0.1	11.19
22401	21.448	4.4545	0.1	16.868
22402	21.357	4.5455	0.1	17.294
22403	21.448	4.2727	0.1	22.553
22404	21.357	4.3636	0.1	23.625
22405	21.448	4.0909	0.1	28.105
22406	21.357	4.1818	0.1	29.919
22407	21.448	3.9091	0.1	33.283
22408	21.357	4.	0.1	35.91
22409	21.448	3.7273	0.1	37.863
22410	21.357	3.8182	0.1	41.339
22411	21.448	3.5455	0.1	41.644
22412	21.357	3.6364	0.1	45.978
22413	21.448	3.3636	0.1	44.465
22414	21.357	3.4545	0.1	49.632
22415	21.448	3.1818	0.1	46.207
22416	21.357	3.2727	0.1	52.152
22417	21.448	3.	0.1	46.795
22418	21.357	3.0909	0.1	53.437
22419	21.448	2.8182	0.1	46.207
22420	21.357	2.9091	0.1	53.437
22421	21.448	2.6364	0.1	44.465
22422	21.357	2.7273	0.1	52.152
22423	21.448	2.4545	0.1	41.644
22424	21.357	2.5455	0.1	49.632
22425	21.448	2.2727	0.1	37.863
22426	21.357	2.3636	0.1	45.978
22427	21.448	2.0909	0.1	33.283
22428	21.357	2.1818	0.1	41.339
22429	21.448	1.9091	0.1	28.105
22430	21.357	2.	0.1	35.91
22431	21.448	1.7273	0.1	22.553
22432	21.357	1.8182	0.1	29.919
22433	21.448	1.5455	0.1	16.868
22434	21.357	1.6364	0.1	23.625
22435	21.448	1.3636	0.1	11.292
22436	21.357	1.4545	0.1	17.294
22437	21.448	1.1818	0.1	6.0543
22438	21.357	1.2727	0.1	11.19
22439	21.448	1.	0.1	1.3806
22440	21.357	1.0909	0.1	5.5598
22441	21.448	0.81818	0.1	-1.5907e-002
22442	21.357	0.90909	0.1	0.69581
22443	21.448	0.63636	0.1	-2.2034e-002
22444	21.357	0.72727	0.1	-1.5065e-002
22445	21.448	0.45455	0.1	-1.087e-002
22446	21.357	0.54545	0.1	-1.8888e-002
22447	21.448	0.27273	0.1	2.775e-003
22448	21.357	0.36364	0.1	-1.6837e-003
22449	21.357	0.18182	0.1	1.6377e-003
22450	21.448	9.0909e-002	0.1	-2.1289e-002
22451	21.266	5.7273	0.1	1.8567e-003
22452	21.174	5.8182	0.1	1.3026e-003
22453	21.266	5.9091	0.1	-2.4884e-002
22454	21.266	5.5455	0.1	-1.0509e-002
22455	21.174	5.6364	0.1	-1.3383e-003
22456	21.266	5.3636	0.1	-1.4952e-002
22457	21.174	5.4545	0.1	-1.368e-002
22458	21.266	5.1818	0.1	0.18418
22459	21.174	5.2727	0.1	2.9983e-002
22460	21.266	5.	0.1	4.8467
22461	21.174	5.0909	0.1	3.3617
22462	21.266	4.8182	0.1	10.721
22463	21.174	4.9091	0.1	9.4471
22464	21.266	4.6364	0.1	17.213
22465	21.174	4.7273	0.1	16.34
22466	21.266	4.4545	0.1	24.066
22467	21.174	4.5455	0.1	23.764
22468	21.266	4.2727	0.1	31.002
22469	21.174	4.3636	0.1	31.419
22470	21.266	4.0909	0.1	37.732
22471	21.174	4.1818	0.1	38.986
22472	21.266	3.9091	0.1	43.971
22473	21.174	4.	0.1	46.147
22474	21.266	3.7273	0.1	49.458
22475	21.174	3.8182	0.1	52.603
22476	21.266	3.5455	0.1	53.968
22477	21.174	3.6364	0.1	58.091
22478	21.266	3.3636	0.1	57.32
22479	21.174	3.4545	0.1	62.394
22480	21.266	3.1818	0.1	59.384
22481	21.174	3.2727	0.1	65.352
22482	21.266	3.	0.1	60.08
22483	21.174	3.0909	0.1	66.857
22484	21.266	2.8182	0.1	59.384
22485	21.174	2.9091	0.1	66.857
22486	21.266	2.6364	0.1	57.32
22487	21.174	2.7273	0.1	65.352
22488	21.266	2.4545	0.1	53.968
22489	21.174	2.5455	0.1	62.394
22490	21.266	2.2727	0.1	49.458
22491	21.174	2.3636	0.1	58.091
22492	21.266	2.0909	0.1	43.971
22493	21.174	2.1818	0.1	52.603
22494	21.266	1.9091	0.1	37.732
22495	21.174	2.	0.1	46.147
22496	21.266	1.7273	0.1	31.002
22497	21.174	1.8182	0.1	38.986
22498	21.266	1.5455	0.1	24.066
22499	21.174	1.6364	0.1	31.419
22500	21.266	1.3636	0.1	17.213
22501	21.174	1.4545	0.1	23.764
22502	21.266	1.1818	0.1	10.721
22503	21.174	1.2727	0.1	16.34
22504	21.266	1.	0.1	4.8467
22505	21.174	1.0909	0.1	9.4472
22506	21.266	0.81818	0.1	0.18419
22507	21.174	0.90909	0.1	3.3617
22508	21.266	0.63636	0.1	-1.4953e-002
22509	21.174	0.72727	0.1	2.9981e-002
22510	21.266	0.45455	0.1	-1.0509e-002
22511	21.174	0.54545	0.1	-1.3679e-002
22512	21.266	0.27273	0.1	1.8584e-003
22513	21.174	0.36364	0.1	-1.3361e-003
22514	21.174	0.18182	0.1	1.3035e-003
22515	21.266	9.0909e-002	0.1	-2.4884e-002
22516	21.083	5.7273	0.1	2.5093e-003
22517	20.992	5.8182	0.1	1.6208e-003
22518	21.083	5.9091	0.1	-2.9178e-002
22519	21.083	5.5455	0.1	-6.687e-003
22520	20.992	5.6364	0.1	1.9821e-003
22521	21.083	5.3636	0.1	7.468e-003
22522	20.992	5.4545	0.1	-8.816e-004
22523	21.083	5.1818	0.1	1.8968
22524	20.992	5.2727	0.1	0.27013
22525	21.083	5.	0.1	7.9816
22526	20.992	5.0909	0.1	5.7101
22527	21.083	4.8182	0.1	15.09
22528	20.992	4.9091	0.1	12.992
22529	21.083	4.6364	0.1	22.911
22530	20.992	4.7273	0.1	21.217
22531	21.083	4.4545	0.1	31.132
22532	20.992	4.5455	0.1	30.05
22533	21.083	4.2727	0.1	39.413
22534	20.992	4.3636	0.1	39.125
22535	21.083	4.0909	0.1	47.408
22536	20.992	4.1818	0.1	48.058
22537	21.083	3.9091	0.1	54.784
22538	20.992	4.	0.1	56.472
22539	21.083	3.7273	0.1	61.239
22540	20.992	3.8182	0.1	64.018
22541	21.083	3.5455	0.1	66.52
22542	20.992	3.6364	0.1	70.398
22543	21.083	3.3636	0.1	70.429
22544	20.992	3.4545	0.1	75.377
22545	21.083	3.1818	0.1	72.828
22546	20.992	3.2727	0.1	78.786
22547	21.083	3.	0.1	73.637
22548	20.992	3.0909	0.1	80.515
22549	21.083	2.8182	0.1	72.828
22550	20.992	2.9091	0.1	80.515
22551	21.083	2.6364	0.1	70.429
22552	20.992	2.7273	0.1	78.786
22553	21.083	2.4545	0.1	66.52
22554	20.992	2.5455	0.1	75.377
22555	21.083	2.2727	0.1	61.239
22556	20.992	2.3636	0.1	70.398
22557	21.083	2.0909	0.1	54.784
22558	20.992	2.1818	0.1	64.018
22559	21.083	1.9091	0.1	47.409
22560	20.992	2.	0.1	56.472
22561	21.083	1.7273	0.1	39.413
22562	20.992	1.8182	0.1	48.058
22563	21.083	1.5455	0.1	31.132
22564	20.992	1.6364	0.1	39.125
22565	21.083	1.3636	0.1	22.911
22566	20.992	1.4545	0.1	30.05
22567	21.083	1.1818	0.1	15.09
22568	20.992	1.2727	0.1	21.217
22569	21.083	1.	0.1	7.9817
22570	20.992	1.0909	0.1	12.992
22571	21.083	0.81818	0.1	1.8968
22572	20.992	0.90909	0.1	5.7102
22573	21.083	0.63636	0.1	7.4673e-003
22574	20.992	0.72727	0.1	0.27014
22575	21.083	0.45455	0.1	-6.6851e-003
22576	20.992	0.54545	0.1	-8.8112e-004
22577	21.083	0.27273	0.1	2.5108e-003
22578	20.992	0.36364	0.1	1.9842e-003
22579	20.992	0.18182	0.1	1.6224e-003
22580	21.083	9.0909e-002	0.1	-2.9178e-002
22581	20.901	5.7273	0.1	5.0052e-003
22582	20.81	5.8182	0.1	2.5188e-003
22583	20.901	5.9091	0.1	-3.3897e-002
22584	20.901	5.5455	0.1	2.1849e-003
22585	20.81	5.6364	0.1	8.99e-003
22586	20.901	5.3636	0.1	6.1222e-002
22587	20.81	5.4545	0.1	2.2144e-002
22588	20.901	5.1818	0.1	3.5314
22589	20.81	5.2727	0.1	0.88711
22590	20.901	5.	0.1	10.739
22591	20.81	5.0909	0.1	7.6484
22592	20.901	4.8182	0.1	19.14
22593	20.81	4.9091	0.1	16.167
22594	20.901	4.6364	0.1	28.372
22595	20.81	4.7273	0.1	25.797
22596	20.901	4.4545	0.1	38.055
22597	20.81	4.5455	0.1	36.131
22598	20.901	4.2727	0.1	47.778
22599	20.81	4.3636	0.1	46.726
22600	20.901	4.0909	0.1	57.126
22601	20.81	4.1818	0.1	57.119
22602	20.901	3.9091	0.1	65.709
22603	20.81	4.	0.1	66.862
22604	20.901	3.7273	0.1	73.18
22605	20.81	3.8182	0.1	75.549
22606	20.901	3.5455	0.1	79.259
22607	20.81	3.6364	0.1	82.848
22608	20.901	3.3636	0.1	83.738
22609	20.81	3.4545	0.1	88.508
22610	20.901	3.1818	0.1	86.477
22611	20.81	3.2727	0.1	92.361
22612	20.901	3.	0.1	87.398
22613	20.81	3.0909	0.1	94.31
22614	20.901	2.8182	0.1	86.477
22615	20.81	2.9091	0.1	94.31
22616	20.901	2.6364	0.1	83.738
22617	20.81	2.7273	0.1	92.361
22618	20.901	2.4545	0.1	79.259
22619	20.81	2.5455	0.1	88.508
22620	20.901	2.2727	0.1	73.18
22621	20.81	2.3636	0.1	82.848
22622	20.901	2.0909	0.1	65.709
22623	20.81	2.1818	0.1	75.549
22624	20.901	1.9091	0.1	57.126
22625	20.81	2.	0.1	66.862
22626	20.901	1.7273	0.1	47.778
22627	20.81	1.8182	0.1	57.119
22628	20.901	1.5455	0.1	38.055
22629	20.81	1.6364	0.1	46.726
22630	20.901	1.3636	0.1	28.372
22631	20.81	1.4545	0.1	36.131
22632	20.901	1.1818	0.1	19.14
22633	20.81	1.2727	0.1	25.797
22634	20.901	1.	0.1	10.739
22635	20.81	1.0909	0.1	16.167
22636	20.901	0.81818	0.1	3.5314
22637	20.81	0.90909	0.1	7.6484
22638	20.901	0.63636	0.1	6.1224e-002
22639	20.81	0.72727	0.1	0.88713
22640	20.901	0.45455	0.1	2.1858e-003
22641	20.81	0.54545	0.1	2.2143e-002
22642	20.901	0.27273	0.1	5.0074e-003
22643	20.81	0.36364	0.1	8.9918e-003
22644	20.81	0.18182	0.1	2.5204e-003
22645	20.901	9.0909e-002	0.1	-3.3898e-002
22646	20.719	5.7273	0.1	9.5521e-003
22647	20.628	5.8182	0.1	3.9341e-003
22648	20.719	5.9091	0.1	-3.8663e-002
22649	20.719	5.5455	0.1	1.7082e-002
22650	20.628	5.6364	0.1	2.0135e-002
22651	20.719	5.3636	0.1	0.15207
22652	20.628	5.4545	0.1	5.507e-002
22653	20.719	5.1818	0.1	4.748
22654	20.628	5.2727	0.1	1.3817
22655	20.719	5.	0.1	13.087
22656	20.628	5.0909	0.1	9.1419
22657	20.719	4.8182	0.1	22.838
22658	20.628	4.9091	0.1	18.934
22659	20.719	4.6364	0.1	33.566
22660	20.628	4.7273	0.1	30.04
22661	20.719	4.4545	0.1	44.808
22662	20.628	4.5455	0.1	41.968
22663	20.719	4.2727	0.1	56.07
22664	20.628	4.3636	0.1	54.184
22665	20.719	4.0909	0.1	66.855
22666	20.628	4.1818	0.1	66.129
22667	20.719	3.9091	0.1	76.703
22668	20.628	4.	0.1	77.266
22669	20.719	3.7273	0.1	85.219
22670	20.628	3.8182	0.1	87.125
22671	20.719	3.5455	0.1	92.1
22672	20.628	3.6364	0.1	95.337
22673	20.719	3.3636	0.1	97.137
22674	20.628	3.4545	0.1	101.65
22675	20.719	3.1818	0.1	100.2
22676	20.628	3.2727	0.1	105.91
22677	20.719	3.	0.1	101.23
22678	20.628	3.0909	0.1	108.06
22679	20.719	2.8182	0.1	100.2
22680	20.628	2.9091	0.1	108.06
22681	20.719	2.6364	0.1	97.137
22682	20.628	2.7273	0.1	105.91
22683	20.719	2.4545	0.1	92.1
22684	20.628	2.5455	0.1	101.65
22685	20.719	2.2727	0.1	85.219
22686	20.628	2.3636	0.1	95.338
22687	20.719	2.0909	0.1	76.703
22688	20.628	2.1818	0.1	87.125
22689	20.719	1.9091	0.1	66.855
22690	20.628	2.	0.1	77.266
22691	20.719	1.7273	0.1	56.07
22692	20.628	1.8182	0.1	66.129
22693	20.719	1.5455	0.1	44.808
22694	20.628	1.6364	0.1	54.184
22695	20.719	1.3636	0.1	33.566
22696	20.628	1.4545	0.1	41.968
22697	20.719	1.1818	0.1	22.838
22698	20.628	1.2727	0.1	30.04
22699	20.719	1.	0.1	13.087
22700	20.628	1.0909	0.1	18.935
22701	20.719	0.81818	0.1	4.7481
22702	20.628	0.90909	0.1	9.1419
22703	20.719	0.63636	0.1	0.15207
22704	20.628	0.72727	0.1	1.3817
22705	20.719	0.45455	0.1	1.7082e-002
22706	20.628	0.54545	0.1	5.5069e-002
22707	20.719	0.27273	0.1	9.5532e-003
22708	20.628	0.36364	0.1	2.0137e-002
22709	20.628	0.18182	0.1	3.9354e-003
22710	20.719	9.0909e-002	0.1	-3.8661e-002
22711	20.536	5.7273	0.1	1.6336e-002
22712	20.445	5.8182	0.1	5.8779e-003
22713	20.536	5.9091	0.1	-4.3016e-002
22714	20.536	5.5455	0.1	3.8082e-002
22715	20.445	5.6364	0.1	3.5671e-002
22716	20.536	5.3636	0.1	0.25277
22717	20.445	5.4545	0.1	9.5154e-002
22718	20.536	5.1818	0.1	5.5109
22719	20.445	5.2727	0.1	1.5622
22720	20.536	5.	0.1	14.985
22721	20.445	5.0909	0.1	10.155
22722	20.536	4.8182	0.1	26.137
22723	20.445	4.9091	0.1	21.239
22724	20.536	4.6364	0.1	38.44
22725	20.445	4.7273	0.1	33.878
22726	20.536	4.4545	0.1	51.339
22727	20.445	4.5455	0.1	47.488
22728	20.536	4.2727	0.1	64.235
22729	20.445	4.3636	0.1	61.424
22730	20.536	4.0909	0.1	76.532
22731	20.445	4.1818	0.1	75.007
22732	20.536	3.9091	0.1	87.683
22733	20.445	4.	0.1	87.589
22734	20.536	3.7273	0.1	97.242
22735	20.445	3.8182	0.1	98.617
22736	20.536	3.5455	0.1	104.89
22737	20.445	3.6364	0.1	107.69
22738	20.536	3.3636	0.1	110.44
22739	20.445	3.4545	0.1	114.58
22740	20.536	3.1818	0.1	113.79
22741	20.445	3.2727	0.1	119.17
22742	20.536	3.	0.1	114.91
22743	20.445	3.0909	0.1	121.47
22744	20.536	2.8182	0.1	113.79
22745	20.445	2.9091	0.1	121.47
22746	20.536	2.6364	0.1	110.44
22747	20.445	2.7273	0.1	119.17
22748	20.536	2.4545	0.1	104.89
22749	20.445	2.5455	0.1	114.58
22750	20.536	2.2727	0.1	97.242
22751	20.445	2.3636	0.1	107.69
22752	20.536	2.0909	0.1	87.683
22753	20.445	2.1818	0.1	98.617
22754	20.536	1.9091	0.1	76.532
22755	20.445	2.	0.1	87.589
22756	20.536	1.7273	0.1	64.235
22757	20.445	1.8182	0.1	75.007
22758	20.536	1.5455	0.1	51.339
22759	20.445	1.6364	0.1	61.424
22760	20.536	1.3636	0.1	38.44
22761	20.445	1.4545	0.1	47.488
22762	20.536	1.1818	0.1	26.138
22763	20.445	1.2727	0.1	33.878
22764	20.536	1.	0.1	14.985
22765	20.445	1.0909	0.1	21.239
22766	20.536	0.81818	0.1	5.5109
22767	20.445	0.90909	0.1	10.155
22768	20.536	0.63636	0.1	0.25278
22769	20.445	0.72727	0.1	1.5623
22770	20.536	0.45455	0.1	3.8082e-002
22771	20.445	0.54545	0.1	9.5154e-002
22772	20.536	0.27273	0.1	1.6338e-002
22773	20.445	0.36364	0.1	3.5673e-002
22774	20.445	0.18182	0.1	5.8789e-003
22775	20.536	9.0909e-002	0.1	-4.3014e-002
22776	20.354	5.7273	0.1	2.5618e-002
22777	20.263	5.8182	0.1	8.5362e-003
22778	20.354	5.9091	0.1	-4.6581e-002
22779	20.354	5.5455	0.1	6.4942e-002
22780	20.263	5.6364	0.1	5.5962e-002
22781	20.354	5.3636	0.1	0.33513
22782	20.263	5.4545	0.1	0.14066
22783	20.354	5.1818	0.1	5.7999
22784	20.263	5.2727	0.1	1.4947
22785	20.354	5.	0.1	16.378
22786	20.263	5.0909	0.1	10.643
22787	20.354	4.8182	0.1	28.959
22788	20.263	4.9091	0.1	22.992
22789	20.354	4.6364	0.1	42.903
22790	20.263	4.7273	0.1	37.194
22791	20.354	4.4545	0.1	57.548
22792	20.263	4.5455	0.1	52.558
22793	20.354	4.2727	0.1	72.17
22794	20.263	4.3636	0.1	68.309
22795	20.354	4.0909	0.1	86.04
22796	20.263	4.1818	0.1	83.611
22797	20.354	3.9091	0.1	98.506
22798	20.263	4.	0.1	97.665
22799	20.354	3.7273	0.1	109.06
22800	20.263	3.8182	0.1	109.82
22801	20.354	3.5455	0.1	117.38
22802	20.263	3.6364	0.1	119.63
22803	20.354	3.3636	0.1	123.33
22804	20.263	3.4545	0.1	126.93
22805	20.354	3.1818	0.1	126.88
22806	20.263	3.2727	0.1	131.71
22807	20.354	3.	0.1	128.06
22808	20.263	3.0909	0.1	134.06
22809	20.354	2.8182	0.1	126.88
22810	20.263	2.9091	0.1	134.06
22811	20.354	2.6364	0.1	123.33
22812	20.263	2.7273	0.1	131.71
22813	20.354	2.4545	0.1	117.38
22814	20.263	2.5455	0.1	126.93
22815	20.354	2.2727	0.1	109.06
22816	20.263	2.3636	0.1	119.63
22817	20.354	2.0909	0.1	98.506
22818	20.263	2.1818	0.1	109.82
22819	20.354	1.9091	0.1	86.04
22820	20.263	2.	0.1	97.665
22821	20.354	1.7273	0.1	72.17
22822	20.263	1.8182	0.1	83.611
22823	20.354	1.5455	0.1	57.548
22824	20.263	1.6364	0.1	68.309
22825	20.354	1.3636	0.1	42.903
22826	20.263	1.4545	0.1	52.558
22827	20.354	1.1818	0.1	28.959
22828	20.263	1.2727	0.1	37.194
22829	20.354	1.	0.1	16.378
22830	20.263	1.0909	0.1	22.992
22831	20.354	0.81818	0.1	5.7999
22832	20.263	0.90909	0.1	10.643
22833	20.354	0.63636	0.1	0.33513
22834	20.263	0.72727	0.1	1.4947
22835	20.354	0.45455	0.1	6.4943e-002
22836	20.263	0.54545	0.1	0.14066
22837	20.354	0.27273	0.1	2.5619e-002
22838	20.263	0.36364	0.1	5.5962e-002
22839	20.263	0.18182	0.1	8.5345e-003
22840	20.354	9.0909e-002	0.1	-4.6581e-002
22841	20.172	5.7273	0.1	3.7947e-002
22842	20.081	5.8182	0.1	1.2527e-002
22843	20.172	5.9091	0.1	-4.921e-002
22844	20.172	5.5455	0.1	9.8147e-002
22845	20.081	5.6364	0.1	8.1949e-002
22846	20.172	5.3636	0.1	0.40103
22847	20.081	5.4545	0.1	0.19309
22848	20.172	5.1818	0.1	5.6096
22849	20.081	5.2727	0.1	1.3362
22850	20.172	5.	0.1	17.181
22851	20.081	5.0909	0.1	10.544
22852	20.172	4.8182	0.1	31.17
22853	20.081	4.9091	0.1	24.046
22854	20.172	4.6364	0.1	46.79
22855	20.081	4.7273	0.1	39.778
22856	20.172	4.4545	0.1	63.257
22857	20.081	4.5455	0.1	56.937
22858	20.172	4.2727	0.1	79.69
22859	20.081	4.3636	0.1	74.591
22860	20.172	4.0909	0.1	95.184
22861	20.081	4.1818	0.1	91.693
22862	20.172	3.9091	0.1	108.94
22863	20.081	4.	0.1	107.23
22864	20.172	3.7273	0.1	120.37
22865	20.081	3.8182	0.1	120.39
22866	20.172	3.5455	0.1	129.18
22867	20.081	3.6364	0.1	130.72
22868	20.172	3.3636	0.1	135.34
22869	20.081	3.4545	0.1	138.15
22870	20.172	3.1818	0.1	138.93
22871	20.081	3.2727	0.1	142.85
22872	20.172	3.	0.1	140.11
22873	20.081	3.0909	0.1	145.11
22874	20.172	2.8182	0.1	138.93
22875	20.081	2.9091	0.1	145.11
22876	20.172	2.6364	0.1	135.34
22877	20.081	2.7273	0.1	142.85
22878	20.172	2.4545	0.1	129.18
22879	20.081	2.5455	0.1	138.15
22880	20.172	2.2727	0.1	120.37
22881	20.081	2.3636	0.1	130.72
22882	20.172	2.0909	0.1	108.94
22883	20.081	2.1818	0.1	120.39
22884	20.172	1.9091	0.1	95.184
22885	20.081	2.	0.1	107.23
22886	20.172	1.7273	0.1	79.69
22887	20.081	1.8182	0.1	91.693
22888	20.172	1.5455	0.1	63.258
22889	20.081	1.6364	0.1	74.591
22890	20.172	1.3636	0.1	46.79
22891	20.081	1.4545	0.1	56.938
22892	20.172	1.1818	0.1	31.17
22893	20.081	1.2727	0.1	39.779
22894	20.172	1.	0.1	17.181
22895	20.081	1.0909	0.1	24.046
22896	20.172	0.81818	0.1	5.6097
22897	20.081	0.90909	0.1	10.544
22898	20.172	0.63636	0.1	0.40103
22899	20.081	0.72727	0.1	1.3363
22900	20.172	0.45455	0.1	9.815e-002
22901	20.081	0.54545	0.1	0.19309
22902	20.172	0.27273	0.1	3.7946e-002
22903	20.081	0.36364	0.1	8.195e-002
22904	20.081	0.18182	0.1	1.2525e-002
22905	20.172	9.0909e-002	0.1	-4.9211e-002
22906	19.99	5.7273	0.1	5.4593e-002
22907	19.898	5.8182	0.1	1.9415e-002
22908	19.99	5.9091	0.1	-5.1047e-002
22909	19.99	5.5455	0.1	0.13978
22910	19.898	5.6364	0.1	0.11574
22911	19.99	5.3636	0.1	0.46632
22912	19.898	5.4545	0.1	0.25733
22913	19.99	5.1818	0.1	4.9685
22914	19.898	5.2727	0.1	1.2188
22915	19.99	5.	0.1	17.254
22916	19.898	5.0909	0.1	9.7706
22917	19.99	4.8182	0.1	32.534
22918	19.898	4.9091	0.1	24.141
22919	19.99	4.6364	0.1	49.804
22920	19.898	4.7273	0.1	41.258
22921	19.99	4.4545	0.1	68.148
22922	19.898	4.5455	0.1	60.195
22923	19.99	4.2727	0.1	86.477
22924	19.898	4.3636	0.1	79.836
22925	19.99	4.0909	0.1	103.64
22926	19.898	4.1818	0.1	98.836
22927	19.99	3.9091	0.1	118.61
22928	19.898	4.	0.1	115.85
22929	19.99	3.7273	0.1	130.71
22930	19.898	3.8182	0.1	129.83
22931	19.99	3.5455	0.1	139.7
22932	19.898	3.6364	0.1	140.31
22933	19.99	3.3636	0.1	145.73
22934	19.898	3.4545	0.1	147.4
22935	19.99	3.1818	0.1	149.12
22936	19.898	3.2727	0.1	151.61
22937	19.99	3.	0.1	150.21
22938	19.898	3.0909	0.1	153.53
22939	19.99	2.8182	0.1	149.12
22940	19.898	2.9091	0.1	153.53
22941	19.99	2.6364	0.1	145.73
22942	19.898	2.7273	0.1	151.61
22943	19.99	2.4545	0.1	139.7
22944	19.898	2.5455	0.1	147.4
22945	19.99	2.2727	0.1	130.71
22946	19.898	2.3636	0.1	140.31
22947	19.99	2.0909	0.1	118.61
22948	19.898	2.1818	0.1	129.83
22949	19.99	1.9091	0.1	103.64
22950	19.898	2.	0.1	115.85
22951	19.99	1.7273	0.1	86.477
22952	19.898	1.8182	0.1	98.836
22953	19.99	1.5455	0.1	68.148
22954	19.898	1.6364	0.1	79.836
22955	19.99	1.3636	0.1	49.804
22956	19.898	1.4545	0.1	60.195
22957	19.99	1.1818	0.1	32.534
22958	19.898	1.2727	0.1	41.258
22959	19.99	1.	0.1	17.254
22960	19.898	1.0909	0.1	24.141
22961	19.99	0.81818	0.1	4.9686
22962	19.898	0.90909	0.1	9.7707
22963	19.99	0.63636	0.1	0.46633
22964	19.898	0.72727	0.1	1.2188
22965	19.99	0.45455	0.1	0.13978
22966	19.898	0.54545	0.1	0.25734
22967	19.99	0.27273	0.1	5.4593e-002
22968	19.898	0.36364	0.1	0.11574
22969	19.898	0.18182	0.1	1.9415e-002
22970	19.99	9.0909e-002	0.1	-5.1048e-002
22971	19.807	5.7273	0.1	7.8214e-002
22972	19.716	5.8182	0.1	3.26e-002
22973	19.807	5.9091	0.1	-5.2559e-002
22974	19.807	5.5455	0.1	0.1942
22975	19.716	5.6364	0.1	0.16146
22976	19.807	5.3636	0.1	0.54589
22977	19.716	5.4545	0.1	0.34149
22978	19.807	5.1818	0.1	3.9988
22979	19.716	5.2727	0.1	1.1806
22980	19.807	5.	0.1	16.36
22981	19.716	5.0909	0.1	8.2183
22982	19.807	4.8182	0.1	32.636
22983	19.716	4.9091	0.1	22.832
22984	19.807	4.6364	0.1	51.42
22985	19.716	4.7273	0.1	40.975
22986	19.807	4.4545	0.1	71.656
22987	19.716	4.5455	0.1	61.566
22988	19.807	4.2727	0.1	91.981
22989	19.716	4.3636	0.1	83.28
22990	19.807	4.0909	0.1	110.86
22991	19.716	4.1818	0.1	104.34
22992	19.807	3.9091	0.1	126.94
22993	19.716	4.	0.1	122.84
22994	19.807	3.7273	0.1	139.37
22995	19.716	3.8182	0.1	137.37
22996	19.807	3.5455	0.1	148.04
22997	19.716	3.6364	0.1	147.41
22998	19.807	3.3636	0.1	153.4
22999	19.716	3.4545	0.1	153.44
23000	19.807	3.1818	0.1	156.2
23001	19.716	3.2727	0.1	156.5
23002	19.807	3.	0.1	157.05
23003	19.716	3.0909	0.1	157.7
23004	19.807	2.8182	0.1	156.2
23005	19.716	2.9091	0.1	157.7
23006	19.807	2.6364	0.1	153.4
23007	19.716	2.7273	0.1	156.5
23008	19.807	2.4545	0.1	148.04
23009	19.716	2.5455	0.1	153.44
23010	19.807	2.2727	0.1	139.37
23011	19.716	2.3636	0.1	147.42
23012	19.807	2.0909	0.1	126.94
23013	19.716	2.1818	0.1	137.37
23014	19.807	1.9091	0.1	110.86
23015	19.716	2.	0.1	122.84
23016	19.807	1.7273	0.1	91.982
23017	19.716	1.8182	0.1	104.34
23018	19.807	1.5455	0.1	71.656
23019	19.716	1.6364	0.1	83.281
23020	19.807	1.3636	0.1	51.42
23021	19.716	1.4545	0.1	61.566
23022	19.807	1.1818	0.1	32.636
23023	19.716	1.2727	0.1	40.975
23024	19.807	1.	0.1	16.36
23025	19.716	1.0909	0.1	22.833
23026	19.807	0.81818	0.1	3.9989
23027	19.716	0.90909	0.1	8.2184
23028	19.807	0.63636	0.1	0.54589
23029	19.716	0.72727	0.1	1.1806
23030	19.807	0.45455	0.1	0.1942
23031	19.716	0.54545	0.1	0.34149
23032	19.807	0.27273	0.1	7.8214e-002
23033	19.716	0.36364	0.1	0.16146
23034	19.716	0.18182	0.1	3.26e-002
23035	19.807	9.0909e-002	0.1	-5.256e-002
23036	19.625	5.7273	0.1	0.11405
23037	19.534	5.8182	0.1	5.9589e-002
23038	19.625	5.9091	0.1	-5.4729e-002
23039	19.625	5.5455	0.1	0.26907
23040	19.534	5.6364	0.1	0.22762
23041	19.625	5.3636	0.1	0.65191
23042	19.534	5.4545	0.1	0.45834
23043	19.625	5.1818	0.1	3.0048
23044	19.534	5.2727	0.1	1.2125
23045	19.625	5.	0.1	14.121
23046	19.534	5.0909	0.1	5.9288
23047	19.625	4.8182	0.1	30.757
23048	19.534	4.9091	0.1	19.396
23049	19.625	4.6364	0.1	50.712
23050	19.534	4.7273	0.1	37.795
23051	19.625	4.4545	0.1	72.792
23052	19.534	4.5455	0.1	59.71
23053	19.625	4.2727	0.1	95.266
23054	19.534	4.3636	0.1	83.598
23055	19.625	4.0909	0.1	116.
23056	19.534	4.1818	0.1	107.02
23057	19.625	3.9091	0.1	133.05
23058	19.534	4.	0.1	127.15
23059	19.625	3.7273	0.1	145.32
23060	19.534	3.8182	0.1	141.85
23061	19.625	3.5455	0.1	152.88
23062	19.534	3.6364	0.1	150.58
23063	19.625	3.3636	0.1	156.75
23064	19.534	3.4545	0.1	154.41
23065	19.625	3.1818	0.1	158.33
23066	19.534	3.2727	0.1	155.34
23067	19.625	3.	0.1	158.71
23068	19.534	3.0909	0.1	155.25
23069	19.625	2.8182	0.1	158.33
23070	19.534	2.9091	0.1	155.25
23071	19.625	2.6364	0.1	156.75
23072	19.534	2.7273	0.1	155.34
23073	19.625	2.4545	0.1	152.88
23074	19.534	2.5455	0.1	154.41
23075	19.625	2.2727	0.1	145.32
23076	19.534	2.3636	0.1	150.58
23077	19.625	2.0909	0.1	133.05
23078	19.534	2.1818	0.1	141.85
23079	19.625	1.9091	0.1	116.
23080	19.534	2.	0.1	127.15
23081	19.625	1.7273	0.1	95.266
23082	19.534	1.8182	0.1	107.02
23083	19.625	1.5455	0.1	72.792
23084	19.534	1.6364	0.1	83.598
23085	19.625	1.3636	0.1	50.712
23086	19.534	1.4545	0.1	59.71
23087	19.625	1.1818	0.1	30.758
23088	19.534	1.2727	0.1	37.795
23089	19.625	1.	0.1	14.121
23090	19.534	1.0909	0.1	19.396
23091	19.625	0.81818	0.1	3.0048
23092	19.534	0.90909	0.1	5.9289
23093	19.625	0.63636	0.1	0.65191
23094	19.534	0.72727	0.1	1.2125
23095	19.625	0.45455	0.1	0.26907
23096	19.534	0.54545	0.1	0.45834
23097	19.625	0.27273	0.1	0.11405
23098	19.534	0.36364	0.1	0.22762
23099	19.534	0.18182	0.1	5.9591e-002
23100	19.625	9.0909e-002	0.1	-5.4729e-002
23101	19.443	5.7273	0.1	0.17357
23102	19.352	5.8182	0.1	0.11528
23103	19.443	5.9091	0.1	-5.8086e-002
23104	19.443	5.5455	0.1	0.37879
23105	19.352	5.6364	0.1	0.33114
23106	19.443	5.3636	0.1	0.79654
23107	19.352	5.4545	0.1	0.62687
23108	19.443	5.1818	0.1	2.3114
23109	19.352	5.2727	0.1	1.2969
23110	19.443	5.	0.1	10.113
23111	19.352	5.0909	0.1	3.6562
23112	19.443	4.8182	0.1	25.709
23113	19.352	4.9091	0.1	12.949
23114	19.443	4.6364	0.1	46.085
23115	19.352	4.7273	0.1	29.873
23116	19.443	4.4545	0.1	69.838
23117	19.352	4.5455	0.1	52.319
23118	19.443	4.2727	0.1	94.737
23119	19.352	4.3636	0.1	78.468
23120	19.443	4.0909	0.1	117.66
23121	19.352	4.1818	0.1	104.9
23122	19.443	3.9091	0.1	135.61
23123	19.352	4.	0.1	127.09
23124	19.443	3.7273	0.1	146.99
23125	19.352	3.8182	0.1	141.54
23126	19.443	3.5455	0.1	152.26
23127	19.352	3.6364	0.1	147.64
23128	19.443	3.3636	0.1	153.41
23129	19.352	3.4545	0.1	147.61
23130	19.443	3.1818	0.1	152.85
23131	19.352	3.2727	0.1	145.
23132	19.443	3.	0.1	152.45
23133	19.352	3.0909	0.1	142.86
23134	19.443	2.8182	0.1	152.85
23135	19.352	2.9091	0.1	142.86
23136	19.443	2.6364	0.1	153.41
23137	19.352	2.7273	0.1	145.
23138	19.443	2.4545	0.1	152.26
23139	19.352	2.5455	0.1	147.61
23140	19.443	2.2727	0.1	146.99
23141	19.352	2.3636	0.1	147.64
23142	19.443	2.0909	0.1	135.61
23143	19.352	2.1818	0.1	141.54
23144	19.443	1.9091	0.1	117.66
23145	19.352	2.	0.1	127.09
23146	19.443	1.7273	0.1	94.737
23147	19.352	1.8182	0.1	104.9
23148	19.443	1.5455	0.1	69.838
23149	19.352	1.6364	0.1	78.468
23150	19.443	1.3636	0.1	46.085
23151	19.352	1.4545	0.1	52.319
23152	19.443	1.1818	0.1	25.709
23153	19.352	1.2727	0.1	29.873
23154	19.443	1.	0.1	10.114
23155	19.352	1.0909	0.1	12.949
23156	19.443	0.81818	0.1	2.3115
23157	19.352	0.90909	0.1	3.6563
23158	19.443	0.63636	0.1	0.79654
23159	19.352	0.72727	0.1	1.2969
23160	19.443	0.45455	0.1	0.37879
23161	19.352	0.54545	0.1	0.62688
23162	19.443	0.27273	0.1	0.17357
23163	19.352	0.36364	0.1	0.33114
23164	19.352	0.18182	0.1	0.11528
23165	19.443	9.0909e-002	0.1	-5.8084e-002
23166	19.26	5.7273	0.1	0.27867
23167	19.169	5.8182	0.1	0.23474
23168	19.26	5.9091	0.1	-6.4938e-002
23169	19.26	5.5455	0.1	0.54741
23170	19.169	5.6364	0.1	0.51249
23171	19.26	5.3636	0.1	0.98843
23172	19.169	5.4545	0.1	0.87851
23173	19.26	5.1818	0.1	1.9319
23174	19.169	5.2727	0.1	1.4163
23175	19.26	5.	0.1	5.1436
23176	19.169	5.0909	0.1	2.3933
23177	19.26	4.8182	0.1	15.959
23178	19.169	4.9091	0.1	5.2016
23179	19.26	4.6364	0.1	34.932
23180	19.169	4.7273	0.1	15.206
23181	19.26	4.4545	0.1	59.833
23182	19.169	4.5455	0.1	35.685
23183	19.26	4.2727	0.1	87.641
23184	19.169	4.3636	0.1	63.904
23185	19.26	4.0909	0.1	113.53
23186	19.169	4.1818	0.1	94.578
23187	19.26	3.9091	0.1	132.52
23188	19.169	4.	0.1	120.03
23189	19.26	3.7273	0.1	142.08
23190	19.169	3.8182	0.1	133.87
23191	19.26	3.5455	0.1	143.33
23192	19.169	3.6364	0.1	135.34
23193	19.26	3.3636	0.1	139.96
23194	19.169	3.4545	0.1	129.07
23195	19.26	3.1818	0.1	136.04
23196	19.169	3.2727	0.1	121.14
23197	19.26	3.	0.1	134.41
23198	19.169	3.0909	0.1	116.11
23199	19.26	2.8182	0.1	136.04
23200	19.169	2.9091	0.1	116.11
23201	19.26	2.6364	0.1	139.96
23202	19.169	2.7273	0.1	121.14
23203	19.26	2.4545	0.1	143.33
23204	19.169	2.5455	0.1	129.07
23205	19.26	2.2727	0.1	142.08
23206	19.169	2.3636	0.1	135.34
23207	19.26	2.0909	0.1	132.52
23208	19.169	2.1818	0.1	133.87
23209	19.26	1.9091	0.1	113.53
23210	19.169	2.	0.1	120.03
23211	19.26	1.7273	0.1	87.641
23212	19.169	1.8182	0.1	94.579
23213	19.26	1.5455	0.1	59.833
23214	19.169	1.6364	0.1	63.904
23215	19.26	1.3636	0.1	34.932
23216	19.169	1.4545	0.1	35.685
23217	19.26	1.1818	0.1	15.959
23218	19.169	1.2727	0.1	15.206
23219	19.26	1.	0.1	5.1437
23220	19.169	1.0909	0.1	5.2017
23221	19.26	0.81818	0.1	1.9319
23222	19.169	0.90909	0.1	2.3934
23223	19.26	0.63636	0.1	0.98843
23224	19.169	0.72727	0.1	1.4163
23225	19.26	0.45455	0.1	0.54741
23226	19.169	0.54545	0.1	0.87851
23227	19.26	0.27273	0.1	0.27867
23228	19.169	0.36364	0.1	0.51249
23229	19.169	0.18182	0.1	0.23475
23230	19.26	9.0909e-002	0.1	-6.4938e-002
23231	19.078	5.7273	0.1	0.48685
23232	18.987	5.8182	0.1	0.4783
23233	19.078	5.9091	0.1	-6.5373e-002
23234	19.078	5.5455	0.1	0.82758
23235	18.987	5.6364	0.1	0.84426
23236	19.078	5.3636	0.1	1.2359
23237	18.987	5.4545	0.1	1.2305
23238	19.078	5.1818	0.1	1.7411
23239	18.987	5.2727	0.1	1.5272
23240	19.078	5.	0.1	2.5966
23241	18.987	5.0909	0.1	1.8425
23242	19.078	4.8182	0.1	4.9654
23243	18.987	4.9091	0.1	2.3714
23244	19.078	4.6364	0.1	14.764
23245	18.987	4.7273	0.1	3.7096
23246	19.078	4.4545	0.1	38.057
23247	18.987	4.5455	0.1	9.5723
23248	19.078	4.2727	0.1	69.316
23249	18.987	4.3636	0.1	33.352
23250	19.078	4.0909	0.1	99.901
23251	18.987	4.1818	0.1	69.904
23252	19.078	3.9091	0.1	120.72
23253	18.987	4.	0.1	101.36
23254	19.078	3.7273	0.1	127.18
23255	18.987	3.8182	0.1	114.56
23256	19.078	3.5455	0.1	121.89
23257	18.987	3.6364	0.1	108.7
23258	19.078	3.3636	0.1	111.66
23259	18.987	3.4545	0.1	93.15
23260	19.078	3.1818	0.1	102.96
23261	18.987	3.2727	0.1	78.302
23262	19.078	3.	0.1	99.663
23263	18.987	3.0909	0.1	69.877
23264	19.078	2.8182	0.1	102.96
23265	18.987	2.9091	0.1	69.877
23266	19.078	2.6364	0.1	111.66
23267	18.987	2.7273	0.1	78.302
23268	19.078	2.4545	0.1	121.89
23269	18.987	2.5455	0.1	93.15
23270	19.078	2.2727	0.1	127.18
23271	18.987	2.3636	0.1	108.7
23272	19.078	2.0909	0.1	120.72
23273	18.987	2.1818	0.1	114.56
23274	19.078	1.9091	0.1	99.901
23275	18.987	2.	0.1	101.36
23276	19.078	1.7273	0.1	69.316
23277	18.987	1.8182	0.1	69.904
23278	19.078	1.5455	0.1	38.057
23279	18.987	1.6364	0.1	33.352
23280	19.078	1.3636	0.1	14.764
23281	18.987	1.4545	0.1	9.5724
23282	19.078	1.1818	0.1	4.9655
23283	18.987	1.2727	0.1	3.7096
23284	19.078	1.	0.1	2.5966
23285	18.987	1.0909	0.1	2.3714
23286	19.078	0.81818	0.1	1.7411
23287	18.987	0.90909	0.1	1.8425
23288	19.078	0.63636	0.1	1.2359
23289	18.987	0.72727	0.1	1.5272
23290	19.078	0.45455	0.1	0.82759
23291	18.987	0.54545	0.1	1.2305
23292	19.078	0.27273	0.1	0.48686
23293	18.987	0.36364	0.1	0.84426
23294	18.987	0.18182	0.1	0.4783
23295	19.078	9.0909e-002	0.1	-6.5372e-002
23296	18.896	5.7273	0.1	0.88386
23297	18.805	5.8182	0.1	1.0529
23298	18.896	5.9091	0.1	-7.5686e-002
23299	18.896	5.5455	0.1	1.256
23300	18.805	5.6364	0.1	1.527
23301	18.896	5.3636	0.1	1.4788
23302	18.805	5.4545	0.1	1.6968
23303	18.896	5.1818	0.1	1.6066
23304	18.805	5.2727	0.1	1.6302
23305	18.896	5.	0.1	1.8004
23306	18.805	5.0909	0.1	1.626
23307	18.896	4.8182	0.1	2.2297
23308	18.805	4.9091	0.1	1.7839
23309	18.896	4.6364	0.1	3.3049
23310	18.805	4.7273	0.1	2.1555
23311	18.896	4.4545	0.1	7.485
23312	18.805	4.5455	0.1	2.8834
23313	18.896	4.2727	0.1	31.98
23314	18.805	4.3636	0.1	5.7219
23315	18.896	4.0909	0.1	69.703
23316	18.805	4.1818	0.1	22.951
23317	18.896	3.9091	0.1	94.537
23318	18.805	4.	0.1	63.331
23319	18.896	3.7273	0.1	96.739
23320	18.805	3.8182	0.1	77.45
23321	18.896	3.5455	0.1	81.838
23322	18.805	3.6364	0.1	59.95
23323	18.896	3.3636	0.1	62.358
23324	18.805	3.4545	0.1	32.904
23325	18.896	3.1818	0.1	47.983
23326	18.805	3.2727	0.1	11.943
23327	18.896	3.	0.1	42.864
23328	18.805	3.0909	0.1	1.1106
23329	18.896	2.8182	0.1	47.983
23330	18.805	2.9091	0.1	1.1106
23331	18.896	2.6364	0.1	62.358
23332	18.805	2.7273	0.1	11.943
23333	18.896	2.4545	0.1	81.838
23334	18.805	2.5455	0.1	32.904
23335	18.896	2.2727	0.1	96.739
23336	18.805	2.3636	0.1	59.95
23337	18.896	2.0909	0.1	94.537
23338	18.805	2.1818	0.1	77.45
23339	18.896	1.9091	0.1	69.704
23340	18.805	2.	0.1	63.331
23341	18.896	1.7273	0.1	31.98
23342	18.805	1.8182	0.1	22.951
23343	18.896	1.5455	0.1	7.485
23344	18.805	1.6364	0.1	5.7219
23345	18.896	1.3636	0.1	3.305
23346	18.805	1.4545	0.1	2.8834
23347	18.896	1.1818	0.1	2.2297
23348	18.805	1.2727	0.1	2.1555
23349	18.896	1.	0.1	1.8004
23350	18.805	1.0909	0.1	1.7839
23351	18.896	0.81818	0.1	1.6066
23352	18.805	0.90909	0.1	1.626
23353	18.896	0.63636	0.1	1.4788
23354	18.805	0.72727	0.1	1.6302
23355	18.896	0.45455	0.1	1.256
23356	18.805	0.54545	0.1	1.6968
23357	18.896	0.27273	0.1	0.88386
23358	18.805	0.36364	0.1	1.527
23359	18.805	0.18182	0.1	1.053
23360	18.896	9.0909e-002	0.1	-7.5686e-002
23361	18.714	5.7273	0.1	1.8125
23362	18.622	5.8182	0.1	2.1452
23363	18.714	5.9091	0.1	9.1895e-002
23364	18.714	5.5455	0.1	1.9472
23365	18.622	5.6364	0.1	2.4322
23366	18.714	5.3636	0.1	1.749
23367	18.622	5.4545	0.1	1.8778
23368	18.714	5.1818	0.1	1.6054
23369	18.622	5.2727	0.1	1.4294
23370	18.714	5.	0.1	1.6557
23371	18.622	5.0909	0.1	1.2812
23372	18.714	4.8182	0.1	1.8858
23373	18.622	4.9091	0.1	1.3172
23374	18.714	4.6364	0.1	2.2679
23375	18.622	4.7273	0.1	1.5474
23376	18.714	4.4545	0.1	3.8555
23377	18.622	4.5455	0.1	2.0817
23378	18.714	4.2727	0.1	5.8138
23379	18.622	4.3636	0.1	3.2021
23380	18.714	4.0909	0.1	16.307
23381	18.622	4.1818	0.1	3.1054
23382	18.714	3.9091	0.1	45.959
23383	18.622	4.	0.1	-6.7373
23384	18.714	3.7273	0.1	43.319
23385	18.622	3.8182	0.1	10.651
23386	18.714	3.5455	0.1	17.281
23387	18.622	3.6364	0.1	6.3007
23388	18.714	3.3636	0.1	1.8897
23389	18.622	3.4545	0.1	1.0703
23390	18.714	3.1818	0.1	-0.14699
23391	18.622	3.2727	0.1	4.3008e-002
23392	18.714	3.	0.1	-0.41625
23393	18.622	3.0909	0.1	-0.20213
23394	18.714	2.8182	0.1	-0.14699
23395	18.622	2.9091	0.1	-0.20213
23396	18.714	2.6364	0.1	1.8898
23397	18.622	2.7273	0.1	4.3009e-002
23398	18.714	2.4545	0.1	17.281
23399	18.622	2.5455	0.1	1.0703
23400	18.714	2.2727	0.1	43.32
23401	18.622	2.3636	0.1	6.3008
23402	18.714	2.0909	0.1	45.959
23403	18.622	2.1818	0.1	10.651
23404	18.714	1.9091	0.1	16.307
23405	18.622	2.	0.1	-6.7373
23406	18.714	1.7273	0.1	5.8138
23407	18.622	1.8182	0.1	3.1054
23408	18.714	1.5455	0.1	3.8555
23409	18.622	1.6364	0.1	3.2021
23410	18.714	1.3636	0.1	2.2679
23411	18.622	1.4545	0.1	2.0817
23412	18.714	1.1818	0.1	1.8859
23413	18.622	1.2727	0.1	1.5474
23414	18.714	1.	0.1	1.6557
23415	18.622	1.0909	0.1	1.3172
23416	18.714	0.81818	0.1	1.6054
23417	18.622	0.90909	0.1	1.2812
23418	18.714	0.63636	0.1	1.749
23419	18.622	0.72727	0.1	1.4294
23420	18.714	0.45455	0.1	1.9472
23421	18.622	0.54545	0.1	1.8778
23422	18.714	0.27273	0.1	1.8125
23423	18.622	0.36364	0.1	2.4322
23424	18.622	0.18182	0.1	2.1452
23425	18.714	9.0909e-002	0.1	9.1896e-002
23426	18.531	5.7273	0.1	2.952
23427	18.44	5.8182	0.1	5.4873
23428	18.531	5.9091	0.1	0.24787
23429	18.531	5.5455	0.1	2.0376
23430	18.44	5.6364	0.1	3.5709
23431	18.531	5.3636	0.1	1.3471
23432	18.44	5.4545	0.1	2.4442
23433	18.531	5.1818	0.1	1.0207
23434	18.44	5.2727	0.1	1.9676
23435	18.531	5.	0.1	0.91971
23436	18.44	5.0909	0.1	1.8856
23437	18.531	4.8182	0.1	1.0034
23438	18.44	4.9091	0.1	2.1822
23439	18.531	4.6364	0.1	1.431
23440	18.44	4.7273	0.1	2.2208
23441	18.531	4.4545	0.1	1.5778
23442	18.44	4.5455	0.1	5.1722
23443	18.531	4.2727	0.1	0.5115
23444	18.44	4.3636	0.1	0.4505
23445	18.531	4.0909	0.1	-12.888
23446	18.44	4.1818	0.1	26.562
23447	18.531	3.9091	0.1	-18.344
23448	18.44	4.	0.1	75.751
23449	18.531	3.7273	0.1	0.30926
23450	18.44	3.8182	0.1	8.6426
23451	18.531	3.5455	0.1	3.1536
23452	18.44	3.6364	0.1	6.1071
23453	18.531	3.3636	0.1	0.24073
23454	18.44	3.4545	0.1	-0.41294
23455	18.531	3.1818	0.1	-1.1413e-002
23456	18.44	3.2727	0.1	0.52633
23457	18.531	3.	0.1	-7.3651e-002
23458	18.44	3.0909	0.1	1.3662e-002
23459	18.531	2.8182	0.1	-1.1412e-002
23460	18.44	2.9091	0.1	1.3662e-002
23461	18.531	2.6364	0.1	0.24073
23462	18.44	2.7273	0.1	0.52633
23463	18.531	2.4545	0.1	3.1536
23464	18.44	2.5455	0.1	-0.41293
23465	18.531	2.2727	0.1	0.30929
23466	18.44	2.3636	0.1	6.1071
23467	18.531	2.0909	0.1	-18.344
23468	18.44	2.1818	0.1	8.6427
23469	18.531	1.9091	0.1	-12.888
23470	18.44	2.	0.1	75.751
23471	18.531	1.7273	0.1	0.5115
23472	18.44	1.8182	0.1	26.562
23473	18.531	1.5455	0.1	1.5778
23474	18.44	1.6364	0.1	0.4505
23475	18.531	1.3636	0.1	1.431
23476	18.44	1.4545	0.1	5.1722
23477	18.531	1.1818	0.1	1.0034
23478	18.44	1.2727	0.1	2.2208
23479	18.531	1.	0.1	0.91971
23480	18.44	1.0909	0.1	2.1822
23481	18.531	0.81818	0.1	1.0207
23482	18.44	0.90909	0.1	1.8856
23483	18.531	0.63636	0.1	1.3471
23484	18.44	0.72727	0.1	1.9676
23485	18.531	0.45455	0.1	2.0376
23486	18.44	0.54545	0.1	2.4442
23487	18.531	0.27273	0.1	2.952
23488	18.44	0.36364	0.1	3.5709
23489	18.44	0.18182	0.1	5.4873
23490	18.531	9.0909e-002	0.1	0.24788
23491	18.349	5.7273	0.1	5.2658
23492	18.258	5.8182	0.1	0.4654
23493	18.349	5.9091	0.1	4.0673
23494	18.349	5.5455	0.1	3.147
23495	18.258	5.6364	0.1	-0.90524
23496	18.349	5.3636	0.1	2.6573
23497	18.258	5.4545	0.1	-0.58627
23498	18.349	5.1818	0.1	2.5581
23499	18.258	5.2727	0.1	-0.58753
23500	18.349	5.	0.1	2.9168
23501	18.258	5.0909	0.1	-0.68628
23502	18.349	4.8182	0.1	3.1772
23503	18.258	4.9091	0.1	-0.29036
23504	18.349	4.6364	0.1	5.7228
23505	18.258	4.7273	0.1	-1.8057
23506	18.349	4.4545	0.1	3.7457
23507	18.258	4.5455	0.1	4.4921
23508	18.349	4.2727	0.1	25.993
23509	18.258	4.3636	0.1	-20.471
23510	18.349	4.0909	0.1	114.89
23511	18.258	4.1818	0.1	90.408
23512	18.349	3.9091	0.1	76.178
23513	18.258	4.	0.1	196.3
23514	18.349	3.7273	0.1	10.87
23515	18.258	3.8182	0.1	11.021
23516	18.349	3.5455	0.1	2.5615
23517	18.258	3.6364	0.1	9.8594
23518	18.349	3.3636	0.1	-0.24163
23519	18.258	3.4545	0.1	-1.0181
23520	18.349	3.1818	0.1	0.49988
23521	18.258	3.2727	0.1	1.1814
23522	18.349	3.	0.1	4.442e-002
23523	18.258	3.0909	0.1	0.36103
23524	18.349	2.8182	0.1	0.49987
23525	18.258	2.9091	0.1	0.36103
23526	18.349	2.6364	0.1	-0.24163
23527	18.258	2.7273	0.1	1.1814
23528	18.349	2.4545	0.1	2.5615
23529	18.258	2.5455	0.1	-1.0181
23530	18.349	2.2727	0.1	10.87
23531	18.258	2.3636	0.1	9.8594
23532	18.349	2.0909	0.1	76.178
23533	18.258	2.1818	0.1	11.021
23534	18.349	1.9091	0.1	114.89
23535	18.258	2.	0.1	196.3
23536	18.349	1.7273	0.1	25.993
23537	18.258	1.8182	0.1	90.408
23538	18.349	1.5455	0.1	3.7457
23539	18.258	1.6364	0.1	-20.471
23540	18.349	1.3636	0.1	5.7228
23541	18.258	1.4545	0.1	4.492
23542	18.349	1.1818	0.1	3.1772
23543	18.258	1.2727	0.1	-1.8057
23544	18.349	1.	0.1	2.9168
23545	18.258	1.0909	0.1	-0.29036
23546	18.349	0.81818	0.1	2.5581
23547	18.258	0.90909	0.1	-0.68629
23548	18.349	0.63636	0.1	2.6573
23549	18.258	0.72727	0.1	-0.58753
23550	18.349	0.45455	0.1	3.147
23551	18.258	0.54545	0.1	-0.58627
23552	18.349	0.27273	0.1	5.2658
23553	18.258	0.36364	0.1	-0.90524
23554	18.258	0.18182	0.1	0.46541
23555	18.349	9.0909e-002	0.1	4.0673
23556	0.18367	0.27273	0.1	412.82
23557	0.27551	0.18182	0.1	3.4289
23558	9.1837e-002	0.18182	0.1	571.88
23559	0.18367	9.0909e-002	0.1	-88.386
23560	0.18367	0.45455	0.1	1045.5
23561	0.27551	0.36364	0.1	743.96
23562	9.1837e-002	0.36364	0.1	1564.4
23563	0.18367	0.63636	0.1	1384.3
23564	0.27551	0.54545	0.1	1245.1
23565	9.1837e-002	0.54545	0.1	2040.6
23566	0.18367	0.81818	0.1	1586.5
23567	0.27551	0.72727	0.1	1555.4
23568	9.1837e-002	0.72727	0.1	2318.9
23569	0.18367	1.	0.1	1719.
23570	0.27551	0.90909	0.1	1756.1
23571	9.1837e-002	0.90909	0.1	2501.
23572	0.18367	1.1818	0.1	1812.5
23573	0.27551	1.0909	0.1	1893.8
23574	9.1837e-002	1.0909	0.1	2629.6
23575	0.18367	1.3636	0.1	1881.3
23576	0.27551	1.2727	0.1	1993.
23577	9.1837e-002	1.2727	0.1	2724.3
23578	0.18367	1.5455	0.1	1933.4
23579	0.27551	1.4545	0.1	2066.8
23580	9.1837e-002	1.4545	0.1	2795.9
23581	0.18367	1.7273	0.1	1973.4
23582	0.27551	1.6364	0.1	2122.8
23583	9.1837e-002	1.6364	0.1	2851.
23584	0.18367	1.9091	0.1	2004.3
23585	0.27551	1.8182	0.1	2165.9
23586	9.1837e-002	1.8182	0.1	2893.6
23587	0.18367	2.0909	0.1	2028.1
23588	0.27551	2.	0.1	2199.1
23589	9.1837e-002	2.	0.1	2926.7
23590	0.18367	2.2727	0.1	2046.2
23591	0.27551	2.1818	0.1	2224.5
23592	9.1837e-002	2.1818	0.1	2952.1
23593	0.18367	2.4545	0.1	2059.5
23594	0.27551	2.3636	0.1	2243.4
23595	9.1837e-002	2.3636	0.1	2971.1
23596	0.18367	2.6364	0.1	2068.5
23597	0.27551	2.5455	0.1	2256.9
23598	9.1837e-002	2.5455	0.1	2984.6
23599	0.18367	2.8182	0.1	2073.8
23600	0.27551	2.7273	0.1	2265.6
23601	9.1837e-002	2.7273	0.1	2993.3
23602	0.18367	3.	0.1	2075.6
23603	0.27551	2.9091	0.1	2269.8
23604	9.1837e-002	2.9091	0.1	2997.6
23605	0.18367	3.1818	0.1	2073.8
23606	0.27551	3.0909	0.1	2269.8
23607	9.1837e-002	3.0909	0.1	2997.6
23608	0.18367	3.3636	0.1	2068.5
23609	0.27551	3.2727	0.1	2265.6
23610	9.1837e-002	3.2727	0.1	2993.3
23611	0.18367	3.5455	0.1	2059.5
23612	0.27551	3.4545	0.1	2256.9
23613	9.1837e-002	3.4545	0.1	2984.6
23614	0.18367	3.7273	0.1	2046.2
23615	0.27551	3.6364	0.1	2243.4
23616	9.1837e-002	3.6364	0.1	2971.1
23617	0.18367	3.9091	0.1	2028.1
23618	0.27551	3.8182	0.1	2224.5
23619	9.1837e-002	3.8182	0.1	2952.1
23620	0.18367	4.0909	0.1	2004.3
23621	0.27551	4.	0.1	2199.1
23622	9.1837e-002	4.	0.1	2926.7
23623	0.18367	4.2727	0.1	1973.4
23624	0.27551	4.1818	0.1	2165.9
23625	9.1837e-002	4.1818	0.1	2893.6
23626	0.18367	4.4545	0.1	1933.4
23627	0.27551	4.3636	0.1	2122.8
23628	9.1837e-002	4.3636	0.1	2851.
23629	0.18367	4.6364	0.1	1881.3
23630	0.27551	4.5455	0.1	2066.8
23631	9.1837e-002	4.5455	0.1	2795.9
23632	0.18367	4.8182	0.1	1812.5
23633	0.27551	4.7273	0.1	1993.
23634	9.1837e-002	4.7273	0.1	2724.3
23635	0.18367	5.	0.1	1719.
23636	0.27551	4.9091	0.1	1893.8
23637	9.1837e-002	4.9091	0.1	2629.6
23638	0.18367	5.1818	0.1	1586.5
23639	0.27551	5.0909	0.1	1756.1
23640	9.1837e-002	5.0909	0.1	2501.
23641	0.18367	5.3636	0.1	1384.3
23642	0.27551	5.2727	0.1	1555.4
23643	9.1837e-002	5.2727	0.1	2318.9
23644	0.18367	5.5455	0.1	1045.5
23645	0.27551	5.4545	0.1	1245.1
23646	9.1837e-002	5.4545	0.1	2040.6
23647	0.18367	5.7273	0.1	412.82
23648	0.27551	5.6364	0.1	743.96
23649	9.1837e-002	5.6364	0.1	1564.4
23650	0.27551	5.8182	0.1	3.4287
23651	9.1837e-002	5.8182	0.1	571.88
23652	0.18367	5.9091	0.1	-88.386
23653	0.36735	0.27273	0.1	307.05
23654	0.45918	0.18182	0.1	41.549
23655	0.36735	9.0909e-002	0.1	23.652
23656	0.36735	0.45455	0.1	943.11
23657	0.45918	0.36364	0.1	537.34
23658	0.36735	0.63636	0.1	1409.
23659	0.45918	0.54545	0.1	1041.
23660	0.36735	0.81818	0.1	1718.2
23661	0.45918	0.72727	0.1	1409.6
23662	0.36735	1.	0.1	1926.2
23663	0.45918	0.90909	0.1	1669.2
23664	0.36735	1.1818	0.1	2071.4
23665	0.45918	1.0909	0.1	1852.8
23666	0.36735	1.3636	0.1	2176.6
23667	0.45918	1.2727	0.1	1985.8
23668	0.36735	1.5455	0.1	2255.1
23669	0.45918	1.4545	0.1	2084.3
23670	0.36735	1.7273	0.1	2314.7
23671	0.45918	1.6364	0.1	2158.8
23672	0.36735	1.9091	0.1	2360.3
23673	0.45918	1.8182	0.1	2215.6
23674	0.36735	2.0909	0.1	2395.2
23675	0.45918	2.	0.1	2259.2
23676	0.36735	2.2727	0.1	2421.5
23677	0.45918	2.1818	0.1	2292.3
23678	0.36735	2.4545	0.1	2440.8
23679	0.45918	2.3636	0.1	2316.9
23680	0.36735	2.6364	0.1	2453.9
23681	0.45918	2.5455	0.1	2334.4
23682	0.36735	2.8182	0.1	2461.6
23683	0.45918	2.7273	0.1	2345.6
23684	0.36735	3.	0.1	2464.1
23685	0.45918	2.9091	0.1	2351.1
23686	0.36735	3.1818	0.1	2461.6
23687	0.45918	3.0909	0.1	2351.1
23688	0.36735	3.3636	0.1	2453.9
23689	0.45918	3.2727	0.1	2345.6
23690	0.36735	3.5455	0.1	2440.8
23691	0.45918	3.4545	0.1	2334.4
23692	0.36735	3.7273	0.1	2421.5
23693	0.45918	3.6364	0.1	2316.9
23694	0.36735	3.9091	0.1	2395.2
23695	0.45918	3.8182	0.1	2292.3
23696	0.36735	4.0909	0.1	2360.3
23697	0.45918	4.	0.1	2259.2
23698	0.36735	4.2727	0.1	2314.7
23699	0.45918	4.1818	0.1	2215.6
23700	0.36735	4.4545	0.1	2255.1
23701	0.45918	4.3636	0.1	2158.8
23702	0.36735	4.6364	0.1	2176.6
23703	0.45918	4.5455	0.1	2084.3
23704	0.36735	4.8182	0.1	2071.4
23705	0.45918	4.7273	0.1	1985.8
23706	0.36735	5.	0.1	1926.2
23707	0.45918	4.9091	0.1	1852.8
23708	0.36735	5.1818	0.1	1718.2
23709	0.45918	5.0909	0.1	1669.2
23710	0.36735	5.3636	0.1	1409.
23711	0.45918	5.2727	0.1	1409.6
23712	0.36735	5.5455	0.1	943.11
23713	0.45918	5.4545	0.1	1041.
23714	0.36735	5.7273	0.1	307.05
23715	0.45918	5.6364	0.1	537.34
23716	0.45918	5.8182	0.1	41.549
23717	0.36735	5.9091	0.1	23.652
23718	0.55102	0.27273	0.1	169.62
23719	0.64286	0.18182	0.1	9.8975
23720	0.55102	9.0909e-002	0.1	-9.0355
23721	0.55102	0.45455	0.1	638.13
23722	0.64286	0.36364	0.1	376.18
23723	0.55102	0.63636	0.1	1044.6
23724	0.64286	0.54545	0.1	785.09
23725	0.55102	0.81818	0.1	1361.5
23726	0.64286	0.72727	0.1	1131.9
23727	0.55102	1.	0.1	1595.5
23728	0.64286	0.90909	0.1	1403.3
23729	0.55102	1.1818	0.1	1766.5
23730	0.64286	1.0909	0.1	1608.8
23731	0.55102	1.3636	0.1	1892.8
23732	0.64286	1.2727	0.1	1763.4
23733	0.55102	1.5455	0.1	1987.5
23734	0.64286	1.4545	0.1	1880.4
23735	0.55102	1.7273	0.1	2059.4
23736	0.64286	1.6364	0.1	1969.5
23737	0.55102	1.9091	0.1	2114.3
23738	0.64286	1.8182	0.1	2037.9
23739	0.55102	2.0909	0.1	2156.1
23740	0.64286	2.	0.1	2090.3
23741	0.55102	2.2727	0.1	2187.6
23742	0.64286	2.1818	0.1	2130.1
23743	0.55102	2.4545	0.1	2210.5
23744	0.64286	2.3636	0.1	2159.7
23745	0.55102	2.6364	0.1	2226.1
23746	0.64286	2.5455	0.1	2180.7
23747	0.55102	2.8182	0.1	2235.2
23748	0.64286	2.7273	0.1	2194.2
23749	0.55102	3.	0.1	2238.2
23750	0.64286	2.9091	0.1	2200.8
23751	0.55102	3.1818	0.1	2235.2
23752	0.64286	3.0909	0.1	2200.8
23753	0.55102	3.3636	0.1	2226.1
23754	0.64286	3.2727	0.1	2194.2
23755	0.55102	3.5455	0.1	2210.5
23756	0.64286	3.4545	0.1	2180.7
23757	0.55102	3.7273	0.1	2187.6
23758	0.64286	3.6364	0.1	2159.7
23759	0.55102	3.9091	0.1	2156.1
23760	0.64286	3.8182	0.1	2130.1
23761	0.55102	4.0909	0.1	2114.3
23762	0.64286	4.	0.1	2090.3
23763	0.55102	4.2727	0.1	2059.4
23764	0.64286	4.1818	0.1	2037.9
23765	0.55102	4.4545	0.1	1987.5
23766	0.64286	4.3636	0.1	1969.5
23767	0.55102	4.6364	0.1	1892.8
23768	0.64286	4.5455	0.1	1880.4
23769	0.55102	4.8182	0.1	1766.5
23770	0.64286	4.7273	0.1	1763.4
23771	0.55102	5.	0.1	1595.5
23772	0.64286	4.9091	0.1	1608.8
23773	0.55102	5.1818	0.1	1361.5
23774	0.64286	5.0909	0.1	1403.3
23775	0.55102	5.3636	0.1	1044.6
23776	0.64286	5.2727	0.1	1131.9
23777	0.55102	5.5455	0.1	638.13
23778	0.64286	5.4545	0.1	785.09
23779	0.55102	5.7273	0.1	169.62
23780	0.64286	5.6364	0.1	376.18
23781	0.64286	5.8182	0.1	9.8975
23782	0.55102	5.9091	0.1	-9.0355
23783	0.73469	0.27273	0.1	146.13
23784	0.82653	0.18182	0.1	16.429
23785	0.73469	9.0909e-002	0.1	1.4295
23786	0.73469	0.45455	0.1	523.43
23787	0.82653	0.36364	0.1	311.94
23788	0.73469	0.63636	0.1	874.13
23789	0.82653	0.54545	0.1	649.28
23790	0.73469	0.81818	0.1	1175.3
23791	0.82653	0.72727	0.1	958.43
23792	0.73469	1.	0.1	1417.5
23793	0.82653	0.90909	0.1	1220.7
23794	0.73469	1.1818	0.1	1606.
23795	0.82653	1.0909	0.1	1432.9
23796	0.73469	1.3636	0.1	1750.9
23797	0.82653	1.2727	0.1	1600.6
23798	0.73469	1.5455	0.1	1862.2
23799	0.82653	1.4545	0.1	1731.6
23800	0.73469	1.7273	0.1	1947.9
23801	0.82653	1.6364	0.1	1833.8
23802	0.73469	1.9091	0.1	2013.8
23803	0.82653	1.8182	0.1	1913.2
23804	0.73469	2.0909	0.1	2064.2
23805	0.82653	2.	0.1	1974.6
23806	0.73469	2.2727	0.1	2102.2
23807	0.82653	2.1818	0.1	2021.5
23808	0.73469	2.4545	0.1	2129.9
23809	0.82653	2.3636	0.1	2056.5
23810	0.73469	2.6364	0.1	2148.8
23811	0.82653	2.5455	0.1	2081.4
23812	0.73469	2.8182	0.1	2159.8
23813	0.82653	2.7273	0.1	2097.3
23814	0.73469	3.	0.1	2163.4
23815	0.82653	2.9091	0.1	2105.1
23816	0.73469	3.1818	0.1	2159.8
23817	0.82653	3.0909	0.1	2105.1
23818	0.73469	3.3636	0.1	2148.8
23819	0.82653	3.2727	0.1	2097.3
23820	0.73469	3.5455	0.1	2129.9
23821	0.82653	3.4545	0.1	2081.4
23822	0.73469	3.7273	0.1	2102.2
23823	0.82653	3.6364	0.1	2056.5
23824	0.73469	3.9091	0.1	2064.2
23825	0.82653	3.8182	0.1	2021.5
23826	0.73469	4.0909	0.1	2013.8
23827	0.82653	4.	0.1	1974.6
23828	0.73469	4.2727	0.1	1947.9
23829	0.82653	4.1818	0.1	1913.2
23830	0.73469	4.4545	0.1	1862.2
23831	0.82653	4.3636	0.1	1833.8
23832	0.73469	4.6364	0.1	1750.9
23833	0.82653	4.5455	0.1	1731.6
23834	0.73469	4.8182	0.1	1606.
23835	0.82653	4.7273	0.1	1600.6
23836	0.73469	5.	0.1	1417.5
23837	0.82653	4.9091	0.1	1432.9
23838	0.73469	5.1818	0.1	1175.3
23839	0.82653	5.0909	0.1	1220.7
23840	0.73469	5.3636	0.1	874.13
23841	0.82653	5.2727	0.1	958.43
23842	0.73469	5.5455	0.1	523.43
23843	0.82653	5.4545	0.1	649.28
23844	0.73469	5.7273	0.1	146.13
23845	0.82653	5.6364	0.1	311.94
23846	0.82653	5.8182	0.1	16.429
23847	0.73469	5.9091	0.1	1.4295
23848	0.91837	0.27273	0.1	127.88
23849	1.0102	0.18182	0.1	15.929
23850	0.91837	9.0909e-002	0.1	-1.0261
23851	0.91837	0.45455	0.1	437.13
23852	1.0102	0.36364	0.1	269.96
23853	0.91837	0.63636	0.1	734.11
23854	1.0102	0.54545	0.1	551.93
23855	0.91837	0.81818	0.1	1004.9
23856	1.0102	0.72727	0.1	821.44
23857	0.91837	1.	0.1	1237.1
23858	1.0102	0.90909	0.1	1063.
23859	0.91837	1.1818	0.1	1428.2
23860	1.0102	1.0909	0.1	1269.1
23861	0.91837	1.3636	0.1	1581.8
23862	1.0102	1.2727	0.1	1439.5
23863	0.91837	1.5455	0.1	1703.5
23864	1.0102	1.4545	0.1	1577.5
23865	0.91837	1.7273	0.1	1799.3
23866	1.0102	1.6364	0.1	1688.
23867	0.91837	1.9091	0.1	1874.1
23868	1.0102	1.8182	0.1	1775.6
23869	0.91837	2.0909	0.1	1932.
23870	1.0102	2.	0.1	1844.3
23871	0.91837	2.2727	0.1	1975.9
23872	1.0102	2.1818	0.1	1897.4
23873	0.91837	2.4545	0.1	2008.
23874	1.0102	2.3636	0.1	1937.2
23875	0.91837	2.6364	0.1	2030.
23876	1.0102	2.5455	0.1	1965.6
23877	0.91837	2.8182	0.1	2042.8
23878	1.0102	2.7273	0.1	1983.9
23879	0.91837	3.	0.1	2047.
23880	1.0102	2.9091	0.1	1992.9
23881	0.91837	3.1818	0.1	2042.8
23882	1.0102	3.0909	0.1	1992.9
23883	0.91837	3.3636	0.1	2030.
23884	1.0102	3.2727	0.1	1983.9
23885	0.91837	3.5455	0.1	2008.
23886	1.0102	3.4545	0.1	1965.6
23887	0.91837	3.7273	0.1	1975.9
23888	1.0102	3.6364	0.1	1937.2
23889	0.91837	3.9091	0.1	1932.
23890	1.0102	3.8182	0.1	1897.4
23891	0.91837	4.0909	0.1	1874.1
23892	1.0102	4.	0.1	1844.3
23893	0.91837	4.2727	0.1	1799.3
23894	1.0102	4.1818	0.1	1775.6
23895	0.91837	4.4545	0.1	1703.5
23896	1.0102	4.3636	0.1	1688.
23897	0.91837	4.6364	0.1	1581.8
23898	1.0102	4.5455	0.1	1577.5
23899	0.91837	4.8182	0.1	1428.2
23900	1.0102	4.7273	0.1	1439.5
23901	0.91837	5.	0.1	1237.1
23902	1.0102	4.9091	0.1	1269.1
23903	0.91837	5.1818	0.1	1004.9
23904	1.0102	5.0909	0.1	1063.
23905	0.91837	5.3636	0.1	734.11
23906	1.0102	5.2727	0.1	821.44
23907	0.91837	5.5455	0.1	437.13
23908	1.0102	5.4545	0.1	551.93
23909	0.91837	5.7273	0.1	127.88
23910	1.0102	5.6364	0.1	269.96
23911	1.0102	5.8182	0.1	15.929
23912	0.91837	5.9091	0.1	-1.0261
23913	1.102	0.27273	0.1	121.71
23914	1.1939	0.18182	0.1	19.017
23915	1.102	9.0909e-002	0.1	-2.2374e-003
23916	1.102	0.45455	0.1	383.97
23917	1.1939	0.36364	0.1	244.21
23918	1.102	0.63636	0.1	639.24
23919	1.1939	0.54545	0.1	485.46
23920	1.102	0.81818	0.1	880.02
23921	1.1939	0.72727	0.1	721.
23922	1.102	1.	0.1	1095.7
23923	1.1939	0.90909	0.1	939.57
23924	1.102	1.1818	0.1	1281.
23925	1.1939	1.0909	0.1	1133.4
23926	1.102	1.3636	0.1	1435.8
23927	1.1939	1.2727	0.1	1299.7
23928	1.102	1.5455	0.1	1562.5
23929	1.1939	1.4545	0.1	1439.
23930	1.102	1.7273	0.1	1664.7
23931	1.1939	1.6364	0.1	1553.4
23932	1.102	1.9091	0.1	1746.1
23933	1.1939	1.8182	0.1	1646.2
23934	1.102	2.0909	0.1	1810.
23935	1.1939	2.	0.1	1720.1
23936	1.102	2.2727	0.1	1858.9
23937	1.1939	2.1818	0.1	1777.8
23938	1.102	2.4545	0.1	1895.
23939	1.1939	2.3636	0.1	1821.6
23940	1.102	2.6364	0.1	1919.7
23941	1.1939	2.5455	0.1	1853.
23942	1.102	2.8182	0.1	1934.2
23943	1.1939	2.7273	0.1	1873.4
23944	1.102	3.	0.1	1938.9
23945	1.1939	2.9091	0.1	1883.3
23946	1.102	3.1818	0.1	1934.2
23947	1.1939	3.0909	0.1	1883.3
23948	1.102	3.3636	0.1	1919.7
23949	1.1939	3.2727	0.1	1873.4
23950	1.102	3.5455	0.1	1895.
23951	1.1939	3.4545	0.1	1853.
23952	1.102	3.7273	0.1	1858.9
23953	1.1939	3.6364	0.1	1821.6
23954	1.102	3.9091	0.1	1810.
23955	1.1939	3.8182	0.1	1777.8
23956	1.102	4.0909	0.1	1746.1
23957	1.1939	4.	0.1	1720.1
23958	1.102	4.2727	0.1	1664.7
23959	1.1939	4.1818	0.1	1646.2
23960	1.102	4.4545	0.1	1562.5
23961	1.1939	4.3636	0.1	1553.4
23962	1.102	4.6364	0.1	1435.8
23963	1.1939	4.5455	0.1	1439.
23964	1.102	4.8182	0.1	1281.
23965	1.1939	4.7273	0.1	1299.7
23966	1.102	5.	0.1	1095.7
23967	1.1939	4.9091	0.1	1133.4
23968	1.102	5.1818	0.1	880.02
23969	1.1939	5.0909	0.1	939.57
23970	1.102	5.3636	0.1	639.24
23971	1.1939	5.2727	0.1	721.
23972	1.102	5.5455	0.1	383.97
23973	1.1939	5.4545	0.1	485.46
23974	1.102	5.7273	0.1	121.71
23975	1.1939	5.6364	0.1	244.21
23976	1.1939	5.8182	0.1	19.017
23977	1.102	5.9091	0.1	-2.2397e-003
23978	1.2857	0.27273	0.1	118.12
23979	1.3776	0.18182	0.1	23.047
23980	1.2857	9.0909e-002	0.1	0.16314
23981	1.2857	0.45455	0.1	344.95
23982	1.3776	0.36364	0.1	225.62
23983	1.2857	0.63636	0.1	566.97
23984	1.3776	0.54545	0.1	435.59
23985	1.2857	0.81818	0.1	780.67
23986	1.3776	0.72727	0.1	642.84
23987	1.2857	1.	0.1	977.72
23988	1.3776	0.90909	0.1	839.43
23989	1.2857	1.1818	0.1	1152.7
23990	1.3776	1.0909	0.1	1018.7
23991	1.2857	1.3636	0.1	1303.4
23992	1.3776	1.2727	0.1	1176.9
23993	1.2857	1.5455	0.1	1430.4
23994	1.3776	1.4545	0.1	1313.
23995	1.2857	1.7273	0.1	1535.3
23996	1.3776	1.6364	0.1	1427.7
23997	1.2857	1.9091	0.1	1620.4
23998	1.3776	1.8182	0.1	1522.5
23999	1.2857	2.0909	0.1	1688.2
24000	1.3776	2.	0.1	1599.3
24001	1.2857	2.2727	0.1	1740.8
24002	1.3776	2.1818	0.1	1660.1
24003	1.2857	2.4545	0.1	1779.9
24004	1.3776	2.3636	0.1	1706.7
24005	1.2857	2.6364	0.1	1806.9
24006	1.3776	2.5455	0.1	1740.4
24007	1.2857	2.8182	0.1	1822.8
24008	1.3776	2.7273	0.1	1762.3
24009	1.2857	3.	0.1	1828.
24010	1.3776	2.9091	0.1	1773.1
24011	1.2857	3.1818	0.1	1822.8
24012	1.3776	3.0909	0.1	1773.1
24013	1.2857	3.3636	0.1	1806.9
24014	1.3776	3.2727	0.1	1762.3
24015	1.2857	3.5455	0.1	1779.9
24016	1.3776	3.4545	0.1	1740.4
24017	1.2857	3.7273	0.1	1740.8
24018	1.3776	3.6364	0.1	1706.7
24019	1.2857	3.9091	0.1	1688.2
24020	1.3776	3.8182	0.1	1660.1
24021	1.2857	4.0909	0.1	1620.4
24022	1.3776	4.	0.1	1599.3
24023	1.2857	4.2727	0.1	1535.3
24024	1.3776	4.1818	0.1	1522.5
24025	1.2857	4.4545	0.1	1430.4
24026	1.3776	4.3636	0.1	1427.7
24027	1.2857	4.6364	0.1	1303.4
24028	1.3776	4.5455	0.1	1313.
24029	1.2857	4.8182	0.1	1152.7
24030	1.3776	4.7273	0.1	1176.9
24031	1.2857	5.	0.1	977.72
24032	1.3776	4.9091	0.1	1018.7
24033	1.2857	5.1818	0.1	780.67
24034	1.3776	5.0909	0.1	839.43
24035	1.2857	5.3636	0.1	566.97
24036	1.3776	5.2727	0.1	642.84
24037	1.2857	5.5455	0.1	344.95
24038	1.3776	5.4545	0.1	435.59
24039	1.2857	5.7273	0.1	118.12
24040	1.3776	5.6364	0.1	225.62
24041	1.3776	5.8182	0.1	23.047
24042	1.2857	5.9091	0.1	0.16313
24043	1.4694	0.27273	0.1	116.23
24044	1.5612	0.18182	0.1	28.238
24045	1.4694	9.0909e-002	0.1	0.94945
24046	1.4694	0.45455	0.1	315.61
24047	1.5612	0.36364	0.1	211.43
24048	1.4694	0.63636	0.1	511.14
24049	1.5612	0.54545	0.1	396.76
24050	1.4694	0.81818	0.1	701.53
24051	1.5612	0.72727	0.1	580.65
24052	1.4694	1.	0.1	880.53
24053	1.5612	0.90909	0.1	757.48
24054	1.4694	1.1818	0.1	1043.2
24055	1.5612	1.0909	0.1	921.83
24056	1.4694	1.3636	0.1	1186.9
24057	1.5612	1.2727	0.1	1070.1
24058	1.4694	1.5455	0.1	1310.8
24059	1.5612	1.4545	0.1	1200.4
24060	1.4694	1.7273	0.1	1415.3
24061	1.5612	1.6364	0.1	1312.5
24062	1.4694	1.9091	0.1	1501.7
24063	1.5612	1.8182	0.1	1406.8
24064	1.4694	2.0909	0.1	1571.5
24065	1.5612	2.	0.1	1484.5
24066	1.4694	2.2727	0.1	1626.3
24067	1.5612	2.1818	0.1	1546.8
24068	1.4694	2.4545	0.1	1667.5
24069	1.5612	2.3636	0.1	1595.
24070	1.4694	2.6364	0.1	1696.1
24071	1.5612	2.5455	0.1	1630.1
24072	1.4694	2.8182	0.1	1712.9
24073	1.5612	2.7273	0.1	1653.1
24074	1.4694	3.	0.1	1718.4
24075	1.5612	2.9091	0.1	1664.4
24076	1.4694	3.1818	0.1	1712.9
24077	1.5612	3.0909	0.1	1664.4
24078	1.4694	3.3636	0.1	1696.1
24079	1.5612	3.2727	0.1	1653.1
24080	1.4694	3.5455	0.1	1667.5
24081	1.5612	3.4545	0.1	1630.1
24082	1.4694	3.7273	0.1	1626.3
24083	1.5612	3.6364	0.1	1595.
24084	1.4694	3.9091	0.1	1571.5
24085	1.5612	3.8182	0.1	1546.8
24086	1.4694	4.0909	0.1	1501.7
24087	1.5612	4.	0.1	1484.5
24088	1.4694	4.2727	0.1	1415.3
24089	1.5612	4.1818	0.1	1406.8
24090	1.4694	4.4545	0.1	1310.8
24091	1.5612	4.3636	0.1	1312.5
24092	1.4694	4.6364	0.1	1186.9
24093	1.5612	4.5455	0.1	1200.4
24094	1.4694	4.8182	0.1	1043.2
24095	1.5612	4.7273	0.1	1070.1
24096	1.4694	5.	0.1	880.53
24097	1.5612	4.9091	0.1	921.83
24098	1.4694	5.1818	0.1	701.53
24099	1.5612	5.0909	0.1	757.48
24100	1.4694	5.3636	0.1	511.14
24101	1.5612	5.2727	0.1	580.65
24102	1.4694	5.5455	0.1	315.61
24103	1.5612	5.4545	0.1	396.76
24104	1.4694	5.7273	0.1	116.23
24105	1.5612	5.6364	0.1	211.43
24106	1.5612	5.8182	0.1	28.238
24107	1.4694	5.9091	0.1	0.94944
24108	1.6531	0.27273	0.1	114.72
24109	1.7449	0.18182	0.1	33.663
24110	1.6531	9.0909e-002	0.1	3.2328
24111	1.6531	0.45455	0.1	292.02
24112	1.7449	0.36364	0.1	199.71
24113	1.6531	0.63636	0.1	465.94
24114	1.7449	0.54545	0.1	365.05
24115	1.6531	0.81818	0.1	636.44
24116	1.7449	0.72727	0.1	529.44
24117	1.6531	1.	0.1	798.8
24118	1.7449	0.90909	0.1	688.89
24119	1.6531	1.1818	0.1	948.87
24120	1.7449	1.0909	0.1	839.05
24121	1.6531	1.3636	0.1	1083.9
24122	1.7449	1.2727	0.1	976.69
24123	1.6531	1.5455	0.1	1202.5
24124	1.7449	1.4545	0.1	1099.8
24125	1.6531	1.7273	0.1	1304.4
24126	1.7449	1.6364	0.1	1207.4
24127	1.6531	1.9091	0.1	1390.
24128	1.7449	1.8182	0.1	1299.4
24129	1.6531	2.0909	0.1	1460.2
24130	1.7449	2.	0.1	1376.2
24131	1.6531	2.2727	0.1	1515.8
24132	1.7449	2.1818	0.1	1438.5
24133	1.6531	2.4545	0.1	1558.
24134	1.7449	2.3636	0.1	1487.2
24135	1.6531	2.6364	0.1	1587.4
24136	1.7449	2.5455	0.1	1522.9
24137	1.6531	2.8182	0.1	1604.9
24138	1.7449	2.7273	0.1	1546.4
24139	1.6531	3.	0.1	1610.6
24140	1.7449	2.9091	0.1	1558.
24141	1.6531	3.1818	0.1	1604.9
24142	1.7449	3.0909	0.1	1558.
24143	1.6531	3.3636	0.1	1587.4
24144	1.7449	3.2727	0.1	1546.4
24145	1.6531	3.5455	0.1	1558.
24146	1.7449	3.4545	0.1	1522.9
24147	1.6531	3.7273	0.1	1515.8
24148	1.7449	3.6364	0.1	1487.2
24149	1.6531	3.9091	0.1	1460.2
24150	1.7449	3.8182	0.1	1438.5
24151	1.6531	4.0909	0.1	1390.
24152	1.7449	4.	0.1	1376.2
24153	1.6531	4.2727	0.1	1304.4
24154	1.7449	4.1818	0.1	1299.4
24155	1.6531	4.4545	0.1	1202.5
24156	1.7449	4.3636	0.1	1207.4
24157	1.6531	4.6364	0.1	1083.9
24158	1.7449	4.5455	0.1	1099.8
24159	1.6531	4.8182	0.1	948.87
24160	1.7449	4.7273	0.1	976.69
24161	1.6531	5.	0.1	798.8
24162	1.7449	4.9091	0.1	839.05
24163	1.6531	5.1818	0.1	636.44
24164	1.7449	5.0909	0.1	688.89
24165	1.6531	5.3636	0.1	465.94
24166	1.7449	5.2727	0.1	529.44
24167	1.6531	5.5455	0.1	292.02
24168	1.7449	5.4545	0.1	365.05
24169	1.6531	5.7273	0.1	114.72
24170	1.7449	5.6364	0.1	199.71
24171	1.7449	5.8182	0.1	33.663
24172	1.6531	5.9091	0.1	3.2328
24173	1.8367	0.27273	0.1	113.2
24174	1.9286	0.18182	0.1	38.659
24175	1.8367	9.0909e-002	0.1	7.9494
24176	1.8367	0.45455	0.1	272.26
24177	1.9286	0.36364	0.1	189.5
24178	1.8367	0.63636	0.1	428.23
24179	1.9286	0.54545	0.1	338.22
24180	1.8367	0.81818	0.1	581.7
24181	1.9286	0.72727	0.1	486.14
24182	1.8367	1.	0.1	729.07
24183	1.9286	0.90909	0.1	630.36
24184	1.8367	1.1818	0.1	866.94
24185	1.9286	1.0909	0.1	767.42
24186	1.8367	1.3636	0.1	992.75
24187	1.9286	1.2727	0.1	894.53
24188	1.8367	1.5455	0.1	1104.9
24189	1.9286	1.4545	0.1	1009.7
24190	1.8367	1.7273	0.1	1202.7
24191	1.9286	1.6364	0.1	1111.7
24192	1.8367	1.9091	0.1	1285.9
24193	1.9286	1.8182	0.1	1200.1
24194	1.8367	2.0909	0.1	1354.9
24195	1.9286	2.	0.1	1274.7
24196	1.8367	2.2727	0.1	1410.2
24197	1.9286	2.1818	0.1	1335.9
24198	1.8367	2.4545	0.1	1452.5
24199	1.9286	2.3636	0.1	1384.1
24200	1.8367	2.6364	0.1	1482.2
24201	1.9286	2.5455	0.1	1419.7
24202	1.8367	2.8182	0.1	1499.8
24203	1.9286	2.7273	0.1	1443.2
24204	1.8367	3.	0.1	1505.7
24205	1.9286	2.9091	0.1	1454.9
24206	1.8367	3.1818	0.1	1499.8
24207	1.9286	3.0909	0.1	1454.9
24208	1.8367	3.3636	0.1	1482.2
24209	1.9286	3.2727	0.1	1443.2
24210	1.8367	3.5455	0.1	1452.5
24211	1.9286	3.4545	0.1	1419.7
24212	1.8367	3.7273	0.1	1410.2
24213	1.9286	3.6364	0.1	1384.1
24214	1.8367	3.9091	0.1	1354.9
24215	1.9286	3.8182	0.1	1335.9
24216	1.8367	4.0909	0.1	1285.9
24217	1.9286	4.	0.1	1274.7
24218	1.8367	4.2727	0.1	1202.7
24219	1.9286	4.1818	0.1	1200.1
24220	1.8367	4.4545	0.1	1104.9
24221	1.9286	4.3636	0.1	1111.7
24222	1.8367	4.6364	0.1	992.75
24223	1.9286	4.5455	0.1	1009.7
24224	1.8367	4.8182	0.1	866.94
24225	1.9286	4.7273	0.1	894.53
24226	1.8367	5.	0.1	729.07
24227	1.9286	4.9091	0.1	767.42
24228	1.8367	5.1818	0.1	581.7
24229	1.9286	5.0909	0.1	630.36
24230	1.8367	5.3636	0.1	428.23
24231	1.9286	5.2727	0.1	486.14
24232	1.8367	5.5455	0.1	272.26
24233	1.9286	5.4545	0.1	338.22
24234	1.8367	5.7273	0.1	113.2
24235	1.9286	5.6364	0.1	189.5
24236	1.9286	5.8182	0.1	38.659
24237	1.8367	5.9091	0.1	7.9493
24238	2.0204	0.27273	0.1	111.39
24239	2.1122	0.18182	0.1	42.85
24240	2.0204	9.0909e-002	0.1	12.727
24241	2.0204	0.45455	0.1	255.05
24242	2.1122	0.36364	0.1	180.21
24243	2.0204	0.63636	0.1	395.84
24244	2.1122	0.54545	0.1	314.82
24245	2.0204	0.81818	0.1	534.61
24246	2.1122	0.72727	0.1	448.64
24247	2.0204	1.	0.1	668.6
24248	2.1122	0.90909	0.1	579.5
24249	2.0204	1.1818	0.1	795.01
24250	2.1122	1.0909	0.1	704.62
24251	2.0204	1.3636	0.1	911.57
24252	2.1122	1.2727	0.1	821.65
24253	2.0204	1.5455	0.1	1016.7
24254	2.1122	1.4545	0.1	928.73
24255	2.0204	1.7273	0.1	1109.4
24256	2.1122	1.6364	0.1	1024.6
24257	2.0204	1.9091	0.1	1189.2
24258	2.1122	1.8182	0.1	1108.5
24259	2.0204	2.0909	0.1	1256.
24260	2.1122	2.	0.1	1180.
24261	2.0204	2.2727	0.1	1310.
24262	2.1122	2.1818	0.1	1239.2
24263	2.0204	2.4545	0.1	1351.6
24264	2.1122	2.3636	0.1	1286.1
24265	2.0204	2.6364	0.1	1381.
24266	2.1122	2.5455	0.1	1321.
24267	2.0204	2.8182	0.1	1398.5
24268	2.1122	2.7273	0.1	1344.1
24269	2.0204	3.	0.1	1404.3
24270	2.1122	2.9091	0.1	1355.6
24271	2.0204	3.1818	0.1	1398.5
24272	2.1122	3.0909	0.1	1355.6
24273	2.0204	3.3636	0.1	1381.
24274	2.1122	3.2727	0.1	1344.1
24275	2.0204	3.5455	0.1	1351.6
24276	2.1122	3.4545	0.1	1321.
24277	2.0204	3.7273	0.1	1310.
24278	2.1122	3.6364	0.1	1286.1
24279	2.0204	3.9091	0.1	1256.
24280	2.1122	3.8182	0.1	1239.2
24281	2.0204	4.0909	0.1	1189.2
24282	2.1122	4.	0.1	1180.
24283	2.0204	4.2727	0.1	1109.4
24284	2.1122	4.1818	0.1	1108.5
24285	2.0204	4.4545	0.1	1016.7
24286	2.1122	4.3636	0.1	1024.6
24287	2.0204	4.6364	0.1	911.57
24288	2.1122	4.5455	0.1	928.73
24289	2.0204	4.8182	0.1	795.01
24290	2.1122	4.7273	0.1	821.65
24291	2.0204	5.	0.1	668.6
24292	2.1122	4.9091	0.1	704.62
24293	2.0204	5.1818	0.1	534.61
24294	2.1122	5.0909	0.1	579.5
24295	2.0204	5.3636	0.1	395.84
24296	2.1122	5.2727	0.1	448.64
24297	2.0204	5.5455	0.1	255.05
24298	2.1122	5.4545	0.1	314.82
24299	2.0204	5.7273	0.1	111.39
24300	2.1122	5.6364	0.1	180.21
24301	2.1122	5.8182	0.1	42.85
24302	2.0204	5.9091	0.1	12.726
24303	2.2041	0.27273	0.1	109.22
24304	2.2959	0.18182	0.1	46.116
24305	2.2041	9.0909e-002	0.1	16.651
24306	2.2041	0.45455	0.1	239.63
24307	2.2959	0.36364	0.1	171.49
24308	2.2041	0.63636	0.1	367.37
24309	2.2959	0.54545	0.1	293.93
24310	2.2041	0.81818	0.1	493.34
24311	2.2959	0.72727	0.1	415.51
24312	2.2041	1.	0.1	615.39
24313	2.2959	0.90909	0.1	534.58
24314	2.2041	1.1818	0.1	731.21
24315	2.2959	1.0909	0.1	648.9
24316	2.2041	1.3636	0.1	838.83
24317	2.2959	1.2727	0.1	756.45
24318	2.2041	1.5455	0.1	936.73
24319	2.2959	1.4545	0.1	855.59
24320	2.2041	1.7273	0.1	1023.8
24321	2.2959	1.6364	0.1	945.06
24322	2.2041	1.9091	0.1	1099.5
24323	2.2959	1.8182	0.1	1024.
24324	2.2041	2.0909	0.1	1163.4
24325	2.2959	2.	0.1	1091.8
24326	2.2041	2.2727	0.1	1215.5
24327	2.2959	2.1818	0.1	1148.4
24328	2.2041	2.4545	0.1	1255.7
24329	2.2959	2.3636	0.1	1193.5
24330	2.2041	2.6364	0.1	1284.4
24331	2.2959	2.5455	0.1	1227.2
24332	2.2041	2.8182	0.1	1301.5
24333	2.2959	2.7273	0.1	1249.6
24334	2.2041	3.	0.1	1307.2
24335	2.2959	2.9091	0.1	1260.8
24336	2.2041	3.1818	0.1	1301.5
24337	2.2959	3.0909	0.1	1260.8
24338	2.2041	3.3636	0.1	1284.4
24339	2.2959	3.2727	0.1	1249.6
24340	2.2041	3.5455	0.1	1255.7
24341	2.2959	3.4545	0.1	1227.2
24342	2.2041	3.7273	0.1	1215.5
24343	2.2959	3.6364	0.1	1193.5
24344	2.2041	3.9091	0.1	1163.4
24345	2.2959	3.8182	0.1	1148.4
24346	2.2041	4.0909	0.1	1099.5
24347	2.2959	4.	0.1	1091.8
24348	2.2041	4.2727	0.1	1023.8
24349	2.2959	4.1818	0.1	1024.
24350	2.2041	4.4545	0.1	936.73
24351	2.2959	4.3636	0.1	945.06
24352	2.2041	4.6364	0.1	838.83
24353	2.2959	4.5455	0.1	855.59
24354	2.2041	4.8182	0.1	731.21
24355	2.2959	4.7273	0.1	756.45
24356	2.2041	5.	0.1	615.39
24357	2.2959	4.9091	0.1	648.9
24358	2.2041	5.1818	0.1	493.34
24359	2.2959	5.0909	0.1	534.58
24360	2.2041	5.3636	0.1	367.37
24361	2.2959	5.2727	0.1	415.51
24362	2.2041	5.5455	0.1	239.63
24363	2.2959	5.4545	0.1	293.93
24364	2.2041	5.7273	0.1	109.22
24365	2.2959	5.6364	0.1	171.49
24366	2.2959	5.8182	0.1	46.116
24367	2.2041	5.9091	0.1	16.651
24368	2.3878	0.27273	0.1	106.64
24369	2.4796	0.18182	0.1	48.467
24370	2.3878	9.0909e-002	0.1	19.69
24371	2.3878	0.45455	0.1	225.49
24372	2.4796	0.36364	0.1	163.14
24373	2.3878	0.63636	0.1	341.85
24374	2.4796	0.54545	0.1	274.93
24375	2.3878	0.81818	0.1	456.57
24376	2.4796	0.72727	0.1	385.77
24377	2.3878	1.	0.1	567.95
24378	2.4796	0.90909	0.1	494.38
24379	2.3878	1.1818	0.1	674.07
24380	2.4796	1.0909	0.1	598.91
24381	2.3878	1.3636	0.1	773.21
24382	2.4796	1.2727	0.1	697.68
24383	2.3878	1.5455	0.1	863.99
24384	2.4796	1.4545	0.1	789.21
24385	2.3878	1.7273	0.1	945.33
24386	2.4796	1.6364	0.1	872.32
24387	2.3878	1.9091	0.1	1016.5
24388	2.4796	1.8182	0.1	946.1
24389	2.3878	2.0909	0.1	1077.
24390	2.4796	2.	0.1	1009.9
24391	2.3878	2.2727	0.1	1126.6
24392	2.4796	2.1818	0.1	1063.4
24393	2.3878	2.4545	0.1	1165.1
24394	2.4796	2.3636	0.1	1106.3
24395	2.3878	2.6364	0.1	1192.6
24396	2.4796	2.5455	0.1	1138.5
24397	2.3878	2.8182	0.1	1209.1
24398	2.4796	2.7273	0.1	1159.9
24399	2.3878	3.	0.1	1214.6
24400	2.4796	2.9091	0.1	1170.7
24401	2.3878	3.1818	0.1	1209.1
24402	2.4796	3.0909	0.1	1170.7
24403	2.3878	3.3636	0.1	1192.6
24404	2.4796	3.2727	0.1	1159.9
24405	2.3878	3.5455	0.1	1165.1
24406	2.4796	3.4545	0.1	1138.5
24407	2.3878	3.7273	0.1	1126.6
24408	2.4796	3.6364	0.1	1106.3
24409	2.3878	3.9091	0.1	1077.
24410	2.4796	3.8182	0.1	1063.4
24411	2.3878	4.0909	0.1	1016.5
24412	2.4796	4.	0.1	1009.9
24413	2.3878	4.2727	0.1	945.33
24414	2.4796	4.1818	0.1	946.1
24415	2.3878	4.4545	0.1	863.99
24416	2.4796	4.3636	0.1	872.32
24417	2.3878	4.6364	0.1	773.21
24418	2.4796	4.5455	0.1	789.21
24419	2.3878	4.8182	0.1	674.07
24420	2.4796	4.7273	0.1	697.68
24421	2.3878	5.	0.1	567.95
24422	2.4796	4.9091	0.1	598.91
24423	2.3878	5.1818	0.1	456.57
24424	2.4796	5.0909	0.1	494.38
24425	2.3878	5.3636	0.1	341.85
24426	2.4796	5.2727	0.1	385.77
24427	2.3878	5.5455	0.1	225.49
24428	2.4796	5.4545	0.1	274.93
24429	2.3878	5.7273	0.1	106.64
24430	2.4796	5.6364	0.1	163.14
24431	2.4796	5.8182	0.1	48.467
24432	2.3878	5.9091	0.1	19.69
24433	2.5714	0.27273	0.1	103.68
24434	2.6633	0.18182	0.1	49.974
24435	2.5714	9.0909e-002	0.1	21.943
24436	2.5714	0.45455	0.1	212.32
24437	2.6633	0.36364	0.1	155.05
24438	2.5714	0.63636	0.1	318.65
24439	2.6633	0.54545	0.1	257.41
24440	2.5714	0.81818	0.1	423.4
24441	2.6633	0.72727	0.1	358.72
24442	2.5714	1.	0.1	525.2
24443	2.6633	0.90909	0.1	457.99
24444	2.5714	1.1818	0.1	622.44
24445	2.6633	1.0909	0.1	553.67
24446	2.5714	1.3636	0.1	713.65
24447	2.6633	1.2727	0.1	644.33
24448	2.5714	1.5455	0.1	797.57
24449	2.6633	1.4545	0.1	728.67
24450	2.5714	1.7273	0.1	873.16
24451	2.6633	1.6364	0.1	805.6
24452	2.5714	1.9091	0.1	939.66
24453	2.6633	1.8182	0.1	874.22
24454	2.5714	2.0909	0.1	996.49
24455	2.6633	2.	0.1	933.88
24456	2.5714	2.2727	0.1	1043.3
24457	2.6633	2.1818	0.1	984.08
24458	2.5714	2.4545	0.1	1079.8
24459	2.6633	2.3636	0.1	1024.5
24460	2.5714	2.6364	0.1	1106.
24461	2.6633	2.5455	0.1	1055.
24462	2.5714	2.8182	0.1	1121.7
24463	2.6633	2.7273	0.1	1075.3
24464	2.5714	3.	0.1	1126.9
24465	2.6633	2.9091	0.1	1085.5
24466	2.5714	3.1818	0.1	1121.7
24467	2.6633	3.0909	0.1	1085.5
24468	2.5714	3.3636	0.1	1106.
24469	2.6633	3.2727	0.1	1075.3
24470	2.5714	3.5455	0.1	1079.8
24471	2.6633	3.4545	0.1	1055.
24472	2.5714	3.7273	0.1	1043.3
24473	2.6633	3.6364	0.1	1024.5
24474	2.5714	3.9091	0.1	996.49
24475	2.6633	3.8182	0.1	984.08
24476	2.5714	4.0909	0.1	939.66
24477	2.6633	4.	0.1	933.88
24478	2.5714	4.2727	0.1	873.16
24479	2.6633	4.1818	0.1	874.22
24480	2.5714	4.4545	0.1	797.57
24481	2.6633	4.3636	0.1	805.6
24482	2.5714	4.6364	0.1	713.65
24483	2.6633	4.5455	0.1	728.67
24484	2.5714	4.8182	0.1	622.44
24485	2.6633	4.7273	0.1	644.33
24486	2.5714	5.	0.1	525.2
24487	2.6633	4.9091	0.1	553.67
24488	2.5714	5.1818	0.1	423.4
24489	2.6633	5.0909	0.1	457.99
24490	2.5714	5.3636	0.1	318.65
24491	2.6633	5.2727	0.1	358.72
24492	2.5714	5.5455	0.1	212.32
24493	2.6633	5.4545	0.1	257.41
24494	2.5714	5.7273	0.1	103.68
24495	2.6633	5.6364	0.1	155.05
24496	2.6633	5.8182	0.1	49.974
24497	2.5714	5.9091	0.1	21.943
24498	2.7551	0.27273	0.1	100.37
24499	2.8469	0.18182	0.1	50.73
24500	2.7551	9.0909e-002	0.1	23.521
24501	2.7551	0.45455	0.1	199.91
24502	2.8469	0.36364	0.1	147.16
24503	2.7551	0.63636	0.1	297.3
24504	2.8469	0.54545	0.1	241.08
24505	2.7551	0.81818	0.1	393.16
24506	2.8469	0.72727	0.1	333.89
24507	2.7551	1.	0.1	486.33
24508	2.8469	0.90909	0.1	424.76
24509	2.7551	1.1818	0.1	575.47
24510	2.8469	1.0909	0.1	512.42
24511	2.7551	1.3636	0.1	659.31
24512	2.8469	1.2727	0.1	595.62
24513	2.7551	1.5455	0.1	736.71
24514	2.8469	1.4545	0.1	673.24
24515	2.7551	1.7273	0.1	806.71
24516	2.8469	1.6364	0.1	744.25
24517	2.7551	1.9091	0.1	868.54
24518	2.8469	1.8182	0.1	807.84
24519	2.7551	2.0909	0.1	921.6
24520	2.8469	2.	0.1	863.32
24521	2.7551	2.2727	0.1	965.47
24522	2.8469	2.1818	0.1	910.18
24523	2.7551	2.4545	0.1	999.83
24524	2.8469	2.3636	0.1	948.04
24525	2.7551	2.6364	0.1	1024.5
24526	2.8469	2.5455	0.1	976.62
24527	2.7551	2.8182	0.1	1039.3
24528	2.8469	2.7273	0.1	995.77
24529	2.7551	3.	0.1	1044.3
24530	2.8469	2.9091	0.1	1005.4
24531	2.7551	3.1818	0.1	1039.3
24532	2.8469	3.0909	0.1	1005.4
24533	2.7551	3.3636	0.1	1024.5
24534	2.8469	3.2727	0.1	995.77
24535	2.7551	3.5455	0.1	999.83
24536	2.8469	3.4545	0.1	976.62
24537	2.7551	3.7273	0.1	965.47
24538	2.8469	3.6364	0.1	948.04
24539	2.7551	3.9091	0.1	921.6
24540	2.8469	3.8182	0.1	910.18
24541	2.7551	4.0909	0.1	868.54
24542	2.8469	4.	0.1	863.32
24543	2.7551	4.2727	0.1	806.71
24544	2.8469	4.1818	0.1	807.84
24545	2.7551	4.4545	0.1	736.71
24546	2.8469	4.3636	0.1	744.25
24547	2.7551	4.6364	0.1	659.31
24548	2.8469	4.5455	0.1	673.24
24549	2.7551	4.8182	0.1	575.47
24550	2.8469	4.7273	0.1	595.62
24551	2.7551	5.	0.1	486.33
24552	2.8469	4.9091	0.1	512.42
24553	2.7551	5.1818	0.1	393.16
24554	2.8469	5.0909	0.1	424.76
24555	2.7551	5.3636	0.1	297.3
24556	2.8469	5.2727	0.1	333.89
24557	2.7551	5.5455	0.1	199.91
24558	2.8469	5.4545	0.1	241.08
24559	2.7551	5.7273	0.1	100.37
24560	2.8469	5.6364	0.1	147.16
24561	2.8469	5.8182	0.1	50.73
24562	2.7551	5.9091	0.1	23.521
24563	2.9388	0.27273	0.1	96.757
24564	3.0306	0.18182	0.1	50.834
24565	2.9388	9.0909e-002	0.1	24.53
24566	2.9388	0.45455	0.1	188.13
24567	3.0306	0.36364	0.1	139.43
24568	2.9388	0.63636	0.1	277.5
24569	3.0306	0.54545	0.1	225.75
24570	2.9388	0.81818	0.1	365.35
24571	3.0306	0.72727	0.1	310.91
24572	2.9388	1.	0.1	450.73
24573	3.0306	0.90909	0.1	394.21
24574	2.9388	1.1818	0.1	532.49
24575	3.0306	1.0909	0.1	474.58
24576	2.9388	1.3636	0.1	609.5
24577	3.0306	1.2727	0.1	550.94
24578	2.9388	1.5455	0.1	680.77
24579	3.0306	1.4545	0.1	622.29
24580	2.9388	1.7273	0.1	745.42
24581	3.0306	1.6364	0.1	687.74
24582	2.9388	1.9091	0.1	802.7
24583	3.0306	1.8182	0.1	746.49
24584	2.9388	2.0909	0.1	852.01
24585	3.0306	2.	0.1	797.89
24586	2.9388	2.2727	0.1	892.89
24587	3.0306	2.1818	0.1	841.42
24588	2.9388	2.4545	0.1	924.99
24589	3.0306	2.3636	0.1	876.67
24590	2.9388	2.6364	0.1	948.08
24591	3.0306	2.5455	0.1	903.35
24592	2.9388	2.8182	0.1	961.99
24593	3.0306	2.7273	0.1	921.24
24594	2.9388	3.	0.1	966.64
24595	3.0306	2.9091	0.1	930.21
24596	2.9388	3.1818	0.1	961.99
24597	3.0306	3.0909	0.1	930.21
24598	2.9388	3.3636	0.1	948.08
24599	3.0306	3.2727	0.1	921.24
24600	2.9388	3.5455	0.1	924.99
24601	3.0306	3.4545	0.1	903.35
24602	2.9388	3.7273	0.1	892.89
24603	3.0306	3.6364	0.1	876.67
24604	2.9388	3.9091	0.1	852.01
24605	3.0306	3.8182	0.1	841.42
24606	2.9388	4.0909	0.1	802.7
24607	3.0306	4.	0.1	797.89
24608	2.9388	4.2727	0.1	745.42
24609	3.0306	4.1818	0.1	746.49
24610	2.9388	4.4545	0.1	680.77
24611	3.0306	4.3636	0.1	687.74
24612	2.9388	4.6364	0.1	609.5
24613	3.0306	4.5455	0.1	622.29
24614	2.9388	4.8182	0.1	532.48
24615	3.0306	4.7273	0.1	550.94
24616	2.9388	5.	0.1	450.73
24617	3.0306	4.9091	0.1	474.58
24618	2.9388	5.1818	0.1	365.35
24619	3.0306	5.0909	0.1	394.21
24620	2.9388	5.3636	0.1	277.5
24621	3.0306	5.2727	0.1	310.91
24622	2.9388	5.5455	0.1	188.13
24623	3.0306	5.4545	0.1	225.75
24624	2.9388	5.7273	0.1	96.757
24625	3.0306	5.6364	0.1	139.43
24626	3.0306	5.8182	0.1	50.834
24627	2.9388	5.9091	0.1	24.53
24628	3.1224	0.27273	0.1	92.903
24629	3.2143	0.18182	0.1	50.384
24630	3.1224	9.0909e-002	0.1	25.059
24631	3.1224	0.45455	0.1	176.89
24632	3.2143	0.36364	0.1	131.87
24633	3.1224	0.63636	0.1	259.02
24634	3.2143	0.54545	0.1	211.3
24635	3.1224	0.81818	0.1	339.64
24636	3.2143	0.72727	0.1	289.53
24637	3.1224	1.	0.1	417.95
24638	3.2143	0.90909	0.1	365.98
24639	3.1224	1.1818	0.1	492.95
24640	3.2143	1.0909	0.1	439.71
24641	3.1224	1.3636	0.1	563.68
24642	3.2143	1.2727	0.1	509.79
24643	3.1224	1.5455	0.1	629.24
24644	3.2143	1.4545	0.1	575.35
24645	3.1224	1.7273	0.1	688.82
24646	3.2143	1.6364	0.1	635.57
24647	3.1224	1.9091	0.1	741.73
24648	3.2143	1.8182	0.1	689.73
24649	3.1224	2.0909	0.1	787.38
24650	3.2143	2.	0.1	737.22
24651	3.1224	2.2727	0.1	825.31
24652	3.2143	2.1818	0.1	777.51
24653	3.1224	2.4545	0.1	855.16
24654	3.2143	2.3636	0.1	810.19
24655	3.1224	2.6364	0.1	876.66
24656	3.2143	2.5455	0.1	834.97
24657	3.1224	2.8182	0.1	889.62
24658	3.2143	2.7273	0.1	851.61
24659	3.1224	3.	0.1	893.96
24660	3.2143	2.9091	0.1	859.96
24661	3.1224	3.1818	0.1	889.62
24662	3.2143	3.0909	0.1	859.96
24663	3.1224	3.3636	0.1	876.66
24664	3.2143	3.2727	0.1	851.61
24665	3.1224	3.5455	0.1	855.16
24666	3.2143	3.4545	0.1	834.97
24667	3.1224	3.7273	0.1	825.31
24668	3.2143	3.6364	0.1	810.19
24669	3.1224	3.9091	0.1	787.38
24670	3.2143	3.8182	0.1	777.51
24671	3.1224	4.0909	0.1	741.73
24672	3.2143	4.	0.1	737.22
24673	3.1224	4.2727	0.1	688.82
24674	3.2143	4.1818	0.1	689.73
24675	3.1224	4.4545	0.1	629.24
24676	3.2143	4.3636	0.1	635.57
24677	3.1224	4.6364	0.1	563.68
24678	3.2143	4.5455	0.1	575.35
24679	3.1224	4.8182	0.1	492.95
24680	3.2143	4.7273	0.1	509.79
24681	3.1224	5.	0.1	417.95
24682	3.2143	4.9091	0.1	439.71
24683	3.1224	5.1818	0.1	339.64
24684	3.2143	5.0909	0.1	365.98
24685	3.1224	5.3636	0.1	259.02
24686	3.2143	5.2727	0.1	289.53
24687	3.1224	5.5455	0.1	176.89
24688	3.2143	5.4545	0.1	211.3
24689	3.1224	5.7273	0.1	92.902
24690	3.2143	5.6364	0.1	131.87
24691	3.2143	5.8182	0.1	50.384
24692	3.1224	5.9091	0.1	25.059
24693	3.3061	0.27273	0.1	88.858
24694	3.398	0.18182	0.1	49.469
24695	3.3061	9.0909e-002	0.1	25.19
24696	3.3061	0.45455	0.1	166.13
24697	3.398	0.36364	0.1	124.47
24698	3.3061	0.63636	0.1	241.68
24699	3.398	0.54545	0.1	197.62
24700	3.3061	0.81818	0.1	315.75
24701	3.398	0.72727	0.1	269.56
24702	3.3061	1.	0.1	387.63
24703	3.398	0.90909	0.1	339.77
24704	3.3061	1.1818	0.1	456.47
24705	3.398	1.0909	0.1	407.45
24706	3.3061	1.3636	0.1	521.41
24707	3.398	1.2727	0.1	471.79
24708	3.3061	1.5455	0.1	581.66
24709	3.398	1.4545	0.1	532.
24710	3.3061	1.7273	0.1	636.49
24711	3.398	1.6364	0.1	587.36
24712	3.3061	1.9091	0.1	685.26
24713	3.398	1.8182	0.1	637.21
24714	3.3061	2.0909	0.1	727.41
24715	3.398	2.	0.1	680.97
24716	3.3061	2.2727	0.1	762.48
24717	3.398	2.1818	0.1	718.16
24718	3.3061	2.4545	0.1	790.12
24719	3.398	2.3636	0.1	748.37
24720	3.3061	2.6364	0.1	810.05
24721	3.398	2.5455	0.1	771.29
24722	3.3061	2.8182	0.1	822.08
24723	3.398	2.7273	0.1	786.7
24724	3.3061	3.	0.1	826.1
24725	3.398	2.9091	0.1	794.44
24726	3.3061	3.1818	0.1	822.08
24727	3.398	3.0909	0.1	794.44
24728	3.3061	3.3636	0.1	810.05
24729	3.398	3.2727	0.1	786.7
24730	3.3061	3.5455	0.1	790.12
24731	3.398	3.4545	0.1	771.29
24732	3.3061	3.7273	0.1	762.48
24733	3.398	3.6364	0.1	748.37
24734	3.3061	3.9091	0.1	727.41
24735	3.398	3.8182	0.1	718.16
24736	3.3061	4.0909	0.1	685.26
24737	3.398	4.	0.1	680.97
24738	3.3061	4.2727	0.1	636.49
24739	3.398	4.1818	0.1	637.21
24740	3.3061	4.4545	0.1	581.66
24741	3.398	4.3636	0.1	587.36
24742	3.3061	4.6364	0.1	521.41
24743	3.398	4.5455	0.1	532.
24744	3.3061	4.8182	0.1	456.47
24745	3.398	4.7273	0.1	471.79
24746	3.3061	5.	0.1	387.63
24747	3.398	4.9091	0.1	407.45
24748	3.3061	5.1818	0.1	315.75
24749	3.398	5.0909	0.1	339.77
24750	3.3061	5.3636	0.1	241.68
24751	3.398	5.2727	0.1	269.56
24752	3.3061	5.5455	0.1	166.13
24753	3.398	5.4545	0.1	197.62
24754	3.3061	5.7273	0.1	88.858
24755	3.398	5.6364	0.1	124.47
24756	3.398	5.8182	0.1	49.469
24757	3.3061	5.9091	0.1	25.19
24758	3.4898	0.27273	0.1	84.676
24759	3.5816	0.18182	0.1	48.173
24760	3.4898	9.0909e-002	0.1	24.991
24761	3.4898	0.45455	0.1	155.83
24762	3.5816	0.36364	0.1	117.24
24763	3.4898	0.63636	0.1	225.39
24764	3.5816	0.54545	0.1	184.67
24765	3.4898	0.81818	0.1	293.48
24766	3.5816	0.72727	0.1	250.86
24767	3.4898	1.	0.1	359.51
24768	3.5816	0.90909	0.1	315.39
24769	3.4898	1.1818	0.1	422.7
24770	3.5816	1.0909	0.1	377.54
24771	3.4898	1.3636	0.1	482.33
24772	3.5816	1.2727	0.1	436.61
24773	3.4898	1.5455	0.1	537.67
24774	3.5816	1.4545	0.1	491.89
24775	3.4898	1.7273	0.1	588.08
24776	3.5816	1.6364	0.1	542.75
24777	3.4898	1.9091	0.1	632.95
24778	3.5816	1.8182	0.1	588.58
24779	3.4898	2.0909	0.1	671.78
24780	3.5816	2.	0.1	628.85
24781	3.4898	2.2727	0.1	704.12
24782	3.5816	2.1818	0.1	663.09
24783	3.4898	2.4545	0.1	729.64
24784	3.5816	2.3636	0.1	690.94
24785	3.4898	2.6364	0.1	748.05
24786	3.5816	2.5455	0.1	712.09
24787	3.4898	2.8182	0.1	759.18
24788	3.5816	2.7273	0.1	726.31
24789	3.4898	3.	0.1	762.9
24790	3.5816	2.9091	0.1	733.46
24791	3.4898	3.1818	0.1	759.18
24792	3.5816	3.0909	0.1	733.46
24793	3.4898	3.3636	0.1	748.05
24794	3.5816	3.2727	0.1	726.31
24795	3.4898	3.5455	0.1	729.64
24796	3.5816	3.4545	0.1	712.09
24797	3.4898	3.7273	0.1	704.12
24798	3.5816	3.6364	0.1	690.94
24799	3.4898	3.9091	0.1	671.78
24800	3.5816	3.8182	0.1	663.09
24801	3.4898	4.0909	0.1	632.95
24802	3.5816	4.	0.1	628.85
24803	3.4898	4.2727	0.1	588.08
24804	3.5816	4.1818	0.1	588.58
24805	3.4898	4.4545	0.1	537.67
24806	3.5816	4.3636	0.1	542.75
24807	3.4898	4.6364	0.1	482.33
24808	3.5816	4.5455	0.1	491.89
24809	3.4898	4.8182	0.1	422.7
24810	3.5816	4.7273	0.1	436.61
24811	3.4898	5.	0.1	359.51
24812	3.5816	4.9091	0.1	377.54
24813	3.4898	5.1818	0.1	293.48
24814	3.5816	5.0909	0.1	315.39
24815	3.4898	5.3636	0.1	225.39
24816	3.5816	5.2727	0.1	250.86
24817	3.4898	5.5455	0.1	155.83
24818	3.5816	5.4545	0.1	184.67
24819	3.4898	5.7273	0.1	84.676
24820	3.5816	5.6364	0.1	117.24
24821	3.5816	5.8182	0.1	48.173
24822	3.4898	5.9091	0.1	24.991
24823	3.6735	0.27273	0.1	80.406
24824	3.7653	0.18182	0.1	46.568
24825	3.6735	9.0909e-002	0.1	24.524
24826	3.6735	0.45455	0.1	145.97
24827	3.7653	0.36364	0.1	110.21
24828	3.6735	0.63636	0.1	210.04
24829	3.7653	0.54545	0.1	172.38
24830	3.6735	0.81818	0.1	272.68
24831	3.7653	0.72727	0.1	233.33
24832	3.6735	1.	0.1	333.35
24833	3.7653	0.90909	0.1	292.66
24834	3.6735	1.1818	0.1	391.39
24835	3.7653	1.0909	0.1	349.76
24836	3.6735	1.3636	0.1	446.13
24837	3.7653	1.2727	0.1	403.99
24838	3.6735	1.5455	0.1	496.95
24839	3.7653	1.4545	0.1	454.75
24840	3.6735	1.7273	0.1	543.25
24841	3.7653	1.6364	0.1	501.44
24842	3.6735	1.9091	0.1	584.49
24843	3.7653	1.8182	0.1	543.54
24844	3.6735	2.0909	0.1	620.2
24845	3.7653	2.	0.1	580.54
24846	3.6735	2.2727	0.1	649.97
24847	3.7653	2.1818	0.1	612.03
24848	3.6735	2.4545	0.1	673.47
24849	3.7653	2.3636	0.1	637.66
24850	3.6735	2.6364	0.1	690.44
24851	3.7653	2.5455	0.1	657.13
24852	3.6735	2.8182	0.1	700.7
24853	3.7653	2.7273	0.1	670.22
24854	3.6735	3.	0.1	704.13
24855	3.7653	2.9091	0.1	676.81
24856	3.6735	3.1818	0.1	700.7
24857	3.7653	3.0909	0.1	676.81
24858	3.6735	3.3636	0.1	690.44
24859	3.7653	3.2727	0.1	670.22
24860	3.6735	3.5455	0.1	673.47
24861	3.7653	3.4545	0.1	657.13
24862	3.6735	3.7273	0.1	649.97
24863	3.7653	3.6364	0.1	637.66
24864	3.6735	3.9091	0.1	620.2
24865	3.7653	3.8182	0.1	612.03
24866	3.6735	4.0909	0.1	584.49
24867	3.7653	4.	0.1	580.54
24868	3.6735	4.2727	0.1	543.25
24869	3.7653	4.1818	0.1	543.54
24870	3.6735	4.4545	0.1	496.95
24871	3.7653	4.3636	0.1	501.44
24872	3.6735	4.6364	0.1	446.13
24873	3.7653	4.5455	0.1	454.75
24874	3.6735	4.8182	0.1	391.39
24875	3.7653	4.7273	0.1	403.99
24876	3.6735	5.	0.1	333.35
24877	3.7653	4.9091	0.1	349.76
24878	3.6735	5.1818	0.1	272.68
24879	3.7653	5.0909	0.1	292.66
24880	3.6735	5.3636	0.1	210.04
24881	3.7653	5.2727	0.1	233.33
24882	3.6735	5.5455	0.1	145.97
24883	3.7653	5.4545	0.1	172.38
24884	3.6735	5.7273	0.1	80.406
24885	3.7653	5.6364	0.1	110.21
24886	3.7653	5.8182	0.1	46.568
24887	3.6735	5.9091	0.1	24.524
24888	3.8571	0.27273	0.1	76.093
24889	3.949	0.18182	0.1	44.721
24890	3.8571	9.0909e-002	0.1	23.839
24891	3.8571	0.45455	0.1	136.53
24892	3.949	0.36364	0.1	103.38
24893	3.8571	0.63636	0.1	195.58
24894	3.949	0.54545	0.1	160.73
24895	3.8571	0.81818	0.1	253.23
24896	3.949	0.72727	0.1	216.86
24897	3.8571	1.	0.1	309.
24898	3.949	0.90909	0.1	271.44
24899	3.8571	1.1818	0.1	362.31
24900	3.949	1.0909	0.1	323.91
24901	3.8571	1.3636	0.1	412.57
24902	3.949	1.2727	0.1	373.72
24903	3.8571	1.5455	0.1	459.22
24904	3.949	1.4545	0.1	420.31
24905	3.8571	1.7273	0.1	501.72
24906	3.949	1.6364	0.1	463.17
24907	3.8571	1.9091	0.1	539.6
24908	3.949	1.8182	0.1	501.81
24909	3.8571	2.0909	0.1	572.4
24910	3.949	2.	0.1	535.79
24911	3.8571	2.2727	0.1	599.76
24912	3.949	2.1818	0.1	564.71
24913	3.8571	2.4545	0.1	621.37
24914	3.949	2.3636	0.1	588.26
24915	3.8571	2.6364	0.1	636.98
24916	3.949	2.5455	0.1	606.15
24917	3.8571	2.8182	0.1	646.41
24918	3.949	2.7273	0.1	618.19
24919	3.8571	3.	0.1	649.57
24920	3.949	2.9091	0.1	624.24
24921	3.8571	3.1818	0.1	646.41
24922	3.949	3.0909	0.1	624.24
24923	3.8571	3.3636	0.1	636.98
24924	3.949	3.2727	0.1	618.19
24925	3.8571	3.5455	0.1	621.37
24926	3.949	3.4545	0.1	606.15
24927	3.8571	3.7273	0.1	599.76
24928	3.949	3.6364	0.1	588.26
24929	3.8571	3.9091	0.1	572.4
24930	3.949	3.8182	0.1	564.71
24931	3.8571	4.0909	0.1	539.6
24932	3.949	4.	0.1	535.79
24933	3.8571	4.2727	0.1	501.72
24934	3.949	4.1818	0.1	501.81
24935	3.8571	4.4545	0.1	459.22
24936	3.949	4.3636	0.1	463.17
24937	3.8571	4.6364	0.1	412.57
24938	3.949	4.5455	0.1	420.31
24939	3.8571	4.8182	0.1	362.31
24940	3.949	4.7273	0.1	373.72
24941	3.8571	5.	0.1	309.
24942	3.949	4.9091	0.1	323.91
24943	3.8571	5.1818	0.1	253.23
24944	3.949	5.0909	0.1	271.44
24945	3.8571	5.3636	0.1	195.58
24946	3.949	5.2727	0.1	216.86
24947	3.8571	5.5455	0.1	136.53
24948	3.949	5.4545	0.1	160.73
24949	3.8571	5.7273	0.1	76.093
24950	3.949	5.6364	0.1	103.38
24951	3.949	5.8182	0.1	44.721
24952	3.8571	5.9091	0.1	23.839
24953	4.0408	0.27273	0.1	71.777
24954	4.1327	0.18182	0.1	42.689
24955	4.0408	9.0909e-002	0.1	22.983
24956	4.0408	0.45455	0.1	127.5
24957	4.1327	0.36364	0.1	96.779
24958	4.0408	0.63636	0.1	181.94
24959	4.1327	0.54545	0.1	149.68
24960	4.0408	0.81818	0.1	235.01
24961	4.1327	0.72727	0.1	201.4
24962	4.0408	1.	0.1	286.3
24963	4.1327	0.90909	0.1	251.62
24964	4.0408	1.1818	0.1	335.27
24965	4.1327	1.0909	0.1	299.85
24966	4.0408	1.3636	0.1	381.42
24967	4.1327	1.2727	0.1	345.6
24968	4.0408	1.5455	0.1	424.24
24969	4.1327	1.4545	0.1	388.37
24970	4.0408	1.7273	0.1	463.25
24971	4.1327	1.6364	0.1	427.71
24972	4.0408	1.9091	0.1	498.01
24973	4.1327	1.8182	0.1	463.16
24974	4.0408	2.0909	0.1	528.12
24975	4.1327	2.	0.1	494.34
24976	4.0408	2.2727	0.1	553.24
24977	4.1327	2.1818	0.1	520.88
24978	4.0408	2.4545	0.1	573.08
24979	4.1327	2.3636	0.1	542.49
24980	4.0408	2.6364	0.1	587.41
24981	4.1327	2.5455	0.1	558.91
24982	4.0408	2.8182	0.1	596.08
24983	4.1327	2.7273	0.1	569.96
24984	4.0408	3.	0.1	598.98
24985	4.1327	2.9091	0.1	575.52
24986	4.0408	3.1818	0.1	596.08
24987	4.1327	3.0909	0.1	575.52
24988	4.0408	3.3636	0.1	587.41
24989	4.1327	3.2727	0.1	569.96
24990	4.0408	3.5455	0.1	573.08
24991	4.1327	3.4545	0.1	558.91
24992	4.0408	3.7273	0.1	553.24
24993	4.1327	3.6364	0.1	542.49
24994	4.0408	3.9091	0.1	528.12
24995	4.1327	3.8182	0.1	520.88
24996	4.0408	4.0909	0.1	498.01
24997	4.1327	4.	0.1	494.34
24998	4.0408	4.2727	0.1	463.25
24999	4.1327	4.1818	0.1	463.16
25000	4.0408	4.4545	0.1	424.24
25001	4.1327	4.3636	0.1	427.7
25002	4.0408	4.6364	0.1	381.42
25003	4.1327	4.5455	0.1	388.37
25004	4.0408	4.8182	0.1	335.27
25005	4.1327	4.7273	0.1	345.6
25006	4.0408	5.	0.1	286.3
25007	4.1327	4.9091	0.1	299.85
25008	4.0408	5.1818	0.1	235.01
25009	4.1327	5.0909	0.1	251.62
25010	4.0408	5.3636	0.1	181.94
25011	4.1327	5.2727	0.1	201.4
25012	4.0408	5.5455	0.1	127.5
25013	4.1327	5.4545	0.1	149.68
25014	4.0408	5.7273	0.1	71.777
25015	4.1327	5.6364	0.1	96.779
25016	4.1327	5.8182	0.1	42.689
25017	4.0408	5.9091	0.1	22.983
25018	4.2245	0.27273	0.1	67.493
25019	4.3163	0.18182	0.1	40.521
25020	4.2245	9.0909e-002	0.1	21.994
25021	4.2245	0.45455	0.1	118.89
25022	4.3163	0.36364	0.1	90.409
25023	4.2245	0.63636	0.1	169.08
25024	4.3163	0.54545	0.1	139.22
25025	4.2245	0.81818	0.1	217.95
25026	4.3163	0.72727	0.1	186.88
25027	4.2245	1.	0.1	265.12
25028	4.3163	0.90909	0.1	233.1
25029	4.2245	1.1818	0.1	310.13
25030	4.3163	1.0909	0.1	277.44
25031	4.2245	1.3636	0.1	352.51
25032	4.3163	1.2727	0.1	319.47
25033	4.2245	1.5455	0.1	391.81
25034	4.3163	1.4545	0.1	358.73
25035	4.2245	1.7273	0.1	427.6
25036	4.3163	1.6364	0.1	394.83
25037	4.2245	1.9091	0.1	459.49
25038	4.3163	1.8182	0.1	427.35
25039	4.2245	2.0909	0.1	487.11
25040	4.3163	2.	0.1	455.95
25041	4.2245	2.2727	0.1	510.15
25042	4.3163	2.1818	0.1	480.29
25043	4.2245	2.4545	0.1	528.35
25044	4.3163	2.3636	0.1	500.11
25045	4.2245	2.6364	0.1	541.51
25046	4.3163	2.5455	0.1	515.17
25047	4.2245	2.8182	0.1	549.46
25048	4.3163	2.7273	0.1	525.31
25049	4.2245	3.	0.1	552.12
25050	4.3163	2.9091	0.1	530.41
25051	4.2245	3.1818	0.1	549.46
25052	4.3163	3.0909	0.1	530.41
25053	4.2245	3.3636	0.1	541.51
25054	4.3163	3.2727	0.1	525.31
25055	4.2245	3.5455	0.1	528.35
25056	4.3163	3.4545	0.1	515.17
25057	4.2245	3.7273	0.1	510.15
25058	4.3163	3.6364	0.1	500.11
25059	4.2245	3.9091	0.1	487.11
25060	4.3163	3.8182	0.1	480.29
25061	4.2245	4.0909	0.1	459.49
25062	4.3163	4.	0.1	455.95
25063	4.2245	4.2727	0.1	427.6
25064	4.3163	4.1818	0.1	427.35
25065	4.2245	4.4545	0.1	391.81
25066	4.3163	4.3636	0.1	394.83
25067	4.2245	4.6364	0.1	352.51
25068	4.3163	4.5455	0.1	358.73
25069	4.2245	4.8182	0.1	310.13
25070	4.3163	4.7273	0.1	319.47
25071	4.2245	5.	0.1	265.12
25072	4.3163	4.9091	0.1	277.44
25073	4.2245	5.1818	0.1	217.95
25074	4.3163	5.0909	0.1	233.1
25075	4.2245	5.3636	0.1	169.08
25076	4.3163	5.2727	0.1	186.88
25077	4.2245	5.5455	0.1	118.89
25078	4.3163	5.4545	0.1	139.22
25079	4.2245	5.7273	0.1	67.493
25080	4.3163	5.6364	0.1	90.409
25081	4.3163	5.8182	0.1	40.521
25082	4.2245	5.9091	0.1	21.994
25083	4.4082	0.27273	0.1	63.27
25084	4.5	0.18182	0.1	38.261
25085	4.4082	9.0909e-002	0.1	20.905
25086	4.4082	0.45455	0.1	110.68
25087	4.5	0.36364	0.1	84.284
25088	4.4082	0.63636	0.1	156.96
25089	4.5	0.54545	0.1	129.32
25090	4.4082	0.81818	0.1	201.97
25091	4.5	0.72727	0.1	173.24
25092	4.4082	1.	0.1	245.37
25093	4.5	0.90909	0.1	215.79
25094	4.4082	1.1818	0.1	286.74
25095	4.5	1.0909	0.1	256.57
25096	4.4082	1.3636	0.1	325.66
25097	4.5	1.2727	0.1	295.18
25098	4.4082	1.5455	0.1	361.73
25099	4.5	1.4545	0.1	331.23
25100	4.4082	1.7273	0.1	394.57
25101	4.5	1.6364	0.1	364.35
25102	4.4082	1.9091	0.1	423.81
25103	4.5	1.8182	0.1	394.18
25104	4.4082	2.0909	0.1	449.14
25105	4.5	2.	0.1	420.4
25106	4.4082	2.2727	0.1	470.27
25107	4.5	2.1818	0.1	442.72
25108	4.4082	2.4545	0.1	486.95
25109	4.5	2.3636	0.1	460.89
25110	4.4082	2.6364	0.1	499.01
25111	4.5	2.5455	0.1	474.7
25112	4.4082	2.8182	0.1	506.3
25113	4.5	2.7273	0.1	483.99
25114	4.4082	3.	0.1	508.74
25115	4.5	2.9091	0.1	488.66
25116	4.4082	3.1818	0.1	506.3
25117	4.5	3.0909	0.1	488.66
25118	4.4082	3.3636	0.1	499.01
25119	4.5	3.2727	0.1	483.99
25120	4.4082	3.5455	0.1	486.95
25121	4.5	3.4545	0.1	474.7
25122	4.4082	3.7273	0.1	470.27
25123	4.5	3.6364	0.1	460.89
25124	4.4082	3.9091	0.1	449.14
25125	4.5	3.8182	0.1	442.72
25126	4.4082	4.0909	0.1	423.81
25127	4.5	4.	0.1	420.4
25128	4.4082	4.2727	0.1	394.57
25129	4.5	4.1818	0.1	394.18
25130	4.4082	4.4545	0.1	361.73
25131	4.5	4.3636	0.1	364.35
25132	4.4082	4.6364	0.1	325.66
25133	4.5	4.5455	0.1	331.23
25134	4.4082	4.8182	0.1	286.74
25135	4.5	4.7273	0.1	295.18
25136	4.4082	5.	0.1	245.37
25137	4.5	4.9091	0.1	256.57
25138	4.4082	5.1818	0.1	201.97
25139	4.5	5.0909	0.1	215.79
25140	4.4082	5.3636	0.1	156.96
25141	4.5	5.2727	0.1	173.24
25142	4.4082	5.5455	0.1	110.68
25143	4.5	5.4545	0.1	129.32
25144	4.4082	5.7273	0.1	63.27
25145	4.5	5.6364	0.1	84.284
25146	4.5	5.8182	0.1	38.261
25147	4.4082	5.9091	0.1	20.905
25148	4.5918	0.27273	0.1	59.133
25149	4.6837	0.18182	0.1	35.946
25150	4.5918	9.0909e-002	0.1	19.744
25151	4.5918	0.45455	0.1	102.87
25152	4.6837	0.36364	0.1	78.412
25153	4.5918	0.63636	0.1	145.55
25154	4.6837	0.54545	0.1	119.97
25155	4.5918	0.81818	0.1	187.01
25156	4.6837	0.72727	0.1	160.44
25157	4.5918	1.	0.1	226.94
25158	4.6837	0.90909	0.1	199.62
25159	4.5918	1.1818	0.1	264.97
25160	4.6837	1.0909	0.1	237.12
25161	4.5918	1.3636	0.1	300.72
25162	4.6837	1.2727	0.1	272.6
25163	4.5918	1.5455	0.1	333.83
25164	4.6837	1.4545	0.1	305.7
25165	4.5918	1.7273	0.1	363.95
25166	4.6837	1.6364	0.1	336.09
25167	4.5918	1.9091	0.1	390.77
25168	4.6837	1.8182	0.1	363.46
25169	4.5918	2.0909	0.1	413.99
25170	4.6837	2.	0.1	387.5
25171	4.5918	2.2727	0.1	433.36
25172	4.6837	2.1818	0.1	407.96
25173	4.5918	2.4545	0.1	448.65
25174	4.6837	2.3636	0.1	424.61
25175	4.5918	2.6364	0.1	459.7
25176	4.6837	2.5455	0.1	437.26
25177	4.5918	2.8182	0.1	466.38
25178	4.6837	2.7273	0.1	445.77
25179	4.5918	3.	0.1	468.62
25180	4.6837	2.9091	0.1	450.06
25181	4.5918	3.1818	0.1	466.38
25182	4.6837	3.0909	0.1	450.06
25183	4.5918	3.3636	0.1	459.7
25184	4.6837	3.2727	0.1	445.77
25185	4.5918	3.5455	0.1	448.65
25186	4.6837	3.4545	0.1	437.26
25187	4.5918	3.7273	0.1	433.36
25188	4.6837	3.6364	0.1	424.61
25189	4.5918	3.9091	0.1	413.99
25190	4.6837	3.8182	0.1	407.96
25191	4.5918	4.0909	0.1	390.77
25192	4.6837	4.	0.1	387.5
25193	4.5918	4.2727	0.1	363.95
25194	4.6837	4.1818	0.1	363.46
25195	4.5918	4.4545	0.1	333.83
25196	4.6837	4.3636	0.1	336.09
25197	4.5918	4.6364	0.1	300.72
25198	4.6837	4.5455	0.1	305.7
25199	4.5918	4.8182	0.1	264.97
25200	4.6837	4.7273	0.1	272.6
25201	4.5918	5.	0.1	226.94
25202	4.6837	4.9091	0.1	237.12
25203	4.5918	5.1818	0.1	187.01
25204	4.6837	5.0909	0.1	199.62
25205	4.5918	5.3636	0.1	145.55
25206	4.6837	5.2727	0.1	160.44
25207	4.5918	5.5455	0.1	102.87
25208	4.6837	5.4545	0.1	119.97
25209	4.5918	5.7273	0.1	59.133
25210	4.6837	5.6364	0.1	78.412
25211	4.6837	5.8182	0.1	35.946
25212	4.5918	5.9091	0.1	19.744
25213	4.7755	0.27273	0.1	55.103
25214	4.8673	0.18182	0.1	33.605
25215	4.7755	9.0909e-002	0.1	18.535
25216	4.7755	0.45455	0.1	95.461
25217	4.8673	0.36364	0.1	72.796
25218	4.7755	0.63636	0.1	134.82
25219	4.8673	0.54545	0.1	111.14
25220	4.7755	0.81818	0.1	173.01
25221	4.8673	0.72727	0.1	148.44
25222	4.7755	1.	0.1	209.75
25223	4.8673	0.90909	0.1	184.51
25224	4.7755	1.1818	0.1	244.71
25225	4.8673	1.0909	0.1	219.
25226	4.7755	1.3636	0.1	277.55
25227	4.8673	1.2727	0.1	251.61
25228	4.7755	1.5455	0.1	307.95
25229	4.8673	1.4545	0.1	282.01
25230	4.7755	1.7273	0.1	335.59
25231	4.8673	1.6364	0.1	309.9
25232	4.7755	1.9091	0.1	360.18
25233	4.8673	1.8182	0.1	335.
25234	4.7755	2.0909	0.1	381.47
25235	4.8673	2.	0.1	357.05
25236	4.7755	2.2727	0.1	399.22
25237	4.8673	2.1818	0.1	375.8
25238	4.7755	2.4545	0.1	413.23
25239	4.8673	2.3636	0.1	391.05
25240	4.7755	2.6364	0.1	423.35
25241	4.8673	2.5455	0.1	402.64
25242	4.7755	2.8182	0.1	429.47
25243	4.8673	2.7273	0.1	410.44
25244	4.7755	3.	0.1	431.52
25245	4.8673	2.9091	0.1	414.37
25246	4.7755	3.1818	0.1	429.47
25247	4.8673	3.0909	0.1	414.37
25248	4.7755	3.3636	0.1	423.35
25249	4.8673	3.2727	0.1	410.44
25250	4.7755	3.5455	0.1	413.23
25251	4.8673	3.4545	0.1	402.64
25252	4.7755	3.7273	0.1	399.22
25253	4.8673	3.6364	0.1	391.05
25254	4.7755	3.9091	0.1	381.47
25255	4.8673	3.8182	0.1	375.8
25256	4.7755	4.0909	0.1	360.18
25257	4.8673	4.	0.1	357.05
25258	4.7755	4.2727	0.1	335.59
25259	4.8673	4.1818	0.1	335.
25260	4.7755	4.4545	0.1	307.95
25261	4.8673	4.3636	0.1	309.9
25262	4.7755	4.6364	0.1	277.55
25263	4.8673	4.5455	0.1	282.01
25264	4.7755	4.8182	0.1	244.71
25265	4.8673	4.7273	0.1	251.61
25266	4.7755	5.	0.1	209.75
25267	4.8673	4.9091	0.1	219.
25268	4.7755	5.1818	0.1	173.01
25269	4.8673	5.0909	0.1	184.51
25270	4.7755	5.3636	0.1	134.82
25271	4.8673	5.2727	0.1	148.44
25272	4.7755	5.5455	0.1	95.461
25273	4.8673	5.4545	0.1	111.14
25274	4.7755	5.7273	0.1	55.103
25275	4.8673	5.6364	0.1	72.796
25276	4.8673	5.8182	0.1	33.605
25277	4.7755	5.9091	0.1	18.535
25278	4.9592	0.27273	0.1	51.196
25279	5.051	0.18182	0.1	31.266
25280	4.9592	9.0909e-002	0.1	17.298
25281	4.9592	0.45455	0.1	88.435
25282	5.051	0.36364	0.1	67.441
25283	4.9592	0.63636	0.1	124.73
25284	5.051	0.54545	0.1	102.81
25285	4.9592	0.81818	0.1	159.91
25286	5.051	0.72727	0.1	137.2
25287	4.9592	1.	0.1	193.73
25288	5.051	0.90909	0.1	170.4
25289	4.9592	1.1818	0.1	225.87
25290	5.051	1.0909	0.1	202.14
25291	4.9592	1.3636	0.1	256.04
25292	5.051	1.2727	0.1	232.1
25293	4.9592	1.5455	0.1	283.94
25294	5.051	1.4545	0.1	260.02
25295	4.9592	1.7273	0.1	309.3
25296	5.051	1.6364	0.1	285.63
25297	4.9592	1.9091	0.1	331.86
25298	5.051	1.8182	0.1	308.65
25299	4.9592	2.0909	0.1	351.37
25300	5.051	2.	0.1	328.86
25301	4.9592	2.2727	0.1	367.64
25302	5.051	2.1818	0.1	346.05
25303	4.9592	2.4545	0.1	380.48
25304	5.051	2.3636	0.1	360.03
25305	4.9592	2.6364	0.1	389.75
25306	5.051	2.5455	0.1	370.65
25307	4.9592	2.8182	0.1	395.36
25308	5.051	2.7273	0.1	377.79
25309	4.9592	3.	0.1	397.23
25310	5.051	2.9091	0.1	381.38
25311	4.9592	3.1818	0.1	395.36
25312	5.051	3.0909	0.1	381.38
25313	4.9592	3.3636	0.1	389.75
25314	5.051	3.2727	0.1	377.79
25315	4.9592	3.5455	0.1	380.48
25316	5.051	3.4545	0.1	370.65
25317	4.9592	3.7273	0.1	367.64
25318	5.051	3.6364	0.1	360.03
25319	4.9592	3.9091	0.1	351.37
25320	5.051	3.8182	0.1	346.05
25321	4.9592	4.0909	0.1	331.86
25322	5.051	4.	0.1	328.86
25323	4.9592	4.2727	0.1	309.3
25324	5.051	4.1818	0.1	308.65
25325	4.9592	4.4545	0.1	283.94
25326	5.051	4.3636	0.1	285.63
25327	4.9592	4.6364	0.1	256.04
25328	5.051	4.5455	0.1	260.02
25329	4.9592	4.8182	0.1	225.87
25330	5.051	4.7273	0.1	232.1
25331	4.9592	5.	0.1	193.73
25332	5.051	4.9091	0.1	202.14
25333	4.9592	5.1818	0.1	159.91
25334	5.051	5.0909	0.1	170.4
25335	4.9592	5.3636	0.1	124.73
25336	5.051	5.2727	0.1	137.2
25337	4.9592	5.5455	0.1	88.435
25338	5.051	5.4545	0.1	102.81
25339	4.9592	5.7273	0.1	51.196
25340	5.051	5.6364	0.1	67.441
25341	5.051	5.8182	0.1	31.266
25342	4.9592	5.9091	0.1	17.298
25343	5.1429	0.27273	0.1	47.423
25344	5.2347	0.18182	0.1	28.947
25345	5.1429	9.0909e-002	0.1	16.049
25346	5.1429	0.45455	0.1	81.788
25347	5.2347	0.36364	0.1	62.345
25348	5.1429	0.63636	0.1	115.25
25349	5.2347	0.54545	0.1	94.977
25350	5.1429	0.81818	0.1	147.66
25351	5.2347	0.72727	0.1	126.67
25352	5.1429	1.	0.1	178.79
25353	5.2347	0.90909	0.1	157.24
25354	5.1429	1.1818	0.1	208.34
25355	5.2347	1.0909	0.1	186.43
25356	5.1429	1.3636	0.1	236.07
25357	5.2347	1.2727	0.1	213.98
25358	5.1429	1.5455	0.1	261.69
25359	5.2347	1.4545	0.1	239.63
25360	5.1429	1.7273	0.1	284.96
25361	5.2347	1.6364	0.1	263.13
25362	5.1429	1.9091	0.1	305.64
25363	5.2347	1.8182	0.1	284.25
25364	5.1429	2.0909	0.1	323.53
25365	5.2347	2.	0.1	302.78
25366	5.1429	2.2727	0.1	338.44
25367	5.2347	2.1818	0.1	318.54
25368	5.1429	2.4545	0.1	350.2
25369	5.2347	2.3636	0.1	331.35
25370	5.1429	2.6364	0.1	358.7
25371	5.2347	2.5455	0.1	341.08
25372	5.1429	2.8182	0.1	363.83
25373	5.2347	2.7273	0.1	347.62
25374	5.1429	3.	0.1	365.55
25375	5.2347	2.9091	0.1	350.91
25376	5.1429	3.1818	0.1	363.83
25377	5.2347	3.0909	0.1	350.91
25378	5.1429	3.3636	0.1	358.7
25379	5.2347	3.2727	0.1	347.62
25380	5.1429	3.5455	0.1	350.2
25381	5.2347	3.4545	0.1	341.08
25382	5.1429	3.7273	0.1	338.44
25383	5.2347	3.6364	0.1	331.35
25384	5.1429	3.9091	0.1	323.53
25385	5.2347	3.8182	0.1	318.54
25386	5.1429	4.0909	0.1	305.64
25387	5.2347	4.	0.1	302.78
25388	5.1429	4.2727	0.1	284.96
25389	5.2347	4.1818	0.1	284.25
25390	5.1429	4.4545	0.1	261.69
25391	5.2347	4.3636	0.1	263.13
25392	5.1429	4.6364	0.1	236.07
25393	5.2347	4.5455	0.1	239.63
25394	5.1429	4.8182	0.1	208.34
25395	5.2347	4.7273	0.1	213.98
25396	5.1429	5.	0.1	178.79
25397	5.2347	4.9091	0.1	186.43
25398	5.1429	5.1818	0.1	147.66
25399	5.2347	5.0909	0.1	157.24
25400	5.1429	5.3636	0.1	115.25
25401	5.2347	5.2727	0.1	126.67
25402	5.1429	5.5455	0.1	81.788
25403	5.2347	5.4545	0.1	94.977
25404	5.1429	5.7273	0.1	47.423
25405	5.2347	5.6364	0.1	62.345
25406	5.2347	5.8182	0.1	28.947
25407	5.1429	5.9091	0.1	16.049
25408	5.3265	0.27273	0.1	43.795
25409	5.4184	0.18182	0.1	26.668
25410	5.3265	9.0909e-002	0.1	14.802
25411	5.3265	0.45455	0.1	75.508
25412	5.4184	0.36364	0.1	57.507
25413	5.3265	0.63636	0.1	106.37
25414	5.4184	0.54545	0.1	87.607
25415	5.3265	0.81818	0.1	136.22
25416	5.4184	0.72727	0.1	116.81
25417	5.3265	1.	0.1	164.87
25418	5.4184	0.90909	0.1	144.96
25419	5.3265	1.1818	0.1	192.05
25420	5.4184	1.0909	0.1	171.82
25421	5.3265	1.3636	0.1	217.52
25422	5.4184	1.2727	0.1	197.14
25423	5.3265	1.5455	0.1	241.05
25424	5.4184	1.4545	0.1	220.7
25425	5.3265	1.7273	0.1	262.41
25426	5.4184	1.6364	0.1	242.28
25427	5.3265	1.9091	0.1	281.38
25428	5.4184	1.8182	0.1	261.66
25429	5.3265	2.0909	0.1	297.78
25430	5.4184	2.	0.1	278.66
25431	5.3265	2.2727	0.1	311.45
25432	5.4184	2.1818	0.1	293.1
25433	5.3265	2.4545	0.1	322.23
25434	5.4184	2.3636	0.1	304.84
25435	5.3265	2.6364	0.1	330.01
25436	5.4184	2.5455	0.1	313.75
25437	5.3265	2.8182	0.1	334.71
25438	5.4184	2.7273	0.1	319.75
25439	5.3265	3.	0.1	336.28
25440	5.4184	2.9091	0.1	322.76
25441	5.3265	3.1818	0.1	334.71
25442	5.4184	3.0909	0.1	322.76
25443	5.3265	3.3636	0.1	330.01
25444	5.4184	3.2727	0.1	319.75
25445	5.3265	3.5455	0.1	322.23
25446	5.4184	3.4545	0.1	313.75
25447	5.3265	3.7273	0.1	311.45
25448	5.4184	3.6364	0.1	304.84
25449	5.3265	3.9091	0.1	297.78
25450	5.4184	3.8182	0.1	293.1
25451	5.3265	4.0909	0.1	281.38
25452	5.4184	4.	0.1	278.66
25453	5.3265	4.2727	0.1	262.41
25454	5.4184	4.1818	0.1	261.66
25455	5.3265	4.4545	0.1	241.05
25456	5.4184	4.3636	0.1	242.28
25457	5.3265	4.6364	0.1	217.52
25458	5.4184	4.5455	0.1	220.7
25459	5.3265	4.8182	0.1	192.05
25460	5.4184	4.7273	0.1	197.14
25461	5.3265	5.	0.1	164.87
25462	5.4184	4.9091	0.1	171.82
25463	5.3265	5.1818	0.1	136.22
25464	5.4184	5.0909	0.1	144.96
25465	5.3265	5.3636	0.1	106.37
25466	5.4184	5.2727	0.1	116.81
25467	5.3265	5.5455	0.1	75.508
25468	5.4184	5.4545	0.1	87.607
25469	5.3265	5.7273	0.1	43.795
25470	5.4184	5.6364	0.1	57.507
25471	5.4184	5.8182	0.1	26.668
25472	5.3265	5.9091	0.1	14.802
25473	5.5102	0.27273	0.1	40.318
25474	5.602	0.18182	0.1	24.441
25475	5.5102	9.0909e-002	0.1	13.568
25476	5.5102	0.45455	0.1	69.585
25477	5.602	0.36364	0.1	52.924
25478	5.5102	0.63636	0.1	98.033
25479	5.602	0.54545	0.1	80.684
25480	5.5102	0.81818	0.1	125.53
25481	5.602	0.72727	0.1	107.59
25482	5.5102	1.	0.1	151.9
25483	5.602	0.90909	0.1	133.52
25484	5.5102	1.1818	0.1	176.9
25485	5.602	1.0909	0.1	158.22
25486	5.5102	1.3636	0.1	200.31
25487	5.602	1.2727	0.1	181.51
25488	5.5102	1.5455	0.1	221.92
25489	5.602	1.4545	0.1	203.15
25490	5.5102	1.7273	0.1	241.52
25491	5.602	1.6364	0.1	222.96
25492	5.5102	1.9091	0.1	258.93
25493	5.602	1.8182	0.1	240.75
25494	5.5102	2.0909	0.1	273.97
25495	5.602	2.	0.1	256.34
25496	5.5102	2.2727	0.1	286.49
25497	5.602	2.1818	0.1	269.58
25498	5.5102	2.4545	0.1	296.37
25499	5.602	2.3636	0.1	280.34
25500	5.5102	2.6364	0.1	303.5
25501	5.602	2.5455	0.1	288.51
25502	5.5102	2.8182	0.1	307.81
25503	5.602	2.7273	0.1	294.
25504	5.5102	3.	0.1	309.25
25505	5.602	2.9091	0.1	296.76
25506	5.5102	3.1818	0.1	307.81
25507	5.602	3.0909	0.1	296.76
25508	5.5102	3.3636	0.1	303.5
25509	5.602	3.2727	0.1	294.
25510	5.5102	3.5455	0.1	296.37
25511	5.602	3.4545	0.1	288.51
25512	5.5102	3.7273	0.1	286.49
25513	5.602	3.6364	0.1	280.34
25514	5.5102	3.9091	0.1	273.97
25515	5.602	3.8182	0.1	269.58
25516	5.5102	4.0909	0.1	258.93
25517	5.602	4.	0.1	256.34
25518	5.5102	4.2727	0.1	241.52
25519	5.602	4.1818	0.1	240.75
25520	5.5102	4.4545	0.1	221.92
25521	5.602	4.3636	0.1	222.96
25522	5.5102	4.6364	0.1	200.31
25523	5.602	4.5455	0.1	203.15
25524	5.5102	4.8182	0.1	176.9
25525	5.602	4.7273	0.1	181.51
25526	5.5102	5.	0.1	151.9
25527	5.602	4.9091	0.1	158.22
25528	5.5102	5.1818	0.1	125.53
25529	5.602	5.0909	0.1	133.52
25530	5.5102	5.3636	0.1	98.033
25531	5.602	5.2727	0.1	107.59
25532	5.5102	5.5455	0.1	69.585
25533	5.602	5.4545	0.1	80.684
25534	5.5102	5.7273	0.1	40.318
25535	5.602	5.6364	0.1	52.924
25536	5.602	5.8182	0.1	24.441
25537	5.5102	5.9091	0.1	13.568
25538	5.6939	0.27273	0.1	36.995
25539	5.7857	0.18182	0.1	22.277
25540	5.6939	9.0909e-002	0.1	12.357
25541	5.6939	0.45455	0.1	64.005
25542	5.7857	0.36364	0.1	48.588
25543	5.6939	0.63636	0.1	90.23
25544	5.7857	0.54545	0.1	74.187
25545	5.6939	0.81818	0.1	115.56
25546	5.7857	0.72727	0.1	98.983
25547	5.6939	1.	0.1	139.83
25548	5.7857	0.90909	0.1	122.85
25549	5.6939	1.1818	0.1	162.82
25550	5.7857	1.0909	0.1	145.58
25551	5.6939	1.3636	0.1	184.34
25552	5.7857	1.2727	0.1	166.99
25553	5.6939	1.5455	0.1	204.18
25554	5.7857	1.4545	0.1	186.87
25555	5.6939	1.7273	0.1	222.18
25556	5.7857	1.6364	0.1	205.07
25557	5.6939	1.9091	0.1	238.15
25558	5.7857	1.8182	0.1	221.39
25559	5.6939	2.0909	0.1	251.95
25560	5.7857	2.	0.1	235.69
25561	5.6939	2.2727	0.1	263.43
25562	5.7857	2.1818	0.1	247.84
25563	5.6939	2.4545	0.1	272.48
25564	5.7857	2.3636	0.1	257.7
25565	5.6939	2.6364	0.1	279.01
25566	5.7857	2.5455	0.1	265.19
25567	5.6939	2.8182	0.1	282.96
25568	5.7857	2.7273	0.1	270.22
25569	5.6939	3.	0.1	284.28
25570	5.7857	2.9091	0.1	272.75
25571	5.6939	3.1818	0.1	282.96
25572	5.7857	3.0909	0.1	272.75
25573	5.6939	3.3636	0.1	279.01
25574	5.7857	3.2727	0.1	270.22
25575	5.6939	3.5455	0.1	272.48
25576	5.7857	3.4545	0.1	265.19
25577	5.6939	3.7273	0.1	263.43
25578	5.7857	3.6364	0.1	257.7
25579	5.6939	3.9091	0.1	251.95
25580	5.7857	3.8182	0.1	247.84
25581	5.6939	4.0909	0.1	238.15
25582	5.7857	4.	0.1	235.69
25583	5.6939	4.2727	0.1	222.18
25584	5.7857	4.1818	0.1	221.39
25585	5.6939	4.4545	0.1	204.18
25586	5.7857	4.3636	0.1	205.07
25587	5.6939	4.6364	0.1	184.34
25588	5.7857	4.5455	0.1	186.87
25589	5.6939	4.8182	0.1	162.82
25590	5.7857	4.7273	0.1	166.99
25591	5.6939	5.	0.1	139.83
25592	5.7857	4.9091	0.1	145.58
25593	5.6939	5.1818	0.1	115.56
25594	5.7857	5.0909	0.1	122.85
25595	5.6939	5.3636	0.1	90.23
25596	5.7857	5.2727	0.1	98.983
25597	5.6939	5.5455	0.1	64.005
25598	5.7857	5.4545	0.1	74.187
25599	5.6939	5.7273	0.1	36.995
25600	5.7857	5.6364	0.1	48.588
25601	5.7857	5.8182	0.1	22.277
25602	5.6939	5.9091	0.1	12.357
25603	5.8776	0.27273	0.1	33.828
25604	5.9694	0.18182	0.1	20.184
25605	5.8776	9.0909e-002	0.1	11.174
25606	5.8776	0.45455	0.1	58.757
25607	5.9694	0.36364	0.1	44.495
25608	5.8776	0.63636	0.1	82.928
25609	5.9694	0.54545	0.1	68.097
25610	5.8776	0.81818	0.1	106.26
25611	5.9694	0.72727	0.1	90.942
25612	5.8776	1.	0.1	128.59
25613	5.9694	0.90909	0.1	112.91
25614	5.8776	1.1818	0.1	149.74
25615	5.9694	1.0909	0.1	133.83
25616	5.8776	1.3636	0.1	169.52
25617	5.9694	1.2727	0.1	153.51
25618	5.8776	1.5455	0.1	187.75
25619	5.9694	1.4545	0.1	171.78
25620	5.8776	1.7273	0.1	204.27
25621	5.9694	1.6364	0.1	188.49
25622	5.8776	1.9091	0.1	218.93
25623	5.9694	1.8182	0.1	203.47
25624	5.8776	2.0909	0.1	231.58
25625	5.9694	2.	0.1	216.6
25626	5.8776	2.2727	0.1	242.11
25627	5.9694	2.1818	0.1	227.73
25628	5.8776	2.4545	0.1	250.41
25629	5.9694	2.3636	0.1	236.78
25630	5.8776	2.6364	0.1	256.39
25631	5.9694	2.5455	0.1	243.64
25632	5.8776	2.8182	0.1	260.01
25633	5.9694	2.7273	0.1	248.25
25634	5.8776	3.	0.1	261.22
25635	5.9694	2.9091	0.1	250.57
25636	5.8776	3.1818	0.1	260.01
25637	5.9694	3.0909	0.1	250.57
25638	5.8776	3.3636	0.1	256.39
25639	5.9694	3.2727	0.1	248.25
25640	5.8776	3.5455	0.1	250.41
25641	5.9694	3.4545	0.1	243.64
25642	5.8776	3.7273	0.1	242.11
25643	5.9694	3.6364	0.1	236.78
25644	5.8776	3.9091	0.1	231.58
25645	5.9694	3.8182	0.1	227.73
25646	5.8776	4.0909	0.1	218.93
25647	5.9694	4.	0.1	216.6
25648	5.8776	4.2727	0.1	204.27
25649	5.9694	4.1818	0.1	203.47
25650	5.8776	4.4545	0.1	187.75
25651	5.9694	4.3636	0.1	188.49
25652	5.8776	4.6364	0.1	169.52
25653	5.9694	4.5455	0.1	171.78
25654	5.8776	4.8182	0.1	149.74
25655	5.9694	4.7273	0.1	153.51
25656	5.8776	5.	0.1	128.59
25657	5.9694	4.9091	0.1	133.83
25658	5.8776	5.1818	0.1	106.26
25659	5.9694	5.0909	0.1	112.91
25660	5.8776	5.3636	0.1	82.928
25661	5.9694	5.2727	0.1	90.942
25662	5.8776	5.5455	0.1	58.757
25663	5.9694	5.4545	0.1	68.097
25664	5.8776	5.7273	0.1	33.828
25665	5.9694	5.6364	0.1	44.495
25666	5.9694	5.8182	0.1	20.184
25667	5.8776	5.9091	0.1	11.174
25668	6.0612	0.27273	0.1	30.817
25669	6.1531	0.18182	0.1	18.168
25670	6.0612	9.0909e-002	0.1	10.026
25671	6.0612	0.45455	0.1	53.825
25672	6.1531	0.36364	0.1	40.635
25673	6.0612	0.63636	0.1	76.101
25674	6.1531	0.54545	0.1	62.393
25675	6.0612	0.81818	0.1	97.587
25676	6.1531	0.72727	0.1	83.437
25677	6.0612	1.	0.1	118.14
25678	6.1531	0.90909	0.1	103.66
25679	6.0612	1.1818	0.1	137.59
25680	6.1531	1.0909	0.1	122.91
25681	6.0612	1.3636	0.1	155.77
25682	6.1531	1.2727	0.1	141.
25683	6.0612	1.5455	0.1	172.52
25684	6.1531	1.4545	0.1	157.79
25685	6.0612	1.7273	0.1	187.69
25686	6.1531	1.6364	0.1	173.14
25687	6.0612	1.9091	0.1	201.14
25688	6.1531	1.8182	0.1	186.89
25689	6.0612	2.0909	0.1	212.75
25690	6.1531	2.	0.1	198.93
25691	6.0612	2.2727	0.1	222.4
25692	6.1531	2.1818	0.1	209.15
25693	6.0612	2.4545	0.1	230.01
25694	6.1531	2.3636	0.1	217.44
25695	6.0612	2.6364	0.1	235.5
25696	6.1531	2.5455	0.1	223.73
25697	6.0612	2.8182	0.1	238.81
25698	6.1531	2.7273	0.1	227.96
25699	6.0612	3.	0.1	239.92
25700	6.1531	2.9091	0.1	230.09
25701	6.0612	3.1818	0.1	238.81
25702	6.1531	3.0909	0.1	230.09
25703	6.0612	3.3636	0.1	235.5
25704	6.1531	3.2727	0.1	227.96
25705	6.0612	3.5455	0.1	230.01
25706	6.1531	3.4545	0.1	223.73
25707	6.0612	3.7273	0.1	222.4
25708	6.1531	3.6364	0.1	217.44
25709	6.0612	3.9091	0.1	212.75
25710	6.1531	3.8182	0.1	209.15
25711	6.0612	4.0909	0.1	201.14
25712	6.1531	4.	0.1	198.93
25713	6.0612	4.2727	0.1	187.69
25714	6.1531	4.1818	0.1	186.89
25715	6.0612	4.4545	0.1	172.52
25716	6.1531	4.3636	0.1	173.14
25717	6.0612	4.6364	0.1	155.77
25718	6.1531	4.5455	0.1	157.79
25719	6.0612	4.8182	0.1	137.59
25720	6.1531	4.7273	0.1	141.
25721	6.0612	5.	0.1	118.14
25722	6.1531	4.9091	0.1	122.91
25723	6.0612	5.1818	0.1	97.587
25724	6.1531	5.0909	0.1	103.66
25725	6.0612	5.3636	0.1	76.101
25726	6.1531	5.2727	0.1	83.437
25727	6.0612	5.5455	0.1	53.825
25728	6.1531	5.4545	0.1	62.393
25729	6.0612	5.7273	0.1	30.817
25730	6.1531	5.6364	0.1	40.635
25731	6.1531	5.8182	0.1	18.168
25732	6.0612	5.9091	0.1	10.026
25733	6.2449	0.27273	0.1	27.959
25734	6.3367	0.18182	0.1	16.233
25735	6.2449	9.0909e-002	0.1	8.916
25736	6.2449	0.45455	0.1	49.196
25737	6.3367	0.36364	0.1	37.001
25738	6.2449	0.63636	0.1	69.722
25739	6.3367	0.54545	0.1	57.055
25740	6.2449	0.81818	0.1	89.507
25741	6.3367	0.72727	0.1	76.437
25742	6.2449	1.	0.1	108.42
25743	6.3367	0.90909	0.1	95.055
25744	6.2449	1.1818	0.1	126.31
25745	6.3367	1.0909	0.1	112.76
25746	6.2449	1.3636	0.1	143.02
25747	6.3367	1.2727	0.1	129.39
25748	6.2449	1.5455	0.1	158.4
25749	6.3367	1.4545	0.1	144.82
25750	6.2449	1.7273	0.1	172.33
25751	6.3367	1.6364	0.1	158.92
25752	6.2449	1.9091	0.1	184.68
25753	6.3367	1.8182	0.1	171.54
25754	6.2449	2.0909	0.1	195.33
25755	6.3367	2.	0.1	182.59
25756	6.2449	2.2727	0.1	204.19
25757	6.3367	2.1818	0.1	191.97
25758	6.2449	2.4545	0.1	211.16
25759	6.3367	2.3636	0.1	199.57
25760	6.2449	2.6364	0.1	216.2
25761	6.3367	2.5455	0.1	205.34
25762	6.2449	2.8182	0.1	219.24
25763	6.3367	2.7273	0.1	209.22
25764	6.2449	3.	0.1	220.25
25765	6.3367	2.9091	0.1	211.17
25766	6.2449	3.1818	0.1	219.24
25767	6.3367	3.0909	0.1	211.17
25768	6.2449	3.3636	0.1	216.2
25769	6.3367	3.2727	0.1	209.22
25770	6.2449	3.5455	0.1	211.16
25771	6.3367	3.4545	0.1	205.34
25772	6.2449	3.7273	0.1	204.19
25773	6.3367	3.6364	0.1	199.57
25774	6.2449	3.9091	0.1	195.33
25775	6.3367	3.8182	0.1	191.97
25776	6.2449	4.0909	0.1	184.68
25777	6.3367	4.	0.1	182.59
25778	6.2449	4.2727	0.1	172.33
25779	6.3367	4.1818	0.1	171.54
25780	6.2449	4.4545	0.1	158.4
25781	6.3367	4.3636	0.1	158.92
25782	6.2449	4.6364	0.1	143.02
25783	6.3367	4.5455	0.1	144.82
25784	6.2449	4.8182	0.1	126.31
25785	6.3367	4.7273	0.1	129.39
25786	6.2449	5.	0.1	108.42
25787	6.3367	4.9091	0.1	112.76
25788	6.2449	5.1818	0.1	89.507
25789	6.3367	5.0909	0.1	95.055
25790	6.2449	5.3636	0.1	69.722
25791	6.3367	5.2727	0.1	76.437
25792	6.2449	5.5455	0.1	49.196
25793	6.3367	5.4545	0.1	57.055
25794	6.2449	5.7273	0.1	27.959
25795	6.3367	5.6364	0.1	37.001
25796	6.3367	5.8182	0.1	16.233
25797	6.2449	5.9091	0.1	8.916
25798	6.4286	0.27273	0.1	25.253
25799	6.5204	0.18182	0.1	14.382
25800	6.4286	9.0909e-002	0.1	7.8478
25801	6.4286	0.45455	0.1	44.856
25802	6.5204	0.36364	0.1	33.583
25803	6.4286	0.63636	0.1	63.766
25804	6.5204	0.54545	0.1	52.064
25805	6.4286	0.81818	0.1	81.981
25806	6.5204	0.72727	0.1	69.911
25807	6.4286	1.	0.1	99.385
25808	6.5204	0.90909	0.1	87.046
25809	6.4286	1.1818	0.1	115.83
25810	6.5204	1.0909	0.1	103.33
25811	6.4286	1.3636	0.1	131.19
25812	6.5204	1.2727	0.1	118.62
25813	6.4286	1.5455	0.1	145.33
25814	6.5204	1.4545	0.1	132.8
25815	6.4286	1.7273	0.1	158.12
25816	6.5204	1.6364	0.1	145.75
25817	6.4286	1.9091	0.1	169.45
25818	6.5204	1.8182	0.1	157.34
25819	6.4286	2.0909	0.1	179.23
25820	6.5204	2.	0.1	167.48
25821	6.4286	2.2727	0.1	187.35
25822	6.5204	2.1818	0.1	176.08
25823	6.4286	2.4545	0.1	193.75
25824	6.5204	2.3636	0.1	183.06
25825	6.4286	2.6364	0.1	198.36
25826	6.5204	2.5455	0.1	188.35
25827	6.4286	2.8182	0.1	201.15
25828	6.5204	2.7273	0.1	191.9
25829	6.4286	3.	0.1	202.08
25830	6.5204	2.9091	0.1	193.69
25831	6.4286	3.1818	0.1	201.15
25832	6.5204	3.0909	0.1	193.69
25833	6.4286	3.3636	0.1	198.36
25834	6.5204	3.2727	0.1	191.9
25835	6.4286	3.5455	0.1	193.75
25836	6.5204	3.4545	0.1	188.35
25837	6.4286	3.7273	0.1	187.35
25838	6.5204	3.6364	0.1	183.06
25839	6.4286	3.9091	0.1	179.23
25840	6.5204	3.8182	0.1	176.08
25841	6.4286	4.0909	0.1	169.45
25842	6.5204	4.	0.1	167.48
25843	6.4286	4.2727	0.1	158.12
25844	6.5204	4.1818	0.1	157.34
25845	6.4286	4.4545	0.1	145.33
25846	6.5204	4.3636	0.1	145.75
25847	6.4286	4.6364	0.1	131.19
25848	6.5204	4.5455	0.1	132.8
25849	6.4286	4.8182	0.1	115.83
25850	6.5204	4.7273	0.1	118.62
25851	6.4286	5.	0.1	99.385
25852	6.5204	4.9091	0.1	103.33
25853	6.4286	5.1818	0.1	81.981
25854	6.5204	5.0909	0.1	87.046
25855	6.4286	5.3636	0.1	63.766
25856	6.5204	5.2727	0.1	69.911
25857	6.4286	5.5455	0.1	44.856
25858	6.5204	5.4545	0.1	52.064
25859	6.4286	5.7273	0.1	25.253
25860	6.5204	5.6364	0.1	33.583
25861	6.5204	5.8182	0.1	14.382
25862	6.4286	5.9091	0.1	7.8478
25863	6.6122	0.27273	0.1	22.695
25864	6.7041	0.18182	0.1	12.614
25865	6.6122	9.0909e-002	0.1	6.8231
25866	6.6122	0.45455	0.1	40.789
25867	6.7041	0.36364	0.1	30.372
25868	6.6122	0.63636	0.1	58.207
25869	6.7041	0.54545	0.1	47.398
25870	6.6122	0.81818	0.1	74.974
25871	6.7041	0.72727	0.1	63.83
25872	6.6122	1.	0.1	90.986
25873	6.7041	0.90909	0.1	79.597
25874	6.6122	1.1818	0.1	106.11
25875	6.7041	1.0909	0.1	94.571
25876	6.6122	1.3636	0.1	120.23
25877	6.7041	1.2727	0.1	108.63
25878	6.6122	1.5455	0.1	133.21
25879	6.7041	1.4545	0.1	121.66
25880	6.6122	1.7273	0.1	144.96
25881	6.7041	1.6364	0.1	133.55
25882	6.6122	1.9091	0.1	155.36
25883	6.7041	1.8182	0.1	144.19
25884	6.6122	2.0909	0.1	164.33
25885	6.7041	2.	0.1	153.5
25886	6.6122	2.2727	0.1	171.78
25887	6.7041	2.1818	0.1	161.39
25888	6.6122	2.4545	0.1	177.65
25889	6.7041	2.3636	0.1	167.79
25890	6.6122	2.6364	0.1	181.88
25891	6.7041	2.5455	0.1	172.64
25892	6.6122	2.8182	0.1	184.44
25893	6.7041	2.7273	0.1	175.9
25894	6.6122	3.	0.1	185.29
25895	6.7041	2.9091	0.1	177.54
25896	6.6122	3.1818	0.1	184.44
25897	6.7041	3.0909	0.1	177.54
25898	6.6122	3.3636	0.1	181.88
25899	6.7041	3.2727	0.1	175.9
25900	6.6122	3.5455	0.1	177.65
25901	6.7041	3.4545	0.1	172.64
25902	6.6122	3.7273	0.1	171.78
25903	6.7041	3.6364	0.1	167.79
25904	6.6122	3.9091	0.1	164.33
25905	6.7041	3.8182	0.1	161.39
25906	6.6122	4.0909	0.1	155.36
25907	6.7041	4.	0.1	153.5
25908	6.6122	4.2727	0.1	144.96
25909	6.7041	4.1818	0.1	144.19
25910	6.6122	4.4545	0.1	133.21
25911	6.7041	4.3636	0.1	133.55
25912	6.6122	4.6364	0.1	120.23
25913	6.7041	4.5455	0.1	121.66
25914	6.6122	4.8182	0.1	106.11
25915	6.7041	4.7273	0.1	108.63
25916	6.6122	5.	0.1	90.986
25917	6.7041	4.9091	0.1	94.571
25918	6.6122	5.1818	0.1	74.974
25919	6.7041	5.0909	0.1	79.597
25920	6.6122	5.3636	0.1	58.207
25921	6.7041	5.2727	0.1	63.83
25922	6.6122	5.5455	0.1	40.789
25923	6.7041	5.4545	0.1	47.398
25924	6.6122	5.7273	0.1	22.695
25925	6.7041	5.6364	0.1	30.372
25926	6.7041	5.8182	0.1	12.614
25927	6.6122	5.9091	0.1	6.8231
25928	6.7959	0.27273	0.1	20.279
25929	6.8878	0.18182	0.1	10.932
25930	6.7959	9.0909e-002	0.1	5.8434
25931	6.7959	0.45455	0.1	36.982
25932	6.8878	0.36364	0.1	27.358
25933	6.7959	0.63636	0.1	53.021
25934	6.8878	0.54545	0.1	43.041
25935	6.7959	0.81818	0.1	68.452
25936	6.8878	0.72727	0.1	58.165
25937	6.7959	1.	0.1	83.181
25938	6.8878	0.90909	0.1	72.67
25939	6.7959	1.1818	0.1	97.089
25940	6.8878	1.0909	0.1	86.44
25941	6.7959	1.3636	0.1	110.06
25942	6.8878	1.2727	0.1	99.363
25943	6.7959	1.5455	0.1	121.99
25944	6.8878	1.4545	0.1	111.33
25945	6.7959	1.7273	0.1	132.78
25946	6.8878	1.6364	0.1	122.25
25947	6.7959	1.9091	0.1	142.33
25948	6.8878	1.8182	0.1	132.02
25949	6.7959	2.0909	0.1	150.56
25950	6.8878	2.	0.1	140.57
25951	6.7959	2.2727	0.1	157.39
25952	6.8878	2.1818	0.1	147.8
25953	6.7959	2.4545	0.1	162.78
25954	6.8878	2.3636	0.1	153.67
25955	6.7959	2.6364	0.1	166.66
25956	6.8878	2.5455	0.1	158.12
25957	6.7959	2.8182	0.1	169.
25958	6.8878	2.7273	0.1	161.11
25959	6.7959	3.	0.1	169.78
25960	6.8878	2.9091	0.1	162.61
25961	6.7959	3.1818	0.1	169.
25962	6.8878	3.0909	0.1	162.61
25963	6.7959	3.3636	0.1	166.66
25964	6.8878	3.2727	0.1	161.11
25965	6.7959	3.5455	0.1	162.78
25966	6.8878	3.4545	0.1	158.12
25967	6.7959	3.7273	0.1	157.39
25968	6.8878	3.6364	0.1	153.67
25969	6.7959	3.9091	0.1	150.56
25970	6.8878	3.8182	0.1	147.8
25971	6.7959	4.0909	0.1	142.33
25972	6.8878	4.	0.1	140.57
25973	6.7959	4.2727	0.1	132.78
25974	6.8878	4.1818	0.1	132.02
25975	6.7959	4.4545	0.1	121.99
25976	6.8878	4.3636	0.1	122.25
25977	6.7959	4.6364	0.1	110.06
25978	6.8878	4.5455	0.1	111.33
25979	6.7959	4.8182	0.1	97.089
25980	6.8878	4.7273	0.1	99.363
25981	6.7959	5.	0.1	83.181
25982	6.8878	4.9091	0.1	86.44
25983	6.7959	5.1818	0.1	68.452
25984	6.8878	5.0909	0.1	72.67
25985	6.7959	5.3636	0.1	53.021
25986	6.8878	5.2727	0.1	58.165
25987	6.7959	5.5455	0.1	36.982
25988	6.8878	5.4545	0.1	43.041
25989	6.7959	5.7273	0.1	20.279
25990	6.8878	5.6364	0.1	27.358
25991	6.8878	5.8182	0.1	10.932
25992	6.7959	5.9091	0.1	5.8434
25993	6.9796	0.27273	0.1	18.001
25994	7.0714	0.18182	0.1	9.3335
25995	6.9796	9.0909e-002	0.1	4.9095
25996	6.9796	0.45455	0.1	33.42
25997	7.0714	0.36364	0.1	24.532
25998	6.9796	0.63636	0.1	48.186
25999	7.0714	0.54545	0.1	38.972
26000	6.9796	0.81818	0.1	62.384
26001	7.0714	0.72727	0.1	52.889
26002	6.9796	1.	0.1	75.93
26003	7.0714	0.90909	0.1	66.23
26004	6.9796	1.1818	0.1	88.714
26005	7.0714	1.0909	0.1	78.89
26006	6.9796	1.3636	0.1	100.63
26007	7.0714	1.2727	0.1	90.766
26008	6.9796	1.5455	0.1	111.59
26009	7.0714	1.4545	0.1	101.76
26010	6.9796	1.7273	0.1	121.5
26011	7.0714	1.6364	0.1	111.79
26012	6.9796	1.9091	0.1	130.26
26013	7.0714	1.8182	0.1	120.76
26014	6.9796	2.0909	0.1	137.81
26015	7.0714	2.	0.1	128.6
26016	6.9796	2.2727	0.1	144.08
26017	7.0714	2.1818	0.1	135.24
26018	6.9796	2.4545	0.1	149.02
26019	7.0714	2.3636	0.1	140.62
26020	6.9796	2.6364	0.1	152.58
26021	7.0714	2.5455	0.1	144.7
26022	6.9796	2.8182	0.1	154.73
26023	7.0714	2.7273	0.1	147.44
26024	6.9796	3.	0.1	155.45
26025	7.0714	2.9091	0.1	148.82
26026	6.9796	3.1818	0.1	154.73
26027	7.0714	3.0909	0.1	148.82
26028	6.9796	3.3636	0.1	152.58
26029	7.0714	3.2727	0.1	147.44
26030	6.9796	3.5455	0.1	149.02
26031	7.0714	3.4545	0.1	144.7
26032	6.9796	3.7273	0.1	144.08
26033	7.0714	3.6364	0.1	140.62
26034	6.9796	3.9091	0.1	137.81
26035	7.0714	3.8182	0.1	135.24
26036	6.9796	4.0909	0.1	130.26
26037	7.0714	4.	0.1	128.6
26038	6.9796	4.2727	0.1	121.5
26039	7.0714	4.1818	0.1	120.76
26040	6.9796	4.4545	0.1	111.59
26041	7.0714	4.3636	0.1	111.79
26042	6.9796	4.6364	0.1	100.63
26043	7.0714	4.5455	0.1	101.76
26044	6.9796	4.8182	0.1	88.714
26045	7.0714	4.7273	0.1	90.766
26046	6.9796	5.	0.1	75.93
26047	7.0714	4.9091	0.1	78.89
26048	6.9796	5.1818	0.1	62.384
26049	7.0714	5.0909	0.1	66.23
26050	6.9796	5.3636	0.1	48.186
26051	7.0714	5.2727	0.1	52.889
26052	6.9796	5.5455	0.1	33.42
26053	7.0714	5.4545	0.1	38.972
26054	6.9796	5.7273	0.1	18.001
26055	7.0714	5.6364	0.1	24.532
26056	7.0714	5.8182	0.1	9.3336
26057	6.9796	5.9091	0.1	4.9095
26058	7.1633	0.27273	0.1	15.856
26059	7.2551	0.18182	0.1	7.8184
26060	7.1633	9.0909e-002	0.1	4.022
26061	7.1633	0.45455	0.1	30.089
26062	7.2551	0.36364	0.1	21.882
26063	7.1633	0.63636	0.1	43.679
26064	7.2551	0.54545	0.1	35.175
26065	7.1633	0.81818	0.1	56.738
26066	7.2551	0.72727	0.1	47.977
26067	7.1633	1.	0.1	69.193
26068	7.2551	0.90909	0.1	60.244
26069	7.1633	1.1818	0.1	80.942
26070	7.2551	1.0909	0.1	71.879
26071	7.1633	1.3636	0.1	91.894
26072	7.2551	1.2727	0.1	82.79
26073	7.1633	1.5455	0.1	101.96
26074	7.2551	1.4545	0.1	92.889
26075	7.1633	1.7273	0.1	111.05
26076	7.2551	1.6364	0.1	102.09
26077	7.1633	1.9091	0.1	119.09
26078	7.2551	1.8182	0.1	110.33
26079	7.1633	2.0909	0.1	126.02
26080	7.2551	2.	0.1	117.52
26081	7.1633	2.2727	0.1	131.78
26082	7.2551	2.1818	0.1	123.61
26083	7.1633	2.4545	0.1	136.3
26084	7.2551	2.3636	0.1	128.55
26085	7.1633	2.6364	0.1	139.57
26086	7.2551	2.5455	0.1	132.29
26087	7.1633	2.8182	0.1	141.54
26088	7.2551	2.7273	0.1	134.8
26089	7.1633	3.	0.1	142.19
26090	7.2551	2.9091	0.1	136.07
26091	7.1633	3.1818	0.1	141.54
26092	7.2551	3.0909	0.1	136.07
26093	7.1633	3.3636	0.1	139.57
26094	7.2551	3.2727	0.1	134.8
26095	7.1633	3.5455	0.1	136.3
26096	7.2551	3.4545	0.1	132.29
26097	7.1633	3.7273	0.1	131.78
26098	7.2551	3.6364	0.1	128.55
26099	7.1633	3.9091	0.1	126.02
26100	7.2551	3.8182	0.1	123.61
26101	7.1633	4.0909	0.1	119.09
26102	7.2551	4.	0.1	117.52
26103	7.1633	4.2727	0.1	111.05
26104	7.2551	4.1818	0.1	110.33
26105	7.1633	4.4545	0.1	101.96
26106	7.2551	4.3636	0.1	102.09
26107	7.1633	4.6364	0.1	91.894
26108	7.2551	4.5455	0.1	92.889
26109	7.1633	4.8182	0.1	80.942
26110	7.2551	4.7273	0.1	82.79
26111	7.1633	5.	0.1	69.193
26112	7.2551	4.9091	0.1	71.879
26113	7.1633	5.1818	0.1	56.738
26114	7.2551	5.0909	0.1	60.244
26115	7.1633	5.3636	0.1	43.679
26116	7.2551	5.2727	0.1	47.977
26117	7.1633	5.5455	0.1	30.089
26118	7.2551	5.4545	0.1	35.175
26119	7.1633	5.7273	0.1	15.856
26120	7.2551	5.6364	0.1	21.882
26121	7.2551	5.8182	0.1	7.8184
26122	7.1633	5.9091	0.1	4.0221
26123	7.3469	0.27273	0.1	13.836
26124	7.4388	0.18182	0.1	6.3852
26125	7.3469	9.0909e-002	0.1	3.1819
26126	7.3469	0.45455	0.1	26.975
26127	7.4388	0.36364	0.1	19.4
26128	7.3469	0.63636	0.1	39.478
26129	7.4388	0.54545	0.1	31.632
26130	7.3469	0.81818	0.1	51.487
26131	7.4388	0.72727	0.1	43.403
26132	7.3469	1.	0.1	62.934
26133	7.4388	0.90909	0.1	54.679
26134	7.3469	1.1818	0.1	73.729
26135	7.4388	1.0909	0.1	65.369
26136	7.3469	1.3636	0.1	83.788
26137	7.4388	1.2727	0.1	75.391
26138	7.3469	1.5455	0.1	93.027
26139	7.4388	1.4545	0.1	84.663
26140	7.3469	1.7273	0.1	101.37
26141	7.4388	1.6364	0.1	93.112
26142	7.3469	1.9091	0.1	108.75
26143	7.4388	1.8182	0.1	100.67
26144	7.3469	2.0909	0.1	115.11
26145	7.4388	2.	0.1	107.27
26146	7.3469	2.2727	0.1	120.39
26147	7.4388	2.1818	0.1	112.85
26148	7.3469	2.4545	0.1	124.54
26149	7.4388	2.3636	0.1	117.38
26150	7.3469	2.6364	0.1	127.53
26151	7.4388	2.5455	0.1	120.81
26152	7.3469	2.8182	0.1	129.34
26153	7.4388	2.7273	0.1	123.11
26154	7.3469	3.	0.1	129.94
26155	7.4388	2.9091	0.1	124.27
26156	7.3469	3.1818	0.1	129.34
26157	7.4388	3.0909	0.1	124.27
26158	7.3469	3.3636	0.1	127.53
26159	7.4388	3.2727	0.1	123.11
26160	7.3469	3.5455	0.1	124.54
26161	7.4388	3.4545	0.1	120.81
26162	7.3469	3.7273	0.1	120.39
26163	7.4388	3.6364	0.1	117.38
26164	7.3469	3.9091	0.1	115.11
26165	7.4388	3.8182	0.1	112.85
26166	7.3469	4.0909	0.1	108.75
26167	7.4388	4.	0.1	107.27
26168	7.3469	4.2727	0.1	101.37
26169	7.4388	4.1818	0.1	100.67
26170	7.3469	4.4545	0.1	93.027
26171	7.4388	4.3636	0.1	93.112
26172	7.3469	4.6364	0.1	83.788
26173	7.4388	4.5455	0.1	84.663
26174	7.3469	4.8182	0.1	73.729
26175	7.4388	4.7273	0.1	75.391
26176	7.3469	5.	0.1	62.934
26177	7.4388	4.9091	0.1	65.369
26178	7.3469	5.1818	0.1	51.487
26179	7.4388	5.0909	0.1	54.679
26180	7.3469	5.3636	0.1	39.478
26181	7.4388	5.2727	0.1	43.403
26182	7.3469	5.5455	0.1	26.975
26183	7.4388	5.4545	0.1	31.632
26184	7.3469	5.7273	0.1	13.836
26185	7.4388	5.6364	0.1	19.4
26186	7.4388	5.8182	0.1	6.3852
26187	7.3469	5.9091	0.1	3.1819
26188	7.5306	0.27273	0.1	11.938
26189	7.6224	0.18182	0.1	5.0329
26190	7.5306	9.0909e-002	0.1	2.3911
26191	7.5306	0.45455	0.1	24.065
26192	7.6224	0.36364	0.1	17.076
26193	7.5306	0.63636	0.1	35.564
26194	7.6224	0.54545	0.1	28.327
26195	7.5306	0.81818	0.1	46.601
26196	7.6224	0.72727	0.1	39.146
26197	7.5306	1.	0.1	57.119
26198	7.6224	0.90909	0.1	49.505
26199	7.5306	1.1818	0.1	67.034
26200	7.6224	1.0909	0.1	59.324
26201	7.5306	1.3636	0.1	76.27
26202	7.6224	1.2727	0.1	68.525
26203	7.5306	1.5455	0.1	84.75
26204	7.6224	1.4545	0.1	77.035
26205	7.5306	1.7273	0.1	92.408
26206	7.6224	1.6364	0.1	84.787
26207	7.5306	1.9091	0.1	99.18
26208	7.6224	1.8182	0.1	91.717
26209	7.5306	2.0909	0.1	105.01
26210	7.6224	2.	0.1	97.769
26211	7.5306	2.2727	0.1	109.85
26212	7.6224	2.1818	0.1	102.89
26213	7.5306	2.4545	0.1	113.65
26214	7.6224	2.3636	0.1	107.04
26215	7.5306	2.6364	0.1	116.4
26216	7.6224	2.5455	0.1	110.19
26217	7.5306	2.8182	0.1	118.05
26218	7.6224	2.7273	0.1	112.3
26219	7.5306	3.	0.1	118.61
26220	7.6224	2.9091	0.1	113.36
26221	7.5306	3.1818	0.1	118.05
26222	7.6224	3.0909	0.1	113.36
26223	7.5306	3.3636	0.1	116.4
26224	7.6224	3.2727	0.1	112.3
26225	7.5306	3.5455	0.1	113.65
26226	7.6224	3.4545	0.1	110.19
26227	7.5306	3.7273	0.1	109.85
26228	7.6224	3.6364	0.1	107.04
26229	7.5306	3.9091	0.1	105.01
26230	7.6224	3.8182	0.1	102.89
26231	7.5306	4.0909	0.1	99.18
26232	7.6224	4.	0.1	97.769
26233	7.5306	4.2727	0.1	92.408
26234	7.6224	4.1818	0.1	91.717
26235	7.5306	4.4545	0.1	84.75
26236	7.6224	4.3636	0.1	84.787
26237	7.5306	4.6364	0.1	76.27
26238	7.6224	4.5455	0.1	77.035
26239	7.5306	4.8182	0.1	67.034
26240	7.6224	4.7273	0.1	68.525
26241	7.5306	5.	0.1	57.119
26242	7.6224	4.9091	0.1	59.324
26243	7.5306	5.1818	0.1	46.601
26244	7.6224	5.0909	0.1	49.505
26245	7.5306	5.3636	0.1	35.564
26246	7.6224	5.2727	0.1	39.146
26247	7.5306	5.5455	0.1	24.065
26248	7.6224	5.4545	0.1	28.327
26249	7.5306	5.7273	0.1	11.938
26250	7.6224	5.6364	0.1	17.076
26251	7.6224	5.8182	0.1	5.033
26252	7.5306	5.9091	0.1	2.3912
26253	7.7143	0.27273	0.1	10.154
26254	7.8061	0.18182	0.1	3.7623
26255	7.7143	9.0909e-002	0.1	1.6557
26256	7.7143	0.45455	0.1	21.347
26257	7.8061	0.36364	0.1	14.9
26258	7.7143	0.63636	0.1	31.917
26259	7.8061	0.54545	0.1	25.244
26260	7.7143	0.81818	0.1	42.057
26261	7.8061	0.72727	0.1	35.182
26262	7.7143	1.	0.1	51.716
26263	7.8061	0.90909	0.1	44.695
26264	7.7143	1.1818	0.1	60.819
26265	7.8061	1.0909	0.1	53.708
26266	7.7143	1.3636	0.1	69.295
26267	7.8061	1.2727	0.1	62.152
26268	7.7143	1.5455	0.1	77.076
26269	7.8061	1.4545	0.1	69.96
26270	7.7143	1.7273	0.1	84.1
26271	7.8061	1.6364	0.1	77.07
26272	7.7143	1.9091	0.1	90.31
26273	7.8061	1.8182	0.1	83.425
26274	7.7143	2.0909	0.1	95.655
26275	7.8061	2.	0.1	88.972
26276	7.7143	2.2727	0.1	100.09
26277	7.8061	2.1818	0.1	93.668
26278	7.7143	2.4545	0.1	103.58
26279	7.8061	2.3636	0.1	97.472
26280	7.7143	2.6364	0.1	106.09
26281	7.8061	2.5455	0.1	100.35
26282	7.7143	2.8182	0.1	107.61
26283	7.8061	2.7273	0.1	102.29
26284	7.7143	3.	0.1	108.12
26285	7.8061	2.9091	0.1	103.26
26286	7.7143	3.1818	0.1	107.61
26287	7.8061	3.0909	0.1	103.26
26288	7.7143	3.3636	0.1	106.09
26289	7.8061	3.2727	0.1	102.29
26290	7.7143	3.5455	0.1	103.58
26291	7.8061	3.4545	0.1	100.35
26292	7.7143	3.7273	0.1	100.09
26293	7.8061	3.6364	0.1	97.472
26294	7.7143	3.9091	0.1	95.655
26295	7.8061	3.8182	0.1	93.668
26296	7.7143	4.0909	0.1	90.31
26297	7.8061	4.	0.1	88.972
26298	7.7143	4.2727	0.1	84.1
26299	7.8061	4.1818	0.1	83.425
26300	7.7143	4.4545	0.1	77.076
26301	7.8061	4.3636	0.1	77.07
26302	7.7143	4.6364	0.1	69.295
26303	7.8061	4.5455	0.1	69.96
26304	7.7143	4.8182	0.1	60.819
26305	7.8061	4.7273	0.1	62.152
26306	7.7143	5.	0.1	51.716
26307	7.8061	4.9091	0.1	53.708
26308	7.7143	5.1818	0.1	42.057
26309	7.8061	5.0909	0.1	44.695
26310	7.7143	5.3636	0.1	31.917
26311	7.8061	5.2727	0.1	35.182
26312	7.7143	5.5455	0.1	21.347
26313	7.8061	5.4545	0.1	25.244
26314	7.7143	5.7273	0.1	10.154
26315	7.8061	5.6364	0.1	14.9
26316	7.8061	5.8182	0.1	3.7623
26317	7.7143	5.9091	0.1	1.6557
26318	7.898	0.27273	0.1	8.4779
26319	7.9898	0.18182	0.1	2.5787
26320	7.898	9.0909e-002	0.1	0.99514
26321	7.898	0.45455	0.1	18.807
26322	7.9898	0.36364	0.1	12.864
26323	7.898	0.63636	0.1	28.519
26324	7.9898	0.54545	0.1	22.368
26325	7.898	0.81818	0.1	37.829
26326	7.9898	0.72727	0.1	31.492
26327	7.898	1.	0.1	46.695
26328	7.9898	0.90909	0.1	40.222
26329	7.898	1.1818	0.1	55.048
26330	7.9898	1.0909	0.1	48.491
26331	7.898	1.3636	0.1	62.823
26332	7.9898	1.2727	0.1	56.235
26333	7.898	1.5455	0.1	69.959
26334	7.9898	1.4545	0.1	63.395
26335	7.898	1.7273	0.1	76.399
26336	7.9898	1.6364	0.1	69.912
26337	7.898	1.9091	0.1	82.091
26338	7.9898	1.8182	0.1	75.736
26339	7.898	2.0909	0.1	86.989
26340	7.9898	2.	0.1	80.82
26341	7.898	2.2727	0.1	91.054
26342	7.9898	2.1818	0.1	85.121
26343	7.898	2.4545	0.1	94.25
26344	7.9898	2.3636	0.1	88.606
26345	7.898	2.6364	0.1	96.553
26346	7.9898	2.5455	0.1	91.245
26347	7.898	2.8182	0.1	97.942
26348	7.9898	2.7273	0.1	93.017
26349	7.898	3.	0.1	98.407
26350	7.9898	2.9091	0.1	93.907
26351	7.898	3.1818	0.1	97.942
26352	7.9898	3.0909	0.1	93.907
26353	7.898	3.3636	0.1	96.553
26354	7.9898	3.2727	0.1	93.017
26355	7.898	3.5455	0.1	94.25
26356	7.9898	3.4545	0.1	91.245
26357	7.898	3.7273	0.1	91.054
26358	7.9898	3.6364	0.1	88.606
26359	7.898	3.9091	0.1	86.989
26360	7.9898	3.8182	0.1	85.121
26361	7.898	4.0909	0.1	82.091
26362	7.9898	4.	0.1	80.82
26363	7.898	4.2727	0.1	76.399
26364	7.9898	4.1818	0.1	75.736
26365	7.898	4.4545	0.1	69.959
26366	7.9898	4.3636	0.1	69.912
26367	7.898	4.6364	0.1	62.823
26368	7.9898	4.5455	0.1	63.395
26369	7.898	4.8182	0.1	55.048
26370	7.9898	4.7273	0.1	56.235
26371	7.898	5.	0.1	46.695
26372	7.9898	4.9091	0.1	48.491
26373	7.898	5.1818	0.1	37.829
26374	7.9898	5.0909	0.1	40.222
26375	7.898	5.3636	0.1	28.519
26376	7.9898	5.2727	0.1	31.492
26377	7.898	5.5455	0.1	18.807
26378	7.9898	5.4545	0.1	22.368
26379	7.898	5.7273	0.1	8.478
26380	7.9898	5.6364	0.1	12.864
26381	7.9898	5.8182	0.1	2.5787
26382	7.898	5.9091	0.1	0.99516
26383	8.0816	0.27273	0.1	6.9049
26384	8.1735	0.18182	0.1	1.5066
26385	8.0816	9.0909e-002	0.1	0.47517
26386	8.0816	0.45455	0.1	16.435
26387	8.1735	0.36364	0.1	10.957
26388	8.0816	0.63636	0.1	25.351
26389	8.1735	0.54545	0.1	19.684
26390	8.0816	0.81818	0.1	33.894
26391	8.1735	0.72727	0.1	28.054
26392	8.0816	1.	0.1	42.026
26393	8.1735	0.90909	0.1	36.06
26394	8.0816	1.1818	0.1	49.686
26395	8.1735	1.0909	0.1	43.641
26396	8.0816	1.3636	0.1	56.814
26397	8.1735	1.2727	0.1	50.739
26398	8.0816	1.5455	0.1	63.354
26399	8.1735	1.4545	0.1	57.3
26400	8.0816	1.7273	0.1	69.256
26401	8.1735	1.6364	0.1	63.271
26402	8.0816	1.9091	0.1	74.47
26403	8.1735	1.8182	0.1	68.605
26404	8.0816	2.0909	0.1	78.957
26405	8.1735	2.	0.1	73.26
26406	8.0816	2.2727	0.1	82.679
26407	8.1735	2.1818	0.1	77.199
26408	8.0816	2.4545	0.1	85.607
26409	8.1735	2.3636	0.1	80.389
26410	8.0816	2.6364	0.1	87.715
26411	8.1735	2.5455	0.1	82.805
26412	8.0816	2.8182	0.1	88.987
26413	8.1735	2.7273	0.1	84.427
26414	8.0816	3.	0.1	89.412
26415	8.1735	2.9091	0.1	85.241
26416	8.0816	3.1818	0.1	88.987
26417	8.1735	3.0909	0.1	85.241
26418	8.0816	3.3636	0.1	87.715
26419	8.1735	3.2727	0.1	84.427
26420	8.0816	3.5455	0.1	85.607
26421	8.1735	3.4545	0.1	82.805
26422	8.0816	3.7273	0.1	82.679
26423	8.1735	3.6364	0.1	80.389
26424	8.0816	3.9091	0.1	78.957
26425	8.1735	3.8182	0.1	77.199
26426	8.0816	4.0909	0.1	74.47
26427	8.1735	4.	0.1	73.26
26428	8.0816	4.2727	0.1	69.256
26429	8.1735	4.1818	0.1	68.605
26430	8.0816	4.4545	0.1	63.354
26431	8.1735	4.3636	0.1	63.271
26432	8.0816	4.6364	0.1	56.814
26433	8.1735	4.5455	0.1	57.3
26434	8.0816	4.8182	0.1	49.686
26435	8.1735	4.7273	0.1	50.739
26436	8.0816	5.	0.1	42.026
26437	8.1735	4.9091	0.1	43.641
26438	8.0816	5.1818	0.1	33.894
26439	8.1735	5.0909	0.1	36.06
26440	8.0816	5.3636	0.1	25.351
26441	8.1735	5.2727	0.1	28.054
26442	8.0816	5.5455	0.1	16.435
26443	8.1735	5.4545	0.1	19.684
26444	8.0816	5.7273	0.1	6.9049
26445	8.1735	5.6364	0.1	10.957
26446	8.1735	5.8182	0.1	1.5067
26447	8.0816	5.9091	0.1	0.47518
26448	8.2653	0.27273	0.1	5.4289
26449	8.3571	0.18182	0.1	0.6553
26450	8.2653	9.0909e-002	0.1	0.19846
26451	8.2653	0.45455	0.1	14.219
26452	8.3571	0.36364	0.1	9.1734
26453	8.2653	0.63636	0.1	22.399
26454	8.3571	0.54545	0.1	17.18
26455	8.2653	0.81818	0.1	30.231
26456	8.3571	0.72727	0.1	24.852
26457	8.2653	1.	0.1	37.685
26458	8.3571	0.90909	0.1	32.187
26459	8.2653	1.1818	0.1	44.703
26460	8.3571	1.0909	0.1	39.132
26461	8.2653	1.3636	0.1	51.233
26462	8.3571	1.2727	0.1	45.632
26463	8.2653	1.5455	0.1	57.223
26464	8.3571	1.4545	0.1	51.638
26465	8.2653	1.7273	0.1	62.627
26466	8.3571	1.6364	0.1	57.104
26467	8.2653	1.9091	0.1	67.401
26468	8.3571	1.8182	0.1	61.986
26469	8.2653	2.0909	0.1	71.508
26470	8.3571	2.	0.1	66.246
26471	8.2653	2.2727	0.1	74.915
26472	8.3571	2.1818	0.1	69.849
26473	8.2653	2.4545	0.1	77.593
26474	8.3571	2.3636	0.1	72.768
26475	8.2653	2.6364	0.1	79.522
26476	8.3571	2.5455	0.1	74.978
26477	8.2653	2.8182	0.1	80.686
26478	8.3571	2.7273	0.1	76.461
26479	8.2653	3.	0.1	81.075
26480	8.3571	2.9091	0.1	77.206
26481	8.2653	3.1818	0.1	80.686
26482	8.3571	3.0909	0.1	77.206
26483	8.2653	3.3636	0.1	79.522
26484	8.3571	3.2727	0.1	76.461
26485	8.2653	3.5455	0.1	77.593
26486	8.3571	3.4545	0.1	74.978
26487	8.2653	3.7273	0.1	74.915
26488	8.3571	3.6364	0.1	72.768
26489	8.2653	3.9091	0.1	71.508
26490	8.3571	3.8182	0.1	69.849
26491	8.2653	4.0909	0.1	67.401
26492	8.3571	4.	0.1	66.246
26493	8.2653	4.2727	0.1	62.627
26494	8.3571	4.1818	0.1	61.986
26495	8.2653	4.4545	0.1	57.223
26496	8.3571	4.3636	0.1	57.104
26497	8.2653	4.6364	0.1	51.233
26498	8.3571	4.5455	0.1	51.638
26499	8.2653	4.8182	0.1	44.703
26500	8.3571	4.7273	0.1	45.632
26501	8.2653	5.	0.1	37.685
26502	8.3571	4.9091	0.1	39.132
26503	8.2653	5.1818	0.1	30.231
26504	8.3571	5.0909	0.1	32.187
26505	8.2653	5.3636	0.1	22.399
26506	8.3571	5.2727	0.1	24.852
26507	8.2653	5.5455	0.1	14.219
26508	8.3571	5.4545	0.1	17.18
26509	8.2653	5.7273	0.1	5.429
26510	8.3571	5.6364	0.1	9.1734
26511	8.3571	5.8182	0.1	0.65532
26512	8.2653	5.9091	0.1	0.19847
26513	8.449	0.27273	0.1	4.045
26514	8.5408	0.18182	0.1	0.24408
26515	8.449	9.0909e-002	0.1	9.5498e-002
26516	8.449	0.45455	0.1	12.148
26517	8.5408	0.36364	0.1	7.5031
26518	8.449	0.63636	0.1	19.645
26519	8.5408	0.54545	0.1	14.841
26520	8.449	0.81818	0.1	26.819
26521	8.5408	0.72727	0.1	21.866
26522	8.449	1.	0.1	33.645
26523	8.5408	0.90909	0.1	28.581
26524	8.449	1.1818	0.1	40.07
26525	8.5408	1.0909	0.1	34.935
26526	8.449	1.3636	0.1	46.046
26527	8.5408	1.2727	0.1	40.882
26528	8.449	1.5455	0.1	51.528
26529	8.5408	1.4545	0.1	46.376
26530	8.449	1.7273	0.1	56.471
26531	8.5408	1.6364	0.1	51.375
26532	8.449	1.9091	0.1	60.838
26533	8.5408	1.8182	0.1	55.838
26534	8.449	2.0909	0.1	64.594
26535	8.5408	2.	0.1	59.733
26536	8.449	2.2727	0.1	67.71
26537	8.5408	2.1818	0.1	63.027
26538	8.449	2.4545	0.1	70.159
26539	8.5408	2.3636	0.1	65.694
26540	8.449	2.6364	0.1	71.923
26541	8.5408	2.5455	0.1	67.714
26542	8.449	2.8182	0.1	72.987
26543	8.5408	2.7273	0.1	69.069
26544	8.449	3.	0.1	73.343
26545	8.5408	2.9091	0.1	69.75
26546	8.449	3.1818	0.1	72.987
26547	8.5408	3.0909	0.1	69.75
26548	8.449	3.3636	0.1	71.923
26549	8.5408	3.2727	0.1	69.069
26550	8.449	3.5455	0.1	70.159
26551	8.5408	3.4545	0.1	67.714
26552	8.449	3.7273	0.1	67.71
26553	8.5408	3.6364	0.1	65.694
26554	8.449	3.9091	0.1	64.594
26555	8.5408	3.8182	0.1	63.027
26556	8.449	4.0909	0.1	60.838
26557	8.5408	4.	0.1	59.733
26558	8.449	4.2727	0.1	56.471
26559	8.5408	4.1818	0.1	55.838
26560	8.449	4.4545	0.1	51.528
26561	8.5408	4.3636	0.1	51.375
26562	8.449	4.6364	0.1	46.046
26563	8.5408	4.5455	0.1	46.376
26564	8.449	4.8182	0.1	40.07
26565	8.5408	4.7273	0.1	40.882
26566	8.449	5.	0.1	33.645
26567	8.5408	4.9091	0.1	34.935
26568	8.449	5.1818	0.1	26.819
26569	8.5408	5.0909	0.1	28.581
26570	8.449	5.3636	0.1	19.645
26571	8.5408	5.2727	0.1	21.866
26572	8.449	5.5455	0.1	12.148
26573	8.5408	5.4545	0.1	14.841
26574	8.449	5.7273	0.1	4.045
26575	8.5408	5.6364	0.1	7.5031
26576	8.5408	5.8182	0.1	0.24409
26577	8.449	5.9091	0.1	9.5501e-002
26578	8.6327	0.27273	0.1	2.7496
26579	8.7245	0.18182	0.1	0.11751
26580	8.6327	9.0909e-002	0.1	5.3346e-002
26581	8.6327	0.45455	0.1	10.211
26582	8.7245	0.36364	0.1	5.9389
26583	8.6327	0.63636	0.1	17.076
26584	8.7245	0.54545	0.1	12.657
26585	8.6327	0.81818	0.1	23.64
26586	8.7245	0.72727	0.1	19.081
26587	8.6327	1.	0.1	29.883
26588	8.7245	0.90909	0.1	25.22
26589	8.6327	1.1818	0.1	35.758
26590	8.7245	1.0909	0.1	31.028
26591	8.6327	1.3636	0.1	41.222
26592	8.7245	1.2727	0.1	36.462
26593	8.6327	1.5455	0.1	46.233
26594	8.7245	1.4545	0.1	41.481
26595	8.6327	1.7273	0.1	50.751
26596	8.7245	1.6364	0.1	46.047
26597	8.6327	1.9091	0.1	54.741
26598	8.7245	1.8182	0.1	50.124
26599	8.6327	2.0909	0.1	58.173
26600	8.7245	2.	0.1	53.68
26601	8.6327	2.2727	0.1	61.019
26602	8.7245	2.1818	0.1	56.688
26603	8.6327	2.4545	0.1	63.257
26604	8.7245	2.3636	0.1	59.123
26605	8.6327	2.6364	0.1	64.868
26606	8.7245	2.5455	0.1	60.967
26607	8.6327	2.8182	0.1	65.84
26608	8.7245	2.7273	0.1	62.204
26609	8.6327	3.	0.1	66.165
26610	8.7245	2.9091	0.1	62.825
26611	8.6327	3.1818	0.1	65.84
26612	8.7245	3.0909	0.1	62.825
26613	8.6327	3.3636	0.1	64.868
26614	8.7245	3.2727	0.1	62.204
26615	8.6327	3.5455	0.1	63.257
26616	8.7245	3.4545	0.1	60.967
26617	8.6327	3.7273	0.1	61.019
26618	8.7245	3.6364	0.1	59.123
26619	8.6327	3.9091	0.1	58.173
26620	8.7245	3.8182	0.1	56.688
26621	8.6327	4.0909	0.1	54.741
26622	8.7245	4.	0.1	53.68
26623	8.6327	4.2727	0.1	50.751
26624	8.7245	4.1818	0.1	50.124
26625	8.6327	4.4545	0.1	46.233
26626	8.7245	4.3636	0.1	46.047
26627	8.6327	4.6364	0.1	41.222
26628	8.7245	4.5455	0.1	41.481
26629	8.6327	4.8182	0.1	35.758
26630	8.7245	4.7273	0.1	36.462
26631	8.6327	5.	0.1	29.883
26632	8.7245	4.9091	0.1	31.028
26633	8.6327	5.1818	0.1	23.64
26634	8.7245	5.0909	0.1	25.22
26635	8.6327	5.3636	0.1	17.076
26636	8.7245	5.2727	0.1	19.081
26637	8.6327	5.5455	0.1	10.211
26638	8.7245	5.4545	0.1	12.657
26639	8.6327	5.7273	0.1	2.7496
26640	8.7245	5.6364	0.1	5.9389
26641	8.7245	5.8182	0.1	0.11752
26642	8.6327	5.9091	0.1	5.3348e-002
26643	8.8163	0.27273	0.1	1.5448
26644	8.9082	0.18182	0.1	6.9312e-002
26645	8.8163	9.0909e-002	0.1	3.2497e-002
26646	8.8163	0.45455	0.1	8.3999
26647	8.9082	0.36364	0.1	4.4732
26648	8.8163	0.63636	0.1	14.677
26649	8.9082	0.54545	0.1	10.615
26650	8.8163	0.81818	0.1	20.674
26651	8.9082	0.72727	0.1	16.482
26652	8.8163	1.	0.1	26.377
26653	8.9082	0.90909	0.1	22.085
26654	8.8163	1.1818	0.1	31.743
26655	8.9082	1.0909	0.1	27.386
26656	8.8163	1.3636	0.1	36.732
26657	8.9082	1.2727	0.1	32.344
26658	8.8163	1.5455	0.1	41.306
26659	8.9082	1.4545	0.1	36.923
26660	8.8163	1.7273	0.1	45.43
26661	8.9082	1.6364	0.1	41.088
26662	8.8163	1.9091	0.1	49.072
26663	8.9082	1.8182	0.1	44.806
26664	8.8163	2.0909	0.1	52.203
26665	8.9082	2.	0.1	48.049
26666	8.8163	2.2727	0.1	54.8
26667	8.9082	2.1818	0.1	50.792
26668	8.8163	2.4545	0.1	56.842
26669	8.9082	2.3636	0.1	53.012
26670	8.8163	2.6364	0.1	58.312
26671	8.9082	2.5455	0.1	54.693
26672	8.8163	2.8182	0.1	59.198
26673	8.9082	2.7273	0.1	55.821
26674	8.8163	3.	0.1	59.495
26675	8.9082	2.9091	0.1	56.388
26676	8.8163	3.1818	0.1	59.198
26677	8.9082	3.0909	0.1	56.388
26678	8.8163	3.3636	0.1	58.312
26679	8.9082	3.2727	0.1	55.821
26680	8.8163	3.5455	0.1	56.842
26681	8.9082	3.4545	0.1	54.693
26682	8.8163	3.7273	0.1	54.8
26683	8.9082	3.6364	0.1	53.012
26684	8.8163	3.9091	0.1	52.203
26685	8.9082	3.8182	0.1	50.792
26686	8.8163	4.0909	0.1	49.072
26687	8.9082	4.	0.1	48.049
26688	8.8163	4.2727	0.1	45.43
26689	8.9082	4.1818	0.1	44.806
26690	8.8163	4.4545	0.1	41.306
26691	8.9082	4.3636	0.1	41.088
26692	8.8163	4.6364	0.1	36.732
26693	8.9082	4.5455	0.1	36.923
26694	8.8163	4.8182	0.1	31.743
26695	8.9082	4.7273	0.1	32.344
26696	8.8163	5.	0.1	26.377
26697	8.9082	4.9091	0.1	27.386
26698	8.8163	5.1818	0.1	20.674
26699	8.9082	5.0909	0.1	22.085
26700	8.8163	5.3636	0.1	14.677
26701	8.9082	5.2727	0.1	16.482
26702	8.8163	5.5455	0.1	8.3999
26703	8.9082	5.4545	0.1	10.615
26704	8.8163	5.7273	0.1	1.5449
26705	8.9082	5.6364	0.1	4.4732
26706	8.9082	5.8182	0.1	6.9314e-002
26707	8.8163	5.9091	0.1	3.2499e-002
26708	9.	0.27273	0.1	0.48746
26709	9.0918	0.18182	0.1	4.5593e-002
26710	9.	9.0909e-002	0.1	2.0792e-002
26711	9.	0.45455	0.1	6.7043
26712	9.0918	0.36364	0.1	3.099
26713	9.	0.63636	0.1	12.435
26714	9.0918	0.54545	0.1	8.7051
26715	9.	0.81818	0.1	17.906
26716	9.0918	0.72727	0.1	14.052
26717	9.	1.	0.1	23.107
26718	9.0918	0.90909	0.1	19.158
26719	9.	1.1818	0.1	27.999
26720	9.0918	1.0909	0.1	23.987
26721	9.	1.3636	0.1	32.547
26722	9.0918	1.2727	0.1	28.504
26723	9.	1.5455	0.1	36.716
26724	9.0918	1.4545	0.1	32.674
26725	9.	1.7273	0.1	40.475
26726	9.0918	1.6364	0.1	36.466
26727	9.	1.9091	0.1	43.794
26728	9.0918	1.8182	0.1	39.852
26729	9.	2.0909	0.1	46.647
26730	9.0918	2.	0.1	42.805
26731	9.	2.2727	0.1	49.013
26732	9.0918	2.1818	0.1	45.301
26733	9.	2.4545	0.1	50.873
26734	9.0918	2.3636	0.1	47.323
26735	9.	2.6364	0.1	52.212
26736	9.0918	2.5455	0.1	48.853
26737	9.	2.8182	0.1	53.02
26738	9.0918	2.7273	0.1	49.88
26739	9.	3.	0.1	53.29
26740	9.0918	2.9091	0.1	50.396
26741	9.	3.1818	0.1	53.02
26742	9.0918	3.0909	0.1	50.396
26743	9.	3.3636	0.1	52.212
26744	9.0918	3.2727	0.1	49.88
26745	9.	3.5455	0.1	50.873
26746	9.0918	3.4545	0.1	48.853
26747	9.	3.7273	0.1	49.013
26748	9.0918	3.6364	0.1	47.323
26749	9.	3.9091	0.1	46.647
26750	9.0918	3.8182	0.1	45.301
26751	9.	4.0909	0.1	43.794
26752	9.0918	4.	0.1	42.805
26753	9.	4.2727	0.1	40.475
26754	9.0918	4.1818	0.1	39.852
26755	9.	4.4545	0.1	36.716
26756	9.0918	4.3636	0.1	36.466
26757	9.	4.6364	0.1	32.547
26758	9.0918	4.5455	0.1	32.674
26759	9.	4.8182	0.1	27.999
26760	9.0918	4.7273	0.1	28.504
26761	9.	5.	0.1	23.107
26762	9.0918	4.9091	0.1	23.987
26763	9.	5.1818	0.1	17.906
26764	9.0918	5.0909	0.1	19.158
26765	9.	5.3636	0.1	12.435
26766	9.0918	5.2727	0.1	14.052
26767	9.	5.5455	0.1	6.7043
26768	9.0918	5.4545	0.1	8.7051
26769	9.	5.7273	0.1	0.48749
26770	9.0918	5.6364	0.1	3.0991
26771	9.0918	5.8182	0.1	4.5595e-002
26772	9.	5.9091	0.1	2.0793e-002
26773	9.1837	0.27273	0.1	6.5644e-002
26774	9.2755	0.18182	0.1	3.1976e-002
26775	9.1837	9.0909e-002	0.1	1.3703e-002
26776	9.1837	0.45455	0.1	5.1158
26777	9.2755	0.36364	0.1	1.81
26778	9.1837	0.63636	0.1	10.338
26779	9.2755	0.54545	0.1	6.9159
26780	9.1837	0.81818	0.1	15.319
26781	9.2755	0.72727	0.1	11.78
26782	9.1837	1.	0.1	20.053
26783	9.2755	0.90909	0.1	16.422
26784	9.1837	1.1818	0.1	24.505
26785	9.2755	1.0909	0.1	20.812
26786	9.1837	1.3636	0.1	28.643
26787	9.2755	1.2727	0.1	24.918
26788	9.1837	1.5455	0.1	32.436
26789	9.2755	1.4545	0.1	28.708
26790	9.1837	1.7273	0.1	35.855
26791	9.2755	1.6364	0.1	32.154
26792	9.1837	1.9091	0.1	38.874
26793	9.2755	1.8182	0.1	35.23
26794	9.1837	2.0909	0.1	41.469
26795	9.2755	2.	0.1	37.913
26796	9.1837	2.2727	0.1	43.621
26797	9.2755	2.1818	0.1	40.182
26798	9.1837	2.4545	0.1	45.313
26799	9.2755	2.3636	0.1	42.019
26800	9.1837	2.6364	0.1	46.531
26801	9.2755	2.5455	0.1	43.409
26802	9.1837	2.8182	0.1	47.266
26803	9.2755	2.7273	0.1	44.342
26804	9.1837	3.	0.1	47.511
26805	9.2755	2.9091	0.1	44.811
26806	9.1837	3.1818	0.1	47.266
26807	9.2755	3.0909	0.1	44.811
26808	9.1837	3.3636	0.1	46.531
26809	9.2755	3.2727	0.1	44.342
26810	9.1837	3.5455	0.1	45.313
26811	9.2755	3.4545	0.1	43.409
26812	9.1837	3.7273	0.1	43.621
26813	9.2755	3.6364	0.1	42.019
26814	9.1837	3.9091	0.1	41.469
26815	9.2755	3.8182	0.1	40.182
26816	9.1837	4.0909	0.1	38.874
26817	9.2755	4.	0.1	37.913
26818	9.1837	4.2727	0.1	35.855
26819	9.2755	4.1818	0.1	35.23
26820	9.1837	4.4545	0.1	32.436
26821	9.2755	4.3636	0.1	32.154
26822	9.1837	4.6364	0.1	28.643
26823	9.2755	4.5455	0.1	28.708
26824	9.1837	4.8182	0.1	24.505
26825	9.2755	4.7273	0.1	24.918
26826	9.1837	5.	0.1	20.053
26827	9.2755	4.9091	0.1	20.812
26828	9.1837	5.1818	0.1	15.319
26829	9.2755	5.0909	0.1	16.422
26830	9.1837	5.3636	0.1	10.338
26831	9.2755	5.2727	0.1	11.78
26832	9.1837	5.5455	0.1	5.1158
26833	9.2755	5.4545	0.1	6.9159
26834	9.1837	5.7273	0.1	6.5648e-002
26835	9.2755	5.6364	0.1	1.81
26836	9.2755	5.8182	0.1	3.1977e-002
26837	9.1837	5.9091	0.1	1.3704e-002
26838	9.3673	0.27273	0.1	1.9216e-002
26839	9.4592	0.18182	0.1	2.3363e-002
26840	9.3673	9.0909e-002	0.1	9.1947e-003
26841	9.3673	0.45455	0.1	3.6259
26842	9.4592	0.36364	0.1	0.60197
26843	9.3673	0.63636	0.1	8.3738
26844	9.4592	0.54545	0.1	5.2379
26845	9.3673	0.81818	0.1	12.898
26846	9.4592	0.72727	0.1	9.6503
26847	9.3673	1.	0.1	17.197
26848	9.4592	0.90909	0.1	13.861
26849	9.3673	1.1818	0.1	21.239
26850	9.4592	1.0909	0.1	17.841
26851	9.3673	1.3636	0.1	24.995
26852	9.4592	1.2727	0.1	21.563
26853	9.3673	1.5455	0.1	28.438
26854	9.4592	1.4545	0.1	24.999
26855	9.3673	1.7273	0.1	31.542
26856	9.4592	1.6364	0.1	28.124
26857	9.3673	1.9091	0.1	34.282
26858	9.4592	1.8182	0.1	30.912
26859	9.3673	2.0909	0.1	36.637
26860	9.4592	2.	0.1	33.344
26861	9.3673	2.2727	0.1	38.591
26862	9.4592	2.1818	0.1	35.401
26863	9.3673	2.4545	0.1	40.126
26864	9.4592	2.3636	0.1	37.066
26865	9.3673	2.6364	0.1	41.232
26866	9.4592	2.5455	0.1	38.327
26867	9.3673	2.8182	0.1	41.898
26868	9.4592	2.7273	0.1	39.173
26869	9.3673	3.	0.1	42.121
26870	9.4592	2.9091	0.1	39.598
26871	9.3673	3.1818	0.1	41.898
26872	9.4592	3.0909	0.1	39.598
26873	9.3673	3.3636	0.1	41.232
26874	9.4592	3.2727	0.1	39.173
26875	9.3673	3.5455	0.1	40.126
26876	9.4592	3.4545	0.1	38.327
26877	9.3673	3.7273	0.1	38.591
26878	9.4592	3.6364	0.1	37.066
26879	9.3673	3.9091	0.1	36.637
26880	9.4592	3.8182	0.1	35.401
26881	9.3673	4.0909	0.1	34.282
26882	9.4592	4.	0.1	33.344
26883	9.3673	4.2727	0.1	31.542
26884	9.4592	4.1818	0.1	30.912
26885	9.3673	4.4545	0.1	28.438
26886	9.4592	4.3636	0.1	28.124
26887	9.3673	4.6364	0.1	24.995
26888	9.4592	4.5455	0.1	24.999
26889	9.3673	4.8182	0.1	21.239
26890	9.4592	4.7273	0.1	21.563
26891	9.3673	5.	0.1	17.197
26892	9.4592	4.9091	0.1	17.841
26893	9.3673	5.1818	0.1	12.898
26894	9.4592	5.0909	0.1	13.861
26895	9.3673	5.3636	0.1	8.3738
26896	9.4592	5.2727	0.1	9.6503
26897	9.3673	5.5455	0.1	3.6259
26898	9.4592	5.4545	0.1	5.2379
26899	9.3673	5.7273	0.1	1.9218e-002
26900	9.4592	5.6364	0.1	0.60201
26901	9.4592	5.8182	0.1	2.3364e-002
26902	9.3673	5.9091	0.1	9.1958e-003
26903	9.551	0.27273	0.1	7.337e-003
26904	9.6429	0.18182	0.1	1.7559e-002
26905	9.551	9.0909e-002	0.1	6.245e-003
26906	9.551	0.45455	0.1	2.2266
26907	9.6429	0.36364	0.1	-9.3685e-003
26908	9.551	0.63636	0.1	6.5314
26909	9.6429	0.54545	0.1	3.6619
26910	9.551	0.81818	0.1	10.629
26911	9.6429	0.72727	0.1	7.6521
26912	9.551	1.	0.1	14.521
26913	9.6429	0.90909	0.1	11.458
26914	9.551	1.1818	0.1	18.181
26915	9.6429	1.0909	0.1	15.056
26916	9.551	1.3636	0.1	21.581
26917	9.6429	1.2727	0.1	18.42
26918	9.551	1.5455	0.1	24.698
26919	9.6429	1.4545	0.1	21.526
26920	9.551	1.7273	0.1	27.507
26921	9.6429	1.6364	0.1	24.35
26922	9.551	1.9091	0.1	29.988
26923	9.6429	1.8182	0.1	26.87
26924	9.551	2.0909	0.1	32.12
26925	9.6429	2.	0.1	29.069
26926	9.551	2.2727	0.1	33.889
26927	9.6429	2.1818	0.1	30.928
26928	9.551	2.4545	0.1	35.279
26929	9.6429	2.3636	0.1	32.434
26930	9.551	2.6364	0.1	36.28
26931	9.6429	2.5455	0.1	33.573
26932	9.551	2.8182	0.1	36.883
26933	9.6429	2.7273	0.1	34.338
26934	9.551	3.	0.1	37.085
26935	9.6429	2.9091	0.1	34.722
26936	9.551	3.1818	0.1	36.883
26937	9.6429	3.0909	0.1	34.722
26938	9.551	3.3636	0.1	36.28
26939	9.6429	3.2727	0.1	34.338
26940	9.551	3.5455	0.1	35.279
26941	9.6429	3.4545	0.1	33.573
26942	9.551	3.7273	0.1	33.889
26943	9.6429	3.6364	0.1	32.434
26944	9.551	3.9091	0.1	32.12
26945	9.6429	3.8182	0.1	30.928
26946	9.551	4.0909	0.1	29.988
26947	9.6429	4.	0.1	29.069
26948	9.551	4.2727	0.1	27.507
26949	9.6429	4.1818	0.1	26.87
26950	9.551	4.4545	0.1	24.698
26951	9.6429	4.3636	0.1	24.35
26952	9.551	4.6364	0.1	21.581
26953	9.6429	4.5455	0.1	21.526
26954	9.551	4.8182	0.1	18.181
26955	9.6429	4.7273	0.1	18.42
26956	9.551	5.	0.1	14.521
26957	9.6429	4.9091	0.1	15.056
26958	9.551	5.1818	0.1	10.629
26959	9.6429	5.0909	0.1	11.458
26960	9.551	5.3636	0.1	6.5314
26961	9.6429	5.2727	0.1	7.6521
26962	9.551	5.5455	0.1	2.2266
26963	9.6429	5.4545	0.1	3.6619
26964	9.551	5.7273	0.1	7.3384e-003
26965	9.6429	5.6364	0.1	-9.3671e-003
26966	9.6429	5.8182	0.1	1.756e-002
26967	9.551	5.9091	0.1	6.2464e-003
26968	9.7347	0.27273	0.1	2.778e-003
26969	9.8265	0.18182	0.1	1.3471e-002
26970	9.7347	9.0909e-002	0.1	4.31e-003
26971	9.7347	0.45455	0.1	0.91052
26972	9.8265	0.36364	0.1	-1.1224e-002
26973	9.7347	0.63636	0.1	4.8003
26974	9.8265	0.54545	0.1	2.1792
26975	9.7347	0.81818	0.1	8.4983
26976	9.8265	0.72727	0.1	5.7733
26977	9.7347	1.	0.1	12.01
26978	9.8265	0.90909	0.1	9.2007
26979	9.7347	1.1818	0.1	15.312
26980	9.8265	1.0909	0.1	12.44
26981	9.7347	1.3636	0.1	18.38
26982	9.8265	1.2727	0.1	15.469
26983	9.7347	1.5455	0.1	21.192
26984	9.8265	1.4545	0.1	18.266
26985	9.7347	1.7273	0.1	23.726
26986	9.8265	1.6364	0.1	20.809
26987	9.7347	1.9091	0.1	25.965
26988	9.8265	1.8182	0.1	23.079
26989	9.7347	2.0909	0.1	27.89
26990	9.8265	2.	0.1	25.06
26991	9.7347	2.2727	0.1	29.486
26992	9.8265	2.1818	0.1	26.735
26993	9.7347	2.4545	0.1	30.741
26994	9.8265	2.3636	0.1	28.092
26995	9.7347	2.6364	0.1	31.644
26996	9.8265	2.5455	0.1	29.119
26997	9.7347	2.8182	0.1	32.189
26998	9.8265	2.7273	0.1	29.808
26999	9.7347	3.	0.1	32.371
27000	9.8265	2.9091	0.1	30.154
27001	9.7347	3.1818	0.1	32.189
27002	9.8265	3.0909	0.1	30.154
27003	9.7347	3.3636	0.1	31.644
27004	9.8265	3.2727	0.1	29.808
27005	9.7347	3.5455	0.1	30.741
27006	9.8265	3.4545	0.1	29.119
27007	9.7347	3.7273	0.1	29.486
27008	9.8265	3.6364	0.1	28.092
27009	9.7347	3.9091	0.1	27.89
27010	9.8265	3.8182	0.1	26.735
27011	9.7347	4.0909	0.1	25.965
27012	9.8265	4.	0.1	25.06
27013	9.7347	4.2727	0.1	23.726
27014	9.8265	4.1818	0.1	23.079
27015	9.7347	4.4545	0.1	21.192
27016	9.8265	4.3636	0.1	20.809
27017	9.7347	4.6364	0.1	18.38
27018	9.8265	4.5455	0.1	18.266
27019	9.7347	4.8182	0.1	15.312
27020	9.8265	4.7273	0.1	15.469
27021	9.7347	5.	0.1	12.01
27022	9.8265	4.9091	0.1	12.44
27023	9.7347	5.1818	0.1	8.4983
27024	9.8265	5.0909	0.1	9.2008
27025	9.7347	5.3636	0.1	4.8003
27026	9.8265	5.2727	0.1	5.7734
27027	9.7347	5.5455	0.1	0.91054
27028	9.8265	5.4545	0.1	2.1792
27029	9.7347	5.7273	0.1	2.7789e-003
27030	9.8265	5.6364	0.1	-1.1223e-002
27031	9.8265	5.8182	0.1	1.3472e-002
27032	9.7347	5.9091	0.1	4.311e-003
27033	9.9184	0.27273	0.1	8.394e-004
27034	10.01	0.18182	0.1	1.0482e-002
27035	9.9184	9.0909e-002	0.1	3.0451e-003
27036	9.9184	0.45455	0.1	-6.5522e-003
27037	10.01	0.36364	0.1	-9.6547e-003
27038	9.9184	0.63636	0.1	3.1706
27039	10.01	0.54545	0.1	0.78274
27040	9.9184	0.81818	0.1	6.4931
27041	10.01	0.72727	0.1	4.0028
27042	9.9184	1.	0.1	9.6477
27043	10.01	0.90909	0.1	7.0739
27044	9.9184	1.1818	0.1	12.614
27045	10.01	1.0909	0.1	9.9768
27046	9.9184	1.3636	0.1	15.37
27047	10.01	1.2727	0.1	12.691
27048	9.9184	1.5455	0.1	17.897
27049	10.01	1.4545	0.1	15.198
27050	9.9184	1.7273	0.1	20.176
27051	10.01	1.6364	0.1	17.478
27052	9.9184	1.9091	0.1	22.188
27053	10.01	1.8182	0.1	19.514
27054	9.9184	2.0909	0.1	23.918
27055	10.01	2.	0.1	21.291
27056	9.9184	2.2727	0.1	25.354
27057	10.01	2.1818	0.1	22.795
27058	9.9184	2.4545	0.1	26.483
27059	10.01	2.3636	0.1	24.012
27060	9.9184	2.6364	0.1	27.296
27061	10.01	2.5455	0.1	24.935
27062	9.9184	2.8182	0.1	27.786
27063	10.01	2.7273	0.1	25.554
27064	9.9184	3.	0.1	27.95
27065	10.01	2.9091	0.1	25.865
27066	9.9184	3.1818	0.1	27.786
27067	10.01	3.0909	0.1	25.865
27068	9.9184	3.3636	0.1	27.296
27069	10.01	3.2727	0.1	25.554
27070	9.9184	3.5455	0.1	26.483
27071	10.01	3.4545	0.1	24.935
27072	9.9184	3.7273	0.1	25.354
27073	10.01	3.6364	0.1	24.012
27074	9.9184	3.9091	0.1	23.918
27075	10.01	3.8182	0.1	22.795
27076	9.9184	4.0909	0.1	22.188
27077	10.01	4.	0.1	21.291
27078	9.9184	4.2727	0.1	20.176
27079	10.01	4.1818	0.1	19.514
27080	9.9184	4.4545	0.1	17.897
27081	10.01	4.3636	0.1	17.478
27082	9.9184	4.6364	0.1	15.37
27083	10.01	4.5455	0.1	15.198
27084	9.9184	4.8182	0.1	12.614
27085	10.01	4.7273	0.1	12.691
27086	9.9184	5.	0.1	9.6477
27087	10.01	4.9091	0.1	9.9768
27088	9.9184	5.1818	0.1	6.4931
27089	10.01	5.0909	0.1	7.0739
27090	9.9184	5.3636	0.1	3.1706
27091	10.01	5.2727	0.1	4.0028
27092	9.9184	5.5455	0.1	-6.5514e-003
27093	10.01	5.4545	0.1	0.78276
27094	9.9184	5.7273	0.1	8.4063e-004
27095	10.01	5.6364	0.1	-9.6536e-003
27096	10.01	5.8182	0.1	1.0483e-002
27097	9.9184	5.9091	0.1	3.0461e-003
27098	10.102	0.27273	0.1	7.8361e-005
27099	10.194	0.18182	0.1	8.2254e-003
27100	10.102	9.0909e-002	0.1	2.2217e-003
27101	10.102	0.45455	0.1	-5.2081e-003
27102	10.194	0.36364	0.1	-7.7438e-003
27103	10.102	0.63636	0.1	1.6334
27104	10.194	0.54545	0.1	3.6029e-003
27105	10.102	0.81818	0.1	4.6014
27106	10.194	0.72727	0.1	2.3305
27107	10.102	1.	0.1	7.42
27108	10.194	0.90909	0.1	5.0648
27109	10.102	1.1818	0.1	10.071
27110	10.194	1.0909	0.1	7.6504
27111	10.102	1.3636	0.1	12.535
27112	10.194	1.2727	0.1	10.069
27113	10.102	1.5455	0.1	14.794
27114	10.194	1.4545	0.1	12.303
27115	10.102	1.7273	0.1	16.832
27116	10.194	1.6364	0.1	14.337
27117	10.102	1.9091	0.1	18.632
27118	10.194	1.8182	0.1	16.154
27119	10.102	2.0909	0.1	20.182
27120	10.194	2.	0.1	17.74
27121	10.102	2.2727	0.1	21.467
27122	10.194	2.1818	0.1	19.082
27123	10.102	2.4545	0.1	22.478
27124	10.194	2.3636	0.1	20.17
27125	10.102	2.6364	0.1	23.206
27126	10.194	2.5455	0.1	20.994
27127	10.102	2.8182	0.1	23.646
27128	10.194	2.7273	0.1	21.548
27129	10.102	3.	0.1	23.793
27130	10.194	2.9091	0.1	21.826
27131	10.102	3.1818	0.1	23.646
27132	10.194	3.0909	0.1	21.826
27133	10.102	3.3636	0.1	23.206
27134	10.194	3.2727	0.1	21.548
27135	10.102	3.5455	0.1	22.478
27136	10.194	3.4545	0.1	20.994
27137	10.102	3.7273	0.1	21.467
27138	10.194	3.6364	0.1	20.17
27139	10.102	3.9091	0.1	20.182
27140	10.194	3.8182	0.1	19.082
27141	10.102	4.0909	0.1	18.632
27142	10.194	4.	0.1	17.74
27143	10.102	4.2727	0.1	16.832
27144	10.194	4.1818	0.1	16.154
27145	10.102	4.4545	0.1	14.794
27146	10.194	4.3636	0.1	14.337
27147	10.102	4.6364	0.1	12.535
27148	10.194	4.5455	0.1	12.303
27149	10.102	4.8182	0.1	10.071
27150	10.194	4.7273	0.1	10.069
27151	10.102	5.	0.1	7.42
27152	10.194	4.9091	0.1	7.6504
27153	10.102	5.1818	0.1	4.6015
27154	10.194	5.0909	0.1	5.0648
27155	10.102	5.3636	0.1	1.6334
27156	10.194	5.2727	0.1	2.3305
27157	10.102	5.5455	0.1	-5.2074e-003
27158	10.194	5.4545	0.1	3.6032e-003
27159	10.102	5.7273	0.1	7.9144e-005
27160	10.194	5.6364	0.1	-7.743e-003
27161	10.194	5.8182	0.1	8.2261e-003
27162	10.102	5.9091	0.1	2.2229e-003
27163	10.286	0.27273	0.1	-7.4824e-005
27164	10.378	0.18182	0.1	6.483e-003
27165	10.286	9.0909e-002	0.1	1.7066e-003
27166	10.286	0.45455	0.1	-3.8466e-003
27167	10.378	0.36364	0.1	-5.8027e-003
27168	10.286	0.63636	0.1	0.2038
27169	10.378	0.54545	0.1	6.1882e-004
27170	10.286	0.81818	0.1	2.8121
27171	10.378	0.72727	0.1	0.75186
27172	10.286	1.	0.1	5.3128
27173	10.378	0.90909	0.1	3.1614
27174	10.286	1.1818	0.1	7.6657
27175	10.378	1.0909	0.1	5.4465
27176	10.286	1.3636	0.1	9.8541
27177	10.378	1.2727	0.1	7.5857
27178	10.286	1.5455	0.1	11.862
27179	10.378	1.4545	0.1	9.5633
27180	10.286	1.7273	0.1	13.674
27181	10.378	1.6364	0.1	11.364
27182	10.286	1.9091	0.1	15.276
27183	10.378	1.8182	0.1	12.975
27184	10.286	2.0909	0.1	16.655
27185	10.378	2.	0.1	14.382
27186	10.286	2.2727	0.1	17.8
27187	10.378	2.1818	0.1	15.574
27188	10.286	2.4545	0.1	18.701
27189	10.378	2.3636	0.1	16.541
27190	10.286	2.6364	0.1	19.35
27191	10.378	2.5455	0.1	17.274
27192	10.286	2.8182	0.1	19.742
27193	10.378	2.7273	0.1	17.766
27194	10.286	3.	0.1	19.873
27195	10.378	2.9091	0.1	18.013
27196	10.286	3.1818	0.1	19.742
27197	10.378	3.0909	0.1	18.013
27198	10.286	3.3636	0.1	19.35
27199	10.378	3.2727	0.1	17.766
27200	10.286	3.5455	0.1	18.701
27201	10.378	3.4545	0.1	17.274
27202	10.286	3.7273	0.1	17.8
27203	10.378	3.6364	0.1	16.541
27204	10.286	3.9091	0.1	16.655
27205	10.378	3.8182	0.1	15.574
27206	10.286	4.0909	0.1	15.276
27207	10.378	4.	0.1	14.382
27208	10.286	4.2727	0.1	13.674
27209	10.378	4.1818	0.1	12.975
27210	10.286	4.4545	0.1	11.862
27211	10.378	4.3636	0.1	11.364
27212	10.286	4.6364	0.1	9.8541
27213	10.378	4.5455	0.1	9.5633
27214	10.286	4.8182	0.1	7.6657
27215	10.378	4.7273	0.1	7.5857
27216	10.286	5.	0.1	5.3128
27217	10.378	4.9091	0.1	5.4465
27218	10.286	5.1818	0.1	2.8121
27219	10.378	5.0909	0.1	3.1614
27220	10.286	5.3636	0.1	0.20381
27221	10.378	5.2727	0.1	0.75187
27222	10.286	5.5455	0.1	-3.8462e-003
27223	10.378	5.4545	0.1	6.1932e-004
27224	10.286	5.7273	0.1	-7.4088e-005
27225	10.378	5.6364	0.1	-5.8019e-003
27226	10.378	5.8182	0.1	6.4841e-003
27227	10.286	5.9091	0.1	1.7072e-003
27228	10.469	0.27273	0.1	1.1761e-004
27229	10.561	0.18182	0.1	5.132e-003
27230	10.469	9.0909e-002	0.1	1.4119e-003
27231	10.469	0.45455	0.1	-2.559e-003
27232	10.561	0.36364	0.1	-3.8824e-003
27233	10.469	0.63636	0.1	4.1607e-003
27234	10.561	0.54545	0.1	5.5608e-004
27235	10.469	0.81818	0.1	1.1178
27236	10.561	0.72727	0.1	1.0791e-002
27237	10.469	1.	0.1	3.3132
27238	10.561	0.90909	0.1	1.3545
27239	10.469	1.1818	0.1	5.3839
27240	10.561	1.0909	0.1	3.3513
27241	10.469	1.3636	0.1	7.3117
27242	10.561	1.2727	0.1	5.2253
27243	10.469	1.5455	0.1	9.0822
27244	10.561	1.4545	0.1	6.9602
27245	10.469	1.7273	0.1	10.682
27246	10.561	1.6364	0.1	8.5423
27247	10.469	1.9091	0.1	12.097
27248	10.561	1.8182	0.1	9.9589
27249	10.469	2.0909	0.1	13.317
27250	10.561	2.	0.1	11.198
27251	10.469	2.2727	0.1	14.33
27252	10.561	2.1818	0.1	12.249
27253	10.469	2.4545	0.1	15.128
27254	10.561	2.3636	0.1	13.102
27255	10.469	2.6364	0.1	15.704
27256	10.561	2.5455	0.1	13.749
27257	10.469	2.8182	0.1	16.051
27258	10.561	2.7273	0.1	14.184
27259	10.469	3.	0.1	16.167
27260	10.561	2.9091	0.1	14.402
27261	10.469	3.1818	0.1	16.051
27262	10.561	3.0909	0.1	14.402
27263	10.469	3.3636	0.1	15.704
27264	10.561	3.2727	0.1	14.184
27265	10.469	3.5455	0.1	15.128
27266	10.561	3.4545	0.1	13.749
27267	10.469	3.7273	0.1	14.33
27268	10.561	3.6364	0.1	13.102
27269	10.469	3.9091	0.1	13.317
27270	10.561	3.8182	0.1	12.249
27271	10.469	4.0909	0.1	12.097
27272	10.561	4.	0.1	11.198
27273	10.469	4.2727	0.1	10.682
27274	10.561	4.1818	0.1	9.9589
27275	10.469	4.4545	0.1	9.0822
27276	10.561	4.3636	0.1	8.5423
27277	10.469	4.6364	0.1	7.3117
27278	10.561	4.5455	0.1	6.9602
27279	10.469	4.8182	0.1	5.3839
27280	10.561	4.7273	0.1	5.2253
27281	10.469	5.	0.1	3.3132
27282	10.561	4.9091	0.1	3.3513
27283	10.469	5.1818	0.1	1.1178
27284	10.561	5.0909	0.1	1.3545
27285	10.469	5.3636	0.1	4.1615e-003
27286	10.561	5.2727	0.1	1.0792e-002
27287	10.469	5.5455	0.1	-2.5581e-003
27288	10.561	5.4545	0.1	5.5657e-004
27289	10.469	5.7273	0.1	1.1885e-004
27290	10.561	5.6364	0.1	-3.8815e-003
27291	10.561	5.8182	0.1	5.1331e-003
27292	10.469	5.9091	0.1	1.4131e-003
27293	10.653	0.27273	0.1	5.5381e-004
27294	10.745	0.18182	0.1	4.0917e-003
27295	10.653	9.0909e-002	0.1	1.3111e-003
27296	10.653	0.45455	0.1	-1.3042e-003
27297	10.745	0.36364	0.1	-1.9844e-003
27298	10.653	0.63636	0.1	1.9108e-003
27299	10.745	0.54545	0.1	8.49e-004
27300	10.653	0.81818	0.1	2.0894e-002
27301	10.745	0.72727	0.1	3.2848e-003
27302	10.653	1.	0.1	1.4114
27303	10.745	0.90909	0.1	3.0706e-002
27304	10.653	1.1818	0.1	3.2108
27305	10.745	1.0909	0.1	1.3549
27306	10.653	1.3636	0.1	4.8912
27307	10.745	1.2727	0.1	2.9732
27308	10.653	1.5455	0.1	6.4371
27309	10.745	1.4545	0.1	4.4772
27310	10.653	1.7273	0.1	7.836
27311	10.745	1.6364	0.1	5.852
27312	10.653	1.9091	0.1	9.0759
27313	10.745	1.8182	0.1	7.0855
27314	10.653	2.0909	0.1	10.146
27315	10.745	2.	0.1	8.1665
27316	10.653	2.2727	0.1	11.036
27317	10.745	2.1818	0.1	9.0849
27318	10.653	2.4545	0.1	11.738
27319	10.745	2.3636	0.1	9.8314
27320	10.653	2.6364	0.1	12.244
27321	10.745	2.5455	0.1	10.398
27322	10.653	2.8182	0.1	12.55
27323	10.745	2.7273	0.1	10.78
27324	10.653	3.	0.1	12.652
27325	10.745	2.9091	0.1	10.971
27326	10.653	3.1818	0.1	12.55
27327	10.745	3.0909	0.1	10.971
27328	10.653	3.3636	0.1	12.244
27329	10.745	3.2727	0.1	10.78
27330	10.653	3.5455	0.1	11.738
27331	10.745	3.4545	0.1	10.398
27332	10.653	3.7273	0.1	11.036
27333	10.745	3.6364	0.1	9.8314
27334	10.653	3.9091	0.1	10.146
27335	10.745	3.8182	0.1	9.0849
27336	10.653	4.0909	0.1	9.0759
27337	10.745	4.	0.1	8.1665
27338	10.653	4.2727	0.1	7.836
27339	10.745	4.1818	0.1	7.0855
27340	10.653	4.4545	0.1	6.4371
27341	10.745	4.3636	0.1	5.852
27342	10.653	4.6364	0.1	4.8912
27343	10.745	4.5455	0.1	4.4772
27344	10.653	4.8182	0.1	3.2108
27345	10.745	4.7273	0.1	2.9732
27346	10.653	5.	0.1	1.4114
27347	10.745	4.9091	0.1	1.3549
27348	10.653	5.1818	0.1	2.0895e-002
27349	10.745	5.0909	0.1	3.0707e-002
27350	10.653	5.3636	0.1	1.9114e-003
27351	10.745	5.2727	0.1	3.2859e-003
27352	10.653	5.5455	0.1	-1.3038e-003
27353	10.745	5.4545	0.1	8.492e-004
27354	10.653	5.7273	0.1	5.5463e-004
27355	10.745	5.6364	0.1	-1.9838e-003
27356	10.745	5.8182	0.1	4.0926e-003
27357	10.653	5.9091	0.1	1.3118e-003
27358	10.837	0.27273	0.1	1.1523e-003
27359	10.929	0.18182	0.1	3.2719e-003
27360	10.837	9.0909e-002	0.1	1.3544e-003
27361	10.837	0.45455	0.1	-7.9701e-005
27362	10.929	0.36364	0.1	-1.3311e-004
27363	10.837	0.63636	0.1	1.558e-003
27364	10.929	0.54545	0.1	1.2306e-003
27365	10.837	0.81818	0.1	4.5108e-003
27366	10.929	0.72727	0.1	2.053e-003
27367	10.837	1.	0.1	2.9764e-002
27368	10.929	0.90909	0.1	4.939e-003
27369	10.837	1.1818	0.1	1.1374
27370	10.929	1.0909	0.1	2.2049e-002
27371	10.837	1.3636	0.1	2.5775
27372	10.929	1.2727	0.1	0.8232
27373	10.837	1.5455	0.1	3.9095
27374	10.929	1.4545	0.1	2.0994
27375	10.837	1.7273	0.1	5.1184
27376	10.929	1.6364	0.1	3.2763
27377	10.837	1.9091	0.1	6.1926
27378	10.929	1.8182	0.1	4.3364
27379	10.837	2.0909	0.1	7.1217
27380	10.929	2.	0.1	5.2683
27381	10.837	2.2727	0.1	7.8962
27382	10.929	2.1818	0.1	6.0622
27383	10.837	2.4545	0.1	8.5077
27384	10.929	2.3636	0.1	6.709
27385	10.837	2.6364	0.1	8.9496
27386	10.929	2.5455	0.1	7.2011
27387	10.837	2.8182	0.1	9.2168
27388	10.929	2.7273	0.1	7.5327
27389	10.837	3.	0.1	9.3062
27390	10.929	2.9091	0.1	7.6995
27391	10.837	3.1818	0.1	9.2168
27392	10.929	3.0909	0.1	7.6995
27393	10.837	3.3636	0.1	8.9496
27394	10.929	3.2727	0.1	7.5326
27395	10.837	3.5455	0.1	8.5077
27396	10.929	3.4545	0.1	7.2011
27397	10.837	3.7273	0.1	7.8962
27398	10.929	3.6364	0.1	6.709
27399	10.837	3.9091	0.1	7.1217
27400	10.929	3.8182	0.1	6.0622
27401	10.837	4.0909	0.1	6.1926
27402	10.929	4.	0.1	5.2683
27403	10.837	4.2727	0.1	5.1184
27404	10.929	4.1818	0.1	4.3363
27405	10.837	4.4545	0.1	3.9095
27406	10.929	4.3636	0.1	3.2763
27407	10.837	4.6364	0.1	2.5774
27408	10.929	4.5455	0.1	2.0994
27409	10.837	4.8182	0.1	1.1374
27410	10.929	4.7273	0.1	0.82319
27411	10.837	5.	0.1	2.9765e-002
27412	10.929	4.9091	0.1	2.2049e-002
27413	10.837	5.1818	0.1	4.512e-003
27414	10.929	5.0909	0.1	4.9403e-003
27415	10.837	5.3636	0.1	1.5586e-003
27416	10.929	5.2727	0.1	2.0543e-003
27417	10.837	5.5455	0.1	-7.9298e-005
27418	10.929	5.4545	0.1	1.2303e-003
27419	10.837	5.7273	0.1	1.1531e-003
27420	10.929	5.6364	0.1	-1.3236e-004
27421	10.929	5.8182	0.1	3.2732e-003
27422	10.837	5.9091	0.1	1.3563e-003
27423	11.02	0.27273	0.1	1.8264e-003
27424	11.112	0.18182	0.1	2.6092e-003
27425	11.02	9.0909e-002	0.1	1.4717e-003
27426	11.02	0.45455	0.1	1.081e-003
27427	11.112	0.36364	0.1	1.6614e-003
27428	11.02	0.63636	0.1	1.5902e-003
27429	11.112	0.54545	0.1	1.6202e-003
27430	11.02	0.81818	0.1	2.3676e-003
27431	11.112	0.72727	0.1	1.7205e-003
27432	11.02	1.	0.1	4.5504e-003
27433	11.112	0.90909	0.1	2.2101e-003
27434	11.02	1.1818	0.1	1.3504e-002
27435	11.112	1.0909	0.1	3.5232e-003
27436	11.02	1.3636	0.1	0.38038
27437	11.112	1.2727	0.1	7.6092e-003
27438	11.02	1.5455	0.1	1.4854
27439	11.112	1.4545	0.1	4.604e-002
27440	11.02	1.7273	0.1	2.5119
27441	11.112	1.6364	0.1	0.80519
27442	11.02	1.9091	0.1	3.4291
27443	11.112	1.8182	0.1	1.6952
27444	11.02	2.0909	0.1	4.2255
27445	11.112	2.	0.1	2.4855
27446	11.02	2.2727	0.1	4.8914
27447	11.112	2.1818	0.1	3.1622
27448	11.02	2.4545	0.1	5.4186
27449	11.112	2.3636	0.1	3.7155
27450	11.02	2.6364	0.1	5.8002
27451	11.112	2.5455	0.1	4.1378
27452	11.02	2.8182	0.1	6.0313
27453	11.112	2.7273	0.1	4.4229
27454	11.02	3.	0.1	6.1087
27455	11.112	2.9091	0.1	4.5666
27456	11.02	3.1818	0.1	6.0313
27457	11.112	3.0909	0.1	4.5666
27458	11.02	3.3636	0.1	5.8002
27459	11.112	3.2727	0.1	4.4229
27460	11.02	3.5455	0.1	5.4186
27461	11.112	3.4545	0.1	4.1378
27462	11.02	3.7273	0.1	4.8914
27463	11.112	3.6364	0.1	3.7155
27464	11.02	3.9091	0.1	4.2255
27465	11.112	3.8182	0.1	3.1622
27466	11.02	4.0909	0.1	3.4291
27467	11.112	4.	0.1	2.4855
27468	11.02	4.2727	0.1	2.5119
27469	11.112	4.1818	0.1	1.6952
27470	11.02	4.4545	0.1	1.4854
27471	11.112	4.3636	0.1	0.80518
27472	11.02	4.6364	0.1	0.38038
27473	11.112	4.5455	0.1	4.6039e-002
27474	11.02	4.8182	0.1	1.3504e-002
27475	11.112	4.7273	0.1	7.6097e-003
27476	11.02	5.	0.1	4.551e-003
27477	11.112	4.9091	0.1	3.5239e-003
27478	11.02	5.1818	0.1	2.3691e-003
27479	11.112	5.0909	0.1	2.2112e-003
27480	11.02	5.3636	0.1	1.5906e-003
27481	11.112	5.2727	0.1	1.7217e-003
27482	11.02	5.5455	0.1	1.081e-003
27483	11.112	5.4545	0.1	1.6194e-003
27484	11.02	5.7273	0.1	1.8277e-003
27485	11.112	5.6364	0.1	1.6621e-003
27486	11.112	5.8182	0.1	2.6112e-003
27487	11.02	5.9091	0.1	1.4724e-003
27488	11.204	0.27273	0.1	2.5605e-003
27489	11.296	0.18182	0.1	2.0835e-003
27490	11.204	9.0909e-002	0.1	1.6448e-003
27491	11.204	0.45455	0.1	2.1921e-003
27492	11.296	0.36364	0.1	3.4207e-003
27493	11.204	0.63636	0.1	1.7485e-003
27494	11.296	0.54545	0.1	2.0049e-003
27495	11.204	0.81818	0.1	1.6476e-003
27496	11.296	0.72727	0.1	1.6712e-003
27497	11.204	1.	0.1	1.7385e-003
27498	11.296	0.90909	0.1	1.2416e-003
27499	11.204	1.1818	0.1	2.2418e-003
27500	11.296	1.0909	0.1	9.7792e-004
27501	11.204	1.3636	0.1	3.6822e-003
27502	11.296	1.2727	0.1	8.6987e-004
27503	11.204	1.5455	0.1	8.6547e-003
27504	11.296	1.4545	0.1	1.0357e-003
27505	11.204	1.7273	0.1	8.8732e-002
27506	11.296	1.6364	0.1	1.7484e-003
27507	11.204	1.9091	0.1	0.77269
27508	11.296	1.8182	0.1	4.0939e-003
27509	11.204	2.0909	0.1	1.4401
27510	11.296	2.	0.1	2.0008e-002
27511	11.204	2.2727	0.1	2.0034
27512	11.296	2.1818	0.1	0.37438
27513	11.204	2.4545	0.1	2.4515
27514	11.296	2.3636	0.1	0.83435
27515	11.204	2.6364	0.1	2.777
27516	11.296	2.5455	0.1	1.1905
27517	11.204	2.8182	0.1	2.9746
27518	11.296	2.7273	0.1	1.4322
27519	11.204	3.	0.1	3.0408
27520	11.296	2.9091	0.1	1.5543
27521	11.204	3.1818	0.1	2.9746
27522	11.296	3.0909	0.1	1.5543
27523	11.204	3.3636	0.1	2.777
27524	11.296	3.2727	0.1	1.4322
27525	11.204	3.5455	0.1	2.4515
27526	11.296	3.4545	0.1	1.1905
27527	11.204	3.7273	0.1	2.0034
27528	11.296	3.6364	0.1	0.83435
27529	11.204	3.9091	0.1	1.4401
27530	11.296	3.8182	0.1	0.37438
27531	11.204	4.0909	0.1	0.77269
27532	11.296	4.	0.1	2.0007e-002
27533	11.204	4.2727	0.1	8.8728e-002
27534	11.296	4.1818	0.1	4.0938e-003
27535	11.204	4.4545	0.1	8.6548e-003
27536	11.296	4.3636	0.1	1.7486e-003
27537	11.204	4.6364	0.1	3.6827e-003
27538	11.296	4.5455	0.1	1.0362e-003
27539	11.204	4.8182	0.1	2.2427e-003
27540	11.296	4.7273	0.1	8.7041e-004
27541	11.204	5.	0.1	1.7395e-003
27542	11.296	4.9091	0.1	9.7871e-004
27543	11.204	5.1818	0.1	1.6484e-003
27544	11.296	5.0909	0.1	1.2429e-003
27545	11.204	5.3636	0.1	1.7484e-003
27546	11.296	5.2727	0.1	1.672e-003
27547	11.204	5.5455	0.1	2.1919e-003
27548	11.296	5.4545	0.1	2.0048e-003
27549	11.204	5.7273	0.1	2.5619e-003
27550	11.296	5.6364	0.1	3.4213e-003
27551	11.296	5.8182	0.1	2.0848e-003
27552	11.204	5.9091	0.1	1.6464e-003
27553	11.388	0.27273	0.1	3.3561e-003
27554	11.48	0.18182	0.1	1.6732e-003
27555	11.388	9.0909e-002	0.1	1.8729e-003
27556	11.388	0.45455	0.1	3.2761e-003
27557	11.48	0.36364	0.1	5.1594e-003
27558	11.388	0.63636	0.1	1.962e-003
27559	11.48	0.54545	0.1	2.378e-003
27560	11.388	0.81818	0.1	1.3482e-003
27561	11.48	0.72727	0.1	1.733e-003
27562	11.388	1.	0.1	6.912e-004
27563	11.48	0.90909	0.1	7.6195e-004
27564	11.388	1.1818	0.1	1.3086e-004
27565	11.48	1.0909	0.1	-4.4461e-005
27566	11.388	1.3636	0.1	-3.6322e-004
27567	11.48	1.2727	0.1	-8.0615e-004
27568	11.388	1.5455	0.1	-7.7942e-004
27569	11.48	1.4545	0.1	-1.4992e-003
27570	11.388	1.7273	0.1	-1.1192e-003
27571	11.48	1.6364	0.1	-2.1351e-003
27572	11.388	1.9091	0.1	-1.3804e-003
27573	11.48	1.8182	0.1	-2.7301e-003
27574	11.388	2.0909	0.1	-1.5531e-003
27575	11.48	2.	0.1	-3.2985e-003
27576	11.388	2.2727	0.1	-1.6062e-003
27577	11.48	2.1818	0.1	-3.8545e-003
27578	11.388	2.4545	0.1	-1.4191e-003
27579	11.48	2.3636	0.1	-4.4056e-003
27580	11.388	2.6364	0.1	-1.8879e-004
27581	11.48	2.5455	0.1	-4.9342e-003
27582	11.388	2.8182	0.1	3.3191e-002
27583	11.48	2.7273	0.1	-5.379e-003
27584	11.388	3.	0.1	8.4462e-002
27585	11.48	2.9091	0.1	-5.6428e-003
27586	11.388	3.1818	0.1	3.319e-002
27587	11.48	3.0909	0.1	-5.6428e-003
27588	11.388	3.3636	0.1	-1.8923e-004
27589	11.48	3.2727	0.1	-5.3788e-003
27590	11.388	3.5455	0.1	-1.4192e-003
27591	11.48	3.4545	0.1	-4.9341e-003
27592	11.388	3.7273	0.1	-1.6061e-003
27593	11.48	3.6364	0.1	-4.4052e-003
27594	11.388	3.9091	0.1	-1.5531e-003
27595	11.48	3.8182	0.1	-3.8543e-003
27596	11.388	4.0909	0.1	-1.3805e-003
27597	11.48	4.	0.1	-3.2984e-003
27598	11.388	4.2727	0.1	-1.1191e-003
27599	11.48	4.1818	0.1	-2.7297e-003
27600	11.388	4.4545	0.1	-7.7896e-004
27601	11.48	4.3636	0.1	-2.1348e-003
27602	11.388	4.6364	0.1	-3.6275e-004
27603	11.48	4.5455	0.1	-1.4982e-003
27604	11.388	4.8182	0.1	1.3122e-004
27605	11.48	4.7273	0.1	-8.0568e-004
27606	11.388	5.	0.1	6.9225e-004
27607	11.48	4.9091	0.1	-4.4051e-005
27608	11.388	5.1818	0.1	1.3494e-003
27609	11.48	5.0909	0.1	7.6358e-004
27610	11.388	5.3636	0.1	1.9627e-003
27611	11.48	5.2727	0.1	1.7341e-003
27612	11.388	5.5455	0.1	3.2767e-003
27613	11.48	5.4545	0.1	2.3784e-003
27614	11.388	5.7273	0.1	3.3566e-003
27615	11.48	5.6364	0.1	5.16e-003
27616	11.48	5.8182	0.1	1.6735e-003
27617	11.388	5.9091	0.1	1.8732e-003
27618	11.571	0.27273	0.1	4.197e-003
27619	11.663	0.18182	0.1	1.3727e-003
27620	11.571	9.0909e-002	0.1	2.1299e-003
27621	11.571	0.45455	0.1	4.3317e-003
27622	11.663	0.36364	0.1	6.902e-003
27623	11.571	0.63636	0.1	2.1855e-003
27624	11.663	0.54545	0.1	2.7447e-003
27625	11.571	0.81818	0.1	1.2049e-003
27626	11.663	0.72727	0.1	1.849e-003
27627	11.571	1.	0.1	1.2883e-004
27628	11.663	0.90909	0.1	4.7892e-004
27629	11.571	1.1818	0.1	-8.1058e-004
27630	11.663	1.0909	0.1	-6.2023e-004
27631	11.571	1.3636	0.1	-1.6702e-003
27632	11.663	1.2727	0.1	-1.629e-003
27633	11.571	1.5455	0.1	-2.4387e-003
27634	11.663	1.4545	0.1	-2.5049e-003
27635	11.571	1.7273	0.1	-3.1278e-003
27636	11.663	1.6364	0.1	-3.2645e-003
27637	11.571	1.9091	0.1	-3.7456e-003
27638	11.663	1.8182	0.1	-3.9169e-003
27639	11.571	2.0909	0.1	-4.2965e-003
27640	11.663	2.	0.1	-4.4704e-003
27641	11.571	2.2727	0.1	-4.782e-003
27642	11.663	2.1818	0.1	-4.9315e-003
27643	11.571	2.4545	0.1	-5.1952e-003
27644	11.663	2.3636	0.1	-5.3055e-003
27645	11.571	2.6364	0.1	-5.5182e-003
27646	11.663	2.5455	0.1	-5.5929e-003
27647	11.571	2.8182	0.1	-5.7264e-003
27648	11.663	2.7273	0.1	-5.788e-003
27649	11.571	3.	0.1	-5.7985e-003
27650	11.663	2.9091	0.1	-5.8871e-003
27651	11.571	3.1818	0.1	-5.7261e-003
27652	11.663	3.0909	0.1	-5.887e-003
27653	11.571	3.3636	0.1	-5.518e-003
27654	11.663	3.2727	0.1	-5.7879e-003
27655	11.571	3.5455	0.1	-5.1949e-003
27656	11.663	3.4545	0.1	-5.593e-003
27657	11.571	3.7273	0.1	-4.7815e-003
27658	11.663	3.6364	0.1	-5.305e-003
27659	11.571	3.9091	0.1	-4.2962e-003
27660	11.663	3.8182	0.1	-4.9313e-003
27661	11.571	4.0909	0.1	-3.745e-003
27662	11.663	4.	0.1	-4.4701e-003
27663	11.571	4.2727	0.1	-3.1273e-003
27664	11.663	4.1818	0.1	-3.9164e-003
27665	11.571	4.4545	0.1	-2.4379e-003
27666	11.663	4.3636	0.1	-3.2641e-003
27667	11.571	4.6364	0.1	-1.6693e-003
27668	11.663	4.5455	0.1	-2.504e-003
27669	11.571	4.8182	0.1	-8.1006e-004
27670	11.663	4.7273	0.1	-1.6285e-003
27671	11.571	5.	0.1	1.2982e-004
27672	11.663	4.9091	0.1	-6.1982e-004
27673	11.571	5.1818	0.1	1.2064e-003
27674	11.663	5.0909	0.1	4.802e-004
27675	11.571	5.3636	0.1	2.1863e-003
27676	11.663	5.2727	0.1	1.8502e-003
27677	11.571	5.5455	0.1	4.3321e-003
27678	11.663	5.4545	0.1	2.7449e-003
27679	11.571	5.7273	0.1	4.1975e-003
27680	11.663	5.6364	0.1	6.9025e-003
27681	11.663	5.8182	0.1	1.3733e-003
27682	11.571	5.9091	0.1	2.1312e-003
27683	11.755	0.27273	0.1	5.115e-003
27684	11.847	0.18182	0.1	1.1821e-003
27685	11.755	9.0909e-002	0.1	2.4389e-003
27686	11.755	0.45455	0.1	5.3968e-003
27687	11.847	0.36364	0.1	8.6722e-003
27688	11.755	0.63636	0.1	2.4317e-003
27689	11.847	0.54545	0.1	3.1082e-003
27690	11.755	0.81818	0.1	1.1539e-003
27691	11.847	0.72727	0.1	1.9938e-003
27692	11.755	1.	0.1	-2.2216e-004
27693	11.847	0.90909	0.1	2.8809e-004
27694	11.755	1.1818	0.1	-1.3699e-003
27695	11.847	1.0909	0.1	-1.014e-003
27696	11.755	1.3636	0.1	-2.3739e-003
27697	11.847	1.2727	0.1	-2.1636e-003
27698	11.755	1.5455	0.1	-3.2227e-003
27699	11.847	1.4545	0.1	-3.1141e-003
27700	11.755	1.7273	0.1	-3.9337e-003
27701	11.847	1.6364	0.1	-3.8957e-003
27702	11.755	1.9091	0.1	-4.5196e-003
27703	11.847	1.8182	0.1	-4.5261e-003
27704	11.755	2.0909	0.1	-4.9935e-003
27705	11.847	2.	0.1	-5.0246e-003
27706	11.755	2.2727	0.1	-5.3672e-003
27707	11.847	2.1818	0.1	-5.4089e-003
27708	11.755	2.4545	0.1	-5.6507e-003
27709	11.847	2.3636	0.1	-5.6962e-003
27710	11.755	2.6364	0.1	-5.8495e-003
27711	11.847	2.5455	0.1	-5.901e-003
27712	11.755	2.8182	0.1	-5.9671e-003
27713	11.847	2.7273	0.1	-6.0312e-003
27714	11.755	3.	0.1	-6.0062e-003
27715	11.847	2.9091	0.1	-6.0942e-003
27716	11.755	3.1818	0.1	-5.9672e-003
27717	11.847	3.0909	0.1	-6.0942e-003
27718	11.755	3.3636	0.1	-5.8497e-003
27719	11.847	3.2727	0.1	-6.0311e-003
27720	11.755	3.5455	0.1	-5.6506e-003
27721	11.847	3.4545	0.1	-5.9012e-003
27722	11.755	3.7273	0.1	-5.3669e-003
27723	11.847	3.6364	0.1	-5.6957e-003
27724	11.755	3.9091	0.1	-4.9932e-003
27725	11.847	3.8182	0.1	-5.4087e-003
27726	11.755	4.0909	0.1	-4.5193e-003
27727	11.847	4.	0.1	-5.0242e-003
27728	11.755	4.2727	0.1	-3.9335e-003
27729	11.847	4.1818	0.1	-4.5258e-003
27730	11.755	4.4545	0.1	-3.2224e-003
27731	11.847	4.3636	0.1	-3.8954e-003
27732	11.755	4.6364	0.1	-2.3735e-003
27733	11.847	4.5455	0.1	-3.1137e-003
27734	11.755	4.8182	0.1	-1.3695e-003
27735	11.847	4.7273	0.1	-2.163e-003
27736	11.755	5.	0.1	-2.2145e-004
27737	11.847	4.9091	0.1	-1.0132e-003
27738	11.755	5.1818	0.1	1.1549e-003
27739	11.847	5.0909	0.1	2.894e-004
27740	11.755	5.3636	0.1	2.4323e-003
27741	11.847	5.2727	0.1	1.9947e-003
27742	11.755	5.5455	0.1	5.3972e-003
27743	11.847	5.4545	0.1	3.1082e-003
27744	11.755	5.7273	0.1	5.1157e-003
27745	11.847	5.6364	0.1	8.672e-003
27746	11.847	5.8182	0.1	1.1834e-003
27747	11.755	5.9091	0.1	2.439e-003
27748	11.939	0.27273	0.1	6.1008e-003
27749	12.031	0.18182	0.1	1.0625e-003
27750	11.939	9.0909e-002	0.1	2.7722e-003
27751	11.939	0.45455	0.1	6.4641e-003
27752	12.031	0.36364	0.1	1.0448e-002
27753	11.939	0.63636	0.1	2.6725e-003
27754	12.031	0.54545	0.1	3.4255e-003
27755	11.939	0.81818	0.1	1.1321e-003
27756	12.031	0.72727	0.1	2.1082e-003
27757	11.939	1.	0.1	-4.91e-004
27758	12.031	0.90909	0.1	9.7935e-005
27759	11.939	1.1818	0.1	-1.786e-003
27760	12.031	1.0909	0.1	-1.3672e-003
27761	11.939	1.3636	0.1	-2.8753e-003
27762	12.031	1.2727	0.1	-2.6199e-003
27763	11.939	1.5455	0.1	-3.7552e-003
27764	12.031	1.4545	0.1	-3.6145e-003
27765	11.939	1.7273	0.1	-4.4566e-003
27766	12.031	1.6364	0.1	-4.3992e-003
27767	11.939	1.9091	0.1	-5.004e-003
27768	12.031	1.8182	0.1	-5.0032e-003
27769	11.939	2.0909	0.1	-5.4208e-003
27770	12.031	2.	0.1	-5.4574e-003
27771	11.939	2.2727	0.1	-5.7291e-003
27772	12.031	2.1818	0.1	-5.7887e-003
27773	11.939	2.4545	0.1	-5.9488e-003
27774	12.031	2.3636	0.1	-6.0226e-003
27775	11.939	2.6364	0.1	-6.0949e-003
27776	12.031	2.5455	0.1	-6.18e-003
27777	11.939	2.8182	0.1	-6.1775e-003
27778	12.031	2.7273	0.1	-6.276e-003
27779	11.939	3.	0.1	-6.204e-003
27780	12.031	2.9091	0.1	-6.3203e-003
27781	11.939	3.1818	0.1	-6.1773e-003
27782	12.031	3.0909	0.1	-6.3202e-003
27783	11.939	3.3636	0.1	-6.0948e-003
27784	12.031	3.2727	0.1	-6.2757e-003
27785	11.939	3.5455	0.1	-5.9485e-003
27786	12.031	3.4545	0.1	-6.1803e-003
27787	11.939	3.7273	0.1	-5.7286e-003
27788	12.031	3.6364	0.1	-6.0219e-003
27789	11.939	3.9091	0.1	-5.4205e-003
27790	12.031	3.8182	0.1	-5.7885e-003
27791	11.939	4.0909	0.1	-5.0036e-003
27792	12.031	4.	0.1	-5.4573e-003
27793	11.939	4.2727	0.1	-4.4562e-003
27794	12.031	4.1818	0.1	-5.0027e-003
27795	11.939	4.4545	0.1	-3.7548e-003
27796	12.031	4.3636	0.1	-4.3987e-003
27797	11.939	4.6364	0.1	-2.8748e-003
27798	12.031	4.5455	0.1	-3.614e-003
27799	11.939	4.8182	0.1	-1.7851e-003
27800	12.031	4.7273	0.1	-2.6195e-003
27801	11.939	5.	0.1	-4.8962e-004
27802	12.031	4.9091	0.1	-1.3664e-003
27803	11.939	5.1818	0.1	1.1332e-003
27804	12.031	5.0909	0.1	9.9045e-005
27805	11.939	5.3636	0.1	2.6727e-003
27806	12.031	5.2727	0.1	2.1092e-003
27807	11.939	5.5455	0.1	6.4636e-003
27808	12.031	5.4545	0.1	3.426e-003
27809	11.939	5.7273	0.1	6.1013e-003
27810	12.031	5.6364	0.1	1.0448e-002
27811	12.031	5.8182	0.1	1.0637e-003
27812	11.939	5.9091	0.1	2.7753e-003
27813	12.122	0.27273	0.1	7.1033e-003
27814	12.214	0.18182	0.1	1.0174e-003
27815	12.122	9.0909e-002	0.1	3.0751e-003
27816	12.122	0.45455	0.1	7.4775e-003
27817	12.214	0.36364	0.1	1.2249e-002
27818	12.122	0.63636	0.1	2.8366e-003
27819	12.214	0.54545	0.1	3.6954e-003
27820	12.122	0.81818	0.1	1.052e-003
27821	12.214	0.72727	0.1	2.18e-003
27822	12.122	1.	0.1	-7.9189e-004
27823	12.214	0.90909	0.1	-1.2187e-004
27824	12.122	1.1818	0.1	-2.2071e-003
27825	12.214	1.0909	0.1	-1.7299e-003
27826	12.122	1.3636	0.1	-3.3596e-003
27827	12.214	1.2727	0.1	-3.0687e-003
27828	12.122	1.5455	0.1	-4.2564e-003
27829	12.214	1.4545	0.1	-4.0939e-003
27830	12.122	1.7273	0.1	-4.9433e-003
27831	12.214	1.6364	0.1	-4.8759e-003
27832	12.122	1.9091	0.1	-5.4559e-003
27833	12.214	1.8182	0.1	-5.4532e-003
27834	12.122	2.0909	0.1	-5.8279e-003
27835	12.214	2.	0.1	-5.8682e-003
27836	12.122	2.2727	0.1	-6.0888e-003
27837	12.214	2.1818	0.1	-6.1552e-003
27838	12.122	2.4545	0.1	-6.2646e-003
27839	12.214	2.3636	0.1	-6.3461e-003
27840	12.122	2.6364	0.1	-6.3755e-003
27841	12.214	2.5455	0.1	-6.4674e-003
27842	12.122	2.8182	0.1	-6.4356e-003
27843	12.214	2.7273	0.1	-6.5364e-003
27844	12.122	3.	0.1	-6.4542e-003
27845	12.214	2.9091	0.1	-6.5674e-003
27846	12.122	3.1818	0.1	-6.4354e-003
27847	12.214	3.0909	0.1	-6.5671e-003
27848	12.122	3.3636	0.1	-6.3756e-003
27849	12.214	3.2727	0.1	-6.5366e-003
27850	12.122	3.5455	0.1	-6.2644e-003
27851	12.214	3.4545	0.1	-6.4673e-003
27852	12.122	3.7273	0.1	-6.0884e-003
27853	12.214	3.6364	0.1	-6.3457e-003
27854	12.122	3.9091	0.1	-5.8278e-003
27855	12.214	3.8182	0.1	-6.1549e-003
27856	12.122	4.0909	0.1	-5.4556e-003
27857	12.214	4.	0.1	-5.8681e-003
27858	12.122	4.2727	0.1	-4.9426e-003
27859	12.214	4.1818	0.1	-5.4527e-003
27860	12.122	4.4545	0.1	-4.2556e-003
27861	12.214	4.3636	0.1	-4.8753e-003
27862	12.122	4.6364	0.1	-3.3593e-003
27863	12.214	4.5455	0.1	-4.0937e-003
27864	12.122	4.8182	0.1	-2.2068e-003
27865	12.214	4.7273	0.1	-3.0686e-003
27866	12.122	5.	0.1	-7.9137e-004
27867	12.214	4.9091	0.1	-1.7293e-003
27868	12.122	5.1818	0.1	1.0529e-003
27869	12.214	5.0909	0.1	-1.2105e-004
27870	12.122	5.3636	0.1	2.8378e-003
27871	12.214	5.2727	0.1	2.1814e-003
27872	12.122	5.5455	0.1	7.4783e-003
27873	12.214	5.4545	0.1	3.6957e-003
27874	12.122	5.7273	0.1	7.1038e-003
27875	12.214	5.6364	0.1	1.225e-002
27876	12.214	5.8182	0.1	1.0183e-003
27877	12.122	5.9091	0.1	3.0749e-003
27878	12.306	0.27273	0.1	8.1973e-003
27879	12.398	0.18182	0.1	1.0936e-003
27880	12.306	9.0909e-002	0.1	3.3956e-003
27881	12.306	0.45455	0.1	8.5123e-003
27882	12.398	0.36364	0.1	1.4139e-002
27883	12.306	0.63636	0.1	2.9829e-003
27884	12.398	0.54545	0.1	3.9529e-003
27885	12.306	0.81818	0.1	9.5824e-004
27886	12.398	0.72727	0.1	2.2377e-003
27887	12.306	1.	0.1	-1.0954e-003
27888	12.398	0.90909	0.1	-3.541e-004
27889	12.306	1.1818	0.1	-2.6166e-003
27890	12.398	1.0909	0.1	-2.0944e-003
27891	12.306	1.3636	0.1	-3.8206e-003
27892	12.398	1.2727	0.1	-3.509e-003
27893	12.306	1.5455	0.1	-4.7263e-003
27894	12.398	1.4545	0.1	-4.5582e-003
27895	12.306	1.7273	0.1	-5.396e-003
27896	12.398	1.6364	0.1	-5.331e-003
27897	12.306	1.9091	0.1	-5.8749e-003
27898	12.398	1.8182	0.1	-5.8795e-003
27899	12.306	2.0909	0.1	-6.2054e-003
27900	12.398	2.	0.1	-6.2547e-003
27901	12.306	2.2727	0.1	-6.4235e-003
27902	12.398	2.1818	0.1	-6.4981e-003
27903	12.306	2.4545	0.1	-6.5613e-003
27904	12.398	2.3636	0.1	-6.6485e-003
27905	12.306	2.6364	0.1	-6.642e-003
27906	12.398	2.5455	0.1	-6.7356e-003
27907	12.306	2.8182	0.1	-6.6829e-003
27908	12.398	2.7273	0.1	-6.78e-003
27909	12.306	3.	0.1	-6.6952e-003
27910	12.398	2.9091	0.1	-6.7981e-003
27911	12.306	3.1818	0.1	-6.683e-003
27912	12.398	3.0909	0.1	-6.798e-003
27913	12.306	3.3636	0.1	-6.6421e-003
27914	12.398	3.2727	0.1	-6.7803e-003
27915	12.306	3.5455	0.1	-6.561e-003
27916	12.398	3.4545	0.1	-6.7352e-003
27917	12.306	3.7273	0.1	-6.4232e-003
27918	12.398	3.6364	0.1	-6.6482e-003
27919	12.306	3.9091	0.1	-6.2051e-003
27920	12.398	3.8182	0.1	-6.498e-003
27921	12.306	4.0909	0.1	-5.8748e-003
27922	12.398	4.	0.1	-6.2546e-003
27923	12.306	4.2727	0.1	-5.3957e-003
27924	12.398	4.1818	0.1	-5.8792e-003
27925	12.306	4.4545	0.1	-4.7262e-003
27926	12.398	4.3636	0.1	-5.3307e-003
27927	12.306	4.6364	0.1	-3.8206e-003
27928	12.398	4.5455	0.1	-4.5575e-003
27929	12.306	4.8182	0.1	-2.6162e-003
27930	12.398	4.7273	0.1	-3.5088e-003
27931	12.306	5.	0.1	-1.0944e-003
27932	12.398	4.9091	0.1	-2.0941e-003
27933	12.306	5.1818	0.1	9.5957e-004
27934	12.398	5.0909	0.1	-3.5265e-004
27935	12.306	5.3636	0.1	2.9835e-003
27936	12.398	5.2727	0.1	2.2393e-003
27937	12.306	5.5455	0.1	8.5127e-003
27938	12.398	5.4545	0.1	3.9524e-003
27939	12.306	5.7273	0.1	8.1987e-003
27940	12.398	5.6364	0.1	1.414e-002
27941	12.398	5.8182	0.1	1.0949e-003
27942	12.306	5.9091	0.1	3.3947e-003
27943	12.49	0.27273	0.1	9.4186e-003
27944	12.582	0.18182	0.1	1.3023e-003
27945	12.49	9.0909e-002	0.1	3.7422e-003
27946	12.49	0.45455	0.1	9.5907e-003
27947	12.582	0.36364	0.1	1.6133e-002
27948	12.49	0.63636	0.1	3.1161e-003
27949	12.582	0.54545	0.1	4.1838e-003
27950	12.49	0.81818	0.1	8.5137e-004
27951	12.582	0.72727	0.1	2.2638e-003
27952	12.49	1.	0.1	-1.4081e-003
27953	12.582	0.90909	0.1	-6.2213e-004
27954	12.49	1.1818	0.1	-3.0269e-003
27955	12.582	1.0909	0.1	-2.4899e-003
27956	12.49	1.3636	0.1	-4.2758e-003
27957	12.582	1.2727	0.1	-3.9734e-003
27958	12.49	1.5455	0.1	-5.1846e-003
27959	12.582	1.4545	0.1	-5.0396e-003
27960	12.49	1.7273	0.1	-5.8315e-003
27961	12.582	1.6364	0.1	-5.7974e-003
27962	12.49	1.9091	0.1	-6.2735e-003
27963	12.582	1.8182	0.1	-6.3116e-003
27964	12.49	2.0909	0.1	-6.5602e-003
27965	12.582	2.	0.1	-6.6427e-003
27966	12.49	2.2727	0.1	-6.7353e-003
27967	12.582	2.1818	0.1	-6.8397e-003
27968	12.49	2.4545	0.1	-6.835e-003
27969	12.582	2.3636	0.1	-6.9463e-003
27970	12.49	2.6364	0.1	-6.886e-003
27971	12.582	2.5455	0.1	-6.9975e-003
27972	12.49	2.8182	0.1	-6.908e-003
27973	12.582	2.7273	0.1	-7.0165e-003
27974	12.49	3.	0.1	-6.9137e-003
27975	12.582	2.9091	0.1	-7.0216e-003
27976	12.49	3.1818	0.1	-6.908e-003
27977	12.582	3.0909	0.1	-7.0215e-003
27978	12.49	3.3636	0.1	-6.8858e-003
27979	12.582	3.2727	0.1	-7.0167e-003
27980	12.49	3.5455	0.1	-6.8346e-003
27981	12.582	3.4545	0.1	-6.9972e-003
27982	12.49	3.7273	0.1	-6.7353e-003
27983	12.582	3.6364	0.1	-6.9462e-003
27984	12.49	3.9091	0.1	-6.5602e-003
27985	12.582	3.8182	0.1	-6.8393e-003
27986	12.49	4.0909	0.1	-6.2732e-003
27987	12.582	4.	0.1	-6.6425e-003
27988	12.49	4.2727	0.1	-5.8312e-003
27989	12.582	4.1818	0.1	-6.3112e-003
27990	12.49	4.4545	0.1	-5.1838e-003
27991	12.582	4.3636	0.1	-5.7969e-003
27992	12.49	4.6364	0.1	-4.2749e-003
27993	12.582	4.5455	0.1	-5.0389e-003
27994	12.49	4.8182	0.1	-3.0267e-003
27995	12.582	4.7273	0.1	-3.9731e-003
27996	12.49	5.	0.1	-1.4072e-003
27997	12.582	4.9091	0.1	-2.4896e-003
27998	12.49	5.1818	0.1	8.5301e-004
27999	12.582	5.0909	0.1	-6.2085e-004
28000	12.49	5.3636	0.1	3.1165e-003
28001	12.582	5.2727	0.1	2.2654e-003
28002	12.49	5.5455	0.1	9.5905e-003
28003	12.582	5.4545	0.1	4.1832e-003
28004	12.49	5.7273	0.1	9.4195e-003
28005	12.582	5.6364	0.1	1.6134e-002
28006	12.582	5.8182	0.1	1.3031e-003
28007	12.49	5.9091	0.1	3.7431e-003
28008	12.673	0.27273	0.1	1.0759e-002
28009	12.765	0.18182	0.1	1.656e-003
28010	12.673	9.0909e-002	0.1	4.0907e-003
28011	12.673	0.45455	0.1	1.0691e-002
28012	12.765	0.36364	0.1	1.8247e-002
28013	12.673	0.63636	0.1	3.1994e-003
28014	12.765	0.54545	0.1	4.3718e-003
28015	12.673	0.81818	0.1	6.8931e-004
28016	12.765	0.72727	0.1	2.2375e-003
28017	12.673	1.	0.1	-1.7771e-003
28018	12.765	0.90909	0.1	-9.5316e-004
28019	12.673	1.1818	0.1	-3.489e-003
28020	12.765	1.0909	0.1	-2.9453e-003
28021	12.673	1.3636	0.1	-4.775e-003
28022	12.765	1.2727	0.1	-4.4923e-003
28023	12.673	1.5455	0.1	-5.68e-003
28024	12.765	1.4545	0.1	-5.567e-003
28025	12.673	1.7273	0.1	-6.2983e-003
28026	12.765	1.6364	0.1	-6.3027e-003
28027	12.673	1.9091	0.1	-6.6971e-003
28028	12.765	1.8182	0.1	-6.7747e-003
28029	12.673	2.0909	0.1	-6.9357e-003
28030	12.765	2.	0.1	-7.0546e-003
28031	12.673	2.2727	0.1	-7.0627e-003
28032	12.765	2.1818	0.1	-7.1989e-003
28033	12.673	2.4545	0.1	-7.12e-003
28034	12.765	2.3636	0.1	-7.2568e-003
28035	12.673	2.6364	0.1	-7.1388e-003
28036	12.765	2.5455	0.1	-7.2683e-003
28037	12.673	2.8182	0.1	-7.1409e-003
28038	12.765	2.7273	0.1	-7.2592e-003
28039	12.673	3.	0.1	-7.1402e-003
28040	12.765	2.9091	0.1	-7.2501e-003
28041	12.673	3.1818	0.1	-7.141e-003
28042	12.765	3.0909	0.1	-7.2497e-003
28043	12.673	3.3636	0.1	-7.139e-003
28044	12.765	3.2727	0.1	-7.2594e-003
28045	12.673	3.5455	0.1	-7.1199e-003
28046	12.765	3.4545	0.1	-7.2682e-003
28047	12.673	3.7273	0.1	-7.0622e-003
28048	12.765	3.6364	0.1	-7.2566e-003
28049	12.673	3.9091	0.1	-6.9351e-003
28050	12.765	3.8182	0.1	-7.1986e-003
28051	12.673	4.0909	0.1	-6.6968e-003
28052	12.765	4.	0.1	-7.0544e-003
28053	12.673	4.2727	0.1	-6.2976e-003
28054	12.765	4.1818	0.1	-6.7743e-003
28055	12.673	4.4545	0.1	-5.6795e-003
28056	12.765	4.3636	0.1	-6.3021e-003
28057	12.673	4.6364	0.1	-4.7748e-003
28058	12.765	4.5455	0.1	-5.5668e-003
28059	12.673	4.8182	0.1	-3.4885e-003
28060	12.765	4.7273	0.1	-4.4918e-003
28061	12.673	5.	0.1	-1.7764e-003
28062	12.765	4.9091	0.1	-2.9449e-003
28063	12.673	5.1818	0.1	6.9055e-004
28064	12.765	5.0909	0.1	-9.5182e-004
28065	12.673	5.3636	0.1	3.2e-003
28066	12.765	5.2727	0.1	2.2389e-003
28067	12.673	5.5455	0.1	1.0691e-002
28068	12.765	5.4545	0.1	4.3714e-003
28069	12.673	5.7273	0.1	1.0759e-002
28070	12.765	5.6364	0.1	1.8248e-002
28071	12.765	5.8182	0.1	1.6569e-003
28072	12.673	5.9091	0.1	4.0907e-003
28073	12.857	0.27273	0.1	1.2252e-002
28074	12.949	0.18182	0.1	2.1943e-003
28075	12.857	9.0909e-002	0.1	4.4411e-003
28076	12.857	0.45455	0.1	1.1832e-002
28077	12.949	0.36364	0.1	2.0516e-002
28078	12.857	0.63636	0.1	3.2319e-003
28079	12.949	0.54545	0.1	4.5129e-003
28080	12.857	0.81818	0.1	4.6561e-004
28081	12.949	0.72727	0.1	2.1511e-003
28082	12.857	1.	0.1	-2.2123e-003
28083	12.949	0.90909	0.1	-1.3585e-003
28084	12.857	1.1818	0.1	-4.0124e-003
28085	12.949	1.0909	0.1	-3.4725e-003
28086	12.857	1.3636	0.1	-5.3291e-003
28087	12.949	1.2727	0.1	-5.0775e-003
28088	12.857	1.5455	0.1	-6.2215e-003
28089	12.949	1.4545	0.1	-6.1523e-003
28090	12.857	1.7273	0.1	-6.802e-003
28091	12.949	1.6364	0.1	-6.8557e-003
28092	12.857	1.9091	0.1	-7.1492e-003
28093	12.949	1.8182	0.1	-7.2754e-003
28094	12.857	2.0909	0.1	-7.3309e-003
28095	12.949	2.	0.1	-7.4947e-003
28096	12.857	2.2727	0.1	-7.4039e-003
28097	12.949	2.1818	0.1	-7.5777e-003
28098	12.857	2.4545	0.1	-7.4148e-003
28099	12.949	2.3636	0.1	-7.581e-003
28100	12.857	2.6364	0.1	-7.3977e-003
28101	12.949	2.5455	0.1	-7.5475e-003
28102	12.857	2.8182	0.1	-7.3772e-003
28103	12.949	2.7273	0.1	-7.5073e-003
28104	12.857	3.	0.1	-7.3684e-003
28105	12.949	2.9091	0.1	-7.4816e-003
28106	12.857	3.1818	0.1	-7.3768e-003
28107	12.949	3.0909	0.1	-7.4816e-003
28108	12.857	3.3636	0.1	-7.3977e-003
28109	12.949	3.2727	0.1	-7.5071e-003
28110	12.857	3.5455	0.1	-7.4146e-003
28111	12.949	3.4545	0.1	-7.5476e-003
28112	12.857	3.7273	0.1	-7.4039e-003
28113	12.949	3.6364	0.1	-7.5809e-003
28114	12.857	3.9091	0.1	-7.3311e-003
28115	12.949	3.8182	0.1	-7.5775e-003
28116	12.857	4.0909	0.1	-7.1488e-003
28117	12.949	4.	0.1	-7.4945e-003
28118	12.857	4.2727	0.1	-6.8016e-003
28119	12.949	4.1818	0.1	-7.2752e-003
28120	12.857	4.4545	0.1	-6.2211e-003
28121	12.949	4.3636	0.1	-6.8553e-003
28122	12.857	4.6364	0.1	-5.3286e-003
28123	12.949	4.5455	0.1	-6.1517e-003
28124	12.857	4.8182	0.1	-4.012e-003
28125	12.949	4.7273	0.1	-5.077e-003
28126	12.857	5.	0.1	-2.2113e-003
28127	12.949	4.9091	0.1	-3.4725e-003
28128	12.857	5.1818	0.1	4.6709e-004
28129	12.949	5.0909	0.1	-1.357e-003
28130	12.857	5.3636	0.1	3.2322e-003
28131	12.949	5.2727	0.1	2.1526e-003
28132	12.857	5.5455	0.1	1.1832e-002
28133	12.949	5.4545	0.1	4.5128e-003
28134	12.857	5.7273	0.1	1.2253e-002
28135	12.949	5.6364	0.1	2.0516e-002
28136	12.949	5.8182	0.1	2.1951e-003
28137	12.857	5.9091	0.1	4.4421e-003
28138	13.041	0.27273	0.1	1.3936e-002
28139	13.133	0.18182	0.1	2.9607e-003
28140	13.041	9.0909e-002	0.1	4.7945e-003
28141	13.041	0.45455	0.1	1.3024e-002
28142	13.133	0.36364	0.1	2.2971e-002
28143	13.041	0.63636	0.1	3.2016e-003
28144	13.133	0.54545	0.1	4.5931e-003
28145	13.041	0.81818	0.1	1.671e-004
28146	13.133	0.72727	0.1	1.9893e-003
28147	13.041	1.	0.1	-2.7276e-003
28148	13.133	0.90909	0.1	-1.8578e-003
28149	13.041	1.1818	0.1	-4.6118e-003
28150	13.133	1.0909	0.1	-4.0918e-003
28151	13.041	1.3636	0.1	-5.9514e-003
28152	13.133	1.2727	0.1	-5.7475e-003
28153	13.041	1.5455	0.1	-6.8211e-003
28154	13.133	1.4545	0.1	-6.8118e-003
28155	13.041	1.7273	0.1	-7.3528e-003
28156	13.133	1.6364	0.1	-7.471e-003
28157	13.041	1.9091	0.1	-7.6375e-003
28158	13.133	1.8182	0.1	-7.8261e-003
28159	13.041	2.0909	0.1	-7.7534e-003
28160	13.133	2.	0.1	-7.9734e-003
28161	13.041	2.2727	0.1	-7.764e-003
28162	13.133	2.1818	0.1	-7.9858e-003
28163	13.041	2.4545	0.1	-7.7215e-003
28164	13.133	2.3636	0.1	-7.926e-003
28165	13.041	2.6364	0.1	-7.6641e-003
28166	13.133	2.5455	0.1	-7.8424e-003
28167	13.041	2.8182	0.1	-7.6184e-003
28168	13.133	2.7273	0.1	-7.7672e-003
28169	13.041	3.	0.1	-7.6015e-003
28170	13.133	2.9091	0.1	-7.7236e-003
28171	13.041	3.1818	0.1	-7.6186e-003
28172	13.133	3.0909	0.1	-7.7238e-003
28173	13.041	3.3636	0.1	-7.6639e-003
28174	13.133	3.2727	0.1	-7.767e-003
28175	13.041	3.5455	0.1	-7.7216e-003
28176	13.133	3.4545	0.1	-7.8423e-003
28177	13.041	3.7273	0.1	-7.7637e-003
28178	13.133	3.6364	0.1	-7.9261e-003
28179	13.041	3.9091	0.1	-7.7529e-003
28180	13.133	3.8182	0.1	-7.9855e-003
28181	13.041	4.0909	0.1	-7.6374e-003
28182	13.133	4.	0.1	-7.9731e-003
28183	13.041	4.2727	0.1	-7.3527e-003
28184	13.133	4.1818	0.1	-7.8261e-003
28185	13.041	4.4545	0.1	-6.8205e-003
28186	13.133	4.3636	0.1	-7.4702e-003
28187	13.041	4.6364	0.1	-5.9508e-003
28188	13.133	4.5455	0.1	-6.8112e-003
28189	13.041	4.8182	0.1	-4.6118e-003
28190	13.133	4.7273	0.1	-5.7472e-003
28191	13.041	5.	0.1	-2.7271e-003
28192	13.133	4.9091	0.1	-4.0917e-003
28193	13.041	5.1818	0.1	1.6862e-004
28194	13.133	5.0909	0.1	-1.8561e-003
28195	13.041	5.3636	0.1	3.2026e-003
28196	13.133	5.2727	0.1	1.9908e-003
28197	13.041	5.5455	0.1	1.3024e-002
28198	13.133	5.4545	0.1	4.5931e-003
28199	13.041	5.7273	0.1	1.3936e-002
28200	13.133	5.6364	0.1	2.2971e-002
28201	13.133	5.8182	0.1	2.961e-003
28202	13.041	5.9091	0.1	4.7947e-003
28203	13.224	0.27273	0.1	1.5838e-002
28204	13.316	0.18182	0.1	4.0105e-003
28205	13.224	9.0909e-002	0.1	5.1386e-003
28206	13.224	0.45455	0.1	1.4269e-002
28207	13.316	0.36364	0.1	2.5642e-002
28208	13.224	0.63636	0.1	3.09e-003
28209	13.316	0.54545	0.1	4.5925e-003
28210	13.224	0.81818	0.1	-2.2858e-004
28211	13.316	0.72727	0.1	1.7314e-003
28212	13.224	1.	0.1	-3.3494e-003
28213	13.316	0.90909	0.1	-2.4747e-003
28214	13.224	1.1818	0.1	-5.312e-003
28215	13.316	1.0909	0.1	-4.8257e-003
28216	13.224	1.3636	0.1	-6.6638e-003
28217	13.316	1.2727	0.1	-6.5236e-003
28218	13.224	1.5455	0.1	-7.4983e-003
28219	13.316	1.4545	0.1	-7.5643e-003
28220	13.224	1.7273	0.1	-7.9681e-003
28221	13.316	1.6364	0.1	-8.1643e-003
28222	13.224	1.9091	0.1	-8.1774e-003
28223	13.316	1.8182	0.1	-8.4409e-003
28224	13.224	2.0909	0.1	-8.2158e-003
28225	13.316	2.	0.1	-8.5029e-003
28226	13.224	2.2727	0.1	-8.1547e-003
28227	13.316	2.1818	0.1	-8.434e-003
28228	13.224	2.4545	0.1	-8.0522e-003
28229	13.316	2.3636	0.1	-8.3031e-003
28230	13.224	2.6364	0.1	-7.9501e-003
28231	13.316	2.5455	0.1	-8.1635e-003
28232	13.224	2.8182	0.1	-7.8769e-003
28233	13.316	2.7273	0.1	-8.05e-003
28234	13.224	3.	0.1	-7.8505e-003
28235	13.316	2.9091	0.1	-7.9876e-003
28236	13.224	3.1818	0.1	-7.8768e-003
28237	13.316	3.0909	0.1	-7.9874e-003
28238	13.224	3.3636	0.1	-7.9501e-003
28239	13.316	3.2727	0.1	-8.0502e-003
28240	13.224	3.5455	0.1	-8.0521e-003
28241	13.316	3.4545	0.1	-8.1638e-003
28242	13.224	3.7273	0.1	-8.1547e-003
28243	13.316	3.6364	0.1	-8.3033e-003
28244	13.224	3.9091	0.1	-8.2156e-003
28245	13.316	3.8182	0.1	-8.4338e-003
28246	13.224	4.0909	0.1	-8.1771e-003
28247	13.316	4.	0.1	-8.5028e-003
28248	13.224	4.2727	0.1	-7.9673e-003
28249	13.316	4.1818	0.1	-8.4405e-003
28250	13.224	4.4545	0.1	-7.4975e-003
28251	13.316	4.3636	0.1	-8.1634e-003
28252	13.224	4.6364	0.1	-6.6634e-003
28253	13.316	4.5455	0.1	-7.5636e-003
28254	13.224	4.8182	0.1	-5.3116e-003
28255	13.316	4.7273	0.1	-6.5232e-003
28256	13.224	5.	0.1	-3.3481e-003
28257	13.316	4.9091	0.1	-4.8254e-003
28258	13.224	5.1818	0.1	-2.2684e-004
28259	13.316	5.0909	0.1	-2.4728e-003
28260	13.224	5.3636	0.1	3.0906e-003
28261	13.316	5.2727	0.1	1.7326e-003
28262	13.224	5.5455	0.1	1.4269e-002
28263	13.316	5.4545	0.1	4.5925e-003
28264	13.224	5.7273	0.1	1.5838e-002
28265	13.316	5.6364	0.1	2.5642e-002
28266	13.316	5.8182	0.1	4.011e-003
28267	13.224	5.9091	0.1	5.139e-003
28268	13.408	0.27273	0.1	1.8002e-002
28269	13.5	0.18182	0.1	5.4411e-003
28270	13.408	9.0909e-002	0.1	5.4652e-003
28271	13.408	0.45455	0.1	1.5572e-002
28272	13.5	0.36364	0.1	2.8588e-002
28273	13.408	0.63636	0.1	2.8738e-003
28274	13.5	0.54545	0.1	4.5089e-003
28275	13.408	0.81818	0.1	-7.4406e-004
28276	13.5	0.72727	0.1	1.3764e-003
28277	13.408	1.	0.1	-4.098e-003
28278	13.5	0.90909	0.1	-3.2113e-003
28279	13.408	1.1818	0.1	-6.132e-003
28280	13.5	1.0909	0.1	-5.6746e-003
28281	13.408	1.3636	0.1	-7.4847e-003
28282	13.5	1.2727	0.1	-7.4036e-003
28283	13.408	1.5455	0.1	-8.2682e-003
28284	13.5	1.4545	0.1	-8.4047e-003
28285	13.408	1.7273	0.1	-8.66e-003
28286	13.5	1.6364	0.1	-8.9274e-003
28287	13.408	1.9091	0.1	-8.7795e-003
28288	13.5	1.8182	0.1	-9.1087e-003
28289	13.408	2.0909	0.1	-8.7282e-003
28290	13.5	2.	0.1	-9.0715e-003
28291	13.408	2.2727	0.1	-8.5864e-003
28292	13.5	2.1818	0.1	-8.9102e-003
28293	13.408	2.4545	0.1	-8.417e-003
28294	13.5	2.3636	0.1	-8.7011e-003
28295	13.408	2.6364	0.1	-8.2656e-003
28296	13.5	2.5455	0.1	-8.5008e-003
28297	13.408	2.8182	0.1	-8.1631e-003
28298	13.5	2.7273	0.1	-8.3469e-003
28299	13.408	3.	0.1	-8.1271e-003
28300	13.5	2.9091	0.1	-8.2642e-003
28301	13.408	3.1818	0.1	-8.1632e-003
28302	13.5	3.0909	0.1	-8.2644e-003
28303	13.408	3.3636	0.1	-8.2662e-003
28304	13.5	3.2727	0.1	-8.3471e-003
28305	13.408	3.5455	0.1	-8.4175e-003
28306	13.5	3.4545	0.1	-8.5009e-003
28307	13.408	3.7273	0.1	-8.5862e-003
28308	13.5	3.6364	0.1	-8.7006e-003
28309	13.408	3.9091	0.1	-8.728e-003
28310	13.5	3.8182	0.1	-8.9098e-003
28311	13.408	4.0909	0.1	-8.7792e-003
28312	13.5	4.	0.1	-9.0713e-003
28313	13.408	4.2727	0.1	-8.6593e-003
28314	13.5	4.1818	0.1	-9.1086e-003
28315	13.408	4.4545	0.1	-8.2674e-003
28316	13.5	4.3636	0.1	-8.9269e-003
28317	13.408	4.6364	0.1	-7.484e-003
28318	13.5	4.5455	0.1	-8.4039e-003
28319	13.408	4.8182	0.1	-6.1318e-003
28320	13.5	4.7273	0.1	-7.4031e-003
28321	13.408	5.	0.1	-4.0972e-003
28322	13.5	4.9091	0.1	-5.6745e-003
28323	13.408	5.1818	0.1	-7.4275e-004
28324	13.5	5.0909	0.1	-3.2098e-003
28325	13.408	5.3636	0.1	2.8744e-003
28326	13.5	5.2727	0.1	1.3776e-003
28327	13.408	5.5455	0.1	1.5571e-002
28328	13.5	5.4545	0.1	4.5098e-003
28329	13.408	5.7273	0.1	1.8002e-002
28330	13.5	5.6364	0.1	2.8588e-002
28331	13.5	5.8182	0.1	5.442e-003
28332	13.408	5.9091	0.1	5.4667e-003
28333	13.592	0.27273	0.1	2.0515e-002
28334	13.684	0.18182	0.1	7.3775e-003
28335	13.592	9.0909e-002	0.1	5.8084e-003
28336	13.592	0.45455	0.1	1.6976e-002
28337	13.684	0.36364	0.1	3.1872e-002
28338	13.592	0.63636	0.1	2.571e-003
28339	13.684	0.54545	0.1	4.3428e-003
28340	13.592	0.81818	0.1	-1.3608e-003
28341	13.684	0.72727	0.1	9.2538e-004
28342	13.592	1.	0.1	-4.956e-003
28343	13.684	0.90909	0.1	-4.0681e-003
28344	13.592	1.1818	0.1	-7.0514e-003
28345	13.684	1.0909	0.1	-6.635e-003
28346	13.592	1.3636	0.1	-8.3885e-003
28347	13.684	1.2727	0.1	-8.3802e-003
28348	13.592	1.5455	0.1	-9.1022e-003
28349	13.684	1.4545	0.1	-9.3209e-003
28350	13.592	1.7273	0.1	-9.3971e-003
28351	13.684	1.6364	0.1	-9.7464e-003
28352	13.592	1.9091	0.1	-9.4105e-003
28353	13.684	1.8182	0.1	-9.813e-003
28354	13.592	2.0909	0.1	-9.2568e-003
28355	13.684	2.	0.1	-9.6609e-003
28356	13.592	2.2727	0.1	-9.0252e-003
28357	13.684	2.1818	0.1	-9.3966e-003
28358	13.592	2.4545	0.1	-8.7844e-003
28359	13.684	2.3636	0.1	-9.1034e-003
28360	13.592	2.6364	0.1	-8.582e-003
28361	13.684	2.5455	0.1	-8.8412e-003
28362	13.592	2.8182	0.1	-8.4487e-003
28363	13.684	2.7273	0.1	-8.6471e-003
28364	13.592	3.	0.1	-8.4025e-003
28365	13.684	2.9091	0.1	-8.5447e-003
28366	13.592	3.1818	0.1	-8.4489e-003
28367	13.684	3.0909	0.1	-8.5449e-003
28368	13.592	3.3636	0.1	-8.5816e-003
28369	13.684	3.2727	0.1	-8.6472e-003
28370	13.592	3.5455	0.1	-8.7835e-003
28371	13.684	3.4545	0.1	-8.8408e-003
28372	13.592	3.7273	0.1	-9.0245e-003
28373	13.684	3.6364	0.1	-9.103e-003
28374	13.592	3.9091	0.1	-9.2564e-003
28375	13.684	3.8182	0.1	-9.3964e-003
28376	13.592	4.0909	0.1	-9.4105e-003
28377	13.684	4.	0.1	-9.6608e-003
28378	13.592	4.2727	0.1	-9.397e-003
28379	13.684	4.1818	0.1	-9.8129e-003
28380	13.592	4.4545	0.1	-9.1017e-003
28381	13.684	4.3636	0.1	-9.7459e-003
28382	13.592	4.6364	0.1	-8.3879e-003
28383	13.684	4.5455	0.1	-9.3203e-003
28384	13.592	4.8182	0.1	-7.051e-003
28385	13.684	4.7273	0.1	-8.3801e-003
28386	13.592	5.	0.1	-4.9552e-003
28387	13.684	4.9091	0.1	-6.6348e-003
28388	13.592	5.1818	0.1	-1.3595e-003
28389	13.684	5.0909	0.1	-4.0666e-003
28390	13.592	5.3636	0.1	2.5725e-003
28391	13.684	5.2727	0.1	9.2675e-004
28392	13.592	5.5455	0.1	1.6977e-002
28393	13.684	5.4545	0.1	4.3429e-003
28394	13.592	5.7273	0.1	2.0516e-002
28395	13.684	5.6364	0.1	3.1873e-002
28396	13.684	5.8182	0.1	7.3784e-003
28397	13.592	5.9091	0.1	5.8091e-003
28398	13.776	0.27273	0.1	2.3442e-002
28399	13.867	0.18182	0.1	9.9404e-003
28400	13.776	9.0909e-002	0.1	6.1645e-003
28401	13.776	0.45455	0.1	1.8497e-002
28402	13.867	0.36364	0.1	3.5532e-002
28403	13.776	0.63636	0.1	2.1634e-003
28404	13.867	0.54545	0.1	4.0551e-003
28405	13.776	0.81818	0.1	-2.0974e-003
28406	13.867	0.72727	0.1	3.4592e-004
28407	13.776	1.	0.1	-5.9382e-003
28408	13.867	0.90909	0.1	-5.0776e-003
28409	13.776	1.1818	0.1	-8.08e-003
28410	13.867	1.0909	0.1	-7.7339e-003
28411	13.776	1.3636	0.1	-9.3815e-003
28412	13.867	1.2727	0.1	-9.4756e-003
28413	13.776	1.5455	0.1	-1.0003e-002
28414	13.867	1.4545	0.1	-1.0331e-002
28415	13.776	1.7273	0.1	-1.018e-002
28416	13.867	1.6364	0.1	-1.0634e-002
28417	13.776	1.9091	0.1	-1.0069e-002
28418	13.867	1.8182	0.1	-1.0564e-002
28419	13.776	2.0909	0.1	-9.7991e-003
28420	13.867	2.	0.1	-1.0282e-002
28421	13.776	2.2727	0.1	-9.4705e-003
28422	13.867	2.1818	0.1	-9.9056e-003
28423	13.776	2.4545	0.1	-9.1562e-003
28424	13.867	2.3636	0.1	-9.5265e-003
28425	13.776	2.6364	0.1	-8.904e-003
28426	13.867	2.5455	0.1	-9.2044e-003
28427	13.776	2.8182	0.1	-8.7426e-003
28428	13.867	2.7273	0.1	-8.9748e-003
28429	13.776	3.	0.1	-8.6873e-003
28430	13.867	2.9091	0.1	-8.8561e-003
28431	13.776	3.1818	0.1	-8.7428e-003
28432	13.867	3.0909	0.1	-8.856e-003
28433	13.776	3.3636	0.1	-8.9042e-003
28434	13.867	3.2727	0.1	-8.9748e-003
28435	13.776	3.5455	0.1	-9.1564e-003
28436	13.867	3.4545	0.1	-9.2043e-003
28437	13.776	3.7273	0.1	-9.4707e-003
28438	13.867	3.6364	0.1	-9.5259e-003
28439	13.776	3.9091	0.1	-9.7992e-003
28440	13.867	3.8182	0.1	-9.9058e-003
28441	13.776	4.0909	0.1	-1.0068e-002
28442	13.867	4.	0.1	-1.0282e-002
28443	13.776	4.2727	0.1	-1.0179e-002
28444	13.867	4.1818	0.1	-1.0564e-002
28445	13.776	4.4545	0.1	-1.0002e-002
28446	13.867	4.3636	0.1	-1.0634e-002
28447	13.776	4.6364	0.1	-9.3813e-003
28448	13.867	4.5455	0.1	-1.033e-002
28449	13.776	4.8182	0.1	-8.0801e-003
28450	13.867	4.7273	0.1	-9.4752e-003
28451	13.776	5.	0.1	-5.9373e-003
28452	13.867	4.9091	0.1	-7.7341e-003
28453	13.776	5.1818	0.1	-2.0959e-003
28454	13.867	5.0909	0.1	-5.0759e-003
28455	13.776	5.3636	0.1	2.1633e-003
28456	13.867	5.2727	0.1	3.4755e-004
28457	13.776	5.5455	0.1	1.8496e-002
28458	13.867	5.4545	0.1	4.0544e-003
28459	13.776	5.7273	0.1	2.3443e-002
28460	13.867	5.6364	0.1	3.5532e-002
28461	13.867	5.8182	0.1	9.9415e-003
28462	13.776	5.9091	0.1	6.1647e-003
28463	13.959	0.27273	0.1	2.682e-002
28464	14.051	0.18182	0.1	1.3288e-002
28465	13.959	9.0909e-002	0.1	6.5034e-003
28466	13.959	0.45455	0.1	2.0107e-002
28467	14.051	0.36364	0.1	3.9608e-002
28468	13.959	0.63636	0.1	1.595e-003
28469	14.051	0.54545	0.1	3.6055e-003
28470	13.959	0.81818	0.1	-3.0012e-003
28471	14.051	0.72727	0.1	-3.9047e-004
28472	13.959	1.	0.1	-7.0899e-003
28473	14.051	0.90909	0.1	-6.2658e-003
28474	13.959	1.1818	0.1	-9.2574e-003
28475	14.051	1.0909	0.1	-8.9911e-003
28476	13.959	1.3636	0.1	-1.0497e-002
28477	14.051	1.2727	0.1	-1.0701e-002
28478	13.959	1.5455	0.1	-1.0998e-002
28479	14.051	1.4545	0.1	-1.1439e-002
28480	13.959	1.7273	0.1	-1.1032e-002
28481	14.051	1.6364	0.1	-1.1591e-002
28482	13.959	1.9091	0.1	-1.0777e-002
28483	14.051	1.8182	0.1	-1.1361e-002
28484	13.959	2.0909	0.1	-1.0381e-002
28485	14.051	2.	0.1	-1.0933e-002
28486	13.959	2.2727	0.1	-9.9519e-003
28487	14.051	2.1818	0.1	-1.044e-002
28488	13.959	2.4545	0.1	-9.5671e-003
28489	14.051	2.3636	0.1	-9.9787e-003
28490	13.959	2.6364	0.1	-9.2553e-003
28491	14.051	2.5455	0.1	-9.6073e-003
28492	13.959	2.8182	0.1	-9.088e-003
28493	14.051	2.7273	0.1	-9.3533e-003
28494	13.959	3.	0.1	-9.0259e-003
28495	14.051	2.9091	0.1	-9.2255e-003
28496	13.959	3.1818	0.1	-9.0877e-003
28497	14.051	3.0909	0.1	-9.2256e-003
28498	13.959	3.3636	0.1	-9.2553e-003
28499	14.051	3.2727	0.1	-9.3533e-003
28500	13.959	3.5455	0.1	-9.5662e-003
28501	14.051	3.4545	0.1	-9.6069e-003
28502	13.959	3.7273	0.1	-9.9514e-003
28503	14.051	3.6364	0.1	-9.9782e-003
28504	13.959	3.9091	0.1	-1.038e-002
28505	14.051	3.8182	0.1	-1.044e-002
28506	13.959	4.0909	0.1	-1.0776e-002
28507	14.051	4.	0.1	-1.0933e-002
28508	13.959	4.2727	0.1	-1.1031e-002
28509	14.051	4.1818	0.1	-1.1361e-002
28510	13.959	4.4545	0.1	-1.0997e-002
28511	14.051	4.3636	0.1	-1.159e-002
28512	13.959	4.6364	0.1	-1.0496e-002
28513	14.051	4.5455	0.1	-1.1439e-002
28514	13.959	4.8182	0.1	-9.2572e-003
28515	14.051	4.7273	0.1	-1.0701e-002
28516	13.959	5.	0.1	-7.0893e-003
28517	14.051	4.9091	0.1	-8.9915e-003
28518	13.959	5.1818	0.1	-2.9995e-003
28519	14.051	5.0909	0.1	-6.2641e-003
28520	13.959	5.3636	0.1	1.5961e-003
28521	14.051	5.2727	0.1	-3.893e-004
28522	13.959	5.5455	0.1	2.0108e-002
28523	14.051	5.4545	0.1	3.6058e-003
28524	13.959	5.7273	0.1	2.6821e-002
28525	14.051	5.6364	0.1	3.9608e-002
28526	14.051	5.8182	0.1	1.3289e-002
28527	13.959	5.9091	0.1	6.5036e-003
28528	14.143	0.27273	0.1	3.0733e-002
28529	14.235	0.18182	0.1	1.7635e-002
28530	14.143	9.0909e-002	0.1	6.8339e-003
28531	14.143	0.45455	0.1	2.1826e-002
28532	14.235	0.36364	0.1	4.4165e-002
28533	14.143	0.63636	0.1	8.5075e-004
28534	14.235	0.54545	0.1	2.9748e-003
28535	14.143	0.81818	0.1	-4.0807e-003
28536	14.235	0.72727	0.1	-1.2921e-003
28537	14.143	1.	0.1	-8.4122e-003
28538	14.235	0.90909	0.1	-7.6343e-003
28539	14.143	1.1818	0.1	-1.0576e-002
28540	14.235	1.0909	0.1	-1.0398e-002
28541	14.143	1.3636	0.1	-1.172e-002
28542	14.235	1.2727	0.1	-1.2041e-002
28543	14.143	1.5455	0.1	-1.2066e-002
28544	14.235	1.4545	0.1	-1.2622e-002
28545	14.143	1.7273	0.1	-1.1928e-002
28546	14.235	1.6364	0.1	-1.2586e-002
28547	14.143	1.9091	0.1	-1.1509e-002
28548	14.235	1.8182	0.1	-1.2169e-002
28549	14.143	2.0909	0.1	-1.0977e-002
28550	14.235	2.	0.1	-1.1582e-002
28551	14.143	2.2727	0.1	-1.0451e-002
28552	14.235	2.1818	0.1	-1.0973e-002
28553	14.143	2.4545	0.1	-1.0008e-002
28554	14.235	2.3636	0.1	-1.0443e-002
28555	14.143	2.6364	0.1	-9.6853e-003
28556	14.235	2.5455	0.1	-1.0045e-002
28557	14.143	2.8182	0.1	-9.493e-003
28558	14.235	2.7273	0.1	-9.7889e-003
28559	14.143	3.	0.1	-9.4298e-003
28560	14.235	2.9091	0.1	-9.6657e-003
28561	14.143	3.1818	0.1	-9.4933e-003
28562	14.235	3.0909	0.1	-9.666e-003
28563	14.143	3.3636	0.1	-9.6851e-003
28564	14.235	3.2727	0.1	-9.7889e-003
28565	14.143	3.5455	0.1	-1.0008e-002
28566	14.235	3.4545	0.1	-1.0045e-002
28567	14.143	3.7273	0.1	-1.0451e-002
28568	14.235	3.6364	0.1	-1.0443e-002
28569	14.143	3.9091	0.1	-1.0977e-002
28570	14.235	3.8182	0.1	-1.0973e-002
28571	14.143	4.0909	0.1	-1.1509e-002
28572	14.235	4.	0.1	-1.1582e-002
28573	14.143	4.2727	0.1	-1.1927e-002
28574	14.235	4.1818	0.1	-1.2169e-002
28575	14.143	4.4545	0.1	-1.2066e-002
28576	14.235	4.3636	0.1	-1.2586e-002
28577	14.143	4.6364	0.1	-1.172e-002
28578	14.235	4.5455	0.1	-1.2622e-002
28579	14.143	4.8182	0.1	-1.0576e-002
28580	14.235	4.7273	0.1	-1.204e-002
28581	14.143	5.	0.1	-8.4114e-003
28582	14.235	4.9091	0.1	-1.0398e-002
28583	14.143	5.1818	0.1	-4.0795e-003
28584	14.235	5.0909	0.1	-7.6326e-003
28585	14.143	5.3636	0.1	8.5116e-004
28586	14.235	5.2727	0.1	-1.291e-003
28587	14.143	5.5455	0.1	2.1826e-002
28588	14.235	5.4545	0.1	2.9747e-003
28589	14.143	5.7273	0.1	3.0733e-002
28590	14.235	5.6364	0.1	4.4165e-002
28591	14.235	5.8182	0.1	1.7636e-002
28592	14.143	5.9091	0.1	6.8348e-003
28593	14.327	0.27273	0.1	3.5261e-002
28594	14.418	0.18182	0.1	2.3225e-002
28595	14.327	9.0909e-002	0.1	7.1681e-003
28596	14.327	0.45455	0.1	2.3669e-002
28597	14.418	0.36364	0.1	4.9259e-002
28598	14.327	0.63636	0.1	-8.4963e-005
28599	14.418	0.54545	0.1	2.1328e-003
28600	14.327	0.81818	0.1	-5.3383e-003
28601	14.418	0.72727	0.1	-2.3672e-003
28602	14.327	1.	0.1	-9.8972e-003
28603	14.418	0.90909	0.1	-9.1817e-003
28604	14.327	1.1818	0.1	-1.2018e-002
28605	14.418	1.0909	0.1	-1.1939e-002
28606	14.327	1.3636	0.1	-1.3023e-002
28607	14.418	1.2727	0.1	-1.3467e-002
28608	14.327	1.5455	0.1	-1.3173e-002
28609	14.418	1.4545	0.1	-1.3842e-002
28610	14.327	1.7273	0.1	-1.2827e-002
28611	14.418	1.6364	0.1	-1.3575e-002
28612	14.327	1.9091	0.1	-1.2223e-002
28613	14.418	1.8182	0.1	-1.294e-002
28614	14.327	2.0909	0.1	-1.1552e-002
28615	14.418	2.	0.1	-1.2182e-002
28616	14.327	2.2727	0.1	-1.0941e-002
28617	14.418	2.1818	0.1	-1.1467e-002
28618	14.327	2.4545	0.1	-1.0466e-002
28619	14.418	2.3636	0.1	-1.0899e-002
28620	14.327	2.6364	0.1	-1.0147e-002
28621	14.418	2.5455	0.1	-1.0515e-002
28622	14.327	2.8182	0.1	-9.9704e-003
28623	14.418	2.7273	0.1	-1.0296e-002
28624	14.327	3.	0.1	-9.9147e-003
28625	14.418	2.9091	0.1	-1.0202e-002
28626	14.327	3.1818	0.1	-9.9703e-003
28627	14.418	3.0909	0.1	-1.0202e-002
28628	14.327	3.3636	0.1	-1.0147e-002
28629	14.418	3.2727	0.1	-1.0296e-002
28630	14.327	3.5455	0.1	-1.0466e-002
28631	14.418	3.4545	0.1	-1.0515e-002
28632	14.327	3.7273	0.1	-1.0941e-002
28633	14.418	3.6364	0.1	-1.0899e-002
28634	14.327	3.9091	0.1	-1.1551e-002
28635	14.418	3.8182	0.1	-1.1467e-002
28636	14.327	4.0909	0.1	-1.2223e-002
28637	14.418	4.	0.1	-1.2182e-002
28638	14.327	4.2727	0.1	-1.2827e-002
28639	14.418	4.1818	0.1	-1.294e-002
28640	14.327	4.4545	0.1	-1.3172e-002
28641	14.418	4.3636	0.1	-1.3575e-002
28642	14.327	4.6364	0.1	-1.3022e-002
28643	14.418	4.5455	0.1	-1.3842e-002
28644	14.327	4.8182	0.1	-1.2017e-002
28645	14.418	4.7273	0.1	-1.3466e-002
28646	14.327	5.	0.1	-9.8966e-003
28647	14.418	4.9091	0.1	-1.1938e-002
28648	14.327	5.1818	0.1	-5.3367e-003
28649	14.418	5.0909	0.1	-9.18e-003
28650	14.327	5.3636	0.1	-8.4327e-005
28651	14.418	5.2727	0.1	-2.3656e-003
28652	14.327	5.5455	0.1	2.3668e-002
28653	14.418	5.4545	0.1	2.1316e-003
28654	14.327	5.7273	0.1	3.5261e-002
28655	14.418	5.6364	0.1	4.9259e-002
28656	14.418	5.8182	0.1	2.3226e-002
28657	14.327	5.9091	0.1	7.1686e-003
28658	14.51	0.27273	0.1	4.0471e-002
28659	14.602	0.18182	0.1	3.0317e-002
28660	14.51	9.0909e-002	0.1	7.5105e-003
28661	14.51	0.45455	0.1	2.5633e-002
28662	14.602	0.36364	0.1	5.4932e-002
28663	14.51	0.63636	0.1	-1.2379e-003
28664	14.602	0.54545	0.1	1.0366e-003
28665	14.51	0.81818	0.1	-6.78e-003
28666	14.602	0.72727	0.1	-3.624e-003
28667	14.51	1.	0.1	-1.1538e-002
28668	14.602	0.90909	0.1	-1.0902e-002
28669	14.51	1.1818	0.1	-1.356e-002
28670	14.602	1.0909	0.1	-1.3591e-002
28671	14.51	1.3636	0.1	-1.4369e-002
28672	14.602	1.2727	0.1	-1.494e-002
28673	14.51	1.5455	0.1	-1.427e-002
28674	14.602	1.4545	0.1	-1.5046e-002
28675	14.51	1.7273	0.1	-1.3677e-002
28676	14.602	1.6364	0.1	-1.4495e-002
28677	14.51	1.9091	0.1	-1.2867e-002
28678	14.602	1.8182	0.1	-1.3609e-002
28679	14.51	2.0909	0.1	-1.2058e-002
28680	14.602	2.	0.1	-1.2671e-002
28681	14.51	2.2727	0.1	-1.1391e-002
28682	14.602	2.1818	0.1	-1.1873e-002
28683	14.51	2.4545	0.1	-1.0931e-002
28684	14.602	2.3636	0.1	-1.1319e-002
28685	14.51	2.6364	0.1	-1.0668e-002
28686	14.602	2.5455	0.1	-1.1018e-002
28687	14.51	2.8182	0.1	-1.0549e-002
28688	14.602	2.7273	0.1	-1.0902e-002
28689	14.51	3.	0.1	-1.0518e-002
28690	14.602	2.9091	0.1	-1.0878e-002
28691	14.51	3.1818	0.1	-1.055e-002
28692	14.602	3.0909	0.1	-1.0878e-002
28693	14.51	3.3636	0.1	-1.0669e-002
28694	14.602	3.2727	0.1	-1.0902e-002
28695	14.51	3.5455	0.1	-1.0931e-002
28696	14.602	3.4545	0.1	-1.1018e-002
28697	14.51	3.7273	0.1	-1.1391e-002
28698	14.602	3.6364	0.1	-1.1319e-002
28699	14.51	3.9091	0.1	-1.2058e-002
28700	14.602	3.8182	0.1	-1.1873e-002
28701	14.51	4.0909	0.1	-1.2866e-002
28702	14.602	4.	0.1	-1.2671e-002
28703	14.51	4.2727	0.1	-1.3677e-002
28704	14.602	4.1818	0.1	-1.3608e-002
28705	14.51	4.4545	0.1	-1.427e-002
28706	14.602	4.3636	0.1	-1.4495e-002
28707	14.51	4.6364	0.1	-1.4369e-002
28708	14.602	4.5455	0.1	-1.5046e-002
28709	14.51	4.8182	0.1	-1.3559e-002
28710	14.602	4.7273	0.1	-1.494e-002
28711	14.51	5.	0.1	-1.1537e-002
28712	14.602	4.9091	0.1	-1.3589e-002
28713	14.51	5.1818	0.1	-6.7785e-003
28714	14.602	5.0909	0.1	-1.09e-002
28715	14.51	5.3636	0.1	-1.2382e-003
28716	14.602	5.2727	0.1	-3.6238e-003
28717	14.51	5.5455	0.1	2.5632e-002
28718	14.602	5.4545	0.1	1.0357e-003
28719	14.51	5.7273	0.1	4.0472e-002
28720	14.602	5.6364	0.1	5.4933e-002
28721	14.602	5.8182	0.1	3.0318e-002
28722	14.51	5.9091	0.1	7.5115e-003
28723	14.694	0.27273	0.1	4.6399e-002
28724	14.786	0.18182	0.1	3.917e-002
28725	14.694	9.0909e-002	0.1	7.8643e-003
28726	14.694	0.45455	0.1	2.7707e-002
28727	14.786	0.36364	0.1	6.1216e-002
28728	14.694	0.63636	0.1	-2.6368e-003
28729	14.786	0.54545	0.1	-3.4768e-004
28730	14.694	0.81818	0.1	-8.4038e-003
28731	14.786	0.72727	0.1	-5.0541e-003
28732	14.694	1.	0.1	-1.3312e-002
28733	14.786	0.90909	0.1	-1.2762e-002
28734	14.694	1.1818	0.1	-1.5162e-002
28735	14.786	1.0909	0.1	-1.5295e-002
28736	14.694	1.3636	0.1	-1.5705e-002
28737	14.786	1.2727	0.1	-1.6386e-002
28738	14.694	1.5455	0.1	-1.5291e-002
28739	14.786	1.4545	0.1	-1.6144e-002
28740	14.694	1.7273	0.1	-1.4402e-002
28741	14.786	1.6364	0.1	-1.5244e-002
28742	14.694	1.9091	0.1	-1.3363e-002
28743	14.786	1.8182	0.1	-1.4064e-002
28744	14.694	2.0909	0.1	-1.2429e-002
28745	14.786	2.	0.1	-1.2942e-002
28746	14.694	2.2727	0.1	-1.1756e-002
28747	14.786	2.1818	0.1	-1.2103e-002
28748	14.694	2.4545	0.1	-1.1389e-002
28749	14.786	2.3636	0.1	-1.1648e-002
28750	14.694	2.6364	0.1	-1.1269e-002
28751	14.786	2.5455	0.1	-1.1542e-002
28752	14.694	2.8182	0.1	-1.1276e-002
28753	14.786	2.7273	0.1	-1.1635e-002
28754	14.694	3.	0.1	-1.1294e-002
28755	14.786	2.9091	0.1	-1.1744e-002
28756	14.694	3.1818	0.1	-1.1276e-002
28757	14.786	3.0909	0.1	-1.1745e-002
28758	14.694	3.3636	0.1	-1.1269e-002
28759	14.786	3.2727	0.1	-1.1635e-002
28760	14.694	3.5455	0.1	-1.1388e-002
28761	14.786	3.4545	0.1	-1.1542e-002
28762	14.694	3.7273	0.1	-1.1755e-002
28763	14.786	3.6364	0.1	-1.1648e-002
28764	14.694	3.9091	0.1	-1.2429e-002
28765	14.786	3.8182	0.1	-1.2103e-002
28766	14.694	4.0909	0.1	-1.3362e-002
28767	14.786	4.	0.1	-1.2942e-002
28768	14.694	4.2727	0.1	-1.4402e-002
28769	14.786	4.1818	0.1	-1.4063e-002
28770	14.694	4.4545	0.1	-1.5291e-002
28771	14.786	4.3636	0.1	-1.5243e-002
28772	14.694	4.6364	0.1	-1.5704e-002
28773	14.786	4.5455	0.1	-1.6143e-002
28774	14.694	4.8182	0.1	-1.5161e-002
28775	14.786	4.7273	0.1	-1.6386e-002
28776	14.694	5.	0.1	-1.331e-002
28777	14.786	4.9091	0.1	-1.5294e-002
28778	14.694	5.1818	0.1	-8.4032e-003
28779	14.786	5.0909	0.1	-1.276e-002
28780	14.694	5.3636	0.1	-2.6372e-003
28781	14.786	5.2727	0.1	-5.0543e-003
28782	14.694	5.5455	0.1	2.7707e-002
28783	14.786	5.4545	0.1	-3.4745e-004
28784	14.694	5.7273	0.1	4.6399e-002
28785	14.786	5.6364	0.1	6.1216e-002
28786	14.786	5.8182	0.1	3.917e-002
28787	14.694	5.9091	0.1	7.8652e-003
28788	14.878	0.27273	0.1	5.3053e-002
28789	14.969	0.18182	0.1	4.9973e-002
28790	14.878	9.0909e-002	0.1	8.2535e-003
28791	14.878	0.45455	0.1	2.9889e-002
28792	14.969	0.36364	0.1	6.81e-002
28793	14.878	0.63636	0.1	-4.2813e-003
28794	14.969	0.54545	0.1	-2.0613e-003
28795	14.878	0.81818	0.1	-1.0171e-002
28796	14.969	0.72727	0.1	-6.6385e-003
28797	14.878	1.	0.1	-1.5151e-002
28798	14.969	0.90909	0.1	-1.4707e-002
28799	14.878	1.1818	0.1	-1.6732e-002
28800	14.969	1.0909	0.1	-1.697e-002
28801	14.878	1.3636	0.1	-1.6918e-002
28802	14.969	1.2727	0.1	-1.77e-002
28803	14.878	1.5455	0.1	-1.6108e-002
28804	14.969	1.4545	0.1	-1.7009e-002
28805	14.878	1.7273	0.1	-1.4863e-002
28806	14.969	1.6364	0.1	-1.5678e-002
28807	14.878	1.9091	0.1	-1.357e-002
28808	14.969	1.8182	0.1	-1.4154e-002
28809	14.878	2.0909	0.1	-1.2538e-002
28810	14.969	2.	0.1	-1.285e-002
28811	14.878	2.2727	0.1	-1.1937e-002
28812	14.969	2.1818	0.1	-1.2037e-002
28813	14.878	2.4545	0.1	-1.1786e-002
28814	14.969	2.3636	0.1	-1.1813e-002
28815	14.878	2.6364	0.1	-1.1946e-002
28816	14.969	2.5455	0.1	-1.2073e-002
28817	14.878	2.8182	0.1	-1.2188e-002
28818	14.969	2.7273	0.1	-1.254e-002
28819	14.878	3.	0.1	-1.2297e-002
28820	14.969	2.9091	0.1	-1.2885e-002
28821	14.878	3.1818	0.1	-1.2188e-002
28822	14.969	3.0909	0.1	-1.2885e-002
28823	14.878	3.3636	0.1	-1.1947e-002
28824	14.969	3.2727	0.1	-1.254e-002
28825	14.878	3.5455	0.1	-1.1786e-002
28826	14.969	3.4545	0.1	-1.2073e-002
28827	14.878	3.7273	0.1	-1.1937e-002
28828	14.969	3.6364	0.1	-1.1812e-002
28829	14.878	3.9091	0.1	-1.2537e-002
28830	14.969	3.8182	0.1	-1.2036e-002
28831	14.878	4.0909	0.1	-1.357e-002
28832	14.969	4.	0.1	-1.285e-002
28833	14.878	4.2727	0.1	-1.4863e-002
28834	14.969	4.1818	0.1	-1.4154e-002
28835	14.878	4.4545	0.1	-1.6108e-002
28836	14.969	4.3636	0.1	-1.5677e-002
28837	14.878	4.6364	0.1	-1.6917e-002
28838	14.969	4.5455	0.1	-1.7009e-002
28839	14.878	4.8182	0.1	-1.6732e-002
28840	14.969	4.7273	0.1	-1.7699e-002
28841	14.878	5.	0.1	-1.515e-002
28842	14.969	4.9091	0.1	-1.697e-002
28843	14.878	5.1818	0.1	-1.017e-002
28844	14.969	5.0909	0.1	-1.4706e-002
28845	14.878	5.3636	0.1	-4.2808e-003
28846	14.969	5.2727	0.1	-6.6377e-003
28847	14.878	5.5455	0.1	2.9889e-002
28848	14.969	5.4545	0.1	-2.0606e-003
28849	14.878	5.7273	0.1	5.3053e-002
28850	14.969	5.6364	0.1	6.8099e-002
28851	14.969	5.8182	0.1	4.9973e-002
28852	14.878	5.9091	0.1	8.2537e-003
28853	15.061	0.27273	0.1	6.0321e-002
28854	15.153	0.18182	0.1	6.2716e-002
28855	15.061	9.0909e-002	0.1	8.6647e-003
28856	15.061	0.45455	0.1	3.212e-002
28857	15.153	0.36364	0.1	7.548e-002
28858	15.061	0.63636	0.1	-6.1961e-003
28859	15.153	0.54545	0.1	-4.1828e-003
28860	15.061	0.81818	0.1	-1.2049e-002
28861	15.153	0.72727	0.1	-8.3691e-003
28862	15.061	1.	0.1	-1.699e-002
28863	15.153	0.90909	0.1	-1.6684e-002
28864	15.061	1.1818	0.1	-1.8176e-002
28865	15.153	1.0909	0.1	-1.8526e-002
28866	15.061	1.3636	0.1	-1.7889e-002
28867	15.153	1.2727	0.1	-1.8762e-002
28868	15.061	1.5455	0.1	-1.6581e-002
28869	15.153	1.4545	0.1	-1.7502e-002
28870	15.061	1.7273	0.1	-1.4906e-002
28871	15.153	1.6364	0.1	-1.5636e-002
28872	15.061	1.9091	0.1	-1.3333e-002
28873	15.153	1.8182	0.1	-1.3705e-002
28874	15.061	2.0909	0.1	-1.2243e-002
28875	15.153	2.	0.1	-1.2224e-002
28876	15.061	2.2727	0.1	-1.1837e-002
28877	15.153	2.1818	0.1	-1.1536e-002
28878	15.061	2.4545	0.1	-1.209e-002
28879	15.153	2.3636	0.1	-1.174e-002
28880	15.061	2.6364	0.1	-1.2741e-002
28881	15.153	2.5455	0.1	-1.2628e-002
28882	15.061	2.8182	0.1	-1.3385e-002
28883	15.153	2.7273	0.1	-1.372e-002
28884	15.061	3.	0.1	-1.365e-002
28885	15.153	2.9091	0.1	-1.4457e-002
28886	15.061	3.1818	0.1	-1.3384e-002
28887	15.153	3.0909	0.1	-1.4458e-002
28888	15.061	3.3636	0.1	-1.2741e-002
28889	15.153	3.2727	0.1	-1.372e-002
28890	15.061	3.5455	0.1	-1.209e-002
28891	15.153	3.4545	0.1	-1.2627e-002
28892	15.061	3.7273	0.1	-1.1836e-002
28893	15.153	3.6364	0.1	-1.174e-002
28894	15.061	3.9091	0.1	-1.2242e-002
28895	15.153	3.8182	0.1	-1.1535e-002
28896	15.061	4.0909	0.1	-1.3333e-002
28897	15.153	4.	0.1	-1.2224e-002
28898	15.061	4.2727	0.1	-1.4905e-002
28899	15.153	4.1818	0.1	-1.3705e-002
28900	15.061	4.4545	0.1	-1.6581e-002
28901	15.153	4.3636	0.1	-1.5635e-002
28902	15.061	4.6364	0.1	-1.7889e-002
28903	15.153	4.5455	0.1	-1.7501e-002
28904	15.061	4.8182	0.1	-1.8175e-002
28905	15.153	4.7273	0.1	-1.8761e-002
28906	15.061	5.	0.1	-1.6989e-002
28907	15.153	4.9091	0.1	-1.8525e-002
28908	15.061	5.1818	0.1	-1.2048e-002
28909	15.153	5.0909	0.1	-1.6682e-002
28910	15.061	5.3636	0.1	-6.1951e-003
28911	15.153	5.2727	0.1	-8.3676e-003
28912	15.061	5.5455	0.1	3.212e-002
28913	15.153	5.4545	0.1	-4.1823e-003
28914	15.061	5.7273	0.1	6.0321e-002
28915	15.153	5.6364	0.1	7.548e-002
28916	15.153	5.8182	0.1	6.2716e-002
28917	15.061	5.9091	0.1	8.6649e-003
28918	15.245	0.27273	0.1	6.7915e-002
28919	15.337	0.18182	0.1	7.7094e-002
28920	15.245	9.0909e-002	0.1	9.0405e-003
28921	15.245	0.45455	0.1	3.4273e-002
28922	15.337	0.36364	0.1	8.318e-002
28923	15.245	0.63636	0.1	-8.428e-003
28924	15.337	0.54545	0.1	-6.7679e-003
28925	15.245	0.81818	0.1	-1.4008e-002
28926	15.337	0.72727	0.1	-1.0182e-002
28927	15.245	1.	0.1	-1.8748e-002
28928	15.337	0.90909	0.1	-1.8558e-002
28929	15.245	1.1818	0.1	-1.938e-002
28930	15.337	1.0909	0.1	-1.9785e-002
28931	15.245	1.3636	0.1	-1.8479e-002
28932	15.337	1.2727	0.1	-1.9368e-002
28933	15.245	1.5455	0.1	-1.6548e-002
28934	15.337	1.4545	0.1	-1.739e-002
28935	15.245	1.7273	0.1	-1.4347e-002
28936	15.337	1.6364	0.1	-1.486e-002
28937	15.245	1.9091	0.1	-1.2461e-002
28938	15.337	1.8182	0.1	-1.244e-002
28939	15.245	2.0909	0.1	-1.1376e-002
28940	15.337	2.	0.1	-1.0791e-002
28941	15.245	2.2727	0.1	-1.1343e-002
28942	15.337	2.1818	0.1	-1.037e-002
28943	15.245	2.4545	0.1	-1.228e-002
28944	15.337	2.3636	0.1	-1.129e-002
28945	15.245	2.6364	0.1	-1.374e-002
28946	15.337	2.5455	0.1	-1.3192e-002
28947	15.245	2.8182	0.1	-1.5041e-002
28948	15.337	2.7273	0.1	-1.529e-002
28949	15.245	3.	0.1	-1.556e-002
28950	15.337	2.9091	0.1	-1.6657e-002
28951	15.245	3.1818	0.1	-1.5041e-002
28952	15.337	3.0909	0.1	-1.6657e-002
28953	15.245	3.3636	0.1	-1.374e-002
28954	15.337	3.2727	0.1	-1.529e-002
28955	15.245	3.5455	0.1	-1.228e-002
28956	15.337	3.4545	0.1	-1.3192e-002
28957	15.245	3.7273	0.1	-1.1343e-002
28958	15.337	3.6364	0.1	-1.129e-002
28959	15.245	3.9091	0.1	-1.1376e-002
28960	15.337	3.8182	0.1	-1.037e-002
28961	15.245	4.0909	0.1	-1.2461e-002
28962	15.337	4.	0.1	-1.0791e-002
28963	15.245	4.2727	0.1	-1.4347e-002
28964	15.337	4.1818	0.1	-1.244e-002
28965	15.245	4.4545	0.1	-1.6547e-002
28966	15.337	4.3636	0.1	-1.486e-002
28967	15.245	4.6364	0.1	-1.8479e-002
28968	15.337	4.5455	0.1	-1.7389e-002
28969	15.245	4.8182	0.1	-1.9379e-002
28970	15.337	4.7273	0.1	-1.9368e-002
28971	15.245	5.	0.1	-1.8747e-002
28972	15.337	4.9091	0.1	-1.9785e-002
28973	15.245	5.1818	0.1	-1.4007e-002
28974	15.337	5.0909	0.1	-1.8557e-002
28975	15.245	5.3636	0.1	-8.4271e-003
28976	15.337	5.2727	0.1	-1.018e-002
28977	15.245	5.5455	0.1	3.4273e-002
28978	15.337	5.4545	0.1	-6.7672e-003
28979	15.245	5.7273	0.1	6.7915e-002
28980	15.337	5.6364	0.1	8.318e-002
28981	15.337	5.8182	0.1	7.7094e-002
28982	15.245	5.9091	0.1	9.0409e-003
28983	15.429	0.27273	0.1	7.5399e-002
28984	15.52	0.18182	0.1	9.2259e-002
28985	15.429	9.0909e-002	0.1	9.3705e-003
28986	15.429	0.45455	0.1	3.6246e-002
28987	15.52	0.36364	0.1	9.0889e-002
28988	15.429	0.63636	0.1	-1.092e-002
28989	15.52	0.54545	0.1	-9.8485e-003
28990	15.429	0.81818	0.1	-1.5881e-002
28991	15.52	0.72727	0.1	-1.1946e-002
28992	15.429	1.	0.1	-2.0195e-002
28993	15.52	0.90909	0.1	-2.0104e-002
28994	15.429	1.1818	0.1	-2.0075e-002
28995	15.52	1.0909	0.1	-2.0469e-002
28996	15.429	1.3636	0.1	-1.8392e-002
28997	15.52	1.2727	0.1	-1.9209e-002
28998	15.429	1.5455	0.1	-1.5682e-002
28999	15.52	1.4545	0.1	-1.6338e-002
29000	15.429	1.7273	0.1	-1.2837e-002
29001	15.52	1.6364	0.1	-1.2986e-002
29002	15.429	1.9091	0.1	-1.0595e-002
29003	15.52	1.8182	0.1	-9.9682e-003
29004	15.429	2.0909	0.1	-9.6031e-003
29005	15.52	2.	0.1	-8.1601e-003
29006	15.429	2.2727	0.1	-1.0199e-002
29007	15.52	2.1818	0.1	-8.2051e-003
29008	15.429	2.4545	0.1	-1.2228e-002
29009	15.52	2.3636	0.1	-1.0255e-002
29010	15.429	2.6364	0.1	-1.4967e-002
29011	15.52	2.5455	0.1	-1.3737e-002
29012	15.429	2.8182	0.1	-1.7309e-002
29013	15.52	2.7273	0.1	-1.7401e-002
29014	15.429	3.	0.1	-1.8229e-002
29015	15.52	2.9091	0.1	-1.9749e-002
29016	15.429	3.1818	0.1	-1.7308e-002
29017	15.52	3.0909	0.1	-1.9748e-002
29018	15.429	3.3636	0.1	-1.4967e-002
29019	15.52	3.2727	0.1	-1.7401e-002
29020	15.429	3.5455	0.1	-1.2228e-002
29021	15.52	3.4545	0.1	-1.3736e-002
29022	15.429	3.7273	0.1	-1.0198e-002
29023	15.52	3.6364	0.1	-1.0254e-002
29024	15.429	3.9091	0.1	-9.6028e-003
29025	15.52	3.8182	0.1	-8.2049e-003
29026	15.429	4.0909	0.1	-1.0595e-002
29027	15.52	4.	0.1	-8.1596e-003
29028	15.429	4.2727	0.1	-1.2837e-002
29029	15.52	4.1818	0.1	-9.9677e-003
29030	15.429	4.4545	0.1	-1.5682e-002
29031	15.52	4.3636	0.1	-1.2986e-002
29032	15.429	4.6364	0.1	-1.8391e-002
29033	15.52	4.5455	0.1	-1.6337e-002
29034	15.429	4.8182	0.1	-2.0075e-002
29035	15.52	4.7273	0.1	-1.9208e-002
29036	15.429	5.	0.1	-2.0195e-002
29037	15.52	4.9091	0.1	-2.0469e-002
29038	15.429	5.1818	0.1	-1.588e-002
29039	15.52	5.0909	0.1	-2.0104e-002
29040	15.429	5.3636	0.1	-1.0919e-002
29041	15.52	5.2727	0.1	-1.1945e-002
29042	15.429	5.5455	0.1	3.6247e-002
29043	15.52	5.4545	0.1	-9.8466e-003
29044	15.429	5.7273	0.1	7.5398e-002
29045	15.52	5.6364	0.1	9.0889e-002
29046	15.52	5.8182	0.1	9.2258e-002
29047	15.429	5.9091	0.1	9.3701e-003
29048	15.612	0.27273	0.1	8.1958e-002
29049	15.704	0.18182	0.1	0.10643
29050	15.612	9.0909e-002	0.1	9.5488e-003
29051	15.612	0.45455	0.1	3.782e-002
29052	15.704	0.36364	0.1	9.8027e-002
29053	15.612	0.63636	0.1	-1.3624e-002
29054	15.704	0.54545	0.1	-1.3494e-002
29055	15.612	0.81818	0.1	-1.7474e-002
29056	15.704	0.72727	0.1	-1.3514e-002
29057	15.612	1.	0.1	-2.1055e-002
29058	15.704	0.90909	0.1	-2.1035e-002
29059	15.612	1.1818	0.1	-1.9941e-002
29060	15.704	1.0909	0.1	-2.0228e-002
29061	15.612	1.3636	0.1	-1.7278e-002
29062	15.704	1.2727	0.1	-1.7907e-002
29063	15.612	1.5455	0.1	-1.361e-002
29064	15.704	1.4545	0.1	-1.3952e-002
29065	15.612	1.7273	0.1	-9.9703e-003
29066	15.704	1.6364	0.1	-9.5925e-003
29067	15.612	1.9091	0.1	-7.3122e-003
29068	15.704	1.8182	0.1	-5.8366e-003
29069	15.612	2.0909	0.1	-6.5322e-003
29070	15.704	2.	0.1	-3.8813e-003
29071	15.612	2.2727	0.1	-8.1203e-003
29072	15.704	2.1818	0.1	-4.6675e-003
29073	15.612	2.4545	0.1	-1.1832e-002
29074	15.704	2.3636	0.1	-8.4322e-003
29075	15.612	2.6364	0.1	-1.6535e-002
29076	15.704	2.5455	0.1	-1.4309e-002
29077	15.612	2.8182	0.1	-2.0477e-002
29078	15.704	2.7273	0.1	-2.0347e-002
29079	15.612	3.	0.1	-2.2017e-002
29080	15.704	2.9091	0.1	-2.4185e-002
29081	15.612	3.1818	0.1	-2.0477e-002
29082	15.704	3.0909	0.1	-2.4185e-002
29083	15.612	3.3636	0.1	-1.6534e-002
29084	15.704	3.2727	0.1	-2.0347e-002
29085	15.612	3.5455	0.1	-1.1831e-002
29086	15.704	3.4545	0.1	-1.4308e-002
29087	15.612	3.7273	0.1	-8.1205e-003
29088	15.704	3.6364	0.1	-8.4316e-003
29089	15.612	3.9091	0.1	-6.5319e-003
29090	15.704	3.8182	0.1	-4.6675e-003
29091	15.612	4.0909	0.1	-7.3115e-003
29092	15.704	4.	0.1	-3.8808e-003
29093	15.612	4.2727	0.1	-9.9694e-003
29094	15.704	4.1818	0.1	-5.836e-003
29095	15.612	4.4545	0.1	-1.3609e-002
29096	15.704	4.3636	0.1	-9.5919e-003
29097	15.612	4.6364	0.1	-1.7277e-002
29098	15.704	4.5455	0.1	-1.3951e-002
29099	15.612	4.8182	0.1	-1.9941e-002
29100	15.704	4.7273	0.1	-1.7907e-002
29101	15.612	5.	0.1	-2.1055e-002
29102	15.704	4.9091	0.1	-2.0227e-002
29103	15.612	5.1818	0.1	-1.7473e-002
29104	15.704	5.0909	0.1	-2.1034e-002
29105	15.612	5.3636	0.1	-1.3623e-002
29106	15.704	5.2727	0.1	-1.3512e-002
29107	15.612	5.5455	0.1	3.7821e-002
29108	15.704	5.4545	0.1	-1.3493e-002
29109	15.612	5.7273	0.1	8.1957e-002
29110	15.704	5.6364	0.1	9.8026e-002
29111	15.704	5.8182	0.1	0.10643
29112	15.612	5.9091	0.1	9.5488e-003
29113	15.796	0.27273	0.1	8.6248e-002
29114	15.888	0.18182	0.1	0.11655
29115	15.796	9.0909e-002	0.1	9.3378e-003
29116	15.796	0.45455	0.1	3.8606e-002
29117	15.888	0.36364	0.1	0.10365
29118	15.796	0.63636	0.1	-1.6495e-002
29119	15.888	0.54545	0.1	-1.7798e-002
29120	15.796	0.81818	0.1	-1.8537e-002
29121	15.888	0.72727	0.1	-1.4668e-002
29122	15.796	1.	0.1	-2.0962e-002
29123	15.888	0.90909	0.1	-2.0937e-002
29124	15.796	1.1818	0.1	-1.8567e-002
29125	15.888	1.0909	0.1	-1.8564e-002
29126	15.796	1.3636	0.1	-1.4714e-002
29127	15.888	1.2727	0.1	-1.4948e-002
29128	15.796	1.5455	0.1	-9.8939e-003
29129	15.888	1.4545	0.1	-9.7143e-003
29130	15.796	1.7273	0.1	-5.2846e-003
29131	15.888	1.6364	0.1	-4.1367e-003
29132	15.796	1.9091	0.1	-2.1409e-003
29133	15.888	1.8182	0.1	5.3552e-004
29134	15.796	2.0909	0.1	-1.7399e-003
29135	15.888	2.	0.1	2.6358e-003
29136	15.796	2.2727	0.1	-4.8253e-003
29137	15.888	2.1818	0.1	7.1849e-004
29138	15.796	2.4545	0.1	-1.1052e-002
29139	15.888	2.3636	0.1	-5.6231e-003
29140	15.796	2.6364	0.1	-1.8695e-002
29141	15.888	2.5455	0.1	-1.5064e-002
29142	15.796	2.8182	0.1	-2.5037e-002
29143	15.888	2.7273	0.1	-2.4616e-002
29144	15.796	3.	0.1	-2.7505e-002
29145	15.888	2.9091	0.1	-3.0651e-002
29146	15.796	3.1818	0.1	-2.5037e-002
29147	15.888	3.0909	0.1	-3.065e-002
29148	15.796	3.3636	0.1	-1.8696e-002
29149	15.888	3.2727	0.1	-2.4616e-002
29150	15.796	3.5455	0.1	-1.1051e-002
29151	15.888	3.4545	0.1	-1.5064e-002
29152	15.796	3.7273	0.1	-4.8246e-003
29153	15.888	3.6364	0.1	-5.6223e-003
29154	15.796	3.9091	0.1	-1.7396e-003
29155	15.888	3.8182	0.1	7.1886e-004
29156	15.796	4.0909	0.1	-2.1405e-003
29157	15.888	4.	0.1	2.6364e-003
29158	15.796	4.2727	0.1	-5.2843e-003
29159	15.888	4.1818	0.1	5.3573e-004
29160	15.796	4.4545	0.1	-9.8936e-003
29161	15.888	4.3636	0.1	-4.1368e-003
29162	15.796	4.6364	0.1	-1.4714e-002
29163	15.888	4.5455	0.1	-9.7135e-003
29164	15.796	4.8182	0.1	-1.8567e-002
29165	15.888	4.7273	0.1	-1.4947e-002
29166	15.796	5.	0.1	-2.0961e-002
29167	15.888	4.9091	0.1	-1.8563e-002
29168	15.796	5.1818	0.1	-1.8536e-002
29169	15.888	5.0909	0.1	-2.0935e-002
29170	15.796	5.3636	0.1	-1.6494e-002
29171	15.888	5.2727	0.1	-1.4667e-002
29172	15.796	5.5455	0.1	3.8606e-002
29173	15.888	5.4545	0.1	-1.7799e-002
29174	15.796	5.7273	0.1	8.6248e-002
29175	15.888	5.6364	0.1	0.10365
29176	15.888	5.8182	0.1	0.11655
29177	15.796	5.9091	0.1	9.3383e-003
29178	15.98	0.27273	0.1	8.6276e-002
29179	16.071	0.18182	0.1	0.11782
29180	15.98	9.0909e-002	0.1	8.3609e-003
29181	15.98	0.45455	0.1	3.804e-002
29182	16.071	0.36364	0.1	0.10633
29183	15.98	0.63636	0.1	-1.9429e-002
29184	16.071	0.54545	0.1	-2.2897e-002
29185	15.98	0.81818	0.1	-1.8676e-002
29186	16.071	0.72727	0.1	-1.5129e-002
29187	15.98	1.	0.1	-1.9358e-002
29188	16.071	0.90909	0.1	-1.9225e-002
29189	15.98	1.1818	0.1	-1.5345e-002
29190	16.071	1.0909	0.1	-1.4777e-002
29191	15.98	1.3636	0.1	-1.0089e-002
29192	16.071	1.2727	0.1	-9.6287e-003
29193	15.98	1.5455	0.1	-3.9135e-003
29194	16.071	1.4545	0.1	-2.9803e-003
29195	15.98	1.7273	0.1	1.875e-003
29196	16.071	1.6364	0.1	3.9705e-003
29197	15.98	1.9091	0.1	5.61e-003
29198	16.071	1.8182	0.1	9.726e-003
29199	15.98	2.0909	0.1	5.4051e-003
29200	16.071	2.	0.1	1.188e-002
29201	15.98	2.2727	0.1	6.4353e-005
29202	16.071	2.1818	0.1	8.265e-003
29203	15.98	2.4545	0.1	-9.9088e-003
29204	16.071	2.3636	0.1	-1.7989e-003
29205	15.98	2.6364	0.1	-2.1876e-002
29206	16.071	2.5455	0.1	-1.6409e-002
29207	15.98	2.8182	0.1	-3.171e-002
29208	16.071	2.7273	0.1	-3.1007e-002
29209	15.98	3.	0.1	-3.5524e-002
29210	16.071	2.9091	0.1	-4.0155e-002
29211	15.98	3.1818	0.1	-3.1711e-002
29212	16.071	3.0909	0.1	-4.0154e-002
29213	15.98	3.3636	0.1	-2.1876e-002
29214	16.071	3.2727	0.1	-3.1008e-002
29215	15.98	3.5455	0.1	-9.9084e-003
29216	16.071	3.4545	0.1	-1.6408e-002
29217	15.98	3.7273	0.1	6.4695e-005
29218	16.071	3.6364	0.1	-1.7985e-003
29219	15.98	3.9091	0.1	5.4058e-003
29220	16.071	3.8182	0.1	8.2651e-003
29221	15.98	4.0909	0.1	5.6104e-003
29222	16.071	4.	0.1	1.1881e-002
29223	15.98	4.2727	0.1	1.875e-003
29224	16.071	4.1818	0.1	9.7262e-003
29225	15.98	4.4545	0.1	-3.913e-003
29226	16.071	4.3636	0.1	3.9707e-003
29227	15.98	4.6364	0.1	-1.0088e-002
29228	16.071	4.5455	0.1	-2.9793e-003
29229	15.98	4.8182	0.1	-1.5344e-002
29230	16.071	4.7273	0.1	-9.6284e-003
29231	15.98	5.	0.1	-1.9357e-002
29232	16.071	4.9091	0.1	-1.4776e-002
29233	15.98	5.1818	0.1	-1.8674e-002
29234	16.071	5.0909	0.1	-1.9224e-002
29235	15.98	5.3636	0.1	-1.9429e-002
29236	16.071	5.2727	0.1	-1.5127e-002
29237	15.98	5.5455	0.1	3.8038e-002
29238	16.071	5.4545	0.1	-2.2898e-002
29239	15.98	5.7273	0.1	8.6277e-002
29240	16.071	5.6364	0.1	0.10633
29241	16.071	5.8182	0.1	0.11783
29242	15.98	5.9091	0.1	8.3616e-003
29243	16.163	0.27273	0.1	7.9153e-002
29244	16.255	0.18182	0.1	0.10354
29245	16.163	9.0909e-002	0.1	5.9694e-003
29246	16.163	0.45455	0.1	3.5228e-002
29247	16.255	0.36364	0.1	0.10393
29248	16.163	0.63636	0.1	-2.2341e-002
29249	16.255	0.54545	0.1	-2.901e-002
29250	16.163	0.81818	0.1	-1.7393e-002
29251	16.255	0.72727	0.1	-1.4556e-002
29252	16.163	1.	0.1	-1.5498e-002
29253	16.255	0.90909	0.1	-1.5105e-002
29254	16.163	1.1818	0.1	-9.4668e-003
29255	16.255	1.0909	0.1	-7.861e-003
29256	16.163	1.3636	0.1	-2.6617e-003
29257	16.255	1.2727	0.1	-8.8831e-004
29258	16.163	1.5455	0.1	4.9418e-003
29259	16.255	1.4545	0.1	7.2555e-003
29260	16.163	1.7273	0.1	1.2007e-002
29261	16.255	1.6364	0.1	1.575e-002
29262	16.163	1.9091	0.1	1.6297e-002
29263	16.255	1.8182	0.1	2.2759e-002
29264	16.163	2.0909	0.1	1.5049e-002
29265	16.255	2.	0.1	2.5023e-002
29266	16.163	2.2727	0.1	6.4782e-003
29267	16.255	2.1818	0.1	1.8787e-002
29268	16.163	2.4545	0.1	-8.8025e-003
29269	16.255	2.3636	0.1	2.846e-003
29270	16.163	2.6364	0.1	-2.6904e-002
29271	16.255	2.5455	0.1	-1.9311e-002
29272	16.163	2.8182	0.1	-4.1631e-002
29273	16.255	2.7273	0.1	-4.086e-002
29274	16.163	3.	0.1	-4.7303e-002
29275	16.255	2.9091	0.1	-5.4149e-002
29276	16.163	3.1818	0.1	-4.163e-002
29277	16.255	3.0909	0.1	-5.4148e-002
29278	16.163	3.3636	0.1	-2.6904e-002
29279	16.255	3.2727	0.1	-4.086e-002
29280	16.163	3.5455	0.1	-8.8021e-003
29281	16.255	3.4545	0.1	-1.9311e-002
29282	16.163	3.7273	0.1	6.4784e-003
29283	16.255	3.6364	0.1	2.8466e-003
29284	16.163	3.9091	0.1	1.5049e-002
29285	16.255	3.8182	0.1	1.8787e-002
29286	16.163	4.0909	0.1	1.6297e-002
29287	16.255	4.	0.1	2.5023e-002
29288	16.163	4.2727	0.1	1.2007e-002
29289	16.255	4.1818	0.1	2.276e-002
29290	16.163	4.4545	0.1	4.9424e-003
29291	16.255	4.3636	0.1	1.575e-002
29292	16.163	4.6364	0.1	-2.6614e-003
29293	16.255	4.5455	0.1	7.2558e-003
29294	16.163	4.8182	0.1	-9.4664e-003
29295	16.255	4.7273	0.1	-8.8847e-004
29296	16.163	5.	0.1	-1.5497e-002
29297	16.255	4.9091	0.1	-7.8601e-003
29298	16.163	5.1818	0.1	-1.7391e-002
29299	16.255	5.0909	0.1	-1.5105e-002
29300	16.163	5.3636	0.1	-2.234e-002
29301	16.255	5.2727	0.1	-1.4554e-002
29302	16.163	5.5455	0.1	3.5228e-002
29303	16.255	5.4545	0.1	-2.9008e-002
29304	16.163	5.7273	0.1	7.9153e-002
29305	16.255	5.6364	0.1	0.10393
29306	16.255	5.8182	0.1	0.10354
29307	16.163	5.9091	0.1	5.9694e-003
29308	16.347	0.27273	0.1	6.1062e-002
29309	16.439	0.18182	0.1	6.5262e-002
29310	16.347	9.0909e-002	0.1	1.2327e-003
29311	16.347	0.45455	0.1	2.8924e-002
29312	16.439	0.36364	0.1	9.3457e-002
29313	16.347	0.63636	0.1	-2.5117e-002
29314	16.439	0.54545	0.1	-3.6592e-002
29315	16.347	0.81818	0.1	-1.4004e-002
29316	16.439	0.72727	0.1	-1.2747e-002
29317	16.347	1.	0.1	-8.2909e-003
29318	16.439	0.90909	0.1	-7.6844e-003
29319	16.347	1.1818	0.1	3.5482e-004
29320	16.439	1.0909	0.1	3.5324e-003
29321	16.347	1.3636	0.1	8.9086e-003
29322	16.439	1.2727	0.1	1.2668e-002
29323	16.347	1.5455	0.1	1.8083e-002
29324	16.439	1.4545	0.1	2.196e-002
29325	16.347	1.7273	0.1	2.6637e-002
29326	16.439	1.6364	0.1	3.1244e-002
29327	16.347	1.9091	0.1	3.1725e-002
29328	16.439	1.8182	0.1	3.9272e-002
29329	16.347	2.0909	0.1	2.899e-002
29330	16.439	2.	0.1	4.0227e-002
29331	16.347	2.2727	0.1	1.5049e-002
29332	16.439	2.1818	0.1	2.9664e-002
29333	16.347	2.4545	0.1	-8.5747e-003
29334	16.439	2.3636	0.1	6.4749e-003
29335	16.347	2.6364	0.1	-3.5329e-002
29336	16.439	2.5455	0.1	-2.5719e-002
29337	16.347	2.8182	0.1	-5.6484e-002
29338	16.439	2.7273	0.1	-5.629e-002
29339	16.347	3.	0.1	-6.4523e-002
29340	16.439	2.9091	0.1	-7.4516e-002
29341	16.347	3.1818	0.1	-5.6484e-002
29342	16.439	3.0909	0.1	-7.4516e-002
29343	16.347	3.3636	0.1	-3.5328e-002
29344	16.439	3.2727	0.1	-5.6291e-002
29345	16.347	3.5455	0.1	-8.5742e-003
29346	16.439	3.4545	0.1	-2.5718e-002
29347	16.347	3.7273	0.1	1.505e-002
29348	16.439	3.6364	0.1	6.4753e-003
29349	16.347	3.9091	0.1	2.899e-002
29350	16.439	3.8182	0.1	2.9664e-002
29351	16.347	4.0909	0.1	3.1726e-002
29352	16.439	4.	0.1	4.0227e-002
29353	16.347	4.2727	0.1	2.6638e-002
29354	16.439	4.1818	0.1	3.9272e-002
29355	16.347	4.4545	0.1	1.8083e-002
29356	16.439	4.3636	0.1	3.1245e-002
29357	16.347	4.6364	0.1	8.9085e-003
29358	16.439	4.5455	0.1	2.1961e-002
29359	16.347	4.8182	0.1	3.5514e-004
29360	16.439	4.7273	0.1	1.2668e-002
29361	16.347	5.	0.1	-8.2902e-003
29362	16.439	4.9091	0.1	3.5326e-003
29363	16.347	5.1818	0.1	-1.4003e-002
29364	16.439	5.0909	0.1	-7.6834e-003
29365	16.347	5.3636	0.1	-2.5115e-002
29366	16.439	5.2727	0.1	-1.2745e-002
29367	16.347	5.5455	0.1	2.8925e-002
29368	16.439	5.4545	0.1	-3.6591e-002
29369	16.347	5.7273	0.1	6.1061e-002
29370	16.439	5.6364	0.1	9.3456e-002
29371	16.439	5.8182	0.1	6.5261e-002
29372	16.347	5.9091	0.1	1.2331e-003
29373	16.531	0.27273	0.1	2.7249e-002
29374	16.622	0.18182	0.1	-5.2607e-003
29375	16.531	9.0909e-002	0.1	-7.3448e-003
29376	16.531	0.45455	0.1	1.7211e-002
29377	16.622	0.36364	0.1	7.148e-002
29378	16.531	0.63636	0.1	-2.8003e-002
29379	16.622	0.54545	0.1	-4.6026e-002
29380	16.531	0.81818	0.1	-8.0288e-003
29381	16.622	0.72727	0.1	-9.4249e-003
29382	16.531	1.	0.1	3.4612e-003
29383	16.622	0.90909	0.1	4.3362e-003
29384	16.531	1.1818	0.1	1.5615e-002
29385	16.622	1.0909	0.1	2.1535e-002
29386	16.531	1.3636	0.1	2.5674e-002
29387	16.622	1.2727	0.1	3.3929e-002
29388	16.531	1.5455	0.1	3.5115e-002
29389	16.622	1.4545	0.1	4.5157e-002
29390	16.531	1.7273	0.1	4.389e-002
29391	16.622	1.6364	0.1	5.6592e-002
29392	16.531	1.9091	0.1	4.7839e-002
29393	16.622	1.8182	0.1	6.3912e-002
29394	16.531	2.0909	0.1	4.0904e-002
29395	16.622	2.	0.1	6.5772e-002
29396	16.531	2.2727	0.1	2.0583e-002
29397	16.622	2.1818	0.1	4.8588e-002
29398	16.531	2.4545	0.1	-1.23e-002
29399	16.622	2.3636	0.1	7.2662e-003
29400	16.531	2.6364	0.1	-4.9753e-002
29401	16.622	2.5455	0.1	-4.047e-002
29402	16.531	2.8182	0.1	-7.8564e-002
29403	16.622	2.7273	0.1	-8.04e-002
29404	16.531	3.	0.1	-8.9191e-002
29405	16.622	2.9091	0.1	-0.10313
29406	16.531	3.1818	0.1	-7.8565e-002
29407	16.622	3.0909	0.1	-0.10313
29408	16.531	3.3636	0.1	-4.9753e-002
29409	16.622	3.2727	0.1	-8.0401e-002
29410	16.531	3.5455	0.1	-1.23e-002
29411	16.622	3.4545	0.1	-4.047e-002
29412	16.531	3.7273	0.1	2.0583e-002
29413	16.622	3.6364	0.1	7.2664e-003
29414	16.531	3.9091	0.1	4.0904e-002
29415	16.622	3.8182	0.1	4.8588e-002
29416	16.531	4.0909	0.1	4.7838e-002
29417	16.622	4.	0.1	6.5773e-002
29418	16.531	4.2727	0.1	4.389e-002
29419	16.622	4.1818	0.1	6.3912e-002
29420	16.531	4.4545	0.1	3.5116e-002
29421	16.622	4.3636	0.1	5.6593e-002
29422	16.531	4.6364	0.1	2.5675e-002
29423	16.622	4.5455	0.1	4.5158e-002
29424	16.531	4.8182	0.1	1.5615e-002
29425	16.622	4.7273	0.1	3.3929e-002
29426	16.531	5.	0.1	3.4616e-003
29427	16.622	4.9091	0.1	2.1535e-002
29428	16.531	5.1818	0.1	-8.0271e-003
29429	16.622	5.0909	0.1	4.3378e-003
29430	16.531	5.3636	0.1	-2.8002e-002
29431	16.622	5.2727	0.1	-9.4231e-003
29432	16.531	5.5455	0.1	1.7211e-002
29433	16.622	5.4545	0.1	-4.6026e-002
29434	16.531	5.7273	0.1	2.7248e-002
29435	16.622	5.6364	0.1	7.148e-002
29436	16.622	5.8182	0.1	-5.2611e-003
29437	16.531	5.9091	0.1	-7.3466e-003
29438	16.714	0.27273	0.1	-2.6026e-002
29439	16.806	0.18182	0.1	-0.11329
29440	16.714	9.0909e-002	0.1	-2.0732e-002
29441	16.714	0.45455	0.1	-1.3536e-003
29442	16.806	0.36364	0.1	3.3681e-002
29443	16.714	0.63636	0.1	-3.0647e-002
29444	16.806	0.54545	0.1	-5.896e-002
29445	16.714	0.81818	0.1	1.729e-003
29446	16.806	0.72727	0.1	-6.2954e-003
29447	16.714	1.	0.1	2.2049e-002
29448	16.806	0.90909	0.1	1.9849e-002
29449	16.714	1.1818	0.1	3.99e-002
29450	16.806	1.0909	0.1	4.6848e-002
29451	16.714	1.3636	0.1	5.3564e-002
29452	16.806	1.2727	0.1	6.6598e-002
29453	16.714	1.5455	0.1	6.663e-002
29454	16.806	1.4545	0.1	7.6343e-002
29455	16.714	1.7273	0.1	7.6398e-002
29456	16.806	1.6364	0.1	7.5607e-002
29457	16.714	1.9091	0.1	8.1542e-002
29458	16.806	1.8182	0.1	8.5154e-002
29459	16.714	2.0909	0.1	7.2973e-002
29460	16.806	2.	0.1	6.5637e-002
29461	16.714	2.2727	0.1	3.3956e-002
29462	16.806	2.1818	0.1	2.7559e-002
29463	16.714	2.4545	0.1	-2.3788e-002
29464	16.806	2.3636	0.1	-9.4562e-003
29465	16.714	2.6364	0.1	-7.5585e-002
29466	16.806	2.5455	0.1	-6.7865e-002
29467	16.714	2.8182	0.1	-0.11039
29468	16.806	2.7273	0.1	-0.11772
29469	16.714	3.	0.1	-0.12279
29470	16.806	2.9091	0.1	-0.14029
29471	16.714	3.1818	0.1	-0.11039
29472	16.806	3.0909	0.1	-0.14029
29473	16.714	3.3636	0.1	-7.5586e-002
29474	16.806	3.2727	0.1	-0.11772
29475	16.714	3.5455	0.1	-2.3788e-002
29476	16.806	3.4545	0.1	-6.7865e-002
29477	16.714	3.7273	0.1	3.3956e-002
29478	16.806	3.6364	0.1	-9.4559e-003
29479	16.714	3.9091	0.1	7.2973e-002
29480	16.806	3.8182	0.1	2.756e-002
29481	16.714	4.0909	0.1	8.1543e-002
29482	16.806	4.	0.1	6.5638e-002
29483	16.714	4.2727	0.1	7.6398e-002
29484	16.806	4.1818	0.1	8.5154e-002
29485	16.714	4.4545	0.1	6.6631e-002
29486	16.806	4.3636	0.1	7.5607e-002
29487	16.714	4.6364	0.1	5.3564e-002
29488	16.806	4.5455	0.1	7.6344e-002
29489	16.714	4.8182	0.1	3.9901e-002
29490	16.806	4.7273	0.1	6.6598e-002
29491	16.714	5.	0.1	2.205e-002
29492	16.806	4.9091	0.1	4.6849e-002
29493	16.714	5.1818	0.1	1.7306e-003
29494	16.806	5.0909	0.1	1.9851e-002
29495	16.714	5.3636	0.1	-3.0647e-002
29496	16.806	5.2727	0.1	-6.2937e-003
29497	16.714	5.5455	0.1	-1.3546e-003
29498	16.806	5.4545	0.1	-5.8961e-002
29499	16.714	5.7273	0.1	-2.6026e-002
29500	16.806	5.6364	0.1	3.3682e-002
29501	16.806	5.8182	0.1	-0.11329
29502	16.714	5.9091	0.1	-2.0731e-002
29503	16.898	0.27273	0.1	-0.10197
29504	16.99	0.18182	0.1	-0.24575
29505	16.898	9.0909e-002	0.1	-4.2898e-002
29506	16.898	0.45455	0.1	-3.0544e-002
29507	16.99	0.36364	0.1	-1.5998e-002
29508	16.898	0.63636	0.1	-3.6393e-002
29509	16.99	0.54545	0.1	-7.037e-002
29510	16.898	0.81818	0.1	1.1395e-002
29511	16.99	0.72727	0.1	-8.269e-004
29512	16.898	1.	0.1	4.4805e-002
29513	16.99	0.90909	0.1	4.273e-002
29514	16.898	1.1818	0.1	7.4071e-002
29515	16.99	1.0909	0.1	8.7049e-002
29516	16.898	1.3636	0.1	8.9968e-002
29517	16.99	1.2727	0.1	0.11652
29518	16.898	1.5455	0.1	8.5495e-002
29519	16.99	1.4545	0.1	0.1418
29520	16.898	1.7273	0.1	8.3833e-002
29521	16.99	1.6364	0.1	0.19539
29522	16.898	1.9091	0.1	6.827e-002
29523	16.99	1.8182	0.1	0.14679
29524	16.898	2.0909	0.1	1.8787e-002
29525	16.99	2.	0.1	0.16546
29526	16.898	2.2727	0.1	-1.8792e-002
29527	16.99	2.1818	0.1	0.1271
29528	16.898	2.4545	0.1	-5.8565e-002
29529	16.99	2.3636	0.1	-5.8556e-002
29530	16.898	2.6364	0.1	-0.11617
29531	16.99	2.5455	0.1	-0.13568
29532	16.898	2.8182	0.1	-0.15385
29533	16.99	2.7273	0.1	-0.16525
29534	16.898	3.	0.1	-0.16393
29535	16.99	2.9091	0.1	-0.18069
29536	16.898	3.1818	0.1	-0.15385
29537	16.99	3.0909	0.1	-0.18069
29538	16.898	3.3636	0.1	-0.11617
29539	16.99	3.2727	0.1	-0.16525
29540	16.898	3.5455	0.1	-5.8564e-002
29541	16.99	3.4545	0.1	-0.13568
29542	16.898	3.7273	0.1	-1.8791e-002
29543	16.99	3.6364	0.1	-5.8556e-002
29544	16.898	3.9091	0.1	1.8787e-002
29545	16.99	3.8182	0.1	0.1271
29546	16.898	4.0909	0.1	6.827e-002
29547	16.99	4.	0.1	0.16546
29548	16.898	4.2727	0.1	8.3833e-002
29549	16.99	4.1818	0.1	0.14679
29550	16.898	4.4545	0.1	8.5496e-002
29551	16.99	4.3636	0.1	0.19539
29552	16.898	4.6364	0.1	8.9968e-002
29553	16.99	4.5455	0.1	0.1418
29554	16.898	4.8182	0.1	7.4072e-002
29555	16.99	4.7273	0.1	0.11652
29556	16.898	5.	0.1	4.4806e-002
29557	16.99	4.9091	0.1	8.705e-002
29558	16.898	5.1818	0.1	1.1397e-002
29559	16.99	5.0909	0.1	4.2732e-002
29560	16.898	5.3636	0.1	-3.6393e-002
29561	16.99	5.2727	0.1	-8.2529e-004
29562	16.898	5.5455	0.1	-3.0544e-002
29563	16.99	5.4545	0.1	-7.037e-002
29564	16.898	5.7273	0.1	-0.10197
29565	16.99	5.6364	0.1	-1.5998e-002
29566	16.99	5.8182	0.1	-0.24575
29567	16.898	5.9091	0.1	-4.2897e-002
29568	17.082	0.27273	0.1	-0.17946
29569	17.173	0.18182	0.1	-0.37379
29570	17.082	9.0909e-002	0.1	-6.1666e-002
29571	17.082	0.45455	0.1	-5.6263e-002
29572	17.173	0.36364	0.1	-7.9157e-002
29573	17.082	0.63636	0.1	-3.3717e-002
29574	17.173	0.54545	0.1	-8.9484e-002
29575	17.082	0.81818	0.1	3.1407e-002
29576	17.173	0.72727	0.1	-1.1635e-002
29577	17.082	1.	0.1	8.5765e-002
29578	17.173	0.90909	0.1	4.6412e-002
29579	17.082	1.1818	0.1	0.13057
29580	17.173	1.0909	0.1	0.10381
29581	17.082	1.3636	0.1	0.16974
29582	17.173	1.2727	0.1	0.17967
29583	17.082	1.5455	0.1	0.25259
29584	17.173	1.4545	0.1	0.2608
29585	17.082	1.7273	0.1	0.25762
29586	17.173	1.6364	0.1	1.5219e-002
29587	17.082	1.9091	0.1	0.24182
29588	17.173	1.8182	0.1	0.14405
29589	17.082	2.0909	0.1	0.27035
29590	17.173	2.	0.1	-0.22969
29591	17.082	2.2727	0.1	8.0935e-002
29592	17.173	2.1818	0.1	-0.47993
29593	17.082	2.4545	0.1	-0.14435
29594	17.173	2.3636	0.1	-0.12372
29595	17.082	2.6364	0.1	-0.19232
29596	17.173	2.5455	0.1	-0.23433
29597	17.082	2.8182	0.1	-0.19792
29598	17.173	2.7273	0.1	-0.22023
29599	17.082	3.	0.1	-0.20271
29600	17.173	2.9091	0.1	-0.20191
29601	17.082	3.1818	0.1	-0.19792
29602	17.173	3.0909	0.1	-0.20191
29603	17.082	3.3636	0.1	-0.19232
29604	17.173	3.2727	0.1	-0.22023
29605	17.082	3.5455	0.1	-0.14435
29606	17.173	3.4545	0.1	-0.23433
29607	17.082	3.7273	0.1	8.0935e-002
29608	17.173	3.6364	0.1	-0.12372
29609	17.082	3.9091	0.1	0.27035
29610	17.173	3.8182	0.1	-0.47993
29611	17.082	4.0909	0.1	0.24182
29612	17.173	4.	0.1	-0.22969
29613	17.082	4.2727	0.1	0.25762
29614	17.173	4.1818	0.1	0.14405
29615	17.082	4.4545	0.1	0.25259
29616	17.173	4.3636	0.1	1.5219e-002
29617	17.082	4.6364	0.1	0.16974
29618	17.173	4.5455	0.1	0.2608
29619	17.082	4.8182	0.1	0.13057
29620	17.173	4.7273	0.1	0.17967
29621	17.082	5.	0.1	8.5767e-002
29622	17.173	4.9091	0.1	0.10381
29623	17.082	5.1818	0.1	3.1409e-002
29624	17.173	5.0909	0.1	4.6414e-002
29625	17.082	5.3636	0.1	-3.3716e-002
29626	17.173	5.2727	0.1	-1.1634e-002
29627	17.082	5.5455	0.1	-5.6263e-002
29628	17.173	5.4545	0.1	-8.9484e-002
29629	17.082	5.7273	0.1	-0.17946
29630	17.173	5.6364	0.1	-7.9158e-002
29631	17.173	5.8182	0.1	-0.37379
29632	17.082	5.9091	0.1	-6.1666e-002
29633	17.265	0.27273	0.1	-0.25333
29634	17.357	0.18182	0.1	-0.29803
29635	17.265	9.0909e-002	0.1	-0.10923
29636	17.265	0.45455	0.1	-0.10115
29637	17.357	0.36364	0.1	-3.3224e-002
29638	17.265	0.63636	0.1	-6.125e-002
29639	17.357	0.54545	0.1	-2.4562e-002
29640	17.265	0.81818	0.1	6.2637e-003
29641	17.357	0.72727	0.1	4.1481e-002
29642	17.265	1.	0.1	6.5771e-002
29643	17.357	0.90909	0.1	9.9876e-002
29644	17.265	1.1818	0.1	0.15395
29645	17.357	1.0909	0.1	0.20897
29646	17.265	1.3636	0.1	0.27261
29647	17.357	1.2727	0.1	0.3124
29648	17.265	1.5455	0.1	2.6359e-002
29649	17.357	1.4545	0.1	0.35471
29650	17.265	1.7273	0.1	-9.7848e-002
29651	17.357	1.6364	0.1	1.3799
29652	17.265	1.9091	0.1	-0.33104
29653	17.357	1.8182	0.1	0.75711
29654	17.265	2.0909	0.1	-0.98795
29655	17.357	2.	0.1	1.6487
29656	17.265	2.2727	0.1	-0.69875
29657	17.357	2.1818	0.1	0.93458
29658	17.265	2.4545	0.1	-0.22799
29659	17.357	2.3636	0.1	-0.94684
29660	17.265	2.6364	0.1	-0.26883
29661	17.357	2.5455	0.1	-0.24819
29662	17.265	2.8182	0.1	-0.22754
29663	17.357	2.7273	0.1	-0.23158
29664	17.265	3.	0.1	-0.20399
29665	17.357	2.9091	0.1	-0.16141
29666	17.265	3.1818	0.1	-0.22754
29667	17.357	3.0909	0.1	-0.16141
29668	17.265	3.3636	0.1	-0.26883
29669	17.357	3.2727	0.1	-0.23158
29670	17.265	3.5455	0.1	-0.22799
29671	17.357	3.4545	0.1	-0.24819
29672	17.265	3.7273	0.1	-0.69875
29673	17.357	3.6364	0.1	-0.94684
29674	17.265	3.9091	0.1	-0.98795
29675	17.357	3.8182	0.1	0.93458
29676	17.265	4.0909	0.1	-0.33104
29677	17.357	4.	0.1	1.6487
29678	17.265	4.2727	0.1	-9.7846e-002
29679	17.357	4.1818	0.1	0.75711
29680	17.265	4.4545	0.1	2.636e-002
29681	17.357	4.3636	0.1	1.3799
29682	17.265	4.6364	0.1	0.27261
29683	17.357	4.5455	0.1	0.35472
29684	17.265	4.8182	0.1	0.15395
29685	17.357	4.7273	0.1	0.3124
29686	17.265	5.	0.1	6.5773e-002
29687	17.357	4.9091	0.1	0.20897
29688	17.265	5.1818	0.1	6.266e-003
29689	17.357	5.0909	0.1	9.9878e-002
29690	17.265	5.3636	0.1	-6.1249e-002
29691	17.357	5.2727	0.1	4.1482e-002
29692	17.265	5.5455	0.1	-0.10115
29693	17.357	5.4545	0.1	-2.4561e-002
29694	17.265	5.7273	0.1	-0.25333
29695	17.357	5.6364	0.1	-3.3224e-002
29696	17.357	5.8182	0.1	-0.29803
29697	17.265	5.9091	0.1	-0.10923
29698	17.449	0.27273	0.1	-8.4017e-003
29699	17.541	0.18182	0.1	3.0925e-002
29700	17.449	9.0909e-002	0.1	4.637e-002
29701	17.449	0.45455	0.1	7.129e-002
29702	17.541	0.36364	0.1	-5.0606e-002
29703	17.449	0.63636	0.1	9.0066e-002
29704	17.541	0.54545	0.1	-0.14216
29705	17.449	0.81818	0.1	0.1403
29706	17.541	0.72727	0.1	-0.19972
29707	17.449	1.	0.1	0.24463
29708	17.541	0.90909	0.1	-0.20887
29709	17.449	1.1818	0.1	0.36739
29710	17.541	1.0909	0.1	-0.19393
29711	17.449	1.3636	0.1	0.39519
29712	17.541	1.2727	0.1	-0.11352
29713	17.449	1.5455	0.1	1.708
29714	17.541	1.4545	0.1	-8.5194e-002
29715	17.449	1.7273	0.1	2.2492
29716	17.541	1.6364	0.1	0.31016
29717	17.449	1.9091	0.1	2.73
29718	17.541	1.8182	0.1	-2.5593
29719	17.449	2.0909	0.1	3.5493
29720	17.541	2.	0.1	-9.3149
29721	17.449	2.2727	0.1	0.63945
29722	17.541	2.1818	0.1	-4.4043
29723	17.449	2.4545	0.1	-0.98045
29724	17.541	2.3636	0.1	4.5087e-003
29725	17.449	2.6364	0.1	-0.21029
29726	17.541	2.5455	0.1	-0.32532
29727	17.449	2.8182	0.1	-0.16468
29728	17.541	2.7273	0.1	-6.1981e-002
29729	17.449	3.	0.1	-0.11919
29730	17.541	2.9091	0.1	-3.6448e-003
29731	17.449	3.1818	0.1	-0.16468
29732	17.541	3.0909	0.1	-3.6449e-003
29733	17.449	3.3636	0.1	-0.21029
29734	17.541	3.2727	0.1	-6.1981e-002
29735	17.449	3.5455	0.1	-0.98045
29736	17.541	3.4545	0.1	-0.32532
29737	17.449	3.7273	0.1	0.63944
29738	17.541	3.6364	0.1	4.5081e-003
29739	17.449	3.9091	0.1	3.5493
29740	17.541	3.8182	0.1	-4.4043
29741	17.449	4.0909	0.1	2.73
29742	17.541	4.	0.1	-9.3149
29743	17.449	4.2727	0.1	2.2492
29744	17.541	4.1818	0.1	-2.5593
29745	17.449	4.4545	0.1	1.708
29746	17.541	4.3636	0.1	0.31016
29747	17.449	4.6364	0.1	0.39519
29748	17.541	4.5455	0.1	-8.5193e-002
29749	17.449	4.8182	0.1	0.36739
29750	17.541	4.7273	0.1	-0.11352
29751	17.449	5.	0.1	0.24464
29752	17.541	4.9091	0.1	-0.19393
29753	17.449	5.1818	0.1	0.1403
29754	17.541	5.0909	0.1	-0.20887
29755	17.449	5.3636	0.1	9.0067e-002
29756	17.541	5.2727	0.1	-0.19972
29757	17.449	5.5455	0.1	7.129e-002
29758	17.541	5.4545	0.1	-0.14216
29759	17.449	5.7273	0.1	-8.4002e-003
29760	17.541	5.6364	0.1	-5.0605e-002
29761	17.541	5.8182	0.1	3.0928e-002
29762	17.449	5.9091	0.1	4.637e-002
29763	17.633	0.27273	0.1	8.7973e-002
29764	17.724	0.18182	0.1	3.2514
29765	17.633	9.0909e-002	0.1	-0.10732
29766	17.633	0.45455	0.1	-0.24961
29767	17.724	0.36364	0.1	1.3671
29768	17.633	0.63636	0.1	-0.42426
29769	17.724	0.54545	0.1	0.89923
29770	17.633	0.81818	0.1	-0.541
29771	17.724	0.72727	0.1	0.68218
29772	17.633	1.	0.1	-0.63952
29773	17.724	0.90909	0.1	0.61036
29774	17.633	1.1818	0.1	-0.6706
29775	17.724	1.0909	0.1	0.82962
29776	17.633	1.3636	0.1	-0.59898
29777	17.724	1.2727	0.1	0.36232
29778	17.633	1.5455	0.1	-1.4729
29779	17.724	1.4545	0.1	3.4798
29780	17.633	1.7273	0.1	-4.5092
29781	17.724	1.6364	0.1	-5.4139
29782	17.633	1.9091	0.1	-14.543
29783	17.724	1.8182	0.1	18.043
29784	17.633	2.0909	0.1	-17.346
29785	17.724	2.	0.1	83.914
29786	17.633	2.2727	0.1	-5.1524
29787	17.724	2.1818	0.1	-11.674
29788	17.633	2.4545	0.1	0.67766
29789	17.724	2.3636	0.1	3.8566
29790	17.633	2.6364	0.1	-0.16252
29791	17.724	2.5455	0.1	-1.1209
29792	17.633	2.8182	0.1	0.10134
29793	17.724	2.7273	0.1	0.65299
29794	17.633	3.	0.1	0.11093
29795	17.724	2.9091	0.1	0.21221
29796	17.633	3.1818	0.1	0.10134
29797	17.724	3.0909	0.1	0.21221
29798	17.633	3.3636	0.1	-0.16252
29799	17.724	3.2727	0.1	0.65299
29800	17.633	3.5455	0.1	0.67766
29801	17.724	3.4545	0.1	-1.1209
29802	17.633	3.7273	0.1	-5.1524
29803	17.724	3.6364	0.1	3.8566
29804	17.633	3.9091	0.1	-17.346
29805	17.724	3.8182	0.1	-11.674
29806	17.633	4.0909	0.1	-14.543
29807	17.724	4.	0.1	83.914
29808	17.633	4.2727	0.1	-4.5092
29809	17.724	4.1818	0.1	18.043
29810	17.633	4.4545	0.1	-1.4729
29811	17.724	4.3636	0.1	-5.4138
29812	17.633	4.6364	0.1	-0.59898
29813	17.724	4.5455	0.1	3.4798
29814	17.633	4.8182	0.1	-0.6706
29815	17.724	4.7273	0.1	0.36233
29816	17.633	5.	0.1	-0.63952
29817	17.724	4.9091	0.1	0.82962
29818	17.633	5.1818	0.1	-0.541
29819	17.724	5.0909	0.1	0.61036
29820	17.633	5.3636	0.1	-0.42426
29821	17.724	5.2727	0.1	0.68218
29822	17.633	5.5455	0.1	-0.24961
29823	17.724	5.4545	0.1	0.89923
29824	17.633	5.7273	0.1	8.7975e-002
29825	17.724	5.6364	0.1	1.3671
29826	17.724	5.8182	0.1	3.2514
29827	17.633	5.9091	0.1	-0.10732
29828	17.816	0.27273	0.1	3.7932
29829	17.908	0.18182	0.1	-1.0103
29830	17.816	9.0909e-002	0.1	3.9677
29831	17.816	0.45455	0.1	2.2198
29832	17.908	0.36364	0.1	-1.1
29833	17.816	0.63636	0.1	1.9207
29834	17.908	0.54545	0.1	-0.73078
29835	17.816	0.81818	0.1	1.8247
29836	17.908	0.72727	0.1	-0.71543
29837	17.816	1.	0.1	2.1153
29838	17.908	0.90909	0.1	-0.85285
29839	17.816	1.1818	0.1	1.9541
29840	17.908	1.0909	0.1	-0.27833
29841	17.816	1.3636	0.1	4.5633
29842	17.908	1.2727	0.1	-2.3725
29843	17.816	1.5455	0.1	-0.218
29844	17.908	1.4545	0.1	6.2775
29845	17.816	1.7273	0.1	17.159
29846	17.908	1.6364	0.1	-25.5
29847	17.816	1.9091	0.1	118.8
29848	17.908	1.8182	0.1	112.5
29849	17.816	2.0909	0.1	85.53
29850	17.908	2.	0.1	110.43
29851	17.816	2.2727	0.1	-2.1187
29852	17.908	2.1818	0.1	-40.017
29853	17.816	2.4545	0.1	2.1173
29854	17.908	2.3636	0.1	8.8424
29855	17.816	2.6364	0.1	-0.29624
29856	17.908	2.5455	0.1	-0.97302
29857	17.816	2.8182	0.1	0.75895
29858	17.908	2.7273	0.1	1.2841
29859	17.816	3.	0.1	0.30648
29860	17.908	2.9091	0.1	0.52614
29861	17.816	3.1818	0.1	0.75895
29862	17.908	3.0909	0.1	0.52614
29863	17.816	3.3636	0.1	-0.29624
29864	17.908	3.2727	0.1	1.2841
29865	17.816	3.5455	0.1	2.1173
29866	17.908	3.4545	0.1	-0.97301
29867	17.816	3.7273	0.1	-2.1187
29868	17.908	3.6364	0.1	8.8424
29869	17.816	3.9091	0.1	85.53
29870	17.908	3.8182	0.1	-40.017
29871	17.816	4.0909	0.1	118.8
29872	17.908	4.	0.1	110.43
29873	17.816	4.2727	0.1	17.159
29874	17.908	4.1818	0.1	112.5
29875	17.816	4.4545	0.1	-0.218
29876	17.908	4.3636	0.1	-25.5
29877	17.816	4.6364	0.1	4.5633
29878	17.908	4.5455	0.1	6.2775
29879	17.816	4.8182	0.1	1.9541
29880	17.908	4.7273	0.1	-2.3725
29881	17.816	5.	0.1	2.1153
29882	17.908	4.9091	0.1	-0.27833
29883	17.816	5.1818	0.1	1.8247
29884	17.908	5.0909	0.1	-0.85285
29885	17.816	5.3636	0.1	1.9207
29886	17.908	5.2727	0.1	-0.71543
29887	17.816	5.5455	0.1	2.2198
29888	17.908	5.4545	0.1	-0.73078
29889	17.816	5.7273	0.1	3.7932
29890	17.908	5.6364	0.1	-1.1
29891	17.908	5.8182	0.1	-1.0103
29892	17.816	5.9091	0.1	3.9677
29893	18.167	3.7273	0.1	2.0035
29894	18.083	3.8182	0.1	-41.761
29895	18.167	3.9091	0.1	257.69
29896	18.167	3.5455	0.1	6.2616
29897	18.083	3.6364	0.1	12.468
29898	18.167	3.3636	0.1	0.39756
29899	18.083	3.4545	0.1	-0.35795
29900	18.167	3.1818	0.1	1.0035
29901	18.083	3.2727	0.1	1.3706
29902	18.167	3.	0.1	0.6384
29903	18.083	3.0909	0.1	0.69626
29904	18.167	2.8182	0.1	1.0035
29905	18.083	2.9091	0.1	0.69626
29906	18.167	2.6364	0.1	0.39756
29907	18.083	2.7273	0.1	1.3706
29908	18.167	2.4545	0.1	6.2616
29909	18.083	2.5455	0.1	-0.35796
29910	18.167	2.2727	0.1	2.0036
29911	18.083	2.3636	0.1	12.468
29912	18.083	2.1818	0.1	-41.761
29913	18.167	2.0909	0.1	257.69
29914	18.	3.7273	0.1	-27.814
29915	18.	3.9091	0.1	81.298
29916	18.	3.5455	0.1	5.7438
29917	18.	3.3636	0.1	0.58904
29918	18.	3.1818	0.1	1.0343
29919	18.	3.	0.1	0.72946
29920	18.	2.8182	0.1	1.0343
29921	18.	2.6364	0.1	0.58904
29922	18.	2.4545	0.1	5.7438
29923	18.	2.2727	0.1	-27.814
29924	18.	2.0909	0.1	81.298
29925	18.167	5.7273	0.1	-3.5383
29926	18.167	5.9091	0.1	0.4776
29927	18.167	5.8182	5.e-002	3.6606e-006
29928	18.167	5.5455	0.1	-4.1275
29929	18.167	5.6364	5.e-002	5.5294e-006
29930	18.167	5.3636	0.1	-4.4282
29931	18.167	5.4545	5.e-002	4.2628e-006
29932	18.167	5.1818	0.1	-5.1275
29933	18.167	5.2727	5.e-002	4.6291e-006
29934	18.167	5.	0.1	-5.9629
29935	18.167	5.0909	5.e-002	5.4193e-006
29936	18.167	4.8182	0.1	-7.9356
29937	18.167	4.9091	5.e-002	7.0994e-006
29938	18.167	4.6364	0.1	-9.1376
29939	18.167	4.7273	5.e-002	4.5867e-006
29940	18.167	4.4545	0.1	-22.682
29941	18.167	4.5455	5.e-002	1.2941e-005
29942	18.167	4.2727	0.1	-19.852
29943	18.167	4.3636	5.e-002	-9.1137e-006
29944	18.167	4.0909	0.1	458.97
29945	18.167	4.1818	5.e-002	1.0244e-004
29946	18.083	4.	0.1	616.49
29947	18.167	4.	5.e-002	-9.2909e-004
29948	18.	4.0909	0.1	324.03
29949	18.	4.	5.e-002	-5.0184e-004
29950	18.	4.2727	0.1	-18.677
29951	18.	4.1818	5.e-002	1.1622e-004
29952	18.	4.4545	0.1	-26.302
29953	18.	4.3636	5.e-002	-7.8416e-006
29954	18.	4.6364	0.1	-11.53
29955	18.	4.5455	5.e-002	1.4145e-005
29956	18.	4.8182	0.1	-10.615
29957	18.	4.7273	5.e-002	4.9563e-006
29958	18.	5.	0.1	-8.3318
29959	18.	4.9091	5.e-002	4.7046e-006
29960	18.	5.1818	0.1	-7.4531
29961	18.	5.0909	5.e-002	4.1765e-006
29962	18.	5.3636	0.1	-6.6577
29963	18.	5.2727	5.e-002	5.0358e-006
29964	18.	5.5455	0.1	-6.295
29965	18.	5.4545	5.e-002	5.0329e-006
29966	18.	5.7273	0.1	-5.6746
29967	18.	5.6364	5.e-002	5.0637e-006
29968	18.	5.9091	0.1	-2.3688
29969	18.	5.8182	5.e-002	5.9778e-006
29970	18.167	0.27273	0.1	-3.5383
29971	18.167	9.0909e-002	0.1	0.4776
29972	18.167	0.18182	5.e-002	-7.3321e-006
29973	18.167	0.45455	0.1	-4.1275
29974	18.167	0.36364	5.e-002	6.9801e-006
29975	18.167	0.63636	0.1	-4.4282
29976	18.167	0.54545	5.e-002	5.2935e-006
29977	18.167	0.81818	0.1	-5.1275
29978	18.167	0.72727	5.e-002	5.3664e-006
29979	18.167	1.	0.1	-5.9629
29980	18.167	0.90909	5.e-002	5.5795e-006
29981	18.167	1.1818	0.1	-7.9356
29982	18.167	1.0909	5.e-002	5.4802e-006
29983	18.167	1.3636	0.1	-9.1376
29984	18.167	1.2727	5.e-002	6.3226e-006
29985	18.167	1.5455	0.1	-22.682
29986	18.167	1.4545	5.e-002	-3.1795e-006
29987	18.167	1.7273	0.1	-19.852
29988	18.167	1.6364	5.e-002	2.2037e-005
29989	18.167	1.9091	0.1	458.97
29990	18.167	1.8182	5.e-002	-1.0622e-004
29991	18.083	2.	0.1	616.49
29992	18.167	2.	5.e-002	1.0499e-003
29993	18.	1.9091	0.1	324.03
29994	18.	2.	5.e-002	7.2564e-004
29995	18.	1.7273	0.1	-18.677
29996	18.	1.8182	5.e-002	-1.2807e-004
29997	18.	1.5455	0.1	-26.302
29998	18.	1.6364	5.e-002	2.2139e-005
29999	18.	1.3636	0.1	-11.53
30000	18.	1.4545	5.e-002	-6.3364e-006
30001	18.	1.1818	0.1	-10.615
30002	18.	1.2727	5.e-002	5.4759e-006
30003	18.	1.	0.1	-8.3318
30004	18.	1.0909	5.e-002	2.8054e-006
30005	18.	0.81818	0.1	-7.4531
30006	18.	0.90909	5.e-002	4.9546e-006
30007	18.	0.63636	0.1	-6.6577
30008	18.	0.72727	5.e-002	5.9193e-006
30009	18.	0.45455	0.1	-6.295
30010	18.	0.54545	5.e-002	5.4785e-006
30011	18.	0.27273	0.1	-5.6746
30012	18.	0.36364	5.e-002	5.759e-006
30013	18.	9.0909e-002	0.1	-2.3688
30014	18.	0.18182	5.e-002	3.1577e-006
30015	18.258	6.	0.1	4.8486
30016	18.167	6.	5.e-002	3.0551e-006
30017	18.44	6.	0.1	-0.34471
30018	18.349	6.	5.e-002	-3.465e-006
30019	18.622	6.	0.1	-0.76293
30020	18.531	6.	5.e-002	5.8595e-006
30021	18.805	6.	0.1	-0.34716
30022	18.714	6.	5.e-002	5.5756e-006
30023	18.987	6.	0.1	-0.16157
30024	18.896	6.	5.e-002	4.9785e-006
30025	19.169	6.	0.1	-6.4315e-003
30026	19.078	6.	5.e-002	5.5464e-006
30027	19.352	6.	0.1	8.005e-002
30028	19.26	6.	5.e-002	5.4244e-006
30029	19.534	6.	0.1	0.12383
30030	19.443	6.	5.e-002	4.6899e-006
30031	19.716	6.	0.1	0.13652
30032	19.625	6.	5.e-002	5.3463e-006
30033	19.898	6.	0.1	0.13091
30034	19.807	6.	5.e-002	6.6335e-006
30035	20.081	6.	0.1	0.11584
30036	19.99	6.	5.e-002	4.09e-006
30037	20.263	6.	0.1	9.7527e-002
30038	20.172	6.	5.e-002	6.5456e-006
30039	20.445	6.	0.1	7.9925e-002
30040	20.354	6.	5.e-002	5.1085e-006
30041	20.628	6.	0.1	6.5367e-002
30042	20.536	6.	5.e-002	5.0274e-006
30043	20.81	6.	0.1	5.5083e-002
30044	20.719	6.	5.e-002	6.2388e-006
30045	20.992	6.	0.1	4.9572e-002
30046	20.901	6.	5.e-002	6.5047e-006
30047	21.174	6.	0.1	4.8909e-002
30048	21.083	6.	5.e-002	5.1702e-006
30049	21.357	6.	0.1	5.2941e-002
30050	21.266	6.	5.e-002	6.2354e-006
30051	21.539	6.	0.1	6.1419e-002
30052	21.448	6.	5.e-002	6.0121e-006
30053	21.721	6.	0.1	7.4081e-002
30054	21.63	6.	5.e-002	4.87e-006
30055	21.904	6.	0.1	9.0703e-002
30056	21.813	6.	5.e-002	9.3774e-006
30057	22.086	6.	0.1	0.11116
30058	21.995	6.	5.e-002	4.351e-006
30059	22.268	6.	0.1	0.13545
30060	22.177	6.	5.e-002	6.8541e-006
30061	22.451	6.	0.1	0.16375
30062	22.359	6.	5.e-002	7.9944e-006
30063	22.633	6.	0.1	0.19647
30064	22.542	6.	5.e-002	9.0823e-006
30065	22.815	6.	0.1	0.23426
30066	22.724	6.	5.e-002	4.9734e-006
30067	22.997	6.	0.1	0.27875
30068	22.906	6.	5.e-002	5.9528e-006
30069	23.18	6.	0.1	0.33022
30070	23.089	6.	5.e-002	6.9594e-006
30071	23.362	6.	0.1	0.40018
30072	23.271	6.	5.e-002	4.9646e-006
30073	23.544	6.	0.1	0.47285
30074	23.453	6.	5.e-002	1.0207e-005
30075	23.727	6.	0.1	0.69106
30076	23.635	6.	5.e-002	7.0421e-006
30077	23.909	6.	0.1	0.47755
30078	23.818	6.	5.e-002	6.3501e-006
30079	24.	5.9091	0.1	-2.4802
30080	24.	6.	5.e-002	3.5399e-005
30081	24.	5.7273	0.1	-2.3119
30082	24.	5.8182	5.e-002	1.9855e-005
30083	24.	5.5455	0.1	-2.3829
30084	24.	5.6364	5.e-002	1.3358e-005
30085	24.	5.3636	0.1	-2.4707
30086	24.	5.4545	5.e-002	1.5968e-005
30087	24.	5.1818	0.1	-2.4909
30088	24.	5.2727	5.e-002	1.6971e-005
30089	24.	5.	0.1	-2.5069
30090	24.	5.0909	5.e-002	1.5211e-005
30091	24.	4.8182	0.1	-2.5151
30092	24.	4.9091	5.e-002	1.4965e-005
30093	24.	4.6364	0.1	-2.5201
30094	24.	4.7273	5.e-002	1.7671e-005
30095	24.	4.4545	0.1	-2.5225
30096	24.	4.5455	5.e-002	1.6502e-005
30097	24.	4.2727	0.1	-2.5234
30098	24.	4.3636	5.e-002	1.7457e-005
30099	24.	4.0909	0.1	-2.5233
30100	24.	4.1818	5.e-002	1.6795e-005
30101	24.	3.9091	0.1	-2.5226
30102	24.	4.	5.e-002	1.3501e-005
30103	24.	3.7273	0.1	-2.5217
30104	24.	3.8182	5.e-002	1.6083e-005
30105	24.	3.5455	0.1	-2.5207
30106	24.	3.6364	5.e-002	9.4103e-006
30107	24.	3.3636	0.1	-2.5199
30108	24.	3.4545	5.e-002	9.8823e-006
30109	24.	3.1818	0.1	-2.5194
30110	24.	3.2727	5.e-002	1.0546e-005
30111	24.	3.	0.1	-2.5192
30112	24.	3.0909	5.e-002	7.3316e-006
30113	24.	2.8182	0.1	-2.5194
30114	24.	2.9091	5.e-002	6.0237e-006
30115	24.	2.6364	0.1	-2.5199
30116	24.	2.7273	5.e-002	4.7593e-006
30117	24.	2.4545	0.1	-2.5207
30118	24.	2.5455	5.e-002	5.4263e-006
30119	24.	2.2727	0.1	-2.5217
30120	24.	2.3636	5.e-002	2.2729e-006
30121	24.	2.0909	0.1	-2.5226
30122	24.	2.1818	5.e-002	2.9247e-006
30123	24.	1.9091	0.1	-2.5233
30124	24.	2.	5.e-002	1.6691e-006
30125	24.	1.7273	0.1	-2.5234
30126	24.	1.8182	5.e-002	2.6907e-006
30127	24.	1.5455	0.1	-2.5225
30128	24.	1.6364	5.e-002	5.2324e-006
30129	24.	1.3636	0.1	-2.5201
30130	24.	1.4545	5.e-002	3.8908e-006
30131	24.	1.1818	0.1	-2.5151
30132	24.	1.2727	5.e-002	6.2688e-006
30133	24.	1.	0.1	-2.5069
30134	24.	1.0909	5.e-002	8.2011e-006
30135	24.	0.81818	0.1	-2.4909
30136	24.	0.90909	5.e-002	9.4574e-006
30137	24.	0.63636	0.1	-2.4707
30138	24.	0.72727	5.e-002	5.5509e-006
30139	24.	0.45455	0.1	-2.3829
30140	24.	0.54545	5.e-002	5.0317e-006
30141	24.	0.27273	0.1	-2.3119
30142	24.	0.36364	5.e-002	1.0436e-005
30143	24.	9.0909e-002	0.1	-2.4802
30144	24.	0.18182	5.e-002	1.2854e-005
30145	2.3842e-015	0.27273	0.1	1763.2
30146	7.9472e-016	9.0909e-002	0.1	376.89
30147	1.6109e-015	0.18182	5.e-002	6.1573e-005
30148	3.9736e-015	0.45455	0.1	2565.9
30149	3.2219e-015	0.36364	5.e-002	1.4434e-004
30150	5.563e-015	0.63636	0.1	2978.8
30151	4.8328e-015	0.54545	5.e-002	6.1342e-005
30152	7.1525e-015	0.81818	0.1	3237.
30153	6.4438e-015	0.72727	5.e-002	8.1733e-005
30154	8.7419e-015	1.	0.1	3415.
30155	8.0547e-015	0.90909	5.e-002	1.3114e-004
30156	1.0331e-014	1.1818	0.1	3544.4
30157	9.6657e-015	1.0909	5.e-002	5.9898e-005
30158	1.1921e-014	1.3636	0.1	3641.4
30159	1.1277e-014	1.2727	5.e-002	1.2223e-004
30160	1.351e-014	1.5455	0.1	3715.5
30161	1.2888e-014	1.4545	5.e-002	2.3527e-006
30162	1.51e-014	1.7273	0.1	3772.9
30163	1.4498e-014	1.6364	5.e-002	6.128e-005
30164	1.6689e-014	1.9091	0.1	3817.3
30165	1.6109e-014	1.8182	5.e-002	1.1942e-004
30166	1.8279e-014	2.0909	0.1	3851.6
30167	1.772e-014	2.	5.e-002	5.9305e-005
30168	1.9868e-014	2.2727	0.1	3877.6
30169	1.9331e-014	2.1818	5.e-002	5.7679e-007
30170	2.1457e-014	2.4545	0.1	3896.7
30171	2.0942e-014	2.3636	5.e-002	-4.5743e-007
30172	2.3047e-014	2.6364	0.1	3909.7
30173	2.2553e-014	2.5455	5.e-002	-7.7897e-007
30174	2.4636e-014	2.8182	0.1	3917.1
30175	2.4164e-014	2.7273	5.e-002	-3.9617e-007
30176	2.6226e-014	3.	0.1	3919.6
30177	2.5775e-014	2.9091	5.e-002	-1.7431e-007
30178	2.7815e-014	3.1818	0.1	3917.1
30179	2.7386e-014	3.0909	5.e-002	1.7725e-007
30180	2.9405e-014	3.3636	0.1	3909.7
30181	2.8997e-014	3.2727	5.e-002	5.2712e-007
30182	3.0994e-014	3.5455	0.1	3896.7
30183	3.0608e-014	3.4545	5.e-002	8.4771e-007
30184	3.2583e-014	3.7273	0.1	3877.6
30185	3.2219e-014	3.6364	5.e-002	1.115e-006
30186	3.4173e-014	3.9091	0.1	3851.6
30187	3.383e-014	3.8182	5.e-002	-5.9274e-005
30188	3.5762e-014	4.0909	0.1	3817.3
30189	3.5441e-014	4.	5.e-002	2.6984e-007
30190	3.7352e-014	4.2727	0.1	3772.9
30191	3.7052e-014	4.1818	5.e-002	1.4715e-006
30192	3.8941e-014	4.4545	0.1	3715.5
30193	3.8663e-014	4.3636	5.e-002	-6.066e-005
30194	4.0531e-014	4.6364	0.1	3641.4
30195	4.0274e-014	4.5455	5.e-002	-5.849e-005
30196	4.212e-014	4.8182	0.1	3544.4
30197	4.1885e-014	4.7273	5.e-002	9.543e-007
30198	4.371e-014	5.	0.1	3415.
30199	4.3495e-014	4.9091	5.e-002	-4.4643e-006
30200	4.5299e-014	5.1818	0.1	3237.
30201	4.5106e-014	5.0909	5.e-002	-6.514e-005
30202	4.6888e-014	5.3636	0.1	2978.8
30203	4.6717e-014	5.2727	5.e-002	-6.8287e-005
30204	4.8478e-014	5.5455	0.1	2565.9
30205	4.8328e-014	5.4545	5.e-002	-5.6306e-005
30206	5.0067e-014	5.7273	0.1	1763.2
30207	4.9939e-014	5.6364	5.e-002	-5.9918e-005
30208	5.1657e-014	5.9091	0.1	376.89
30209	5.155e-014	5.8182	5.e-002	-6.9202e-005
30210	23.909	0.	0.1	0.47755
30211	24.	0.	5.e-002	2.3586e-005
30212	23.727	0.	0.1	0.69106
30213	23.818	0.	5.e-002	3.4991e-006
30214	23.544	0.	0.1	0.47286
30215	23.635	0.	5.e-002	6.5886e-006
30216	23.362	0.	0.1	0.40018
30217	23.453	0.	5.e-002	7.6222e-006
30218	23.18	0.	0.1	0.33022
30219	23.271	0.	5.e-002	6.9299e-006
30220	22.997	0.	0.1	0.27875
30221	23.089	0.	5.e-002	7.2216e-006
30222	22.815	0.	0.1	0.23426
30223	22.906	0.	5.e-002	8.6148e-006
30224	22.633	0.	0.1	0.19648
30225	22.724	0.	5.e-002	6.1744e-006
30226	22.451	0.	0.1	0.16375
30227	22.542	0.	5.e-002	6.6399e-006
30228	22.268	0.	0.1	0.13545
30229	22.359	0.	5.e-002	9.8699e-006
30230	22.086	0.	0.1	0.11115
30231	22.177	0.	5.e-002	4.3971e-006
30232	21.904	0.	0.1	9.0699e-002
30233	21.995	0.	5.e-002	6.6049e-006
30234	21.721	0.	0.1	7.408e-002
30235	21.813	0.	5.e-002	5.8912e-006
30236	21.539	0.	0.1	6.142e-002
30237	21.63	0.	5.e-002	9.6393e-006
30238	21.357	0.	0.1	5.2941e-002
30239	21.448	0.	5.e-002	5.4244e-006
30240	21.174	0.	0.1	4.8909e-002
30241	21.266	0.	5.e-002	5.3052e-006
30242	20.992	0.	0.1	4.9573e-002
30243	21.083	0.	5.e-002	4.7539e-006
30244	20.81	0.	0.1	5.5083e-002
30245	20.901	0.	5.e-002	6.7522e-006
30246	20.628	0.	0.1	6.5368e-002
30247	20.719	0.	5.e-002	6.8253e-006
30248	20.445	0.	0.1	7.9927e-002
30249	20.536	0.	5.e-002	4.4742e-006
30250	20.263	0.	0.1	9.7528e-002
30251	20.354	0.	5.e-002	6.573e-006
30252	20.081	0.	0.1	0.11584
30253	20.172	0.	5.e-002	4.2012e-006
30254	19.898	0.	0.1	0.13091
30255	19.99	0.	5.e-002	5.4413e-006
30256	19.716	0.	0.1	0.13652
30257	19.807	0.	5.e-002	5.0183e-006
30258	19.534	0.	0.1	0.12383
30259	19.625	0.	5.e-002	5.8289e-006
30260	19.352	0.	0.1	8.0051e-002
30261	19.443	0.	5.e-002	5.0546e-006
30262	19.169	0.	0.1	-6.4317e-003
30263	19.26	0.	5.e-002	5.09e-006
30264	18.987	0.	0.1	-0.16157
30265	19.078	0.	5.e-002	5.9589e-006
30266	18.805	0.	0.1	-0.34716
30267	18.896	0.	5.e-002	5.4468e-006
30268	18.622	0.	0.1	-0.76293
30269	18.714	0.	5.e-002	3.7109e-006
30270	18.44	0.	0.1	-0.34471
30271	18.531	0.	5.e-002	7.652e-006
30272	18.258	0.	0.1	4.8486
30273	18.349	0.	5.e-002	3.3386e-006
30274	18.167	0.	5.e-002	-3.83e-007
30275	17.908	8.6904e-030	0.1	6.4104
30276	18.	8.7349e-030	5.e-002	6.8975e-006
30277	17.724	8.6012e-030	0.1	0.39006
30278	17.816	0.	5.e-002	-6.8598e-006
30279	17.541	8.5121e-030	0.1	-0.16589
30280	17.633	0.	5.e-002	5.078e-006
30281	17.357	8.423e-030	0.1	0.41333
30282	17.449	0.	5.e-002	3.3873e-006
30283	17.173	8.3338e-030	0.1	0.67783
30284	17.265	0.	5.e-002	2.4518e-006
30285	16.99	8.2447e-030	0.1	0.89616
30286	17.082	0.	5.e-002	4.3576e-006
30287	16.806	8.1556e-030	0.1	1.008
30288	16.898	0.	5.e-002	3.2106e-007
30289	16.622	8.0664e-030	0.1	1.0464
30290	16.714	0.	5.e-002	3.5699e-006
30291	16.439	7.9773e-030	0.1	1.0278
30292	16.531	0.	5.e-002	3.3213e-006
30293	16.255	7.8882e-030	0.1	0.97251
30294	16.347	0.	5.e-002	4.2263e-006
30295	16.071	7.799e-030	0.1	0.89634
30296	16.163	0.	5.e-002	3.7443e-006
30297	15.888	7.7099e-030	0.1	0.81113
30298	15.98	0.	5.e-002	4.144e-006
30299	15.704	7.6208e-030	0.1	0.72479
30300	15.796	0.	5.e-002	3.0558e-006
30301	15.52	7.5316e-030	0.1	0.64212
30302	15.612	0.	5.e-002	4.169e-006
30303	15.337	7.4425e-030	0.1	0.56574
30304	15.429	0.	5.e-002	3.7916e-006
30305	15.153	7.3534e-030	0.1	0.4968
30306	15.245	0.	5.e-002	3.6134e-006
30307	14.969	7.2642e-030	0.1	0.43551
30308	15.061	0.	5.e-002	3.3034e-006
30309	14.786	7.1751e-030	0.1	0.38158
30310	14.878	0.	5.e-002	3.8977e-006
30311	14.602	7.086e-030	0.1	0.33446
30312	14.694	0.	5.e-002	3.4734e-006
30313	14.418	6.9969e-030	0.1	0.29343
30314	14.51	0.	5.e-002	2.8667e-006
30315	14.235	6.9077e-030	0.1	0.25776
30316	14.327	0.	5.e-002	3.3462e-006
30317	14.051	6.8186e-030	0.1	0.22674
30318	14.143	0.	5.e-002	3.8804e-006
30319	13.867	6.7295e-030	0.1	0.1997
30320	13.959	0.	5.e-002	2.9847e-006
30321	13.684	6.6403e-030	0.1	0.17603
30322	13.776	0.	5.e-002	2.8048e-006
30323	13.5	6.5512e-030	0.1	0.15523
30324	13.592	0.	5.e-002	2.5655e-006
30325	13.316	6.4621e-030	0.1	0.13683
30326	13.408	0.	5.e-002	2.9376e-006
30327	13.133	6.3729e-030	0.1	0.12043
30328	13.224	0.	5.e-002	3.2201e-006
30329	12.949	6.2838e-030	0.1	0.10566
30330	13.041	0.	5.e-002	2.6237e-006
30331	12.765	6.1947e-030	0.1	9.2231e-002
30332	12.857	0.	5.e-002	2.6234e-006
30333	12.582	6.1055e-030	0.1	7.9888e-002
30334	12.673	0.	5.e-002	3.0404e-006
30335	12.398	6.0164e-030	0.1	6.8407e-002
30336	12.49	0.	5.e-002	2.3846e-006
30337	12.214	5.9273e-030	0.1	5.7604e-002
30338	12.306	0.	5.e-002	3.0997e-006
30339	12.031	5.8381e-030	0.1	4.7314e-002
30340	12.122	0.	5.e-002	-1.9617e-006
30341	11.847	5.749e-030	0.1	3.7366e-002
30342	11.939	0.	5.e-002	6.4414e-006
30343	11.663	5.6599e-030	0.1	2.7626e-002
30344	11.755	0.	5.e-002	2.0266e-006
30345	11.48	5.5707e-030	0.1	1.8008e-002
30346	11.571	0.	5.e-002	2.0287e-006
30347	11.296	5.4816e-030	0.1	8.4023e-003
30348	11.388	0.	5.e-002	2.7406e-006
30349	11.112	5.3925e-030	0.1	-1.2973e-003
30350	11.204	0.	5.e-002	1.7881e-006
30351	10.929	5.3033e-030	0.1	-1.1184e-002
30352	11.02	0.	5.e-002	1.7279e-006
30353	10.745	5.2142e-030	0.1	-2.1353e-002
30354	10.837	0.	5.e-002	1.9654e-006
30355	10.561	5.1251e-030	0.1	-3.1874e-002
30356	10.653	0.	5.e-002	1.726e-006
30357	10.378	5.036e-030	0.1	-4.2812e-002
30358	10.469	0.	5.e-002	1.7323e-006
30359	10.194	4.9468e-030	0.1	-5.4263e-002
30360	10.286	0.	5.e-002	1.9075e-006
30361	10.01	4.8577e-030	0.1	-6.6327e-002
30362	10.102	0.	5.e-002	1.6156e-006
30363	9.8265	4.7686e-030	0.1	-7.9093e-002
30364	9.9184	0.	5.e-002	1.4905e-006
30365	9.6429	4.6794e-030	0.1	-9.2642e-002
30366	9.7347	0.	5.e-002	1.6695e-006
30367	9.4592	4.5903e-030	0.1	-0.10705
30368	9.551	0.	5.e-002	1.4215e-006
30369	9.2755	4.5012e-030	0.1	-0.12243
30370	9.3673	0.	5.e-002	1.372e-006
30371	9.0918	4.412e-030	0.1	-0.13887
30372	9.1837	0.	5.e-002	1.6107e-006
30373	8.9082	4.3229e-030	0.1	-0.15648
30374	9.	0.	5.e-002	1.3877e-006
30375	8.7245	4.2338e-030	0.1	-0.17538
30376	8.8163	0.	5.e-002	1.3916e-006
30377	8.5408	4.1446e-030	0.1	-0.19568
30378	8.6327	0.	5.e-002	1.2355e-006
30379	8.3571	4.0555e-030	0.1	-0.21753
30380	8.449	0.	5.e-002	1.2557e-006
30381	8.1735	3.9664e-030	0.1	-0.24105
30382	8.2653	0.	5.e-002	1.1402e-006
30383	7.9898	3.8772e-030	0.1	-0.26639
30384	8.0816	0.	5.e-002	1.1109e-006
30385	7.8061	3.7881e-030	0.1	-0.29371
30386	7.898	0.	5.e-002	9.6642e-007
30387	7.6224	3.699e-030	0.1	-0.32318
30388	7.7143	0.	5.e-002	1.203e-006
30389	7.4388	3.6098e-030	0.1	-0.35497
30390	7.5306	0.	5.e-002	-5.6746e-007
30391	7.2551	3.5207e-030	0.1	-0.38926
30392	7.3469	0.	5.e-002	2.6469e-006
30393	7.0714	3.4316e-030	0.1	-0.42598
30394	7.1633	0.	5.e-002	5.9085e-007
30395	6.8878	3.3424e-030	0.1	-0.24817
30396	6.9796	0.	5.e-002	8.9932e-007
30397	6.7041	3.2533e-030	0.1	9.9218e-002
30398	6.7959	0.	5.e-002	7.5117e-007
30399	6.5204	3.1642e-030	0.1	0.45204
30400	6.6122	0.	5.e-002	8.9444e-007
30401	6.3367	3.0751e-030	0.1	0.80765
30402	6.4286	0.	5.e-002	8.8483e-007
30403	6.1531	2.9859e-030	0.1	1.1629
30404	6.2449	0.	5.e-002	6.5499e-007
30405	5.9694	2.8968e-030	0.1	1.514
30406	6.0612	0.	5.e-002	8.4203e-007
30407	5.7857	2.8077e-030	0.1	1.8561
30408	5.8776	0.	5.e-002	4.9986e-007
30409	5.602	2.7185e-030	0.1	2.1836
30410	5.6939	0.	5.e-002	9.4352e-007
30411	5.4184	2.6294e-030	0.1	2.4895
30412	5.5102	0.	5.e-002	2.554e-006
30413	5.2347	2.5403e-030	0.1	2.7654
30414	5.3265	0.	5.e-002	3.3378e-006
30415	5.051	2.4511e-030	0.1	3.0016
30416	5.1429	0.	5.e-002	3.4229e-005
30417	4.8673	2.362e-030	0.1	3.1863
30418	4.9592	0.	5.e-002	5.6967e-005
30419	4.6837	2.2729e-030	0.1	3.3056
30420	4.7755	0.	5.e-002	6.4829e-006
30421	4.5	2.1837e-030	0.1	3.3433
30422	4.5918	0.	5.e-002	2.3117e-006
30423	4.3163	2.0946e-030	0.1	3.2803
30424	4.4082	0.	5.e-002	1.54e-006
30425	4.1327	2.0055e-030	0.1	3.0946
30426	4.2245	0.	5.e-002	1.7678e-006
30427	3.949	1.9163e-030	0.1	2.761
30428	4.0408	0.	5.e-002	5.2192e-007
30429	3.7653	1.8272e-030	0.1	2.251
30430	3.8571	0.	5.e-002	7.9353e-007
30431	3.5816	1.7381e-030	0.1	1.5345
30432	3.6735	0.	5.e-002	-1.4645e-014
30433	3.398	1.6489e-030	0.1	0.58607
30434	3.4898	0.	5.e-002	5.2433e-007
30435	3.2143	1.5598e-030	0.1	-0.58055
30436	3.3061	0.	5.e-002	4.4615e-007
30437	3.0306	1.4707e-030	0.1	-1.7341
30438	3.1224	0.	5.e-002	1.9401e-007
30439	2.8469	1.3815e-030	0.1	-2.4044
30440	2.9388	0.	5.e-002	6.2951e-007
30441	2.6633	1.2924e-030	0.1	-2.7831
30442	2.7551	0.	5.e-002	3.0865e-007
30443	2.4796	1.2033e-030	0.1	-3.0971
30444	2.5714	0.	5.e-002	-3.4988e-014
30445	2.2959	1.1141e-030	0.1	-3.4066
30446	2.3878	0.	5.e-002	2.5829e-007
30447	2.1122	1.025e-030	0.1	-3.7327
30448	2.2041	0.	5.e-002	2.3988e-007
30449	1.9286	9.3588e-031	0.1	-4.0871
30450	2.0204	0.	5.e-002	2.2474e-007
30451	1.7449	8.4675e-031	0.1	-4.4817
30452	1.8367	0.	5.e-002	-5.5389e-014
30453	1.5612	7.5762e-031	0.1	-4.9238
30454	1.6531	0.	5.e-002	2.0197e-007
30455	1.3776	6.6849e-031	0.1	-5.4452
30456	1.4694	0.	5.e-002	9.6738e-008
30457	1.1939	5.7936e-031	0.1	-6.0123
30458	1.2857	0.	5.e-002	1.8638e-007
30459	1.0102	4.9023e-031	0.1	-6.8252
30460	1.102	0.	5.e-002	-8.5397e-014
30461	0.82653	4.0109e-031	0.1	-7.439
30462	0.91837	0.	5.e-002	1.7397e-007
30463	0.64286	3.1196e-031	0.1	-8.8804
30464	0.73469	0.	5.e-002	8.1705e-008
30465	0.45918	2.2283e-031	0.1	-13.398
30466	0.55102	0.	5.e-002	-1.2157e-013
30467	0.27551	1.337e-031	0.1	19.154
30468	0.36735	0.	5.e-002	7.0466e-008
30469	9.1837e-002	4.4566e-032	0.1	-166.09
30470	0.18367	0.	5.e-002	-1.5272e-005
30471	0.	0.	5.e-002	1.1816e-004
30472	9.1837e-002	6.	0.1	-166.09
30473	5.2451e-014	6.	5.e-002	-1.0553e-004
30474	0.27551	6.	0.1	19.154
30475	0.18367	6.	5.e-002	9.5367e-006
30476	0.45918	6.	0.1	-13.398
30477	0.36735	6.	5.e-002	-7.0467e-008
30478	0.64286	6.	0.1	-8.8804
30479	0.55102	6.	5.e-002	-1.5285e-007
30480	0.82653	6.	0.1	-7.439
30481	0.73469	6.	5.e-002	-1.6341e-007
30482	1.0102	6.	0.1	-6.8252
30483	0.91837	6.	5.e-002	-8.6985e-008
30484	1.1939	6.	0.1	-6.0123
30485	1.102	6.	5.e-002	-8.5397e-014
30486	1.3776	6.	0.1	-5.4452
30487	1.2857	6.	5.e-002	-1.8638e-007
30488	1.5612	6.	0.1	-4.9238
30489	1.4694	6.	5.e-002	-6.8775e-014
30490	1.7449	6.	0.1	-4.4817
30491	1.6531	6.	5.e-002	-6.1749e-014
30492	1.9286	6.	0.1	-4.0871
30493	1.8367	6.	5.e-002	-1.0613e-007
30494	2.1122	6.	0.1	-3.7327
30495	2.0204	6.	5.e-002	-1.1237e-007
30496	2.2959	6.	0.1	-3.4066
30497	2.2041	6.	5.e-002	-4.4305e-014
30498	2.4796	6.	0.1	-3.0971
30499	2.3878	6.	5.e-002	-3.945e-014
30500	2.6633	6.	0.1	-2.7831
30501	2.5714	6.	5.e-002	-2.8081e-007
30502	2.8469	6.	0.1	-2.4044
30503	2.7551	6.	5.e-002	-3.088e-014
30504	3.0306	6.	0.1	-1.7341
30505	2.9388	6.	5.e-002	-3.4352e-007
30506	3.2143	6.	0.1	-0.58057
30507	3.1224	6.	5.e-002	-1.9401e-007
30508	3.398	6.	0.1	0.58605
30509	3.3061	6.	5.e-002	-4.4615e-007
30510	3.5816	6.	0.1	1.5345
30511	3.4898	6.	5.e-002	-5.2433e-007
30512	3.7653	6.	0.1	2.251
30513	3.6735	6.	5.e-002	-3.1675e-007
30514	3.949	6.	0.1	2.761
30515	3.8571	6.	5.e-002	-1.2105e-014
30516	4.1327	6.	0.1	3.0946
30517	4.0408	6.	5.e-002	-9.7607e-015
30518	4.3163	6.	0.1	3.2803
30519	4.2245	6.	5.e-002	-4.4087e-007
30520	4.5	6.	0.1	3.3433
30521	4.4082	6.	5.e-002	-1.1562e-006
30522	4.6837	6.	0.1	3.3056
30523	4.5918	6.	5.e-002	-1.8913e-006
30524	4.8673	6.	0.1	3.1863
30525	4.7755	6.	5.e-002	-5.5106e-006
30526	5.051	6.	0.1	3.0016
30527	4.9592	6.	5.e-002	-5.6484e-005
30528	5.2347	6.	0.1	2.7654
30529	5.1429	6.	5.e-002	-1.664e-005
30530	5.4184	6.	0.1	2.4895
30531	5.3265	6.	5.e-002	-1.7458e-006
30532	5.602	6.	0.1	2.1836
30533	5.5102	6.	5.e-002	-1.6697e-006
30534	5.7857	6.	0.1	1.8561
30535	5.6939	6.	5.e-002	-4.6795e-015
30536	5.9694	6.	0.1	1.514
30537	5.8776	6.	5.e-002	6.5403e-007
30538	6.1531	6.	0.1	1.1629
30539	6.0612	6.	5.e-002	2.7355e-007
30540	6.3367	6.	0.1	0.80766
30541	6.2449	6.	5.e-002	5.359e-007
30542	6.5204	6.	0.1	0.45205
30543	6.4286	6.	5.e-002	3.1567e-007
30544	6.7041	6.	0.1	9.9228e-002
30545	6.6122	6.	5.e-002	6.3735e-007
30546	6.8878	6.	0.1	-0.24816
30547	6.7959	6.	5.e-002	8.1075e-007
30548	7.0714	6.	0.1	-0.42598
30549	6.9796	6.	5.e-002	7.6916e-007
30550	7.2551	6.	0.1	-0.38926
30551	7.1633	6.	5.e-002	8.4497e-007
30552	7.4388	6.	0.1	-0.35497
30553	7.3469	6.	5.e-002	7.5615e-007
30554	7.6224	6.	0.1	-0.32318
30555	7.5306	6.	5.e-002	9.4342e-007
30556	7.8061	6.	0.1	-0.29371
30557	7.7143	6.	5.e-002	9.788e-007
30558	7.9898	6.	0.1	-0.26639
30559	7.898	6.	5.e-002	9.1743e-007
30560	8.1735	6.	0.1	-0.24105
30561	8.0816	6.	5.e-002	1.0976e-006
30562	8.3571	6.	0.1	-0.21753
30563	8.2653	6.	5.e-002	1.1273e-006
30564	8.5408	6.	0.1	-0.19568
30565	8.449	6.	5.e-002	1.2476e-006
30566	8.7245	6.	0.1	-0.17538
30567	8.6327	6.	5.e-002	1.11e-006
30568	8.9082	6.	0.1	-0.15648
30569	8.8163	6.	5.e-002	1.1726e-006
30570	9.0918	6.	0.1	-0.13887
30571	9.	6.	5.e-002	1.4733e-006
30572	9.2755	6.	0.1	-0.12242
30573	9.1837	6.	5.e-002	1.4428e-006
30574	9.4592	6.	0.1	-0.10705
30575	9.3673	6.	5.e-002	1.3216e-006
30576	9.6429	6.	0.1	-9.2641e-002
30577	9.551	6.	5.e-002	1.4893e-006
30578	9.8265	6.	0.1	-7.9092e-002
30579	9.7347	6.	5.e-002	1.5407e-006
30580	10.01	6.	0.1	-6.6326e-002
30581	9.9184	6.	5.e-002	1.6089e-006
30582	10.194	6.	0.1	-5.4262e-002
30583	10.102	6.	5.e-002	1.4841e-006
30584	10.378	6.	0.1	-4.2812e-002
30585	10.286	6.	5.e-002	1.4899e-006
30586	10.561	6.	0.1	-3.1874e-002
30587	10.469	6.	5.e-002	1.844e-006
30588	10.745	6.	0.1	-2.1352e-002
30589	10.653	6.	5.e-002	1.8477e-006
30590	10.929	6.	0.1	-1.1183e-002
30591	10.837	6.	5.e-002	1.7881e-006
30592	11.112	6.	0.1	-1.2967e-003
30593	11.02	6.	5.e-002	2.2054e-006
30594	11.296	6.	0.1	8.4029e-003
30595	11.204	6.	5.e-002	1.6093e-006
30596	11.48	6.	0.1	1.8008e-002
30597	11.388	6.	5.e-002	2.2054e-006
30598	11.663	6.	0.1	2.7626e-002
30599	11.571	6.	5.e-002	1.2517e-006
30600	11.847	6.	0.1	3.7367e-002
30601	11.755	6.	5.e-002	5.9008e-006
30602	12.031	6.	0.1	4.7315e-002
30603	11.939	6.	5.e-002	2.3881e-006
30604	12.214	6.	0.1	5.7602e-002
30605	12.122	6.	5.e-002	-1.1327e-006
30606	12.398	6.	0.1	6.8406e-002
30607	12.306	6.	5.e-002	2.9801e-006
30608	12.582	6.	0.1	7.9887e-002
30609	12.49	6.	5.e-002	2.1525e-006
30610	12.765	6.	0.1	9.223e-002
30611	12.673	6.	5.e-002	2.9796e-006
30612	12.949	6.	0.1	0.10566
30613	12.857	6.	5.e-002	2.4927e-006
30614	13.133	6.	0.1	0.12043
30615	13.041	6.	5.e-002	2.2048e-006
30616	13.316	6.	0.1	0.13683
30617	13.224	6.	5.e-002	2.8464e-006
30618	13.5	6.	0.1	0.15523
30619	13.408	6.	5.e-002	2.8449e-006
30620	13.684	6.	0.1	0.17603
30621	13.592	6.	5.e-002	3.2335e-006
30622	13.867	6.	0.1	0.1997
30623	13.776	6.	5.e-002	2.2221e-006
30624	14.051	6.	0.1	0.22674
30625	13.959	6.	5.e-002	2.4157e-006
30626	14.235	6.	0.1	0.25776
30627	14.143	6.	5.e-002	3.7518e-006
30628	14.418	6.	0.1	0.29343
30629	14.327	6.	5.e-002	2.7969e-006
30630	14.602	6.	0.1	0.33446
30631	14.51	6.	5.e-002	3.266e-006
30632	14.786	6.	0.1	0.38158
30633	14.694	6.	5.e-002	3.1567e-006
30634	14.969	6.	0.1	0.43551
30635	14.878	6.	5.e-002	3.3848e-006
30636	15.153	6.	0.1	0.4968
30637	15.061	6.	5.e-002	3.6731e-006
30638	15.337	6.	0.1	0.56574
30639	15.245	6.	5.e-002	3.6424e-006
30640	15.52	6.	0.1	0.64212
30641	15.429	6.	5.e-002	3.3771e-006
30642	15.704	6.	0.1	0.72479
30643	15.612	6.	5.e-002	2.917e-006
30644	15.888	6.	0.1	0.81113
30645	15.796	6.	5.e-002	4.1882e-006
30646	16.071	6.	0.1	0.89633
30647	15.98	6.	5.e-002	3.8009e-006
30648	16.255	6.	0.1	0.97251
30649	16.163	6.	5.e-002	3.0434e-006
30650	16.439	6.	0.1	1.0278
30651	16.347	6.	5.e-002	3.8013e-006
30652	16.622	6.	0.1	1.0464
30653	16.531	6.	5.e-002	2.6226e-006
30654	16.806	6.	0.1	1.008
30655	16.714	6.	5.e-002	3.2606e-006
30656	16.99	6.	0.1	0.89616
30657	16.898	6.	5.e-002	-1.1504e-005
30658	17.173	6.	0.1	0.67783
30659	17.082	6.	5.e-002	3.482e-006
30660	17.357	6.	0.1	0.41333
30661	17.265	6.	5.e-002	3.9112e-006
30662	17.541	6.	0.1	-0.16589
30663	17.449	6.	5.e-002	5.5802e-006
30664	17.724	6.	0.1	0.39006
30665	17.633	6.	5.e-002	4.7867e-006
30666	17.908	6.	0.1	6.4104
30667	17.816	6.	5.e-002	6.6741e-006
30668	18.	6.	5.e-002	-2.2789e-008
30669	17.724	6.	0.	-0.39006
30670	17.908	6.	0.	-6.4104
30671	17.541	6.	0.	0.16589
30672	17.357	6.	0.	-0.41333
30673	17.173	6.	0.	-0.67783
30674	16.99	6.	0.	-0.89616
30675	16.806	6.	0.	-1.008
30676	16.622	6.	0.	-1.0464
30677	16.439	6.	0.	-1.0278
30678	16.255	6.	0.	-0.97251
30679	16.071	6.	0.	-0.89633
30680	15.888	6.	0.	-0.81113
30681	15.704	6.	0.	-0.72479
30682	15.52	6.	0.	-0.64212
30683	15.337	6.	0.	-0.56574
30684	15.153	6.	0.	-0.4968
30685	14.969	6.	0.	-0.43551
30686	14.786	6.	0.	-0.38158
30687	14.602	6.	0.	-0.33446
30688	14.418	6.	0.	-0.29343
30689	14.235	6.	0.	-0.25776
30690	14.051	6.	0.	-0.22674
30691	13.867	6.	0.	-0.1997
30692	13.684	6.	0.	-0.17603
30693	13.5	6.	0.	-0.15523
30694	13.316	6.	0.	-0.13683
30695	13.133	6.	0.	-0.12043
30696	12.949	6.	0.	-0.10566
30697	12.765	6.	0.	-9.223e-002
30698	12.582	6.	0.	-7.9887e-002
30699	12.398	6.	0.	-6.8406e-002
30700	12.214	6.	0.	-5.7602e-002
30701	12.031	6.	0.	-4.7315e-002
30702	11.847	6.	0.	-3.7366e-002
30703	11.663	6.	0.	-2.7626e-002
30704	11.48	6.	0.	-1.8009e-002
30705	11.296	6.	0.	-8.4026e-003
30706	11.112	6.	0.	1.2971e-003
30707	10.929	6.	0.	1.1183e-002
30708	10.745	6.	0.	2.1353e-002
30709	10.561	6.	0.	3.1875e-002
30710	10.378	6.	0.	4.2812e-002
30711	10.194	6.	0.	5.4262e-002
30712	10.01	6.	0.	6.6326e-002
30713	9.8265	6.	0.	7.9093e-002
30714	9.6429	6.	0.	9.2642e-002
30715	9.4592	6.	0.	0.10705
30716	9.2755	6.	0.	0.12242
30717	9.0918	6.	0.	0.13887
30718	8.9082	6.	0.	0.15648
30719	8.7245	6.	0.	0.17538
30720	8.5408	6.	0.	0.19568
30721	8.3571	6.	0.	0.21753
30722	8.1735	6.	0.	0.24105
30723	7.9898	6.	0.	0.26639
30724	7.8061	6.	0.	0.29371
30725	7.6224	6.	0.	0.32318
30726	7.4388	6.	0.	0.35497
30727	7.2551	6.	0.	0.38926
30728	7.0714	6.	0.	0.42598
30729	6.8878	6.	0.	0.24816
30730	6.7041	6.	0.	-9.9227e-002
30731	6.5204	6.	0.	-0.45205
30732	6.3367	6.	0.	-0.80766
30733	6.1531	6.	0.	-1.1629
30734	5.9694	6.	0.	-1.514
30735	5.7857	6.	0.	-1.8561
30736	5.602	6.	0.	-2.1836
30737	5.4184	6.	0.	-2.4895
30738	5.2347	6.	0.	-2.7654
30739	5.051	6.	0.	-3.0016
30740	4.8673	6.	0.	-3.1863
30741	4.6837	6.	0.	-3.3056
30742	4.5	6.	0.	-3.3433
30743	4.3163	6.	0.	-3.2803
30744	4.1327	6.	0.	-3.0946
30745	3.949	6.	0.	-2.761
30746	3.7653	6.	0.	-2.251
30747	3.5816	6.	0.	-1.5345
30748	3.398	6.	0.	-0.58605
30749	3.2143	6.	0.	0.58057
30750	3.0306	6.	0.	1.7341
30751	2.8469	6.	0.	2.4044
30752	2.6633	6.	0.	2.7831
30753	2.4796	6.	0.	3.0971
30754	2.2959	6.	0.	3.4066
30755	2.1122	6.	0.	3.7327
30756	1.9286	6.	0.	4.0871
30757	1.7449	6.	0.	4.4817
30758	1.5612	6.	0.	4.9238
30759	1.3776	6.	0.	5.4452
30760	1.1939	6.	0.	6.0123
30761	1.0102	6.	0.	6.8252
30762	0.82653	6.	0.	7.439
30763	0.64286	6.	0.	8.8804
30764	0.45918	6.	0.	13.398
30765	0.27551	6.	0.	-19.154
30766	9.1837e-002	6.	0.	166.09
30767	18.	5.9091	0.	2.3688
30768	5.1657e-014	5.9091	0.	-376.89
30769	0.27551	1.337e-031	0.	-19.154
30770	9.1837e-002	4.4566e-032	0.	166.09
30771	0.45918	2.2283e-031	0.	13.398
30772	0.64286	3.1196e-031	0.	8.8804
30773	0.82653	4.0109e-031	0.	7.439
30774	1.0102	4.9023e-031	0.	6.8252
30775	1.1939	5.7936e-031	0.	6.0123
30776	1.3776	6.6849e-031	0.	5.4452
30777	1.5612	7.5762e-031	0.	4.9238
30778	1.7449	8.4675e-031	0.	4.4817
30779	1.9286	9.3588e-031	0.	4.0871
30780	2.1122	1.025e-030	0.	3.7327
30781	2.2959	1.1141e-030	0.	3.4066
30782	2.4796	1.2033e-030	0.	3.0971
30783	2.6633	1.2924e-030	0.	2.7831
30784	2.8469	1.3815e-030	0.	2.4044
30785	3.0306	1.4707e-030	0.	1.7341
30786	3.2143	1.5598e-030	0.	0.58055
30787	3.398	1.6489e-030	0.	-0.58607
30788	3.5816	1.7381e-030	0.	-1.5345
30789	3.7653	1.8272e-030	0.	-2.251
30790	3.949	1.9163e-030	0.	-2.761
30791	4.1327	2.0055e-030	0.	-3.0946
30792	4.3163	2.0946e-030	0.	-3.2803
30793	4.5	2.1837e-030	0.	-3.3433
30794	4.6837	2.2729e-030	0.	-3.3056
30795	4.8673	2.362e-030	0.	-3.1863
30796	5.051	2.4511e-030	0.	-3.0016
30797	5.2347	2.5403e-030	0.	-2.7654
30798	5.4184	2.6294e-030	0.	-2.4895
30799	5.602	2.7185e-030	0.	-2.1836
30800	5.7857	2.8077e-030	0.	-1.8561
30801	5.9694	2.8968e-030	0.	-1.514
30802	6.1531	2.9859e-030	0.	-1.1629
30803	6.3367	3.0751e-030	0.	-0.80765
30804	6.5204	3.1642e-030	0.	-0.45204
30805	6.7041	3.2533e-030	0.	-9.9217e-002
30806	6.8878	3.3424e-030	0.	0.24817
30807	7.0714	3.4316e-030	0.	0.42598
30808	7.2551	3.5207e-030	0.	0.38926
30809	7.4388	3.6098e-030	0.	0.35497
30810	7.6224	3.699e-030	0.	0.32318
30811	7.8061	3.7881e-030	0.	0.29371
30812	7.9898	3.8772e-030	0.	0.26639
30813	8.1735	3.9664e-030	0.	0.24105
30814	8.3571	4.0555e-030	0.	0.21753
30815	8.5408	4.1446e-030	0.	0.19568
30816	8.7245	4.2338e-030	0.	0.17538
30817	8.9082	4.3229e-030	0.	0.15648
30818	9.0918	4.412e-030	0.	0.13887
30819	9.2755	4.5012e-030	0.	0.12243
30820	9.4592	4.5903e-030	0.	0.10705
30821	9.6429	4.6794e-030	0.	9.2642e-002
30822	9.8265	4.7686e-030	0.	7.9093e-002
30823	10.01	4.8577e-030	0.	6.6327e-002
30824	10.194	4.9468e-030	0.	5.4263e-002
30825	10.378	5.036e-030	0.	4.2813e-002
30826	10.561	5.1251e-030	0.	3.1875e-002
30827	10.745	5.2142e-030	0.	2.1353e-002
30828	10.929	5.3033e-030	0.	1.1184e-002
30829	11.112	5.3925e-030	0.	1.297e-003
30830	11.296	5.4816e-030	0.	-8.4021e-003
30831	11.48	5.5707e-030	0.	-1.8008e-002
30832	11.663	5.6599e-030	0.	-2.7626e-002
30833	11.847	5.749e-030	0.	-3.7365e-002
30834	12.031	5.8381e-030	0.	-4.7314e-002
30835	12.214	5.9273e-030	0.	-5.7603e-002
30836	12.398	6.0164e-030	0.	-6.8407e-002
30837	12.582	6.1055e-030	0.	-7.9887e-002
30838	12.765	6.1947e-030	0.	-9.223e-002
30839	12.949	6.2838e-030	0.	-0.10566
30840	13.133	6.3729e-030	0.	-0.12043
30841	13.316	6.4621e-030	0.	-0.13683
30842	13.5	6.5512e-030	0.	-0.15523
30843	13.684	6.6403e-030	0.	-0.17603
30844	13.867	6.7295e-030	0.	-0.1997
30845	14.051	6.8186e-030	0.	-0.22674
30846	14.235	6.9077e-030	0.	-0.25776
30847	14.418	6.9969e-030	0.	-0.29343
30848	14.602	7.086e-030	0.	-0.33446
30849	14.786	7.1751e-030	0.	-0.38158
30850	14.969	7.2642e-030	0.	-0.43551
30851	15.153	7.3534e-030	0.	-0.4968
30852	15.337	7.4425e-030	0.	-0.56574
30853	15.52	7.5316e-030	0.	-0.64212
30854	15.704	7.6208e-030	0.	-0.72479
30855	15.888	7.7099e-030	0.	-0.81113
30856	16.071	7.799e-030	0.	-0.89633
30857	16.255	7.8882e-030	0.	-0.97251
30858	16.439	7.9773e-030	0.	-1.0278
30859	16.622	8.0664e-030	0.	-1.0464
30860	16.806	8.1556e-030	0.	-1.008
30861	16.99	8.2447e-030	0.	-0.89616
30862	17.173	8.3338e-030	0.	-0.67783
30863	17.357	8.423e-030	0.	-0.41333
30864	17.541	8.5121e-030	0.	0.16589
30865	17.724	8.6012e-030	0.	-0.39006
30866	17.908	8.6904e-030	0.	-6.4104
30867	18.	9.0909e-002	0.	2.3688
30868	7.9472e-016	9.0909e-002	0.	-376.89
30869	18.44	0.	0.	0.34471
30870	18.258	0.	0.	-4.8486
30871	18.622	0.	0.	0.76293
30872	18.805	0.	0.	0.34716
30873	18.987	0.	0.	0.16157
30874	19.169	0.	0.	6.4319e-003
30875	19.352	0.	0.	-8.005e-002
30876	19.534	0.	0.	-0.12383
30877	19.716	0.	0.	-0.13652
30878	19.898	0.	0.	-0.13091
30879	20.081	0.	0.	-0.11584
30880	20.263	0.	0.	-9.7529e-002
30881	20.445	0.	0.	-7.9927e-002
30882	20.628	0.	0.	-6.5369e-002
30883	20.81	0.	0.	-5.5084e-002
30884	20.992	0.	0.	-4.9572e-002
30885	21.174	0.	0.	-4.8909e-002
30886	21.357	0.	0.	-5.2941e-002
30887	21.539	0.	0.	-6.1418e-002
30888	21.721	0.	0.	-7.4079e-002
30889	21.904	0.	0.	-9.0701e-002
30890	22.086	0.	0.	-0.11116
30891	22.268	0.	0.	-0.13545
30892	22.451	0.	0.	-0.16375
30893	22.633	0.	0.	-0.19648
30894	22.815	0.	0.	-0.23426
30895	22.997	0.	0.	-0.27875
30896	23.18	0.	0.	-0.33022
30897	23.362	0.	0.	-0.40018
30898	23.544	0.	0.	-0.47285
30899	23.727	0.	0.	-0.69106
30900	23.909	0.	0.	-0.47754
30901	18.167	9.0909e-002	0.	-0.4776
30902	24.	9.0909e-002	0.	2.4802
30903	5.0067e-014	5.7273	0.	-1763.2
30904	4.8478e-014	5.5455	0.	-2565.9
30905	4.6888e-014	5.3636	0.	-2978.8
30906	4.5299e-014	5.1818	0.	-3237.
30907	4.371e-014	5.	0.	-3415.
30908	4.212e-014	4.8182	0.	-3544.4
30909	4.0531e-014	4.6364	0.	-3641.4
30910	3.8941e-014	4.4545	0.	-3715.5
30911	3.7352e-014	4.2727	0.	-3772.9
30912	3.5762e-014	4.0909	0.	-3817.3
30913	3.4173e-014	3.9091	0.	-3851.6
30914	3.2583e-014	3.7273	0.	-3877.6
30915	3.0994e-014	3.5455	0.	-3896.7
30916	2.9405e-014	3.3636	0.	-3909.7
30917	2.7815e-014	3.1818	0.	-3917.1
30918	2.6226e-014	3.	0.	-3919.6
30919	2.4636e-014	2.8182	0.	-3917.1
30920	2.3047e-014	2.6364	0.	-3909.7
30921	2.1457e-014	2.4545	0.	-3896.7
30922	1.9868e-014	2.2727	0.	-3877.6
30923	1.8279e-014	2.0909	0.	-3851.6
30924	1.6689e-014	1.9091	0.	-3817.3
30925	1.51e-014	1.7273	0.	-3772.9
30926	1.351e-014	1.5455	0.	-3715.5
30927	1.1921e-014	1.3636	0.	-3641.4
30928	1.0331e-014	1.1818	0.	-3544.4
30929	8.7419e-015	1.	0.	-3415.
30930	7.1525e-015	0.81818	0.	-3237.
30931	5.563e-015	0.63636	0.	-2978.8
30932	3.9736e-015	0.45455	0.	-2565.9
30933	2.3842e-015	0.27273	0.	-1763.2
30934	24.	0.27273	0.	2.3119
30935	24.	0.45455	0.	2.3829
30936	24.	0.63636	0.	2.4707
30937	24.	0.81818	0.	2.4909
30938	24.	1.	0.	2.5069
30939	24.	1.1818	0.	2.5151
30940	24.	1.3636	0.	2.5201
30941	24.	1.5455	0.	2.5225
30942	24.	1.7273	0.	2.5234
30943	24.	1.9091	0.	2.5233
30944	24.	2.0909	0.	2.5226
30945	24.	2.2727	0.	2.5217
30946	24.	2.4545	0.	2.5207
30947	24.	2.6364	0.	2.5199
30948	24.	2.8182	0.	2.5194
30949	24.	3.	0.	2.5192
30950	24.	3.1818	0.	2.5194
30951	24.	3.3636	0.	2.5199
30952	24.	3.5455	0.	2.5207
30953	24.	3.7273	0.	2.5217
30954	24.	3.9091	0.	2.5226
30955	24.	4.0909	0.	2.5233
30956	24.	4.2727	0.	2.5234
30957	24.	4.4545	0.	2.5225
30958	24.	4.6364	0.	2.5201
30959	24.	4.8182	0.	2.5151
30960	24.	5.	0.	2.5069
30961	24.	5.1818	0.	2.4909
30962	24.	5.3636	0.	2.4707
30963	24.	5.5455	0.	2.3829
30964	24.	5.7273	0.	2.3119
30965	24.	5.9091	0.	2.4802
30966	23.909	6.	0.	-0.47754
30967	23.727	6.	0.	-0.69106
30968	23.544	6.	0.	-0.47285
30969	23.362	6.	0.	-0.40018
30970	23.18	6.	0.	-0.33022
30971	22.997	6.	0.	-0.27875
30972	22.815	6.	0.	-0.23426
30973	22.633	6.	0.	-0.19647
30974	22.451	6.	0.	-0.16375
30975	22.268	6.	0.	-0.13545
30976	22.086	6.	0.	-0.11116
30977	21.904	6.	0.	-9.0701e-002
30978	21.721	6.	0.	-7.408e-002
30979	21.539	6.	0.	-6.1418e-002
30980	21.357	6.	0.	-5.294e-002
30981	21.174	6.	0.	-4.8907e-002
30982	20.992	6.	0.	-4.9571e-002
30983	20.81	6.	0.	-5.5083e-002
30984	20.628	6.	0.	-6.5367e-002
30985	20.445	6.	0.	-7.9925e-002
30986	20.263	6.	0.	-9.7528e-002
30987	20.081	6.	0.	-0.11584
30988	19.898	6.	0.	-0.13091
30989	19.716	6.	0.	-0.13652
30990	19.534	6.	0.	-0.12383
30991	19.352	6.	0.	-8.0051e-002
30992	19.169	6.	0.	6.4313e-003
30993	18.987	6.	0.	0.16157
30994	18.805	6.	0.	0.34716
30995	18.622	6.	0.	0.76293
30996	18.44	6.	0.	0.34471
30997	18.258	6.	0.	-4.8486
30998	18.167	5.9091	0.	-0.47759
30999	18.	1.7273	0.	18.677
31000	18.	1.9091	0.	-324.03
31001	18.	1.5455	0.	26.302
31002	18.	1.3636	0.	11.53
31003	18.	1.1818	0.	10.615
31004	18.	1.	0.	8.3318
31005	18.	0.81818	0.	7.4531
31006	18.	0.63636	0.	6.6577
31007	18.	0.45455	0.	6.295
31008	18.	0.27273	0.	5.6746
31009	18.083	2.	0.	-616.49
31010	18.167	0.27273	0.	3.5383
31011	18.167	0.45455	0.	4.1275
31012	18.167	0.63636	0.	4.4282
31013	18.167	0.81818	0.	5.1275
31014	18.167	1.	0.	5.9629
31015	18.167	1.1818	0.	7.9356
31016	18.167	1.3636	0.	9.1376
31017	18.167	1.5455	0.	22.682
31018	18.167	1.7273	0.	19.852
31019	18.167	1.9091	0.	-458.97
31020	18.	4.2727	0.	18.677
31021	18.	4.0909	0.	-324.03
31022	18.	4.4545	0.	26.302
31023	18.	4.6364	0.	11.53
31024	18.	4.8182	0.	10.615
31025	18.	5.	0.	8.3318
31026	18.	5.1818	0.	7.4531
31027	18.	5.3636	0.	6.6577
31028	18.	5.5455	0.	6.295
31029	18.	5.7273	0.	5.6746
31030	18.083	4.	0.	-616.49
31031	18.167	5.7273	0.	3.5383
31032	18.167	5.5455	0.	4.1275
31033	18.167	5.3636	0.	4.4282
31034	18.167	5.1818	0.	5.1275
31035	18.167	5.	0.	5.9629
31036	18.167	4.8182	0.	7.9356
31037	18.167	4.6364	0.	9.1376
31038	18.167	4.4545	0.	22.682
31039	18.167	4.2727	0.	19.852
31040	18.167	4.0909	0.	-458.97
