Node Numbers,X Locations (inches),Y Locations (inches),Z Locations (inches),Equivalent Elastic Strains (in/in),Equivalent Stress (psi),Max Principal Elastic Strain (in/in),Max Principal Stress (psi),Middle Principal Elastic Strain (in/in),Middle Principal Stress (psi),Min Principal Elastic Strain (in/in),Min Principal Stress (psi),Total Deformation (in)
1,17.992,3.1182,0,0.00028456,2843.6,0.00012838,428.44,7.2876e-05,11.426,-0.00027477,-2600.6,1.3617
2,17.802,2.4123,0,0.00024117,2410,0.00011536,418.6,5.4597e-05,-37.988,-0.00023142,-2187,1.3374
3,18.585,3.3645,0,0.00018583,1857,0.00011306,692.04,3.0208e-05,69.493,-0.00016487,-1396.2,1.4376
4,20.323,4.1901,0,6.3192e-05,631.48,2.4698e-05,26.55,1.6599e-05,-34.301,-6.3103e-05,-633.15,1.6666
5,17.132,2.6578,0,0.00023721,2370.4,0.00013188,709.27,4.6889e-05,70.662,-0.00021739,-1915,1.2545
6,16.161,3.4296,0,0.00020081,2006.7,0.00010162,339.37,3.322e-05,-174.56,-0.000193,-1874.3,1.1372
7,22.108,2.029,0,4.0174e-05,401.46,1.4349e-05,10.972,1.2402e-05,-3.6552,-4.003e-05,-397.6,1.9083
8,14.421,4.0723,0,0.00016239,1622.8,5.3934e-05,-15.384,5.1596e-05,-32.951,-0.00016321,-1646.9,0.93447
9,17.835,2.7021,0,0.00027944,2792.5,0.00013369,576.15,7.2378e-05,115.46,-0.00026481,-2418,1.3418
10,17.565,3.3233,0,0.00022215,2219.9,0.00010949,514.83,5.6989e-05,120.34,-0.00020869,-1875.9,1.3079
11,16.759,4.9798,0,0.00018179,1816.7,8.2014e-05,280.49,4.7227e-05,19.108,-0.00017528,-1652.7,1.2055
12,12.338,4.0627,0,0.00026725,2670.7,9.3558e-05,90.051,8.7351e-05,43.419,-0.00026495,-2603.7,0.70778
13,9.8361,4.0512,0,0.0003378,3375.7,0.00011467,12.368,0.00010719,-43.806,-0.0003383,-3391.1,0.46627
14,7.378,4.054,0,0.00039864,3983.6,0.00014348,66.936,0.00011721,-130.46,-0.00039935,-4011.7,0.27013
15,4.8736,4.0375,0,0.00045155,4512.4,0.00016712,-196.03,9.8587e-05,-710.96,-0.00046477,-4943.8,0.12009
16,2.4218,4.0387,0,0.0005357,5353.3,0.00030304,1100.8,3.9359e-05,-880.47,-0.00050369,-4960.7,0.029807
17,2.3287,2.0345,0,0.00053696,5365.9,0.00030268,1084.9,3.9888e-05,-889.6,-0.00050565,-4988.6,0.027389
18,4.669,2.0455,0,0.00045861,4582.9,0.00017032,-177.07,0.00010118,-696.52,-0.00047125,-4997.6,0.10994
19,7.0485,2.0492,0,0.00040708,4068,0.00014547,61.204,0.00012087,-123.61,-0.00040782,-4096,0.24691
20,9.4092,2.0577,0,0.0003477,3474.6,0.00011758,-17.362,0.00010832,-86.99,-0.00034942,-3526.3,0.42859
21,11.721,2.0349,0,0.00029104,2908.4,0.00010459,90.436,8.9758e-05,-20.98,-0.0002897,-2872.1,0.64429
22,14.075,1.9663,0,0.00018026,1801.4,6.1875e-05,12.218,5.6543e-05,-27.838,-0.00018049,-1808.8,0.89551
23,15.914,2.4717,0,0.00017197,1718.6,8.3273e-05,210.56,2.7869e-05,-205.72,-0.00016806,-1677.9,1.1081
24,17.362,1.5,0,0.00020268,2025.4,0.00012203,911.31,5.2653e-05,390.07,-0.00017544,-1323.7,1.2809
25,17.618,2.0032,0,0.00022531,2251.6,9.7832e-05,171.24,4.8349e-05,-200.56,-0.0002235,-2243.1,1.3137
26,19.205,3.6039,0,0.0001274,1273.1,5.6302e-05,167.98,3.2503e-05,-10.835,-0.00012378,-1185.1,1.5185
27,22.112,4.0812,0,4.0422e-05,403.94,1.4375e-05,10.671,1.2552e-05,-3.0246,-4.0274e-05,-399.94,1.9079
28,20.256,1.932,0,6.5232e-05,651.87,2.4424e-05,20.222,1.8382e-05,-25.176,-6.5197e-05,-653.16,1.6585
29,16.978,4.1726,0,0.00018026,1801.4,8.0409e-05,145.13,3.5326e-05,-193.61,-0.00017868,-1801.6,1.2342
30,18.4,2.5721,0,0.00023223,2320.7,0.00012051,597.63,5.3608e-05,94.95,-0.00021633,-1933.3,1.4137
31,19.181,2.5815,0,0.00013221,1321.2,5.8091e-05,156.76,3.2643e-05,-34.444,-0.00012909,-1249.6,1.5157
32,16.711,1.0099,0,0.00016968,1695.6,9.6083e-05,494.78,2.8445e-05,-13.428,-0.00015568,-1396.9,1.2004
33,16.711,1.0099,0.1,0.00016968,1695.6,0.00015568,1396.9,-2.8445e-05,13.428,-9.6083e-05,-494.78,1.2004
34,19.181,2.5815,0.1,0.00013221,1321.2,0.00012909,1249.6,-3.2643e-05,34.444,-5.8091e-05,-156.76,1.5157
35,18.4,2.5721,0.1,0.00023223,2320.7,0.00021633,1933.3,-5.3608e-05,-94.95,-0.00012051,-597.63,1.4137
36,16.978,4.1726,0.1,0.00018026,1801.4,0.00017868,1801.6,-3.5326e-05,193.61,-8.0409e-05,-145.13,1.2342
37,20.256,1.932,0.1,6.5232e-05,651.87,6.5197e-05,653.16,-1.8382e-05,25.176,-2.4424e-05,-20.222,1.6585
38,22.112,4.0812,0.1,4.0422e-05,403.94,4.0274e-05,399.94,-1.2552e-05,3.0247,-1.4375e-05,-10.671,1.9079
39,19.205,3.6039,0.1,0.0001274,1273.1,0.00012378,1185.1,-3.2503e-05,10.835,-5.6302e-05,-167.98,1.5185
40,17.618,2.0032,0.1,0.00022531,2251.6,0.0002235,2243.1,-4.8349e-05,200.56,-9.7832e-05,-171.24,1.3137
41,17.362,1.5,0.1,0.00020268,2025.4,0.00017544,1323.7,-5.2653e-05,-390.07,-0.00012203,-911.31,1.2809
42,15.914,2.4717,0.1,0.00017197,1718.6,0.00016806,1677.9,-2.7869e-05,205.72,-8.3273e-05,-210.56,1.1081
43,14.075,1.9663,0.1,0.00018026,1801.4,0.00018049,1808.8,-5.6543e-05,27.838,-6.1875e-05,-12.218,0.89551
44,11.721,2.0349,0.1,0.00029104,2908.4,0.0002897,2872.1,-8.9758e-05,20.98,-0.00010459,-90.436,0.64429
45,9.4092,2.0577,0.1,0.0003477,3474.6,0.00034942,3526.3,-0.00010832,86.99,-0.00011758,17.362,0.42859
46,7.0485,2.0492,0.1,0.00040708,4068,0.00040782,4096,-0.00012087,123.61,-0.00014547,-61.204,0.24691
47,4.669,2.0455,0.1,0.00045861,4582.9,0.00047125,4997.6,-0.00010118,696.52,-0.00017032,177.07,0.10994
48,2.3287,2.0345,0.1,0.00053696,5365.9,0.00050565,4988.6,-3.9888e-05,889.6,-0.00030268,-1084.9,0.027389
49,2.4218,4.0387,0.1,0.0005357,5353.3,0.00050369,4960.7,-3.9359e-05,880.47,-0.00030304,-1100.8,0.029807
50,4.8736,4.0375,0.1,0.00045155,4512.4,0.00046477,4943.8,-9.8587e-05,710.96,-0.00016712,196.03,0.12009
51,7.378,4.054,0.1,0.00039864,3983.6,0.00039935,4011.7,-0.00011721,130.46,-0.00014348,-66.936,0.27013
52,9.8361,4.0512,0.1,0.0003378,3375.7,0.0003383,3391.1,-0.00010719,43.806,-0.00011467,-12.368,0.46627
53,12.338,4.0627,0.1,0.00026725,2670.7,0.00026495,2603.7,-8.7351e-05,-43.419,-9.3558e-05,-90.051,0.70778
54,16.759,4.9798,0.1,0.00018179,1816.7,0.00017528,1652.7,-4.7227e-05,-19.108,-8.2014e-05,-280.49,1.2055
55,17.565,3.3233,0.1,0.00022215,2219.9,0.00020869,1875.9,-5.6989e-05,-120.34,-0.00010949,-514.83,1.3079
56,17.835,2.7021,0.1,0.00027944,2792.5,0.00026481,2418,-7.2378e-05,-115.46,-0.00013369,-576.15,1.3418
57,14.421,4.0723,0.1,0.00016239,1622.8,0.00016321,1646.9,-5.1596e-05,32.951,-5.3934e-05,15.384,0.93447
58,22.108,2.029,0.1,4.0174e-05,401.46,4.003e-05,397.6,-1.2402e-05,3.6552,-1.4349e-05,-10.972,1.9083
59,16.161,3.4296,0.1,0.00020081,2006.7,0.000193,1874.3,-3.322e-05,174.56,-0.00010162,-339.37,1.1372
60,17.132,2.6578,0.1,0.00023721,2370.4,0.00021739,1915,-4.6889e-05,-70.662,-0.00013188,-709.27,1.2545
61,20.323,4.1901,0.1,6.3192e-05,631.48,6.3103e-05,633.15,-1.6599e-05,34.301,-2.4698e-05,-26.55,1.6666
62,18.585,3.3645,0.1,0.00018583,1857,0.00016487,1396.2,-3.0208e-05,-69.493,-0.00011306,-692.04,1.4376
63,17.802,2.4123,0.1,0.00024117,2410,0.00023142,2187,-5.4597e-05,37.988,-0.00011536,-418.6,1.3374
64,17.992,3.1182,0.1,0.00028456,2843.6,0.00027477,2600.6,-7.2876e-05,-11.426,-0.00012838,-428.44,1.3617
65,18.167,1,0.1,0.00011835,1182.7,0.00012496,1404.5,-1.6479e-05,341.82,-4.4629e-05,130.31,1.381
66,18.167,1.5,0.1,0.00020441,2042.7,0.00021116,2313.5,-2.5871e-05,532.53,-8.5606e-05,83.706,1.3818
67,18.167,2,0.1,0.00048369,4833.6,0.00048609,4954.3,-0.0001153,435.75,-0.00019223,-142.28,1.3829
68,18,2,0.1,0.00050129,5009.4,0.00047605,4557.9,-7.7411e-05,399.41,-0.00026411,-1003.4,1.3616
69,18,1.5,0.1,0.00015807,1579.6,0.00013355,1356.4,2.3691e-05,530.96,-0.00010885,-464.88,1.3597
70,18,1,0.1,0.0001343,1342.1,0.00013515,1379.2,-3.2604e-05,118.81,-5.2657e-05,-31.86,1.3575
71,18.167,5,0.1,0.00012212,1220.4,0.00012776,1407.2,-2.0729e-05,291.52,-4.57e-05,103.9,1.3796
72,18.167,4.5,0.1,0.00019191,1917.8,0.00019841,2162.4,-2.83e-05,458.92,-7.8029e-05,85.278,1.3809
73,18.167,4,0.1,0.00051779,5174.4,0.00053248,5652.4,-0.0001148,788.99,-0.0001912,214.95,1.3823
74,18,4,0.1,0.00038239,3821.2,0.00036895,3751.2,-3.1399e-05,743.16,-0.0002033,-548.42,1.3611
75,18,4.5,0.1,0.00018801,1878.8,0.00011535,822.23,4.1776e-05,269.4,-0.00016323,-1270.9,1.359
76,18,5,0.1,0.00013927,1391.7,0.00013569,1314.7,-3.2213e-05,53.156,-6.2999e-05,-178.16,1.3566
77,18.167,6,0.1,5.5476e-05,554.38,5.7676e-05,623.39,-1.1976e-05,100.05,-1.9642e-05,42.455,1.3773
78,20.111,6,0.1,5.2971e-05,529.35,5.11e-05,481.36,-1.4126e-05,-8.724,-2.3616e-05,-80.026,1.636
79,22.056,6,0.1,3.9702e-05,396.75,3.8853e-05,373.24,-1.1984e-05,-8.7279,-1.572e-05,-36.801,1.8984
80,24,6,0.1,2.0012e-05,199.98,1.9858e-05,219.38,1.9293e-07,71.625,-1.0428e-05,-8.1788,2.1636
81,24,4,0.1,2.196e-05,219.45,2.2588e-05,244.89,-3.1003e-06,51.882,-9.1794e-06,6.2055,2.1652
82,24,2,0.1,2.2211e-05,221.96,2.2782e-05,246.28,-3.0627e-06,52.097,-9.4198e-06,4.3325,2.1661
83,1.7484e-14,2,0.1,0.00038288,3826.1,0.00051036,7575,8.1561e-06,3801.7,-5.613e-06,3698.2,0
84,3.4968e-14,4,0.1,0.00038684,3865.7,0.00051517,7640.2,8.7544e-06,3835.2,-7.0377e-06,3716.6,0
85,3.937e-14,6,0.1,0.00036817,3679.2,0.00047719,6895.9,5.1644e-06,3349.3,-2.8395e-05,3097.2,0
86,2.5714,6,0.1,0.00053375,5333.8,0.00051175,5049.2,-6.5905e-05,708.91,-0.00028073,-905.23,0.030329
87,5.1429,6,0.1,0.00046947,4691.4,0.00048366,5127.7,-0.00011614,621.08,-0.00016271,271.17,0.12617
88,7.7143,6,0.1,0.00040765,4073.7,0.00040806,4086.3,-0.00013016,42.279,-0.00013799,-16.505,0.28576
89,10.286,6,0.1,0.00033059,3303.6,0.00032928,3267.1,-0.00010431,9.2622,-0.00011624,-80.401,0.49939
90,12.857,6,0.1,0.00024427,2441,0.00024055,2340.9,-7.1949e-05,-7.0289,-9.5431e-05,-183.46,0.75636
91,15.429,6,0.1,0.00016483,1647.1,0.00014159,1153.8,-2.1676e-05,-72.92,-0.00010758,-718.33,1.0448
92,16.714,6,0.1,0.00013603,1359.3,0.00012477,1284.1,6.2387e-06,393.52,-8.3473e-05,-280.54,1.1966
93,18,6,0.1,0.00011253,1124.5,0.00011405,1222.9,-1.2889e-05,269.14,-5.0978e-05,-17.049,1.3515
94,24,0,0.1,2.0173e-05,201.59,1.9968e-05,218.85,-4.1072e-09,68.785,-1.0528e-05,-10.285,2.1662
95,22.056,0,0.1,3.8818e-05,387.92,3.7883e-05,362.9,-1.1168e-05,-5.6565,-1.5984e-05,-41.844,1.9009
96,20.111,0,0.1,5.4694e-05,546.56,5.2782e-05,499.17,-1.3955e-05,-2.2656,-2.4759e-05,-83.435,1.6383
97,18.167,0,0.1,4.8755e-05,487.21,5.239e-05,595.43,-1.0345e-05,124.07,-1.4375e-05,93.785,1.3795
98,18,0,0.1,0.00013138,1312.9,0.00012831,1226.3,-4.0752e-05,-43.969,-5.16e-05,-125.48,1.3528
99,15.75,2.4415e-30,0.1,0.00011075,1106.8,0.00012156,1435.4,-1.6411e-05,398.7,-3.3568e-05,269.79,1.0829
100,13.5,2.0927e-30,0.1,0.00021474,2145.9,0.00021518,2159.3,-6.7953e-05,31.935,-7.2832e-05,-4.7242,0.82558
101,11.25,1.744e-30,0.1,0.00030659,3063.8,0.00030698,3078.9,-9.2216e-05,79.463,-0.00010886,-45.574,0.58948
102,9,1.3952e-30,0.1,0.00036791,3676.6,0.00037152,3782.8,-0.00011515,126.21,-0.00012043,86.549,0.38437
103,6.75,1.0464e-30,0.1,0.00043886,4385.6,0.00044103,4453.2,-0.00013222,146.02,-0.00015256,-6.7958,0.21676
104,4.5,6.9758e-31,0.1,0.00049526,4949.2,0.00050774,5329.4,-0.00013,537.67,-0.00017007,236.65,0.093957
105,2.25,3.4879e-31,0.1,0.00053205,5316.8,0.00051194,5027,-7.7059e-05,601.47,-0.00027301,-870.82,0.022169
106,0,0,0.1,0.00035267,3524.3,0.0004572,6609.5,5.6382e-06,3216.6,-2.7574e-05,2967,0
107,2.25,3.4879e-31,0,0.00053205,5316.8,0.00027301,870.82,7.7059e-05,-601.47,-0.00051194,-5027,0.022169
108,4.5,6.9758e-31,0,0.00049526,4949.2,0.00017007,-236.65,0.00013,-537.67,-0.00050774,-5329.4,0.093957
109,6.75,1.0464e-30,0,0.00043886,4385.6,0.00015256,6.7958,0.00013222,-146.02,-0.00044103,-4453.2,0.21676
110,9,1.3952e-30,0,0.00036791,3676.6,0.00012043,-86.549,0.00011515,-126.21,-0.00037152,-3782.8,0.38437
111,11.25,1.744e-30,0,0.00030659,3063.8,0.00010886,45.574,9.2216e-05,-79.463,-0.00030698,-3078.9,0.58948
112,13.5,2.0927e-30,0,0.00021474,2145.9,7.2832e-05,4.7242,6.7953e-05,-31.935,-0.00021518,-2159.3,0.82558
113,15.75,2.4415e-30,0,0.00011075,1106.8,3.3568e-05,-269.79,1.6412e-05,-398.7,-0.00012156,-1435.4,1.0829
114,18,0,0,0.00013138,1312.9,5.16e-05,125.48,4.0752e-05,43.969,-0.00012831,-1226.3,1.3528
115,0,0,0,0.00035267,3524.3,2.7574e-05,-2967,-5.6382e-06,-3216.6,-0.0004572,-6609.5,0
116,20.111,0,0,5.4694e-05,546.56,2.4759e-05,83.435,1.3955e-05,2.2656,-5.2782e-05,-499.17,1.6383
117,22.056,0,0,3.8818e-05,387.92,1.5984e-05,41.844,1.1168e-05,5.6565,-3.7883e-05,-362.9,1.9009
118,18.167,0,0,4.8755e-05,487.21,1.4375e-05,-93.785,1.0345e-05,-124.07,-5.239e-05,-595.43,1.3795
119,24,0,0,2.0173e-05,201.59,1.0528e-05,10.285,4.1056e-09,-68.785,-1.9968e-05,-218.85,2.1662
120,16.714,6,0,0.00013603,1359.3,8.3473e-05,280.54,-6.2387e-06,-393.52,-0.00012477,-1284.1,1.1966
121,15.429,6,0,0.00016483,1647.1,0.00010758,718.33,2.1676e-05,72.92,-0.00014159,-1153.8,1.0448
122,12.857,6,0,0.00024427,2441,9.5431e-05,183.46,7.1949e-05,7.0289,-0.00024055,-2340.9,0.75636
123,10.286,6,0,0.00033059,3303.6,0.00011624,80.401,0.00010431,-9.2622,-0.00032928,-3267.1,0.49939
124,7.7143,6,0,0.00040765,4073.7,0.00013799,16.505,0.00013016,-42.279,-0.00040806,-4086.3,0.28576
125,5.1429,6,0,0.00046947,4691.4,0.00016271,-271.17,0.00011614,-621.08,-0.00048366,-5127.7,0.12617
126,2.5714,6,0,0.00053375,5333.8,0.00028073,905.23,6.5905e-05,-708.91,-0.00051175,-5049.2,0.030329
127,18,6,0,0.00011253,1124.5,5.0978e-05,17.049,1.2889e-05,-269.14,-0.00011405,-1222.9,1.3515
128,3.937e-14,6,0,0.00036817,3679.2,2.8395e-05,-3097.2,-5.1644e-06,-3349.3,-0.00047719,-6895.9,0
129,3.4968e-14,4,0,0.00038684,3865.7,7.0377e-06,-3716.6,-8.7544e-06,-3835.2,-0.00051517,-7640.2,0
130,1.7484e-14,2,0,0.00038288,3826.1,5.613e-06,-3698.2,-8.1561e-06,-3801.7,-0.00051036,-7575,0
131,24,2,0,2.2211e-05,221.96,9.4198e-06,-4.3324,3.0627e-06,-52.097,-2.2782e-05,-246.28,2.1661
132,24,4,0,2.196e-05,219.45,9.1794e-06,-6.2054,3.1003e-06,-51.882,-2.2588e-05,-244.89,2.1652
133,24,6,0,2.0012e-05,199.98,1.0428e-05,8.1788,-1.9293e-07,-71.625,-1.9858e-05,-219.38,2.1636
134,22.056,6,0,3.9702e-05,396.75,1.572e-05,36.801,1.1984e-05,8.7279,-3.8853e-05,-373.24,1.8984
135,20.111,6,0,5.2971e-05,529.35,2.3616e-05,80.026,1.4126e-05,8.724,-5.11e-05,-481.36,1.636
136,18.167,6,0,5.5476e-05,554.38,1.9642e-05,-42.455,1.1976e-05,-100.05,-5.7676e-05,-623.39,1.3773
137,18,4.5,0,0.00018801,1878.8,0.00016323,1270.9,-4.1776e-05,-269.4,-0.00011535,-822.23,1.359
138,18,5,0,0.00013927,1391.7,6.2999e-05,178.16,3.2213e-05,-53.156,-0.00013569,-1314.7,1.3566
139,18,4,0,0.00038239,3821.2,0.0002033,548.42,3.1399e-05,-743.16,-0.00036895,-3751.2,1.3611
140,18.167,5,0,0.00012212,1220.4,4.57e-05,-103.9,2.0729e-05,-291.52,-0.00012776,-1407.2,1.3796
141,18.167,4.5,0,0.00019191,1917.8,7.8029e-05,-85.278,2.83e-05,-458.92,-0.00019841,-2162.4,1.3809
142,18.167,4,0,0.00051779,5174.4,0.0001912,-214.95,0.0001148,-788.99,-0.00053248,-5652.4,1.3823
143,18,1.5,0,0.00015807,1579.6,0.00010885,464.88,-2.3691e-05,-530.96,-0.00013355,-1356.4,1.3597
144,18,1,0,0.0001343,1342.1,5.2657e-05,31.86,3.2604e-05,-118.81,-0.00013515,-1379.2,1.3575
145,18,2,0,0.00050129,5009.4,0.00026411,1003.4,7.7411e-05,-399.41,-0.00047605,-4557.9,1.3616
146,18.167,1,0,0.00011835,1182.7,4.4629e-05,-130.31,1.6479e-05,-341.82,-0.00012496,-1404.5,1.381
147,18.167,1.5,0,0.00020441,2042.7,8.5606e-05,-83.706,2.5871e-05,-532.53,-0.00021116,-2313.5,1.3818
148,18.167,2,0,0.00048369,4833.6,0.00019223,142.28,0.0001153,-435.75,-0.00048609,-4954.3,1.3829
149,17.914,2.9101,0,0.0002796,2794.1,0.00012838,482.36,7.3407e-05,69.303,-0.00026792,-2495.3,1.3518
150,17.779,3.2207,0,0.00025305,2528.8,0.00011748,460.7,6.6368e-05,76.669,-0.00024171,-2238.1,1.3347
151,18.196,2.8451,0,0.00025755,2573.7,0.00012259,499.1,6.4741e-05,64.454,-0.00024519,-2264.3,1.3876
152,17.992,3.1182,0.05,1.7177e-05,171.65,1.319e-05,99.102,-2.7977e-21,5.0623e-08,-1.319e-05,-99.102,1.3617
153,18.08,3.5591,0,0.00038998,3897.1,0.00013273,-96.604,0.00011287,-245.76,-0.00039559,-4066.2,1.3722
154,17.467,2.535,0,0.00023677,2366.1,0.00011817,522.96,5.5242e-05,50.138,-0.00022345,-2043.9,1.2957
155,17.819,2.5572,0,0.00025995,2597.7,0.00012422,495.05,6.3521e-05,38.989,-0.00024784,-2300.5,1.3396
156,17.802,2.4123,0.05,3.4951e-05,349.26,2.6838e-05,201.65,-1.0946e-13,9.7943e-06,-2.6838e-05,-201.65,1.3373
157,17.901,2.2061,0,0.0003663,3660.5,0.00018791,697.22,6.3512e-05,-237.42,-0.00034941,-3340,1.3495
158,18.895,3.4842,0,0.00015525,1551.5,8.4195e-05,426.34,3.1157e-05,27.838,-0.00014364,-1285.5,1.4779
159,18.493,2.9683,0,0.00020521,2050.7,0.00011376,622.11,4.2162e-05,84.13,-0.00018783,-1643.9,1.4258
160,18.585,3.3645,0.05,1.3845e-05,138.36,1.0631e-05,79.881,2.4253e-12,4.319e-06,-1.0631e-05,-79.881,1.4376
161,18.376,3.6822,0,0.00034556,3453.2,0.00012764,54.492,9.5506e-05,-186.93,-0.00034718,-3513.1,1.41
162,19.764,3.897,0,9.4702e-05,946.37,3.7794e-05,76.931,2.7018e-05,-4.0364,-9.3202e-05,-907.32,1.5922
163,21.218,4.1357,0,5.1728e-05,516.92,1.95e-05,18.334,1.4559e-05,-18.786,-5.1636e-05,-516.15,1.7868
164,20.29,3.061,0,6.2963e-05,629.19,2.3032e-05,11.9,1.7986e-05,-26.016,-6.3117e-05,-635.39,1.6628
165,20.323,4.1901,0.05,4.3277e-06,43.247,3.3232e-06,24.969,6.6909e-13,8.5983e-06,-3.3232e-06,-24.969,1.6666
166,20.217,5.095,0,5.7835e-05,577.95,2.1846e-05,35.926,1.7656e-05,4.4391,-5.7084e-05,-557.12,1.6515
167,19.245,4.595,0,8.811e-05,880.5,3.3934e-05,-48.184,1.5771e-05,-184.65,-9.1274e-05,-988.95,1.5225
168,17.484,2.6799,0,0.00025642,2562.4,0.00012907,614.78,6.2572e-05,115.14,-0.00024032,-2160.7,1.2979
169,17.349,2.9906,0,0.00022876,2286,0.00011841,594.92,5.4048e-05,111.35,-0.00021287,-1894.2,1.2812
170,16.523,2.5648,0,0.00020405,2039.1,0.00010621,449.64,3.8605e-05,-58.317,-0.00019259,-1795.4,1.1806
171,17.375,2.3305,0,0.00022696,2268,0.00011382,432.43,4.4789e-05,-86.209,-0.00021657,-2050,1.2842
172,17.132,2.6578,0.05,4.3464e-05,434.34,3.3375e-05,250.77,1.4134e-12,1.0949e-07,-3.3375e-05,-250.77,1.2545
173,15.291,3.751,0,0.00018028,1801.6,7.7178e-05,157.49,4.2825e-05,-100.62,-0.00017792,-1759.2,1.0348
174,16.863,3.3764,0,0.00021077,2106.2,0.00010421,416.97,4.619e-05,-18.951,-0.00020059,-1873.1,1.2216
175,16.038,2.9506,0,0.0001857,1855.7,9.0299e-05,258.83,3.2586e-05,-174.8,-0.00018043,-1775.3,1.1228
176,16.57,3.8011,0,0.00018763,1875,8.1384e-05,169.89,4.3144e-05,-117.43,-0.00018508,-1832.2,1.1856
177,16.161,3.4296,0.05,2.219e-05,221.74,1.7039e-05,128.02,-3.6142e-21,1.668e-05,-1.7039e-05,-128.02,1.1372
178,22.11,3.0551,0,4.0115e-05,400.87,1.4087e-05,8.7544,1.2596e-05,-2.4477,-3.9996e-05,-397.6,1.9082
179,21.182,1.9805,0,5.2607e-05,525.71,1.9321e-05,15.109,1.5378e-05,-14.521,-5.2534e-05,-524.79,1.7829
180,22.108,2.029,0.05,2.4529e-06,24.512,1.8835e-06,14.152,7.7652e-13,8.5764e-06,-1.8835e-06,-14.152,1.9082
181,22.082,1.0145,0,3.9293e-05,392.65,1.4425e-05,20.833,1.2392e-05,5.5592,-3.8821e-05,-379.24,1.9047
182,23.054,2.0145,0,3.0968e-05,309.47,1.1054e-05,-2.9175,8.5053e-06,-22.068,-3.1349e-05,-321.51,2.037
183,15.59,4.5261,0,0.00016867,1685.6,6.4854e-05,109.1,4.9883e-05,-3.3822,-0.00016659,-1629.9,1.0682
184,13.38,4.0675,0,0.00021442,2142.8,7.3465e-05,35.22,6.9403e-05,4.703,-0.00021373,-2122.6,0.81867
185,14.248,3.0193,0,0.00017127,1711.5,5.7727e-05,-2.9134,5.4198e-05,-29.43,-0.0001718,-1727.5,0.9158
186,14.421,4.0723,0.05,6.2764e-06,62.72,4.8195e-06,36.212,-6.4877e-13,3.8232e-06,-4.8195e-06,-36.212,0.93445
187,14.925,5.0362,0,0.00015768,1575.7,7.7123e-05,324.19,3.7459e-05,26.165,-0.00014959,-1379.2,0.98989
188,17.835,2.7021,0.05,2.0213e-05,201.99,1.5521e-05,116.62,8.7209e-13,3.5207e-06,-1.5521e-05,-116.62,1.3418
189,18.001,2.351,0,0.00036577,3655.2,0.00014152,198.07,0.00010294,-91.762,-0.0003631,-3593.4,1.3624
190,17.565,3.3233,0.05,5.4493e-06,54.455,4.1844e-06,31.44,1.7904e-12,1.2703e-08,-4.1844e-06,-31.44,1.3079
191,17.783,3.6616,0,0.00029611,2959.1,0.00015173,496.6,4.4609e-05,-308.29,-0.00028458,-2781.7,1.3346
192,16.868,4.5762,0,0.00017592,1758,6.2438e-05,71.749,5.7185e-05,32.28,-0.00017411,-1705.6,1.2199
193,16.759,4.9798,0.05,2.0447e-05,204.33,1.5701e-05,117.97,5.0315e-14,1.1026e-05,-1.5701e-05,-117.97,1.2055
194,16.736,5.4899,0,0.00015581,1557,8.1816e-05,273.55,2.0536e-05,-186.89,-0.00014914,-1461.7,1.2012
195,17.379,4.7399,0,0.00016835,1682.4,0.0001161,726.68,5.524e-06,-104.12,-0.00014159,-1209.5,1.2816
196,17.379,4.9899,0,0.00015589,1557.9,6.8605e-05,200,3.9777e-05,-16.594,-0.00015164,-1454.8,1.2807
197,11.087,4.0569,0,0.00030252,3023.1,0.00010406,50.808,9.7318e-05,0.16233,-0.00030162,-2997.3,0.58226
198,12.03,3.0488,0,0.00027888,2786.9,9.8812e-05,88.292,8.8593e-05,11.511,-0.00027711,-2736.2,0.67661
199,12.338,4.0627,0.05,3.0357e-06,30.336,2.3311e-06,17.515,4.1688e-13,8.0962e-06,-2.3311e-06,-17.515,0.70776
200,12.598,5.0314,0,0.00025543,2552.5,9.1462e-05,113.97,8.2553e-05,47.037,-0.00025262,-2471.3,0.73269
201,8.6071,4.0526,0,0.00036811,3678.6,0.00012907,39.592,0.00011215,-87.549,-0.00036876,-3700.9,0.36261
202,9.6227,3.0544,0,0.0003426,3423.6,0.00011611,-2.6191,0.00010763,-66.293,-0.00034373,-3457.7,0.44829
203,9.8361,4.0512,0.05,4.7698e-07,4.7665,3.6626e-07,2.752,-2.0265e-14,1.8059e-06,-3.6626e-07,-2.752,0.46625
204,10.061,5.0256,0,0.00033394,3337.1,0.00011155,17.025,0.00010948,1.5343,-0.00033362,-3327.8,0.48364
205,6.1258,4.0457,0,0.00042481,4245.1,0.00015529,-64.628,0.0001078,-421.46,-0.00043195,-4476.9,0.18843
206,7.2133,3.0516,0,0.00040284,4025.6,0.00014442,63.678,0.00011908,-126.73,-0.00040357,-4053.8,0.25951
207,7.378,4.054,0.05,1.8607e-06,18.594,1.4288e-06,10.736,-2.3572e-14,-9.4951e-08,-1.4288e-06,-10.736,0.2701
208,7.5461,5.027,0,0.00040301,4027.4,0.00014003,36.435,0.00012434,-81.478,-0.00040365,-4048.6,0.27905
209,3.6477,4.0381,0,0.00049041,4900.7,0.00023491,451.1,6.9131e-05,-794.53,-0.00048422,-4952.2,0.067395
210,4.7713,3.0415,0,0.00045432,4540,0.00016855,-187.8,9.9349e-05,-707.76,-0.00046731,-4965.4,0.11578
211,4.8736,4.0375,0.05,8.8423e-06,88.362,6.7898e-06,51.016,-6.5465e-13,-1.0821e-14,-6.7898e-06,-51.016,0.12007
212,5.0082,5.0188,0,0.00046008,4597.7,0.00016462,-235.82,0.00010735,-666.08,-0.00047391,-5033.5,0.12428
213,2.3753,3.0366,0,0.00053531,5349.4,0.00030267,1091.4,3.8723e-05,-891.8,-0.00050358,-4966.4,0.028822
214,2.4218,4.0387,0.05,1.2622e-05,126.13,9.6918e-06,72.82,-1.9839e-13,-1.5446e-14,-9.6918e-06,-72.82,0.029774
215,2.4966,5.0193,0,0.00053314,5327.8,0.00029172,1001.7,5.1384e-05,-804.07,-0.0005063,-4994.3,0.030632
216,1.2109,4.0193,0,0.000455,4546.8,0.00015168,-1333.2,1.8278e-05,-2335.5,-0.00050904,-6297.6,0.0074777
217,3.4988,2.04,0,0.00049457,4942.3,0.00023635,452.78,7.0664e-05,-792.09,-0.00048843,-4992.9,0.061729
218,2.3287,2.0345,0.05,1.1218e-05,112.1,8.6138e-06,64.72,-9.3549e-14,-1.3728e-14,-8.6138e-06,-64.72,0.027356
219,2.2894,1.0172,0,0.00053229,5319.3,0.00028755,975.66,5.6926e-05,-757.17,-0.00050695,-4993.9,0.025286
220,1.1644,2.0173,0,0.00045373,4534.2,0.00015138,-1327.4,1.8174e-05,-2328.3,-0.00050755,-6278.4,0.0068571
221,5.8588,2.0473,0,0.00043246,4321.7,0.00015788,-58.033,0.00011086,-411.28,-0.00043936,-4545.5,0.17226
222,4.669,2.0455,0.05,1.0289e-05,102.82,7.9009e-06,59.364,7.3882e-13,-1.5298e-06,-7.9008e-06,-59.364,0.10991
223,4.5845,1.0227,0,0.00047623,4759,0.00016996,-208.56,0.0001153,-619.26,-0.00048898,-5159.6,0.10311
224,8.2289,2.0534,0,0.0003773,3770.4,0.00013147,21.514,0.00011459,-105.3,-0.00037857,-3810.7,0.33246
225,7.0485,2.0492,0.05,1.265e-06,12.642,9.7138e-07,7.2986,-2.2851e-13,-2.9673e-07,-9.7138e-07,-7.2986,0.24688
226,6.8993,1.0246,0,0.00042295,4226.6,0.00014883,32.597,0.00012673,-133.46,-0.00042442,-4274.6,0.23313
227,10.565,2.0463,0,0.00031935,3191.3,0.00011106,36.367,9.9046e-05,-53.916,-0.00031955,-3199.1,0.53216
228,9.4092,2.0577,0.05,1.4515e-06,14.505,1.1146e-06,8.3747,2.1619e-12,2.0914e-06,-1.1146e-06,-8.3747,0.42856
229,9.2046,1.0289,0,0.00035764,3574,0.00011898,-52.115,0.00011161,-107.53,-0.00036033,-3653.5,0.40762
230,12.898,2.0006,0,0.00023553,2353.7,8.091e-05,33.895,7.5426e-05,-7.3108,-0.00023505,-2340.1,0.76635
231,11.721,2.0349,0.05,4.0689e-06,40.661,3.1244e-06,23.475,2.059e-12,2.4835e-06,-3.1244e-06,-23.475,0.64427
232,11.486,1.0174,0,0.00029856,2983.6,0.00010672,68,9.0756e-05,-51.958,-0.00029811,-2973.7,0.61779
233,14.995,2.219,0,0.00017509,1749.6,7.165e-05,104.45,4.3045e-05,-110.47,-0.00017419,-1742.7,1.0007
234,15.393,1.4881,0,0.00017113,1710.1,7.7266e-05,240.62,4.2022e-05,-24.185,-0.0001659,-1586.4,1.0456
235,14.075,1.9663,0.05,6.4502e-06,64.457,4.953e-06,37.215,1.2766e-13,-2.0727e-06,-4.953e-06,-37.215,0.89549
236,13.788,0.98316,0,0.00019703,1969,6.6972e-05,5.6028,6.2222e-05,-30.084,-0.00019743,-1981,0.86115
237,16.638,1.9858,0,0.00018105,1809.3,9.7679e-05,523.59,4.0152e-05,91.355,-0.00016667,-1462.6,1.1939
238,15.914,2.4717,0.05,1.7965e-05,179.52,1.3795e-05,103.65,2.011e-12,3.031e-06,-1.3795e-05,-103.65,1.108
239,17.49,1.7516,0,0.00021161,2114.6,0.00010664,516.56,5.2322e-05,108.44,-0.000198,-1772.4,1.2973
240,17.037,1.255,0,0.0001849,1847.7,0.00010756,691.82,4.1208e-05,193.27,-0.00016472,-1354,1.2405
241,17.362,1.5,0.05,1.0552e-05,105.45,8.1026e-06,60.879,1.8917e-13,8.2717e-06,-8.1026e-06,-60.879,1.2809
242,17.681,1.5,0,0.00017235,1722.3,0.00011148,658.34,1.4275e-05,-71.987,-0.00015033,-1308.8,1.3202
243,17.618,2.0032,0.05,5.0179e-05,501.45,3.8531e-05,289.51,5.7901e-13,6.5019e-06,-3.8531e-05,-289.51,1.3137
244,17.809,2.0016,0,0.00035832,3580.7,0.00017517,543.74,6.5553e-05,-279.9,-0.00034665,-3377,1.3375
245,19.193,3.0927,0,0.00012307,1229.9,5.1138e-05,116.85,3.3039e-05,-19.137,-0.00012084,-1175.3,1.5172
246,19.205,3.6039,0.05,7.2069e-06,72.019,5.534e-06,41.58,1.141e-12,2.1813e-05,-5.534e-06,-41.58,1.5185
247,18.686,4.052,0,0.00015109,1509.9,5.5254e-05,-48.15,3.5892e-05,-193.62,-0.00015468,-1625.5,1.4497
248,22.112,4.0812,0.05,2.6321e-06,26.303,2.0211e-06,15.186,5.4888e-13,1.233e-05,-2.0211e-06,-15.186,1.9079
249,23.056,4.0406,0,3.0984e-05,309.63,1.1053e-05,-3.2115,8.4952e-06,-22.427,-3.1376e-05,-322,2.0364
250,22.084,5.0406,0,3.9878e-05,398.51,1.4461e-05,19.327,1.2718e-05,6.2331,-3.9427e-05,-385.56,1.9033
251,19.719,2.2568,0,9.8408e-05,983.4,3.9562e-05,75.751,2.7149e-05,-17.514,-9.7084e-05,-950.96,1.5869
252,20.256,1.932,0.05,3.5017e-06,34.992,2.6888e-06,20.203,2.4303e-13,1.4643e-05,-2.6888e-06,-20.203,1.6585
253,20.184,0.96599,0,5.9725e-05,596.83,2.2979e-05,39.715,1.7737e-05,0.32895,-5.8946e-05,-575.84,1.6486
254,19.211,1.466,0,8.7661e-05,876.01,3.374e-05,-60.956,1.4436e-05,-206,-9.1297e-05,-1000.4,1.5193
255,16.978,4.1726,0.05,2.9959e-05,299.39,2.3005e-05,172.85,1.5125e-12,3.6792e-08,-2.3005e-05,-172.85,1.2342
256,17.489,4.0863,0,0.00027262,2724.4,0.00012358,209.48,4.8493e-05,-354.69,-0.00027067,-2752.8,1.2971
257,18.79,2.5768,0,0.00018154,1814.1,8.8848e-05,373.79,4.3074e-05,29.869,-0.00017221,-1587.7,1.4645
258,18.4,2.5721,0.05,2.0565e-05,205.51,1.5791e-05,118.65,7.1518e-13,8.999e-06,-1.5791e-05,-118.65,1.4137
259,18.283,2.286,0,0.00035159,3513.5,0.00013874,237.49,9.8552e-05,-64.479,-0.00034768,-3417.3,1.3984
260,19.181,2.5815,0.05,5.564e-06,55.601,4.2724e-06,32.101,-9.0625e-22,1.4122e-05,-4.2724e-06,-32.101,1.5157
261,18.674,2.0408,0,0.00015763,1575.2,5.9125e-05,-59.077,3.3865e-05,-248.87,-0.00016201,-1720.6,1.4489
262,16.711,1.0099,0.05,2.9286e-05,292.66,2.2488e-05,168.97,3.1347e-13,3.9178e-06,-2.2488e-05,-168.97,1.2004
263,16.231,0.50497,0,0.00013664,1365.4,5.6762e-05,51.907,2.909e-05,-156.01,-0.00013722,-1405.6,1.1414
264,17.356,1.005,0,0.0001477,1476,6.8843e-05,221.79,3.3505e-05,-43.726,-0.00014286,-1368.9,1.2785
265,17.037,1.255,0.1,0.0001849,1847.7,0.00016472,1354,-4.1208e-05,-193.27,-0.00010756,-691.82,1.2405
266,15.393,1.4881,0.1,0.00017113,1710.1,0.0001659,1586.4,-4.2022e-05,24.185,-7.7266e-05,-240.62,1.0456
267,17.356,1.005,0.1,0.0001477,1476,0.00014286,1368.9,-3.3505e-05,43.726,-6.8843e-05,-221.79,1.2785
268,16.231,0.50497,0.1,0.00013664,1365.4,0.00013722,1405.6,-2.909e-05,156.01,-5.6762e-05,-51.907,1.1414
269,18.79,2.5768,0.1,0.00018154,1814.1,0.00017221,1587.7,-4.3074e-05,-29.869,-8.8848e-05,-373.79,1.4645
270,19.719,2.2568,0.1,9.8408e-05,983.4,9.7084e-05,950.96,-2.7149e-05,17.514,-3.9562e-05,-75.751,1.5869
271,19.193,3.0927,0.1,0.00012307,1229.9,0.00012084,1175.3,-3.3039e-05,19.137,-5.1138e-05,-116.85,1.5172
272,18.674,2.0408,0.1,0.00015763,1575.2,0.00016201,1720.6,-3.3865e-05,248.87,-5.9125e-05,59.077,1.4489
273,18.493,2.9683,0.1,0.00020521,2050.7,0.00018783,1643.9,-4.2162e-05,-84.13,-0.00011376,-622.11,1.4258
274,18.196,2.8451,0.1,0.00025755,2573.7,0.00024519,2264.3,-6.4741e-05,-64.454,-0.00012259,-499.1,1.3876
275,18.283,2.286,0.1,0.00035159,3513.5,0.00034768,3417.3,-9.8552e-05,64.479,-0.00013874,-237.49,1.3984
276,16.868,4.5762,0.1,0.00017592,1758,0.00017411,1705.6,-5.7185e-05,-32.28,-6.2438e-05,-71.749,1.2199
277,16.57,3.8011,0.1,0.00018763,1875,0.00018508,1832.2,-4.3144e-05,117.43,-8.1384e-05,-169.89,1.1856
278,17.489,4.0863,0.1,0.00027262,2724.4,0.00027067,2752.8,-4.8493e-05,354.69,-0.00012358,-209.48,1.2971
279,21.182,1.9805,0.1,5.2607e-05,525.71,5.2534e-05,524.79,-1.5378e-05,14.521,-1.9321e-05,-15.109,1.7829
280,20.29,3.061,0.1,6.2963e-05,629.19,6.3117e-05,635.39,-1.7986e-05,26.016,-2.3032e-05,-11.9,1.6628
281,19.211,1.466,0.1,8.7661e-05,876.01,9.1297e-05,1000.4,-1.4436e-05,206,-3.374e-05,60.956,1.5193
282,20.184,0.96599,0.1,5.9725e-05,596.83,5.8946e-05,575.84,-1.7737e-05,-0.32894,-2.2979e-05,-39.715,1.6486
283,22.11,3.0551,0.1,4.0115e-05,400.87,3.9996e-05,397.6,-1.2596e-05,2.4477,-1.4087e-05,-8.7544,1.9082
284,21.218,4.1357,0.1,5.1728e-05,516.92,5.1636e-05,516.15,-1.4559e-05,18.786,-1.95e-05,-18.334,1.7868
285,22.084,5.0406,0.1,3.9878e-05,398.51,3.9427e-05,385.56,-1.2718e-05,-6.2331,-1.4461e-05,-19.327,1.9033
286,23.056,4.0406,0.1,3.0984e-05,309.63,3.1376e-05,322,-8.4952e-06,22.427,-1.1053e-05,3.2115,2.0364
287,19.764,3.897,0.1,9.4702e-05,946.37,9.3202e-05,907.32,-2.7018e-05,4.0364,-3.7794e-05,-76.931,1.5922
288,18.895,3.4842,0.1,0.00015525,1551.5,0.00014364,1285.5,-3.1157e-05,-27.838,-8.4195e-05,-426.34,1.4779
289,18.686,4.052,0.1,0.00015109,1509.9,0.00015468,1625.5,-3.5892e-05,193.62,-5.5254e-05,48.15,1.4497
290,17.49,1.7516,0.1,0.00021161,2114.6,0.000198,1772.4,-5.2322e-05,-108.44,-0.00010664,-516.56,1.2973
291,17.375,2.3305,0.1,0.00022696,2268,0.00021657,2050,-4.4789e-05,86.209,-0.00011382,-432.43,1.2842
292,17.809,2.0016,0.1,0.00035832,3580.7,0.00034665,3377,-6.5553e-05,279.9,-0.00017517,-543.74,1.3375
293,16.638,1.9858,0.1,0.00018105,1809.3,0.00016667,1462.6,-4.0152e-05,-91.355,-9.7679e-05,-523.59,1.1939
294,17.681,1.5,0.1,0.00017235,1722.3,0.00015033,1308.8,-1.4275e-05,71.987,-0.00011148,-658.34,1.3202
295,14.995,2.219,0.1,0.00017509,1749.6,0.00017419,1742.7,-4.3045e-05,110.47,-7.165e-05,-104.45,1.0007
296,16.038,2.9506,0.1,0.0001857,1855.7,0.00018043,1775.3,-3.2586e-05,174.8,-9.0299e-05,-258.83,1.1228
297,16.523,2.5648,0.1,0.00020405,2039.1,0.00019259,1795.4,-3.8605e-05,58.317,-0.00010621,-449.64,1.1806
298,12.898,2.0006,0.1,0.00023553,2353.7,0.00023505,2340.1,-7.5426e-05,7.3108,-8.091e-05,-33.895,0.76635
299,14.248,3.0193,0.1,0.00017127,1711.5,0.0001718,1727.5,-5.4198e-05,29.43,-5.7727e-05,2.9134,0.9158
300,13.788,0.98316,0.1,0.00019703,1969,0.00019743,1981,-6.2222e-05,30.084,-6.6972e-05,-5.6028,0.86115
301,10.565,2.0463,0.1,0.00031935,3191.3,0.00031955,3199.1,-9.9046e-05,53.916,-0.00011106,-36.367,0.53216
302,12.03,3.0488,0.1,0.00027888,2786.9,0.00027711,2736.2,-8.8593e-05,-11.511,-9.8812e-05,-88.292,0.67661
303,11.486,1.0174,0.1,0.00029856,2983.6,0.00029811,2973.7,-9.0756e-05,51.958,-0.00010672,-68,0.61779
304,8.2289,2.0534,0.1,0.0003773,3770.4,0.00037857,3810.7,-0.00011459,105.3,-0.00013147,-21.514,0.33246
305,9.6227,3.0544,0.1,0.0003426,3423.6,0.00034373,3457.7,-0.00010763,66.293,-0.00011611,2.6191,0.44829
306,9.2046,1.0289,0.1,0.00035764,3574,0.00036033,3653.5,-0.00011161,107.53,-0.00011898,52.115,0.40762
307,5.8588,2.0473,0.1,0.00043246,4321.7,0.00043936,4545.5,-0.00011086,411.28,-0.00015788,58.033,0.17226
308,7.2133,3.0516,0.1,0.00040284,4025.6,0.00040357,4053.8,-0.00011908,126.73,-0.00014442,-63.678,0.25951
309,6.8993,1.0246,0.1,0.00042295,4226.6,0.00042442,4274.6,-0.00012673,133.46,-0.00014883,-32.597,0.23313
310,3.4988,2.04,0.1,0.00049457,4942.3,0.00048843,4992.9,-7.0664e-05,792.09,-0.00023635,-452.78,0.061729
311,4.7713,3.0415,0.1,0.00045432,4540,0.00046731,4965.4,-9.9349e-05,707.76,-0.00016855,187.8,0.11578
312,4.5845,1.0227,0.1,0.00047623,4759,0.00048898,5159.6,-0.0001153,619.26,-0.00016996,208.56,0.10311
313,2.3753,3.0366,0.1,0.00053531,5349.4,0.00050358,4966.4,-3.8723e-05,891.8,-0.00030267,-1091.4,0.028822
314,1.1644,2.0173,0.1,0.00045373,4534.2,0.00050755,6278.4,-1.8174e-05,2328.3,-0.00015138,1327.4,0.0068571
315,2.2894,1.0172,0.1,0.00053229,5319.3,0.00050695,4993.9,-5.6926e-05,757.17,-0.00028755,-975.66,0.025286
316,3.6477,4.0381,0.1,0.00049041,4900.7,0.00048422,4952.2,-6.9131e-05,794.53,-0.00023491,-451.1,0.067395
317,1.2109,4.0193,0.1,0.000455,4546.8,0.00050904,6297.6,-1.8278e-05,2335.5,-0.00015168,1333.2,0.0074777
318,2.4966,5.0193,0.1,0.00053314,5327.8,0.0005063,4994.3,-5.1384e-05,804.07,-0.00029172,-1001.7,0.030632
319,6.1258,4.0457,0.1,0.00042481,4245.1,0.00043195,4476.9,-0.0001078,421.46,-0.00015529,64.628,0.18843
320,5.0082,5.0188,0.1,0.00046008,4597.7,0.00047391,5033.5,-0.00010735,666.08,-0.00016462,235.82,0.12428
321,8.6071,4.0526,0.1,0.00036811,3678.6,0.00036876,3700.9,-0.00011215,87.549,-0.00012907,-39.592,0.36261
322,7.5461,5.027,0.1,0.00040301,4027.4,0.00040365,4048.6,-0.00012434,81.478,-0.00014003,-36.435,0.27905
323,11.087,4.0569,0.1,0.00030252,3023.1,0.00030162,2997.3,-9.7318e-05,-0.16233,-0.00010406,-50.808,0.58226
324,10.061,5.0256,0.1,0.00033394,3337.1,0.00033362,3327.8,-0.00010948,-1.5343,-0.00011155,-17.025,0.48364
325,13.38,4.0675,0.1,0.00021442,2142.8,0.00021373,2122.6,-6.9403e-05,-4.703,-7.3465e-05,-35.22,0.81867
326,12.598,5.0314,0.1,0.00025543,2552.5,0.00025262,2471.3,-8.2553e-05,-47.037,-9.1462e-05,-113.97,0.73269
327,15.59,4.5261,0.1,0.00016867,1685.6,0.00016659,1629.9,-4.9883e-05,3.3822,-6.4854e-05,-109.1,1.0682
328,17.379,4.7399,0.1,0.00016835,1682.4,0.00014159,1209.5,-5.524e-06,104.12,-0.0001161,-726.68,1.2816
329,17.379,4.9899,0.1,0.00015589,1557.9,0.00015164,1454.8,-3.9777e-05,16.594,-6.8605e-05,-200,1.2807
330,16.736,5.4899,0.1,0.00015581,1557,0.00014914,1461.7,-2.0536e-05,186.89,-8.1816e-05,-273.55,1.2012
331,16.863,3.3764,0.1,0.00021077,2106.2,0.00020059,1873.1,-4.619e-05,18.951,-0.00010421,-416.97,1.2216
332,17.349,2.9906,0.1,0.00022876,2286,0.00021287,1894.2,-5.4048e-05,-111.35,-0.00011841,-594.92,1.2812
333,17.779,3.2207,0.1,0.00025305,2528.8,0.00024171,2238.1,-6.6368e-05,-76.669,-0.00011748,-460.7,1.3347
334,17.783,3.6616,0.1,0.00029611,2959.1,0.00028458,2781.7,-4.4609e-05,308.29,-0.00015173,-496.6,1.3346
335,17.484,2.6799,0.1,0.00025642,2562.4,0.00024032,2160.7,-6.2572e-05,-115.14,-0.00012907,-614.78,1.2979
336,17.819,2.5572,0.1,0.00025995,2597.7,0.00024784,2300.5,-6.3521e-05,-38.989,-0.00012422,-495.05,1.3396
337,17.914,2.9101,0.1,0.0002796,2794.1,0.00026792,2495.3,-7.3407e-05,-69.303,-0.00012838,-482.36,1.3518
338,18.001,2.351,0.1,0.00036577,3655.2,0.0003631,3593.4,-0.00010294,91.762,-0.00014152,-198.07,1.3624
339,15.291,3.751,0.1,0.00018028,1801.6,0.00017792,1759.2,-4.2825e-05,100.62,-7.7178e-05,-157.49,1.0348
340,14.925,5.0362,0.1,0.00015768,1575.7,0.00014959,1379.2,-3.7459e-05,-26.165,-7.7123e-05,-324.19,0.98989
341,23.054,2.0145,0.1,3.0968e-05,309.47,3.1349e-05,321.51,-8.5053e-06,22.068,-1.1054e-05,2.9175,2.037
342,22.082,1.0145,0.1,3.9293e-05,392.65,3.8821e-05,379.24,-1.2392e-05,-5.5592,-1.4425e-05,-20.833,1.9047
343,17.467,2.535,0.1,0.00023677,2366.1,0.00022345,2043.9,-5.5242e-05,-50.138,-0.00011817,-522.96,1.2957
344,19.245,4.595,0.1,8.811e-05,880.5,9.1274e-05,988.95,-1.5771e-05,184.65,-3.3934e-05,48.184,1.5225
345,20.217,5.095,0.1,5.7835e-05,577.95,5.7084e-05,557.12,-1.7656e-05,-4.4391,-2.1846e-05,-35.926,1.6515
346,18.376,3.6822,0.1,0.00034556,3453.2,0.00034718,3513.1,-9.5506e-05,186.93,-0.00012764,-54.492,1.41
347,17.901,2.2061,0.1,0.0003663,3660.5,0.00034941,3340,-6.3512e-05,237.42,-0.00018791,-697.22,1.3495
348,18.08,3.5591,0.1,0.00038998,3897.1,0.00039559,4066.2,-0.00011287,245.76,-0.00013273,96.604,1.3722
349,18.167,1.25,0.1,0.0001611,1609.9,0.00016785,1857.4,-2.12e-05,436.99,-6.4886e-05,108.75,1.3814
350,18.167,0.5,0.1,8.3063e-05,830.06,8.836e-05,997.62,-1.3573e-05,231.73,-2.9027e-05,115.61,1.3802
351,18.167,1,0.05,7.2288e-06,72.238,5.5508e-06,41.707,1.0002e-12,7.6876e-06,-5.5508e-06,-41.706,1.381
352,18.167,1.75,0.1,0.00033428,3340.5,0.00034021,3570.7,-6.6919e-05,511.7,-0.00013418,6.3156,1.3823
353,18.167,1.5,0.05,2.8115e-05,280.96,2.1589e-05,162.21,-1.4906e-12,-1.353e-05,-2.1589e-05,-162.21,1.3818
354,18.083,2,0.1,0.00045255,4522.4,0.00045072,4528.1,-0.00010671,339.82,-0.00018748,-267.07,1.3722
355,18.167,2,0.05,6.3632e-05,635.88,4.8862e-05,367.13,-9.7311e-13,3.6075e-05,-4.8862e-05,-367.13,1.3829
356,18,1.75,0.1,0.0003153,3150.8,0.00029608,2891.6,-2.6716e-05,466.27,-0.0001779,-669.67,1.3607
357,18,2,0.05,4.9946e-05,499.11,3.8352e-05,288.16,-3.5054e-12,1.4246e-05,-3.8352e-05,-288.16,1.3615
358,18,1.25,0.1,0.00013867,1385.8,0.00013319,1359.1,-8.7937e-06,292.3,-7.526e-05,-207.1,1.3586
359,18,1.5,0.05,1.8309e-05,182.96,1.4059e-05,105.63,-2.9821e-21,7.2762e-06,-1.4059e-05,-105.63,1.3597
360,18,0.5,0.1,0.00013257,1324.8,0.00013151,1301.1,-3.6499e-05,38.768,-5.2086e-05,-78.345,1.3552
361,18,1,0.05,1.3587e-05,135.77,1.0433e-05,78.389,4.3309e-15,2.9394e-05,-1.0433e-05,-78.388,1.3575
362,18.167,4.75,0.1,0.00015688,1567.7,0.00016299,1784.1,-2.4485e-05,375.44,-6.1794e-05,95.115,1.3803
363,18.167,5.5,0.1,8.8323e-05,882.62,9.2678e-05,1015,-1.9649e-05,171.02,-2.9334e-05,98.254,1.3785
364,18.167,5,0.05,1.1484e-05,114.76,8.8185e-06,66.259,1.626e-12,1.9929e-06,-8.8185e-06,-66.259,1.3796
365,18.167,4.25,0.1,0.00034409,3438.6,0.00035564,3833.7,-6.4065e-05,680.2,-0.00013229,167.58,1.3816
366,18.167,4.5,0.05,1.5513e-05,155.03,1.1912e-05,89.505,3.8415e-13,-7.1745e-14,-1.1912e-05,-89.505,1.3809
367,18.083,4,0.1,0.00040794,4076.6,0.00042113,4479.5,-0.00010089,557.27,-0.00013988,264.35,1.3716
368,18.167,4,0.05,4.7776e-05,477.43,3.6686e-05,275.65,-7.7817e-21,-6.0209e-06,-3.6686e-05,-275.65,1.3823
369,18,4.25,0.1,0.00027002,2698.3,0.00023595,2240.2,5.9912e-06,512.31,-0.00017787,-869.14,1.3601
370,18,4,0.05,1.4325e-05,143.15,1.0999e-05,82.646,-8.9361e-21,1.5906e-05,-1.0999e-05,-82.646,1.361
371,18,4.75,0.1,0.00015451,1544,0.00012491,1063.9,4.6537e-06,160.32,-0.00011237,-718.98,1.3578
372,18,4.5,0.05,1.703e-05,170.18,1.3077e-05,98.255,1.124e-12,8.1551e-07,-1.3077e-05,-98.255,1.359
373,18,5.5,0.1,0.00011565,1155.7,0.00011741,1212.7,-2.9895e-05,105.97,-4.2181e-05,13.66,1.354
374,18,5,0.05,1.216e-05,121.52,9.3376e-06,70.159,1.6485e-12,-5.2061e-14,-9.3376e-06,-70.159,1.3566
375,19.139,6,0.1,5.1045e-05,510.1,5.1706e-05,532.22,-1.3105e-05,45.257,-1.8892e-05,1.7741,1.5062
376,18.167,6,0.05,1.4313e-06,14.303,1.0991e-06,8.258,-7.7891e-13,-6.3074e-06,-1.0991e-06,-8.258,1.3773
377,21.083,6,0.1,4.6286e-05,462.54,4.4952e-05,427.12,-1.3088e-05,-8.9725,-1.961e-05,-57.982,1.7667
378,20.111,6,0.05,9.5095e-07,9.5029,7.3021e-07,5.4865,1.2911e-12,1.1648e-05,-7.3021e-07,-5.4865,1.6359
379,23.028,6,0.1,2.952e-05,295,2.932e-05,296.04,-5.9504e-06,31.035,-1.2983e-05,-21.805,2.0308
380,22.056,6,0.05,1.7366e-06,17.354,1.3335e-06,10.02,1.4772e-12,1.3381e-05,-1.3335e-06,-10.02,1.8984
381,24,5,0.1,2.081e-05,207.96,2.1144e-05,231.54,-1.449e-06,61.789,-9.7291e-06,-0.42445,2.1645
382,24,6,0.05,1.8201e-06,18.188,1.3976e-06,10.501,3.331e-13,6.4857e-06,-1.3976e-06,-10.501,2.1636
383,24,3,0.1,2.2074e-05,220.59,2.2676e-05,245.52,-3.0814e-06,51.991,-9.2905e-06,5.3376,2.1658
384,24,4,0.05,3.3479e-06,33.456,2.5708e-06,19.316,6.8203e-13,1.1682e-05,-2.5708e-06,-19.316,2.1652
385,24,1,0.1,2.1017e-05,210.03,2.129e-05,231.93,-1.5362e-06,60.421,-9.886e-06,-2.3169,2.1663
386,24,2,0.05,3.5323e-06,35.299,2.7124e-06,20.38,6.9669e-13,1.251e-05,-2.7124e-06,-20.38,2.1661
387,2.6226e-14,3,0.1,0.00038472,3844.5,0.00051274,7607.5,2.8421e-06,3776.3,-6.896e-07,3749.7,0
388,8.7419e-15,1,0.1,0.00035865,3584.1,0.00047589,7032.9,7.5154e-06,3513.8,-9.3175e-06,3387.3,0
389,1.772e-14,2,0.05,2.0699e-05,206.84,1.5894e-05,119.42,-4.4465e-21,5.0363e-05,-1.5894e-05,-119.42,0
390,4.371e-14,5,0.1,0.00036738,3671.2,0.00048739,7202,7.8599e-06,3599,-9.8266e-06,3466.2,0
391,3.5441e-14,4,0.05,2.9198e-05,291.78,2.242e-05,168.46,-4.7557e-21,-3.5732e-14,-2.242e-05,-168.46,0
392,1.2857,6,0.1,0.00043628,4359.8,0.00048465,5898.8,-3.1934e-05,2017.4,-0.00014318,1181.5,0.007347
393,5.2451e-14,6,0.05,0.00013994,1398.4,0.00010746,807.39,-2.2793e-20,-1.7126e-13,-0.00010746,-807.39,0
394,3.8571,6,0.1,0.00049811,4977.6,0.00049702,5083.3,-9.1703e-05,659.87,-0.00022035,-306.73,0.069792
395,2.5714,6,0.05,2.6327e-05,263.09,2.0216e-05,151.9,-4.2881e-21,-3.2219e-14,-2.0216e-05,-151.9,0.030298
396,6.4286,6,0.1,0.00043713,4368.3,0.00044472,4598.4,-0.00012249,336.6,-0.00014986,130.98,0.19863
397,5.1429,6,0.05,1.1376e-05,113.69,8.7357e-06,65.637,6.2281e-13,0.00010551,-8.7357e-06,-65.637,0.12614
398,9,6,0.1,0.00036881,3685.6,0.00036844,3674.9,-0.00011946,9.0167,-0.00012465,-29.971,0.38644
399,7.7143,6,0.05,5.663e-06,56.591,4.3485e-06,32.673,-1.3528e-13,2.0039e-06,-4.3485e-06,-32.673,0.28573
400,11.571,6,0.1,0.00028729,2870.9,0.00028484,2803.4,-8.8053e-05,1.6765,-0.00010583,-131.9,0.62314
401,10.286,6,0.05,2.0468e-06,20.454,1.5717e-06,11.809,-6.5025e-14,1.0909e-06,-1.5717e-06,-11.809,0.49937
402,14.143,6,0.1,0.00020085,2007.1,0.00018974,1737.4,-4.7284e-05,-43.514,-9.9708e-05,-437.41,0.89742
403,12.857,6,0.05,1.3165e-05,131.56,1.0109e-05,75.954,1.7169e-14,2.8805e-07,-1.0109e-05,-75.954,0.75633
404,16.071,6,0.1,0.00012962,1295.3,0.00011717,1098.6,-7.7094e-06,160.37,-7.9525e-05,-379.22,1.1205
405,15.429,6,0.05,4.5297e-05,452.66,3.4783e-05,261.34,-1.1789e-12,9.0391e-06,-3.4783e-05,-261.34,1.0448
406,17.357,6,0.1,0.00011437,1143,0.00011618,1229.3,-1.8546e-05,216.97,-4.878e-05,-10.199,1.2735
407,16.714,6,0.05,4.2169e-05,421.4,3.2381e-05,243.3,3.1622e-12,1.2473e-06,-3.2381e-05,-243.3,1.1965
408,18,6,0.05,9.6306e-06,96.239,7.3951e-06,55.564,1.6059e-12,1.1404e-05,-7.3951e-06,-55.564,1.3515
409,23.028,0,0.1,2.9202e-05,291.82,2.8888e-05,290.59,-5.6493e-06,31.09,-1.3155e-05,-25.308,2.0334
410,24,0,0.05,2.2519e-06,22.504,1.7292e-06,12.992,8.3254e-13,1.1074e-05,-1.7292e-06,-12.992,2.1662
411,21.083,0,0.1,4.6732e-05,466.99,4.5324e-05,430.97,-1.2571e-05,-4.0314,-2.0354e-05,-62.505,1.7691
412,22.056,0,0.05,1.8496e-06,18.483,1.4202e-06,10.671,1.2777e-12,2.2362e-05,-1.4202e-06,-10.671,1.9009
413,19.139,0,0.1,5.0615e-05,505.8,5.1764e-05,541.13,-1.3258e-05,52.573,-1.7636e-05,19.679,1.5084
414,20.111,0,0.05,1.542e-06,15.41,1.1841e-06,8.8968,3.7997e-14,1.2414e-06,-1.1841e-06,-8.8968,1.6383
415,18.167,0,0.05,2.1798e-06,21.783,1.6738e-06,12.576,-1.0466e-12,-8.2826e-06,-1.6738e-06,-12.576,1.3795
416,16.875,2.6159e-30,0.1,0.00011662,1165.4,0.00012105,1301.6,-2.7158e-05,188.06,-4.0125e-05,90.635,1.2164
417,18,2.7903e-30,0.05,7.9152e-06,79.097,6.0779e-06,45.667,8.7762e-13,-9.2678e-06,-6.0779e-06,-45.667,1.3528
418,14.625,2.2671e-30,0.1,0.00016223,1621.2,0.00016806,1795,-4.2694e-05,211.47,-5.2383e-05,138.67,0.95246
419,15.75,0,0.05,1.1947e-05,119.39,9.1739e-06,68.929,5.2176e-13,4.833e-06,-9.1738e-06,-68.929,1.0828
420,12.375,1.9183e-30,0.1,0.00026047,2602.9,0.00026096,2618.2,-8.1798e-05,42.825,-8.9017e-05,-11.418,0.70401
421,13.5,0,0.05,1.2688e-05,126.8,9.7431e-06,73.206,-1.4562e-12,-8.334e-07,-9.7431e-06,-73.206,0.82556
422,10.125,1.5696e-30,0.1,0.00033716,3369.3,0.00033919,3430.4,-0.00010369,102.77,-0.00011458,20.973,0.48269
423,11.25,0,0.05,4.286e-06,42.83,3.2911e-06,24.728,4.2286e-13,3.9402e-05,-3.2911e-06,-24.728,0.58946
424,7.875,1.2208e-30,0.1,0.00040298,4027.1,0.00040593,4115.5,-0.00012348,137.69,-0.00013636,40.863,0.29544
425,9,0,0.05,4.5964e-06,45.932,3.5294e-06,26.519,1.9763e-14,2.2344e-07,-3.5294e-06,-26.519,0.38434
426,5.625,8.7198e-31,0.1,0.00046548,4651.6,0.00047298,4880.8,-0.00012977,351.91,-0.00016125,115.42,0.14933
427,6.75,0,0.05,6.0844e-06,60.802,4.6721e-06,35.104,3.9517e-14,3.3149e-07,-4.6721e-06,-35.104,0.21673
428,3.375,5.2319e-31,0.1,0.00051037,5100.1,0.00050909,5172.6,-0.00010394,566.54,-0.00022039,-308.43,0.051442
429,4.5,0,0.05,8.6083e-06,86.024,6.6101e-06,49.666,-1.4021e-21,-1.0535e-14,-6.6101e-06,-49.666,0.093927
430,1.125,1.744e-31,0.1,0.00042797,4276.8,0.00047436,5741.5,-3.6697e-05,1901.6,-0.00013909,1132.3,0.0053441
431,2.25,0,0.05,2.6689e-05,266.7,2.0494e-05,153.98,-4.347e-21,-3.2662e-14,-2.0494e-05,-153.98,0.022139
432,0,0,0.05,0.00013524,1351.4,0.00010384,780.24,7.6365e-14,-1.655e-13,-0.00010384,-780.24,0
433,3.375,5.2319e-31,0,0.00051037,5100.1,0.00022039,308.43,0.00010394,-566.54,-0.00050909,-5172.6,0.051442
434,1.125,1.744e-31,0,0.00042797,4276.8,0.00013909,-1132.3,3.6697e-05,-1901.6,-0.00047436,-5741.5,0.0053441
435,5.625,8.7198e-31,0,0.00046548,4651.6,0.00016125,-115.42,0.00012977,-351.91,-0.00047298,-4880.8,0.14933
436,7.875,1.2208e-30,0,0.00040298,4027.1,0.00013636,-40.863,0.00012348,-137.69,-0.00040593,-4115.5,0.29544
437,10.125,1.5696e-30,0,0.00033716,3369.3,0.00011458,-20.973,0.00010369,-102.77,-0.00033919,-3430.4,0.48269
438,12.375,1.9183e-30,0,0.00026047,2602.9,8.9017e-05,11.418,8.1798e-05,-42.825,-0.00026096,-2618.2,0.70401
439,14.625,2.2671e-30,0,0.00016223,1621.2,5.2383e-05,-138.67,4.2694e-05,-211.47,-0.00016806,-1795,0.95246
440,16.875,2.6159e-30,0,0.00011662,1165.4,4.0125e-05,-90.635,2.7158e-05,-188.06,-0.00012105,-1301.6,1.2164
441,18,0.5,0,0.00013257,1324.8,5.2086e-05,78.346,3.6499e-05,-38.768,-0.00013151,-1301.1,1.3552
442,8.7419e-15,1,0,0.00035865,3584.1,9.3175e-06,-3387.3,-7.5154e-06,-3513.8,-0.00047589,-7032.9,0
443,21.083,0,0,4.6732e-05,466.99,2.0354e-05,62.505,1.2571e-05,4.0314,-4.5324e-05,-430.97,1.7691
444,19.139,0,0,5.0615e-05,505.8,1.7636e-05,-19.679,1.3258e-05,-52.573,-5.1764e-05,-541.13,1.5084
445,23.028,0,0,2.9202e-05,291.82,1.3155e-05,25.308,5.6493e-06,-31.09,-2.8888e-05,-290.59,2.0334
446,18.167,0.5,0,8.3063e-05,830.06,2.9027e-05,-115.61,1.3573e-05,-231.73,-8.836e-05,-997.62,1.3802
447,24,1,0,2.1017e-05,210.03,9.886e-06,2.317,1.5362e-06,-60.421,-2.129e-05,-231.93,2.1663
448,16.071,6,0,0.00012962,1295.3,7.9525e-05,379.22,7.7094e-06,-160.37,-0.00011717,-1098.6,1.1205
449,17.357,6,0,0.00011437,1143,4.878e-05,10.199,1.8546e-05,-216.97,-0.00011618,-1229.3,1.2735
450,14.143,6,0,0.00020085,2007.1,9.9708e-05,437.41,4.7284e-05,43.514,-0.00018974,-1737.4,0.89742
451,11.571,6,0,0.00028729,2870.9,0.00010583,131.9,8.8053e-05,-1.6765,-0.00028484,-2803.4,0.62314
452,9,6,0,0.00036881,3685.6,0.00012465,29.971,0.00011946,-9.0167,-0.00036844,-3674.9,0.38644
453,6.4286,6,0,0.00043713,4368.3,0.00014986,-130.98,0.00012249,-336.6,-0.00044472,-4598.4,0.19863
454,3.8571,6,0,0.00049811,4977.6,0.00022035,306.73,9.1703e-05,-659.87,-0.00049702,-5083.3,0.069792
455,1.2857,6,0,0.00043628,4359.8,0.00014318,-1181.5,3.1934e-05,-2017.4,-0.00048465,-5898.8,0.007347
456,18,5.5,0,0.00011565,1155.7,4.2181e-05,-13.66,2.9895e-05,-105.97,-0.00011741,-1212.7,1.354
457,4.371e-14,5,0,0.00036738,3671.2,9.8266e-06,-3466.2,-7.8599e-06,-3599,-0.00048739,-7202,0
458,2.6226e-14,3,0,0.00038472,3844.5,6.896e-07,-3749.7,-2.8421e-06,-3776.3,-0.00051274,-7607.5,0
459,24,3,0,2.2074e-05,220.59,9.2905e-06,-5.3376,3.0814e-06,-51.991,-2.2676e-05,-245.52,2.1658
460,24,5,0,2.081e-05,207.96,9.7291e-06,0.42446,1.449e-06,-61.789,-2.1144e-05,-231.54,2.1645
461,23.028,6,0,2.952e-05,295,1.2983e-05,21.805,5.9504e-06,-31.035,-2.932e-05,-296.04,2.0308
462,21.083,6,0,4.6286e-05,462.54,1.961e-05,57.982,1.3088e-05,8.9725,-4.4952e-05,-427.12,1.7667
463,19.139,6,0,5.1045e-05,510.1,1.8892e-05,-1.7741,1.3105e-05,-45.257,-5.1706e-05,-532.22,1.5062
464,18.167,5.5,0,8.8323e-05,882.62,2.9334e-05,-98.254,1.9649e-05,-171.02,-9.2678e-05,-1015,1.3785
465,18,4.75,0,0.00015451,1544,0.00011237,718.98,-4.6537e-06,-160.32,-0.00012491,-1063.9,1.3578
466,18,4.25,0,0.00027002,2698.3,0.00017787,869.14,-5.9912e-06,-512.31,-0.00023595,-2240.2,1.3601
467,18.083,4,0,0.00040794,4076.6,0.00013988,-264.35,0.00010089,-557.27,-0.00042113,-4479.5,1.3716
468,18.167,4.75,0,0.00015688,1567.7,6.1794e-05,-95.115,2.4485e-05,-375.44,-0.00016299,-1784.1,1.3803
469,18.167,4.25,0,0.00034409,3438.6,0.00013229,-167.58,6.4065e-05,-680.2,-0.00035564,-3833.7,1.3816
470,18,1.25,0,0.00013867,1385.8,7.526e-05,207.1,8.7937e-06,-292.3,-0.00013319,-1359.1,1.3586
471,18,1.75,0,0.0003153,3150.8,0.0001779,669.67,2.6716e-05,-466.27,-0.00029608,-2891.6,1.3607
472,18.083,2,0,0.00045255,4522.4,0.00018748,267.07,0.00010671,-339.82,-0.00045072,-4528.1,1.3722
473,18.167,1.25,0,0.0001611,1609.9,6.4886e-05,-108.75,2.12e-05,-436.99,-0.00016785,-1857.4,1.3814
474,18.167,1.75,0,0.00033428,3340.5,0.00013418,-6.3156,6.6919e-05,-511.7,-0.00034021,-3570.7,1.3823
