Node Number	X Location (in)	Y Location (in)	Z Location (in)	Maximum Principal Stress (psi)
1	3.6	2.1818	0.	1646.9
2	3.6	2.3636	0.	1254.
3	3.6	2.5455	0.	937.94
4	3.6	2.7273	0.	768.96
5	3.6	2.9091	0.	691.16
6	3.6	3.0909	0.	691.16
7	3.6	3.2727	0.	768.96
8	3.6	3.4545	0.	937.94
9	3.6	3.6364	0.	1254.
10	3.6	3.8182	0.	1646.9
11	3.7667	2.1818	0.	1608.8
12	3.7667	2.3636	0.	1270.
13	3.7667	2.5455	0.	974.71
14	3.7667	2.7273	0.	813.77
15	3.7667	2.9091	0.	739.47
16	3.7667	3.0909	0.	739.47
17	3.7667	3.2727	0.	813.77
18	3.7667	3.4545	0.	974.71
19	3.7667	3.6364	0.	1270.
20	3.7667	3.8182	0.	1608.8
21	3.42	5.8182	0.	192.58
22	3.42	5.6364	0.	361.73
23	3.42	5.4545	0.	642.45
24	3.42	5.2727	0.	976.82
25	3.42	5.0909	0.	1363.6
26	3.42	4.9091	0.	1817.
27	3.42	4.7273	0.	2367.6
28	3.42	4.5455	0.	3038.8
29	3.42	4.3636	0.	3998.8
30	3.42	4.1818	0.	4527.7
31	3.42	4.	0.	2995.5
32	3.42	3.8182	0.	1118.9
33	3.42	3.6364	0.	821.08
34	3.42	3.4545	0.	599.88
35	3.42	3.2727	0.	496.38
36	3.42	3.0909	0.	445.18
37	3.42	2.9091	0.	445.18
38	3.42	2.7273	0.	496.38
39	3.42	2.5455	0.	599.88
40	3.42	2.3636	0.	821.08
41	3.42	2.1818	0.	1118.9
42	3.42	2.	0.	2995.5
43	3.42	1.8182	0.	4527.7
44	3.42	1.6364	0.	3998.8
45	3.42	1.4545	0.	3038.8
46	3.42	1.2727	0.	2367.6
47	3.42	1.0909	0.	1817.
48	3.42	0.90909	0.	1363.6
49	3.42	0.72727	0.	976.82
50	3.42	0.54545	0.	642.45
51	3.42	0.36364	0.	361.73
52	3.42	0.18182	0.	192.58
53	3.24	5.8182	0.	143.24
54	3.24	5.6364	0.	176.15
55	3.24	5.4545	0.	332.87
56	3.24	5.2727	0.	556.24
57	3.24	5.0909	0.	821.57
58	3.24	4.9091	0.	1119.2
59	3.24	4.7273	0.	1442.3
60	3.24	4.5455	0.	1748.2
61	3.24	4.3636	0.	1940.8
62	3.24	4.1818	0.	1796.6
63	3.24	4.	0.	969.01
64	3.24	3.8182	0.	384.61
65	3.24	3.6364	0.	185.85
66	3.24	3.4545	0.	133.71
67	3.24	3.2727	0.	92.995
68	3.24	3.0909	0.	73.502
69	3.24	2.9091	0.	73.502
70	3.24	2.7273	0.	92.994
71	3.24	2.5455	0.	133.71
72	3.24	2.3636	0.	185.85
73	3.24	2.1818	0.	384.61
74	3.24	2.	0.	969.01
75	3.24	1.8182	0.	1796.6
76	3.24	1.6364	0.	1940.8
77	3.24	1.4545	0.	1748.2
78	3.24	1.2727	0.	1442.3
79	3.24	1.0909	0.	1119.2
80	3.24	0.90909	0.	821.57
81	3.24	0.72727	0.	556.24
82	3.24	0.54545	0.	332.87
83	3.24	0.36364	0.	176.15
84	3.24	0.18182	0.	143.24
85	3.06	5.8182	0.	146.74
86	3.06	5.6364	0.	137.13
87	3.06	5.4545	0.	214.04
88	3.06	5.2727	0.	345.61
89	3.06	5.0909	0.	509.33
90	3.06	4.9091	0.	684.53
91	3.06	4.7273	0.	843.79
92	3.06	4.5455	0.	943.37
93	3.06	4.3636	0.	895.86
94	3.06	4.1818	0.	624.91
95	3.06	4.	0.	221.26
96	3.06	3.8182	0.	-4.1439
97	3.06	3.6364	0.	8.8764
98	3.06	3.4545	0.	2.0337
99	3.06	3.2727	0.	1.649
100	3.06	3.0909	0.	0.87928
101	3.06	2.9091	0.	0.87928
102	3.06	2.7273	0.	1.649
103	3.06	2.5455	0.	2.0337
104	3.06	2.3636	0.	8.8764
105	3.06	2.1818	0.	-4.1439
106	3.06	2.	0.	221.26
107	3.06	1.8182	0.	624.91
108	3.06	1.6364	0.	895.86
109	3.06	1.4545	0.	943.37
110	3.06	1.2727	0.	843.79
111	3.06	1.0909	0.	684.53
112	3.06	0.90909	0.	509.33
113	3.06	0.72727	0.	345.61
114	3.06	0.54545	0.	214.04
115	3.06	0.36364	0.	137.13
116	3.06	0.18182	0.	146.74
117	2.88	5.8182	0.	149.66
118	2.88	5.6364	0.	123.71
119	2.88	5.4545	0.	151.2
120	2.88	5.2727	0.	210.53
121	2.88	5.0909	0.	287.3
122	2.88	4.9091	0.	361.94
123	2.88	4.7273	0.	408.2
124	2.88	4.5455	0.	392.26
125	2.88	4.3636	0.	278.68
126	2.88	4.1818	0.	75.042
127	2.88	4.	0.	12.17
128	2.88	3.8182	0.	7.6
129	2.88	3.6364	0.	1.9605
130	2.88	3.4545	0.	1.9754
131	2.88	3.2727	0.	1.5729
132	2.88	3.0909	0.	1.2739
133	2.88	2.9091	0.	1.2739
134	2.88	2.7273	0.	1.5729
135	2.88	2.5455	0.	1.9754
136	2.88	2.3636	0.	1.9605
137	2.88	2.1818	0.	7.6
138	2.88	2.	0.	12.17
139	2.88	1.8182	0.	75.042
140	2.88	1.6364	0.	278.68
141	2.88	1.4545	0.	392.26
142	2.88	1.2727	0.	408.2
143	2.88	1.0909	0.	361.94
144	2.88	0.90909	0.	287.3
145	2.88	0.72727	0.	210.53
146	2.88	0.54545	0.	151.2
147	2.88	0.36364	0.	123.71
148	2.88	0.18182	0.	149.66
149	2.7	5.8182	0.	145.2
150	2.7	5.6364	0.	109.48
151	2.7	5.4545	0.	103.91
152	2.7	5.2727	0.	111.15
153	2.7	5.0909	0.	122.
154	2.7	4.9091	0.	123.17
155	2.7	4.7273	0.	98.658
156	2.7	4.5455	0.	44.08
157	2.7	4.3636	0.	11.873
158	2.7	4.1818	0.	4.9689
159	2.7	4.	0.	2.0708
160	2.7	3.8182	0.	0.98444
161	2.7	3.6364	0.	1.6007
162	2.7	3.4545	0.	1.5079
163	2.7	3.2727	0.	1.3113
164	2.7	3.0909	0.	1.265
165	2.7	2.9091	0.	1.265
166	2.7	2.7273	0.	1.3113
167	2.7	2.5455	0.	1.5079
168	2.7	2.3636	0.	1.6007
169	2.7	2.1818	0.	0.98444
170	2.7	2.	0.	2.0708
171	2.7	1.8182	0.	4.9689
172	2.7	1.6364	0.	11.873
173	2.7	1.4545	0.	44.08
174	2.7	1.2727	0.	98.658
175	2.7	1.0909	0.	123.17
176	2.7	0.90909	0.	122.
177	2.7	0.72727	0.	111.15
178	2.7	0.54545	0.	103.91
179	2.7	0.36364	0.	109.48
180	2.7	0.18182	0.	145.2
181	2.52	5.8182	0.	135.22
182	2.52	5.6364	0.	89.343
183	2.52	5.4545	0.	60.039
184	2.52	5.2727	0.	36.782
185	2.52	5.0909	0.	20.841
186	2.52	4.9091	0.	11.871
187	2.52	4.7273	0.	7.1164
188	2.52	4.5455	0.	4.5434
189	2.52	4.3636	0.	3.1105
190	2.52	4.1818	0.	2.1831
191	2.52	4.	0.	1.7313
192	2.52	3.8182	0.	1.4267
193	2.52	3.6364	0.	1.0833
194	2.52	3.4545	0.	1.0194
195	2.52	3.2727	0.	1.047
196	2.52	3.0909	0.	1.0438
197	2.52	2.9091	0.	1.0438
198	2.52	2.7273	0.	1.047
199	2.52	2.5455	0.	1.0194
200	2.52	2.3636	0.	1.0833
201	2.52	2.1818	0.	1.4267
202	2.52	2.	0.	1.7313
203	2.52	1.8182	0.	2.1831
204	2.52	1.6364	0.	3.1105
205	2.52	1.4545	0.	4.5434
206	2.52	1.2727	0.	7.1164
207	2.52	1.0909	0.	11.871
208	2.52	0.90909	0.	20.841
209	2.52	0.72727	0.	36.782
210	2.52	0.54545	0.	60.039
211	2.52	0.36364	0.	89.343
212	2.52	0.18182	0.	135.22
213	2.34	5.8182	0.	121.93
214	2.34	5.6364	0.	63.757
215	2.34	5.4545	0.	22.738
216	2.34	5.2727	0.	8.6177
217	2.34	5.0909	0.	5.0145
218	2.34	4.9091	0.	3.4412
219	2.34	4.7273	0.	2.5272
220	2.34	4.5455	0.	1.9245
221	2.34	4.3636	0.	1.4901
222	2.34	4.1818	0.	1.1673
223	2.34	4.	0.	0.89946
224	2.34	3.8182	0.	0.74766
225	2.34	3.6364	0.	0.73458
226	2.34	3.4545	0.	0.75194
227	2.34	3.2727	0.	0.77641
228	2.34	3.0909	0.	0.79688
229	2.34	2.9091	0.	0.79688
230	2.34	2.7273	0.	0.77641
231	2.34	2.5455	0.	0.75194
232	2.34	2.3636	0.	0.73459
233	2.34	2.1818	0.	0.74766
234	2.34	2.	0.	0.89946
235	2.34	1.8182	0.	1.1673
236	2.34	1.6364	0.	1.4901
237	2.34	1.4545	0.	1.9245
238	2.34	1.2727	0.	2.5272
239	2.34	1.0909	0.	3.4412
240	2.34	0.90909	0.	5.0145
241	2.34	0.72727	0.	8.6177
242	2.34	0.54545	0.	22.738
243	2.34	0.36364	0.	63.757
244	2.34	0.18182	0.	121.93
245	2.16	5.8182	0.	107.43
246	2.16	5.6364	0.	35.96
247	2.16	5.4545	0.	7.2877
248	2.16	5.2727	0.	3.5913
249	2.16	5.0909	0.	2.3957
250	2.16	4.9091	0.	1.7825
251	2.16	4.7273	0.	1.3995
252	2.16	4.5455	0.	1.1363
253	2.16	4.3636	0.	0.93913
254	2.16	4.1818	0.	0.77987
255	2.16	4.	0.	0.66051
256	2.16	3.8182	0.	0.579
257	2.16	3.6364	0.	0.53774
258	2.16	3.4545	0.	0.54279
259	2.16	3.2727	0.	0.56714
260	2.16	3.0909	0.	0.58505
261	2.16	2.9091	0.	0.58505
262	2.16	2.7273	0.	0.56714
263	2.16	2.5455	0.	0.54279
264	2.16	2.3636	0.	0.53774
265	2.16	2.1818	0.	0.579
266	2.16	2.	0.	0.66051
267	2.16	1.8182	0.	0.77987
268	2.16	1.6364	0.	0.93913
269	2.16	1.4545	0.	1.1363
270	2.16	1.2727	0.	1.3995
271	2.16	1.0909	0.	1.7825
272	2.16	0.90909	0.	2.3957
273	2.16	0.72727	0.	3.5913
274	2.16	0.54545	0.	7.2877
275	2.16	0.36364	0.	35.96
276	2.16	0.18182	0.	107.43
277	1.98	5.8182	0.	93.417
278	1.98	5.6364	0.	14.382
279	1.98	5.4545	0.	3.4921
280	1.98	5.2727	0.	2.075
281	1.98	5.0909	0.	1.4752
282	1.98	4.9091	0.	1.141
283	1.98	4.7273	0.	0.92163
284	1.98	4.5455	0.	0.76596
285	1.98	4.3636	0.	0.64475
286	1.98	4.1818	0.	0.54547
287	1.98	4.	0.	0.46655
288	1.98	3.8182	0.	0.41628
289	1.98	3.6364	0.	0.39787
290	1.98	3.4545	0.	0.40178
291	1.98	3.2727	0.	0.41581
292	1.98	3.0909	0.	0.42705
293	1.98	2.9091	0.	0.42705
294	1.98	2.7273	0.	0.41581
295	1.98	2.5455	0.	0.40178
296	1.98	2.3636	0.	0.39787
297	1.98	2.1818	0.	0.41628
298	1.98	2.	0.	0.46655
299	1.98	1.8182	0.	0.54547
300	1.98	1.6364	0.	0.64475
301	1.98	1.4545	0.	0.76596
302	1.98	1.2727	0.	0.92163
303	1.98	1.0909	0.	1.141
304	1.98	0.90909	0.	1.4752
305	1.98	0.72727	0.	2.075
306	1.98	0.54545	0.	3.4921
307	1.98	0.36364	0.	14.382
308	1.98	0.18182	0.	93.417
309	1.8	5.8182	0.	81.197
310	1.8	5.6364	0.	6.4009
311	1.8	5.4545	0.	2.1932
312	1.8	5.2727	0.	1.4253
313	1.8	5.0909	0.	1.0382
314	1.8	4.9091	0.	0.81508
315	1.8	4.7273	0.	0.66439
316	1.8	4.5455	0.	0.55669
317	1.8	4.3636	0.	0.47325
318	1.8	4.1818	0.	0.40596
319	1.8	4.	0.	0.35371
320	1.8	3.8182	0.	0.31832
321	1.8	3.6364	0.	0.3009
322	1.8	3.4545	0.	0.29896
323	1.8	3.2727	0.	0.30499
324	1.8	3.0909	0.	0.3106
325	1.8	2.9091	0.	0.3106
326	1.8	2.7273	0.	0.30499
327	1.8	2.5455	0.	0.29896
328	1.8	2.3636	0.	0.3009
329	1.8	2.1818	0.	0.31832
330	1.8	2.	0.	0.35371
331	1.8	1.8182	0.	0.40596
332	1.8	1.6364	0.	0.47325
333	1.8	1.4545	0.	0.55669
334	1.8	1.2727	0.	0.66439
335	1.8	1.0909	0.	0.81508
336	1.8	0.90909	0.	1.0382
337	1.8	0.72727	0.	1.4253
338	1.8	0.54545	0.	2.1932
339	1.8	0.36364	0.	6.4009
340	1.8	0.18182	0.	81.197
341	1.62	5.8182	0.	71.738
342	1.62	5.6364	0.	4.1279
343	1.62	5.4545	0.	1.6391
344	1.62	5.2727	0.	1.1199
345	1.62	5.0909	0.	0.82258
346	1.62	4.9091	0.	0.652
347	1.62	4.7273	0.	0.53584
348	1.62	4.5455	0.	0.45403
349	1.62	4.3636	0.	0.3916
350	1.62	4.1818	0.	0.34211
351	1.62	4.	0.	0.30362
352	1.62	3.8182	0.	0.27687
353	1.62	3.6364	0.	0.26209
354	1.62	3.4545	0.	0.25709
355	1.62	3.2727	0.	0.2578
356	1.62	3.0909	0.	0.25965
357	1.62	2.9091	0.	0.25965
358	1.62	2.7273	0.	0.2578
359	1.62	2.5455	0.	0.25709
360	1.62	2.3636	0.	0.26209
361	1.62	2.1818	0.	0.27687
362	1.62	2.	0.	0.30362
363	1.62	1.8182	0.	0.34211
364	1.62	1.6364	0.	0.39161
365	1.62	1.4545	0.	0.45403
366	1.62	1.2727	0.	0.53584
367	1.62	1.0909	0.	0.652
368	1.62	0.90909	0.	0.82258
369	1.62	0.72727	0.	1.1199
370	1.62	0.54545	0.	1.6391
371	1.62	0.36364	0.	4.1279
372	1.62	0.18182	0.	71.738
373	1.44	5.8182	0.	65.696
374	1.44	5.6364	0.	3.2747
375	1.44	5.4545	0.	1.2985
376	1.44	5.2727	0.	0.87781
377	1.44	5.0909	0.	0.61299
378	1.44	4.9091	0.	0.46555
379	1.44	4.7273	0.	0.36648
380	1.44	4.5455	0.	0.29887
381	1.44	4.3636	0.	0.24854
382	1.44	4.1818	0.	0.20935
383	1.44	4.	0.	0.17879
384	1.44	3.8182	0.	0.15649
385	1.44	3.6364	0.	0.14225
386	1.44	3.4545	0.	0.13496
387	1.44	3.2727	0.	0.13233
388	1.44	3.0909	0.	0.13185
389	1.44	2.9091	0.	0.13185
390	1.44	2.7273	0.	0.13233
391	1.44	2.5455	0.	0.13496
392	1.44	2.3636	0.	0.14225
393	1.44	2.1818	0.	0.15649
394	1.44	2.	0.	0.17879
395	1.44	1.8182	0.	0.20935
396	1.44	1.6364	0.	0.24854
397	1.44	1.4545	0.	0.29887
398	1.44	1.2727	0.	0.36648
399	1.44	1.0909	0.	0.46555
400	1.44	0.90909	0.	0.61299
401	1.44	0.72727	0.	0.87781
402	1.44	0.54545	0.	1.2985
403	1.44	0.36364	0.	3.2747
404	1.44	0.18182	0.	65.696
405	1.26	5.8182	0.	63.55
406	1.26	5.6364	0.	3.1773
407	1.26	5.4545	0.	1.409
408	1.26	5.2727	0.	1.0628
409	1.26	5.0909	0.	0.82986
410	1.26	4.9091	0.	0.70989
411	1.26	4.7273	0.	0.63199
412	1.26	4.5455	0.	0.5811
413	1.26	4.3636	0.	0.54342
414	1.26	4.1818	0.	0.51361
415	1.26	4.	0.	0.48948
416	1.26	3.8182	0.	0.47077
417	1.26	3.6364	0.	0.45747
418	1.26	3.4545	0.	0.44912
419	1.26	3.2727	0.	0.44467
420	1.26	3.0909	0.	0.44286
421	1.26	2.9091	0.	0.44286
422	1.26	2.7273	0.	0.44467
423	1.26	2.5455	0.	0.44912
424	1.26	2.3636	0.	0.45747
425	1.26	2.1818	0.	0.47077
426	1.26	2.	0.	0.48949
427	1.26	1.8182	0.	0.51361
428	1.26	1.6364	0.	0.54342
429	1.26	1.4545	0.	0.5811
430	1.26	1.2727	0.	0.63199
431	1.26	1.0909	0.	0.70989
432	1.26	0.90909	0.	0.82986
433	1.26	0.72727	0.	1.0628
434	1.26	0.54545	0.	1.409
435	1.26	0.36364	0.	3.1773
436	1.26	0.18182	0.	63.55
437	1.08	5.8182	0.	65.303
438	1.08	5.6364	0.	2.4316
439	1.08	5.4545	0.	0.40654
440	1.08	5.2727	0.	-4.6657e-002
441	1.08	5.0909	0.	-0.35379
442	1.08	4.9091	0.	-0.51627
443	1.08	4.7273	0.	-0.62245
444	1.08	4.5455	0.	-0.69333
445	1.08	4.3636	0.	-0.74579
446	1.08	4.1818	0.	-0.78652
447	1.08	4.	0.	-0.81872
448	1.08	3.8182	0.	-0.84361
449	1.08	3.6364	0.	-0.86187
450	1.08	3.4545	0.	-0.87426
451	1.08	3.2727	0.	-0.88171
452	1.08	3.0909	0.	-0.88514
453	1.08	2.9091	0.	-0.88514
454	1.08	2.7273	0.	-0.88171
455	1.08	2.5455	0.	-0.87426
456	1.08	2.3636	0.	-0.86187
457	1.08	2.1818	0.	-0.84361
458	1.08	2.	0.	-0.81872
459	1.08	1.8182	0.	-0.78652
460	1.08	1.6364	0.	-0.74579
461	1.08	1.4545	0.	-0.69333
462	1.08	1.2727	0.	-0.62245
463	1.08	1.0909	0.	-0.51627
464	1.08	0.90909	0.	-0.35379
465	1.08	0.72727	0.	-4.6656e-002
466	1.08	0.54545	0.	0.40654
467	1.08	0.36364	0.	2.4316
468	1.08	0.18182	0.	65.303
469	0.9	5.8182	0.	72.004
470	0.9	5.6364	0.	5.5313
471	0.9	5.4545	0.	4.306
472	0.9	5.2727	0.	4.288
473	0.9	5.0909	0.	4.2537
474	0.9	4.9091	0.	4.286
475	0.9	4.7273	0.	4.316
476	0.9	4.5455	0.	4.3399
477	0.9	4.3636	0.	4.3525
478	0.9	4.1818	0.	4.3557
479	0.9	4.	0.	4.3525
480	0.9	3.8182	0.	4.3459
481	0.9	3.6364	0.	4.3383
482	0.9	3.4545	0.	4.3316
483	0.9	3.2727	0.	4.3268
484	0.9	3.0909	0.	4.3243
485	0.9	2.9091	0.	4.3243
486	0.9	2.7273	0.	4.3268
487	0.9	2.5455	0.	4.3316
488	0.9	2.3636	0.	4.3383
489	0.9	2.1818	0.	4.3459
490	0.9	2.	0.	4.3525
491	0.9	1.8182	0.	4.3557
492	0.9	1.6364	0.	4.3525
493	0.9	1.4545	0.	4.3399
494	0.9	1.2727	0.	4.316
495	0.9	1.0909	0.	4.286
496	0.9	0.90909	0.	4.2537
497	0.9	0.72727	0.	4.288
498	0.9	0.54545	0.	4.306
499	0.9	0.36364	0.	5.5313
500	0.9	0.18182	0.	72.004
501	0.72	5.8182	0.	79.795
502	0.72	5.6364	0.	-5.7262
503	0.72	5.4545	0.	-10.715
504	0.72	5.2727	0.	-12.514
505	0.72	5.0909	0.	-13.729
506	0.72	4.9091	0.	-14.492
507	0.72	4.7273	0.	-15.025
508	0.72	4.5455	0.	-15.404
509	0.72	4.3636	0.	-15.679
510	0.72	4.1818	0.	-15.878
511	0.72	4.	0.	-16.02
512	0.72	3.8182	0.	-16.12
513	0.72	3.6364	0.	-16.187
514	0.72	3.4545	0.	-16.23
515	0.72	3.2727	0.	-16.255
516	0.72	3.0909	0.	-16.267
517	0.72	2.9091	0.	-16.267
518	0.72	2.7273	0.	-16.255
519	0.72	2.5455	0.	-16.23
520	0.72	2.3636	0.	-16.187
521	0.72	2.1818	0.	-16.12
522	0.72	2.	0.	-16.02
523	0.72	1.8182	0.	-15.878
524	0.72	1.6364	0.	-15.679
525	0.72	1.4545	0.	-15.404
526	0.72	1.2727	0.	-15.025
527	0.72	1.0909	0.	-14.492
528	0.72	0.90909	0.	-13.729
529	0.72	0.72727	0.	-12.514
530	0.72	0.54545	0.	-10.715
531	0.72	0.36364	0.	-5.7262
532	0.72	0.18182	0.	79.795
533	0.54	5.8182	0.	100.85
534	0.54	5.6364	0.	42.027
535	0.54	5.4545	0.	50.504
536	0.54	5.2727	0.	54.986
537	0.54	5.0909	0.	58.074
538	0.54	4.9091	0.	60.27
539	0.54	4.7273	0.	61.823
540	0.54	4.5455	0.	62.925
541	0.54	4.3636	0.	63.699
542	0.54	4.1818	0.	64.231
543	0.54	4.	0.	64.587
544	0.54	3.8182	0.	64.815
545	0.54	3.6364	0.	64.955
546	0.54	3.4545	0.	65.036
547	0.54	3.2727	0.	65.078
548	0.54	3.0909	0.	65.095
549	0.54	2.9091	0.	65.095
550	0.54	2.7273	0.	65.078
551	0.54	2.5455	0.	65.036
552	0.54	2.3636	0.	64.955
553	0.54	2.1818	0.	64.815
554	0.54	2.	0.	64.587
555	0.54	1.8182	0.	64.231
556	0.54	1.6364	0.	63.699
557	0.54	1.4545	0.	62.925
558	0.54	1.2727	0.	61.823
559	0.54	1.0909	0.	60.27
560	0.54	0.90909	0.	58.074
561	0.54	0.72727	0.	54.986
562	0.54	0.54545	0.	50.504
563	0.54	0.36364	0.	42.027
564	0.54	0.18182	0.	100.85
565	0.36	5.8182	0.	72.202
566	0.36	5.6364	0.	-142.87
567	0.36	5.4545	0.	-187.88
568	0.36	5.2727	0.	-210.33
569	0.36	5.0909	0.	-224.67
570	0.36	4.9091	0.	-234.49
571	0.36	4.7273	0.	-241.38
572	0.36	4.5455	0.	-246.28
573	0.36	4.3636	0.	-249.76
574	0.36	4.1818	0.	-252.19
575	0.36	4.	0.	-253.86
576	0.36	3.8182	0.	-254.96
577	0.36	3.6364	0.	-255.66
578	0.36	3.4545	0.	-256.09
579	0.36	3.2727	0.	-256.32
580	0.36	3.0909	0.	-256.42
581	0.36	2.9091	0.	-256.42
582	0.36	2.7273	0.	-256.32
583	0.36	2.5455	0.	-256.09
584	0.36	2.3636	0.	-255.66
585	0.36	2.1818	0.	-254.96
586	0.36	2.	0.	-253.86
587	0.36	1.8182	0.	-252.19
588	0.36	1.6364	0.	-249.76
589	0.36	1.4545	0.	-246.28
590	0.36	1.2727	0.	-241.38
591	0.36	1.0909	0.	-234.49
592	0.36	0.90909	0.	-224.67
593	0.36	0.72727	0.	-210.33
594	0.36	0.54545	0.	-187.88
595	0.36	0.36364	0.	-142.87
596	0.36	0.18182	0.	72.202
597	0.18	5.8182	0.	331.82
598	0.18	5.6364	0.	630.85
599	0.18	5.4545	0.	759.74
600	0.18	5.2727	0.	842.73
601	0.18	5.0909	0.	895.01
602	0.18	4.9091	0.	931.8
603	0.18	4.7273	0.	957.69
604	0.18	4.5455	0.	976.18
605	0.18	4.3636	0.	989.27
606	0.18	4.1818	0.	998.4
607	0.18	4.	0.	1004.6
608	0.18	3.8182	0.	1008.7
609	0.18	3.6364	0.	1011.3
610	0.18	3.4545	0.	1012.8
611	0.18	3.2727	0.	1013.6
612	0.18	3.0909	0.	1014.
613	0.18	2.9091	0.	1014.
614	0.18	2.7273	0.	1013.6
615	0.18	2.5455	0.	1012.8
616	0.18	2.3636	0.	1011.3
617	0.18	2.1818	0.	1008.7
618	0.18	2.	0.	1004.6
619	0.18	1.8182	0.	998.4
620	0.18	1.6364	0.	989.27
621	0.18	1.4545	0.	976.18
622	0.18	1.2727	0.	957.69
623	0.18	1.0909	0.	931.8
624	0.18	0.90909	0.	895.01
625	0.18	0.72727	0.	842.73
626	0.18	0.54545	0.	759.74
627	0.18	0.36364	0.	630.85
628	0.18	0.18182	0.	331.82
629	3.9506	5.8182	0.	152.88
630	4.1345	5.8182	0.	112.39
631	4.3185	5.8182	0.	112.55
632	4.5024	5.8182	0.	112.6
633	4.6864	5.8182	0.	107.45
634	4.8703	5.8182	0.	98.543
635	5.0542	5.8182	0.	87.418
636	5.2382	5.8182	0.	75.434
637	5.4221	5.8182	0.	63.563
638	5.6061	5.8182	0.	52.431
639	5.79	5.8182	0.	42.383
640	5.9739	5.8182	0.	33.572
641	6.1579	5.8182	0.	26.021
642	6.3418	5.8182	0.	19.677
643	6.5258	5.8182	0.	14.443
644	6.7097	5.8182	0.	10.206
645	6.8936	5.8182	0.	6.847
646	7.0776	5.8182	0.	4.2563
647	7.2615	5.8182	0.	2.3447
648	7.4455	5.8182	0.	1.0841
649	7.6294	5.8182	0.	0.5019
650	7.8133	5.8182	0.	0.32786
651	7.9973	5.8182	0.	0.27604
652	8.1812	5.8182	0.	0.26774
653	8.3652	5.8182	0.	0.28853
654	8.5491	5.8182	0.	0.34634
655	8.733	5.8182	0.	0.47269
656	8.917	5.8182	0.	0.72735
657	9.1009	5.8182	0.	1.1461
658	9.2848	5.8182	0.	1.69
659	9.4688	5.8182	0.	2.305
660	9.6527	5.8182	0.	2.9571
661	9.8367	5.8182	0.	3.6263
662	10.021	5.8182	0.	4.2999
663	10.205	5.8182	0.	4.9693
664	10.388	5.8182	0.	5.6286
665	10.572	5.8182	0.	6.2736
666	10.756	5.8182	0.	6.9014
667	10.94	5.8182	0.	7.5103
668	11.124	5.8182	0.	8.0992
669	11.308	5.8182	0.	8.6675
670	11.492	5.8182	0.	9.2154
671	11.676	5.8182	0.	9.7431
672	11.86	5.8182	0.	10.251
673	12.044	5.8182	0.	10.741
674	12.228	5.8182	0.	11.212
675	12.412	5.8182	0.	11.667
676	12.596	5.8182	0.	12.106
677	12.78	5.8182	0.	12.531
678	12.964	5.8182	0.	12.943
679	13.148	5.8182	0.	13.342
680	13.332	5.8182	0.	13.731
681	13.515	5.8182	0.	14.109
682	13.699	5.8182	0.	14.479
683	13.883	5.8182	0.	14.841
684	14.067	5.8182	0.	15.197
685	14.251	5.8182	0.	15.548
686	14.435	5.8182	0.	15.893
687	14.619	5.8182	0.	16.236
688	14.803	5.8182	0.	16.575
689	14.987	5.8182	0.	16.913
690	15.171	5.8182	0.	17.25
691	15.355	5.8182	0.	17.587
692	15.539	5.8182	0.	17.925
693	15.723	5.8182	0.	18.265
694	15.907	5.8182	0.	18.606
695	16.091	5.8182	0.	18.951
696	16.275	5.8182	0.	19.299
697	16.458	5.8182	0.	19.652
698	16.642	5.8182	0.	20.01
699	16.826	5.8182	0.	20.374
700	17.01	5.8182	0.	20.743
701	17.194	5.8182	0.	21.119
702	17.378	5.8182	0.	21.503
703	17.562	5.8182	0.	21.894
704	17.746	5.8182	0.	22.294
705	17.93	5.8182	0.	22.701
706	18.114	5.8182	0.	23.118
707	18.298	5.8182	0.	23.544
708	18.482	5.8182	0.	23.979
709	18.666	5.8182	0.	24.423
710	18.85	5.8182	0.	24.876
711	19.034	5.8182	0.	25.339
712	19.218	5.8182	0.	25.811
713	19.402	5.8182	0.	26.291
714	19.585	5.8182	0.	26.779
715	19.769	5.8182	0.	27.274
716	19.953	5.8182	0.	27.776
717	20.137	5.8182	0.	28.283
718	20.321	5.8182	0.	28.794
719	20.505	5.8182	0.	29.306
720	20.689	5.8182	0.	29.818
721	20.873	5.8182	0.	30.326
722	21.057	5.8182	0.	30.829
723	21.241	5.8182	0.	31.321
724	21.425	5.8182	0.	31.799
725	21.609	5.8182	0.	32.257
726	21.793	5.8182	0.	32.689
727	21.977	5.8182	0.	33.088
728	22.161	5.8182	0.	33.443
729	22.345	5.8182	0.	33.745
730	22.528	5.8182	0.	33.98
731	22.712	5.8182	0.	34.133
732	22.896	5.8182	0.	34.184
733	23.08	5.8182	0.	34.113
734	23.264	5.8182	0.	33.901
735	23.448	5.8182	0.	33.552
736	23.632	5.8182	0.	33.212
737	23.816	5.8182	0.	34.186
738	3.9506	5.6364	0.	314.48
739	4.1345	5.6364	0.	174.79
740	4.3185	5.6364	0.	152.73
741	4.5024	5.6364	0.	150.59
742	4.6864	5.6364	0.	147.22
743	4.8703	5.6364	0.	139.
744	5.0542	5.6364	0.	126.4
745	5.2382	5.6364	0.	111.06
746	5.4221	5.6364	0.	94.586
747	5.6061	5.6364	0.	78.217
748	5.79	5.6364	0.	62.801
749	5.9739	5.6364	0.	48.836
750	6.1579	5.6364	0.	36.565
751	6.3418	5.6364	0.	26.05
752	6.5258	5.6364	0.	17.242
753	6.7097	5.6364	0.	10.03
754	6.8936	5.6364	0.	4.3094
755	7.0776	5.6364	0.	0.66639
756	7.2615	5.6364	0.	0.16861
757	7.4455	5.6364	0.	0.10304
758	7.6294	5.6364	0.	8.1072e-002
759	7.8133	5.6364	0.	7.0435e-002
760	7.9973	5.6364	0.	6.39e-002
761	8.1812	5.6364	0.	5.9078e-002
762	8.3652	5.6364	0.	5.503e-002
763	8.5491	5.6364	0.	5.1367e-002
764	8.733	5.6364	0.	4.7918e-002
765	8.917	5.6364	0.	4.4612e-002
766	9.1009	5.6364	0.	4.1432e-002
767	9.2848	5.6364	0.	3.8391e-002
768	9.4688	5.6364	0.	3.551e-002
769	9.6527	5.6364	0.	3.2825e-002
770	9.8367	5.6364	0.	3.0429e-002
771	10.021	5.6364	0.	2.8498e-002
772	10.205	5.6364	0.	2.7615e-002
773	10.388	5.6364	0.	3.2804e-002
774	10.572	5.6364	0.	0.45674
775	10.756	5.6364	0.	1.3583
776	10.94	5.6364	0.	2.2322
777	11.124	5.6364	0.	3.0704
778	11.308	5.6364	0.	3.872
779	11.492	5.6364	0.	4.6369
780	11.676	5.6364	0.	5.3661
781	11.86	5.6364	0.	6.0607
782	12.044	5.6364	0.	6.722
783	12.228	5.6364	0.	7.3519
784	12.412	5.6364	0.	7.9521
785	12.596	5.6364	0.	8.5246
786	12.78	5.6364	0.	9.0711
787	12.964	5.6364	0.	9.5938
788	13.148	5.6364	0.	10.094
789	13.332	5.6364	0.	10.575
790	13.515	5.6364	0.	11.037
791	13.699	5.6364	0.	11.483
792	13.883	5.6364	0.	11.914
793	14.067	5.6364	0.	12.332
794	14.251	5.6364	0.	12.739
795	14.435	5.6364	0.	13.135
796	14.619	5.6364	0.	13.524
797	14.803	5.6364	0.	13.905
798	14.987	5.6364	0.	14.281
799	15.171	5.6364	0.	14.653
800	15.355	5.6364	0.	15.022
801	15.539	5.6364	0.	15.39
802	15.723	5.6364	0.	15.757
803	15.907	5.6364	0.	16.126
804	16.091	5.6364	0.	16.496
805	16.275	5.6364	0.	16.87
806	16.458	5.6364	0.	17.249
807	16.642	5.6364	0.	17.632
808	16.826	5.6364	0.	18.023
809	17.01	5.6364	0.	18.421
810	17.194	5.6364	0.	18.829
811	17.378	5.6364	0.	19.246
812	17.562	5.6364	0.	19.674
813	17.746	5.6364	0.	20.115
814	17.93	5.6364	0.	20.568
815	18.114	5.6364	0.	21.036
816	18.298	5.6364	0.	21.519
817	18.482	5.6364	0.	22.018
818	18.666	5.6364	0.	22.534
819	18.85	5.6364	0.	23.069
820	19.034	5.6364	0.	23.623
821	19.218	5.6364	0.	24.196
822	19.402	5.6364	0.	24.791
823	19.585	5.6364	0.	25.407
824	19.769	5.6364	0.	26.046
825	19.953	5.6364	0.	26.708
826	20.137	5.6364	0.	27.393
827	20.321	5.6364	0.	28.104
828	20.505	5.6364	0.	28.839
829	20.689	5.6364	0.	29.6
830	20.873	5.6364	0.	30.387
831	21.057	5.6364	0.	31.201
832	21.241	5.6364	0.	32.042
833	21.425	5.6364	0.	32.911
834	21.609	5.6364	0.	33.81
835	21.793	5.6364	0.	34.74
836	21.977	5.6364	0.	35.705
837	22.161	5.6364	0.	36.709
838	22.345	5.6364	0.	37.76
839	22.528	5.6364	0.	38.872
840	22.712	5.6364	0.	40.066
841	22.896	5.6364	0.	41.383
842	23.08	5.6364	0.	42.895
843	23.264	5.6364	0.	44.743
844	23.448	5.6364	0.	47.208
845	23.632	5.6364	0.	50.992
846	23.816	5.6364	0.	57.449
847	3.9506	5.4545	0.	571.38
848	4.1345	5.4545	0.	333.39
849	4.3185	5.4545	0.	253.34
850	4.5024	5.4545	0.	218.74
851	4.6864	5.4545	0.	196.36
852	4.8703	5.4545	0.	175.84
853	5.0542	5.4545	0.	154.39
854	5.2382	5.4545	0.	132.12
855	5.4221	5.4545	0.	109.91
856	5.6061	5.4545	0.	88.686
857	5.79	5.4545	0.	69.109
858	5.9739	5.4545	0.	51.592
859	6.1579	5.4545	0.	36.324
860	6.3418	5.4545	0.	23.335
861	6.5258	5.4545	0.	12.57
862	6.7097	5.4545	0.	4.1492
863	6.8936	5.4545	0.	0.59261
864	7.0776	5.4545	0.	0.21922
865	7.2615	5.4545	0.	0.12658
866	7.4455	5.4545	0.	8.6609e-002
867	7.6294	5.4545	0.	6.4701e-002
868	7.8133	5.4545	0.	5.0936e-002
869	7.9973	5.4545	0.	4.1482e-002
870	8.1812	5.4545	0.	3.456e-002
871	8.3652	5.4545	0.	2.9246e-002
872	8.5491	5.4545	0.	2.5027e-002
873	8.733	5.4545	0.	2.1587e-002
874	8.917	5.4545	0.	1.8721e-002
875	9.1009	5.4545	0.	1.6291e-002
876	9.2848	5.4545	0.	1.4212e-002
877	9.4688	5.4545	0.	1.2414e-002
878	9.6527	5.4545	0.	1.0843e-002
879	9.8367	5.4545	0.	9.4789e-003
880	10.021	5.4545	0.	8.2902e-003
881	10.205	5.4545	0.	7.2166e-003
882	10.388	5.4545	0.	6.2878e-003
883	10.572	5.4545	0.	5.503e-003
884	10.756	5.4545	0.	4.8721e-003
885	10.94	5.4545	0.	4.5895e-003
886	11.124	5.4545	0.	5.7496e-003
887	11.308	5.4545	0.	0.36486
888	11.492	5.4545	0.	1.3731
889	11.676	5.4545	0.	2.3321
890	11.86	5.4545	0.	3.2408
891	12.044	5.4545	0.	4.1011
892	12.228	5.4545	0.	4.9157
893	12.412	5.4545	0.	5.6871
894	12.596	5.4545	0.	6.4183
895	12.78	5.4545	0.	7.1119
896	12.964	5.4545	0.	7.7708
897	13.148	5.4545	0.	8.3977
898	13.332	5.4545	0.	8.9952
899	13.515	5.4545	0.	9.566
900	13.699	5.4545	0.	10.113
901	13.883	5.4545	0.	10.637
902	14.067	5.4545	0.	11.143
903	14.251	5.4545	0.	11.631
904	14.435	5.4545	0.	12.104
905	14.619	5.4545	0.	12.565
906	14.803	5.4545	0.	13.014
907	14.987	5.4545	0.	13.455
908	15.171	5.4545	0.	13.888
909	15.355	5.4545	0.	14.317
910	15.539	5.4545	0.	14.742
911	15.723	5.4545	0.	15.165
912	15.907	5.4545	0.	15.589
913	16.091	5.4545	0.	16.014
914	16.275	5.4545	0.	16.442
915	16.458	5.4545	0.	16.876
916	16.642	5.4545	0.	17.316
917	16.826	5.4545	0.	17.765
918	17.01	5.4545	0.	18.224
919	17.194	5.4545	0.	18.694
920	17.378	5.4545	0.	19.177
921	17.562	5.4545	0.	19.676
922	17.746	5.4545	0.	20.191
923	17.93	5.4545	0.	20.724
924	18.114	5.4545	0.	21.277
925	18.298	5.4545	0.	21.853
926	18.482	5.4545	0.	22.451
927	18.666	5.4545	0.	23.076
928	18.85	5.4545	0.	23.727
929	19.034	5.4545	0.	24.408
930	19.218	5.4545	0.	25.121
931	19.402	5.4545	0.	25.867
932	19.585	5.4545	0.	26.648
933	19.769	5.4545	0.	27.467
934	19.953	5.4545	0.	28.326
935	20.137	5.4545	0.	29.227
936	20.321	5.4545	0.	30.174
937	20.505	5.4545	0.	31.168
938	20.689	5.4545	0.	32.213
939	20.873	5.4545	0.	33.313
940	21.057	5.4545	0.	34.471
941	21.241	5.4545	0.	35.693
942	21.425	5.4545	0.	36.984
943	21.609	5.4545	0.	38.353
944	21.793	5.4545	0.	39.808
945	21.977	5.4545	0.	41.362
946	22.161	5.4545	0.	43.035
947	22.345	5.4545	0.	44.851
948	22.528	5.4545	0.	46.846
949	22.712	5.4545	0.	49.075
950	22.896	5.4545	0.	51.622
951	23.08	5.4545	0.	54.619
952	23.264	5.4545	0.	58.282
953	23.448	5.4545	0.	62.943
954	23.632	5.4545	0.	69.187
955	23.816	5.4545	0.	77.612
956	3.9506	5.2727	0.	878.36
957	4.1345	5.2727	0.	546.91
958	4.3185	5.2727	0.	395.17
959	4.5024	5.2727	0.	308.02
960	4.6864	5.2727	0.	250.2
961	4.8703	5.2727	0.	206.46
962	5.0542	5.2727	0.	169.89
963	5.2382	5.2727	0.	137.75
964	5.4221	5.2727	0.	109.06
965	5.6061	5.2727	0.	83.523
966	5.79	5.2727	0.	61.065
967	5.9739	5.2727	0.	41.629
968	6.1579	5.2727	0.	25.147
969	6.3418	5.2727	0.	11.646
970	6.5258	5.2727	0.	2.6299
971	6.7097	5.2727	0.	0.63599
972	6.8936	5.2727	0.	0.29497
973	7.0776	5.2727	0.	0.17581
974	7.2615	5.2727	0.	0.11872
975	7.4455	5.2727	0.	8.648e-002
976	7.6294	5.2727	0.	6.6271e-002
977	7.8133	5.2727	0.	5.2643e-002
978	7.9973	5.2727	0.	4.2941e-002
979	8.1812	5.2727	0.	3.5724e-002
980	8.3652	5.2727	0.	3.0169e-002
981	8.5491	5.2727	0.	2.5778e-002
982	8.733	5.2727	0.	2.223e-002
983	8.917	5.2727	0.	1.9309e-002
984	9.1009	5.2727	0.	1.6867e-002
985	9.2848	5.2727	0.	1.4807e-002
986	9.4688	5.2727	0.	1.3056e-002
987	9.6527	5.2727	0.	1.1549e-002
988	9.8367	5.2727	0.	1.0268e-002
989	10.021	5.2727	0.	9.1752e-003
990	10.205	5.2727	0.	8.2107e-003
991	10.388	5.2727	0.	7.399e-003
992	10.572	5.2727	0.	6.7394e-003
993	10.756	5.2727	0.	6.2131e-003
994	10.94	5.2727	0.	5.9044e-003
995	11.124	5.2727	0.	5.9028e-003
996	11.308	5.2727	0.	6.4182e-003
997	11.492	5.2727	0.	8.4145e-003
998	11.676	5.2727	0.	2.0637e-002
999	11.86	5.2727	0.	0.60557
1000	12.044	5.2727	0.	1.6525
1001	12.228	5.2727	0.	2.6475
1002	12.412	5.2727	0.	3.5873
1003	12.596	5.2727	0.	4.4745
1004	12.78	5.2727	0.	5.3128
1005	12.964	5.2727	0.	6.1058
1006	13.148	5.2727	0.	6.857
1007	13.332	5.2727	0.	7.5698
1008	13.515	5.2727	0.	8.2477
1009	13.699	5.2727	0.	8.8938
1010	13.883	5.2727	0.	9.5114
1011	14.067	5.2727	0.	10.103
1012	14.251	5.2727	0.	10.673
1013	14.435	5.2727	0.	11.222
1014	14.619	5.2727	0.	11.754
1015	14.803	5.2727	0.	12.272
1016	14.987	5.2727	0.	12.777
1017	15.171	5.2727	0.	13.273
1018	15.355	5.2727	0.	13.761
1019	15.539	5.2727	0.	14.244
1020	15.723	5.2727	0.	14.725
1021	15.907	5.2727	0.	15.205
1022	16.091	5.2727	0.	15.686
1023	16.275	5.2727	0.	16.171
1024	16.458	5.2727	0.	16.661
1025	16.642	5.2727	0.	17.16
1026	16.826	5.2727	0.	17.669
1027	17.01	5.2727	0.	18.19
1028	17.194	5.2727	0.	18.725
1029	17.378	5.2727	0.	19.277
1030	17.562	5.2727	0.	19.848
1031	17.746	5.2727	0.	20.441
1032	17.93	5.2727	0.	21.057
1033	18.114	5.2727	0.	21.699
1034	18.298	5.2727	0.	22.37
1035	18.482	5.2727	0.	23.072
1036	18.666	5.2727	0.	23.808
1037	18.85	5.2727	0.	24.581
1038	19.034	5.2727	0.	25.394
1039	19.218	5.2727	0.	26.25
1040	19.402	5.2727	0.	27.153
1041	19.585	5.2727	0.	28.105
1042	19.769	5.2727	0.	29.11
1043	19.953	5.2727	0.	30.173
1044	20.137	5.2727	0.	31.298
1045	20.321	5.2727	0.	32.489
1046	20.505	5.2727	0.	33.751
1047	20.689	5.2727	0.	35.09
1048	20.873	5.2727	0.	36.514
1049	21.057	5.2727	0.	38.029
1050	21.241	5.2727	0.	39.645
1051	21.425	5.2727	0.	41.372
1052	21.609	5.2727	0.	43.224
1053	21.793	5.2727	0.	45.219
1054	21.977	5.2727	0.	47.378
1055	22.161	5.2727	0.	49.73
1056	22.345	5.2727	0.	52.315
1057	22.528	5.2727	0.	55.185
1058	22.712	5.2727	0.	58.415
1059	22.896	5.2727	0.	62.109
1060	23.08	5.2727	0.	66.414
1061	23.264	5.2727	0.	71.54
1062	23.448	5.2727	0.	77.74
1063	23.632	5.2727	0.	85.382
1064	23.816	5.2727	0.	94.673
1065	3.9506	5.0909	0.	1235.1
1066	4.1345	5.0909	0.	797.61
1067	4.3185	5.0909	0.	562.11
1068	4.5024	5.0909	0.	408.02
1069	4.6864	5.0909	0.	302.57
1070	4.8703	5.0909	0.	227.55
1071	5.0542	5.0909	0.	171.49
1072	5.2382	5.0909	0.	127.75
1073	5.4221	5.0909	0.	92.523
1074	5.6061	5.0909	0.	63.638
1075	5.79	5.0909	0.	39.84
1076	5.9739	5.0909	0.	20.536
1077	6.1579	5.0909	0.	6.6189
1078	6.3418	5.0909	0.	1.645
1079	6.5258	5.0909	0.	0.68184
1080	6.7097	5.0909	0.	0.37215
1081	6.8936	5.0909	0.	0.2325
1082	7.0776	5.0909	0.	0.15755
1083	7.2615	5.0909	0.	0.11283
1084	7.4455	5.0909	0.	8.4153e-002
1085	7.6294	5.0909	0.	6.4742e-002
1086	7.8133	5.0909	0.	5.1044e-002
1087	7.9973	5.0909	0.	4.1058e-002
1088	8.1812	5.0909	0.	3.3572e-002
1089	8.3652	5.0909	0.	2.7829e-002
1090	8.5491	5.0909	0.	2.3345e-002
1091	8.733	5.0909	0.	1.9789e-002
1092	8.917	5.0909	0.	1.6929e-002
1093	9.1009	5.0909	0.	1.4602e-002
1094	9.2848	5.0909	0.	1.2697e-002
1095	9.4688	5.0909	0.	1.1127e-002
1096	9.6527	5.0909	0.	9.8203e-003
1097	9.8367	5.0909	0.	8.7477e-003
1098	10.021	5.0909	0.	7.8679e-003
1099	10.205	5.0909	0.	7.1128e-003
1100	10.388	5.0909	0.	6.5027e-003
1101	10.572	5.0909	0.	6.025e-003
1102	10.756	5.0909	0.	5.6531e-003
1103	10.94	5.0909	0.	5.4413e-003
1104	11.124	5.0909	0.	5.4134e-003
1105	11.308	5.0909	0.	5.5864e-003
1106	11.492	5.0909	0.	6.0937e-003
1107	11.676	5.0909	0.	7.3304e-003
1108	11.86	5.0909	0.	1.051e-002
1109	12.044	5.0909	0.	2.4727e-002
1110	12.228	5.0909	0.	0.5086
1111	12.412	5.0909	0.	1.5918
1112	12.596	5.0909	0.	2.6277
1113	12.78	5.0909	0.	3.6054
1114	12.964	5.0909	0.	4.5279
1115	13.148	5.0909	0.	5.3993
1116	13.332	5.0909	0.	6.2236
1117	13.515	5.0909	0.	7.0049
1118	13.699	5.0909	0.	7.7474
1119	13.883	5.0909	0.	8.4547
1120	14.067	5.0909	0.	9.1305
1121	14.251	5.0909	0.	9.7784
1122	14.435	5.0909	0.	10.402
1123	14.619	5.0909	0.	11.004
1124	14.803	5.0909	0.	11.587
1125	14.987	5.0909	0.	12.156
1126	15.171	5.0909	0.	12.712
1127	15.355	5.0909	0.	13.259
1128	15.539	5.0909	0.	13.799
1129	15.723	5.0909	0.	14.336
1130	15.907	5.0909	0.	14.871
1131	16.091	5.0909	0.	15.407
1132	16.275	5.0909	0.	15.948
1133	16.458	5.0909	0.	16.495
1134	16.642	5.0909	0.	17.051
1135	16.826	5.0909	0.	17.62
1136	17.01	5.0909	0.	18.203
1137	17.194	5.0909	0.	18.804
1138	17.378	5.0909	0.	19.424
1139	17.562	5.0909	0.	20.068
1140	17.746	5.0909	0.	20.738
1141	17.93	5.0909	0.	21.437
1142	18.114	5.0909	0.	22.168
1143	18.298	5.0909	0.	22.935
1144	18.482	5.0909	0.	23.741
1145	18.666	5.0909	0.	24.59
1146	18.85	5.0909	0.	25.485
1147	19.034	5.0909	0.	26.431
1148	19.218	5.0909	0.	27.432
1149	19.402	5.0909	0.	28.492
1150	19.585	5.0909	0.	29.616
1151	19.769	5.0909	0.	30.81
1152	19.953	5.0909	0.	32.079
1153	20.137	5.0909	0.	33.428
1154	20.321	5.0909	0.	34.866
1155	20.505	5.0909	0.	36.399
1156	20.689	5.0909	0.	38.035
1157	20.873	5.0909	0.	39.785
1158	21.057	5.0909	0.	41.659
1159	21.241	5.0909	0.	43.67
1160	21.425	5.0909	0.	45.833
1161	21.609	5.0909	0.	48.168
1162	21.793	5.0909	0.	50.698
1163	21.977	5.0909	0.	53.45
1164	22.161	5.0909	0.	56.463
1165	22.345	5.0909	0.	59.783
1166	22.528	5.0909	0.	63.471
1167	22.712	5.0909	0.	67.608
1168	22.896	5.0909	0.	72.298
1169	23.08	5.0909	0.	77.673
1170	23.264	5.0909	0.	83.897
1171	23.448	5.0909	0.	91.136
1172	23.632	5.0909	0.	99.61
1173	23.816	5.0909	0.	109.34
1174	3.9506	4.9091	0.	1654.1
1175	4.1345	4.9091	0.	1077.4
1176	4.3185	4.9091	0.	737.35
1177	4.5024	4.9091	0.	502.56
1178	4.6864	4.9091	0.	341.67
1179	4.8703	4.9091	0.	231.8
1180	5.0542	4.9091	0.	155.38
1181	5.2382	4.9091	0.	100.77
1182	5.4221	4.9091	0.	60.669
1183	5.6061	4.9091	0.	30.968
1184	5.79	4.9091	0.	10.941
1185	5.9739	4.9091	0.	3.1782
1186	6.1579	4.9091	0.	1.3425
1187	6.3418	4.9091	0.	0.72175
1188	6.5258	4.9091	0.	0.43908
1189	6.7097	4.9091	0.	0.2879
1190	6.8936	4.9091	0.	0.19878
1191	7.0776	4.9091	0.	0.14265
1192	7.2615	4.9091	0.	0.10554
1193	7.4455	4.9091	0.	8.0057e-002
1194	7.6294	4.9091	0.	6.2014e-002
1195	7.8133	4.9091	0.	4.8908e-002
1196	7.9973	4.9091	0.	3.9189e-002
1197	8.1812	4.9091	0.	3.1843e-002
1198	8.3652	4.9091	0.	2.6203e-002
1199	8.5491	4.9091	0.	2.1816e-002
1200	8.733	4.9091	0.	1.8366e-002
1201	8.917	4.9091	0.	1.5622e-002
1202	9.1009	4.9091	0.	1.3422e-002
1203	9.2848	4.9091	0.	1.1648e-002
1204	9.4688	4.9091	0.	1.0213e-002
1205	9.6527	4.9091	0.	9.0407e-003
1206	9.8367	4.9091	0.	8.0997e-003
1207	10.021	4.9091	0.	7.345e-003
1208	10.205	4.9091	0.	6.7084e-003
1209	10.388	4.9091	0.	6.2055e-003
1210	10.572	4.9091	0.	5.8209e-003
1211	10.756	4.9091	0.	5.5206e-003
1212	10.94	4.9091	0.	5.3517e-003
1213	11.124	4.9091	0.	5.3168e-003
1214	11.308	4.9091	0.	5.3997e-003
1215	11.492	4.9091	0.	5.64e-003
1216	11.676	4.9091	0.	6.1737e-003
1217	11.86	4.9091	0.	7.1916e-003
1218	12.044	4.9091	0.	9.2243e-003
1219	12.228	4.9091	0.	1.4773e-002
1220	12.412	4.9091	0.	5.5998e-002
1221	12.596	4.9091	0.	0.89514
1222	12.78	4.9091	0.	1.9974
1223	12.964	4.9091	0.	3.0423
1224	13.148	4.9091	0.	4.0281
1225	13.332	4.9091	0.	4.9589
1226	13.515	4.9091	0.	5.8392
1227	13.699	4.9091	0.	6.6736
1228	13.883	4.9091	0.	7.4668
1229	14.067	4.9091	0.	8.2228
1230	14.251	4.9091	0.	8.9458
1231	14.435	4.9091	0.	9.6399
1232	14.619	4.9091	0.	10.309
1233	14.803	4.9091	0.	10.956
1234	14.987	4.9091	0.	11.585
1235	15.171	4.9091	0.	12.2
1236	15.355	4.9091	0.	12.803
1237	15.539	4.9091	0.	13.398
1238	15.723	4.9091	0.	13.989
1239	15.907	4.9091	0.	14.578
1240	16.091	4.9091	0.	15.168
1241	16.275	4.9091	0.	15.762
1242	16.458	4.9091	0.	16.365
1243	16.642	4.9091	0.	16.978
1244	16.826	4.9091	0.	17.604
1245	17.01	4.9091	0.	18.248
1246	17.194	4.9091	0.	18.913
1247	17.378	4.9091	0.	19.601
1248	17.562	4.9091	0.	20.316
1249	17.746	4.9091	0.	21.062
1250	17.93	4.9091	0.	21.843
1251	18.114	4.9091	0.	22.662
1252	18.298	4.9091	0.	23.524
1253	18.482	4.9091	0.	24.432
1254	18.666	4.9091	0.	25.392
1255	18.85	4.9091	0.	26.408
1256	19.034	4.9091	0.	27.485
1257	19.218	4.9091	0.	28.628
1258	19.402	4.9091	0.	29.844
1259	19.585	4.9091	0.	31.138
1260	19.769	4.9091	0.	32.518
1261	19.953	4.9091	0.	33.99
1262	20.137	4.9091	0.	35.562
1263	20.321	4.9091	0.	37.243
1264	20.505	4.9091	0.	39.042
1265	20.689	4.9091	0.	40.971
1266	20.873	4.9091	0.	43.041
1267	21.057	4.9091	0.	45.266
1268	21.241	4.9091	0.	47.663
1269	21.425	4.9091	0.	50.251
1270	21.609	4.9091	0.	53.052
1271	21.793	4.9091	0.	56.093
1272	21.977	4.9091	0.	59.407
1273	22.161	4.9091	0.	63.035
1274	22.345	4.9091	0.	67.028
1275	22.528	4.9091	0.	71.446
1276	22.712	4.9091	0.	76.366
1277	22.896	4.9091	0.	81.881
1278	23.08	4.9091	0.	88.094
1279	23.264	4.9091	0.	95.124
1280	23.448	4.9091	0.	103.07
1281	23.632	4.9091	0.	112.06
1282	23.816	4.9091	0.	122.04
1283	3.9506	4.7273	0.	2162.5
1284	4.1345	4.7273	0.	1379.5
1285	4.3185	4.7273	0.	895.84
1286	4.5024	4.7273	0.	568.45
1287	4.6864	4.7273	0.	351.28
1288	4.8703	4.7273	0.	209.74
1289	5.0542	4.7273	0.	117.26
1290	5.2382	4.7273	0.	56.553
1291	5.4221	4.7273	0.	19.376
1292	5.6061	4.7273	0.	5.4966
1293	5.79	4.7273	0.	2.319
1294	5.9739	4.7273	0.	1.2528
1295	6.1579	4.7273	0.	0.76237
1296	6.3418	4.7273	0.	0.49683
1297	6.5258	4.7273	0.	0.33879
1298	6.7097	4.7273	0.	0.23885
1299	6.8936	4.7273	0.	0.17286
1300	7.0776	4.7273	0.	0.12785
1301	7.2615	4.7273	0.	9.6337e-002
1302	7.4455	4.7273	0.	7.3796e-002
1303	7.6294	4.7273	0.	5.7368e-002
1304	7.8133	4.7273	0.	4.5205e-002
1305	7.9973	4.7273	0.	3.6081e-002
1306	8.1812	4.7273	0.	2.915e-002
1307	8.3652	4.7273	0.	2.3825e-002
1308	8.5491	4.7273	0.	1.9701e-002
1309	8.733	4.7273	0.	1.6482e-002
1310	8.917	4.7273	0.	1.3949e-002
1311	9.1009	4.7273	0.	1.1942e-002
1312	9.2848	4.7273	0.	1.0351e-002
1313	9.4688	4.7273	0.	9.0869e-003
1314	9.6527	4.7273	0.	8.0732e-003
1315	9.8367	4.7273	0.	7.2791e-003
1316	10.021	4.7273	0.	6.6598e-003
1317	10.205	4.7273	0.	6.1458e-003
1318	10.388	4.7273	0.	5.7525e-003
1319	10.572	4.7273	0.	5.4624e-003
1320	10.756	4.7273	0.	5.2405e-003
1321	10.94	4.7273	0.	5.1272e-003
1322	11.124	4.7273	0.	5.1217e-003
1323	11.308	4.7273	0.	5.1903e-003
1324	11.492	4.7273	0.	5.3504e-003
1325	11.676	4.7273	0.	5.6812e-003
1326	11.86	4.7273	0.	6.2368e-003
1327	12.044	4.7273	0.	7.1126e-003
1328	12.228	4.7273	0.	8.7767e-003
1329	12.412	4.7273	0.	1.2655e-002
1330	12.596	4.7273	0.	2.8812e-002
1331	12.78	4.7273	0.	0.5206
1332	12.964	4.7273	0.	1.66
1333	13.148	4.7273	0.	2.7519
1334	13.332	4.7273	0.	3.7827
1335	13.515	4.7273	0.	4.7563
1336	13.699	4.7273	0.	5.6777
1337	13.883	4.7273	0.	6.5519
1338	14.067	4.7273	0.	7.3836
1339	14.251	4.7273	0.	8.1778
1340	14.435	4.7273	0.	8.9387
1341	14.619	4.7273	0.	9.6708
1342	14.803	4.7273	0.	10.378
1343	14.987	4.7273	0.	11.065
1344	15.171	4.7273	0.	11.735
1345	15.355	4.7273	0.	12.392
1346	15.539	4.7273	0.	13.04
1347	15.723	4.7273	0.	13.682
1348	15.907	4.7273	0.	14.322
1349	16.091	4.7273	0.	14.963
1350	16.275	4.7273	0.	15.61
1351	16.458	4.7273	0.	16.265
1352	16.642	4.7273	0.	16.932
1353	16.826	4.7273	0.	17.615
1354	17.01	4.7273	0.	18.318
1355	17.194	4.7273	0.	19.043
1356	17.378	4.7273	0.	19.796
1357	17.562	4.7273	0.	20.581
1358	17.746	4.7273	0.	21.4
1359	17.93	4.7273	0.	22.26
1360	18.114	4.7273	0.	23.164
1361	18.298	4.7273	0.	24.117
1362	18.482	4.7273	0.	25.125
1363	18.666	4.7273	0.	26.192
1364	18.85	4.7273	0.	27.325
1365	19.034	4.7273	0.	28.529
1366	19.218	4.7273	0.	29.811
1367	19.402	4.7273	0.	31.178
1368	19.585	4.7273	0.	32.637
1369	19.769	4.7273	0.	34.197
1370	19.953	4.7273	0.	35.865
1371	20.137	4.7273	0.	37.652
1372	20.321	4.7273	0.	39.568
1373	20.505	4.7273	0.	41.625
1374	20.689	4.7273	0.	43.835
1375	20.873	4.7273	0.	46.212
1376	21.057	4.7273	0.	48.774
1377	21.241	4.7273	0.	51.538
1378	21.425	4.7273	0.	54.527
1379	21.609	4.7273	0.	57.765
1380	21.793	4.7273	0.	61.281
1381	21.977	4.7273	0.	65.111
1382	22.161	4.7273	0.	69.296
1383	22.345	4.7273	0.	73.884
1384	22.528	4.7273	0.	78.933
1385	22.712	4.7273	0.	84.51
1386	22.896	4.7273	0.	90.688
1387	23.08	4.7273	0.	97.547
1388	23.264	4.7273	0.	105.17
1389	23.448	4.7273	0.	113.6
1390	23.632	4.7273	0.	122.93
1391	23.816	4.7273	0.	133.06
1392	3.9506	4.5455	0.	2782.1
1393	4.1345	4.5455	0.	1660.4
1394	4.3185	4.5455	0.	997.18
1395	4.5024	4.5455	0.	574.7
1396	4.6864	4.5455	0.	313.46
1397	4.8703	4.5455	0.	153.32
1398	5.0542	4.5455	0.	56.981
1399	5.2382	4.5455	0.	12.722
1400	5.4221	4.5455	0.	4.1536
1401	5.6061	4.5455	0.	2.087
1402	5.79	4.5455	0.	1.2431
1403	5.9739	4.5455	0.	0.80464
1404	6.1579	4.5455	0.	0.54654
1405	6.3418	4.5455	0.	0.38326
1406	6.5258	4.5455	0.	0.27508
1407	6.7097	4.5455	0.	0.20108
1408	6.8936	4.5455	0.	0.14924
1409	7.0776	4.5455	0.	0.11227
1410	7.2615	4.5455	0.	8.5484e-002
1411	7.4455	4.5455	0.	6.5838e-002
1412	7.6294	4.5455	0.	5.1259e-002
1413	7.8133	4.5455	0.	4.0334e-002
1414	7.9973	4.5455	0.	3.2083e-002
1415	8.1812	4.5455	0.	2.58e-002
1416	8.3652	4.5455	0.	2.0978e-002
1417	8.5491	4.5455	0.	1.7261e-002
1418	8.733	4.5455	0.	1.4381e-002
1419	8.917	4.5455	0.	1.2138e-002
1420	9.1009	4.5455	0.	1.0384e-002
1421	9.2848	4.5455	0.	9.0146e-003
1422	9.4688	4.5455	0.	7.9455e-003
1423	9.6527	4.5455	0.	7.1058e-003
1424	9.8367	4.5455	0.	6.4672e-003
1425	10.021	4.5455	0.	5.9851e-003
1426	10.205	4.5455	0.	5.5916e-003
1427	10.388	4.5455	0.	5.3036e-003
1428	10.572	4.5455	0.	5.1044e-003
1429	10.756	4.5455	0.	4.9567e-003
1430	10.94	4.5455	0.	4.9007e-003
1431	11.124	4.5455	0.	4.9319e-003
1432	11.308	4.5455	0.	5.0108e-003
1433	11.492	4.5455	0.	5.1475e-003
1434	11.676	4.5455	0.	5.3989e-003
1435	11.86	4.5455	0.	5.778e-003
1436	12.044	4.5455	0.	6.2885e-003
1437	12.228	4.5455	0.	7.1267e-003
1438	12.412	4.5455	0.	8.6489e-003
1439	12.596	4.5455	0.	1.1941e-002
1440	12.78	4.5455	0.	2.4214e-002
1441	12.964	4.5455	0.	0.41565
1442	13.148	4.5455	0.	1.5799
1443	13.332	4.5455	0.	2.7022
1444	13.515	4.5455	0.	3.7624
1445	13.699	4.5455	0.	4.7647
1446	13.883	4.5455	0.	5.7144
1447	14.067	4.5455	0.	6.6168
1448	14.251	4.5455	0.	7.4771
1449	14.435	4.5455	0.	8.3005
1450	14.619	4.5455	0.	9.0917
1451	14.803	4.5455	0.	9.8553
1452	14.987	4.5455	0.	10.596
1453	15.171	4.5455	0.	11.318
1454	15.355	4.5455	0.	12.025
1455	15.539	4.5455	0.	12.722
1456	15.723	4.5455	0.	13.412
1457	15.907	4.5455	0.	14.101
1458	16.091	4.5455	0.	14.79
1459	16.275	4.5455	0.	15.486
1460	16.458	4.5455	0.	16.19
1461	16.642	4.5455	0.	16.909
1462	16.826	4.5455	0.	17.645
1463	17.01	4.5455	0.	18.403
1464	17.194	4.5455	0.	19.187
1465	17.378	4.5455	0.	20.002
1466	17.562	4.5455	0.	20.851
1467	17.746	4.5455	0.	21.741
1468	17.93	4.5455	0.	22.676
1469	18.114	4.5455	0.	23.66
1470	18.298	4.5455	0.	24.701
1471	18.482	4.5455	0.	25.803
1472	18.666	4.5455	0.	26.972
1473	18.85	4.5455	0.	28.216
1474	19.034	4.5455	0.	29.541
1475	19.218	4.5455	0.	30.955
1476	19.402	4.5455	0.	32.465
1477	19.585	4.5455	0.	34.081
1478	19.769	4.5455	0.	35.812
1479	19.953	4.5455	0.	37.667
1480	20.137	4.5455	0.	39.658
1481	20.321	4.5455	0.	41.796
1482	20.505	4.5455	0.	44.095
1483	20.689	4.5455	0.	46.57
1484	20.873	4.5455	0.	49.236
1485	21.057	4.5455	0.	52.112
1486	21.241	4.5455	0.	55.218
1487	21.425	4.5455	0.	58.576
1488	21.609	4.5455	0.	62.214
1489	21.793	4.5455	0.	66.162
1490	21.977	4.5455	0.	70.453
1491	22.161	4.5455	0.	75.128
1492	22.345	4.5455	0.	80.23
1493	22.528	4.5455	0.	85.812
1494	22.712	4.5455	0.	91.927
1495	22.896	4.5455	0.	98.633
1496	23.08	4.5455	0.	105.99
1497	23.264	4.5455	0.	114.04
1498	23.448	4.5455	0.	122.82
1499	23.632	4.5455	0.	132.39
1500	23.816	4.5455	0.	142.61
1501	3.9506	4.3636	0.	3659.8
1502	4.1345	4.3636	0.	1835.4
1503	4.3185	4.3636	0.	959.95
1504	4.5024	4.3636	0.	488.5
1505	4.6864	4.3636	0.	216.8
1506	4.8703	4.3636	0.	65.214
1507	5.0542	4.3636	0.	10.772
1508	5.2382	4.3636	0.	3.8385
1509	5.4221	4.3636	0.	2.0442
1510	5.6061	4.3636	0.	1.2691
1511	5.79	4.3636	0.	0.84699
1512	5.9739	4.3636	0.	0.58948
1513	6.1579	4.3636	0.	0.42109
1514	6.3418	4.3636	0.	0.30628
1515	6.5258	4.3636	0.	0.2258
1516	6.7097	4.3636	0.	0.16829
1517	6.8936	4.3636	0.	0.12661
1518	7.0776	4.3636	0.	9.6065e-002
1519	7.2615	4.3636	0.	7.3486e-002
1520	7.4455	4.3636	0.	5.6672e-002
1521	7.6294	4.3636	0.	4.4064e-002
1522	7.8133	4.3636	0.	3.4557e-002
1523	7.9973	4.3636	0.	2.7361e-002
1524	8.1812	4.3636	0.	2.1884e-002
1525	8.3652	4.3636	0.	1.7699e-002
1526	8.5491	4.3636	0.	1.4495e-002
1527	8.733	4.3636	0.	1.2038e-002
1528	8.917	4.3636	0.	1.0149e-002
1529	9.1009	4.3636	0.	8.6947e-003
1530	9.2848	4.3636	0.	7.5813e-003
1531	9.4688	4.3636	0.	6.7331e-003
1532	9.6527	4.3636	0.	6.0856e-003
1533	9.8367	4.3636	0.	5.6114e-003
1534	10.021	4.3636	0.	5.2741e-003
1535	10.205	4.3636	0.	5.0047e-003
1536	10.388	4.3636	0.	4.8239e-003
1537	10.572	4.3636	0.	4.7155e-003
1538	10.756	4.3636	0.	4.6438e-003
1539	10.94	4.3636	0.	4.6478e-003
1540	11.124	4.3636	0.	4.7227e-003
1541	11.308	4.3636	0.	4.8274e-003
1542	11.492	4.3636	0.	4.9659e-003
1543	11.676	4.3636	0.	5.188e-003
1544	11.86	4.3636	0.	5.4899e-003
1545	12.044	4.3636	0.	5.8418e-003
1546	12.228	4.3636	0.	6.3652e-003
1547	12.412	4.3636	0.	7.204e-003
1548	12.596	4.3636	0.	8.6425e-003
1549	12.78	4.3636	0.	1.1806e-002
1550	12.964	4.3636	0.	2.4872e-002
1551	13.148	4.3636	0.	0.53255
1552	13.332	4.3636	0.	1.7244
1553	13.515	4.3636	0.	2.8631
1554	13.699	4.3636	0.	3.9395
1555	13.883	4.3636	0.	4.9584
1556	14.067	4.3636	0.	5.9255
1557	14.251	4.3636	0.	6.8467
1558	14.435	4.3636	0.	7.7273
1559	14.619	4.3636	0.	8.5727
1560	14.803	4.3636	0.	9.388
1561	14.987	4.3636	0.	10.178
1562	15.171	4.3636	0.	10.947
1563	15.355	4.3636	0.	11.701
1564	15.539	4.3636	0.	12.443
1565	15.723	4.3636	0.	13.178
1566	15.907	4.3636	0.	13.911
1567	16.091	4.3636	0.	14.645
1568	16.275	4.3636	0.	15.386
1569	16.458	4.3636	0.	16.137
1570	16.642	4.3636	0.	16.903
1571	16.826	4.3636	0.	17.688
1572	17.01	4.3636	0.	18.498
1573	17.194	4.3636	0.	19.336
1574	17.378	4.3636	0.	20.208
1575	17.562	4.3636	0.	21.119
1576	17.746	4.3636	0.	22.073
1577	17.93	4.3636	0.	23.078
1578	18.114	4.3636	0.	24.138
1579	18.298	4.3636	0.	25.259
1580	18.482	4.3636	0.	26.449
1581	18.666	4.3636	0.	27.714
1582	18.85	4.3636	0.	29.061
1583	19.034	4.3636	0.	30.499
1584	19.218	4.3636	0.	32.036
1585	19.402	4.3636	0.	33.68
1586	19.585	4.3636	0.	35.441
1587	19.769	4.3636	0.	37.331
1588	19.953	4.3636	0.	39.359
1589	20.137	4.3636	0.	41.539
1590	20.321	4.3636	0.	43.883
1591	20.505	4.3636	0.	46.407
1592	20.689	4.3636	0.	49.125
1593	20.873	4.3636	0.	52.056
1594	21.057	4.3636	0.	55.219
1595	21.241	4.3636	0.	58.635
1596	21.425	4.3636	0.	62.327
1597	21.609	4.3636	0.	66.323
1598	21.793	4.3636	0.	70.652
1599	21.977	4.3636	0.	75.347
1600	22.161	4.3636	0.	80.444
1601	22.345	4.3636	0.	85.982
1602	22.528	4.3636	0.	92.004
1603	22.712	4.3636	0.	98.555
1604	22.896	4.3636	0.	105.68
1605	23.08	4.3636	0.	113.41
1606	23.264	4.3636	0.	121.79
1607	23.448	4.3636	0.	130.82
1608	23.632	4.3636	0.	140.56
1609	23.816	4.3636	0.	150.83
1610	3.9506	4.1818	0.	4111.4
1611	4.1345	4.1818	0.	1687.8
1612	4.3185	4.1818	0.	721.02
1613	4.5024	4.1818	0.	301.72
1614	4.6864	4.1818	0.	77.455
1615	4.8703	4.1818	0.	10.331
1616	5.0542	4.1818	0.	3.7446
1617	5.2382	4.1818	0.	2.0625
1618	5.4221	4.1818	0.	1.3
1619	5.6061	4.1818	0.	0.88488
1620	5.79	4.1818	0.	0.6249
1621	5.9739	4.1818	0.	0.4522
1622	6.1579	4.1818	0.	0.33206
1623	6.3418	4.1818	0.	0.2464
1624	6.5258	4.1818	0.	0.18424
1625	6.7097	4.1818	0.	0.13863
1626	6.8936	4.1818	0.	0.10488
1627	7.0776	4.1818	0.	7.9759e-002
1628	7.2615	4.1818	0.	6.0981e-002
1629	7.4455	4.1818	0.	4.6891e-002
1630	7.6294	4.1818	0.	3.6283e-002
1631	7.8133	4.1818	0.	2.8276e-002
1632	7.9973	4.1818	0.	2.223e-002
1633	8.1812	4.1818	0.	1.7653e-002
1634	8.3652	4.1818	0.	1.4184e-002
1635	8.5491	4.1818	0.	1.1559e-002
1636	8.733	4.1818	0.	9.5763e-003
1637	8.917	4.1818	0.	8.0792e-003
1638	9.1009	4.1818	0.	6.9539e-003
1639	9.2848	4.1818	0.	6.1168e-003
1640	9.4688	4.1818	0.	5.503e-003
1641	9.6527	4.1818	0.	5.0551e-003
1642	9.8367	4.1818	0.	4.7522e-003
1643	10.021	4.1818	0.	4.5601e-003
1644	10.205	4.1818	0.	4.416e-003
1645	10.388	4.1818	0.	4.3427e-003
1646	10.572	4.1818	0.	4.3237e-003
1647	10.756	4.1818	0.	4.3264e-003
1648	10.94	4.1818	0.	4.3917e-003
1649	11.124	4.1818	0.	4.5136e-003
1650	11.308	4.1818	0.	4.6496e-003
1651	11.492	4.1818	0.	4.8024e-003
1652	11.676	4.1818	0.	5.0174e-003
1653	11.86	4.1818	0.	5.2842e-003
1654	12.044	4.1818	0.	5.5582e-003
1655	12.228	4.1818	0.	5.9313e-003
1656	12.412	4.1818	0.	6.4786e-003
1657	12.596	4.1818	0.	7.2902e-003
1658	12.78	4.1818	0.	8.7168e-003
1659	12.964	4.1818	0.	1.2175e-002
1660	13.148	4.1818	0.	3.3558e-002
1661	13.332	4.1818	0.	0.85841
1662	13.515	4.1818	0.	2.0638
1663	13.699	4.1818	0.	3.2065
1664	13.883	4.1818	0.	4.2877
1665	14.067	4.1818	0.	5.3131
1666	14.251	4.1818	0.	6.289
1667	14.435	4.1818	0.	7.2212
1668	14.619	4.1818	0.	8.1154
1669	14.803	4.1818	0.	8.9771
1670	14.987	4.1818	0.	9.8116
1671	15.171	4.1818	0.	10.624
1672	15.355	4.1818	0.	11.419
1673	15.539	4.1818	0.	12.202
1674	15.723	4.1818	0.	12.978
1675	15.907	4.1818	0.	13.751
1676	16.091	4.1818	0.	14.526
1677	16.275	4.1818	0.	15.307
1678	16.458	4.1818	0.	16.1
1679	16.642	4.1818	0.	16.909
1680	16.826	4.1818	0.	17.739
1681	17.01	4.1818	0.	18.595
1682	17.194	4.1818	0.	19.483
1683	17.378	4.1818	0.	20.407
1684	17.562	4.1818	0.	21.373
1685	17.746	4.1818	0.	22.387
1686	17.93	4.1818	0.	23.455
1687	18.114	4.1818	0.	24.584
1688	18.298	4.1818	0.	25.779
1689	18.482	4.1818	0.	27.049
1690	18.666	4.1818	0.	28.401
1691	18.85	4.1818	0.	29.843
1692	19.034	4.1818	0.	31.383
1693	19.218	4.1818	0.	33.031
1694	19.402	4.1818	0.	34.797
1695	19.585	4.1818	0.	36.691
1696	19.769	4.1818	0.	38.725
1697	19.953	4.1818	0.	40.911
1698	20.137	4.1818	0.	43.262
1699	20.321	4.1818	0.	45.792
1700	20.505	4.1818	0.	48.518
1701	20.689	4.1818	0.	51.456
1702	20.873	4.1818	0.	54.624
1703	21.057	4.1818	0.	58.043
1704	21.241	4.1818	0.	61.734
1705	21.425	4.1818	0.	65.72
1706	21.609	4.1818	0.	70.029
1707	21.793	4.1818	0.	74.688
1708	21.977	4.1818	0.	79.728
1709	22.161	4.1818	0.	85.181
1710	22.345	4.1818	0.	91.081
1711	22.528	4.1818	0.	97.464
1712	22.712	4.1818	0.	104.36
1713	22.896	4.1818	0.	111.81
1714	23.08	4.1818	0.	119.84
1715	23.264	4.1818	0.	128.46
1716	23.448	4.1818	0.	137.67
1717	23.632	4.1818	0.	147.53
1718	23.816	4.1818	0.	157.85
1719	3.9506	4.	0.	2676.8
1720	4.1345	4.	0.	946.37
1721	4.3185	4.	0.	367.84
1722	4.5024	4.	0.	83.867
1723	4.6864	4.	0.	8.3675
1724	4.8703	4.	0.	3.7934
1725	5.0542	4.	0.	1.9787
1726	5.2382	4.	0.	1.3283
1727	5.4221	4.	0.	0.90716
1728	5.6061	4.	0.	0.6537
1729	5.79	4.	0.	0.47744
1730	5.9739	4.	0.	0.35363
1731	6.1579	4.	0.	0.26362
1732	6.3418	4.	0.	0.1975
1733	6.5258	4.	0.	0.14845
1734	6.7097	4.	0.	0.11189
1735	6.8936	4.	0.	8.4538e-002
1736	7.0776	4.	0.	6.4037e-002
1737	7.2615	4.	0.	4.8653e-002
1738	7.4455	4.	0.	3.7101e-002
1739	7.6294	4.	0.	2.842e-002
1740	7.8133	4.	0.	2.1901e-002
1741	7.9973	4.	0.	1.7018e-002
1742	8.1812	4.	0.	1.3363e-002
1743	8.3652	4.	0.	1.0633e-002
1744	8.5491	4.	0.	8.6078e-003
1745	8.733	4.	0.	7.1158e-003
1746	8.917	4.	0.	6.0235e-003
1747	9.1009	4.	0.	5.2339e-003
1748	9.2848	4.	0.	4.6781e-003
1749	9.4688	4.	0.	4.3009e-003
1750	9.6527	4.	0.	4.0515e-003
1751	9.8367	4.	0.	3.9175e-003
1752	10.021	4.	0.	3.8689e-003
1753	10.205	4.	0.	3.8456e-003
1754	10.388	4.	0.	3.875e-003
1755	10.572	4.	0.	3.9422e-003
1756	10.756	4.	0.	4.0169e-003
1757	10.94	4.	0.	4.141e-003
1758	11.124	4.	0.	4.3087e-003
1759	11.308	4.	0.	4.4792e-003
1760	11.492	4.	0.	4.652e-003
1761	11.676	4.	0.	4.8729e-003
1762	11.86	4.	0.	5.126e-003
1763	12.044	4.	0.	5.3611e-003
1764	12.228	4.	0.	5.6532e-003
1765	12.412	4.	0.	6.0538e-003
1766	12.596	4.	0.	6.5786e-003
1767	12.78	4.	0.	7.3743e-003
1768	12.964	4.	0.	8.9079e-003
1769	13.148	4.	0.	1.3428e-002
1770	13.332	4.	0.	0.15467
1771	13.515	4.	0.	1.3695
1772	13.699	4.	0.	2.5699
1773	13.883	4.	0.	3.7058
1774	14.067	4.	0.	4.7825
1775	14.251	4.	0.	5.8064
1776	14.435	4.	0.	6.7838
1777	14.619	4.	0.	7.7209
1778	14.803	4.	0.	8.6234
1779	14.987	4.	0.	9.4971
1780	15.171	4.	0.	10.347
1781	15.355	4.	0.	11.179
1782	15.539	4.	0.	11.998
1783	15.723	4.	0.	12.81
1784	15.907	4.	0.	13.618
1785	16.091	4.	0.	14.428
1786	16.275	4.	0.	15.246
1787	16.458	4.	0.	16.076
1788	16.642	4.	0.	16.923
1789	16.826	4.	0.	17.793
1790	17.01	4.	0.	18.69
1791	17.194	4.	0.	19.621
1792	17.378	4.	0.	20.592
1793	17.562	4.	0.	21.607
1794	17.746	4.	0.	22.674
1795	17.93	4.	0.	23.798
1796	18.114	4.	0.	24.987
1797	18.298	4.	0.	26.248
1798	18.482	4.	0.	27.589
1799	18.666	4.	0.	29.018
1800	18.85	4.	0.	30.544
1801	19.034	4.	0.	32.175
1802	19.218	4.	0.	33.922
1803	19.402	4.	0.	35.795
1804	19.585	4.	0.	37.807
1805	19.769	4.	0.	39.968
1806	19.953	4.	0.	42.293
1807	20.137	4.	0.	44.795
1808	20.321	4.	0.	47.49
1809	20.505	4.	0.	50.393
1810	20.689	4.	0.	53.523
1811	20.873	4.	0.	56.898
1812	21.057	4.	0.	60.539
1813	21.241	4.	0.	64.467
1814	21.425	4.	0.	68.706
1815	21.609	4.	0.	73.282
1816	21.793	4.	0.	78.22
1817	21.977	4.	0.	83.548
1818	22.161	4.	0.	89.295
1819	22.345	4.	0.	95.49
1820	22.528	4.	0.	102.16
1821	22.712	4.	0.	109.34
1822	22.896	4.	0.	117.04
1823	23.08	4.	0.	125.28
1824	23.264	4.	0.	134.09
1825	23.448	4.	0.	143.44
1826	23.632	4.	0.	153.39
1827	23.816	4.	0.	163.73
1828	3.9506	3.8182	0.	1060.7
1829	4.1345	3.8182	0.	450.41
1830	4.3185	3.8182	0.	90.206
1831	4.5024	3.8182	0.	10.037
1832	4.6864	3.8182	0.	2.184
1833	4.8703	3.8182	0.	2.1387
1834	5.0542	3.8182	0.	1.2516
1835	5.2382	3.8182	0.	0.94225
1836	5.4221	3.8182	0.	0.67713
1837	5.6061	3.8182	0.	0.50466
1838	5.79	3.8182	0.	0.37561
1839	5.9739	3.8182	0.	0.28113
1840	6.1579	3.8182	0.	0.21051
1841	6.3418	3.8182	0.	0.15773
1842	6.5258	3.8182	0.	0.11817
1843	6.7097	3.8182	0.	8.851e-002
1844	6.8936	3.8182	0.	6.628e-002
1845	7.0776	3.8182	0.	4.9631e-002
1846	7.2615	3.8182	0.	3.7182e-002
1847	7.4455	3.8182	0.	2.7893e-002
1848	7.6294	3.8182	0.	2.0974e-002
1849	7.8133	3.8182	0.	1.5839e-002
1850	7.9973	3.8182	0.	1.2057e-002
1851	8.1812	3.8182	0.	9.2818e-003
1852	8.3652	3.8182	0.	7.2621e-003
1853	8.5491	3.8182	0.	5.8139e-003
1854	8.733	3.8182	0.	4.7945e-003
1855	8.917	3.8182	0.	4.0911e-003
1856	9.1009	3.8182	0.	3.6239e-003
1857	9.2848	3.8182	0.	3.3363e-003
1858	9.4688	3.8182	0.	3.1826e-003
1859	9.6527	3.8182	0.	3.1211e-003
1860	9.8367	3.8182	0.	3.1454e-003
1861	10.021	3.8182	0.	3.2288e-003
1862	10.205	3.8182	0.	3.3181e-003
1863	10.388	3.8182	0.	3.4412e-003
1864	10.572	3.8182	0.	3.5889e-003
1865	10.756	3.8182	0.	3.7296e-003
1866	10.94	3.8182	0.	3.9081e-003
1867	11.124	3.8182	0.	4.1185e-003
1868	11.308	3.8182	0.	4.322e-003
1869	11.492	3.8182	0.	4.5173e-003
1870	11.676	3.8182	0.	4.7484e-003
1871	11.86	3.8182	0.	5.0001e-003
1872	12.044	3.8182	0.	5.2143e-003
1873	12.228	3.8182	0.	5.4633e-003
1874	12.412	3.8182	0.	5.7809e-003
1875	12.596	3.8182	0.	6.1558e-003
1876	12.78	3.8182	0.	6.6551e-003
1877	12.964	3.8182	0.	7.4816e-003
1878	13.148	3.8182	0.	9.2906e-003
1879	13.332	3.8182	0.	1.8734e-002
1880	13.515	3.8182	0.	0.78496
1881	13.699	3.8182	0.	2.0333
1882	13.883	3.8182	0.	3.2158
1883	14.067	3.8182	0.	4.336
1884	14.251	3.8182	0.	5.4008
1885	14.435	3.8182	0.	6.4168
1886	14.619	3.8182	0.	7.3904
1887	14.803	3.8182	0.	8.3276
1888	14.987	3.8182	0.	9.2346
1889	15.171	3.8182	0.	10.117
1890	15.355	3.8182	0.	10.98
1891	15.539	3.8182	0.	11.83
1892	15.723	3.8182	0.	12.672
1893	15.907	3.8182	0.	13.51
1894	16.091	3.8182	0.	14.351
1895	16.275	3.8182	0.	15.2
1896	16.458	3.8182	0.	16.061
1897	16.642	3.8182	0.	16.941
1898	16.826	3.8182	0.	17.844
1899	17.01	3.8182	0.	18.777
1900	17.194	3.8182	0.	19.746
1901	17.378	3.8182	0.	20.756
1902	17.562	3.8182	0.	21.813
1903	17.746	3.8182	0.	22.925
1904	17.93	3.8182	0.	24.098
1905	18.114	3.8182	0.	25.339
1906	18.298	3.8182	0.	26.656
1907	18.482	3.8182	0.	28.058
1908	18.666	3.8182	0.	29.553
1909	18.85	3.8182	0.	31.15
1910	19.034	3.8182	0.	32.859
1911	19.218	3.8182	0.	34.691
1912	19.402	3.8182	0.	36.657
1913	19.585	3.8182	0.	38.768
1914	19.769	3.8182	0.	41.039
1915	19.953	3.8182	0.	43.482
1916	20.137	3.8182	0.	46.113
1917	20.321	3.8182	0.	48.947
1918	20.505	3.8182	0.	52.001
1919	20.689	3.8182	0.	55.293
1920	20.873	3.8182	0.	58.843
1921	21.057	3.8182	0.	62.67
1922	21.241	3.8182	0.	66.798
1923	21.425	3.8182	0.	71.247
1924	21.609	3.8182	0.	76.043
1925	21.793	3.8182	0.	81.209
1926	21.977	3.8182	0.	86.772
1927	22.161	3.8182	0.	92.755
1928	22.345	3.8182	0.	99.185
1929	22.528	3.8182	0.	106.08
1930	22.712	3.8182	0.	113.47
1931	22.896	3.8182	0.	121.37
1932	23.08	3.8182	0.	129.78
1933	23.264	3.8182	0.	138.73
1934	23.448	3.8182	0.	148.18
1935	23.632	3.8182	0.	158.2
1936	23.816	3.8182	0.	168.55
1937	3.9506	3.6364	0.	876.12
1938	4.1345	3.6364	0.	324.8
1939	4.3185	3.6364	0.	11.395
1940	4.5024	3.6364	0.	1.9575
1941	4.6864	3.6364	0.	1.8841
1942	4.8703	3.6364	0.	1.3511
1943	5.0542	3.6364	0.	0.9805
1944	5.2382	3.6364	0.	0.73876
1945	5.4221	3.6364	0.	0.5506
1946	5.6061	3.6364	0.	0.41263
1947	5.79	3.6364	0.	0.30805
1948	5.9739	3.6364	0.	0.22967
1949	6.1579	3.6364	0.	0.17076
1950	6.3418	3.6364	0.	0.12666
1951	6.5258	3.6364	0.	9.3685e-002
1952	6.7097	3.6364	0.	6.91e-002
1953	6.8936	3.6364	0.	5.0807e-002
1954	7.0776	3.6364	0.	3.7231e-002
1955	7.2615	3.6364	0.	2.7196e-002
1956	7.4455	3.6364	0.	1.9811e-002
1957	7.6294	3.6364	0.	1.4404e-002
1958	7.8133	3.6364	0.	1.0476e-002
1959	7.9973	3.6364	0.	7.6609e-003
1960	8.1812	3.6364	0.	5.666e-003
1961	8.3652	3.6364	0.	4.2787e-003
1962	8.5491	3.6364	0.	3.3454e-003
1963	8.733	3.6364	0.	2.7478e-003
1964	8.917	3.6364	0.	2.3915e-003
1965	9.1009	3.6364	0.	2.2116e-003
1966	9.2848	3.6364	0.	2.1617e-003
1967	9.4688	3.6364	0.	2.206e-003
1968	9.6527	3.6364	0.	2.3106e-003
1969	9.8367	3.6364	0.	2.473e-003
1970	10.021	3.6364	0.	2.6738e-003
1971	10.205	3.6364	0.	2.8614e-003
1972	10.388	3.6364	0.	3.0655e-003
1973	10.572	3.6364	0.	3.2816e-003
1974	10.756	3.6364	0.	3.4803e-003
1975	10.94	3.6364	0.	3.7049e-003
1976	11.124	3.6364	0.	3.9534e-003
1977	11.308	3.6364	0.	4.1872e-003
1978	11.492	3.6364	0.	4.4031e-003
1979	11.676	3.6364	0.	4.6464e-003
1980	11.86	3.6364	0.	4.9004e-003
1981	12.044	3.6364	0.	5.1059e-003
1982	12.228	3.6364	0.	5.3311e-003
1983	12.412	3.6364	0.	5.6001e-003
1984	12.596	3.6364	0.	5.8898e-003
1985	12.78	3.6364	0.	6.2313e-003
1986	12.964	3.6364	0.	6.7319e-003
1987	13.148	3.6364	0.	7.6223e-003
1988	13.332	3.6364	0.	1.0301e-002
1989	13.515	3.6364	0.	0.31683
1990	13.699	3.6364	0.	1.5997
1991	13.883	3.6364	0.	2.8202
1992	14.067	3.6364	0.	3.976
1993	14.251	3.6364	0.	5.0741
1994	14.435	3.6364	0.	6.1215
1995	14.619	3.6364	0.	7.1247
1996	14.803	3.6364	0.	8.0903
1997	14.987	3.6364	0.	9.0244
1998	15.171	3.6364	0.	9.9329
1999	15.355	3.6364	0.	10.822
2000	15.539	3.6364	0.	11.696
2001	15.723	3.6364	0.	12.563
2002	15.907	3.6364	0.	13.426
2003	16.091	3.6364	0.	14.292
2004	16.275	3.6364	0.	15.165
2005	16.458	3.6364	0.	16.053
2006	16.642	3.6364	0.	16.959
2007	16.826	3.6364	0.	17.89
2008	17.01	3.6364	0.	18.852
2009	17.194	3.6364	0.	19.851
2010	17.378	3.6364	0.	20.893
2011	17.562	3.6364	0.	21.985
2012	17.746	3.6364	0.	23.134
2013	17.93	3.6364	0.	24.346
2014	18.114	3.6364	0.	25.63
2015	18.298	3.6364	0.	26.994
2016	18.482	3.6364	0.	28.445
2017	18.666	3.6364	0.	29.994
2018	18.85	3.6364	0.	31.65
2019	19.034	3.6364	0.	33.422
2020	19.218	3.6364	0.	35.324
2021	19.402	3.6364	0.	37.365
2022	19.585	3.6364	0.	39.558
2023	19.769	3.6364	0.	41.918
2024	19.953	3.6364	0.	44.458
2025	20.137	3.6364	0.	47.193
2026	20.321	3.6364	0.	50.14
2027	20.505	3.6364	0.	53.317
2028	20.689	3.6364	0.	56.74
2029	20.873	3.6364	0.	60.431
2030	21.057	3.6364	0.	64.409
2031	21.241	3.6364	0.	68.695
2032	21.425	3.6364	0.	73.312
2033	21.609	3.6364	0.	78.282
2034	21.793	3.6364	0.	83.629
2035	21.977	3.6364	0.	89.375
2036	22.161	3.6364	0.	95.542
2037	22.345	3.6364	0.	102.15
2038	22.528	3.6364	0.	109.22
2039	22.712	3.6364	0.	116.77
2040	22.896	3.6364	0.	124.82
2041	23.08	3.6364	0.	133.35
2042	23.264	3.6364	0.	142.4
2043	23.448	3.6364	0.	151.93
2044	23.632	3.6364	0.	161.99
2045	23.816	3.6364	0.	172.36
2046	3.9506	3.4545	0.	708.57
2047	4.1345	3.4545	0.	327.97
2048	4.3185	3.4545	0.	12.836
2049	4.5024	3.4545	0.	2.0859
2050	4.6864	3.4545	0.	1.6095
2051	4.8703	3.4545	0.	1.154
2052	5.0542	3.4545	0.	0.88707
2053	5.2382	3.4545	0.	0.65977
2054	5.4221	3.4545	0.	0.49096
2055	5.6061	3.4545	0.	0.36288
2056	5.79	3.4545	0.	0.26711
2057	5.9739	3.4545	0.	0.19583
2058	6.1579	3.4545	0.	0.14302
2059	6.3418	3.4545	0.	0.10402
2060	6.5258	3.4545	0.	7.5288e-002
2061	6.7097	3.4545	0.	5.4178e-002
2062	6.8936	3.4545	0.	3.8711e-002
2063	7.0776	3.4545	0.	2.742e-002
2064	7.2615	3.4545	0.	1.9227e-002
2065	7.4455	3.4545	0.	1.3324e-002
2066	7.6294	3.4545	0.	9.1095e-003
2067	7.8133	3.4545	0.	6.1434e-003
2068	7.9973	3.4545	0.	4.1048e-003
2069	8.1812	3.4545	0.	2.7405e-003
2070	8.3652	3.4545	0.	1.8658e-003
2071	8.5491	3.4545	0.	1.3517e-003
2072	8.733	3.4545	0.	1.0971e-003
2073	8.917	3.4545	0.	1.0239e-003
2074	9.1009	3.4545	0.	1.0762e-003
2075	9.2848	3.4545	0.	1.2193e-003
2076	9.4688	3.4545	0.	1.4252e-003
2077	9.6527	3.4545	0.	1.6623e-003
2078	9.8367	3.4545	0.	1.9366e-003
2079	10.021	3.4545	0.	2.2308e-003
2080	10.205	3.4545	0.	2.4958e-003
2081	10.388	3.4545	0.	2.7674e-003
2082	10.572	3.4545	0.	3.0375e-003
2083	10.756	3.4545	0.	3.2807e-003
2084	10.94	3.4545	0.	3.5435e-003
2085	11.124	3.4545	0.	3.823e-003
2086	11.308	3.4545	0.	4.0796e-003
2087	11.492	3.4545	0.	4.3133e-003
2088	11.676	3.4545	0.	4.5684e-003
2089	11.86	3.4545	0.	4.8263e-003
2090	12.044	3.4545	0.	5.0292e-003
2091	12.228	3.4545	0.	5.2405e-003
2092	12.412	3.4545	0.	5.4817e-003
2093	12.596	3.4545	0.	5.7236e-003
2094	12.78	3.4545	0.	5.9746e-003
2095	12.964	3.4545	0.	6.3043e-003
2096	13.148	3.4545	0.	6.7972e-003
2097	13.332	3.4545	0.	7.8318e-003
2098	13.515	3.4545	0.	3.3842e-002
2099	13.699	3.4545	0.	1.2717
2100	13.883	3.4545	0.	2.5214
2101	14.067	3.4545	0.	3.7043
2102	14.251	3.4545	0.	4.8278
2103	14.435	3.4545	0.	5.899
2104	14.619	3.4545	0.	6.9248
2105	14.803	3.4545	0.	7.9119
2106	14.987	3.4545	0.	8.8665
2107	15.171	3.4545	0.	9.795
2108	15.355	3.4545	0.	10.703
2109	15.539	3.4545	0.	11.597
2110	15.723	3.4545	0.	12.482
2111	15.907	3.4545	0.	13.364
2112	16.091	3.4545	0.	14.249
2113	16.275	3.4545	0.	15.142
2114	16.458	3.4545	0.	16.049
2115	16.642	3.4545	0.	16.975
2116	16.826	3.4545	0.	17.928
2117	17.01	3.4545	0.	18.912
2118	17.194	3.4545	0.	19.934
2119	17.378	3.4545	0.	21.001
2120	17.562	3.4545	0.	22.119
2121	17.746	3.4545	0.	23.295
2122	17.93	3.4545	0.	24.538
2123	18.114	3.4545	0.	25.854
2124	18.298	3.4545	0.	27.253
2125	18.482	3.4545	0.	28.743
2126	18.666	3.4545	0.	30.333
2127	18.85	3.4545	0.	32.033
2128	19.034	3.4545	0.	33.855
2129	19.218	3.4545	0.	35.808
2130	19.402	3.4545	0.	37.907
2131	19.585	3.4545	0.	40.163
2132	19.769	3.4545	0.	42.59
2133	19.953	3.4545	0.	45.204
2134	20.137	3.4545	0.	48.019
2135	20.321	3.4545	0.	51.052
2136	20.505	3.4545	0.	54.321
2137	20.689	3.4545	0.	57.844
2138	20.873	3.4545	0.	61.641
2139	21.057	3.4545	0.	65.731
2140	21.241	3.4545	0.	70.137
2141	21.425	3.4545	0.	74.879
2142	21.609	3.4545	0.	79.979
2143	21.793	3.4545	0.	85.459
2144	21.977	3.4545	0.	91.34
2145	22.161	3.4545	0.	97.641
2146	22.345	3.4545	0.	104.38
2147	22.528	3.4545	0.	111.58
2148	22.712	3.4545	0.	119.25
2149	22.896	3.4545	0.	127.39
2150	23.08	3.4545	0.	136.02
2151	23.264	3.4545	0.	145.13
2152	23.448	3.4545	0.	154.71
2153	23.632	3.4545	0.	164.81
2154	23.816	3.4545	0.	175.18
2155	3.9506	3.2727	0.	631.8
2156	4.1345	3.2727	0.	321.73
2157	4.3185	3.2727	0.	23.156
2158	4.5024	3.2727	0.	1.7882
2159	4.6864	3.2727	0.	1.4454
2160	4.8703	3.2727	0.	1.1589
2161	5.0542	3.2727	0.	0.87215
2162	5.2382	3.2727	0.	0.64499
2163	5.4221	3.2727	0.	0.47067
2164	5.6061	3.2727	0.	0.34078
2165	5.79	3.2727	0.	0.2455
2166	5.9739	3.2727	0.	0.17613
2167	6.1579	3.2727	0.	0.12582
2168	6.3418	3.2727	0.	8.9397e-002
2169	6.5258	3.2727	0.	6.3076e-002
2170	6.7097	3.2727	0.	4.4088e-002
2171	6.8936	3.2727	0.	3.0425e-002
2172	7.0776	3.2727	0.	2.0639e-002
2173	7.2615	3.2727	0.	1.3682e-002
2174	7.4455	3.2727	0.	8.7897e-003
2175	7.6294	3.2727	0.	5.3989e-003
2176	7.8133	3.2727	0.	3.1014e-003
2177	7.9973	3.2727	0.	1.6063e-003
2178	8.1812	3.2727	0.	6.843e-004
2179	8.3652	3.2727	0.	1.6996e-004
2180	8.5491	3.2727	0.	-4.9133e-005
2181	8.733	3.2727	0.	-6.1917e-005
2182	8.917	3.2727	0.	6.3364e-005
2183	9.1009	3.2727	0.	2.8034e-004
2184	9.2848	3.2727	0.	5.5976e-004
2185	9.4688	3.2727	0.	8.7749e-004
2186	9.6527	3.2727	0.	1.2092e-003
2187	9.8367	3.2727	0.	1.5618e-003
2188	10.021	3.2727	0.	1.921e-003
2189	10.205	3.2727	0.	2.2413e-003
2190	10.388	3.2727	0.	2.5564e-003
2191	10.572	3.2727	0.	2.8665e-003
2192	10.756	3.2727	0.	3.1414e-003
2193	10.94	3.2727	0.	3.4311e-003
2194	11.124	3.2727	0.	3.7309e-003
2195	11.308	3.2727	0.	4.0036e-003
2196	11.492	3.2727	0.	4.251e-003
2197	11.676	3.2727	0.	4.5136e-003
2198	11.86	3.2727	0.	4.777e-003
2199	12.044	3.2727	0.	4.9785e-003
2200	12.228	3.2727	0.	5.1825e-003
2201	12.412	3.2727	0.	5.4082e-003
2202	12.596	3.2727	0.	5.6229e-003
2203	12.78	3.2727	0.	5.8263e-003
2204	12.964	3.2727	0.	6.0675e-003
2205	13.148	3.2727	0.	6.3694e-003
2206	13.332	3.2727	0.	6.8074e-003
2207	13.515	3.2727	0.	9.4394e-003
2208	13.699	3.2727	0.	1.0516
2209	13.883	3.2727	0.	2.3212
2210	14.067	3.2727	0.	3.5224
2211	14.251	3.2727	0.	4.6629
2212	14.435	3.2727	0.	5.7502
2213	14.619	3.2727	0.	6.7912
2214	14.803	3.2727	0.	7.7927
2215	14.987	3.2727	0.	8.7613
2216	15.171	3.2727	0.	9.7031
2217	15.355	3.2727	0.	10.624
2218	15.539	3.2727	0.	11.531
2219	15.723	3.2727	0.	12.429
2220	15.907	3.2727	0.	13.323
2221	16.091	3.2727	0.	14.221
2222	16.275	3.2727	0.	15.127
2223	16.458	3.2727	0.	16.047
2224	16.642	3.2727	0.	16.987
2225	16.826	3.2727	0.	17.954
2226	17.01	3.2727	0.	18.953
2227	17.194	3.2727	0.	19.991
2228	17.378	3.2727	0.	21.074
2229	17.562	3.2727	0.	22.21
2230	17.746	3.2727	0.	23.406
2231	17.93	3.2727	0.	24.669
2232	18.114	3.2727	0.	26.007
2233	18.298	3.2727	0.	27.429
2234	18.482	3.2727	0.	28.944
2235	18.666	3.2727	0.	30.562
2236	18.85	3.2727	0.	32.293
2237	19.034	3.2727	0.	34.147
2238	19.218	3.2727	0.	36.137
2239	19.402	3.2727	0.	38.274
2240	19.585	3.2727	0.	40.572
2241	19.769	3.2727	0.	43.045
2242	19.953	3.2727	0.	45.708
2243	20.137	3.2727	0.	48.576
2244	20.321	3.2727	0.	51.667
2245	20.505	3.2727	0.	54.998
2246	20.689	3.2727	0.	58.588
2247	20.873	3.2727	0.	62.456
2248	21.057	3.2727	0.	66.622
2249	21.241	3.2727	0.	71.107
2250	21.425	3.2727	0.	75.932
2251	21.609	3.2727	0.	81.118
2252	21.793	3.2727	0.	86.686
2253	21.977	3.2727	0.	92.655
2254	22.161	3.2727	0.	99.045
2255	22.345	3.2727	0.	105.87
2256	22.528	3.2727	0.	113.15
2257	22.712	3.2727	0.	120.89
2258	22.896	3.2727	0.	129.1
2259	23.08	3.2727	0.	137.78
2260	23.264	3.2727	0.	146.94
2261	23.448	3.2727	0.	156.55
2262	23.632	3.2727	0.	166.68
2263	23.816	3.2727	0.	177.05
2264	3.9506	3.0909	0.	591.75
2265	4.1345	3.0909	0.	319.18
2266	4.3185	3.0909	0.	32.084
2267	4.5024	3.0909	0.	1.521
2268	4.6864	3.0909	0.	1.4306
2269	4.8703	3.0909	0.	1.1601
2270	5.0542	3.0909	0.	0.88319
2271	5.2382	3.0909	0.	0.64833
2272	5.4221	3.0909	0.	0.46723
2273	5.6061	3.0909	0.	0.33348
2274	5.79	3.0909	0.	0.23669
2275	5.9739	3.0909	0.	0.16728
2276	6.1579	3.0909	0.	0.11768
2277	6.3418	3.0909	0.	8.2266e-002
2278	6.5258	3.0909	0.	5.7005e-002
2279	6.7097	3.0909	0.	3.9008e-002
2280	6.8936	3.0909	0.	2.6219e-002
2281	7.0776	3.0909	0.	1.7176e-002
2282	7.2615	3.0909	0.	1.084e-002
2283	7.4455	3.0909	0.	6.4608e-003
2284	7.6294	3.0909	0.	3.4888e-003
2285	7.8133	3.0909	0.	1.5333e-003
2286	7.9973	3.0909	0.	3.1758e-004
2287	8.1812	3.0909	0.	-3.7721e-004
2288	8.3652	3.0909	0.	-7.0489e-004
2289	8.5491	3.0909	0.	-7.7199e-004
2290	8.733	3.0909	0.	-6.593e-004
2291	8.917	3.0909	0.	-4.3152e-004
2292	9.1009	3.0909	0.	-1.2969e-004
2293	9.2848	3.0909	0.	2.1978e-004
2294	9.4688	3.0909	0.	5.9554e-004
2295	9.6527	3.0909	0.	9.7565e-004
2296	9.8367	3.0909	0.	1.369e-003
2297	10.021	3.0909	0.	1.7612e-003
2298	10.205	3.0909	0.	2.11e-003
2299	10.388	3.0909	0.	2.4487e-003
2300	10.572	3.0909	0.	2.7787e-003
2301	10.756	3.0909	0.	3.0697e-003
2302	10.94	3.0909	0.	3.3721e-003
2303	11.124	3.0909	0.	3.684e-003
2304	11.308	3.0909	0.	3.9656e-003
2305	11.492	3.0909	0.	4.219e-003
2306	11.676	3.0909	0.	4.4871e-003
2307	11.86	3.0909	0.	4.7505e-003
2308	12.044	3.0909	0.	4.9527e-003
2309	12.228	3.0909	0.	5.1538e-003
2310	12.412	3.0909	0.	5.3743e-003
2311	12.596	3.0909	0.	5.5735e-003
2312	12.78	3.0909	0.	5.7575e-003
2313	12.964	3.0909	0.	5.9596e-003
2314	13.148	3.0909	0.	6.183e-003
2315	13.332	3.0909	0.	6.4063e-003
2316	13.515	3.0909	0.	6.7764e-003
2317	13.699	3.0909	0.	0.94093
2318	13.883	3.0909	0.	2.2207
2319	14.067	3.0909	0.	3.4312
2320	14.251	3.0909	0.	4.5803
2321	14.435	3.0909	0.	5.6756
2322	14.619	3.0909	0.	6.7243
2323	14.803	3.0909	0.	7.733
2324	14.987	3.0909	0.	8.7086
2325	15.171	3.0909	0.	9.6572
2326	15.355	3.0909	0.	10.585
2327	15.539	3.0909	0.	11.498
2328	15.723	3.0909	0.	12.402
2329	15.907	3.0909	0.	13.303
2330	16.091	3.0909	0.	14.207
2331	16.275	3.0909	0.	15.119
2332	16.458	3.0909	0.	16.046
2333	16.642	3.0909	0.	16.993
2334	16.826	3.0909	0.	17.967
2335	17.01	3.0909	0.	18.974
2336	17.194	3.0909	0.	20.02
2337	17.378	3.0909	0.	21.111
2338	17.562	3.0909	0.	22.256
2339	17.746	3.0909	0.	23.461
2340	17.93	3.0909	0.	24.735
2341	18.114	3.0909	0.	26.084
2342	18.298	3.0909	0.	27.518
2343	18.482	3.0909	0.	29.046
2344	18.666	3.0909	0.	30.678
2345	18.85	3.0909	0.	32.424
2346	19.034	3.0909	0.	34.295
2347	19.218	3.0909	0.	36.302
2348	19.402	3.0909	0.	38.459
2349	19.585	3.0909	0.	40.778
2350	19.769	3.0909	0.	43.274
2351	19.953	3.0909	0.	45.962
2352	20.137	3.0909	0.	48.857
2353	20.321	3.0909	0.	51.977
2354	20.505	3.0909	0.	55.339
2355	20.689	3.0909	0.	58.962
2356	20.873	3.0909	0.	62.866
2357	21.057	3.0909	0.	67.07
2358	21.241	3.0909	0.	71.595
2359	21.425	3.0909	0.	76.461
2360	21.609	3.0909	0.	81.69
2361	21.793	3.0909	0.	87.301
2362	21.977	3.0909	0.	93.315
2363	22.161	3.0909	0.	99.748
2364	22.345	3.0909	0.	106.62
2365	22.528	3.0909	0.	113.93
2366	22.712	3.0909	0.	121.71
2367	22.896	3.0909	0.	129.95
2368	23.08	3.0909	0.	138.66
2369	23.264	3.0909	0.	147.84
2370	23.448	3.0909	0.	157.47
2371	23.632	3.0909	0.	167.61
2372	23.816	3.0909	0.	177.99
2373	3.9506	2.9091	0.	591.75
2374	4.1345	2.9091	0.	319.18
2375	4.3185	2.9091	0.	32.084
2376	4.5024	2.9091	0.	1.521
2377	4.6864	2.9091	0.	1.4306
2378	4.8703	2.9091	0.	1.1601
2379	5.0542	2.9091	0.	0.88319
2380	5.2382	2.9091	0.	0.64833
2381	5.4221	2.9091	0.	0.46723
2382	5.6061	2.9091	0.	0.33348
2383	5.79	2.9091	0.	0.23669
2384	5.9739	2.9091	0.	0.16728
2385	6.1579	2.9091	0.	0.11768
2386	6.3418	2.9091	0.	8.2266e-002
2387	6.5258	2.9091	0.	5.7005e-002
2388	6.7097	2.9091	0.	3.9008e-002
2389	6.8936	2.9091	0.	2.6219e-002
2390	7.0776	2.9091	0.	1.7176e-002
2391	7.2615	2.9091	0.	1.0841e-002
2392	7.4455	2.9091	0.	6.4603e-003
2393	7.6294	2.9091	0.	3.4886e-003
2394	7.8133	2.9091	0.	1.5334e-003
2395	7.9973	2.9091	0.	3.1746e-004
2396	8.1812	2.9091	0.	-3.7709e-004
2397	8.3652	2.9091	0.	-7.0471e-004
2398	8.5491	2.9091	0.	-7.7246e-004
2399	8.733	2.9091	0.	-6.5977e-004
2400	8.917	2.9091	0.	-4.3122e-004
2401	9.1009	2.9091	0.	-1.2987e-004
2402	9.2848	2.9091	0.	2.1949e-004
2403	9.4688	2.9091	0.	5.9596e-004
2404	9.6527	2.9091	0.	9.7595e-004
2405	9.8367	2.9091	0.	1.3686e-003
2406	10.021	2.9091	0.	1.7617e-003
2407	10.205	2.9091	0.	2.1099e-003
2408	10.388	2.9091	0.	2.4499e-003
2409	10.572	2.9091	0.	2.7781e-003
2410	10.756	2.9091	0.	3.0698e-003
2411	10.94	2.9091	0.	3.3724e-003
2412	11.124	2.9091	0.	3.6834e-003
2413	11.308	2.9091	0.	3.9657e-003
2414	11.492	2.9091	0.	4.2191e-003
2415	11.676	2.9091	0.	4.4866e-003
2416	11.86	2.9091	0.	4.7513e-003
2417	12.044	2.9091	0.	4.953e-003
2418	12.228	2.9091	0.	5.154e-003
2419	12.412	2.9091	0.	5.3746e-003
2420	12.596	2.9091	0.	5.5739e-003
2421	12.78	2.9091	0.	5.7584e-003
2422	12.964	2.9091	0.	5.9587e-003
2423	13.148	2.9091	0.	6.1836e-003
2424	13.332	2.9091	0.	6.4068e-003
2425	13.515	2.9091	0.	6.7767e-003
2426	13.699	2.9091	0.	0.94093
2427	13.883	2.9091	0.	2.2207
2428	14.067	2.9091	0.	3.4312
2429	14.251	2.9091	0.	4.5803
2430	14.435	2.9091	0.	5.6756
2431	14.619	2.9091	0.	6.7243
2432	14.803	2.9091	0.	7.733
2433	14.987	2.9091	0.	8.7086
2434	15.171	2.9091	0.	9.6572
2435	15.355	2.9091	0.	10.585
2436	15.539	2.9091	0.	11.498
2437	15.723	2.9091	0.	12.402
2438	15.907	2.9091	0.	13.303
2439	16.091	2.9091	0.	14.207
2440	16.275	2.9091	0.	15.119
2441	16.458	2.9091	0.	16.046
2442	16.642	2.9091	0.	16.993
2443	16.826	2.9091	0.	17.967
2444	17.01	2.9091	0.	18.974
2445	17.194	2.9091	0.	20.02
2446	17.378	2.9091	0.	21.111
2447	17.562	2.9091	0.	22.256
2448	17.746	2.9091	0.	23.461
2449	17.93	2.9091	0.	24.735
2450	18.114	2.9091	0.	26.084
2451	18.298	2.9091	0.	27.518
2452	18.482	2.9091	0.	29.046
2453	18.666	2.9091	0.	30.678
2454	18.85	2.9091	0.	32.424
2455	19.034	2.9091	0.	34.295
2456	19.218	2.9091	0.	36.302
2457	19.402	2.9091	0.	38.459
2458	19.585	2.9091	0.	40.778
2459	19.769	2.9091	0.	43.274
2460	19.953	2.9091	0.	45.962
2461	20.137	2.9091	0.	48.857
2462	20.321	2.9091	0.	51.977
2463	20.505	2.9091	0.	55.339
2464	20.689	2.9091	0.	58.962
2465	20.873	2.9091	0.	62.866
2466	21.057	2.9091	0.	67.07
2467	21.241	2.9091	0.	71.595
2468	21.425	2.9091	0.	76.461
2469	21.609	2.9091	0.	81.69
2470	21.793	2.9091	0.	87.301
2471	21.977	2.9091	0.	93.315
2472	22.161	2.9091	0.	99.748
2473	22.345	2.9091	0.	106.62
2474	22.528	2.9091	0.	113.93
2475	22.712	2.9091	0.	121.71
2476	22.896	2.9091	0.	129.95
2477	23.08	2.9091	0.	138.66
2478	23.264	2.9091	0.	147.84
2479	23.448	2.9091	0.	157.47
2480	23.632	2.9091	0.	167.61
2481	23.816	2.9091	0.	177.99
2482	3.9506	2.7273	0.	631.79
2483	4.1345	2.7273	0.	321.73
2484	4.3185	2.7273	0.	23.155
2485	4.5024	2.7273	0.	1.7882
2486	4.6864	2.7273	0.	1.4454
2487	4.8703	2.7273	0.	1.1589
2488	5.0542	2.7273	0.	0.87215
2489	5.2382	2.7273	0.	0.64499
2490	5.4221	2.7273	0.	0.47067
2491	5.6061	2.7273	0.	0.34079
2492	5.79	2.7273	0.	0.2455
2493	5.9739	2.7273	0.	0.17613
2494	6.1579	2.7273	0.	0.12582
2495	6.3418	2.7273	0.	8.9397e-002
2496	6.5258	2.7273	0.	6.3076e-002
2497	6.7097	2.7273	0.	4.4088e-002
2498	6.8936	2.7273	0.	3.0425e-002
2499	7.0776	2.7273	0.	2.0639e-002
2500	7.2615	2.7273	0.	1.3682e-002
2501	7.4455	2.7273	0.	8.7904e-003
2502	7.6294	2.7273	0.	5.3991e-003
2503	7.8133	2.7273	0.	3.1015e-003
2504	7.9973	2.7273	0.	1.6065e-003
2505	8.1812	2.7273	0.	6.8382e-004
2506	8.3652	2.7273	0.	1.7031e-004
2507	8.5491	2.7273	0.	-4.9373e-005
2508	8.733	2.7273	0.	-6.1796e-005
2509	8.917	2.7273	0.	6.3719e-005
2510	9.1009	2.7273	0.	2.804e-004
2511	9.2848	2.7273	0.	5.5916e-004
2512	9.4688	2.7273	0.	8.7767e-004
2513	9.6527	2.7273	0.	1.209e-003
2514	9.8367	2.7273	0.	1.5614e-003
2515	10.021	2.7273	0.	1.921e-003
2516	10.205	2.7273	0.	2.2405e-003
2517	10.388	2.7273	0.	2.5575e-003
2518	10.572	2.7273	0.	2.8665e-003
2519	10.756	2.7273	0.	3.142e-003
2520	10.94	2.7273	0.	3.4306e-003
2521	11.124	2.7273	0.	3.7307e-003
2522	11.308	2.7273	0.	4.0043e-003
2523	11.492	2.7273	0.	4.2513e-003
2524	11.676	2.7273	0.	4.5141e-003
2525	11.86	2.7273	0.	4.7768e-003
2526	12.044	2.7273	0.	4.9779e-003
2527	12.228	2.7273	0.	5.1824e-003
2528	12.412	2.7273	0.	5.4091e-003
2529	12.596	2.7273	0.	5.622e-003
2530	12.78	2.7273	0.	5.827e-003
2531	12.964	2.7273	0.	6.0662e-003
2532	13.148	2.7273	0.	6.3693e-003
2533	13.332	2.7273	0.	6.8081e-003
2534	13.515	2.7273	0.	9.4379e-003
2535	13.699	2.7273	0.	1.0516
2536	13.883	2.7273	0.	2.3212
2537	14.067	2.7273	0.	3.5224
2538	14.251	2.7273	0.	4.6629
2539	14.435	2.7273	0.	5.7502
2540	14.619	2.7273	0.	6.7912
2541	14.803	2.7273	0.	7.7927
2542	14.987	2.7273	0.	8.7612
2543	15.171	2.7273	0.	9.7031
2544	15.355	2.7273	0.	10.624
2545	15.539	2.7273	0.	11.531
2546	15.723	2.7273	0.	12.429
2547	15.907	2.7273	0.	13.323
2548	16.091	2.7273	0.	14.221
2549	16.275	2.7273	0.	15.127
2550	16.458	2.7273	0.	16.047
2551	16.642	2.7273	0.	16.987
2552	16.826	2.7273	0.	17.954
2553	17.01	2.7273	0.	18.953
2554	17.194	2.7273	0.	19.991
2555	17.378	2.7273	0.	21.074
2556	17.562	2.7273	0.	22.21
2557	17.746	2.7273	0.	23.406
2558	17.93	2.7273	0.	24.669
2559	18.114	2.7273	0.	26.007
2560	18.298	2.7273	0.	27.429
2561	18.482	2.7273	0.	28.944
2562	18.666	2.7273	0.	30.562
2563	18.85	2.7273	0.	32.293
2564	19.034	2.7273	0.	34.147
2565	19.218	2.7273	0.	36.137
2566	19.402	2.7273	0.	38.274
2567	19.585	2.7273	0.	40.572
2568	19.769	2.7273	0.	43.045
2569	19.953	2.7273	0.	45.708
2570	20.137	2.7273	0.	48.576
2571	20.321	2.7273	0.	51.667
2572	20.505	2.7273	0.	54.998
2573	20.689	2.7273	0.	58.588
2574	20.873	2.7273	0.	62.456
2575	21.057	2.7273	0.	66.622
2576	21.241	2.7273	0.	71.107
2577	21.425	2.7273	0.	75.932
2578	21.609	2.7273	0.	81.118
2579	21.793	2.7273	0.	86.686
2580	21.977	2.7273	0.	92.655
2581	22.161	2.7273	0.	99.045
2582	22.345	2.7273	0.	105.87
2583	22.528	2.7273	0.	113.15
2584	22.712	2.7273	0.	120.89
2585	22.896	2.7273	0.	129.1
2586	23.08	2.7273	0.	137.78
2587	23.264	2.7273	0.	146.94
2588	23.448	2.7273	0.	156.55
2589	23.632	2.7273	0.	166.68
2590	23.816	2.7273	0.	177.05
2591	3.9506	2.5455	0.	708.57
2592	4.1345	2.5455	0.	327.97
2593	4.3185	2.5455	0.	12.835
2594	4.5024	2.5455	0.	2.0859
2595	4.6864	2.5455	0.	1.6095
2596	4.8703	2.5455	0.	1.154
2597	5.0542	2.5455	0.	0.88707
2598	5.2382	2.5455	0.	0.65977
2599	5.4221	2.5455	0.	0.49096
2600	5.6061	2.5455	0.	0.36288
2601	5.79	2.5455	0.	0.26711
2602	5.9739	2.5455	0.	0.19583
2603	6.1579	2.5455	0.	0.14302
2604	6.3418	2.5455	0.	0.10402
2605	6.5258	2.5455	0.	7.5288e-002
2606	6.7097	2.5455	0.	5.4179e-002
2607	6.8936	2.5455	0.	3.8711e-002
2608	7.0776	2.5455	0.	2.7421e-002
2609	7.2615	2.5455	0.	1.9227e-002
2610	7.4455	2.5455	0.	1.3324e-002
2611	7.6294	2.5455	0.	9.1097e-003
2612	7.8133	2.5455	0.	6.1437e-003
2613	7.9973	2.5455	0.	4.1053e-003
2614	8.1812	2.5455	0.	2.741e-003
2615	8.3652	2.5455	0.	1.8664e-003
2616	8.5491	2.5455	0.	1.3521e-003
2617	8.733	2.5455	0.	1.0976e-003
2618	8.917	2.5455	0.	1.024e-003
2619	9.1009	2.5455	0.	1.0763e-003
2620	9.2848	2.5455	0.	1.2199e-003
2621	9.4688	2.5455	0.	1.4244e-003
2622	9.6527	2.5455	0.	1.6627e-003
2623	9.8367	2.5455	0.	1.937e-003
2624	10.021	2.5455	0.	2.2311e-003
2625	10.205	2.5455	0.	2.4962e-003
2626	10.388	2.5455	0.	2.7672e-003
2627	10.572	2.5455	0.	3.0376e-003
2628	10.756	2.5455	0.	3.281e-003
2629	10.94	2.5455	0.	3.5443e-003
2630	11.124	2.5455	0.	3.8235e-003
2631	11.308	2.5455	0.	4.0803e-003
2632	11.492	2.5455	0.	4.3137e-003
2633	11.676	2.5455	0.	4.5679e-003
2634	11.86	2.5455	0.	4.8269e-003
2635	12.044	2.5455	0.	5.0297e-003
2636	12.228	2.5455	0.	5.2399e-003
2637	12.412	2.5455	0.	5.482e-003
2638	12.596	2.5455	0.	5.723e-003
2639	12.78	2.5455	0.	5.9751e-003
2640	12.964	2.5455	0.	6.3066e-003
2641	13.148	2.5455	0.	6.7965e-003
2642	13.332	2.5455	0.	7.8315e-003
2643	13.515	2.5455	0.	3.3841e-002
2644	13.699	2.5455	0.	1.2717
2645	13.883	2.5455	0.	2.5214
2646	14.067	2.5455	0.	3.7043
2647	14.251	2.5455	0.	4.8278
2648	14.435	2.5455	0.	5.899
2649	14.619	2.5455	0.	6.9248
2650	14.803	2.5455	0.	7.9118
2651	14.987	2.5455	0.	8.8665
2652	15.171	2.5455	0.	9.795
2653	15.355	2.5455	0.	10.703
2654	15.539	2.5455	0.	11.597
2655	15.723	2.5455	0.	12.482
2656	15.907	2.5455	0.	13.364
2657	16.091	2.5455	0.	14.249
2658	16.275	2.5455	0.	15.142
2659	16.458	2.5455	0.	16.048
2660	16.642	2.5455	0.	16.975
2661	16.826	2.5455	0.	17.928
2662	17.01	2.5455	0.	18.912
2663	17.194	2.5455	0.	19.934
2664	17.378	2.5455	0.	21.001
2665	17.562	2.5455	0.	22.119
2666	17.746	2.5455	0.	23.295
2667	17.93	2.5455	0.	24.538
2668	18.114	2.5455	0.	25.854
2669	18.298	2.5455	0.	27.253
2670	18.482	2.5455	0.	28.743
2671	18.666	2.5455	0.	30.333
2672	18.85	2.5455	0.	32.033
2673	19.034	2.5455	0.	33.854
2674	19.218	2.5455	0.	35.808
2675	19.402	2.5455	0.	37.907
2676	19.585	2.5455	0.	40.163
2677	19.769	2.5455	0.	42.59
2678	19.953	2.5455	0.	45.204
2679	20.137	2.5455	0.	48.019
2680	20.321	2.5455	0.	51.052
2681	20.505	2.5455	0.	54.321
2682	20.689	2.5455	0.	57.844
2683	20.873	2.5455	0.	61.641
2684	21.057	2.5455	0.	65.731
2685	21.241	2.5455	0.	70.137
2686	21.425	2.5455	0.	74.879
2687	21.609	2.5455	0.	79.979
2688	21.793	2.5455	0.	85.459
2689	21.977	2.5455	0.	91.34
2690	22.161	2.5455	0.	97.641
2691	22.345	2.5455	0.	104.38
2692	22.528	2.5455	0.	111.58
2693	22.712	2.5455	0.	119.25
2694	22.896	2.5455	0.	127.39
2695	23.08	2.5455	0.	136.02
2696	23.264	2.5455	0.	145.13
2697	23.448	2.5455	0.	154.71
2698	23.632	2.5455	0.	164.81
2699	23.816	2.5455	0.	175.18
2700	3.9506	2.3636	0.	876.12
2701	4.1345	2.3636	0.	324.8
2702	4.3185	2.3636	0.	11.395
2703	4.5024	2.3636	0.	1.9575
2704	4.6864	2.3636	0.	1.8841
2705	4.8703	2.3636	0.	1.3511
2706	5.0542	2.3636	0.	0.9805
2707	5.2382	2.3636	0.	0.73876
2708	5.4221	2.3636	0.	0.55061
2709	5.6061	2.3636	0.	0.41263
2710	5.79	2.3636	0.	0.30805
2711	5.9739	2.3636	0.	0.22967
2712	6.1579	2.3636	0.	0.17076
2713	6.3418	2.3636	0.	0.12666
2714	6.5258	2.3636	0.	9.3685e-002
2715	6.7097	2.3636	0.	6.9101e-002
2716	6.8936	2.3636	0.	5.0807e-002
2717	7.0776	2.3636	0.	3.7231e-002
2718	7.2615	2.3636	0.	2.7196e-002
2719	7.4455	2.3636	0.	1.9812e-002
2720	7.6294	2.3636	0.	1.4405e-002
2721	7.8133	2.3636	0.	1.0477e-002
2722	7.9973	2.3636	0.	7.6609e-003
2723	8.1812	2.3636	0.	5.666e-003
2724	8.3652	2.3636	0.	4.2786e-003
2725	8.5491	2.3636	0.	3.3459e-003
2726	8.733	2.3636	0.	2.748e-003
2727	8.917	2.3636	0.	2.392e-003
2728	9.1009	2.3636	0.	2.2117e-003
2729	9.2848	2.3636	0.	2.162e-003
2730	9.4688	2.3636	0.	2.2068e-003
2731	9.6527	2.3636	0.	2.3106e-003
2732	9.8367	2.3636	0.	2.4725e-003
2733	10.021	2.3636	0.	2.6739e-003
2734	10.205	2.3636	0.	2.861e-003
2735	10.388	2.3636	0.	3.0661e-003
2736	10.572	2.3636	0.	3.282e-003
2737	10.756	2.3636	0.	3.4807e-003
2738	10.94	2.3636	0.	3.7052e-003
2739	11.124	2.3636	0.	3.9546e-003
2740	11.308	2.3636	0.	4.1864e-003
2741	11.492	2.3636	0.	4.4032e-003
2742	11.676	2.3636	0.	4.6467e-003
2743	11.86	2.3636	0.	4.9008e-003
2744	12.044	2.3636	0.	5.1061e-003
2745	12.228	2.3636	0.	5.3312e-003
2746	12.412	2.3636	0.	5.6004e-003
2747	12.596	2.3636	0.	5.8903e-003
2748	12.78	2.3636	0.	6.2313e-003
2749	12.964	2.3636	0.	6.731e-003
2750	13.148	2.3636	0.	7.6221e-003
2751	13.332	2.3636	0.	1.0301e-002
2752	13.515	2.3636	0.	0.31682
2753	13.699	2.3636	0.	1.5997
2754	13.883	2.3636	0.	2.8202
2755	14.067	2.3636	0.	3.976
2756	14.251	2.3636	0.	5.0741
2757	14.435	2.3636	0.	6.1215
2758	14.619	2.3636	0.	7.1247
2759	14.803	2.3636	0.	8.0903
2760	14.987	2.3636	0.	9.0243
2761	15.171	2.3636	0.	9.9329
2762	15.355	2.3636	0.	10.822
2763	15.539	2.3636	0.	11.696
2764	15.723	2.3636	0.	12.563
2765	15.907	2.3636	0.	13.426
2766	16.091	2.3636	0.	14.292
2767	16.275	2.3636	0.	15.165
2768	16.458	2.3636	0.	16.053
2769	16.642	2.3636	0.	16.959
2770	16.826	2.3636	0.	17.89
2771	17.01	2.3636	0.	18.852
2772	17.194	2.3636	0.	19.851
2773	17.378	2.3636	0.	20.893
2774	17.562	2.3636	0.	21.985
2775	17.746	2.3636	0.	23.134
2776	17.93	2.3636	0.	24.346
2777	18.114	2.3636	0.	25.63
2778	18.298	2.3636	0.	26.993
2779	18.482	2.3636	0.	28.445
2780	18.666	2.3636	0.	29.994
2781	18.85	2.3636	0.	31.65
2782	19.034	2.3636	0.	33.422
2783	19.218	2.3636	0.	35.324
2784	19.402	2.3636	0.	37.365
2785	19.585	2.3636	0.	39.558
2786	19.769	2.3636	0.	41.918
2787	19.953	2.3636	0.	44.458
2788	20.137	2.3636	0.	47.193
2789	20.321	2.3636	0.	50.14
2790	20.505	2.3636	0.	53.317
2791	20.689	2.3636	0.	56.74
2792	20.873	2.3636	0.	60.431
2793	21.057	2.3636	0.	64.409
2794	21.241	2.3636	0.	68.695
2795	21.425	2.3636	0.	73.312
2796	21.609	2.3636	0.	78.282
2797	21.793	2.3636	0.	83.629
2798	21.977	2.3636	0.	89.375
2799	22.161	2.3636	0.	95.542
2800	22.345	2.3636	0.	102.15
2801	22.528	2.3636	0.	109.22
2802	22.712	2.3636	0.	116.77
2803	22.896	2.3636	0.	124.82
2804	23.08	2.3636	0.	133.35
2805	23.264	2.3636	0.	142.4
2806	23.448	2.3636	0.	151.93
2807	23.632	2.3636	0.	161.99
2808	23.816	2.3636	0.	172.36
2809	3.9506	2.1818	0.	1060.7
2810	4.1345	2.1818	0.	450.41
2811	4.3185	2.1818	0.	90.206
2812	4.5024	2.1818	0.	10.037
2813	4.6864	2.1818	0.	2.184
2814	4.8703	2.1818	0.	2.1387
2815	5.0542	2.1818	0.	1.2516
2816	5.2382	2.1818	0.	0.94225
2817	5.4221	2.1818	0.	0.67713
2818	5.6061	2.1818	0.	0.50466
2819	5.79	2.1818	0.	0.37561
2820	5.9739	2.1818	0.	0.28113
2821	6.1579	2.1818	0.	0.21051
2822	6.3418	2.1818	0.	0.15773
2823	6.5258	2.1818	0.	0.11817
2824	6.7097	2.1818	0.	8.8511e-002
2825	6.8936	2.1818	0.	6.6281e-002
2826	7.0776	2.1818	0.	4.9632e-002
2827	7.2615	2.1818	0.	3.7183e-002
2828	7.4455	2.1818	0.	2.7892e-002
2829	7.6294	2.1818	0.	2.0974e-002
2830	7.8133	2.1818	0.	1.584e-002
2831	7.9973	2.1818	0.	1.2057e-002
2832	8.1812	2.1818	0.	9.2823e-003
2833	8.3652	2.1818	0.	7.2625e-003
2834	8.5491	2.1818	0.	5.8139e-003
2835	8.733	2.1818	0.	4.7947e-003
2836	8.917	2.1818	0.	4.0913e-003
2837	9.1009	2.1818	0.	3.6244e-003
2838	9.2848	2.1818	0.	3.336e-003
2839	9.4688	2.1818	0.	3.1824e-003
2840	9.6527	2.1818	0.	3.1214e-003
2841	9.8367	2.1818	0.	3.1455e-003
2842	10.021	2.1818	0.	3.2298e-003
2843	10.205	2.1818	0.	3.3188e-003
2844	10.388	2.1818	0.	3.4418e-003
2845	10.572	2.1818	0.	3.5897e-003
2846	10.756	2.1818	0.	3.7299e-003
2847	10.94	2.1818	0.	3.9085e-003
2848	11.124	2.1818	0.	4.1189e-003
2849	11.308	2.1818	0.	4.3222e-003
2850	11.492	2.1818	0.	4.518e-003
2851	11.676	2.1818	0.	4.7493e-003
2852	11.86	2.1818	0.	4.9999e-003
2853	12.044	2.1818	0.	5.2147e-003
2854	12.228	2.1818	0.	5.4637e-003
2855	12.412	2.1818	0.	5.7804e-003
2856	12.596	2.1818	0.	6.1562e-003
2857	12.78	2.1818	0.	6.6553e-003
2858	12.964	2.1818	0.	7.4831e-003
2859	13.148	2.1818	0.	9.2914e-003
2860	13.332	2.1818	0.	1.8732e-002
2861	13.515	2.1818	0.	0.78494
2862	13.699	2.1818	0.	2.0333
2863	13.883	2.1818	0.	3.2157
2864	14.067	2.1818	0.	4.336
2865	14.251	2.1818	0.	5.4008
2866	14.435	2.1818	0.	6.4168
2867	14.619	2.1818	0.	7.3903
2868	14.803	2.1818	0.	8.3276
2869	14.987	2.1818	0.	9.2346
2870	15.171	2.1818	0.	10.117
2871	15.355	2.1818	0.	10.98
2872	15.539	2.1818	0.	11.83
2873	15.723	2.1818	0.	12.672
2874	15.907	2.1818	0.	13.51
2875	16.091	2.1818	0.	14.351
2876	16.275	2.1818	0.	15.2
2877	16.458	2.1818	0.	16.061
2878	16.642	2.1818	0.	16.941
2879	16.826	2.1818	0.	17.844
2880	17.01	2.1818	0.	18.777
2881	17.194	2.1818	0.	19.746
2882	17.378	2.1818	0.	20.756
2883	17.562	2.1818	0.	21.813
2884	17.746	2.1818	0.	22.925
2885	17.93	2.1818	0.	24.098
2886	18.114	2.1818	0.	25.339
2887	18.298	2.1818	0.	26.656
2888	18.482	2.1818	0.	28.058
2889	18.666	2.1818	0.	29.553
2890	18.85	2.1818	0.	31.15
2891	19.034	2.1818	0.	32.859
2892	19.218	2.1818	0.	34.691
2893	19.402	2.1818	0.	36.657
2894	19.585	2.1818	0.	38.768
2895	19.769	2.1818	0.	41.039
2896	19.953	2.1818	0.	43.482
2897	20.137	2.1818	0.	46.113
2898	20.321	2.1818	0.	48.947
2899	20.505	2.1818	0.	52.001
2900	20.689	2.1818	0.	55.293
2901	20.873	2.1818	0.	58.843
2902	21.057	2.1818	0.	62.67
2903	21.241	2.1818	0.	66.797
2904	21.425	2.1818	0.	71.247
2905	21.609	2.1818	0.	76.043
2906	21.793	2.1818	0.	81.209
2907	21.977	2.1818	0.	86.772
2908	22.161	2.1818	0.	92.755
2909	22.345	2.1818	0.	99.185
2910	22.528	2.1818	0.	106.08
2911	22.712	2.1818	0.	113.47
2912	22.896	2.1818	0.	121.37
2913	23.08	2.1818	0.	129.78
2914	23.264	2.1818	0.	138.73
2915	23.448	2.1818	0.	148.18
2916	23.632	2.1818	0.	158.2
2917	23.816	2.1818	0.	168.55
2918	3.9506	2.	0.	2676.8
2919	4.1345	2.	0.	946.37
2920	4.3185	2.	0.	367.84
2921	4.5024	2.	0.	83.867
2922	4.6864	2.	0.	8.3675
2923	4.8703	2.	0.	3.7934
2924	5.0542	2.	0.	1.9787
2925	5.2382	2.	0.	1.3283
2926	5.4221	2.	0.	0.90717
2927	5.6061	2.	0.	0.6537
2928	5.79	2.	0.	0.47745
2929	5.9739	2.	0.	0.35363
2930	6.1579	2.	0.	0.26362
2931	6.3418	2.	0.	0.1975
2932	6.5258	2.	0.	0.14845
2933	6.7097	2.	0.	0.11189
2934	6.8936	2.	0.	8.4539e-002
2935	7.0776	2.	0.	6.4038e-002
2936	7.2615	2.	0.	4.8654e-002
2937	7.4455	2.	0.	3.7102e-002
2938	7.6294	2.	0.	2.8421e-002
2939	7.8133	2.	0.	2.1901e-002
2940	7.9973	2.	0.	1.7018e-002
2941	8.1812	2.	0.	1.3364e-002
2942	8.3652	2.	0.	1.0633e-002
2943	8.5491	2.	0.	8.6088e-003
2944	8.733	2.	0.	7.1162e-003
2945	8.917	2.	0.	6.0238e-003
2946	9.1009	2.	0.	5.2339e-003
2947	9.2848	2.	0.	4.6791e-003
2948	9.4688	2.	0.	4.3016e-003
2949	9.6527	2.	0.	4.0519e-003
2950	9.8367	2.	0.	3.918e-003
2951	10.021	2.	0.	3.8689e-003
2952	10.205	2.	0.	3.8462e-003
2953	10.388	2.	0.	3.8748e-003
2954	10.572	2.	0.	3.9424e-003
2955	10.756	2.	0.	4.0175e-003
2956	10.94	2.	0.	4.1416e-003
2957	11.124	2.	0.	4.3097e-003
2958	11.308	2.	0.	4.4799e-003
2959	11.492	2.	0.	4.6525e-003
2960	11.676	2.	0.	4.8725e-003
2961	11.86	2.	0.	5.1269e-003
2962	12.044	2.	0.	5.3612e-003
2963	12.228	2.	0.	5.6545e-003
2964	12.412	2.	0.	6.0542e-003
2965	12.596	2.	0.	6.5786e-003
2966	12.78	2.	0.	7.375e-003
2967	12.964	2.	0.	8.9075e-003
2968	13.148	2.	0.	1.3428e-002
2969	13.332	2.	0.	0.15465
2970	13.515	2.	0.	1.3695
2971	13.699	2.	0.	2.5699
2972	13.883	2.	0.	3.7058
2973	14.067	2.	0.	4.7824
2974	14.251	2.	0.	5.8063
2975	14.435	2.	0.	6.7838
2976	14.619	2.	0.	7.7209
2977	14.803	2.	0.	8.6234
2978	14.987	2.	0.	9.497
2979	15.171	2.	0.	10.347
2980	15.355	2.	0.	11.179
2981	15.539	2.	0.	11.998
2982	15.723	2.	0.	12.81
2983	15.907	2.	0.	13.618
2984	16.091	2.	0.	14.428
2985	16.275	2.	0.	15.246
2986	16.458	2.	0.	16.076
2987	16.642	2.	0.	16.923
2988	16.826	2.	0.	17.793
2989	17.01	2.	0.	18.69
2990	17.194	2.	0.	19.621
2991	17.378	2.	0.	20.592
2992	17.562	2.	0.	21.607
2993	17.746	2.	0.	22.674
2994	17.93	2.	0.	23.798
2995	18.114	2.	0.	24.987
2996	18.298	2.	0.	26.248
2997	18.482	2.	0.	27.589
2998	18.666	2.	0.	29.018
2999	18.85	2.	0.	30.543
3000	19.034	2.	0.	32.175
3001	19.218	2.	0.	33.922
3002	19.402	2.	0.	35.795
3003	19.585	2.	0.	37.807
3004	19.769	2.	0.	39.968
3005	19.953	2.	0.	42.293
3006	20.137	2.	0.	44.795
3007	20.321	2.	0.	47.49
3008	20.505	2.	0.	50.393
3009	20.689	2.	0.	53.523
3010	20.873	2.	0.	56.898
3011	21.057	2.	0.	60.539
3012	21.241	2.	0.	64.467
3013	21.425	2.	0.	68.706
3014	21.609	2.	0.	73.282
3015	21.793	2.	0.	78.22
3016	21.977	2.	0.	83.548
3017	22.161	2.	0.	89.295
3018	22.345	2.	0.	95.49
3019	22.528	2.	0.	102.16
3020	22.712	2.	0.	109.34
3021	22.896	2.	0.	117.04
3022	23.08	2.	0.	125.28
3023	23.264	2.	0.	134.09
3024	23.448	2.	0.	143.44
3025	23.632	2.	0.	153.39
3026	23.816	2.	0.	163.73
3027	3.9506	1.8182	0.	4111.4
3028	4.1345	1.8182	0.	1687.8
3029	4.3185	1.8182	0.	721.02
3030	4.5024	1.8182	0.	301.72
3031	4.6864	1.8182	0.	77.455
3032	4.8703	1.8182	0.	10.331
3033	5.0542	1.8182	0.	3.7446
3034	5.2382	1.8182	0.	2.0625
3035	5.4221	1.8182	0.	1.3
3036	5.6061	1.8182	0.	0.88488
3037	5.79	1.8182	0.	0.6249
3038	5.9739	1.8182	0.	0.4522
3039	6.1579	1.8182	0.	0.33207
3040	6.3418	1.8182	0.	0.2464
3041	6.5258	1.8182	0.	0.18424
3042	6.7097	1.8182	0.	0.13863
3043	6.8936	1.8182	0.	0.10488
3044	7.0776	1.8182	0.	7.976e-002
3045	7.2615	1.8182	0.	6.0982e-002
3046	7.4455	1.8182	0.	4.6892e-002
3047	7.6294	1.8182	0.	3.6283e-002
3048	7.8133	1.8182	0.	2.8277e-002
3049	7.9973	1.8182	0.	2.2231e-002
3050	8.1812	1.8182	0.	1.7653e-002
3051	8.3652	1.8182	0.	1.4184e-002
3052	8.5491	1.8182	0.	1.1559e-002
3053	8.733	1.8182	0.	9.5766e-003
3054	8.917	1.8182	0.	8.0799e-003
3055	9.1009	1.8182	0.	6.9546e-003
3056	9.2848	1.8182	0.	6.1173e-003
3057	9.4688	1.8182	0.	5.5031e-003
3058	9.6527	1.8182	0.	5.055e-003
3059	9.8367	1.8182	0.	4.7528e-003
3060	10.021	1.8182	0.	4.5606e-003
3061	10.205	1.8182	0.	4.4169e-003
3062	10.388	1.8182	0.	4.3424e-003
3063	10.572	1.8182	0.	4.324e-003
3064	10.756	1.8182	0.	4.3266e-003
3065	10.94	1.8182	0.	4.3914e-003
3066	11.124	1.8182	0.	4.5139e-003
3067	11.308	1.8182	0.	4.6499e-003
3068	11.492	1.8182	0.	4.8025e-003
3069	11.676	1.8182	0.	5.018e-003
3070	11.86	1.8182	0.	5.285e-003
3071	12.044	1.8182	0.	5.5593e-003
3072	12.228	1.8182	0.	5.9314e-003
3073	12.412	1.8182	0.	6.4788e-003
3074	12.596	1.8182	0.	7.2903e-003
3075	12.78	1.8182	0.	8.7184e-003
3076	12.964	1.8182	0.	1.2175e-002
3077	13.148	1.8182	0.	3.3557e-002
3078	13.332	1.8182	0.	0.85838
3079	13.515	1.8182	0.	2.0638
3080	13.699	1.8182	0.	3.2065
3081	13.883	1.8182	0.	4.2877
3082	14.067	1.8182	0.	5.3131
3083	14.251	1.8182	0.	6.289
3084	14.435	1.8182	0.	7.2212
3085	14.619	1.8182	0.	8.1154
3086	14.803	1.8182	0.	8.977
3087	14.987	1.8182	0.	9.8116
3088	15.171	1.8182	0.	10.624
3089	15.355	1.8182	0.	11.419
3090	15.539	1.8182	0.	12.202
3091	15.723	1.8182	0.	12.978
3092	15.907	1.8182	0.	13.751
3093	16.091	1.8182	0.	14.526
3094	16.275	1.8182	0.	15.307
3095	16.458	1.8182	0.	16.1
3096	16.642	1.8182	0.	16.909
3097	16.826	1.8182	0.	17.739
3098	17.01	1.8182	0.	18.595
3099	17.194	1.8182	0.	19.483
3100	17.378	1.8182	0.	20.407
3101	17.562	1.8182	0.	21.373
3102	17.746	1.8182	0.	22.387
3103	17.93	1.8182	0.	23.455
3104	18.114	1.8182	0.	24.584
3105	18.298	1.8182	0.	25.779
3106	18.482	1.8182	0.	27.049
3107	18.666	1.8182	0.	28.401
3108	18.85	1.8182	0.	29.843
3109	19.034	1.8182	0.	31.383
3110	19.218	1.8182	0.	33.031
3111	19.402	1.8182	0.	34.797
3112	19.585	1.8182	0.	36.691
3113	19.769	1.8182	0.	38.725
3114	19.953	1.8182	0.	40.911
3115	20.137	1.8182	0.	43.262
3116	20.321	1.8182	0.	45.792
3117	20.505	1.8182	0.	48.518
3118	20.689	1.8182	0.	51.456
3119	20.873	1.8182	0.	54.624
3120	21.057	1.8182	0.	58.043
3121	21.241	1.8182	0.	61.733
3122	21.425	1.8182	0.	65.72
3123	21.609	1.8182	0.	70.029
3124	21.793	1.8182	0.	74.688
3125	21.977	1.8182	0.	79.728
3126	22.161	1.8182	0.	85.181
3127	22.345	1.8182	0.	91.081
3128	22.528	1.8182	0.	97.464
3129	22.712	1.8182	0.	104.36
3130	22.896	1.8182	0.	111.81
3131	23.08	1.8182	0.	119.84
3132	23.264	1.8182	0.	128.46
3133	23.448	1.8182	0.	137.67
3134	23.632	1.8182	0.	147.53
3135	23.816	1.8182	0.	157.85
3136	3.9506	1.6364	0.	3659.8
3137	4.1345	1.6364	0.	1835.4
3138	4.3185	1.6364	0.	959.95
3139	4.5024	1.6364	0.	488.5
3140	4.6864	1.6364	0.	216.81
3141	4.8703	1.6364	0.	65.214
3142	5.0542	1.6364	0.	10.772
3143	5.2382	1.6364	0.	3.8385
3144	5.4221	1.6364	0.	2.0442
3145	5.6061	1.6364	0.	1.2691
3146	5.79	1.6364	0.	0.84699
3147	5.9739	1.6364	0.	0.58948
3148	6.1579	1.6364	0.	0.42109
3149	6.3418	1.6364	0.	0.30628
3150	6.5258	1.6364	0.	0.2258
3151	6.7097	1.6364	0.	0.16829
3152	6.8936	1.6364	0.	0.12661
3153	7.0776	1.6364	0.	9.6065e-002
3154	7.2615	1.6364	0.	7.3487e-002
3155	7.4455	1.6364	0.	5.6673e-002
3156	7.6294	1.6364	0.	4.4065e-002
3157	7.8133	1.6364	0.	3.4558e-002
3158	7.9973	1.6364	0.	2.7361e-002
3159	8.1812	1.6364	0.	2.1885e-002
3160	8.3652	1.6364	0.	1.77e-002
3161	8.5491	1.6364	0.	1.4496e-002
3162	8.733	1.6364	0.	1.2039e-002
3163	8.917	1.6364	0.	1.0149e-002
3164	9.1009	1.6364	0.	8.6959e-003
3165	9.2848	1.6364	0.	7.5819e-003
3166	9.4688	1.6364	0.	6.734e-003
3167	9.6527	1.6364	0.	6.0853e-003
3168	9.8367	1.6364	0.	5.6121e-003
3169	10.021	1.6364	0.	5.2739e-003
3170	10.205	1.6364	0.	5.0051e-003
3171	10.388	1.6364	0.	4.8247e-003
3172	10.572	1.6364	0.	4.7158e-003
3173	10.756	1.6364	0.	4.6439e-003
3174	10.94	1.6364	0.	4.6485e-003
3175	11.124	1.6364	0.	4.7232e-003
3176	11.308	1.6364	0.	4.8279e-003
3177	11.492	1.6364	0.	4.9669e-003
3178	11.676	1.6364	0.	5.188e-003
3179	11.86	1.6364	0.	5.4905e-003
3180	12.044	1.6364	0.	5.8422e-003
3181	12.228	1.6364	0.	6.3659e-003
3182	12.412	1.6364	0.	7.2043e-003
3183	12.596	1.6364	0.	8.6431e-003
3184	12.78	1.6364	0.	1.1805e-002
3185	12.964	1.6364	0.	2.4873e-002
3186	13.148	1.6364	0.	0.53252
3187	13.332	1.6364	0.	1.7244
3188	13.515	1.6364	0.	2.8631
3189	13.699	1.6364	0.	3.9394
3190	13.883	1.6364	0.	4.9584
3191	14.067	1.6364	0.	5.9255
3192	14.251	1.6364	0.	6.8467
3193	14.435	1.6364	0.	7.7273
3194	14.619	1.6364	0.	8.5727
3195	14.803	1.6364	0.	9.3879
3196	14.987	1.6364	0.	10.178
3197	15.171	1.6364	0.	10.947
3198	15.355	1.6364	0.	11.701
3199	15.539	1.6364	0.	12.443
3200	15.723	1.6364	0.	13.178
3201	15.907	1.6364	0.	13.911
3202	16.091	1.6364	0.	14.645
3203	16.275	1.6364	0.	15.386
3204	16.458	1.6364	0.	16.137
3205	16.642	1.6364	0.	16.903
3206	16.826	1.6364	0.	17.688
3207	17.01	1.6364	0.	18.498
3208	17.194	1.6364	0.	19.336
3209	17.378	1.6364	0.	20.208
3210	17.562	1.6364	0.	21.119
3211	17.746	1.6364	0.	22.073
3212	17.93	1.6364	0.	23.078
3213	18.114	1.6364	0.	24.138
3214	18.298	1.6364	0.	25.259
3215	18.482	1.6364	0.	26.449
3216	18.666	1.6364	0.	27.714
3217	18.85	1.6364	0.	29.061
3218	19.034	1.6364	0.	30.499
3219	19.218	1.6364	0.	32.036
3220	19.402	1.6364	0.	33.68
3221	19.585	1.6364	0.	35.441
3222	19.769	1.6364	0.	37.331
3223	19.953	1.6364	0.	39.359
3224	20.137	1.6364	0.	41.539
3225	20.321	1.6364	0.	43.883
3226	20.505	1.6364	0.	46.407
3227	20.689	1.6364	0.	49.125
3228	20.873	1.6364	0.	52.056
3229	21.057	1.6364	0.	55.219
3230	21.241	1.6364	0.	58.635
3231	21.425	1.6364	0.	62.327
3232	21.609	1.6364	0.	66.323
3233	21.793	1.6364	0.	70.652
3234	21.977	1.6364	0.	75.347
3235	22.161	1.6364	0.	80.443
3236	22.345	1.6364	0.	85.982
3237	22.528	1.6364	0.	92.004
3238	22.712	1.6364	0.	98.555
3239	22.896	1.6364	0.	105.68
3240	23.08	1.6364	0.	113.41
3241	23.264	1.6364	0.	121.79
3242	23.448	1.6364	0.	130.82
3243	23.632	1.6364	0.	140.56
3244	23.816	1.6364	0.	150.83
3245	3.9506	1.4545	0.	2782.1
3246	4.1345	1.4545	0.	1660.4
3247	4.3185	1.4545	0.	997.18
3248	4.5024	1.4545	0.	574.7
3249	4.6864	1.4545	0.	313.46
3250	4.8703	1.4545	0.	153.32
3251	5.0542	1.4545	0.	56.981
3252	5.2382	1.4545	0.	12.722
3253	5.4221	1.4545	0.	4.1537
3254	5.6061	1.4545	0.	2.087
3255	5.79	1.4545	0.	1.2431
3256	5.9739	1.4545	0.	0.80464
3257	6.1579	1.4545	0.	0.54655
3258	6.3418	1.4545	0.	0.38327
3259	6.5258	1.4545	0.	0.27508
3260	6.7097	1.4545	0.	0.20108
3261	6.8936	1.4545	0.	0.14925
3262	7.0776	1.4545	0.	0.11227
3263	7.2615	1.4545	0.	8.5485e-002
3264	7.4455	1.4545	0.	6.5839e-002
3265	7.6294	1.4545	0.	5.1259e-002
3266	7.8133	1.4545	0.	4.0335e-002
3267	7.9973	1.4545	0.	3.2084e-002
3268	8.1812	1.4545	0.	2.58e-002
3269	8.3652	1.4545	0.	2.0979e-002
3270	8.5491	1.4545	0.	1.7261e-002
3271	8.733	1.4545	0.	1.4382e-002
3272	8.917	1.4545	0.	1.2139e-002
3273	9.1009	1.4545	0.	1.0384e-002
3274	9.2848	1.4545	0.	9.0151e-003
3275	9.4688	1.4545	0.	7.9462e-003
3276	9.6527	1.4545	0.	7.1062e-003
3277	9.8367	1.4545	0.	6.468e-003
3278	10.021	1.4545	0.	5.9859e-003
3279	10.205	1.4545	0.	5.5919e-003
3280	10.388	1.4545	0.	5.3042e-003
3281	10.572	1.4545	0.	5.1052e-003
3282	10.756	1.4545	0.	4.9571e-003
3283	10.94	1.4545	0.	4.9012e-003
3284	11.124	1.4545	0.	4.9319e-003
3285	11.308	1.4545	0.	5.0116e-003
3286	11.492	1.4545	0.	5.1469e-003
3287	11.676	1.4545	0.	5.3992e-003
3288	11.86	1.4545	0.	5.7797e-003
3289	12.044	1.4545	0.	6.2888e-003
3290	12.228	1.4545	0.	7.1278e-003
3291	12.412	1.4545	0.	8.6488e-003
3292	12.596	1.4545	0.	1.1941e-002
3293	12.78	1.4545	0.	2.4214e-002
3294	12.964	1.4545	0.	0.41561
3295	13.148	1.4545	0.	1.5799
3296	13.332	1.4545	0.	2.7021
3297	13.515	1.4545	0.	3.7624
3298	13.699	1.4545	0.	4.7647
3299	13.883	1.4545	0.	5.7144
3300	14.067	1.4545	0.	6.6167
3301	14.251	1.4545	0.	7.4771
3302	14.435	1.4545	0.	8.3005
3303	14.619	1.4545	0.	9.0916
3304	14.803	1.4545	0.	9.8552
3305	14.987	1.4545	0.	10.596
3306	15.171	1.4545	0.	11.318
3307	15.355	1.4545	0.	12.025
3308	15.539	1.4545	0.	12.722
3309	15.723	1.4545	0.	13.412
3310	15.907	1.4545	0.	14.101
3311	16.091	1.4545	0.	14.79
3312	16.275	1.4545	0.	15.486
3313	16.458	1.4545	0.	16.19
3314	16.642	1.4545	0.	16.909
3315	16.826	1.4545	0.	17.645
3316	17.01	1.4545	0.	18.403
3317	17.194	1.4545	0.	19.187
3318	17.378	1.4545	0.	20.002
3319	17.562	1.4545	0.	20.851
3320	17.746	1.4545	0.	21.741
3321	17.93	1.4545	0.	22.676
3322	18.114	1.4545	0.	23.66
3323	18.298	1.4545	0.	24.701
3324	18.482	1.4545	0.	25.803
3325	18.666	1.4545	0.	26.972
3326	18.85	1.4545	0.	28.216
3327	19.034	1.4545	0.	29.541
3328	19.218	1.4545	0.	30.955
3329	19.402	1.4545	0.	32.465
3330	19.585	1.4545	0.	34.081
3331	19.769	1.4545	0.	35.812
3332	19.953	1.4545	0.	37.667
3333	20.137	1.4545	0.	39.657
3334	20.321	1.4545	0.	41.796
3335	20.505	1.4545	0.	44.095
3336	20.689	1.4545	0.	46.57
3337	20.873	1.4545	0.	49.236
3338	21.057	1.4545	0.	52.112
3339	21.241	1.4545	0.	55.217
3340	21.425	1.4545	0.	58.576
3341	21.609	1.4545	0.	62.214
3342	21.793	1.4545	0.	66.162
3343	21.977	1.4545	0.	70.453
3344	22.161	1.4545	0.	75.128
3345	22.345	1.4545	0.	80.23
3346	22.528	1.4545	0.	85.812
3347	22.712	1.4545	0.	91.927
3348	22.896	1.4545	0.	98.633
3349	23.08	1.4545	0.	105.99
3350	23.264	1.4545	0.	114.04
3351	23.448	1.4545	0.	122.82
3352	23.632	1.4545	0.	132.39
3353	23.816	1.4545	0.	142.61
3354	3.9506	1.2727	0.	2162.5
3355	4.1345	1.2727	0.	1379.5
3356	4.3185	1.2727	0.	895.84
3357	4.5024	1.2727	0.	568.45
3358	4.6864	1.2727	0.	351.29
3359	4.8703	1.2727	0.	209.74
3360	5.0542	1.2727	0.	117.26
3361	5.2382	1.2727	0.	56.553
3362	5.4221	1.2727	0.	19.376
3363	5.6061	1.2727	0.	5.4966
3364	5.79	1.2727	0.	2.319
3365	5.9739	1.2727	0.	1.2528
3366	6.1579	1.2727	0.	0.76237
3367	6.3418	1.2727	0.	0.49683
3368	6.5258	1.2727	0.	0.33879
3369	6.7097	1.2727	0.	0.23885
3370	6.8936	1.2727	0.	0.17286
3371	7.0776	1.2727	0.	0.12785
3372	7.2615	1.2727	0.	9.6338e-002
3373	7.4455	1.2727	0.	7.3797e-002
3374	7.6294	1.2727	0.	5.7369e-002
3375	7.8133	1.2727	0.	4.5205e-002
3376	7.9973	1.2727	0.	3.6082e-002
3377	8.1812	1.2727	0.	2.915e-002
3378	8.3652	1.2727	0.	2.3826e-002
3379	8.5491	1.2727	0.	1.9702e-002
3380	8.733	1.2727	0.	1.6482e-002
3381	8.917	1.2727	0.	1.3949e-002
3382	9.1009	1.2727	0.	1.1943e-002
3383	9.2848	1.2727	0.	1.0352e-002
3384	9.4688	1.2727	0.	9.0873e-003
3385	9.6527	1.2727	0.	8.0741e-003
3386	9.8367	1.2727	0.	7.2794e-003
3387	10.021	1.2727	0.	6.661e-003
3388	10.205	1.2727	0.	6.1463e-003
3389	10.388	1.2727	0.	5.7532e-003
3390	10.572	1.2727	0.	5.4636e-003
3391	10.756	1.2727	0.	5.2403e-003
3392	10.94	1.2727	0.	5.1276e-003
3393	11.124	1.2727	0.	5.1226e-003
3394	11.308	1.2727	0.	5.1905e-003
3395	11.492	1.2727	0.	5.3524e-003
3396	11.676	1.2727	0.	5.6823e-003
3397	11.86	1.2727	0.	6.2367e-003
3398	12.044	1.2727	0.	7.1131e-003
3399	12.228	1.2727	0.	8.777e-003
3400	12.412	1.2727	0.	1.2655e-002
3401	12.596	1.2727	0.	2.8813e-002
3402	12.78	1.2727	0.	0.52055
3403	12.964	1.2727	0.	1.6599
3404	13.148	1.2727	0.	2.7518
3405	13.332	1.2727	0.	3.7827
3406	13.515	1.2727	0.	4.7563
3407	13.699	1.2727	0.	5.6777
3408	13.883	1.2727	0.	6.5519
3409	14.067	1.2727	0.	7.3836
3410	14.251	1.2727	0.	8.1777
3411	14.435	1.2727	0.	8.9387
3412	14.619	1.2727	0.	9.6708
3413	14.803	1.2727	0.	10.378
3414	14.987	1.2727	0.	11.065
3415	15.171	1.2727	0.	11.735
3416	15.355	1.2727	0.	12.392
3417	15.539	1.2727	0.	13.04
3418	15.723	1.2727	0.	13.682
3419	15.907	1.2727	0.	14.322
3420	16.091	1.2727	0.	14.963
3421	16.275	1.2727	0.	15.61
3422	16.458	1.2727	0.	16.265
3423	16.642	1.2727	0.	16.932
3424	16.826	1.2727	0.	17.615
3425	17.01	1.2727	0.	18.317
3426	17.194	1.2727	0.	19.043
3427	17.378	1.2727	0.	19.796
3428	17.562	1.2727	0.	20.581
3429	17.746	1.2727	0.	21.4
3430	17.93	1.2727	0.	22.26
3431	18.114	1.2727	0.	23.164
3432	18.298	1.2727	0.	24.117
3433	18.482	1.2727	0.	25.125
3434	18.666	1.2727	0.	26.192
3435	18.85	1.2727	0.	27.325
3436	19.034	1.2727	0.	28.529
3437	19.218	1.2727	0.	29.811
3438	19.402	1.2727	0.	31.178
3439	19.585	1.2727	0.	32.637
3440	19.769	1.2727	0.	34.197
3441	19.953	1.2727	0.	35.865
3442	20.137	1.2727	0.	37.652
3443	20.321	1.2727	0.	39.568
3444	20.505	1.2727	0.	41.625
3445	20.689	1.2727	0.	43.834
3446	20.873	1.2727	0.	46.212
3447	21.057	1.2727	0.	48.774
3448	21.241	1.2727	0.	51.538
3449	21.425	1.2727	0.	54.527
3450	21.609	1.2727	0.	57.764
3451	21.793	1.2727	0.	61.281
3452	21.977	1.2727	0.	65.111
3453	22.161	1.2727	0.	69.296
3454	22.345	1.2727	0.	73.884
3455	22.528	1.2727	0.	78.933
3456	22.712	1.2727	0.	84.51
3457	22.896	1.2727	0.	90.688
3458	23.08	1.2727	0.	97.547
3459	23.264	1.2727	0.	105.17
3460	23.448	1.2727	0.	113.6
3461	23.632	1.2727	0.	122.93
3462	23.816	1.2727	0.	133.06
3463	3.9506	1.0909	0.	1654.1
3464	4.1345	1.0909	0.	1077.4
3465	4.3185	1.0909	0.	737.35
3466	4.5024	1.0909	0.	502.56
3467	4.6864	1.0909	0.	341.67
3468	4.8703	1.0909	0.	231.8
3469	5.0542	1.0909	0.	155.38
3470	5.2382	1.0909	0.	100.77
3471	5.4221	1.0909	0.	60.669
3472	5.6061	1.0909	0.	30.968
3473	5.79	1.0909	0.	10.941
3474	5.9739	1.0909	0.	3.1782
3475	6.1579	1.0909	0.	1.3425
3476	6.3418	1.0909	0.	0.72175
3477	6.5258	1.0909	0.	0.43908
3478	6.7097	1.0909	0.	0.28791
3479	6.8936	1.0909	0.	0.19878
3480	7.0776	1.0909	0.	0.14265
3481	7.2615	1.0909	0.	0.10554
3482	7.4455	1.0909	0.	8.0058e-002
3483	7.6294	1.0909	0.	6.2014e-002
3484	7.8133	1.0909	0.	4.8908e-002
3485	7.9973	1.0909	0.	3.919e-002
3486	8.1812	1.0909	0.	3.1845e-002
3487	8.3652	1.0909	0.	2.6203e-002
3488	8.5491	1.0909	0.	2.1816e-002
3489	8.733	1.0909	0.	1.8367e-002
3490	8.917	1.0909	0.	1.5623e-002
3491	9.1009	1.0909	0.	1.3422e-002
3492	9.2848	1.0909	0.	1.1649e-002
3493	9.4688	1.0909	0.	1.0213e-002
3494	9.6527	1.0909	0.	9.0412e-003
3495	9.8367	1.0909	0.	8.1002e-003
3496	10.021	1.0909	0.	7.3462e-003
3497	10.205	1.0909	0.	6.7088e-003
3498	10.388	1.0909	0.	6.2059e-003
3499	10.572	1.0909	0.	5.8209e-003
3500	10.756	1.0909	0.	5.5216e-003
3501	10.94	1.0909	0.	5.352e-003
3502	11.124	1.0909	0.	5.3185e-003
3503	11.308	1.0909	0.	5.3993e-003
3504	11.492	1.0909	0.	5.6401e-003
3505	11.676	1.0909	0.	6.1737e-003
3506	11.86	1.0909	0.	7.1928e-003
3507	12.044	1.0909	0.	9.2241e-003
3508	12.228	1.0909	0.	1.4772e-002
3509	12.412	1.0909	0.	5.5993e-002
3510	12.596	1.0909	0.	0.89509
3511	12.78	1.0909	0.	1.9974
3512	12.964	1.0909	0.	3.0422
3513	13.148	1.0909	0.	4.0281
3514	13.332	1.0909	0.	4.9588
3515	13.515	1.0909	0.	5.8391
3516	13.699	1.0909	0.	6.6736
3517	13.883	1.0909	0.	7.4667
3518	14.067	1.0909	0.	8.2227
3519	14.251	1.0909	0.	8.9457
3520	14.435	1.0909	0.	9.6398
3521	14.619	1.0909	0.	10.309
3522	14.803	1.0909	0.	10.956
3523	14.987	1.0909	0.	11.585
3524	15.171	1.0909	0.	12.2
3525	15.355	1.0909	0.	12.803
3526	15.539	1.0909	0.	13.398
3527	15.723	1.0909	0.	13.989
3528	15.907	1.0909	0.	14.578
3529	16.091	1.0909	0.	15.168
3530	16.275	1.0909	0.	15.762
3531	16.458	1.0909	0.	16.365
3532	16.642	1.0909	0.	16.978
3533	16.826	1.0909	0.	17.604
3534	17.01	1.0909	0.	18.248
3535	17.194	1.0909	0.	18.913
3536	17.378	1.0909	0.	19.601
3537	17.562	1.0909	0.	20.316
3538	17.746	1.0909	0.	21.062
3539	17.93	1.0909	0.	21.843
3540	18.114	1.0909	0.	22.662
3541	18.298	1.0909	0.	23.523
3542	18.482	1.0909	0.	24.432
3543	18.666	1.0909	0.	25.392
3544	18.85	1.0909	0.	26.408
3545	19.034	1.0909	0.	27.485
3546	19.218	1.0909	0.	28.628
3547	19.402	1.0909	0.	29.844
3548	19.585	1.0909	0.	31.138
3549	19.769	1.0909	0.	32.518
3550	19.953	1.0909	0.	33.99
3551	20.137	1.0909	0.	35.562
3552	20.321	1.0909	0.	37.242
3553	20.505	1.0909	0.	39.042
3554	20.689	1.0909	0.	40.97
3555	20.873	1.0909	0.	43.041
3556	21.057	1.0909	0.	45.266
3557	21.241	1.0909	0.	47.663
3558	21.425	1.0909	0.	50.251
3559	21.609	1.0909	0.	53.051
3560	21.793	1.0909	0.	56.093
3561	21.977	1.0909	0.	59.407
3562	22.161	1.0909	0.	63.035
3563	22.345	1.0909	0.	67.028
3564	22.528	1.0909	0.	71.446
3565	22.712	1.0909	0.	76.366
3566	22.896	1.0909	0.	81.881
3567	23.08	1.0909	0.	88.094
3568	23.264	1.0909	0.	95.124
3569	23.448	1.0909	0.	103.07
3570	23.632	1.0909	0.	112.06
3571	23.816	1.0909	0.	122.04
3572	3.9506	0.90909	0.	1235.1
3573	4.1345	0.90909	0.	797.61
3574	4.3185	0.90909	0.	562.11
3575	4.5024	0.90909	0.	408.02
3576	4.6864	0.90909	0.	302.57
3577	4.8703	0.90909	0.	227.55
3578	5.0542	0.90909	0.	171.49
3579	5.2382	0.90909	0.	127.75
3580	5.4221	0.90909	0.	92.523
3581	5.6061	0.90909	0.	63.638
3582	5.79	0.90909	0.	39.84
3583	5.9739	0.90909	0.	20.537
3584	6.1579	0.90909	0.	6.6189
3585	6.3418	0.90909	0.	1.645
3586	6.5258	0.90909	0.	0.68185
3587	6.7097	0.90909	0.	0.37215
3588	6.8936	0.90909	0.	0.2325
3589	7.0776	0.90909	0.	0.15755
3590	7.2615	0.90909	0.	0.11283
3591	7.4455	0.90909	0.	8.4154e-002
3592	7.6294	0.90909	0.	6.4743e-002
3593	7.8133	0.90909	0.	5.1045e-002
3594	7.9973	0.90909	0.	4.106e-002
3595	8.1812	0.90909	0.	3.3573e-002
3596	8.3652	0.90909	0.	2.783e-002
3597	8.5491	0.90909	0.	2.3347e-002
3598	8.733	0.90909	0.	1.9791e-002
3599	8.917	0.90909	0.	1.6931e-002
3600	9.1009	0.90909	0.	1.4604e-002
3601	9.2848	0.90909	0.	1.2698e-002
3602	9.4688	0.90909	0.	1.1129e-002
3603	9.6527	0.90909	0.	9.8218e-003
3604	9.8367	0.90909	0.	8.7495e-003
3605	10.021	0.90909	0.	7.87e-003
3606	10.205	0.90909	0.	7.1137e-003
3607	10.388	0.90909	0.	6.5041e-003
3608	10.572	0.90909	0.	6.027e-003
3609	10.756	0.90909	0.	5.6554e-003
3610	10.94	0.90909	0.	5.4431e-003
3611	11.124	0.90909	0.	5.4146e-003
3612	11.308	0.90909	0.	5.5881e-003
3613	11.492	0.90909	0.	6.0959e-003
3614	11.676	0.90909	0.	7.3321e-003
3615	11.86	0.90909	0.	1.0511e-002
3616	12.044	0.90909	0.	2.4728e-002
3617	12.228	0.90909	0.	0.50856
3618	12.412	0.90909	0.	1.5917
3619	12.596	0.90909	0.	2.6277
3620	12.78	0.90909	0.	3.6054
3621	12.964	0.90909	0.	4.5278
3622	13.148	0.90909	0.	5.3992
3623	13.332	0.90909	0.	6.2235
3624	13.515	0.90909	0.	7.0049
3625	13.699	0.90909	0.	7.7473
3626	13.883	0.90909	0.	8.4547
3627	14.067	0.90909	0.	9.1304
3628	14.251	0.90909	0.	9.7783
3629	14.435	0.90909	0.	10.402
3630	14.619	0.90909	0.	11.004
3631	14.803	0.90909	0.	11.587
3632	14.987	0.90909	0.	12.156
3633	15.171	0.90909	0.	12.712
3634	15.355	0.90909	0.	13.259
3635	15.539	0.90909	0.	13.799
3636	15.723	0.90909	0.	14.336
3637	15.907	0.90909	0.	14.871
3638	16.091	0.90909	0.	15.407
3639	16.275	0.90909	0.	15.948
3640	16.458	0.90909	0.	16.495
3641	16.642	0.90909	0.	17.051
3642	16.826	0.90909	0.	17.62
3643	17.01	0.90909	0.	18.203
3644	17.194	0.90909	0.	18.803
3645	17.378	0.90909	0.	19.424
3646	17.562	0.90909	0.	20.068
3647	17.746	0.90909	0.	20.738
3648	17.93	0.90909	0.	21.437
3649	18.114	0.90909	0.	22.168
3650	18.298	0.90909	0.	22.935
3651	18.482	0.90909	0.	23.741
3652	18.666	0.90909	0.	24.59
3653	18.85	0.90909	0.	25.485
3654	19.034	0.90909	0.	26.431
3655	19.218	0.90909	0.	27.432
3656	19.402	0.90909	0.	28.492
3657	19.585	0.90909	0.	29.616
3658	19.769	0.90909	0.	30.81
3659	19.953	0.90909	0.	32.078
3660	20.137	0.90909	0.	33.428
3661	20.321	0.90909	0.	34.866
3662	20.505	0.90909	0.	36.398
3663	20.689	0.90909	0.	38.035
3664	20.873	0.90909	0.	39.785
3665	21.057	0.90909	0.	41.659
3666	21.241	0.90909	0.	43.67
3667	21.425	0.90909	0.	45.833
3668	21.609	0.90909	0.	48.168
3669	21.793	0.90909	0.	50.698
3670	21.977	0.90909	0.	53.45
3671	22.161	0.90909	0.	56.463
3672	22.345	0.90909	0.	59.782
3673	22.528	0.90909	0.	63.471
3674	22.712	0.90909	0.	67.608
3675	22.896	0.90909	0.	72.297
3676	23.08	0.90909	0.	77.672
3677	23.264	0.90909	0.	83.897
3678	23.448	0.90909	0.	91.136
3679	23.632	0.90909	0.	99.61
3680	23.816	0.90909	0.	109.34
3681	3.9506	0.72727	0.	878.36
3682	4.1345	0.72727	0.	546.91
3683	4.3185	0.72727	0.	395.17
3684	4.5024	0.72727	0.	308.02
3685	4.6864	0.72727	0.	250.2
3686	4.8703	0.72727	0.	206.46
3687	5.0542	0.72727	0.	169.89
3688	5.2382	0.72727	0.	137.75
3689	5.4221	0.72727	0.	109.06
3690	5.6061	0.72727	0.	83.523
3691	5.79	0.72727	0.	61.065
3692	5.9739	0.72727	0.	41.629
3693	6.1579	0.72727	0.	25.147
3694	6.3418	0.72727	0.	11.646
3695	6.5258	0.72727	0.	2.6299
3696	6.7097	0.72727	0.	0.63599
3697	6.8936	0.72727	0.	0.29497
3698	7.0776	0.72727	0.	0.17581
3699	7.2615	0.72727	0.	0.11872
3700	7.4455	0.72727	0.	8.6481e-002
3701	7.6294	0.72727	0.	6.6272e-002
3702	7.8133	0.72727	0.	5.2644e-002
3703	7.9973	0.72727	0.	4.2942e-002
3704	8.1812	0.72727	0.	3.5726e-002
3705	8.3652	0.72727	0.	3.017e-002
3706	8.5491	0.72727	0.	2.5779e-002
3707	8.733	0.72727	0.	2.2231e-002
3708	8.917	0.72727	0.	1.931e-002
3709	9.1009	0.72727	0.	1.6868e-002
3710	9.2848	0.72727	0.	1.4808e-002
3711	9.4688	0.72727	0.	1.3056e-002
3712	9.6527	0.72727	0.	1.1552e-002
3713	9.8367	0.72727	0.	1.0269e-002
3714	10.021	0.72727	0.	9.1765e-003
3715	10.205	0.72727	0.	8.2118e-003
3716	10.388	0.72727	0.	7.401e-003
3717	10.572	0.72727	0.	6.7405e-003
3718	10.756	0.72727	0.	6.2143e-003
3719	10.94	0.72727	0.	5.9063e-003
3720	11.124	0.72727	0.	5.903e-003
3721	11.308	0.72727	0.	6.4206e-003
3722	11.492	0.72727	0.	8.416e-003
3723	11.676	0.72727	0.	2.0637e-002
3724	11.86	0.72727	0.	0.60553
3725	12.044	0.72727	0.	1.6524
3726	12.228	0.72727	0.	2.6475
3727	12.412	0.72727	0.	3.5872
3728	12.596	0.72727	0.	4.4745
3729	12.78	0.72727	0.	5.3128
3730	12.964	0.72727	0.	6.1057
3731	13.148	0.72727	0.	6.8569
3732	13.332	0.72727	0.	7.5697
3733	13.515	0.72727	0.	8.2476
3734	13.699	0.72727	0.	8.8937
3735	13.883	0.72727	0.	9.5114
3736	14.067	0.72727	0.	10.103
3737	14.251	0.72727	0.	10.673
3738	14.435	0.72727	0.	11.222
3739	14.619	0.72727	0.	11.754
3740	14.803	0.72727	0.	12.272
3741	14.987	0.72727	0.	12.777
3742	15.171	0.72727	0.	13.273
3743	15.355	0.72727	0.	13.761
3744	15.539	0.72727	0.	14.244
3745	15.723	0.72727	0.	14.725
3746	15.907	0.72727	0.	15.204
3747	16.091	0.72727	0.	15.686
3748	16.275	0.72727	0.	16.17
3749	16.458	0.72727	0.	16.661
3750	16.642	0.72727	0.	17.16
3751	16.826	0.72727	0.	17.669
3752	17.01	0.72727	0.	18.19
3753	17.194	0.72727	0.	18.725
3754	17.378	0.72727	0.	19.277
3755	17.562	0.72727	0.	19.848
3756	17.746	0.72727	0.	20.441
3757	17.93	0.72727	0.	21.057
3758	18.114	0.72727	0.	21.699
3759	18.298	0.72727	0.	22.37
3760	18.482	0.72727	0.	23.072
3761	18.666	0.72727	0.	23.808
3762	18.85	0.72727	0.	24.581
3763	19.034	0.72727	0.	25.394
3764	19.218	0.72727	0.	26.25
3765	19.402	0.72727	0.	27.153
3766	19.585	0.72727	0.	28.105
3767	19.769	0.72727	0.	29.11
3768	19.953	0.72727	0.	30.173
3769	20.137	0.72727	0.	31.298
3770	20.321	0.72727	0.	32.488
3771	20.505	0.72727	0.	33.751
3772	20.689	0.72727	0.	35.09
3773	20.873	0.72727	0.	36.514
3774	21.057	0.72727	0.	38.029
3775	21.241	0.72727	0.	39.645
3776	21.425	0.72727	0.	41.372
3777	21.609	0.72727	0.	43.224
3778	21.793	0.72727	0.	45.219
3779	21.977	0.72727	0.	47.378
3780	22.161	0.72727	0.	49.73
3781	22.345	0.72727	0.	52.315
3782	22.528	0.72727	0.	55.185
3783	22.712	0.72727	0.	58.415
3784	22.896	0.72727	0.	62.109
3785	23.08	0.72727	0.	66.414
3786	23.264	0.72727	0.	71.54
3787	23.448	0.72727	0.	77.74
3788	23.632	0.72727	0.	85.382
3789	23.816	0.72727	0.	94.673
3790	3.9506	0.54545	0.	571.38
3791	4.1345	0.54545	0.	333.39
3792	4.3185	0.54545	0.	253.34
3793	4.5024	0.54545	0.	218.74
3794	4.6864	0.54545	0.	196.36
3795	4.8703	0.54545	0.	175.84
3796	5.0542	0.54545	0.	154.39
3797	5.2382	0.54545	0.	132.12
3798	5.4221	0.54545	0.	109.91
3799	5.6061	0.54545	0.	88.686
3800	5.79	0.54545	0.	69.109
3801	5.9739	0.54545	0.	51.592
3802	6.1579	0.54545	0.	36.324
3803	6.3418	0.54545	0.	23.335
3804	6.5258	0.54545	0.	12.57
3805	6.7097	0.54545	0.	4.1492
3806	6.8936	0.54545	0.	0.59261
3807	7.0776	0.54545	0.	0.21922
3808	7.2615	0.54545	0.	0.12658
3809	7.4455	0.54545	0.	8.6609e-002
3810	7.6294	0.54545	0.	6.4701e-002
3811	7.8133	0.54545	0.	5.0936e-002
3812	7.9973	0.54545	0.	4.1482e-002
3813	8.1812	0.54545	0.	3.456e-002
3814	8.3652	0.54545	0.	2.9246e-002
3815	8.5491	0.54545	0.	2.5027e-002
3816	8.733	0.54545	0.	2.1588e-002
3817	8.917	0.54545	0.	1.872e-002
3818	9.1009	0.54545	0.	1.6291e-002
3819	9.2848	0.54545	0.	1.4212e-002
3820	9.4688	0.54545	0.	1.2415e-002
3821	9.6527	0.54545	0.	1.0843e-002
3822	9.8367	0.54545	0.	9.4791e-003
3823	10.021	0.54545	0.	8.2902e-003
3824	10.205	0.54545	0.	7.217e-003
3825	10.388	0.54545	0.	6.2877e-003
3826	10.572	0.54545	0.	5.5034e-003
3827	10.756	0.54545	0.	4.8732e-003
3828	10.94	0.54545	0.	4.5898e-003
3829	11.124	0.54545	0.	5.7509e-003
3830	11.308	0.54545	0.	0.36484
3831	11.492	0.54545	0.	1.373
3832	11.676	0.54545	0.	2.3321
3833	11.86	0.54545	0.	3.2408
3834	12.044	0.54545	0.	4.1011
3835	12.228	0.54545	0.	4.9156
3836	12.412	0.54545	0.	5.6871
3837	12.596	0.54545	0.	6.4183
3838	12.78	0.54545	0.	7.1119
3839	12.964	0.54545	0.	7.7707
3840	13.148	0.54545	0.	8.3976
3841	13.332	0.54545	0.	8.9951
3842	13.515	0.54545	0.	9.5659
3843	13.699	0.54545	0.	10.113
3844	13.883	0.54545	0.	10.637
3845	14.067	0.54545	0.	11.143
3846	14.251	0.54545	0.	11.631
3847	14.435	0.54545	0.	12.104
3848	14.619	0.54545	0.	12.565
3849	14.803	0.54545	0.	13.014
3850	14.987	0.54545	0.	13.455
3851	15.171	0.54545	0.	13.888
3852	15.355	0.54545	0.	14.317
3853	15.539	0.54545	0.	14.742
3854	15.723	0.54545	0.	15.165
3855	15.907	0.54545	0.	15.588
3856	16.091	0.54545	0.	16.014
3857	16.275	0.54545	0.	16.442
3858	16.458	0.54545	0.	16.876
3859	16.642	0.54545	0.	17.316
3860	16.826	0.54545	0.	17.765
3861	17.01	0.54545	0.	18.224
3862	17.194	0.54545	0.	18.694
3863	17.378	0.54545	0.	19.177
3864	17.562	0.54545	0.	19.676
3865	17.746	0.54545	0.	20.191
3866	17.93	0.54545	0.	20.724
3867	18.114	0.54545	0.	21.277
3868	18.298	0.54545	0.	21.852
3869	18.482	0.54545	0.	22.451
3870	18.666	0.54545	0.	23.076
3871	18.85	0.54545	0.	23.727
3872	19.034	0.54545	0.	24.408
3873	19.218	0.54545	0.	25.121
3874	19.402	0.54545	0.	25.866
3875	19.585	0.54545	0.	26.648
3876	19.769	0.54545	0.	27.467
3877	19.953	0.54545	0.	28.326
3878	20.137	0.54545	0.	29.227
3879	20.321	0.54545	0.	30.173
3880	20.505	0.54545	0.	31.168
3881	20.689	0.54545	0.	32.213
3882	20.873	0.54545	0.	33.313
3883	21.057	0.54545	0.	34.471
3884	21.241	0.54545	0.	35.693
3885	21.425	0.54545	0.	36.984
3886	21.609	0.54545	0.	38.353
3887	21.793	0.54545	0.	39.808
3888	21.977	0.54545	0.	41.362
3889	22.161	0.54545	0.	43.035
3890	22.345	0.54545	0.	44.85
3891	22.528	0.54545	0.	46.846
3892	22.712	0.54545	0.	49.075
3893	22.896	0.54545	0.	51.622
3894	23.08	0.54545	0.	54.619
3895	23.264	0.54545	0.	58.282
3896	23.448	0.54545	0.	62.943
3897	23.632	0.54545	0.	69.187
3898	23.816	0.54545	0.	77.612
3899	3.9506	0.36364	0.	314.48
3900	4.1345	0.36364	0.	174.79
3901	4.3185	0.36364	0.	152.73
3902	4.5024	0.36364	0.	150.59
3903	4.6864	0.36364	0.	147.22
3904	4.8703	0.36364	0.	139.
3905	5.0542	0.36364	0.	126.4
3906	5.2382	0.36364	0.	111.06
3907	5.4221	0.36364	0.	94.586
3908	5.6061	0.36364	0.	78.217
3909	5.79	0.36364	0.	62.801
3910	5.9739	0.36364	0.	48.836
3911	6.1579	0.36364	0.	36.565
3912	6.3418	0.36364	0.	26.05
3913	6.5258	0.36364	0.	17.242
3914	6.7097	0.36364	0.	10.03
3915	6.8936	0.36364	0.	4.3095
3916	7.0776	0.36364	0.	0.6664
3917	7.2615	0.36364	0.	0.16861
3918	7.4455	0.36364	0.	0.10304
3919	7.6294	0.36364	0.	8.1074e-002
3920	7.8133	0.36364	0.	7.0436e-002
3921	7.9973	0.36364	0.	6.3902e-002
3922	8.1812	0.36364	0.	5.9079e-002
3923	8.3652	0.36364	0.	5.5031e-002
3924	8.5491	0.36364	0.	5.1368e-002
3925	8.733	0.36364	0.	4.7919e-002
3926	8.917	0.36364	0.	4.4613e-002
3927	9.1009	0.36364	0.	4.1434e-002
3928	9.2848	0.36364	0.	3.8391e-002
3929	9.4688	0.36364	0.	3.5511e-002
3930	9.6527	0.36364	0.	3.2826e-002
3931	9.8367	0.36364	0.	3.043e-002
3932	10.021	0.36364	0.	2.8499e-002
3933	10.205	0.36364	0.	2.7616e-002
3934	10.388	0.36364	0.	3.2804e-002
3935	10.572	0.36364	0.	0.45674
3936	10.756	0.36364	0.	1.3583
3937	10.94	0.36364	0.	2.2322
3938	11.124	0.36364	0.	3.0704
3939	11.308	0.36364	0.	3.872
3940	11.492	0.36364	0.	4.6369
3941	11.676	0.36364	0.	5.3661
3942	11.86	0.36364	0.	6.0607
3943	12.044	0.36364	0.	6.722
3944	12.228	0.36364	0.	7.3519
3945	12.412	0.36364	0.	7.9521
3946	12.596	0.36364	0.	8.5246
3947	12.78	0.36364	0.	9.0711
3948	12.964	0.36364	0.	9.5938
3949	13.148	0.36364	0.	10.094
3950	13.332	0.36364	0.	10.575
3951	13.515	0.36364	0.	11.037
3952	13.699	0.36364	0.	11.483
3953	13.883	0.36364	0.	11.914
3954	14.067	0.36364	0.	12.332
3955	14.251	0.36364	0.	12.739
3956	14.435	0.36364	0.	13.135
3957	14.619	0.36364	0.	13.524
3958	14.803	0.36364	0.	13.905
3959	14.987	0.36364	0.	14.281
3960	15.171	0.36364	0.	14.653
3961	15.355	0.36364	0.	15.022
3962	15.539	0.36364	0.	15.39
3963	15.723	0.36364	0.	15.757
3964	15.907	0.36364	0.	16.126
3965	16.091	0.36364	0.	16.496
3966	16.275	0.36364	0.	16.87
3967	16.458	0.36364	0.	17.248
3968	16.642	0.36364	0.	17.632
3969	16.826	0.36364	0.	18.023
3970	17.01	0.36364	0.	18.421
3971	17.194	0.36364	0.	18.829
3972	17.378	0.36364	0.	19.246
3973	17.562	0.36364	0.	19.674
3974	17.746	0.36364	0.	20.115
3975	17.93	0.36364	0.	20.568
3976	18.114	0.36364	0.	21.036
3977	18.298	0.36364	0.	21.519
3978	18.482	0.36364	0.	22.018
3979	18.666	0.36364	0.	22.534
3980	18.85	0.36364	0.	23.069
3981	19.034	0.36364	0.	23.623
3982	19.218	0.36364	0.	24.196
3983	19.402	0.36364	0.	24.791
3984	19.585	0.36364	0.	25.407
3985	19.769	0.36364	0.	26.046
3986	19.953	0.36364	0.	26.708
3987	20.137	0.36364	0.	27.393
3988	20.321	0.36364	0.	28.104
3989	20.505	0.36364	0.	28.839
3990	20.689	0.36364	0.	29.6
3991	20.873	0.36364	0.	30.387
3992	21.057	0.36364	0.	31.201
3993	21.241	0.36364	0.	32.042
3994	21.425	0.36364	0.	32.911
3995	21.609	0.36364	0.	33.81
3996	21.793	0.36364	0.	34.74
3997	21.977	0.36364	0.	35.705
3998	22.161	0.36364	0.	36.709
3999	22.345	0.36364	0.	37.76
4000	22.528	0.36364	0.	38.872
4001	22.712	0.36364	0.	40.066
4002	22.896	0.36364	0.	41.383
4003	23.08	0.36364	0.	42.895
4004	23.264	0.36364	0.	44.743
4005	23.448	0.36364	0.	47.208
4006	23.632	0.36364	0.	50.992
4007	23.816	0.36364	0.	57.449
4008	3.9506	0.18182	0.	152.88
4009	4.1345	0.18182	0.	112.39
4010	4.3185	0.18182	0.	112.55
4011	4.5024	0.18182	0.	112.6
4012	4.6864	0.18182	0.	107.45
4013	4.8703	0.18182	0.	98.543
4014	5.0542	0.18182	0.	87.418
4015	5.2382	0.18182	0.	75.434
4016	5.4221	0.18182	0.	63.563
4017	5.6061	0.18182	0.	52.431
4018	5.79	0.18182	0.	42.383
4019	5.9739	0.18182	0.	33.572
4020	6.1579	0.18182	0.	26.021
4021	6.3418	0.18182	0.	19.677
4022	6.5258	0.18182	0.	14.443
4023	6.7097	0.18182	0.	10.206
4024	6.8936	0.18182	0.	6.847
4025	7.0776	0.18182	0.	4.2563
4026	7.2615	0.18182	0.	2.3447
4027	7.4455	0.18182	0.	1.0841
4028	7.6294	0.18182	0.	0.5019
4029	7.8133	0.18182	0.	0.32786
4030	7.9973	0.18182	0.	0.27604
4031	8.1812	0.18182	0.	0.26774
4032	8.3652	0.18182	0.	0.28853
4033	8.5491	0.18182	0.	0.34634
4034	8.733	0.18182	0.	0.47269
4035	8.917	0.18182	0.	0.72735
4036	9.1009	0.18182	0.	1.1461
4037	9.2848	0.18182	0.	1.69
4038	9.4688	0.18182	0.	2.305
4039	9.6527	0.18182	0.	2.9571
4040	9.8367	0.18182	0.	3.6263
4041	10.021	0.18182	0.	4.2999
4042	10.205	0.18182	0.	4.9693
4043	10.388	0.18182	0.	5.6286
4044	10.572	0.18182	0.	6.2736
4045	10.756	0.18182	0.	6.9014
4046	10.94	0.18182	0.	7.5103
4047	11.124	0.18182	0.	8.0992
4048	11.308	0.18182	0.	8.6675
4049	11.492	0.18182	0.	9.2154
4050	11.676	0.18182	0.	9.7431
4051	11.86	0.18182	0.	10.251
4052	12.044	0.18182	0.	10.741
4053	12.228	0.18182	0.	11.212
4054	12.412	0.18182	0.	11.667
4055	12.596	0.18182	0.	12.106
4056	12.78	0.18182	0.	12.531
4057	12.964	0.18182	0.	12.943
4058	13.148	0.18182	0.	13.342
4059	13.332	0.18182	0.	13.731
4060	13.515	0.18182	0.	14.109
4061	13.699	0.18182	0.	14.479
4062	13.883	0.18182	0.	14.841
4063	14.067	0.18182	0.	15.197
4064	14.251	0.18182	0.	15.548
4065	14.435	0.18182	0.	15.893
4066	14.619	0.18182	0.	16.236
4067	14.803	0.18182	0.	16.575
4068	14.987	0.18182	0.	16.913
4069	15.171	0.18182	0.	17.25
4070	15.355	0.18182	0.	17.587
4071	15.539	0.18182	0.	17.925
4072	15.723	0.18182	0.	18.265
4073	15.907	0.18182	0.	18.606
4074	16.091	0.18182	0.	18.951
4075	16.275	0.18182	0.	19.299
4076	16.458	0.18182	0.	19.652
4077	16.642	0.18182	0.	20.01
4078	16.826	0.18182	0.	20.374
4079	17.01	0.18182	0.	20.743
4080	17.194	0.18182	0.	21.119
4081	17.378	0.18182	0.	21.503
4082	17.562	0.18182	0.	21.894
4083	17.746	0.18182	0.	22.294
4084	17.93	0.18182	0.	22.701
4085	18.114	0.18182	0.	23.118
4086	18.298	0.18182	0.	23.544
4087	18.482	0.18182	0.	23.979
4088	18.666	0.18182	0.	24.423
4089	18.85	0.18182	0.	24.876
4090	19.034	0.18182	0.	25.339
4091	19.218	0.18182	0.	25.811
4092	19.402	0.18182	0.	26.291
4093	19.585	0.18182	0.	26.779
4094	19.769	0.18182	0.	27.274
4095	19.953	0.18182	0.	27.776
4096	20.137	0.18182	0.	28.283
4097	20.321	0.18182	0.	28.794
4098	20.505	0.18182	0.	29.306
4099	20.689	0.18182	0.	29.818
4100	20.873	0.18182	0.	30.326
4101	21.057	0.18182	0.	30.829
4102	21.241	0.18182	0.	31.321
4103	21.425	0.18182	0.	31.799
4104	21.609	0.18182	0.	32.257
4105	21.793	0.18182	0.	32.689
4106	21.977	0.18182	0.	33.088
4107	22.161	0.18182	0.	33.443
4108	22.345	0.18182	0.	33.745
4109	22.528	0.18182	0.	33.98
4110	22.712	0.18182	0.	34.133
4111	22.896	0.18182	0.	34.184
4112	23.08	0.18182	0.	34.113
4113	23.264	0.18182	0.	33.901
4114	23.448	0.18182	0.	33.552
4115	23.632	0.18182	0.	33.212
4116	23.816	0.18182	0.	34.186
4117	23.816	0.18182	0.1	36.997
4118	23.632	0.18182	0.1	72.697
4119	23.448	0.18182	0.1	110.5
4120	23.264	0.18182	0.1	148.96
4121	23.08	0.18182	0.1	187.81
4122	22.896	0.18182	0.1	226.93
4123	22.712	0.18182	0.1	266.24
4124	22.528	0.18182	0.1	305.73
4125	22.345	0.18182	0.1	345.36
4126	22.161	0.18182	0.1	385.12
4127	21.977	0.18182	0.1	425.
4128	21.793	0.18182	0.1	465.01
4129	21.609	0.18182	0.1	505.13
4130	21.425	0.18182	0.1	545.37
4131	21.241	0.18182	0.1	585.74
4132	21.057	0.18182	0.1	626.22
4133	20.873	0.18182	0.1	666.84
4134	20.689	0.18182	0.1	707.59
4135	20.505	0.18182	0.1	748.47
4136	20.321	0.18182	0.1	789.5
4137	20.137	0.18182	0.1	830.67
4138	19.953	0.18182	0.1	871.98
4139	19.769	0.18182	0.1	913.46
4140	19.585	0.18182	0.1	955.09
4141	19.402	0.18182	0.1	996.88
4142	19.218	0.18182	0.1	1038.8
4143	19.034	0.18182	0.1	1081.
4144	18.85	0.18182	0.1	1123.3
4145	18.666	0.18182	0.1	1165.7
4146	18.482	0.18182	0.1	1208.4
4147	18.298	0.18182	0.1	1251.2
4148	18.114	0.18182	0.1	1294.2
4149	17.93	0.18182	0.1	1337.4
4150	17.746	0.18182	0.1	1380.8
4151	17.562	0.18182	0.1	1424.3
4152	17.378	0.18182	0.1	1468.1
4153	17.194	0.18182	0.1	1512.
4154	17.01	0.18182	0.1	1556.2
4155	16.826	0.18182	0.1	1600.5
4156	16.642	0.18182	0.1	1645.
4157	16.458	0.18182	0.1	1689.7
4158	16.275	0.18182	0.1	1734.7
4159	16.091	0.18182	0.1	1779.8
4160	15.907	0.18182	0.1	1825.1
4161	15.723	0.18182	0.1	1870.6
4162	15.539	0.18182	0.1	1916.3
4163	15.355	0.18182	0.1	1962.3
4164	15.171	0.18182	0.1	2008.4
4165	14.987	0.18182	0.1	2054.7
4166	14.803	0.18182	0.1	2101.2
4167	14.619	0.18182	0.1	2148.
4168	14.435	0.18182	0.1	2194.9
4169	14.251	0.18182	0.1	2242.1
4170	14.067	0.18182	0.1	2289.4
4171	13.883	0.18182	0.1	2337.
4172	13.699	0.18182	0.1	2384.8
4173	13.515	0.18182	0.1	2432.8
4174	13.332	0.18182	0.1	2481.
4175	13.148	0.18182	0.1	2529.4
4176	12.964	0.18182	0.1	2578.
4177	12.78	0.18182	0.1	2626.9
4178	12.596	0.18182	0.1	2675.9
4179	12.412	0.18182	0.1	2725.2
4180	12.228	0.18182	0.1	2774.7
4181	12.044	0.18182	0.1	2824.4
4182	11.86	0.18182	0.1	2874.4
4183	11.676	0.18182	0.1	2924.5
4184	11.492	0.18182	0.1	2974.9
4185	11.308	0.18182	0.1	3025.5
4186	11.124	0.18182	0.1	3076.3
4187	10.94	0.18182	0.1	3127.4
4188	10.756	0.18182	0.1	3178.6
4189	10.572	0.18182	0.1	3230.
4190	10.388	0.18182	0.1	3281.7
4191	10.205	0.18182	0.1	3333.5
4192	10.021	0.18182	0.1	3385.5
4193	9.8367	0.18182	0.1	3437.6
4194	9.6527	0.18182	0.1	3489.8
4195	9.4688	0.18182	0.1	3542.1
4196	9.2848	0.18182	0.1	3594.4
4197	9.1009	0.18182	0.1	3646.6
4198	8.917	0.18182	0.1	3698.6
4199	8.733	0.18182	0.1	3750.4
4200	8.5491	0.18182	0.1	3801.7
4201	8.3652	0.18182	0.1	3852.3
4202	8.1812	0.18182	0.1	3902.1
4203	7.9973	0.18182	0.1	3950.5
4204	7.8133	0.18182	0.1	3997.2
4205	7.6294	0.18182	0.1	4041.7
4206	7.4455	0.18182	0.1	4083.3
4207	7.2615	0.18182	0.1	4121.
4208	7.0776	0.18182	0.1	4153.8
4209	6.8936	0.18182	0.1	4180.3
4210	6.7097	0.18182	0.1	4198.7
4211	6.5258	0.18182	0.1	4207.
4212	6.3418	0.18182	0.1	4202.6
4213	6.1579	0.18182	0.1	4182.1
4214	5.9739	0.18182	0.1	4141.9
4215	5.79	0.18182	0.1	4077.2
4216	5.6061	0.18182	0.1	3982.7
4217	5.4221	0.18182	0.1	3852.3
4218	5.2382	0.18182	0.1	3679.3
4219	5.0542	0.18182	0.1	3456.6
4220	4.8703	0.18182	0.1	3177.7
4221	4.6864	0.18182	0.1	2836.9
4222	4.5024	0.18182	0.1	2431.4
4223	4.3185	0.18182	0.1	1962.6
4224	4.1345	0.18182	0.1	1438.9
4225	3.9506	0.18182	0.1	919.74
4226	23.816	0.36364	0.1	38.015
4227	23.632	0.36364	0.1	72.796
4228	23.448	0.36364	0.1	109.44
4229	23.264	0.36364	0.1	147.1
4230	23.08	0.36364	0.1	185.39
4231	22.896	0.36364	0.1	224.1
4232	22.712	0.36364	0.1	263.12
4233	22.528	0.36364	0.1	302.37
4234	22.345	0.36364	0.1	341.81
4235	22.161	0.36364	0.1	381.43
4236	21.977	0.36364	0.1	421.19
4237	21.793	0.36364	0.1	461.1
4238	21.609	0.36364	0.1	501.15
4239	21.425	0.36364	0.1	541.34
4240	21.241	0.36364	0.1	581.65
4241	21.057	0.36364	0.1	622.11
4242	20.873	0.36364	0.1	662.7
4243	20.689	0.36364	0.1	703.43
4244	20.505	0.36364	0.1	744.31
4245	20.321	0.36364	0.1	785.33
4246	20.137	0.36364	0.1	826.5
4247	19.953	0.36364	0.1	867.83
4248	19.769	0.36364	0.1	909.32
4249	19.585	0.36364	0.1	950.96
4250	19.402	0.36364	0.1	992.78
4251	19.218	0.36364	0.1	1034.8
4252	19.034	0.36364	0.1	1076.9
4253	18.85	0.36364	0.1	1119.2
4254	18.666	0.36364	0.1	1161.7
4255	18.482	0.36364	0.1	1204.4
4256	18.298	0.36364	0.1	1247.3
4257	18.114	0.36364	0.1	1290.3
4258	17.93	0.36364	0.1	1333.5
4259	17.746	0.36364	0.1	1376.9
4260	17.562	0.36364	0.1	1420.5
4261	17.378	0.36364	0.1	1464.3
4262	17.194	0.36364	0.1	1508.3
4263	17.01	0.36364	0.1	1552.5
4264	16.826	0.36364	0.1	1596.9
4265	16.642	0.36364	0.1	1641.4
4266	16.458	0.36364	0.1	1686.2
4267	16.275	0.36364	0.1	1731.1
4268	16.091	0.36364	0.1	1776.3
4269	15.907	0.36364	0.1	1821.6
4270	15.723	0.36364	0.1	1867.2
4271	15.539	0.36364	0.1	1912.9
4272	15.355	0.36364	0.1	1958.9
4273	15.171	0.36364	0.1	2005.
4274	14.987	0.36364	0.1	2051.4
4275	14.803	0.36364	0.1	2097.9
4276	14.619	0.36364	0.1	2144.7
4277	14.435	0.36364	0.1	2191.6
4278	14.251	0.36364	0.1	2238.8
4279	14.067	0.36364	0.1	2286.2
4280	13.883	0.36364	0.1	2333.8
4281	13.699	0.36364	0.1	2381.6
4282	13.515	0.36364	0.1	2429.6
4283	13.332	0.36364	0.1	2477.8
4284	13.148	0.36364	0.1	2526.2
4285	12.964	0.36364	0.1	2574.8
4286	12.78	0.36364	0.1	2623.7
4287	12.596	0.36364	0.1	2672.7
4288	12.412	0.36364	0.1	2722.
4289	12.228	0.36364	0.1	2771.5
4290	12.044	0.36364	0.1	2821.2
4291	11.86	0.36364	0.1	2871.1
4292	11.676	0.36364	0.1	2921.3
4293	11.492	0.36364	0.1	2971.6
4294	11.308	0.36364	0.1	3022.2
4295	11.124	0.36364	0.1	3073.
4296	10.94	0.36364	0.1	3124.
4297	10.756	0.36364	0.1	3175.2
4298	10.572	0.36364	0.1	3226.6
4299	10.388	0.36364	0.1	3278.2
4300	10.205	0.36364	0.1	3330.
4301	10.021	0.36364	0.1	3381.9
4302	9.8367	0.36364	0.1	3434.
4303	9.6527	0.36364	0.1	3486.2
4304	9.4688	0.36364	0.1	3538.5
4305	9.2848	0.36364	0.1	3590.8
4306	9.1009	0.36364	0.1	3643.
4307	8.917	0.36364	0.1	3695.2
4308	8.733	0.36364	0.1	3747.
4309	8.5491	0.36364	0.1	3798.5
4310	8.3652	0.36364	0.1	3849.5
4311	8.1812	0.36364	0.1	3899.6
4312	7.9973	0.36364	0.1	3948.5
4313	7.8133	0.36364	0.1	3996.
4314	7.6294	0.36364	0.1	4041.4
4315	7.4455	0.36364	0.1	4084.1
4316	7.2615	0.36364	0.1	4123.3
4317	7.0776	0.36364	0.1	4158.1
4318	6.8936	0.36364	0.1	4186.9
4319	6.7097	0.36364	0.1	4208.4
4320	6.5258	0.36364	0.1	4220.4
4321	6.3418	0.36364	0.1	4220.4
4322	6.1579	0.36364	0.1	4205.5
4323	5.9739	0.36364	0.1	4171.7
4324	5.79	0.36364	0.1	4114.7
4325	5.6061	0.36364	0.1	4029.1
4326	5.4221	0.36364	0.1	3908.7
4327	5.2382	0.36364	0.1	3746.7
4328	5.0542	0.36364	0.1	3535.9
4329	4.8703	0.36364	0.1	3269.2
4330	4.6864	0.36364	0.1	2941.6
4331	4.5024	0.36364	0.1	2551.7
4332	4.3185	0.36364	0.1	2107.7
4333	4.1345	0.36364	0.1	1639.7
4334	3.9506	0.36364	0.1	1273.2
4335	23.816	0.54545	0.1	38.871
4336	23.632	0.54545	0.1	74.348
4337	23.448	0.54545	0.1	110.87
4338	23.264	0.54545	0.1	148.16
4339	23.08	0.54545	0.1	186.08
4340	22.896	0.54545	0.1	224.48
4341	22.712	0.54545	0.1	263.22
4342	22.528	0.54545	0.1	302.25
4343	22.345	0.54545	0.1	341.51
4344	22.161	0.54545	0.1	380.97
4345	21.977	0.54545	0.1	420.6
4346	21.793	0.54545	0.1	460.39
4347	21.609	0.54545	0.1	500.34
4348	21.425	0.54545	0.1	540.43
4349	21.241	0.54545	0.1	580.67
4350	21.057	0.54545	0.1	621.05
4351	20.873	0.54545	0.1	661.58
4352	20.689	0.54545	0.1	702.26
4353	20.505	0.54545	0.1	743.09
4354	20.321	0.54545	0.1	784.07
4355	20.137	0.54545	0.1	825.21
4356	19.953	0.54545	0.1	866.5
4357	19.769	0.54545	0.1	907.96
4358	19.585	0.54545	0.1	949.59
4359	19.402	0.54545	0.1	991.38
4360	19.218	0.54545	0.1	1033.3
4361	19.034	0.54545	0.1	1075.5
4362	18.85	0.54545	0.1	1117.8
4363	18.666	0.54545	0.1	1160.3
4364	18.482	0.54545	0.1	1202.9
4365	18.298	0.54545	0.1	1245.8
4366	18.114	0.54545	0.1	1288.8
4367	17.93	0.54545	0.1	1332.1
4368	17.746	0.54545	0.1	1375.5
4369	17.562	0.54545	0.1	1419.1
4370	17.378	0.54545	0.1	1462.9
4371	17.194	0.54545	0.1	1506.8
4372	17.01	0.54545	0.1	1551.
4373	16.826	0.54545	0.1	1595.4
4374	16.642	0.54545	0.1	1639.9
4375	16.458	0.54545	0.1	1684.7
4376	16.275	0.54545	0.1	1729.7
4377	16.091	0.54545	0.1	1774.8
4378	15.907	0.54545	0.1	1820.2
4379	15.723	0.54545	0.1	1865.7
4380	15.539	0.54545	0.1	1911.5
4381	15.355	0.54545	0.1	1957.4
4382	15.171	0.54545	0.1	2003.5
4383	14.987	0.54545	0.1	2049.9
4384	14.803	0.54545	0.1	2096.4
4385	14.619	0.54545	0.1	2143.2
4386	14.435	0.54545	0.1	2190.2
4387	14.251	0.54545	0.1	2237.3
4388	14.067	0.54545	0.1	2284.7
4389	13.883	0.54545	0.1	2332.2
4390	13.699	0.54545	0.1	2380.
4391	13.515	0.54545	0.1	2428.
4392	13.332	0.54545	0.1	2476.2
4393	13.148	0.54545	0.1	2524.6
4394	12.964	0.54545	0.1	2573.2
4395	12.78	0.54545	0.1	2622.
4396	12.596	0.54545	0.1	2671.
4397	12.412	0.54545	0.1	2720.3
4398	12.228	0.54545	0.1	2769.7
4399	12.044	0.54545	0.1	2819.4
4400	11.86	0.54545	0.1	2869.3
4401	11.676	0.54545	0.1	2919.3
4402	11.492	0.54545	0.1	2969.6
4403	11.308	0.54545	0.1	3020.1
4404	11.124	0.54545	0.1	3070.9
4405	10.94	0.54545	0.1	3121.8
4406	10.756	0.54545	0.1	3172.9
4407	10.572	0.54545	0.1	3224.3
4408	10.388	0.54545	0.1	3275.8
4409	10.205	0.54545	0.1	3327.5
4410	10.021	0.54545	0.1	3379.4
4411	9.8367	0.54545	0.1	3431.4
4412	9.6527	0.54545	0.1	3483.6
4413	9.4688	0.54545	0.1	3535.8
4414	9.2848	0.54545	0.1	3588.1
4415	9.1009	0.54545	0.1	3640.4
4416	8.917	0.54545	0.1	3692.6
4417	8.733	0.54545	0.1	3744.7
4418	8.5491	0.54545	0.1	3796.4
4419	8.3652	0.54545	0.1	3847.6
4420	8.1812	0.54545	0.1	3898.2
4421	7.9973	0.54545	0.1	3947.8
4422	7.8133	0.54545	0.1	3996.1
4423	7.6294	0.54545	0.1	4042.7
4424	7.4455	0.54545	0.1	4086.9
4425	7.2615	0.54545	0.1	4128.
4426	7.0776	0.54545	0.1	4165.2
4427	6.8936	0.54545	0.1	4197.2
4428	6.7097	0.54545	0.1	4222.5
4429	6.5258	0.54545	0.1	4239.4
4430	6.3418	0.54545	0.1	4245.5
4431	6.1579	0.54545	0.1	4238.
4432	5.9739	0.54545	0.1	4213.3
4433	5.79	0.54545	0.1	4167.3
4434	5.6061	0.54545	0.1	4094.9
4435	5.4221	0.54545	0.1	3990.1
4436	5.2382	0.54545	0.1	3846.2
4437	5.0542	0.54545	0.1	3656.1
4438	4.8703	0.54545	0.1	3413.
4439	4.6864	0.54545	0.1	3112.2
4440	4.5024	0.54545	0.1	2754.7
4441	4.3185	0.54545	0.1	2354.9
4442	4.1345	0.54545	0.1	1954.2
4443	3.9506	0.54545	0.1	1687.6
4444	23.816	0.72727	0.1	39.389
4445	23.632	0.72727	0.1	75.593
4446	23.448	0.72727	0.1	112.37
4447	23.264	0.72727	0.1	149.61
4448	23.08	0.72727	0.1	187.34
4449	22.896	0.72727	0.1	225.49
4450	22.712	0.72727	0.1	264.
4451	22.528	0.72727	0.1	302.81
4452	22.345	0.72727	0.1	341.87
4453	22.161	0.72727	0.1	381.14
4454	21.977	0.72727	0.1	420.61
4455	21.793	0.72727	0.1	460.26
4456	21.609	0.72727	0.1	500.08
4457	21.425	0.72727	0.1	540.06
4458	21.241	0.72727	0.1	580.2
4459	21.057	0.72727	0.1	620.49
4460	20.873	0.72727	0.1	660.94
4461	20.689	0.72727	0.1	701.55
4462	20.505	0.72727	0.1	742.31
4463	20.321	0.72727	0.1	783.23
4464	20.137	0.72727	0.1	824.32
4465	19.953	0.72727	0.1	865.57
4466	19.769	0.72727	0.1	906.98
4467	19.585	0.72727	0.1	948.57
4468	19.402	0.72727	0.1	990.33
4469	19.218	0.72727	0.1	1032.3
4470	19.034	0.72727	0.1	1074.4
4471	18.85	0.72727	0.1	1116.7
4472	18.666	0.72727	0.1	1159.1
4473	18.482	0.72727	0.1	1201.8
4474	18.298	0.72727	0.1	1244.6
4475	18.114	0.72727	0.1	1287.7
4476	17.93	0.72727	0.1	1330.9
4477	17.746	0.72727	0.1	1374.3
4478	17.562	0.72727	0.1	1417.9
4479	17.378	0.72727	0.1	1461.6
4480	17.194	0.72727	0.1	1505.6
4481	17.01	0.72727	0.1	1549.8
4482	16.826	0.72727	0.1	1594.2
4483	16.642	0.72727	0.1	1638.7
4484	16.458	0.72727	0.1	1683.5
4485	16.275	0.72727	0.1	1728.4
4486	16.091	0.72727	0.1	1773.6
4487	15.907	0.72727	0.1	1818.9
4488	15.723	0.72727	0.1	1864.5
4489	15.539	0.72727	0.1	1910.2
4490	15.355	0.72727	0.1	1956.1
4491	15.171	0.72727	0.1	2002.3
4492	14.987	0.72727	0.1	2048.6
4493	14.803	0.72727	0.1	2095.2
4494	14.619	0.72727	0.1	2141.9
4495	14.435	0.72727	0.1	2188.9
4496	14.251	0.72727	0.1	2236.
4497	14.067	0.72727	0.1	2283.4
4498	13.883	0.72727	0.1	2330.9
4499	13.699	0.72727	0.1	2378.7
4500	13.515	0.72727	0.1	2426.6
4501	13.332	0.72727	0.1	2474.8
4502	13.148	0.72727	0.1	2523.2
4503	12.964	0.72727	0.1	2571.7
4504	12.78	0.72727	0.1	2620.5
4505	12.596	0.72727	0.1	2669.5
4506	12.412	0.72727	0.1	2718.7
4507	12.228	0.72727	0.1	2768.1
4508	12.044	0.72727	0.1	2817.7
4509	11.86	0.72727	0.1	2867.6
4510	11.676	0.72727	0.1	2917.6
4511	11.492	0.72727	0.1	2967.8
4512	11.308	0.72727	0.1	3018.3
4513	11.124	0.72727	0.1	3068.9
4514	10.94	0.72727	0.1	3119.8
4515	10.756	0.72727	0.1	3170.8
4516	10.572	0.72727	0.1	3222.1
4517	10.388	0.72727	0.1	3273.6
4518	10.205	0.72727	0.1	3325.2
4519	10.021	0.72727	0.1	3377.
4520	9.8367	0.72727	0.1	3429.
4521	9.6527	0.72727	0.1	3481.1
4522	9.4688	0.72727	0.1	3533.4
4523	9.2848	0.72727	0.1	3585.7
4524	9.1009	0.72727	0.1	3638.
4525	8.917	0.72727	0.1	3690.3
4526	8.733	0.72727	0.1	3742.5
4527	8.5491	0.72727	0.1	3794.5
4528	8.3652	0.72727	0.1	3846.2
4529	8.1812	0.72727	0.1	3897.3
4530	7.9973	0.72727	0.1	3947.7
4531	7.8133	0.72727	0.1	3997.
4532	7.6294	0.72727	0.1	4044.9
4533	7.4455	0.72727	0.1	4090.8
4534	7.2615	0.72727	0.1	4134.3
4535	7.0776	0.72727	0.1	4174.3
4536	6.8936	0.72727	0.1	4210.1
4537	6.7097	0.72727	0.1	4240.2
4538	6.5258	0.72727	0.1	4263.
4539	6.3418	0.72727	0.1	4276.6
4540	6.1579	0.72727	0.1	4278.4
4541	5.9739	0.72727	0.1	4265.3
4542	5.79	0.72727	0.1	4233.6
4543	5.6061	0.72727	0.1	4178.5
4544	5.4221	0.72727	0.1	4094.8
4545	5.2382	0.72727	0.1	3976.1
4546	5.0542	0.72727	0.1	3815.6
4547	4.8703	0.72727	0.1	3606.9
4548	4.6864	0.72727	0.1	3345.8
4549	4.5024	0.72727	0.1	3034.
4550	4.3185	0.72727	0.1	2686.9
4551	4.1345	0.72727	0.1	2344.2
4552	3.9506	0.72727	0.1	2140.2
4553	23.816	0.90909	0.1	39.657
4554	23.632	0.90909	0.1	76.474
4555	23.448	0.90909	0.1	113.61
4556	23.264	0.90909	0.1	150.98
4557	23.08	0.90909	0.1	188.67
4558	22.896	0.90909	0.1	226.69
4559	22.712	0.90909	0.1	265.03
4560	22.528	0.90909	0.1	303.66
4561	22.345	0.90909	0.1	342.54
4562	22.161	0.90909	0.1	381.64
4563	21.977	0.90909	0.1	420.95
4564	21.793	0.90909	0.1	460.45
4565	21.609	0.90909	0.1	500.13
4566	21.425	0.90909	0.1	539.99
4567	21.241	0.90909	0.1	580.01
4568	21.057	0.90909	0.1	620.2
4569	20.873	0.90909	0.1	660.56
4570	20.689	0.90909	0.1	701.08
4571	20.505	0.90909	0.1	741.77
4572	20.321	0.90909	0.1	782.62
4573	20.137	0.90909	0.1	823.64
4574	19.953	0.90909	0.1	864.84
4575	19.769	0.90909	0.1	906.21
4576	19.585	0.90909	0.1	947.75
4577	19.402	0.90909	0.1	989.47
4578	19.218	0.90909	0.1	1031.4
4579	19.034	0.90909	0.1	1073.5
4580	18.85	0.90909	0.1	1115.7
4581	18.666	0.90909	0.1	1158.2
4582	18.482	0.90909	0.1	1200.8
4583	18.298	0.90909	0.1	1243.6
4584	18.114	0.90909	0.1	1286.6
4585	17.93	0.90909	0.1	1329.8
4586	17.746	0.90909	0.1	1373.2
4587	17.562	0.90909	0.1	1416.8
4588	17.378	0.90909	0.1	1460.6
4589	17.194	0.90909	0.1	1504.5
4590	17.01	0.90909	0.1	1548.7
4591	16.826	0.90909	0.1	1593.1
4592	16.642	0.90909	0.1	1637.6
4593	16.458	0.90909	0.1	1682.4
4594	16.275	0.90909	0.1	1727.3
4595	16.091	0.90909	0.1	1772.5
4596	15.907	0.90909	0.1	1817.8
4597	15.723	0.90909	0.1	1863.3
4598	15.539	0.90909	0.1	1909.1
4599	15.355	0.90909	0.1	1955.
4600	15.171	0.90909	0.1	2001.1
4601	14.987	0.90909	0.1	2047.5
4602	14.803	0.90909	0.1	2094.
4603	14.619	0.90909	0.1	2140.7
4604	14.435	0.90909	0.1	2187.7
4605	14.251	0.90909	0.1	2234.8
4606	14.067	0.90909	0.1	2282.1
4607	13.883	0.90909	0.1	2329.7
4608	13.699	0.90909	0.1	2377.4
4609	13.515	0.90909	0.1	2425.4
4610	13.332	0.90909	0.1	2473.5
4611	13.148	0.90909	0.1	2521.8
4612	12.964	0.90909	0.1	2570.4
4613	12.78	0.90909	0.1	2619.1
4614	12.596	0.90909	0.1	2668.1
4615	12.412	0.90909	0.1	2717.3
4616	12.228	0.90909	0.1	2766.6
4617	12.044	0.90909	0.1	2816.2
4618	11.86	0.90909	0.1	2866.
4619	11.676	0.90909	0.1	2915.9
4620	11.492	0.90909	0.1	2966.1
4621	11.308	0.90909	0.1	3016.5
4622	11.124	0.90909	0.1	3067.1
4623	10.94	0.90909	0.1	3117.9
4624	10.756	0.90909	0.1	3168.9
4625	10.572	0.90909	0.1	3220.1
4626	10.388	0.90909	0.1	3271.4
4627	10.205	0.90909	0.1	3323.
4628	10.021	0.90909	0.1	3374.8
4629	9.8367	0.90909	0.1	3426.7
4630	9.6527	0.90909	0.1	3478.8
4631	9.4688	0.90909	0.1	3531.
4632	9.2848	0.90909	0.1	3583.4
4633	9.1009	0.90909	0.1	3635.8
4634	8.917	0.90909	0.1	3688.2
4635	8.733	0.90909	0.1	3740.6
4636	8.5491	0.90909	0.1	3792.9
4637	8.3652	0.90909	0.1	3845.
4638	8.1812	0.90909	0.1	3896.7
4639	7.9973	0.90909	0.1	3948.
4640	7.8133	0.90909	0.1	3998.4
4641	7.6294	0.90909	0.1	4047.8
4642	7.4455	0.90909	0.1	4095.7
4643	7.2615	0.90909	0.1	4141.7
4644	7.0776	0.90909	0.1	4185.1
4645	6.8936	0.90909	0.1	4225.1
4646	6.7097	0.90909	0.1	4260.6
4647	6.5258	0.90909	0.1	4290.4
4648	6.3418	0.90909	0.1	4312.8
4649	6.1579	0.90909	0.1	4325.6
4650	5.9739	0.90909	0.1	4326.4
4651	5.79	0.90909	0.1	4311.9
4652	5.6061	0.90909	0.1	4278.2
4653	5.4221	0.90909	0.1	4220.8
4654	5.2382	0.90909	0.1	4134.3
4655	5.0542	0.90909	0.1	4012.7
4656	4.8703	0.90909	0.1	3850.1
4657	4.6864	0.90909	0.1	3642.
4658	4.5024	0.90909	0.1	3388.9
4659	4.3185	0.90909	0.1	3101.6
4660	4.1345	0.90909	0.1	2809.6
4661	3.9506	0.90909	0.1	2651.3
4662	23.816	1.0909	0.1	39.793
4663	23.632	1.0909	0.1	77.099
4664	23.448	1.0909	0.1	114.59
4665	23.264	1.0909	0.1	152.16
4666	23.08	1.0909	0.1	189.91
4667	22.896	1.0909	0.1	227.9
4668	22.712	1.0909	0.1	266.15
4669	22.528	1.0909	0.1	304.64
4670	22.345	1.0909	0.1	343.38
4671	22.161	1.0909	0.1	382.33
4672	21.977	1.0909	0.1	421.49
4673	21.793	1.0909	0.1	460.85
4674	21.609	1.0909	0.1	500.4
4675	21.425	1.0909	0.1	540.13
4676	21.241	1.0909	0.1	580.04
4677	21.057	1.0909	0.1	620.12
4678	20.873	1.0909	0.1	660.38
4679	20.689	1.0909	0.1	700.81
4680	20.505	1.0909	0.1	741.41
4681	20.321	1.0909	0.1	782.19
4682	20.137	1.0909	0.1	823.15
4683	19.953	1.0909	0.1	864.28
4684	19.769	1.0909	0.1	905.6
4685	19.585	1.0909	0.1	947.09
4686	19.402	1.0909	0.1	988.77
4687	19.218	1.0909	0.1	1030.6
4688	19.034	1.0909	0.1	1072.7
4689	18.85	1.0909	0.1	1114.9
4690	18.666	1.0909	0.1	1157.3
4691	18.482	1.0909	0.1	1199.9
4692	18.298	1.0909	0.1	1242.7
4693	18.114	1.0909	0.1	1285.7
4694	17.93	1.0909	0.1	1328.9
4695	17.746	1.0909	0.1	1372.3
4696	17.562	1.0909	0.1	1415.9
4697	17.378	1.0909	0.1	1459.6
4698	17.194	1.0909	0.1	1503.6
4699	17.01	1.0909	0.1	1547.7
4700	16.826	1.0909	0.1	1592.1
4701	16.642	1.0909	0.1	1636.6
4702	16.458	1.0909	0.1	1681.4
4703	16.275	1.0909	0.1	1726.3
4704	16.091	1.0909	0.1	1771.4
4705	15.907	1.0909	0.1	1816.8
4706	15.723	1.0909	0.1	1862.3
4707	15.539	1.0909	0.1	1908.
4708	15.355	1.0909	0.1	1954.
4709	15.171	1.0909	0.1	2000.1
4710	14.987	1.0909	0.1	2046.4
4711	14.803	1.0909	0.1	2092.9
4712	14.619	1.0909	0.1	2139.7
4713	14.435	1.0909	0.1	2186.6
4714	14.251	1.0909	0.1	2233.7
4715	14.067	1.0909	0.1	2281.
4716	13.883	1.0909	0.1	2328.5
4717	13.699	1.0909	0.1	2376.3
4718	13.515	1.0909	0.1	2424.2
4719	13.332	1.0909	0.1	2472.3
4720	13.148	1.0909	0.1	2520.6
4721	12.964	1.0909	0.1	2569.1
4722	12.78	1.0909	0.1	2617.9
4723	12.596	1.0909	0.1	2666.8
4724	12.412	1.0909	0.1	2715.9
4725	12.228	1.0909	0.1	2765.2
4726	12.044	1.0909	0.1	2814.7
4727	11.86	1.0909	0.1	2864.5
4728	11.676	1.0909	0.1	2914.4
4729	11.492	1.0909	0.1	2964.5
4730	11.308	1.0909	0.1	3014.8
4731	11.124	1.0909	0.1	3065.4
4732	10.94	1.0909	0.1	3116.1
4733	10.756	1.0909	0.1	3167.
4734	10.572	1.0909	0.1	3218.1
4735	10.388	1.0909	0.1	3269.5
4736	10.205	1.0909	0.1	3321.
4737	10.021	1.0909	0.1	3372.7
4738	9.8367	1.0909	0.1	3424.5
4739	9.6527	1.0909	0.1	3476.6
4740	9.4688	1.0909	0.1	3528.8
4741	9.2848	1.0909	0.1	3581.2
4742	9.1009	1.0909	0.1	3633.6
4743	8.917	1.0909	0.1	3686.2
4744	8.733	1.0909	0.1	3738.8
4745	8.5491	1.0909	0.1	3791.5
4746	8.3652	1.0909	0.1	3844.
4747	8.1812	1.0909	0.1	3896.4
4748	7.9973	1.0909	0.1	3948.5
4749	7.8133	1.0909	0.1	4000.2
4750	7.6294	1.0909	0.1	4051.2
4751	7.4455	1.0909	0.1	4101.2
4752	7.2615	1.0909	0.1	4150.
4753	7.0776	1.0909	0.1	4197.
4754	6.8936	1.0909	0.1	4241.7
4755	6.7097	1.0909	0.1	4283.3
4756	6.5258	1.0909	0.1	4320.7
4757	6.3418	1.0909	0.1	4352.9
4758	6.1579	1.0909	0.1	4378.2
4759	5.9739	1.0909	0.1	4394.7
4760	5.79	1.0909	0.1	4400.1
4761	5.6061	1.0909	0.1	4391.4
4762	5.4221	1.0909	0.1	4365.3
4763	5.2382	1.0909	0.1	4317.6
4764	5.0542	1.0909	0.1	4243.8
4765	4.8703	1.0909	0.1	4139.2
4766	4.6864	1.0909	0.1	3999.3
4767	4.5024	1.0909	0.1	3821.5
4768	4.3185	1.0909	0.1	3607.6
4769	4.1345	1.0909	0.1	3370.7
4770	3.9506	1.0909	0.1	3255.8
4771	23.816	1.2727	0.1	39.851
4772	23.632	1.2727	0.1	77.545
4773	23.448	1.2727	0.1	115.35
4774	23.264	1.2727	0.1	153.13
4775	23.08	1.2727	0.1	191.
4776	22.896	1.2727	0.1	229.02
4777	22.712	1.2727	0.1	267.23
4778	22.528	1.2727	0.1	305.65
4779	22.345	1.2727	0.1	344.28
4780	22.161	1.2727	0.1	383.12
4781	21.977	1.2727	0.1	422.15
4782	21.793	1.2727	0.1	461.38
4783	21.609	1.2727	0.1	500.81
4784	21.425	1.2727	0.1	540.42
4785	21.241	1.2727	0.1	580.21
4786	21.057	1.2727	0.1	620.19
4787	20.873	1.2727	0.1	660.35
4788	20.689	1.2727	0.1	700.69
4789	20.505	1.2727	0.1	741.21
4790	20.321	1.2727	0.1	781.92
4791	20.137	1.2727	0.1	822.8
4792	19.953	1.2727	0.1	863.87
4793	19.769	1.2727	0.1	905.13
4794	19.585	1.2727	0.1	946.57
4795	19.402	1.2727	0.1	988.2
4796	19.218	1.2727	0.1	1030.
4797	19.034	1.2727	0.1	1072.
4798	18.85	1.2727	0.1	1114.2
4799	18.666	1.2727	0.1	1156.6
4800	18.482	1.2727	0.1	1199.2
4801	18.298	1.2727	0.1	1242.
4802	18.114	1.2727	0.1	1284.9
4803	17.93	1.2727	0.1	1328.1
4804	17.746	1.2727	0.1	1371.5
4805	17.562	1.2727	0.1	1415.
4806	17.378	1.2727	0.1	1458.8
4807	17.194	1.2727	0.1	1502.7
4808	17.01	1.2727	0.1	1546.9
4809	16.826	1.2727	0.1	1591.2
4810	16.642	1.2727	0.1	1635.7
4811	16.458	1.2727	0.1	1680.5
4812	16.275	1.2727	0.1	1725.4
4813	16.091	1.2727	0.1	1770.5
4814	15.907	1.2727	0.1	1815.9
4815	15.723	1.2727	0.1	1861.4
4816	15.539	1.2727	0.1	1907.1
4817	15.355	1.2727	0.1	1953.
4818	15.171	1.2727	0.1	1999.1
4819	14.987	1.2727	0.1	2045.5
4820	14.803	1.2727	0.1	2092.
4821	14.619	1.2727	0.1	2138.7
4822	14.435	1.2727	0.1	2185.6
4823	14.251	1.2727	0.1	2232.7
4824	14.067	1.2727	0.1	2280.
4825	13.883	1.2727	0.1	2327.5
4826	13.699	1.2727	0.1	2375.2
4827	13.515	1.2727	0.1	2423.1
4828	13.332	1.2727	0.1	2471.2
4829	13.148	1.2727	0.1	2519.5
4830	12.964	1.2727	0.1	2568.
4831	12.78	1.2727	0.1	2616.7
4832	12.596	1.2727	0.1	2665.6
4833	12.412	1.2727	0.1	2714.6
4834	12.228	1.2727	0.1	2763.9
4835	12.044	1.2727	0.1	2813.4
4836	11.86	1.2727	0.1	2863.1
4837	11.676	1.2727	0.1	2912.9
4838	11.492	1.2727	0.1	2963.
4839	11.308	1.2727	0.1	3013.3
4840	11.124	1.2727	0.1	3063.7
4841	10.94	1.2727	0.1	3114.4
4842	10.756	1.2727	0.1	3165.3
4843	10.572	1.2727	0.1	3216.3
4844	10.388	1.2727	0.1	3267.6
4845	10.205	1.2727	0.1	3319.
4846	10.021	1.2727	0.1	3370.7
4847	9.8367	1.2727	0.1	3422.5
4848	9.6527	1.2727	0.1	3474.5
4849	9.4688	1.2727	0.1	3526.7
4850	9.2848	1.2727	0.1	3579.1
4851	9.1009	1.2727	0.1	3631.7
4852	8.917	1.2727	0.1	3684.4
4853	8.733	1.2727	0.1	3737.2
4854	8.5491	1.2727	0.1	3790.2
4855	8.3652	1.2727	0.1	3843.2
4856	8.1812	1.2727	0.1	3896.3
4857	7.9973	1.2727	0.1	3949.3
4858	7.8133	1.2727	0.1	4002.2
4859	7.6294	1.2727	0.1	4054.8
4860	7.4455	1.2727	0.1	4107.1
4861	7.2615	1.2727	0.1	4158.8
4862	7.0776	1.2727	0.1	4209.6
4863	6.8936	1.2727	0.1	4259.3
4864	6.7097	1.2727	0.1	4307.2
4865	6.5258	1.2727	0.1	4353.
4866	6.3418	1.2727	0.1	4395.7
4867	6.1579	1.2727	0.1	4434.6
4868	5.9739	1.2727	0.1	4468.3
4869	5.79	1.2727	0.1	4495.7
4870	5.6061	1.2727	0.1	4514.8
4871	5.4221	1.2727	0.1	4523.9
4872	5.2382	1.2727	0.1	4520.8
4873	5.0542	1.2727	0.1	4503.1
4874	4.8703	1.2727	0.1	4468.2
4875	4.6864	1.2727	0.1	4413.3
4876	4.5024	1.2727	0.1	4334.
4877	4.3185	1.2727	0.1	4222.2
4878	4.1345	1.2727	0.1	4068.7
4879	3.9506	1.2727	0.1	4009.4
4880	23.816	1.4545	0.1	39.863
4881	23.632	1.4545	0.1	77.866
4882	23.448	1.4545	0.1	115.94
4883	23.264	1.4545	0.1	153.92
4884	23.08	1.4545	0.1	191.93
4885	22.896	1.4545	0.1	230.02
4886	22.712	1.4545	0.1	268.24
4887	22.528	1.4545	0.1	306.62
4888	22.345	1.4545	0.1	345.18
4889	22.161	1.4545	0.1	383.92
4890	21.977	1.4545	0.1	422.86
4891	21.793	1.4545	0.1	461.98
4892	21.609	1.4545	0.1	501.3
4893	21.425	1.4545	0.1	540.8
4894	21.241	1.4545	0.1	580.49
4895	21.057	1.4545	0.1	620.37
4896	20.873	1.4545	0.1	660.43
4897	20.689	1.4545	0.1	700.69
4898	20.505	1.4545	0.1	741.13
4899	20.321	1.4545	0.1	781.75
4900	20.137	1.4545	0.1	822.57
4901	19.953	1.4545	0.1	863.58
4902	19.769	1.4545	0.1	904.78
4903	19.585	1.4545	0.1	946.17
4904	19.402	1.4545	0.1	987.75
4905	19.218	1.4545	0.1	1029.5
4906	19.034	1.4545	0.1	1071.5
4907	18.85	1.4545	0.1	1113.7
4908	18.666	1.4545	0.1	1156.
4909	18.482	1.4545	0.1	1198.6
4910	18.298	1.4545	0.1	1241.3
4911	18.114	1.4545	0.1	1284.3
4912	17.93	1.4545	0.1	1327.4
4913	17.746	1.4545	0.1	1370.8
4914	17.562	1.4545	0.1	1414.3
4915	17.378	1.4545	0.1	1458.
4916	17.194	1.4545	0.1	1502.
4917	17.01	1.4545	0.1	1546.1
4918	16.826	1.4545	0.1	1590.4
4919	16.642	1.4545	0.1	1635.
4920	16.458	1.4545	0.1	1679.7
4921	16.275	1.4545	0.1	1724.6
4922	16.091	1.4545	0.1	1769.7
4923	15.907	1.4545	0.1	1815.1
4924	15.723	1.4545	0.1	1860.6
4925	15.539	1.4545	0.1	1906.3
4926	15.355	1.4545	0.1	1952.2
4927	15.171	1.4545	0.1	1998.3
4928	14.987	1.4545	0.1	2044.6
4929	14.803	1.4545	0.1	2091.1
4930	14.619	1.4545	0.1	2137.8
4931	14.435	1.4545	0.1	2184.7
4932	14.251	1.4545	0.1	2231.8
4933	14.067	1.4545	0.1	2279.1
4934	13.883	1.4545	0.1	2326.6
4935	13.699	1.4545	0.1	2374.3
4936	13.515	1.4545	0.1	2422.1
4937	13.332	1.4545	0.1	2470.2
4938	13.148	1.4545	0.1	2518.5
4939	12.964	1.4545	0.1	2566.9
4940	12.78	1.4545	0.1	2615.6
4941	12.596	1.4545	0.1	2664.5
4942	12.412	1.4545	0.1	2713.5
4943	12.228	1.4545	0.1	2762.7
4944	12.044	1.4545	0.1	2812.2
4945	11.86	1.4545	0.1	2861.8
4946	11.676	1.4545	0.1	2911.6
4947	11.492	1.4545	0.1	2961.6
4948	11.308	1.4545	0.1	3011.9
4949	11.124	1.4545	0.1	3062.3
4950	10.94	1.4545	0.1	3112.9
4951	10.756	1.4545	0.1	3163.7
4952	10.572	1.4545	0.1	3214.7
4953	10.388	1.4545	0.1	3265.8
4954	10.205	1.4545	0.1	3317.2
4955	10.021	1.4545	0.1	3368.8
4956	9.8367	1.4545	0.1	3420.6
4957	9.6527	1.4545	0.1	3472.6
4958	9.4688	1.4545	0.1	3524.8
4959	9.2848	1.4545	0.1	3577.2
4960	9.1009	1.4545	0.1	3629.8
4961	8.917	1.4545	0.1	3682.6
4962	8.733	1.4545	0.1	3735.7
4963	8.5491	1.4545	0.1	3789.
4964	8.3652	1.4545	0.1	3842.5
4965	8.1812	1.4545	0.1	3896.2
4966	7.9973	1.4545	0.1	3950.1
4967	7.8133	1.4545	0.1	4004.3
4968	7.6294	1.4545	0.1	4058.6
4969	7.4455	1.4545	0.1	4113.1
4970	7.2615	1.4545	0.1	4167.8
4971	7.0776	1.4545	0.1	4222.5
4972	6.8936	1.4545	0.1	4277.2
4973	6.7097	1.4545	0.1	4331.8
4974	6.5258	1.4545	0.1	4386.1
4975	6.3418	1.4545	0.1	4439.9
4976	6.1579	1.4545	0.1	4492.9
4977	5.9739	1.4545	0.1	4544.9
4978	5.79	1.4545	0.1	4595.5
4979	5.6061	1.4545	0.1	4644.4
4980	5.4221	1.4545	0.1	4691.6
4981	5.2382	1.4545	0.1	4737.3
4982	5.0542	1.4545	0.1	4782.
4983	4.8703	1.4545	0.1	4827.3
4984	4.6864	1.4545	0.1	4875.
4985	4.5024	1.4545	0.1	4924.1
4986	4.3185	1.4545	0.1	4968.4
4987	4.1345	1.4545	0.1	4963.2
4988	3.9506	1.4545	0.1	5036.1
4989	23.816	1.6364	0.1	39.848
4990	23.632	1.6364	0.1	78.098
4991	23.448	1.6364	0.1	116.39
4992	23.264	1.6364	0.1	154.56
4993	23.08	1.6364	0.1	192.7
4994	22.896	1.6364	0.1	230.87
4995	22.712	1.6364	0.1	269.12
4996	22.528	1.6364	0.1	307.5
4997	22.345	1.6364	0.1	346.02
4998	22.161	1.6364	0.1	384.71
4999	21.977	1.6364	0.1	423.56
5000	21.793	1.6364	0.1	462.6
5001	21.609	1.6364	0.1	501.82
5002	21.425	1.6364	0.1	541.23
5003	21.241	1.6364	0.1	580.83
5004	21.057	1.6364	0.1	620.61
5005	20.873	1.6364	0.1	660.59
5006	20.689	1.6364	0.1	700.76
5007	20.505	1.6364	0.1	741.13
5008	20.321	1.6364	0.1	781.68
5009	20.137	1.6364	0.1	822.43
5010	19.953	1.6364	0.1	863.38
5011	19.769	1.6364	0.1	904.52
5012	19.585	1.6364	0.1	945.86
5013	19.402	1.6364	0.1	987.4
5014	19.218	1.6364	0.1	1029.1
5015	19.034	1.6364	0.1	1071.1
5016	18.85	1.6364	0.1	1113.2
5017	18.666	1.6364	0.1	1155.5
5018	18.482	1.6364	0.1	1198.1
5019	18.298	1.6364	0.1	1240.8
5020	18.114	1.6364	0.1	1283.7
5021	17.93	1.6364	0.1	1326.8
5022	17.746	1.6364	0.1	1370.2
5023	17.562	1.6364	0.1	1413.7
5024	17.378	1.6364	0.1	1457.4
5025	17.194	1.6364	0.1	1501.3
5026	17.01	1.6364	0.1	1545.4
5027	16.826	1.6364	0.1	1589.8
5028	16.642	1.6364	0.1	1634.3
5029	16.458	1.6364	0.1	1679.
5030	16.275	1.6364	0.1	1723.9
5031	16.091	1.6364	0.1	1769.
5032	15.907	1.6364	0.1	1814.3
5033	15.723	1.6364	0.1	1859.8
5034	15.539	1.6364	0.1	1905.5
5035	15.355	1.6364	0.1	1951.5
5036	15.171	1.6364	0.1	1997.6
5037	14.987	1.6364	0.1	2043.8
5038	14.803	1.6364	0.1	2090.3
5039	14.619	1.6364	0.1	2137.
5040	14.435	1.6364	0.1	2183.9
5041	14.251	1.6364	0.1	2231.
5042	14.067	1.6364	0.1	2278.3
5043	13.883	1.6364	0.1	2325.7
5044	13.699	1.6364	0.1	2373.4
5045	13.515	1.6364	0.1	2421.3
5046	13.332	1.6364	0.1	2469.3
5047	13.148	1.6364	0.1	2517.6
5048	12.964	1.6364	0.1	2566.
5049	12.78	1.6364	0.1	2614.6
5050	12.596	1.6364	0.1	2663.5
5051	12.412	1.6364	0.1	2712.5
5052	12.228	1.6364	0.1	2761.7
5053	12.044	1.6364	0.1	2811.1
5054	11.86	1.6364	0.1	2860.7
5055	11.676	1.6364	0.1	2910.4
5056	11.492	1.6364	0.1	2960.4
5057	11.308	1.6364	0.1	3010.6
5058	11.124	1.6364	0.1	3060.9
5059	10.94	1.6364	0.1	3111.5
5060	10.756	1.6364	0.1	3162.2
5061	10.572	1.6364	0.1	3213.1
5062	10.388	1.6364	0.1	3264.2
5063	10.205	1.6364	0.1	3315.6
5064	10.021	1.6364	0.1	3367.1
5065	9.8367	1.6364	0.1	3418.8
5066	9.6527	1.6364	0.1	3470.8
5067	9.4688	1.6364	0.1	3523.
5068	9.2848	1.6364	0.1	3575.4
5069	9.1009	1.6364	0.1	3628.1
5070	8.917	1.6364	0.1	3681.
5071	8.733	1.6364	0.1	3734.3
5072	8.5491	1.6364	0.1	3787.9
5073	8.3652	1.6364	0.1	3841.8
5074	8.1812	1.6364	0.1	3896.2
5075	7.9973	1.6364	0.1	3951.
5076	7.8133	1.6364	0.1	4006.4
5077	7.6294	1.6364	0.1	4062.4
5078	7.4455	1.6364	0.1	4119.1
5079	7.2615	1.6364	0.1	4176.6
5080	7.0776	1.6364	0.1	4235.2
5081	6.8936	1.6364	0.1	4295.
5082	6.7097	1.6364	0.1	4356.2
5083	6.5258	1.6364	0.1	4419.1
5084	6.3418	1.6364	0.1	4484.
5085	6.1579	1.6364	0.1	4551.4
5086	5.9739	1.6364	0.1	4621.9
5087	5.79	1.6364	0.1	4696.4
5088	5.6061	1.6364	0.1	4776.
5089	5.4221	1.6364	0.1	4862.8
5090	5.2382	1.6364	0.1	4959.5
5091	5.0542	1.6364	0.1	5070.6
5092	4.8703	1.6364	0.1	5203.2
5093	4.6864	1.6364	0.1	5367.3
5094	4.5024	1.6364	0.1	5576.9
5095	4.3185	1.6364	0.1	5842.9
5096	4.1345	1.6364	0.1	6154.2
5097	3.9506	1.6364	0.1	6524.1
5098	23.816	1.8182	0.1	39.82
5099	23.632	1.8182	0.1	78.267
5100	23.448	1.8182	0.1	116.74
5101	23.264	1.8182	0.1	155.07
5102	23.08	1.8182	0.1	193.33
5103	22.896	1.8182	0.1	231.59
5104	22.712	1.8182	0.1	269.89
5105	22.528	1.8182	0.1	308.28
5106	22.345	1.8182	0.1	346.78
5107	22.161	1.8182	0.1	385.43
5108	21.977	1.8182	0.1	424.23
5109	21.793	1.8182	0.1	463.2
5110	21.609	1.8182	0.1	502.34
5111	21.425	1.8182	0.1	541.67
5112	21.241	1.8182	0.1	581.19
5113	21.057	1.8182	0.1	620.89
5114	20.873	1.8182	0.1	660.79
5115	20.689	1.8182	0.1	700.89
5116	20.505	1.8182	0.1	741.18
5117	20.321	1.8182	0.1	781.67
5118	20.137	1.8182	0.1	822.36
5119	19.953	1.8182	0.1	863.25
5120	19.769	1.8182	0.1	904.34
5121	19.585	1.8182	0.1	945.63
5122	19.402	1.8182	0.1	987.13
5123	19.218	1.8182	0.1	1028.8
5124	19.034	1.8182	0.1	1070.7
5125	18.85	1.8182	0.1	1112.8
5126	18.666	1.8182	0.1	1155.1
5127	18.482	1.8182	0.1	1197.6
5128	18.298	1.8182	0.1	1240.3
5129	18.114	1.8182	0.1	1283.2
5130	17.93	1.8182	0.1	1326.3
5131	17.746	1.8182	0.1	1369.6
5132	17.562	1.8182	0.1	1413.1
5133	17.378	1.8182	0.1	1456.9
5134	17.194	1.8182	0.1	1500.8
5135	17.01	1.8182	0.1	1544.9
5136	16.826	1.8182	0.1	1589.2
5137	16.642	1.8182	0.1	1633.7
5138	16.458	1.8182	0.1	1678.4
5139	16.275	1.8182	0.1	1723.3
5140	16.091	1.8182	0.1	1768.4
5141	15.907	1.8182	0.1	1813.7
5142	15.723	1.8182	0.1	1859.2
5143	15.539	1.8182	0.1	1904.9
5144	15.355	1.8182	0.1	1950.8
5145	15.171	1.8182	0.1	1996.9
5146	14.987	1.8182	0.1	2043.2
5147	14.803	1.8182	0.1	2089.7
5148	14.619	1.8182	0.1	2136.4
5149	14.435	1.8182	0.1	2183.2
5150	14.251	1.8182	0.1	2230.3
5151	14.067	1.8182	0.1	2277.6
5152	13.883	1.8182	0.1	2325.
5153	13.699	1.8182	0.1	2372.7
5154	13.515	1.8182	0.1	2420.5
5155	13.332	1.8182	0.1	2468.5
5156	13.148	1.8182	0.1	2516.8
5157	12.964	1.8182	0.1	2565.2
5158	12.78	1.8182	0.1	2613.8
5159	12.596	1.8182	0.1	2662.6
5160	12.412	1.8182	0.1	2711.6
5161	12.228	1.8182	0.1	2760.7
5162	12.044	1.8182	0.1	2810.1
5163	11.86	1.8182	0.1	2859.6
5164	11.676	1.8182	0.1	2909.4
5165	11.492	1.8182	0.1	2959.3
5166	11.308	1.8182	0.1	3009.4
5167	11.124	1.8182	0.1	3059.7
5168	10.94	1.8182	0.1	3110.2
5169	10.756	1.8182	0.1	3160.9
5170	10.572	1.8182	0.1	3211.7
5171	10.388	1.8182	0.1	3262.8
5172	10.205	1.8182	0.1	3314.1
5173	10.021	1.8182	0.1	3365.6
5174	9.8367	1.8182	0.1	3417.3
5175	9.6527	1.8182	0.1	3469.2
5176	9.4688	1.8182	0.1	3521.4
5177	9.2848	1.8182	0.1	3573.8
5178	9.1009	1.8182	0.1	3626.5
5179	8.917	1.8182	0.1	3679.6
5180	8.733	1.8182	0.1	3733.
5181	8.5491	1.8182	0.1	3786.9
5182	8.3652	1.8182	0.1	3841.2
5183	8.1812	1.8182	0.1	3896.2
5184	7.9973	1.8182	0.1	3951.9
5185	7.8133	1.8182	0.1	4008.4
5186	7.6294	1.8182	0.1	4065.9
5187	7.4455	1.8182	0.1	4124.7
5188	7.2615	1.8182	0.1	4185.1
5189	7.0776	1.8182	0.1	4247.3
5190	6.8936	1.8182	0.1	4312.
5191	6.7097	1.8182	0.1	4379.6
5192	6.5258	1.8182	0.1	4450.8
5193	6.3418	1.8182	0.1	4526.6
5194	6.1579	1.8182	0.1	4608.1
5195	5.9739	1.8182	0.1	4696.9
5196	5.79	1.8182	0.1	4795.1
5197	5.6061	1.8182	0.1	4905.3
5198	5.4221	1.8182	0.1	5031.5
5199	5.2382	1.8182	0.1	5179.5
5200	5.0542	1.8182	0.1	5357.9
5201	4.8703	1.8182	0.1	5580.
5202	4.6864	1.8182	0.1	5867.1
5203	4.5024	1.8182	0.1	6254.8
5204	4.3185	1.8182	0.1	6805.9
5205	4.1345	1.8182	0.1	7662.2
5206	3.9506	1.8182	0.1	9471.2
5207	23.816	2.	0.1	39.785
5208	23.632	2.	0.1	78.39
5209	23.448	2.	0.1	117.
5210	23.264	2.	0.1	155.47
5211	23.08	2.	0.1	193.84
5212	22.896	2.	0.1	232.18
5213	22.712	2.	0.1	270.54
5214	22.528	2.	0.1	308.95
5215	22.345	2.	0.1	347.45
5216	22.161	2.	0.1	386.07
5217	21.977	2.	0.1	424.83
5218	21.793	2.	0.1	463.74
5219	21.609	2.	0.1	502.83
5220	21.425	2.	0.1	542.09
5221	21.241	2.	0.1	581.54
5222	21.057	2.	0.1	621.18
5223	20.873	2.	0.1	661.01
5224	20.689	2.	0.1	701.04
5225	20.505	2.	0.1	741.27
5226	20.321	2.	0.1	781.7
5227	20.137	2.	0.1	822.34
5228	19.953	2.	0.1	863.18
5229	19.769	2.	0.1	904.22
5230	19.585	2.	0.1	945.47
5231	19.402	2.	0.1	986.92
5232	19.218	2.	0.1	1028.6
5233	19.034	2.	0.1	1070.4
5234	18.85	2.	0.1	1112.5
5235	18.666	2.	0.1	1154.8
5236	18.482	2.	0.1	1197.3
5237	18.298	2.	0.1	1239.9
5238	18.114	2.	0.1	1282.8
5239	17.93	2.	0.1	1325.9
5240	17.746	2.	0.1	1369.2
5241	17.562	2.	0.1	1412.7
5242	17.378	2.	0.1	1456.4
5243	17.194	2.	0.1	1500.3
5244	17.01	2.	0.1	1544.4
5245	16.826	2.	0.1	1588.7
5246	16.642	2.	0.1	1633.2
5247	16.458	2.	0.1	1677.9
5248	16.275	2.	0.1	1722.8
5249	16.091	2.	0.1	1767.9
5250	15.907	2.	0.1	1813.2
5251	15.723	2.	0.1	1858.7
5252	15.539	2.	0.1	1904.4
5253	15.355	2.	0.1	1950.3
5254	15.171	2.	0.1	1996.3
5255	14.987	2.	0.1	2042.6
5256	14.803	2.	0.1	2089.1
5257	14.619	2.	0.1	2135.8
5258	14.435	2.	0.1	2182.6
5259	14.251	2.	0.1	2229.7
5260	14.067	2.	0.1	2276.9
5261	13.883	2.	0.1	2324.4
5262	13.699	2.	0.1	2372.
5263	13.515	2.	0.1	2419.8
5264	13.332	2.	0.1	2467.9
5265	13.148	2.	0.1	2516.1
5266	12.964	2.	0.1	2564.5
5267	12.78	2.	0.1	2613.1
5268	12.596	2.	0.1	2661.8
5269	12.412	2.	0.1	2710.8
5270	12.228	2.	0.1	2759.9
5271	12.044	2.	0.1	2809.3
5272	11.86	2.	0.1	2858.8
5273	11.676	2.	0.1	2908.5
5274	11.492	2.	0.1	2958.3
5275	11.308	2.	0.1	3008.4
5276	11.124	2.	0.1	3058.7
5277	10.94	2.	0.1	3109.1
5278	10.756	2.	0.1	3159.7
5279	10.572	2.	0.1	3210.5
5280	10.388	2.	0.1	3261.6
5281	10.205	2.	0.1	3312.8
5282	10.021	2.	0.1	3364.2
5283	9.8367	2.	0.1	3415.9
5284	9.6527	2.	0.1	3467.8
5285	9.4688	2.	0.1	3519.9
5286	9.2848	2.	0.1	3572.4
5287	9.1009	2.	0.1	3625.1
5288	8.917	2.	0.1	3678.3
5289	8.733	2.	0.1	3731.9
5290	8.5491	2.	0.1	3786.
5291	8.3652	2.	0.1	3840.7
5292	8.1812	2.	0.1	3896.2
5293	7.9973	2.	0.1	3952.6
5294	7.8133	2.	0.1	4010.2
5295	7.6294	2.	0.1	4069.1
5296	7.4455	2.	0.1	4129.9
5297	7.2615	2.	0.1	4192.8
5298	7.0776	2.	0.1	4258.5
5299	6.8936	2.	0.1	4327.7
5300	6.7097	2.	0.1	4401.2
5301	6.5258	2.	0.1	4480.3
5302	6.3418	2.	0.1	4566.4
5303	6.1579	2.	0.1	4661.3
5304	5.9739	2.	0.1	4767.5
5305	5.79	2.	0.1	4888.2
5306	5.6061	2.	0.1	5027.8
5307	5.4221	2.	0.1	5192.
5308	5.2382	2.	0.1	5389.5
5309	5.0542	2.	0.1	5632.8
5310	4.8703	2.	0.1	5941.3
5311	4.6864	2.	0.1	6347.4
5312	4.5024	2.	0.1	6909.2
5313	4.3185	2.	0.1	7752.1
5314	4.1345	2.	0.1	9112.5
5315	3.9506	2.	0.1	13266
5316	23.816	2.1818	0.1	39.751
5317	23.632	2.1818	0.1	78.479
5318	23.448	2.1818	0.1	117.21
5319	23.264	2.1818	0.1	155.78
5320	23.08	2.1818	0.1	194.25
5321	22.896	2.1818	0.1	232.66
5322	22.712	2.1818	0.1	271.06
5323	22.528	2.1818	0.1	309.5
5324	22.345	2.1818	0.1	348.
5325	22.161	2.1818	0.1	386.61
5326	21.977	2.1818	0.1	425.34
5327	21.793	2.1818	0.1	464.22
5328	21.609	2.1818	0.1	503.26
5329	21.425	2.1818	0.1	542.47
5330	21.241	2.1818	0.1	581.86
5331	21.057	2.1818	0.1	621.45
5332	20.873	2.1818	0.1	661.22
5333	20.689	2.1818	0.1	701.2
5334	20.505	2.1818	0.1	741.38
5335	20.321	2.1818	0.1	781.76
5336	20.137	2.1818	0.1	822.35
5337	19.953	2.1818	0.1	863.14
5338	19.769	2.1818	0.1	904.14
5339	19.585	2.1818	0.1	945.35
5340	19.402	2.1818	0.1	986.77
5341	19.218	2.1818	0.1	1028.4
5342	19.034	2.1818	0.1	1070.2
5343	18.85	2.1818	0.1	1112.3
5344	18.666	2.1818	0.1	1154.5
5345	18.482	2.1818	0.1	1197.
5346	18.298	2.1818	0.1	1239.6
5347	18.114	2.1818	0.1	1282.5
5348	17.93	2.1818	0.1	1325.6
5349	17.746	2.1818	0.1	1368.9
5350	17.562	2.1818	0.1	1412.3
5351	17.378	2.1818	0.1	1456.
5352	17.194	2.1818	0.1	1499.9
5353	17.01	2.1818	0.1	1544.
5354	16.826	2.1818	0.1	1588.3
5355	16.642	2.1818	0.1	1632.8
5356	16.458	2.1818	0.1	1677.5
5357	16.275	2.1818	0.1	1722.4
5358	16.091	2.1818	0.1	1767.5
5359	15.907	2.1818	0.1	1812.7
5360	15.723	2.1818	0.1	1858.2
5361	15.539	2.1818	0.1	1903.9
5362	15.355	2.1818	0.1	1949.8
5363	15.171	2.1818	0.1	1995.9
5364	14.987	2.1818	0.1	2042.1
5365	14.803	2.1818	0.1	2088.6
5366	14.619	2.1818	0.1	2135.3
5367	14.435	2.1818	0.1	2182.1
5368	14.251	2.1818	0.1	2229.2
5369	14.067	2.1818	0.1	2276.4
5370	13.883	2.1818	0.1	2323.9
5371	13.699	2.1818	0.1	2371.5
5372	13.515	2.1818	0.1	2419.3
5373	13.332	2.1818	0.1	2467.3
5374	13.148	2.1818	0.1	2515.5
5375	12.964	2.1818	0.1	2563.9
5376	12.78	2.1818	0.1	2612.4
5377	12.596	2.1818	0.1	2661.2
5378	12.412	2.1818	0.1	2710.1
5379	12.228	2.1818	0.1	2759.2
5380	12.044	2.1818	0.1	2808.5
5381	11.86	2.1818	0.1	2858.
5382	11.676	2.1818	0.1	2907.7
5383	11.492	2.1818	0.1	2957.5
5384	11.308	2.1818	0.1	3007.6
5385	11.124	2.1818	0.1	3057.8
5386	10.94	2.1818	0.1	3108.2
5387	10.756	2.1818	0.1	3158.7
5388	10.572	2.1818	0.1	3209.5
5389	10.388	2.1818	0.1	3260.5
5390	10.205	2.1818	0.1	3311.7
5391	10.021	2.1818	0.1	3363.
5392	9.8367	2.1818	0.1	3414.7
5393	9.6527	2.1818	0.1	3466.5
5394	9.4688	2.1818	0.1	3518.7
5395	9.2848	2.1818	0.1	3571.1
5396	9.1009	2.1818	0.1	3623.9
5397	8.917	2.1818	0.1	3677.2
5398	8.733	2.1818	0.1	3730.9
5399	8.5491	2.1818	0.1	3785.2
5400	8.3652	2.1818	0.1	3840.3
5401	8.1812	2.1818	0.1	3896.2
5402	7.9973	2.1818	0.1	3953.3
5403	7.8133	2.1818	0.1	4011.7
5404	7.6294	2.1818	0.1	4072.
5405	7.4455	2.1818	0.1	4134.4
5406	7.2615	2.1818	0.1	4199.6
5407	7.0776	2.1818	0.1	4268.3
5408	6.8936	2.1818	0.1	4341.6
5409	6.7097	2.1818	0.1	4420.5
5410	6.5258	2.1818	0.1	4506.6
5411	6.3418	2.1818	0.1	4602.
5412	6.1579	2.1818	0.1	4709.1
5413	5.9739	2.1818	0.1	4831.3
5414	5.79	2.1818	0.1	4972.7
5415	5.6061	2.1818	0.1	5139.3
5416	5.4221	2.1818	0.1	5338.6
5417	5.2382	2.1818	0.1	5581.7
5418	5.0542	2.1818	0.1	5884.3
5419	4.8703	2.1818	0.1	6270.6
5420	4.6864	2.1818	0.1	6780.4
5421	4.5024	2.1818	0.1	7483.9
5422	4.3185	2.1818	0.1	8524.
5423	4.1345	2.1818	0.1	10267
5424	3.9506	2.1818	0.1	13645
5425	23.816	2.3636	0.1	39.719
5426	23.632	2.3636	0.1	78.541
5427	23.448	2.3636	0.1	117.36
5428	23.264	2.3636	0.1	156.01
5429	23.08	2.3636	0.1	194.55
5430	22.896	2.3636	0.1	233.03
5431	22.712	2.3636	0.1	271.47
5432	22.528	2.3636	0.1	309.93
5433	22.345	2.3636	0.1	348.45
5434	22.161	2.3636	0.1	387.05
5435	21.977	2.3636	0.1	425.77
5436	21.793	2.3636	0.1	464.62
5437	21.609	2.3636	0.1	503.62
5438	21.425	2.3636	0.1	542.79
5439	21.241	2.3636	0.1	582.14
5440	21.057	2.3636	0.1	621.68
5441	20.873	2.3636	0.1	661.41
5442	20.689	2.3636	0.1	701.34
5443	20.505	2.3636	0.1	741.48
5444	20.321	2.3636	0.1	781.82
5445	20.137	2.3636	0.1	822.37
5446	19.953	2.3636	0.1	863.13
5447	19.769	2.3636	0.1	904.1
5448	19.585	2.3636	0.1	945.27
5449	19.402	2.3636	0.1	986.67
5450	19.218	2.3636	0.1	1028.3
5451	19.034	2.3636	0.1	1070.1
5452	18.85	2.3636	0.1	1112.1
5453	18.666	2.3636	0.1	1154.3
5454	18.482	2.3636	0.1	1196.8
5455	18.298	2.3636	0.1	1239.4
5456	18.114	2.3636	0.1	1282.3
5457	17.93	2.3636	0.1	1325.3
5458	17.746	2.3636	0.1	1368.6
5459	17.562	2.3636	0.1	1412.1
5460	17.378	2.3636	0.1	1455.7
5461	17.194	2.3636	0.1	1499.6
5462	17.01	2.3636	0.1	1543.7
5463	16.826	2.3636	0.1	1588.
5464	16.642	2.3636	0.1	1632.5
5465	16.458	2.3636	0.1	1677.1
5466	16.275	2.3636	0.1	1722.
5467	16.091	2.3636	0.1	1767.1
5468	15.907	2.3636	0.1	1812.4
5469	15.723	2.3636	0.1	1857.9
5470	15.539	2.3636	0.1	1903.6
5471	15.355	2.3636	0.1	1949.4
5472	15.171	2.3636	0.1	1995.5
5473	14.987	2.3636	0.1	2041.8
5474	14.803	2.3636	0.1	2088.2
5475	14.619	2.3636	0.1	2134.9
5476	14.435	2.3636	0.1	2181.7
5477	14.251	2.3636	0.1	2228.8
5478	14.067	2.3636	0.1	2276.
5479	13.883	2.3636	0.1	2323.4
5480	13.699	2.3636	0.1	2371.1
5481	13.515	2.3636	0.1	2418.9
5482	13.332	2.3636	0.1	2466.8
5483	13.148	2.3636	0.1	2515.
5484	12.964	2.3636	0.1	2563.4
5485	12.78	2.3636	0.1	2611.9
5486	12.596	2.3636	0.1	2660.7
5487	12.412	2.3636	0.1	2709.6
5488	12.228	2.3636	0.1	2758.7
5489	12.044	2.3636	0.1	2808.
5490	11.86	2.3636	0.1	2857.4
5491	11.676	2.3636	0.1	2907.1
5492	11.492	2.3636	0.1	2956.9
5493	11.308	2.3636	0.1	3006.9
5494	11.124	2.3636	0.1	3057.
5495	10.94	2.3636	0.1	3107.4
5496	10.756	2.3636	0.1	3158.
5497	10.572	2.3636	0.1	3208.7
5498	10.388	2.3636	0.1	3259.6
5499	10.205	2.3636	0.1	3310.8
5500	10.021	2.3636	0.1	3362.1
5501	9.8367	2.3636	0.1	3413.7
5502	9.6527	2.3636	0.1	3465.5
5503	9.4688	2.3636	0.1	3517.7
5504	9.2848	2.3636	0.1	3570.1
5505	9.1009	2.3636	0.1	3623.
5506	8.917	2.3636	0.1	3676.2
5507	8.733	2.3636	0.1	3730.1
5508	8.5491	2.3636	0.1	3784.6
5509	8.3652	2.3636	0.1	3839.9
5510	8.1812	2.3636	0.1	3896.2
5511	7.9973	2.3636	0.1	3953.8
5512	7.8133	2.3636	0.1	4013.1
5513	7.6294	2.3636	0.1	4074.3
5514	7.4455	2.3636	0.1	4138.1
5515	7.2615	2.3636	0.1	4205.3
5516	7.0776	2.3636	0.1	4276.6
5517	6.8936	2.3636	0.1	4353.3
5518	6.7097	2.3636	0.1	4436.7
5519	6.5258	2.3636	0.1	4528.9
5520	6.3418	2.3636	0.1	4632.3
5521	6.1579	2.3636	0.1	4749.9
5522	5.9739	2.3636	0.1	4885.8
5523	5.79	2.3636	0.1	5045.3
5524	5.6061	2.3636	0.1	5235.4
5525	5.4221	2.3636	0.1	5465.4
5526	5.2382	2.3636	0.1	5748.1
5527	5.0542	2.3636	0.1	6101.3
5528	4.8703	2.3636	0.1	6551.3
5529	4.6864	2.3636	0.1	7139.
5530	4.5024	2.3636	0.1	7930.1
5531	4.3185	2.3636	0.1	9041.
5532	4.1345	2.3636	0.1	10663
5533	3.9506	2.3636	0.1	12958
5534	23.816	2.5455	0.1	39.694
5535	23.632	2.5455	0.1	78.583
5536	23.448	2.5455	0.1	117.47
5537	23.264	2.5455	0.1	156.18
5538	23.08	2.5455	0.1	194.78
5539	22.896	2.5455	0.1	233.29
5540	22.712	2.5455	0.1	271.77
5541	22.528	2.5455	0.1	310.26
5542	22.345	2.5455	0.1	348.78
5543	22.161	2.5455	0.1	387.38
5544	21.977	2.5455	0.1	426.09
5545	21.793	2.5455	0.1	464.92
5546	21.609	2.5455	0.1	503.9
5547	21.425	2.5455	0.1	543.04
5548	21.241	2.5455	0.1	582.36
5549	21.057	2.5455	0.1	621.87
5550	20.873	2.5455	0.1	661.56
5551	20.689	2.5455	0.1	701.46
5552	20.505	2.5455	0.1	741.56
5553	20.321	2.5455	0.1	781.87
5554	20.137	2.5455	0.1	822.39
5555	19.953	2.5455	0.1	863.13
5556	19.769	2.5455	0.1	904.07
5557	19.585	2.5455	0.1	945.22
5558	19.402	2.5455	0.1	986.59
5559	19.218	2.5455	0.1	1028.2
5560	19.034	2.5455	0.1	1070.
5561	18.85	2.5455	0.1	1112.
5562	18.666	2.5455	0.1	1154.2
5563	18.482	2.5455	0.1	1196.6
5564	18.298	2.5455	0.1	1239.2
5565	18.114	2.5455	0.1	1282.1
5566	17.93	2.5455	0.1	1325.1
5567	17.746	2.5455	0.1	1368.4
5568	17.562	2.5455	0.1	1411.8
5569	17.378	2.5455	0.1	1455.5
5570	17.194	2.5455	0.1	1499.4
5571	17.01	2.5455	0.1	1543.5
5572	16.826	2.5455	0.1	1587.7
5573	16.642	2.5455	0.1	1632.2
5574	16.458	2.5455	0.1	1676.9
5575	16.275	2.5455	0.1	1721.8
5576	16.091	2.5455	0.1	1766.9
5577	15.907	2.5455	0.1	1812.1
5578	15.723	2.5455	0.1	1857.6
5579	15.539	2.5455	0.1	1903.3
5580	15.355	2.5455	0.1	1949.2
5581	15.171	2.5455	0.1	1995.2
5582	14.987	2.5455	0.1	2041.5
5583	14.803	2.5455	0.1	2087.9
5584	14.619	2.5455	0.1	2134.6
5585	14.435	2.5455	0.1	2181.4
5586	14.251	2.5455	0.1	2228.5
5587	14.067	2.5455	0.1	2275.7
5588	13.883	2.5455	0.1	2323.1
5589	13.699	2.5455	0.1	2370.7
5590	13.515	2.5455	0.1	2418.5
5591	13.332	2.5455	0.1	2466.5
5592	13.148	2.5455	0.1	2514.7
5593	12.964	2.5455	0.1	2563.
5594	12.78	2.5455	0.1	2611.6
5595	12.596	2.5455	0.1	2660.3
5596	12.412	2.5455	0.1	2709.2
5597	12.228	2.5455	0.1	2758.3
5598	12.044	2.5455	0.1	2807.5
5599	11.86	2.5455	0.1	2857.
5600	11.676	2.5455	0.1	2906.6
5601	11.492	2.5455	0.1	2956.4
5602	11.308	2.5455	0.1	3006.3
5603	11.124	2.5455	0.1	3056.5
5604	10.94	2.5455	0.1	3106.8
5605	10.756	2.5455	0.1	3157.3
5606	10.572	2.5455	0.1	3208.1
5607	10.388	2.5455	0.1	3259.
5608	10.205	2.5455	0.1	3310.1
5609	10.021	2.5455	0.1	3361.4
5610	9.8367	2.5455	0.1	3412.9
5611	9.6527	2.5455	0.1	3464.8
5612	9.4688	2.5455	0.1	3516.9
5613	9.2848	2.5455	0.1	3569.3
5614	9.1009	2.5455	0.1	3622.2
5615	8.917	2.5455	0.1	3675.5
5616	8.733	2.5455	0.1	3729.4
5617	8.5491	2.5455	0.1	3784.1
5618	8.3652	2.5455	0.1	3839.6
5619	8.1812	2.5455	0.1	3896.2
5620	7.9973	2.5455	0.1	3954.2
5621	7.8133	2.5455	0.1	4014.
5622	7.6294	2.5455	0.1	4076.1
5623	7.4455	2.5455	0.1	4141.1
5624	7.2615	2.5455	0.1	4209.7
5625	7.0776	2.5455	0.1	4283.
5626	6.8936	2.5455	0.1	4362.4
5627	6.7097	2.5455	0.1	4449.4
5628	6.5258	2.5455	0.1	4546.4
5629	6.3418	2.5455	0.1	4656.1
5630	6.1579	2.5455	0.1	4782.
5631	5.9739	2.5455	0.1	4929.
5632	5.79	2.5455	0.1	5103.1
5633	5.6061	2.5455	0.1	5312.1
5634	5.4221	2.5455	0.1	5566.8
5635	5.2382	2.5455	0.1	5880.9
5636	5.0542	2.5455	0.1	6273.3
5637	4.8703	2.5455	0.1	6769.7
5638	4.6864	2.5455	0.1	7405.3
5639	4.5024	2.5455	0.1	8227.4
5640	4.3185	2.5455	0.1	9292.
5641	4.1345	2.5455	0.1	10627
5642	3.9506	2.5455	0.1	12062
5643	23.816	2.7273	0.1	39.676
5644	23.632	2.7273	0.1	78.61
5645	23.448	2.7273	0.1	117.53
5646	23.264	2.7273	0.1	156.29
5647	23.08	2.7273	0.1	194.92
5648	22.896	2.7273	0.1	233.47
5649	22.712	2.7273	0.1	271.97
5650	22.528	2.7273	0.1	310.47
5651	22.345	2.7273	0.1	349.01
5652	22.161	2.7273	0.1	387.61
5653	21.977	2.7273	0.1	426.31
5654	21.793	2.7273	0.1	465.13
5655	21.609	2.7273	0.1	504.09
5656	21.425	2.7273	0.1	543.21
5657	21.241	2.7273	0.1	582.51
5658	21.057	2.7273	0.1	621.99
5659	20.873	2.7273	0.1	661.67
5660	20.689	2.7273	0.1	701.55
5661	20.505	2.7273	0.1	741.63
5662	20.321	2.7273	0.1	781.92
5663	20.137	2.7273	0.1	822.42
5664	19.953	2.7273	0.1	863.13
5665	19.769	2.7273	0.1	904.05
5666	19.585	2.7273	0.1	945.19
5667	19.402	2.7273	0.1	986.55
5668	19.218	2.7273	0.1	1028.1
5669	19.034	2.7273	0.1	1069.9
5670	18.85	2.7273	0.1	1111.9
5671	18.666	2.7273	0.1	1154.1
5672	18.482	2.7273	0.1	1196.5
5673	18.298	2.7273	0.1	1239.1
5674	18.114	2.7273	0.1	1282.
5675	17.93	2.7273	0.1	1325.
5676	17.746	2.7273	0.1	1368.3
5677	17.562	2.7273	0.1	1411.7
5678	17.378	2.7273	0.1	1455.4
5679	17.194	2.7273	0.1	1499.2
5680	17.01	2.7273	0.1	1543.3
5681	16.826	2.7273	0.1	1587.6
5682	16.642	2.7273	0.1	1632.1
5683	16.458	2.7273	0.1	1676.7
5684	16.275	2.7273	0.1	1721.6
5685	16.091	2.7273	0.1	1766.7
5686	15.907	2.7273	0.1	1812.
5687	15.723	2.7273	0.1	1857.4
5688	15.539	2.7273	0.1	1903.1
5689	15.355	2.7273	0.1	1949.
5690	15.171	2.7273	0.1	1995.
5691	14.987	2.7273	0.1	2041.3
5692	14.803	2.7273	0.1	2087.8
5693	14.619	2.7273	0.1	2134.4
5694	14.435	2.7273	0.1	2181.2
5695	14.251	2.7273	0.1	2228.3
5696	14.067	2.7273	0.1	2275.5
5697	13.883	2.7273	0.1	2322.9
5698	13.699	2.7273	0.1	2370.5
5699	13.515	2.7273	0.1	2418.3
5700	13.332	2.7273	0.1	2466.3
5701	13.148	2.7273	0.1	2514.4
5702	12.964	2.7273	0.1	2562.8
5703	12.78	2.7273	0.1	2611.3
5704	12.596	2.7273	0.1	2660.
5705	12.412	2.7273	0.1	2708.9
5706	12.228	2.7273	0.1	2758.
5707	12.044	2.7273	0.1	2807.2
5708	11.86	2.7273	0.1	2856.7
5709	11.676	2.7273	0.1	2906.3
5710	11.492	2.7273	0.1	2956.
5711	11.308	2.7273	0.1	3006.
5712	11.124	2.7273	0.1	3056.1
5713	10.94	2.7273	0.1	3106.4
5714	10.756	2.7273	0.1	3156.9
5715	10.572	2.7273	0.1	3207.6
5716	10.388	2.7273	0.1	3258.5
5717	10.205	2.7273	0.1	3309.6
5718	10.021	2.7273	0.1	3360.9
5719	9.8367	2.7273	0.1	3412.4
5720	9.6527	2.7273	0.1	3464.2
5721	9.4688	2.7273	0.1	3516.3
5722	9.2848	2.7273	0.1	3568.8
5723	9.1009	2.7273	0.1	3621.7
5724	8.917	2.7273	0.1	3675.
5725	8.733	2.7273	0.1	3729.
5726	8.5491	2.7273	0.1	3783.7
5727	8.3652	2.7273	0.1	3839.4
5728	8.1812	2.7273	0.1	3896.2
5729	7.9973	2.7273	0.1	3954.5
5730	7.8133	2.7273	0.1	4014.7
5731	7.6294	2.7273	0.1	4077.3
5732	7.4455	2.7273	0.1	4143.
5733	7.2615	2.7273	0.1	4212.7
5734	7.0776	2.7273	0.1	4287.4
5735	6.8936	2.7273	0.1	4368.6
5736	6.7097	2.7273	0.1	4458.2
5737	6.5258	2.7273	0.1	4558.4
5738	6.3418	2.7273	0.1	4672.5
5739	6.1579	2.7273	0.1	4804.3
5740	5.9739	2.7273	0.1	4959.
5741	5.79	2.7273	0.1	5143.2
5742	5.6061	2.7273	0.1	5365.7
5743	5.4221	2.7273	0.1	5637.5
5744	5.2382	2.7273	0.1	5973.4
5745	5.0542	2.7273	0.1	6392.2
5746	4.8703	2.7273	0.1	6917.2
5747	4.6864	2.7273	0.1	7575.9
5748	4.5024	2.7273	0.1	8394.7
5749	4.3185	2.7273	0.1	9382.5
5750	4.1345	2.7273	0.1	10489
5751	3.9506	2.7273	0.1	11532
5752	23.816	2.9091	0.1	39.667
5753	23.632	2.9091	0.1	78.622
5754	23.448	2.9091	0.1	117.57
5755	23.264	2.9091	0.1	156.34
5756	23.08	2.9091	0.1	194.99
5757	22.896	2.9091	0.1	233.56
5758	22.712	2.9091	0.1	272.07
5759	22.528	2.9091	0.1	310.58
5760	22.345	2.9091	0.1	349.12
5761	22.161	2.9091	0.1	387.72
5762	21.977	2.9091	0.1	426.41
5763	21.793	2.9091	0.1	465.23
5764	21.609	2.9091	0.1	504.19
5765	21.425	2.9091	0.1	543.3
5766	21.241	2.9091	0.1	582.59
5767	21.057	2.9091	0.1	622.06
5768	20.873	2.9091	0.1	661.73
5769	20.689	2.9091	0.1	701.59
5770	20.505	2.9091	0.1	741.66
5771	20.321	2.9091	0.1	781.94
5772	20.137	2.9091	0.1	822.43
5773	19.953	2.9091	0.1	863.13
5774	19.769	2.9091	0.1	904.05
5775	19.585	2.9091	0.1	945.18
5776	19.402	2.9091	0.1	986.53
5777	19.218	2.9091	0.1	1028.1
5778	19.034	2.9091	0.1	1069.9
5779	18.85	2.9091	0.1	1111.8
5780	18.666	2.9091	0.1	1154.
5781	18.482	2.9091	0.1	1196.5
5782	18.298	2.9091	0.1	1239.1
5783	18.114	2.9091	0.1	1281.9
5784	17.93	2.9091	0.1	1324.9
5785	17.746	2.9091	0.1	1368.2
5786	17.562	2.9091	0.1	1411.6
5787	17.378	2.9091	0.1	1455.3
5788	17.194	2.9091	0.1	1499.2
5789	17.01	2.9091	0.1	1543.2
5790	16.826	2.9091	0.1	1587.5
5791	16.642	2.9091	0.1	1632.
5792	16.458	2.9091	0.1	1676.7
5793	16.275	2.9091	0.1	1721.5
5794	16.091	2.9091	0.1	1766.6
5795	15.907	2.9091	0.1	1811.9
5796	15.723	2.9091	0.1	1857.4
5797	15.539	2.9091	0.1	1903.
5798	15.355	2.9091	0.1	1948.9
5799	15.171	2.9091	0.1	1995.
5800	14.987	2.9091	0.1	2041.2
5801	14.803	2.9091	0.1	2087.7
5802	14.619	2.9091	0.1	2134.3
5803	14.435	2.9091	0.1	2181.1
5804	14.251	2.9091	0.1	2228.2
5805	14.067	2.9091	0.1	2275.4
5806	13.883	2.9091	0.1	2322.8
5807	13.699	2.9091	0.1	2370.4
5808	13.515	2.9091	0.1	2418.2
5809	13.332	2.9091	0.1	2466.2
5810	13.148	2.9091	0.1	2514.3
5811	12.964	2.9091	0.1	2562.7
5812	12.78	2.9091	0.1	2611.2
5813	12.596	2.9091	0.1	2659.9
5814	12.412	2.9091	0.1	2708.8
5815	12.228	2.9091	0.1	2757.8
5816	12.044	2.9091	0.1	2807.1
5817	11.86	2.9091	0.1	2856.5
5818	11.676	2.9091	0.1	2906.1
5819	11.492	2.9091	0.1	2955.9
5820	11.308	2.9091	0.1	3005.8
5821	11.124	2.9091	0.1	3055.9
5822	10.94	2.9091	0.1	3106.3
5823	10.756	2.9091	0.1	3156.7
5824	10.572	2.9091	0.1	3207.4
5825	10.388	2.9091	0.1	3258.3
5826	10.205	2.9091	0.1	3309.4
5827	10.021	2.9091	0.1	3360.6
5828	9.8367	2.9091	0.1	3412.2
5829	9.6527	2.9091	0.1	3464.
5830	9.4688	2.9091	0.1	3516.1
5831	9.2848	2.9091	0.1	3568.5
5832	9.1009	2.9091	0.1	3621.4
5833	8.917	2.9091	0.1	3674.8
5834	8.733	2.9091	0.1	3728.8
5835	8.5491	2.9091	0.1	3783.6
5836	8.3652	2.9091	0.1	3839.3
5837	8.1812	2.9091	0.1	3896.2
5838	7.9973	2.9091	0.1	3954.7
5839	7.8133	2.9091	0.1	4015.1
5840	7.6294	2.9091	0.1	4078.
5841	7.4455	2.9091	0.1	4144.
5842	7.2615	2.9091	0.1	4214.2
5843	7.0776	2.9091	0.1	4289.6
5844	6.8936	2.9091	0.1	4371.8
5845	6.7097	2.9091	0.1	4462.6
5846	6.5258	2.9091	0.1	4564.6
5847	6.3418	2.9091	0.1	4680.9
5848	6.1579	2.9091	0.1	4815.7
5849	5.9739	2.9091	0.1	4974.4
5850	5.79	2.9091	0.1	5163.9
5851	5.6061	2.9091	0.1	5393.2
5852	5.4221	2.9091	0.1	5673.9
5853	5.2382	2.9091	0.1	6021.
5854	5.0542	2.9091	0.1	6452.7
5855	4.8703	2.9091	0.1	6990.9
5856	4.6864	2.9091	0.1	7657.7
5857	4.5024	2.9091	0.1	8467.1
5858	4.3185	2.9091	0.1	9405.4
5859	4.1345	2.9091	0.1	10398
5860	3.9506	2.9091	0.1	11277
5861	23.816	3.0909	0.1	39.667
5862	23.632	3.0909	0.1	78.622
5863	23.448	3.0909	0.1	117.57
5864	23.264	3.0909	0.1	156.34
5865	23.08	3.0909	0.1	194.99
5866	22.896	3.0909	0.1	233.56
5867	22.712	3.0909	0.1	272.07
5868	22.528	3.0909	0.1	310.58
5869	22.345	3.0909	0.1	349.12
5870	22.161	3.0909	0.1	387.72
5871	21.977	3.0909	0.1	426.41
5872	21.793	3.0909	0.1	465.23
5873	21.609	3.0909	0.1	504.19
5874	21.425	3.0909	0.1	543.3
5875	21.241	3.0909	0.1	582.59
5876	21.057	3.0909	0.1	622.06
5877	20.873	3.0909	0.1	661.73
5878	20.689	3.0909	0.1	701.59
5879	20.505	3.0909	0.1	741.66
5880	20.321	3.0909	0.1	781.94
5881	20.137	3.0909	0.1	822.43
5882	19.953	3.0909	0.1	863.13
5883	19.769	3.0909	0.1	904.05
5884	19.585	3.0909	0.1	945.18
5885	19.402	3.0909	0.1	986.53
5886	19.218	3.0909	0.1	1028.1
5887	19.034	3.0909	0.1	1069.9
5888	18.85	3.0909	0.1	1111.8
5889	18.666	3.0909	0.1	1154.
5890	18.482	3.0909	0.1	1196.5
5891	18.298	3.0909	0.1	1239.1
5892	18.114	3.0909	0.1	1281.9
5893	17.93	3.0909	0.1	1324.9
5894	17.746	3.0909	0.1	1368.2
5895	17.562	3.0909	0.1	1411.6
5896	17.378	3.0909	0.1	1455.3
5897	17.194	3.0909	0.1	1499.2
5898	17.01	3.0909	0.1	1543.2
5899	16.826	3.0909	0.1	1587.5
5900	16.642	3.0909	0.1	1632.
5901	16.458	3.0909	0.1	1676.7
5902	16.275	3.0909	0.1	1721.5
5903	16.091	3.0909	0.1	1766.6
5904	15.907	3.0909	0.1	1811.9
5905	15.723	3.0909	0.1	1857.4
5906	15.539	3.0909	0.1	1903.
5907	15.355	3.0909	0.1	1948.9
5908	15.171	3.0909	0.1	1995.
5909	14.987	3.0909	0.1	2041.2
5910	14.803	3.0909	0.1	2087.7
5911	14.619	3.0909	0.1	2134.3
5912	14.435	3.0909	0.1	2181.1
5913	14.251	3.0909	0.1	2228.2
5914	14.067	3.0909	0.1	2275.4
5915	13.883	3.0909	0.1	2322.8
5916	13.699	3.0909	0.1	2370.4
5917	13.515	3.0909	0.1	2418.2
5918	13.332	3.0909	0.1	2466.2
5919	13.148	3.0909	0.1	2514.3
5920	12.964	3.0909	0.1	2562.7
5921	12.78	3.0909	0.1	2611.2
5922	12.596	3.0909	0.1	2659.9
5923	12.412	3.0909	0.1	2708.8
5924	12.228	3.0909	0.1	2757.8
5925	12.044	3.0909	0.1	2807.1
5926	11.86	3.0909	0.1	2856.5
5927	11.676	3.0909	0.1	2906.1
5928	11.492	3.0909	0.1	2955.9
5929	11.308	3.0909	0.1	3005.8
5930	11.124	3.0909	0.1	3055.9
5931	10.94	3.0909	0.1	3106.3
5932	10.756	3.0909	0.1	3156.7
5933	10.572	3.0909	0.1	3207.4
5934	10.388	3.0909	0.1	3258.3
5935	10.205	3.0909	0.1	3309.4
5936	10.021	3.0909	0.1	3360.6
5937	9.8367	3.0909	0.1	3412.2
5938	9.6527	3.0909	0.1	3464.
5939	9.4688	3.0909	0.1	3516.1
5940	9.2848	3.0909	0.1	3568.5
5941	9.1009	3.0909	0.1	3621.4
5942	8.917	3.0909	0.1	3674.8
5943	8.733	3.0909	0.1	3728.8
5944	8.5491	3.0909	0.1	3783.6
5945	8.3652	3.0909	0.1	3839.3
5946	8.1812	3.0909	0.1	3896.2
5947	7.9973	3.0909	0.1	3954.7
5948	7.8133	3.0909	0.1	4015.1
5949	7.6294	3.0909	0.1	4078.
5950	7.4455	3.0909	0.1	4144.
5951	7.2615	3.0909	0.1	4214.2
5952	7.0776	3.0909	0.1	4289.6
5953	6.8936	3.0909	0.1	4371.8
5954	6.7097	3.0909	0.1	4462.6
5955	6.5258	3.0909	0.1	4564.6
5956	6.3418	3.0909	0.1	4680.9
5957	6.1579	3.0909	0.1	4815.7
5958	5.9739	3.0909	0.1	4974.4
5959	5.79	3.0909	0.1	5163.9
5960	5.6061	3.0909	0.1	5393.2
5961	5.4221	3.0909	0.1	5673.9
5962	5.2382	3.0909	0.1	6021.
5963	5.0542	3.0909	0.1	6452.7
5964	4.8703	3.0909	0.1	6990.9
5965	4.6864	3.0909	0.1	7657.7
5966	4.5024	3.0909	0.1	8467.1
5967	4.3185	3.0909	0.1	9405.4
5968	4.1345	3.0909	0.1	10398
5969	3.9506	3.0909	0.1	11277
5970	23.816	3.2727	0.1	39.676
5971	23.632	3.2727	0.1	78.61
5972	23.448	3.2727	0.1	117.53
5973	23.264	3.2727	0.1	156.29
5974	23.08	3.2727	0.1	194.92
5975	22.896	3.2727	0.1	233.47
5976	22.712	3.2727	0.1	271.97
5977	22.528	3.2727	0.1	310.47
5978	22.345	3.2727	0.1	349.01
5979	22.161	3.2727	0.1	387.61
5980	21.977	3.2727	0.1	426.31
5981	21.793	3.2727	0.1	465.13
5982	21.609	3.2727	0.1	504.09
5983	21.425	3.2727	0.1	543.21
5984	21.241	3.2727	0.1	582.51
5985	21.057	3.2727	0.1	621.99
5986	20.873	3.2727	0.1	661.67
5987	20.689	3.2727	0.1	701.55
5988	20.505	3.2727	0.1	741.63
5989	20.321	3.2727	0.1	781.92
5990	20.137	3.2727	0.1	822.42
5991	19.953	3.2727	0.1	863.13
5992	19.769	3.2727	0.1	904.05
5993	19.585	3.2727	0.1	945.19
5994	19.402	3.2727	0.1	986.55
5995	19.218	3.2727	0.1	1028.1
5996	19.034	3.2727	0.1	1069.9
5997	18.85	3.2727	0.1	1111.9
5998	18.666	3.2727	0.1	1154.1
5999	18.482	3.2727	0.1	1196.5
6000	18.298	3.2727	0.1	1239.1
6001	18.114	3.2727	0.1	1282.
6002	17.93	3.2727	0.1	1325.
6003	17.746	3.2727	0.1	1368.3
6004	17.562	3.2727	0.1	1411.7
6005	17.378	3.2727	0.1	1455.4
6006	17.194	3.2727	0.1	1499.2
6007	17.01	3.2727	0.1	1543.3
6008	16.826	3.2727	0.1	1587.6
6009	16.642	3.2727	0.1	1632.1
6010	16.458	3.2727	0.1	1676.7
6011	16.275	3.2727	0.1	1721.6
6012	16.091	3.2727	0.1	1766.7
6013	15.907	3.2727	0.1	1812.
6014	15.723	3.2727	0.1	1857.4
6015	15.539	3.2727	0.1	1903.1
6016	15.355	3.2727	0.1	1949.
6017	15.171	3.2727	0.1	1995.
6018	14.987	3.2727	0.1	2041.3
6019	14.803	3.2727	0.1	2087.8
6020	14.619	3.2727	0.1	2134.4
6021	14.435	3.2727	0.1	2181.2
6022	14.251	3.2727	0.1	2228.3
6023	14.067	3.2727	0.1	2275.5
6024	13.883	3.2727	0.1	2322.9
6025	13.699	3.2727	0.1	2370.5
6026	13.515	3.2727	0.1	2418.3
6027	13.332	3.2727	0.1	2466.3
6028	13.148	3.2727	0.1	2514.4
6029	12.964	3.2727	0.1	2562.8
6030	12.78	3.2727	0.1	2611.3
6031	12.596	3.2727	0.1	2660.
6032	12.412	3.2727	0.1	2708.9
6033	12.228	3.2727	0.1	2758.
6034	12.044	3.2727	0.1	2807.2
6035	11.86	3.2727	0.1	2856.7
6036	11.676	3.2727	0.1	2906.3
6037	11.492	3.2727	0.1	2956.
6038	11.308	3.2727	0.1	3006.
6039	11.124	3.2727	0.1	3056.1
6040	10.94	3.2727	0.1	3106.4
6041	10.756	3.2727	0.1	3156.9
6042	10.572	3.2727	0.1	3207.6
6043	10.388	3.2727	0.1	3258.5
6044	10.205	3.2727	0.1	3309.6
6045	10.021	3.2727	0.1	3360.9
6046	9.8367	3.2727	0.1	3412.4
6047	9.6527	3.2727	0.1	3464.2
6048	9.4688	3.2727	0.1	3516.3
6049	9.2848	3.2727	0.1	3568.8
6050	9.1009	3.2727	0.1	3621.7
6051	8.917	3.2727	0.1	3675.
6052	8.733	3.2727	0.1	3729.
6053	8.5491	3.2727	0.1	3783.7
6054	8.3652	3.2727	0.1	3839.4
6055	8.1812	3.2727	0.1	3896.2
6056	7.9973	3.2727	0.1	3954.5
6057	7.8133	3.2727	0.1	4014.7
6058	7.6294	3.2727	0.1	4077.3
6059	7.4455	3.2727	0.1	4143.
6060	7.2615	3.2727	0.1	4212.7
6061	7.0776	3.2727	0.1	4287.4
6062	6.8936	3.2727	0.1	4368.6
6063	6.7097	3.2727	0.1	4458.2
6064	6.5258	3.2727	0.1	4558.4
6065	6.3418	3.2727	0.1	4672.5
6066	6.1579	3.2727	0.1	4804.3
6067	5.9739	3.2727	0.1	4959.
6068	5.79	3.2727	0.1	5143.2
6069	5.6061	3.2727	0.1	5365.7
6070	5.4221	3.2727	0.1	5637.5
6071	5.2382	3.2727	0.1	5973.4
6072	5.0542	3.2727	0.1	6392.2
6073	4.8703	3.2727	0.1	6917.2
6074	4.6864	3.2727	0.1	7575.9
6075	4.5024	3.2727	0.1	8394.7
6076	4.3185	3.2727	0.1	9382.5
6077	4.1345	3.2727	0.1	10489
6078	3.9506	3.2727	0.1	11532
6079	23.816	3.4545	0.1	39.694
6080	23.632	3.4545	0.1	78.583
6081	23.448	3.4545	0.1	117.47
6082	23.264	3.4545	0.1	156.18
6083	23.08	3.4545	0.1	194.78
6084	22.896	3.4545	0.1	233.29
6085	22.712	3.4545	0.1	271.77
6086	22.528	3.4545	0.1	310.26
6087	22.345	3.4545	0.1	348.78
6088	22.161	3.4545	0.1	387.38
6089	21.977	3.4545	0.1	426.09
6090	21.793	3.4545	0.1	464.92
6091	21.609	3.4545	0.1	503.9
6092	21.425	3.4545	0.1	543.04
6093	21.241	3.4545	0.1	582.36
6094	21.057	3.4545	0.1	621.87
6095	20.873	3.4545	0.1	661.56
6096	20.689	3.4545	0.1	701.46
6097	20.505	3.4545	0.1	741.56
6098	20.321	3.4545	0.1	781.87
6099	20.137	3.4545	0.1	822.39
6100	19.953	3.4545	0.1	863.13
6101	19.769	3.4545	0.1	904.07
6102	19.585	3.4545	0.1	945.22
6103	19.402	3.4545	0.1	986.59
6104	19.218	3.4545	0.1	1028.2
6105	19.034	3.4545	0.1	1070.
6106	18.85	3.4545	0.1	1112.
6107	18.666	3.4545	0.1	1154.2
6108	18.482	3.4545	0.1	1196.6
6109	18.298	3.4545	0.1	1239.2
6110	18.114	3.4545	0.1	1282.1
6111	17.93	3.4545	0.1	1325.1
6112	17.746	3.4545	0.1	1368.4
6113	17.562	3.4545	0.1	1411.8
6114	17.378	3.4545	0.1	1455.5
6115	17.194	3.4545	0.1	1499.4
6116	17.01	3.4545	0.1	1543.5
6117	16.826	3.4545	0.1	1587.7
6118	16.642	3.4545	0.1	1632.2
6119	16.458	3.4545	0.1	1676.9
6120	16.275	3.4545	0.1	1721.8
6121	16.091	3.4545	0.1	1766.9
6122	15.907	3.4545	0.1	1812.1
6123	15.723	3.4545	0.1	1857.6
6124	15.539	3.4545	0.1	1903.3
6125	15.355	3.4545	0.1	1949.2
6126	15.171	3.4545	0.1	1995.2
6127	14.987	3.4545	0.1	2041.5
6128	14.803	3.4545	0.1	2087.9
6129	14.619	3.4545	0.1	2134.6
6130	14.435	3.4545	0.1	2181.4
6131	14.251	3.4545	0.1	2228.5
6132	14.067	3.4545	0.1	2275.7
6133	13.883	3.4545	0.1	2323.1
6134	13.699	3.4545	0.1	2370.7
6135	13.515	3.4545	0.1	2418.5
6136	13.332	3.4545	0.1	2466.5
6137	13.148	3.4545	0.1	2514.7
6138	12.964	3.4545	0.1	2563.
6139	12.78	3.4545	0.1	2611.6
6140	12.596	3.4545	0.1	2660.3
6141	12.412	3.4545	0.1	2709.2
6142	12.228	3.4545	0.1	2758.3
6143	12.044	3.4545	0.1	2807.5
6144	11.86	3.4545	0.1	2857.
6145	11.676	3.4545	0.1	2906.6
6146	11.492	3.4545	0.1	2956.4
6147	11.308	3.4545	0.1	3006.3
6148	11.124	3.4545	0.1	3056.5
6149	10.94	3.4545	0.1	3106.8
6150	10.756	3.4545	0.1	3157.3
6151	10.572	3.4545	0.1	3208.1
6152	10.388	3.4545	0.1	3259.
6153	10.205	3.4545	0.1	3310.1
6154	10.021	3.4545	0.1	3361.4
6155	9.8367	3.4545	0.1	3412.9
6156	9.6527	3.4545	0.1	3464.8
6157	9.4688	3.4545	0.1	3516.9
6158	9.2848	3.4545	0.1	3569.3
6159	9.1009	3.4545	0.1	3622.2
6160	8.917	3.4545	0.1	3675.5
6161	8.733	3.4545	0.1	3729.4
6162	8.5491	3.4545	0.1	3784.1
6163	8.3652	3.4545	0.1	3839.6
6164	8.1812	3.4545	0.1	3896.2
6165	7.9973	3.4545	0.1	3954.2
6166	7.8133	3.4545	0.1	4014.
6167	7.6294	3.4545	0.1	4076.1
6168	7.4455	3.4545	0.1	4141.1
6169	7.2615	3.4545	0.1	4209.7
6170	7.0776	3.4545	0.1	4283.
6171	6.8936	3.4545	0.1	4362.4
6172	6.7097	3.4545	0.1	4449.4
6173	6.5258	3.4545	0.1	4546.4
6174	6.3418	3.4545	0.1	4656.1
6175	6.1579	3.4545	0.1	4782.
6176	5.9739	3.4545	0.1	4929.
6177	5.79	3.4545	0.1	5103.1
6178	5.6061	3.4545	0.1	5312.1
6179	5.4221	3.4545	0.1	5566.8
6180	5.2382	3.4545	0.1	5880.9
6181	5.0542	3.4545	0.1	6273.3
6182	4.8703	3.4545	0.1	6769.7
6183	4.6864	3.4545	0.1	7405.3
6184	4.5024	3.4545	0.1	8227.4
6185	4.3185	3.4545	0.1	9292.
6186	4.1345	3.4545	0.1	10627
6187	3.9506	3.4545	0.1	12062
6188	23.816	3.6364	0.1	39.719
6189	23.632	3.6364	0.1	78.541
6190	23.448	3.6364	0.1	117.36
6191	23.264	3.6364	0.1	156.01
6192	23.08	3.6364	0.1	194.55
6193	22.896	3.6364	0.1	233.03
6194	22.712	3.6364	0.1	271.47
6195	22.528	3.6364	0.1	309.93
6196	22.345	3.6364	0.1	348.45
6197	22.161	3.6364	0.1	387.05
6198	21.977	3.6364	0.1	425.77
6199	21.793	3.6364	0.1	464.62
6200	21.609	3.6364	0.1	503.62
6201	21.425	3.6364	0.1	542.79
6202	21.241	3.6364	0.1	582.14
6203	21.057	3.6364	0.1	621.68
6204	20.873	3.6364	0.1	661.41
6205	20.689	3.6364	0.1	701.34
6206	20.505	3.6364	0.1	741.48
6207	20.321	3.6364	0.1	781.82
6208	20.137	3.6364	0.1	822.37
6209	19.953	3.6364	0.1	863.13
6210	19.769	3.6364	0.1	904.1
6211	19.585	3.6364	0.1	945.27
6212	19.402	3.6364	0.1	986.67
6213	19.218	3.6364	0.1	1028.3
6214	19.034	3.6364	0.1	1070.1
6215	18.85	3.6364	0.1	1112.1
6216	18.666	3.6364	0.1	1154.3
6217	18.482	3.6364	0.1	1196.8
6218	18.298	3.6364	0.1	1239.4
6219	18.114	3.6364	0.1	1282.3
6220	17.93	3.6364	0.1	1325.3
6221	17.746	3.6364	0.1	1368.6
6222	17.562	3.6364	0.1	1412.1
6223	17.378	3.6364	0.1	1455.7
6224	17.194	3.6364	0.1	1499.6
6225	17.01	3.6364	0.1	1543.7
6226	16.826	3.6364	0.1	1588.
6227	16.642	3.6364	0.1	1632.5
6228	16.458	3.6364	0.1	1677.1
6229	16.275	3.6364	0.1	1722.
6230	16.091	3.6364	0.1	1767.1
6231	15.907	3.6364	0.1	1812.4
6232	15.723	3.6364	0.1	1857.9
6233	15.539	3.6364	0.1	1903.6
6234	15.355	3.6364	0.1	1949.4
6235	15.171	3.6364	0.1	1995.5
6236	14.987	3.6364	0.1	2041.8
6237	14.803	3.6364	0.1	2088.2
6238	14.619	3.6364	0.1	2134.9
6239	14.435	3.6364	0.1	2181.7
6240	14.251	3.6364	0.1	2228.8
6241	14.067	3.6364	0.1	2276.
6242	13.883	3.6364	0.1	2323.4
6243	13.699	3.6364	0.1	2371.1
6244	13.515	3.6364	0.1	2418.9
6245	13.332	3.6364	0.1	2466.8
6246	13.148	3.6364	0.1	2515.
6247	12.964	3.6364	0.1	2563.4
6248	12.78	3.6364	0.1	2611.9
6249	12.596	3.6364	0.1	2660.7
6250	12.412	3.6364	0.1	2709.6
6251	12.228	3.6364	0.1	2758.7
6252	12.044	3.6364	0.1	2808.
6253	11.86	3.6364	0.1	2857.4
6254	11.676	3.6364	0.1	2907.1
6255	11.492	3.6364	0.1	2956.9
6256	11.308	3.6364	0.1	3006.9
6257	11.124	3.6364	0.1	3057.
6258	10.94	3.6364	0.1	3107.4
6259	10.756	3.6364	0.1	3158.
6260	10.572	3.6364	0.1	3208.7
6261	10.388	3.6364	0.1	3259.6
6262	10.205	3.6364	0.1	3310.8
6263	10.021	3.6364	0.1	3362.1
6264	9.8367	3.6364	0.1	3413.7
6265	9.6527	3.6364	0.1	3465.5
6266	9.4688	3.6364	0.1	3517.7
6267	9.2848	3.6364	0.1	3570.1
6268	9.1009	3.6364	0.1	3623.
6269	8.917	3.6364	0.1	3676.2
6270	8.733	3.6364	0.1	3730.1
6271	8.5491	3.6364	0.1	3784.6
6272	8.3652	3.6364	0.1	3839.9
6273	8.1812	3.6364	0.1	3896.2
6274	7.9973	3.6364	0.1	3953.8
6275	7.8133	3.6364	0.1	4013.1
6276	7.6294	3.6364	0.1	4074.3
6277	7.4455	3.6364	0.1	4138.1
6278	7.2615	3.6364	0.1	4205.3
6279	7.0776	3.6364	0.1	4276.6
6280	6.8936	3.6364	0.1	4353.3
6281	6.7097	3.6364	0.1	4436.7
6282	6.5258	3.6364	0.1	4528.9
6283	6.3418	3.6364	0.1	4632.3
6284	6.1579	3.6364	0.1	4749.9
6285	5.9739	3.6364	0.1	4885.8
6286	5.79	3.6364	0.1	5045.3
6287	5.6061	3.6364	0.1	5235.4
6288	5.4221	3.6364	0.1	5465.4
6289	5.2382	3.6364	0.1	5748.1
6290	5.0542	3.6364	0.1	6101.3
6291	4.8703	3.6364	0.1	6551.3
6292	4.6864	3.6364	0.1	7139.
6293	4.5024	3.6364	0.1	7930.1
6294	4.3185	3.6364	0.1	9041.
6295	4.1345	3.6364	0.1	10663
6296	3.9506	3.6364	0.1	12958
6297	23.816	3.8182	0.1	39.751
6298	23.632	3.8182	0.1	78.479
6299	23.448	3.8182	0.1	117.21
6300	23.264	3.8182	0.1	155.78
6301	23.08	3.8182	0.1	194.25
6302	22.896	3.8182	0.1	232.66
6303	22.712	3.8182	0.1	271.06
6304	22.528	3.8182	0.1	309.5
6305	22.345	3.8182	0.1	348.
6306	22.161	3.8182	0.1	386.61
6307	21.977	3.8182	0.1	425.34
6308	21.793	3.8182	0.1	464.22
6309	21.609	3.8182	0.1	503.26
6310	21.425	3.8182	0.1	542.47
6311	21.241	3.8182	0.1	581.86
6312	21.057	3.8182	0.1	621.45
6313	20.873	3.8182	0.1	661.22
6314	20.689	3.8182	0.1	701.2
6315	20.505	3.8182	0.1	741.38
6316	20.321	3.8182	0.1	781.76
6317	20.137	3.8182	0.1	822.35
6318	19.953	3.8182	0.1	863.14
6319	19.769	3.8182	0.1	904.14
6320	19.585	3.8182	0.1	945.35
6321	19.402	3.8182	0.1	986.77
6322	19.218	3.8182	0.1	1028.4
6323	19.034	3.8182	0.1	1070.2
6324	18.85	3.8182	0.1	1112.3
6325	18.666	3.8182	0.1	1154.5
6326	18.482	3.8182	0.1	1197.
6327	18.298	3.8182	0.1	1239.6
6328	18.114	3.8182	0.1	1282.5
6329	17.93	3.8182	0.1	1325.6
6330	17.746	3.8182	0.1	1368.9
6331	17.562	3.8182	0.1	1412.3
6332	17.378	3.8182	0.1	1456.
6333	17.194	3.8182	0.1	1499.9
6334	17.01	3.8182	0.1	1544.
6335	16.826	3.8182	0.1	1588.3
6336	16.642	3.8182	0.1	1632.8
6337	16.458	3.8182	0.1	1677.5
6338	16.275	3.8182	0.1	1722.4
6339	16.091	3.8182	0.1	1767.5
6340	15.907	3.8182	0.1	1812.7
6341	15.723	3.8182	0.1	1858.2
6342	15.539	3.8182	0.1	1903.9
6343	15.355	3.8182	0.1	1949.8
6344	15.171	3.8182	0.1	1995.9
6345	14.987	3.8182	0.1	2042.1
6346	14.803	3.8182	0.1	2088.6
6347	14.619	3.8182	0.1	2135.3
6348	14.435	3.8182	0.1	2182.1
6349	14.251	3.8182	0.1	2229.2
6350	14.067	3.8182	0.1	2276.4
6351	13.883	3.8182	0.1	2323.9
6352	13.699	3.8182	0.1	2371.5
6353	13.515	3.8182	0.1	2419.3
6354	13.332	3.8182	0.1	2467.3
6355	13.148	3.8182	0.1	2515.5
6356	12.964	3.8182	0.1	2563.9
6357	12.78	3.8182	0.1	2612.4
6358	12.596	3.8182	0.1	2661.2
6359	12.412	3.8182	0.1	2710.1
6360	12.228	3.8182	0.1	2759.2
6361	12.044	3.8182	0.1	2808.5
6362	11.86	3.8182	0.1	2858.
6363	11.676	3.8182	0.1	2907.7
6364	11.492	3.8182	0.1	2957.5
6365	11.308	3.8182	0.1	3007.6
6366	11.124	3.8182	0.1	3057.8
6367	10.94	3.8182	0.1	3108.2
6368	10.756	3.8182	0.1	3158.7
6369	10.572	3.8182	0.1	3209.5
6370	10.388	3.8182	0.1	3260.5
6371	10.205	3.8182	0.1	3311.7
6372	10.021	3.8182	0.1	3363.1
6373	9.8367	3.8182	0.1	3414.7
6374	9.6527	3.8182	0.1	3466.5
6375	9.4688	3.8182	0.1	3518.7
6376	9.2848	3.8182	0.1	3571.1
6377	9.1009	3.8182	0.1	3623.9
6378	8.917	3.8182	0.1	3677.2
6379	8.733	3.8182	0.1	3730.9
6380	8.5491	3.8182	0.1	3785.2
6381	8.3652	3.8182	0.1	3840.3
6382	8.1812	3.8182	0.1	3896.2
6383	7.9973	3.8182	0.1	3953.3
6384	7.8133	3.8182	0.1	4011.7
6385	7.6294	3.8182	0.1	4072.
6386	7.4455	3.8182	0.1	4134.4
6387	7.2615	3.8182	0.1	4199.6
6388	7.0776	3.8182	0.1	4268.3
6389	6.8936	3.8182	0.1	4341.6
6390	6.7097	3.8182	0.1	4420.5
6391	6.5258	3.8182	0.1	4506.7
6392	6.3418	3.8182	0.1	4602.
6393	6.1579	3.8182	0.1	4709.1
6394	5.9739	3.8182	0.1	4831.3
6395	5.79	3.8182	0.1	4972.7
6396	5.6061	3.8182	0.1	5139.3
6397	5.4221	3.8182	0.1	5338.6
6398	5.2382	3.8182	0.1	5581.7
6399	5.0542	3.8182	0.1	5884.3
6400	4.8703	3.8182	0.1	6270.6
6401	4.6864	3.8182	0.1	6780.4
6402	4.5024	3.8182	0.1	7483.9
6403	4.3185	3.8182	0.1	8524.
6404	4.1345	3.8182	0.1	10267
6405	3.9506	3.8182	0.1	13645
6406	23.816	4.	0.1	39.785
6407	23.632	4.	0.1	78.39
6408	23.448	4.	0.1	117.
6409	23.264	4.	0.1	155.47
6410	23.08	4.	0.1	193.84
6411	22.896	4.	0.1	232.18
6412	22.712	4.	0.1	270.54
6413	22.528	4.	0.1	308.95
6414	22.345	4.	0.1	347.45
6415	22.161	4.	0.1	386.07
6416	21.977	4.	0.1	424.83
6417	21.793	4.	0.1	463.74
6418	21.609	4.	0.1	502.83
6419	21.425	4.	0.1	542.09
6420	21.241	4.	0.1	581.54
6421	21.057	4.	0.1	621.18
6422	20.873	4.	0.1	661.01
6423	20.689	4.	0.1	701.04
6424	20.505	4.	0.1	741.27
6425	20.321	4.	0.1	781.7
6426	20.137	4.	0.1	822.34
6427	19.953	4.	0.1	863.18
6428	19.769	4.	0.1	904.22
6429	19.585	4.	0.1	945.47
6430	19.402	4.	0.1	986.92
6431	19.218	4.	0.1	1028.6
6432	19.034	4.	0.1	1070.4
6433	18.85	4.	0.1	1112.5
6434	18.666	4.	0.1	1154.8
6435	18.482	4.	0.1	1197.3
6436	18.298	4.	0.1	1239.9
6437	18.114	4.	0.1	1282.8
6438	17.93	4.	0.1	1325.9
6439	17.746	4.	0.1	1369.2
6440	17.562	4.	0.1	1412.7
6441	17.378	4.	0.1	1456.4
6442	17.194	4.	0.1	1500.3
6443	17.01	4.	0.1	1544.4
6444	16.826	4.	0.1	1588.7
6445	16.642	4.	0.1	1633.2
6446	16.458	4.	0.1	1677.9
6447	16.275	4.	0.1	1722.8
6448	16.091	4.	0.1	1767.9
6449	15.907	4.	0.1	1813.2
6450	15.723	4.	0.1	1858.7
6451	15.539	4.	0.1	1904.4
6452	15.355	4.	0.1	1950.3
6453	15.171	4.	0.1	1996.3
6454	14.987	4.	0.1	2042.6
6455	14.803	4.	0.1	2089.1
6456	14.619	4.	0.1	2135.8
6457	14.435	4.	0.1	2182.6
6458	14.251	4.	0.1	2229.7
6459	14.067	4.	0.1	2276.9
6460	13.883	4.	0.1	2324.4
6461	13.699	4.	0.1	2372.
6462	13.515	4.	0.1	2419.8
6463	13.332	4.	0.1	2467.9
6464	13.148	4.	0.1	2516.1
6465	12.964	4.	0.1	2564.5
6466	12.78	4.	0.1	2613.1
6467	12.596	4.	0.1	2661.8
6468	12.412	4.	0.1	2710.8
6469	12.228	4.	0.1	2759.9
6470	12.044	4.	0.1	2809.3
6471	11.86	4.	0.1	2858.8
6472	11.676	4.	0.1	2908.5
6473	11.492	4.	0.1	2958.3
6474	11.308	4.	0.1	3008.4
6475	11.124	4.	0.1	3058.7
6476	10.94	4.	0.1	3109.1
6477	10.756	4.	0.1	3159.7
6478	10.572	4.	0.1	3210.5
6479	10.388	4.	0.1	3261.6
6480	10.205	4.	0.1	3312.8
6481	10.021	4.	0.1	3364.2
6482	9.8367	4.	0.1	3415.9
6483	9.6527	4.	0.1	3467.8
6484	9.4688	4.	0.1	3519.9
6485	9.2848	4.	0.1	3572.4
6486	9.1009	4.	0.1	3625.1
6487	8.917	4.	0.1	3678.3
6488	8.733	4.	0.1	3731.9
6489	8.5491	4.	0.1	3786.
6490	8.3652	4.	0.1	3840.7
6491	8.1812	4.	0.1	3896.2
6492	7.9973	4.	0.1	3952.6
6493	7.8133	4.	0.1	4010.2
6494	7.6294	4.	0.1	4069.1
6495	7.4455	4.	0.1	4129.9
6496	7.2615	4.	0.1	4192.8
6497	7.0776	4.	0.1	4258.5
6498	6.8936	4.	0.1	4327.7
6499	6.7097	4.	0.1	4401.2
6500	6.5258	4.	0.1	4480.3
6501	6.3418	4.	0.1	4566.4
6502	6.1579	4.	0.1	4661.3
6503	5.9739	4.	0.1	4767.5
6504	5.79	4.	0.1	4888.2
6505	5.6061	4.	0.1	5027.8
6506	5.4221	4.	0.1	5192.
6507	5.2382	4.	0.1	5389.5
6508	5.0542	4.	0.1	5632.8
6509	4.8703	4.	0.1	5941.3
6510	4.6864	4.	0.1	6347.5
6511	4.5024	4.	0.1	6909.2
6512	4.3185	4.	0.1	7752.1
6513	4.1345	4.	0.1	9112.5
6514	3.9506	4.	0.1	13266
6515	23.816	4.1818	0.1	39.82
6516	23.632	4.1818	0.1	78.267
6517	23.448	4.1818	0.1	116.74
6518	23.264	4.1818	0.1	155.07
6519	23.08	4.1818	0.1	193.33
6520	22.896	4.1818	0.1	231.59
6521	22.712	4.1818	0.1	269.89
6522	22.528	4.1818	0.1	308.28
6523	22.345	4.1818	0.1	346.78
6524	22.161	4.1818	0.1	385.43
6525	21.977	4.1818	0.1	424.23
6526	21.793	4.1818	0.1	463.2
6527	21.609	4.1818	0.1	502.34
6528	21.425	4.1818	0.1	541.67
6529	21.241	4.1818	0.1	581.19
6530	21.057	4.1818	0.1	620.89
6531	20.873	4.1818	0.1	660.79
6532	20.689	4.1818	0.1	700.89
6533	20.505	4.1818	0.1	741.18
6534	20.321	4.1818	0.1	781.67
6535	20.137	4.1818	0.1	822.36
6536	19.953	4.1818	0.1	863.25
6537	19.769	4.1818	0.1	904.34
6538	19.585	4.1818	0.1	945.63
6539	19.402	4.1818	0.1	987.13
6540	19.218	4.1818	0.1	1028.8
6541	19.034	4.1818	0.1	1070.7
6542	18.85	4.1818	0.1	1112.8
6543	18.666	4.1818	0.1	1155.1
6544	18.482	4.1818	0.1	1197.6
6545	18.298	4.1818	0.1	1240.3
6546	18.114	4.1818	0.1	1283.2
6547	17.93	4.1818	0.1	1326.3
6548	17.746	4.1818	0.1	1369.6
6549	17.562	4.1818	0.1	1413.1
6550	17.378	4.1818	0.1	1456.9
6551	17.194	4.1818	0.1	1500.8
6552	17.01	4.1818	0.1	1544.9
6553	16.826	4.1818	0.1	1589.2
6554	16.642	4.1818	0.1	1633.7
6555	16.458	4.1818	0.1	1678.4
6556	16.275	4.1818	0.1	1723.3
6557	16.091	4.1818	0.1	1768.4
6558	15.907	4.1818	0.1	1813.7
6559	15.723	4.1818	0.1	1859.2
6560	15.539	4.1818	0.1	1904.9
6561	15.355	4.1818	0.1	1950.8
6562	15.171	4.1818	0.1	1996.9
6563	14.987	4.1818	0.1	2043.2
6564	14.803	4.1818	0.1	2089.7
6565	14.619	4.1818	0.1	2136.4
6566	14.435	4.1818	0.1	2183.2
6567	14.251	4.1818	0.1	2230.3
6568	14.067	4.1818	0.1	2277.6
6569	13.883	4.1818	0.1	2325.
6570	13.699	4.1818	0.1	2372.7
6571	13.515	4.1818	0.1	2420.5
6572	13.332	4.1818	0.1	2468.5
6573	13.148	4.1818	0.1	2516.8
6574	12.964	4.1818	0.1	2565.2
6575	12.78	4.1818	0.1	2613.8
6576	12.596	4.1818	0.1	2662.6
6577	12.412	4.1818	0.1	2711.6
6578	12.228	4.1818	0.1	2760.7
6579	12.044	4.1818	0.1	2810.1
6580	11.86	4.1818	0.1	2859.6
6581	11.676	4.1818	0.1	2909.4
6582	11.492	4.1818	0.1	2959.3
6583	11.308	4.1818	0.1	3009.4
6584	11.124	4.1818	0.1	3059.7
6585	10.94	4.1818	0.1	3110.2
6586	10.756	4.1818	0.1	3160.9
6587	10.572	4.1818	0.1	3211.8
6588	10.388	4.1818	0.1	3262.8
6589	10.205	4.1818	0.1	3314.1
6590	10.021	4.1818	0.1	3365.6
6591	9.8367	4.1818	0.1	3417.3
6592	9.6527	4.1818	0.1	3469.2
6593	9.4688	4.1818	0.1	3521.4
6594	9.2848	4.1818	0.1	3573.8
6595	9.1009	4.1818	0.1	3626.5
6596	8.917	4.1818	0.1	3679.6
6597	8.733	4.1818	0.1	3733.
6598	8.5491	4.1818	0.1	3786.9
6599	8.3652	4.1818	0.1	3841.2
6600	8.1812	4.1818	0.1	3896.2
6601	7.9973	4.1818	0.1	3951.9
6602	7.8133	4.1818	0.1	4008.4
6603	7.6294	4.1818	0.1	4065.9
6604	7.4455	4.1818	0.1	4124.7
6605	7.2615	4.1818	0.1	4185.1
6606	7.0776	4.1818	0.1	4247.3
6607	6.8936	4.1818	0.1	4312.
6608	6.7097	4.1818	0.1	4379.6
6609	6.5258	4.1818	0.1	4450.8
6610	6.3418	4.1818	0.1	4526.6
6611	6.1579	4.1818	0.1	4608.1
6612	5.9739	4.1818	0.1	4696.9
6613	5.79	4.1818	0.1	4795.1
6614	5.6061	4.1818	0.1	4905.3
6615	5.4221	4.1818	0.1	5031.5
6616	5.2382	4.1818	0.1	5179.5
6617	5.0542	4.1818	0.1	5357.9
6618	4.8703	4.1818	0.1	5580.
6619	4.6864	4.1818	0.1	5867.1
6620	4.5024	4.1818	0.1	6254.8
6621	4.3185	4.1818	0.1	6805.9
6622	4.1345	4.1818	0.1	7662.2
6623	3.9506	4.1818	0.1	9471.2
6624	23.816	4.3636	0.1	39.848
6625	23.632	4.3636	0.1	78.098
6626	23.448	4.3636	0.1	116.39
6627	23.264	4.3636	0.1	154.56
6628	23.08	4.3636	0.1	192.7
6629	22.896	4.3636	0.1	230.87
6630	22.712	4.3636	0.1	269.12
6631	22.528	4.3636	0.1	307.5
6632	22.345	4.3636	0.1	346.02
6633	22.161	4.3636	0.1	384.71
6634	21.977	4.3636	0.1	423.56
6635	21.793	4.3636	0.1	462.6
6636	21.609	4.3636	0.1	501.82
6637	21.425	4.3636	0.1	541.23
6638	21.241	4.3636	0.1	580.83
6639	21.057	4.3636	0.1	620.61
6640	20.873	4.3636	0.1	660.59
6641	20.689	4.3636	0.1	700.76
6642	20.505	4.3636	0.1	741.13
6643	20.321	4.3636	0.1	781.68
6644	20.137	4.3636	0.1	822.43
6645	19.953	4.3636	0.1	863.38
6646	19.769	4.3636	0.1	904.52
6647	19.585	4.3636	0.1	945.86
6648	19.402	4.3636	0.1	987.4
6649	19.218	4.3636	0.1	1029.1
6650	19.034	4.3636	0.1	1071.1
6651	18.85	4.3636	0.1	1113.2
6652	18.666	4.3636	0.1	1155.5
6653	18.482	4.3636	0.1	1198.1
6654	18.298	4.3636	0.1	1240.8
6655	18.114	4.3636	0.1	1283.7
6656	17.93	4.3636	0.1	1326.8
6657	17.746	4.3636	0.1	1370.2
6658	17.562	4.3636	0.1	1413.7
6659	17.378	4.3636	0.1	1457.4
6660	17.194	4.3636	0.1	1501.3
6661	17.01	4.3636	0.1	1545.4
6662	16.826	4.3636	0.1	1589.8
6663	16.642	4.3636	0.1	1634.3
6664	16.458	4.3636	0.1	1679.
6665	16.275	4.3636	0.1	1723.9
6666	16.091	4.3636	0.1	1769.
6667	15.907	4.3636	0.1	1814.3
6668	15.723	4.3636	0.1	1859.8
6669	15.539	4.3636	0.1	1905.5
6670	15.355	4.3636	0.1	1951.5
6671	15.171	4.3636	0.1	1997.6
6672	14.987	4.3636	0.1	2043.8
6673	14.803	4.3636	0.1	2090.3
6674	14.619	4.3636	0.1	2137.
6675	14.435	4.3636	0.1	2183.9
6676	14.251	4.3636	0.1	2231.
6677	14.067	4.3636	0.1	2278.3
6678	13.883	4.3636	0.1	2325.7
6679	13.699	4.3636	0.1	2373.4
6680	13.515	4.3636	0.1	2421.3
6681	13.332	4.3636	0.1	2469.3
6682	13.148	4.3636	0.1	2517.6
6683	12.964	4.3636	0.1	2566.
6684	12.78	4.3636	0.1	2614.6
6685	12.596	4.3636	0.1	2663.5
6686	12.412	4.3636	0.1	2712.5
6687	12.228	4.3636	0.1	2761.7
6688	12.044	4.3636	0.1	2811.1
6689	11.86	4.3636	0.1	2860.7
6690	11.676	4.3636	0.1	2910.4
6691	11.492	4.3636	0.1	2960.4
6692	11.308	4.3636	0.1	3010.6
6693	11.124	4.3636	0.1	3060.9
6694	10.94	4.3636	0.1	3111.5
6695	10.756	4.3636	0.1	3162.2
6696	10.572	4.3636	0.1	3213.1
6697	10.388	4.3636	0.1	3264.2
6698	10.205	4.3636	0.1	3315.6
6699	10.021	4.3636	0.1	3367.1
6700	9.8367	4.3636	0.1	3418.8
6701	9.6527	4.3636	0.1	3470.8
6702	9.4688	4.3636	0.1	3523.
6703	9.2848	4.3636	0.1	3575.4
6704	9.1009	4.3636	0.1	3628.1
6705	8.917	4.3636	0.1	3681.
6706	8.733	4.3636	0.1	3734.3
6707	8.5491	4.3636	0.1	3787.9
6708	8.3652	4.3636	0.1	3841.8
6709	8.1812	4.3636	0.1	3896.2
6710	7.9973	4.3636	0.1	3951.
6711	7.8133	4.3636	0.1	4006.4
6712	7.6294	4.3636	0.1	4062.4
6713	7.4455	4.3636	0.1	4119.1
6714	7.2615	4.3636	0.1	4176.6
6715	7.0776	4.3636	0.1	4235.2
6716	6.8936	4.3636	0.1	4295.
6717	6.7097	4.3636	0.1	4356.2
6718	6.5258	4.3636	0.1	4419.1
6719	6.3418	4.3636	0.1	4484.
6720	6.1579	4.3636	0.1	4551.4
6721	5.9739	4.3636	0.1	4621.9
6722	5.79	4.3636	0.1	4696.4
6723	5.6061	4.3636	0.1	4776.
6724	5.4221	4.3636	0.1	4862.8
6725	5.2382	4.3636	0.1	4959.5
6726	5.0542	4.3636	0.1	5070.6
6727	4.8703	4.3636	0.1	5203.2
6728	4.6864	4.3636	0.1	5367.3
6729	4.5024	4.3636	0.1	5576.9
6730	4.3185	4.3636	0.1	5842.9
6731	4.1345	4.3636	0.1	6154.2
6732	3.9506	4.3636	0.1	6524.1
6733	23.816	4.5455	0.1	39.863
6734	23.632	4.5455	0.1	77.866
6735	23.448	4.5455	0.1	115.94
6736	23.264	4.5455	0.1	153.92
6737	23.08	4.5455	0.1	191.93
6738	22.896	4.5455	0.1	230.02
6739	22.712	4.5455	0.1	268.24
6740	22.528	4.5455	0.1	306.62
6741	22.345	4.5455	0.1	345.18
6742	22.161	4.5455	0.1	383.92
6743	21.977	4.5455	0.1	422.86
6744	21.793	4.5455	0.1	461.98
6745	21.609	4.5455	0.1	501.3
6746	21.425	4.5455	0.1	540.8
6747	21.241	4.5455	0.1	580.49
6748	21.057	4.5455	0.1	620.37
6749	20.873	4.5455	0.1	660.43
6750	20.689	4.5455	0.1	700.69
6751	20.505	4.5455	0.1	741.13
6752	20.321	4.5455	0.1	781.75
6753	20.137	4.5455	0.1	822.57
6754	19.953	4.5455	0.1	863.58
6755	19.769	4.5455	0.1	904.78
6756	19.585	4.5455	0.1	946.17
6757	19.402	4.5455	0.1	987.75
6758	19.218	4.5455	0.1	1029.5
6759	19.034	4.5455	0.1	1071.5
6760	18.85	4.5455	0.1	1113.7
6761	18.666	4.5455	0.1	1156.
6762	18.482	4.5455	0.1	1198.6
6763	18.298	4.5455	0.1	1241.3
6764	18.114	4.5455	0.1	1284.3
6765	17.93	4.5455	0.1	1327.4
6766	17.746	4.5455	0.1	1370.8
6767	17.562	4.5455	0.1	1414.3
6768	17.378	4.5455	0.1	1458.
6769	17.194	4.5455	0.1	1502.
6770	17.01	4.5455	0.1	1546.1
6771	16.826	4.5455	0.1	1590.4
6772	16.642	4.5455	0.1	1635.
6773	16.458	4.5455	0.1	1679.7
6774	16.275	4.5455	0.1	1724.6
6775	16.091	4.5455	0.1	1769.7
6776	15.907	4.5455	0.1	1815.1
6777	15.723	4.5455	0.1	1860.6
6778	15.539	4.5455	0.1	1906.3
6779	15.355	4.5455	0.1	1952.2
6780	15.171	4.5455	0.1	1998.3
6781	14.987	4.5455	0.1	2044.6
6782	14.803	4.5455	0.1	2091.1
6783	14.619	4.5455	0.1	2137.8
6784	14.435	4.5455	0.1	2184.7
6785	14.251	4.5455	0.1	2231.8
6786	14.067	4.5455	0.1	2279.1
6787	13.883	4.5455	0.1	2326.6
6788	13.699	4.5455	0.1	2374.3
6789	13.515	4.5455	0.1	2422.1
6790	13.332	4.5455	0.1	2470.2
6791	13.148	4.5455	0.1	2518.5
6792	12.964	4.5455	0.1	2566.9
6793	12.78	4.5455	0.1	2615.6
6794	12.596	4.5455	0.1	2664.5
6795	12.412	4.5455	0.1	2713.5
6796	12.228	4.5455	0.1	2762.7
6797	12.044	4.5455	0.1	2812.2
6798	11.86	4.5455	0.1	2861.8
6799	11.676	4.5455	0.1	2911.6
6800	11.492	4.5455	0.1	2961.6
6801	11.308	4.5455	0.1	3011.9
6802	11.124	4.5455	0.1	3062.3
6803	10.94	4.5455	0.1	3112.9
6804	10.756	4.5455	0.1	3163.7
6805	10.572	4.5455	0.1	3214.7
6806	10.388	4.5455	0.1	3265.8
6807	10.205	4.5455	0.1	3317.2
6808	10.021	4.5455	0.1	3368.8
6809	9.8367	4.5455	0.1	3420.6
6810	9.6527	4.5455	0.1	3472.6
6811	9.4688	4.5455	0.1	3524.8
6812	9.2848	4.5455	0.1	3577.2
6813	9.1009	4.5455	0.1	3629.8
6814	8.917	4.5455	0.1	3682.6
6815	8.733	4.5455	0.1	3735.7
6816	8.5491	4.5455	0.1	3789.
6817	8.3652	4.5455	0.1	3842.5
6818	8.1812	4.5455	0.1	3896.2
6819	7.9973	4.5455	0.1	3950.1
6820	7.8133	4.5455	0.1	4004.3
6821	7.6294	4.5455	0.1	4058.6
6822	7.4455	4.5455	0.1	4113.1
6823	7.2615	4.5455	0.1	4167.8
6824	7.0776	4.5455	0.1	4222.5
6825	6.8936	4.5455	0.1	4277.2
6826	6.7097	4.5455	0.1	4331.8
6827	6.5258	4.5455	0.1	4386.1
6828	6.3418	4.5455	0.1	4439.9
6829	6.1579	4.5455	0.1	4492.9
6830	5.9739	4.5455	0.1	4544.9
6831	5.79	4.5455	0.1	4595.5
6832	5.6061	4.5455	0.1	4644.5
6833	5.4221	4.5455	0.1	4691.6
6834	5.2382	4.5455	0.1	4737.3
6835	5.0542	4.5455	0.1	4782.
6836	4.8703	4.5455	0.1	4827.3
6837	4.6864	4.5455	0.1	4875.
6838	4.5024	4.5455	0.1	4924.1
6839	4.3185	4.5455	0.1	4968.4
6840	4.1345	4.5455	0.1	4963.2
6841	3.9506	4.5455	0.1	5036.1
6842	23.816	4.7273	0.1	39.851
6843	23.632	4.7273	0.1	77.545
6844	23.448	4.7273	0.1	115.35
6845	23.264	4.7273	0.1	153.13
6846	23.08	4.7273	0.1	191.
6847	22.896	4.7273	0.1	229.02
6848	22.712	4.7273	0.1	267.23
6849	22.528	4.7273	0.1	305.65
6850	22.345	4.7273	0.1	344.28
6851	22.161	4.7273	0.1	383.12
6852	21.977	4.7273	0.1	422.15
6853	21.793	4.7273	0.1	461.38
6854	21.609	4.7273	0.1	500.81
6855	21.425	4.7273	0.1	540.42
6856	21.241	4.7273	0.1	580.21
6857	21.057	4.7273	0.1	620.19
6858	20.873	4.7273	0.1	660.35
6859	20.689	4.7273	0.1	700.69
6860	20.505	4.7273	0.1	741.21
6861	20.321	4.7273	0.1	781.92
6862	20.137	4.7273	0.1	822.8
6863	19.953	4.7273	0.1	863.87
6864	19.769	4.7273	0.1	905.13
6865	19.585	4.7273	0.1	946.57
6866	19.402	4.7273	0.1	988.2
6867	19.218	4.7273	0.1	1030.
6868	19.034	4.7273	0.1	1072.
6869	18.85	4.7273	0.1	1114.2
6870	18.666	4.7273	0.1	1156.6
6871	18.482	4.7273	0.1	1199.2
6872	18.298	4.7273	0.1	1242.
6873	18.114	4.7273	0.1	1284.9
6874	17.93	4.7273	0.1	1328.1
6875	17.746	4.7273	0.1	1371.5
6876	17.562	4.7273	0.1	1415.
6877	17.378	4.7273	0.1	1458.8
6878	17.194	4.7273	0.1	1502.7
6879	17.01	4.7273	0.1	1546.9
6880	16.826	4.7273	0.1	1591.2
6881	16.642	4.7273	0.1	1635.7
6882	16.458	4.7273	0.1	1680.5
6883	16.275	4.7273	0.1	1725.4
6884	16.091	4.7273	0.1	1770.5
6885	15.907	4.7273	0.1	1815.9
6886	15.723	4.7273	0.1	1861.4
6887	15.539	4.7273	0.1	1907.1
6888	15.355	4.7273	0.1	1953.
6889	15.171	4.7273	0.1	1999.1
6890	14.987	4.7273	0.1	2045.5
6891	14.803	4.7273	0.1	2092.
6892	14.619	4.7273	0.1	2138.7
6893	14.435	4.7273	0.1	2185.6
6894	14.251	4.7273	0.1	2232.7
6895	14.067	4.7273	0.1	2280.
6896	13.883	4.7273	0.1	2327.5
6897	13.699	4.7273	0.1	2375.2
6898	13.515	4.7273	0.1	2423.1
6899	13.332	4.7273	0.1	2471.2
6900	13.148	4.7273	0.1	2519.5
6901	12.964	4.7273	0.1	2568.
6902	12.78	4.7273	0.1	2616.7
6903	12.596	4.7273	0.1	2665.6
6904	12.412	4.7273	0.1	2714.6
6905	12.228	4.7273	0.1	2763.9
6906	12.044	4.7273	0.1	2813.4
6907	11.86	4.7273	0.1	2863.1
6908	11.676	4.7273	0.1	2912.9
6909	11.492	4.7273	0.1	2963.
6910	11.308	4.7273	0.1	3013.3
6911	11.124	4.7273	0.1	3063.7
6912	10.94	4.7273	0.1	3114.4
6913	10.756	4.7273	0.1	3165.3
6914	10.572	4.7273	0.1	3216.3
6915	10.388	4.7273	0.1	3267.6
6916	10.205	4.7273	0.1	3319.
6917	10.021	4.7273	0.1	3370.7
6918	9.8367	4.7273	0.1	3422.5
6919	9.6527	4.7273	0.1	3474.5
6920	9.4688	4.7273	0.1	3526.7
6921	9.2848	4.7273	0.1	3579.1
6922	9.1009	4.7273	0.1	3631.7
6923	8.917	4.7273	0.1	3684.4
6924	8.733	4.7273	0.1	3737.2
6925	8.5491	4.7273	0.1	3790.2
6926	8.3652	4.7273	0.1	3843.2
6927	8.1812	4.7273	0.1	3896.3
6928	7.9973	4.7273	0.1	3949.3
6929	7.8133	4.7273	0.1	4002.2
6930	7.6294	4.7273	0.1	4054.8
6931	7.4455	4.7273	0.1	4107.1
6932	7.2615	4.7273	0.1	4158.8
6933	7.0776	4.7273	0.1	4209.6
6934	6.8936	4.7273	0.1	4259.3
6935	6.7097	4.7273	0.1	4307.2
6936	6.5258	4.7273	0.1	4353.
6937	6.3418	4.7273	0.1	4395.7
6938	6.1579	4.7273	0.1	4434.6
6939	5.9739	4.7273	0.1	4468.3
6940	5.79	4.7273	0.1	4495.7
6941	5.6061	4.7273	0.1	4514.8
6942	5.4221	4.7273	0.1	4523.9
6943	5.2382	4.7273	0.1	4520.8
6944	5.0542	4.7273	0.1	4503.1
6945	4.8703	4.7273	0.1	4468.2
6946	4.6864	4.7273	0.1	4413.3
6947	4.5024	4.7273	0.1	4334.
6948	4.3185	4.7273	0.1	4222.2
6949	4.1345	4.7273	0.1	4068.7
6950	3.9506	4.7273	0.1	4009.4
6951	23.816	4.9091	0.1	39.793
6952	23.632	4.9091	0.1	77.099
6953	23.448	4.9091	0.1	114.59
6954	23.264	4.9091	0.1	152.16
6955	23.08	4.9091	0.1	189.91
6956	22.896	4.9091	0.1	227.9
6957	22.712	4.9091	0.1	266.15
6958	22.528	4.9091	0.1	304.64
6959	22.345	4.9091	0.1	343.38
6960	22.161	4.9091	0.1	382.33
6961	21.977	4.9091	0.1	421.49
6962	21.793	4.9091	0.1	460.85
6963	21.609	4.9091	0.1	500.4
6964	21.425	4.9091	0.1	540.13
6965	21.241	4.9091	0.1	580.04
6966	21.057	4.9091	0.1	620.12
6967	20.873	4.9091	0.1	660.38
6968	20.689	4.9091	0.1	700.81
6969	20.505	4.9091	0.1	741.41
6970	20.321	4.9091	0.1	782.19
6971	20.137	4.9091	0.1	823.15
6972	19.953	4.9091	0.1	864.28
6973	19.769	4.9091	0.1	905.6
6974	19.585	4.9091	0.1	947.09
6975	19.402	4.9091	0.1	988.77
6976	19.218	4.9091	0.1	1030.6
6977	19.034	4.9091	0.1	1072.7
6978	18.85	4.9091	0.1	1114.9
6979	18.666	4.9091	0.1	1157.3
6980	18.482	4.9091	0.1	1199.9
6981	18.298	4.9091	0.1	1242.7
6982	18.114	4.9091	0.1	1285.7
6983	17.93	4.9091	0.1	1328.9
6984	17.746	4.9091	0.1	1372.3
6985	17.562	4.9091	0.1	1415.9
6986	17.378	4.9091	0.1	1459.6
6987	17.194	4.9091	0.1	1503.6
6988	17.01	4.9091	0.1	1547.7
6989	16.826	4.9091	0.1	1592.1
6990	16.642	4.9091	0.1	1636.6
6991	16.458	4.9091	0.1	1681.4
6992	16.275	4.9091	0.1	1726.3
6993	16.091	4.9091	0.1	1771.4
6994	15.907	4.9091	0.1	1816.8
6995	15.723	4.9091	0.1	1862.3
6996	15.539	4.9091	0.1	1908.
6997	15.355	4.9091	0.1	1954.
6998	15.171	4.9091	0.1	2000.1
6999	14.987	4.9091	0.1	2046.4
7000	14.803	4.9091	0.1	2092.9
7001	14.619	4.9091	0.1	2139.7
7002	14.435	4.9091	0.1	2186.6
7003	14.251	4.9091	0.1	2233.7
7004	14.067	4.9091	0.1	2281.
7005	13.883	4.9091	0.1	2328.5
7006	13.699	4.9091	0.1	2376.3
7007	13.515	4.9091	0.1	2424.2
7008	13.332	4.9091	0.1	2472.3
7009	13.148	4.9091	0.1	2520.6
7010	12.964	4.9091	0.1	2569.1
7011	12.78	4.9091	0.1	2617.9
7012	12.596	4.9091	0.1	2666.8
7013	12.412	4.9091	0.1	2715.9
7014	12.228	4.9091	0.1	2765.2
7015	12.044	4.9091	0.1	2814.7
7016	11.86	4.9091	0.1	2864.5
7017	11.676	4.9091	0.1	2914.4
7018	11.492	4.9091	0.1	2964.5
7019	11.308	4.9091	0.1	3014.8
7020	11.124	4.9091	0.1	3065.4
7021	10.94	4.9091	0.1	3116.1
7022	10.756	4.9091	0.1	3167.
7023	10.572	4.9091	0.1	3218.1
7024	10.388	4.9091	0.1	3269.5
7025	10.205	4.9091	0.1	3321.
7026	10.021	4.9091	0.1	3372.7
7027	9.8367	4.9091	0.1	3424.5
7028	9.6527	4.9091	0.1	3476.6
7029	9.4688	4.9091	0.1	3528.8
7030	9.2848	4.9091	0.1	3581.2
7031	9.1009	4.9091	0.1	3633.6
7032	8.917	4.9091	0.1	3686.2
7033	8.733	4.9091	0.1	3738.8
7034	8.5491	4.9091	0.1	3791.5
7035	8.3652	4.9091	0.1	3844.
7036	8.1812	4.9091	0.1	3896.4
7037	7.9973	4.9091	0.1	3948.5
7038	7.8133	4.9091	0.1	4000.2
7039	7.6294	4.9091	0.1	4051.2
7040	7.4455	4.9091	0.1	4101.2
7041	7.2615	4.9091	0.1	4150.
7042	7.0776	4.9091	0.1	4197.
7043	6.8936	4.9091	0.1	4241.7
7044	6.7097	4.9091	0.1	4283.3
7045	6.5258	4.9091	0.1	4320.7
7046	6.3418	4.9091	0.1	4352.9
7047	6.1579	4.9091	0.1	4378.2
7048	5.9739	4.9091	0.1	4394.7
7049	5.79	4.9091	0.1	4400.1
7050	5.6061	4.9091	0.1	4391.4
7051	5.4221	4.9091	0.1	4365.3
7052	5.2382	4.9091	0.1	4317.6
7053	5.0542	4.9091	0.1	4243.8
7054	4.8703	4.9091	0.1	4139.2
7055	4.6864	4.9091	0.1	3999.3
7056	4.5024	4.9091	0.1	3821.5
7057	4.3185	4.9091	0.1	3607.6
7058	4.1345	4.9091	0.1	3370.7
7059	3.9506	4.9091	0.1	3255.8
7060	23.816	5.0909	0.1	39.657
7061	23.632	5.0909	0.1	76.474
7062	23.448	5.0909	0.1	113.61
7063	23.264	5.0909	0.1	150.98
7064	23.08	5.0909	0.1	188.67
7065	22.896	5.0909	0.1	226.69
7066	22.712	5.0909	0.1	265.03
7067	22.528	5.0909	0.1	303.66
7068	22.345	5.0909	0.1	342.54
7069	22.161	5.0909	0.1	381.64
7070	21.977	5.0909	0.1	420.95
7071	21.793	5.0909	0.1	460.45
7072	21.609	5.0909	0.1	500.13
7073	21.425	5.0909	0.1	539.99
7074	21.241	5.0909	0.1	580.01
7075	21.057	5.0909	0.1	620.2
7076	20.873	5.0909	0.1	660.56
7077	20.689	5.0909	0.1	701.08
7078	20.505	5.0909	0.1	741.77
7079	20.321	5.0909	0.1	782.62
7080	20.137	5.0909	0.1	823.64
7081	19.953	5.0909	0.1	864.84
7082	19.769	5.0909	0.1	906.21
7083	19.585	5.0909	0.1	947.75
7084	19.402	5.0909	0.1	989.47
7085	19.218	5.0909	0.1	1031.4
7086	19.034	5.0909	0.1	1073.5
7087	18.85	5.0909	0.1	1115.7
7088	18.666	5.0909	0.1	1158.2
7089	18.482	5.0909	0.1	1200.8
7090	18.298	5.0909	0.1	1243.6
7091	18.114	5.0909	0.1	1286.6
7092	17.93	5.0909	0.1	1329.8
7093	17.746	5.0909	0.1	1373.2
7094	17.562	5.0909	0.1	1416.8
7095	17.378	5.0909	0.1	1460.6
7096	17.194	5.0909	0.1	1504.5
7097	17.01	5.0909	0.1	1548.7
7098	16.826	5.0909	0.1	1593.1
7099	16.642	5.0909	0.1	1637.6
7100	16.458	5.0909	0.1	1682.4
7101	16.275	5.0909	0.1	1727.3
7102	16.091	5.0909	0.1	1772.5
7103	15.907	5.0909	0.1	1817.8
7104	15.723	5.0909	0.1	1863.3
7105	15.539	5.0909	0.1	1909.1
7106	15.355	5.0909	0.1	1955.
7107	15.171	5.0909	0.1	2001.1
7108	14.987	5.0909	0.1	2047.5
7109	14.803	5.0909	0.1	2094.
7110	14.619	5.0909	0.1	2140.7
7111	14.435	5.0909	0.1	2187.7
7112	14.251	5.0909	0.1	2234.8
7113	14.067	5.0909	0.1	2282.1
7114	13.883	5.0909	0.1	2329.7
7115	13.699	5.0909	0.1	2377.4
7116	13.515	5.0909	0.1	2425.4
7117	13.332	5.0909	0.1	2473.5
7118	13.148	5.0909	0.1	2521.8
7119	12.964	5.0909	0.1	2570.4
7120	12.78	5.0909	0.1	2619.1
7121	12.596	5.0909	0.1	2668.1
7122	12.412	5.0909	0.1	2717.3
7123	12.228	5.0909	0.1	2766.6
7124	12.044	5.0909	0.1	2816.2
7125	11.86	5.0909	0.1	2866.
7126	11.676	5.0909	0.1	2915.9
7127	11.492	5.0909	0.1	2966.1
7128	11.308	5.0909	0.1	3016.5
7129	11.124	5.0909	0.1	3067.1
7130	10.94	5.0909	0.1	3117.9
7131	10.756	5.0909	0.1	3168.9
7132	10.572	5.0909	0.1	3220.1
7133	10.388	5.0909	0.1	3271.4
7134	10.205	5.0909	0.1	3323.
7135	10.021	5.0909	0.1	3374.8
7136	9.8367	5.0909	0.1	3426.7
7137	9.6527	5.0909	0.1	3478.8
7138	9.4688	5.0909	0.1	3531.
7139	9.2848	5.0909	0.1	3583.4
7140	9.1009	5.0909	0.1	3635.8
7141	8.917	5.0909	0.1	3688.2
7142	8.733	5.0909	0.1	3740.6
7143	8.5491	5.0909	0.1	3792.9
7144	8.3652	5.0909	0.1	3845.
7145	8.1812	5.0909	0.1	3896.7
7146	7.9973	5.0909	0.1	3948.
7147	7.8133	5.0909	0.1	3998.4
7148	7.6294	5.0909	0.1	4047.8
7149	7.4455	5.0909	0.1	4095.7
7150	7.2615	5.0909	0.1	4141.7
7151	7.0776	5.0909	0.1	4185.1
7152	6.8936	5.0909	0.1	4225.1
7153	6.7097	5.0909	0.1	4260.6
7154	6.5258	5.0909	0.1	4290.4
7155	6.3418	5.0909	0.1	4312.8
7156	6.1579	5.0909	0.1	4325.6
7157	5.9739	5.0909	0.1	4326.4
7158	5.79	5.0909	0.1	4311.9
7159	5.6061	5.0909	0.1	4278.2
7160	5.4221	5.0909	0.1	4220.8
7161	5.2382	5.0909	0.1	4134.3
7162	5.0542	5.0909	0.1	4012.7
7163	4.8703	5.0909	0.1	3850.1
7164	4.6864	5.0909	0.1	3642.
7165	4.5024	5.0909	0.1	3388.9
7166	4.3185	5.0909	0.1	3101.6
7167	4.1345	5.0909	0.1	2809.6
7168	3.9506	5.0909	0.1	2651.3
7169	23.816	5.2727	0.1	39.389
7170	23.632	5.2727	0.1	75.593
7171	23.448	5.2727	0.1	112.37
7172	23.264	5.2727	0.1	149.61
7173	23.08	5.2727	0.1	187.34
7174	22.896	5.2727	0.1	225.49
7175	22.712	5.2727	0.1	264.
7176	22.528	5.2727	0.1	302.81
7177	22.345	5.2727	0.1	341.87
7178	22.161	5.2727	0.1	381.14
7179	21.977	5.2727	0.1	420.61
7180	21.793	5.2727	0.1	460.26
7181	21.609	5.2727	0.1	500.08
7182	21.425	5.2727	0.1	540.06
7183	21.241	5.2727	0.1	580.2
7184	21.057	5.2727	0.1	620.49
7185	20.873	5.2727	0.1	660.94
7186	20.689	5.2727	0.1	701.55
7187	20.505	5.2727	0.1	742.31
7188	20.321	5.2727	0.1	783.23
7189	20.137	5.2727	0.1	824.32
7190	19.953	5.2727	0.1	865.57
7191	19.769	5.2727	0.1	906.98
7192	19.585	5.2727	0.1	948.57
7193	19.402	5.2727	0.1	990.33
7194	19.218	5.2727	0.1	1032.3
7195	19.034	5.2727	0.1	1074.4
7196	18.85	5.2727	0.1	1116.7
7197	18.666	5.2727	0.1	1159.1
7198	18.482	5.2727	0.1	1201.8
7199	18.298	5.2727	0.1	1244.6
7200	18.114	5.2727	0.1	1287.7
7201	17.93	5.2727	0.1	1330.9
7202	17.746	5.2727	0.1	1374.3
7203	17.562	5.2727	0.1	1417.9
7204	17.378	5.2727	0.1	1461.6
7205	17.194	5.2727	0.1	1505.6
7206	17.01	5.2727	0.1	1549.8
7207	16.826	5.2727	0.1	1594.2
7208	16.642	5.2727	0.1	1638.7
7209	16.458	5.2727	0.1	1683.5
7210	16.275	5.2727	0.1	1728.4
7211	16.091	5.2727	0.1	1773.6
7212	15.907	5.2727	0.1	1818.9
7213	15.723	5.2727	0.1	1864.5
7214	15.539	5.2727	0.1	1910.2
7215	15.355	5.2727	0.1	1956.1
7216	15.171	5.2727	0.1	2002.3
7217	14.987	5.2727	0.1	2048.6
7218	14.803	5.2727	0.1	2095.2
7219	14.619	5.2727	0.1	2141.9
7220	14.435	5.2727	0.1	2188.9
7221	14.251	5.2727	0.1	2236.
7222	14.067	5.2727	0.1	2283.4
7223	13.883	5.2727	0.1	2330.9
7224	13.699	5.2727	0.1	2378.7
7225	13.515	5.2727	0.1	2426.6
7226	13.332	5.2727	0.1	2474.8
7227	13.148	5.2727	0.1	2523.2
7228	12.964	5.2727	0.1	2571.7
7229	12.78	5.2727	0.1	2620.5
7230	12.596	5.2727	0.1	2669.5
7231	12.412	5.2727	0.1	2718.7
7232	12.228	5.2727	0.1	2768.1
7233	12.044	5.2727	0.1	2817.7
7234	11.86	5.2727	0.1	2867.6
7235	11.676	5.2727	0.1	2917.6
7236	11.492	5.2727	0.1	2967.8
7237	11.308	5.2727	0.1	3018.3
7238	11.124	5.2727	0.1	3068.9
7239	10.94	5.2727	0.1	3119.8
7240	10.756	5.2727	0.1	3170.8
7241	10.572	5.2727	0.1	3222.1
7242	10.388	5.2727	0.1	3273.6
7243	10.205	5.2727	0.1	3325.2
7244	10.021	5.2727	0.1	3377.
7245	9.8367	5.2727	0.1	3429.
7246	9.6527	5.2727	0.1	3481.1
7247	9.4688	5.2727	0.1	3533.4
7248	9.2848	5.2727	0.1	3585.7
7249	9.1009	5.2727	0.1	3638.
7250	8.917	5.2727	0.1	3690.3
7251	8.733	5.2727	0.1	3742.5
7252	8.5491	5.2727	0.1	3794.5
7253	8.3652	5.2727	0.1	3846.2
7254	8.1812	5.2727	0.1	3897.3
7255	7.9973	5.2727	0.1	3947.7
7256	7.8133	5.2727	0.1	3997.
7257	7.6294	5.2727	0.1	4044.9
7258	7.4455	5.2727	0.1	4090.8
7259	7.2615	5.2727	0.1	4134.3
7260	7.0776	5.2727	0.1	4174.3
7261	6.8936	5.2727	0.1	4210.1
7262	6.7097	5.2727	0.1	4240.2
7263	6.5258	5.2727	0.1	4263.
7264	6.3418	5.2727	0.1	4276.6
7265	6.1579	5.2727	0.1	4278.4
7266	5.9739	5.2727	0.1	4265.3
7267	5.79	5.2727	0.1	4233.6
7268	5.6061	5.2727	0.1	4178.6
7269	5.4221	5.2727	0.1	4094.8
7270	5.2382	5.2727	0.1	3976.1
7271	5.0542	5.2727	0.1	3815.6
7272	4.8703	5.2727	0.1	3606.9
7273	4.6864	5.2727	0.1	3345.8
7274	4.5024	5.2727	0.1	3034.
7275	4.3185	5.2727	0.1	2686.9
7276	4.1345	5.2727	0.1	2344.2
7277	3.9506	5.2727	0.1	2140.2
7278	23.816	5.4545	0.1	38.871
7279	23.632	5.4545	0.1	74.348
7280	23.448	5.4545	0.1	110.87
7281	23.264	5.4545	0.1	148.16
7282	23.08	5.4545	0.1	186.08
7283	22.896	5.4545	0.1	224.48
7284	22.712	5.4545	0.1	263.22
7285	22.528	5.4545	0.1	302.25
7286	22.345	5.4545	0.1	341.51
7287	22.161	5.4545	0.1	380.97
7288	21.977	5.4545	0.1	420.6
7289	21.793	5.4545	0.1	460.39
7290	21.609	5.4545	0.1	500.34
7291	21.425	5.4545	0.1	540.43
7292	21.241	5.4545	0.1	580.67
7293	21.057	5.4545	0.1	621.05
7294	20.873	5.4545	0.1	661.58
7295	20.689	5.4545	0.1	702.26
7296	20.505	5.4545	0.1	743.09
7297	20.321	5.4545	0.1	784.07
7298	20.137	5.4545	0.1	825.21
7299	19.953	5.4545	0.1	866.5
7300	19.769	5.4545	0.1	907.96
7301	19.585	5.4545	0.1	949.59
7302	19.402	5.4545	0.1	991.38
7303	19.218	5.4545	0.1	1033.3
7304	19.034	5.4545	0.1	1075.5
7305	18.85	5.4545	0.1	1117.8
7306	18.666	5.4545	0.1	1160.3
7307	18.482	5.4545	0.1	1202.9
7308	18.298	5.4545	0.1	1245.8
7309	18.114	5.4545	0.1	1288.8
7310	17.93	5.4545	0.1	1332.1
7311	17.746	5.4545	0.1	1375.5
7312	17.562	5.4545	0.1	1419.1
7313	17.378	5.4545	0.1	1462.9
7314	17.194	5.4545	0.1	1506.8
7315	17.01	5.4545	0.1	1551.
7316	16.826	5.4545	0.1	1595.4
7317	16.642	5.4545	0.1	1639.9
7318	16.458	5.4545	0.1	1684.7
7319	16.275	5.4545	0.1	1729.7
7320	16.091	5.4545	0.1	1774.8
7321	15.907	5.4545	0.1	1820.2
7322	15.723	5.4545	0.1	1865.7
7323	15.539	5.4545	0.1	1911.5
7324	15.355	5.4545	0.1	1957.4
7325	15.171	5.4545	0.1	2003.5
7326	14.987	5.4545	0.1	2049.9
7327	14.803	5.4545	0.1	2096.4
7328	14.619	5.4545	0.1	2143.2
7329	14.435	5.4545	0.1	2190.2
7330	14.251	5.4545	0.1	2237.3
7331	14.067	5.4545	0.1	2284.7
7332	13.883	5.4545	0.1	2332.2
7333	13.699	5.4545	0.1	2380.
7334	13.515	5.4545	0.1	2428.
7335	13.332	5.4545	0.1	2476.2
7336	13.148	5.4545	0.1	2524.6
7337	12.964	5.4545	0.1	2573.2
7338	12.78	5.4545	0.1	2622.
7339	12.596	5.4545	0.1	2671.
7340	12.412	5.4545	0.1	2720.3
7341	12.228	5.4545	0.1	2769.7
7342	12.044	5.4545	0.1	2819.4
7343	11.86	5.4545	0.1	2869.3
7344	11.676	5.4545	0.1	2919.3
7345	11.492	5.4545	0.1	2969.6
7346	11.308	5.4545	0.1	3020.1
7347	11.124	5.4545	0.1	3070.9
7348	10.94	5.4545	0.1	3121.8
7349	10.756	5.4545	0.1	3172.9
7350	10.572	5.4545	0.1	3224.3
7351	10.388	5.4545	0.1	3275.8
7352	10.205	5.4545	0.1	3327.5
7353	10.021	5.4545	0.1	3379.4
7354	9.8367	5.4545	0.1	3431.4
7355	9.6527	5.4545	0.1	3483.6
7356	9.4688	5.4545	0.1	3535.8
7357	9.2848	5.4545	0.1	3588.1
7358	9.1009	5.4545	0.1	3640.4
7359	8.917	5.4545	0.1	3692.6
7360	8.733	5.4545	0.1	3744.7
7361	8.5491	5.4545	0.1	3796.4
7362	8.3652	5.4545	0.1	3847.6
7363	8.1812	5.4545	0.1	3898.2
7364	7.9973	5.4545	0.1	3947.8
7365	7.8133	5.4545	0.1	3996.1
7366	7.6294	5.4545	0.1	4042.7
7367	7.4455	5.4545	0.1	4086.9
7368	7.2615	5.4545	0.1	4128.
7369	7.0776	5.4545	0.1	4165.2
7370	6.8936	5.4545	0.1	4197.2
7371	6.7097	5.4545	0.1	4222.5
7372	6.5258	5.4545	0.1	4239.4
7373	6.3418	5.4545	0.1	4245.5
7374	6.1579	5.4545	0.1	4238.
7375	5.9739	5.4545	0.1	4213.3
7376	5.79	5.4545	0.1	4167.3
7377	5.6061	5.4545	0.1	4094.9
7378	5.4221	5.4545	0.1	3990.1
7379	5.2382	5.4545	0.1	3846.2
7380	5.0542	5.4545	0.1	3656.1
7381	4.8703	5.4545	0.1	3413.
7382	4.6864	5.4545	0.1	3112.2
7383	4.5024	5.4545	0.1	2754.7
7384	4.3185	5.4545	0.1	2354.9
7385	4.1345	5.4545	0.1	1954.2
7386	3.9506	5.4545	0.1	1687.6
7387	23.816	5.6364	0.1	38.015
7388	23.632	5.6364	0.1	72.796
7389	23.448	5.6364	0.1	109.44
7390	23.264	5.6364	0.1	147.11
7391	23.08	5.6364	0.1	185.39
7392	22.896	5.6364	0.1	224.1
7393	22.712	5.6364	0.1	263.12
7394	22.528	5.6364	0.1	302.37
7395	22.345	5.6364	0.1	341.81
7396	22.161	5.6364	0.1	381.43
7397	21.977	5.6364	0.1	421.19
7398	21.793	5.6364	0.1	461.1
7399	21.609	5.6364	0.1	501.15
7400	21.425	5.6364	0.1	541.34
7401	21.241	5.6364	0.1	581.65
7402	21.057	5.6364	0.1	622.11
7403	20.873	5.6364	0.1	662.7
7404	20.689	5.6364	0.1	703.43
7405	20.505	5.6364	0.1	744.31
7406	20.321	5.6364	0.1	785.33
7407	20.137	5.6364	0.1	826.5
7408	19.953	5.6364	0.1	867.83
7409	19.769	5.6364	0.1	909.32
7410	19.585	5.6364	0.1	950.96
7411	19.402	5.6364	0.1	992.78
7412	19.218	5.6364	0.1	1034.8
7413	19.034	5.6364	0.1	1076.9
7414	18.85	5.6364	0.1	1119.2
7415	18.666	5.6364	0.1	1161.7
7416	18.482	5.6364	0.1	1204.4
7417	18.298	5.6364	0.1	1247.3
7418	18.114	5.6364	0.1	1290.3
7419	17.93	5.6364	0.1	1333.5
7420	17.746	5.6364	0.1	1376.9
7421	17.562	5.6364	0.1	1420.5
7422	17.378	5.6364	0.1	1464.3
7423	17.194	5.6364	0.1	1508.3
7424	17.01	5.6364	0.1	1552.5
7425	16.826	5.6364	0.1	1596.9
7426	16.642	5.6364	0.1	1641.4
7427	16.458	5.6364	0.1	1686.2
7428	16.275	5.6364	0.1	1731.1
7429	16.091	5.6364	0.1	1776.3
7430	15.907	5.6364	0.1	1821.6
7431	15.723	5.6364	0.1	1867.2
7432	15.539	5.6364	0.1	1912.9
7433	15.355	5.6364	0.1	1958.9
7434	15.171	5.6364	0.1	2005.
7435	14.987	5.6364	0.1	2051.4
7436	14.803	5.6364	0.1	2097.9
7437	14.619	5.6364	0.1	2144.7
7438	14.435	5.6364	0.1	2191.6
7439	14.251	5.6364	0.1	2238.8
7440	14.067	5.6364	0.1	2286.2
7441	13.883	5.6364	0.1	2333.8
7442	13.699	5.6364	0.1	2381.6
7443	13.515	5.6364	0.1	2429.6
7444	13.332	5.6364	0.1	2477.8
7445	13.148	5.6364	0.1	2526.2
7446	12.964	5.6364	0.1	2574.8
7447	12.78	5.6364	0.1	2623.7
7448	12.596	5.6364	0.1	2672.7
7449	12.412	5.6364	0.1	2722.
7450	12.228	5.6364	0.1	2771.5
7451	12.044	5.6364	0.1	2821.2
7452	11.86	5.6364	0.1	2871.1
7453	11.676	5.6364	0.1	2921.3
7454	11.492	5.6364	0.1	2971.6
7455	11.308	5.6364	0.1	3022.2
7456	11.124	5.6364	0.1	3073.
7457	10.94	5.6364	0.1	3124.
7458	10.756	5.6364	0.1	3175.2
7459	10.572	5.6364	0.1	3226.6
7460	10.388	5.6364	0.1	3278.2
7461	10.205	5.6364	0.1	3330.
7462	10.021	5.6364	0.1	3381.9
7463	9.8367	5.6364	0.1	3434.
7464	9.6527	5.6364	0.1	3486.2
7465	9.4688	5.6364	0.1	3538.5
7466	9.2848	5.6364	0.1	3590.8
7467	9.1009	5.6364	0.1	3643.
7468	8.917	5.6364	0.1	3695.2
7469	8.733	5.6364	0.1	3747.
7470	8.5491	5.6364	0.1	3798.5
7471	8.3652	5.6364	0.1	3849.5
7472	8.1812	5.6364	0.1	3899.6
7473	7.9973	5.6364	0.1	3948.5
7474	7.8133	5.6364	0.1	3996.
7475	7.6294	5.6364	0.1	4041.4
7476	7.4455	5.6364	0.1	4084.1
7477	7.2615	5.6364	0.1	4123.3
7478	7.0776	5.6364	0.1	4158.1
7479	6.8936	5.6364	0.1	4186.9
7480	6.7097	5.6364	0.1	4208.4
7481	6.5258	5.6364	0.1	4220.4
7482	6.3418	5.6364	0.1	4220.4
7483	6.1579	5.6364	0.1	4205.5
7484	5.9739	5.6364	0.1	4171.7
7485	5.79	5.6364	0.1	4114.7
7486	5.6061	5.6364	0.1	4029.1
7487	5.4221	5.6364	0.1	3908.7
7488	5.2382	5.6364	0.1	3746.7
7489	5.0542	5.6364	0.1	3535.9
7490	4.8703	5.6364	0.1	3269.2
7491	4.6864	5.6364	0.1	2941.6
7492	4.5024	5.6364	0.1	2551.7
7493	4.3185	5.6364	0.1	2107.7
7494	4.1345	5.6364	0.1	1639.7
7495	3.9506	5.6364	0.1	1273.2
7496	23.816	5.8182	0.1	36.997
7497	23.632	5.8182	0.1	72.697
7498	23.448	5.8182	0.1	110.5
7499	23.264	5.8182	0.1	148.96
7500	23.08	5.8182	0.1	187.81
7501	22.896	5.8182	0.1	226.93
7502	22.712	5.8182	0.1	266.24
7503	22.528	5.8182	0.1	305.73
7504	22.345	5.8182	0.1	345.36
7505	22.161	5.8182	0.1	385.12
7506	21.977	5.8182	0.1	425.
7507	21.793	5.8182	0.1	465.01
7508	21.609	5.8182	0.1	505.13
7509	21.425	5.8182	0.1	545.37
7510	21.241	5.8182	0.1	585.74
7511	21.057	5.8182	0.1	626.22
7512	20.873	5.8182	0.1	666.84
7513	20.689	5.8182	0.1	707.59
7514	20.505	5.8182	0.1	748.47
7515	20.321	5.8182	0.1	789.5
7516	20.137	5.8182	0.1	830.67
7517	19.953	5.8182	0.1	871.98
7518	19.769	5.8182	0.1	913.46
7519	19.585	5.8182	0.1	955.09
7520	19.402	5.8182	0.1	996.88
7521	19.218	5.8182	0.1	1038.8
7522	19.034	5.8182	0.1	1081.
7523	18.85	5.8182	0.1	1123.3
7524	18.666	5.8182	0.1	1165.7
7525	18.482	5.8182	0.1	1208.4
7526	18.298	5.8182	0.1	1251.2
7527	18.114	5.8182	0.1	1294.2
7528	17.93	5.8182	0.1	1337.4
7529	17.746	5.8182	0.1	1380.8
7530	17.562	5.8182	0.1	1424.3
7531	17.378	5.8182	0.1	1468.1
7532	17.194	5.8182	0.1	1512.
7533	17.01	5.8182	0.1	1556.2
7534	16.826	5.8182	0.1	1600.5
7535	16.642	5.8182	0.1	1645.
7536	16.458	5.8182	0.1	1689.7
7537	16.275	5.8182	0.1	1734.7
7538	16.091	5.8182	0.1	1779.8
7539	15.907	5.8182	0.1	1825.1
7540	15.723	5.8182	0.1	1870.6
7541	15.539	5.8182	0.1	1916.3
7542	15.355	5.8182	0.1	1962.3
7543	15.171	5.8182	0.1	2008.4
7544	14.987	5.8182	0.1	2054.7
7545	14.803	5.8182	0.1	2101.2
7546	14.619	5.8182	0.1	2148.
7547	14.435	5.8182	0.1	2194.9
7548	14.251	5.8182	0.1	2242.1
7549	14.067	5.8182	0.1	2289.4
7550	13.883	5.8182	0.1	2337.
7551	13.699	5.8182	0.1	2384.8
7552	13.515	5.8182	0.1	2432.8
7553	13.332	5.8182	0.1	2481.
7554	13.148	5.8182	0.1	2529.4
7555	12.964	5.8182	0.1	2578.
7556	12.78	5.8182	0.1	2626.9
7557	12.596	5.8182	0.1	2675.9
7558	12.412	5.8182	0.1	2725.2
7559	12.228	5.8182	0.1	2774.7
7560	12.044	5.8182	0.1	2824.4
7561	11.86	5.8182	0.1	2874.4
7562	11.676	5.8182	0.1	2924.5
7563	11.492	5.8182	0.1	2974.9
7564	11.308	5.8182	0.1	3025.5
7565	11.124	5.8182	0.1	3076.3
7566	10.94	5.8182	0.1	3127.4
7567	10.756	5.8182	0.1	3178.6
7568	10.572	5.8182	0.1	3230.
7569	10.388	5.8182	0.1	3281.7
7570	10.205	5.8182	0.1	3333.5
7571	10.021	5.8182	0.1	3385.5
7572	9.8367	5.8182	0.1	3437.6
7573	9.6527	5.8182	0.1	3489.8
7574	9.4688	5.8182	0.1	3542.1
7575	9.2848	5.8182	0.1	3594.4
7576	9.1009	5.8182	0.1	3646.6
7577	8.917	5.8182	0.1	3698.6
7578	8.733	5.8182	0.1	3750.4
7579	8.5491	5.8182	0.1	3801.7
7580	8.3652	5.8182	0.1	3852.3
7581	8.1812	5.8182	0.1	3902.1
7582	7.9973	5.8182	0.1	3950.5
7583	7.8133	5.8182	0.1	3997.2
7584	7.6294	5.8182	0.1	4041.7
7585	7.4455	5.8182	0.1	4083.3
7586	7.2615	5.8182	0.1	4121.
7587	7.0776	5.8182	0.1	4153.8
7588	6.8936	5.8182	0.1	4180.3
7589	6.7097	5.8182	0.1	4198.7
7590	6.5258	5.8182	0.1	4207.
7591	6.3418	5.8182	0.1	4202.6
7592	6.1579	5.8182	0.1	4182.1
7593	5.9739	5.8182	0.1	4141.9
7594	5.79	5.8182	0.1	4077.2
7595	5.6061	5.8182	0.1	3982.7
7596	5.4221	5.8182	0.1	3852.3
7597	5.2382	5.8182	0.1	3679.3
7598	5.0542	5.8182	0.1	3456.6
7599	4.8703	5.8182	0.1	3177.7
7600	4.6864	5.8182	0.1	2836.9
7601	4.5024	5.8182	0.1	2431.4
7602	4.3185	5.8182	0.1	1962.6
7603	4.1345	5.8182	0.1	1438.9
7604	3.9506	5.8182	0.1	919.74
7605	0.18	0.18182	0.1	3939.
7606	0.18	0.36364	0.1	4560.8
7607	0.18	0.54545	0.1	5259.3
7608	0.18	0.72727	0.1	5785.5
7609	0.18	0.90909	0.1	6176.4
7610	0.18	1.0909	0.1	6466.4
7611	0.18	1.2727	0.1	6684.
7612	0.18	1.4545	0.1	6848.1
7613	0.18	1.6364	0.1	6971.9
7614	0.18	1.8182	0.1	7064.9
7615	0.18	2.	0.1	7134.
7616	0.18	2.1818	0.1	7184.6
7617	0.18	2.3636	0.1	7220.6
7618	0.18	2.5455	0.1	7245.1
7619	0.18	2.7273	0.1	7260.3
7620	0.18	2.9091	0.1	7267.6
7621	0.18	3.0909	0.1	7267.6
7622	0.18	3.2727	0.1	7260.3
7623	0.18	3.4545	0.1	7245.1
7624	0.18	3.6364	0.1	7220.6
7625	0.18	3.8182	0.1	7184.6
7626	0.18	4.	0.1	7134.
7627	0.18	4.1818	0.1	7064.9
7628	0.18	4.3636	0.1	6971.9
7629	0.18	4.5455	0.1	6848.1
7630	0.18	4.7273	0.1	6684.
7631	0.18	4.9091	0.1	6466.4
7632	0.18	5.0909	0.1	6176.4
7633	0.18	5.2727	0.1	5785.5
7634	0.18	5.4545	0.1	5259.3
7635	0.18	5.6364	0.1	4560.8
7636	0.18	5.8182	0.1	3939.
7637	0.36	0.18182	0.1	5017.2
7638	0.36	0.36364	0.1	5160.1
7639	0.36	0.54545	0.1	5466.3
7640	0.36	0.72727	0.1	5801.
7641	0.36	0.90909	0.1	6104.8
7642	0.36	1.0909	0.1	6361.5
7643	0.36	1.2727	0.1	6571.9
7644	0.36	1.4545	0.1	6741.7
7645	0.36	1.6364	0.1	6877.6
7646	0.36	1.8182	0.1	6985.3
7647	0.36	2.	0.1	7069.6
7648	0.36	2.1818	0.1	7134.5
7649	0.36	2.3636	0.1	7183.
7650	0.36	2.5455	0.1	7217.4
7651	0.36	2.7273	0.1	7239.4
7652	0.36	2.9091	0.1	7250.1
7653	0.36	3.0909	0.1	7250.1
7654	0.36	3.2727	0.1	7239.4
7655	0.36	3.4545	0.1	7217.4
7656	0.36	3.6364	0.1	7183.
7657	0.36	3.8182	0.1	7134.5
7658	0.36	4.	0.1	7069.6
7659	0.36	4.1818	0.1	6985.3
7660	0.36	4.3636	0.1	6877.6
7661	0.36	4.5455	0.1	6741.7
7662	0.36	4.7273	0.1	6571.9
7663	0.36	4.9091	0.1	6361.5
7664	0.36	5.0909	0.1	6104.8
7665	0.36	5.2727	0.1	5801.
7666	0.36	5.4545	0.1	5466.3
7667	0.36	5.6364	0.1	5160.1
7668	0.36	5.8182	0.1	5017.2
7669	0.54	0.18182	0.1	5459.1
7670	0.54	0.36364	0.1	5466.2
7671	0.54	0.54545	0.1	5592.2
7672	0.54	0.72727	0.1	5772.4
7673	0.54	0.90909	0.1	5971.8
7674	0.54	1.0909	0.1	6166.
7675	0.54	1.2727	0.1	6342.7
7676	0.54	1.4545	0.1	6497.3
7677	0.54	1.6364	0.1	6629.2
7678	0.54	1.8182	0.1	6739.4
7679	0.54	2.	0.1	6829.9
7680	0.54	2.1818	0.1	6902.3
7681	0.54	2.3636	0.1	6958.2
7682	0.54	2.5455	0.1	6999.1
7683	0.54	2.7273	0.1	7025.8
7684	0.54	2.9091	0.1	7038.9
7685	0.54	3.0909	0.1	7038.9
7686	0.54	3.2727	0.1	7025.8
7687	0.54	3.4545	0.1	6999.1
7688	0.54	3.6364	0.1	6958.2
7689	0.54	3.8182	0.1	6902.3
7690	0.54	4.	0.1	6829.9
7691	0.54	4.1818	0.1	6739.5
7692	0.54	4.3636	0.1	6629.2
7693	0.54	4.5455	0.1	6497.3
7694	0.54	4.7273	0.1	6342.7
7695	0.54	4.9091	0.1	6166.
7696	0.54	5.0909	0.1	5971.8
7697	0.54	5.2727	0.1	5772.4
7698	0.54	5.4545	0.1	5592.2
7699	0.54	5.6364	0.1	5466.2
7700	0.54	5.8182	0.1	5459.1
7701	0.72	0.18182	0.1	5688.7
7702	0.72	0.36364	0.1	5660.3
7703	0.72	0.54545	0.1	5715.3
7704	0.72	0.72727	0.1	5814.3
7705	0.72	0.90909	0.1	5942.
7706	0.72	1.0909	0.1	6082.6
7707	0.72	1.2727	0.1	6223.8
7708	0.72	1.4545	0.1	6357.5
7709	0.72	1.6364	0.1	6479.
7710	0.72	1.8182	0.1	6586.1
7711	0.72	2.	0.1	6677.9
7712	0.72	2.1818	0.1	6753.9
7713	0.72	2.3636	0.1	6814.4
7714	0.72	2.5455	0.1	6859.6
7715	0.72	2.7273	0.1	6889.6
7716	0.72	2.9091	0.1	6904.5
7717	0.72	3.0909	0.1	6904.5
7718	0.72	3.2727	0.1	6889.6
7719	0.72	3.4545	0.1	6859.6
7720	0.72	3.6364	0.1	6814.4
7721	0.72	3.8182	0.1	6753.9
7722	0.72	4.	0.1	6677.9
7723	0.72	4.1818	0.1	6586.1
7724	0.72	4.3636	0.1	6479.
7725	0.72	4.5455	0.1	6357.5
7726	0.72	4.7273	0.1	6223.8
7727	0.72	4.9091	0.1	6082.6
7728	0.72	5.0909	0.1	5942.
7729	0.72	5.2727	0.1	5814.3
7730	0.72	5.4545	0.1	5715.3
7731	0.72	5.6364	0.1	5660.3
7732	0.72	5.8182	0.1	5688.7
7733	0.9	0.18182	0.1	5780.9
7734	0.9	0.36364	0.1	5742.9
7735	0.9	0.54545	0.1	5767.7
7736	0.9	0.72727	0.1	5826.1
7737	0.9	0.90909	0.1	5911.3
7738	0.9	1.0909	0.1	6014.9
7739	0.9	1.2727	0.1	6127.7
7740	0.9	1.4545	0.1	6242.2
7741	0.9	1.6364	0.1	6352.5
7742	0.9	1.8182	0.1	6454.4
7743	0.9	2.	0.1	6545.2
7744	0.9	2.1818	0.1	6623.
7745	0.9	2.3636	0.1	6686.5
7746	0.9	2.5455	0.1	6734.8
7747	0.9	2.7273	0.1	6767.3
7748	0.9	2.9091	0.1	6783.7
7749	0.9	3.0909	0.1	6783.7
7750	0.9	3.2727	0.1	6767.3
7751	0.9	3.4545	0.1	6734.8
7752	0.9	3.6364	0.1	6686.5
7753	0.9	3.8182	0.1	6623.
7754	0.9	4.	0.1	6545.2
7755	0.9	4.1818	0.1	6454.4
7756	0.9	4.3636	0.1	6352.5
7757	0.9	4.5455	0.1	6242.2
7758	0.9	4.7273	0.1	6127.7
7759	0.9	4.9091	0.1	6014.9
7760	0.9	5.0909	0.1	5911.3
7761	0.9	5.2727	0.1	5826.1
7762	0.9	5.4545	0.1	5767.7
7763	0.9	5.6364	0.1	5742.9
7764	0.9	5.8182	0.1	5780.9
7765	1.08	0.18182	0.1	5790.6
7766	1.08	0.36364	0.1	5755.1
7767	1.08	0.54545	0.1	5769.8
7768	1.08	0.72727	0.1	5811.
7769	1.08	0.90909	0.1	5875.3
7770	1.08	1.0909	0.1	5958.1
7771	1.08	1.2727	0.1	6053.4
7772	1.08	1.4545	0.1	6155.
7773	1.08	1.6364	0.1	6257.5
7774	1.08	1.8182	0.1	6355.9
7775	1.08	2.	0.1	6446.5
7776	1.08	2.1818	0.1	6526.2
7777	1.08	2.3636	0.1	6592.8
7778	1.08	2.5455	0.1	6644.3
7779	1.08	2.7273	0.1	6679.4
7780	1.08	2.9091	0.1	6697.2
7781	1.08	3.0909	0.1	6697.2
7782	1.08	3.2727	0.1	6679.4
7783	1.08	3.4545	0.1	6644.3
7784	1.08	3.6364	0.1	6592.8
7785	1.08	3.8182	0.1	6526.2
7786	1.08	4.	0.1	6446.5
7787	1.08	4.1818	0.1	6355.9
7788	1.08	4.3636	0.1	6257.5
7789	1.08	4.5455	0.1	6155.
7790	1.08	4.7273	0.1	6053.4
7791	1.08	4.9091	0.1	5958.1
7792	1.08	5.0909	0.1	5875.3
7793	1.08	5.2727	0.1	5811.
7794	1.08	5.4545	0.1	5769.8
7795	1.08	5.6364	0.1	5755.1
7796	1.08	5.8182	0.1	5790.6
7797	1.26	0.18182	0.1	5738.9
7798	1.26	0.36364	0.1	5711.1
7799	1.26	0.54545	0.1	5726.1
7800	1.26	0.72727	0.1	5763.6
7801	1.26	0.90909	0.1	5821.4
7802	1.26	1.0909	0.1	5896.6
7803	1.26	1.2727	0.1	5985.3
7804	1.26	1.4545	0.1	6082.3
7805	1.26	1.6364	0.1	6182.8
7806	1.26	1.8182	0.1	6282.
7807	1.26	2.	0.1	6375.4
7808	1.26	2.1818	0.1	6459.3
7809	1.26	2.3636	0.1	6530.5
7810	1.26	2.5455	0.1	6586.4
7811	1.26	2.7273	0.1	6624.8
7812	1.26	2.9091	0.1	6644.4
7813	1.26	3.0909	0.1	6644.4
7814	1.26	3.2727	0.1	6624.8
7815	1.26	3.4545	0.1	6586.4
7816	1.26	3.6364	0.1	6530.5
7817	1.26	3.8182	0.1	6459.3
7818	1.26	4.	0.1	6375.4
7819	1.26	4.1818	0.1	6282.
7820	1.26	4.3636	0.1	6182.8
7821	1.26	4.5455	0.1	6082.3
7822	1.26	4.7273	0.1	5985.3
7823	1.26	4.9091	0.1	5896.6
7824	1.26	5.0909	0.1	5821.4
7825	1.26	5.2727	0.1	5763.6
7826	1.26	5.4545	0.1	5726.1
7827	1.26	5.6364	0.1	5711.1
7828	1.26	5.8182	0.1	5738.9
7829	1.44	0.18182	0.1	5637.9
7830	1.44	0.36364	0.1	5620.7
7831	1.44	0.54545	0.1	5642.5
7832	1.44	0.72727	0.1	5685.2
7833	1.44	0.90909	0.1	5747.
7834	1.44	1.0909	0.1	5825.5
7835	1.44	1.2727	0.1	5917.6
7836	1.44	1.4545	0.1	6018.9
7837	1.44	1.6364	0.1	6124.9
7838	1.44	1.8182	0.1	6230.8
7839	1.44	2.	0.1	6331.9
7840	1.44	2.1818	0.1	6423.9
7841	1.44	2.3636	0.1	6502.8
7842	1.44	2.5455	0.1	6565.4
7843	1.44	2.7273	0.1	6608.7
7844	1.44	2.9091	0.1	6630.9
7845	1.44	3.0909	0.1	6630.9
7846	1.44	3.2727	0.1	6608.7
7847	1.44	3.4545	0.1	6565.4
7848	1.44	3.6364	0.1	6502.8
7849	1.44	3.8182	0.1	6423.9
7850	1.44	4.	0.1	6331.9
7851	1.44	4.1818	0.1	6230.8
7852	1.44	4.3636	0.1	6124.9
7853	1.44	4.5455	0.1	6018.9
7854	1.44	4.7273	0.1	5917.6
7855	1.44	4.9091	0.1	5825.5
7856	1.44	5.0909	0.1	5747.
7857	1.44	5.2727	0.1	5685.2
7858	1.44	5.4545	0.1	5642.5
7859	1.44	5.6364	0.1	5620.7
7860	1.44	5.8182	0.1	5637.9
7861	1.62	0.18182	0.1	5492.2
7862	1.62	0.36364	0.1	5487.5
7863	1.62	0.54545	0.1	5520.8
7864	1.62	0.72727	0.1	5575.6
7865	1.62	0.90909	0.1	5649.7
7866	1.62	1.0909	0.1	5740.9
7867	1.62	1.2727	0.1	5845.9
7868	1.62	1.4545	0.1	5960.7
7869	1.62	1.6364	0.1	6080.7
7870	1.62	1.8182	0.1	6200.8
7871	1.62	2.	0.1	6316.1
7872	1.62	2.1818	0.1	6421.7
7873	1.62	2.3636	0.1	6512.9
7874	1.62	2.5455	0.1	6585.5
7875	1.62	2.7273	0.1	6636.1
7876	1.62	2.9091	0.1	6662.
7877	1.62	3.0909	0.1	6662.
7878	1.62	3.2727	0.1	6636.1
7879	1.62	3.4545	0.1	6585.5
7880	1.62	3.6364	0.1	6512.9
7881	1.62	3.8182	0.1	6421.7
7882	1.62	4.	0.1	6316.1
7883	1.62	4.1818	0.1	6200.8
7884	1.62	4.3636	0.1	6080.7
7885	1.62	4.5455	0.1	5960.7
7886	1.62	4.7273	0.1	5845.9
7887	1.62	4.9091	0.1	5740.9
7888	1.62	5.0909	0.1	5649.7
7889	1.62	5.2727	0.1	5575.6
7890	1.62	5.4545	0.1	5520.8
7891	1.62	5.6364	0.1	5487.5
7892	1.62	5.8182	0.1	5492.2
7893	1.8	0.18182	0.1	5302.7
7894	1.8	0.36364	0.1	5312.
7895	1.8	0.54545	0.1	5360.8
7896	1.8	0.72727	0.1	5433.4
7897	1.8	0.90909	0.1	5527.4
7898	1.8	1.0909	0.1	5640.1
7899	1.8	1.2727	0.1	5767.8
7900	1.8	1.4545	0.1	5905.9
7901	1.8	1.6364	0.1	6049.4
7902	1.8	1.8182	0.1	6192.7
7903	1.8	2.	0.1	6330.3
7904	1.8	2.1818	0.1	6456.6
7905	1.8	2.3636	0.1	6565.9
7906	1.8	2.5455	0.1	6653.2
7907	1.8	2.7273	0.1	6714.1
7908	1.8	2.9091	0.1	6745.4
7909	1.8	3.0909	0.1	6745.4
7910	1.8	3.2727	0.1	6714.1
7911	1.8	3.4545	0.1	6653.2
7912	1.8	3.6364	0.1	6565.9
7913	1.8	3.8182	0.1	6456.6
7914	1.8	4.	0.1	6330.3
7915	1.8	4.1818	0.1	6192.7
7916	1.8	4.3636	0.1	6049.4
7917	1.8	4.5455	0.1	5905.9
7918	1.8	4.7273	0.1	5767.8
7919	1.8	4.9091	0.1	5640.1
7920	1.8	5.0909	0.1	5527.4
7921	1.8	5.2727	0.1	5433.4
7922	1.8	5.4545	0.1	5360.8
7923	1.8	5.6364	0.1	5312.
7924	1.8	5.8182	0.1	5302.7
7925	1.98	0.18182	0.1	5067.5
7926	1.98	0.36364	0.1	5092.1
7927	1.98	0.54545	0.1	5160.1
7928	1.98	0.72727	0.1	5256.1
7929	1.98	0.90909	0.1	5377.5
7930	1.98	1.0909	0.1	5520.8
7931	1.98	1.2727	0.1	5681.4
7932	1.98	1.4545	0.1	5853.8
7933	1.98	1.6364	0.1	6031.9
7934	1.98	1.8182	0.1	6209.2
7935	1.98	2.	0.1	6379.2
7936	1.98	2.1818	0.1	6534.9
7937	1.98	2.3636	0.1	6669.8
7938	1.98	2.5455	0.1	6777.4
7939	1.98	2.7273	0.1	6852.4
7940	1.98	2.9091	0.1	6890.9
7941	1.98	3.0909	0.1	6890.9
7942	1.98	3.2727	0.1	6852.4
7943	1.98	3.4545	0.1	6777.4
7944	1.98	3.6364	0.1	6669.8
7945	1.98	3.8182	0.1	6534.9
7946	1.98	4.	0.1	6379.2
7947	1.98	4.1818	0.1	6209.2
7948	1.98	4.3636	0.1	6031.9
7949	1.98	4.5455	0.1	5853.8
7950	1.98	4.7273	0.1	5681.4
7951	1.98	4.9091	0.1	5520.8
7952	1.98	5.0909	0.1	5377.5
7953	1.98	5.2727	0.1	5256.1
7954	1.98	5.4545	0.1	5160.1
7955	1.98	5.6364	0.1	5092.1
7956	1.98	5.8182	0.1	5067.5
7957	2.16	0.18182	0.1	4782.7
7958	2.16	0.36364	0.1	4823.9
7959	2.16	0.54545	0.1	4914.6
7960	2.16	0.72727	0.1	5040.
7961	2.16	0.90909	0.1	5196.7
7962	2.16	1.0909	0.1	5380.5
7963	2.16	1.2727	0.1	5585.5
7964	2.16	1.4545	0.1	5805.
7965	2.16	1.6364	0.1	6031.1
7966	2.16	1.8182	0.1	6255.6
7967	2.16	2.	0.1	6470.3
7968	2.16	2.1818	0.1	6666.6
7969	2.16	2.3636	0.1	6836.
7970	2.16	2.5455	0.1	6970.6
7971	2.16	2.7273	0.1	7063.9
7972	2.16	2.9091	0.1	7111.6
7973	2.16	3.0909	0.1	7111.6
7974	2.16	3.2727	0.1	7063.9
7975	2.16	3.4545	0.1	6970.6
7976	2.16	3.6364	0.1	6836.
7977	2.16	3.8182	0.1	6666.6
7978	2.16	4.	0.1	6470.3
7979	2.16	4.1818	0.1	6255.6
7980	2.16	4.3636	0.1	6031.1
7981	2.16	4.5455	0.1	5805.
7982	2.16	4.7273	0.1	5585.5
7983	2.16	4.9091	0.1	5380.5
7984	2.16	5.0909	0.1	5196.7
7985	2.16	5.2727	0.1	5040.
7986	2.16	5.4545	0.1	4914.6
7987	2.16	5.6364	0.1	4823.9
7988	2.16	5.8182	0.1	4782.7
7989	2.34	0.18182	0.1	4443.6
7990	2.34	0.36364	0.1	4502.5
7991	2.34	0.54545	0.1	4619.8
7992	2.34	0.72727	0.1	4780.6
7993	2.34	0.90909	0.1	4981.2
7994	2.34	1.0909	0.1	5216.5
7995	2.34	1.2727	0.1	5479.5
7996	2.34	1.4545	0.1	5761.4
7997	2.34	1.6364	0.1	6052.1
7998	2.34	1.8182	0.1	6340.7
7999	2.34	2.	0.1	6616.1
8000	2.34	2.1818	0.1	6866.8
8001	2.34	2.3636	0.1	7081.5
8002	2.34	2.5455	0.1	7250.1
8003	2.34	2.7273	0.1	7365.5
8004	2.34	2.9091	0.1	7423.9
8005	2.34	3.0909	0.1	7423.9
8006	2.34	3.2727	0.1	7365.5
8007	2.34	3.4545	0.1	7250.1
8008	2.34	3.6364	0.1	7081.5
8009	2.34	3.8182	0.1	6866.8
8010	2.34	4.	0.1	6616.1
8011	2.34	4.1818	0.1	6340.7
8012	2.34	4.3636	0.1	6052.1
8013	2.34	4.5455	0.1	5761.4
8014	2.34	4.7273	0.1	5479.5
8015	2.34	4.9091	0.1	5216.5
8016	2.34	5.0909	0.1	4981.2
8017	2.34	5.2727	0.1	4780.6
8018	2.34	5.4545	0.1	4619.8
8019	2.34	5.6364	0.1	4502.5
8020	2.34	5.8182	0.1	4443.6
8021	2.52	0.18182	0.1	4045.
8022	2.52	0.36364	0.1	4122.8
8023	2.52	0.54545	0.1	4271.
8024	2.52	0.72727	0.1	4474.
8025	2.52	0.90909	0.1	4727.8
8026	2.52	1.0909	0.1	5026.7
8027	2.52	1.2727	0.1	5363.
8028	2.52	1.4545	0.1	5726.2
8029	2.52	1.6364	0.1	6103.3
8030	2.52	1.8182	0.1	6478.9
8031	2.52	2.	0.1	6836.7
8032	2.52	2.1818	0.1	7159.6
8033	2.52	2.3636	0.1	7431.6
8034	2.52	2.5455	0.1	7639.9
8035	2.52	2.7273	0.1	7778.4
8036	2.52	2.9091	0.1	7847.
8037	2.52	3.0909	0.1	7847.
8038	2.52	3.2727	0.1	7778.4
8039	2.52	3.4545	0.1	7639.9
8040	2.52	3.6364	0.1	7431.6
8041	2.52	3.8182	0.1	7159.6
8042	2.52	4.	0.1	6836.7
8043	2.52	4.1818	0.1	6478.9
8044	2.52	4.3636	0.1	6103.3
8045	2.52	4.5455	0.1	5726.2
8046	2.52	4.7273	0.1	5363.
8047	2.52	4.9091	0.1	5026.7
8048	2.52	5.0909	0.1	4727.8
8049	2.52	5.2727	0.1	4474.
8050	2.52	5.4545	0.1	4271.
8051	2.52	5.6364	0.1	4122.8
8052	2.52	5.8182	0.1	4045.
8053	2.7	0.18182	0.1	3582.5
8054	2.7	0.36364	0.1	3681.5
8055	2.7	0.54545	0.1	3866.1
8056	2.7	0.72727	0.1	4119.2
8057	2.7	0.90909	0.1	4435.7
8058	2.7	1.0909	0.1	4810.3
8059	2.7	1.2727	0.1	5236.4
8060	2.7	1.4545	0.1	5704.2
8061	2.7	1.6364	0.1	6197.2
8062	2.7	1.8182	0.1	6693.2
8063	2.7	2.	0.1	7165.2
8064	2.7	2.1818	0.1	7585.1
8065	2.7	2.3636	0.1	7926.
8066	2.7	2.5455	0.1	8172.9
8067	2.7	2.7273	0.1	8326.9
8068	2.7	2.9091	0.1	8399.4
8069	2.7	3.0909	0.1	8399.4
8070	2.7	3.2727	0.1	8326.9
8071	2.7	3.4545	0.1	8172.9
8072	2.7	3.6364	0.1	7926.
8073	2.7	3.8182	0.1	7585.1
8074	2.7	4.	0.1	7165.2
8075	2.7	4.1818	0.1	6693.2
8076	2.7	4.3636	0.1	6197.2
8077	2.7	4.5455	0.1	5704.2
8078	2.7	4.7273	0.1	5236.4
8079	2.7	4.9091	0.1	4810.3
8080	2.7	5.0909	0.1	4435.7
8081	2.7	5.2727	0.1	4119.2
8082	2.7	5.4545	0.1	3866.1
8083	2.7	5.6364	0.1	3681.5
8084	2.7	5.8182	0.1	3582.5
8085	2.88	0.18182	0.1	3053.9
8086	2.88	0.36364	0.1	3179.3
8087	2.88	0.54545	0.1	3409.8
8088	2.88	0.72727	0.1	3722.5
8089	2.88	0.90909	0.1	4110.
8090	2.88	1.0909	0.1	4569.
8091	2.88	1.2727	0.1	5099.4
8092	2.88	1.4545	0.1	5698.1
8093	2.88	1.6364	0.1	6351.
8094	2.88	1.8182	0.1	7021.9
8095	2.88	2.	0.1	7662.
8096	2.88	2.1818	0.1	8213.6
8097	2.88	2.3636	0.1	8628.6
8098	2.88	2.5455	0.1	8892.5
8099	2.88	2.7273	0.1	9032.8
8100	2.88	2.9091	0.1	9090.5
8101	2.88	3.0909	0.1	9090.5
8102	2.88	3.2727	0.1	9032.8
8103	2.88	3.4545	0.1	8892.5
8104	2.88	3.6364	0.1	8628.6
8105	2.88	3.8182	0.1	8213.6
8106	2.88	4.	0.1	7662.
8107	2.88	4.1818	0.1	7021.9
8108	2.88	4.3636	0.1	6351.
8109	2.88	4.5455	0.1	5698.1
8110	2.88	4.7273	0.1	5099.4
8111	2.88	4.9091	0.1	4569.
8112	2.88	5.0909	0.1	4110.
8113	2.88	5.2727	0.1	3722.5
8114	2.88	5.4545	0.1	3409.8
8115	2.88	5.6364	0.1	3179.3
8116	2.88	5.8182	0.1	3053.9
8117	3.06	0.18182	0.1	2460.7
8118	3.06	0.36364	0.1	2627.8
8119	3.06	0.54545	0.1	2922.2
8120	3.06	0.72727	0.1	3305.8
8121	3.06	0.90909	0.1	3767.3
8122	3.06	1.0909	0.1	4310.1
8123	3.06	1.2727	0.1	4948.9
8124	3.06	1.4545	0.1	5706.4
8125	3.06	1.6364	0.1	6580.6
8126	3.06	1.8182	0.1	7531.8
8127	3.06	2.	0.1	8456.2
8128	3.06	2.1818	0.1	9188.3
8129	3.06	2.3636	0.1	9651.
8130	3.06	2.5455	0.1	9847.2
8131	3.06	2.7273	0.1	9898.2
8132	3.06	2.9091	0.1	9901.3
8133	3.06	3.0909	0.1	9901.3
8134	3.06	3.2727	0.1	9898.2
8135	3.06	3.4545	0.1	9847.2
8136	3.06	3.6364	0.1	9651.
8137	3.06	3.8182	0.1	9188.4
8138	3.06	4.	0.1	8456.2
8139	3.06	4.1818	0.1	7531.8
8140	3.06	4.3636	0.1	6580.6
8141	3.06	4.5455	0.1	5706.4
8142	3.06	4.7273	0.1	4948.9
8143	3.06	4.9091	0.1	4310.1
8144	3.06	5.0909	0.1	3767.3
8145	3.06	5.2727	0.1	3305.8
8146	3.06	5.4545	0.1	2922.2
8147	3.06	5.6364	0.1	2627.8
8148	3.06	5.8182	0.1	2460.7
8149	3.24	0.18182	0.1	1811.7
8150	3.24	0.36364	0.1	2064.8
8151	3.24	0.54545	0.1	2454.6
8152	3.24	0.72727	0.1	2916.7
8153	3.24	0.90909	0.1	3443.4
8154	3.24	1.0909	0.1	4051.9
8155	3.24	1.2727	0.1	4781.4
8156	3.24	1.4545	0.1	5691.1
8157	3.24	1.6364	0.1	6878.3
8158	3.24	1.8182	0.1	8384.9
8159	3.24	2.	0.1	9790.2
8160	3.24	2.1818	0.1	10879
8161	3.24	2.3636	0.1	11169
8162	3.24	2.5455	0.1	11051
8163	3.24	2.7273	0.1	10865
8164	3.24	2.9091	0.1	10753
8165	3.24	3.0909	0.1	10753
8166	3.24	3.2727	0.1	10865
8167	3.24	3.4545	0.1	11051
8168	3.24	3.6364	0.1	11169
8169	3.24	3.8182	0.1	10879
8170	3.24	4.	0.1	9790.2
8171	3.24	4.1818	0.1	8385.
8172	3.24	4.3636	0.1	6878.3
8173	3.24	4.5455	0.1	5691.1
8174	3.24	4.7273	0.1	4781.4
8175	3.24	4.9091	0.1	4051.9
8176	3.24	5.0909	0.1	3443.4
8177	3.24	5.2727	0.1	2916.7
8178	3.24	5.4545	0.1	2454.6
8179	3.24	5.6364	0.1	2064.8
8180	3.24	5.8182	0.1	1811.7
8181	3.42	0.18182	0.1	1181.1
8182	3.42	0.36364	0.1	1644.8
8183	3.42	0.54545	0.1	2166.3
8184	3.42	0.72727	0.1	2711.
8185	3.42	0.90909	0.1	3298.7
8186	3.42	1.0909	0.1	3963.9
8187	3.42	1.2727	0.1	4761.4
8188	3.42	1.4545	0.1	5813.6
8189	3.42	1.6364	0.1	7315.2
8190	3.42	1.8182	0.1	10261
8191	3.42	2.	0.1	14120
8192	3.42	2.1818	0.1	14165
8193	3.42	2.3636	0.1	13297
8194	3.42	2.5455	0.1	12320
8195	3.42	2.7273	0.1	11753
8196	3.42	2.9091	0.1	11484
8197	3.42	3.0909	0.1	11484
8198	3.42	3.2727	0.1	11753
8199	3.42	3.4545	0.1	12320
8200	3.42	3.6364	0.1	13297
8201	3.42	3.8182	0.1	14165
8202	3.42	4.	0.1	14120
8203	3.42	4.1818	0.1	10261
8204	3.42	4.3636	0.1	7315.2
8205	3.42	4.5455	0.1	5813.6
8206	3.42	4.7273	0.1	4761.4
8207	3.42	4.9091	0.1	3963.9
8208	3.42	5.0909	0.1	3298.7
8209	3.42	5.2727	0.1	2711.
8210	3.42	5.4545	0.1	2166.3
8211	3.42	5.6364	0.1	1644.8
8212	3.42	5.8182	0.1	1181.1
8213	3.7667	3.8182	0.1	18605
8214	3.7667	3.6364	0.1	14810
8215	3.7667	3.4545	0.1	13078
8216	3.7667	3.2727	0.1	12196
8217	3.7667	3.0909	0.1	11819
8218	3.7667	2.9091	0.1	11819
8219	3.7667	2.7273	0.1	12196
8220	3.7667	2.5455	0.1	13078
8221	3.7667	2.3636	0.1	14810
8222	3.7667	2.1818	0.1	18605
8223	3.6	3.8182	0.1	18787
8224	3.6	3.6364	0.1	14921
8225	3.6	3.4545	0.1	13158
8226	3.6	3.2727	0.1	12264
8227	3.6	3.0909	0.1	11882
8228	3.6	2.9091	0.1	11882
8229	3.6	2.7273	0.1	12264
8230	3.6	2.5455	0.1	13158
8231	3.6	2.3636	0.1	14921
8232	3.6	2.1818	0.1	18787
8233	3.7667	5.8182	0.1	484.5
8234	3.7667	5.6364	0.1	847.04
8235	3.7667	5.4545	0.1	1165.5
8236	3.7667	5.2727	0.1	1484.9
8237	3.7667	5.0909	0.1	1829.6
8238	3.7667	4.9091	0.1	2226.8
8239	3.7667	4.7273	0.1	2712.9
8240	3.7667	4.5455	0.1	3375.2
8241	3.7667	4.3636	0.1	4284.1
8242	3.7667	4.1818	0.1	6495.
8243	3.7667	4.	0.1	26569
8244	3.6	4.	0.1	27308
8245	3.6	4.1818	0.1	7015.8
8246	3.6	4.3636	0.1	4853.9
8247	3.6	4.5455	0.1	3974.5
8248	3.6	4.7273	0.1	3306.1
8249	3.6	4.9091	0.1	2794.7
8250	3.6	5.0909	0.1	2353.4
8251	3.6	5.2727	0.1	1947.4
8252	3.6	5.4545	0.1	1549.3
8253	3.6	5.6364	0.1	1132.7
8254	3.6	5.8182	0.1	644.04
8255	3.7667	0.18182	0.1	484.5
8256	3.7667	0.36364	0.1	847.04
8257	3.7667	0.54545	0.1	1165.5
8258	3.7667	0.72727	0.1	1484.9
8259	3.7667	0.90909	0.1	1829.6
8260	3.7667	1.0909	0.1	2226.8
8261	3.7667	1.2727	0.1	2712.9
8262	3.7667	1.4545	0.1	3375.2
8263	3.7667	1.6364	0.1	4284.1
8264	3.7667	1.8182	0.1	6495.
8265	3.7667	2.	0.1	26569
8266	3.6	2.	0.1	27308
8267	3.6	1.8182	0.1	7015.8
8268	3.6	1.6364	0.1	4853.9
8269	3.6	1.4545	0.1	3974.5
8270	3.6	1.2727	0.1	3306.1
8271	3.6	1.0909	0.1	2794.7
8272	3.6	0.90909	0.1	2353.4
8273	3.6	0.72727	0.1	1947.4
8274	3.6	0.54545	0.1	1549.3
8275	3.6	0.36364	0.1	1132.7
8276	3.6	0.18182	0.1	644.04
8277	3.7667	6.	0.1	62.68
8278	3.9506	6.	0.1	650.88
8279	4.1345	6.	0.1	1276.1
8280	4.3185	6.	0.1	1830.7
8281	4.5024	6.	0.1	2320.4
8282	4.6864	6.	0.1	2743.4
8283	4.8703	6.	0.1	3099.7
8284	5.0542	6.	0.1	3392.4
8285	5.2382	6.	0.1	3626.9
8286	5.4221	6.	0.1	3810.
8287	5.6061	6.	0.1	3948.8
8288	5.79	6.	0.1	4050.3
8289	5.9739	6.	0.1	4120.7
8290	6.1579	6.	0.1	4165.6
8291	6.3418	6.	0.1	4189.8
8292	6.5258	6.	0.1	4197.2
8293	6.7097	6.	0.1	4191.3
8294	6.8936	6.	0.1	4174.7
8295	7.0776	6.	0.1	4149.6
8296	7.2615	6.	0.1	4118.
8297	7.4455	6.	0.1	4081.
8298	7.6294	6.	0.1	4040.1
8299	7.8133	6.	0.1	3996.
8300	7.9973	6.	0.1	3949.5
8301	8.1812	6.	0.1	3901.2
8302	8.3652	6.	0.1	3851.5
8303	8.5491	6.	0.1	3800.8
8304	8.733	6.	0.1	3749.3
8305	8.917	6.	0.1	3697.4
8306	9.1009	6.	0.1	3645.2
8307	9.2848	6.	0.1	3592.7
8308	9.4688	6.	0.1	3540.2
8309	9.6527	6.	0.1	3487.6
8310	9.8367	6.	0.1	3435.2
8311	10.021	6.	0.1	3382.8
8312	10.205	6.	0.1	3330.5
8313	10.388	6.	0.1	3278.4
8314	10.572	6.	0.1	3226.5
8315	10.756	6.	0.1	3174.8
8316	10.94	6.	0.1	3123.3
8317	11.124	6.	0.1	3072.1
8318	11.308	6.	0.1	3021.
8319	11.492	6.	0.1	2970.2
8320	11.676	6.	0.1	2919.6
8321	11.86	6.	0.1	2869.2
8322	12.044	6.	0.1	2819.1
8323	12.228	6.	0.1	2769.1
8324	12.412	6.	0.1	2719.4
8325	12.596	6.	0.1	2670.
8326	12.78	6.	0.1	2620.7
8327	12.964	6.	0.1	2571.7
8328	13.148	6.	0.1	2522.9
8329	13.332	6.	0.1	2474.3
8330	13.515	6.	0.1	2425.9
8331	13.699	6.	0.1	2377.8
8332	13.883	6.	0.1	2329.9
8333	14.067	6.	0.1	2282.1
8334	14.251	6.	0.1	2234.6
8335	14.435	6.	0.1	2187.3
8336	14.619	6.	0.1	2140.2
8337	14.803	6.	0.1	2093.3
8338	14.987	6.	0.1	2046.6
8339	15.171	6.	0.1	2000.2
8340	15.355	6.	0.1	1953.9
8341	15.539	6.	0.1	1907.8
8342	15.723	6.	0.1	1862.
8343	15.907	6.	0.1	1816.3
8344	16.091	6.	0.1	1770.8
8345	16.275	6.	0.1	1725.6
8346	16.458	6.	0.1	1680.5
8347	16.642	6.	0.1	1635.6
8348	16.826	6.	0.1	1590.9
8349	17.01	6.	0.1	1546.4
8350	17.194	6.	0.1	1502.1
8351	17.378	6.	0.1	1458.
8352	17.562	6.	0.1	1414.1
8353	17.746	6.	0.1	1370.4
8354	17.93	6.	0.1	1326.8
8355	18.114	6.	0.1	1283.5
8356	18.298	6.	0.1	1240.3
8357	18.482	6.	0.1	1197.3
8358	18.666	6.	0.1	1154.5
8359	18.85	6.	0.1	1111.9
8360	19.034	6.	0.1	1069.4
8361	19.218	6.	0.1	1027.1
8362	19.402	6.	0.1	984.99
8363	19.585	6.	0.1	943.03
8364	19.769	6.	0.1	901.24
8365	19.953	6.	0.1	859.62
8366	20.137	6.	0.1	818.15
8367	20.321	6.	0.1	776.84
8368	20.505	6.	0.1	735.69
8369	20.689	6.	0.1	694.69
8370	20.873	6.	0.1	653.85
8371	21.057	6.	0.1	613.16
8372	21.241	6.	0.1	572.62
8373	21.425	6.	0.1	532.23
8374	21.609	6.	0.1	492.01
8375	21.793	6.	0.1	451.94
8376	21.977	6.	0.1	412.05
8377	22.161	6.	0.1	372.34
8378	22.345	6.	0.1	332.84
8379	22.528	6.	0.1	293.56
8380	22.712	6.	0.1	254.55
8381	22.896	6.	0.1	215.87
8382	23.08	6.	0.1	177.59
8383	23.264	6.	0.1	139.85
8384	23.448	6.	0.1	102.87
8385	23.632	6.	0.1	67.04
8386	23.816	6.	0.1	33.291
8387	24.	6.	0.1	5.1604
8388	24.	5.8182	0.1	6.7221
8389	24.	5.6364	0.1	7.107
8390	24.	5.4545	0.1	7.2298
8391	24.	5.2727	0.1	7.269
8392	24.	5.0909	0.1	7.2478
8393	24.	4.9091	0.1	7.2077
8394	24.	4.7273	0.1	7.1573
8395	24.	4.5455	0.1	7.1047
8396	24.	4.3636	0.1	7.0534
8397	24.	4.1818	0.1	7.0059
8398	24.	4.	0.1	6.9636
8399	24.	3.8182	0.1	6.9274
8400	24.	3.6364	0.1	6.8979
8401	24.	3.4545	0.1	6.8755
8402	24.	3.2727	0.1	6.8605
8403	24.	3.0909	0.1	6.8529
8404	24.	2.9091	0.1	6.8529
8405	24.	2.7273	0.1	6.8605
8406	24.	2.5455	0.1	6.8755
8407	24.	2.3636	0.1	6.8979
8408	24.	2.1818	0.1	6.9274
8409	24.	2.	0.1	6.9636
8410	24.	1.8182	0.1	7.0059
8411	24.	1.6364	0.1	7.0534
8412	24.	1.4545	0.1	7.1047
8413	24.	1.2727	0.1	7.1573
8414	24.	1.0909	0.1	7.2077
8415	24.	0.90909	0.1	7.2478
8416	24.	0.72727	0.1	7.269
8417	24.	0.54545	0.1	7.2298
8418	24.	0.36364	0.1	7.107
8419	24.	0.18182	0.1	6.7221
8420	1.5894e-015	0.18182	0.1	2652.5
8421	3.1789e-015	0.36364	0.1	4782.6
8422	4.7683e-015	0.54545	0.1	5811.4
8423	6.3578e-015	0.72727	0.1	6439.1
8424	7.9472e-015	0.90909	0.1	6851.8
8425	9.5366e-015	1.0909	0.1	7139.
8426	1.1126e-014	1.2727	0.1	7343.3
8427	1.2716e-014	1.4545	0.1	7489.7
8428	1.4305e-014	1.6364	0.1	7594.1
8429	1.5894e-014	1.8182	0.1	7667.5
8430	1.7484e-014	2.	0.1	7718.1
8431	1.9073e-014	2.1818	0.1	7751.8
8432	2.0663e-014	2.3636	0.1	7773.5
8433	2.2252e-014	2.5455	0.1	7786.7
8434	2.3842e-014	2.7273	0.1	7794.1
8435	2.5431e-014	2.9091	0.1	7797.3
8436	2.702e-014	3.0909	0.1	7797.3
8437	2.861e-014	3.2727	0.1	7794.1
8438	3.0199e-014	3.4545	0.1	7786.7
8439	3.1789e-014	3.6364	0.1	7773.5
8440	3.3378e-014	3.8182	0.1	7751.8
8441	3.4968e-014	4.	0.1	7718.1
8442	3.6557e-014	4.1818	0.1	7667.5
8443	3.8147e-014	4.3636	0.1	7594.1
8444	3.9736e-014	4.5455	0.1	7489.7
8445	4.1325e-014	4.7273	0.1	7343.3
8446	4.2915e-014	4.9091	0.1	7139.
8447	4.4504e-014	5.0909	0.1	6851.8
8448	4.6094e-014	5.2727	0.1	6439.1
8449	4.7683e-014	5.4545	0.1	5811.4
8450	4.9273e-014	5.6364	0.1	4782.6
8451	5.0862e-014	5.8182	0.1	2652.5
8452	24.	0.	0.1	5.1604
8453	23.816	0.	0.1	33.291
8454	23.632	0.	0.1	67.04
8455	23.448	0.	0.1	102.87
8456	23.264	0.	0.1	139.85
8457	23.08	0.	0.1	177.59
8458	22.896	0.	0.1	215.87
8459	22.712	0.	0.1	254.55
8460	22.528	0.	0.1	293.56
8461	22.345	0.	0.1	332.84
8462	22.161	0.	0.1	372.34
8463	21.977	0.	0.1	412.05
8464	21.793	0.	0.1	451.94
8465	21.609	0.	0.1	492.01
8466	21.425	0.	0.1	532.23
8467	21.241	0.	0.1	572.62
8468	21.057	0.	0.1	613.16
8469	20.873	0.	0.1	653.85
8470	20.689	0.	0.1	694.69
8471	20.505	0.	0.1	735.69
8472	20.321	0.	0.1	776.84
8473	20.137	0.	0.1	818.15
8474	19.953	0.	0.1	859.62
8475	19.769	0.	0.1	901.24
8476	19.585	0.	0.1	943.03
8477	19.402	0.	0.1	984.99
8478	19.218	0.	0.1	1027.1
8479	19.034	0.	0.1	1069.4
8480	18.85	0.	0.1	1111.9
8481	18.666	0.	0.1	1154.5
8482	18.482	0.	0.1	1197.3
8483	18.298	0.	0.1	1240.3
8484	18.114	0.	0.1	1283.5
8485	17.93	0.	0.1	1326.8
8486	17.746	0.	0.1	1370.4
8487	17.562	0.	0.1	1414.1
8488	17.378	0.	0.1	1458.
8489	17.194	0.	0.1	1502.1
8490	17.01	0.	0.1	1546.4
8491	16.826	0.	0.1	1590.9
8492	16.642	0.	0.1	1635.6
8493	16.458	0.	0.1	1680.5
8494	16.275	0.	0.1	1725.6
8495	16.091	0.	0.1	1770.8
8496	15.907	0.	0.1	1816.3
8497	15.723	0.	0.1	1862.
8498	15.539	0.	0.1	1907.8
8499	15.355	0.	0.1	1953.9
8500	15.171	0.	0.1	2000.2
8501	14.987	0.	0.1	2046.6
8502	14.803	0.	0.1	2093.3
8503	14.619	0.	0.1	2140.2
8504	14.435	0.	0.1	2187.3
8505	14.251	0.	0.1	2234.6
8506	14.067	0.	0.1	2282.1
8507	13.883	0.	0.1	2329.9
8508	13.699	0.	0.1	2377.8
8509	13.515	0.	0.1	2425.9
8510	13.332	0.	0.1	2474.3
8511	13.148	0.	0.1	2522.9
8512	12.964	0.	0.1	2571.7
8513	12.78	0.	0.1	2620.7
8514	12.596	0.	0.1	2670.
8515	12.412	0.	0.1	2719.4
8516	12.228	0.	0.1	2769.1
8517	12.044	0.	0.1	2819.1
8518	11.86	0.	0.1	2869.2
8519	11.676	0.	0.1	2919.6
8520	11.492	0.	0.1	2970.2
8521	11.308	0.	0.1	3021.
8522	11.124	0.	0.1	3072.1
8523	10.94	0.	0.1	3123.3
8524	10.756	0.	0.1	3174.8
8525	10.572	0.	0.1	3226.5
8526	10.388	0.	0.1	3278.4
8527	10.205	0.	0.1	3330.5
8528	10.021	0.	0.1	3382.8
8529	9.8367	0.	0.1	3435.2
8530	9.6527	0.	0.1	3487.6
8531	9.4688	0.	0.1	3540.2
8532	9.2848	0.	0.1	3592.7
8533	9.1009	0.	0.1	3645.2
8534	8.917	0.	0.1	3697.4
8535	8.733	0.	0.1	3749.3
8536	8.5491	0.	0.1	3800.8
8537	8.3652	0.	0.1	3851.5
8538	8.1812	0.	0.1	3901.2
8539	7.9973	0.	0.1	3949.5
8540	7.8133	0.	0.1	3996.
8541	7.6294	0.	0.1	4040.1
8542	7.4455	0.	0.1	4081.
8543	7.2615	0.	0.1	4118.
8544	7.0776	0.	0.1	4149.6
8545	6.8936	0.	0.1	4174.7
8546	6.7097	0.	0.1	4191.3
8547	6.5258	0.	0.1	4197.2
8548	6.3418	0.	0.1	4189.8
8549	6.1579	0.	0.1	4165.6
8550	5.9739	0.	0.1	4120.7
8551	5.79	0.	0.1	4050.3
8552	5.6061	0.	0.1	3948.8
8553	5.4221	0.	0.1	3810.
8554	5.2382	0.	0.1	3626.9
8555	5.0542	0.	0.1	3392.4
8556	4.8703	0.	0.1	3099.7
8557	4.6864	0.	0.1	2743.4
8558	4.5024	0.	0.1	2320.4
8559	4.3185	0.	0.1	1830.7
8560	4.1345	0.	0.1	1276.1
8561	3.9506	0.	0.1	650.88
8562	3.7667	0.	0.1	62.68
8563	3.6	0.	0.1	77.838
8564	3.42	-5.7626e-032	0.1	810.92
8565	3.24	-5.4593e-032	0.1	1580.5
8566	3.06	-5.156e-032	0.1	2265.7
8567	2.88	-4.8527e-032	0.1	2881.7
8568	2.7	-4.5494e-032	0.1	3429.3
8569	2.52	-4.2461e-032	0.1	3908.6
8570	2.34	-3.9428e-032	0.1	4322.1
8571	2.16	-3.6396e-032	0.1	4673.9
8572	1.98	-3.3363e-032	0.1	4968.7
8573	1.8	-3.033e-032	0.1	5211.1
8574	1.62	-2.7297e-032	0.1	5404.5
8575	1.44	-2.4264e-032	0.1	5550.7
8576	1.26	-2.1231e-032	0.1	5648.3
8577	1.08	-1.8198e-032	0.1	5691.9
8578	0.9	-1.5165e-032	0.1	5668.4
8579	0.72	-1.2132e-032	0.1	5553.2
8580	0.54	-9.0989e-033	0.1	5288.2
8581	0.36	-6.0659e-033	0.1	4769.8
8582	0.18	-3.033e-033	0.1	3605.
8583	0.	0.	0.1	874.11
8584	3.937e-014	6.	0.1	874.11
8585	0.18	6.	0.1	3605.
8586	0.36	6.	0.1	4769.8
8587	0.54	6.	0.1	5288.2
8588	0.72	6.	0.1	5553.3
8589	0.9	6.	0.1	5668.4
8590	1.08	6.	0.1	5691.9
8591	1.26	6.	0.1	5648.3
8592	1.44	6.	0.1	5550.7
8593	1.62	6.	0.1	5404.5
8594	1.8	6.	0.1	5211.1
8595	1.98	6.	0.1	4968.7
8596	2.16	6.	0.1	4673.9
8597	2.34	6.	0.1	4322.1
8598	2.52	6.	0.1	3908.6
8599	2.7	6.	0.1	3429.3
8600	2.88	6.	0.1	2881.7
8601	3.06	6.	0.1	2265.7
8602	3.24	6.	0.1	1580.5
8603	3.42	6.	0.1	810.92
8604	3.6	6.	0.1	77.838
8605	3.42	6.	0.	33.733
8606	3.24	6.	0.	43.421
8607	3.06	6.	0.	50.872
8608	2.88	6.	0.	54.102
8609	2.7	6.	0.	54.405
8610	2.52	6.	0.	53.521
8611	2.34	6.	0.	52.403
8612	2.16	6.	0.	51.756
8613	1.98	6.	0.	52.08
8614	1.8	6.	0.	53.788
8615	1.62	6.	0.	57.286
8616	1.44	6.	0.	63.04
8617	1.26	6.	0.	71.732
8618	1.08	6.	0.	84.215
8619	0.9	6.	0.	102.53
8620	0.72	6.	0.	128.48
8621	0.54	6.	0.	171.97
8622	0.36	6.	0.	243.38
8623	0.18	6.	0.	435.7
8624	3.6	6.	0.	19.213
8625	3.937e-014	6.	0.	1717.1
8626	0.18	-3.033e-033	0.	435.7
8627	0.36	-6.0659e-033	0.	243.38
8628	0.54	-9.0989e-033	0.	171.97
8629	0.72	-1.2132e-032	0.	128.48
8630	0.9	-1.5165e-032	0.	102.53
8631	1.08	-1.8198e-032	0.	84.215
8632	1.26	-2.1231e-032	0.	71.732
8633	1.44	-2.4264e-032	0.	63.04
8634	1.62	-2.7297e-032	0.	57.286
8635	1.8	-3.033e-032	0.	53.788
8636	1.98	-3.3363e-032	0.	52.08
8637	2.16	-3.6396e-032	0.	51.756
8638	2.34	-3.9428e-032	0.	52.403
8639	2.52	-4.2461e-032	0.	53.521
8640	2.7	-4.5494e-032	0.	54.405
8641	2.88	-4.8527e-032	0.	54.102
8642	3.06	-5.156e-032	0.	50.872
8643	3.24	-5.4593e-032	0.	43.421
8644	3.42	-5.7626e-032	0.	33.733
8645	3.6	0.	0.	19.213
8646	0.	0.	0.	1717.1
8647	3.9506	0.	0.	22.698
8648	4.1345	0.	0.	26.182
8649	4.3185	0.	0.	28.211
8650	4.5024	0.	0.	27.484
8651	4.6864	0.	0.	24.942
8652	4.8703	0.	0.	21.762
8653	5.0542	0.	0.	18.474
8654	5.2382	0.	0.	15.401
8655	5.4221	0.	0.	12.682
8656	5.6061	0.	0.	10.358
8657	5.79	0.	0.	8.4194
8658	5.9739	0.	0.	6.8307
8659	6.1579	0.	0.	5.5474
8660	6.3418	0.	0.	4.5252
8661	6.5258	0.	0.	3.7236
8662	6.7097	0.	0.	3.1073
8663	6.8936	0.	0.	2.6462
8664	7.0776	0.	0.	2.3147
8665	7.2615	0.	0.	2.0915
8666	7.4455	0.	0.	1.9584
8667	7.6294	0.	0.	1.9
8668	7.8133	0.	0.	1.9031
8669	7.9973	0.	0.	1.9566
8670	8.1812	0.	0.	2.0508
8671	8.3652	0.	0.	2.1776
8672	8.5491	0.	0.	2.3298
8673	8.733	0.	0.	2.5016
8674	8.917	0.	0.	2.6881
8675	9.1009	0.	0.	2.885
8676	9.2848	0.	0.	3.0889
8677	9.4688	0.	0.	3.2971
8678	9.6527	0.	0.	3.5071
8679	9.8367	0.	0.	3.7172
8680	10.021	0.	0.	3.9259
8681	10.205	0.	0.	4.1321
8682	10.388	0.	0.	4.335
8683	10.572	0.	0.	4.534
8684	10.756	0.	0.	4.7286
8685	10.94	0.	0.	4.9186
8686	11.124	0.	0.	5.104
8687	11.308	0.	0.	5.2847
8688	11.492	0.	0.	5.4608
8689	11.676	0.	0.	5.6324
8690	11.86	0.	0.	5.7998
8691	12.044	0.	0.	5.963
8692	12.228	0.	0.	6.1225
8693	12.412	0.	0.	6.2786
8694	12.596	0.	0.	6.4314
8695	12.78	0.	0.	6.5814
8696	12.964	0.	0.	6.7288
8697	13.148	0.	0.	6.874
8698	13.332	0.	0.	7.0173
8699	13.515	0.	0.	7.1589
8700	13.699	0.	0.	7.2992
8701	13.883	0.	0.	7.4386
8702	14.067	0.	0.	7.5772
8703	14.251	0.	0.	7.7154
8704	14.435	0.	0.	7.8535
8705	14.619	0.	0.	7.9917
8706	14.803	0.	0.	8.1303
8707	14.987	0.	0.	8.2695
8708	15.171	0.	0.	8.4097
8709	15.355	0.	0.	8.5511
8710	15.539	0.	0.	8.6938
8711	15.723	0.	0.	8.8382
8712	15.907	0.	0.	8.9844
8713	16.091	0.	0.	9.1326
8714	16.275	0.	0.	9.2831
8715	16.458	0.	0.	9.4361
8716	16.642	0.	0.	9.5916
8717	16.826	0.	0.	9.7499
8718	17.01	0.	0.	9.9112
8719	17.194	0.	0.	10.076
8720	17.378	0.	0.	10.243
8721	17.562	0.	0.	10.414
8722	17.746	0.	0.	10.588
8723	17.93	0.	0.	10.766
8724	18.114	0.	0.	10.947
8725	18.298	0.	0.	11.132
8726	18.482	0.	0.	11.32
8727	18.666	0.	0.	11.512
8728	18.85	0.	0.	11.707
8729	19.034	0.	0.	11.906
8730	19.218	0.	0.	12.107
8731	19.402	0.	0.	12.311
8732	19.585	0.	0.	12.518
8733	19.769	0.	0.	12.726
8734	19.953	0.	0.	12.937
8735	20.137	0.	0.	13.147
8736	20.321	0.	0.	13.358
8737	20.505	0.	0.	13.569
8738	20.689	0.	0.	13.777
8739	20.873	0.	0.	13.983
8740	21.057	0.	0.	14.183
8741	21.241	0.	0.	14.378
8742	21.425	0.	0.	14.564
8743	21.609	0.	0.	14.739
8744	21.793	0.	0.	14.9
8745	21.977	0.	0.	15.044
8746	22.161	0.	0.	15.165
8747	22.345	0.	0.	15.258
8748	22.528	0.	0.	15.316
8749	22.712	0.	0.	15.328
8750	22.896	0.	0.	15.279
8751	23.08	0.	0.	15.148
8752	23.264	0.	0.	14.903
8753	23.448	0.	0.	14.455
8754	23.632	0.	0.	13.793
8755	23.816	0.	0.	11.497
8756	3.7667	0.	0.	14.273
8757	24.	0.	0.	5.7227
8758	5.0862e-014	5.8182	0.	-1141.5
8759	4.9273e-014	5.6364	0.	-2314.2
8760	4.7683e-014	5.4545	0.	-2846.8
8761	4.6094e-014	5.2727	0.	-3162.4
8762	4.4504e-014	5.0909	0.	-3368.8
8763	4.2915e-014	4.9091	0.	-3512.2
8764	4.1325e-014	4.7273	0.	-3614.
8765	3.9736e-014	4.5455	0.	-3687.
8766	3.8147e-014	4.3636	0.	-3739.1
8767	3.6557e-014	4.1818	0.	-3775.7
8768	3.4968e-014	4.	0.	-3800.9
8769	3.3378e-014	3.8182	0.	-3817.7
8770	3.1789e-014	3.6364	0.	-3828.6
8771	3.0199e-014	3.4545	0.	-3835.2
8772	2.861e-014	3.2727	0.	-3838.9
8773	2.702e-014	3.0909	0.	-3840.5
8774	2.5431e-014	2.9091	0.	-3840.5
8775	2.3842e-014	2.7273	0.	-3838.9
8776	2.2252e-014	2.5455	0.	-3835.2
8777	2.0663e-014	2.3636	0.	-3828.6
8778	1.9073e-014	2.1818	0.	-3817.7
8779	1.7484e-014	2.	0.	-3800.9
8780	1.5894e-014	1.8182	0.	-3775.7
8781	1.4305e-014	1.6364	0.	-3739.1
8782	1.2716e-014	1.4545	0.	-3687.
8783	1.1126e-014	1.2727	0.	-3614.
8784	9.5366e-015	1.0909	0.	-3512.2
8785	7.9472e-015	0.90909	0.	-3368.8
8786	6.3578e-015	0.72727	0.	-3162.4
8787	4.7683e-015	0.54545	0.	-2846.8
8788	3.1789e-015	0.36364	0.	-2314.2
8789	1.5894e-015	0.18182	0.	-1141.5
8790	24.	0.18182	0.	36.658
8791	24.	0.36364	0.	64.1
8792	24.	0.54545	0.	85.298
8793	24.	0.72727	0.	102.91
8794	24.	0.90909	0.	117.95
8795	24.	1.0909	0.	130.92
8796	24.	1.2727	0.	142.16
8797	24.	1.4545	0.	151.9
8798	24.	1.6364	0.	160.28
8799	24.	1.8182	0.	167.42
8800	24.	2.	0.	173.41
8801	24.	2.1818	0.	178.32
8802	24.	2.3636	0.	182.19
8803	24.	2.5455	0.	185.07
8804	24.	2.7273	0.	186.97
8805	24.	2.9091	0.	187.92
8806	24.	3.0909	0.	187.92
8807	24.	3.2727	0.	186.97
8808	24.	3.4545	0.	185.07
8809	24.	3.6364	0.	182.19
8810	24.	3.8182	0.	178.32
8811	24.	4.	0.	173.41
8812	24.	4.1818	0.	167.42
8813	24.	4.3636	0.	160.28
8814	24.	4.5455	0.	151.9
8815	24.	4.7273	0.	142.16
8816	24.	4.9091	0.	130.92
8817	24.	5.0909	0.	117.95
8818	24.	5.2727	0.	102.91
8819	24.	5.4545	0.	85.298
8820	24.	5.6364	0.	64.1
8821	24.	5.8182	0.	36.658
8822	24.	6.	0.	5.7227
8823	23.816	6.	0.	11.497
8824	23.632	6.	0.	13.793
8825	23.448	6.	0.	14.455
8826	23.264	6.	0.	14.903
8827	23.08	6.	0.	15.148
8828	22.896	6.	0.	15.279
8829	22.712	6.	0.	15.328
8830	22.528	6.	0.	15.316
8831	22.345	6.	0.	15.258
8832	22.161	6.	0.	15.165
8833	21.977	6.	0.	15.044
8834	21.793	6.	0.	14.9
8835	21.609	6.	0.	14.739
8836	21.425	6.	0.	14.564
8837	21.241	6.	0.	14.378
8838	21.057	6.	0.	14.183
8839	20.873	6.	0.	13.983
8840	20.689	6.	0.	13.777
8841	20.505	6.	0.	13.569
8842	20.321	6.	0.	13.358
8843	20.137	6.	0.	13.147
8844	19.953	6.	0.	12.937
8845	19.769	6.	0.	12.726
8846	19.585	6.	0.	12.518
8847	19.402	6.	0.	12.311
8848	19.218	6.	0.	12.107
8849	19.034	6.	0.	11.906
8850	18.85	6.	0.	11.707
8851	18.666	6.	0.	11.512
8852	18.482	6.	0.	11.32
8853	18.298	6.	0.	11.132
8854	18.114	6.	0.	10.947
8855	17.93	6.	0.	10.766
8856	17.746	6.	0.	10.588
8857	17.562	6.	0.	10.414
8858	17.378	6.	0.	10.243
8859	17.194	6.	0.	10.076
8860	17.01	6.	0.	9.9112
8861	16.826	6.	0.	9.7499
8862	16.642	6.	0.	9.5916
8863	16.458	6.	0.	9.4361
8864	16.275	6.	0.	9.2831
8865	16.091	6.	0.	9.1326
8866	15.907	6.	0.	8.9844
8867	15.723	6.	0.	8.8382
8868	15.539	6.	0.	8.6938
8869	15.355	6.	0.	8.5511
8870	15.171	6.	0.	8.4097
8871	14.987	6.	0.	8.2695
8872	14.803	6.	0.	8.1303
8873	14.619	6.	0.	7.9917
8874	14.435	6.	0.	7.8535
8875	14.251	6.	0.	7.7154
8876	14.067	6.	0.	7.5772
8877	13.883	6.	0.	7.4386
8878	13.699	6.	0.	7.2992
8879	13.515	6.	0.	7.1589
8880	13.332	6.	0.	7.0173
8881	13.148	6.	0.	6.874
8882	12.964	6.	0.	6.7288
8883	12.78	6.	0.	6.5814
8884	12.596	6.	0.	6.4314
8885	12.412	6.	0.	6.2786
8886	12.228	6.	0.	6.1225
8887	12.044	6.	0.	5.963
8888	11.86	6.	0.	5.7998
8889	11.676	6.	0.	5.6324
8890	11.492	6.	0.	5.4608
8891	11.308	6.	0.	5.2847
8892	11.124	6.	0.	5.104
8893	10.94	6.	0.	4.9186
8894	10.756	6.	0.	4.7286
8895	10.572	6.	0.	4.534
8896	10.388	6.	0.	4.335
8897	10.205	6.	0.	4.1321
8898	10.021	6.	0.	3.9259
8899	9.8367	6.	0.	3.7172
8900	9.6527	6.	0.	3.5071
8901	9.4688	6.	0.	3.2971
8902	9.2848	6.	0.	3.0889
8903	9.1009	6.	0.	2.885
8904	8.917	6.	0.	2.6881
8905	8.733	6.	0.	2.5016
8906	8.5491	6.	0.	2.3298
8907	8.3652	6.	0.	2.1776
8908	8.1812	6.	0.	2.0508
8909	7.9973	6.	0.	1.9566
8910	7.8133	6.	0.	1.9031
8911	7.6294	6.	0.	1.9
8912	7.4455	6.	0.	1.9584
8913	7.2615	6.	0.	2.0915
8914	7.0776	6.	0.	2.3147
8915	6.8936	6.	0.	2.6462
8916	6.7097	6.	0.	3.1073
8917	6.5258	6.	0.	3.7236
8918	6.3418	6.	0.	4.5252
8919	6.1579	6.	0.	5.5474
8920	5.9739	6.	0.	6.8307
8921	5.79	6.	0.	8.4194
8922	5.6061	6.	0.	10.358
8923	5.4221	6.	0.	12.682
8924	5.2382	6.	0.	15.401
8925	5.0542	6.	0.	18.474
8926	4.8703	6.	0.	21.762
8927	4.6864	6.	0.	24.942
8928	4.5024	6.	0.	27.484
8929	4.3185	6.	0.	28.211
8930	4.1345	6.	0.	26.182
8931	3.9506	6.	0.	22.698
8932	3.7667	6.	0.	14.273
8933	3.6	1.8182	0.	6405.8
8934	3.6	1.6364	0.	2965.
8935	3.6	1.4545	0.	2308.5
8936	3.6	1.2727	0.	1696.1
8937	3.6	1.0909	0.	1275.1
8938	3.6	0.90909	0.	949.13
8939	3.6	0.72727	0.	684.85
8940	3.6	0.54545	0.	463.34
8941	3.6	0.36364	0.	274.38
8942	3.6	0.18182	0.	113.78
8943	3.6	2.	0.	4531.
8944	3.7667	0.18182	0.	97.656
8945	3.7667	0.36364	0.	246.42
8946	3.7667	0.54545	0.	424.25
8947	3.7667	0.72727	0.	634.33
8948	3.7667	0.90909	0.	885.05
8949	3.7667	1.0909	0.	1192.6
8950	3.7667	1.2727	0.	1587.2
8951	3.7667	1.4545	0.	2155.4
8952	3.7667	1.6364	0.	2762.8
8953	3.7667	1.8182	0.	6001.
8954	3.7667	2.	0.	4174.9
8955	3.6	4.1818	0.	6405.8
8956	3.6	4.3636	0.	2965.
8957	3.6	4.5455	0.	2308.5
8958	3.6	4.7273	0.	1696.1
8959	3.6	4.9091	0.	1275.1
8960	3.6	5.0909	0.	949.13
8961	3.6	5.2727	0.	684.85
8962	3.6	5.4545	0.	463.34
8963	3.6	5.6364	0.	274.38
8964	3.6	5.8182	0.	113.78
8965	3.6	4.	0.	4531.
8966	3.7667	5.8182	0.	97.656
8967	3.7667	5.6364	0.	246.42
8968	3.7667	5.4545	0.	424.25
8969	3.7667	5.2727	0.	634.33
8970	3.7667	5.0909	0.	885.05
8971	3.7667	4.9091	0.	1192.6
8972	3.7667	4.7273	0.	1587.2
8973	3.7667	4.5455	0.	2155.4
8974	3.7667	4.3636	0.	2762.8
8975	3.7667	4.1818	0.	6001.
8976	3.7667	4.	0.	4175.
8977	3.6	2.2727	0.	1443.9
8978	3.6833	2.1818	0.	1448.2
8979	3.51	2.1818	0.	1257.3
8980	3.6	2.1818	5.e-002	617.41
8981	3.6	2.0909	0.	2830.8
8982	3.6	2.4545	0.	1092.9
8983	3.6833	2.3636	0.	1205.3
8984	3.51	2.3636	0.	1000.5
8985	3.6	2.3636	5.e-002	111.63
8986	3.6	2.6364	0.	852.51
8987	3.6833	2.5455	0.	941.23
8988	3.51	2.5455	0.	755.84
8989	3.6	2.5455	5.e-002	48.928
8990	3.6	2.8182	0.	729.41
8991	3.6833	2.7273	0.	787.39
8992	3.51	2.7273	0.	629.26
8993	3.6	2.7273	5.e-002	23.675
8994	3.6	3.	0.	690.62
8995	3.6833	2.9091	0.	714.94
8996	3.51	2.9091	0.	567.84
8997	3.6	2.9091	5.e-002	10.226
8998	3.6	3.1818	0.	729.41
8999	3.6833	3.0909	0.	714.94
9000	3.51	3.0909	0.	567.84
9001	3.6	3.0909	5.e-002	10.226
9002	3.6	3.3636	0.	852.51
9003	3.6833	3.2727	0.	787.39
9004	3.51	3.2727	0.	629.26
9005	3.6	3.2727	5.e-002	23.676
9006	3.6	3.5455	0.	1092.9
9007	3.6833	3.4545	0.	941.24
9008	3.51	3.4545	0.	755.85
9009	3.6	3.4545	5.e-002	48.929
9010	3.6	3.7273	0.	1443.9
9011	3.6833	3.6364	0.	1205.3
9012	3.51	3.6364	0.	1000.5
9013	3.6	3.6364	5.e-002	111.63
9014	3.6833	3.8182	0.	1448.2
9015	3.51	3.8182	0.	1257.3
9016	3.6	3.8182	5.e-002	617.41
9017	3.6	3.9091	0.	2830.8
9018	3.7667	2.2727	0.	1430.3
9019	3.8586	2.1818	0.	1221.7
9020	3.7667	2.1818	5.e-002	641.54
9021	3.7667	2.0909	0.	2632.9
9022	3.7667	2.4545	0.	1119.1
9023	3.8586	2.3636	0.	1037.5
9024	3.7667	2.3636	5.e-002	125.56
9025	3.7667	2.6364	0.	893.53
9026	3.8586	2.5455	0.	828.89
9027	3.7667	2.5455	5.e-002	65.509
9028	3.7667	2.8182	0.	776.22
9029	3.8586	2.7273	0.	719.41
9030	3.7667	2.7273	5.e-002	38.525
9031	3.7667	3.	0.	739.17
9032	3.8586	2.9091	0.	665.28
9033	3.7667	2.9091	5.e-002	28.124
9034	3.7667	3.1818	0.	776.22
9035	3.8586	3.0909	0.	665.28
9036	3.7667	3.0909	5.e-002	28.125
9037	3.7667	3.3636	0.	893.53
9038	3.8586	3.2727	0.	719.41
9039	3.7667	3.2727	5.e-002	38.526
9040	3.7667	3.5455	0.	1119.1
9041	3.8586	3.4545	0.	828.9
9042	3.7667	3.4545	5.e-002	65.51
9043	3.7667	3.7273	0.	1430.3
9044	3.8586	3.6364	0.	1037.5
9045	3.7667	3.6364	5.e-002	125.56
9046	3.8586	3.8182	0.	1221.7
9047	3.7667	3.8182	5.e-002	641.54
9048	3.7667	3.9091	0.	2632.9
9049	3.42	5.7273	0.	269.12
9050	3.33	5.8182	0.	151.96
9051	3.42	5.8182	5.e-002	96.557
9052	3.42	5.9091	0.	71.622
9053	3.51	5.8182	0.	81.82
9054	3.42	5.5455	0.	500.39
9055	3.33	5.6364	0.	243.54
9056	3.42	5.6364	5.e-002	85.836
9057	3.51	5.6364	0.	248.23
9058	3.42	5.3636	0.	809.32
9059	3.33	5.4545	0.	463.11
9060	3.42	5.4545	5.e-002	89.827
9061	3.51	5.4545	0.	477.62
9062	3.42	5.1818	0.	1170.1
9063	3.33	5.2727	0.	743.48
9064	3.42	5.2727	5.e-002	98.692
9065	3.51	5.2727	0.	743.71
9066	3.42	5.	0.	1590.
9067	3.33	5.0909	0.	1069.3
9068	3.42	5.0909	5.e-002	112.11
9069	3.51	5.0909	0.	1053.1
9070	3.42	4.8182	0.	2091.6
9071	3.33	4.9091	0.	1442.4
9072	3.42	4.9091	5.e-002	131.17
9073	3.51	4.9091	0.	1422.4
9074	3.42	4.6364	0.	2701.3
9075	3.33	4.7273	0.	1873.3
9076	3.42	4.7273	5.e-002	160.61
9077	3.51	4.7273	0.	1880.
9078	3.42	4.4545	0.	3515.2
9079	3.33	4.5455	0.	2352.
9080	3.42	4.5455	5.e-002	198.69
9081	3.51	4.5455	0.	2491.1
9082	3.42	4.2727	0.	4225.
9083	3.33	4.3636	0.	2900.1
9084	3.42	4.3636	5.e-002	292.27
9085	3.51	4.3636	0.	3208.4
9086	3.42	4.0909	0.	3650.4
9087	3.33	4.1818	0.	3106.
9088	3.42	4.1818	5.e-002	550.54
9089	3.51	4.1818	0.	5016.
9090	3.42	3.9091	0.	1884.6
9091	3.33	4.	0.	1965.1
9092	3.42	4.	5.e-002	962.71
9093	3.51	4.	0.	3120.7
9094	3.42	3.7273	0.	927.44
9095	3.33	3.8182	0.	746.22
9096	3.42	3.8182	5.e-002	462.83
9097	3.42	3.5455	0.	696.56
9098	3.33	3.6364	0.	497.9
9099	3.42	3.6364	5.e-002	188.26
9100	3.42	3.3636	0.	541.52
9101	3.33	3.4545	0.	362.44
9102	3.42	3.4545	5.e-002	100.37
9103	3.42	3.1818	0.	466.81
9104	3.33	3.2727	0.	292.66
9105	3.42	3.2727	5.e-002	56.729
9106	3.42	3.	0.	441.79
9107	3.33	3.0909	0.	259.11
9108	3.42	3.0909	5.e-002	41.486
9109	3.42	2.8182	0.	466.81
9110	3.33	2.9091	0.	259.11
9111	3.42	2.9091	5.e-002	41.486
9112	3.42	2.6364	0.	541.51
9113	3.33	2.7273	0.	292.66
9114	3.42	2.7273	5.e-002	56.729
9115	3.42	2.4545	0.	696.56
9116	3.33	2.5455	0.	362.44
9117	3.42	2.5455	5.e-002	100.37
9118	3.42	2.2727	0.	927.44
9119	3.33	2.3636	0.	497.9
9120	3.42	2.3636	5.e-002	188.25
9121	3.42	2.0909	0.	1884.6
9122	3.33	2.1818	0.	746.22
9123	3.42	2.1818	5.e-002	462.82
9124	3.42	1.9091	0.	3650.4
9125	3.33	2.	0.	1965.1
9126	3.42	2.	5.e-002	962.71
9127	3.51	2.	0.	3120.7
9128	3.42	1.7273	0.	4225.
9129	3.33	1.8182	0.	3106.
9130	3.42	1.8182	5.e-002	550.54
9131	3.51	1.8182	0.	5016.
9132	3.42	1.5455	0.	3515.2
9133	3.33	1.6364	0.	2900.1
9134	3.42	1.6364	5.e-002	292.27
9135	3.51	1.6364	0.	3208.4
9136	3.42	1.3636	0.	2701.3
9137	3.33	1.4545	0.	2352.
9138	3.42	1.4545	5.e-002	198.69
9139	3.51	1.4545	0.	2491.1
9140	3.42	1.1818	0.	2091.6
9141	3.33	1.2727	0.	1873.3
9142	3.42	1.2727	5.e-002	160.61
9143	3.51	1.2727	0.	1880.
9144	3.42	1.	0.	1590.
9145	3.33	1.0909	0.	1442.4
9146	3.42	1.0909	5.e-002	131.17
9147	3.51	1.0909	0.	1422.4
9148	3.42	0.81818	0.	1170.1
9149	3.33	0.90909	0.	1069.3
9150	3.42	0.90909	5.e-002	112.11
9151	3.51	0.90909	0.	1053.1
9152	3.42	0.63636	0.	809.32
9153	3.33	0.72727	0.	743.48
9154	3.42	0.72727	5.e-002	98.692
9155	3.51	0.72727	0.	743.71
9156	3.42	0.45455	0.	500.39
9157	3.33	0.54545	0.	463.11
9158	3.42	0.54545	5.e-002	89.827
9159	3.51	0.54545	0.	477.62
9160	3.42	0.27273	0.	269.12
9161	3.33	0.36364	0.	243.54
9162	3.42	0.36364	5.e-002	85.836
9163	3.51	0.36364	0.	248.23
9164	3.33	0.18182	0.	151.96
9165	3.42	0.18182	5.e-002	96.557
9166	3.42	9.0909e-002	0.	71.622
9167	3.51	0.18182	0.	81.82
9168	3.24	5.7273	0.	153.72
9169	3.15	5.8182	0.	139.9
9170	3.24	5.8182	5.e-002	85.822
9171	3.24	5.9091	0.	58.625
9172	3.24	5.5455	0.	250.23
9173	3.15	5.6364	0.	146.
9174	3.24	5.6364	5.e-002	72.171
9175	3.24	5.3636	0.	443.19
9176	3.15	5.4545	0.	258.35
9177	3.24	5.4545	5.e-002	71.582
9178	3.24	5.1818	0.	688.64
9179	3.15	5.2727	0.	433.91
9180	3.24	5.2727	5.e-002	74.247
9181	3.24	5.	0.	970.3
9182	3.15	5.0909	0.	647.3
9183	3.24	5.0909	5.e-002	79.826
9184	3.24	4.8182	0.	1280.1
9185	3.15	4.9091	0.	882.27
9186	3.24	4.9091	5.e-002	88.768
9187	3.24	4.6364	0.	1593.
9188	3.15	4.7273	0.	1121.4
9189	3.24	4.7273	5.e-002	100.3
9190	3.24	4.4545	0.	1836.6
9191	3.15	4.5455	0.	1322.
9192	3.24	4.5455	5.e-002	123.07
9193	3.24	4.2727	0.	1854.1
9194	3.15	4.3636	0.	1397.3
9195	3.24	4.3636	5.e-002	121.73
9196	3.24	4.0909	0.	1357.9
9197	3.15	4.1818	0.	1194.7
9198	3.24	4.1818	5.e-002	174.81
9199	3.24	3.9091	0.	657.48
9200	3.15	4.	0.	587.98
9201	3.24	4.	5.e-002	152.32
9202	3.24	3.7273	0.	263.55
9203	3.15	3.8182	0.	127.26
9204	3.24	3.8182	5.e-002	215.69
9205	3.24	3.5455	0.	146.4
9206	3.15	3.6364	0.	10.572
9207	3.24	3.6364	5.e-002	147.66
9208	3.24	3.3636	0.	104.56
9209	3.15	3.4545	0.	6.8933
9210	3.24	3.4545	5.e-002	106.9
9211	3.24	3.1818	0.	76.411
9212	3.15	3.2727	0.	2.1551
9213	3.24	3.2727	5.e-002	74.043
9214	3.24	3.	0.	67.199
9215	3.15	3.0909	0.	0.37364
9216	3.24	3.0909	5.e-002	60.059
9217	3.24	2.8182	0.	76.411
9218	3.15	2.9091	0.	0.37364
9219	3.24	2.9091	5.e-002	60.059
9220	3.24	2.6364	0.	104.56
9221	3.15	2.7273	0.	2.1551
9222	3.24	2.7273	5.e-002	74.043
9223	3.24	2.4545	0.	146.4
9224	3.15	2.5455	0.	6.8933
9225	3.24	2.5455	5.e-002	106.9
9226	3.24	2.2727	0.	263.55
9227	3.15	2.3636	0.	10.572
9228	3.24	2.3636	5.e-002	147.66
9229	3.24	2.0909	0.	657.48
9230	3.15	2.1818	0.	127.26
9231	3.24	2.1818	5.e-002	215.69
9232	3.24	1.9091	0.	1357.9
9233	3.15	2.	0.	587.98
9234	3.24	2.	5.e-002	152.32
9235	3.24	1.7273	0.	1854.1
9236	3.15	1.8182	0.	1194.7
9237	3.24	1.8182	5.e-002	174.81
9238	3.24	1.5455	0.	1836.6
9239	3.15	1.6364	0.	1397.3
9240	3.24	1.6364	5.e-002	121.73
9241	3.24	1.3636	0.	1593.
9242	3.15	1.4545	0.	1322.
9243	3.24	1.4545	5.e-002	123.07
9244	3.24	1.1818	0.	1280.1
9245	3.15	1.2727	0.	1121.4
9246	3.24	1.2727	5.e-002	100.3
9247	3.24	1.	0.	970.3
9248	3.15	1.0909	0.	882.27
9249	3.24	1.0909	5.e-002	88.768
9250	3.24	0.81818	0.	688.64
9251	3.15	0.90909	0.	647.3
9252	3.24	0.90909	5.e-002	79.826
9253	3.24	0.63636	0.	443.19
9254	3.15	0.72727	0.	433.91
9255	3.24	0.72727	5.e-002	74.247
9256	3.24	0.45455	0.	250.23
9257	3.15	0.54545	0.	258.35
9258	3.24	0.54545	5.e-002	71.582
9259	3.24	0.27273	0.	153.72
9260	3.15	0.36364	0.	146.
9261	3.24	0.36364	5.e-002	72.171
9262	3.15	0.18182	0.	139.9
9263	3.24	0.18182	5.e-002	85.822
9264	3.24	9.0909e-002	0.	58.625
9265	3.06	5.7273	0.	138.78
9266	2.97	5.8182	0.	145.86
9267	3.06	5.8182	5.e-002	81.218
9268	3.06	5.9091	0.	70.83
9269	3.06	5.5455	0.	172.29
9270	2.97	5.6364	0.	125.51
9271	3.06	5.6364	5.e-002	66.933
9272	3.06	5.3636	0.	278.08
9273	2.97	5.4545	0.	174.62
9274	3.06	5.4545	5.e-002	66.378
9275	3.06	5.1818	0.	426.96
9276	2.97	5.2727	0.	267.56
9277	3.06	5.2727	5.e-002	67.885
9278	3.06	5.	0.	596.87
9279	2.97	5.0909	0.	386.17
9280	3.06	5.0909	5.e-002	70.731
9281	3.06	4.8182	0.	763.79
9282	2.97	4.9091	0.	510.03
9283	3.06	4.9091	5.e-002	74.611
9284	3.06	4.6364	0.	891.91
9285	2.97	4.7273	0.	612.25
9286	3.06	4.7273	5.e-002	78.581
9287	3.06	4.4545	0.	915.54
9288	2.97	4.5455	0.	654.44
9289	3.06	4.5455	5.e-002	78.734
9290	3.06	4.2727	0.	753.25
9291	2.97	4.3636	0.	575.14
9292	3.06	4.3636	5.e-002	78.682
9293	3.06	4.0909	0.	414.68
9294	2.97	4.1818	0.	331.8
9295	3.06	4.1818	5.e-002	78.162
9296	3.06	3.9091	0.	55.389
9297	2.97	4.	0.	36.622
9298	3.06	4.	5.e-002	95.597
9299	3.06	3.7273	0.	8.6519e-002
9300	2.97	3.8182	0.	0.58642
9301	3.06	3.8182	5.e-002	103.19
9302	3.06	3.5455	0.	5.4
9303	2.97	3.6364	0.	5.2438
9304	3.06	3.6364	5.e-002	103.67
9305	3.06	3.3636	0.	1.804
9306	2.97	3.4545	0.	1.8361
9307	3.06	3.4545	5.e-002	86.35
9308	3.06	3.1818	0.	1.2296
9309	2.97	3.2727	0.	1.5433
9310	3.06	3.2727	5.e-002	72.413
9311	3.06	3.	0.	0.84713
9312	2.97	3.0909	0.	1.0689
9313	3.06	3.0909	5.e-002	64.323
9314	3.06	2.8182	0.	1.2296
9315	2.97	2.9091	0.	1.0689
9316	3.06	2.9091	5.e-002	64.323
9317	3.06	2.6364	0.	1.804
9318	2.97	2.7273	0.	1.5433
9319	3.06	2.7273	5.e-002	72.412
9320	3.06	2.4545	0.	5.4
9321	2.97	2.5455	0.	1.8361
9322	3.06	2.5455	5.e-002	86.35
9323	3.06	2.2727	0.	8.6519e-002
9324	2.97	2.3636	0.	5.2438
9325	3.06	2.3636	5.e-002	103.66
9326	3.06	2.0909	0.	55.389
9327	2.97	2.1818	0.	0.58642
9328	3.06	2.1818	5.e-002	103.19
9329	3.06	1.9091	0.	414.69
9330	2.97	2.	0.	36.622
9331	3.06	2.	5.e-002	95.596
9332	3.06	1.7273	0.	753.25
9333	2.97	1.8182	0.	331.8
9334	3.06	1.8182	5.e-002	78.162
9335	3.06	1.5455	0.	915.54
9336	2.97	1.6364	0.	575.14
9337	3.06	1.6364	5.e-002	78.682
9338	3.06	1.3636	0.	891.91
9339	2.97	1.4545	0.	654.44
9340	3.06	1.4545	5.e-002	78.734
9341	3.06	1.1818	0.	763.79
9342	2.97	1.2727	0.	612.25
9343	3.06	1.2727	5.e-002	78.581
9344	3.06	1.	0.	596.87
9345	2.97	1.0909	0.	510.03
9346	3.06	1.0909	5.e-002	74.611
9347	3.06	0.81818	0.	426.96
9348	2.97	0.90909	0.	386.17
9349	3.06	0.90909	5.e-002	70.731
9350	3.06	0.63636	0.	278.08
9351	2.97	0.72727	0.	267.56
9352	3.06	0.72727	5.e-002	67.885
9353	3.06	0.45455	0.	172.29
9354	2.97	0.54545	0.	174.62
9355	3.06	0.54545	5.e-002	66.378
9356	3.06	0.27273	0.	138.78
9357	2.97	0.36364	0.	125.51
9358	3.06	0.36364	5.e-002	66.933
9359	2.97	0.18182	0.	145.86
9360	3.06	0.18182	5.e-002	81.218
9361	3.06	9.0909e-002	0.	70.83
9362	2.88	5.7273	0.	135.06
9363	2.79	5.8182	0.	146.19
9364	2.88	5.8182	5.e-002	75.893
9365	2.88	5.9091	0.	78.757
9366	2.88	5.5455	0.	135.53
9367	2.79	5.6364	0.	114.11
9368	2.88	5.6364	5.e-002	60.523
9369	2.88	5.3636	0.	179.62
9370	2.79	5.4545	0.	123.34
9371	2.88	5.4545	5.e-002	59.871
9372	2.88	5.1818	0.	248.45
9373	2.79	5.2727	0.	154.63
9374	2.88	5.2727	5.e-002	60.422
9375	2.88	5.	0.	324.57
9376	2.79	5.0909	0.	196.71
9377	2.88	5.0909	5.e-002	61.207
9378	2.88	4.8182	0.	384.89
9379	2.79	4.9091	0.	233.25
9380	2.88	4.9091	5.e-002	61.705
9381	2.88	4.6364	0.	399.29
9382	2.79	4.7273	0.	242.3
9383	2.88	4.7273	5.e-002	60.981
9384	2.88	4.4545	0.	333.06
9385	2.79	4.5455	0.	198.12
9386	2.88	4.5455	5.e-002	58.731
9387	2.88	4.2727	0.	166.97
9388	2.79	4.3636	0.	86.578
9389	2.88	4.3636	5.e-002	55.813
9390	2.88	4.0909	0.	20.776
9391	2.79	4.1818	0.	13.73
9392	2.88	4.1818	5.e-002	56.048
9393	2.88	3.9091	0.	8.6599
9394	2.79	4.	0.	6.1575
9395	2.88	4.	5.e-002	61.415
9396	2.88	3.7273	0.	4.5986
9397	2.79	3.8182	0.	4.2503
9398	2.88	3.8182	5.e-002	66.691
9399	2.88	3.5455	0.	1.9308
9400	2.79	3.6364	0.	1.7744
9401	2.88	3.6364	5.e-002	68.846
9402	2.88	3.3636	0.	1.7711
9403	2.79	3.4545	0.	1.7275
9404	2.88	3.4545	5.e-002	66.438
9405	2.88	3.1818	0.	1.4223
9406	2.79	3.2727	0.	1.4337
9407	2.88	3.2727	5.e-002	61.988
9408	2.88	3.	0.	1.2722
9409	2.79	3.0909	0.	1.2677
9410	2.88	3.0909	5.e-002	58.904
9411	2.88	2.8182	0.	1.4223
9412	2.79	2.9091	0.	1.2677
9413	2.88	2.9091	5.e-002	58.904
9414	2.88	2.6364	0.	1.7711
9415	2.79	2.7273	0.	1.4337
9416	2.88	2.7273	5.e-002	61.988
9417	2.88	2.4545	0.	1.9308
9418	2.79	2.5455	0.	1.7275
9419	2.88	2.5455	5.e-002	66.437
9420	2.88	2.2727	0.	4.5986
9421	2.79	2.3636	0.	1.7744
9422	2.88	2.3636	5.e-002	68.845
9423	2.88	2.0909	0.	8.6599
9424	2.79	2.1818	0.	4.2503
9425	2.88	2.1818	5.e-002	66.69
9426	2.88	1.9091	0.	20.776
9427	2.79	2.	0.	6.1575
9428	2.88	2.	5.e-002	61.415
9429	2.88	1.7273	0.	166.97
9430	2.79	1.8182	0.	13.73
9431	2.88	1.8182	5.e-002	56.048
9432	2.88	1.5455	0.	333.06
9433	2.79	1.6364	0.	86.578
9434	2.88	1.6364	5.e-002	55.813
9435	2.88	1.3636	0.	399.29
9436	2.79	1.4545	0.	198.12
9437	2.88	1.4545	5.e-002	58.731
9438	2.88	1.1818	0.	384.89
9439	2.79	1.2727	0.	242.3
9440	2.88	1.2727	5.e-002	60.981
9441	2.88	1.	0.	324.57
9442	2.79	1.0909	0.	233.25
9443	2.88	1.0909	5.e-002	61.705
9444	2.88	0.81818	0.	248.45
9445	2.79	0.90909	0.	196.71
9446	2.88	0.90909	5.e-002	61.207
9447	2.88	0.63636	0.	179.62
9448	2.79	0.72727	0.	154.63
9449	2.88	0.72727	5.e-002	60.422
9450	2.88	0.45455	0.	135.53
9451	2.79	0.54545	0.	123.34
9452	2.88	0.54545	5.e-002	59.871
9453	2.88	0.27273	0.	135.06
9454	2.79	0.36364	0.	114.11
9455	2.88	0.36364	5.e-002	60.523
9456	2.79	0.18182	0.	146.19
9457	2.88	0.18182	5.e-002	75.893
9458	2.88	9.0909e-002	0.	78.757
9459	2.7	5.7273	0.	126.49
9460	2.61	5.8182	0.	139.53
9461	2.7	5.8182	5.e-002	69.973
9462	2.7	5.9091	0.	80.024
9463	2.7	5.5455	0.	105.55
9464	2.61	5.6364	0.	98.1
9465	2.7	5.6364	5.e-002	53.781
9466	2.7	5.3636	0.	106.85
9467	2.61	5.4545	0.	79.521
9468	2.7	5.4545	5.e-002	52.929
9469	2.7	5.1818	0.	116.33
9470	2.61	5.2727	0.	68.409
9471	2.7	5.2727	5.e-002	52.856
9472	2.7	5.	0.	122.57
9473	2.61	5.0909	0.	58.081
9474	2.7	5.0909	5.e-002	52.481
9475	2.7	4.8182	0.	110.58
9476	2.61	4.9091	0.	41.767
9477	2.7	4.9091	5.e-002	51.42
9478	2.7	4.6364	0.	67.552
9479	2.61	4.7273	0.	21.796
9480	2.7	4.7273	5.e-002	49.391
9481	2.7	4.4545	0.	20.148
9482	2.61	4.5455	0.	10.102
9483	2.7	4.5455	5.e-002	46.473
9484	2.7	4.2727	0.	6.8965
9485	2.61	4.3636	0.	5.1643
9486	2.7	4.3636	5.e-002	43.975
9487	2.7	4.0909	0.	3.112
9488	2.61	4.1818	0.	3.1128
9489	2.7	4.1818	5.e-002	43.606
9490	2.7	3.9091	0.	1.3717
9491	2.61	4.	0.	1.7998
9492	2.7	4.	5.e-002	44.989
9493	2.7	3.7273	0.	1.227
9494	2.61	3.8182	0.	1.1874
9495	2.7	3.8182	5.e-002	47.031
9496	2.7	3.5455	0.	1.5318
9497	2.61	3.6364	0.	1.3387
9498	2.7	3.6364	5.e-002	49.028
9499	2.7	3.3636	0.	1.4043
9500	2.61	3.4545	0.	1.2602
9501	2.7	3.4545	5.e-002	49.993
9502	2.7	3.1818	0.	1.2872
9503	2.61	3.2727	0.	1.1761
9504	2.7	3.2727	5.e-002	49.7
9505	2.7	3.	0.	1.2647
9506	2.61	3.0909	0.	1.1525
9507	2.7	3.0909	5.e-002	49.165
9508	2.7	2.8182	0.	1.2872
9509	2.61	2.9091	0.	1.1525
9510	2.7	2.9091	5.e-002	49.165
9511	2.7	2.6364	0.	1.4043
9512	2.61	2.7273	0.	1.1761
9513	2.7	2.7273	5.e-002	49.7
9514	2.7	2.4545	0.	1.5318
9515	2.61	2.5455	0.	1.2602
9516	2.7	2.5455	5.e-002	49.992
9517	2.7	2.2727	0.	1.227
9518	2.61	2.3636	0.	1.3387
9519	2.7	2.3636	5.e-002	49.028
9520	2.7	2.0909	0.	1.3717
9521	2.61	2.1818	0.	1.1874
9522	2.7	2.1818	5.e-002	47.031
9523	2.7	1.9091	0.	3.112
9524	2.61	2.	0.	1.7998
9525	2.7	2.	5.e-002	44.989
9526	2.7	1.7273	0.	6.8965
9527	2.61	1.8182	0.	3.1128
9528	2.7	1.8182	5.e-002	43.606
9529	2.7	1.5455	0.	20.148
9530	2.61	1.6364	0.	5.1643
9531	2.7	1.6364	5.e-002	43.975
9532	2.7	1.3636	0.	67.553
9533	2.61	1.4545	0.	10.102
9534	2.7	1.4545	5.e-002	46.473
9535	2.7	1.1818	0.	110.58
9536	2.61	1.2727	0.	21.796
9537	2.7	1.2727	5.e-002	49.391
9538	2.7	1.	0.	122.57
9539	2.61	1.0909	0.	41.767
9540	2.7	1.0909	5.e-002	51.42
9541	2.7	0.81818	0.	116.33
9542	2.61	0.90909	0.	58.081
9543	2.7	0.90909	5.e-002	52.481
9544	2.7	0.63636	0.	106.85
9545	2.61	0.72727	0.	68.409
9546	2.7	0.72727	5.e-002	52.856
9547	2.7	0.45455	0.	105.55
9548	2.61	0.54545	0.	79.521
9549	2.7	0.54545	5.e-002	52.929
9550	2.7	0.27273	0.	126.49
9551	2.61	0.36364	0.	98.1
9552	2.7	0.36364	5.e-002	53.781
9553	2.61	0.18182	0.	139.53
9554	2.7	0.18182	5.e-002	69.973
9555	2.7	9.0909e-002	0.	80.024
9556	2.52	5.7273	0.	111.75
9557	2.43	5.8182	0.	128.21
9558	2.52	5.8182	5.e-002	63.911
9559	2.52	5.9091	0.	76.924
9560	2.52	5.5455	0.	73.601
9561	2.43	5.6364	0.	75.812
9562	2.52	5.6364	5.e-002	47.17
9563	2.52	5.3636	0.	47.059
9564	2.43	5.4545	0.	38.458
9565	2.52	5.4545	5.e-002	46.226
9566	2.52	5.1818	0.	27.208
9567	2.43	5.2727	0.	16.49
9568	2.52	5.2727	5.e-002	45.91
9569	2.52	5.	0.	15.159
9570	2.43	5.0909	0.	8.8612
9571	2.52	5.0909	5.e-002	45.128
9572	2.52	4.8182	0.	8.8351
9573	2.43	4.9091	0.	5.6796
9574	2.52	4.9091	5.e-002	43.684
9575	2.52	4.6364	0.	5.4759
9576	2.43	4.7273	0.	3.9173
9577	2.52	4.7273	5.e-002	41.554
9578	2.52	4.4545	0.	3.6257
9579	2.43	4.5455	0.	2.8277
9580	2.52	4.5455	5.e-002	39.064
9581	2.52	4.2727	0.	2.5257
9582	2.43	4.3636	0.	2.1229
9583	2.52	4.3636	5.e-002	36.841
9584	2.52	4.0909	0.	1.8811
9585	2.43	4.1818	0.	1.6021
9586	2.52	4.1818	5.e-002	35.451
9587	2.52	3.9091	0.	1.5314
9588	2.43	4.	0.	1.2887
9589	2.52	4.	5.e-002	34.908
9590	2.52	3.7273	0.	1.2275
9591	2.43	3.8182	0.	1.0789
9592	2.52	3.8182	5.e-002	35.159
9593	2.52	3.5455	0.	1.0377
9594	2.43	3.6364	0.	0.90608
9595	2.52	3.6364	5.e-002	36.129
9596	2.52	3.3636	0.	1.0273
9597	2.43	3.4545	0.	0.88344
9598	2.52	3.4545	5.e-002	37.335
9599	2.52	3.1818	0.	1.0429
9600	2.43	3.2727	0.	0.90943
9601	2.52	3.2727	5.e-002	38.17
9602	2.52	3.	0.	1.0421
9603	2.43	3.0909	0.	0.91821
9604	2.52	3.0909	5.e-002	38.527
9605	2.52	2.8182	0.	1.0429
9606	2.43	2.9091	0.	0.91821
9607	2.52	2.9091	5.e-002	38.527
9608	2.52	2.6364	0.	1.0273
9609	2.43	2.7273	0.	0.90943
9610	2.52	2.7273	5.e-002	38.17
9611	2.52	2.4545	0.	1.0377
9612	2.43	2.5455	0.	0.88344
9613	2.52	2.5455	5.e-002	37.334
9614	2.52	2.2727	0.	1.2275
9615	2.43	2.3636	0.	0.90608
9616	2.52	2.3636	5.e-002	36.128
9617	2.52	2.0909	0.	1.5314
9618	2.43	2.1818	0.	1.0789
9619	2.52	2.1818	5.e-002	35.159
9620	2.52	1.9091	0.	1.8811
9621	2.43	2.	0.	1.2887
9622	2.52	2.	5.e-002	34.908
9623	2.52	1.7273	0.	2.5257
9624	2.43	1.8182	0.	1.6021
9625	2.52	1.8182	5.e-002	35.452
9626	2.52	1.5455	0.	3.6257
9627	2.43	1.6364	0.	2.1229
9628	2.52	1.6364	5.e-002	36.841
9629	2.52	1.3636	0.	5.4759
9630	2.43	1.4545	0.	2.8277
9631	2.52	1.4545	5.e-002	39.064
9632	2.52	1.1818	0.	8.8351
9633	2.43	1.2727	0.	3.9173
9634	2.52	1.2727	5.e-002	41.554
9635	2.52	1.	0.	15.159
9636	2.43	1.0909	0.	5.6796
9637	2.52	1.0909	5.e-002	43.684
9638	2.52	0.81818	0.	27.208
9639	2.43	0.90909	0.	8.8612
9640	2.52	0.90909	5.e-002	45.128
9641	2.52	0.63636	0.	47.059
9642	2.43	0.72727	0.	16.49
9643	2.52	0.72727	5.e-002	45.91
9644	2.52	0.45455	0.	73.601
9645	2.43	0.54545	0.	38.458
9646	2.52	0.54545	5.e-002	46.226
9647	2.52	0.27273	0.	111.75
9648	2.43	0.36364	0.	75.812
9649	2.52	0.36364	5.e-002	47.17
9650	2.43	0.18182	0.	128.21
9651	2.52	0.18182	5.e-002	63.911
9652	2.52	9.0909e-002	0.	76.924
9653	2.34	5.7273	0.	92.254
9654	2.25	5.8182	0.	114.5
9655	2.34	5.8182	5.e-002	58.104
9656	2.34	5.9091	0.	71.283
9657	2.34	5.5455	0.	39.771
9658	2.25	5.6364	0.	49.15
9659	2.34	5.6364	5.e-002	41.031
9660	2.34	5.3636	0.	12.655
9661	2.25	5.4545	0.	12.169
9662	2.34	5.4545	5.e-002	40.18
9663	2.34	5.1818	0.	6.2549
9664	2.25	5.2727	0.	5.2401
9665	2.34	5.2727	5.e-002	39.941
9666	2.34	5.	0.	4.0444
9667	2.25	5.0909	0.	3.3222
9668	2.34	5.0909	5.e-002	39.235
9669	2.34	4.8182	0.	2.89
9670	2.25	4.9091	0.	2.3986
9671	2.34	4.9091	5.e-002	37.958
9672	2.34	4.6364	0.	2.1641
9673	2.25	4.7273	0.	1.8369
9674	2.34	4.7273	5.e-002	36.166
9675	2.34	4.4545	0.	1.6617
9676	2.25	4.5455	0.	1.4559
9677	2.34	4.5455	5.e-002	34.056
9678	2.34	4.2727	0.	1.2935
9679	2.25	4.3636	0.	1.1725
9680	2.34	4.3636	5.e-002	31.925
9681	2.34	4.0909	0.	1.0062
9682	2.25	4.1818	0.	0.95151
9683	2.34	4.1818	5.e-002	29.978
9684	2.34	3.9091	0.	0.80329
9685	2.25	4.	0.	0.76951
9686	2.34	4.	5.e-002	28.348
9687	2.34	3.7273	0.	0.72718
9688	2.25	3.8182	0.	0.65872
9689	2.34	3.8182	5.e-002	27.287
9690	2.34	3.5455	0.	0.73456
9691	2.25	3.6364	0.	0.63378
9692	2.34	3.6364	5.e-002	27.066
9693	2.34	3.3636	0.	0.75912
9694	2.25	3.4545	0.	0.64545
9695	2.34	3.4545	5.e-002	27.529
9696	2.34	3.1818	0.	0.78354
9697	2.25	3.2727	0.	0.66982
9698	2.34	3.2727	5.e-002	28.184
9699	2.34	3.	0.	0.79435
9700	2.25	3.0909	0.	0.68895
9701	2.34	3.0909	5.e-002	28.599
9702	2.34	2.8182	0.	0.78354
9703	2.25	2.9091	0.	0.68895
9704	2.34	2.9091	5.e-002	28.599
9705	2.34	2.6364	0.	0.75912
9706	2.25	2.7273	0.	0.66982
9707	2.34	2.7273	5.e-002	28.183
9708	2.34	2.4545	0.	0.73457
9709	2.25	2.5455	0.	0.64545
9710	2.34	2.5455	5.e-002	27.529
9711	2.34	2.2727	0.	0.72718
9712	2.25	2.3636	0.	0.63378
9713	2.34	2.3636	5.e-002	27.066
9714	2.34	2.0909	0.	0.80329
9715	2.25	2.1818	0.	0.65872
9716	2.34	2.1818	5.e-002	27.287
9717	2.34	1.9091	0.	1.0062
9718	2.25	2.	0.	0.76952
9719	2.34	2.	5.e-002	28.348
9720	2.34	1.7273	0.	1.2935
9721	2.25	1.8182	0.	0.95151
9722	2.34	1.8182	5.e-002	29.978
9723	2.34	1.5455	0.	1.6617
9724	2.25	1.6364	0.	1.1725
9725	2.34	1.6364	5.e-002	31.925
9726	2.34	1.3636	0.	2.1641
9727	2.25	1.4545	0.	1.4559
9728	2.34	1.4545	5.e-002	34.056
9729	2.34	1.1818	0.	2.89
9730	2.25	1.2727	0.	1.8369
9731	2.34	1.2727	5.e-002	36.166
9732	2.34	1.	0.	4.0444
9733	2.25	1.0909	0.	2.3986
9734	2.34	1.0909	5.e-002	37.958
9735	2.34	0.81818	0.	6.2549
9736	2.25	0.90909	0.	3.3222
9737	2.34	0.90909	5.e-002	39.235
9738	2.34	0.63636	0.	12.655
9739	2.25	0.72727	0.	5.2401
9740	2.34	0.72727	5.e-002	39.941
9741	2.34	0.45455	0.	39.771
9742	2.25	0.54545	0.	12.169
9743	2.34	0.54545	5.e-002	40.18
9744	2.34	0.27273	0.	92.254
9745	2.25	0.36364	0.	49.15
9746	2.34	0.36364	5.e-002	41.03
9747	2.25	0.18182	0.	114.5
9748	2.34	0.18182	5.e-002	58.104
9749	2.34	9.0909e-002	0.	71.283
9750	2.16	5.7273	0.	70.192
9751	2.07	5.8182	0.	100.35
9752	2.16	5.8182	5.e-002	52.84
9753	2.16	5.9091	0.	64.623
9754	2.16	5.5455	0.	14.1
9755	2.07	5.6364	0.	23.351
9756	2.16	5.6364	5.e-002	35.571
9757	2.16	5.3636	0.	4.6761
9758	2.07	5.4545	0.	4.8229
9759	2.16	5.4545	5.e-002	34.988
9760	2.16	5.1818	0.	2.8387
9761	2.07	5.2727	0.	2.6611
9762	2.16	5.2727	5.e-002	35.045
9763	2.16	5.	0.	2.0272
9764	2.07	5.0909	0.	1.8453
9765	2.16	5.0909	5.e-002	34.664
9766	2.16	4.8182	0.	1.5559
9767	2.07	4.9091	0.	1.4056
9768	2.16	4.9091	5.e-002	33.757
9769	2.16	4.6364	0.	1.2435
9770	2.07	4.7273	0.	1.1237
9771	2.16	4.7273	5.e-002	32.359
9772	2.16	4.4545	0.	1.0186
9773	2.07	4.5455	0.	0.92705
9774	2.16	4.5455	5.e-002	30.562
9775	2.16	4.2727	0.	0.8438
9776	2.07	4.3636	0.	0.77673
9777	2.16	4.3636	5.e-002	28.476
9778	2.16	4.0909	0.	0.70719
9779	2.07	4.1818	0.	0.65358
9780	2.16	4.1818	5.e-002	26.204
9781	2.16	3.9091	0.	0.60929
9782	2.07	4.	0.	0.55841
9783	2.16	4.	5.e-002	23.898
9784	2.16	3.7273	0.	0.55038
9785	2.07	3.8182	0.	0.49477
9786	2.16	3.8182	5.e-002	21.863
9787	2.16	3.5455	0.	0.53452
9788	2.07	3.6364	0.	0.46593
9789	2.16	3.6364	5.e-002	20.473
9790	2.16	3.3636	0.	0.55096
9791	2.07	3.4545	0.	0.47067
9792	2.16	3.4545	5.e-002	19.874
9793	2.16	3.1818	0.	0.57313
9794	2.07	3.2727	0.	0.48983
9795	2.16	3.2727	5.e-002	19.823
9796	2.16	3.	0.	0.58243
9797	2.07	3.0909	0.	0.50434
9798	2.16	3.0909	5.e-002	19.925
9799	2.16	2.8182	0.	0.57313
9800	2.07	2.9091	0.	0.50434
9801	2.16	2.9091	5.e-002	19.925
9802	2.16	2.6364	0.	0.55096
9803	2.07	2.7273	0.	0.48983
9804	2.16	2.7273	5.e-002	19.823
9805	2.16	2.4545	0.	0.53452
9806	2.07	2.5455	0.	0.47067
9807	2.16	2.5455	5.e-002	19.874
9808	2.16	2.2727	0.	0.55038
9809	2.07	2.3636	0.	0.46593
9810	2.16	2.3636	5.e-002	20.473
9811	2.16	2.0909	0.	0.60929
9812	2.07	2.1818	0.	0.49477
9813	2.16	2.1818	5.e-002	21.863
9814	2.16	1.9091	0.	0.70719
9815	2.07	2.	0.	0.55841
9816	2.16	2.	5.e-002	23.899
9817	2.16	1.7273	0.	0.8438
9818	2.07	1.8182	0.	0.65358
9819	2.16	1.8182	5.e-002	26.204
9820	2.16	1.5455	0.	1.0186
9821	2.07	1.6364	0.	0.77673
9822	2.16	1.6364	5.e-002	28.476
9823	2.16	1.3636	0.	1.2435
9824	2.07	1.4545	0.	0.92705
9825	2.16	1.4545	5.e-002	30.562
9826	2.16	1.1818	0.	1.5559
9827	2.07	1.2727	0.	1.1237
9828	2.16	1.2727	5.e-002	32.359
9829	2.16	1.	0.	2.0272
9830	2.07	1.0909	0.	1.4056
9831	2.16	1.0909	5.e-002	33.757
9832	2.16	0.81818	0.	2.8387
9833	2.07	0.90909	0.	1.8453
9834	2.16	0.90909	5.e-002	34.664
9835	2.16	0.63636	0.	4.6761
9836	2.07	0.72727	0.	2.6611
9837	2.16	0.72727	5.e-002	35.045
9838	2.16	0.45455	0.	14.1
9839	2.07	0.54545	0.	4.8229
9840	2.16	0.54545	5.e-002	34.988
9841	2.16	0.27273	0.	70.192
9842	2.07	0.36364	0.	23.351
9843	2.16	0.36364	5.e-002	35.571
9844	2.07	0.18182	0.	100.35
9845	2.16	0.18182	5.e-002	52.84
9846	2.16	9.0909e-002	0.	64.623
9847	1.98	5.7273	0.	47.913
9848	1.89	5.8182	0.	87.272
9849	1.98	5.8182	5.e-002	48.277
9850	1.98	5.9091	0.	58.093
9851	1.98	5.5455	0.	5.5698
9852	1.89	5.6364	0.	9.1366
9853	1.98	5.6364	5.e-002	30.906
9854	1.98	5.3636	0.	2.5374
9855	1.89	5.4545	0.	2.7086
9856	1.98	5.4545	5.e-002	30.736
9857	1.98	5.1818	0.	1.7073
9858	1.89	5.2727	0.	1.6965
9859	1.98	5.2727	5.e-002	31.214
9860	1.98	5.	0.	1.2771
9861	1.89	5.0909	0.	1.2251
9862	1.98	5.0909	5.e-002	31.246
9863	1.98	4.8182	0.	1.0128
9864	1.89	4.9091	0.	0.95694
9865	1.98	4.9091	5.e-002	30.732
9866	1.98	4.6364	0.	0.83066
9867	1.89	4.7273	0.	0.77835
9868	1.98	4.7273	5.e-002	29.673
9869	1.98	4.4545	0.	0.695
9870	1.89	4.5455	0.	0.65115
9871	1.98	4.5455	5.e-002	28.102
9872	1.98	4.2727	0.	0.58648
9873	1.89	4.3636	0.	0.5521
9874	1.98	4.3636	5.e-002	26.068
9875	1.98	4.0909	0.	0.49869
9876	1.89	4.1818	0.	0.47118
9877	1.98	4.1818	5.e-002	23.637
9878	1.98	3.9091	0.	0.43527
9879	1.89	4.	0.	0.40722
9880	1.98	4.	5.e-002	20.938
9881	1.98	3.7273	0.	0.40208
9882	1.89	3.8182	0.	0.36537
9883	1.98	3.8182	5.e-002	18.212
9884	1.98	3.5455	0.	0.39589
9885	1.89	3.6364	0.	0.34793
9886	1.98	3.6364	5.e-002	15.804
9887	1.98	3.3636	0.	0.40571
9888	1.89	3.4545	0.	0.34906
9889	1.98	3.4545	5.e-002	14.028
9890	1.98	3.1818	0.	0.4189
9891	1.89	3.2727	0.	0.35907
9892	1.98	3.2727	5.e-002	12.988
9893	1.98	3.	0.	0.4247
9894	1.89	3.0909	0.	0.36746
9895	1.98	3.0909	5.e-002	12.553
9896	1.98	2.8182	0.	0.4189
9897	1.89	2.9091	0.	0.36746
9898	1.98	2.9091	5.e-002	12.553
9899	1.98	2.6364	0.	0.40571
9900	1.89	2.7273	0.	0.35907
9901	1.98	2.7273	5.e-002	12.988
9902	1.98	2.4545	0.	0.39589
9903	1.89	2.5455	0.	0.34906
9904	1.98	2.5455	5.e-002	14.028
9905	1.98	2.2727	0.	0.40208
9906	1.89	2.3636	0.	0.34793
9907	1.98	2.3636	5.e-002	15.804
9908	1.98	2.0909	0.	0.43527
9909	1.89	2.1818	0.	0.36537
9910	1.98	2.1818	5.e-002	18.212
9911	1.98	1.9091	0.	0.49869
9912	1.89	2.	0.	0.40722
9913	1.98	2.	5.e-002	20.938
9914	1.98	1.7273	0.	0.58648
9915	1.89	1.8182	0.	0.47118
9916	1.98	1.8182	5.e-002	23.638
9917	1.98	1.5455	0.	0.695
9918	1.89	1.6364	0.	0.5521
9919	1.98	1.6364	5.e-002	26.068
9920	1.98	1.3636	0.	0.83066
9921	1.89	1.4545	0.	0.65115
9922	1.98	1.4545	5.e-002	28.102
9923	1.98	1.1818	0.	1.0128
9924	1.89	1.2727	0.	0.77835
9925	1.98	1.2727	5.e-002	29.673
9926	1.98	1.	0.	1.2771
9927	1.89	1.0909	0.	0.95694
9928	1.98	1.0909	5.e-002	30.732
9929	1.98	0.81818	0.	1.7073
9930	1.89	0.90909	0.	1.2251
9931	1.98	0.90909	5.e-002	31.246
9932	1.98	0.63636	0.	2.5374
9933	1.89	0.72727	0.	1.6965
9934	1.98	0.72727	5.e-002	31.214
9935	1.98	0.45455	0.	5.5698
9936	1.89	0.54545	0.	2.7086
9937	1.98	0.54545	5.e-002	30.735
9938	1.98	0.27273	0.	47.913
9939	1.89	0.36364	0.	9.1366
9940	1.98	0.36364	5.e-002	30.906
9941	1.89	0.18182	0.	87.272
9942	1.98	0.18182	5.e-002	48.277
9943	1.98	9.0909e-002	0.	58.093
9944	1.8	5.7273	0.	28.435
9945	1.71	5.8182	0.	76.433
9946	1.8	5.8182	5.e-002	44.462
9947	1.8	5.9091	0.	52.563
9948	1.8	5.5455	0.	3.2253
9949	1.71	5.6364	0.	4.9828
9950	1.8	5.6364	5.e-002	27.116
9951	1.8	5.3636	0.	1.6894
9952	1.71	5.4545	0.	1.8724
9953	1.8	5.4545	5.e-002	27.475
9954	1.8	5.1818	0.	1.1923
9955	1.71	5.2727	0.	1.2515
9956	1.8	5.2727	5.e-002	28.418
9957	1.8	5.	0.	0.90722
9958	1.71	5.0909	0.	0.91682
9959	1.8	5.0909	5.e-002	28.849
9960	1.8	4.8182	0.	0.72786
9961	1.71	4.9091	0.	0.72399
9962	1.8	4.9091	5.e-002	28.661
9963	1.8	4.6364	0.	0.60214
9964	1.71	4.7273	0.	0.59318
9965	1.8	4.7273	5.e-002	27.847
9966	1.8	4.4545	0.	0.50842
9967	1.71	4.5455	0.	0.50031
9968	1.8	4.5455	5.e-002	26.433
9969	1.8	4.2727	0.	0.43421
9970	1.71	4.3636	0.	0.42879
9971	1.8	4.3636	5.e-002	24.46
9972	1.8	4.0909	0.	0.37521
9973	1.71	4.1818	0.	0.37144
9974	1.8	4.1818	5.e-002	21.99
9975	1.8	3.9091	0.	0.33206
9976	1.71	4.	0.	0.32682
9977	1.8	4.	5.e-002	19.126
9978	1.8	3.7273	0.	0.30626
9979	1.71	3.8182	0.	0.29622
9980	1.8	3.8182	5.e-002	16.029
9981	1.8	3.5455	0.	0.29713
9982	1.71	3.6364	0.	0.28036
9983	1.8	3.6364	5.e-002	12.918
9984	1.8	3.3636	0.	0.29962
9985	1.71	3.4545	0.	0.27698
9986	1.8	3.4545	5.e-002	10.056
9987	1.8	3.1818	0.	0.30573
9988	1.71	3.2727	0.	0.28035
9989	1.8	3.2727	5.e-002	7.7441
9990	1.8	3.	0.	0.30864
9991	1.71	3.0909	0.	0.28406
9992	1.8	3.0909	5.e-002	6.3763
9993	1.8	2.8182	0.	0.30573
9994	1.71	2.9091	0.	0.28406
9995	1.8	2.9091	5.e-002	6.3764
9996	1.8	2.6364	0.	0.29962
9997	1.71	2.7273	0.	0.28035
9998	1.8	2.7273	5.e-002	7.7442
9999	1.8	2.4545	0.	0.29713
10000	1.71	2.5455	0.	0.27698
10001	1.8	2.5455	5.e-002	10.056
10002	1.8	2.2727	0.	0.30626
10003	1.71	2.3636	0.	0.28036
10004	1.8	2.3636	5.e-002	12.918
10005	1.8	2.0909	0.	0.33206
10006	1.71	2.1818	0.	0.29622
10007	1.8	2.1818	5.e-002	16.029
10008	1.8	1.9091	0.	0.37521
10009	1.71	2.	0.	0.32682
10010	1.8	2.	5.e-002	19.126
10011	1.8	1.7273	0.	0.43421
10012	1.71	1.8182	0.	0.37144
10013	1.8	1.8182	5.e-002	21.99
10014	1.8	1.5455	0.	0.50842
10015	1.71	1.6364	0.	0.42879
10016	1.8	1.6364	5.e-002	24.46
10017	1.8	1.3636	0.	0.60214
10018	1.71	1.4545	0.	0.50031
10019	1.8	1.4545	5.e-002	26.433
10020	1.8	1.1818	0.	0.72786
10021	1.71	1.2727	0.	0.59318
10022	1.8	1.2727	5.e-002	27.847
10023	1.8	1.	0.	0.90722
10024	1.71	1.0909	0.	0.72399
10025	1.8	1.0909	5.e-002	28.661
10026	1.8	0.81818	0.	1.1923
10027	1.71	0.90909	0.	0.91682
10028	1.8	0.90909	5.e-002	28.849
10029	1.8	0.63636	0.	1.6894
10030	1.71	0.72727	0.	1.2515
10031	1.8	0.72727	5.e-002	28.418
10032	1.8	0.45455	0.	3.2253
10033	1.71	0.54545	0.	1.8724
10034	1.8	0.54545	5.e-002	27.475
10035	1.8	0.27273	0.	28.435
10036	1.71	0.36364	0.	4.9828
10037	1.8	0.36364	5.e-002	27.116
10038	1.71	0.18182	0.	76.433
10039	1.8	0.18182	5.e-002	44.462
10040	1.8	9.0909e-002	0.	52.563
10041	1.62	5.7273	0.	15.821
10042	1.53	5.8182	0.	68.658
10043	1.62	5.8182	5.e-002	41.359
10044	1.62	5.9091	0.	48.721
10045	1.62	5.5455	0.	2.3693
10046	1.53	5.6364	0.	3.625
10047	1.62	5.6364	5.e-002	24.302
10048	1.62	5.3636	0.	1.3024
10049	1.53	5.4545	0.	1.4516
10050	1.62	5.4545	5.e-002	25.28
10051	1.62	5.1818	0.	0.94325
10052	1.53	5.2727	0.	0.98936
10053	1.62	5.2727	5.e-002	26.651
10054	1.62	5.	0.	0.72302
10055	1.53	5.0909	0.	0.71125
10056	1.62	5.0909	5.e-002	27.387
10057	1.62	4.8182	0.	0.58516
10058	1.53	4.9091	0.	0.55393
10059	1.62	4.9091	5.e-002	27.407
10060	1.62	4.6364	0.	0.48884
10061	1.53	4.7273	0.	0.44748
10062	1.62	4.7273	5.e-002	26.732
10063	1.62	4.4545	0.	0.41817
10064	1.53	4.5455	0.	0.37363
10065	1.62	4.5455	5.e-002	25.41
10066	1.62	4.2727	0.	0.36309
10067	1.53	4.3636	0.	0.31791
10068	1.62	4.3636	5.e-002	23.504
10069	1.62	4.0909	0.	0.31968
10070	1.53	4.1818	0.	0.27407
10071	1.62	4.1818	5.e-002	21.087
10072	1.62	3.9091	0.	0.28751
10073	1.53	4.	0.	0.23992
10074	1.62	4.	5.e-002	18.254
10075	1.62	3.7273	0.	0.26712
10076	1.53	3.8182	0.	0.21564
10077	1.62	3.8182	5.e-002	15.116
10078	1.62	3.5455	0.	0.25754
10079	1.53	3.6364	0.	0.20128
10080	1.62	3.6364	5.e-002	11.799
10081	1.62	3.3636	0.	0.25565
10082	1.53	3.4545	0.	0.1952
10083	1.62	3.4545	5.e-002	8.4196
10084	1.62	3.1818	0.	0.25709
10085	1.53	3.2727	0.	0.19426
10086	1.62	3.2727	5.e-002	5.0667
10087	1.62	3.	0.	0.25807
10088	1.53	3.0909	0.	0.19494
10089	1.62	3.0909	5.e-002	1.8463
10090	1.62	2.8182	0.	0.25709
10091	1.53	2.9091	0.	0.19494
10092	1.62	2.9091	5.e-002	1.8464
10093	1.62	2.6364	0.	0.25565
10094	1.53	2.7273	0.	0.19426
10095	1.62	2.7273	5.e-002	5.0667
10096	1.62	2.4545	0.	0.25754
10097	1.53	2.5455	0.	0.1952
10098	1.62	2.5455	5.e-002	8.4197
10099	1.62	2.2727	0.	0.26712
10100	1.53	2.3636	0.	0.20128
10101	1.62	2.3636	5.e-002	11.799
10102	1.62	2.0909	0.	0.28751
10103	1.53	2.1818	0.	0.21565
10104	1.62	2.1818	5.e-002	15.116
10105	1.62	1.9091	0.	0.31968
10106	1.53	2.	0.	0.23992
10107	1.62	2.	5.e-002	18.254
10108	1.62	1.7273	0.	0.36309
10109	1.53	1.8182	0.	0.27407
10110	1.62	1.8182	5.e-002	21.087
10111	1.62	1.5455	0.	0.41817
10112	1.53	1.6364	0.	0.31791
10113	1.62	1.6364	5.e-002	23.504
10114	1.62	1.3636	0.	0.48884
10115	1.53	1.4545	0.	0.37363
10116	1.62	1.4545	5.e-002	25.41
10117	1.62	1.1818	0.	0.58516
10118	1.53	1.2727	0.	0.44748
10119	1.62	1.2727	5.e-002	26.732
10120	1.62	1.	0.	0.72302
10121	1.53	1.0909	0.	0.55393
10122	1.62	1.0909	5.e-002	27.407
10123	1.62	0.81818	0.	0.94326
10124	1.53	0.90909	0.	0.71125
10125	1.62	0.90909	5.e-002	27.387
10126	1.62	0.63636	0.	1.3024
10127	1.53	0.72727	0.	0.98936
10128	1.62	0.72727	5.e-002	26.651
10129	1.62	0.45455	0.	2.3693
10130	1.53	0.54545	0.	1.4516
10131	1.62	0.54545	5.e-002	25.28
10132	1.62	0.27273	0.	15.821
10133	1.53	0.36364	0.	3.625
10134	1.62	0.36364	5.e-002	24.302
10135	1.53	0.18182	0.	68.658
10136	1.62	0.18182	5.e-002	41.358
10137	1.62	9.0909e-002	0.	48.721
10138	1.44	5.7273	0.	10.289
10139	1.35	5.8182	0.	64.524
10140	1.44	5.8182	5.e-002	38.867
10141	1.44	5.9091	0.	47.137
10142	1.44	5.5455	0.	1.9447
10143	1.35	5.6364	0.	3.1994
10144	1.44	5.6364	5.e-002	22.651
10145	1.44	5.3636	0.	1.0279
10146	1.35	5.4545	0.	1.3461
10147	1.44	5.4545	5.e-002	24.285
10148	1.44	5.1818	0.	0.7223
10149	1.35	5.2727	0.	0.96565
10150	1.44	5.2727	5.e-002	25.952
10151	1.44	5.	0.	0.52733
10152	1.35	5.0909	0.	0.71798
10153	1.44	5.0909	5.e-002	26.825
10154	1.44	4.8182	0.	0.40877
10155	1.35	4.9091	0.	0.58502
10156	1.44	4.9091	5.e-002	26.896
10157	1.44	4.6364	0.	0.32777
10158	1.35	4.7273	0.	0.49706
10159	1.44	4.7273	5.e-002	26.243
10160	1.44	4.4545	0.	0.27009
10161	1.35	4.5455	0.	0.43821
10162	1.44	4.5455	5.e-002	24.953
10163	1.44	4.2727	0.	0.22609
10164	1.35	4.3636	0.	0.39453
10165	1.44	4.3636	5.e-002	23.116
10166	1.44	4.0909	0.	0.19171
10167	1.35	4.1818	0.	0.36029
10168	1.44	4.1818	5.e-002	20.82
10169	1.44	3.9091	0.	0.16563
10170	1.35	4.	0.	0.33316
10171	1.44	4.	5.e-002	18.163
10172	1.44	3.7273	0.	0.14763
10173	1.35	3.8182	0.	0.3128
10174	1.44	3.8182	5.e-002	15.252
10175	1.44	3.5455	0.	0.13707
10176	1.35	3.6364	0.	0.29914
10177	1.44	3.6364	5.e-002	12.203
10178	1.44	3.3636	0.	0.13227
10179	1.35	3.4545	0.	0.29138
10180	1.44	3.4545	5.e-002	9.149
10181	1.44	3.1818	0.	0.13081
10182	1.35	3.2727	0.	0.28788
10183	1.44	3.2727	5.e-002	6.2926
10184	1.44	3.	0.	0.1306
10185	1.35	3.0909	0.	0.28674
10186	1.44	3.0909	5.e-002	4.1813
10187	1.44	2.8182	0.	0.13081
10188	1.35	2.9091	0.	0.28674
10189	1.44	2.9091	5.e-002	4.1812
10190	1.44	2.6364	0.	0.13227
10191	1.35	2.7273	0.	0.28788
10192	1.44	2.7273	5.e-002	6.2924
10193	1.44	2.4545	0.	0.13707
10194	1.35	2.5455	0.	0.29138
10195	1.44	2.5455	5.e-002	9.1489
10196	1.44	2.2727	0.	0.14763
10197	1.35	2.3636	0.	0.29914
10198	1.44	2.3636	5.e-002	12.203
10199	1.44	2.0909	0.	0.16563
10200	1.35	2.1818	0.	0.3128
10201	1.44	2.1818	5.e-002	15.252
10202	1.44	1.9091	0.	0.19171
10203	1.35	2.	0.	0.33316
10204	1.44	2.	5.e-002	18.163
10205	1.44	1.7273	0.	0.2261
10206	1.35	1.8182	0.	0.36029
10207	1.44	1.8182	5.e-002	20.82
10208	1.44	1.5455	0.	0.27009
10209	1.35	1.6364	0.	0.39453
10210	1.44	1.6364	5.e-002	23.116
10211	1.44	1.3636	0.	0.32777
10212	1.35	1.4545	0.	0.43821
10213	1.44	1.4545	5.e-002	24.953
10214	1.44	1.1818	0.	0.40877
10215	1.35	1.2727	0.	0.49706
10216	1.44	1.2727	5.e-002	26.243
10217	1.44	1.	0.	0.52733
10218	1.35	1.0909	0.	0.58502
10219	1.44	1.0909	5.e-002	26.896
10220	1.44	0.81818	0.	0.7223
10221	1.35	0.90909	0.	0.71798
10222	1.44	0.90909	5.e-002	26.825
10223	1.44	0.63636	0.	1.0279
10224	1.35	0.72727	0.	0.96565
10225	1.44	0.72727	5.e-002	25.952
10226	1.44	0.45455	0.	1.9447
10227	1.35	0.54545	0.	1.3461
10228	1.44	0.54545	5.e-002	24.285
10229	1.44	0.27273	0.	10.289
10230	1.35	0.36364	0.	3.1994
10231	1.44	0.36364	5.e-002	22.651
10232	1.35	0.18182	0.	64.524
10233	1.44	0.18182	5.e-002	38.866
10234	1.44	9.0909e-002	0.	47.137
10235	1.26	5.7273	0.	8.3493
10236	1.17	5.8182	0.	64.265
10237	1.26	5.8182	5.e-002	36.847
10238	1.26	5.9091	0.	48.416
10239	1.26	5.5455	0.	2.0141
10240	1.17	5.6364	0.	2.7944
10241	1.26	5.6364	5.e-002	22.498
10242	1.26	5.3636	0.	1.1816
10243	1.17	5.4545	0.	0.90432
10244	1.26	5.4545	5.e-002	24.702
10245	1.26	5.1818	0.	0.92486
10246	1.17	5.2727	0.	0.50572
10247	1.26	5.2727	5.e-002	26.402
10248	1.26	5.	0.	0.75875
10249	1.17	5.0909	0.	0.23612
10250	1.26	5.0909	5.e-002	27.157
10251	1.26	4.8182	0.	0.66433
10252	1.17	4.9091	0.	9.5177e-002
10253	1.26	4.9091	5.e-002	27.087
10254	1.26	4.6364	0.	0.60222
10255	1.17	4.7273	0.	3.3371e-003
10256	1.26	4.7273	5.e-002	26.338
10257	1.26	4.4545	0.	0.5592
10258	1.17	4.5455	0.	-5.738e-002
10259	1.26	4.5455	5.e-002	25.028
10260	1.26	4.2727	0.	0.5262
10261	1.17	4.3636	0.	-0.10229
10262	1.26	4.3636	5.e-002	23.256
10263	1.26	4.0909	0.	0.49969
10264	1.17	4.1818	0.	-0.13741
10265	1.26	4.1818	5.e-002	21.121
10266	1.26	3.9091	0.	0.47858
10267	1.17	4.	0.	-0.16543
10268	1.26	4.	5.e-002	18.725
10269	1.26	3.7273	0.	0.46279
10270	1.17	3.8182	0.	-0.18711
10271	1.26	3.8182	5.e-002	16.18
10272	1.26	3.5455	0.	0.45213
10273	1.17	3.6364	0.	-0.2028
10274	1.26	3.6364	5.e-002	13.62
10275	1.26	3.3636	0.	0.44584
10276	1.17	3.4545	0.	-0.21309
10277	1.26	3.4545	5.e-002	11.22
10278	1.26	3.1818	0.	0.44278
10279	1.17	3.2727	0.	-0.219
10280	1.26	3.2727	5.e-002	9.2334
10281	1.26	3.	0.	0.4419
10282	1.17	3.0909	0.	-0.2216
10283	1.26	3.0909	5.e-002	8.0472
10284	1.26	2.8182	0.	0.44278
10285	1.17	2.9091	0.	-0.2216
10286	1.26	2.9091	5.e-002	8.0471
10287	1.26	2.6364	0.	0.44584
10288	1.17	2.7273	0.	-0.219
10289	1.26	2.7273	5.e-002	9.2332
10290	1.26	2.4545	0.	0.45213
10291	1.17	2.5455	0.	-0.21309
10292	1.26	2.5455	5.e-002	11.219
10293	1.26	2.2727	0.	0.46279
10294	1.17	2.3636	0.	-0.2028
10295	1.26	2.3636	5.e-002	13.62
10296	1.26	2.0909	0.	0.47858
10297	1.17	2.1818	0.	-0.18711
10298	1.26	2.1818	5.e-002	16.18
10299	1.26	1.9091	0.	0.49969
10300	1.17	2.	0.	-0.16543
10301	1.26	2.	5.e-002	18.724
10302	1.26	1.7273	0.	0.5262
10303	1.17	1.8182	0.	-0.13741
10304	1.26	1.8182	5.e-002	21.121
10305	1.26	1.5455	0.	0.5592
10306	1.17	1.6364	0.	-0.10229
10307	1.26	1.6364	5.e-002	23.256
10308	1.26	1.3636	0.	0.60222
10309	1.17	1.4545	0.	-5.738e-002
10310	1.26	1.4545	5.e-002	25.028
10311	1.26	1.1818	0.	0.66433
10312	1.17	1.2727	0.	3.3373e-003
10313	1.26	1.2727	5.e-002	26.338
10314	1.26	1.	0.	0.75875
10315	1.17	1.0909	0.	9.5177e-002
10316	1.26	1.0909	5.e-002	27.088
10317	1.26	0.81818	0.	0.92486
10318	1.17	0.90909	0.	0.23612
10319	1.26	0.90909	5.e-002	27.157
10320	1.26	0.63636	0.	1.1816
10321	1.17	0.72727	0.	0.50572
10322	1.26	0.72727	5.e-002	26.402
10323	1.26	0.45455	0.	2.0141
10324	1.17	0.54545	0.	0.90432
10325	1.26	0.54545	5.e-002	24.702
10326	1.26	0.27273	0.	8.3493
10327	1.17	0.36364	0.	2.7944
10328	1.26	0.36364	5.e-002	22.498
10329	1.17	0.18182	0.	64.265
10330	1.26	0.18182	5.e-002	36.846
10331	1.26	9.0909e-002	0.	48.416
10332	1.08	5.7273	0.	7.1519
10333	0.99	5.8182	0.	68.385
10334	1.08	5.8182	5.e-002	35.196
10335	1.08	5.9091	0.	53.021
10336	1.08	5.5455	0.	1.1557
10337	0.99	5.6364	0.	3.9758
10338	1.08	5.6364	5.e-002	24.377
10339	1.08	5.3636	0.	0.12518
10340	0.99	5.4545	0.	2.3542
10341	1.08	5.4545	5.e-002	26.828
10342	1.08	5.1818	0.	-0.22236
10343	0.99	5.2727	0.	2.1192
10344	1.08	5.2727	5.e-002	28.118
10345	1.08	5.	0.	-0.44638
10346	0.99	5.0909	0.	1.9486
10347	1.08	5.0909	5.e-002	28.409
10348	1.08	4.8182	0.	-0.5759
10349	0.99	4.9091	0.	1.8836
10350	1.08	4.9091	5.e-002	27.985
10351	1.08	4.6364	0.	-0.66198
10352	0.99	4.7273	0.	1.8456
10353	1.08	4.7273	5.e-002	27.033
10354	1.08	4.4545	0.	-0.72232
10355	0.99	4.5455	0.	1.8222
10356	1.08	4.5455	5.e-002	25.657
10357	1.08	4.2727	0.	-0.76815
10358	0.99	4.3636	0.	1.8023
10359	1.08	4.3636	5.e-002	23.943
10360	1.08	4.0909	0.	-0.80415
10361	0.99	4.1818	0.	1.7837
10362	1.08	4.1818	5.e-002	21.974
10363	1.08	3.9091	0.	-0.8324
10364	0.99	4.	0.	1.7662
10365	1.08	4.	5.e-002	19.848
10366	1.08	3.7273	0.	-0.85378
10367	0.99	3.8182	0.	1.7505
10368	1.08	3.8182	5.e-002	17.678
10369	1.08	3.5455	0.	-0.86896
10370	0.99	3.6364	0.	1.7377
10371	1.08	3.6364	5.e-002	15.594
10372	1.08	3.3636	0.	-0.87879
10373	0.99	3.4545	0.	1.7283
10374	1.08	3.4545	5.e-002	13.753
10375	1.08	3.1818	0.	-0.88417
10376	0.99	3.2727	0.	1.7222
10377	1.08	3.2727	5.e-002	12.345
10378	1.08	3.	0.	-0.88587
10379	0.99	3.0909	0.	1.7192
10380	1.08	3.0909	5.e-002	11.568
10381	1.08	2.8182	0.	-0.88417
10382	0.99	2.9091	0.	1.7192
10383	1.08	2.9091	5.e-002	11.568
10384	1.08	2.6364	0.	-0.87879
10385	0.99	2.7273	0.	1.7222
10386	1.08	2.7273	5.e-002	12.344
10387	1.08	2.4545	0.	-0.86896
10388	0.99	2.5455	0.	1.7283
10389	1.08	2.5455	5.e-002	13.753
10390	1.08	2.2727	0.	-0.85378
10391	0.99	2.3636	0.	1.7377
10392	1.08	2.3636	5.e-002	15.594
10393	1.08	2.0909	0.	-0.8324
10394	0.99	2.1818	0.	1.7505
10395	1.08	2.1818	5.e-002	17.678
10396	1.08	1.9091	0.	-0.80415
10397	0.99	2.	0.	1.7662
10398	1.08	2.	5.e-002	19.848
10399	1.08	1.7273	0.	-0.76815
10400	0.99	1.8182	0.	1.7837
10401	1.08	1.8182	5.e-002	21.974
10402	1.08	1.5455	0.	-0.72232
10403	0.99	1.6364	0.	1.8023
10404	1.08	1.6364	5.e-002	23.943
10405	1.08	1.3636	0.	-0.66198
10406	0.99	1.4545	0.	1.8222
10407	1.08	1.4545	5.e-002	25.657
10408	1.08	1.1818	0.	-0.5759
10409	0.99	1.2727	0.	1.8456
10410	1.08	1.2727	5.e-002	27.033
10411	1.08	1.	0.	-0.44638
10412	0.99	1.0909	0.	1.8836
10413	1.08	1.0909	5.e-002	27.985
10414	1.08	0.81818	0.	-0.22236
10415	0.99	0.90909	0.	1.9486
10416	1.08	0.90909	5.e-002	28.409
10417	1.08	0.63636	0.	0.12518
10418	0.99	0.72727	0.	2.1192
10419	1.08	0.72727	5.e-002	28.118
10420	1.08	0.45455	0.	1.1557
10421	0.99	0.54545	0.	2.3542
10422	1.08	0.54545	5.e-002	26.828
10423	1.08	0.27273	0.	7.1519
10424	0.99	0.36364	0.	3.9758
10425	1.08	0.36364	5.e-002	24.377
10426	0.99	0.18182	0.	68.385
10427	1.08	0.18182	5.e-002	35.196
10428	1.08	9.0909e-002	0.	53.021
10429	0.9	5.7273	0.	9.1985
10430	0.81	5.8182	0.	75.444
10431	0.9	5.8182	5.e-002	33.962
10432	0.9	5.9091	0.	62.403
10433	0.9	5.5455	0.	4.6506
10434	0.81	5.6364	0.	-9.7923e-002
10435	0.9	5.6364	5.e-002	29.029
10436	0.9	5.3636	0.	4.2372
10437	0.81	5.4545	0.	-3.2051
10438	0.9	5.4545	5.e-002	31.021
10439	0.9	5.1818	0.	4.2463
10440	0.81	5.2727	0.	-4.1138
10441	0.9	5.2727	5.e-002	31.196
10442	0.9	5.	0.	4.2576
10443	0.81	5.0909	0.	-4.7387
10444	0.9	5.0909	5.e-002	30.582
10445	0.9	4.8182	0.	4.2942
10446	0.81	4.9091	0.	-5.1039
10447	0.9	4.9091	5.e-002	29.6
10448	0.9	4.6364	0.	4.3239
10449	0.81	4.7273	0.	-5.3558
10450	0.9	4.7273	5.e-002	28.36
10451	0.9	4.4545	0.	4.3436
10452	0.81	4.5455	0.	-5.5331
10453	0.9	4.5455	5.e-002	26.877
10454	0.9	4.2727	0.	4.3524
10455	0.81	4.3636	0.	-5.6643
10456	0.9	4.3636	5.e-002	25.18
10457	0.9	4.0909	0.	4.3528
10458	0.81	4.1818	0.	-5.7621
10459	0.9	4.1818	5.e-002	23.328
10460	0.9	3.9091	0.	4.3482
10461	0.81	4.	0.	-5.8347
10462	0.9	4.	5.e-002	21.407
10463	0.9	3.7273	0.	4.3413
10464	0.81	3.8182	0.	-5.8875
10465	0.9	3.8182	5.e-002	19.519
10466	0.9	3.5455	0.	4.3343
10467	0.81	3.6364	0.	-5.9247
10468	0.9	3.6364	5.e-002	17.779
10469	0.9	3.3636	0.	4.3286
10470	0.81	3.4545	0.	-5.9495
10471	0.9	3.4545	5.e-002	16.308
10472	0.9	3.1818	0.	4.325
10473	0.81	3.2727	0.	-5.9646
10474	0.9	3.2727	5.e-002	15.232
10475	0.9	3.	0.	4.3237
10476	0.81	3.0909	0.	-5.9716
10477	0.9	3.0909	5.e-002	14.661
10478	0.9	2.8182	0.	4.325
10479	0.81	2.9091	0.	-5.9716
10480	0.9	2.9091	5.e-002	14.66
10481	0.9	2.6364	0.	4.3286
10482	0.81	2.7273	0.	-5.9646
10483	0.9	2.7273	5.e-002	15.232
10484	0.9	2.4545	0.	4.3343
10485	0.81	2.5455	0.	-5.9495
10486	0.9	2.5455	5.e-002	16.308
10487	0.9	2.2727	0.	4.3413
10488	0.81	2.3636	0.	-5.9247
10489	0.9	2.3636	5.e-002	17.779
10490	0.9	2.0909	0.	4.3482
10491	0.81	2.1818	0.	-5.8875
10492	0.9	2.1818	5.e-002	19.519
10493	0.9	1.9091	0.	4.3528
10494	0.81	2.	0.	-5.8347
10495	0.9	2.	5.e-002	21.407
10496	0.9	1.7273	0.	4.3524
10497	0.81	1.8182	0.	-5.7621
10498	0.9	1.8182	5.e-002	23.328
10499	0.9	1.5455	0.	4.3436
10500	0.81	1.6364	0.	-5.6643
10501	0.9	1.6364	5.e-002	25.18
10502	0.9	1.3636	0.	4.3239
10503	0.81	1.4545	0.	-5.5331
10504	0.9	1.4545	5.e-002	26.877
10505	0.9	1.1818	0.	4.2942
10506	0.81	1.2727	0.	-5.3558
10507	0.9	1.2727	5.e-002	28.359
10508	0.9	1.	0.	4.2576
10509	0.81	1.0909	0.	-5.1039
10510	0.9	1.0909	5.e-002	29.6
10511	0.9	0.81818	0.	4.2463
10512	0.81	0.90909	0.	-4.7387
10513	0.9	0.90909	5.e-002	30.582
10514	0.9	0.63636	0.	4.2372
10515	0.81	0.72727	0.	-4.1138
10516	0.9	0.72727	5.e-002	31.196
10517	0.9	0.45455	0.	4.6506
10518	0.81	0.54545	0.	-3.2051
10519	0.9	0.54545	5.e-002	31.021
10520	0.9	0.27273	0.	9.1985
10521	0.81	0.36364	0.	-9.7923e-002
10522	0.9	0.36364	5.e-002	29.029
10523	0.81	0.18182	0.	75.444
10524	0.9	0.18182	5.e-002	33.962
10525	0.9	9.0909e-002	0.	62.403
10526	0.72	5.7273	0.	1.2934
10527	0.63	5.8182	0.	89.564
10528	0.72	5.8182	5.e-002	34.48
10529	0.72	5.9091	0.	75.387
10530	0.72	5.5455	0.	-8.5387
10531	0.63	5.6364	0.	18.137
10532	0.72	5.6364	5.e-002	37.708
10533	0.72	5.3636	0.	-11.69
10534	0.63	5.4545	0.	19.891
10535	0.72	5.4545	5.e-002	37.738
10536	0.72	5.1818	0.	-13.152
10537	0.63	5.2727	0.	21.233
10538	0.72	5.2727	5.e-002	35.775
10539	0.72	5.	0.	-14.125
10540	0.63	5.0909	0.	22.17
10541	0.72	5.0909	5.e-002	33.855
10542	0.72	4.8182	0.	-14.766
10543	0.63	4.9091	0.	22.886
10544	0.72	4.9091	5.e-002	32.212
10545	0.72	4.6364	0.	-15.219
10546	0.63	4.7273	0.	23.397
10547	0.72	4.7273	5.e-002	30.642
10548	0.72	4.4545	0.	-15.544
10549	0.63	4.5455	0.	23.759
10550	0.72	4.5455	5.e-002	28.991
10551	0.72	4.2727	0.	-15.78
10552	0.63	4.3636	0.	24.008
10553	0.72	4.3636	5.e-002	27.221
10554	0.72	4.0909	0.	-15.95
10555	0.63	4.1818	0.	24.175
10556	0.72	4.1818	5.e-002	25.373
10557	0.72	3.9091	0.	-16.071
10558	0.63	4.	0.	24.282
10559	0.72	4.	5.e-002	23.528
10560	0.72	3.7273	0.	-16.154
10561	0.63	3.8182	0.	24.347
10562	0.72	3.8182	5.e-002	21.777
10563	0.72	3.5455	0.	-16.209
10564	0.63	3.6364	0.	24.384
10565	0.72	3.6364	5.e-002	20.218
10566	0.72	3.3636	0.	-16.243
10567	0.63	3.4545	0.	24.403
10568	0.72	3.4545	5.e-002	18.943
10569	0.72	3.1818	0.	-16.262
10570	0.63	3.2727	0.	24.411
10571	0.72	3.2727	5.e-002	18.037
10572	0.72	3.	0.	-16.267
10573	0.63	3.0909	0.	24.414
10574	0.72	3.0909	5.e-002	17.566
10575	0.72	2.8182	0.	-16.262
10576	0.63	2.9091	0.	24.414
10577	0.72	2.9091	5.e-002	17.566
10578	0.72	2.6364	0.	-16.243
10579	0.63	2.7273	0.	24.411
10580	0.72	2.7273	5.e-002	18.037
10581	0.72	2.4545	0.	-16.209
10582	0.63	2.5455	0.	24.403
10583	0.72	2.5455	5.e-002	18.943
10584	0.72	2.2727	0.	-16.154
10585	0.63	2.3636	0.	24.384
10586	0.72	2.3636	5.e-002	20.218
10587	0.72	2.0909	0.	-16.071
10588	0.63	2.1818	0.	24.347
10589	0.72	2.1818	5.e-002	21.777
10590	0.72	1.9091	0.	-15.95
10591	0.63	2.	0.	24.282
10592	0.72	2.	5.e-002	23.527
10593	0.72	1.7273	0.	-15.78
10594	0.63	1.8182	0.	24.175
10595	0.72	1.8182	5.e-002	25.373
10596	0.72	1.5455	0.	-15.544
10597	0.63	1.6364	0.	24.008
10598	0.72	1.6364	5.e-002	27.221
10599	0.72	1.3636	0.	-15.219
10600	0.63	1.4545	0.	23.759
10601	0.72	1.4545	5.e-002	28.991
10602	0.72	1.1818	0.	-14.766
10603	0.63	1.2727	0.	23.397
10604	0.72	1.2727	5.e-002	30.642
10605	0.72	1.	0.	-14.125
10606	0.63	1.0909	0.	22.886
10607	0.72	1.0909	5.e-002	32.212
10608	0.72	0.81818	0.	-13.152
10609	0.63	0.90909	0.	22.17
10610	0.72	0.90909	5.e-002	33.855
10611	0.72	0.63636	0.	-11.69
10612	0.63	0.72727	0.	21.233
10613	0.72	0.72727	5.e-002	35.775
10614	0.72	0.45455	0.	-8.5387
10615	0.63	0.54545	0.	19.891
10616	0.72	0.54545	5.e-002	37.738
10617	0.72	0.27273	0.	1.2934
10618	0.63	0.36364	0.	18.137
10619	0.72	0.36364	5.e-002	37.708
10620	0.63	0.18182	0.	89.564
10621	0.72	0.18182	5.e-002	34.48
10622	0.72	9.0909e-002	0.	75.387
10623	0.54	5.7273	0.	35.479
10624	0.45	5.8182	0.	84.857
10625	0.54	5.8182	5.e-002	40.765
10626	0.54	5.9091	0.	102.39
10627	0.54	5.5455	0.	45.927
10628	0.45	5.6364	0.	-50.512
10629	0.54	5.6364	5.e-002	52.464
10630	0.54	5.3636	0.	52.655
10631	0.45	5.4545	0.	-68.698
10632	0.54	5.4545	5.e-002	47.132
10633	0.54	5.1818	0.	56.495
10634	0.45	5.2727	0.	-77.675
10635	0.54	5.2727	5.e-002	41.604
10636	0.54	5.	0.	59.157
10637	0.45	5.0909	0.	-83.303
10638	0.54	5.0909	5.e-002	38.071
10639	0.54	4.8182	0.	61.039
10640	0.45	4.9091	0.	-87.113
10641	0.54	4.9091	5.e-002	35.596
10642	0.54	4.6364	0.	62.37
10643	0.45	4.7273	0.	-89.781
10644	0.54	4.7273	5.e-002	33.489
10645	0.54	4.4545	0.	63.31
10646	0.45	4.5455	0.	-91.682
10647	0.54	4.5455	5.e-002	31.424
10648	0.54	4.2727	0.	63.963
10649	0.45	4.3636	0.	-93.033
10650	0.54	4.3636	5.e-002	29.337
10651	0.54	4.0909	0.	64.408
10652	0.45	4.1818	0.	-93.983
10653	0.54	4.1818	5.e-002	27.265
10654	0.54	3.9091	0.	64.7
10655	0.45	4.	0.	-94.636
10656	0.54	4.	5.e-002	25.282
10657	0.54	3.7273	0.	64.885
10658	0.45	3.8182	0.	-95.073
10659	0.54	3.8182	5.e-002	23.469
10660	0.54	3.5455	0.	64.995
10661	0.45	3.6364	0.	-95.354
10662	0.54	3.6364	5.e-002	21.903
10663	0.54	3.3636	0.	65.056
10664	0.45	3.4545	0.	-95.526
10665	0.54	3.4545	5.e-002	20.657
10666	0.54	3.1818	0.	65.086
10667	0.45	3.2727	0.	-95.623
10668	0.54	3.2727	5.e-002	19.789
10669	0.54	3.	0.	65.095
10670	0.45	3.0909	0.	-95.665
10671	0.54	3.0909	5.e-002	19.343
10672	0.54	2.8182	0.	65.086
10673	0.45	2.9091	0.	-95.665
10674	0.54	2.9091	5.e-002	19.343
10675	0.54	2.6364	0.	65.056
10676	0.45	2.7273	0.	-95.623
10677	0.54	2.7273	5.e-002	19.788
10678	0.54	2.4545	0.	64.995
10679	0.45	2.5455	0.	-95.526
10680	0.54	2.5455	5.e-002	20.656
10681	0.54	2.2727	0.	64.885
10682	0.45	2.3636	0.	-95.354
10683	0.54	2.3636	5.e-002	21.903
10684	0.54	2.0909	0.	64.7
10685	0.45	2.1818	0.	-95.073
10686	0.54	2.1818	5.e-002	23.468
10687	0.54	1.9091	0.	64.408
10688	0.45	2.	0.	-94.636
10689	0.54	2.	5.e-002	25.282
10690	0.54	1.7273	0.	63.963
10691	0.45	1.8182	0.	-93.983
10692	0.54	1.8182	5.e-002	27.265
10693	0.54	1.5455	0.	63.31
10694	0.45	1.6364	0.	-93.033
10695	0.54	1.6364	5.e-002	29.336
10696	0.54	1.3636	0.	62.37
10697	0.45	1.4545	0.	-91.682
10698	0.54	1.4545	5.e-002	31.424
10699	0.54	1.1818	0.	61.039
10700	0.45	1.2727	0.	-89.781
10701	0.54	1.2727	5.e-002	33.489
10702	0.54	1.	0.	59.157
10703	0.45	1.0909	0.	-87.113
10704	0.54	1.0909	5.e-002	35.596
10705	0.54	0.81818	0.	56.495
10706	0.45	0.90909	0.	-83.303
10707	0.54	0.90909	5.e-002	38.071
10708	0.54	0.63636	0.	52.655
10709	0.45	0.72727	0.	-77.675
10710	0.54	0.72727	5.e-002	41.604
10711	0.54	0.45455	0.	45.927
10712	0.45	0.54545	0.	-68.698
10713	0.54	0.54545	5.e-002	47.132
10714	0.54	0.27273	0.	35.479
10715	0.45	0.36364	0.	-50.512
10716	0.54	0.36364	5.e-002	52.464
10717	0.45	0.18182	0.	84.857
10718	0.54	0.18182	5.e-002	40.765
10719	0.54	9.0909e-002	0.	102.39
10720	0.36	5.7273	0.	-96.017
10721	0.27	5.8182	0.	163.63
10722	0.36	5.8182	5.e-002	69.571
10723	0.36	5.9091	0.	114.49
10724	0.36	5.5455	0.	-166.19
10725	0.27	5.6364	0.	243.42
10726	0.36	5.6364	5.e-002	76.78
10727	0.36	5.3636	0.	-199.26
10728	0.27	5.4545	0.	285.77
10729	0.36	5.4545	5.e-002	60.13
10730	0.36	5.1818	0.	-217.55
10731	0.27	5.2727	0.	316.12
10732	0.36	5.2727	5.e-002	51.206
10733	0.36	5.	0.	-229.6
10734	0.27	5.0909	0.	335.13
10735	0.36	5.0909	5.e-002	46.257
10736	0.36	4.8182	0.	-237.94
10737	0.27	4.9091	0.	348.63
10738	0.36	4.9091	5.e-002	42.961
10739	0.36	4.6364	0.	-243.84
10740	0.27	4.7273	0.	358.14
10741	0.36	4.7273	5.e-002	40.091
10742	0.36	4.4545	0.	-248.02
10743	0.27	4.5455	0.	364.94
10744	0.36	4.5455	5.e-002	37.364
10745	0.36	4.2727	0.	-250.98
10746	0.27	4.3636	0.	369.75
10747	0.36	4.3636	5.e-002	34.742
10748	0.36	4.0909	0.	-253.03
10749	0.27	4.1818	0.	373.1
10750	0.36	4.1818	5.e-002	32.263
10751	0.36	3.9091	0.	-254.41
10752	0.27	4.	0.	375.37
10753	0.36	4.	5.e-002	29.984
10754	0.36	3.7273	0.	-255.31
10755	0.27	3.8182	0.	376.86
10756	0.36	3.8182	5.e-002	27.967
10757	0.36	3.5455	0.	-255.87
10758	0.27	3.6364	0.	377.79
10759	0.36	3.6364	5.e-002	26.272
10760	0.36	3.3636	0.	-256.2
10761	0.27	3.4545	0.	378.35
10762	0.36	3.4545	5.e-002	24.95
10763	0.36	3.1818	0.	-256.37
10764	0.27	3.2727	0.	378.65
10765	0.36	3.2727	5.e-002	24.044
10766	0.36	3.	0.	-256.42
10767	0.27	3.0909	0.	378.77
10768	0.36	3.0909	5.e-002	23.583
10769	0.36	2.8182	0.	-256.37
10770	0.27	2.9091	0.	378.77
10771	0.36	2.9091	5.e-002	23.583
10772	0.36	2.6364	0.	-256.2
10773	0.27	2.7273	0.	378.65
10774	0.36	2.7273	5.e-002	24.044
10775	0.36	2.4545	0.	-255.87
10776	0.27	2.5455	0.	378.35
10777	0.36	2.5455	5.e-002	24.95
10778	0.36	2.2727	0.	-255.31
10779	0.27	2.3636	0.	377.79
10780	0.36	2.3636	5.e-002	26.272
10781	0.36	2.0909	0.	-254.41
10782	0.27	2.1818	0.	376.86
10783	0.36	2.1818	5.e-002	27.967
10784	0.36	1.9091	0.	-253.03
10785	0.27	2.	0.	375.37
10786	0.36	2.	5.e-002	29.984
10787	0.36	1.7273	0.	-250.98
10788	0.27	1.8182	0.	373.1
10789	0.36	1.8182	5.e-002	32.263
10790	0.36	1.5455	0.	-248.02
10791	0.27	1.6364	0.	369.75
10792	0.36	1.6364	5.e-002	34.742
10793	0.36	1.3636	0.	-243.84
10794	0.27	1.4545	0.	364.94
10795	0.36	1.4545	5.e-002	37.364
10796	0.36	1.1818	0.	-237.94
10797	0.27	1.2727	0.	358.14
10798	0.36	1.2727	5.e-002	40.091
10799	0.36	1.	0.	-229.6
10800	0.27	1.0909	0.	348.63
10801	0.36	1.0909	5.e-002	42.961
10802	0.36	0.81818	0.	-217.55
10803	0.27	0.90909	0.	335.13
10804	0.36	0.90909	5.e-002	46.257
10805	0.36	0.63636	0.	-199.26
10806	0.27	0.72727	0.	316.12
10807	0.36	0.72727	5.e-002	51.206
10808	0.36	0.45455	0.	-166.19
10809	0.27	0.54545	0.	285.77
10810	0.36	0.54545	5.e-002	60.13
10811	0.36	0.27273	0.	-96.017
10812	0.27	0.36364	0.	243.42
10813	0.36	0.36364	5.e-002	76.78
10814	0.27	0.18182	0.	163.63
10815	0.36	0.18182	5.e-002	69.571
10816	0.36	9.0909e-002	0.	114.49
10817	0.18	5.7273	0.	468.9
10818	0.18	5.8182	5.e-002	170.14
10819	0.18	5.9091	0.	210.73
10820	9.e-002	5.8182	0.	-433.89
10821	0.18	5.5455	0.	694.72
10822	0.18	5.6364	5.e-002	107.59
10823	9.e-002	5.6364	0.	-857.18
10824	0.18	5.3636	0.	801.12
10825	0.18	5.4545	5.e-002	75.324
10826	9.e-002	5.4545	0.	-1051.1
10827	0.18	5.1818	0.	868.84
10828	0.18	5.2727	5.e-002	59.138
10829	9.e-002	5.2727	0.	-1164.5
10830	0.18	5.	0.	913.39
10831	0.18	5.0909	5.e-002	50.304
10832	9.e-002	5.0909	0.	-1240.
10833	0.18	4.8182	0.	944.74
10834	0.18	4.9091	5.e-002	43.74
10835	9.e-002	4.9091	0.	-1292.3
10836	0.18	4.6364	0.	966.93
10837	0.18	4.7273	5.e-002	38.446
10838	9.e-002	4.7273	0.	-1329.7
10839	0.18	4.4545	0.	982.72
10840	0.18	4.5455	5.e-002	33.945
10841	9.e-002	4.5455	0.	-1356.5
10842	0.18	4.2727	0.	993.83
10843	0.18	4.3636	5.e-002	30.025
10844	9.e-002	4.3636	0.	-1375.6
10845	0.18	4.0909	0.	1001.5
10846	0.18	4.1818	5.e-002	26.589
10847	9.e-002	4.1818	0.	-1389.1
10848	0.18	3.9091	0.	1006.6
10849	0.18	4.	5.e-002	23.603
10850	9.e-002	4.	0.	-1398.5
10851	0.18	3.7273	0.	1010.
10852	0.18	3.8182	5.e-002	21.066
10853	9.e-002	3.8182	0.	-1404.7
10854	0.18	3.5455	0.	1012.
10855	0.18	3.6364	5.e-002	18.995
10856	9.e-002	3.6364	0.	-1408.8
10857	0.18	3.3636	0.	1013.2
10858	0.18	3.4545	5.e-002	17.413
10859	9.e-002	3.4545	0.	-1411.3
10860	0.18	3.1818	0.	1013.8
10861	0.18	3.2727	5.e-002	16.343
10862	9.e-002	3.2727	0.	-1412.7
10863	0.18	3.	0.	1014.
10864	0.18	3.0909	5.e-002	15.803
10865	9.e-002	3.0909	0.	-1413.3
10866	0.18	2.8182	0.	1013.8
10867	0.18	2.9091	5.e-002	15.803
10868	9.e-002	2.9091	0.	-1413.3
10869	0.18	2.6364	0.	1013.2
10870	0.18	2.7273	5.e-002	16.343
10871	9.e-002	2.7273	0.	-1412.7
10872	0.18	2.4545	0.	1012.
10873	0.18	2.5455	5.e-002	17.413
10874	9.e-002	2.5455	0.	-1411.3
10875	0.18	2.2727	0.	1010.
10876	0.18	2.3636	5.e-002	18.995
10877	9.e-002	2.3636	0.	-1408.8
10878	0.18	2.0909	0.	1006.6
10879	0.18	2.1818	5.e-002	21.066
10880	9.e-002	2.1818	0.	-1404.7
10881	0.18	1.9091	0.	1001.5
10882	0.18	2.	5.e-002	23.603
10883	9.e-002	2.	0.	-1398.5
10884	0.18	1.7273	0.	993.83
10885	0.18	1.8182	5.e-002	26.589
10886	9.e-002	1.8182	0.	-1389.1
10887	0.18	1.5455	0.	982.72
10888	0.18	1.6364	5.e-002	30.024
10889	9.e-002	1.6364	0.	-1375.6
10890	0.18	1.3636	0.	966.93
10891	0.18	1.4545	5.e-002	33.945
10892	9.e-002	1.4545	0.	-1356.5
10893	0.18	1.1818	0.	944.74
10894	0.18	1.2727	5.e-002	38.446
10895	9.e-002	1.2727	0.	-1329.7
10896	0.18	1.	0.	913.39
10897	0.18	1.0909	5.e-002	43.74
10898	9.e-002	1.0909	0.	-1292.3
10899	0.18	0.81818	0.	868.84
10900	0.18	0.90909	5.e-002	50.304
10901	9.e-002	0.90909	0.	-1240.
10902	0.18	0.63636	0.	801.12
10903	0.18	0.72727	5.e-002	59.138
10904	9.e-002	0.72727	0.	-1164.5
10905	0.18	0.45455	0.	694.72
10906	0.18	0.54545	5.e-002	75.324
10907	9.e-002	0.54545	0.	-1051.1
10908	0.18	0.27273	0.	468.9
10909	0.18	0.36364	5.e-002	107.59
10910	9.e-002	0.36364	0.	-857.18
10911	0.18	0.18182	5.e-002	170.14
10912	0.18	9.0909e-002	0.	210.73
10913	9.e-002	0.18182	0.	-433.89
10914	4.0426	5.8182	0.	118.4
10915	3.9506	5.7273	0.	227.62
10916	3.9506	5.8182	5.e-002	75.577
10917	3.9506	5.9091	0.	57.83
10918	3.8586	5.8182	0.	69.29
10919	4.2265	5.8182	0.	107.73
10920	4.1345	5.7273	0.	139.06
10921	4.1345	5.8182	5.e-002	67.148
10922	4.1345	5.9091	0.	47.372
10923	4.4105	5.8182	0.	110.23
10924	4.3185	5.7273	0.	130.41
10925	4.3185	5.8182	5.e-002	61.978
10926	4.3185	5.9091	0.	54.578
10927	4.5944	5.8182	0.	108.64
10928	4.5024	5.7273	0.	130.53
10929	4.5024	5.8182	5.e-002	55.668
10930	4.5024	5.9091	0.	58.509
10931	4.7783	5.8182	0.	102.12
10932	4.6864	5.7273	0.	126.84
10933	4.6864	5.8182	5.e-002	48.646
10934	4.6864	5.9091	0.	57.666
10935	4.9623	5.8182	0.	92.411
10936	4.8703	5.7273	0.	118.55
10937	4.8703	5.8182	5.e-002	41.465
10938	4.8703	5.9091	0.	53.801
10939	5.1462	5.8182	0.	81.054
10940	5.0542	5.7273	0.	106.81
10941	5.0542	5.8182	5.e-002	34.566
10942	5.0542	5.9091	0.	48.195
10943	5.3302	5.8182	0.	69.258
10944	5.2382	5.7273	0.	93.205
10945	5.2382	5.8182	5.e-002	28.243
10946	5.2382	5.9091	0.	41.846
10947	5.5141	5.8182	0.	57.844
10948	5.4221	5.7273	0.	79.05
10949	5.4221	5.8182	5.e-002	22.651
10950	5.4221	5.9091	0.	35.422
10951	5.698	5.8182	0.	47.312
10952	5.6061	5.7273	0.	65.305
10953	5.6061	5.8182	5.e-002	17.839
10954	5.6061	5.9091	0.	29.337
10955	5.882	5.8182	0.	37.92
10956	5.79	5.7273	0.	52.573
10957	5.79	5.8182	5.e-002	13.786
10958	5.79	5.9091	0.	23.82
10959	6.0659	5.8182	0.	29.763
10960	5.9739	5.7273	0.	41.184
10961	5.9739	5.8182	5.e-002	10.432
10962	5.9739	5.9091	0.	18.974
10963	6.2498	5.8182	0.	22.83
10964	6.1579	5.7273	0.	31.271
10965	6.1579	5.8182	5.e-002	7.6961
10966	6.1579	5.9091	0.	14.819
10967	6.4338	5.8182	0.	17.05
10968	6.3418	5.7273	0.	22.84
10969	6.3418	5.8182	5.e-002	5.4954
10970	6.3418	5.9091	0.	11.331
10971	6.6177	5.8182	0.	12.319
10972	6.5258	5.7273	0.	15.816
10973	6.5258	5.8182	5.e-002	3.7488
10974	6.5258	5.9091	0.	8.4569
10975	6.8017	5.8182	0.	8.5231
10976	6.7097	5.7273	0.	10.086
10977	6.7097	5.8182	5.e-002	2.3848
10978	6.7097	5.9091	0.	6.1336
10979	6.9856	5.8182	0.	5.5478
10980	6.8936	5.7273	0.	5.5235
10981	6.8936	5.8182	5.e-002	1.3483
10982	6.8936	5.9091	0.	4.2948
10983	7.1695	5.8182	0.	3.2914
10984	7.0776	5.7273	0.	2.0568
10985	7.0776	5.8182	5.e-002	0.63653
10986	7.0776	5.9091	0.	2.8764
10987	7.3535	5.8182	0.	1.6856
10988	7.2615	5.7273	0.	0.34508
10989	7.2615	5.8182	5.e-002	0.47401
10990	7.2615	5.9091	0.	1.8202
10991	7.5374	5.8182	0.	0.74548
10992	7.4455	5.7273	0.	0.14492
10993	7.4455	5.8182	5.e-002	0.75708
10994	7.4455	5.9091	0.	1.0784
10995	7.7214	5.8182	0.	0.4002
10996	7.6294	5.7273	0.	0.10243
10997	7.6294	5.8182	5.e-002	1.0341
10998	7.6294	5.9091	0.	0.62117
10999	7.9053	5.8182	0.	0.29972
11000	7.8133	5.7273	0.	8.5025e-002
11001	7.8133	5.8182	5.e-002	1.2348
11002	7.8133	5.9091	0.	0.41841
11003	8.0892	5.8182	0.	0.27163
11004	7.9973	5.7273	0.	7.5599e-002
11005	7.9973	5.8182	5.e-002	1.3646
11006	7.9973	5.9091	0.	0.37566
11007	8.2732	5.8182	0.	0.27739
11008	8.1812	5.7273	0.	6.9645e-002
11009	8.1812	5.8182	5.e-002	1.4365
11010	8.1812	5.9091	0.	0.41197
11011	8.4571	5.8182	0.	0.3144
11012	8.3652	5.7273	0.	6.5582e-002
11013	8.3652	5.8182	5.e-002	1.4631
11014	8.3652	5.9091	0.	0.50962
11015	8.6411	5.8182	0.	0.40094
11016	8.5491	5.7273	0.	6.2816e-002
11017	8.5491	5.8182	5.e-002	1.4553
11018	8.5491	5.9091	0.	0.67415
11019	8.825	5.8182	0.	0.58372
11020	8.733	5.7273	0.	6.1198e-002
11021	8.733	5.8182	5.e-002	1.4216
11022	8.733	5.9091	0.	0.90739
11023	9.0089	5.8182	0.	0.92084
11024	8.917	5.7273	0.	6.089e-002
11025	8.917	5.8182	5.e-002	1.3693
11026	8.917	5.9091	0.	1.2002
11027	9.1929	5.8182	0.	1.4085
11028	9.1009	5.7273	0.	6.2466e-002
11029	9.1009	5.8182	5.e-002	1.3039
11030	9.1009	5.9091	0.	1.5384
11031	9.3768	5.8182	0.	1.9919
11032	9.2848	5.7273	0.	6.7391e-002
11033	9.2848	5.8182	5.e-002	1.2298
11034	9.2848	5.9091	0.	1.9083
11035	9.5608	5.8182	0.	2.6273
11036	9.4688	5.7273	0.	7.989e-002
11037	9.4688	5.8182	5.e-002	1.1504
11038	9.4688	5.9091	0.	2.299
11039	9.7447	5.8182	0.	3.2889
11040	9.6527	5.7273	0.	0.11731
11041	9.6527	5.8182	5.e-002	1.0683
11042	9.6527	5.9091	0.	2.7018
11043	9.9286	5.8182	0.	3.9607
11044	9.8367	5.7273	0.	0.30375
11045	9.8367	5.8182	5.e-002	0.98559
11046	9.8367	5.9091	0.	3.1098
11047	10.113	5.8182	0.	4.6325
11048	10.021	5.7273	0.	0.93709
11049	10.021	5.8182	5.e-002	0.90369
11050	10.021	5.9091	0.	3.5181
11051	10.297	5.8182	0.	5.297
11052	10.205	5.7273	0.	1.7309
11053	10.205	5.8182	5.e-002	0.82372
11054	10.205	5.9091	0.	3.9226
11055	10.48	5.8182	0.	5.9493
11056	10.388	5.7273	0.	2.5342
11057	10.388	5.8182	5.e-002	0.74642
11058	10.388	5.9091	0.	4.3206
11059	10.664	5.8182	0.	6.5858
11060	10.572	5.7273	0.	3.3227
11061	10.572	5.8182	5.e-002	0.67236
11062	10.572	5.9091	0.	4.7099
11063	10.848	5.8182	0.	7.2042
11064	10.756	5.7273	0.	4.0887
11065	10.756	5.8182	5.e-002	0.60186
11066	10.756	5.9091	0.	5.0891
11067	11.032	5.8182	0.	7.8032
11068	10.94	5.7273	0.	4.8287
11069	10.94	5.8182	5.e-002	0.53511
11070	10.94	5.9091	0.	5.4573
11071	11.216	5.8182	0.	8.3819
11072	11.124	5.7273	0.	5.5409
11073	11.124	5.8182	5.e-002	0.4723
11074	11.124	5.9091	0.	5.8139
11075	11.4	5.8182	0.	8.94
11076	11.308	5.7273	0.	6.2247
11077	11.308	5.8182	5.e-002	0.41342
11078	11.308	5.9091	0.	6.1588
11079	11.584	5.8182	0.	9.4778
11080	11.492	5.7273	0.	6.8801
11081	11.492	5.8182	5.e-002	0.35839
11082	11.492	5.9091	0.	6.4918
11083	11.768	5.8182	0.	9.9958
11084	11.676	5.7273	0.	7.5076
11085	11.676	5.8182	5.e-002	0.30711
11086	11.676	5.9091	0.	6.8134
11087	11.952	5.8182	0.	10.495
11088	11.86	5.7273	0.	8.1081
11089	11.86	5.8182	5.e-002	0.25953
11090	11.86	5.9091	0.	7.1239
11091	12.136	5.8182	0.	10.975
11092	12.044	5.7273	0.	8.6826
11093	12.044	5.8182	5.e-002	0.21542
11094	12.044	5.9091	0.	7.4236
11095	12.32	5.8182	0.	11.438
11096	12.228	5.7273	0.	9.2326
11097	12.228	5.8182	5.e-002	0.17453
11098	12.228	5.9091	0.	7.7133
11099	12.504	5.8182	0.	11.886
11100	12.412	5.7273	0.	9.7593
11101	12.412	5.8182	5.e-002	0.13681
11102	12.412	5.9091	0.	7.9935
11103	12.688	5.8182	0.	12.318
11104	12.596	5.7273	0.	10.264
11105	12.596	5.8182	5.e-002	0.10205
11106	12.596	5.9091	0.	8.2649
11107	12.872	5.8182	0.	12.736
11108	12.78	5.7273	0.	10.749
11109	12.78	5.8182	5.e-002	7.012e-002
11110	12.78	5.9091	0.	8.5281
11111	13.056	5.8182	0.	13.141
11112	12.964	5.7273	0.	11.216
11113	12.964	5.8182	5.e-002	4.0775e-002
11114	12.964	5.9091	0.	8.7839
11115	13.24	5.8182	0.	13.535
11116	13.148	5.7273	0.	11.665
11117	13.148	5.8182	5.e-002	1.3965e-002
11118	13.148	5.9091	0.	9.0331
11119	13.423	5.8182	0.	13.919
11120	13.332	5.7273	0.	12.098
11121	13.332	5.8182	5.e-002	1.0762e-002
11122	13.332	5.9091	0.	9.2761
11123	13.607	5.8182	0.	14.293
11124	13.515	5.7273	0.	12.518
11125	13.515	5.8182	5.e-002	3.3009e-002
11126	13.515	5.9091	0.	9.5138
11127	13.791	5.8182	0.	14.659
11128	13.699	5.7273	0.	12.925
11129	13.699	5.8182	5.e-002	5.3254e-002
11130	13.699	5.9091	0.	9.7468
11131	13.975	5.8182	0.	15.018
11132	13.883	5.7273	0.	13.321
11133	13.883	5.8182	5.e-002	7.1528e-002
11134	13.883	5.9091	0.	9.9758
11135	14.159	5.8182	0.	15.371
11136	14.067	5.7273	0.	13.707
11137	14.067	5.8182	5.e-002	8.8012e-002
11138	14.067	5.9091	0.	10.201
11139	14.343	5.8182	0.	15.719
11140	14.251	5.7273	0.	14.085
11141	14.251	5.8182	5.e-002	0.10288
11142	14.251	5.9091	0.	10.424
11143	14.527	5.8182	0.	16.063
11144	14.435	5.7273	0.	14.455
11145	14.435	5.8182	5.e-002	0.11614
11146	14.435	5.9091	0.	10.644
11147	14.711	5.8182	0.	16.404
11148	14.619	5.7273	0.	14.82
11149	14.619	5.8182	5.e-002	0.12798
11150	14.619	5.9091	0.	10.863
11151	14.895	5.8182	0.	16.743
11152	14.803	5.7273	0.	15.179
11153	14.803	5.8182	5.e-002	0.13846
11154	14.803	5.9091	0.	11.081
11155	15.079	5.8182	0.	17.08
11156	14.987	5.7273	0.	15.536
11157	14.987	5.8182	5.e-002	0.14771
11158	14.987	5.9091	0.	11.298
11159	15.263	5.8182	0.	17.417
11160	15.171	5.7273	0.	15.889
11161	15.171	5.8182	5.e-002	0.15576
11162	15.171	5.9091	0.	11.516
11163	15.447	5.8182	0.	17.755
11164	15.355	5.7273	0.	16.241
11165	15.355	5.8182	5.e-002	0.16272
11166	15.355	5.9091	0.	11.734
11167	15.631	5.8182	0.	18.093
11168	15.539	5.7273	0.	16.593
11169	15.539	5.8182	5.e-002	0.16871
11170	15.539	5.9091	0.	11.953
11171	15.815	5.8182	0.	18.434
11172	15.723	5.7273	0.	16.946
11173	15.723	5.8182	5.e-002	0.17383
11174	15.723	5.9091	0.	12.173
11175	15.999	5.8182	0.	18.777
11176	15.907	5.7273	0.	17.3
11177	15.907	5.8182	5.e-002	0.17815
11178	15.907	5.9091	0.	12.395
11179	16.183	5.8182	0.	19.123
11180	16.091	5.7273	0.	17.656
11181	16.091	5.8182	5.e-002	0.18182
11182	16.091	5.9091	0.	12.62
11183	16.367	5.8182	0.	19.474
11184	16.275	5.7273	0.	18.016
11185	16.275	5.8182	5.e-002	0.18503
11186	16.275	5.9091	0.	12.847
11187	16.55	5.8182	0.	19.829
11188	16.458	5.7273	0.	18.381
11189	16.458	5.8182	5.e-002	0.18786
11190	16.458	5.9091	0.	13.078
11191	16.734	5.8182	0.	20.19
11192	16.642	5.7273	0.	18.751
11193	16.642	5.8182	5.e-002	0.19051
11194	16.642	5.9091	0.	13.312
11195	16.918	5.8182	0.	20.556
11196	16.826	5.7273	0.	19.126
11197	16.826	5.8182	5.e-002	0.19318
11198	16.826	5.9091	0.	13.55
11199	17.102	5.8182	0.	20.929
11200	17.01	5.7273	0.	19.509
11201	17.01	5.8182	5.e-002	0.19611
11202	17.01	5.9091	0.	13.793
11203	17.286	5.8182	0.	21.309
11204	17.194	5.7273	0.	19.9
11205	17.194	5.8182	5.e-002	0.19953
11206	17.194	5.9091	0.	14.04
11207	17.47	5.8182	0.	21.696
11208	17.378	5.7273	0.	20.299
11209	17.378	5.8182	5.e-002	0.20377
11210	17.378	5.9091	0.	14.292
11211	17.654	5.8182	0.	22.091
11212	17.562	5.7273	0.	20.707
11213	17.562	5.8182	5.e-002	0.20915
11214	17.562	5.9091	0.	14.55
11215	17.838	5.8182	0.	22.495
11216	17.746	5.7273	0.	21.126
11217	17.746	5.8182	5.e-002	0.21601
11218	17.746	5.9091	0.	14.813
11219	18.022	5.8182	0.	22.907
11220	17.93	5.7273	0.	21.555
11221	17.93	5.8182	5.e-002	0.22473
11222	17.93	5.9091	0.	15.082
11223	18.206	5.8182	0.	23.328
11224	18.114	5.7273	0.	21.996
11225	18.114	5.8182	5.e-002	0.23565
11226	18.114	5.9091	0.	15.357
11227	18.39	5.8182	0.	23.758
11228	18.298	5.7273	0.	22.449
11229	18.298	5.8182	5.e-002	0.24911
11230	18.298	5.9091	0.	15.638
11231	18.574	5.8182	0.	24.197
11232	18.482	5.7273	0.	22.914
11233	18.482	5.8182	5.e-002	0.26542
11234	18.482	5.9091	0.	15.926
11235	18.758	5.8182	0.	24.646
11236	18.666	5.7273	0.	23.393
11237	18.666	5.8182	5.e-002	0.28484
11238	18.666	5.9091	0.	16.22
11239	18.942	5.8182	0.	25.104
11240	18.85	5.7273	0.	23.885
11241	18.85	5.8182	5.e-002	0.30762
11242	18.85	5.9091	0.	16.521
11243	19.126	5.8182	0.	25.571
11244	19.034	5.7273	0.	24.391
11245	19.034	5.8182	5.e-002	0.33397
11246	19.034	5.9091	0.	16.828
11247	19.31	5.8182	0.	26.047
11248	19.218	5.7273	0.	24.912
11249	19.218	5.8182	5.e-002	0.3641
11250	19.218	5.9091	0.	17.141
11251	19.493	5.8182	0.	26.531
11252	19.402	5.7273	0.	25.447
11253	19.402	5.8182	5.e-002	0.3982
11254	19.402	5.9091	0.	17.46
11255	19.677	5.8182	0.	27.022
11256	19.585	5.7273	0.	25.997
11257	19.585	5.8182	5.e-002	0.43644
11258	19.585	5.9091	0.	17.785
11259	19.861	5.8182	0.	27.521
11260	19.769	5.7273	0.	26.562
11261	19.769	5.8182	5.e-002	0.47906
11262	19.769	5.9091	0.	18.116
11263	20.045	5.8182	0.	28.025
11264	19.953	5.7273	0.	27.141
11265	19.953	5.8182	5.e-002	0.52627
11266	19.953	5.9091	0.	18.452
11267	20.229	5.8182	0.	28.533
11268	20.137	5.7273	0.	27.735
11269	20.137	5.8182	5.e-002	0.57832
11270	20.137	5.9091	0.	18.791
11271	20.413	5.8182	0.	29.044
11272	20.321	5.7273	0.	28.342
11273	20.321	5.8182	5.e-002	0.63545
11274	20.321	5.9091	0.	19.134
11275	20.597	5.8182	0.	29.556
11276	20.505	5.7273	0.	28.963
11277	20.505	5.8182	5.e-002	0.69799
11278	20.505	5.9091	0.	19.48
11279	20.781	5.8182	0.	30.066
11280	20.689	5.7273	0.	29.596
11281	20.689	5.8182	5.e-002	0.76628
11282	20.689	5.9091	0.	19.826
11283	20.965	5.8182	0.	30.571
11284	20.873	5.7273	0.	30.24
11285	20.873	5.8182	5.e-002	0.84068
11286	20.873	5.9091	0.	20.172
11287	21.149	5.8182	0.	31.068
11288	21.057	5.7273	0.	30.894
11289	21.057	5.8182	5.e-002	0.92161
11290	21.057	5.9091	0.	20.516
11291	21.333	5.8182	0.	31.553
11292	21.241	5.7273	0.	31.556
11293	21.241	5.8182	5.e-002	1.0096
11294	21.241	5.9091	0.	20.855
11295	21.517	5.8182	0.	32.02
11296	21.425	5.7273	0.	32.224
11297	21.425	5.8182	5.e-002	1.105
11298	21.425	5.9091	0.	21.187
11299	21.701	5.8182	0.	32.465
11300	21.609	5.7273	0.	32.896
11301	21.609	5.8182	5.e-002	1.2086
11302	21.609	5.9091	0.	21.509
11303	21.885	5.8182	0.	32.879
11304	21.793	5.7273	0.	33.57
11305	21.793	5.8182	5.e-002	1.321
11306	21.793	5.9091	0.	21.816
11307	22.069	5.8182	0.	33.255
11308	21.977	5.7273	0.	34.244
11309	21.977	5.8182	5.e-002	1.4429
11310	21.977	5.9091	0.	22.105
11311	22.253	5.8182	0.	33.584
11312	22.161	5.7273	0.	34.914
11313	22.161	5.8182	5.e-002	1.5753
11314	22.161	5.9091	0.	22.369
11315	22.437	5.8182	0.	33.851
11316	22.345	5.7273	0.	35.579
11317	22.345	5.8182	5.e-002	1.7192
11318	22.345	5.9091	0.	22.602
11319	22.62	5.8182	0.	34.045
11320	22.528	5.7273	0.	36.238
11321	22.528	5.8182	5.e-002	1.876
11322	22.528	5.9091	0.	22.794
11323	22.804	5.8182	0.	34.146
11324	22.712	5.7273	0.	36.893
11325	22.712	5.8182	5.e-002	2.0474
11326	22.712	5.9091	0.	22.935
11327	22.988	5.8182	0.	34.136
11328	22.896	5.7273	0.	37.555
11329	22.896	5.8182	5.e-002	2.2356
11330	22.896	5.9091	0.	23.008
11331	23.172	5.8182	0.	33.995
11332	23.08	5.7273	0.	38.245
11333	23.08	5.8182	5.e-002	2.4438
11334	23.08	5.9091	0.	22.993
11335	23.356	5.8182	0.	33.717
11336	23.264	5.7273	0.	39.026
11337	23.264	5.8182	5.e-002	2.6778
11338	23.264	5.9091	0.	22.864
11339	23.54	5.8182	0.	33.379
11340	23.448	5.7273	0.	40.039
11341	23.448	5.8182	5.e-002	2.945
11342	23.448	5.9091	0.	22.567
11343	23.724	5.8182	0.	33.691
11344	23.632	5.7273	0.	41.731
11345	23.632	5.8182	5.e-002	3.2805
11346	23.632	5.9091	0.	22.132
11347	23.816	5.7273	0.	45.525
11348	23.816	5.8182	5.e-002	3.9981
11349	23.908	5.8182	0.	34.93
11350	23.816	5.9091	0.	21.455
11351	4.0426	5.6364	0.	221.68
11352	3.9506	5.5455	0.	441.72
11353	3.9506	5.6364	5.e-002	68.39
11354	3.8586	5.6364	0.	226.03
11355	4.2265	5.6364	0.	153.99
11356	4.1345	5.5455	0.	251.17
11357	4.1345	5.6364	5.e-002	58.052
11358	4.4105	5.6364	0.	146.96
11359	4.3185	5.5455	0.	200.76
11360	4.3185	5.6364	5.e-002	52.782
11361	4.5944	5.6364	0.	146.36
11362	4.5024	5.5455	0.	183.32
11363	4.5024	5.6364	5.e-002	46.205
11364	4.7783	5.6364	0.	141.62
11365	4.6864	5.5455	0.	171.08
11366	4.6864	5.6364	5.e-002	39.268
11367	4.9623	5.6364	0.	131.8
11368	4.8703	5.5455	0.	157.06
11369	4.8703	5.6364	5.e-002	32.492
11370	5.1462	5.6364	0.	118.18
11371	5.0542	5.5455	0.	140.22
11372	5.0542	5.6364	5.e-002	26.231
11373	5.3302	5.6364	0.	102.48
11374	5.2382	5.5455	0.	121.51
11375	5.2382	5.6364	5.e-002	20.67
11376	5.5141	5.6364	0.	86.19
11377	5.4221	5.5455	0.	102.21
11378	5.4221	5.6364	5.e-002	15.871
11379	5.698	5.6364	0.	70.381
11380	5.6061	5.5455	0.	83.432
11381	5.6061	5.6364	5.e-002	11.818
11382	5.882	5.6364	0.	55.742
11383	5.79	5.5455	0.	65.94
11384	5.79	5.6364	5.e-002	8.4537
11385	6.0659	5.6364	0.	42.656
11386	5.9739	5.5455	0.	50.2
11387	5.9739	5.6364	5.e-002	5.7016
11388	6.2498	5.6364	0.	31.282
11389	6.1579	5.5455	0.	36.427
11390	6.1579	5.6364	5.e-002	3.4922
11391	6.4338	5.6364	0.	21.631
11392	6.3418	5.5455	0.	24.668
11393	6.3418	5.6364	5.e-002	1.8055
11394	6.6177	5.6364	0.	13.625
11395	6.5258	5.5455	0.	14.861
11396	6.5258	5.6364	5.e-002	0.95677
11397	6.8017	5.6364	0.	7.1473
11398	6.7097	5.5455	0.	6.9216
11399	6.7097	5.6364	5.e-002	1.4559
11400	6.9856	5.6364	0.	2.1917
11401	6.8936	5.5455	0.	1.3491
11402	6.8936	5.6364	5.e-002	2.2375
11403	7.1695	5.6364	0.	0.28659
11404	7.0776	5.5455	0.	0.25466
11405	7.0776	5.6364	5.e-002	2.9116
11406	7.3535	5.6364	0.	0.12743
11407	7.2615	5.5455	0.	0.1292
11408	7.2615	5.6364	5.e-002	3.4535
11409	7.5374	5.6364	0.	9.04e-002
11410	7.4455	5.5455	0.	8.8713e-002
11411	7.4455	5.6364	5.e-002	3.8788
11412	7.7214	5.6364	0.	7.5243e-002
11413	7.6294	5.5455	0.	6.946e-002
11414	7.6294	5.6364	5.e-002	4.2078
11415	7.9053	5.6364	0.	6.6974e-002
11416	7.8133	5.5455	0.	5.8202e-002
11417	7.8133	5.6364	5.e-002	4.4589
11418	8.0892	5.6364	0.	6.1406e-002
11419	7.9973	5.5455	0.	5.0632e-002
11420	7.9973	5.6364	5.e-002	4.6475
11421	8.2732	5.6364	0.	5.7017e-002
11422	8.1812	5.5455	0.	4.4983e-002
11423	8.1812	5.6364	5.e-002	4.7866
11424	8.4571	5.6364	0.	5.3182e-002
11425	8.3652	5.5455	0.	4.0432e-002
11426	8.3652	5.6364	5.e-002	4.8866
11427	8.6411	5.6364	0.	4.9635e-002
11428	8.5491	5.5455	0.	3.6572e-002
11429	8.5491	5.6364	5.e-002	4.9559
11430	8.825	5.6364	0.	4.6262e-002
11431	8.733	5.5455	0.	3.3177e-002
11432	8.733	5.6364	5.e-002	5.0014
11433	9.0089	5.6364	0.	4.302e-002
11434	8.917	5.5455	0.	3.0119e-002
11435	8.917	5.6364	5.e-002	5.0282
11436	9.1929	5.6364	0.	3.9909e-002
11437	9.1009	5.5455	0.	2.7321e-002
11438	9.1009	5.6364	5.e-002	5.0408
11439	9.3768	5.6364	0.	3.6945e-002
11440	9.2848	5.5455	0.	2.4745e-002
11441	9.2848	5.6364	5.e-002	5.0425
11442	9.5608	5.6364	0.	3.4157e-002
11443	9.4688	5.5455	0.	2.236e-002
11444	9.4688	5.6364	5.e-002	5.0359
11445	9.7447	5.6364	0.	3.1604e-002
11446	9.6527	5.5455	0.	2.0139e-002
11447	9.6527	5.6364	5.e-002	5.0231
11448	9.9286	5.6364	0.	2.9405e-002
11449	9.8367	5.5455	0.	1.8087e-002
11450	9.8367	5.6364	5.e-002	5.0057
11451	10.113	5.6364	0.	2.7851e-002
11452	10.021	5.5455	0.	1.6185e-002
11453	10.021	5.6364	5.e-002	4.9851
11454	10.297	5.6364	0.	2.8415e-002
11455	10.205	5.5455	0.	1.4384e-002
11456	10.205	5.6364	5.e-002	4.9622
11457	10.48	5.6364	0.	7.7812e-002
11458	10.388	5.5455	0.	1.2714e-002
11459	10.388	5.6364	5.e-002	4.9376
11460	10.664	5.6364	0.	0.90377
11461	10.572	5.5455	0.	1.1169e-002
11462	10.572	5.6364	5.e-002	4.9119
11463	10.848	5.6364	0.	1.7937
11464	10.756	5.5455	0.	9.7268e-003
11465	10.756	5.6364	5.e-002	4.8857
11466	11.032	5.6364	0.	2.65
11467	10.94	5.5455	0.	0.18796
11468	10.94	5.6364	5.e-002	4.8591
11469	11.216	5.6364	0.	3.47
11470	11.124	5.5455	0.	1.1683
11471	11.124	5.6364	5.e-002	4.8325
11472	11.4	5.6364	0.	4.2533
11473	11.308	5.5455	0.	2.1024
11474	11.308	5.6364	5.e-002	4.8061
11475	11.584	5.6364	0.	5.0004
11476	11.492	5.5455	0.	2.9911
11477	11.492	5.6364	5.e-002	4.7799
11478	11.768	5.6364	0.	5.7123
11479	11.676	5.5455	0.	3.8353
11480	11.676	5.6364	5.e-002	4.754
11481	11.952	5.6364	0.	6.3903
11482	11.86	5.5455	0.	4.637
11483	11.86	5.6364	5.e-002	4.7286
11484	12.136	5.6364	0.	7.0359
11485	12.044	5.5455	0.	5.3977
11486	12.044	5.6364	5.e-002	4.7036
11487	12.32	5.6364	0.	7.651
11488	12.228	5.5455	0.	6.1197
11489	12.228	5.6364	5.e-002	4.679
11490	12.504	5.6364	0.	8.2373
11491	12.412	5.5455	0.	6.8054
11492	12.412	5.6364	5.e-002	4.6548
11493	12.688	5.6364	0.	8.7968
11494	12.596	5.5455	0.	7.4571
11495	12.596	5.6364	5.e-002	4.631
11496	12.872	5.6364	0.	9.3314
11497	12.78	5.5455	0.	8.0769
11498	12.78	5.6364	5.e-002	4.6077
11499	13.056	5.6364	0.	9.8431
11500	12.964	5.5455	0.	8.6675
11501	12.964	5.6364	5.e-002	4.5847
11502	13.24	5.6364	0.	10.334
11503	13.148	5.5455	0.	9.2311
11504	13.148	5.6364	5.e-002	4.5621
11505	13.423	5.6364	0.	10.805
11506	13.332	5.5455	0.	9.7699
11507	13.332	5.6364	5.e-002	4.54
11508	13.607	5.6364	0.	11.259
11509	13.515	5.5455	0.	10.286
11510	13.515	5.6364	5.e-002	4.5182
11511	13.791	5.6364	0.	11.698
11512	13.699	5.5455	0.	10.782
11513	13.699	5.6364	5.e-002	4.4967
11514	13.975	5.6364	0.	12.122
11515	13.883	5.5455	0.	11.26
11516	13.883	5.6364	5.e-002	4.4756
11517	14.159	5.6364	0.	12.534
11518	14.067	5.5455	0.	11.721
11519	14.067	5.6364	5.e-002	4.4549
11520	14.343	5.6364	0.	12.936
11521	14.251	5.5455	0.	12.169
11522	14.251	5.6364	5.e-002	4.4344
11523	14.527	5.6364	0.	13.329
11524	14.435	5.5455	0.	12.603
11525	14.435	5.6364	5.e-002	4.4141
11526	14.711	5.6364	0.	13.713
11527	14.619	5.5455	0.	13.027
11528	14.619	5.6364	5.e-002	4.3942
11529	14.895	5.6364	0.	14.092
11530	14.803	5.5455	0.	13.443
11531	14.803	5.6364	5.e-002	4.3745
11532	15.079	5.6364	0.	14.466
11533	14.987	5.5455	0.	13.851
11534	14.987	5.6364	5.e-002	4.355
11535	15.263	5.6364	0.	14.837
11536	15.171	5.5455	0.	14.253
11537	15.171	5.6364	5.e-002	4.3358
11538	15.447	5.6364	0.	15.205
11539	15.355	5.5455	0.	14.652
11540	15.355	5.6364	5.e-002	4.3169
11541	15.631	5.6364	0.	15.573
11542	15.539	5.5455	0.	15.048
11543	15.539	5.6364	5.e-002	4.2982
11544	15.815	5.6364	0.	15.94
11545	15.723	5.5455	0.	15.443
11546	15.723	5.6364	5.e-002	4.2798
11547	15.999	5.6364	0.	16.31
11548	15.907	5.5455	0.	15.838
11549	15.907	5.6364	5.e-002	4.2616
11550	16.183	5.6364	0.	16.682
11551	16.091	5.5455	0.	16.236
11552	16.091	5.6364	5.e-002	4.2437
11553	16.367	5.6364	0.	17.058
11554	16.275	5.5455	0.	16.637
11555	16.275	5.6364	5.e-002	4.226
11556	16.55	5.6364	0.	17.439
11557	16.458	5.5455	0.	17.042
11558	16.458	5.6364	5.e-002	4.2086
11559	16.734	5.6364	0.	17.826
11560	16.642	5.5455	0.	17.454
11561	16.642	5.6364	5.e-002	4.1914
11562	16.918	5.6364	0.	18.221
11563	16.826	5.5455	0.	17.873
11564	16.826	5.6364	5.e-002	4.1744
11565	17.102	5.6364	0.	18.623
11566	17.01	5.5455	0.	18.302
11567	17.01	5.6364	5.e-002	4.1577
11568	17.286	5.6364	0.	19.036
11569	17.194	5.5455	0.	18.74
11570	17.194	5.6364	5.e-002	4.1413
11571	17.47	5.6364	0.	19.458
11572	17.378	5.5455	0.	19.19
11573	17.378	5.6364	5.e-002	4.1252
11574	17.654	5.6364	0.	19.893
11575	17.562	5.5455	0.	19.653
11576	17.562	5.6364	5.e-002	4.1094
11577	17.838	5.6364	0.	20.339
11578	17.746	5.5455	0.	20.13
11579	17.746	5.6364	5.e-002	4.094
11580	18.022	5.6364	0.	20.8
11581	17.93	5.5455	0.	20.623
11582	17.93	5.6364	5.e-002	4.0789
11583	18.206	5.6364	0.	21.275
11584	18.114	5.5455	0.	21.133
11585	18.114	5.6364	5.e-002	4.0643
11586	18.39	5.6364	0.	21.766
11587	18.298	5.5455	0.	21.661
11588	18.298	5.6364	5.e-002	4.05
11589	18.574	5.6364	0.	22.274
11590	18.482	5.5455	0.	22.21
11591	18.482	5.6364	5.e-002	4.0361
11592	18.758	5.6364	0.	22.799
11593	18.666	5.5455	0.	22.779
11594	18.666	5.6364	5.e-002	4.0226
11595	18.942	5.6364	0.	23.343
11596	18.85	5.5455	0.	23.372
11597	18.85	5.6364	5.e-002	4.0096
11598	19.126	5.6364	0.	23.907
11599	19.034	5.5455	0.	23.988
11600	19.034	5.6364	5.e-002	3.9972
11601	19.31	5.6364	0.	24.491
11602	19.218	5.5455	0.	24.631
11603	19.218	5.6364	5.e-002	3.9853
11604	19.493	5.6364	0.	25.096
11605	19.402	5.5455	0.	25.3
11606	19.402	5.6364	5.e-002	3.974
11607	19.677	5.6364	0.	25.723
11608	19.585	5.5455	0.	25.998
11609	19.585	5.6364	5.e-002	3.9633
11610	19.861	5.6364	0.	26.373
11611	19.769	5.5455	0.	26.725
11612	19.769	5.6364	5.e-002	3.9533
11613	20.045	5.6364	0.	27.047
11614	19.953	5.5455	0.	27.485
11615	19.953	5.6364	5.e-002	3.9441
11616	20.229	5.6364	0.	27.745
11617	20.137	5.5455	0.	28.277
11618	20.137	5.6364	5.e-002	3.9356
11619	20.413	5.6364	0.	28.468
11620	20.321	5.5455	0.	29.104
11621	20.321	5.6364	5.e-002	3.9279
11622	20.597	5.6364	0.	29.216
11623	20.505	5.5455	0.	29.967
11624	20.505	5.6364	5.e-002	3.9211
11625	20.781	5.6364	0.	29.99
11626	20.689	5.5455	0.	30.868
11627	20.689	5.6364	5.e-002	3.9153
11628	20.965	5.6364	0.	30.79
11629	20.873	5.5455	0.	31.81
11630	20.873	5.6364	5.e-002	3.9104
11631	21.149	5.6364	0.	31.617
11632	21.057	5.5455	0.	32.794
11633	21.057	5.6364	5.e-002	3.9066
11634	21.333	5.6364	0.	32.472
11635	21.241	5.5455	0.	33.822
11636	21.241	5.6364	5.e-002	3.9038
11637	21.517	5.6364	0.	33.356
11638	21.425	5.5455	0.	34.9
11639	21.425	5.6364	5.e-002	3.9023
11640	21.701	5.6364	0.	34.271
11641	21.609	5.5455	0.	36.03
11642	21.609	5.6364	5.e-002	3.9021
11643	21.885	5.6364	0.	35.218
11644	21.793	5.5455	0.	37.219
11645	21.793	5.6364	5.e-002	3.9031
11646	22.069	5.6364	0.	36.202
11647	21.977	5.5455	0.	38.474
11648	21.977	5.6364	5.e-002	3.9057
11649	22.253	5.6364	0.	37.23
11650	22.161	5.5455	0.	39.807
11651	22.161	5.6364	5.e-002	3.9098
11652	22.437	5.6364	0.	38.311
11653	22.345	5.5455	0.	41.234
11654	22.345	5.6364	5.e-002	3.9156
11655	22.62	5.6364	0.	39.465
11656	22.528	5.5455	0.	42.78
11657	22.528	5.6364	5.e-002	3.9235
11658	22.804	5.6364	0.	40.722
11659	22.712	5.5455	0.	44.483
11660	22.712	5.6364	5.e-002	3.9339
11661	22.988	5.6364	0.	42.137
11662	22.896	5.5455	0.	46.406
11663	22.896	5.6364	5.e-002	3.9478
11664	23.172	5.6364	0.	43.818
11665	23.08	5.5455	0.	48.65
11666	23.08	5.6364	5.e-002	3.9668
11667	23.356	5.6364	0.	45.976
11668	23.264	5.5455	0.	51.398
11669	23.264	5.6364	5.e-002	3.9946
11670	23.54	5.6364	0.	49.097
11671	23.448	5.5455	0.	54.961
11672	23.448	5.6364	5.e-002	4.0419
11673	23.724	5.6364	0.	54.214
11674	23.632	5.5455	0.	59.994
11675	23.632	5.6364	5.e-002	4.1492
11676	23.816	5.5455	0.	67.473
11677	23.816	5.6364	5.e-002	4.5304
11678	23.908	5.6364	0.	60.45
11679	4.0426	5.4545	0.	429.01
11680	3.9506	5.3636	0.	724.66
11681	3.9506	5.4545	5.e-002	73.024
11682	3.8586	5.4545	0.	438.3
11683	4.2265	5.4545	0.	279.67
11684	4.1345	5.3636	0.	439.18
11685	4.1345	5.4545	5.e-002	58.712
11686	4.4105	5.4545	0.	228.61
11687	4.3185	5.3636	0.	323.07
11688	4.3185	5.4545	5.e-002	52.97
11689	4.5944	5.4545	0.	203.42
11690	4.5024	5.3636	0.	262.53
11691	4.5024	5.4545	5.e-002	45.885
11692	4.7783	5.4545	0.	183.73
11693	4.6864	5.3636	0.	222.8
11694	4.6864	5.4545	5.e-002	38.466
11695	4.9623	5.4545	0.	163.72
11696	4.8703	5.3636	0.	190.91
11697	4.8703	5.4545	5.e-002	31.376
11698	5.1462	5.4545	0.	142.43
11699	5.0542	5.3636	0.	162.02
11700	5.0542	5.4545	5.e-002	24.999
11701	5.3302	5.4545	0.	120.52
11702	5.2382	5.3636	0.	134.88
11703	5.2382	5.4545	5.e-002	19.477
11704	5.5141	5.4545	0.	99.007
11705	5.4221	5.3636	0.	109.46
11706	5.4221	5.4545	5.e-002	14.818
11707	5.698	5.4545	0.	78.724
11708	5.6061	5.3636	0.	86.082
11709	5.6061	5.4545	5.e-002	10.964
11710	5.882	5.4545	0.	60.249
11711	5.79	5.3636	0.	65.061
11712	5.79	5.4545	5.e-002	7.836
11713	6.0659	5.4545	0.	43.899
11714	5.9739	5.3636	0.	46.574
11715	5.9739	5.4545	5.e-002	5.3614
11716	6.2498	5.4545	0.	29.793
11717	6.1579	5.3636	0.	30.673
11718	6.1579	5.4545	5.e-002	3.5138
11719	6.4338	5.4545	0.	17.92
11720	6.3418	5.3636	0.	17.332
11721	6.3418	5.4545	5.e-002	2.3787
11722	6.6177	5.4545	0.	8.2438
11723	6.5258	5.3636	0.	6.6651
11724	6.5258	5.4545	5.e-002	2.1144
11725	6.8017	5.4545	0.	1.6119
11726	6.7097	5.3636	0.	1.0938
11727	6.7097	5.4545	5.e-002	2.4823
11728	6.9856	5.4545	0.	0.338
11729	6.8936	5.3636	0.	0.34556
11730	6.8936	5.4545	5.e-002	3.0252
11731	7.1695	5.4545	0.	0.16428
11732	7.0776	5.3636	0.	0.18328
11733	7.0776	5.4545	5.e-002	3.5394
11734	7.3535	5.4545	0.	0.10435
11735	7.2615	5.3636	0.	0.11827
11736	7.2615	5.4545	5.e-002	3.9741
11737	7.5374	5.4545	0.	7.4849e-002
11738	7.4455	5.3636	0.	8.4523e-002
11739	7.4455	5.4545	5.e-002	4.3251
11740	7.7214	5.4545	0.	5.7472e-002
11741	7.6294	5.3636	0.	6.4286e-002
11742	7.6294	5.4545	5.e-002	4.6014
11743	7.9053	5.4545	0.	4.6042e-002
11744	7.8133	5.3636	0.	5.0949e-002
11745	7.8133	5.4545	5.e-002	4.8148
11746	8.0892	5.4545	0.	3.7933e-002
11747	7.9973	5.3636	0.	4.1558e-002
11748	7.9973	5.4545	5.e-002	4.9765
11749	8.2732	5.4545	0.	3.1854e-002
11750	8.1812	5.3636	0.	3.4599e-002
11751	8.1812	5.4545	5.e-002	5.0966
11752	8.4571	5.4545	0.	2.7108e-002
11753	8.3652	5.3636	0.	2.9238e-002
11754	8.3652	5.4545	5.e-002	5.1834
11755	8.6411	5.4545	0.	2.3289e-002
11756	8.5491	5.3636	0.	2.4985e-002
11757	8.5491	5.4545	5.e-002	5.2439
11758	8.825	5.4545	0.	2.0142e-002
11759	8.733	5.3636	0.	2.1533e-002
11760	8.733	5.4545	5.e-002	5.2837
11761	9.0089	5.4545	0.	1.7497e-002
11762	8.917	5.3636	0.	1.8674e-002
11763	8.917	5.4545	5.e-002	5.3073
11764	9.1929	5.4545	0.	1.5245e-002
11765	9.1009	5.3636	0.	1.6269e-002
11766	9.1009	5.4545	5.e-002	5.3183
11767	9.3768	5.4545	0.	1.3308e-002
11768	9.2848	5.3636	0.	1.4229e-002
11769	9.2848	5.4545	5.e-002	5.3197
11770	9.5608	5.4545	0.	1.1625e-002
11771	9.4688	5.3636	0.	1.2482e-002
11772	9.4688	5.4545	5.e-002	5.3137
11773	9.7447	5.4545	0.	1.0157e-002
11774	9.6527	5.3636	0.	1.0969e-002
11775	9.6527	5.4545	5.e-002	5.3021
11776	9.9286	5.4545	0.	8.8808e-003
11777	9.8367	5.3636	0.	9.6736e-003
11778	9.8367	5.4545	5.e-002	5.2863
11779	10.113	5.4545	0.	7.749e-003
11780	10.021	5.3636	0.	8.5604e-003
11781	10.021	5.4545	5.e-002	5.2674
11782	10.297	5.4545	0.	6.7463e-003
11783	10.205	5.3636	0.	7.5711e-003
11784	10.205	5.4545	5.e-002	5.2463
11785	10.48	5.4545	0.	5.886e-003
11786	10.388	5.3636	0.	6.7339e-003
11787	10.388	5.4545	5.e-002	5.2236
11788	10.664	5.4545	0.	5.1684e-003
11789	10.572	5.3636	0.	6.0499e-003
11790	10.572	5.4545	5.e-002	5.1997
11791	10.848	5.4545	0.	4.674e-003
11792	10.756	5.3636	0.	5.5147e-003
11793	10.756	5.4545	5.e-002	5.1752
11794	11.032	5.4545	0.	4.77e-003
11795	10.94	5.3636	0.	5.2456e-003
11796	10.94	5.4545	5.e-002	5.1502
11797	11.216	5.4545	0.	1.3608e-002
11798	11.124	5.3636	0.	5.4579e-003
11799	11.124	5.4545	5.e-002	5.1251
11800	11.4	5.4545	0.	0.86671
11801	11.308	5.3636	0.	7.0961e-003
11802	11.308	5.4545	5.e-002	5.1
11803	11.584	5.4545	0.	1.8515
11804	11.492	5.3636	0.	3.0349e-002
11805	11.492	5.4545	5.e-002	5.0749
11806	11.768	5.4545	0.	2.7855
11807	11.676	5.3636	0.	0.89438
11808	11.676	5.4545	5.e-002	5.0501
11809	11.952	5.4545	0.	3.67
11810	11.86	5.3636	0.	1.9059
11811	11.86	5.4545	5.e-002	5.0255
11812	12.136	5.4545	0.	4.5075
11813	12.044	5.3636	0.	2.8637
11814	12.044	5.4545	5.e-002	5.0012
11815	12.32	5.4545	0.	5.3005
11816	12.228	5.3636	0.	3.769
11817	12.228	5.4545	5.e-002	4.9771
11818	12.504	5.4545	0.	6.0518
11819	12.412	5.3636	0.	4.6247
11820	12.412	5.4545	5.e-002	4.9532
11821	12.688	5.4545	0.	6.7642
11822	12.596	5.3636	0.	5.4338
11823	12.596	5.4545	5.e-002	4.9297
11824	12.872	5.4545	0.	7.4405
11825	12.78	5.3636	0.	6.1996
11826	12.78	5.4545	5.e-002	4.9065
11827	13.056	5.4545	0.	8.0833
11828	12.964	5.3636	0.	6.9253
11829	12.964	5.4545	5.e-002	4.8835
11830	13.24	5.4545	0.	8.6956
11831	13.148	5.3636	0.	7.6142
11832	13.148	5.4545	5.e-002	4.8608
11833	13.423	5.4545	0.	9.2797
11834	13.332	5.3636	0.	8.2692
11835	13.332	5.4545	5.e-002	4.8384
11836	13.607	5.4545	0.	9.8384
11837	13.515	5.3636	0.	8.8933
11838	13.515	5.4545	5.e-002	4.8163
11839	13.791	5.4545	0.	10.374
11840	13.699	5.3636	0.	9.4895
11841	13.699	5.4545	5.e-002	4.7944
11842	13.975	5.4545	0.	10.889
11843	13.883	5.3636	0.	10.061
11844	13.883	5.4545	5.e-002	4.7728
11845	14.159	5.4545	0.	11.386
11846	14.067	5.3636	0.	10.609
11847	14.067	5.4545	5.e-002	4.7514
11848	14.343	5.4545	0.	11.867
11849	14.251	5.3636	0.	11.137
11850	14.251	5.4545	5.e-002	4.7303
11851	14.527	5.4545	0.	12.333
11852	14.435	5.3636	0.	11.649
11853	14.435	5.4545	5.e-002	4.7093
11854	14.711	5.4545	0.	12.788
11855	14.619	5.3636	0.	12.145
11856	14.619	5.4545	5.e-002	4.6885
11857	14.895	5.4545	0.	13.233
11858	14.803	5.3636	0.	12.628
11859	14.803	5.4545	5.e-002	4.6679
11860	15.079	5.4545	0.	13.67
11861	14.987	5.3636	0.	13.101
11862	14.987	5.4545	5.e-002	4.6474
11863	15.263	5.4545	0.	14.101
11864	15.171	5.3636	0.	13.565
11865	15.171	5.4545	5.e-002	4.6272
11866	15.447	5.4545	0.	14.528
11867	15.355	5.3636	0.	14.023
11868	15.355	5.4545	5.e-002	4.6071
11869	15.631	5.4545	0.	14.952
11870	15.539	5.3636	0.	14.477
11871	15.539	5.4545	5.e-002	4.5873
11872	15.815	5.4545	0.	15.376
11873	15.723	5.3636	0.	14.929
11874	15.723	5.4545	5.e-002	4.5676
11875	15.999	5.4545	0.	15.8
11876	15.907	5.3636	0.	15.38
11877	15.907	5.4545	5.e-002	4.5481
11878	16.183	5.4545	0.	16.227
11879	16.091	5.3636	0.	15.833
11880	16.091	5.4545	5.e-002	4.5288
11881	16.367	5.4545	0.	16.658
11882	16.275	5.3636	0.	16.289
11883	16.275	5.4545	5.e-002	4.5096
11884	16.55	5.4545	0.	17.095
11885	16.458	5.3636	0.	16.751
11886	16.458	5.4545	5.e-002	4.4906
11887	16.734	5.4545	0.	17.539
11888	16.642	5.3636	0.	17.22
11889	16.642	5.4545	5.e-002	4.4719
11890	16.918	5.4545	0.	17.993
11891	16.826	5.3636	0.	17.699
11892	16.826	5.4545	5.e-002	4.4532
11893	17.102	5.4545	0.	18.457
11894	17.01	5.3636	0.	18.188
11895	17.01	5.4545	5.e-002	4.4348
11896	17.286	5.4545	0.	18.934
11897	17.194	5.3636	0.	18.691
11898	17.194	5.4545	5.e-002	4.4166
11899	17.47	5.4545	0.	19.425
11900	17.378	5.3636	0.	19.208
11901	17.378	5.4545	5.e-002	4.3987
11902	17.654	5.4545	0.	19.932
11903	17.562	5.3636	0.	19.742
11904	17.562	5.4545	5.e-002	4.3809
11905	17.838	5.4545	0.	20.456
11906	17.746	5.3636	0.	20.296
11907	17.746	5.4545	5.e-002	4.3634
11908	18.022	5.4545	0.	20.999
11909	17.93	5.3636	0.	20.87
11910	17.93	5.4545	5.e-002	4.3462
11911	18.206	5.4545	0.	21.563
11912	18.114	5.3636	0.	21.467
11913	18.114	5.4545	5.e-002	4.3293
11914	18.39	5.4545	0.	22.15
11915	18.298	5.3636	0.	22.09
11916	18.298	5.4545	5.e-002	4.3127
11917	18.574	5.4545	0.	22.762
11918	18.482	5.3636	0.	22.74
11919	18.482	5.4545	5.e-002	4.2963
11920	18.758	5.4545	0.	23.399
11921	18.666	5.3636	0.	23.42
11922	18.666	5.4545	5.e-002	4.2803
11923	18.942	5.4545	0.	24.066
11924	18.85	5.3636	0.	24.131
11925	18.85	5.4545	5.e-002	4.2646
11926	19.126	5.4545	0.	24.762
11927	19.034	5.3636	0.	24.878
11928	19.034	5.4545	5.e-002	4.2493
11929	19.31	5.4545	0.	25.491
11930	19.218	5.3636	0.	25.661
11931	19.218	5.4545	5.e-002	4.2344
11932	19.493	5.4545	0.	26.255
11933	19.402	5.3636	0.	26.485
11934	19.402	5.4545	5.e-002	4.22
11935	19.677	5.4545	0.	27.055
11936	19.585	5.3636	0.	27.35
11937	19.585	5.4545	5.e-002	4.2061
11938	19.861	5.4545	0.	27.894
11939	19.769	5.3636	0.	28.262
11940	19.769	5.4545	5.e-002	4.1926
11941	20.045	5.4545	0.	28.774
11942	19.953	5.3636	0.	29.222
11943	19.953	5.4545	5.e-002	4.1797
11944	20.229	5.4545	0.	29.698
11945	20.137	5.3636	0.	30.234
11946	20.137	5.4545	5.e-002	4.1674
11947	20.413	5.4545	0.	30.668
11948	20.321	5.3636	0.	31.301
11949	20.321	5.4545	5.e-002	4.1556
11950	20.597	5.4545	0.	31.688
11951	20.505	5.3636	0.	32.428
11952	20.505	5.4545	5.e-002	4.1446
11953	20.781	5.4545	0.	32.76
11954	20.689	5.3636	0.	33.619
11955	20.689	5.4545	5.e-002	4.1342
11956	20.965	5.4545	0.	33.889
11957	20.873	5.3636	0.	34.879
11958	20.873	5.4545	5.e-002	4.1245
11959	21.149	5.4545	0.	35.079
11960	21.057	5.3636	0.	36.214
11961	21.057	5.4545	5.e-002	4.1156
11962	21.333	5.4545	0.	36.336
11963	21.241	5.3636	0.	37.631
11964	21.241	5.4545	5.e-002	4.1076
11965	21.517	5.4545	0.	37.666
11966	21.425	5.3636	0.	39.138
11967	21.425	5.4545	5.e-002	4.1005
11968	21.701	5.4545	0.	39.077
11969	21.609	5.3636	0.	40.746
11970	21.609	5.4545	5.e-002	4.0944
11971	21.885	5.4545	0.	40.583
11972	21.793	5.3636	0.	42.469
11973	21.793	5.4545	5.e-002	4.0893
11974	22.069	5.4545	0.	42.196
11975	21.977	5.3636	0.	44.323
11976	21.977	5.4545	5.e-002	4.0854
11977	22.253	5.4545	0.	43.941
11978	22.161	5.3636	0.	46.332
11979	22.161	5.4545	5.e-002	4.0829
11980	22.437	5.4545	0.	45.847
11981	22.345	5.3636	0.	48.528
11982	22.345	5.4545	5.e-002	4.082
11983	22.62	5.4545	0.	47.959
11984	22.528	5.3636	0.	50.957
11985	22.528	5.4545	5.e-002	4.0832
11986	22.804	5.4545	0.	50.348
11987	22.712	5.3636	0.	53.683
11988	22.712	5.4545	5.e-002	4.0872
11989	22.988	5.4545	0.	53.12
11990	22.896	5.3636	0.	56.801
11991	22.896	5.4545	5.e-002	4.0954
11992	23.172	5.4545	0.	56.45
11993	23.08	5.3636	0.	60.451
11994	23.08	5.4545	5.e-002	4.1101
11995	23.356	5.4545	0.	60.611
11996	23.264	5.3636	0.	64.847
11997	23.264	5.4545	5.e-002	4.1367
11998	23.54	5.4545	0.	66.061
11999	23.448	5.3636	0.	70.286
12000	23.448	5.4545	5.e-002	4.1857
12001	23.724	5.4545	0.	73.397
12002	23.632	5.3636	0.	77.244
12003	23.632	5.4545	5.e-002	4.2839
12004	23.816	5.3636	0.	86.116
12005	23.816	5.4545	5.e-002	4.5847
12006	23.908	5.4545	0.	81.202
12007	4.0426	5.2727	0.	689.56
12008	3.9506	5.1818	0.	1056.7
12009	3.9506	5.2727	5.e-002	82.192
12010	3.8586	5.2727	0.	686.56
12011	4.2265	5.2727	0.	455.06
12012	4.1345	5.1818	0.	672.06
12013	4.1345	5.2727	5.e-002	62.151
12014	4.4105	5.2727	0.	341.8
12015	4.3185	5.1818	0.	478.27
12016	4.3185	5.2727	5.e-002	54.818
12017	4.5944	5.2727	0.	273.38
12018	4.5024	5.1818	0.	357.7
12019	4.5024	5.2727	5.e-002	46.417
12020	4.7783	5.2727	0.	225.02
12021	4.6864	5.1818	0.	276.19
12022	4.6864	5.2727	5.e-002	38.101
12023	4.9623	5.2727	0.	186.26
12024	4.8703	5.1818	0.	216.9
12025	4.8703	5.2727	5.e-002	30.553
12026	5.1462	5.2727	0.	152.7
12027	5.0542	5.1818	0.	170.64
12028	5.0542	5.2727	5.e-002	24.055
12029	5.3302	5.2727	0.	122.75
12030	5.2382	5.1818	0.	132.71
12031	5.2382	5.2727	5.e-002	18.632
12032	5.5141	5.2727	0.	95.911
12033	5.4221	5.1818	0.	100.75
12034	5.4221	5.2727	5.e-002	14.195
12035	5.698	5.2727	0.	72.074
12036	5.6061	5.1818	0.	73.52
12037	5.6061	5.2727	5.e-002	10.629
12038	5.882	5.2727	0.	51.218
12039	5.79	5.1818	0.	50.344
12040	5.79	5.2727	5.e-002	7.8271
12041	6.0659	5.2727	0.	33.303
12042	5.9739	5.1818	0.	30.831
12043	5.9739	5.2727	5.e-002	5.7178
12044	6.2498	5.2727	0.	18.288
12045	6.1579	5.1818	0.	14.874
12046	6.1579	5.2727	5.e-002	4.2738
12047	6.4338	5.2727	0.	6.5043
12048	6.3418	5.1818	0.	3.9309
12049	6.3418	5.2727	5.e-002	3.4928
12050	6.6177	5.2727	0.	1.1901
12051	6.5258	5.1818	0.	0.97504
12052	6.5258	5.2727	5.e-002	3.2945
12053	6.8017	5.2727	0.	0.4225
12054	6.7097	5.1818	0.	0.43379
12055	6.7097	5.2727	5.e-002	3.4618
12056	6.9856	5.2727	0.	0.22638
12057	6.8936	5.1818	0.	0.24853
12058	6.8936	5.2727	5.e-002	3.7745
12059	7.1695	5.2727	0.	0.14437
12060	7.0776	5.1818	0.	0.16161
12061	7.0776	5.2727	5.e-002	4.1071
12062	7.3535	5.2727	0.	0.10143
12063	7.2615	5.1818	0.	0.11356
12064	7.2615	5.2727	5.e-002	4.4074
12065	7.5374	5.2727	0.	7.5834e-002
12066	7.4455	5.1818	0.	8.4143e-002
12067	7.4455	5.2727	5.e-002	4.6594
12068	7.7214	5.2727	0.	5.9182e-002
12069	7.6294	5.1818	0.	6.4787e-002
12070	7.6294	5.2727	5.e-002	4.862
12071	7.9053	5.2727	0.	4.7642e-002
12072	7.8133	5.1818	0.	5.1351e-002
12073	7.8133	5.2727	5.e-002	5.02
12074	8.0892	5.2727	0.	3.9246e-002
12075	7.9973	5.1818	0.	4.1634e-002
12076	7.9973	5.2727	5.e-002	5.1398
12077	8.2732	5.2727	0.	3.2895e-002
12078	8.1812	5.1818	0.	3.436e-002
12079	8.1812	5.2727	5.e-002	5.228
12080	8.4571	5.2727	0.	2.7941e-002
12081	8.3652	5.1818	0.	2.8763e-002
12082	8.3652	5.2727	5.e-002	5.2903
12083	8.6411	5.2727	0.	2.3982e-002
12084	8.5491	5.1818	0.	2.4363e-002
12085	8.5491	5.2727	5.e-002	5.3321
12086	8.825	5.2727	0.	2.0754e-002
12087	8.733	5.1818	0.	2.0839e-002
12088	8.733	5.2727	5.e-002	5.3573
12089	9.0089	5.2727	0.	1.8077e-002
12090	8.917	5.1818	0.	1.7971e-002
12091	8.917	5.2727	5.e-002	5.3698
12092	9.1929	5.2727	0.	1.5828e-002
12093	9.1009	5.1818	0.	1.5607e-002
12094	9.1009	5.2727	5.e-002	5.3722
12095	9.3768	5.2727	0.	1.3924e-002
12096	9.2848	5.1818	0.	1.3641e-002
12097	9.2848	5.2727	5.e-002	5.3669
12098	9.5608	5.2727	0.	1.2296e-002
12099	9.4688	5.1818	0.	1.1997e-002
12100	9.4688	5.2727	5.e-002	5.3557
12101	9.7447	5.2727	0.	1.0903e-002
12102	9.6527	5.1818	0.	1.0604e-002
12103	9.6527	5.2727	5.e-002	5.34
12104	9.9286	5.2727	0.	9.7158e-003
12105	9.8367	5.1818	0.	9.4415e-003
12106	9.8367	5.2727	5.e-002	5.321
12107	10.113	5.2727	0.	8.6865e-003
12108	10.021	5.1818	0.	8.4685e-003
12109	10.021	5.2727	5.e-002	5.2996
12110	10.297	5.2727	0.	7.7971e-003
12111	10.205	5.1818	0.	7.6217e-003
12112	10.205	5.2727	5.e-002	5.2766
12113	10.48	5.2727	0.	7.059e-003
12114	10.388	5.1818	0.	6.9234e-003
12115	10.388	5.2727	5.e-002	5.2523
12116	10.664	5.2727	0.	6.4616e-003
12117	10.572	5.1818	0.	6.3667e-003
12118	10.572	5.2727	5.e-002	5.2273
12119	10.848	5.2727	0.	6.0353e-003
12120	10.756	5.1818	0.	5.9278e-003
12121	10.756	5.2727	5.e-002	5.2018
12122	11.032	5.2727	0.	5.8602e-003
12123	10.94	5.1818	0.	5.6726e-003
12124	10.94	5.2727	5.e-002	5.176
12125	11.216	5.2727	0.	6.0608e-003
12126	11.124	5.1818	0.	5.6463e-003
12127	11.124	5.2727	5.e-002	5.1502
12128	11.4	5.2727	0.	7.0786e-003
12129	11.308	5.1818	0.	5.9175e-003
12130	11.308	5.2727	5.e-002	5.1245
12131	11.584	5.2727	0.	1.1279e-002
12132	11.492	5.1818	0.	6.7831e-003
12133	11.492	5.2727	5.e-002	5.099
12134	11.768	5.2727	0.	0.11657
12135	11.676	5.1818	0.	9.3301e-003
12136	11.676	5.2727	5.e-002	5.0737
12137	11.952	5.2727	0.	1.1257
12138	11.86	5.1818	0.	2.1291e-002
12139	11.86	5.2727	5.e-002	5.0488
12140	12.136	5.2727	0.	2.1489
12141	12.044	5.1818	0.	0.49008
12142	12.044	5.2727	5.e-002	5.0242
12143	12.32	5.2727	0.	3.1165
12144	12.228	5.1818	0.	1.5569
12145	12.228	5.2727	5.e-002	4.9998
12146	12.504	5.2727	0.	4.0301
12147	12.412	5.1818	0.	2.5763
12148	12.412	5.2727	5.e-002	4.9757
12149	12.688	5.2727	0.	4.8929
12150	12.596	5.1818	0.	3.5386
12151	12.596	5.2727	5.e-002	4.952
12152	12.872	5.2727	0.	5.7085
12153	12.78	5.1818	0.	4.4466
12154	12.78	5.2727	5.e-002	4.9285
12155	13.056	5.2727	0.	6.4806
12156	12.964	5.1818	0.	5.3042
12157	12.964	5.2727	5.e-002	4.9053
12158	13.24	5.2727	0.	7.2126
12159	13.148	5.1818	0.	6.1153
12160	13.148	5.2727	5.e-002	4.8825
12161	13.423	5.2727	0.	7.908
12162	13.332	5.1818	0.	6.8837
12163	13.332	5.2727	5.e-002	4.8599
12164	13.607	5.2727	0.	8.57
12165	13.515	5.1818	0.	7.6131
12166	13.515	5.2727	5.e-002	4.8376
12167	13.791	5.2727	0.	9.2019
12168	13.699	5.1818	0.	8.3072
12169	13.699	5.2727	5.e-002	4.8156
12170	13.975	5.2727	0.	9.8066
12171	13.883	5.1818	0.	8.9695
12172	13.883	5.2727	5.e-002	4.7939
12173	14.159	5.2727	0.	10.387
12174	14.067	5.1818	0.	9.6031
12175	14.067	5.2727	5.e-002	4.7723
12176	14.343	5.2727	0.	10.947
12177	14.251	5.1818	0.	10.211
12178	14.251	5.2727	5.e-002	4.751
12179	14.527	5.2727	0.	11.487
12180	14.435	5.1818	0.	10.798
12181	14.435	5.2727	5.e-002	4.7299
12182	14.711	5.2727	0.	12.012
12183	14.619	5.1818	0.	11.364
12184	14.619	5.2727	5.e-002	4.709
12185	14.895	5.2727	0.	12.524
12186	14.803	5.1818	0.	11.915
12187	14.803	5.2727	5.e-002	4.6882
12188	15.079	5.2727	0.	13.024
12189	14.987	5.1818	0.	12.452
12190	14.987	5.2727	5.e-002	4.6677
12191	15.263	5.2727	0.	13.516
12192	15.171	5.1818	0.	12.977
12193	15.171	5.2727	5.e-002	4.6473
12194	15.447	5.2727	0.	14.002
12195	15.355	5.1818	0.	13.495
12196	15.355	5.2727	5.e-002	4.6272
12197	15.631	5.2727	0.	14.484
12198	15.539	5.1818	0.	14.006
12199	15.539	5.2727	5.e-002	4.6072
12200	15.815	5.2727	0.	14.964
12201	15.723	5.1818	0.	14.514
12202	15.723	5.2727	5.e-002	4.5874
12203	15.999	5.2727	0.	15.444
12204	15.907	5.1818	0.	15.021
12205	15.907	5.2727	5.e-002	4.5678
12206	16.183	5.2727	0.	15.927
12207	16.091	5.1818	0.	15.53
12208	16.091	5.2727	5.e-002	4.5484
12209	16.367	5.2727	0.	16.415
12210	16.275	5.1818	0.	16.042
12211	16.275	5.2727	5.e-002	4.5291
12212	16.55	5.2727	0.	16.909
12213	16.458	5.1818	0.	16.561
12214	16.458	5.2727	5.e-002	4.5101
12215	16.734	5.2727	0.	17.413
12216	16.642	5.1818	0.	17.088
12217	16.642	5.2727	5.e-002	4.4912
12218	16.918	5.2727	0.	17.928
12219	16.826	5.1818	0.	17.627
12220	16.826	5.2727	5.e-002	4.4725
12221	17.102	5.2727	0.	18.456
12222	17.01	5.1818	0.	18.178
12223	17.01	5.2727	5.e-002	4.454
12224	17.286	5.2727	0.	19.
12225	17.194	5.1818	0.	18.746
12226	17.194	5.2727	5.e-002	4.4357
12227	17.47	5.2727	0.	19.561
12228	17.378	5.1818	0.	19.332
12229	17.378	5.2727	5.e-002	4.4177
12230	17.654	5.2727	0.	20.143
12231	17.562	5.1818	0.	19.939
12232	17.562	5.2727	5.e-002	4.3998
12233	17.838	5.2727	0.	20.747
12234	17.746	5.1818	0.	20.57
12235	17.746	5.2727	5.e-002	4.3823
12236	18.022	5.2727	0.	21.376
12237	17.93	5.1818	0.	21.227
12238	17.93	5.2727	5.e-002	4.365
12239	18.206	5.2727	0.	22.033
12240	18.114	5.1818	0.	21.913
12241	18.114	5.2727	5.e-002	4.348
12242	18.39	5.2727	0.	22.719
12243	18.298	5.1818	0.	22.632
12244	18.298	5.2727	5.e-002	4.3313
12245	18.574	5.2727	0.	23.439
12246	18.482	5.1818	0.	23.386
12247	18.482	5.2727	5.e-002	4.3149
12248	18.758	5.2727	0.	24.193
12249	18.666	5.1818	0.	24.178
12250	18.666	5.2727	5.e-002	4.2988
12251	18.942	5.2727	0.	24.986
12252	18.85	5.1818	0.	25.011
12253	18.85	5.2727	5.e-002	4.2831
12254	19.126	5.2727	0.	25.821
12255	19.034	5.1818	0.	25.89
12256	19.034	5.2727	5.e-002	4.2677
12257	19.31	5.2727	0.	26.7
12258	19.218	5.1818	0.	26.818
12259	19.218	5.2727	5.e-002	4.2528
12260	19.493	5.2727	0.	27.627
12261	19.402	5.1818	0.	27.798
12262	19.402	5.2727	5.e-002	4.2384
12263	19.677	5.2727	0.	28.606
12264	19.585	5.1818	0.	28.836
12265	19.585	5.2727	5.e-002	4.2244
12266	19.861	5.2727	0.	29.64
12267	19.769	5.1818	0.	29.935
12268	19.769	5.2727	5.e-002	4.2109
12269	20.045	5.2727	0.	30.733
12270	19.953	5.1818	0.	31.1
12271	19.953	5.2727	5.e-002	4.198
12272	20.229	5.2727	0.	31.891
12273	20.137	5.1818	0.	32.336
12274	20.137	5.2727	5.e-002	4.1858
12275	20.413	5.2727	0.	33.118
12276	20.321	5.1818	0.	33.649
12277	20.321	5.2727	5.e-002	4.1741
12278	20.597	5.2727	0.	34.419
12279	20.505	5.1818	0.	35.046
12280	20.505	5.2727	5.e-002	4.1631
12281	20.781	5.2727	0.	35.8
12282	20.689	5.1818	0.	36.533
12283	20.689	5.2727	5.e-002	4.1528
12284	20.965	5.2727	0.	37.27
12285	20.873	5.1818	0.	38.118
12286	20.873	5.2727	5.e-002	4.1434
12287	21.149	5.2727	0.	38.835
12288	21.057	5.1818	0.	39.812
12289	21.057	5.2727	5.e-002	4.1348
12290	21.333	5.2727	0.	40.506
12291	21.241	5.1818	0.	41.624
12292	21.241	5.2727	5.e-002	4.1271
12293	21.517	5.2727	0.	42.296
12294	21.425	5.1818	0.	43.568
12295	21.425	5.2727	5.e-002	4.1205
12296	21.701	5.2727	0.	44.22
12297	21.609	5.1818	0.	45.66
12298	21.609	5.2727	5.e-002	4.1149
12299	21.885	5.2727	0.	46.297
12300	21.793	5.1818	0.	47.92
12301	21.793	5.2727	5.e-002	4.1107
12302	22.069	5.2727	0.	48.553
12303	21.977	5.1818	0.	50.374
12304	21.977	5.2727	5.e-002	4.1079
12305	22.253	5.2727	0.	51.022
12306	22.161	5.1818	0.	53.055
12307	22.161	5.2727	5.e-002	4.1069
12308	22.437	5.2727	0.	53.749
12309	22.345	5.1818	0.	56.005
12310	22.345	5.2727	5.e-002	4.1079
12311	22.62	5.2727	0.	56.8
12312	22.528	5.1818	0.	59.283
12313	22.528	5.2727	5.e-002	4.1117
12314	22.804	5.2727	0.	60.262
12315	22.712	5.1818	0.	62.966
12316	22.712	5.2727	5.e-002	4.1192
12317	22.988	5.2727	0.	64.262
12318	22.896	5.1818	0.	67.158
12319	22.896	5.2727	5.e-002	4.132
12320	23.172	5.2727	0.	68.976
12321	23.08	5.1818	0.	72.001
12322	23.08	5.2727	5.e-002	4.1529
12323	23.356	5.2727	0.	74.638
12324	23.264	5.1818	0.	77.68
12325	23.264	5.2727	5.e-002	4.1868
12326	23.54	5.2727	0.	81.558
12327	23.448	5.1818	0.	84.406
12328	23.448	5.2727	5.e-002	4.2416
12329	23.724	5.2727	0.	90.027
12330	23.632	5.1818	0.	92.473
12331	23.632	5.2727	5.e-002	4.3358
12332	23.816	5.1818	0.	101.99
12333	23.816	5.2727	5.e-002	4.5881
12334	23.908	5.2727	0.	98.588
12335	4.0426	5.0909	0.	992.12
12336	3.9506	5.	0.	1444.5
12337	3.9506	5.0909	5.e-002	95.905
12338	3.8586	5.0909	0.	976.14
12339	4.2265	5.0909	0.	662.09
12340	4.1345	5.	0.	937.49
12341	4.1345	5.0909	5.e-002	68.181
12342	4.4105	5.0909	0.	473.43
12343	4.3185	5.	0.	649.71
12344	4.3185	5.0909	5.e-002	57.769
12345	4.5944	5.0909	0.	348.22
12346	4.5024	5.	0.	455.27
12347	4.5024	5.0909	5.e-002	47.094
12348	4.7783	5.0909	0.	260.92
12349	4.6864	5.	0.	322.1
12350	4.6864	5.0909	5.e-002	37.5
12351	4.9623	5.0909	0.	197.13
12352	4.8703	5.	0.	229.66
12353	4.8703	5.0909	5.e-002	29.473
12354	5.1462	5.0909	0.	148.24
12355	5.0542	5.	0.	163.4
12356	5.0542	5.0909	5.e-002	22.996
12357	5.3302	5.0909	0.	109.34
12358	5.2382	5.	0.	114.18
12359	5.2382	5.0909	5.e-002	17.847
12360	5.5141	5.0909	0.	77.622
12361	5.4221	5.	0.	76.432
12362	5.4221	5.0909	5.e-002	13.791
12363	5.698	5.0909	0.	51.46
12364	5.6061	5.	0.	46.874
12365	5.6061	5.0909	5.e-002	10.636
12366	5.882	5.0909	0.	29.958
12367	5.79	5.	0.	23.817
12368	5.79	5.0909	5.e-002	8.2412
12369	6.0659	5.0909	0.	12.983
12370	5.9739	5.	0.	7.9042
12371	5.9739	5.0909	5.e-002	6.5097
12372	6.2498	5.0909	0.	3.2275
12373	6.1579	5.	0.	2.1947
12374	6.1579	5.0909	5.e-002	5.3667
12375	6.4338	5.0909	0.	1.0298
12376	6.3418	5.	0.	0.9354
12377	6.3418	5.0909	5.e-002	4.7282
12378	6.6177	5.0909	0.	0.50053
12379	6.5258	5.	0.	0.50946
12380	6.5258	5.0909	5.e-002	4.4738
12381	6.8017	5.0909	0.	0.29419
12382	6.7097	5.	0.	0.31451
12383	6.7097	5.0909	5.e-002	4.4625
12384	6.9856	5.0909	0.	0.19185
12385	6.8936	5.	0.	0.20964
12386	6.8936	5.0909	5.e-002	4.5743
12387	7.1695	5.0909	0.	0.13374
12388	7.0776	5.	0.	0.14735
12389	7.0776	5.0909	5.e-002	4.7312
12390	7.3535	5.0909	0.	9.777e-002
12391	7.2615	5.	0.	0.10775
12392	7.2615	5.0909	5.e-002	4.8909
12393	7.5374	5.0909	0.	7.406e-002
12394	7.4455	5.	0.	8.1273e-002
12395	7.4455	5.0909	5.e-002	5.0337
12396	7.7214	5.0909	0.	5.7674e-002
12397	7.6294	5.	0.	6.2849e-002
12398	7.6294	5.0909	5.e-002	5.1525
12399	7.9053	5.0909	0.	4.5922e-002
12400	7.8133	5.	0.	4.9614e-002
12401	7.8133	5.0909	5.e-002	5.2461
12402	8.0892	5.0909	0.	3.7235e-002
12403	7.9973	5.	0.	3.9861e-002
12404	7.9973	5.0909	5.e-002	5.3164
12405	8.2732	5.0909	0.	3.065e-002
12406	8.1812	5.	0.	3.2507e-002
12407	8.1812	5.0909	5.e-002	5.3665
12408	8.4571	5.0909	0.	2.5554e-002
12409	8.3652	5.	0.	2.6858e-002
12410	8.3652	5.0909	5.e-002	5.3994
12411	8.6411	5.0909	0.	2.1545e-002
12412	8.5491	5.	0.	2.2452e-002
12413	8.5491	5.0909	5.e-002	5.4184
12414	8.825	5.0909	0.	1.8343e-002
12415	8.733	5.	0.	1.8972e-002
12416	8.733	5.0909	5.e-002	5.4261
12417	9.0089	5.0909	0.	1.5754e-002
12418	8.917	5.	0.	1.6187e-002
12419	8.917	5.0909	5.e-002	5.4248
12420	9.1929	5.0909	0.	1.364e-002
12421	9.1009	5.	0.	1.3938e-002
12422	9.1009	5.0909	5.e-002	5.4165
12423	9.3768	5.0909	0.	1.1905e-002
12424	9.2848	5.	0.	1.211e-002
12425	9.2848	5.0909	5.e-002	5.4029
12426	9.5608	5.0909	0.	1.0467e-002
12427	9.4688	5.	0.	1.0618e-002
12428	9.4688	5.0909	5.e-002	5.3851
12429	9.7447	5.0909	0.	9.278e-003
12430	9.6527	5.	0.	9.3879e-003
12431	9.6527	5.0909	5.e-002	5.3643
12432	9.9286	5.0909	0.	8.302e-003
12433	9.8367	5.	0.	8.3896e-003
12434	9.8367	5.0909	5.e-002	5.3413
12435	10.113	5.0909	0.	7.4843e-003
12436	10.021	5.	0.	7.58e-003
12437	10.021	5.0909	5.e-002	5.3167
12438	10.297	5.0909	0.	6.801e-003
12439	10.205	5.	0.	6.8912e-003
12440	10.205	5.0909	5.e-002	5.2911
12441	10.48	5.0909	0.	6.2558e-003
12442	10.388	5.	0.	6.3411e-003
12443	10.388	5.0909	5.e-002	5.2648
12444	10.664	5.0909	0.	5.8289e-003
12445	10.572	5.	0.	5.9156e-003
12446	10.572	5.0909	5.e-002	5.2382
12447	10.848	5.0909	0.	5.5333e-003
12448	10.756	5.	0.	5.5841e-003
12449	10.756	5.0909	5.e-002	5.2113
12450	11.032	5.0909	0.	5.4069e-003
12451	10.94	5.	0.	5.3962e-003
12452	10.94	5.0909	5.e-002	5.1845
12453	11.216	5.0909	0.	5.4668e-003
12454	11.124	5.	0.	5.3632e-003
12455	11.124	5.0909	5.e-002	5.1578
12456	11.4	5.0909	0.	5.779e-003
12457	11.308	5.	0.	5.4802e-003
12458	11.308	5.0909	5.e-002	5.1314
12459	11.584	5.0909	0.	6.5751e-003
12460	11.492	5.	0.	5.8183e-003
12461	11.492	5.0909	5.e-002	5.1053
12462	11.768	5.0909	0.	8.4842e-003
12463	11.676	5.	0.	6.5881e-003
12464	11.676	5.0909	5.e-002	5.0795
12465	11.952	5.0909	0.	1.4304e-002
12466	11.86	5.	0.	8.2111e-003
12467	11.86	5.0909	5.e-002	5.0541
12468	12.136	5.0909	0.	8.5572e-002
12469	12.044	5.	0.	1.2272e-002
12470	12.044	5.0909	5.e-002	5.0291
12471	12.32	5.0909	0.	1.0438
12472	12.228	5.	0.	3.326e-002
12473	12.228	5.0909	5.e-002	5.0044
12474	12.504	5.0909	0.	2.1086
12475	12.412	5.	0.	0.6509
12476	12.412	5.0909	5.e-002	4.9801
12477	12.688	5.0909	0.	3.1158
12478	12.596	5.	0.	1.7459
12479	12.596	5.0909	5.e-002	4.956
12480	12.872	5.0909	0.	4.066
12481	12.78	5.	0.	2.7887
12482	12.78	5.0909	5.e-002	4.9324
12483	13.056	5.0909	0.	4.9629
12484	12.964	5.	0.	3.7726
12485	12.964	5.0909	5.e-002	4.909
12486	13.24	5.0909	0.	5.8107
12487	13.148	5.	0.	4.7011
12488	13.148	5.0909	5.e-002	4.8859
12489	13.423	5.0909	0.	6.6136
12490	13.332	5.	0.	5.5784
12491	13.332	5.0909	5.e-002	4.8632
12492	13.607	5.0909	0.	7.3755
12493	13.515	5.	0.	6.4091
12494	13.515	5.0909	5.e-002	4.8408
12495	13.791	5.0909	0.	8.1004
12496	13.699	5.	0.	7.1973
12497	13.699	5.0909	5.e-002	4.8186
12498	13.975	5.0909	0.	8.792
12499	13.883	5.	0.	7.9474
12500	13.883	5.0909	5.e-002	4.7968
12501	14.159	5.0909	0.	9.4538
12502	14.067	5.	0.	8.663
12503	14.067	5.0909	5.e-002	4.7752
12504	14.343	5.0909	0.	10.089
12505	14.251	5.	0.	9.3482
12506	14.251	5.0909	5.e-002	4.7537
12507	14.527	5.0909	0.	10.702
12508	14.435	5.	0.	10.007
12509	14.435	5.0909	5.e-002	4.7325
12510	14.711	5.0909	0.	11.295
12511	14.619	5.	0.	10.642
12512	14.619	5.0909	5.e-002	4.7115
12513	14.895	5.0909	0.	11.871
12514	14.803	5.	0.	11.257
12515	14.803	5.0909	5.e-002	4.6908
12516	15.079	5.0909	0.	12.433
12517	14.987	5.	0.	11.856
12518	14.987	5.0909	5.e-002	4.6701
12519	15.263	5.0909	0.	12.985
12520	15.171	5.	0.	12.441
12521	15.171	5.0909	5.e-002	4.6497
12522	15.447	5.0909	0.	13.528
12523	15.355	5.	0.	13.016
12524	15.355	5.0909	5.e-002	4.6295
12525	15.631	5.0909	0.	14.067
12526	15.539	5.	0.	13.583
12527	15.539	5.0909	5.e-002	4.6095
12528	15.815	5.0909	0.	14.602
12529	15.723	5.	0.	14.147
12530	15.723	5.0909	5.e-002	4.5897
12531	15.999	5.0909	0.	15.138
12532	15.907	5.	0.	14.708
12533	15.907	5.0909	5.e-002	4.57
12534	16.183	5.0909	0.	15.677
12535	16.091	5.	0.	15.271
12536	16.091	5.0909	5.e-002	4.5506
12537	16.367	5.0909	0.	16.22
12538	16.275	5.	0.	15.839
12539	16.275	5.0909	5.e-002	4.5314
12540	16.55	5.0909	0.	16.772
12541	16.458	5.	0.	16.413
12542	16.458	5.0909	5.e-002	4.5123
12543	16.734	5.0909	0.	17.335
12544	16.642	5.	0.	16.997
12545	16.642	5.0909	5.e-002	4.4934
12546	16.918	5.0909	0.	17.91
12547	16.826	5.	0.	17.595
12548	16.826	5.0909	5.e-002	4.4747
12549	17.102	5.0909	0.	18.502
12550	17.01	5.	0.	18.208
12551	17.01	5.0909	5.e-002	4.4562
12552	17.286	5.0909	0.	19.113
12553	17.194	5.	0.	18.84
12554	17.194	5.0909	5.e-002	4.4379
12555	17.47	5.0909	0.	19.745
12556	17.378	5.	0.	19.494
12557	17.378	5.0909	5.e-002	4.42
12558	17.654	5.0909	0.	20.402
12559	17.562	5.	0.	20.173
12560	17.562	5.0909	5.e-002	4.4022
12561	17.838	5.0909	0.	21.086
12562	17.746	5.	0.	20.881
12563	17.746	5.0909	5.e-002	4.3847
12564	18.022	5.0909	0.	21.802
12565	17.93	5.	0.	21.621
12566	17.93	5.0909	5.e-002	4.3674
12567	18.206	5.0909	0.	22.551
12568	18.114	5.	0.	22.395
12569	18.114	5.0909	5.e-002	4.3505
12570	18.39	5.0909	0.	23.337
12571	18.298	5.	0.	23.209
12572	18.298	5.0909	5.e-002	4.3339
12573	18.574	5.0909	0.	24.165
12574	18.482	5.	0.	24.066
12575	18.482	5.0909	5.e-002	4.3175
12576	18.758	5.0909	0.	25.037
12577	18.666	5.	0.	24.97
12578	18.666	5.0909	5.e-002	4.3016
12579	18.942	5.0909	0.	25.957
12580	18.85	5.	0.	25.925
12581	18.85	5.0909	5.e-002	4.2859
12582	19.126	5.0909	0.	26.93
12583	19.034	5.	0.	26.936
12584	19.034	5.0909	5.e-002	4.2707
12585	19.31	5.0909	0.	27.961
12586	19.218	5.	0.	28.008
12587	19.218	5.0909	5.e-002	4.256
12588	19.493	5.0909	0.	29.053
12589	19.402	5.	0.	29.145
12590	19.402	5.0909	5.e-002	4.2417
12591	19.677	5.0909	0.	30.212
12592	19.585	5.	0.	30.354
12593	19.585	5.0909	5.e-002	4.2279
12594	19.861	5.0909	0.	31.443
12595	19.769	5.	0.	31.64
12596	19.769	5.0909	5.e-002	4.2146
12597	20.045	5.0909	0.	32.752
12598	19.953	5.	0.	33.009
12599	19.953	5.0909	5.e-002	4.202
12600	20.229	5.0909	0.	34.146
12601	20.137	5.	0.	34.47
12602	20.137	5.0909	5.e-002	4.19
12603	20.413	5.0909	0.	35.631
12604	20.321	5.	0.	36.028
12605	20.321	5.0909	5.e-002	4.1786
12606	20.597	5.0909	0.	37.215
12607	20.505	5.	0.	37.693
12608	20.505	5.0909	5.e-002	4.168
12609	20.781	5.0909	0.	38.909
12610	20.689	5.	0.	39.475
12611	20.689	5.0909	5.e-002	4.1582
12612	20.965	5.0909	0.	40.72
12613	20.873	5.	0.	41.384
12614	20.873	5.0909	5.e-002	4.1493
12615	21.149	5.0909	0.	42.663
12616	21.057	5.	0.	43.433
12617	21.057	5.0909	5.e-002	4.1413
12618	21.333	5.0909	0.	44.751
12619	21.241	5.	0.	45.636
12620	21.241	5.0909	5.e-002	4.1343
12621	21.517	5.0909	0.	47.
12622	21.425	5.	0.	48.011
12623	21.425	5.0909	5.e-002	4.1286
12624	21.701	5.0909	0.	49.432
12625	21.609	5.	0.	50.578
12626	21.609	5.0909	5.e-002	4.1241
12627	21.885	5.0909	0.	52.074
12628	21.793	5.	0.	53.362
12629	21.793	5.0909	5.e-002	4.1211
12630	22.069	5.0909	0.	54.956
12631	21.977	5.	0.	56.395
12632	21.977	5.0909	5.e-002	4.1199
12633	22.253	5.0909	0.	58.123
12634	22.161	5.	0.	59.715
12635	22.161	5.0909	5.e-002	4.1208
12636	22.437	5.0909	0.	61.627
12637	22.345	5.	0.	63.371
12638	22.345	5.0909	5.e-002	4.1242
12639	22.62	5.0909	0.	65.539
12640	22.528	5.	0.	67.424
12641	22.528	5.0909	5.e-002	4.131
12642	22.804	5.0909	0.	69.953
12643	22.712	5.	0.	71.953
12644	22.712	5.0909	5.e-002	4.1421
12645	22.988	5.0909	0.	74.985
12646	22.896	5.	0.	77.057
12647	22.896	5.0909	5.e-002	4.1594
12648	23.172	5.0909	0.	80.784
12649	23.08	5.	0.	82.854
12650	23.08	5.0909	5.e-002	4.1853
12651	23.356	5.0909	0.	87.515
12652	23.264	5.	0.	89.486
12653	23.264	5.0909	5.e-002	4.2239
12654	23.54	5.0909	0.	95.371
12655	23.448	5.	0.	97.081
12656	23.448	5.0909	5.e-002	4.2805
12657	23.724	5.0909	0.	104.47
12658	23.632	5.	0.	105.82
12659	23.632	5.0909	5.e-002	4.367
12660	23.816	5.	0.	115.68
12661	23.816	5.0909	5.e-002	4.5838
12662	23.908	5.0909	0.	113.48
12663	4.0426	4.9091	0.	1338.2
12664	3.9506	4.8182	0.	1907.9
12665	3.9506	4.9091	5.e-002	115.33
12666	3.8586	4.9091	0.	1321.3
12667	4.2265	4.9091	0.	887.49
12668	4.1345	4.8182	0.	1228.1
12669	4.1345	4.9091	5.e-002	77.221
12670	4.4105	4.9091	0.	606.89
12671	4.3185	4.8182	0.	816.4
12672	4.3185	4.9091	5.e-002	61.53
12673	4.5944	4.9091	0.	414.12
12674	4.5024	4.8182	0.	535.42
12675	4.5024	4.9091	5.e-002	47.497
12676	4.7783	4.9091	0.	282.04
12677	4.6864	4.8182	0.	346.44
12678	4.6864	4.9091	5.e-002	36.486
12679	4.9623	4.9091	0.	190.88
12680	4.8703	4.8182	0.	220.72
12681	4.8703	4.9091	5.e-002	28.235
12682	5.1462	4.9091	0.	126.51
12683	5.0542	4.8182	0.	136.19
12684	5.0542	4.9091	5.e-002	22.065
12685	5.3302	4.9091	0.	79.792
12686	5.2382	4.8182	0.	78.226
12687	5.2382	4.9091	5.e-002	17.402
12688	5.5141	4.9091	0.	45.168
12689	5.4221	4.8182	0.	38.104
12690	5.4221	4.9091	5.e-002	13.848
12691	5.698	4.9091	0.	19.97
12692	5.6061	4.8182	0.	12.967
12693	5.6061	4.9091	5.e-002	11.143
12694	5.882	4.9091	0.	5.8624
12695	5.79	4.8182	0.	3.9174
12696	5.79	4.9091	5.e-002	9.1173
12697	6.0659	4.9091	0.	2.0206
12698	5.9739	4.8182	0.	1.7131
12699	5.9739	4.9091	5.e-002	7.6504
12700	6.2498	4.9091	0.	0.9795
12701	6.1579	4.8182	0.	0.9349
12702	6.1579	4.9091	5.e-002	6.6438
12703	6.4338	4.9091	0.	0.56363
12704	6.3418	4.8182	0.	0.57147
12705	6.3418	4.9091	5.e-002	6.0037
12706	6.6177	4.9091	0.	0.35678
12707	6.5258	4.8182	0.	0.3741
12708	6.5258	4.9091	5.e-002	5.6361
12709	6.8017	4.9091	0.	0.24025
12710	6.7097	4.8182	0.	0.25672
12711	6.7097	4.9091	5.e-002	5.4536
12712	6.9856	4.9091	0.	0.16915
12713	6.8936	4.8182	0.	0.18251
12714	6.8936	4.9091	5.e-002	5.3848
12715	7.1695	4.9091	0.	0.12325
12716	7.0776	4.8182	0.	0.13345
12717	7.0776	4.9091	5.e-002	5.3784
12718	7.3535	4.9091	0.	9.2319e-002
12719	7.2615	4.8182	0.	9.9892e-002
12720	7.2615	4.9091	5.e-002	5.4014
12721	7.5374	4.9091	0.	7.0753e-002
12722	7.4455	4.8182	0.	7.6277e-002
12723	7.4455	4.9091	5.e-002	5.434
12724	7.7214	4.9091	0.	5.5289e-002
12725	7.6294	4.8182	0.	5.9263e-002
12726	7.6294	4.9091	5.e-002	5.4657
12727	7.9053	4.9091	0.	4.3941e-002
12728	7.8133	4.8182	0.	4.676e-002
12729	7.8133	4.9091	5.e-002	5.4912
12730	8.0892	4.9091	0.	3.5446e-002
12731	7.9973	4.8182	0.	3.7421e-002
12732	7.9973	4.9091	5.e-002	5.5084
12733	8.2732	4.9091	0.	2.8977e-002
12734	8.1812	4.8182	0.	3.0336e-002
12735	8.1812	4.9091	5.e-002	5.5171
12736	8.4571	4.9091	0.	2.3978e-002
12737	8.3652	4.8182	0.	2.489e-002
12738	8.3652	4.9091	5.e-002	5.518
12739	8.6411	4.9091	0.	2.0069e-002
12740	8.5491	4.8182	0.	2.066e-002
12741	8.5491	4.9091	5.e-002	5.5119
12742	8.825	4.9091	0.	1.6978e-002
12743	8.733	4.8182	0.	1.7345e-002
12744	8.733	4.9091	5.e-002	5.5001
12745	9.0089	4.9091	0.	1.451e-002
12746	8.917	4.8182	0.	1.4721e-002
12747	8.917	4.9091	5.e-002	5.4837
12748	9.1929	4.9091	0.	1.2526e-002
12749	9.1009	4.8182	0.	1.2629e-002
12750	9.1009	4.9091	5.e-002	5.4635
12751	9.3768	4.9091	0.	1.0923e-002
12752	9.2848	4.8182	0.	1.0956e-002
12753	9.2848	4.9091	5.e-002	5.4406
12754	9.5608	4.9091	0.	9.6205e-003
12755	9.4688	4.8182	0.	9.6147e-003
12756	9.4688	4.9091	5.e-002	5.4156
12757	9.7447	4.9091	0.	8.5646e-003
12758	9.6527	4.8182	0.	8.5287e-003
12759	9.6527	4.9091	5.e-002	5.3891
12760	9.9286	4.9091	0.	7.7171e-003
12761	9.8367	4.8182	0.	7.6671e-003
12762	9.8367	4.9091	5.e-002	5.3616
12763	10.113	4.9091	0.	7.0214e-003
12764	10.021	4.8182	0.	6.9854e-003
12765	10.021	4.9091	5.e-002	5.3335
12766	10.297	4.9091	0.	6.4513e-003
12767	10.205	4.8182	0.	6.4147e-003
12768	10.205	4.9091	5.e-002	5.3051
12769	10.48	4.9091	0.	6.0069e-003
12770	10.388	4.8182	0.	5.9707e-003
12771	10.388	4.9091	5.e-002	5.2766
12772	10.664	4.9091	0.	5.6633e-003
12773	10.572	4.8182	0.	5.6368e-003
12774	10.572	4.9091	5.e-002	5.2481
12775	10.848	4.9091	0.	5.4268e-003
12776	10.756	4.8182	0.	5.3784e-003
12777	10.756	4.9091	5.e-002	5.2198
12778	11.032	4.9091	0.	5.3218e-003
12779	10.94	4.8182	0.	5.239e-003
12780	10.94	4.9091	5.e-002	5.1918
12781	11.216	4.9091	0.	5.3406e-003
12782	11.124	4.8182	0.	5.2189e-003
12783	11.124	4.9091	5.e-002	5.1642
12784	11.4	4.9091	0.	5.4928e-003
12785	11.308	4.8182	0.	5.2918e-003
12786	11.308	4.9091	5.e-002	5.137
12787	11.584	4.9091	0.	5.861e-003
12788	11.492	4.8182	0.	5.4832e-003
12789	11.492	4.9091	5.e-002	5.1102
12790	11.768	4.9091	0.	6.593e-003
12791	11.676	4.8182	0.	5.8929e-003
12792	11.676	4.9091	5.e-002	5.0839
12793	11.952	4.9091	0.	7.9873e-003
12794	11.86	4.8182	0.	6.6204e-003
12795	11.86	4.9091	5.e-002	5.0581
12796	12.136	4.9091	0.	1.1151e-002
12797	12.044	4.8182	0.	7.889e-003
12798	12.044	4.9091	5.e-002	5.0327
12799	12.32	4.9091	0.	2.2751e-002
12800	12.228	4.8182	0.	1.0627e-002
12801	12.228	4.9091	5.e-002	5.0077
12802	12.504	4.9091	0.	0.33822
12803	12.412	4.8182	0.	1.9207e-002
12804	12.412	4.9091	5.e-002	4.9831
12805	12.688	4.9091	0.	1.4434
12806	12.596	4.8182	0.	0.16792
12807	12.596	4.9091	5.e-002	4.9588
12808	12.872	4.9091	0.	2.5189
12809	12.78	4.8182	0.	1.2389
12810	12.78	4.9091	5.e-002	4.9349
12811	13.056	4.9091	0.	3.5345
12812	12.964	4.8182	0.	2.3383
12813	12.964	4.9091	5.e-002	4.9113
12814	13.24	4.9091	0.	4.4929
12815	13.148	4.8182	0.	3.3775
12816	13.148	4.9091	5.e-002	4.8881
12817	13.423	4.9091	0.	5.3984
12818	13.332	4.8182	0.	4.3582
12819	13.332	4.9091	5.e-002	4.8652
12820	13.607	4.9091	0.	6.2559
12821	13.515	4.8182	0.	5.2849
12822	13.515	4.9091	5.e-002	4.8426
12823	13.791	4.9091	0.	7.0697
12824	13.699	4.8182	0.	6.1627
12825	13.699	4.9091	5.e-002	4.8204
12826	13.975	4.9091	0.	7.8442
12827	13.883	4.8182	0.	6.9961
12828	13.883	4.9091	5.e-002	4.7984
12829	14.159	4.9091	0.	8.5837
12830	14.067	4.8182	0.	7.7897
12831	14.067	4.9091	5.e-002	4.7767
12832	14.343	4.9091	0.	9.2923
12833	14.251	4.8182	0.	8.5481
12834	14.251	4.9091	5.e-002	4.7552
12835	14.527	4.9091	0.	9.9737
12836	14.435	4.8182	0.	9.2754
12837	14.435	4.9091	5.e-002	4.7339
12838	14.711	4.9091	0.	10.632
12839	14.619	4.8182	0.	9.9756
12840	14.619	4.9091	5.e-002	4.7128
12841	14.895	4.9091	0.	11.27
12842	14.803	4.8182	0.	10.653
12843	14.803	4.9091	5.e-002	4.692
12844	15.079	4.9091	0.	11.892
12845	14.987	4.8182	0.	11.31
12846	14.987	4.9091	5.e-002	4.6713
12847	15.263	4.9091	0.	12.501
12848	15.171	4.8182	0.	11.953
12849	15.171	4.9091	5.e-002	4.6508
12850	15.447	4.9091	0.	13.1
12851	15.355	4.8182	0.	12.583
12852	15.355	4.9091	5.e-002	4.6306
12853	15.631	4.9091	0.	13.693
12854	15.539	4.8182	0.	13.204
12855	15.539	4.9091	5.e-002	4.6105
12856	15.815	4.9091	0.	14.283
12857	15.723	4.8182	0.	13.82
12858	15.723	4.9091	5.e-002	4.5907
12859	15.999	4.9091	0.	14.872
12860	15.907	4.8182	0.	14.434
12861	15.907	4.9091	5.e-002	4.5711
12862	16.183	4.9091	0.	15.464
12863	16.091	4.8182	0.	15.049
12864	16.091	4.9091	5.e-002	4.5517
12865	16.367	4.9091	0.	16.063
12866	16.275	4.8182	0.	15.67
12867	16.275	4.9091	5.e-002	4.5324
12868	16.55	4.9091	0.	16.67
12869	16.458	4.8182	0.	16.298
12870	16.458	4.9091	5.e-002	4.5133
12871	16.734	4.9091	0.	17.29
12872	16.642	4.8182	0.	16.938
12873	16.642	4.9091	5.e-002	4.4944
12874	16.918	4.9091	0.	17.926
12875	16.826	4.8182	0.	17.592
12876	16.826	4.9091	5.e-002	4.4758
12877	17.102	4.9091	0.	18.58
12878	17.01	4.8182	0.	18.265
12879	17.01	4.9091	5.e-002	4.4573
12880	17.286	4.9091	0.	19.256
12881	17.194	4.8182	0.	18.96
12882	17.194	4.9091	5.e-002	4.4391
12883	17.47	4.9091	0.	19.958
12884	17.378	4.8182	0.	19.68
12885	17.378	4.9091	5.e-002	4.4211
12886	17.654	4.9091	0.	20.688
12887	17.562	4.8182	0.	20.43
12888	17.562	4.9091	5.e-002	4.4033
12889	17.838	4.9091	0.	21.452
12890	17.746	4.8182	0.	21.213
12891	17.746	4.9091	5.e-002	4.3859
12892	18.022	4.9091	0.	22.251
12893	17.93	4.8182	0.	22.032
12894	17.93	4.9091	5.e-002	4.3687
12895	18.206	4.9091	0.	23.092
12896	18.114	4.8182	0.	22.894
12897	18.114	4.9091	5.e-002	4.3518
12898	18.39	4.9091	0.	23.977
12899	18.298	4.8182	0.	23.801
12900	18.298	4.9091	5.e-002	4.3353
12901	18.574	4.9091	0.	24.911
12902	18.482	4.8182	0.	24.758
12903	18.482	4.9091	5.e-002	4.319
12904	18.758	4.9091	0.	25.899
12905	18.666	4.8182	0.	25.772
12906	18.666	4.9091	5.e-002	4.3032
12907	18.942	4.9091	0.	26.945
12908	18.85	4.8182	0.	26.845
12909	18.85	4.9091	5.e-002	4.2877
12910	19.126	4.9091	0.	28.055
12911	19.034	4.8182	0.	27.986
12912	19.034	4.9091	5.e-002	4.2726
12913	19.31	4.9091	0.	29.235
12914	19.218	4.8182	0.	29.198
12915	19.218	4.9091	5.e-002	4.2579
12916	19.493	4.9091	0.	30.49
12917	19.402	4.8182	0.	30.489
12918	19.402	4.9091	5.e-002	4.2438
12919	19.677	4.9091	0.	31.827
12920	19.585	4.8182	0.	31.865
12921	19.585	4.9091	5.e-002	4.2302
12922	19.861	4.9091	0.	33.253
12923	19.769	4.8182	0.	33.334
12924	19.769	4.9091	5.e-002	4.2172
12925	20.045	4.9091	0.	34.775
12926	19.953	4.8182	0.	34.904
12927	19.953	4.9091	5.e-002	4.2048
12928	20.229	4.9091	0.	36.401
12929	20.137	4.8182	0.	36.583
12930	20.137	4.9091	5.e-002	4.1931
12931	20.413	4.9091	0.	38.141
12932	20.321	4.8182	0.	38.381
12933	20.321	4.9091	5.e-002	4.182
12934	20.597	4.9091	0.	40.005
12935	20.505	4.8182	0.	40.308
12936	20.505	4.9091	5.e-002	4.1718
12937	20.781	4.9091	0.	42.005
12938	20.689	4.8182	0.	42.377
12939	20.689	4.9091	5.e-002	4.1625
12940	20.965	4.9091	0.	44.153
12941	20.873	4.8182	0.	44.6
12942	20.873	4.9091	5.e-002	4.154
12943	21.149	4.9091	0.	46.464
12944	21.057	4.8182	0.	46.993
12945	21.057	4.9091	5.e-002	4.1467
12946	21.333	4.9091	0.	48.956
12947	21.241	4.8182	0.	49.574
12948	21.241	4.9091	5.e-002	4.1405
12949	21.517	4.9091	0.	51.651
12950	21.425	4.8182	0.	52.361
12951	21.425	4.9091	5.e-002	4.1356
12952	21.701	4.9091	0.	54.572
12953	21.609	4.8182	0.	55.38
12954	21.609	4.9091	5.e-002	4.1322
12955	21.885	4.9091	0.	57.75
12956	21.793	4.8182	0.	58.659
12957	21.793	4.9091	5.e-002	4.1305
12958	22.069	4.9091	0.	61.221
12959	21.977	4.8182	0.	62.231
12960	21.977	4.9091	5.e-002	4.1309
12961	22.253	4.9091	0.	65.032
12962	22.161	4.8182	0.	66.137
12963	22.161	4.9091	5.e-002	4.1336
12964	22.437	4.9091	0.	69.237
12965	22.345	4.8182	0.	70.428
12966	22.345	4.9091	5.e-002	4.1393
12967	22.62	4.9091	0.	73.906
12968	22.528	4.8182	0.	75.163
12969	22.528	4.9091	5.e-002	4.1488
12970	22.804	4.9091	0.	79.123
12971	22.712	4.8182	0.	80.412
12972	22.712	4.9091	5.e-002	4.163
12973	22.988	4.9091	0.	84.987
12974	22.896	4.8182	0.	86.261
12975	22.896	4.9091	5.e-002	4.1837
12976	23.172	4.9091	0.	91.608
12977	23.08	4.8182	0.	92.8
12978	23.08	4.9091	5.e-002	4.213
12979	23.356	4.9091	0.	99.094
12980	23.264	4.8182	0.	100.13
12981	23.264	4.9091	5.e-002	4.2539
12982	23.54	4.9091	0.	107.56
12983	23.448	4.8182	0.	108.32
12984	23.448	4.9091	5.e-002	4.3098
12985	23.724	4.9091	0.	117.05
12986	23.632	4.8182	0.	117.49
12987	23.632	4.9091	5.e-002	4.3885
12988	23.816	4.8182	0.	127.54
12989	23.816	4.9091	5.e-002	4.5749
12990	23.908	4.9091	0.	126.34
12991	4.0426	4.7273	0.	1736.5
12992	3.9506	4.6364	0.	2471.1
12993	3.9506	4.7273	5.e-002	145.19
12994	3.8586	4.7273	0.	1747.
12995	4.2265	4.7273	0.	1115.1
12996	4.1345	4.6364	0.	1518.4
12997	4.1345	4.7273	5.e-002	88.605
12998	4.4105	4.7273	0.	718.17
12999	4.3185	4.6364	0.	945.42
13000	4.3185	4.7273	5.e-002	65.285
13001	4.5944	4.7273	0.	451.54
13002	4.5024	4.6364	0.	571.02
13003	4.5024	4.7273	5.e-002	47.083
13004	4.7783	4.7273	0.	275.64
13005	4.6864	4.6364	0.	332.08
13006	4.6864	4.7273	5.e-002	35.308
13007	4.9623	4.7273	0.	160.63
13008	4.8703	4.6364	0.	181.24
13009	4.8703	4.7273	5.e-002	27.377
13010	5.1462	4.7273	0.	85.068
13011	5.0542	4.6364	0.	86.148
13012	5.0542	4.7273	5.e-002	21.825
13013	5.3302	4.7273	0.	35.991
13014	5.2382	4.6364	0.	29.112
13015	5.2382	4.7273	5.e-002	17.734
13016	5.5141	4.7273	0.	10.286
13017	5.4221	4.6364	0.	7.3656
13018	5.4221	4.7273	5.e-002	14.628
13019	5.698	4.7273	0.	3.4881
13020	5.6061	4.6364	0.	2.9435
13021	5.6061	4.7273	5.e-002	12.241
13022	5.882	4.7273	0.	1.6964
13023	5.79	4.6364	0.	1.5738
13024	5.79	4.7273	5.e-002	10.413
13025	6.0659	4.7273	0.	0.9791
13026	5.9739	4.6364	0.	0.95779
13027	5.9739	4.7273	5.e-002	9.0312
13028	6.2498	4.7273	0.	0.61807
13029	6.1579	4.6364	0.	0.62504
13030	6.1579	4.7273	5.e-002	8.0097
13031	6.4338	4.7273	0.	0.41239
13032	6.3418	4.6364	0.	0.42629
13033	6.3418	4.7273	5.e-002	7.2744
13034	6.6177	4.7273	0.	0.28603
13035	6.5258	4.6364	0.	0.29994
13036	6.5258	4.7273	5.e-002	6.7599
13037	6.8017	4.7273	0.	0.20432
13038	6.7097	4.6364	0.	0.21617
13039	6.7097	4.7273	5.e-002	6.4088
13040	6.9856	4.7273	0.	0.14947
13041	6.8936	4.6364	0.	0.15888
13042	6.8936	4.7273	5.e-002	6.1736
13043	7.1695	4.7273	0.	0.11156
13044	7.0776	4.6364	0.	0.11875
13045	7.0776	4.7273	5.e-002	6.0171
13046	7.3535	4.7273	0.	8.4739e-002
13047	7.2615	4.6364	0.	9.0091e-002
13048	7.2615	4.7273	5.e-002	5.912
13049	7.5374	4.7273	0.	6.5375e-002
13050	7.4455	4.6364	0.	6.928e-002
13051	7.4455	4.7273	5.e-002	5.839
13052	7.7214	4.7273	0.	5.1153e-002
13053	7.6294	4.6364	0.	5.3948e-002
13054	7.6294	4.7273	5.e-002	5.7855
13055	7.9053	4.7273	0.	4.0555e-002
13056	7.8133	4.6364	0.	4.2512e-002
13057	7.8133	4.7273	5.e-002	5.7431
13058	8.0892	4.7273	0.	3.2557e-002
13059	7.9973	4.6364	0.	3.3896e-002
13060	7.9973	4.7273	5.e-002	5.7067
13061	8.2732	4.7273	0.	2.6448e-002
13062	8.1812	4.6364	0.	2.7336e-002
13063	8.1812	4.7273	5.e-002	5.6733
13064	8.4571	4.7273	0.	2.1735e-002
13065	8.3652	4.6364	0.	2.2295e-002
13066	8.3652	4.7273	5.e-002	5.6411
13067	8.6411	4.7273	0.	1.8072e-002
13068	8.5491	4.6364	0.	1.8397e-002
13069	8.5491	4.7273	5.e-002	5.6092
13070	8.825	4.7273	0.	1.5201e-002
13071	8.733	4.6364	0.	1.5366e-002
13072	8.733	4.7273	5.e-002	5.5772
13073	9.0089	4.7273	0.	1.2935e-002
13074	8.917	4.6364	0.	1.299e-002
13075	8.917	4.7273	5.e-002	5.5448
13076	9.1929	4.7273	0.	1.1138e-002
13077	9.1009	4.6364	0.	1.1121e-002
13078	9.1009	4.7273	5.e-002	5.5123
13079	9.3768	4.7273	0.	9.7121e-003
13080	9.2848	4.6364	0.	9.6487e-003
13081	9.2848	4.7273	5.e-002	5.4796
13082	9.5608	4.7273	0.	8.5743e-003
13083	9.4688	4.6364	0.	8.4888e-003
13084	9.4688	4.7273	5.e-002	5.447
13085	9.7447	4.7273	0.	7.6711e-003
13086	9.6527	4.6364	0.	7.5678e-003
13087	9.6527	4.7273	5.e-002	5.4145
13088	9.9286	4.7273	0.	6.9648e-003
13089	9.8367	4.6364	0.	6.8562e-003
13090	9.8367	4.7273	5.e-002	5.3823
13091	10.113	4.7273	0.	6.3983e-003
13092	10.021	4.6364	0.	6.3095e-003
13093	10.021	4.7273	5.e-002	5.3505
13094	10.297	4.7273	0.	5.9445e-003
13095	10.205	4.6364	0.	5.8593e-003
13096	10.205	4.7273	5.e-002	5.3191
13097	10.48	4.7273	0.	5.6025e-003
13098	10.388	4.6364	0.	5.5217e-003
13099	10.388	4.7273	5.e-002	5.2882
13100	10.664	4.7273	0.	5.3458e-003
13101	10.572	4.6364	0.	5.2795e-003
13102	10.572	4.7273	5.e-002	5.2579
13103	10.848	4.7273	0.	5.1771e-003
13104	10.756	4.6364	0.	5.0967e-003
13105	10.756	4.7273	5.e-002	5.2281
13106	11.032	4.7273	0.	5.116e-003
13107	10.94	4.6364	0.	5.0134e-003
13108	10.94	4.7273	5.e-002	5.1989
13109	11.216	4.7273	0.	5.1449e-003
13110	11.124	4.6364	0.	5.0267e-003
13111	11.124	4.7273	5.e-002	5.1703
13112	11.4	4.7273	0.	5.2549e-003
13113	11.308	4.6364	0.	5.0997e-003
13114	11.308	4.7273	5.e-002	5.1423
13115	11.584	4.7273	0.	5.4927e-003
13116	11.492	4.6364	0.	5.245e-003
13117	11.492	4.7273	5.e-002	5.1149
13118	11.768	4.7273	0.	5.9211e-003
13119	11.676	4.6364	0.	5.5288e-003
13120	11.676	4.7273	5.e-002	5.088
13121	11.952	4.7273	0.	6.6046e-003
13122	11.86	4.6364	0.	5.9799e-003
13123	11.86	4.7273	5.e-002	5.0618
13124	12.136	4.7273	0.	7.7875e-003
13125	12.044	4.6364	0.	6.6344e-003
13126	12.044	4.7273	5.e-002	5.036
13127	12.32	4.7273	0.	1.022e-002
13128	12.228	4.6364	0.	7.7785e-003
13129	12.228	4.7273	5.e-002	5.0106
13130	12.504	4.7273	0.	1.709e-002
13131	12.412	4.6364	0.	1.0068e-002
13132	12.412	4.7273	5.e-002	4.9857
13133	12.688	4.7273	0.	9.1302e-002
13134	12.596	4.6364	0.	1.6213e-002
13135	12.596	4.7273	5.e-002	4.9613
13136	12.872	4.7273	0.	1.0828
13137	12.78	4.6364	0.	7.1144e-002
13138	12.78	4.7273	5.e-002	4.9371
13139	13.056	4.7273	0.	2.2049
13140	12.964	4.6364	0.	1.0161
13141	12.964	4.7273	5.e-002	4.9134
13142	13.24	4.7273	0.	3.2667
13143	13.148	4.6364	0.	2.1532
13144	13.148	4.7273	5.e-002	4.89
13145	13.423	4.7273	0.	4.269
13146	13.332	4.6364	0.	3.23
13147	13.332	4.7273	5.e-002	4.867
13148	13.607	4.7273	0.	5.2165
13149	13.515	4.6364	0.	4.2467
13150	13.515	4.7273	5.e-002	4.8443
13151	13.791	4.7273	0.	6.1143
13152	13.699	4.6364	0.	5.2084
13153	13.699	4.7273	5.e-002	4.8219
13154	13.975	4.7273	0.	6.9673
13155	13.883	4.6364	0.	6.1201
13156	13.883	4.7273	5.e-002	4.7998
13157	14.159	4.7273	0.	7.7802
13158	14.067	4.6364	0.	6.9869
13159	14.067	4.7273	5.e-002	4.778
13160	14.343	4.7273	0.	8.5578
13161	14.251	4.6364	0.	7.8139
13162	14.251	4.7273	5.e-002	4.7565
13163	14.527	4.7273	0.	9.3043
13164	14.435	4.6364	0.	8.6058
13165	14.435	4.7273	5.e-002	4.7351
13166	14.711	4.7273	0.	10.024
13167	14.619	4.6364	0.	9.3672
13168	14.619	4.7273	5.e-002	4.714
13169	14.895	4.7273	0.	10.721
13170	14.803	4.6364	0.	10.103
13171	14.803	4.7273	5.e-002	4.693
13172	15.079	4.7273	0.	11.4
13173	14.987	4.6364	0.	10.816
13174	14.987	4.7273	5.e-002	4.6723
13175	15.263	4.7273	0.	12.063
13176	15.171	4.6364	0.	11.512
13177	15.171	4.7273	5.e-002	4.6518
13178	15.447	4.7273	0.	12.715
13179	15.355	4.6364	0.	12.194
13180	15.355	4.7273	5.e-002	4.6315
13181	15.631	4.7273	0.	13.36
13182	15.539	4.6364	0.	12.866
13183	15.539	4.7273	5.e-002	4.6115
13184	15.815	4.7273	0.	14.001
13185	15.723	4.6364	0.	13.532
13186	15.723	4.7273	5.e-002	4.5916
13187	15.999	4.7273	0.	14.642
13188	15.907	4.6364	0.	14.196
13189	15.907	4.7273	5.e-002	4.5719
13190	16.183	4.7273	0.	15.286
13191	16.091	4.6364	0.	14.861
13192	16.091	4.7273	5.e-002	4.5525
13193	16.367	4.7273	0.	15.937
13194	16.275	4.6364	0.	15.531
13195	16.275	4.7273	5.e-002	4.5332
13196	16.55	4.7273	0.	16.598
13197	16.458	4.6364	0.	16.211
13198	16.458	4.7273	5.e-002	4.5142
13199	16.734	4.7273	0.	17.273
13200	16.642	4.6364	0.	16.904
13201	16.642	4.7273	5.e-002	4.4953
13202	16.918	4.7273	0.	17.966
13203	16.826	4.6364	0.	17.613
13204	16.826	4.7273	5.e-002	4.4766
13205	17.102	4.7273	0.	18.68
13206	17.01	4.6364	0.	18.343
13207	17.01	4.7273	5.e-002	4.4582
13208	17.286	4.7273	0.	19.419
13209	17.194	4.6364	0.	19.098
13210	17.194	4.7273	5.e-002	4.44
13211	17.47	4.7273	0.	20.188
13212	17.378	4.6364	0.	19.881
13213	17.378	4.7273	5.e-002	4.422
13214	17.654	4.7273	0.	20.99
13215	17.562	4.6364	0.	20.698
13216	17.562	4.7273	5.e-002	4.4043
13217	17.838	4.7273	0.	21.83
13218	17.746	4.6364	0.	21.552
13219	17.746	4.7273	5.e-002	4.3869
13220	18.022	4.7273	0.	22.711
13221	17.93	4.6364	0.	22.449
13222	17.93	4.7273	5.e-002	4.3698
13223	18.206	4.7273	0.	23.64
13224	18.114	4.6364	0.	23.393
13225	18.114	4.7273	5.e-002	4.353
13226	18.39	4.7273	0.	24.62
13227	18.298	4.6364	0.	24.39
13228	18.298	4.7273	5.e-002	4.3365
13229	18.574	4.7273	0.	25.658
13230	18.482	4.6364	0.	25.444
13231	18.482	4.7273	5.e-002	4.3203
13232	18.758	4.7273	0.	26.758
13233	18.666	4.6364	0.	26.562
13234	18.666	4.7273	5.e-002	4.3045
13235	18.942	4.7273	0.	27.926
13236	18.85	4.6364	0.	27.75
13237	18.85	4.7273	5.e-002	4.2891
13238	19.126	4.7273	0.	29.169
13239	19.034	4.6364	0.	29.015
13240	19.034	4.7273	5.e-002	4.2741
13241	19.31	4.7273	0.	30.494
13242	19.218	4.6364	0.	30.362
13243	19.218	4.7273	5.e-002	4.2597
13244	19.493	4.7273	0.	31.907
13245	19.402	4.6364	0.	31.8
13246	19.402	4.7273	5.e-002	4.2457
13247	19.677	4.7273	0.	33.416
13248	19.585	4.6364	0.	33.338
13249	19.585	4.7273	5.e-002	4.2323
13250	19.861	4.7273	0.	35.03
13251	19.769	4.6364	0.	34.982
13252	19.769	4.7273	5.e-002	4.2194
13253	20.045	4.7273	0.	36.758
13254	19.953	4.6364	0.	36.744
13255	19.953	4.7273	5.e-002	4.2073
13256	20.229	4.7273	0.	38.609
13257	20.137	4.6364	0.	38.632
13258	20.137	4.7273	5.e-002	4.1958
13259	20.413	4.7273	0.	40.596
13260	20.321	4.6364	0.	40.659
13261	20.321	4.7273	5.e-002	4.1851
13262	20.597	4.7273	0.	42.729
13263	20.505	4.6364	0.	42.837
13264	20.505	4.7273	5.e-002	4.1753
13265	20.781	4.7273	0.	45.023
13266	20.689	4.6364	0.	45.179
13267	20.689	4.7273	5.e-002	4.1664
13268	20.965	4.7273	0.	47.492
13269	20.873	4.6364	0.	47.7
13270	20.873	4.7273	5.e-002	4.1585
13271	21.149	4.7273	0.	50.156
13272	21.057	4.6364	0.	50.419
13273	21.057	4.7273	5.e-002	4.1517
13274	21.333	4.7273	0.	53.032
13275	21.241	4.6364	0.	53.353
13276	21.241	4.7273	5.e-002	4.1462
13277	21.517	4.7273	0.	56.145
13278	21.425	4.6364	0.	56.527
13279	21.425	4.7273	5.e-002	4.1422
13280	21.701	4.7273	0.	59.523
13281	21.609	4.6364	0.	59.965
13282	21.609	4.7273	5.e-002	4.1399
13283	21.885	4.7273	0.	63.196
13284	21.793	4.6364	0.	63.697
13285	21.793	4.7273	5.e-002	4.1394
13286	22.069	4.7273	0.	67.204
13287	21.977	4.6364	0.	67.758
13288	21.977	4.7273	5.e-002	4.1413
13289	22.253	4.7273	0.	71.59
13290	22.161	4.6364	0.	72.188
13291	22.161	4.7273	5.e-002	4.1457
13292	22.437	4.7273	0.	76.409
13293	22.345	4.6364	0.	77.034
13294	22.345	4.7273	5.e-002	4.1535
13295	22.62	4.7273	0.	81.721
13296	22.528	4.6364	0.	82.351
13297	22.528	4.7273	5.e-002	4.1652
13298	22.804	4.7273	0.	87.599
13299	22.712	4.6364	0.	88.198
13300	22.712	4.7273	5.e-002	4.182
13301	22.988	4.7273	0.	94.117
13302	22.896	4.6364	0.	94.642
13303	22.896	4.7273	5.e-002	4.2052
13304	23.172	4.7273	0.	101.36
13305	23.08	4.6364	0.	101.75
13306	23.08	4.7273	5.e-002	4.2366
13307	23.356	4.7273	0.	109.38
13308	23.264	4.6364	0.	109.59
13309	23.264	4.7273	5.e-002	4.2782
13310	23.54	4.7273	0.	118.26
13311	23.448	4.6364	0.	118.2
13312	23.448	4.7273	5.e-002	4.3321
13313	23.724	4.7273	0.	128.
13314	23.632	4.6364	0.	127.65
13315	23.632	4.7273	5.e-002	4.404
13316	23.816	4.6364	0.	137.83
13317	23.816	4.7273	5.e-002	4.5641
13318	23.908	4.7273	0.	137.5
13319	4.0426	4.5455	0.	2175.7
13320	3.9506	4.4545	0.	3218.6
13321	3.9506	4.5455	5.e-002	183.35
13322	3.8586	4.5455	0.	2311.8
13323	4.2265	4.5455	0.	1303.4
13324	4.1345	4.4545	0.	1741.9
13325	4.1345	4.5455	5.e-002	110.34
13326	4.4105	4.5455	0.	772.13
13327	4.3185	4.4545	0.	975.72
13328	4.3185	4.5455	5.e-002	66.108
13329	4.5944	4.5455	0.	436.15
13330	4.5024	4.4545	0.	530.22
13331	4.5024	4.5455	5.e-002	46.661
13332	4.7783	4.5455	0.	228.66
13333	4.6864	4.4545	0.	264.32
13334	4.6864	4.5455	5.e-002	35.073
13335	4.9623	4.5455	0.	101.71
13336	4.8703	4.4545	0.	107.43
13337	4.8703	4.5455	5.e-002	27.987
13338	5.1462	4.5455	0.	29.439
13339	5.0542	4.4545	0.	24.644
13340	5.0542	4.5455	5.e-002	22.947
13341	5.3302	4.5455	0.	6.9243
13342	5.2382	4.4545	0.	5.926
13343	5.2382	4.5455	5.e-002	19.161
13344	5.5141	4.5455	0.	2.9103
13345	5.4221	4.4545	0.	2.6919
13346	5.4221	4.5455	5.e-002	16.203
13347	5.698	4.5455	0.	1.6112
13348	5.6061	4.4545	0.	1.5532
13349	5.6061	4.5455	5.e-002	13.864
13350	5.882	4.5455	0.	1.0042
13351	5.79	4.4545	0.	0.99385
13352	5.79	4.5455	5.e-002	12.008
13353	6.0659	4.5455	0.	0.6668
13354	5.9739	4.4545	0.	0.67258
13355	5.9739	4.5455	5.e-002	10.541
13356	6.2498	4.5455	0.	0.46045
13357	6.1579	4.4545	0.	0.47099
13358	6.1579	4.5455	5.e-002	9.393
13359	6.4338	4.5455	0.	0.32671
13360	6.3418	4.4545	0.	0.33763
13361	6.3418	4.5455	5.e-002	8.5038
13362	6.6177	4.5455	0.	0.23664
13363	6.5258	4.4545	0.	0.24628
13364	6.5258	4.5455	5.e-002	7.8229
13365	6.8017	4.5455	0.	0.17429
13366	6.7097	4.4545	0.	0.18216
13367	6.7097	4.5455	5.e-002	7.3066
13368	6.9856	4.5455	0.	0.13021
13369	6.8936	4.4545	0.	0.13635
13370	6.8936	4.5455	5.e-002	6.9171
13371	7.1695	4.5455	0.	9.8526e-002
13372	7.0776	4.4545	0.	0.10315
13373	7.0776	4.5455	5.e-002	6.6237
13374	7.3535	4.5455	0.	7.5433e-002
13375	7.2615	4.4545	0.	7.8811e-002
13376	7.2615	4.5455	5.e-002	6.4012
13377	7.5374	4.5455	0.	5.8397e-002
13378	7.4455	4.4545	0.	6.0795e-002
13379	7.4455	4.5455	5.e-002	6.2306
13380	7.7214	4.5455	0.	4.5695e-002
13381	7.6294	4.4545	0.	4.7339e-002
13382	7.6294	4.5455	5.e-002	6.0971
13383	7.9053	4.5455	0.	3.614e-002
13384	7.8133	4.4545	0.	3.7215e-002
13385	7.8133	4.5455	5.e-002	5.9903
13386	8.0892	4.5455	0.	2.8894e-002
13387	7.9973	4.4545	0.	2.9553e-002
13388	7.9973	4.5455	5.e-002	5.9024
13389	8.2732	4.5455	0.	2.3356e-002
13390	8.1812	4.4545	0.	2.3715e-002
13391	8.1812	4.5455	5.e-002	5.8281
13392	8.4571	4.5455	0.	1.9096e-002
13393	8.3652	4.4545	0.	1.9242e-002
13394	8.3652	4.5455	5.e-002	5.7636
13395	8.6411	4.5455	0.	1.5804e-002
13396	8.5491	4.4545	0.	1.5803e-002
13397	8.5491	4.5455	5.e-002	5.7062
13398	8.825	4.5455	0.	1.3247e-002
13399	8.733	4.4545	0.	1.3151e-002
13400	8.733	4.5455	5.e-002	5.6541
13401	9.0089	4.5455	0.	1.1252e-002
13402	8.917	4.4545	0.	1.1097e-002
13403	8.917	4.5455	5.e-002	5.606
13404	9.1929	4.5455	0.	9.6921e-003
13405	9.1009	4.4545	0.	9.5026e-003
13406	9.1009	4.5455	5.e-002	5.561
13407	9.3768	4.5455	0.	8.4741e-003
13408	9.2848	4.4545	0.	8.2685e-003
13409	9.2848	4.5455	5.e-002	5.5186
13410	9.5608	4.5455	0.	7.5207e-003
13411	9.4688	4.4545	0.	7.3159e-003
13412	9.4688	4.5455	5.e-002	5.4783
13413	9.7447	4.5455	0.	6.7822e-003
13414	9.6527	4.4545	0.	6.5773e-003
13415	9.6527	4.5455	5.e-002	5.4398
13416	9.9286	4.5455	0.	6.2222e-003
13417	9.8367	4.4545	0.	6.025e-003
13418	9.8367	4.5455	5.e-002	5.4028
13419	10.113	4.5455	0.	5.7846e-003
13420	10.021	4.4545	0.	5.6187e-003
13421	10.021	4.5455	5.e-002	5.3672
13422	10.297	4.5455	0.	5.4439e-003
13423	10.205	4.4545	0.	5.2902e-003
13424	10.205	4.5455	5.e-002	5.3329
13425	10.48	4.5455	0.	5.2001e-003
13426	10.388	4.4545	0.	5.0582e-003
13427	10.388	4.5455	5.e-002	5.2996
13428	10.664	4.5455	0.	5.0263e-003
13429	10.572	4.4545	0.	4.9065e-003
13430	10.572	4.5455	5.e-002	5.2674
13431	10.848	4.5455	0.	4.9238e-003
13432	10.756	4.4545	0.	4.7984e-003
13433	10.756	4.5455	5.e-002	5.2361
13434	11.032	4.5455	0.	4.9104e-003
13435	10.94	4.4545	0.	4.7735e-003
13436	10.94	4.5455	5.e-002	5.2057
13437	11.216	4.5455	0.	4.9639e-003
13438	11.124	4.4545	0.	4.8272e-003
13439	11.124	4.5455	5.e-002	5.1761
13440	11.4	4.5455	0.	5.0693e-003
13441	11.308	4.4545	0.	4.9189e-003
13442	11.308	4.5455	5.e-002	5.1473
13443	11.584	4.5455	0.	5.2595e-003
13444	11.492	4.4545	0.	5.0553e-003
13445	11.492	4.5455	5.e-002	5.1193
13446	11.768	4.5455	0.	5.568e-003
13447	11.676	4.4545	0.	5.2891e-003
13448	11.676	4.5455	5.e-002	5.0919
13449	11.952	4.5455	0.	6.0001e-003
13450	11.86	4.4545	0.	5.6233e-003
13451	11.86	4.5455	5.e-002	5.0652
13452	12.136	4.5455	0.	6.6471e-003
13453	12.044	4.4545	0.	6.0415e-003
13454	12.044	4.5455	5.e-002	5.039
13455	12.32	4.5455	0.	7.7555e-003
13456	12.228	4.4545	0.	6.6932e-003
13457	12.228	4.5455	5.e-002	5.0134
13458	12.504	4.5455	0.	9.8959e-003
13459	12.412	4.4545	0.	7.797e-003
13460	12.412	4.5455	5.e-002	4.9882
13461	12.688	4.5455	0.	1.5513e-002
13462	12.596	4.4545	0.	9.8846e-003
13463	12.596	4.5455	5.e-002	4.9635
13464	12.872	4.5455	0.	6.1784e-002
13465	12.78	4.4545	0.	1.5437e-002
13466	12.78	4.5455	5.e-002	4.9392
13467	13.056	4.5455	0.	0.98745
13468	12.964	4.4545	0.	6.6852e-002
13469	12.964	4.5455	5.e-002	4.9153
13470	13.24	4.5455	0.	2.14
13471	13.148	4.4545	0.	1.0397
13472	13.148	4.5455	5.e-002	4.8917
13473	13.423	4.5455	0.	3.2318
13474	13.332	4.4545	0.	2.2009
13475	13.332	4.5455	5.e-002	4.8686
13476	13.607	4.5455	0.	4.2631
13477	13.515	4.4545	0.	3.3003
13478	13.515	4.5455	5.e-002	4.8458
13479	13.791	4.5455	0.	5.2392
13480	13.699	4.4545	0.	4.3394
13481	13.699	4.5455	5.e-002	4.8233
13482	13.975	4.5455	0.	6.1652
13483	13.883	4.4545	0.	5.3235
13484	13.883	4.5455	5.e-002	4.8011
13485	14.159	4.5455	0.	7.0466
13486	14.067	4.4545	0.	6.258
13487	14.067	4.5455	5.e-002	4.7792
13488	14.343	4.5455	0.	7.8884
13489	14.251	4.4545	0.	7.1485
13490	14.251	4.5455	5.e-002	4.7575
13491	14.527	4.5455	0.	8.6957
13492	14.435	4.4545	0.	8.0003
13493	14.435	4.5455	5.e-002	4.7361
13494	14.711	4.5455	0.	9.4731
13495	14.619	4.4545	0.	8.8183
13496	14.619	4.5455	5.e-002	4.715
13497	14.895	4.5455	0.	10.225
13498	14.803	4.4545	0.	9.6075
13499	14.803	4.5455	5.e-002	4.694
13500	15.079	4.5455	0.	10.956
13501	14.987	4.4545	0.	10.373
13502	14.987	4.5455	5.e-002	4.6732
13503	15.263	4.5455	0.	11.671
13504	15.171	4.4545	0.	11.118
13505	15.171	4.5455	5.e-002	4.6527
13506	15.447	4.5455	0.	12.373
13507	15.355	4.4545	0.	11.848
13508	15.355	4.5455	5.e-002	4.6324
13509	15.631	4.5455	0.	13.067
13510	15.539	4.4545	0.	12.567
13511	15.539	4.5455	5.e-002	4.6123
13512	15.815	4.5455	0.	13.756
13513	15.723	4.4545	0.	13.28
13514	15.723	4.5455	5.e-002	4.5924
13515	15.999	4.5455	0.	14.445
13516	15.907	4.4545	0.	13.99
13517	15.907	4.5455	5.e-002	4.5727
13518	16.183	4.5455	0.	15.138
13519	16.091	4.4545	0.	14.702
13520	16.091	4.5455	5.e-002	4.5533
13521	16.367	4.5455	0.	15.838
13522	16.275	4.4545	0.	15.42
13523	16.275	4.5455	5.e-002	4.534
13524	16.55	4.5455	0.	16.549
13525	16.458	4.4545	0.	16.147
13526	16.458	4.5455	5.e-002	4.5149
13527	16.734	4.5455	0.	17.276
13528	16.642	4.4545	0.	16.889
13529	16.642	4.5455	5.e-002	4.4961
13530	16.918	4.5455	0.	18.023
13531	16.826	4.4545	0.	17.65
13532	16.826	4.5455	5.e-002	4.4774
13533	17.102	4.5455	0.	18.794
13534	17.01	4.4545	0.	18.433
13535	17.01	4.5455	5.e-002	4.4589
13536	17.286	4.5455	0.	19.594
13537	17.194	4.4545	0.	19.244
13538	17.194	4.5455	5.e-002	4.4408
13539	17.47	4.5455	0.	20.426
13540	17.378	4.4545	0.	20.087
13541	17.378	4.5455	5.e-002	4.4228
13542	17.654	4.5455	0.	21.296
13543	17.562	4.4545	0.	20.967
13544	17.562	4.5455	5.e-002	4.4052
13545	17.838	4.5455	0.	22.208
13546	17.746	4.4545	0.	21.889
13547	17.746	4.5455	5.e-002	4.3878
13548	18.022	4.5455	0.	23.168
13549	17.93	4.4545	0.	22.858
13550	17.93	4.5455	5.e-002	4.3707
13551	18.206	4.5455	0.	24.18
13552	18.114	4.4545	0.	23.88
13553	18.114	4.5455	5.e-002	4.354
13554	18.39	4.5455	0.	25.251
13555	18.298	4.4545	0.	24.961
13556	18.298	4.5455	5.e-002	4.3375
13557	18.574	4.5455	0.	26.387
13558	18.482	4.4545	0.	26.107
13559	18.482	4.5455	5.e-002	4.3214
13560	18.758	4.5455	0.	27.594
13561	18.666	4.4545	0.	27.324
13562	18.666	4.5455	5.e-002	4.3057
13563	18.942	4.5455	0.	28.878
13564	18.85	4.4545	0.	28.619
13565	18.85	4.5455	5.e-002	4.2904
13566	19.126	4.5455	0.	30.248
13567	19.034	4.4545	0.	30.
13568	19.034	4.5455	5.e-002	4.2756
13569	19.31	4.5455	0.	31.71
13570	19.218	4.4545	0.	31.475
13571	19.218	4.5455	5.e-002	4.2612
13572	19.493	4.5455	0.	33.273
13573	19.402	4.4545	0.	33.052
13574	19.402	4.5455	5.e-002	4.2474
13575	19.677	4.5455	0.	34.946
13576	19.585	4.4545	0.	34.74
13577	19.585	4.5455	5.e-002	4.2341
13578	19.861	4.5455	0.	36.739
13579	19.769	4.4545	0.	36.55
13580	19.769	4.5455	5.e-002	4.2215
13581	20.045	4.5455	0.	38.662
13582	19.953	4.4545	0.	38.492
13583	19.953	4.5455	5.e-002	4.2095
13584	20.229	4.5455	0.	40.726
13585	20.137	4.4545	0.	40.577
13586	20.137	4.5455	5.e-002	4.1983
13587	20.413	4.5455	0.	42.945
13588	20.321	4.4545	0.	42.818
13589	20.321	4.5455	5.e-002	4.1879
13590	20.597	4.5455	0.	45.332
13591	20.505	4.4545	0.	45.229
13592	20.505	4.5455	5.e-002	4.1784
13593	20.781	4.5455	0.	47.903
13594	20.689	4.4545	0.	47.826
13595	20.689	4.5455	5.e-002	4.1699
13596	20.965	4.5455	0.	50.674
13597	20.873	4.4545	0.	50.624
13598	20.873	4.5455	5.e-002	4.1625
13599	21.149	4.5455	0.	53.664
13600	21.057	4.4545	0.	53.643
13601	21.057	4.5455	5.e-002	4.1564
13602	21.333	4.5455	0.	56.897
13603	21.241	4.4545	0.	56.904
13604	21.241	4.5455	5.e-002	4.1516
13605	21.517	4.5455	0.	60.395
13606	21.425	4.4545	0.	60.43
13607	21.425	4.5455	5.e-002	4.1485
13608	21.701	4.5455	0.	64.188
13609	21.609	4.4545	0.	64.247
13610	21.609	4.5455	5.e-002	4.1471
13611	21.885	4.5455	0.	68.307
13612	21.793	4.4545	0.	68.386
13613	21.793	4.5455	5.e-002	4.1478
13614	22.069	4.5455	0.	72.79
13615	21.977	4.4545	0.	72.879
13616	21.977	4.5455	5.e-002	4.151
13617	22.253	4.5455	0.	77.679
13618	22.161	4.4545	0.	77.766
13619	22.161	4.5455	5.e-002	4.157
13620	22.437	4.5455	0.	83.021
13621	22.345	4.4545	0.	83.087
13622	22.345	4.5455	5.e-002	4.1665
13623	22.62	4.5455	0.	88.869
13624	22.528	4.4545	0.	88.89
13625	22.528	4.5455	5.e-002	4.1802
13626	22.804	4.5455	0.	95.28
13627	22.712	4.4545	0.	95.225
13628	22.712	4.5455	5.e-002	4.1989
13629	22.988	4.5455	0.	102.31
13630	22.896	4.4545	0.	102.14
13631	22.896	4.5455	5.e-002	4.2239
13632	23.172	4.5455	0.	110.01
13633	23.08	4.4545	0.	109.69
13634	23.08	4.5455	5.e-002	4.2564
13635	23.356	4.5455	0.	118.43
13636	23.264	4.4545	0.	117.9
13637	23.264	4.5455	5.e-002	4.2979
13638	23.54	4.5455	0.	127.6
13639	23.448	4.4545	0.	126.81
13640	23.448	4.5455	5.e-002	4.3495
13641	23.724	4.5455	0.	137.5
13642	23.632	4.4545	0.	136.47
13643	23.632	4.5455	5.e-002	4.4152
13644	23.816	4.4545	0.	146.71
13645	23.816	4.5455	5.e-002	4.5527
13646	23.908	4.5455	0.	147.17
13647	4.0426	4.3636	0.	2671.5
13648	3.9506	4.2727	0.	3852.7
13649	3.9506	4.3636	5.e-002	279.26
13650	3.8586	4.3636	0.	2968.4
13651	4.2265	4.3636	0.	1374.6
13652	4.1345	4.2727	0.	1750.4
13653	4.1345	4.3636	5.e-002	110.8
13654	4.4105	4.3636	0.	712.24
13655	4.3185	4.2727	0.	835.43
13656	4.3185	4.3636	5.e-002	68.853
13657	4.5944	4.3636	0.	345.78
13658	4.5024	4.2727	0.	392.88
13659	4.5024	4.3636	5.e-002	49.195
13660	4.7783	4.3636	0.	135.44
13661	4.6864	4.2727	0.	143.86
13662	4.6864	4.3636	5.e-002	37.936
13663	4.9623	4.3636	0.	27.92
13664	4.8703	4.2727	0.	24.321
13665	4.8703	4.3636	5.e-002	30.904
13666	5.1462	4.3636	0.	6.1284
13667	5.0542	4.2727	0.	5.5925
13668	5.0542	4.3636	5.e-002	25.647
13669	5.3302	4.3636	0.	2.7834
13670	5.2382	4.2727	0.	2.6605
13671	5.2382	4.3636	5.e-002	21.597
13672	5.5141	4.3636	0.	1.6145
13673	5.4221	4.2727	0.	1.5758
13674	5.4221	4.3636	5.e-002	18.394
13675	5.698	4.3636	0.	1.0422
13676	5.6061	4.2727	0.	1.0343
13677	5.6061	4.3636	5.e-002	15.825
13678	5.882	4.3636	0.	0.71098
13679	5.79	4.2727	0.	0.714
13680	5.79	4.3636	5.e-002	13.753
13681	6.0659	4.3636	0.	0.5015
13682	5.9739	4.2727	0.	0.50854
13683	5.9739	4.3636	5.e-002	12.081
13684	6.2498	4.3636	0.	0.36153
13685	6.1579	4.2727	0.	0.36929
13686	6.1579	4.3636	5.e-002	10.736
13687	6.4338	4.3636	0.	0.26474
13688	6.3418	4.2727	0.	0.27186
13689	6.3418	4.3636	5.e-002	9.6601
13690	6.6177	4.3636	0.	0.19623
13691	6.5258	4.2727	0.	0.20218
13692	6.5258	4.3636	5.e-002	8.8048
13693	6.8017	4.3636	0.	0.14692
13694	6.7097	4.2727	0.	0.15161
13695	6.7097	4.3636	5.e-002	8.1292
13696	6.9856	4.3636	0.	0.11099
13697	6.8936	4.2727	0.	0.11452
13698	6.8936	4.3636	5.e-002	7.5979
13699	7.1695	4.3636	0.	8.4541e-002
13700	7.0776	4.2727	0.	8.708e-002
13701	7.0776	4.3636	5.e-002	7.181
13702	7.3535	4.3636	0.	6.492e-002
13703	7.2615	4.2727	0.	6.6658e-002
13704	7.2615	4.3636	5.e-002	6.8534
13705	7.5374	4.3636	0.	5.0259e-002
13706	7.4455	4.2727	0.	5.1376e-002
13707	7.4455	4.3636	5.e-002	6.5948
13708	7.7214	4.3636	0.	3.9235e-002
13709	7.6294	4.2727	0.	3.9883e-002
13710	7.6294	4.3636	5.e-002	6.3889
13711	7.9053	4.3636	0.	3.0906e-002
13712	7.8133	4.2727	0.	3.1204e-002
13713	7.8133	4.3636	5.e-002	6.2232
13714	8.0892	4.3636	0.	2.4585e-002
13715	7.9973	4.2727	0.	2.4638e-002
13716	7.9973	4.3636	5.e-002	6.0878
13717	8.2732	4.3636	0.	1.9765e-002
13718	8.1812	4.2727	0.	1.965e-002
13719	8.1812	4.3636	5.e-002	5.9755
13720	8.4571	4.3636	0.	1.6078e-002
13721	8.3652	4.2727	0.	1.5851e-002
13722	8.3652	4.3636	5.e-002	5.8806
13723	8.6411	4.3636	0.	1.3253e-002
13724	8.5491	4.2727	0.	1.2957e-002
13725	8.5491	4.3636	5.e-002	5.7992
13726	8.825	4.3636	0.	1.1083e-002
13727	8.733	4.2727	0.	1.0753e-002
13728	8.733	4.3636	5.e-002	5.728
13729	9.0089	4.3636	0.	9.4141e-003
13730	8.917	4.2727	0.	9.0712e-003
13731	8.917	4.3636	5.e-002	5.6648
13732	9.1929	4.3636	0.	8.1318e-003
13733	9.1009	4.2727	0.	7.7903e-003
13734	9.1009	4.3636	5.e-002	5.608
13735	9.3768	4.3636	0.	7.1523e-003
13736	9.2848	4.2727	0.	6.8221e-003
13737	9.2848	4.3636	5.e-002	5.5562
13738	9.5608	4.3636	0.	6.4053e-003
13739	9.4688	4.2727	0.	6.0968e-003
13740	9.4688	4.3636	5.e-002	5.5084
13741	9.7447	4.3636	0.	5.845e-003
13742	9.6527	4.2727	0.	5.5537e-003
13743	9.6527	4.3636	5.e-002	5.464
13744	9.9286	4.3636	0.	5.4396e-003
13745	9.8367	4.2727	0.	5.1689e-003
13746	9.8367	4.3636	5.e-002	5.4224
13747	10.113	4.3636	0.	5.1364e-003
13748	10.021	4.2727	0.	4.9073e-003
13749	10.021	4.3636	5.e-002	5.3832
13750	10.297	4.3636	0.	4.9113e-003
13751	10.205	4.2727	0.	4.7031e-003
13752	10.205	4.3636	5.e-002	5.346
13753	10.48	4.3636	0.	4.7666e-003
13754	10.388	4.2727	0.	4.5782e-003
13755	10.388	4.3636	5.e-002	5.3105
13756	10.664	4.3636	0.	4.6764e-003
13757	10.572	4.2727	0.	4.5162e-003
13758	10.572	4.3636	5.e-002	5.2764
13759	10.848	4.3636	0.	4.6422e-003
13760	10.756	4.2727	0.	4.4832e-003
13761	10.756	4.3636	5.e-002	5.2436
13762	11.032	4.3636	0.	4.681e-003
13763	10.94	4.2727	0.	4.5188e-003
13764	10.94	4.3636	5.e-002	5.2121
13765	11.216	4.3636	0.	4.7699e-003
13766	11.124	4.2727	0.	4.6179e-003
13767	11.124	4.3636	5.e-002	5.1816
13768	11.4	4.3636	0.	4.8901e-003
13769	11.308	4.2727	0.	4.7385e-003
13770	11.308	4.3636	5.e-002	5.152
13771	11.584	4.3636	0.	5.0682e-003
13772	11.492	4.2727	0.	4.8837e-003
13773	11.492	4.3636	5.e-002	5.1234
13774	11.768	4.3636	0.	5.3267e-003
13775	11.676	4.2727	0.	5.1009e-003
13776	11.676	4.3636	5.e-002	5.0954
13777	11.952	4.3636	0.	5.6475e-003
13778	11.86	4.2727	0.	5.3824e-003
13779	11.86	4.3636	5.e-002	5.0683
13780	12.136	4.3636	0.	6.0734e-003
13781	12.044	4.2727	0.	5.6897e-003
13782	12.044	4.3636	5.e-002	5.0418
13783	12.32	4.3636	0.	6.7288e-003
13784	12.228	4.2727	0.	6.1268e-003
13785	12.228	4.3636	5.e-002	5.0159
13786	12.504	4.3636	0.	7.7983e-003
13787	12.412	4.2727	0.	6.7952e-003
13788	12.412	4.3636	5.e-002	4.9904
13789	12.688	4.3636	0.	9.8295e-003
13790	12.596	4.2727	0.	7.8561e-003
13791	12.596	4.3636	5.e-002	4.9655
13792	12.872	4.3636	0.	1.5397e-002
13793	12.78	4.2727	0.	9.9119e-003
13794	12.78	4.3636	5.e-002	4.941
13795	13.056	4.3636	0.	7.9404e-002
13796	12.964	4.2727	0.	1.5969e-002
13797	12.964	4.3636	5.e-002	4.9169
13798	13.24	4.3636	0.	1.1224
13799	13.148	4.2727	0.	0.1336
13800	13.148	4.3636	5.e-002	4.8933
13801	13.423	4.3636	0.	2.293
13802	13.332	4.2727	0.	1.2784
13803	13.332	4.3636	5.e-002	4.87
13804	13.607	4.3636	0.	3.4009
13805	13.515	4.2727	0.	2.4511
13806	13.515	4.3636	5.e-002	4.8471
13807	13.791	4.3636	0.	4.4486
13808	13.699	4.2727	0.	3.5604
13809	13.699	4.3636	5.e-002	4.8245
13810	13.975	4.3636	0.	5.4417
13811	13.883	4.2727	0.	4.6103
13812	13.883	4.3636	5.e-002	4.8022
13813	14.159	4.3636	0.	6.3858
13814	14.067	4.2727	0.	5.6063
13815	14.067	4.3636	5.e-002	4.7803
13816	14.343	4.3636	0.	7.2867
13817	14.251	4.2727	0.	6.5546
13818	14.251	4.3636	5.e-002	4.7585
13819	14.527	4.3636	0.	8.1498
13820	14.435	4.2727	0.	7.4607
13821	14.435	4.3636	5.e-002	4.7371
13822	14.711	4.3636	0.	8.9801
13823	14.619	4.2727	0.	8.3303
13824	14.619	4.3636	5.e-002	4.7158
13825	14.895	4.3636	0.	9.7827
13826	14.803	4.2727	0.	9.1685
13827	14.803	4.3636	5.e-002	4.6948
13828	15.079	4.3636	0.	10.562
13829	14.987	4.2727	0.	9.9805
13830	14.987	4.3636	5.e-002	4.674
13831	15.263	4.3636	0.	11.324
13832	15.171	4.2727	0.	10.771
13833	15.171	4.3636	5.e-002	4.6534
13834	15.447	4.3636	0.	12.072
13835	15.355	4.2727	0.	11.545
13836	15.355	4.3636	5.e-002	4.6331
13837	15.631	4.3636	0.	12.81
13838	15.539	4.2727	0.	12.308
13839	15.539	4.3636	5.e-002	4.613
13840	15.815	4.3636	0.	13.544
13841	15.723	4.2727	0.	13.063
13842	15.723	4.3636	5.e-002	4.5931
13843	15.999	4.3636	0.	14.278
13844	15.907	4.2727	0.	13.816
13845	15.907	4.3636	5.e-002	4.5734
13846	16.183	4.3636	0.	15.015
13847	16.091	4.2727	0.	14.57
13848	16.091	4.3636	5.e-002	4.5539
13849	16.367	4.3636	0.	15.761
13850	16.275	4.2727	0.	15.331
13851	16.275	4.3636	5.e-002	4.5347
13852	16.55	4.3636	0.	16.52
13853	16.458	4.2727	0.	16.102
13854	16.458	4.3636	5.e-002	4.5156
13855	16.734	4.3636	0.	17.295
13856	16.642	4.2727	0.	16.89
13857	16.642	4.3636	5.e-002	4.4967
13858	16.918	4.3636	0.	18.093
13859	16.826	4.2727	0.	17.697
13860	16.826	4.3636	5.e-002	4.4781
13861	17.102	4.3636	0.	18.916
13862	17.01	4.2727	0.	18.53
13863	17.01	4.3636	5.e-002	4.4596
13864	17.286	4.3636	0.	19.772
13865	17.194	4.2727	0.	19.392
13866	17.194	4.3636	5.e-002	4.4415
13867	17.47	4.3636	0.	20.663
13868	17.378	4.2727	0.	20.29
13869	17.378	4.3636	5.e-002	4.4236
13870	17.654	4.3636	0.	21.596
13871	17.562	4.2727	0.	21.228
13872	17.562	4.3636	5.e-002	4.4059
13873	17.838	4.3636	0.	22.575
13874	17.746	4.2727	0.	22.212
13875	17.746	4.3636	5.e-002	4.3886
13876	18.022	4.3636	0.	23.607
13877	17.93	4.2727	0.	23.248
13878	17.93	4.3636	5.e-002	4.3716
13879	18.206	4.3636	0.	24.698
13880	18.114	4.2727	0.	24.342
13881	18.114	4.3636	5.e-002	4.3549
13882	18.39	4.3636	0.	25.854
13883	18.298	4.2727	0.	25.501
13884	18.298	4.3636	5.e-002	4.3385
13885	18.574	4.3636	0.	27.081
13886	18.482	4.2727	0.	26.73
13887	18.482	4.3636	5.e-002	4.3224
13888	18.758	4.3636	0.	28.387
13889	18.666	4.2727	0.	28.038
13890	18.666	4.3636	5.e-002	4.3068
13891	18.942	4.3636	0.	29.78
13892	18.85	4.2727	0.	29.433
13893	18.85	4.3636	5.e-002	4.2916
13894	19.126	4.3636	0.	31.267
13895	19.034	4.2727	0.	30.922
13896	19.034	4.3636	5.e-002	4.2768
13897	19.31	4.3636	0.	32.857
13898	19.218	4.2727	0.	32.514
13899	19.218	4.3636	5.e-002	4.2625
13900	19.493	4.3636	0.	34.56
13901	19.402	4.2727	0.	34.218
13902	19.402	4.3636	5.e-002	4.2488
13903	19.677	4.3636	0.	36.386
13904	19.585	4.2727	0.	36.046
13905	19.585	4.3636	5.e-002	4.2357
13906	19.861	4.3636	0.	38.345
13907	19.769	4.2727	0.	38.008
13908	19.769	4.3636	5.e-002	4.2233
13909	20.045	4.3636	0.	40.449
13910	19.953	4.2727	0.	40.115
13911	19.953	4.3636	5.e-002	4.2115
13912	20.229	4.3636	0.	42.711
13913	20.137	4.2727	0.	42.38
13914	20.137	4.3636	5.e-002	4.2006
13915	20.413	4.3636	0.	45.145
13916	20.321	4.2727	0.	44.817
13917	20.321	4.3636	5.e-002	4.1905
13918	20.597	4.3636	0.	47.766
13919	20.505	4.2727	0.	47.442
13920	20.505	4.3636	5.e-002	4.1813
13921	20.781	4.3636	0.	50.591
13922	20.689	4.2727	0.	50.27
13923	20.689	4.3636	5.e-002	4.1732
13924	20.965	4.3636	0.	53.637
13925	20.873	4.2727	0.	53.32
13926	20.873	4.3636	5.e-002	4.1663
13927	21.149	4.3636	0.	56.927
13928	21.057	4.2727	0.	56.61
13929	21.057	4.3636	5.e-002	4.1607
13930	21.333	4.3636	0.	60.481
13931	21.241	4.2727	0.	60.164
13932	21.241	4.3636	5.e-002	4.1566
13933	21.517	4.3636	0.	64.325
13934	21.425	4.2727	0.	64.004
13935	21.425	4.3636	5.e-002	4.1542
13936	21.701	4.3636	0.	68.488
13937	21.609	4.2727	0.	68.157
13938	21.609	4.3636	5.e-002	4.1537
13939	21.885	4.3636	0.	73.
13940	21.793	4.2727	0.	72.651
13941	21.793	4.3636	5.e-002	4.1555
13942	22.069	4.3636	0.	77.895
13943	21.977	4.2727	0.	77.519
13944	21.977	4.3636	5.e-002	4.1599
13945	22.253	4.3636	0.	83.213
13946	22.161	4.2727	0.	82.795
13947	22.161	4.3636	5.e-002	4.1673
13948	22.437	4.3636	0.	88.993
13949	22.345	4.2727	0.	88.515
13950	22.345	4.3636	5.e-002	4.1783
13951	22.62	4.3636	0.	95.28
13952	22.528	4.2727	0.	94.719
13953	22.528	4.3636	5.e-002	4.1935
13954	22.804	4.3636	0.	102.12
13955	22.712	4.2727	0.	101.45
13956	22.712	4.3636	5.e-002	4.2137
13957	22.988	4.3636	0.	109.54
13958	22.896	4.2727	0.	108.73
13959	22.896	4.3636	5.e-002	4.2399
13960	23.172	4.3636	0.	117.6
13961	23.08	4.2727	0.	116.61
13962	23.08	4.3636	5.e-002	4.2729
13963	23.356	4.3636	0.	126.3
13964	23.264	4.2727	0.	125.11
13965	23.264	4.3636	5.e-002	4.3137
13966	23.54	4.3636	0.	135.69
13967	23.448	4.2727	0.	134.24
13968	23.448	4.3636	5.e-002	4.363
13969	23.724	4.3636	0.	145.7
13970	23.632	4.2727	0.	144.04
13971	23.632	4.3636	5.e-002	4.4235
13972	23.816	4.2727	0.	154.33
13973	23.816	4.3636	5.e-002	4.5415
13974	23.908	4.3636	0.	155.49
13975	4.0426	4.1818	0.	2838.4
13976	3.9506	4.0909	0.	3300.5
13977	3.9506	4.1818	5.e-002	510.56
13978	3.8586	4.1818	0.	4623.4
13979	4.2265	4.1818	0.	1185.7
13980	4.1345	4.0909	0.	1296.9
13981	4.1345	4.1818	5.e-002	171.31
13982	4.4105	4.1818	0.	502.83
13983	4.3185	4.0909	0.	539.16
13984	4.3185	4.1818	5.e-002	79.127
13985	4.5944	4.1818	0.	181.99
13986	4.5024	4.0909	0.	187.19
13987	4.5024	4.1818	5.e-002	57.096
13988	4.7783	4.1818	0.	28.477
13989	4.6864	4.0909	0.	23.786
13990	4.6864	4.1818	5.e-002	44.483
13991	4.9623	4.1818	0.	5.9831
13992	4.8703	4.0909	0.	5.5754
13993	4.8703	4.1818	5.e-002	35.687
13994	5.1462	4.1818	0.	2.7659
13995	5.0542	4.0909	0.	2.6036
13996	5.0542	4.1818	5.e-002	29.395
13997	5.3302	4.1818	0.	1.6449
13998	5.2382	4.0909	0.	1.6079
13999	5.2382	4.1818	5.e-002	24.623
14000	5.5141	4.1818	0.	1.0789
14001	5.4221	4.0909	0.	1.0638
14002	5.4221	4.1818	5.e-002	20.893
14003	5.698	4.1818	0.	0.7487
14004	5.6061	4.0909	0.	0.74817
14005	5.6061	4.1818	5.e-002	17.917
14006	5.882	4.1818	0.	0.53531
14007	5.79	4.0909	0.	0.5389
14008	5.79	4.1818	5.e-002	15.516
14009	6.0659	4.1818	0.	0.39027
14010	5.9739	4.0909	0.	0.39537
14011	5.9739	4.1818	5.e-002	13.57
14012	6.2498	4.1818	0.	0.28808
14013	6.1579	4.0909	0.	0.29302
14014	6.1579	4.1818	5.e-002	11.993
14015	6.4338	4.1818	0.	0.21458
14016	6.3418	4.0909	0.	0.21878
14017	6.3418	4.1818	5.e-002	10.717
14018	6.6177	4.1818	0.	0.16094
14019	6.5258	4.0909	0.	0.16422
14020	6.5258	4.1818	5.e-002	9.6886
14021	6.8017	4.1818	0.	0.12142
14022	6.7097	4.0909	0.	0.1238
14023	6.7097	4.1818	5.e-002	8.8636
14024	6.9856	4.1818	0.	9.209e-002
14025	6.8936	4.0909	0.	9.3701e-002
14026	6.8936	4.1818	5.e-002	8.2037
14027	7.1695	4.1818	0.	7.0212e-002
14028	7.0776	4.0909	0.	7.119e-002
14029	7.0776	4.1818	5.e-002	7.6773
14030	7.3535	4.1818	0.	5.3825e-002
14031	7.2615	4.0909	0.	5.4312e-002
14032	7.2615	4.1818	5.e-002	7.2574
14033	7.5374	4.1818	0.	4.1509e-002
14034	7.4455	4.0909	0.	4.1631e-002
14035	7.4455	4.1818	5.e-002	6.9217
14036	7.7214	4.1818	0.	3.2225e-002
14037	7.6294	4.0909	0.	3.2084e-002
14038	7.6294	4.1818	5.e-002	6.6523
14039	7.9053	4.1818	0.	2.5214e-002
14040	7.8133	4.0909	0.	2.489e-002
14041	7.8133	4.1818	5.e-002	6.4346
14042	8.0892	4.1818	0.	1.9914e-002
14043	7.9973	4.0909	0.	1.9475e-002
14044	7.9973	4.1818	5.e-002	6.257
14045	8.2732	4.1818	0.	1.5898e-002
14046	8.1812	4.0909	0.	1.5395e-002
14047	8.1812	4.1818	5.e-002	6.1106
14048	8.4571	4.1818	0.	1.2856e-002
14049	8.3652	4.0909	0.	1.2322e-002
14050	8.3652	4.1818	5.e-002	5.9884
14051	8.6411	4.1818	0.	1.0556e-002
14052	8.5491	4.0909	0.	1.0016e-002
14053	8.5491	4.1818	5.e-002	5.8851
14054	8.825	4.1818	0.	8.8195e-003
14055	8.733	4.0909	0.	8.2936e-003
14056	8.733	4.1818	5.e-002	5.7965
14057	9.0089	4.1818	0.	7.5102e-003
14058	8.917	4.0909	0.	7.0102e-003
14059	8.917	4.1818	5.e-002	5.7195
14060	9.1929	4.1818	0.	6.5305e-003
14061	9.1009	4.0909	0.	6.0615e-003
14062	9.1009	4.1818	5.e-002	5.6517
14063	9.3768	4.1818	0.	5.806e-003
14064	9.2848	4.0909	0.	5.3719e-003
14065	9.2848	4.1818	5.e-002	5.5912
14066	9.5608	4.1818	0.	5.2758e-003
14067	9.4688	4.0909	0.	4.8818e-003
14068	9.4688	4.1818	5.e-002	5.5365
14069	9.7447	4.1818	0.	4.9008e-003
14070	9.6527	4.0909	0.	4.5376e-003
14071	9.6527	4.1818	5.e-002	5.4867
14072	9.9286	4.1818	0.	4.6536e-003
14073	9.8367	4.0909	0.	4.3227e-003
14074	9.8367	4.1818	5.e-002	5.4408
14075	10.113	4.1818	0.	4.4857e-003
14076	10.021	4.0909	0.	4.2052e-003
14077	10.021	4.1818	5.e-002	5.3981
14078	10.297	4.1818	0.	4.377e-003
14079	10.205	4.0909	0.	4.1239e-003
14080	10.205	4.1818	5.e-002	5.3582
14081	10.48	4.1818	0.	4.3309e-003
14082	10.388	4.0909	0.	4.1039e-003
14083	10.388	4.1818	5.e-002	5.3205
14084	10.664	4.1818	0.	4.3226e-003
14085	10.572	4.0909	0.	4.1296e-003
14086	10.572	4.1818	5.e-002	5.2847
14087	10.848	4.1818	0.	4.3564e-003
14088	10.756	4.0909	0.	4.1696e-003
14089	10.756	4.1818	5.e-002	5.2506
14090	11.032	4.1818	0.	4.4496e-003
14091	10.94	4.0909	0.	4.2653e-003
14092	10.94	4.1818	5.e-002	5.2179
14093	11.216	4.1818	0.	4.578e-003
14094	11.124	4.0909	0.	4.4107e-003
14095	11.124	4.1818	5.e-002	5.1865
14096	11.4	4.1818	0.	4.7216e-003
14097	11.308	4.0909	0.	4.5644e-003
14098	11.308	4.1818	5.e-002	5.1563
14099	11.584	4.1818	0.	4.9042e-003
14100	11.492	4.0909	0.	4.7271e-003
14101	11.492	4.1818	5.e-002	5.127
14102	11.768	4.1818	0.	5.1431e-003
14103	11.676	4.0909	0.	4.9444e-003
14104	11.676	4.1818	5.e-002	5.0987
14105	11.952	4.1818	0.	5.4102e-003
14106	11.86	4.0909	0.	5.2029e-003
14107	11.86	4.1818	5.e-002	5.0711
14108	12.136	4.1818	0.	5.7279e-003
14109	12.044	4.0909	0.	5.4546e-003
14110	12.044	4.1818	5.e-002	5.0443
14111	12.32	4.1818	0.	6.1766e-003
14112	12.228	4.0909	0.	5.782e-003
14113	12.228	4.1818	5.e-002	5.0181
14114	12.504	4.1818	0.	6.8298e-003
14115	12.412	4.0909	0.	6.2455e-003
14116	12.412	4.1818	5.e-002	4.9924
14117	12.688	4.1818	0.	7.8723e-003
14118	12.596	4.0909	0.	6.891e-003
14119	12.596	4.1818	5.e-002	4.9673
14120	12.872	4.1818	0.	9.9659e-003
14121	12.78	4.0909	0.	7.9404e-003
14122	12.78	4.1818	5.e-002	4.9426
14123	13.056	4.1818	0.	1.6721e-002
14124	12.964	4.0909	0.	1.0174e-002
14125	12.964	4.1818	5.e-002	4.9184
14126	13.24	4.1818	0.	0.25209
14127	13.148	4.0909	0.	1.874e-002
14128	13.148	4.1818	5.e-002	4.8946
14129	13.423	4.1818	0.	1.4589
14130	13.332	4.0909	0.	0.47678
14131	13.332	4.1818	5.e-002	4.8713
14132	13.607	4.1818	0.	2.6347
14133	13.515	4.0909	0.	1.7044
14134	13.515	4.1818	5.e-002	4.8482
14135	13.791	4.1818	0.	3.7468
14136	13.699	4.0909	0.	2.8758
14137	13.699	4.1818	5.e-002	4.8255
14138	13.975	4.1818	0.	4.8002
14139	13.883	4.0909	0.	3.9841
14140	13.883	4.1818	5.e-002	4.8032
14141	14.159	4.1818	0.	5.8008
14142	14.067	4.0909	0.	5.0349
14143	14.067	4.1818	5.e-002	4.7812
14144	14.343	4.1818	0.	6.7549
14145	14.251	4.0909	0.	6.0345
14146	14.251	4.1818	5.e-002	4.7594
14147	14.527	4.1818	0.	7.6681
14148	14.435	4.0909	0.	6.9891
14149	14.435	4.1818	5.e-002	4.7379
14150	14.711	4.1818	0.	8.546
14151	14.619	4.0909	0.	7.9045
14152	14.619	4.1818	5.e-002	4.7166
14153	14.895	4.1818	0.	9.3941
14154	14.803	4.0909	0.	8.7863
14155	14.803	4.1818	5.e-002	4.6956
14156	15.079	4.1818	0.	10.218
14157	14.987	4.0909	0.	9.6402
14158	14.987	4.1818	5.e-002	4.6747
14159	15.263	4.1818	0.	11.021
14160	15.171	4.0909	0.	10.471
14161	15.171	4.1818	5.e-002	4.6541
14162	15.447	4.1818	0.	11.811
14163	15.355	4.0909	0.	11.285
14164	15.355	4.1818	5.e-002	4.6338
14165	15.631	4.1818	0.	12.59
14166	15.539	4.0909	0.	12.086
14167	15.539	4.1818	5.e-002	4.6136
14168	15.815	4.1818	0.	13.364
14169	15.723	4.0909	0.	12.879
14170	15.723	4.1818	5.e-002	4.5937
14171	15.999	4.1818	0.	14.138
14172	15.907	4.0909	0.	13.669
14173	15.907	4.1818	5.e-002	4.574
14174	16.183	4.1818	0.	14.916
14175	16.091	4.0909	0.	14.461
14176	16.091	4.1818	5.e-002	4.5545
14177	16.367	4.1818	0.	15.703
14178	16.275	4.0909	0.	15.261
14179	16.275	4.1818	5.e-002	4.5353
14180	16.55	4.1818	0.	16.504
14181	16.458	4.0909	0.	16.072
14182	16.458	4.1818	5.e-002	4.5162
14183	16.734	4.1818	0.	17.324
14184	16.642	4.0909	0.	16.9
14185	16.642	4.1818	5.e-002	4.4973
14186	16.918	4.1818	0.	18.167
14187	16.826	4.0909	0.	17.749
14188	16.826	4.1818	5.e-002	4.4787
14189	17.102	4.1818	0.	19.039
14190	17.01	4.0909	0.	18.626
14191	17.01	4.1818	5.e-002	4.4602
14192	17.286	4.1818	0.	19.945
14193	17.194	4.0909	0.	19.535
14194	17.194	4.1818	5.e-002	4.4421
14195	17.47	4.1818	0.	20.89
14196	17.378	4.0909	0.	20.482
14197	17.378	4.1818	5.e-002	4.4242
14198	17.654	4.1818	0.	21.88
14199	17.562	4.0909	0.	21.473
14200	17.562	4.1818	5.e-002	4.4066
14201	17.838	4.1818	0.	22.921
14202	17.746	4.0909	0.	22.513
14203	17.746	4.1818	5.e-002	4.3893
14204	18.022	4.1818	0.	24.019
14205	17.93	4.0909	0.	23.609
14206	17.93	4.1818	5.e-002	4.3723
14207	18.206	4.1818	0.	25.181
14208	18.114	4.0909	0.	24.767
14209	18.114	4.1818	5.e-002	4.3556
14210	18.39	4.1818	0.	26.414
14211	18.298	4.0909	0.	25.996
14212	18.298	4.1818	5.e-002	4.3393
14213	18.574	4.1818	0.	27.725
14214	18.482	4.0909	0.	27.301
14215	18.482	4.1818	5.e-002	4.3233
14216	18.758	4.1818	0.	29.121
14217	18.666	4.0909	0.	28.691
14218	18.666	4.1818	5.e-002	4.3077
14219	18.942	4.1818	0.	30.613
14220	18.85	4.0909	0.	30.174
14221	18.85	4.1818	5.e-002	4.2926
14222	19.126	4.1818	0.	32.207
14223	19.034	4.0909	0.	31.76
14224	19.034	4.1818	5.e-002	4.2779
14225	19.31	4.1818	0.	33.914
14226	19.218	4.0909	0.	33.457
14227	19.218	4.1818	5.e-002	4.2637
14228	19.493	4.1818	0.	35.744
14229	19.402	4.0909	0.	35.277
14230	19.402	4.1818	5.e-002	4.2501
14231	19.677	4.1818	0.	37.708
14232	19.585	4.0909	0.	37.23
14233	19.585	4.1818	5.e-002	4.2372
14234	19.861	4.1818	0.	39.818
14235	19.769	4.0909	0.	39.327
14236	19.769	4.1818	5.e-002	4.2249
14237	20.045	4.1818	0.	42.086
14238	19.953	4.0909	0.	41.582
14239	19.953	4.1818	5.e-002	4.2133
14240	20.229	4.1818	0.	44.527
14241	20.137	4.0909	0.	44.009
14242	20.137	4.1818	5.e-002	4.2026
14243	20.413	4.1818	0.	47.155
14244	20.321	4.0909	0.	46.621
14245	20.321	4.1818	5.e-002	4.1927
14246	20.597	4.1818	0.	49.987
14247	20.505	4.0909	0.	49.436
14248	20.505	4.1818	5.e-002	4.1839
14249	20.781	4.1818	0.	53.04
14250	20.689	4.0909	0.	52.47
14251	20.689	4.1818	5.e-002	4.1762
14252	20.965	4.1818	0.	56.333
14253	20.873	4.0909	0.	55.742
14254	20.873	4.1818	5.e-002	4.1697
14255	21.149	4.1818	0.	59.888
14256	21.057	4.0909	0.	59.272
14257	21.057	4.1818	5.e-002	4.1646
14258	21.333	4.1818	0.	63.727
14259	21.241	4.0909	0.	63.082
14260	21.241	4.1818	5.e-002	4.1611
14261	21.517	4.1818	0.	67.875
14262	21.425	4.0909	0.	67.195
14263	21.425	4.1818	5.e-002	4.1594
14264	21.701	4.1818	0.	72.359
14265	21.609	4.0909	0.	71.638
14266	21.609	4.1818	5.e-002	4.1598
14267	21.885	4.1818	0.	77.208
14268	21.793	4.0909	0.	76.437
14269	21.793	4.1818	5.e-002	4.1625
14270	22.069	4.1818	0.	82.454
14271	21.977	4.0909	0.	81.622
14272	21.977	4.1818	5.e-002	4.1679
14273	22.253	4.1818	0.	88.131
14274	22.161	4.0909	0.	87.223
14275	22.161	4.1818	5.e-002	4.1765
14276	22.437	4.1818	0.	94.272
14277	22.345	4.0909	0.	93.271
14278	22.345	4.1818	5.e-002	4.1887
14279	22.62	4.1818	0.	100.91
14280	22.528	4.0909	0.	99.8
14281	22.528	4.1818	5.e-002	4.2051
14282	22.804	4.1818	0.	108.09
14283	22.712	4.0909	0.	106.84
14284	22.712	4.1818	5.e-002	4.2264
14285	22.988	4.1818	0.	115.82
14286	22.896	4.0909	0.	114.41
14287	22.896	4.1818	5.e-002	4.2533
14288	23.172	4.1818	0.	124.15
14289	23.08	4.0909	0.	122.55
14290	23.08	4.1818	5.e-002	4.2864
14291	23.356	4.1818	0.	133.06
14292	23.264	4.0909	0.	131.27
14293	23.264	4.1818	5.e-002	4.3264
14294	23.54	4.1818	0.	142.6
14295	23.448	4.0909	0.	140.55
14296	23.448	4.1818	5.e-002	4.3735
14297	23.724	4.1818	0.	152.69
14298	23.632	4.0909	0.	150.46
14299	23.632	4.1818	5.e-002	4.4298
14300	23.816	4.0909	0.	160.78
14301	23.816	4.1818	5.e-002	4.531
14302	23.908	4.1818	0.	162.58
14303	4.0426	4.	0.	1788.3
14304	3.9506	3.9091	0.	1705.7
14305	3.9506	4.	5.e-002	928.31
14306	3.8586	4.	0.	2837.8
14307	4.2265	4.	0.	649.85
14308	4.1345	3.9091	0.	683.64
14309	4.1345	4.	5.e-002	160.33
14310	4.4105	4.	0.	216.62
14311	4.3185	3.9091	0.	223.24
14312	4.3185	4.	5.e-002	103.65
14313	4.5944	4.	0.	26.905
14314	4.5024	3.9091	0.	23.618
14315	4.5024	4.	5.e-002	69.142
14316	4.7783	4.	0.	5.231
14317	4.6864	3.9091	0.	3.9586
14318	4.6864	4.	5.e-002	52.038
14319	4.9623	4.	0.	2.7769
14320	4.8703	3.9091	0.	2.7219
14321	4.8703	4.	5.e-002	41.045
14322	5.1462	4.	0.	1.6242
14323	5.0542	3.9091	0.	1.5296
14324	5.0542	4.	5.e-002	33.452
14325	5.3302	4.	0.	1.1068
14326	5.2382	3.9091	0.	1.0958
14327	5.2382	4.	5.e-002	27.803
14328	5.5141	4.	0.	0.77539
14329	5.4221	3.9091	0.	0.77081
14330	5.4221	4.	5.e-002	23.438
14331	5.698	4.	0.	0.5629
14332	5.6061	3.9091	0.	0.56653
14333	5.6061	4.	5.e-002	19.977
14334	5.882	4.	0.	0.41397
14335	5.79	3.9091	0.	0.41856
14336	5.79	4.	5.e-002	17.198
14337	6.0659	4.	0.	0.30764
14338	5.9739	3.9091	0.	0.31216
14339	5.9739	4.	5.e-002	14.95
14340	6.2498	4.	0.	0.22991
14341	6.1579	3.9091	0.	0.23355
14342	6.1579	4.	5.e-002	13.129
14343	6.4338	4.	0.	0.17253
14344	6.3418	3.9091	0.	0.17519
14345	6.3418	4.	5.e-002	11.654
14346	6.6177	4.	0.	0.12986
14347	6.5258	3.9091	0.	0.13161
14348	6.5258	4.	5.e-002	10.462
14349	6.8017	4.	0.	9.7999e-002
14350	6.7097	3.9091	0.	9.9001e-002
14351	6.7097	4.	5.e-002	9.5004
14352	6.9856	4.	0.	7.4137e-002
14353	6.8936	3.9091	0.	7.4552e-002
14354	6.8936	4.	5.e-002	8.7268
14355	7.1695	4.	0.	5.6239e-002
14356	7.0776	3.9091	0.	5.6214e-002
14357	7.0776	4.	5.e-002	8.1053
14358	7.3535	4.	0.	4.2801e-002
14359	7.2615	3.9091	0.	4.2464e-002
14360	7.2615	4.	5.e-002	7.6063
14361	7.5374	4.	0.	3.2706e-002
14362	7.4455	3.9091	0.	3.2162e-002
14363	7.4455	4.	5.e-002	7.2051
14364	7.7214	4.	0.	2.5121e-002
14365	7.6294	3.9091	0.	2.4447e-002
14366	7.6294	4.	5.e-002	6.8815
14367	7.9053	4.	0.	1.9431e-002
14368	7.8133	3.9091	0.	1.8682e-002
14369	7.8133	4.	5.e-002	6.6194
14370	8.0892	4.	0.	1.517e-002
14371	7.9973	3.9091	0.	1.4395e-002
14372	7.9973	4.	5.e-002	6.4056
14373	8.2732	4.	0.	1.1983e-002
14374	8.1812	3.9091	0.	1.1213e-002
14375	8.1812	4.	5.e-002	6.2298
14376	8.4571	4.	0.	9.6096e-003
14377	8.3652	3.9091	0.	8.8635e-003
14378	8.3652	4.	5.e-002	6.0839
14379	8.6411	4.	0.	7.8536e-003
14380	8.5491	3.9091	0.	7.1454e-003
14381	8.5491	4.	5.e-002	5.9615
14382	8.825	4.	0.	6.5635e-003
14383	8.733	3.9091	0.	5.904e-003
14384	8.733	4.	5.e-002	5.8576
14385	9.0089	4.	0.	5.624e-003
14386	8.917	3.9091	0.	5.0172e-003
14387	8.917	4.	5.e-002	5.7684
14388	9.1929	4.	0.	4.9524e-003
14389	9.1009	3.9091	0.	4.3974e-003
14390	9.1009	4.	5.e-002	5.6909
14391	9.3768	4.	0.	4.4865e-003
14392	9.2848	3.9091	0.	3.9824e-003
14393	9.2848	4.	5.e-002	5.6226
14394	9.5608	4.	0.	4.1737e-003
14395	9.4688	3.9091	0.	3.7222e-003
14396	9.4688	4.	5.e-002	5.5618
14397	9.7447	4.	0.	3.9824e-003
14398	9.6527	3.9091	0.	3.5711e-003
14399	9.6527	4.	5.e-002	5.507
14400	9.9286	4.	0.	3.8913e-003
14401	9.8367	3.9091	0.	3.5197e-003
14402	9.8367	4.	5.e-002	5.4572
14403	10.113	4.	0.	3.8555e-003
14404	10.021	3.9091	0.	3.5398e-003
14405	10.021	4.	5.e-002	5.4115
14406	10.297	4.	0.	3.8586e-003
14407	10.205	3.9091	0.	3.5752e-003
14408	10.205	4.	5.e-002	5.3691
14409	10.48	4.	0.	3.9069e-003
14410	10.388	3.9091	0.	3.6532e-003
14411	10.388	4.	5.e-002	5.3294
14412	10.664	4.	0.	3.9778e-003
14413	10.572	3.9091	0.	3.7622e-003
14414	10.572	4.	5.e-002	5.2921
14415	10.848	4.	0.	4.077e-003
14416	10.756	3.9091	0.	3.8711e-003
14417	10.756	4.	5.e-002	5.2568
14418	11.032	4.	0.	4.2227e-003
14419	10.94	3.9091	0.	4.0233e-003
14420	10.94	4.	5.e-002	5.2231
14421	11.216	4.	0.	4.3915e-003
14422	11.124	3.9091	0.	4.2131e-003
14423	11.124	4.	5.e-002	5.1909
14424	11.4	4.	0.	4.5626e-003
14425	11.308	3.9091	0.	4.4005e-003
14426	11.308	4.	5.e-002	5.16
14427	11.584	4.	0.	4.7587e-003
14428	11.492	3.9091	0.	4.5846e-003
14429	11.492	4.	5.e-002	5.1302
14430	11.768	4.	0.	4.9946e-003
14431	11.676	3.9091	0.	4.8104e-003
14432	11.676	4.	5.e-002	5.1014
14433	11.952	4.	0.	5.2368e-003
14434	11.86	3.9091	0.	5.062e-003
14435	11.86	4.	5.e-002	5.0736
14436	12.136	4.	0.	5.4973e-003
14437	12.044	3.9091	0.	5.285e-003
14438	12.044	4.	5.e-002	5.0464
14439	12.32	4.	0.	5.8379e-003
14440	12.228	3.9091	0.	5.5527e-003
14441	12.228	4.	5.e-002	5.02
14442	12.504	4.	0.	6.2887e-003
14443	12.412	3.9091	0.	5.9066e-003
14444	12.412	4.	5.e-002	4.9942
14445	12.688	4.	0.	6.9195e-003
14446	12.596	3.9091	0.	6.3463e-003
14447	12.596	4.	5.e-002	4.9689
14448	12.872	4.	0.	7.9849e-003
14449	12.78	3.9091	0.	6.9706e-003
14450	12.78	4.	5.e-002	4.944
14451	13.056	4.	0.	1.0383e-002
14452	12.964	3.9091	0.	8.0813e-003
14453	12.964	4.	5.e-002	4.9197
14454	13.24	4.	0.	2.2463e-002
14455	13.148	3.9091	0.	1.0845e-002
14456	13.148	4.	5.e-002	4.8958
14457	13.423	4.	0.	0.73683
14458	13.332	3.9091	0.	3.7255e-002
14459	13.332	4.	5.e-002	4.8723
14460	13.607	4.	0.	1.969
14461	13.515	3.9091	0.	1.065
14462	13.515	4.	5.e-002	4.8493
14463	13.791	4.	0.	3.1376
14464	13.699	3.9091	0.	2.2893
14465	13.699	4.	5.e-002	4.8265
14466	13.975	4.	0.	4.2439
14467	13.883	3.9091	0.	3.4482
14468	13.883	4.	5.e-002	4.8041
14469	14.159	4.	0.	5.2942
14470	14.067	3.9091	0.	4.5464
14471	14.067	4.	5.e-002	4.782
14472	14.343	4.	0.	6.2949
14473	14.251	3.9091	0.	5.5905
14474	14.251	4.	5.e-002	4.7602
14475	14.527	4.	0.	7.2522
14476	14.435	3.9091	0.	6.587
14477	14.435	4.	5.e-002	4.7386
14478	14.711	4.	0.	8.172
14479	14.619	3.9091	0.	7.542
14480	14.619	4.	5.e-002	4.7173
14481	14.895	4.	0.	9.0601
14482	14.803	3.9091	0.	8.4617
14483	14.803	4.	5.e-002	4.6962
14484	15.079	4.	0.	9.922
14485	14.987	3.9091	0.	9.3518
14486	14.987	4.	5.e-002	4.6753
14487	15.263	4.	0.	10.763
14488	15.171	3.9091	0.	10.218
14489	15.171	4.	5.e-002	4.6547
14490	15.447	4.	0.	11.589
14491	15.355	3.9091	0.	11.065
14492	15.355	4.	5.e-002	4.6343
14493	15.631	4.	0.	12.404
14494	15.539	3.9091	0.	11.899
14495	15.539	4.	5.e-002	4.6142
14496	15.815	4.	0.	13.214
14497	15.723	3.9091	0.	12.726
14498	15.723	4.	5.e-002	4.5942
14499	15.999	4.	0.	14.023
14500	15.907	3.9091	0.	13.549
14501	15.907	4.	5.e-002	4.5745
14502	16.183	4.	0.	14.837
14503	16.091	3.9091	0.	14.374
14504	16.091	4.	5.e-002	4.555
14505	16.367	4.	0.	15.661
14506	16.275	3.9091	0.	15.207
14507	16.275	4.	5.e-002	4.5357
14508	16.55	4.	0.	16.499
14509	16.458	3.9091	0.	16.053
14510	16.458	4.	5.e-002	4.5167
14511	16.734	4.	0.	17.358
14512	16.642	3.9091	0.	16.916
14513	16.642	4.	5.e-002	4.4978
14514	16.918	4.	0.	18.241
14515	16.826	3.9091	0.	17.802
14516	16.826	4.	5.e-002	4.4792
14517	17.102	4.	0.	19.156
14518	17.01	3.9091	0.	18.717
14519	17.01	4.	5.e-002	4.4608
14520	17.286	4.	0.	20.106
14521	17.194	3.9091	0.	19.667
14522	17.194	4.	5.e-002	4.4426
14523	17.47	4.	0.	21.099
14524	17.378	3.9091	0.	20.657
14525	17.378	4.	5.e-002	4.4248
14526	17.654	4.	0.	22.14
14527	17.562	3.9091	0.	21.693
14528	17.562	4.	5.e-002	4.4072
14529	17.838	4.	0.	23.236
14530	17.746	3.9091	0.	22.782
14531	17.746	4.	5.e-002	4.3899
14532	18.022	4.	0.	24.392
14533	17.93	3.9091	0.	23.93
14534	17.93	4.	5.e-002	4.3729
14535	18.206	4.	0.	25.618
14536	18.114	3.9091	0.	25.145
14537	18.114	4.	5.e-002	4.3563
14538	18.39	4.	0.	26.919
14539	18.298	3.9091	0.	26.434
14540	18.298	4.	5.e-002	4.34
14541	18.574	4.	0.	28.304
14542	18.482	3.9091	0.	27.805
14543	18.482	4.	5.e-002	4.324
14544	18.758	4.	0.	29.781
14545	18.666	3.9091	0.	29.267
14546	18.666	4.	5.e-002	4.3085
14547	18.942	4.	0.	31.359
14548	18.85	3.9091	0.	30.828
14549	18.85	4.	5.e-002	4.2934
14550	19.126	4.	0.	33.048
14551	19.034	3.9091	0.	32.498
14552	19.034	4.	5.e-002	4.2788
14553	19.31	4.	0.	34.858
14554	19.218	3.9091	0.	34.288
14555	19.218	4.	5.e-002	4.2647
14556	19.493	4.	0.	36.801
14557	19.402	3.9091	0.	36.207
14558	19.402	4.	5.e-002	4.2513
14559	19.677	4.	0.	38.887
14560	19.585	3.9091	0.	38.269
14561	19.585	4.	5.e-002	4.2384
14562	19.861	4.	0.	41.131
14563	19.769	3.9091	0.	40.485
14564	19.769	4.	5.e-002	4.2262
14565	20.045	4.	0.	43.544
14566	19.953	3.9091	0.	42.869
14567	19.953	4.	5.e-002	4.2148
14568	20.229	4.	0.	46.142
14569	20.137	3.9091	0.	45.435
14570	20.137	4.	5.e-002	4.2043
14571	20.413	4.	0.	48.941
14572	20.321	3.9091	0.	48.199
14573	20.321	4.	5.e-002	4.1947
14574	20.597	4.	0.	51.958
14575	20.505	3.9091	0.	51.178
14576	20.505	4.	5.e-002	4.1861
14577	20.781	4.	0.	55.21
14578	20.689	3.9091	0.	54.39
14579	20.689	4.	5.e-002	4.1787
14580	20.965	4.	0.	58.718
14581	20.873	3.9091	0.	57.852
14582	20.873	4.	5.e-002	4.1726
14583	21.149	4.	0.	62.503
14584	21.057	3.9091	0.	61.587
14585	21.057	4.	5.e-002	4.168
14586	21.333	4.	0.	66.587
14587	21.241	3.9091	0.	65.615
14588	21.241	4.	5.e-002	4.1651
14589	21.517	4.	0.	70.994
14590	21.425	3.9091	0.	69.96
14591	21.425	4.	5.e-002	4.164
14592	21.701	4.	0.	75.751
14593	21.609	3.9091	0.	74.646
14594	21.609	4.	5.e-002	4.1651
14595	21.885	4.	0.	80.884
14596	21.793	3.9091	0.	79.699
14597	21.793	4.	5.e-002	4.1686
14598	22.069	4.	0.	86.421
14599	21.977	3.9091	0.	85.145
14600	21.977	4.	5.e-002	4.175
14601	22.253	4.	0.	92.392
14602	22.161	3.9091	0.	91.012
14603	22.161	4.	5.e-002	4.1845
14604	22.437	4.	0.	98.826
14605	22.345	3.9091	0.	97.325
14606	22.345	4.	5.e-002	4.1977
14607	22.62	4.	0.	105.75
14608	22.528	3.9091	0.	104.11
14609	22.528	4.	5.e-002	4.215
14610	22.804	4.	0.	113.19
14611	22.712	3.9091	0.	111.39
14612	22.712	4.	5.e-002	4.2371
14613	22.988	4.	0.	121.16
14614	22.896	3.9091	0.	119.2
14615	22.896	4.	5.e-002	4.2644
14616	23.172	4.	0.	129.69
14617	23.08	3.9091	0.	127.53
14618	23.08	4.	5.e-002	4.2973
14619	23.356	4.	0.	138.76
14620	23.264	3.9091	0.	136.4
14621	23.264	4.	5.e-002	4.3365
14622	23.54	4.	0.	148.42
14623	23.448	3.9091	0.	145.8
14624	23.448	4.	5.e-002	4.3817
14625	23.724	4.	0.	158.56
14626	23.632	3.9091	0.	155.79
14627	23.632	4.	5.e-002	4.4344
14628	23.816	3.9091	0.	166.14
14629	23.816	4.	5.e-002	4.5216
14630	23.908	4.	0.	168.54
14631	4.0426	3.8182	0.	748.57
14632	3.9506	3.7273	0.	925.69
14633	3.9506	3.8182	5.e-002	479.89
14634	4.2265	3.8182	0.	265.32
14635	4.1345	3.7273	0.	369.79
14636	4.1345	3.8182	5.e-002	225.67
14637	4.4105	3.8182	0.	14.676
14638	4.3185	3.7273	0.	34.164
14639	4.3185	3.8182	5.e-002	115.22
14640	4.5944	3.8182	0.	5.7972
14641	4.5024	3.7273	0.	5.2175
14642	4.5024	3.8182	5.e-002	78.965
14643	4.7783	3.8182	0.	2.1049
14644	4.6864	3.7273	0.	1.8275
14645	4.6864	3.8182	5.e-002	58.694
14646	4.9623	3.8182	0.	1.6789
14647	4.8703	3.7273	0.	1.6664
14648	4.8703	3.8182	5.e-002	46.09
14649	5.1462	3.8182	0.	1.0901
14650	5.0542	3.7273	0.	1.0777
14651	5.0542	3.8182	5.e-002	37.349
14652	5.3302	3.8182	0.	0.80626
14653	5.2382	3.7273	0.	0.81909
14654	5.2382	3.8182	5.e-002	30.866
14655	5.5141	3.8182	0.	0.58893
14656	5.4221	3.7273	0.	0.60081
14657	5.4221	3.8182	5.e-002	25.858
14658	5.698	3.8182	0.	0.43891
14659	5.6061	3.7273	0.	0.45021
14660	5.6061	3.8182	5.e-002	21.899
14661	5.882	3.8182	0.	0.32756
14662	5.79	3.7273	0.	0.33617
14663	5.79	3.8182	5.e-002	18.732
14664	6.0659	3.8182	0.	0.24527
14665	5.9739	3.7273	0.	0.25149
14666	5.9739	3.8182	5.e-002	16.181
14667	6.2498	3.8182	0.	0.18374
14668	6.1579	3.7273	0.	0.18789
14669	6.1579	3.8182	5.e-002	14.122
14670	6.4338	3.8182	0.	0.13768
14671	6.3418	3.7273	0.	0.14023
14672	6.3418	3.8182	5.e-002	12.459
14673	6.6177	3.8182	0.	0.10314
14674	6.5258	3.7273	0.	0.10451
14675	6.5258	3.8182	5.e-002	11.117
14676	6.8017	3.8182	0.	7.7257e-002
14677	6.7097	3.7273	0.	7.7776e-002
14678	6.7097	3.8182	5.e-002	10.035
14679	6.9856	3.8182	0.	5.7857e-002
14680	6.8936	3.7273	0.	5.7788e-002
14681	6.8936	3.8182	5.e-002	9.163
14682	7.1695	3.8182	0.	4.3336e-002
14683	7.0776	3.7273	0.	4.2873e-002
14684	7.0776	3.8182	5.e-002	8.4614
14685	7.3535	3.8182	0.	3.2486e-002
14686	7.2615	3.7273	0.	3.1772e-002
14687	7.2615	3.8182	5.e-002	7.8966
14688	7.5374	3.8182	0.	2.4396e-002
14689	7.4455	3.7273	0.	2.3539e-002
14690	7.4455	3.8182	5.e-002	7.4412
14691	7.7214	3.8182	0.	1.838e-002
14692	7.6294	3.7273	0.	1.7453e-002
14693	7.6294	3.8182	5.e-002	7.0731
14694	7.9053	3.8182	0.	1.3929e-002
14695	7.8133	3.7273	0.	1.2978e-002
14696	7.8133	3.8182	5.e-002	6.7745
14697	8.0892	3.8182	0.	1.0655e-002
14698	7.9973	3.7273	0.	9.7209e-003
14699	7.9973	3.8182	5.e-002	6.5308
14700	8.2732	3.8182	0.	8.2617e-003
14701	8.1812	3.7273	0.	7.3676e-003
14702	8.1812	3.8182	5.e-002	6.3307
14703	8.4571	3.8182	0.	6.5305e-003
14704	8.3652	3.7273	0.	5.688e-003
14705	8.3652	3.8182	5.e-002	6.1651
14706	8.6411	3.8182	0.	5.2986e-003
14707	8.5491	3.7273	0.	4.5154e-003
14708	8.5491	3.8182	5.e-002	6.0267
14709	8.825	3.8182	0.	4.4386e-003
14710	8.733	3.7273	0.	3.7208e-003
14711	8.733	3.8182	5.e-002	5.91
14712	9.0089	3.8182	0.	3.8543e-003
14713	8.917	3.7273	0.	3.2018e-003
14714	8.917	3.8182	5.e-002	5.8105
14715	9.1929	3.8182	0.	3.4775e-003
14716	9.1009	3.7273	0.	2.8867e-003
14717	9.1009	3.8182	5.e-002	5.7246
14718	9.3768	3.8182	0.	3.2574e-003
14719	9.2848	3.7273	0.	2.7246e-003
14720	9.2848	3.8182	5.e-002	5.6497
14721	9.5608	3.8182	0.	3.1501e-003
14722	9.4688	3.7273	0.	2.6751e-003
14723	9.4688	3.8182	5.e-002	5.5836
14724	9.7447	3.8182	0.	3.1318e-003
14725	9.6527	3.7273	0.	2.7008e-003
14726	9.6527	3.8182	5.e-002	5.5247
14727	9.9286	3.8182	0.	3.1858e-003
14728	9.8367	3.7273	0.	2.7976e-003
14729	9.8367	3.8182	5.e-002	5.4715
14730	10.113	3.8182	0.	3.2722e-003
14731	10.021	3.7273	0.	2.9424e-003
14732	10.021	3.8182	5.e-002	5.423
14733	10.297	3.8182	0.	3.3785e-003
14734	10.205	3.7273	0.	3.0831e-003
14735	10.205	3.8182	5.e-002	5.3785
14736	10.48	3.8182	0.	3.5139e-003
14737	10.388	3.7273	0.	3.2485e-003
14738	10.388	3.8182	5.e-002	5.3372
14739	10.664	3.8182	0.	3.658e-003
14740	10.572	3.7273	0.	3.4319e-003
14741	10.572	3.8182	5.e-002	5.2985
14742	10.848	3.8182	0.	3.8175e-003
14743	10.756	3.7273	0.	3.6027e-003
14744	10.756	3.8182	5.e-002	5.2621
14745	11.032	3.8182	0.	4.0118e-003
14746	10.94	3.7273	0.	3.8052e-003
14747	10.94	3.8182	5.e-002	5.2276
14748	11.216	3.8182	0.	4.2186e-003
14749	11.124	3.7273	0.	4.0353e-003
14750	11.124	3.8182	5.e-002	5.1947
14751	11.4	3.8182	0.	4.4177e-003
14752	11.308	3.7273	0.	4.2544e-003
14753	11.308	3.8182	5.e-002	5.1632
14754	11.584	3.8182	0.	4.6304e-003
14755	11.492	3.7273	0.	4.4602e-003
14756	11.492	3.8182	5.e-002	5.133
14757	11.768	3.8182	0.	4.8712e-003
14758	11.676	3.7273	0.	4.6973e-003
14759	11.676	3.8182	5.e-002	5.1038
14760	11.952	3.8182	0.	5.1031e-003
14761	11.86	3.7273	0.	4.9497e-003
14762	11.86	3.8182	5.e-002	5.0756
14763	12.136	3.8182	0.	5.333e-003
14764	12.044	3.7273	0.	5.1586e-003
14765	12.044	3.8182	5.e-002	5.0483
14766	12.32	3.8182	0.	5.6134e-003
14767	12.228	3.7273	0.	5.394e-003
14768	12.228	3.8182	5.e-002	5.0216
14769	12.504	3.8182	0.	5.9539e-003
14770	12.412	3.7273	0.	5.6843e-003
14771	12.412	3.8182	5.e-002	4.9956
14772	12.688	3.8182	0.	6.378e-003
14773	12.596	3.7273	0.	6.0112e-003
14774	12.596	3.8182	5.e-002	4.9701
14775	12.872	3.8182	0.	7.0038e-003
14776	12.78	3.7273	0.	6.4207e-003
14777	12.78	3.8182	5.e-002	4.9452
14778	13.056	3.8182	0.	8.1592e-003
14779	12.964	3.7273	0.	7.0577e-003
14780	12.964	3.8182	5.e-002	4.9208
14781	13.24	3.8182	0.	1.1466e-002
14782	13.148	3.7273	0.	8.3102e-003
14783	13.148	3.8182	5.e-002	4.8968
14784	13.423	3.8182	0.	0.15823
14785	13.332	3.7273	0.	1.304e-002
14786	13.332	3.8182	5.e-002	4.8732
14787	13.607	3.8182	0.	1.4077
14788	13.515	3.7273	0.	0.53786
14789	13.515	3.8182	5.e-002	4.8501
14790	13.791	3.8182	0.	2.6243
14791	13.699	3.7273	0.	1.8042
14792	13.699	3.8182	5.e-002	4.8273
14793	13.975	3.8182	0.	3.7757
14794	13.883	3.7273	0.	3.0055
14795	13.883	3.8182	5.e-002	4.8048
14796	14.159	3.8182	0.	4.8683
14797	14.067	3.7273	0.	4.1432
14798	14.067	3.8182	5.e-002	4.7827
14799	14.343	3.8182	0.	5.9087
14800	14.251	3.7273	0.	5.2244
14801	14.251	3.8182	5.e-002	4.7608
14802	14.527	3.8182	0.	6.9035
14803	14.435	3.7273	0.	6.2559
14804	14.435	3.8182	5.e-002	4.7392
14805	14.711	3.8182	0.	7.8589
14806	14.619	3.7273	0.	7.244
14807	14.619	3.8182	5.e-002	4.7179
14808	14.895	3.8182	0.	8.781
14809	14.803	3.7273	0.	8.1952
14810	14.803	3.8182	5.e-002	4.6967
14811	15.079	3.8182	0.	9.6757
14812	14.987	3.7273	0.	9.1155
14813	14.987	3.8182	5.e-002	4.6758
14814	15.263	3.8182	0.	10.549
14815	15.171	3.7273	0.	10.011
14816	15.171	3.8182	5.e-002	4.6552
14817	15.447	3.8182	0.	11.405
14818	15.355	3.7273	0.	10.887
14819	15.355	3.8182	5.e-002	4.6348
14820	15.631	3.8182	0.	12.251
14821	15.539	3.7273	0.	11.749
14822	15.539	3.8182	5.e-002	4.6146
14823	15.815	3.8182	0.	13.091
14824	15.723	3.7273	0.	12.602
14825	15.723	3.8182	5.e-002	4.5946
14826	15.999	3.8182	0.	13.93
14827	15.907	3.7273	0.	13.453
14828	15.907	3.8182	5.e-002	4.5749
14829	16.183	3.8182	0.	14.775
14830	16.091	3.7273	0.	14.306
14831	16.091	3.8182	5.e-002	4.5555
14832	16.367	3.8182	0.	15.63
14833	16.275	3.7273	0.	15.167
14834	16.275	3.8182	5.e-002	4.5362
14835	16.55	3.8182	0.	16.501
14836	16.458	3.7273	0.	16.041
14837	16.458	3.8182	5.e-002	4.5171
14838	16.734	3.8182	0.	17.392
14839	16.642	3.7273	0.	16.934
14840	16.642	3.8182	5.e-002	4.4982
14841	16.918	3.8182	0.	18.311
14842	16.826	3.7273	0.	17.851
14843	16.826	3.8182	5.e-002	4.4796
14844	17.102	3.8182	0.	19.262
14845	17.01	3.7273	0.	18.798
14846	17.01	3.8182	5.e-002	4.4612
14847	17.286	3.8182	0.	20.251
14848	17.194	3.7273	0.	19.782
14849	17.194	3.8182	5.e-002	4.443
14850	17.47	3.8182	0.	21.284
14851	17.378	3.7273	0.	20.808
14852	17.378	3.8182	5.e-002	4.4252
14853	17.654	3.8182	0.	22.369
14854	17.562	3.7273	0.	21.882
14855	17.562	3.8182	5.e-002	4.4076
14856	17.838	3.8182	0.	23.511
14857	17.746	3.7273	0.	23.012
14858	17.746	3.8182	5.e-002	4.3903
14859	18.022	3.8182	0.	24.718
14860	17.93	3.7273	0.	24.204
14861	17.93	3.8182	5.e-002	4.3734
14862	18.206	3.8182	0.	25.997
14863	18.114	3.7273	0.	25.467
14864	18.114	3.8182	5.e-002	4.3568
14865	18.39	3.8182	0.	27.357
14866	18.298	3.7273	0.	26.807
14867	18.298	3.8182	5.e-002	4.3405
14868	18.574	3.8182	0.	28.805
14869	18.482	3.7273	0.	28.234
14870	18.482	3.8182	5.e-002	4.3246
14871	18.758	3.8182	0.	30.351
14872	18.666	3.7273	0.	29.755
14873	18.666	3.8182	5.e-002	4.3092
14874	18.942	3.8182	0.	32.004
14875	18.85	3.7273	0.	31.382
14876	18.85	3.8182	5.e-002	4.2941
14877	19.126	3.8182	0.	33.775
14878	19.034	3.7273	0.	33.122
14879	19.034	3.8182	5.e-002	4.2796
14880	19.31	3.8182	0.	35.674
14881	19.218	3.7273	0.	34.989
14882	19.218	3.8182	5.e-002	4.2656
14883	19.493	3.8182	0.	37.712
14884	19.402	3.7273	0.	36.992
14885	19.402	3.8182	5.e-002	4.2522
14886	19.677	3.8182	0.	39.904
14887	19.585	3.7273	0.	39.145
14888	19.585	3.8182	5.e-002	4.2394
14889	19.861	3.8182	0.	42.26
14890	19.769	3.7273	0.	41.46
14891	19.769	3.8182	5.e-002	4.2274
14892	20.045	3.8182	0.	44.797
14893	19.953	3.7273	0.	43.952
14894	19.953	3.8182	5.e-002	4.2161
14895	20.229	3.8182	0.	47.53
14896	20.137	3.7273	0.	46.635
14897	20.137	3.8182	5.e-002	4.2058
14898	20.413	3.8182	0.	50.474
14899	20.321	3.7273	0.	49.526
14900	20.321	3.8182	5.e-002	4.1964
14901	20.597	3.8182	0.	53.647
14902	20.505	3.7273	0.	52.641
14903	20.505	3.8182	5.e-002	4.188
14904	20.781	3.8182	0.	57.068
14905	20.689	3.7273	0.	55.999
14906	20.689	3.8182	5.e-002	4.1809
14907	20.965	3.8182	0.	60.757
14908	20.873	3.7273	0.	59.62
14909	20.873	3.8182	5.e-002	4.1752
14910	21.149	3.8182	0.	64.734
14911	21.057	3.7273	0.	63.523
14912	21.057	3.8182	5.e-002	4.1709
14913	21.333	3.8182	0.	69.022
14914	21.241	3.7273	0.	67.73
14915	21.241	3.8182	5.e-002	4.1684
14916	21.517	3.8182	0.	73.645
14917	21.425	3.7273	0.	72.264
14918	21.425	3.8182	5.e-002	4.1679
14919	21.701	3.8182	0.	78.626
14920	21.609	3.7273	0.	77.147
14921	21.609	3.8182	5.e-002	4.1696
14922	21.885	3.8182	0.	83.99
14923	21.793	3.7273	0.	82.405
14924	21.793	3.8182	5.e-002	4.1738
14925	22.069	3.8182	0.	89.764
14926	21.977	3.7273	0.	88.06
14927	21.977	3.8182	5.e-002	4.1809
14928	22.253	3.8182	0.	95.97
14929	22.161	3.7273	0.	94.136
14930	22.161	3.8182	5.e-002	4.1912
14931	22.437	3.8182	0.	102.63
14932	22.345	3.7273	0.	100.66
14933	22.345	3.8182	5.e-002	4.2052
14934	22.62	3.8182	0.	109.78
14935	22.528	3.7273	0.	107.64
14936	22.528	3.8182	5.e-002	4.2232
14937	22.804	3.8182	0.	117.42
14938	22.712	3.7273	0.	115.11
14939	22.712	3.8182	5.e-002	4.2458
14940	22.988	3.8182	0.	125.58
14941	22.896	3.7273	0.	123.08
14942	22.896	3.8182	5.e-002	4.2733
14943	23.172	3.8182	0.	134.25
14944	23.08	3.7273	0.	131.56
14945	23.08	3.8182	5.e-002	4.3061
14946	23.356	3.8182	0.	143.45
14947	23.264	3.7273	0.	140.56
14948	23.264	3.8182	5.e-002	4.3443
14949	23.54	3.8182	0.	153.19
14950	23.448	3.7273	0.	150.05
14951	23.448	3.8182	5.e-002	4.388
14952	23.724	3.8182	0.	163.38
14953	23.632	3.7273	0.	160.09
14954	23.632	3.8182	5.e-002	4.4379
14955	23.816	3.7273	0.	170.45
14956	23.816	3.8182	5.e-002	4.5135
14957	23.908	3.8182	0.	173.41
14958	4.0426	3.6364	0.	597.15
14959	3.9506	3.5455	0.	778.98
14960	3.9506	3.6364	5.e-002	210.39
14961	4.2265	3.6364	0.	159.48
14962	4.1345	3.5455	0.	314.4
14963	4.1345	3.6364	5.e-002	164.9
14964	4.4105	3.6364	0.	5.1783
14965	4.3185	3.5455	0.	9.6417
14966	4.3185	3.6364	5.e-002	119.15
14967	4.5944	3.6364	0.	1.9197
14968	4.5024	3.5455	0.	1.9215
14969	4.5024	3.6364	5.e-002	83.837
14970	4.7783	3.6364	0.	1.6158
14971	4.6864	3.5455	0.	1.6959
14972	4.6864	3.6364	5.e-002	63.674
14973	4.9623	3.6364	0.	1.164
14974	4.8703	3.5455	0.	1.2226
14975	4.8703	3.6364	5.e-002	50.379
14976	5.1462	3.6364	0.	0.8581
14977	5.0542	3.5455	0.	0.91477
14978	5.0542	3.6364	5.e-002	40.843
14979	5.3302	3.6364	0.	0.64352
14980	5.2382	3.5455	0.	0.6867
14981	5.2382	3.6364	5.e-002	33.641
14982	5.5141	3.6364	0.	0.48074
14983	5.4221	3.5455	0.	0.51219
14984	5.4221	3.6364	5.e-002	28.037
14985	5.698	3.6364	0.	0.35969
14986	5.6061	3.5455	0.	0.38174
14987	5.6061	3.6364	5.e-002	23.603
14988	5.882	3.6364	0.	0.26838
14989	5.79	3.5455	0.	0.28329
14990	5.79	3.6364	5.e-002	20.065
14991	6.0659	3.6364	0.	0.19987
14992	5.9739	3.5455	0.	0.20965
14993	5.9739	3.6364	5.e-002	17.229
14994	6.2498	3.6364	0.	0.14846
14995	6.1579	3.5455	0.	0.15463
14996	6.1579	3.6364	5.e-002	14.952
14997	6.4338	3.6364	0.	0.10999
14998	6.3418	3.5455	0.	0.11368
14999	6.3418	3.6364	5.e-002	13.12
15000	6.6177	3.6364	0.	8.1263e-002
15001	6.5258	3.5455	0.	8.3258e-002
15002	6.5258	3.6364	5.e-002	11.648
15003	6.8017	3.6364	0.	5.9861e-002
15004	6.7097	3.5455	0.	6.0725e-002
15005	6.7097	3.6364	5.e-002	10.464
15006	6.9856	3.6364	0.	4.3953e-002
15007	6.8936	3.5455	0.	4.4074e-002
15008	6.8936	3.6364	5.e-002	9.511
15009	7.1695	3.6364	0.	3.2166e-002
15010	7.0776	3.5455	0.	3.181e-002
15011	7.0776	3.6364	5.e-002	8.7445
15012	7.3535	3.6364	0.	2.347e-002
15013	7.2615	3.5455	0.	2.2821e-002
15014	7.2615	3.6364	5.e-002	8.1271
15015	7.5374	3.6364	0.	1.7084e-002
15016	7.4455	3.5455	0.	1.6271e-002
15017	7.4455	3.6364	5.e-002	7.6289
15018	7.7214	3.6364	0.	1.2423e-002
15019	7.6294	3.5455	0.	1.153e-002
15020	7.6294	3.6364	5.e-002	7.2258
15021	7.9053	3.6364	0.	9.0562e-003
15022	7.8133	3.5455	0.	8.1358e-003
15023	7.8133	3.6364	5.e-002	6.8984
15024	8.0892	3.6364	0.	6.6545e-003
15025	7.9973	3.5455	0.	5.7485e-003
15026	7.9973	3.6364	5.e-002	6.6313
15027	8.2732	3.6364	0.	4.9658e-003
15028	8.1812	3.5455	0.	4.099e-003
15029	8.1812	3.6364	5.e-002	6.412
15030	8.4571	3.6364	0.	3.8073e-003
15031	8.3652	3.5455	0.	2.991e-003
15032	8.3652	3.6364	5.e-002	6.2307
15033	8.6411	3.6364	0.	3.0431e-003
15034	8.5491	3.5455	0.	2.285e-003
15035	8.5491	3.6364	5.e-002	6.0796
15036	8.825	3.6364	0.	2.567e-003
15037	8.733	3.5455	0.	1.8726e-003
15038	8.733	3.6364	5.e-002	5.9526
15039	9.0089	3.6364	0.	2.2996e-003
15040	8.917	3.5455	0.	1.6686e-003
15041	8.917	3.6364	5.e-002	5.8447
15042	9.1929	3.6364	0.	2.1851e-003
15043	9.1009	3.5455	0.	1.6131e-003
15044	9.1009	3.6364	5.e-002	5.7522
15045	9.3768	3.6364	0.	2.1826e-003
15046	9.2848	3.5455	0.	1.6662e-003
15047	9.2848	3.6364	5.e-002	5.6719
15048	9.5608	3.6364	0.	2.2572e-003
15049	9.4688	3.5455	0.	1.7965e-003
15050	9.4688	3.6364	5.e-002	5.6015
15051	9.7447	3.6364	0.	2.3909e-003
15052	9.6527	3.5455	0.	1.9715e-003
15053	9.6527	3.6364	5.e-002	5.5391
15054	9.9286	3.6364	0.	2.5726e-003
15055	9.8367	3.5455	0.	2.1933e-003
15056	9.8367	3.6364	5.e-002	5.4832
15057	10.113	3.6364	0.	2.7668e-003
15058	10.021	3.5455	0.	2.4434e-003
15059	10.021	3.6364	5.e-002	5.4326
15060	10.297	3.6364	0.	2.9627e-003
15061	10.205	3.5455	0.	2.6719e-003
15062	10.205	3.6364	5.e-002	5.3863
15063	10.48	3.6364	0.	3.1728e-003
15064	10.388	3.5455	0.	2.9116e-003
15065	10.388	3.6364	5.e-002	5.3435
15066	10.664	3.6364	0.	3.3801e-003
15067	10.572	3.5455	0.	3.1561e-003
15068	10.572	3.6364	5.e-002	5.3038
15069	10.848	3.6364	0.	3.5918e-003
15070	10.756	3.5455	0.	3.3781e-003
15071	10.756	3.6364	5.e-002	5.2664
15072	11.032	3.6364	0.	3.8283e-003
15073	10.94	3.5455	0.	3.6228e-003
15074	10.94	3.6364	5.e-002	5.2312
15075	11.216	3.6364	0.	4.0692e-003
15076	11.124	3.5455	0.	3.8875e-003
15077	11.124	3.6364	5.e-002	5.1977
15078	11.4	3.6364	0.	4.2939e-003
15079	11.308	3.5455	0.	4.1331e-003
15080	11.308	3.6364	5.e-002	5.1658
15081	11.584	3.6364	0.	4.5232e-003
15082	11.492	3.5455	0.	4.3581e-003
15083	11.492	3.6364	5.e-002	5.1352
15084	11.768	3.6364	0.	4.7715e-003
15085	11.676	3.5455	0.	4.6074e-003
15086	11.676	3.6364	5.e-002	5.1057
15087	11.952	3.6364	0.	5.0008e-003
15088	11.86	3.5455	0.	4.8631e-003
15089	11.86	3.6364	5.e-002	5.0773
15090	12.136	3.6364	0.	5.2152e-003
15091	12.044	3.5455	0.	5.0666e-003
15092	12.044	3.6364	5.e-002	5.0498
15093	12.32	3.6364	0.	5.4608e-003
15094	12.228	3.5455	0.	5.2837e-003
15095	12.228	3.6364	5.e-002	5.0229
15096	12.504	3.6364	0.	5.7374e-003
15097	12.412	3.5455	0.	5.5369e-003
15098	12.412	3.6364	5.e-002	4.9968
15099	12.688	3.6364	0.	6.0471e-003
15100	12.596	3.5455	0.	5.7994e-003
15101	12.596	3.6364	5.e-002	4.9712
15102	12.872	3.6364	0.	6.4529e-003
15103	12.78	3.5455	0.	6.0895e-003
15104	12.78	3.6364	5.e-002	4.9462
15105	13.056	3.6364	0.	7.0936e-003
15106	12.964	3.5455	0.	6.4919e-003
15107	12.964	3.6364	5.e-002	4.9216
15108	13.24	3.6364	0.	8.4568e-003
15109	13.148	3.5455	0.	7.1479e-003
15110	13.148	3.6364	5.e-002	4.8976
15111	13.423	3.6364	0.	1.7726e-002
15112	13.332	3.5455	0.	8.7906e-003
15113	13.332	3.6364	5.e-002	4.8739
15114	13.607	3.6364	0.	0.95408
15115	13.515	3.5455	0.	0.13757
15116	13.515	3.6364	5.e-002	4.8507
15117	13.791	3.6364	0.	2.2097
15118	13.699	3.5455	0.	1.4235
15119	13.699	3.6364	5.e-002	4.8279
15120	13.975	3.6364	0.	3.398
15121	13.883	3.5455	0.	2.6584
15122	13.883	3.6364	5.e-002	4.8054
15123	14.159	3.6364	0.	4.525
15124	14.067	3.5455	0.	3.8275
15125	14.067	3.6364	5.e-002	4.7833
15126	14.343	3.6364	0.	5.5977
15127	14.251	3.5455	0.	4.938
15128	14.251	3.6364	5.e-002	4.7613
15129	14.527	3.6364	0.	6.623
15130	14.435	3.5455	0.	5.997
15131	14.435	3.6364	5.e-002	4.7397
15132	14.711	3.6364	0.	7.6074
15133	14.619	3.5455	0.	7.0113
15134	14.619	3.6364	5.e-002	4.7183
15135	14.895	3.6364	0.	8.5573
15136	14.803	3.5455	0.	7.9874
15137	14.803	3.6364	5.e-002	4.6972
15138	15.079	3.6364	0.	9.4786
15139	14.987	3.5455	0.	8.9315
15140	14.987	3.6364	5.e-002	4.6762
15141	15.263	3.6364	0.	10.377
15142	15.171	3.5455	0.	9.8498
15143	15.171	3.6364	5.e-002	4.6556
15144	15.447	3.6364	0.	11.259
15145	15.355	3.5455	0.	10.748
15146	15.355	3.6364	5.e-002	4.6351
15147	15.631	3.6364	0.	12.13
15148	15.539	3.5455	0.	11.632
15149	15.539	3.6364	5.e-002	4.615
15150	15.815	3.6364	0.	12.994
15151	15.723	3.5455	0.	12.508
15152	15.723	3.6364	5.e-002	4.595
15153	15.999	3.6364	0.	13.859
15154	15.907	3.5455	0.	13.38
15155	15.907	3.6364	5.e-002	4.5753
15156	16.183	3.6364	0.	14.728
15157	16.091	3.5455	0.	14.255
15158	16.091	3.6364	5.e-002	4.5558
15159	16.367	3.6364	0.	15.609
15160	16.275	3.5455	0.	15.138
15161	16.275	3.6364	5.e-002	4.5365
15162	16.55	3.6364	0.	16.506
15163	16.458	3.5455	0.	16.035
15164	16.458	3.6364	5.e-002	4.5174
15165	16.734	3.6364	0.	17.425
15166	16.642	3.5455	0.	16.951
15167	16.642	3.6364	5.e-002	4.4986
15168	16.918	3.6364	0.	18.371
15169	16.826	3.5455	0.	17.893
15170	16.826	3.6364	5.e-002	4.4799
15171	17.102	3.6364	0.	19.352
15172	17.01	3.5455	0.	18.866
15173	17.01	3.6364	5.e-002	4.4615
15174	17.286	3.6364	0.	20.372
15175	17.194	3.5455	0.	19.876
15176	17.194	3.6364	5.e-002	4.4434
15177	17.47	3.6364	0.	21.439
15178	17.378	3.5455	0.	20.93
15179	17.378	3.6364	5.e-002	4.4255
15180	17.654	3.6364	0.	22.559
15181	17.562	3.5455	0.	22.035
15182	17.562	3.6364	5.e-002	4.408
15183	17.838	3.6364	0.	23.74
15184	17.746	3.5455	0.	23.198
15185	17.746	3.6364	5.e-002	4.3907
15186	18.022	3.6364	0.	24.988
15187	17.93	3.5455	0.	24.425
15188	17.93	3.6364	5.e-002	4.3738
15189	18.206	3.6364	0.	26.312
15190	18.114	3.5455	0.	25.725
15191	18.114	3.6364	5.e-002	4.3572
15192	18.39	3.6364	0.	27.719
15193	18.298	3.5455	0.	27.106
15194	18.298	3.6364	5.e-002	4.341
15195	18.574	3.6364	0.	29.219
15196	18.482	3.5455	0.	28.576
15197	18.482	3.6364	5.e-002	4.3251
15198	18.758	3.6364	0.	30.822
15199	18.666	3.5455	0.	30.145
15200	18.666	3.6364	5.e-002	4.3097
15201	18.942	3.6364	0.	32.536
15202	18.85	3.5455	0.	31.823
15203	18.85	3.6364	5.e-002	4.2947
15204	19.126	3.6364	0.	34.373
15205	19.034	3.5455	0.	33.62
15206	19.034	3.6364	5.e-002	4.2802
15207	19.31	3.6364	0.	36.344
15208	19.218	3.5455	0.	35.548
15209	19.218	3.6364	5.e-002	4.2663
15210	19.493	3.6364	0.	38.461
15211	19.402	3.5455	0.	37.618
15212	19.402	3.6364	5.e-002	4.2529
15213	19.677	3.6364	0.	40.738
15214	19.585	3.5455	0.	39.843
15215	19.585	3.6364	5.e-002	4.2402
15216	19.861	3.6364	0.	43.188
15217	19.769	3.5455	0.	42.236
15218	19.769	3.6364	5.e-002	4.2283
15219	20.045	3.6364	0.	45.825
15220	19.953	3.5455	0.	44.813
15221	19.953	3.6364	5.e-002	4.2172
15222	20.229	3.6364	0.	48.667
15223	20.137	3.5455	0.	47.588
15224	20.137	3.6364	5.e-002	4.207
15225	20.413	3.6364	0.	51.728
15226	20.321	3.5455	0.	50.579
15227	20.321	3.6364	5.e-002	4.1977
15228	20.597	3.6364	0.	55.029
15229	20.505	3.5455	0.	53.801
15230	20.505	3.6364	5.e-002	4.1896
15231	20.781	3.6364	0.	58.586
15232	20.689	3.5455	0.	57.275
15233	20.689	3.6364	5.e-002	4.1827
15234	20.965	3.6364	0.	62.42
15235	20.873	3.5455	0.	61.019
15236	20.873	3.6364	5.e-002	4.1772
15237	21.149	3.6364	0.	66.552
15238	21.057	3.5455	0.	65.054
15239	21.057	3.6364	5.e-002	4.1733
15240	21.333	3.6364	0.	71.004
15241	21.241	3.5455	0.	69.401
15242	21.241	3.6364	5.e-002	4.1712
15243	21.517	3.6364	0.	75.797
15244	21.425	3.5455	0.	74.081
15245	21.425	3.6364	5.e-002	4.1711
15246	21.701	3.6364	0.	80.955
15247	21.609	3.5455	0.	79.116
15248	21.609	3.6364	5.e-002	4.1733
15249	21.885	3.6364	0.	86.502
15250	21.793	3.5455	0.	84.53
15251	21.793	3.6364	5.e-002	4.1781
15252	22.069	3.6364	0.	92.458
15253	21.977	3.5455	0.	90.345
15254	21.977	3.6364	5.e-002	4.1857
15255	22.253	3.6364	0.	98.847
15256	22.161	3.5455	0.	96.58
15257	22.161	3.6364	5.e-002	4.1967
15258	22.437	3.6364	0.	105.69
15259	22.345	3.5455	0.	103.26
15260	22.345	3.6364	5.e-002	4.2112
15261	22.62	3.6364	0.	113.
15262	22.528	3.5455	0.	110.39
15263	22.528	3.6364	5.e-002	4.2297
15264	22.804	3.6364	0.	120.8
15265	22.712	3.5455	0.	118.
15266	22.712	3.6364	5.e-002	4.2526
15267	22.988	3.6364	0.	129.09
15268	22.896	3.5455	0.	126.09
15269	22.896	3.6364	5.e-002	4.2802
15270	23.172	3.6364	0.	137.88
15271	23.08	3.5455	0.	134.68
15272	23.08	3.6364	5.e-002	4.3127
15273	23.356	3.6364	0.	147.16
15274	23.264	3.5455	0.	143.76
15275	23.264	3.6364	5.e-002	4.3503
15276	23.54	3.6364	0.	156.96
15277	23.448	3.5455	0.	153.31
15278	23.448	3.6364	5.e-002	4.3927
15279	23.724	3.6364	0.	167.18
15280	23.632	3.5455	0.	163.4
15281	23.632	3.6364	5.e-002	4.4404
15282	23.816	3.5455	0.	173.77
15283	23.816	3.6364	5.e-002	4.5069
15284	23.908	3.6364	0.	177.26
15285	4.0426	3.4545	0.	515.61
15286	3.9506	3.3636	0.	664.26
15287	3.9506	3.4545	5.e-002	120.02
15288	4.2265	3.4545	0.	164.46
15289	4.1345	3.3636	0.	317.06
15290	4.1345	3.4545	5.e-002	125.95
15291	4.4105	3.4545	0.	2.2957
15292	4.3185	3.3636	0.	13.055
15293	4.3185	3.4545	5.e-002	103.88
15294	4.5944	3.4545	0.	1.8215
15295	4.5024	3.3636	0.	1.9299
15296	4.5024	3.4545	5.e-002	83.217
15297	4.7783	3.4545	0.	1.3796
15298	4.6864	3.3636	0.	1.5169
15299	4.6864	3.4545	5.e-002	66.389
15300	4.9623	3.4545	0.	1.0198
15301	4.8703	3.3636	0.	1.1452
15302	4.8703	3.4545	5.e-002	53.554
15303	5.1462	3.4545	0.	0.77266
15304	5.0542	3.3636	0.	0.86986
15305	5.0542	3.4545	5.e-002	43.678
15306	5.3302	3.4545	0.	0.57466
15307	5.2382	3.3636	0.	0.6446
15308	5.2382	3.4545	5.e-002	35.955
15309	5.5141	3.4545	0.	0.42632
15310	5.4221	3.3636	0.	0.47481
15311	5.4221	3.4545	5.e-002	29.853
15312	5.698	3.4545	0.	0.31452
15313	5.6061	3.3636	0.	0.34727
15314	5.6061	3.4545	5.e-002	25.006
15315	5.882	3.4545	0.	0.23111
15316	5.79	3.3636	0.	0.25286
15317	5.79	3.4545	5.e-002	21.145
15318	6.0659	3.4545	0.	0.16917
15319	5.9739	3.3636	0.	0.18339
15320	5.9739	3.4545	5.e-002	18.063
15321	6.2498	3.4545	0.	0.12334
15322	6.1579	3.3636	0.	0.13247
15323	6.1579	3.4545	5.e-002	15.6
15324	6.4338	3.4545	0.	8.9522e-002
15325	6.3418	3.3636	0.	9.5238e-002
15326	6.3418	3.4545	5.e-002	13.629
15327	6.6177	3.4545	0.	6.464e-002
15328	6.5258	3.3636	0.	6.8071e-002
15329	6.5258	3.4545	5.e-002	12.051
15330	6.8017	3.4545	0.	4.638e-002
15331	6.7097	3.3636	0.	4.8292e-002
15332	6.7097	3.4545	5.e-002	10.786
15333	6.9856	3.4545	0.	3.302e-002
15334	6.8936	3.3636	0.	3.393e-002
15335	6.8936	3.4545	5.e-002	9.7709
15336	7.1695	3.4545	0.	2.3292e-002
15337	7.0776	3.3636	0.	2.3543e-002
15338	7.0776	3.4545	5.e-002	8.9551
15339	7.3535	3.4545	0.	1.6253e-002
15340	7.2615	3.3636	0.	1.6082e-002
15341	7.2615	3.4545	5.e-002	8.2983
15342	7.5374	3.4545	0.	1.1201e-002
15343	7.4455	3.3636	0.	1.0771e-002
15344	7.4455	3.4545	5.e-002	7.7684
15345	7.7214	3.4545	0.	7.6158e-003
15346	7.6294	3.3636	0.	7.0344e-003
15347	7.6294	3.4545	5.e-002	7.3395
15348	7.9053	3.4545	0.	5.1167e-003
15349	7.8133	3.3636	0.	4.4524e-003
15350	7.8133	3.4545	5.e-002	6.991
15351	8.0892	3.4545	0.	3.4175e-003
15352	7.9973	3.3636	0.	2.7236e-003
15353	7.9973	3.4545	5.e-002	6.7065
15354	8.2732	3.4545	0.	2.2995e-003
15355	8.1812	3.3636	0.	1.6096e-003
15356	8.1812	3.4545	5.e-002	6.473
15357	8.4571	3.4545	0.	1.6061e-003
15358	8.3652	3.3636	0.	9.3747e-004
15359	8.3652	3.4545	5.e-002	6.2802
15360	8.6411	3.4545	0.	1.2225e-003
15361	8.5491	3.3636	0.	5.8823e-004
15362	8.5491	3.4545	5.e-002	6.1196
15363	8.825	3.4545	0.	1.0591e-003
15364	8.733	3.3636	0.	4.6802e-004
15365	8.733	3.4545	5.e-002	5.9849
15366	9.0089	3.4545	0.	1.049e-003
15367	8.917	3.3636	0.	5.0463e-004
15368	8.917	3.4545	5.e-002	5.8708
15369	9.1929	3.4545	0.	1.1469e-003
15370	9.1009	3.3636	0.	6.4752e-004
15371	9.1009	3.4545	5.e-002	5.7732
15372	9.3768	3.4545	0.	1.3216e-003
15373	9.2848	3.3636	0.	8.653e-004
15374	9.2848	3.4545	5.e-002	5.6889
15375	9.5608	3.4545	0.	1.5432e-003
15376	9.4688	3.3636	0.	1.1323e-003
15377	9.4688	3.4545	5.e-002	5.6152
15378	9.7447	3.4545	0.	1.7989e-003
15379	9.6527	3.3636	0.	1.4209e-003
15380	9.6527	3.4545	5.e-002	5.5502
15381	9.9286	3.4545	0.	2.0832e-003
15382	9.8367	3.3636	0.	1.7376e-003
15383	9.8367	3.4545	5.e-002	5.4921
15384	10.113	3.4545	0.	2.3628e-003
15385	10.021	3.3636	0.	2.067e-003
15386	10.021	3.4545	5.e-002	5.4399
15387	10.297	3.4545	0.	2.6311e-003
15388	10.205	3.3636	0.	2.3618e-003
15389	10.205	3.4545	5.e-002	5.3922
15390	10.48	3.4545	0.	2.902e-003
15391	10.388	3.3636	0.	2.6569e-003
15392	10.388	3.4545	5.e-002	5.3484
15393	10.664	3.4545	0.	3.1586e-003
15394	10.572	3.3636	0.	2.9484e-003
15395	10.572	3.4545	5.e-002	5.3078
15396	10.848	3.4545	0.	3.4116e-003
15397	10.756	3.3636	0.	3.2086e-003
15398	10.756	3.4545	5.e-002	5.2698
15399	11.032	3.4545	0.	3.6827e-003
15400	10.94	3.3636	0.	3.4858e-003
15401	10.94	3.4545	5.e-002	5.234
15402	11.216	3.4545	0.	3.9507e-003
15403	11.124	3.3636	0.	3.7761e-003
15404	11.124	3.4545	5.e-002	5.2
15405	11.4	3.4545	0.	4.1957e-003
15406	11.308	3.3636	0.	4.0412e-003
15407	11.308	3.4545	5.e-002	5.1678
15408	11.584	3.4545	0.	4.44e-003
15409	11.492	3.3636	0.	4.2821e-003
15410	11.492	3.4545	5.e-002	5.1369
15411	11.768	3.4545	0.	4.6963e-003
15412	11.676	3.3636	0.	4.541e-003
15413	11.676	3.4545	5.e-002	5.1072
15414	11.952	3.4545	0.	4.9264e-003
15415	11.86	3.3636	0.	4.8015e-003
15416	11.86	3.4545	5.e-002	5.0786
15417	12.136	3.4545	0.	5.1331e-003
15418	12.044	3.3636	0.	5.0032e-003
15419	12.044	3.4545	5.e-002	5.0509
15420	12.32	3.4545	0.	5.3587e-003
15421	12.228	3.3636	0.	5.2101e-003
15422	12.228	3.4545	5.e-002	5.0239
15423	12.504	3.4545	0.	5.599e-003
15424	12.412	3.3636	0.	5.4421e-003
15425	12.412	3.4545	5.e-002	4.9976
15426	12.688	3.4545	0.	5.843e-003
15427	12.596	3.3636	0.	5.6681e-003
15428	12.596	3.4545	5.e-002	4.972
15429	12.872	3.4545	0.	6.1273e-003
15430	12.78	3.3636	0.	5.8913e-003
15431	12.78	3.4545	5.e-002	4.9469
15432	13.056	3.4545	0.	6.5192e-003
15433	12.964	3.3636	0.	6.1693e-003
15434	12.964	3.4545	5.e-002	4.9223
15435	13.24	3.4545	0.	7.1706e-003
15436	13.148	3.3636	0.	6.5493e-003
15437	13.148	3.4545	5.e-002	4.8982
15438	13.423	3.4545	0.	9.4534e-003
15439	13.332	3.3636	0.	7.2191e-003
15440	13.332	3.4545	5.e-002	4.8745
15441	13.607	3.4545	0.	0.61076
15442	13.515	3.3636	0.	1.4332e-002
15443	13.515	3.4545	5.e-002	4.8513
15444	13.791	3.4545	0.	1.8964
15445	13.699	3.3636	0.	1.1495
15446	13.699	3.4545	5.e-002	4.8283
15447	13.975	3.4545	0.	3.1128
15448	13.883	3.3636	0.	2.4089
15449	13.883	3.4545	5.e-002	4.8058
15450	14.159	3.4545	0.	4.266
15451	14.067	3.3636	0.	3.6007
15452	14.067	3.4545	5.e-002	4.7837
15453	14.343	3.4545	0.	5.3634
15454	14.251	3.3636	0.	4.7324
15455	14.251	3.4545	5.e-002	4.7617
15456	14.527	3.4545	0.	6.4119
15457	14.435	3.3636	0.	5.8114
15458	14.435	3.4545	5.e-002	4.74
15459	14.711	3.4545	0.	7.4183
15460	14.619	3.3636	0.	6.8446
15461	14.619	3.4545	5.e-002	4.7187
15462	14.895	3.4545	0.	8.3892
15463	14.803	3.3636	0.	7.8386
15464	14.803	3.4545	5.e-002	4.6975
15465	15.079	3.4545	0.	9.3307
15466	14.987	3.3636	0.	8.8
15467	14.987	3.4545	5.e-002	4.6765
15468	15.263	3.4545	0.	10.249
15469	15.171	3.3636	0.	9.7349
15470	15.171	3.4545	5.e-002	4.6559
15471	15.447	3.4545	0.	11.15
15472	15.355	3.3636	0.	10.649
15473	15.355	3.4545	5.e-002	4.6354
15474	15.631	3.4545	0.	12.039
15475	15.539	3.3636	0.	11.549
15476	15.539	3.4545	5.e-002	4.6152
15477	15.815	3.4545	0.	12.923
15478	15.723	3.3636	0.	12.441
15479	15.723	3.4545	5.e-002	4.5953
15480	15.999	3.4545	0.	13.806
15481	15.907	3.3636	0.	13.329
15482	15.907	3.4545	5.e-002	4.5755
15483	16.183	3.4545	0.	14.695
15484	16.091	3.3636	0.	14.219
15485	16.091	3.4545	5.e-002	4.5561
15486	16.367	3.4545	0.	15.595
15487	16.275	3.3636	0.	15.119
15488	16.275	3.4545	5.e-002	4.5367
15489	16.55	3.4545	0.	16.512
15490	16.458	3.3636	0.	16.032
15491	16.458	3.4545	5.e-002	4.5176
15492	16.734	3.4545	0.	17.451
15493	16.642	3.3636	0.	16.965
15494	16.642	3.4545	5.e-002	4.4988
15495	16.918	3.4545	0.	18.42
15496	16.826	3.3636	0.	17.925
15497	16.826	3.4545	5.e-002	4.4802
15498	17.102	3.4545	0.	19.423
15499	17.01	3.3636	0.	18.916
15500	17.01	3.4545	5.e-002	4.4618
15501	17.286	3.4545	0.	20.467
15502	17.194	3.3636	0.	19.946
15503	17.194	3.4545	5.e-002	4.4437
15504	17.47	3.4545	0.	21.56
15505	17.378	3.3636	0.	21.021
15506	17.378	3.4545	5.e-002	4.4258
15507	17.654	3.4545	0.	22.707
15508	17.562	3.3636	0.	22.148
15509	17.562	3.4545	5.e-002	4.4083
15510	17.838	3.4545	0.	23.917
15511	17.746	3.3636	0.	23.333
15512	17.746	3.4545	5.e-002	4.391
15513	18.022	3.4545	0.	25.196
15514	17.93	3.3636	0.	24.586
15515	17.93	3.4545	5.e-002	4.3741
15516	18.206	3.4545	0.	26.554
15517	18.114	3.3636	0.	25.913
15518	18.114	3.4545	5.e-002	4.3575
15519	18.39	3.4545	0.	27.998
15520	18.298	3.3636	0.	27.324
15521	18.298	3.4545	5.e-002	4.3413
15522	18.574	3.4545	0.	29.538
15523	18.482	3.3636	0.	28.826
15524	18.482	3.4545	5.e-002	4.3255
15525	18.758	3.4545	0.	31.183
15526	18.666	3.3636	0.	30.43
15527	18.666	3.4545	5.e-002	4.3101
15528	18.942	3.4545	0.	32.944
15529	18.85	3.3636	0.	32.145
15530	18.85	3.4545	5.e-002	4.2951
15531	19.126	3.4545	0.	34.831
15532	19.034	3.3636	0.	33.983
15533	19.034	3.4545	5.e-002	4.2806
15534	19.31	3.4545	0.	36.858
15535	19.218	3.3636	0.	35.955
15536	19.218	3.4545	5.e-002	4.2668
15537	19.493	3.4545	0.	39.035
15538	19.402	3.3636	0.	38.073
15539	19.402	3.4545	5.e-002	4.2535
15540	19.677	3.4545	0.	41.377
15541	19.585	3.3636	0.	40.35
15542	19.585	3.4545	5.e-002	4.2409
15543	19.861	3.4545	0.	43.897
15544	19.769	3.3636	0.	42.8
15545	19.769	3.4545	5.e-002	4.229
15546	20.045	3.4545	0.	46.611
15547	19.953	3.3636	0.	45.438
15548	19.953	3.4545	5.e-002	4.218
15549	20.229	3.4545	0.	49.535
15550	20.137	3.3636	0.	48.28
15551	20.137	3.4545	5.e-002	4.2079
15552	20.413	3.4545	0.	52.686
15553	20.321	3.3636	0.	51.342
15554	20.321	3.4545	5.e-002	4.1987
15555	20.597	3.4545	0.	56.082
15556	20.505	3.3636	0.	54.642
15557	20.505	3.4545	5.e-002	4.1908
15558	20.781	3.4545	0.	59.742
15559	20.689	3.3636	0.	58.199
15560	20.689	3.4545	5.e-002	4.1841
15561	20.965	3.4545	0.	63.686
15562	20.873	3.3636	0.	62.032
15563	20.873	3.4545	5.e-002	4.1788
15564	21.149	3.4545	0.	67.934
15565	21.057	3.3636	0.	66.161
15566	21.057	3.4545	5.e-002	4.1751
15567	21.333	3.4545	0.	72.508
15568	21.241	3.3636	0.	70.607
15569	21.241	3.4545	5.e-002	4.1733
15570	21.517	3.4545	0.	77.429
15571	21.425	3.3636	0.	75.391
15572	21.425	3.4545	5.e-002	4.1736
15573	21.701	3.4545	0.	82.719
15574	21.609	3.3636	0.	80.535
15575	21.609	3.4545	5.e-002	4.1761
15576	21.885	3.4545	0.	88.399
15577	21.793	3.3636	0.	86.06
15578	21.793	3.4545	5.e-002	4.1813
15579	22.069	3.4545	0.	94.49
15580	21.977	3.3636	0.	91.985
15581	21.977	3.4545	5.e-002	4.1894
15582	22.253	3.4545	0.	101.01
15583	22.161	3.3636	0.	98.332
15584	22.161	3.4545	5.e-002	4.2008
15585	22.437	3.4545	0.	107.98
15586	22.345	3.3636	0.	105.12
15587	22.345	3.4545	5.e-002	4.2157
15588	22.62	3.4545	0.	115.41
15589	22.528	3.3636	0.	112.36
15590	22.528	3.4545	5.e-002	4.2346
15591	22.804	3.4545	0.	123.32
15592	22.712	3.3636	0.	120.06
15593	22.712	3.4545	5.e-002	4.2577
15594	22.988	3.4545	0.	131.7
15595	22.896	3.3636	0.	128.24
15596	22.896	3.4545	5.e-002	4.2853
15597	23.172	3.4545	0.	140.57
15598	23.08	3.3636	0.	136.89
15599	23.08	3.4545	5.e-002	4.3176
15600	23.356	3.4545	0.	149.92
15601	23.264	3.3636	0.	146.03
15602	23.264	3.4545	5.e-002	4.3546
15603	23.54	3.4545	0.	159.76
15604	23.448	3.3636	0.	155.63
15605	23.448	3.4545	5.e-002	4.3961
15606	23.724	3.4545	0.	170.
15607	23.632	3.3636	0.	165.74
15608	23.632	3.4545	5.e-002	4.4421
15609	23.816	3.3636	0.	176.12
15610	23.816	3.4545	5.e-002	4.5018
15611	23.908	3.4545	0.	180.12
15612	4.0426	3.2727	0.	475.65
15613	3.9506	3.1818	0.	608.5
15614	3.9506	3.2727	5.e-002	76.434
15615	4.2265	3.2727	0.	170.83
15616	4.1345	3.1818	0.	314.83
15617	4.1345	3.2727	5.e-002	93.675
15618	4.4105	3.2727	0.	2.1232
15619	4.3185	3.1818	0.	21.91
15620	4.3185	3.2727	5.e-002	91.044
15621	4.5944	3.2727	0.	1.5951
15622	4.5024	3.1818	0.	1.6508
15623	4.5024	3.2727	5.e-002	79.793
15624	4.7783	3.2727	0.	1.2993
15625	4.6864	3.1818	0.	1.4367
15626	4.6864	3.2727	5.e-002	67.067
15627	4.9623	3.2727	0.	1.0143
15628	4.8703	3.1818	0.	1.1551
15629	4.8703	3.2727	5.e-002	55.447
15630	5.1462	3.2727	0.	0.75764
15631	5.0542	3.1818	0.	0.87211
15632	5.0542	3.2727	5.e-002	45.632
15633	5.3302	3.2727	0.	0.55706
15634	5.2382	3.1818	0.	0.64128
15635	5.2382	3.2727	5.e-002	37.616
15636	5.5141	3.2727	0.	0.40512
15637	5.4221	3.1818	0.	0.46432
15638	5.4221	3.2727	5.e-002	31.166
15639	5.698	3.2727	0.	0.29269
15640	5.6061	3.1818	0.	0.33336
15641	5.6061	3.2727	5.e-002	26.015
15642	5.882	3.2727	0.	0.21048
15643	5.79	3.1818	0.	0.23811
15644	5.79	3.2727	5.e-002	21.912
15645	6.0659	3.2727	0.	0.15074
15646	5.9739	3.1818	0.	0.16939
15647	5.9739	3.2727	5.e-002	18.647
15648	6.2498	3.2727	0.	0.10745
15649	6.1579	3.1818	0.	0.11997
15650	6.1579	3.2727	5.e-002	16.047
15651	6.4338	3.2727	0.	7.6127e-002
15652	6.3418	3.1818	0.	8.4467e-002
15653	6.3418	3.2727	5.e-002	13.976
15654	6.6177	3.2727	0.	5.3507e-002
15655	6.5258	3.1818	0.	5.8996e-002
15656	6.5258	3.2727	5.e-002	12.323
15657	6.8017	3.2727	0.	3.7207e-002
15658	6.7097	3.1818	0.	4.0749e-002
15659	6.7097	3.2727	5.e-002	11.002
15660	6.9856	3.2727	0.	2.5499e-002
15661	6.8936	3.1818	0.	2.771e-002
15662	6.8936	3.2727	5.e-002	9.9435
15663	7.1695	3.2727	0.	1.7138e-002
15664	7.0776	3.1818	0.	1.8438e-002
15665	7.0776	3.2727	5.e-002	9.0944
15666	7.3535	3.2727	0.	1.1221e-002
15667	7.2615	3.1818	0.	1.19e-002
15668	7.2615	3.2727	5.e-002	8.4114
15669	7.5374	3.2727	0.	7.0846e-003
15670	7.4455	3.1818	0.	7.3463e-003
15671	7.4455	3.2727	5.e-002	7.8604
15672	7.7214	3.2727	0.	4.2438e-003
15673	7.6294	3.1818	0.	4.2279e-003
15674	7.6294	3.2727	5.e-002	7.4145
15675	7.9053	3.2727	0.	2.3497e-003
15676	7.8133	3.1818	0.	2.1497e-003
15677	7.8133	3.2727	5.e-002	7.0522
15678	8.0892	3.2727	0.	1.1425e-003
15679	7.9973	3.1818	0.	8.3137e-004
15680	7.9973	3.2727	5.e-002	6.7564
15681	8.2732	3.2727	0.	4.253e-004
15682	8.1812	3.1818	0.	5.152e-005
15683	8.1812	3.2727	5.e-002	6.5136
15684	8.4571	3.2727	0.	5.9198e-005
15685	8.3652	3.1818	0.	-3.4741e-004
15686	8.3652	3.2727	5.e-002	6.3131
15687	8.6411	3.2727	0.	-5.6339e-005
15688	8.5491	3.1818	0.	-4.7335e-004
15689	8.5491	3.2727	5.e-002	6.1464
15690	8.825	3.2727	0.	1.646e-007
15691	8.733	3.1818	0.	-4.1003e-004
15692	8.733	3.2727	5.e-002	6.0065
15693	9.0089	3.2727	0.	1.7145e-004
15694	8.917	3.1818	0.	-2.2303e-004
15695	8.917	3.2727	5.e-002	5.8883
15696	9.1929	3.2727	0.	4.1975e-004
15697	9.1009	3.1818	0.	4.4607e-005
15698	9.1009	3.2727	5.e-002	5.7873
15699	9.3768	3.2727	0.	7.1838e-004
15700	9.2848	3.1818	0.	3.6557e-004
15701	9.2848	3.2727	5.e-002	5.7003
15702	9.5608	3.2727	0.	1.0431e-003
15703	9.4688	3.1818	0.	7.175e-004
15704	9.4688	3.2727	5.e-002	5.6244
15705	9.7447	3.2727	0.	1.3853e-003
15706	9.6527	3.1818	0.	1.0775e-003
15707	9.6527	3.2727	5.e-002	5.5576
15708	9.9286	3.2727	0.	1.7412e-003
15709	9.8367	3.1818	0.	1.4538e-003
15710	9.8367	3.2727	5.e-002	5.4982
15711	10.113	3.2727	0.	2.0809e-003
15712	10.021	3.1818	0.	1.8322e-003
15713	10.021	3.2727	5.e-002	5.4448
15714	10.297	3.2727	0.	2.3986e-003
15715	10.205	3.1818	0.	2.1689e-003
15716	10.205	3.2727	5.e-002	5.3962
15717	10.48	3.2727	0.	2.7112e-003
15718	10.388	3.1818	0.	2.4976e-003
15719	10.388	3.2727	5.e-002	5.3517
15720	10.664	3.2727	0.	3.0037e-003
15721	10.572	3.1818	0.	2.819e-003
15722	10.572	3.2727	5.e-002	5.3105
15723	10.848	3.2727	0.	3.2859e-003
15724	10.756	3.1818	0.	3.1031e-003
15725	10.756	3.2727	5.e-002	5.272
15726	11.032	3.2727	0.	3.5806e-003
15727	10.94	3.1818	0.	3.4e-003
15728	10.94	3.2727	5.e-002	5.2358
15729	11.216	3.2727	0.	3.8669e-003
15730	11.124	3.1818	0.	3.7066e-003
15731	11.124	3.2727	5.e-002	5.2016
15732	11.4	3.2727	0.	4.1269e-003
15733	11.308	3.1818	0.	3.9842e-003
15734	11.308	3.2727	5.e-002	5.1691
15735	11.584	3.2727	0.	4.3818e-003
15736	11.492	3.1818	0.	4.2349e-003
15737	11.492	3.2727	5.e-002	5.138
15738	11.768	3.2727	0.	4.6448e-003
15739	11.676	3.1818	0.	4.5004e-003
15740	11.676	3.2727	5.e-002	5.1082
15741	11.952	3.2727	0.	4.8771e-003
15742	11.86	3.1818	0.	4.7637e-003
15743	11.86	3.2727	5.e-002	5.0794
15744	12.136	3.2727	0.	5.0797e-003
15745	12.044	3.1818	0.	4.9651e-003
15746	12.044	3.2727	5.e-002	5.0516
15747	12.32	3.2727	0.	5.2943e-003
15748	12.228	3.1818	0.	5.167e-003
15749	12.228	3.2727	5.e-002	5.0246
15750	12.504	3.2727	0.	5.5141e-003
15751	12.412	3.1818	0.	5.3889e-003
15752	12.412	3.2727	5.e-002	4.9982
15753	12.688	3.2727	0.	5.7223e-003
15754	12.596	3.1818	0.	5.594e-003
15755	12.596	3.2727	5.e-002	4.9725
15756	12.872	3.2727	0.	5.9428e-003
15757	12.78	3.1818	0.	5.7847e-003
15758	12.78	3.2727	5.e-002	4.9474
15759	13.056	3.2727	0.	6.2087e-003
15760	12.964	3.1818	0.	6.001e-003
15761	12.964	3.2727	5.e-002	4.9227
15762	13.24	3.2727	0.	6.5504e-003
15763	13.148	3.1818	0.	6.2526e-003
15764	13.148	3.2727	5.e-002	4.8985
15765	13.423	3.2727	0.	7.2652e-003
15766	13.332	3.1818	0.	6.5516e-003
15767	13.332	3.2727	5.e-002	4.8749
15768	13.607	3.2727	0.	0.37959
15769	13.515	3.1818	0.	7.5922e-003
15770	13.515	3.2727	5.e-002	4.8516
15771	13.791	3.2727	0.	1.6863
15772	13.699	3.1818	0.	0.98404
15773	13.699	3.2727	5.e-002	4.8287
15774	13.975	3.2727	0.	2.9218
15775	13.883	3.1818	0.	2.2585
15776	13.883	3.2727	5.e-002	4.8061
15777	14.159	3.2727	0.	4.0926
15778	14.067	3.1818	0.	3.4641
15779	14.067	3.2727	5.e-002	4.7839
15780	14.343	3.2727	0.	5.2065
15781	14.251	3.1818	0.	4.6087
15782	14.251	3.2727	5.e-002	4.762
15783	14.527	3.2727	0.	6.2707
15784	14.435	3.1818	0.	5.6997
15785	14.435	3.2727	5.e-002	4.7403
15786	14.711	3.2727	0.	7.2919
15787	14.619	3.1818	0.	6.7443
15788	14.619	3.2727	5.e-002	4.7189
15789	14.895	3.2727	0.	8.277
15790	14.803	3.1818	0.	7.7492
15791	14.803	3.2727	5.e-002	4.6977
15792	15.079	3.2727	0.	9.2322
15793	14.987	3.1818	0.	8.721
15794	14.987	3.2727	5.e-002	4.6767
15795	15.263	3.2727	0.	10.164
15796	15.171	3.1818	0.	9.6661
15797	15.171	3.2727	5.e-002	4.656
15798	15.447	3.2727	0.	11.078
15799	15.355	3.1818	0.	10.59
15800	15.355	3.2727	5.e-002	4.6356
15801	15.631	3.2727	0.	11.98
15802	15.539	3.1818	0.	11.5
15803	15.539	3.2727	5.e-002	4.6154
15804	15.815	3.2727	0.	12.876
15805	15.723	3.1818	0.	12.401
15806	15.723	3.2727	5.e-002	4.5954
15807	15.999	3.2727	0.	13.772
15808	15.907	3.1818	0.	13.298
15809	15.907	3.2727	5.e-002	4.5757
15810	16.183	3.2727	0.	14.674
15811	16.091	3.1818	0.	14.199
15812	16.091	3.2727	5.e-002	4.5562
15813	16.367	3.2727	0.	15.587
15814	16.275	3.1818	0.	15.107
15815	16.275	3.2727	5.e-002	4.5369
15816	16.55	3.2727	0.	16.517
15817	16.458	3.1818	0.	16.031
15818	16.458	3.2727	5.e-002	4.5178
15819	16.734	3.2727	0.	17.47
15820	16.642	3.1818	0.	16.974
15821	16.642	3.2727	5.e-002	4.499
15822	16.918	3.2727	0.	18.453
15823	16.826	3.1818	0.	17.944
15824	16.826	3.2727	5.e-002	4.4803
15825	17.102	3.2727	0.	19.472
15826	17.01	3.1818	0.	18.947
15827	17.01	3.2727	5.e-002	4.4619
15828	17.286	3.2727	0.	20.532
15829	17.194	3.1818	0.	19.989
15830	17.194	3.2727	5.e-002	4.4438
15831	17.47	3.2727	0.	21.642
15832	17.378	3.1818	0.	21.076
15833	17.378	3.2727	5.e-002	4.426
15834	17.654	3.2727	0.	22.808
15835	17.562	3.1818	0.	22.216
15836	17.562	3.2727	5.e-002	4.4084
15837	17.838	3.2727	0.	24.037
15838	17.746	3.1818	0.	23.416
15839	17.746	3.2727	5.e-002	4.3912
15840	18.022	3.2727	0.	25.338
15841	17.93	3.1818	0.	24.684
15842	17.93	3.2727	5.e-002	4.3743
15843	18.206	3.2727	0.	26.718
15844	18.114	3.1818	0.	26.028
15845	18.114	3.2727	5.e-002	4.3577
15846	18.39	3.2727	0.	28.187
15847	18.298	3.1818	0.	27.456
15848	18.298	3.2727	5.e-002	4.3415
15849	18.574	3.2727	0.	29.753
15850	18.482	3.1818	0.	28.978
15851	18.482	3.2727	5.e-002	4.3257
15852	18.758	3.2727	0.	31.427
15853	18.666	3.1818	0.	30.602
15854	18.666	3.2727	5.e-002	4.3103
15855	18.942	3.2727	0.	33.22
15856	18.85	3.1818	0.	32.341
15857	18.85	3.2727	5.e-002	4.2954
15858	19.126	3.2727	0.	35.142
15859	19.034	3.1818	0.	34.203
15860	19.034	3.2727	5.e-002	4.2809
15861	19.31	3.2727	0.	37.205
15862	19.218	3.1818	0.	36.202
15863	19.218	3.2727	5.e-002	4.2671
15864	19.493	3.2727	0.	39.423
15865	19.402	3.1818	0.	38.349
15866	19.402	3.2727	5.e-002	4.2538
15867	19.677	3.2727	0.	41.808
15868	19.585	3.1818	0.	40.657
15869	19.585	3.2727	5.e-002	4.2413
15870	19.861	3.2727	0.	44.376
15871	19.769	3.1818	0.	43.142
15872	19.769	3.2727	5.e-002	4.2295
15873	20.045	3.2727	0.	47.142
15874	19.953	3.1818	0.	45.817
15875	19.953	3.2727	5.e-002	4.2185
15876	20.229	3.2727	0.	50.122
15877	20.137	3.1818	0.	48.699
15878	20.137	3.2727	5.e-002	4.2085
15879	20.413	3.2727	0.	53.333
15880	20.321	3.1818	0.	51.805
15881	20.321	3.2727	5.e-002	4.1994
15882	20.597	3.2727	0.	56.793
15883	20.505	3.1818	0.	55.152
15884	20.505	3.2727	5.e-002	4.1916
15885	20.781	3.2727	0.	60.522
15886	20.689	3.1818	0.	58.759
15887	20.689	3.2727	5.e-002	4.185
15888	20.965	3.2727	0.	64.539
15889	20.873	3.1818	0.	62.645
15890	20.873	3.2727	5.e-002	4.1799
15891	21.149	3.2727	0.	68.864
15892	21.057	3.1818	0.	66.831
15893	21.057	3.2727	5.e-002	4.1764
15894	21.333	3.2727	0.	73.52
15895	21.241	3.1818	0.	71.336
15896	21.241	3.2727	5.e-002	4.1747
15897	21.517	3.2727	0.	78.525
15898	21.425	3.1818	0.	76.183
15899	21.425	3.2727	5.e-002	4.1752
15900	21.701	3.2727	0.	83.902
15901	21.609	3.1818	0.	81.391
15902	21.609	3.2727	5.e-002	4.178
15903	21.885	3.2727	0.	89.67
15904	21.793	3.1818	0.	86.981
15905	21.793	3.2727	5.e-002	4.1835
15906	22.069	3.2727	0.	95.85
15907	21.977	3.1818	0.	92.973
15908	21.977	3.2727	5.e-002	4.1918
15909	22.253	3.2727	0.	102.46
15910	22.161	3.1818	0.	99.385
15911	22.161	3.2727	5.e-002	4.2035
15912	22.437	3.2727	0.	109.51
15913	22.345	3.1818	0.	106.23
15914	22.345	3.2727	5.e-002	4.2187
15915	22.62	3.2727	0.	117.02
15916	22.528	3.1818	0.	113.53
15917	22.528	3.2727	5.e-002	4.2378
15918	22.804	3.2727	0.	124.99
15919	22.712	3.1818	0.	121.29
15920	22.712	3.2727	5.e-002	4.261
15921	22.988	3.2727	0.	133.44
15922	22.896	3.1818	0.	129.52
15923	22.896	3.2727	5.e-002	4.2887
15924	23.172	3.2727	0.	142.36
15925	23.08	3.1818	0.	138.22
15926	23.08	3.2727	5.e-002	4.3208
15927	23.356	3.2727	0.	151.75
15928	23.264	3.1818	0.	147.39
15929	23.264	3.2727	5.e-002	4.3574
15930	23.54	3.2727	0.	161.62
15931	23.448	3.1818	0.	157.01
15932	23.448	3.2727	5.e-002	4.3982
15933	23.724	3.2727	0.	171.87
15934	23.632	3.1818	0.	167.14
15935	23.632	3.2727	5.e-002	4.4432
15936	23.816	3.1818	0.	177.52
15937	23.816	3.2727	5.e-002	4.4984
15938	23.908	3.2727	0.	182.01
15939	4.0426	3.0909	0.	455.34
15940	3.9506	3.	0.	589.06
15941	3.9506	3.0909	5.e-002	61.3
15942	4.2265	3.0909	0.	175.49
15943	4.1345	3.	0.	314.24
15944	4.1345	3.0909	5.e-002	79.871
15945	4.4105	3.0909	0.	1.4364
15946	4.3185	3.	0.	26.588
15947	4.3185	3.0909	5.e-002	83.413
15948	4.5944	3.0909	0.	1.4723
15949	4.5024	3.	0.	1.5131
15950	4.5024	3.0909	5.e-002	77.191
15951	4.7783	3.0909	0.	1.2942
15952	4.6864	3.	0.	1.4304
15953	4.6864	3.0909	5.e-002	66.975
15954	4.9623	3.0909	0.	1.0205
15955	4.8703	3.	0.	1.1573
15956	4.8703	3.0909	5.e-002	56.262
15957	5.1462	3.0909	0.	0.7647
15958	5.0542	3.	0.	0.87881
15959	5.0542	3.0909	5.e-002	46.608
15960	5.3302	3.0909	0.	0.55691
15961	5.2382	3.	0.	0.64368
15962	5.2382	3.0909	5.e-002	38.48
15963	5.5141	3.0909	0.	0.3997
15964	5.4221	3.	0.	0.46303
15965	5.4221	3.0909	5.e-002	31.857
15966	5.698	3.0909	0.	0.28461
15967	5.6061	3.	0.	0.32996
15968	5.6061	3.0909	5.e-002	26.544
15969	5.882	3.0909	0.	0.20165
15970	5.79	3.	0.	0.23386
15971	5.79	3.0909	5.e-002	22.311
15972	6.0659	3.0909	0.	0.14225
15973	5.9739	3.	0.	0.16506
15974	5.9739	3.0909	5.e-002	18.948
15975	6.2498	3.0909	0.	9.9819e-002
15976	6.1579	3.	0.	0.11595
15977	6.1579	3.0909	5.e-002	16.276
15978	6.4338	3.0909	0.	6.9534e-002
15979	6.3418	3.	0.	8.0936e-002
15980	6.3418	3.0909	5.e-002	14.152
15981	6.6177	3.0909	0.	4.794e-002
15982	6.5258	3.	0.	5.5983e-002
15983	6.5258	3.0909	5.e-002	12.46
15984	6.8017	3.0909	0.	3.2571e-002
15985	6.7097	3.	0.	3.8223e-002
15986	6.7097	3.0909	5.e-002	11.11
15987	6.9856	3.0909	0.	2.167e-002
15988	6.8936	3.	0.	2.5616e-002
15989	6.8936	3.0909	5.e-002	10.03
15990	7.1695	3.0909	0.	1.3991e-002
15991	7.0776	3.	0.	1.6712e-002
15992	7.0776	3.0909	5.e-002	9.1637
15993	7.3535	3.0909	0.	8.6394e-003
15994	7.2615	3.	0.	1.0482e-002
15995	7.2615	3.0909	5.e-002	8.4676
15996	7.5374	3.0909	0.	4.9678e-003
15997	7.4455	3.	0.	6.1837e-003
15998	7.4455	3.0909	5.e-002	7.9062
15999	7.7214	3.0909	0.	2.5067e-003
16000	7.6294	3.	0.	3.2741e-003
16001	7.6294	3.0909	5.e-002	7.4519
16002	7.9053	3.0909	0.	9.2279e-004
16003	7.8133	3.	0.	1.3665e-003
16004	7.8133	3.0909	5.e-002	7.0827
16005	8.0892	3.0909	0.	-3.1376e-005
16006	7.9973	3.	0.	1.8738e-004
16007	7.9973	3.0909	5.e-002	6.7813
16008	8.2732	3.0909	0.	-5.4195e-004
16009	8.1812	3.	0.	-4.7891e-004
16010	8.1812	3.0909	5.e-002	6.5339
16011	8.4571	3.0909	0.	-7.3894e-004
16012	8.3652	3.	0.	-7.846e-004
16013	8.3652	3.0909	5.e-002	6.3296
16014	8.6411	3.0909	0.	-7.1591e-004
16015	8.5491	3.	0.	-8.3494e-004
16016	8.5491	3.0909	5.e-002	6.1597
16017	8.825	3.0909	0.	-5.4554e-004
16018	8.733	3.	0.	-7.0892e-004
16019	8.733	3.0909	5.e-002	6.0174
16020	9.0089	3.0909	0.	-2.8067e-004
16021	8.917	3.	0.	-4.703e-004
16022	8.917	3.0909	5.e-002	5.897
16023	9.1929	3.0909	0.	4.501e-005
16024	9.1009	3.	0.	-1.6049e-004
16025	9.1009	3.0909	5.e-002	5.7944
16026	9.3768	3.0909	0.	4.0763e-004
16027	9.2848	3.	0.	1.9544e-004
16028	9.2848	3.0909	5.e-002	5.706
16029	9.5608	3.0909	0.	7.8556e-004
16030	9.4688	3.	0.	5.7673e-004
16031	9.4688	3.0909	5.e-002	5.6291
16032	9.7447	3.0909	0.	1.1723e-003
16033	9.6527	3.	0.	9.6091e-004
16034	9.6527	3.0909	5.e-002	5.5614
16035	9.9286	3.0909	0.	1.565e-003
16036	9.8367	3.	0.	1.3572e-003
16037	9.8367	3.0909	5.e-002	5.5012
16038	10.113	3.0909	0.	1.9355e-003
16039	10.021	3.	0.	1.7526e-003
16040	10.021	3.0909	5.e-002	5.4473
16041	10.297	3.0909	0.	2.2792e-003
16042	10.205	3.	0.	2.1032e-003
16043	10.205	3.0909	5.e-002	5.3982
16044	10.48	3.0909	0.	2.6136e-003
16045	10.388	3.	0.	2.4443e-003
16046	10.388	3.0909	5.e-002	5.3533
16047	10.664	3.0909	0.	2.924e-003
16048	10.572	3.	0.	2.7748e-003
16049	10.572	3.0909	5.e-002	5.3119
16050	10.848	3.0909	0.	3.2207e-003
16051	10.756	3.	0.	3.0673e-003
16052	10.756	3.0909	5.e-002	5.2731
16053	11.032	3.0909	0.	3.5278e-003
16054	10.94	3.	0.	3.3706e-003
16055	10.94	3.0909	5.e-002	5.2368
16056	11.216	3.0909	0.	3.8246e-003
16057	11.124	3.	0.	3.6828e-003
16058	11.124	3.0909	5.e-002	5.2024
16059	11.4	3.0909	0.	4.0921e-003
16060	11.308	3.	0.	3.9652e-003
16061	11.308	3.0909	5.e-002	5.1698
16062	11.584	3.0909	0.	4.3528e-003
16063	11.492	3.	0.	4.219e-003
16064	11.492	3.0909	5.e-002	5.1386
16065	11.768	3.0909	0.	4.6185e-003
16066	11.676	3.	0.	4.4869e-003
16067	11.676	3.0909	5.e-002	5.1086
16068	11.952	3.0909	0.	4.8513e-003
16069	11.86	3.	0.	4.7508e-003
16070	11.86	3.0909	5.e-002	5.0799
16071	12.136	3.0909	0.	5.0529e-003
16072	12.044	3.	0.	4.9524e-003
16073	12.044	3.0909	5.e-002	5.052
16074	12.32	3.0909	0.	5.2636e-003
16075	12.228	3.	0.	5.1528e-003
16076	12.228	3.0909	5.e-002	5.0249
16077	12.504	3.0909	0.	5.4734e-003
16078	12.412	3.	0.	5.3723e-003
16079	12.412	3.0909	5.e-002	4.9985
16080	12.688	3.0909	0.	5.6649e-003
16081	12.596	3.	0.	5.5698e-003
16082	12.596	3.0909	5.e-002	4.9728
16083	12.872	3.0909	0.	5.8577e-003
16084	12.78	3.	0.	5.7513e-003
16085	12.78	3.0909	5.e-002	4.9476
16086	13.056	3.0909	0.	6.0699e-003
16087	12.964	3.	0.	5.9477e-003
16088	12.964	3.0909	5.e-002	4.9229
16089	13.24	3.0909	0.	6.2905e-003
16090	13.148	3.	0.	6.1625e-003
16091	13.148	3.0909	5.e-002	4.8987
16092	13.423	3.0909	0.	6.5322e-003
16093	13.332	3.	0.	6.3616e-003
16094	13.332	3.0909	5.e-002	4.875
16095	13.607	3.0909	0.	0.26243
16096	13.515	3.	0.	6.5459e-003
16097	13.515	3.0909	5.e-002	4.8518
16098	13.791	3.0909	0.	1.5808
16099	13.699	3.	0.	0.9287
16100	13.699	3.0909	5.e-002	4.8288
16101	13.975	3.0909	0.	2.826
16102	13.883	3.	0.	2.2083
16103	13.883	3.0909	5.e-002	4.8063
16104	14.159	3.0909	0.	4.0057
16105	14.067	3.	0.	3.4185
16106	14.067	3.0909	5.e-002	4.7841
16107	14.343	3.0909	0.	5.128
16108	14.251	3.	0.	4.5674
16109	14.251	3.0909	5.e-002	4.7621
16110	14.527	3.0909	0.	6.1999
16111	14.435	3.	0.	5.6625
16112	14.435	3.0909	5.e-002	4.7404
16113	14.711	3.0909	0.	7.2287
16114	14.619	3.	0.	6.7109
16115	14.619	3.0909	5.e-002	4.719
16116	14.895	3.0909	0.	8.2208
16117	14.803	3.	0.	7.7194
16118	14.803	3.0909	5.e-002	4.6978
16119	15.079	3.0909	0.	9.1829
16120	14.987	3.	0.	8.6947
16121	14.987	3.0909	5.e-002	4.6768
16122	15.263	3.0909	0.	10.121
16123	15.171	3.	0.	9.6431
16124	15.171	3.0909	5.e-002	4.6561
16125	15.447	3.0909	0.	11.041
16126	15.355	3.	0.	10.571
16127	15.355	3.0909	5.e-002	4.6357
16128	15.631	3.0909	0.	11.95
16129	15.539	3.	0.	11.483
16130	15.539	3.0909	5.e-002	4.6155
16131	15.815	3.0909	0.	12.853
16132	15.723	3.	0.	12.387
16133	15.723	3.0909	5.e-002	4.5955
16134	15.999	3.0909	0.	13.755
16135	15.907	3.	0.	13.288
16136	15.907	3.0909	5.e-002	4.5758
16137	16.183	3.0909	0.	14.663
16138	16.091	3.	0.	14.192
16139	16.091	3.0909	5.e-002	4.5563
16140	16.367	3.0909	0.	15.583
16141	16.275	3.	0.	15.104
16142	16.275	3.0909	5.e-002	4.537
16143	16.55	3.0909	0.	16.52
16144	16.458	3.	0.	16.03
16145	16.458	3.0909	5.e-002	4.5179
16146	16.734	3.0909	0.	17.48
16147	16.642	3.	0.	16.978
16148	16.642	3.0909	5.e-002	4.499
16149	16.918	3.0909	0.	18.47
16150	16.826	3.	0.	17.951
16151	16.826	3.0909	5.e-002	4.4804
16152	17.102	3.0909	0.	19.497
16153	17.01	3.	0.	18.957
16154	17.01	3.0909	5.e-002	4.462
16155	17.286	3.0909	0.	20.565
16156	17.194	3.	0.	20.003
16157	17.194	3.0909	5.e-002	4.4439
16158	17.47	3.0909	0.	21.684
16159	17.378	3.	0.	21.095
16160	17.378	3.0909	5.e-002	4.4261
16161	17.654	3.0909	0.	22.859
16162	17.562	3.	0.	22.239
16163	17.562	3.0909	5.e-002	4.4085
16164	17.838	3.0909	0.	24.098
16165	17.746	3.	0.	23.444
16166	17.746	3.0909	5.e-002	4.3913
16167	18.022	3.0909	0.	25.409
16168	17.93	3.	0.	24.717
16169	17.93	3.0909	5.e-002	4.3744
16170	18.206	3.0909	0.	26.801
16171	18.114	3.	0.	26.067
16172	18.114	3.0909	5.e-002	4.3578
16173	18.39	3.0909	0.	28.282
16174	18.298	3.	0.	27.501
16175	18.298	3.0909	5.e-002	4.3416
16176	18.574	3.0909	0.	29.862
16177	18.482	3.	0.	29.029
16178	18.482	3.0909	5.e-002	4.3258
16179	18.758	3.0909	0.	31.551
16180	18.666	3.	0.	30.66
16181	18.666	3.0909	5.e-002	4.3104
16182	18.942	3.0909	0.	33.359
16183	18.85	3.	0.	32.406
16184	18.85	3.0909	5.e-002	4.2955
16185	19.126	3.0909	0.	35.298
16186	19.034	3.	0.	34.277
16187	19.034	3.0909	5.e-002	4.2811
16188	19.31	3.0909	0.	37.381
16189	19.218	3.	0.	36.284
16190	19.218	3.0909	5.e-002	4.2672
16191	19.493	3.0909	0.	39.618
16192	19.402	3.	0.	38.441
16193	19.402	3.0909	5.e-002	4.254
16194	19.677	3.0909	0.	42.026
16195	19.585	3.	0.	40.761
16196	19.585	3.0909	5.e-002	4.2415
16197	19.861	3.0909	0.	44.618
16198	19.769	3.	0.	43.257
16199	19.769	3.0909	5.e-002	4.2297
16200	20.045	3.0909	0.	47.409
16201	19.953	3.	0.	45.944
16202	19.953	3.0909	5.e-002	4.2188
16203	20.229	3.0909	0.	50.417
16204	20.137	3.	0.	48.84
16205	20.137	3.0909	5.e-002	4.2088
16206	20.413	3.0909	0.	53.658
16207	20.321	3.	0.	51.96
16208	20.321	3.0909	5.e-002	4.1998
16209	20.597	3.0909	0.	57.151
16210	20.505	3.	0.	55.323
16211	20.505	3.0909	5.e-002	4.192
16212	20.781	3.0909	0.	60.914
16213	20.689	3.	0.	58.946
16214	20.689	3.0909	5.e-002	4.1854
16215	20.965	3.0909	0.	64.968
16216	20.873	3.	0.	62.85
16217	20.873	3.0909	5.e-002	4.1804
16218	21.149	3.0909	0.	69.332
16219	21.057	3.	0.	67.055
16220	21.057	3.0909	5.e-002	4.177
16221	21.333	3.0909	0.	74.028
16222	21.241	3.	0.	71.58
16223	21.241	3.0909	5.e-002	4.1755
16224	21.517	3.0909	0.	79.076
16225	21.425	3.	0.	76.447
16226	21.425	3.0909	5.e-002	4.176
16227	21.701	3.0909	0.	84.496
16228	21.609	3.	0.	81.677
16229	21.609	3.0909	5.e-002	4.179
16230	21.885	3.0909	0.	90.308
16231	21.793	3.	0.	87.289
16232	21.793	3.0909	5.e-002	4.1845
16233	22.069	3.0909	0.	96.531
16234	21.977	3.	0.	93.303
16235	21.977	3.0909	5.e-002	4.1931
16236	22.253	3.0909	0.	103.18
16237	22.161	3.	0.	99.737
16238	22.161	3.0909	5.e-002	4.2049
16239	22.437	3.0909	0.	110.27
16240	22.345	3.	0.	106.61
16241	22.345	3.0909	5.e-002	4.2202
16242	22.62	3.0909	0.	117.82
16243	22.528	3.	0.	113.93
16244	22.528	3.0909	5.e-002	4.2394
16245	22.804	3.0909	0.	125.83
16246	22.712	3.	0.	121.7
16247	22.712	3.0909	5.e-002	4.2627
16248	22.988	3.0909	0.	134.31
16249	22.896	3.	0.	129.95
16250	22.896	3.0909	5.e-002	4.2903
16251	23.172	3.0909	0.	143.25
16252	23.08	3.	0.	138.66
16253	23.08	3.0909	5.e-002	4.3223
16254	23.356	3.0909	0.	152.66
16255	23.264	3.	0.	147.84
16256	23.264	3.0909	5.e-002	4.3588
16257	23.54	3.0909	0.	162.54
16258	23.448	3.	0.	157.47
16259	23.448	3.0909	5.e-002	4.3993
16260	23.724	3.0909	0.	172.8
16261	23.632	3.	0.	167.6
16262	23.632	3.0909	5.e-002	4.4438
16263	23.816	3.	0.	177.98
16264	23.816	3.0909	5.e-002	4.4967
16265	23.908	3.0909	0.	182.95
16266	4.0426	2.9091	0.	455.34
16267	3.9506	2.8182	0.	608.5
16268	3.9506	2.9091	5.e-002	61.3
16269	4.2265	2.9091	0.	175.49
16270	4.1345	2.8182	0.	314.83
16271	4.1345	2.9091	5.e-002	79.87
16272	4.4105	2.9091	0.	1.4364
16273	4.3185	2.8182	0.	21.91
16274	4.3185	2.9091	5.e-002	83.413
16275	4.5944	2.9091	0.	1.4723
16276	4.5024	2.8182	0.	1.6508
16277	4.5024	2.9091	5.e-002	77.19
16278	4.7783	2.9091	0.	1.2942
16279	4.6864	2.8182	0.	1.4367
16280	4.6864	2.9091	5.e-002	66.975
16281	4.9623	2.9091	0.	1.0205
16282	4.8703	2.8182	0.	1.1551
16283	4.8703	2.9091	5.e-002	56.262
16284	5.1462	2.9091	0.	0.7647
16285	5.0542	2.8182	0.	0.87211
16286	5.0542	2.9091	5.e-002	46.608
16287	5.3302	2.9091	0.	0.55691
16288	5.2382	2.8182	0.	0.64128
16289	5.2382	2.9091	5.e-002	38.48
16290	5.5141	2.9091	0.	0.3997
16291	5.4221	2.8182	0.	0.46432
16292	5.4221	2.9091	5.e-002	31.857
16293	5.698	2.9091	0.	0.28461
16294	5.6061	2.8182	0.	0.33336
16295	5.6061	2.9091	5.e-002	26.544
16296	5.882	2.9091	0.	0.20165
16297	5.79	2.8182	0.	0.23811
16298	5.79	2.9091	5.e-002	22.311
16299	6.0659	2.9091	0.	0.14225
16300	5.9739	2.8182	0.	0.16939
16301	5.9739	2.9091	5.e-002	18.948
16302	6.2498	2.9091	0.	9.9819e-002
16303	6.1579	2.8182	0.	0.11997
16304	6.1579	2.9091	5.e-002	16.276
16305	6.4338	2.9091	0.	6.9534e-002
16306	6.3418	2.8182	0.	8.4467e-002
16307	6.3418	2.9091	5.e-002	14.152
16308	6.6177	2.9091	0.	4.794e-002
16309	6.5258	2.8182	0.	5.8997e-002
16310	6.5258	2.9091	5.e-002	12.46
16311	6.8017	2.9091	0.	3.257e-002
16312	6.7097	2.8182	0.	4.0749e-002
16313	6.7097	2.9091	5.e-002	11.11
16314	6.9856	2.9091	0.	2.167e-002
16315	6.8936	2.8182	0.	2.771e-002
16316	6.8936	2.9091	5.e-002	10.03
16317	7.1695	2.9091	0.	1.3991e-002
16318	7.0776	2.8182	0.	1.8438e-002
16319	7.0776	2.9091	5.e-002	9.1637
16320	7.3535	2.9091	0.	8.6393e-003
16321	7.2615	2.8182	0.	1.19e-002
16322	7.2615	2.9091	5.e-002	8.4676
16323	7.5374	2.9091	0.	4.9674e-003
16324	7.4455	2.8182	0.	7.3464e-003
16325	7.4455	2.9091	5.e-002	7.9062
16326	7.7214	2.9091	0.	2.5067e-003
16327	7.6294	2.8182	0.	4.2279e-003
16328	7.6294	2.9091	5.e-002	7.4519
16329	7.9053	2.9091	0.	9.2282e-004
16330	7.8133	2.8182	0.	2.1498e-003
16331	7.8133	2.9091	5.e-002	7.0827
16332	8.0892	2.9091	0.	-3.1376e-005
16333	7.9973	2.8182	0.	8.3137e-004
16334	7.9973	2.9091	5.e-002	6.7813
16335	8.2732	2.9091	0.	-5.418e-004
16336	8.1812	2.8182	0.	5.134e-005
16337	8.1812	2.9091	5.e-002	6.5339
16338	8.4571	2.9091	0.	-7.3909e-004
16339	8.3652	2.8182	0.	-3.4714e-004
16340	8.3652	2.9091	5.e-002	6.3296
16341	8.6411	2.9091	0.	-7.1638e-004
16342	8.5491	2.8182	0.	-4.7371e-004
16343	8.5491	2.9091	5.e-002	6.1597
16344	8.825	2.9091	0.	-5.4563e-004
16345	8.733	2.8182	0.	-4.1021e-004
16346	8.733	2.9091	5.e-002	6.0174
16347	9.0089	2.9091	0.	-2.8061e-004
16348	8.917	2.8182	0.	-2.227e-004
16349	8.917	2.9091	5.e-002	5.897
16350	9.1929	2.9091	0.	4.4773e-005
16351	9.1009	2.8182	0.	4.4547e-005
16352	9.1009	2.9091	5.e-002	5.7944
16353	9.3768	2.9091	0.	4.0769e-004
16354	9.2848	2.8182	0.	3.6513e-004
16355	9.2848	2.9091	5.e-002	5.706
16356	9.5608	2.9091	0.	7.8592e-004
16357	9.4688	2.8182	0.	7.1779e-004
16358	9.4688	2.9091	5.e-002	5.6291
16359	9.7447	2.9091	0.	1.1722e-003
16360	9.6527	2.8182	0.	1.0776e-003
16361	9.6527	2.9091	5.e-002	5.5614
16362	9.9286	2.9091	0.	1.5651e-003
16363	9.8367	2.8182	0.	1.4534e-003
16364	9.8367	2.9091	5.e-002	5.5012
16365	10.113	2.9091	0.	1.9357e-003
16366	10.021	2.8182	0.	1.8325e-003
16367	10.021	2.9091	5.e-002	5.4472
16368	10.297	2.9091	0.	2.2798e-003
16369	10.205	2.8182	0.	2.1685e-003
16370	10.205	2.9091	5.e-002	5.3982
16371	10.48	2.9091	0.	2.6138e-003
16372	10.388	2.8182	0.	2.4987e-003
16373	10.388	2.9091	5.e-002	5.3533
16374	10.664	2.9091	0.	2.9238e-003
16375	10.572	2.8182	0.	2.8187e-003
16376	10.572	2.9091	5.e-002	5.3118
16377	10.848	2.9091	0.	3.2209e-003
16378	10.756	2.8182	0.	3.1035e-003
16379	10.756	2.9091	5.e-002	5.2731
16380	11.032	2.9091	0.	3.5277e-003
16381	10.94	2.8182	0.	3.4e-003
16382	10.94	2.9091	5.e-002	5.2367
16383	11.216	2.9091	0.	3.8243e-003
16384	11.124	2.8182	0.	3.7062e-003
16385	11.124	2.9091	5.e-002	5.2024
16386	11.4	2.9091	0.	4.0921e-003
16387	11.308	2.8182	0.	3.9846e-003
16388	11.308	2.9091	5.e-002	5.1698
16389	11.584	2.9091	0.	4.3526e-003
16390	11.492	2.8182	0.	4.2351e-003
16391	11.492	2.9091	5.e-002	5.1386
16392	11.768	2.9091	0.	4.6186e-003
16393	11.676	2.8182	0.	4.5004e-003
16394	11.676	2.9091	5.e-002	5.1086
16395	11.952	2.9091	0.	4.8518e-003
16396	11.86	2.8182	0.	4.7639e-003
16397	11.86	2.9091	5.e-002	5.0799
16398	12.136	2.9091	0.	5.0531e-003
16399	12.044	2.8182	0.	4.965e-003
16400	12.044	2.9091	5.e-002	5.052
16401	12.32	2.9091	0.	5.2638e-003
16402	12.228	2.8182	0.	5.167e-003
16403	12.228	2.9091	5.e-002	5.0249
16404	12.504	2.9091	0.	5.4737e-003
16405	12.412	2.8182	0.	5.3895e-003
16406	12.412	2.9091	5.e-002	4.9985
16407	12.688	2.9091	0.	5.6655e-003
16408	12.596	2.8182	0.	5.5937e-003
16409	12.596	2.9091	5.e-002	4.9728
16410	12.872	2.9091	0.	5.8577e-003
16411	12.78	2.8182	0.	5.7855e-003
16412	12.78	2.9091	5.e-002	4.9476
16413	13.056	2.9091	0.	6.0697e-003
16414	12.964	2.8182	0.	5.9999e-003
16415	12.964	2.9091	5.e-002	4.9229
16416	13.24	2.9091	0.	6.2911e-003
16417	13.148	2.8182	0.	6.2529e-003
16418	13.148	2.9091	5.e-002	4.8987
16419	13.423	2.9091	0.	6.5326e-003
16420	13.332	2.8182	0.	6.5522e-003
16421	13.332	2.9091	5.e-002	4.875
16422	13.607	2.9091	0.	0.26243
16423	13.515	2.8182	0.	7.5916e-003
16424	13.515	2.9091	5.e-002	4.8517
16425	13.791	2.9091	0.	1.5808
16426	13.699	2.8182	0.	0.98404
16427	13.699	2.9091	5.e-002	4.8288
16428	13.975	2.9091	0.	2.8259
16429	13.883	2.8182	0.	2.2585
16430	13.883	2.9091	5.e-002	4.8063
16431	14.159	2.9091	0.	4.0057
16432	14.067	2.8182	0.	3.4641
16433	14.067	2.9091	5.e-002	4.784
16434	14.343	2.9091	0.	5.128
16435	14.251	2.8182	0.	4.6087
16436	14.251	2.9091	5.e-002	4.7621
16437	14.527	2.9091	0.	6.1999
16438	14.435	2.8182	0.	5.6997
16439	14.435	2.9091	5.e-002	4.7404
16440	14.711	2.9091	0.	7.2287
16441	14.619	2.8182	0.	6.7443
16442	14.619	2.9091	5.e-002	4.719
16443	14.895	2.9091	0.	8.2208
16444	14.803	2.8182	0.	7.7492
16445	14.803	2.9091	5.e-002	4.6978
16446	15.079	2.9091	0.	9.1829
16447	14.987	2.8182	0.	8.721
16448	14.987	2.9091	5.e-002	4.6768
16449	15.263	2.9091	0.	10.121
16450	15.171	2.8182	0.	9.6661
16451	15.171	2.9091	5.e-002	4.6561
16452	15.447	2.9091	0.	11.041
16453	15.355	2.8182	0.	10.59
16454	15.355	2.9091	5.e-002	4.6357
16455	15.631	2.9091	0.	11.95
16456	15.539	2.8182	0.	11.5
16457	15.539	2.9091	5.e-002	4.6155
16458	15.815	2.9091	0.	12.853
16459	15.723	2.8182	0.	12.401
16460	15.723	2.9091	5.e-002	4.5955
16461	15.999	2.9091	0.	13.755
16462	15.907	2.8182	0.	13.298
16463	15.907	2.9091	5.e-002	4.5758
16464	16.183	2.9091	0.	14.663
16465	16.091	2.8182	0.	14.199
16466	16.091	2.9091	5.e-002	4.5563
16467	16.367	2.9091	0.	15.583
16468	16.275	2.8182	0.	15.107
16469	16.275	2.9091	5.e-002	4.537
16470	16.55	2.9091	0.	16.52
16471	16.458	2.8182	0.	16.031
16472	16.458	2.9091	5.e-002	4.5179
16473	16.734	2.9091	0.	17.48
16474	16.642	2.8182	0.	16.974
16475	16.642	2.9091	5.e-002	4.499
16476	16.918	2.9091	0.	18.47
16477	16.826	2.8182	0.	17.944
16478	16.826	2.9091	5.e-002	4.4804
16479	17.102	2.9091	0.	19.497
16480	17.01	2.8182	0.	18.947
16481	17.01	2.9091	5.e-002	4.462
16482	17.286	2.9091	0.	20.565
16483	17.194	2.8182	0.	19.989
16484	17.194	2.9091	5.e-002	4.4439
16485	17.47	2.9091	0.	21.684
16486	17.378	2.8182	0.	21.076
16487	17.378	2.9091	5.e-002	4.4261
16488	17.654	2.9091	0.	22.859
16489	17.562	2.8182	0.	22.216
16490	17.562	2.9091	5.e-002	4.4085
16491	17.838	2.9091	0.	24.098
16492	17.746	2.8182	0.	23.416
16493	17.746	2.9091	5.e-002	4.3913
16494	18.022	2.9091	0.	25.409
16495	17.93	2.8182	0.	24.684
16496	17.93	2.9091	5.e-002	4.3744
16497	18.206	2.9091	0.	26.801
16498	18.114	2.8182	0.	26.028
16499	18.114	2.9091	5.e-002	4.3578
16500	18.39	2.9091	0.	28.282
16501	18.298	2.8182	0.	27.456
16502	18.298	2.9091	5.e-002	4.3416
16503	18.574	2.9091	0.	29.862
16504	18.482	2.8182	0.	28.978
16505	18.482	2.9091	5.e-002	4.3258
16506	18.758	2.9091	0.	31.551
16507	18.666	2.8182	0.	30.602
16508	18.666	2.9091	5.e-002	4.3104
16509	18.942	2.9091	0.	33.359
16510	18.85	2.8182	0.	32.341
16511	18.85	2.9091	5.e-002	4.2955
16512	19.126	2.9091	0.	35.298
16513	19.034	2.8182	0.	34.203
16514	19.034	2.9091	5.e-002	4.2811
16515	19.31	2.9091	0.	37.381
16516	19.218	2.8182	0.	36.202
16517	19.218	2.9091	5.e-002	4.2672
16518	19.493	2.9091	0.	39.618
16519	19.402	2.8182	0.	38.349
16520	19.402	2.9091	5.e-002	4.254
16521	19.677	2.9091	0.	42.026
16522	19.585	2.8182	0.	40.657
16523	19.585	2.9091	5.e-002	4.2415
16524	19.861	2.9091	0.	44.618
16525	19.769	2.8182	0.	43.142
16526	19.769	2.9091	5.e-002	4.2297
16527	20.045	2.9091	0.	47.409
16528	19.953	2.8182	0.	45.817
16529	19.953	2.9091	5.e-002	4.2188
16530	20.229	2.9091	0.	50.417
16531	20.137	2.8182	0.	48.699
16532	20.137	2.9091	5.e-002	4.2088
16533	20.413	2.9091	0.	53.658
16534	20.321	2.8182	0.	51.805
16535	20.321	2.9091	5.e-002	4.1998
16536	20.597	2.9091	0.	57.151
16537	20.505	2.8182	0.	55.152
16538	20.505	2.9091	5.e-002	4.1919
16539	20.781	2.9091	0.	60.914
16540	20.689	2.8182	0.	58.759
16541	20.689	2.9091	5.e-002	4.1854
16542	20.965	2.9091	0.	64.968
16543	20.873	2.8182	0.	62.645
16544	20.873	2.9091	5.e-002	4.1804
16545	21.149	2.9091	0.	69.332
16546	21.057	2.8182	0.	66.831
16547	21.057	2.9091	5.e-002	4.177
16548	21.333	2.9091	0.	74.028
16549	21.241	2.8182	0.	71.336
16550	21.241	2.9091	5.e-002	4.1755
16551	21.517	2.9091	0.	79.076
16552	21.425	2.8182	0.	76.183
16553	21.425	2.9091	5.e-002	4.176
16554	21.701	2.9091	0.	84.496
16555	21.609	2.8182	0.	81.391
16556	21.609	2.9091	5.e-002	4.179
16557	21.885	2.9091	0.	90.308
16558	21.793	2.8182	0.	86.981
16559	21.793	2.9091	5.e-002	4.1845
16560	22.069	2.9091	0.	96.531
16561	21.977	2.8182	0.	92.973
16562	21.977	2.9091	5.e-002	4.1931
16563	22.253	2.9091	0.	103.18
16564	22.161	2.8182	0.	99.385
16565	22.161	2.9091	5.e-002	4.2049
16566	22.437	2.9091	0.	110.27
16567	22.345	2.8182	0.	106.23
16568	22.345	2.9091	5.e-002	4.2202
16569	22.62	2.9091	0.	117.82
16570	22.528	2.8182	0.	113.53
16571	22.528	2.9091	5.e-002	4.2394
16572	22.804	2.9091	0.	125.83
16573	22.712	2.8182	0.	121.29
16574	22.712	2.9091	5.e-002	4.2627
16575	22.988	2.9091	0.	134.31
16576	22.896	2.8182	0.	129.52
16577	22.896	2.9091	5.e-002	4.2903
16578	23.172	2.9091	0.	143.25
16579	23.08	2.8182	0.	138.22
16580	23.08	2.9091	5.e-002	4.3223
16581	23.356	2.9091	0.	152.66
16582	23.264	2.8182	0.	147.39
16583	23.264	2.9091	5.e-002	4.3588
16584	23.54	2.9091	0.	162.54
16585	23.448	2.8182	0.	157.01
16586	23.448	2.9091	5.e-002	4.3993
16587	23.724	2.9091	0.	172.8
16588	23.632	2.8182	0.	167.14
16589	23.632	2.9091	5.e-002	4.4438
16590	23.816	2.8182	0.	177.52
16591	23.816	2.9091	5.e-002	4.4967
16592	23.908	2.9091	0.	182.95
16593	4.0426	2.7273	0.	475.65
16594	3.9506	2.6364	0.	664.26
16595	3.9506	2.7273	5.e-002	76.434
16596	4.2265	2.7273	0.	170.83
16597	4.1345	2.6364	0.	317.06
16598	4.1345	2.7273	5.e-002	93.675
16599	4.4105	2.7273	0.	2.1232
16600	4.3185	2.6364	0.	13.055
16601	4.3185	2.7273	5.e-002	91.043
16602	4.5944	2.7273	0.	1.5951
16603	4.5024	2.6364	0.	1.9299
16604	4.5024	2.7273	5.e-002	79.793
16605	4.7783	2.7273	0.	1.2993
16606	4.6864	2.6364	0.	1.5169
16607	4.6864	2.7273	5.e-002	67.067
16608	4.9623	2.7273	0.	1.0143
16609	4.8703	2.6364	0.	1.1452
16610	4.8703	2.7273	5.e-002	55.447
16611	5.1462	2.7273	0.	0.75764
16612	5.0542	2.6364	0.	0.86987
16613	5.0542	2.7273	5.e-002	45.632
16614	5.3302	2.7273	0.	0.55706
16615	5.2382	2.6364	0.	0.6446
16616	5.2382	2.7273	5.e-002	37.615
16617	5.5141	2.7273	0.	0.40512
16618	5.4221	2.6364	0.	0.47481
16619	5.4221	2.7273	5.e-002	31.166
16620	5.698	2.7273	0.	0.29269
16621	5.6061	2.6364	0.	0.34727
16622	5.6061	2.7273	5.e-002	26.015
16623	5.882	2.7273	0.	0.21048
16624	5.79	2.6364	0.	0.25286
16625	5.79	2.7273	5.e-002	21.912
16626	6.0659	2.7273	0.	0.15074
16627	5.9739	2.6364	0.	0.18339
16628	5.9739	2.7273	5.e-002	18.647
16629	6.2498	2.7273	0.	0.10745
16630	6.1579	2.6364	0.	0.13247
16631	6.1579	2.7273	5.e-002	16.047
16632	6.4338	2.7273	0.	7.6127e-002
16633	6.3418	2.6364	0.	9.5238e-002
16634	6.3418	2.7273	5.e-002	13.976
16635	6.6177	2.7273	0.	5.3508e-002
16636	6.5258	2.6364	0.	6.8072e-002
16637	6.5258	2.7273	5.e-002	12.323
16638	6.8017	2.7273	0.	3.7207e-002
16639	6.7097	2.6364	0.	4.8292e-002
16640	6.7097	2.7273	5.e-002	11.002
16641	6.9856	2.7273	0.	2.5499e-002
16642	6.8936	2.6364	0.	3.393e-002
16643	6.8936	2.7273	5.e-002	9.9436
16644	7.1695	2.7273	0.	1.7138e-002
16645	7.0776	2.6364	0.	2.3543e-002
16646	7.0776	2.7273	5.e-002	9.0944
16647	7.3535	2.7273	0.	1.1221e-002
16648	7.2615	2.6364	0.	1.6082e-002
16649	7.2615	2.7273	5.e-002	8.4114
16650	7.5374	2.7273	0.	7.085e-003
16651	7.4455	2.6364	0.	1.0772e-002
16652	7.4455	2.7273	5.e-002	7.8605
16653	7.7214	2.7273	0.	4.2439e-003
16654	7.6294	2.6364	0.	7.0345e-003
16655	7.6294	2.7273	5.e-002	7.4145
16656	7.9053	2.7273	0.	2.3498e-003
16657	7.8133	2.6364	0.	4.4526e-003
16658	7.8133	2.7273	5.e-002	7.0522
16659	8.0892	2.7273	0.	1.1424e-003
16660	7.9973	2.6364	0.	2.7239e-003
16661	7.9973	2.7273	5.e-002	6.7564
16662	8.2732	2.7273	0.	4.2524e-004
16663	8.1812	2.6364	0.	1.6096e-003
16664	8.1812	2.7273	5.e-002	6.5136
16665	8.4571	2.7273	0.	5.9256e-005
16666	8.3652	2.6364	0.	9.3794e-004
16667	8.3652	2.7273	5.e-002	6.3131
16668	8.6411	2.7273	0.	-5.6399e-005
16669	8.5491	2.6364	0.	5.8832e-004
16670	8.5491	2.7273	5.e-002	6.1463
16671	8.825	2.7273	0.	4.0296e-007
16672	8.733	2.6364	0.	4.6835e-004
16673	8.733	2.7273	5.e-002	6.0065
16674	9.0089	2.7273	0.	1.7166e-004
16675	8.917	2.6364	0.	5.0484e-004
16676	8.917	2.7273	5.e-002	5.8882
16677	9.1929	2.7273	0.	4.1948e-004
16678	9.1009	2.6364	0.	6.4758e-004
16679	9.1009	2.7273	5.e-002	5.7873
16680	9.3768	2.7273	0.	7.1817e-004
16681	9.2848	2.6364	0.	8.6529e-004
16682	9.2848	2.7273	5.e-002	5.7003
16683	9.5608	2.7273	0.	1.0431e-003
16684	9.4688	2.6364	0.	1.132e-003
16685	9.4688	2.7273	5.e-002	5.6244
16686	9.7447	2.7273	0.	1.385e-003
16687	9.6527	2.6364	0.	1.4209e-003
16688	9.6527	2.7273	5.e-002	5.5576
16689	9.9286	2.7273	0.	1.741e-003
16690	9.8367	2.6364	0.	1.7376e-003
16691	9.8367	2.7273	5.e-002	5.4982
16692	10.113	2.7273	0.	2.0805e-003
16693	10.021	2.6364	0.	2.0672e-003
16694	10.021	2.7273	5.e-002	5.4447
16695	10.297	2.7273	0.	2.3988e-003
16696	10.205	2.6364	0.	2.3616e-003
16697	10.205	2.7273	5.e-002	5.3962
16698	10.48	2.7273	0.	2.7117e-003
16699	10.388	2.6364	0.	2.6574e-003
16700	10.388	2.7273	5.e-002	5.3517
16701	10.664	2.7273	0.	3.004e-003
16702	10.572	2.6364	0.	2.9485e-003
16703	10.572	2.7273	5.e-002	5.3105
16704	10.848	2.7273	0.	3.286e-003
16705	10.756	2.6364	0.	3.2091e-003
16706	10.756	2.7273	5.e-002	5.272
16707	11.032	2.7273	0.	3.5803e-003
16708	10.94	2.6364	0.	3.4859e-003
16709	10.94	2.7273	5.e-002	5.2358
16710	11.216	2.7273	0.	3.8671e-003
16711	11.124	2.6364	0.	3.7763e-003
16712	11.124	2.7273	5.e-002	5.2016
16713	11.4	2.7273	0.	4.1274e-003
16714	11.308	2.6364	0.	4.0419e-003
16715	11.308	2.7273	5.e-002	5.1691
16716	11.584	2.7273	0.	4.3822e-003
16717	11.492	2.6364	0.	4.2825e-003
16718	11.492	2.7273	5.e-002	5.138
16719	11.768	2.7273	0.	4.6449e-003
16720	11.676	2.6364	0.	4.541e-003
16721	11.676	2.7273	5.e-002	5.1082
16722	11.952	2.7273	0.	4.8767e-003
16723	11.86	2.6364	0.	4.8017e-003
16724	11.86	2.7273	5.e-002	5.0794
16725	12.136	2.7273	0.	5.0793e-003
16726	12.044	2.6364	0.	5.0032e-003
16727	12.044	2.7273	5.e-002	5.0516
16728	12.32	2.7273	0.	5.2947e-003
16729	12.228	2.6364	0.	5.2097e-003
16730	12.228	2.7273	5.e-002	5.0245
16731	12.504	2.7273	0.	5.514e-003
16732	12.412	2.6364	0.	5.4427e-003
16733	12.412	2.7273	5.e-002	4.9982
16734	12.688	2.7273	0.	5.7222e-003
16735	12.596	2.6364	0.	5.6673e-003
16736	12.596	2.7273	5.e-002	4.9725
16737	12.872	2.7273	0.	5.9425e-003
16738	12.78	2.6364	0.	5.8919e-003
16739	12.78	2.7273	5.e-002	4.9473
16740	13.056	2.7273	0.	6.208e-003
16741	12.964	2.6364	0.	6.1698e-003
16742	12.964	2.7273	5.e-002	4.9227
16743	13.24	2.7273	0.	6.5507e-003
16744	13.148	2.6364	0.	6.549e-003
16745	13.148	2.7273	5.e-002	4.8985
16746	13.423	2.7273	0.	7.2647e-003
16747	13.332	2.6364	0.	7.2193e-003
16748	13.332	2.7273	5.e-002	4.8748
16749	13.607	2.7273	0.	0.37958
16750	13.515	2.6364	0.	1.4332e-002
16751	13.515	2.7273	5.e-002	4.8515
16752	13.791	2.7273	0.	1.6863
16753	13.699	2.6364	0.	1.1495
16754	13.699	2.7273	5.e-002	4.8286
16755	13.975	2.7273	0.	2.9218
16756	13.883	2.6364	0.	2.4089
16757	13.883	2.7273	5.e-002	4.8061
16758	14.159	2.7273	0.	4.0926
16759	14.067	2.6364	0.	3.6007
16760	14.067	2.7273	5.e-002	4.7839
16761	14.343	2.7273	0.	5.2065
16762	14.251	2.6364	0.	4.7324
16763	14.251	2.7273	5.e-002	4.7619
16764	14.527	2.7273	0.	6.2707
16765	14.435	2.6364	0.	5.8114
16766	14.435	2.7273	5.e-002	4.7402
16767	14.711	2.7273	0.	7.2919
16768	14.619	2.6364	0.	6.8446
16769	14.619	2.7273	5.e-002	4.7189
16770	14.895	2.7273	0.	8.277
16771	14.803	2.6364	0.	7.8386
16772	14.803	2.7273	5.e-002	4.6977
16773	15.079	2.7273	0.	9.2322
16774	14.987	2.6364	0.	8.8
16775	14.987	2.7273	5.e-002	4.6767
16776	15.263	2.7273	0.	10.164
16777	15.171	2.6364	0.	9.7349
16778	15.171	2.7273	5.e-002	4.656
16779	15.447	2.7273	0.	11.078
16780	15.355	2.6364	0.	10.649
16781	15.355	2.7273	5.e-002	4.6356
16782	15.631	2.7273	0.	11.98
16783	15.539	2.6364	0.	11.549
16784	15.539	2.7273	5.e-002	4.6154
16785	15.815	2.7273	0.	12.876
16786	15.723	2.6364	0.	12.44
16787	15.723	2.7273	5.e-002	4.5954
16788	15.999	2.7273	0.	13.772
16789	15.907	2.6364	0.	13.329
16790	15.907	2.7273	5.e-002	4.5757
16791	16.183	2.7273	0.	14.674
16792	16.091	2.6364	0.	14.219
16793	16.091	2.7273	5.e-002	4.5562
16794	16.367	2.7273	0.	15.587
16795	16.275	2.6364	0.	15.119
16796	16.275	2.7273	5.e-002	4.5369
16797	16.55	2.7273	0.	16.517
16798	16.458	2.6364	0.	16.032
16799	16.458	2.7273	5.e-002	4.5178
16800	16.734	2.7273	0.	17.47
16801	16.642	2.6364	0.	16.965
16802	16.642	2.7273	5.e-002	4.4989
16803	16.918	2.7273	0.	18.453
16804	16.826	2.6364	0.	17.924
16805	16.826	2.7273	5.e-002	4.4803
16806	17.102	2.7273	0.	19.472
16807	17.01	2.6364	0.	18.916
16808	17.01	2.7273	5.e-002	4.4619
16809	17.286	2.7273	0.	20.532
16810	17.194	2.6364	0.	19.946
16811	17.194	2.7273	5.e-002	4.4438
16812	17.47	2.7273	0.	21.642
16813	17.378	2.6364	0.	21.021
16814	17.378	2.7273	5.e-002	4.426
16815	17.654	2.7273	0.	22.808
16816	17.562	2.6364	0.	22.148
16817	17.562	2.7273	5.e-002	4.4084
16818	17.838	2.7273	0.	24.037
16819	17.746	2.6364	0.	23.333
16820	17.746	2.7273	5.e-002	4.3912
16821	18.022	2.7273	0.	25.338
16822	17.93	2.6364	0.	24.586
16823	17.93	2.7273	5.e-002	4.3743
16824	18.206	2.7273	0.	26.718
16825	18.114	2.6364	0.	25.913
16826	18.114	2.7273	5.e-002	4.3577
16827	18.39	2.7273	0.	28.187
16828	18.298	2.6364	0.	27.324
16829	18.298	2.7273	5.e-002	4.3415
16830	18.574	2.7273	0.	29.753
16831	18.482	2.6364	0.	28.826
16832	18.482	2.7273	5.e-002	4.3257
16833	18.758	2.7273	0.	31.427
16834	18.666	2.6364	0.	30.43
16835	18.666	2.7273	5.e-002	4.3103
16836	18.942	2.7273	0.	33.22
16837	18.85	2.6364	0.	32.145
16838	18.85	2.7273	5.e-002	4.2954
16839	19.126	2.7273	0.	35.142
16840	19.034	2.6364	0.	33.983
16841	19.034	2.7273	5.e-002	4.2809
16842	19.31	2.7273	0.	37.205
16843	19.218	2.6364	0.	35.955
16844	19.218	2.7273	5.e-002	4.2671
16845	19.493	2.7273	0.	39.423
16846	19.402	2.6364	0.	38.073
16847	19.402	2.7273	5.e-002	4.2538
16848	19.677	2.7273	0.	41.808
16849	19.585	2.6364	0.	40.35
16850	19.585	2.7273	5.e-002	4.2413
16851	19.861	2.7273	0.	44.376
16852	19.769	2.6364	0.	42.8
16853	19.769	2.7273	5.e-002	4.2295
16854	20.045	2.7273	0.	47.142
16855	19.953	2.6364	0.	45.438
16856	19.953	2.7273	5.e-002	4.2185
16857	20.229	2.7273	0.	50.122
16858	20.137	2.6364	0.	48.28
16859	20.137	2.7273	5.e-002	4.2085
16860	20.413	2.7273	0.	53.332
16861	20.321	2.6364	0.	51.342
16862	20.321	2.7273	5.e-002	4.1994
16863	20.597	2.7273	0.	56.793
16864	20.505	2.6364	0.	54.642
16865	20.505	2.7273	5.e-002	4.1915
16866	20.781	2.7273	0.	60.522
16867	20.689	2.6364	0.	58.199
16868	20.689	2.7273	5.e-002	4.185
16869	20.965	2.7273	0.	64.539
16870	20.873	2.6364	0.	62.032
16871	20.873	2.7273	5.e-002	4.1798
16872	21.149	2.7273	0.	68.864
16873	21.057	2.6364	0.	66.161
16874	21.057	2.7273	5.e-002	4.1764
16875	21.333	2.7273	0.	73.52
16876	21.241	2.6364	0.	70.607
16877	21.241	2.7273	5.e-002	4.1747
16878	21.517	2.7273	0.	78.525
16879	21.425	2.6364	0.	75.391
16880	21.425	2.7273	5.e-002	4.1752
16881	21.701	2.7273	0.	83.902
16882	21.609	2.6364	0.	80.535
16883	21.609	2.7273	5.e-002	4.178
16884	21.885	2.7273	0.	89.67
16885	21.793	2.6364	0.	86.059
16886	21.793	2.7273	5.e-002	4.1835
16887	22.069	2.7273	0.	95.85
16888	21.977	2.6364	0.	91.985
16889	21.977	2.7273	5.e-002	4.1918
16890	22.253	2.7273	0.	102.46
16891	22.161	2.6364	0.	98.332
16892	22.161	2.7273	5.e-002	4.2035
16893	22.437	2.7273	0.	109.51
16894	22.345	2.6364	0.	105.12
16895	22.345	2.7273	5.e-002	4.2187
16896	22.62	2.7273	0.	117.02
16897	22.528	2.6364	0.	112.36
16898	22.528	2.7273	5.e-002	4.2378
16899	22.804	2.7273	0.	124.99
16900	22.712	2.6364	0.	120.06
16901	22.712	2.7273	5.e-002	4.261
16902	22.988	2.7273	0.	133.44
16903	22.896	2.6364	0.	128.24
16904	22.896	2.7273	5.e-002	4.2887
16905	23.172	2.7273	0.	142.36
16906	23.08	2.6364	0.	136.89
16907	23.08	2.7273	5.e-002	4.3208
16908	23.356	2.7273	0.	151.75
16909	23.264	2.6364	0.	146.03
16910	23.264	2.7273	5.e-002	4.3574
16911	23.54	2.7273	0.	161.62
16912	23.448	2.6364	0.	155.63
16913	23.448	2.7273	5.e-002	4.3982
16914	23.724	2.7273	0.	171.87
16915	23.632	2.6364	0.	165.74
16916	23.632	2.7273	5.e-002	4.4432
16917	23.816	2.6364	0.	176.12
16918	23.816	2.7273	5.e-002	4.4984
16919	23.908	2.7273	0.	182.01
16920	4.0426	2.5455	0.	515.61
16921	3.9506	2.4545	0.	778.98
16922	3.9506	2.5455	5.e-002	120.02
16923	4.2265	2.5455	0.	164.46
16924	4.1345	2.4545	0.	314.4
16925	4.1345	2.5455	5.e-002	125.95
16926	4.4105	2.5455	0.	2.2957
16927	4.3185	2.4545	0.	9.6416
16928	4.3185	2.5455	5.e-002	103.88
16929	4.5944	2.5455	0.	1.8215
16930	4.5024	2.4545	0.	1.9215
16931	4.5024	2.5455	5.e-002	83.217
16932	4.7783	2.5455	0.	1.3796
16933	4.6864	2.4545	0.	1.6959
16934	4.6864	2.5455	5.e-002	66.389
16935	4.9623	2.5455	0.	1.0198
16936	4.8703	2.4545	0.	1.2226
16937	4.8703	2.5455	5.e-002	53.553
16938	5.1462	2.5455	0.	0.77266
16939	5.0542	2.4545	0.	0.91477
16940	5.0542	2.5455	5.e-002	43.677
16941	5.3302	2.5455	0.	0.57466
16942	5.2382	2.4545	0.	0.6867
16943	5.2382	2.5455	5.e-002	35.955
16944	5.5141	2.5455	0.	0.42633
16945	5.4221	2.4545	0.	0.51219
16946	5.4221	2.5455	5.e-002	29.853
16947	5.698	2.5455	0.	0.31452
16948	5.6061	2.4545	0.	0.38174
16949	5.6061	2.5455	5.e-002	25.006
16950	5.882	2.5455	0.	0.23112
16951	5.79	2.4545	0.	0.28329
16952	5.79	2.5455	5.e-002	21.145
16953	6.0659	2.5455	0.	0.16917
16954	5.9739	2.4545	0.	0.20965
16955	5.9739	2.5455	5.e-002	18.063
16956	6.2498	2.5455	0.	0.12334
16957	6.1579	2.4545	0.	0.15464
16958	6.1579	2.5455	5.e-002	15.6
16959	6.4338	2.5455	0.	8.9522e-002
16960	6.3418	2.4545	0.	0.11368
16961	6.3418	2.5455	5.e-002	13.629
16962	6.6177	2.5455	0.	6.464e-002
16963	6.5258	2.4545	0.	8.3258e-002
16964	6.5258	2.5455	5.e-002	12.051
16965	6.8017	2.5455	0.	4.638e-002
16966	6.7097	2.4545	0.	6.0725e-002
16967	6.7097	2.5455	5.e-002	10.786
16968	6.9856	2.5455	0.	3.3021e-002
16969	6.8936	2.4545	0.	4.4074e-002
16970	6.8936	2.5455	5.e-002	9.7708
16971	7.1695	2.5455	0.	2.3292e-002
16972	7.0776	2.4545	0.	3.1811e-002
16973	7.0776	2.5455	5.e-002	8.9551
16974	7.3535	2.5455	0.	1.6253e-002
16975	7.2615	2.4545	0.	2.2822e-002
16976	7.2615	2.5455	5.e-002	8.2983
16977	7.5374	2.5455	0.	1.1202e-002
16978	7.4455	2.4545	0.	1.6271e-002
16979	7.4455	2.5455	5.e-002	7.7683
16980	7.7214	2.5455	0.	7.6161e-003
16981	7.6294	2.4545	0.	1.1531e-002
16982	7.6294	2.5455	5.e-002	7.3394
16983	7.9053	2.5455	0.	5.1171e-003
16984	7.8133	2.4545	0.	8.1363e-003
16985	7.8133	2.5455	5.e-002	6.9909
16986	8.0892	2.5455	0.	3.4179e-003
16987	7.9973	2.4545	0.	5.7487e-003
16988	7.9973	2.5455	5.e-002	6.7065
16989	8.2732	2.5455	0.	2.3e-003
16990	8.1812	2.4545	0.	4.0993e-003
16991	8.1812	2.5455	5.e-002	6.473
16992	8.4571	2.5455	0.	1.6066e-003
16993	8.3652	2.4545	0.	2.9913e-003
16994	8.3652	2.5455	5.e-002	6.2801
16995	8.6411	2.5455	0.	1.223e-003
16996	8.5491	2.4545	0.	2.2855e-003
16997	8.5491	2.5455	5.e-002	6.1196
16998	8.825	2.5455	0.	1.0594e-003
16999	8.733	2.4545	0.	1.873e-003
17000	8.733	2.5455	5.e-002	5.9848
17001	9.0089	2.5455	0.	1.0491e-003
17002	8.917	2.4545	0.	1.6688e-003
17003	8.917	2.5455	5.e-002	5.8707
17004	9.1929	2.5455	0.	1.1472e-003
17005	9.1009	2.4545	0.	1.6131e-003
17006	9.1009	2.5455	5.e-002	5.7732
17007	9.3768	2.5455	0.	1.3214e-003
17008	9.2848	2.4545	0.	1.6666e-003
17009	9.2848	2.5455	5.e-002	5.6888
17010	9.5608	2.5455	0.	1.543e-003
17011	9.4688	2.4545	0.	1.7965e-003
17012	9.4688	2.5455	5.e-002	5.6151
17013	9.7447	2.5455	0.	1.7993e-003
17014	9.6527	2.4545	0.	1.9717e-003
17015	9.6527	2.5455	5.e-002	5.5501
17016	9.9286	2.5455	0.	2.0836e-003
17017	9.8367	2.4545	0.	2.1932e-003
17018	9.8367	2.5455	5.e-002	5.4921
17019	10.113	2.5455	0.	2.3632e-003
17020	10.021	2.4545	0.	2.4436e-003
17021	10.021	2.5455	5.e-002	5.4398
17022	10.297	2.5455	0.	2.6313e-003
17023	10.205	2.4545	0.	2.6719e-003
17024	10.205	2.5455	5.e-002	5.3922
17025	10.48	2.5455	0.	2.902e-003
17026	10.388	2.4545	0.	2.9117e-003
17027	10.388	2.5455	5.e-002	5.3484
17028	10.664	2.5455	0.	3.1588e-003
17029	10.572	2.4545	0.	3.1564e-003
17030	10.572	2.5455	5.e-002	5.3077
17031	10.848	2.5455	0.	3.4121e-003
17032	10.756	2.4545	0.	3.3785e-003
17033	10.756	2.5455	5.e-002	5.2697
17034	11.032	2.5455	0.	3.6833e-003
17035	10.94	2.4545	0.	3.6233e-003
17036	10.94	2.5455	5.e-002	5.2339
17037	11.216	2.5455	0.	3.9513e-003
17038	11.124	2.4545	0.	3.8883e-003
17039	11.124	2.5455	5.e-002	5.2
17040	11.4	2.5455	0.	4.1963e-003
17041	11.308	2.4545	0.	4.1331e-003
17042	11.308	2.5455	5.e-002	5.1678
17043	11.584	2.5455	0.	4.44e-003
17044	11.492	2.4545	0.	4.3584e-003
17045	11.492	2.5455	5.e-002	5.1369
17046	11.768	2.5455	0.	4.6963e-003
17047	11.676	2.4545	0.	4.6073e-003
17048	11.676	2.5455	5.e-002	5.1071
17049	11.952	2.5455	0.	4.9269e-003
17050	11.86	2.4545	0.	4.8635e-003
17051	11.86	2.5455	5.e-002	5.0785
17052	12.136	2.5455	0.	5.1331e-003
17053	12.044	2.4545	0.	5.067e-003
17054	12.044	2.5455	5.e-002	5.0508
17055	12.32	2.5455	0.	5.3586e-003
17056	12.228	2.4545	0.	5.2835e-003
17057	12.228	2.5455	5.e-002	5.0239
17058	12.504	2.5455	0.	5.5989e-003
17059	12.412	2.4545	0.	5.5372e-003
17060	12.412	2.5455	5.e-002	4.9976
17061	12.688	2.5455	0.	5.8429e-003
17062	12.596	2.4545	0.	5.7993e-003
17063	12.596	2.5455	5.e-002	4.972
17064	12.872	2.5455	0.	6.1287e-003
17065	12.78	2.4545	0.	6.0898e-003
17066	12.78	2.5455	5.e-002	4.9468
17067	13.056	2.5455	0.	6.52e-003
17068	12.964	2.4545	0.	6.4927e-003
17069	12.964	2.5455	5.e-002	4.9223
17070	13.24	2.5455	0.	7.1701e-003
17071	13.148	2.4545	0.	7.1475e-003
17072	13.148	2.5455	5.e-002	4.8981
17073	13.423	2.5455	0.	9.4537e-003
17074	13.332	2.4545	0.	8.7906e-003
17075	13.332	2.5455	5.e-002	4.8745
17076	13.607	2.5455	0.	0.61075
17077	13.515	2.4545	0.	0.13756
17078	13.515	2.5455	5.e-002	4.8512
17079	13.791	2.5455	0.	1.8964
17080	13.699	2.4545	0.	1.4235
17081	13.699	2.5455	5.e-002	4.8283
17082	13.975	2.5455	0.	3.1128
17083	13.883	2.4545	0.	2.6583
17084	13.883	2.5455	5.e-002	4.8058
17085	14.159	2.5455	0.	4.266
17086	14.067	2.4545	0.	3.8274
17087	14.067	2.5455	5.e-002	4.7836
17088	14.343	2.5455	0.	5.3634
17089	14.251	2.4545	0.	4.938
17090	14.251	2.5455	5.e-002	4.7617
17091	14.527	2.5455	0.	6.4119
17092	14.435	2.4545	0.	5.997
17093	14.435	2.5455	5.e-002	4.74
17094	14.711	2.5455	0.	7.4183
17095	14.619	2.4545	0.	7.0113
17096	14.619	2.5455	5.e-002	4.7186
17097	14.895	2.5455	0.	8.3892
17098	14.803	2.4545	0.	7.9873
17099	14.803	2.5455	5.e-002	4.6974
17100	15.079	2.5455	0.	9.3307
17101	14.987	2.4545	0.	8.9315
17102	14.987	2.5455	5.e-002	4.6765
17103	15.263	2.5455	0.	10.249
17104	15.171	2.4545	0.	9.8498
17105	15.171	2.5455	5.e-002	4.6558
17106	15.447	2.5455	0.	11.15
17107	15.355	2.4545	0.	10.748
17108	15.355	2.5455	5.e-002	4.6354
17109	15.631	2.5455	0.	12.039
17110	15.539	2.4545	0.	11.632
17111	15.539	2.5455	5.e-002	4.6152
17112	15.815	2.5455	0.	12.923
17113	15.723	2.4545	0.	12.507
17114	15.723	2.5455	5.e-002	4.5952
17115	15.999	2.5455	0.	13.806
17116	15.907	2.4545	0.	13.38
17117	15.907	2.5455	5.e-002	4.5755
17118	16.183	2.5455	0.	14.695
17119	16.091	2.4545	0.	14.255
17120	16.091	2.5455	5.e-002	4.556
17121	16.367	2.5455	0.	15.595
17122	16.275	2.4545	0.	15.138
17123	16.275	2.5455	5.e-002	4.5367
17124	16.55	2.5455	0.	16.512
17125	16.458	2.4545	0.	16.035
17126	16.458	2.5455	5.e-002	4.5176
17127	16.734	2.5455	0.	17.451
17128	16.642	2.4545	0.	16.951
17129	16.642	2.5455	5.e-002	4.4988
17130	16.918	2.5455	0.	18.42
17131	16.826	2.4545	0.	17.893
17132	16.826	2.5455	5.e-002	4.4802
17133	17.102	2.5455	0.	19.423
17134	17.01	2.4545	0.	18.866
17135	17.01	2.5455	5.e-002	4.4617
17136	17.286	2.5455	0.	20.467
17137	17.194	2.4545	0.	19.876
17138	17.194	2.5455	5.e-002	4.4436
17139	17.47	2.5455	0.	21.56
17140	17.378	2.4545	0.	20.93
17141	17.378	2.5455	5.e-002	4.4258
17142	17.654	2.5455	0.	22.707
17143	17.562	2.4545	0.	22.035
17144	17.562	2.5455	5.e-002	4.4082
17145	17.838	2.5455	0.	23.917
17146	17.746	2.4545	0.	23.197
17147	17.746	2.5455	5.e-002	4.391
17148	18.022	2.5455	0.	25.196
17149	17.93	2.4545	0.	24.425
17150	17.93	2.5455	5.e-002	4.3741
17151	18.206	2.5455	0.	26.554
17152	18.114	2.4545	0.	25.725
17153	18.114	2.5455	5.e-002	4.3575
17154	18.39	2.5455	0.	27.998
17155	18.298	2.4545	0.	27.106
17156	18.298	2.5455	5.e-002	4.3413
17157	18.574	2.5455	0.	29.538
17158	18.482	2.4545	0.	28.576
17159	18.482	2.5455	5.e-002	4.3254
17160	18.758	2.5455	0.	31.183
17161	18.666	2.4545	0.	30.145
17162	18.666	2.5455	5.e-002	4.31
17163	18.942	2.5455	0.	32.944
17164	18.85	2.4545	0.	31.823
17165	18.85	2.5455	5.e-002	4.2951
17166	19.126	2.5455	0.	34.831
17167	19.034	2.4545	0.	33.62
17168	19.034	2.5455	5.e-002	4.2806
17169	19.31	2.5455	0.	36.858
17170	19.218	2.4545	0.	35.548
17171	19.218	2.5455	5.e-002	4.2667
17172	19.493	2.5455	0.	39.035
17173	19.402	2.4545	0.	37.618
17174	19.402	2.5455	5.e-002	4.2535
17175	19.677	2.5455	0.	41.377
17176	19.585	2.4545	0.	39.843
17177	19.585	2.5455	5.e-002	4.2408
17178	19.861	2.5455	0.	43.897
17179	19.769	2.4545	0.	42.236
17180	19.769	2.5455	5.e-002	4.229
17181	20.045	2.5455	0.	46.611
17182	19.953	2.4545	0.	44.813
17183	19.953	2.5455	5.e-002	4.218
17184	20.229	2.5455	0.	49.535
17185	20.137	2.4545	0.	47.588
17186	20.137	2.5455	5.e-002	4.2079
17187	20.413	2.5455	0.	52.686
17188	20.321	2.4545	0.	50.578
17189	20.321	2.5455	5.e-002	4.1987
17190	20.597	2.5455	0.	56.082
17191	20.505	2.4545	0.	53.801
17192	20.505	2.5455	5.e-002	4.1908
17193	20.781	2.5455	0.	59.742
17194	20.689	2.4545	0.	57.275
17195	20.689	2.5455	5.e-002	4.1841
17196	20.965	2.5455	0.	63.686
17197	20.873	2.4545	0.	61.019
17198	20.873	2.5455	5.e-002	4.1788
17199	21.149	2.5455	0.	67.934
17200	21.057	2.4545	0.	65.054
17201	21.057	2.5455	5.e-002	4.1751
17202	21.333	2.5455	0.	72.508
17203	21.241	2.4545	0.	69.4
17204	21.241	2.5455	5.e-002	4.1733
17205	21.517	2.5455	0.	77.429
17206	21.425	2.4545	0.	74.081
17207	21.425	2.5455	5.e-002	4.1736
17208	21.701	2.5455	0.	82.719
17209	21.609	2.4545	0.	79.116
17210	21.609	2.5455	5.e-002	4.1761
17211	21.885	2.5455	0.	88.399
17212	21.793	2.4545	0.	84.53
17213	21.793	2.5455	5.e-002	4.1813
17214	22.069	2.5455	0.	94.49
17215	21.977	2.4545	0.	90.345
17216	21.977	2.5455	5.e-002	4.1894
17217	22.253	2.5455	0.	101.01
17218	22.161	2.4545	0.	96.58
17219	22.161	2.5455	5.e-002	4.2008
17220	22.437	2.5455	0.	107.98
17221	22.345	2.4545	0.	103.26
17222	22.345	2.5455	5.e-002	4.2157
17223	22.62	2.5455	0.	115.41
17224	22.528	2.4545	0.	110.39
17225	22.528	2.5455	5.e-002	4.2346
17226	22.804	2.5455	0.	123.32
17227	22.712	2.4545	0.	118.
17228	22.712	2.5455	5.e-002	4.2577
17229	22.988	2.5455	0.	131.7
17230	22.896	2.4545	0.	126.09
17231	22.896	2.5455	5.e-002	4.2853
17232	23.172	2.5455	0.	140.57
17233	23.08	2.4545	0.	134.68
17234	23.08	2.5455	5.e-002	4.3176
17235	23.356	2.5455	0.	149.92
17236	23.264	2.4545	0.	143.76
17237	23.264	2.5455	5.e-002	4.3546
17238	23.54	2.5455	0.	159.76
17239	23.448	2.4545	0.	153.31
17240	23.448	2.5455	5.e-002	4.3961
17241	23.724	2.5455	0.	170.
17242	23.632	2.4545	0.	163.4
17243	23.632	2.5455	5.e-002	4.4421
17244	23.816	2.4545	0.	173.77
17245	23.816	2.5455	5.e-002	4.5018
17246	23.908	2.5455	0.	180.12
17247	4.0426	2.3636	0.	597.15
17248	3.9506	2.2727	0.	925.69
17249	3.9506	2.3636	5.e-002	210.38
17250	4.2265	2.3636	0.	159.48
17251	4.1345	2.2727	0.	369.79
17252	4.1345	2.3636	5.e-002	164.9
17253	4.4105	2.3636	0.	5.1783
17254	4.3185	2.2727	0.	34.164
17255	4.3185	2.3636	5.e-002	119.15
17256	4.5944	2.3636	0.	1.9197
17257	4.5024	2.2727	0.	5.2175
17258	4.5024	2.3636	5.e-002	83.836
17259	4.7783	2.3636	0.	1.6158
17260	4.6864	2.2727	0.	1.8275
17261	4.6864	2.3636	5.e-002	63.673
17262	4.9623	2.3636	0.	1.164
17263	4.8703	2.2727	0.	1.6664
17264	4.8703	2.3636	5.e-002	50.379
17265	5.1462	2.3636	0.	0.8581
17266	5.0542	2.2727	0.	1.0777
17267	5.0542	2.3636	5.e-002	40.843
17268	5.3302	2.3636	0.	0.64352
17269	5.2382	2.2727	0.	0.81909
17270	5.2382	2.3636	5.e-002	33.641
17271	5.5141	2.3636	0.	0.48074
17272	5.4221	2.2727	0.	0.60081
17273	5.4221	2.3636	5.e-002	28.037
17274	5.698	2.3636	0.	0.35969
17275	5.6061	2.2727	0.	0.45021
17276	5.6061	2.3636	5.e-002	23.603
17277	5.882	2.3636	0.	0.26838
17278	5.79	2.2727	0.	0.33617
17279	5.79	2.3636	5.e-002	20.065
17280	6.0659	2.3636	0.	0.19987
17281	5.9739	2.2727	0.	0.25149
17282	5.9739	2.3636	5.e-002	17.229
17283	6.2498	2.3636	0.	0.14846
17284	6.1579	2.2727	0.	0.18789
17285	6.1579	2.3636	5.e-002	14.952
17286	6.4338	2.3636	0.	0.10999
17287	6.3418	2.2727	0.	0.14023
17288	6.3418	2.3636	5.e-002	13.12
17289	6.6177	2.3636	0.	8.1264e-002
17290	6.5258	2.2727	0.	0.10451
17291	6.5258	2.3636	5.e-002	11.648
17292	6.8017	2.3636	0.	5.9861e-002
17293	6.7097	2.2727	0.	7.7777e-002
17294	6.7097	2.3636	5.e-002	10.463
17295	6.9856	2.3636	0.	4.3953e-002
17296	6.8936	2.2727	0.	5.7789e-002
17297	6.8936	2.3636	5.e-002	9.5109
17298	7.1695	2.3636	0.	3.2167e-002
17299	7.0776	2.2727	0.	4.2873e-002
17300	7.0776	2.3636	5.e-002	8.7444
17301	7.3535	2.3636	0.	2.347e-002
17302	7.2615	2.2727	0.	3.1773e-002
17303	7.2615	2.3636	5.e-002	8.127
17304	7.5374	2.3636	0.	1.7084e-002
17305	7.4455	2.2727	0.	2.3539e-002
17306	7.4455	2.3636	5.e-002	7.6288
17307	7.7214	2.3636	0.	1.2424e-002
17308	7.6294	2.2727	0.	1.7453e-002
17309	7.6294	2.3636	5.e-002	7.2257
17310	7.9053	2.3636	0.	9.0565e-003
17311	7.8133	2.2727	0.	1.2979e-002
17312	7.8133	2.3636	5.e-002	6.8984
17313	8.0892	2.3636	0.	6.6544e-003
17314	7.9973	2.2727	0.	9.7209e-003
17315	7.9973	2.3636	5.e-002	6.6313
17316	8.2732	2.3636	0.	4.9658e-003
17317	8.1812	2.2727	0.	7.3678e-003
17318	8.1812	2.3636	5.e-002	6.412
17319	8.4571	2.3636	0.	3.8075e-003
17320	8.3652	2.2727	0.	5.6881e-003
17321	8.3652	2.3636	5.e-002	6.2307
17322	8.6411	2.3636	0.	3.0434e-003
17323	8.5491	2.2727	0.	4.5156e-003
17324	8.5491	2.3636	5.e-002	6.0796
17325	8.825	2.3636	0.	2.5673e-003
17326	8.733	2.2727	0.	3.7211e-003
17327	8.733	2.3636	5.e-002	5.9526
17328	9.0089	2.3636	0.	2.2998e-003
17329	8.917	2.2727	0.	3.2021e-003
17330	8.917	2.3636	5.e-002	5.8447
17331	9.1929	2.3636	0.	2.1852e-003
17332	9.1009	2.2727	0.	2.887e-003
17333	9.1009	2.3636	5.e-002	5.7521
17334	9.3768	2.3636	0.	2.1831e-003
17335	9.2848	2.2727	0.	2.7245e-003
17336	9.2848	2.3636	5.e-002	5.6719
17337	9.5608	2.3636	0.	2.2576e-003
17338	9.4688	2.2727	0.	2.6754e-003
17339	9.4688	2.3636	5.e-002	5.6015
17340	9.7447	2.3636	0.	2.3906e-003
17341	9.6527	2.2727	0.	2.701e-003
17342	9.6527	2.3636	5.e-002	5.5391
17343	9.9286	2.3636	0.	2.5724e-003
17344	9.8367	2.2727	0.	2.7974e-003
17345	9.8367	2.3636	5.e-002	5.4831
17346	10.113	2.3636	0.	2.7667e-003
17347	10.021	2.2727	0.	2.9429e-003
17348	10.021	2.3636	5.e-002	5.4325
17349	10.297	2.3636	0.	2.9628e-003
17350	10.205	2.2727	0.	3.0833e-003
17351	10.205	2.3636	5.e-002	5.3862
17352	10.48	2.3636	0.	3.1733e-003
17353	10.388	2.2727	0.	3.2491e-003
17354	10.388	2.3636	5.e-002	5.3435
17355	10.664	2.3636	0.	3.3806e-003
17356	10.572	2.2727	0.	3.4324e-003
17357	10.572	2.3636	5.e-002	5.3037
17358	10.848	2.3636	0.	3.5921e-003
17359	10.756	2.2727	0.	3.6031e-003
17360	10.756	2.3636	5.e-002	5.2664
17361	11.032	2.3636	0.	3.8289e-003
17362	10.94	2.2727	0.	3.8055e-003
17363	10.94	2.3636	5.e-002	5.2311
17364	11.216	2.3636	0.	4.0694e-003
17365	11.124	2.2727	0.	4.0361e-003
17366	11.124	2.3636	5.e-002	5.1977
17367	11.4	2.3636	0.	4.2936e-003
17368	11.308	2.2727	0.	4.2541e-003
17369	11.308	2.3636	5.e-002	5.1658
17370	11.584	2.3636	0.	4.5235e-003
17371	11.492	2.2727	0.	4.4606e-003
17372	11.492	2.3636	5.e-002	5.1352
17373	11.768	2.3636	0.	4.7719e-003
17374	11.676	2.2727	0.	4.6979e-003
17375	11.676	2.3636	5.e-002	5.1057
17376	11.952	2.3636	0.	5.001e-003
17377	11.86	2.2727	0.	4.9498e-003
17378	11.86	2.3636	5.e-002	5.0773
17379	12.136	2.3636	0.	5.2154e-003
17380	12.044	2.2727	0.	5.1589e-003
17381	12.044	2.3636	5.e-002	5.0497
17382	12.32	2.3636	0.	5.461e-003
17383	12.228	2.2727	0.	5.3942e-003
17384	12.228	2.3636	5.e-002	5.0229
17385	12.504	2.3636	0.	5.7378e-003
17386	12.412	2.2727	0.	5.6842e-003
17387	12.412	2.3636	5.e-002	4.9967
17388	12.688	2.3636	0.	6.0473e-003
17389	12.596	2.2727	0.	6.0115e-003
17390	12.596	2.3636	5.e-002	4.9711
17391	12.872	2.3636	0.	6.4525e-003
17392	12.78	2.2727	0.	6.4207e-003
17393	12.78	2.3636	5.e-002	4.9461
17394	13.056	2.3636	0.	7.0931e-003
17395	12.964	2.2727	0.	7.0581e-003
17396	12.964	2.3636	5.e-002	4.9216
17397	13.24	2.3636	0.	8.4569e-003
17398	13.148	2.2727	0.	8.3106e-003
17399	13.148	2.3636	5.e-002	4.8975
17400	13.423	2.3636	0.	1.7726e-002
17401	13.332	2.2727	0.	1.304e-002
17402	13.332	2.3636	5.e-002	4.8739
17403	13.607	2.3636	0.	0.95406
17404	13.515	2.2727	0.	0.53784
17405	13.515	2.3636	5.e-002	4.8507
17406	13.791	2.3636	0.	2.2097
17407	13.699	2.2727	0.	1.8042
17408	13.699	2.3636	5.e-002	4.8278
17409	13.975	2.3636	0.	3.398
17410	13.883	2.2727	0.	3.0055
17411	13.883	2.3636	5.e-002	4.8054
17412	14.159	2.3636	0.	4.525
17413	14.067	2.2727	0.	4.1432
17414	14.067	2.3636	5.e-002	4.7832
17415	14.343	2.3636	0.	5.5977
17416	14.251	2.2727	0.	5.2244
17417	14.251	2.3636	5.e-002	4.7613
17418	14.527	2.3636	0.	6.623
17419	14.435	2.2727	0.	6.2558
17420	14.435	2.3636	5.e-002	4.7396
17421	14.711	2.3636	0.	7.6074
17422	14.619	2.2727	0.	7.244
17423	14.619	2.3636	5.e-002	4.7183
17424	14.895	2.3636	0.	8.5572
17425	14.803	2.2727	0.	8.1952
17426	14.803	2.3636	5.e-002	4.6971
17427	15.079	2.3636	0.	9.4786
17428	14.987	2.2727	0.	9.1155
17429	14.987	2.3636	5.e-002	4.6762
17430	15.263	2.3636	0.	10.377
17431	15.171	2.2727	0.	10.011
17432	15.171	2.3636	5.e-002	4.6555
17433	15.447	2.3636	0.	11.259
17434	15.355	2.2727	0.	10.887
17435	15.355	2.3636	5.e-002	4.6351
17436	15.631	2.3636	0.	12.13
17437	15.539	2.2727	0.	11.749
17438	15.539	2.3636	5.e-002	4.6149
17439	15.815	2.3636	0.	12.994
17440	15.723	2.2727	0.	12.602
17441	15.723	2.3636	5.e-002	4.595
17442	15.999	2.3636	0.	13.859
17443	15.907	2.2727	0.	13.453
17444	15.907	2.3636	5.e-002	4.5753
17445	16.183	2.3636	0.	14.728
17446	16.091	2.2727	0.	14.306
17447	16.091	2.3636	5.e-002	4.5558
17448	16.367	2.3636	0.	15.609
17449	16.275	2.2727	0.	15.167
17450	16.275	2.3636	5.e-002	4.5365
17451	16.55	2.3636	0.	16.506
17452	16.458	2.2727	0.	16.041
17453	16.458	2.3636	5.e-002	4.5174
17454	16.734	2.3636	0.	17.425
17455	16.642	2.2727	0.	16.934
17456	16.642	2.3636	5.e-002	4.4985
17457	16.918	2.3636	0.	18.371
17458	16.826	2.2727	0.	17.851
17459	16.826	2.3636	5.e-002	4.4799
17460	17.102	2.3636	0.	19.352
17461	17.01	2.2727	0.	18.798
17462	17.01	2.3636	5.e-002	4.4615
17463	17.286	2.3636	0.	20.372
17464	17.194	2.2727	0.	19.782
17465	17.194	2.3636	5.e-002	4.4434
17466	17.47	2.3636	0.	21.439
17467	17.378	2.2727	0.	20.808
17468	17.378	2.3636	5.e-002	4.4255
17469	17.654	2.3636	0.	22.559
17470	17.562	2.2727	0.	21.882
17471	17.562	2.3636	5.e-002	4.408
17472	17.838	2.3636	0.	23.74
17473	17.746	2.2727	0.	23.012
17474	17.746	2.3636	5.e-002	4.3907
17475	18.022	2.3636	0.	24.988
17476	17.93	2.2727	0.	24.204
17477	17.93	2.3636	5.e-002	4.3738
17478	18.206	2.3636	0.	26.312
17479	18.114	2.2727	0.	25.467
17480	18.114	2.3636	5.e-002	4.3572
17481	18.39	2.3636	0.	27.719
17482	18.298	2.2727	0.	26.807
17483	18.298	2.3636	5.e-002	4.341
17484	18.574	2.3636	0.	29.219
17485	18.482	2.2727	0.	28.234
17486	18.482	2.3636	5.e-002	4.3251
17487	18.758	2.3636	0.	30.822
17488	18.666	2.2727	0.	29.755
17489	18.666	2.3636	5.e-002	4.3097
17490	18.942	2.3636	0.	32.536
17491	18.85	2.2727	0.	31.381
17492	18.85	2.3636	5.e-002	4.2947
17493	19.126	2.3636	0.	34.373
17494	19.034	2.2727	0.	33.122
17495	19.034	2.3636	5.e-002	4.2802
17496	19.31	2.3636	0.	36.344
17497	19.218	2.2727	0.	34.989
17498	19.218	2.3636	5.e-002	4.2662
17499	19.493	2.3636	0.	38.461
17500	19.402	2.2727	0.	36.992
17501	19.402	2.3636	5.e-002	4.2529
17502	19.677	2.3636	0.	40.738
17503	19.585	2.2727	0.	39.145
17504	19.585	2.3636	5.e-002	4.2402
17505	19.861	2.3636	0.	43.188
17506	19.769	2.2727	0.	41.46
17507	19.769	2.3636	5.e-002	4.2283
17508	20.045	2.3636	0.	45.825
17509	19.953	2.2727	0.	43.952
17510	19.953	2.3636	5.e-002	4.2172
17511	20.229	2.3636	0.	48.667
17512	20.137	2.2727	0.	46.635
17513	20.137	2.3636	5.e-002	4.207
17514	20.413	2.3636	0.	51.728
17515	20.321	2.2727	0.	49.525
17516	20.321	2.3636	5.e-002	4.1977
17517	20.597	2.3636	0.	55.028
17518	20.505	2.2727	0.	52.641
17519	20.505	2.3636	5.e-002	4.1896
17520	20.781	2.3636	0.	58.586
17521	20.689	2.2727	0.	55.999
17522	20.689	2.3636	5.e-002	4.1827
17523	20.965	2.3636	0.	62.42
17524	20.873	2.2727	0.	59.62
17525	20.873	2.3636	5.e-002	4.1772
17526	21.149	2.3636	0.	66.552
17527	21.057	2.2727	0.	63.523
17528	21.057	2.3636	5.e-002	4.1733
17529	21.333	2.3636	0.	71.003
17530	21.241	2.2727	0.	67.73
17531	21.241	2.3636	5.e-002	4.1712
17532	21.517	2.3636	0.	75.797
17533	21.425	2.2727	0.	72.264
17534	21.425	2.3636	5.e-002	4.1711
17535	21.701	2.3636	0.	80.955
17536	21.609	2.2727	0.	77.147
17537	21.609	2.3636	5.e-002	4.1733
17538	21.885	2.3636	0.	86.502
17539	21.793	2.2727	0.	82.405
17540	21.793	2.3636	5.e-002	4.1781
17541	22.069	2.3636	0.	92.458
17542	21.977	2.2727	0.	88.06
17543	21.977	2.3636	5.e-002	4.1857
17544	22.253	2.3636	0.	98.847
17545	22.161	2.2727	0.	94.136
17546	22.161	2.3636	5.e-002	4.1967
17547	22.437	2.3636	0.	105.69
17548	22.345	2.2727	0.	100.66
17549	22.345	2.3636	5.e-002	4.2112
17550	22.62	2.3636	0.	113.
17551	22.528	2.2727	0.	107.64
17552	22.528	2.3636	5.e-002	4.2297
17553	22.804	2.3636	0.	120.8
17554	22.712	2.2727	0.	115.11
17555	22.712	2.3636	5.e-002	4.2526
17556	22.988	2.3636	0.	129.08
17557	22.896	2.2727	0.	123.08
17558	22.896	2.3636	5.e-002	4.2802
17559	23.172	2.3636	0.	137.88
17560	23.08	2.2727	0.	131.56
17561	23.08	2.3636	5.e-002	4.3127
17562	23.356	2.3636	0.	147.16
17563	23.264	2.2727	0.	140.55
17564	23.264	2.3636	5.e-002	4.3503
17565	23.54	2.3636	0.	156.96
17566	23.448	2.2727	0.	150.05
17567	23.448	2.3636	5.e-002	4.3927
17568	23.724	2.3636	0.	167.18
17569	23.632	2.2727	0.	160.09
17570	23.632	2.3636	5.e-002	4.4404
17571	23.816	2.2727	0.	170.45
17572	23.816	2.3636	5.e-002	4.5069
17573	23.908	2.3636	0.	177.26
17574	4.0426	2.1818	0.	748.56
17575	3.9506	2.0909	0.	1705.7
17576	3.9506	2.1818	5.e-002	479.88
17577	4.2265	2.1818	0.	265.32
17578	4.1345	2.0909	0.	683.64
17579	4.1345	2.1818	5.e-002	225.66
17580	4.4105	2.1818	0.	14.676
17581	4.3185	2.0909	0.	223.24
17582	4.3185	2.1818	5.e-002	115.22
17583	4.5944	2.1818	0.	5.7972
17584	4.5024	2.0909	0.	23.618
17585	4.5024	2.1818	5.e-002	78.964
17586	4.7783	2.1818	0.	2.1049
17587	4.6864	2.0909	0.	3.9586
17588	4.6864	2.1818	5.e-002	58.694
17589	4.9623	2.1818	0.	1.6789
17590	4.8703	2.0909	0.	2.7219
17591	4.8703	2.1818	5.e-002	46.09
17592	5.1462	2.1818	0.	1.0901
17593	5.0542	2.0909	0.	1.5296
17594	5.0542	2.1818	5.e-002	37.349
17595	5.3302	2.1818	0.	0.80626
17596	5.2382	2.0909	0.	1.0958
17597	5.2382	2.1818	5.e-002	30.865
17598	5.5141	2.1818	0.	0.58893
17599	5.4221	2.0909	0.	0.77081
17600	5.4221	2.1818	5.e-002	25.857
17601	5.698	2.1818	0.	0.43891
17602	5.6061	2.0909	0.	0.56653
17603	5.6061	2.1818	5.e-002	21.899
17604	5.882	2.1818	0.	0.32756
17605	5.79	2.0909	0.	0.41856
17606	5.79	2.1818	5.e-002	18.731
17607	6.0659	2.1818	0.	0.24527
17608	5.9739	2.0909	0.	0.31216
17609	5.9739	2.1818	5.e-002	16.181
17610	6.2498	2.1818	0.	0.18374
17611	6.1579	2.0909	0.	0.23355
17612	6.1579	2.1818	5.e-002	14.122
17613	6.4338	2.1818	0.	0.13768
17614	6.3418	2.0909	0.	0.17519
17615	6.3418	2.1818	5.e-002	12.459
17616	6.6177	2.1818	0.	0.10314
17617	6.5258	2.0909	0.	0.13161
17618	6.5258	2.1818	5.e-002	11.117
17619	6.8017	2.1818	0.	7.7257e-002
17620	6.7097	2.0909	0.	9.9001e-002
17621	6.7097	2.1818	5.e-002	10.035
17622	6.9856	2.1818	0.	5.7857e-002
17623	6.8936	2.0909	0.	7.4552e-002
17624	6.8936	2.1818	5.e-002	9.1629
17625	7.1695	2.1818	0.	4.3336e-002
17626	7.0776	2.0909	0.	5.6214e-002
17627	7.0776	2.1818	5.e-002	8.4613
17628	7.3535	2.1818	0.	3.2486e-002
17629	7.2615	2.0909	0.	4.2464e-002
17630	7.2615	2.1818	5.e-002	7.8965
17631	7.5374	2.1818	0.	2.4396e-002
17632	7.4455	2.0909	0.	3.2162e-002
17633	7.4455	2.1818	5.e-002	7.4411
17634	7.7214	2.1818	0.	1.838e-002
17635	7.6294	2.0909	0.	2.4448e-002
17636	7.6294	2.1818	5.e-002	7.0731
17637	7.9053	2.1818	0.	1.3929e-002
17638	7.8133	2.0909	0.	1.8683e-002
17639	7.8133	2.1818	5.e-002	6.7744
17640	8.0892	2.1818	0.	1.0655e-002
17641	7.9973	2.0909	0.	1.4395e-002
17642	7.9973	2.1818	5.e-002	6.5307
17643	8.2732	2.1818	0.	8.2622e-003
17644	8.1812	2.0909	0.	1.1214e-002
17645	8.1812	2.1818	5.e-002	6.3306
17646	8.4571	2.1818	0.	6.5307e-003
17647	8.3652	2.0909	0.	8.8635e-003
17648	8.3652	2.1818	5.e-002	6.165
17649	8.6411	2.1818	0.	5.2987e-003
17650	8.5491	2.0909	0.	7.1459e-003
17651	8.5491	2.1818	5.e-002	6.0266
17652	8.825	2.1818	0.	4.4388e-003
17653	8.733	2.0909	0.	5.9044e-003
17654	8.733	2.1818	5.e-002	5.9099
17655	9.0089	2.1818	0.	3.8546e-003
17656	8.917	2.0909	0.	5.0175e-003
17657	8.917	2.1818	5.e-002	5.8104
17658	9.1929	2.1818	0.	3.4776e-003
17659	9.1009	2.0909	0.	4.3976e-003
17660	9.1009	2.1818	5.e-002	5.7245
17661	9.3768	2.1818	0.	3.2572e-003
17662	9.2848	2.0909	0.	3.9827e-003
17663	9.2848	2.1818	5.e-002	5.6496
17664	9.5608	2.1818	0.	3.1502e-003
17665	9.4688	2.0909	0.	3.7225e-003
17666	9.4688	2.1818	5.e-002	5.5835
17667	9.7447	2.1818	0.	3.132e-003
17668	9.6527	2.0909	0.	3.5714e-003
17669	9.6527	2.1818	5.e-002	5.5246
17670	9.9286	2.1818	0.	3.1863e-003
17671	9.8367	2.0909	0.	3.5199e-003
17672	9.8367	2.1818	5.e-002	5.4714
17673	10.113	2.1818	0.	3.2731e-003
17674	10.021	2.0909	0.	3.5404e-003
17675	10.021	2.1818	5.e-002	5.423
17676	10.297	2.1818	0.	3.3791e-003
17677	10.205	2.0909	0.	3.5758e-003
17678	10.205	2.1818	5.e-002	5.3785
17679	10.48	2.1818	0.	3.5146e-003
17680	10.388	2.0909	0.	3.6535e-003
17681	10.388	2.1818	5.e-002	5.3371
17682	10.664	2.1818	0.	3.6586e-003
17683	10.572	2.0909	0.	3.7627e-003
17684	10.572	2.1818	5.e-002	5.2985
17685	10.848	2.1818	0.	3.8179e-003
17686	10.756	2.0909	0.	3.8715e-003
17687	10.756	2.1818	5.e-002	5.262
17688	11.032	2.1818	0.	4.0122e-003
17689	10.94	2.0909	0.	4.0238e-003
17690	10.94	2.1818	5.e-002	5.2275
17691	11.216	2.1818	0.	4.2189e-003
17692	11.124	2.0909	0.	4.2138e-003
17693	11.124	2.1818	5.e-002	5.1946
17694	11.4	2.1818	0.	4.4181e-003
17695	11.308	2.0909	0.	4.4009e-003
17696	11.308	2.1818	5.e-002	5.1631
17697	11.584	2.1818	0.	4.6312e-003
17698	11.492	2.0909	0.	4.5853e-003
17699	11.492	2.1818	5.e-002	5.1329
17700	11.768	2.1818	0.	4.8716e-003
17701	11.676	2.0909	0.	4.8106e-003
17702	11.676	2.1818	5.e-002	5.1037
17703	11.952	2.1818	0.	5.1032e-003
17704	11.86	2.0909	0.	5.0623e-003
17705	11.86	2.1818	5.e-002	5.0756
17706	12.136	2.1818	0.	5.3334e-003
17707	12.044	2.0909	0.	5.2853e-003
17708	12.044	2.1818	5.e-002	5.0482
17709	12.32	2.1818	0.	5.6133e-003
17710	12.228	2.0909	0.	5.5536e-003
17711	12.228	2.1818	5.e-002	5.0215
17712	12.504	2.1818	0.	5.9538e-003
17713	12.412	2.0909	0.	5.9066e-003
17714	12.412	2.1818	5.e-002	4.9955
17715	12.688	2.1818	0.	6.3782e-003
17716	12.596	2.0909	0.	6.3465e-003
17717	12.596	2.1818	5.e-002	4.9701
17718	12.872	2.1818	0.	7.0046e-003
17719	12.78	2.0909	0.	6.9711e-003
17720	12.78	2.1818	5.e-002	4.9452
17721	13.056	2.1818	0.	8.1604e-003
17722	12.964	2.0909	0.	8.0818e-003
17723	12.964	2.1818	5.e-002	4.9207
17724	13.24	2.1818	0.	1.1466e-002
17725	13.148	2.0909	0.	1.0845e-002
17726	13.148	2.1818	5.e-002	4.8967
17727	13.423	2.1818	0.	0.15822
17728	13.332	2.0909	0.	3.7252e-002
17729	13.332	2.1818	5.e-002	4.8732
17730	13.607	2.1818	0.	1.4077
17731	13.515	2.0909	0.	1.0649
17732	13.515	2.1818	5.e-002	4.85
17733	13.791	2.1818	0.	2.6242
17734	13.699	2.0909	0.	2.2892
17735	13.699	2.1818	5.e-002	4.8272
17736	13.975	2.1818	0.	3.7757
17737	13.883	2.0909	0.	3.4482
17738	13.883	2.1818	5.e-002	4.8048
17739	14.159	2.1818	0.	4.8683
17740	14.067	2.0909	0.	4.5463
17741	14.067	2.1818	5.e-002	4.7827
17742	14.343	2.1818	0.	5.9087
17743	14.251	2.0909	0.	5.5905
17744	14.251	2.1818	5.e-002	4.7608
17745	14.527	2.1818	0.	6.9034
17746	14.435	2.0909	0.	6.5869
17747	14.435	2.1818	5.e-002	4.7392
17748	14.711	2.1818	0.	7.8589
17749	14.619	2.0909	0.	7.542
17750	14.619	2.1818	5.e-002	4.7178
17751	14.895	2.1818	0.	8.781
17752	14.803	2.0909	0.	8.4617
17753	14.803	2.1818	5.e-002	4.6967
17754	15.079	2.1818	0.	9.6756
17755	14.987	2.0909	0.	9.3517
17756	14.987	2.1818	5.e-002	4.6758
17757	15.263	2.1818	0.	10.549
17758	15.171	2.0909	0.	10.218
17759	15.171	2.1818	5.e-002	4.6551
17760	15.447	2.1818	0.	11.405
17761	15.355	2.0909	0.	11.065
17762	15.355	2.1818	5.e-002	4.6347
17763	15.631	2.1818	0.	12.251
17764	15.539	2.0909	0.	11.899
17765	15.539	2.1818	5.e-002	4.6146
17766	15.815	2.1818	0.	13.091
17767	15.723	2.0909	0.	12.726
17768	15.723	2.1818	5.e-002	4.5946
17769	15.999	2.1818	0.	13.93
17770	15.907	2.0909	0.	13.549
17771	15.907	2.1818	5.e-002	4.5749
17772	16.183	2.1818	0.	14.775
17773	16.091	2.0909	0.	14.374
17774	16.091	2.1818	5.e-002	4.5554
17775	16.367	2.1818	0.	15.63
17776	16.275	2.0909	0.	15.207
17777	16.275	2.1818	5.e-002	4.5361
17778	16.55	2.1818	0.	16.501
17779	16.458	2.0909	0.	16.052
17780	16.458	2.1818	5.e-002	4.517
17781	16.734	2.1818	0.	17.392
17782	16.642	2.0909	0.	16.916
17783	16.642	2.1818	5.e-002	4.4982
17784	16.918	2.1818	0.	18.311
17785	16.826	2.0909	0.	17.802
17786	16.826	2.1818	5.e-002	4.4796
17787	17.102	2.1818	0.	19.261
17788	17.01	2.0909	0.	18.717
17789	17.01	2.1818	5.e-002	4.4611
17790	17.286	2.1818	0.	20.251
17791	17.194	2.0909	0.	19.667
17792	17.194	2.1818	5.e-002	4.443
17793	17.47	2.1818	0.	21.284
17794	17.378	2.0909	0.	20.657
17795	17.378	2.1818	5.e-002	4.4252
17796	17.654	2.1818	0.	22.369
17797	17.562	2.0909	0.	21.693
17798	17.562	2.1818	5.e-002	4.4076
17799	17.838	2.1818	0.	23.511
17800	17.746	2.0909	0.	22.782
17801	17.746	2.1818	5.e-002	4.3903
17802	18.022	2.1818	0.	24.718
17803	17.93	2.0909	0.	23.93
17804	17.93	2.1818	5.e-002	4.3734
17805	18.206	2.1818	0.	25.997
17806	18.114	2.0909	0.	25.145
17807	18.114	2.1818	5.e-002	4.3568
17808	18.39	2.1818	0.	27.357
17809	18.298	2.0909	0.	26.434
17810	18.298	2.1818	5.e-002	4.3405
17811	18.574	2.1818	0.	28.805
17812	18.482	2.0909	0.	27.805
17813	18.482	2.1818	5.e-002	4.3246
17814	18.758	2.1818	0.	30.351
17815	18.666	2.0909	0.	29.267
17816	18.666	2.1818	5.e-002	4.3091
17817	18.942	2.1818	0.	32.004
17818	18.85	2.0909	0.	30.828
17819	18.85	2.1818	5.e-002	4.2941
17820	19.126	2.1818	0.	33.775
17821	19.034	2.0909	0.	32.498
17822	19.034	2.1818	5.e-002	4.2796
17823	19.31	2.1818	0.	35.674
17824	19.218	2.0909	0.	34.288
17825	19.218	2.1818	5.e-002	4.2655
17826	19.493	2.1818	0.	37.712
17827	19.402	2.0909	0.	36.207
17828	19.402	2.1818	5.e-002	4.2522
17829	19.677	2.1818	0.	39.903
17830	19.585	2.0909	0.	38.269
17831	19.585	2.1818	5.e-002	4.2394
17832	19.861	2.1818	0.	42.26
17833	19.769	2.0909	0.	40.485
17834	19.769	2.1818	5.e-002	4.2274
17835	20.045	2.1818	0.	44.797
17836	19.953	2.0909	0.	42.869
17837	19.953	2.1818	5.e-002	4.2161
17838	20.229	2.1818	0.	47.53
17839	20.137	2.0909	0.	45.435
17840	20.137	2.1818	5.e-002	4.2058
17841	20.413	2.1818	0.	50.474
17842	20.321	2.0909	0.	48.199
17843	20.321	2.1818	5.e-002	4.1964
17844	20.597	2.1818	0.	53.647
17845	20.505	2.0909	0.	51.178
17846	20.505	2.1818	5.e-002	4.188
17847	20.781	2.1818	0.	57.068
17848	20.689	2.0909	0.	54.389
17849	20.689	2.1818	5.e-002	4.1809
17850	20.965	2.1818	0.	60.757
17851	20.873	2.0909	0.	57.852
17852	20.873	2.1818	5.e-002	4.1751
17853	21.149	2.1818	0.	64.734
17854	21.057	2.0909	0.	61.587
17855	21.057	2.1818	5.e-002	4.1709
17856	21.333	2.1818	0.	69.022
17857	21.241	2.0909	0.	65.615
17858	21.241	2.1818	5.e-002	4.1684
17859	21.517	2.1818	0.	73.645
17860	21.425	2.0909	0.	69.96
17861	21.425	2.1818	5.e-002	4.1679
17862	21.701	2.1818	0.	78.626
17863	21.609	2.0909	0.	74.646
17864	21.609	2.1818	5.e-002	4.1696
17865	21.885	2.1818	0.	83.99
17866	21.793	2.0909	0.	79.699
17867	21.793	2.1818	5.e-002	4.1738
17868	22.069	2.1818	0.	89.763
17869	21.977	2.0909	0.	85.145
17870	21.977	2.1818	5.e-002	4.1809
17871	22.253	2.1818	0.	95.97
17872	22.161	2.0909	0.	91.012
17873	22.161	2.1818	5.e-002	4.1912
17874	22.437	2.1818	0.	102.63
17875	22.345	2.0909	0.	97.325
17876	22.345	2.1818	5.e-002	4.2052
17877	22.62	2.1818	0.	109.78
17878	22.528	2.0909	0.	104.11
17879	22.528	2.1818	5.e-002	4.2232
17880	22.804	2.1818	0.	117.42
17881	22.712	2.0909	0.	111.39
17882	22.712	2.1818	5.e-002	4.2458
17883	22.988	2.1818	0.	125.58
17884	22.896	2.0909	0.	119.2
17885	22.896	2.1818	5.e-002	4.2733
17886	23.172	2.1818	0.	134.25
17887	23.08	2.0909	0.	127.53
17888	23.08	2.1818	5.e-002	4.306
17889	23.356	2.1818	0.	143.45
17890	23.264	2.0909	0.	136.4
17891	23.264	2.1818	5.e-002	4.3443
17892	23.54	2.1818	0.	153.19
17893	23.448	2.0909	0.	145.8
17894	23.448	2.1818	5.e-002	4.388
17895	23.724	2.1818	0.	163.38
17896	23.632	2.0909	0.	155.79
17897	23.632	2.1818	5.e-002	4.4379
17898	23.816	2.0909	0.	166.14
17899	23.816	2.1818	5.e-002	4.5135
17900	23.908	2.1818	0.	173.41
17901	4.0426	2.	0.	1788.3
17902	3.9506	1.9091	0.	3300.5
17903	3.9506	2.	5.e-002	928.3
17904	3.8586	2.	0.	2837.8
17905	4.2265	2.	0.	649.85
17906	4.1345	1.9091	0.	1296.9
17907	4.1345	2.	5.e-002	160.33
17908	4.4105	2.	0.	216.62
17909	4.3185	1.9091	0.	539.16
17910	4.3185	2.	5.e-002	103.65
17911	4.5944	2.	0.	26.905
17912	4.5024	1.9091	0.	187.19
17913	4.5024	2.	5.e-002	69.142
17914	4.7783	2.	0.	5.231
17915	4.6864	1.9091	0.	23.786
17916	4.6864	2.	5.e-002	52.037
17917	4.9623	2.	0.	2.7769
17918	4.8703	1.9091	0.	5.5754
17919	4.8703	2.	5.e-002	41.044
17920	5.1462	2.	0.	1.6242
17921	5.0542	1.9091	0.	2.6036
17922	5.0542	2.	5.e-002	33.451
17923	5.3302	2.	0.	1.1068
17924	5.2382	1.9091	0.	1.6079
17925	5.2382	2.	5.e-002	27.803
17926	5.5141	2.	0.	0.77539
17927	5.4221	1.9091	0.	1.0638
17928	5.4221	2.	5.e-002	23.437
17929	5.698	2.	0.	0.5629
17930	5.6061	1.9091	0.	0.74818
17931	5.6061	2.	5.e-002	19.977
17932	5.882	2.	0.	0.41397
17933	5.79	1.9091	0.	0.5389
17934	5.79	2.	5.e-002	17.198
17935	6.0659	2.	0.	0.30764
17936	5.9739	1.9091	0.	0.39537
17937	5.9739	2.	5.e-002	14.95
17938	6.2498	2.	0.	0.22991
17939	6.1579	1.9091	0.	0.29302
17940	6.1579	2.	5.e-002	13.129
17941	6.4338	2.	0.	0.17253
17942	6.3418	1.9091	0.	0.21878
17943	6.3418	2.	5.e-002	11.654
17944	6.6177	2.	0.	0.12986
17945	6.5258	1.9091	0.	0.16422
17946	6.5258	2.	5.e-002	10.462
17947	6.8017	2.	0.	9.8e-002
17948	6.7097	1.9091	0.	0.12381
17949	6.7097	2.	5.e-002	9.5003
17950	6.9856	2.	0.	7.4138e-002
17951	6.8936	1.9091	0.	9.3702e-002
17952	6.8936	2.	5.e-002	8.7267
17953	7.1695	2.	0.	5.6239e-002
17954	7.0776	1.9091	0.	7.1191e-002
17955	7.0776	2.	5.e-002	8.1053
17956	7.3535	2.	0.	4.2802e-002
17957	7.2615	1.9091	0.	5.4313e-002
17958	7.2615	2.	5.e-002	7.6062
17959	7.5374	2.	0.	3.2707e-002
17960	7.4455	1.9091	0.	4.1632e-002
17961	7.4455	2.	5.e-002	7.205
17962	7.7214	2.	0.	2.5122e-002
17963	7.6294	1.9091	0.	3.2085e-002
17964	7.6294	2.	5.e-002	6.8814
17965	7.9053	2.	0.	1.9432e-002
17966	7.8133	1.9091	0.	2.4891e-002
17967	7.8133	2.	5.e-002	6.6193
17968	8.0892	2.	0.	1.5171e-002
17969	7.9973	1.9091	0.	1.9476e-002
17970	7.9973	2.	5.e-002	6.4055
17971	8.2732	2.	0.	1.1984e-002
17972	8.1812	1.9091	0.	1.5396e-002
17973	8.1812	2.	5.e-002	6.2297
17974	8.4571	2.	0.	9.6099e-003
17975	8.3652	1.9091	0.	1.2322e-002
17976	8.3652	2.	5.e-002	6.0838
17977	8.6411	2.	0.	7.8544e-003
17978	8.5491	1.9091	0.	1.0017e-002
17979	8.5491	2.	5.e-002	5.9614
17980	8.825	2.	0.	6.5639e-003
17981	8.733	1.9091	0.	8.2939e-003
17982	8.733	2.	5.e-002	5.8575
17983	9.0089	2.	0.	5.6242e-003
17984	8.917	1.9091	0.	7.0107e-003
17985	8.917	2.	5.e-002	5.7683
17986	9.1929	2.	0.	4.9528e-003
17987	9.1009	1.9091	0.	6.0619e-003
17988	9.1009	2.	5.e-002	5.6908
17989	9.3768	2.	0.	4.4874e-003
17990	9.2848	1.9091	0.	5.3727e-003
17991	9.2848	2.	5.e-002	5.6225
17992	9.5608	2.	0.	4.1743e-003
17993	9.4688	1.9091	0.	4.8823e-003
17994	9.4688	2.	5.e-002	5.5617
17995	9.7447	2.	0.	3.9828e-003
17996	9.6527	1.9091	0.	4.5378e-003
17997	9.6527	2.	5.e-002	5.5069
17998	9.9286	2.	0.	3.8916e-003
17999	9.8367	1.9091	0.	4.3232e-003
18000	9.8367	2.	5.e-002	5.4571
18001	10.113	2.	0.	3.8558e-003
18002	10.021	1.9091	0.	4.2055e-003
18003	10.021	2.	5.e-002	5.4114
18004	10.297	2.	0.	3.8588e-003
18005	10.205	1.9091	0.	4.1247e-003
18006	10.205	2.	5.e-002	5.369
18007	10.48	2.	0.	3.9069e-003
18008	10.388	1.9091	0.	4.1037e-003
18009	10.388	2.	5.e-002	5.3294
18010	10.664	2.	0.	3.9781e-003
18011	10.572	1.9091	0.	4.1299e-003
18012	10.572	2.	5.e-002	5.292
18013	10.848	2.	0.	4.0776e-003
18014	10.756	1.9091	0.	4.17e-003
18015	10.756	2.	5.e-002	5.2567
18016	11.032	2.	0.	4.2235e-003
18017	10.94	1.9091	0.	4.2654e-003
18018	10.94	2.	5.e-002	5.223
18019	11.216	2.	0.	4.3923e-003
18020	11.124	1.9091	0.	4.4115e-003
18021	11.124	2.	5.e-002	5.1908
18022	11.4	2.	0.	4.5632e-003
18023	11.308	1.9091	0.	4.5648e-003
18024	11.308	2.	5.e-002	5.1599
18025	11.584	2.	0.	4.7588e-003
18026	11.492	1.9091	0.	4.7274e-003
18027	11.492	2.	5.e-002	5.1302
18028	11.768	2.	0.	4.9948e-003
18029	11.676	1.9091	0.	4.9445e-003
18030	11.676	2.	5.e-002	5.1013
18031	11.952	2.	0.	5.2373e-003
18032	11.86	1.9091	0.	5.2037e-003
18033	11.86	2.	5.e-002	5.0735
18034	12.136	2.	0.	5.498e-003
18035	12.044	1.9091	0.	5.4552e-003
18036	12.044	2.	5.e-002	5.0464
18037	12.32	2.	0.	5.8388e-003
18038	12.228	1.9091	0.	5.7826e-003
18039	12.228	2.	5.e-002	5.0199
18040	12.504	2.	0.	6.289e-003
18041	12.412	1.9091	0.	6.2458e-003
18042	12.412	2.	5.e-002	4.9941
18043	12.688	2.	0.	6.9199e-003
18044	12.596	1.9091	0.	6.8911e-003
18045	12.596	2.	5.e-002	4.9688
18046	12.872	2.	0.	7.985e-003
18047	12.78	1.9091	0.	7.9416e-003
18048	12.78	2.	5.e-002	4.944
18049	13.056	2.	0.	1.0383e-002
18050	12.964	1.9091	0.	1.0174e-002
18051	12.964	2.	5.e-002	4.9196
18052	13.24	2.	0.	2.2462e-002
18053	13.148	1.9091	0.	1.874e-002
18054	13.148	2.	5.e-002	4.8957
18055	13.423	2.	0.	0.7368
18056	13.332	1.9091	0.	0.47675
18057	13.332	2.	5.e-002	4.8723
18058	13.607	2.	0.	1.969
18059	13.515	1.9091	0.	1.7044
18060	13.515	2.	5.e-002	4.8492
18061	13.791	2.	0.	3.1376
18062	13.699	1.9091	0.	2.8758
18063	13.699	2.	5.e-002	4.8264
18064	13.975	2.	0.	4.2439
18065	13.883	1.9091	0.	3.9841
18066	13.883	2.	5.e-002	4.804
18067	14.159	2.	0.	5.2942
18068	14.067	1.9091	0.	5.0348
18069	14.067	2.	5.e-002	4.782
18070	14.343	2.	0.	6.2949
18071	14.251	1.9091	0.	6.0345
18072	14.251	2.	5.e-002	4.7601
18073	14.527	2.	0.	7.2522
18074	14.435	1.9091	0.	6.989
18075	14.435	2.	5.e-002	4.7386
18076	14.711	2.	0.	8.172
18077	14.619	1.9091	0.	7.9044
18078	14.619	2.	5.e-002	4.7172
18079	14.895	2.	0.	9.0601
18080	14.803	1.9091	0.	8.7863
18081	14.803	2.	5.e-002	4.6961
18082	15.079	2.	0.	9.922
18083	14.987	1.9091	0.	9.6401
18084	14.987	2.	5.e-002	4.6753
18085	15.263	2.	0.	10.763
18086	15.171	1.9091	0.	10.471
18087	15.171	2.	5.e-002	4.6546
18088	15.447	2.	0.	11.589
18089	15.355	1.9091	0.	11.285
18090	15.355	2.	5.e-002	4.6343
18091	15.631	2.	0.	12.404
18092	15.539	1.9091	0.	12.086
18093	15.539	2.	5.e-002	4.6141
18094	15.815	2.	0.	13.214
18095	15.723	1.9091	0.	12.879
18096	15.723	2.	5.e-002	4.5942
18097	15.999	2.	0.	14.023
18098	15.907	1.9091	0.	13.669
18099	15.907	2.	5.e-002	4.5745
18100	16.183	2.	0.	14.837
18101	16.091	1.9091	0.	14.461
18102	16.091	2.	5.e-002	4.555
18103	16.367	2.	0.	15.661
18104	16.275	1.9091	0.	15.261
18105	16.275	2.	5.e-002	4.5357
18106	16.55	2.	0.	16.499
18107	16.458	1.9091	0.	16.072
18108	16.458	2.	5.e-002	4.5166
18109	16.734	2.	0.	17.358
18110	16.642	1.9091	0.	16.9
18111	16.642	2.	5.e-002	4.4978
18112	16.918	2.	0.	18.241
18113	16.826	1.9091	0.	17.749
18114	16.826	2.	5.e-002	4.4791
18115	17.102	2.	0.	19.156
18116	17.01	1.9091	0.	18.626
18117	17.01	2.	5.e-002	4.4607
18118	17.286	2.	0.	20.106
18119	17.194	1.9091	0.	19.535
18120	17.194	2.	5.e-002	4.4426
18121	17.47	2.	0.	21.099
18122	17.378	1.9091	0.	20.482
18123	17.378	2.	5.e-002	4.4247
18124	17.654	2.	0.	22.14
18125	17.562	1.9091	0.	21.473
18126	17.562	2.	5.e-002	4.4071
18127	17.838	2.	0.	23.236
18128	17.746	1.9091	0.	22.513
18129	17.746	2.	5.e-002	4.3898
18130	18.022	2.	0.	24.392
18131	17.93	1.9091	0.	23.609
18132	17.93	2.	5.e-002	4.3729
18133	18.206	2.	0.	25.618
18134	18.114	1.9091	0.	24.767
18135	18.114	2.	5.e-002	4.3562
18136	18.39	2.	0.	26.919
18137	18.298	1.9091	0.	25.996
18138	18.298	2.	5.e-002	4.3399
18139	18.574	2.	0.	28.303
18140	18.482	1.9091	0.	27.301
18141	18.482	2.	5.e-002	4.324
18142	18.758	2.	0.	29.781
18143	18.666	1.9091	0.	28.691
18144	18.666	2.	5.e-002	4.3085
18145	18.942	2.	0.	31.359
18146	18.85	1.9091	0.	30.174
18147	18.85	2.	5.e-002	4.2934
18148	19.126	2.	0.	33.048
18149	19.034	1.9091	0.	31.76
18150	19.034	2.	5.e-002	4.2788
18151	19.31	2.	0.	34.858
18152	19.218	1.9091	0.	33.457
18153	19.218	2.	5.e-002	4.2647
18154	19.493	2.	0.	36.801
18155	19.402	1.9091	0.	35.277
18156	19.402	2.	5.e-002	4.2512
18157	19.677	2.	0.	38.887
18158	19.585	1.9091	0.	37.229
18159	19.585	2.	5.e-002	4.2384
18160	19.861	2.	0.	41.13
18161	19.769	1.9091	0.	39.327
18162	19.769	2.	5.e-002	4.2262
18163	20.045	2.	0.	43.544
18164	19.953	1.9091	0.	41.582
18165	19.953	2.	5.e-002	4.2148
18166	20.229	2.	0.	46.142
18167	20.137	1.9091	0.	44.009
18168	20.137	2.	5.e-002	4.2043
18169	20.413	2.	0.	48.941
18170	20.321	1.9091	0.	46.621
18171	20.321	2.	5.e-002	4.1947
18172	20.597	2.	0.	51.958
18173	20.505	1.9091	0.	49.436
18174	20.505	2.	5.e-002	4.1861
18175	20.781	2.	0.	55.21
18176	20.689	1.9091	0.	52.47
18177	20.689	2.	5.e-002	4.1787
18178	20.965	2.	0.	58.718
18179	20.873	1.9091	0.	55.742
18180	20.873	2.	5.e-002	4.1726
18181	21.149	2.	0.	62.503
18182	21.057	1.9091	0.	59.272
18183	21.057	2.	5.e-002	4.168
18184	21.333	2.	0.	66.587
18185	21.241	1.9091	0.	63.082
18186	21.241	2.	5.e-002	4.165
18187	21.517	2.	0.	70.994
18188	21.425	1.9091	0.	67.195
18189	21.425	2.	5.e-002	4.164
18190	21.701	2.	0.	75.751
18191	21.609	1.9091	0.	71.638
18192	21.609	2.	5.e-002	4.1651
18193	21.885	2.	0.	80.884
18194	21.793	1.9091	0.	76.437
18195	21.793	2.	5.e-002	4.1686
18196	22.069	2.	0.	86.421
18197	21.977	1.9091	0.	81.622
18198	21.977	2.	5.e-002	4.175
18199	22.253	2.	0.	92.392
18200	22.161	1.9091	0.	87.223
18201	22.161	2.	5.e-002	4.1845
18202	22.437	2.	0.	98.826
18203	22.345	1.9091	0.	93.271
18204	22.345	2.	5.e-002	4.1977
18205	22.62	2.	0.	105.75
18206	22.528	1.9091	0.	99.8
18207	22.528	2.	5.e-002	4.215
18208	22.804	2.	0.	113.19
18209	22.712	1.9091	0.	106.84
18210	22.712	2.	5.e-002	4.2371
18211	22.988	2.	0.	121.16
18212	22.896	1.9091	0.	114.41
18213	22.896	2.	5.e-002	4.2644
18214	23.172	2.	0.	129.69
18215	23.08	1.9091	0.	122.55
18216	23.08	2.	5.e-002	4.2973
18217	23.356	2.	0.	138.76
18218	23.264	1.9091	0.	131.27
18219	23.264	2.	5.e-002	4.3365
18220	23.54	2.	0.	148.42
18221	23.448	1.9091	0.	140.55
18222	23.448	2.	5.e-002	4.3817
18223	23.724	2.	0.	158.56
18224	23.632	1.9091	0.	150.46
18225	23.632	2.	5.e-002	4.4344
18226	23.816	1.9091	0.	160.78
18227	23.816	2.	5.e-002	4.5216
18228	23.908	2.	0.	168.54
18229	4.0426	1.8182	0.	2838.4
18230	3.9506	1.7273	0.	3852.7
18231	3.9506	1.8182	5.e-002	510.56
18232	3.8586	1.8182	0.	4623.4
18233	4.2265	1.8182	0.	1185.7
18234	4.1345	1.7273	0.	1750.4
18235	4.1345	1.8182	5.e-002	171.31
18236	4.4105	1.8182	0.	502.83
18237	4.3185	1.7273	0.	835.43
18238	4.3185	1.8182	5.e-002	79.127
18239	4.5944	1.8182	0.	181.99
18240	4.5024	1.7273	0.	392.88
18241	4.5024	1.8182	5.e-002	57.095
18242	4.7783	1.8182	0.	28.477
18243	4.6864	1.7273	0.	143.86
18244	4.6864	1.8182	5.e-002	44.483
18245	4.9623	1.8182	0.	5.9831
18246	4.8703	1.7273	0.	24.321
18247	4.8703	1.8182	5.e-002	35.687
18248	5.1462	1.8182	0.	2.7659
18249	5.0542	1.7273	0.	5.5926
18250	5.0542	1.8182	5.e-002	29.395
18251	5.3302	1.8182	0.	1.6449
18252	5.2382	1.7273	0.	2.6605
18253	5.2382	1.8182	5.e-002	24.623
18254	5.5141	1.8182	0.	1.0789
18255	5.4221	1.7273	0.	1.5758
18256	5.4221	1.8182	5.e-002	20.893
18257	5.698	1.8182	0.	0.7487
18258	5.6061	1.7273	0.	1.0343
18259	5.6061	1.8182	5.e-002	17.917
18260	5.882	1.8182	0.	0.53531
18261	5.79	1.7273	0.	0.71401
18262	5.79	1.8182	5.e-002	15.516
18263	6.0659	1.8182	0.	0.39027
18264	5.9739	1.7273	0.	0.50854
18265	5.9739	1.8182	5.e-002	13.57
18266	6.2498	1.8182	0.	0.28809
18267	6.1579	1.7273	0.	0.36929
18268	6.1579	1.8182	5.e-002	11.993
18269	6.4338	1.8182	0.	0.21458
18270	6.3418	1.7273	0.	0.27186
18271	6.3418	1.8182	5.e-002	10.717
18272	6.6177	1.8182	0.	0.16094
18273	6.5258	1.7273	0.	0.20218
18274	6.5258	1.8182	5.e-002	9.6885
18275	6.8017	1.8182	0.	0.12142
18276	6.7097	1.7273	0.	0.15161
18277	6.7097	1.8182	5.e-002	8.8634
18278	6.9856	1.8182	0.	9.2091e-002
18279	6.8936	1.7273	0.	0.11452
18280	6.8936	1.8182	5.e-002	8.2036
18281	7.1695	1.8182	0.	7.0212e-002
18282	7.0776	1.7273	0.	8.708e-002
18283	7.0776	1.8182	5.e-002	7.6772
18284	7.3535	1.8182	0.	5.3826e-002
18285	7.2615	1.7273	0.	6.6659e-002
18286	7.2615	1.8182	5.e-002	7.2572
18287	7.5374	1.8182	0.	4.1509e-002
18288	7.4455	1.7273	0.	5.1377e-002
18289	7.4455	1.8182	5.e-002	6.9217
18290	7.7214	1.8182	0.	3.2225e-002
18291	7.6294	1.7273	0.	3.9883e-002
18292	7.6294	1.8182	5.e-002	6.6522
18293	7.9053	1.8182	0.	2.5214e-002
18294	7.8133	1.7273	0.	3.1205e-002
18295	7.8133	1.8182	5.e-002	6.4344
18296	8.0892	1.8182	0.	1.9914e-002
18297	7.9973	1.7273	0.	2.4638e-002
18298	7.9973	1.8182	5.e-002	6.2569
18299	8.2732	1.8182	0.	1.5899e-002
18300	8.1812	1.7273	0.	1.965e-002
18301	8.1812	1.8182	5.e-002	6.1104
18302	8.4571	1.8182	0.	1.2857e-002
18303	8.3652	1.7273	0.	1.5851e-002
18304	8.3652	1.8182	5.e-002	5.9883
18305	8.6411	1.8182	0.	1.0557e-002
18306	8.5491	1.7273	0.	1.2957e-002
18307	8.5491	1.8182	5.e-002	5.885
18308	8.825	1.8182	0.	8.82e-003
18309	8.733	1.7273	0.	1.0753e-002
18310	8.733	1.8182	5.e-002	5.7964
18311	9.0089	1.8182	0.	7.511e-003
18312	8.917	1.7273	0.	9.0715e-003
18313	8.917	1.8182	5.e-002	5.7194
18314	9.1929	1.8182	0.	6.5311e-003
18315	9.1009	1.7273	0.	7.7912e-003
18316	9.1009	1.8182	5.e-002	5.6516
18317	9.3768	1.8182	0.	5.8063e-003
18318	9.2848	1.7273	0.	6.8227e-003
18319	9.2848	1.8182	5.e-002	5.5911
18320	9.5608	1.8182	0.	5.2758e-003
18321	9.4688	1.7273	0.	6.0973e-003
18322	9.4688	1.8182	5.e-002	5.5364
18323	9.7447	1.8182	0.	4.9011e-003
18324	9.6527	1.7273	0.	5.5535e-003
18325	9.6527	1.8182	5.e-002	5.4866
18326	9.9286	1.8182	0.	4.6542e-003
18327	9.8367	1.7273	0.	5.1695e-003
18328	9.8367	1.8182	5.e-002	5.4406
18329	10.113	1.8182	0.	4.4864e-003
18330	10.021	1.7273	0.	4.9075e-003
18331	10.021	1.8182	5.e-002	5.398
18332	10.297	1.8182	0.	4.3774e-003
18333	10.205	1.7273	0.	4.7038e-003
18334	10.205	1.8182	5.e-002	5.3581
18335	10.48	1.8182	0.	4.3309e-003
18336	10.388	1.7273	0.	4.5784e-003
18337	10.388	1.8182	5.e-002	5.3204
18338	10.664	1.8182	0.	4.3229e-003
18339	10.572	1.7273	0.	4.5166e-003
18340	10.572	1.8182	5.e-002	5.2846
18341	10.848	1.8182	0.	4.3564e-003
18342	10.756	1.7273	0.	4.4833e-003
18343	10.756	1.8182	5.e-002	5.2505
18344	11.032	1.8182	0.	4.4496e-003
18345	10.94	1.7273	0.	4.5191e-003
18346	10.94	1.8182	5.e-002	5.2178
18347	11.216	1.8182	0.	4.5783e-003
18348	11.124	1.7273	0.	4.6183e-003
18349	11.124	1.8182	5.e-002	5.1864
18350	11.4	1.8182	0.	4.7217e-003
18351	11.308	1.7273	0.	4.7389e-003
18352	11.308	1.8182	5.e-002	5.1562
18353	11.584	1.8182	0.	4.9045e-003
18354	11.492	1.7273	0.	4.8842e-003
18355	11.492	1.8182	5.e-002	5.1269
18356	11.768	1.8182	0.	5.1438e-003
18357	11.676	1.7273	0.	5.1012e-003
18358	11.676	1.8182	5.e-002	5.0985
18359	11.952	1.8182	0.	5.4112e-003
18360	11.86	1.7273	0.	5.3831e-003
18361	11.86	1.8182	5.e-002	5.071
18362	12.136	1.8182	0.	5.7285e-003
18363	12.044	1.7273	0.	5.6905e-003
18364	12.044	1.8182	5.e-002	5.0442
18365	12.32	1.8182	0.	6.1768e-003
18366	12.228	1.7273	0.	6.1271e-003
18367	12.228	1.8182	5.e-002	5.018
18368	12.504	1.8182	0.	6.83e-003
18369	12.412	1.7273	0.	6.7955e-003
18370	12.412	1.8182	5.e-002	4.9923
18371	12.688	1.8182	0.	7.8732e-003
18372	12.596	1.7273	0.	7.8565e-003
18373	12.596	1.8182	5.e-002	4.9672
18374	12.872	1.8182	0.	9.9666e-003
18375	12.78	1.7273	0.	9.9119e-003
18376	12.78	1.8182	5.e-002	4.9425
18377	13.056	1.8182	0.	1.6721e-002
18378	12.964	1.7273	0.	1.5969e-002
18379	12.964	1.8182	5.e-002	4.9183
18380	13.24	1.8182	0.	0.25206
18381	13.148	1.7273	0.	0.13358
18382	13.148	1.8182	5.e-002	4.8945
18383	13.423	1.8182	0.	1.4589
18384	13.332	1.7273	0.	1.2784
18385	13.332	1.8182	5.e-002	4.8712
18386	13.607	1.8182	0.	2.6347
18387	13.515	1.7273	0.	2.4511
18388	13.515	1.8182	5.e-002	4.8481
18389	13.791	1.8182	0.	3.7468
18390	13.699	1.7273	0.	3.5604
18391	13.699	1.8182	5.e-002	4.8255
18392	13.975	1.8182	0.	4.8002
18393	13.883	1.7273	0.	4.6102
18394	13.883	1.8182	5.e-002	4.8032
18395	14.159	1.8182	0.	5.8008
18396	14.067	1.7273	0.	5.6063
18397	14.067	1.8182	5.e-002	4.7812
18398	14.343	1.8182	0.	6.7548
18399	14.251	1.7273	0.	6.5545
18400	14.251	1.8182	5.e-002	4.7593
18401	14.527	1.8182	0.	7.668
18402	14.435	1.7273	0.	7.4607
18403	14.435	1.8182	5.e-002	4.7378
18404	14.711	1.8182	0.	8.546
18405	14.619	1.7273	0.	8.3303
18406	14.619	1.8182	5.e-002	4.7165
18407	14.895	1.8182	0.	9.3941
18408	14.803	1.7273	0.	9.1685
18409	14.803	1.8182	5.e-002	4.6955
18410	15.079	1.8182	0.	10.218
18411	14.987	1.7273	0.	9.9805
18412	14.987	1.8182	5.e-002	4.6746
18413	15.263	1.8182	0.	11.021
18414	15.171	1.7273	0.	10.771
18415	15.171	1.8182	5.e-002	4.654
18416	15.447	1.8182	0.	11.811
18417	15.355	1.7273	0.	11.545
18418	15.355	1.8182	5.e-002	4.6337
18419	15.631	1.8182	0.	12.59
18420	15.539	1.7273	0.	12.308
18421	15.539	1.8182	5.e-002	4.6136
18422	15.815	1.8182	0.	13.364
18423	15.723	1.7273	0.	13.063
18424	15.723	1.8182	5.e-002	4.5936
18425	15.999	1.8182	0.	14.138
18426	15.907	1.7273	0.	13.815
18427	15.907	1.8182	5.e-002	4.5739
18428	16.183	1.8182	0.	14.916
18429	16.091	1.7273	0.	14.57
18430	16.091	1.8182	5.e-002	4.5545
18431	16.367	1.8182	0.	15.703
18432	16.275	1.7273	0.	15.331
18433	16.275	1.8182	5.e-002	4.5352
18434	16.55	1.8182	0.	16.504
18435	16.458	1.7273	0.	16.102
18436	16.458	1.8182	5.e-002	4.5161
18437	16.734	1.8182	0.	17.324
18438	16.642	1.7273	0.	16.89
18439	16.642	1.8182	5.e-002	4.4973
18440	16.918	1.8182	0.	18.167
18441	16.826	1.7273	0.	17.697
18442	16.826	1.8182	5.e-002	4.4786
18443	17.102	1.8182	0.	19.039
18444	17.01	1.7273	0.	18.53
18445	17.01	1.8182	5.e-002	4.4602
18446	17.286	1.8182	0.	19.945
18447	17.194	1.7273	0.	19.392
18448	17.194	1.8182	5.e-002	4.442
18449	17.47	1.8182	0.	20.89
18450	17.378	1.7273	0.	20.29
18451	17.378	1.8182	5.e-002	4.4241
18452	17.654	1.8182	0.	21.88
18453	17.562	1.7273	0.	21.228
18454	17.562	1.8182	5.e-002	4.4065
18455	17.838	1.8182	0.	22.921
18456	17.746	1.7273	0.	22.212
18457	17.746	1.8182	5.e-002	4.3892
18458	18.022	1.8182	0.	24.019
18459	17.93	1.7273	0.	23.248
18460	17.93	1.8182	5.e-002	4.3722
18461	18.206	1.8182	0.	25.181
18462	18.114	1.7273	0.	24.342
18463	18.114	1.8182	5.e-002	4.3556
18464	18.39	1.8182	0.	26.414
18465	18.298	1.7273	0.	25.501
18466	18.298	1.8182	5.e-002	4.3392
18467	18.574	1.8182	0.	27.725
18468	18.482	1.7273	0.	26.73
18469	18.482	1.8182	5.e-002	4.3232
18470	18.758	1.8182	0.	29.121
18471	18.666	1.7273	0.	28.038
18472	18.666	1.8182	5.e-002	4.3077
18473	18.942	1.8182	0.	30.612
18474	18.85	1.7273	0.	29.433
18475	18.85	1.8182	5.e-002	4.2925
18476	19.126	1.8182	0.	32.207
18477	19.034	1.7273	0.	30.921
18478	19.034	1.8182	5.e-002	4.2779
18479	19.31	1.8182	0.	33.914
18480	19.218	1.7273	0.	32.514
18481	19.218	1.8182	5.e-002	4.2637
18482	19.493	1.8182	0.	35.744
18483	19.402	1.7273	0.	34.218
18484	19.402	1.8182	5.e-002	4.2501
18485	19.677	1.8182	0.	37.708
18486	19.585	1.7273	0.	36.046
18487	19.585	1.8182	5.e-002	4.2371
18488	19.861	1.8182	0.	39.817
18489	19.769	1.7273	0.	38.007
18490	19.769	1.8182	5.e-002	4.2248
18491	20.045	1.8182	0.	42.086
18492	19.953	1.7273	0.	40.114
18493	19.953	1.8182	5.e-002	4.2133
18494	20.229	1.8182	0.	44.527
18495	20.137	1.7273	0.	42.38
18496	20.137	1.8182	5.e-002	4.2026
18497	20.413	1.8182	0.	47.155
18498	20.321	1.7273	0.	44.817
18499	20.321	1.8182	5.e-002	4.1927
18500	20.597	1.8182	0.	49.987
18501	20.505	1.7273	0.	47.442
18502	20.505	1.8182	5.e-002	4.1839
18503	20.781	1.8182	0.	53.04
18504	20.689	1.7273	0.	50.27
18505	20.689	1.8182	5.e-002	4.1761
18506	20.965	1.8182	0.	56.333
18507	20.873	1.7273	0.	53.32
18508	20.873	1.8182	5.e-002	4.1696
18509	21.149	1.8182	0.	59.888
18510	21.057	1.7273	0.	56.61
18511	21.057	1.8182	5.e-002	4.1646
18512	21.333	1.8182	0.	63.727
18513	21.241	1.7273	0.	60.164
18514	21.241	1.8182	5.e-002	4.1611
18515	21.517	1.8182	0.	67.875
18516	21.425	1.7273	0.	64.004
18517	21.425	1.8182	5.e-002	4.1594
18518	21.701	1.8182	0.	72.359
18519	21.609	1.7273	0.	68.157
18520	21.609	1.8182	5.e-002	4.1598
18521	21.885	1.8182	0.	77.208
18522	21.793	1.7273	0.	72.651
18523	21.793	1.8182	5.e-002	4.1625
18524	22.069	1.8182	0.	82.454
18525	21.977	1.7273	0.	77.519
18526	21.977	1.8182	5.e-002	4.1679
18527	22.253	1.8182	0.	88.131
18528	22.161	1.7273	0.	82.795
18529	22.161	1.8182	5.e-002	4.1765
18530	22.437	1.8182	0.	94.272
18531	22.345	1.7273	0.	88.515
18532	22.345	1.8182	5.e-002	4.1887
18533	22.62	1.8182	0.	100.91
18534	22.528	1.7273	0.	94.719
18535	22.528	1.8182	5.e-002	4.2051
18536	22.804	1.8182	0.	108.09
18537	22.712	1.7273	0.	101.45
18538	22.712	1.8182	5.e-002	4.2264
18539	22.988	1.8182	0.	115.82
18540	22.896	1.7273	0.	108.73
18541	22.896	1.8182	5.e-002	4.2533
18542	23.172	1.8182	0.	124.15
18543	23.08	1.7273	0.	116.61
18544	23.08	1.8182	5.e-002	4.2864
18545	23.356	1.8182	0.	133.06
18546	23.264	1.7273	0.	125.11
18547	23.264	1.8182	5.e-002	4.3264
18548	23.54	1.8182	0.	142.6
18549	23.448	1.7273	0.	134.24
18550	23.448	1.8182	5.e-002	4.3735
18551	23.724	1.8182	0.	152.69
18552	23.632	1.7273	0.	144.04
18553	23.632	1.8182	5.e-002	4.4298
18554	23.816	1.7273	0.	154.33
18555	23.816	1.8182	5.e-002	4.531
18556	23.908	1.8182	0.	162.58
18557	4.0426	1.6364	0.	2671.5
18558	3.9506	1.5455	0.	3218.6
18559	3.9506	1.6364	5.e-002	279.26
18560	3.8586	1.6364	0.	2968.4
18561	4.2265	1.6364	0.	1374.6
18562	4.1345	1.5455	0.	1741.9
18563	4.1345	1.6364	5.e-002	110.8
18564	4.4105	1.6364	0.	712.24
18565	4.3185	1.5455	0.	975.72
18566	4.3185	1.6364	5.e-002	68.853
18567	4.5944	1.6364	0.	345.78
18568	4.5024	1.5455	0.	530.22
18569	4.5024	1.6364	5.e-002	49.195
18570	4.7783	1.6364	0.	135.44
18571	4.6864	1.5455	0.	264.32
18572	4.6864	1.6364	5.e-002	37.936
18573	4.9623	1.6364	0.	27.921
18574	4.8703	1.5455	0.	107.43
18575	4.8703	1.6364	5.e-002	30.904
18576	5.1462	1.6364	0.	6.1284
18577	5.0542	1.5455	0.	24.644
18578	5.0542	1.6364	5.e-002	25.647
18579	5.3302	1.6364	0.	2.7834
18580	5.2382	1.5455	0.	5.926
18581	5.2382	1.6364	5.e-002	21.597
18582	5.5141	1.6364	0.	1.6145
18583	5.4221	1.5455	0.	2.6919
18584	5.4221	1.6364	5.e-002	18.394
18585	5.698	1.6364	0.	1.0422
18586	5.6061	1.5455	0.	1.5532
18587	5.6061	1.6364	5.e-002	15.825
18588	5.882	1.6364	0.	0.71098
18589	5.79	1.5455	0.	0.99385
18590	5.79	1.6364	5.e-002	13.753
18591	6.0659	1.6364	0.	0.5015
18592	5.9739	1.5455	0.	0.67258
18593	5.9739	1.6364	5.e-002	12.081
18594	6.2498	1.6364	0.	0.36153
18595	6.1579	1.5455	0.	0.47099
18596	6.1579	1.6364	5.e-002	10.736
18597	6.4338	1.6364	0.	0.26474
18598	6.3418	1.5455	0.	0.33763
18599	6.3418	1.6364	5.e-002	9.66
18600	6.6177	1.6364	0.	0.19623
18601	6.5258	1.5455	0.	0.24628
18602	6.5258	1.6364	5.e-002	8.8047
18603	6.8017	1.6364	0.	0.14692
18604	6.7097	1.5455	0.	0.18216
18605	6.7097	1.6364	5.e-002	8.1291
18606	6.9856	1.6364	0.	0.11099
18607	6.8936	1.5455	0.	0.13635
18608	6.8936	1.6364	5.e-002	7.5978
18609	7.1695	1.6364	0.	8.4542e-002
18610	7.0776	1.5455	0.	0.10315
18611	7.0776	1.6364	5.e-002	7.1808
18612	7.3535	1.6364	0.	6.492e-002
18613	7.2615	1.5455	0.	7.8812e-002
18614	7.2615	1.6364	5.e-002	6.8532
18615	7.5374	1.6364	0.	5.0259e-002
18616	7.4455	1.5455	0.	6.0796e-002
18617	7.4455	1.6364	5.e-002	6.5946
18618	7.7214	1.6364	0.	3.9236e-002
18619	7.6294	1.5455	0.	4.734e-002
18620	7.6294	1.6364	5.e-002	6.3888
18621	7.9053	1.6364	0.	3.0907e-002
18622	7.8133	1.5455	0.	3.7215e-002
18623	7.8133	1.6364	5.e-002	6.2231
18624	8.0892	1.6364	0.	2.4586e-002
18625	7.9973	1.5455	0.	2.9553e-002
18626	7.9973	1.6364	5.e-002	6.0877
18627	8.2732	1.6364	0.	1.9766e-002
18628	8.1812	1.5455	0.	2.3716e-002
18629	8.1812	1.6364	5.e-002	5.9754
18630	8.4571	1.6364	0.	1.6078e-002
18631	8.3652	1.5455	0.	1.9242e-002
18632	8.3652	1.6364	5.e-002	5.8805
18633	8.6411	1.6364	0.	1.3253e-002
18634	8.5491	1.5455	0.	1.5803e-002
18635	8.5491	1.6364	5.e-002	5.7991
18636	8.825	1.6364	0.	1.1084e-002
18637	8.733	1.5455	0.	1.3152e-002
18638	8.733	1.6364	5.e-002	5.7278
18639	9.0089	1.6364	0.	9.4146e-003
18640	8.917	1.5455	0.	1.1097e-002
18641	8.917	1.6364	5.e-002	5.6647
18642	9.1929	1.6364	0.	8.1327e-003
18643	9.1009	1.5455	0.	9.503e-003
18644	9.1009	1.6364	5.e-002	5.6079
18645	9.3768	1.6364	0.	7.153e-003
18646	9.2848	1.5455	0.	8.2691e-003
18647	9.2848	1.6364	5.e-002	5.556
18648	9.5608	1.6364	0.	6.4055e-003
18649	9.4688	1.5455	0.	7.3167e-003
18650	9.4688	1.6364	5.e-002	5.5083
18651	9.7447	1.6364	0.	5.8451e-003
18652	9.6527	1.5455	0.	6.5773e-003
18653	9.6527	1.6364	5.e-002	5.4639
18654	9.9286	1.6364	0.	5.4398e-003
18655	9.8367	1.5455	0.	6.0257e-003
18656	9.8367	1.6364	5.e-002	5.4223
18657	10.113	1.6364	0.	5.1365e-003
18658	10.021	1.5455	0.	5.6191e-003
18659	10.021	1.6364	5.e-002	5.3831
18660	10.297	1.6364	0.	4.9119e-003
18661	10.205	1.5455	0.	5.2905e-003
18662	10.205	1.6364	5.e-002	5.3459
18663	10.48	1.6364	0.	4.7672e-003
18664	10.388	1.5455	0.	5.0589e-003
18665	10.388	1.6364	5.e-002	5.3103
18666	10.664	1.6364	0.	4.6766e-003
18667	10.572	1.5455	0.	4.907e-003
18668	10.572	1.6364	5.e-002	5.2763
18669	10.848	1.6364	0.	4.6425e-003
18670	10.756	1.5455	0.	4.7986e-003
18671	10.756	1.6364	5.e-002	5.2435
18672	11.032	1.6364	0.	4.6816e-003
18673	10.94	1.5455	0.	4.7741e-003
18674	10.94	1.6364	5.e-002	5.2119
18675	11.216	1.6364	0.	4.7704e-003
18676	11.124	1.5455	0.	4.8274e-003
18677	11.124	1.6364	5.e-002	5.1814
18678	11.4	1.6364	0.	4.8909e-003
18679	11.308	1.5455	0.	4.9196e-003
18680	11.308	1.6364	5.e-002	5.1519
18681	11.584	1.6364	0.	5.0688e-003
18682	11.492	1.5455	0.	5.0555e-003
18683	11.492	1.6364	5.e-002	5.1232
18684	11.768	1.6364	0.	5.327e-003
18685	11.676	1.5455	0.	5.2892e-003
18686	11.676	1.6364	5.e-002	5.0953
18687	11.952	1.6364	0.	5.648e-003
18688	11.86	1.5455	0.	5.6245e-003
18689	11.86	1.6364	5.e-002	5.0682
18690	12.136	1.6364	0.	6.074e-003
18691	12.044	1.5455	0.	6.0419e-003
18692	12.044	1.6364	5.e-002	5.0417
18693	12.32	1.6364	0.	6.7293e-003
18694	12.228	1.5455	0.	6.6941e-003
18695	12.228	1.6364	5.e-002	5.0158
18696	12.504	1.6364	0.	7.7988e-003
18697	12.412	1.5455	0.	7.7971e-003
18698	12.412	1.6364	5.e-002	4.9903
18699	12.688	1.6364	0.	9.829e-003
18700	12.596	1.5455	0.	9.8852e-003
18701	12.596	1.6364	5.e-002	4.9654
18702	12.872	1.6364	0.	1.5397e-002
18703	12.78	1.5455	0.	1.5437e-002
18704	12.78	1.6364	5.e-002	4.9409
18705	13.056	1.6364	0.	7.9396e-002
18706	12.964	1.5455	0.	6.6847e-002
18707	12.964	1.6364	5.e-002	4.9168
18708	13.24	1.6364	0.	1.1223
18709	13.148	1.5455	0.	1.0397
18710	13.148	1.6364	5.e-002	4.8932
18711	13.423	1.6364	0.	2.293
18712	13.332	1.5455	0.	2.2008
18713	13.332	1.6364	5.e-002	4.8699
18714	13.607	1.6364	0.	3.4009
18715	13.515	1.5455	0.	3.3003
18716	13.515	1.6364	5.e-002	4.847
18717	13.791	1.6364	0.	4.4486
18718	13.699	1.5455	0.	4.3393
18719	13.699	1.6364	5.e-002	4.8244
18720	13.975	1.6364	0.	5.4416
18721	13.883	1.5455	0.	5.3234
18722	13.883	1.6364	5.e-002	4.8021
18723	14.159	1.6364	0.	6.3858
18724	14.067	1.5455	0.	6.2579
18725	14.067	1.6364	5.e-002	4.7802
18726	14.343	1.6364	0.	7.2867
18727	14.251	1.5455	0.	7.1485
18728	14.251	1.6364	5.e-002	4.7585
18729	14.527	1.6364	0.	8.1497
18730	14.435	1.5455	0.	8.0002
18731	14.435	1.6364	5.e-002	4.737
18732	14.711	1.6364	0.	8.98
18733	14.619	1.5455	0.	8.8183
18734	14.619	1.6364	5.e-002	4.7158
18735	14.895	1.6364	0.	9.7826
18736	14.803	1.5455	0.	9.6074
18737	14.803	1.6364	5.e-002	4.6947
18738	15.079	1.6364	0.	10.562
18739	14.987	1.5455	0.	10.372
18740	14.987	1.6364	5.e-002	4.6739
18741	15.263	1.6364	0.	11.324
18742	15.171	1.5455	0.	11.118
18743	15.171	1.6364	5.e-002	4.6534
18744	15.447	1.6364	0.	12.072
18745	15.355	1.5455	0.	11.848
18746	15.355	1.6364	5.e-002	4.633
18747	15.631	1.6364	0.	12.81
18748	15.539	1.5455	0.	12.567
18749	15.539	1.6364	5.e-002	4.6129
18750	15.815	1.6364	0.	13.544
18751	15.723	1.5455	0.	13.28
18752	15.723	1.6364	5.e-002	4.593
18753	15.999	1.6364	0.	14.278
18754	15.907	1.5455	0.	13.99
18755	15.907	1.6364	5.e-002	4.5733
18756	16.183	1.6364	0.	15.015
18757	16.091	1.5455	0.	14.702
18758	16.091	1.6364	5.e-002	4.5539
18759	16.367	1.6364	0.	15.761
18760	16.275	1.5455	0.	15.42
18761	16.275	1.6364	5.e-002	4.5346
18762	16.55	1.6364	0.	16.52
18763	16.458	1.5455	0.	16.147
18764	16.458	1.6364	5.e-002	4.5155
18765	16.734	1.6364	0.	17.295
18766	16.642	1.5455	0.	16.889
18767	16.642	1.6364	5.e-002	4.4967
18768	16.918	1.6364	0.	18.093
18769	16.826	1.5455	0.	17.65
18770	16.826	1.6364	5.e-002	4.478
18771	17.102	1.6364	0.	18.916
18772	17.01	1.5455	0.	18.433
18773	17.01	1.6364	5.e-002	4.4596
18774	17.286	1.6364	0.	19.771
18775	17.194	1.5455	0.	19.244
18776	17.194	1.6364	5.e-002	4.4414
18777	17.47	1.6364	0.	20.663
18778	17.378	1.5455	0.	20.087
18779	17.378	1.6364	5.e-002	4.4235
18780	17.654	1.6364	0.	21.596
18781	17.562	1.5455	0.	20.967
18782	17.562	1.6364	5.e-002	4.4059
18783	17.838	1.6364	0.	22.575
18784	17.746	1.5455	0.	21.889
18785	17.746	1.6364	5.e-002	4.3885
18786	18.022	1.6364	0.	23.607
18787	17.93	1.5455	0.	22.858
18788	17.93	1.6364	5.e-002	4.3715
18789	18.206	1.6364	0.	24.698
18790	18.114	1.5455	0.	23.88
18791	18.114	1.6364	5.e-002	4.3548
18792	18.39	1.6364	0.	25.854
18793	18.298	1.5455	0.	24.961
18794	18.298	1.6364	5.e-002	4.3384
18795	18.574	1.6364	0.	27.081
18796	18.482	1.5455	0.	26.107
18797	18.482	1.6364	5.e-002	4.3224
18798	18.758	1.6364	0.	28.387
18799	18.666	1.5455	0.	27.324
18800	18.666	1.6364	5.e-002	4.3068
18801	18.942	1.6364	0.	29.78
18802	18.85	1.5455	0.	28.619
18803	18.85	1.6364	5.e-002	4.2915
18804	19.126	1.6364	0.	31.267
18805	19.034	1.5455	0.	30.
18806	19.034	1.6364	5.e-002	4.2768
18807	19.31	1.6364	0.	32.857
18808	19.218	1.5455	0.	31.475
18809	19.218	1.6364	5.e-002	4.2625
18810	19.493	1.6364	0.	34.56
18811	19.402	1.5455	0.	33.052
18812	19.402	1.6364	5.e-002	4.2488
18813	19.677	1.6364	0.	36.386
18814	19.585	1.5455	0.	34.74
18815	19.585	1.6364	5.e-002	4.2357
18816	19.861	1.6364	0.	38.344
18817	19.769	1.5455	0.	36.55
18818	19.769	1.6364	5.e-002	4.2232
18819	20.045	1.6364	0.	40.449
18820	19.953	1.5455	0.	38.492
18821	19.953	1.6364	5.e-002	4.2115
18822	20.229	1.6364	0.	42.711
18823	20.137	1.5455	0.	40.577
18824	20.137	1.6364	5.e-002	4.2006
18825	20.413	1.6364	0.	45.145
18826	20.321	1.5455	0.	42.818
18827	20.321	1.6364	5.e-002	4.1904
18828	20.597	1.6364	0.	47.766
18829	20.505	1.5455	0.	45.229
18830	20.505	1.6364	5.e-002	4.1813
18831	20.781	1.6364	0.	50.591
18832	20.689	1.5455	0.	47.826
18833	20.689	1.6364	5.e-002	4.1732
18834	20.965	1.6364	0.	53.637
18835	20.873	1.5455	0.	50.624
18836	20.873	1.6364	5.e-002	4.1663
18837	21.149	1.6364	0.	56.927
18838	21.057	1.5455	0.	53.643
18839	21.057	1.6364	5.e-002	4.1607
18840	21.333	1.6364	0.	60.481
18841	21.241	1.5455	0.	56.904
18842	21.241	1.6364	5.e-002	4.1566
18843	21.517	1.6364	0.	64.325
18844	21.425	1.5455	0.	60.43
18845	21.425	1.6364	5.e-002	4.1542
18846	21.701	1.6364	0.	68.488
18847	21.609	1.5455	0.	64.247
18848	21.609	1.6364	5.e-002	4.1537
18849	21.885	1.6364	0.	73.
18850	21.793	1.5455	0.	68.386
18851	21.793	1.6364	5.e-002	4.1555
18852	22.069	1.6364	0.	77.895
18853	21.977	1.5455	0.	72.879
18854	21.977	1.6364	5.e-002	4.1599
18855	22.253	1.6364	0.	83.213
18856	22.161	1.5455	0.	77.765
18857	22.161	1.6364	5.e-002	4.1673
18858	22.437	1.6364	0.	88.993
18859	22.345	1.5455	0.	83.087
18860	22.345	1.6364	5.e-002	4.1783
18861	22.62	1.6364	0.	95.28
18862	22.528	1.5455	0.	88.89
18863	22.528	1.6364	5.e-002	4.1935
18864	22.804	1.6364	0.	102.12
18865	22.712	1.5455	0.	95.225
18866	22.712	1.6364	5.e-002	4.2137
18867	22.988	1.6364	0.	109.54
18868	22.896	1.5455	0.	102.14
18869	22.896	1.6364	5.e-002	4.2398
18870	23.172	1.6364	0.	117.6
18871	23.08	1.5455	0.	109.69
18872	23.08	1.6364	5.e-002	4.2728
18873	23.356	1.6364	0.	126.3
18874	23.264	1.5455	0.	117.9
18875	23.264	1.6364	5.e-002	4.3137
18876	23.54	1.6364	0.	135.69
18877	23.448	1.5455	0.	126.81
18878	23.448	1.6364	5.e-002	4.363
18879	23.724	1.6364	0.	145.7
18880	23.632	1.5455	0.	136.47
18881	23.632	1.6364	5.e-002	4.4235
18882	23.816	1.5455	0.	146.71
18883	23.816	1.6364	5.e-002	4.5415
18884	23.908	1.6364	0.	155.49
18885	4.0426	1.4545	0.	2175.7
18886	3.9506	1.3636	0.	2471.1
18887	3.9506	1.4545	5.e-002	183.35
18888	3.8586	1.4545	0.	2311.8
18889	4.2265	1.4545	0.	1303.4
18890	4.1345	1.3636	0.	1518.4
18891	4.1345	1.4545	5.e-002	110.34
18892	4.4105	1.4545	0.	772.13
18893	4.3185	1.3636	0.	945.42
18894	4.3185	1.4545	5.e-002	66.108
18895	4.5944	1.4545	0.	436.15
18896	4.5024	1.3636	0.	571.02
18897	4.5024	1.4545	5.e-002	46.661
18898	4.7783	1.4545	0.	228.66
18899	4.6864	1.3636	0.	332.08
18900	4.6864	1.4545	5.e-002	35.073
18901	4.9623	1.4545	0.	101.71
18902	4.8703	1.3636	0.	181.24
18903	4.8703	1.4545	5.e-002	27.987
18904	5.1462	1.4545	0.	29.439
18905	5.0542	1.3636	0.	86.149
18906	5.0542	1.4545	5.e-002	22.948
18907	5.3302	1.4545	0.	6.9243
18908	5.2382	1.3636	0.	29.112
18909	5.2382	1.4545	5.e-002	19.161
18910	5.5141	1.4545	0.	2.9103
18911	5.4221	1.3636	0.	7.3656
18912	5.4221	1.4545	5.e-002	16.204
18913	5.698	1.4545	0.	1.6113
18914	5.6061	1.3636	0.	2.9435
18915	5.6061	1.4545	5.e-002	13.864
18916	5.882	1.4545	0.	1.0042
18917	5.79	1.3636	0.	1.5739
18918	5.79	1.4545	5.e-002	12.008
18919	6.0659	1.4545	0.	0.6668
18920	5.9739	1.3636	0.	0.95779
18921	5.9739	1.4545	5.e-002	10.541
18922	6.2498	1.4545	0.	0.46045
18923	6.1579	1.3636	0.	0.62504
18924	6.1579	1.4545	5.e-002	9.393
18925	6.4338	1.4545	0.	0.32671
18926	6.3418	1.3636	0.	0.42629
18927	6.3418	1.4545	5.e-002	8.5038
18928	6.6177	1.4545	0.	0.23664
18929	6.5258	1.3636	0.	0.29994
18930	6.5258	1.4545	5.e-002	7.8228
18931	6.8017	1.4545	0.	0.17429
18932	6.7097	1.3636	0.	0.21617
18933	6.7097	1.4545	5.e-002	7.3064
18934	6.9856	1.4545	0.	0.13021
18935	6.8936	1.3636	0.	0.15888
18936	6.8936	1.4545	5.e-002	6.917
18937	7.1695	1.4545	0.	9.8526e-002
18938	7.0776	1.3636	0.	0.11875
18939	7.0776	1.4545	5.e-002	6.6235
18940	7.3535	1.4545	0.	7.5434e-002
18941	7.2615	1.3636	0.	9.0092e-002
18942	7.2615	1.4545	5.e-002	6.4011
18943	7.5374	1.4545	0.	5.8398e-002
18944	7.4455	1.3636	0.	6.9281e-002
18945	7.4455	1.4545	5.e-002	6.2304
18946	7.7214	1.4545	0.	4.5696e-002
18947	7.6294	1.3636	0.	5.3949e-002
18948	7.6294	1.4545	5.e-002	6.097
18949	7.9053	1.4545	0.	3.6141e-002
18950	7.8133	1.3636	0.	4.2513e-002
18951	7.8133	1.4545	5.e-002	5.9901
18952	8.0892	1.4545	0.	2.8895e-002
18953	7.9973	1.3636	0.	3.3896e-002
18954	7.9973	1.4545	5.e-002	5.9023
18955	8.2732	1.4545	0.	2.3356e-002
18956	8.1812	1.3636	0.	2.7336e-002
18957	8.1812	1.4545	5.e-002	5.828
18958	8.4571	1.4545	0.	1.9096e-002
18959	8.3652	1.3636	0.	2.2296e-002
18960	8.3652	1.4545	5.e-002	5.7634
18961	8.6411	1.4545	0.	1.5804e-002
18962	8.5491	1.3636	0.	1.8398e-002
18963	8.5491	1.4545	5.e-002	5.706
18964	8.825	1.4545	0.	1.3248e-002
18965	8.733	1.3636	0.	1.5366e-002
18966	8.733	1.4545	5.e-002	5.6539
18967	9.0089	1.4545	0.	1.1252e-002
18968	8.917	1.3636	0.	1.2991e-002
18969	8.917	1.4545	5.e-002	5.6058
18970	9.1929	1.4545	0.	9.6921e-003
18971	9.1009	1.3636	0.	1.1121e-002
18972	9.1009	1.4545	5.e-002	5.5609
18973	9.3768	1.4545	0.	8.4747e-003
18974	9.2848	1.3636	0.	9.6493e-003
18975	9.2848	1.4545	5.e-002	5.5185
18976	9.5608	1.4545	0.	7.5212e-003
18977	9.4688	1.3636	0.	8.4894e-003
18978	9.4688	1.4545	5.e-002	5.4782
18979	9.7447	1.4545	0.	6.7828e-003
18980	9.6527	1.3636	0.	7.5684e-003
18981	9.6527	1.4545	5.e-002	5.4396
18982	9.9286	1.4545	0.	6.223e-003
18983	9.8367	1.3636	0.	6.8567e-003
18984	9.8367	1.4545	5.e-002	5.4026
18985	10.113	1.4545	0.	5.7852e-003
18986	10.021	1.3636	0.	6.3105e-003
18987	10.021	1.4545	5.e-002	5.3671
18988	10.297	1.4545	0.	5.4443e-003
18989	10.205	1.3636	0.	5.8597e-003
18990	10.205	1.4545	5.e-002	5.3327
18991	10.48	1.4545	0.	5.2008e-003
18992	10.388	1.3636	0.	5.5223e-003
18993	10.388	1.4545	5.e-002	5.2995
18994	10.664	1.4545	0.	5.0268e-003
18995	10.572	1.3636	0.	5.2804e-003
18996	10.572	1.4545	5.e-002	5.2673
18997	10.848	1.4545	0.	4.9242e-003
18998	10.756	1.3636	0.	5.0968e-003
18999	10.756	1.4545	5.e-002	5.236
19000	11.032	1.4545	0.	4.9106e-003
19001	10.94	1.3636	0.	5.0138e-003
19002	10.94	1.4545	5.e-002	5.2055
19003	11.216	1.4545	0.	4.9643e-003
19004	11.124	1.3636	0.	5.0271e-003
19005	11.124	1.4545	5.e-002	5.176
19006	11.4	1.4545	0.	5.0694e-003
19007	11.308	1.3636	0.	5.1002e-003
19008	11.308	1.4545	5.e-002	5.1472
19009	11.584	1.4545	0.	5.2593e-003
19010	11.492	1.3636	0.	5.2457e-003
19011	11.492	1.4545	5.e-002	5.1192
19012	11.768	1.4545	0.	5.569e-003
19013	11.676	1.3636	0.	5.5295e-003
19014	11.676	1.4545	5.e-002	5.0918
19015	11.952	1.4545	0.	6.0012e-003
19016	11.86	1.3636	0.	5.9807e-003
19017	11.86	1.4545	5.e-002	5.0651
19018	12.136	1.4545	0.	6.6479e-003
19019	12.044	1.3636	0.	6.6348e-003
19020	12.044	1.4545	5.e-002	5.0389
19021	12.32	1.4545	0.	7.756e-003
19022	12.228	1.3636	0.	7.7792e-003
19023	12.228	1.4545	5.e-002	5.0132
19024	12.504	1.4545	0.	9.8962e-003
19025	12.412	1.3636	0.	1.0067e-002
19026	12.412	1.4545	5.e-002	4.9881
19027	12.688	1.4545	0.	1.5514e-002
19028	12.596	1.3636	0.	1.6215e-002
19029	12.596	1.4545	5.e-002	4.9634
19030	12.872	1.4545	0.	6.1778e-002
19031	12.78	1.3636	0.	7.1136e-002
19032	12.78	1.4545	5.e-002	4.9391
19033	13.056	1.4545	0.	0.98741
19034	12.964	1.3636	0.	1.0161
19035	12.964	1.4545	5.e-002	4.9151
19036	13.24	1.4545	0.	2.14
19037	13.148	1.3636	0.	2.1532
19038	13.148	1.4545	5.e-002	4.8916
19039	13.423	1.4545	0.	3.2317
19040	13.332	1.3636	0.	3.2299
19041	13.332	1.4545	5.e-002	4.8685
19042	13.607	1.4545	0.	4.2631
19043	13.515	1.3636	0.	4.2467
19044	13.515	1.4545	5.e-002	4.8457
19045	13.791	1.4545	0.	5.2391
19046	13.699	1.3636	0.	5.2083
19047	13.699	1.4545	5.e-002	4.8232
19048	13.975	1.4545	0.	6.1652
19049	13.883	1.3636	0.	6.12
19050	13.883	1.4545	5.e-002	4.801
19051	14.159	1.4545	0.	7.0465
19052	14.067	1.3636	0.	6.9868
19053	14.067	1.4545	5.e-002	4.7791
19054	14.343	1.4545	0.	7.8884
19055	14.251	1.3636	0.	7.8138
19056	14.251	1.4545	5.e-002	4.7574
19057	14.527	1.4545	0.	8.6957
19058	14.435	1.3636	0.	8.6058
19059	14.435	1.4545	5.e-002	4.736
19060	14.711	1.4545	0.	9.4731
19061	14.619	1.3636	0.	9.3672
19062	14.619	1.4545	5.e-002	4.7148
19063	14.895	1.4545	0.	10.225
19064	14.803	1.3636	0.	10.102
19065	14.803	1.4545	5.e-002	4.6939
19066	15.079	1.4545	0.	10.956
19067	14.987	1.3636	0.	10.816
19068	14.987	1.4545	5.e-002	4.6731
19069	15.263	1.4545	0.	11.671
19070	15.171	1.3636	0.	11.512
19071	15.171	1.4545	5.e-002	4.6526
19072	15.447	1.4545	0.	12.373
19073	15.355	1.3636	0.	12.194
19074	15.355	1.4545	5.e-002	4.6323
19075	15.631	1.4545	0.	13.067
19076	15.539	1.3636	0.	12.866
19077	15.539	1.4545	5.e-002	4.6122
19078	15.815	1.4545	0.	13.756
19079	15.723	1.3636	0.	13.532
19080	15.723	1.4545	5.e-002	4.5923
19081	15.999	1.4545	0.	14.445
19082	15.907	1.3636	0.	14.195
19083	15.907	1.4545	5.e-002	4.5726
19084	16.183	1.4545	0.	15.137
19085	16.091	1.3636	0.	14.861
19086	16.091	1.4545	5.e-002	4.5532
19087	16.367	1.4545	0.	15.838
19088	16.275	1.3636	0.	15.531
19089	16.275	1.4545	5.e-002	4.5339
19090	16.55	1.4545	0.	16.549
19091	16.458	1.3636	0.	16.211
19092	16.458	1.4545	5.e-002	4.5148
19093	16.734	1.4545	0.	17.276
19094	16.642	1.3636	0.	16.904
19095	16.642	1.4545	5.e-002	4.496
19096	16.918	1.4545	0.	18.023
19097	16.826	1.3636	0.	17.613
19098	16.826	1.4545	5.e-002	4.4773
19099	17.102	1.4545	0.	18.794
19100	17.01	1.3636	0.	18.343
19101	17.01	1.4545	5.e-002	4.4589
19102	17.286	1.4545	0.	19.594
19103	17.194	1.3636	0.	19.098
19104	17.194	1.4545	5.e-002	4.4407
19105	17.47	1.4545	0.	20.426
19106	17.378	1.3636	0.	19.881
19107	17.378	1.4545	5.e-002	4.4228
19108	17.654	1.4545	0.	21.296
19109	17.562	1.3636	0.	20.698
19110	17.562	1.4545	5.e-002	4.4051
19111	17.838	1.4545	0.	22.208
19112	17.746	1.3636	0.	21.552
19113	17.746	1.4545	5.e-002	4.3877
19114	18.022	1.4545	0.	23.167
19115	17.93	1.3636	0.	22.449
19116	17.93	1.4545	5.e-002	4.3707
19117	18.206	1.4545	0.	24.18
19118	18.114	1.3636	0.	23.393
19119	18.114	1.4545	5.e-002	4.3539
19120	18.39	1.4545	0.	25.251
19121	18.298	1.3636	0.	24.39
19122	18.298	1.4545	5.e-002	4.3375
19123	18.574	1.4545	0.	26.387
19124	18.482	1.3636	0.	25.444
19125	18.482	1.4545	5.e-002	4.3214
19126	18.758	1.4545	0.	27.594
19127	18.666	1.3636	0.	26.562
19128	18.666	1.4545	5.e-002	4.3057
19129	18.942	1.4545	0.	28.878
19130	18.85	1.3636	0.	27.75
19131	18.85	1.4545	5.e-002	4.2904
19132	19.126	1.4545	0.	30.247
19133	19.034	1.3636	0.	29.014
19134	19.034	1.4545	5.e-002	4.2755
19135	19.31	1.4545	0.	31.71
19136	19.218	1.3636	0.	30.362
19137	19.218	1.4545	5.e-002	4.2612
19138	19.493	1.4545	0.	33.273
19139	19.402	1.3636	0.	31.8
19140	19.402	1.4545	5.e-002	4.2473
19141	19.677	1.4545	0.	34.946
19142	19.585	1.3636	0.	33.337
19143	19.585	1.4545	5.e-002	4.2341
19144	19.861	1.4545	0.	36.739
19145	19.769	1.3636	0.	34.982
19146	19.769	1.4545	5.e-002	4.2214
19147	20.045	1.4545	0.	38.662
19148	19.953	1.3636	0.	36.744
19149	19.953	1.4545	5.e-002	4.2095
19150	20.229	1.4545	0.	40.726
19151	20.137	1.3636	0.	38.632
19152	20.137	1.4545	5.e-002	4.1983
19153	20.413	1.4545	0.	42.945
19154	20.321	1.3636	0.	40.659
19155	20.321	1.4545	5.e-002	4.1879
19156	20.597	1.4545	0.	45.332
19157	20.505	1.3636	0.	42.837
19158	20.505	1.4545	5.e-002	4.1784
19159	20.781	1.4545	0.	47.903
19160	20.689	1.3636	0.	45.178
19161	20.689	1.4545	5.e-002	4.1699
19162	20.965	1.4545	0.	50.674
19163	20.873	1.3636	0.	47.7
19164	20.873	1.4545	5.e-002	4.1625
19165	21.149	1.4545	0.	53.664
19166	21.057	1.3636	0.	50.418
19167	21.057	1.4545	5.e-002	4.1564
19168	21.333	1.4545	0.	56.897
19169	21.241	1.3636	0.	53.353
19170	21.241	1.4545	5.e-002	4.1516
19171	21.517	1.4545	0.	60.395
19172	21.425	1.3636	0.	56.527
19173	21.425	1.4545	5.e-002	4.1484
19174	21.701	1.4545	0.	64.188
19175	21.609	1.3636	0.	59.965
19176	21.609	1.4545	5.e-002	4.1471
19177	21.885	1.4545	0.	68.307
19178	21.793	1.3636	0.	63.697
19179	21.793	1.4545	5.e-002	4.1478
19180	22.069	1.4545	0.	72.79
19181	21.977	1.3636	0.	67.758
19182	21.977	1.4545	5.e-002	4.151
19183	22.253	1.4545	0.	77.679
19184	22.161	1.3636	0.	72.188
19185	22.161	1.4545	5.e-002	4.157
19186	22.437	1.4545	0.	83.021
19187	22.345	1.3636	0.	77.034
19188	22.345	1.4545	5.e-002	4.1665
19189	22.62	1.4545	0.	88.869
19190	22.528	1.3636	0.	82.351
19191	22.528	1.4545	5.e-002	4.1801
19192	22.804	1.4545	0.	95.28
19193	22.712	1.3636	0.	88.198
19194	22.712	1.4545	5.e-002	4.1989
19195	22.988	1.4545	0.	102.31
19196	22.896	1.3636	0.	94.642
19197	22.896	1.4545	5.e-002	4.2239
19198	23.172	1.4545	0.	110.01
19199	23.08	1.3636	0.	101.75
19200	23.08	1.4545	5.e-002	4.2564
19201	23.356	1.4545	0.	118.43
19202	23.264	1.3636	0.	109.59
19203	23.264	1.4545	5.e-002	4.2979
19204	23.54	1.4545	0.	127.6
19205	23.448	1.3636	0.	118.2
19206	23.448	1.4545	5.e-002	4.3495
19207	23.724	1.4545	0.	137.5
19208	23.632	1.3636	0.	127.65
19209	23.632	1.4545	5.e-002	4.4152
19210	23.816	1.3636	0.	137.83
19211	23.816	1.4545	5.e-002	4.5527
19212	23.908	1.4545	0.	147.17
19213	4.0426	1.2727	0.	1736.5
19214	3.9506	1.1818	0.	1907.9
19215	3.9506	1.2727	5.e-002	145.19
19216	3.8586	1.2727	0.	1747.
19217	4.2265	1.2727	0.	1115.1
19218	4.1345	1.1818	0.	1228.1
19219	4.1345	1.2727	5.e-002	88.605
19220	4.4105	1.2727	0.	718.17
19221	4.3185	1.1818	0.	816.4
19222	4.3185	1.2727	5.e-002	65.285
19223	4.5944	1.2727	0.	451.54
19224	4.5024	1.1818	0.	535.42
19225	4.5024	1.2727	5.e-002	47.083
19226	4.7783	1.2727	0.	275.64
19227	4.6864	1.1818	0.	346.44
19228	4.6864	1.2727	5.e-002	35.308
19229	4.9623	1.2727	0.	160.63
19230	4.8703	1.1818	0.	220.72
19231	4.8703	1.2727	5.e-002	27.377
19232	5.1462	1.2727	0.	85.068
19233	5.0542	1.1818	0.	136.19
19234	5.0542	1.2727	5.e-002	21.825
19235	5.3302	1.2727	0.	35.991
19236	5.2382	1.1818	0.	78.226
19237	5.2382	1.2727	5.e-002	17.734
19238	5.5141	1.2727	0.	10.286
19239	5.4221	1.1818	0.	38.104
19240	5.4221	1.2727	5.e-002	14.628
19241	5.698	1.2727	0.	3.4881
19242	5.6061	1.1818	0.	12.967
19243	5.6061	1.2727	5.e-002	12.241
19244	5.882	1.2727	0.	1.6964
19245	5.79	1.1818	0.	3.9175
19246	5.79	1.2727	5.e-002	10.413
19247	6.0659	1.2727	0.	0.9791
19248	5.9739	1.1818	0.	1.7131
19249	5.9739	1.2727	5.e-002	9.0312
19250	6.2498	1.2727	0.	0.61807
19251	6.1579	1.1818	0.	0.9349
19252	6.1579	1.2727	5.e-002	8.0096
19253	6.4338	1.2727	0.	0.4124
19254	6.3418	1.1818	0.	0.57147
19255	6.3418	1.2727	5.e-002	7.2743
19256	6.6177	1.2727	0.	0.28603
19257	6.5258	1.1818	0.	0.3741
19258	6.5258	1.2727	5.e-002	6.7598
19259	6.8017	1.2727	0.	0.20432
19260	6.7097	1.1818	0.	0.25672
19261	6.7097	1.2727	5.e-002	6.4087
19262	6.9856	1.2727	0.	0.14947
19263	6.8936	1.1818	0.	0.18251
19264	6.8936	1.2727	5.e-002	6.1735
19265	7.1695	1.2727	0.	0.11156
19266	7.0776	1.1818	0.	0.13346
19267	7.0776	1.2727	5.e-002	6.017
19268	7.3535	1.2727	0.	8.474e-002
19269	7.2615	1.1818	0.	9.9893e-002
19270	7.2615	1.2727	5.e-002	5.9119
19271	7.5374	1.2727	0.	6.5376e-002
19272	7.4455	1.1818	0.	7.6278e-002
19273	7.4455	1.2727	5.e-002	5.8388
19274	7.7214	1.2727	0.	5.1154e-002
19275	7.6294	1.1818	0.	5.9264e-002
19276	7.6294	1.2727	5.e-002	5.7853
19277	7.9053	1.2727	0.	4.0556e-002
19278	7.8133	1.1818	0.	4.6761e-002
19279	7.8133	1.2727	5.e-002	5.7429
19280	8.0892	1.2727	0.	3.2557e-002
19281	7.9973	1.1818	0.	3.7421e-002
19282	7.9973	1.2727	5.e-002	5.7066
19283	8.2732	1.2727	0.	2.6448e-002
19284	8.1812	1.1818	0.	3.0337e-002
19285	8.1812	1.2727	5.e-002	5.6732
19286	8.4571	1.2727	0.	2.1736e-002
19287	8.3652	1.1818	0.	2.489e-002
19288	8.3652	1.2727	5.e-002	5.641
19289	8.6411	1.2727	0.	1.8073e-002
19290	8.5491	1.1818	0.	2.0661e-002
19291	8.5491	1.2727	5.e-002	5.609
19292	8.825	1.2727	0.	1.5201e-002
19293	8.733	1.1818	0.	1.7346e-002
19294	8.733	1.2727	5.e-002	5.577
19295	9.0089	1.2727	0.	1.2935e-002
19296	8.917	1.1818	0.	1.4722e-002
19297	8.917	1.2727	5.e-002	5.5447
19298	9.1929	1.2727	0.	1.1139e-002
19299	9.1009	1.1818	0.	1.263e-002
19300	9.1009	1.2727	5.e-002	5.5121
19301	9.3768	1.2727	0.	9.7127e-003
19302	9.2848	1.1818	0.	1.0957e-002
19303	9.2848	1.2727	5.e-002	5.4795
19304	9.5608	1.2727	0.	8.575e-003
19305	9.4688	1.1818	0.	9.6152e-003
19306	9.4688	1.2727	5.e-002	5.4468
19307	9.7447	1.2727	0.	7.6718e-003
19308	9.6527	1.1818	0.	8.5294e-003
19309	9.6527	1.2727	5.e-002	5.4143
19310	9.9286	1.2727	0.	6.9656e-003
19311	9.8367	1.1818	0.	7.6675e-003
19312	9.8367	1.2727	5.e-002	5.3821
19313	10.113	1.2727	0.	6.3991e-003
19314	10.021	1.1818	0.	6.9865e-003
19315	10.021	1.2727	5.e-002	5.3503
19316	10.297	1.2727	0.	5.9452e-003
19317	10.205	1.1818	0.	6.4152e-003
19318	10.205	1.2727	5.e-002	5.3189
19319	10.48	1.2727	0.	5.6034e-003
19320	10.388	1.1818	0.	5.9713e-003
19321	10.388	1.2727	5.e-002	5.2881
19322	10.664	1.2727	0.	5.3463e-003
19323	10.572	1.1818	0.	5.6374e-003
19324	10.572	1.2727	5.e-002	5.2577
19325	10.848	1.2727	0.	5.1773e-003
19326	10.756	1.1818	0.	5.3788e-003
19327	10.756	1.2727	5.e-002	5.228
19328	11.032	1.2727	0.	5.1167e-003
19329	10.94	1.1818	0.	5.2394e-003
19330	10.94	1.2727	5.e-002	5.1988
19331	11.216	1.2727	0.	5.1455e-003
19332	11.124	1.1818	0.	5.2201e-003
19333	11.124	1.2727	5.e-002	5.1701
19334	11.4	1.2727	0.	5.256e-003
19335	11.308	1.1818	0.	5.2917e-003
19336	11.308	1.2727	5.e-002	5.1422
19337	11.584	1.2727	0.	5.4942e-003
19338	11.492	1.1818	0.	5.4842e-003
19339	11.492	1.2727	5.e-002	5.1148
19340	11.768	1.2727	0.	5.9216e-003
19341	11.676	1.1818	0.	5.8935e-003
19342	11.676	1.2727	5.e-002	5.0879
19343	11.952	1.2727	0.	6.6048e-003
19344	11.86	1.1818	0.	6.6209e-003
19345	11.86	1.2727	5.e-002	5.0616
19346	12.136	1.2727	0.	7.7879e-003
19347	12.044	1.1818	0.	7.8892e-003
19348	12.044	1.2727	5.e-002	5.0359
19349	12.32	1.2727	0.	1.022e-002
19350	12.228	1.1818	0.	1.0627e-002
19351	12.228	1.2727	5.e-002	5.0105
19352	12.504	1.2727	0.	1.7091e-002
19353	12.412	1.1818	0.	1.9207e-002
19354	12.412	1.2727	5.e-002	4.9856
19355	12.688	1.2727	0.	9.1291e-002
19356	12.596	1.1818	0.	0.1679
19357	12.596	1.2727	5.e-002	4.9611
19358	12.872	1.2727	0.	1.0828
19359	12.78	1.1818	0.	1.2388
19360	12.78	1.2727	5.e-002	4.937
19361	13.056	1.2727	0.	2.2048
19362	12.964	1.1818	0.	2.3383
19363	12.964	1.2727	5.e-002	4.9132
19364	13.24	1.2727	0.	3.2666
19365	13.148	1.1818	0.	3.3774
19366	13.148	1.2727	5.e-002	4.8899
19367	13.423	1.2727	0.	4.269
19368	13.332	1.1818	0.	4.3581
19369	13.332	1.2727	5.e-002	4.8669
19370	13.607	1.2727	0.	5.2165
19371	13.515	1.1818	0.	5.2849
19372	13.515	1.2727	5.e-002	4.8441
19373	13.791	1.2727	0.	6.1143
19374	13.699	1.1818	0.	6.1626
19375	13.699	1.2727	5.e-002	4.8218
19376	13.975	1.2727	0.	6.9673
19377	13.883	1.1818	0.	6.9961
19378	13.883	1.2727	5.e-002	4.7997
19379	14.159	1.2727	0.	7.7802
19380	14.067	1.1818	0.	7.7897
19381	14.067	1.2727	5.e-002	4.7779
19382	14.343	1.2727	0.	8.5577
19383	14.251	1.1818	0.	8.548
19384	14.251	1.2727	5.e-002	4.7563
19385	14.527	1.2727	0.	9.3043
19386	14.435	1.1818	0.	9.2753
19387	14.435	1.2727	5.e-002	4.7349
19388	14.711	1.2727	0.	10.024
19389	14.619	1.1818	0.	9.9755
19390	14.619	1.2727	5.e-002	4.7139
19391	14.895	1.2727	0.	10.721
19392	14.803	1.1818	0.	10.653
19393	14.803	1.2727	5.e-002	4.6929
19394	15.079	1.2727	0.	11.4
19395	14.987	1.1818	0.	11.31
19396	14.987	1.2727	5.e-002	4.6722
19397	15.263	1.2727	0.	12.063
19398	15.171	1.1818	0.	11.952
19399	15.171	1.2727	5.e-002	4.6517
19400	15.447	1.2727	0.	12.715
19401	15.355	1.1818	0.	12.582
19402	15.355	1.2727	5.e-002	4.6314
19403	15.631	1.2727	0.	13.36
19404	15.539	1.1818	0.	13.204
19405	15.539	1.2727	5.e-002	4.6113
19406	15.815	1.2727	0.	14.001
19407	15.723	1.1818	0.	13.82
19408	15.723	1.2727	5.e-002	4.5915
19409	15.999	1.2727	0.	14.642
19410	15.907	1.1818	0.	14.434
19411	15.907	1.2727	5.e-002	4.5718
19412	16.183	1.2727	0.	15.286
19413	16.091	1.1818	0.	15.049
19414	16.091	1.2727	5.e-002	4.5524
19415	16.367	1.2727	0.	15.937
19416	16.275	1.1818	0.	15.67
19417	16.275	1.2727	5.e-002	4.5332
19418	16.55	1.2727	0.	16.598
19419	16.458	1.1818	0.	16.298
19420	16.458	1.2727	5.e-002	4.5141
19421	16.734	1.2727	0.	17.273
19422	16.642	1.1818	0.	16.938
19423	16.642	1.2727	5.e-002	4.4952
19424	16.918	1.2727	0.	17.966
19425	16.826	1.1818	0.	17.592
19426	16.826	1.2727	5.e-002	4.4765
19427	17.102	1.2727	0.	18.68
19428	17.01	1.1818	0.	18.265
19429	17.01	1.2727	5.e-002	4.4581
19430	17.286	1.2727	0.	19.419
19431	17.194	1.1818	0.	18.96
19432	17.194	1.2727	5.e-002	4.4399
19433	17.47	1.2727	0.	20.188
19434	17.378	1.1818	0.	19.68
19435	17.378	1.2727	5.e-002	4.4219
19436	17.654	1.2727	0.	20.99
19437	17.562	1.1818	0.	20.43
19438	17.562	1.2727	5.e-002	4.4042
19439	17.838	1.2727	0.	21.829
19440	17.746	1.1818	0.	21.212
19441	17.746	1.2727	5.e-002	4.3868
19442	18.022	1.2727	0.	22.711
19443	17.93	1.1818	0.	22.032
19444	17.93	1.2727	5.e-002	4.3697
19445	18.206	1.2727	0.	23.64
19446	18.114	1.1818	0.	22.893
19447	18.114	1.2727	5.e-002	4.3529
19448	18.39	1.2727	0.	24.62
19449	18.298	1.1818	0.	23.801
19450	18.298	1.2727	5.e-002	4.3364
19451	18.574	1.2727	0.	25.658
19452	18.482	1.1818	0.	24.758
19453	18.482	1.2727	5.e-002	4.3202
19454	18.758	1.2727	0.	26.758
19455	18.666	1.1818	0.	25.771
19456	18.666	1.2727	5.e-002	4.3045
19457	18.942	1.2727	0.	27.926
19458	18.85	1.1818	0.	26.845
19459	18.85	1.2727	5.e-002	4.2891
19460	19.126	1.2727	0.	29.169
19461	19.034	1.1818	0.	27.985
19462	19.034	1.2727	5.e-002	4.2741
19463	19.31	1.2727	0.	30.494
19464	19.218	1.1818	0.	29.198
19465	19.218	1.2727	5.e-002	4.2596
19466	19.493	1.2727	0.	31.907
19467	19.402	1.1818	0.	30.489
19468	19.402	1.2727	5.e-002	4.2456
19469	19.677	1.2727	0.	33.416
19470	19.585	1.1818	0.	31.865
19471	19.585	1.2727	5.e-002	4.2322
19472	19.861	1.2727	0.	35.03
19473	19.769	1.1818	0.	33.334
19474	19.769	1.2727	5.e-002	4.2194
19475	20.045	1.2727	0.	36.758
19476	19.953	1.1818	0.	34.904
19477	19.953	1.2727	5.e-002	4.2072
19478	20.229	1.2727	0.	38.609
19479	20.137	1.1818	0.	36.583
19480	20.137	1.2727	5.e-002	4.1958
19481	20.413	1.2727	0.	40.596
19482	20.321	1.1818	0.	38.381
19483	20.321	1.2727	5.e-002	4.1851
19484	20.597	1.2727	0.	42.729
19485	20.505	1.1818	0.	40.308
19486	20.505	1.2727	5.e-002	4.1752
19487	20.781	1.2727	0.	45.023
19488	20.689	1.1818	0.	42.377
19489	20.689	1.2727	5.e-002	4.1663
19490	20.965	1.2727	0.	47.492
19491	20.873	1.1818	0.	44.6
19492	20.873	1.2727	5.e-002	4.1584
19493	21.149	1.2727	0.	50.155
19494	21.057	1.1818	0.	46.993
19495	21.057	1.2727	5.e-002	4.1517
19496	21.333	1.2727	0.	53.032
19497	21.241	1.1818	0.	49.574
19498	21.241	1.2727	5.e-002	4.1462
19499	21.517	1.2727	0.	56.145
19500	21.425	1.1818	0.	52.361
19501	21.425	1.2727	5.e-002	4.1422
19502	21.701	1.2727	0.	59.523
19503	21.609	1.1818	0.	55.38
19504	21.609	1.2727	5.e-002	4.1399
19505	21.885	1.2727	0.	63.196
19506	21.793	1.1818	0.	58.659
19507	21.793	1.2727	5.e-002	4.1394
19508	22.069	1.2727	0.	67.203
19509	21.977	1.1818	0.	62.231
19510	21.977	1.2727	5.e-002	4.1412
19511	22.253	1.2727	0.	71.59
19512	22.161	1.1818	0.	66.137
19513	22.161	1.2727	5.e-002	4.1457
19514	22.437	1.2727	0.	76.409
19515	22.345	1.1818	0.	70.428
19516	22.345	1.2727	5.e-002	4.1534
19517	22.62	1.2727	0.	81.721
19518	22.528	1.1818	0.	75.162
19519	22.528	1.2727	5.e-002	4.1652
19520	22.804	1.2727	0.	87.599
19521	22.712	1.1818	0.	80.412
19522	22.712	1.2727	5.e-002	4.182
19523	22.988	1.2727	0.	94.117
19524	22.896	1.1818	0.	86.261
19525	22.896	1.2727	5.e-002	4.2052
19526	23.172	1.2727	0.	101.36
19527	23.08	1.1818	0.	92.799
19528	23.08	1.2727	5.e-002	4.2366
19529	23.356	1.2727	0.	109.38
19530	23.264	1.1818	0.	100.13
19531	23.264	1.2727	5.e-002	4.2782
19532	23.54	1.2727	0.	118.26
19533	23.448	1.1818	0.	108.32
19534	23.448	1.2727	5.e-002	4.3321
19535	23.724	1.2727	0.	128.
19536	23.632	1.1818	0.	117.49
19537	23.632	1.2727	5.e-002	4.404
19538	23.816	1.1818	0.	127.54
19539	23.816	1.2727	5.e-002	4.5641
19540	23.908	1.2727	0.	137.5
19541	4.0426	1.0909	0.	1338.2
19542	3.9506	1.	0.	1444.5
19543	3.9506	1.0909	5.e-002	115.33
19544	3.8586	1.0909	0.	1321.3
19545	4.2265	1.0909	0.	887.49
19546	4.1345	1.	0.	937.49
19547	4.1345	1.0909	5.e-002	77.221
19548	4.4105	1.0909	0.	606.89
19549	4.3185	1.	0.	649.71
19550	4.3185	1.0909	5.e-002	61.53
19551	4.5944	1.0909	0.	414.12
19552	4.5024	1.	0.	455.27
19553	4.5024	1.0909	5.e-002	47.497
19554	4.7783	1.0909	0.	282.04
19555	4.6864	1.	0.	322.1
19556	4.6864	1.0909	5.e-002	36.486
19557	4.9623	1.0909	0.	190.88
19558	4.8703	1.	0.	229.66
19559	4.8703	1.0909	5.e-002	28.235
19560	5.1462	1.0909	0.	126.51
19561	5.0542	1.	0.	163.4
19562	5.0542	1.0909	5.e-002	22.065
19563	5.3302	1.0909	0.	79.792
19564	5.2382	1.	0.	114.18
19565	5.2382	1.0909	5.e-002	17.403
19566	5.5141	1.0909	0.	45.168
19567	5.4221	1.	0.	76.432
19568	5.4221	1.0909	5.e-002	13.848
19569	5.698	1.0909	0.	19.97
19570	5.6061	1.	0.	46.874
19571	5.6061	1.0909	5.e-002	11.143
19572	5.882	1.0909	0.	5.8624
19573	5.79	1.	0.	23.817
19574	5.79	1.0909	5.e-002	9.1174
19575	6.0659	1.0909	0.	2.0206
19576	5.9739	1.	0.	7.9042
19577	5.9739	1.0909	5.e-002	7.6504
19578	6.2498	1.0909	0.	0.9795
19579	6.1579	1.	0.	2.1947
19580	6.1579	1.0909	5.e-002	6.6438
19581	6.4338	1.0909	0.	0.56364
19582	6.3418	1.	0.	0.93541
19583	6.3418	1.0909	5.e-002	6.0037
19584	6.6177	1.0909	0.	0.35678
19585	6.5258	1.	0.	0.50947
19586	6.5258	1.0909	5.e-002	5.636
19587	6.8017	1.0909	0.	0.24025
19588	6.7097	1.	0.	0.31451
19589	6.7097	1.0909	5.e-002	5.4535
19590	6.9856	1.0909	0.	0.16915
19591	6.8936	1.	0.	0.20964
19592	6.8936	1.0909	5.e-002	5.3847
19593	7.1695	1.0909	0.	0.12325
19594	7.0776	1.	0.	0.14735
19595	7.0776	1.0909	5.e-002	5.3783
19596	7.3535	1.0909	0.	9.232e-002
19597	7.2615	1.	0.	0.10775
19598	7.2615	1.0909	5.e-002	5.4012
19599	7.5374	1.0909	0.	7.0754e-002
19600	7.4455	1.	0.	8.1274e-002
19601	7.4455	1.0909	5.e-002	5.4339
19602	7.7214	1.0909	0.	5.5289e-002
19603	7.6294	1.	0.	6.285e-002
19604	7.6294	1.0909	5.e-002	5.4656
19605	7.9053	1.0909	0.	4.3941e-002
19606	7.8133	1.	0.	4.9615e-002
19607	7.8133	1.0909	5.e-002	5.491
19608	8.0892	1.0909	0.	3.5448e-002
19609	7.9973	1.	0.	3.9862e-002
19610	7.9973	1.0909	5.e-002	5.5082
19611	8.2732	1.0909	0.	2.8978e-002
19612	8.1812	1.	0.	3.2509e-002
19613	8.1812	1.0909	5.e-002	5.517
19614	8.4571	1.0909	0.	2.3978e-002
19615	8.3652	1.	0.	2.6858e-002
19616	8.3652	1.0909	5.e-002	5.5178
19617	8.6411	1.0909	0.	2.007e-002
19618	8.5491	1.	0.	2.2453e-002
19619	8.5491	1.0909	5.e-002	5.5117
19620	8.825	1.0909	0.	1.6979e-002
19621	8.733	1.	0.	1.8973e-002
19622	8.733	1.0909	5.e-002	5.4999
19623	9.0089	1.0909	0.	1.4511e-002
19624	8.917	1.	0.	1.6188e-002
19625	8.917	1.0909	5.e-002	5.4835
19626	9.1929	1.0909	0.	1.2526e-002
19627	9.1009	1.	0.	1.3939e-002
19628	9.1009	1.0909	5.e-002	5.4634
19629	9.3768	1.0909	0.	1.0924e-002
19630	9.2848	1.	0.	1.2111e-002
19631	9.2848	1.0909	5.e-002	5.4404
19632	9.5608	1.0909	0.	9.621e-003
19633	9.4688	1.	0.	1.0619e-002
19634	9.4688	1.0909	5.e-002	5.4154
19635	9.7447	1.0909	0.	8.5651e-003
19636	9.6527	1.	0.	9.3889e-003
19637	9.6527	1.0909	5.e-002	5.3889
19638	9.9286	1.0909	0.	7.7179e-003
19639	9.8367	1.	0.	8.3907e-003
19640	9.8367	1.0909	5.e-002	5.3614
19641	10.113	1.0909	0.	7.0222e-003
19642	10.021	1.	0.	7.5816e-003
19643	10.021	1.0909	5.e-002	5.3333
19644	10.297	1.0909	0.	6.4518e-003
19645	10.205	1.	0.	6.8919e-003
19646	10.205	1.0909	5.e-002	5.3049
19647	10.48	1.0909	0.	6.0071e-003
19648	10.388	1.	0.	6.342e-003
19649	10.388	1.0909	5.e-002	5.2764
19650	10.664	1.0909	0.	5.6638e-003
19651	10.572	1.	0.	5.9166e-003
19652	10.572	1.0909	5.e-002	5.2479
19653	10.848	1.0909	0.	5.4274e-003
19654	10.756	1.	0.	5.5857e-003
19655	10.756	1.0909	5.e-002	5.2197
19656	11.032	1.0909	0.	5.3228e-003
19657	10.94	1.	0.	5.3972e-003
19658	10.94	1.0909	5.e-002	5.1916
19659	11.216	1.0909	0.	5.3412e-003
19660	11.124	1.	0.	5.3646e-003
19661	11.124	1.0909	5.e-002	5.164
19662	11.4	1.0909	0.	5.4927e-003
19663	11.308	1.	0.	5.4809e-003
19664	11.308	1.0909	5.e-002	5.1368
19665	11.584	1.0909	0.	5.8611e-003
19666	11.492	1.	0.	5.8195e-003
19667	11.492	1.0909	5.e-002	5.1101
19668	11.768	1.0909	0.	6.5935e-003
19669	11.676	1.	0.	6.589e-003
19670	11.676	1.0909	5.e-002	5.0838
19671	11.952	1.0909	0.	7.9878e-003
19672	11.86	1.	0.	8.2124e-003
19673	11.86	1.0909	5.e-002	5.0579
19674	12.136	1.0909	0.	1.1151e-002
19675	12.044	1.	0.	1.2272e-002
19676	12.044	1.0909	5.e-002	5.0326
19677	12.32	1.0909	0.	2.275e-002
19678	12.228	1.	0.	3.3259e-002
19679	12.228	1.0909	5.e-002	5.0075
19680	12.504	1.0909	0.	0.33817
19681	12.412	1.	0.	0.65085
19682	12.412	1.0909	5.e-002	4.9829
19683	12.688	1.0909	0.	1.4433
19684	12.596	1.	0.	1.7459
19685	12.596	1.0909	5.e-002	4.9586
19686	12.872	1.0909	0.	2.5189
19687	12.78	1.	0.	2.7886
19688	12.78	1.0909	5.e-002	4.9348
19689	13.056	1.0909	0.	3.5345
19690	12.964	1.	0.	3.7725
19691	12.964	1.0909	5.e-002	4.9112
19692	13.24	1.0909	0.	4.4928
19693	13.148	1.	0.	4.701
19694	13.148	1.0909	5.e-002	4.8879
19695	13.423	1.0909	0.	5.3984
19696	13.332	1.	0.	5.5784
19697	13.332	1.0909	5.e-002	4.8651
19698	13.607	1.0909	0.	6.2558
19699	13.515	1.	0.	6.409
19700	13.515	1.0909	5.e-002	4.8425
19701	13.791	1.0909	0.	7.0696
19702	13.699	1.	0.	7.1973
19703	13.699	1.0909	5.e-002	4.8202
19704	13.975	1.0909	0.	7.8442
19705	13.883	1.	0.	7.9473
19706	13.883	1.0909	5.e-002	4.7983
19707	14.159	1.0909	0.	8.5837
19708	14.067	1.	0.	8.6629
19709	14.067	1.0909	5.e-002	4.7766
19710	14.343	1.0909	0.	9.2922
19711	14.251	1.	0.	9.3482
19712	14.251	1.0909	5.e-002	4.7551
19713	14.527	1.0909	0.	9.9736
19714	14.435	1.	0.	10.007
19715	14.435	1.0909	5.e-002	4.7338
19716	14.711	1.0909	0.	10.632
19717	14.619	1.	0.	10.642
19718	14.619	1.0909	5.e-002	4.7127
19719	14.895	1.0909	0.	11.27
19720	14.803	1.	0.	11.257
19721	14.803	1.0909	5.e-002	4.6919
19722	15.079	1.0909	0.	11.892
19723	14.987	1.	0.	11.856
19724	14.987	1.0909	5.e-002	4.6712
19725	15.263	1.0909	0.	12.501
19726	15.171	1.	0.	12.441
19727	15.171	1.0909	5.e-002	4.6507
19728	15.447	1.0909	0.	13.1
19729	15.355	1.	0.	13.016
19730	15.355	1.0909	5.e-002	4.6305
19731	15.631	1.0909	0.	13.693
19732	15.539	1.	0.	13.583
19733	15.539	1.0909	5.e-002	4.6104
19734	15.815	1.0909	0.	14.283
19735	15.723	1.	0.	14.146
19736	15.723	1.0909	5.e-002	4.5906
19737	15.999	1.0909	0.	14.872
19738	15.907	1.	0.	14.708
19739	15.907	1.0909	5.e-002	4.571
19740	16.183	1.0909	0.	15.464
19741	16.091	1.	0.	15.271
19742	16.091	1.0909	5.e-002	4.5515
19743	16.367	1.0909	0.	16.063
19744	16.275	1.	0.	15.838
19745	16.275	1.0909	5.e-002	4.5323
19746	16.55	1.0909	0.	16.67
19747	16.458	1.	0.	16.413
19748	16.458	1.0909	5.e-002	4.5132
19749	16.734	1.0909	0.	17.29
19750	16.642	1.	0.	16.997
19751	16.642	1.0909	5.e-002	4.4943
19752	16.918	1.0909	0.	17.926
19753	16.826	1.	0.	17.595
19754	16.826	1.0909	5.e-002	4.4757
19755	17.102	1.0909	0.	18.58
19756	17.01	1.	0.	18.208
19757	17.01	1.0909	5.e-002	4.4572
19758	17.286	1.0909	0.	19.256
19759	17.194	1.	0.	18.84
19760	17.194	1.0909	5.e-002	4.4389
19761	17.47	1.0909	0.	19.957
19762	17.378	1.	0.	19.494
19763	17.378	1.0909	5.e-002	4.421
19764	17.654	1.0909	0.	20.688
19765	17.562	1.	0.	20.173
19766	17.562	1.0909	5.e-002	4.4033
19767	17.838	1.0909	0.	21.451
19768	17.746	1.	0.	20.881
19769	17.746	1.0909	5.e-002	4.3858
19770	18.022	1.0909	0.	22.251
19771	17.93	1.	0.	21.62
19772	17.93	1.0909	5.e-002	4.3686
19773	18.206	1.0909	0.	23.092
19774	18.114	1.	0.	22.395
19775	18.114	1.0909	5.e-002	4.3518
19776	18.39	1.0909	0.	23.977
19777	18.298	1.	0.	23.209
19778	18.298	1.0909	5.e-002	4.3352
19779	18.574	1.0909	0.	24.911
19780	18.482	1.	0.	24.066
19781	18.482	1.0909	5.e-002	4.319
19782	18.758	1.0909	0.	25.899
19783	18.666	1.	0.	24.97
19784	18.666	1.0909	5.e-002	4.3031
19785	18.942	1.0909	0.	26.945
19786	18.85	1.	0.	25.925
19787	18.85	1.0909	5.e-002	4.2876
19788	19.126	1.0909	0.	28.055
19789	19.034	1.	0.	26.936
19790	19.034	1.0909	5.e-002	4.2725
19791	19.31	1.0909	0.	29.235
19792	19.218	1.	0.	28.008
19793	19.218	1.0909	5.e-002	4.2579
19794	19.493	1.0909	0.	30.49
19795	19.402	1.	0.	29.145
19796	19.402	1.0909	5.e-002	4.2438
19797	19.677	1.0909	0.	31.827
19798	19.585	1.	0.	30.354
19799	19.585	1.0909	5.e-002	4.2302
19800	19.861	1.0909	0.	33.253
19801	19.769	1.	0.	31.64
19802	19.769	1.0909	5.e-002	4.2171
19803	20.045	1.0909	0.	34.774
19804	19.953	1.	0.	33.009
19805	19.953	1.0909	5.e-002	4.2047
19806	20.229	1.0909	0.	36.401
19807	20.137	1.	0.	34.469
19808	20.137	1.0909	5.e-002	4.193
19809	20.413	1.0909	0.	38.141
19810	20.321	1.	0.	36.028
19811	20.321	1.0909	5.e-002	4.182
19812	20.597	1.0909	0.	40.005
19813	20.505	1.	0.	37.693
19814	20.505	1.0909	5.e-002	4.1718
19815	20.781	1.0909	0.	42.005
19816	20.689	1.	0.	39.475
19817	20.689	1.0909	5.e-002	4.1624
19818	20.965	1.0909	0.	44.152
19819	20.873	1.	0.	41.384
19820	20.873	1.0909	5.e-002	4.154
19821	21.149	1.0909	0.	46.464
19822	21.057	1.	0.	43.433
19823	21.057	1.0909	5.e-002	4.1466
19824	21.333	1.0909	0.	48.956
19825	21.241	1.	0.	45.636
19826	21.241	1.0909	5.e-002	4.1405
19827	21.517	1.0909	0.	51.651
19828	21.425	1.	0.	48.011
19829	21.425	1.0909	5.e-002	4.1356
19830	21.701	1.0909	0.	54.572
19831	21.609	1.	0.	50.578
19832	21.609	1.0909	5.e-002	4.1322
19833	21.885	1.0909	0.	57.749
19834	21.793	1.	0.	53.362
19835	21.793	1.0909	5.e-002	4.1305
19836	22.069	1.0909	0.	61.221
19837	21.977	1.	0.	56.395
19838	21.977	1.0909	5.e-002	4.1309
19839	22.253	1.0909	0.	65.031
19840	22.161	1.	0.	59.715
19841	22.161	1.0909	5.e-002	4.1336
19842	22.437	1.0909	0.	69.237
19843	22.345	1.	0.	63.37
19844	22.345	1.0909	5.e-002	4.1393
19845	22.62	1.0909	0.	73.906
19846	22.528	1.	0.	67.424
19847	22.528	1.0909	5.e-002	4.1487
19848	22.804	1.0909	0.	79.123
19849	22.712	1.	0.	71.953
19850	22.712	1.0909	5.e-002	4.163
19851	22.988	1.0909	0.	84.987
19852	22.896	1.	0.	77.057
19853	22.896	1.0909	5.e-002	4.1837
19854	23.172	1.0909	0.	91.608
19855	23.08	1.	0.	82.854
19856	23.08	1.0909	5.e-002	4.213
19857	23.356	1.0909	0.	99.094
19858	23.264	1.	0.	89.486
19859	23.264	1.0909	5.e-002	4.2539
19860	23.54	1.0909	0.	107.56
19861	23.448	1.	0.	97.081
19862	23.448	1.0909	5.e-002	4.3097
19863	23.724	1.0909	0.	117.05
19864	23.632	1.	0.	105.82
19865	23.632	1.0909	5.e-002	4.3885
19866	23.816	1.	0.	115.68
19867	23.816	1.0909	5.e-002	4.5749
19868	23.908	1.0909	0.	126.34
19869	4.0426	0.90909	0.	992.12
19870	3.9506	0.81818	0.	1056.7
19871	3.9506	0.90909	5.e-002	95.905
19872	3.8586	0.90909	0.	976.14
19873	4.2265	0.90909	0.	662.09
19874	4.1345	0.81818	0.	672.06
19875	4.1345	0.90909	5.e-002	68.181
19876	4.4105	0.90909	0.	473.43
19877	4.3185	0.81818	0.	478.27
19878	4.3185	0.90909	5.e-002	57.769
19879	4.5944	0.90909	0.	348.22
19880	4.5024	0.81818	0.	357.7
19881	4.5024	0.90909	5.e-002	47.094
19882	4.7783	0.90909	0.	260.92
19883	4.6864	0.81818	0.	276.19
19884	4.6864	0.90909	5.e-002	37.5
19885	4.9623	0.90909	0.	197.13
19886	4.8703	0.81818	0.	216.9
19887	4.8703	0.90909	5.e-002	29.473
19888	5.1462	0.90909	0.	148.24
19889	5.0542	0.81818	0.	170.64
19890	5.0542	0.90909	5.e-002	22.996
19891	5.3302	0.90909	0.	109.34
19892	5.2382	0.81818	0.	132.71
19893	5.2382	0.90909	5.e-002	17.847
19894	5.5141	0.90909	0.	77.622
19895	5.4221	0.81818	0.	100.75
19896	5.4221	0.90909	5.e-002	13.791
19897	5.698	0.90909	0.	51.46
19898	5.6061	0.81818	0.	73.52
19899	5.6061	0.90909	5.e-002	10.636
19900	5.882	0.90909	0.	29.958
19901	5.79	0.81818	0.	50.344
19902	5.79	0.90909	5.e-002	8.2412
19903	6.0659	0.90909	0.	12.983
19904	5.9739	0.81818	0.	30.831
19905	5.9739	0.90909	5.e-002	6.5097
19906	6.2498	0.90909	0.	3.2275
19907	6.1579	0.81818	0.	14.874
19908	6.1579	0.90909	5.e-002	5.3668
19909	6.4338	0.90909	0.	1.0299
19910	6.3418	0.81818	0.	3.9309
19911	6.3418	0.90909	5.e-002	4.7282
19912	6.6177	0.90909	0.	0.50054
19913	6.5258	0.81818	0.	0.97505
19914	6.5258	0.90909	5.e-002	4.4737
19915	6.8017	0.90909	0.	0.2942
19916	6.7097	0.81818	0.	0.43379
19917	6.7097	0.90909	5.e-002	4.4624
19918	6.9856	0.90909	0.	0.19185
19919	6.8936	0.81818	0.	0.24853
19920	6.8936	0.90909	5.e-002	4.5742
19921	7.1695	0.90909	0.	0.13375
19922	7.0776	0.81818	0.	0.16161
19923	7.0776	0.90909	5.e-002	4.731
19924	7.3535	0.90909	0.	9.7771e-002
19925	7.2615	0.81818	0.	0.11357
19926	7.2615	0.90909	5.e-002	4.8907
19927	7.5374	0.90909	0.	7.4062e-002
19928	7.4455	0.81818	0.	8.4144e-002
19929	7.4455	0.90909	5.e-002	5.0335
19930	7.7214	0.90909	0.	5.7675e-002
19931	7.6294	0.81818	0.	6.4788e-002
19932	7.6294	0.90909	5.e-002	5.1523
19933	7.9053	0.90909	0.	4.5923e-002
19934	7.8133	0.81818	0.	5.1352e-002
19935	7.8133	0.90909	5.e-002	5.2459
19936	8.0892	0.90909	0.	3.7237e-002
19937	7.9973	0.81818	0.	4.1635e-002
19938	7.9973	0.90909	5.e-002	5.3162
19939	8.2732	0.90909	0.	3.0651e-002
19940	8.1812	0.81818	0.	3.4362e-002
19941	8.1812	0.90909	5.e-002	5.3663
19942	8.4571	0.90909	0.	2.5555e-002
19943	8.3652	0.81818	0.	2.8764e-002
19944	8.3652	0.90909	5.e-002	5.3993
19945	8.6411	0.90909	0.	2.1547e-002
19946	8.5491	0.81818	0.	2.4364e-002
19947	8.5491	0.90909	5.e-002	5.4182
19948	8.825	0.90909	0.	1.8345e-002
19949	8.733	0.81818	0.	2.0841e-002
19950	8.733	0.90909	5.e-002	5.4259
19951	9.0089	0.90909	0.	1.5756e-002
19952	8.917	0.81818	0.	1.7973e-002
19953	8.917	0.90909	5.e-002	5.4246
19954	9.1929	0.90909	0.	1.3642e-002
19955	9.1009	0.81818	0.	1.5608e-002
19956	9.1009	0.90909	5.e-002	5.4163
19957	9.3768	0.90909	0.	1.1906e-002
19958	9.2848	0.81818	0.	1.3643e-002
19959	9.2848	0.90909	5.e-002	5.4026
19960	9.5608	0.90909	0.	1.0469e-002
19961	9.4688	0.81818	0.	1.1997e-002
19962	9.4688	0.90909	5.e-002	5.3849
19963	9.7447	0.90909	0.	9.2797e-003
19964	9.6527	0.81818	0.	1.0606e-002
19965	9.6527	0.90909	5.e-002	5.3641
19966	9.9286	0.90909	0.	8.3039e-003
19967	9.8367	0.81818	0.	9.443e-003
19968	9.8367	0.90909	5.e-002	5.3411
19969	10.113	0.90909	0.	7.4858e-003
19970	10.021	0.81818	0.	8.4702e-003
19971	10.021	0.90909	5.e-002	5.3165
19972	10.297	0.90909	0.	6.8022e-003
19973	10.205	0.81818	0.	7.6227e-003
19974	10.205	0.90909	5.e-002	5.2909
19975	10.48	0.90909	0.	6.2575e-003
19976	10.388	0.81818	0.	6.9251e-003
19977	10.388	0.90909	5.e-002	5.2646
19978	10.664	0.90909	0.	5.8311e-003
19979	10.572	0.81818	0.	6.3683e-003
19980	10.572	0.90909	5.e-002	5.238
19981	10.848	0.90909	0.	5.5354e-003
19982	10.756	0.81818	0.	5.9296e-003
19983	10.756	0.90909	5.e-002	5.2111
19984	11.032	0.90909	0.	5.4084e-003
19985	10.94	0.81818	0.	5.6744e-003
19986	10.94	0.90909	5.e-002	5.1843
19987	11.216	0.90909	0.	5.4683e-003
19988	11.124	0.81818	0.	5.647e-003
19989	11.124	0.90909	5.e-002	5.1576
19990	11.4	0.90909	0.	5.781e-003
19991	11.308	0.81818	0.	5.9196e-003
19992	11.308	0.90909	5.e-002	5.1312
19993	11.584	0.90909	0.	6.5771e-003
19994	11.492	0.81818	0.	6.7851e-003
19995	11.492	0.90909	5.e-002	5.1051
19996	11.768	0.90909	0.	8.4858e-003
19997	11.676	0.81818	0.	9.3315e-003
19998	11.676	0.90909	5.e-002	5.0793
19999	11.952	0.90909	0.	1.4305e-002
20000	11.86	0.81818	0.	2.1292e-002
20001	11.86	0.90909	5.e-002	5.054
20002	12.136	0.90909	0.	8.5559e-002
20003	12.044	0.81818	0.	0.49004
20004	12.044	0.90909	5.e-002	5.029
20005	12.32	0.90909	0.	1.0438
20006	12.228	0.81818	0.	1.5569
20007	12.228	0.90909	5.e-002	5.0043
20008	12.504	0.90909	0.	2.1085
20009	12.412	0.81818	0.	2.5763
20010	12.412	0.90909	5.e-002	4.9799
20011	12.688	0.90909	0.	3.1157
20012	12.596	0.81818	0.	3.5385
20013	12.596	0.90909	5.e-002	4.9559
20014	12.872	0.90909	0.	4.0659
20015	12.78	0.81818	0.	4.4466
20016	12.78	0.90909	5.e-002	4.9322
20017	13.056	0.90909	0.	4.9628
20018	12.964	0.81818	0.	5.3042
20019	12.964	0.90909	5.e-002	4.9089
20020	13.24	0.90909	0.	5.8107
20021	13.148	0.81818	0.	6.1153
20022	13.148	0.90909	5.e-002	4.8858
20023	13.423	0.90909	0.	6.6135
20024	13.332	0.81818	0.	6.8836
20025	13.332	0.90909	5.e-002	4.8631
20026	13.607	0.90909	0.	7.3754
20027	13.515	0.81818	0.	7.6131
20028	13.515	0.90909	5.e-002	4.8406
20029	13.791	0.90909	0.	8.1003
20030	13.699	0.81818	0.	8.3071
20031	13.699	0.90909	5.e-002	4.8185
20032	13.975	0.90909	0.	8.7919
20033	13.883	0.81818	0.	8.9694
20034	13.883	0.90909	5.e-002	4.7966
20035	14.159	0.90909	0.	9.4537
20036	14.067	0.81818	0.	9.603
20037	14.067	0.90909	5.e-002	4.7751
20038	14.343	0.90909	0.	10.089
20039	14.251	0.81818	0.	10.211
20040	14.251	0.90909	5.e-002	4.7536
20041	14.527	0.90909	0.	10.702
20042	14.435	0.81818	0.	10.798
20043	14.435	0.90909	5.e-002	4.7324
20044	14.711	0.90909	0.	11.295
20045	14.619	0.81818	0.	11.364
20046	14.619	0.90909	5.e-002	4.7114
20047	14.895	0.90909	0.	11.871
20048	14.803	0.81818	0.	11.915
20049	14.803	0.90909	5.e-002	4.6906
20050	15.079	0.90909	0.	12.433
20051	14.987	0.81818	0.	12.452
20052	14.987	0.90909	5.e-002	4.67
20053	15.263	0.90909	0.	12.985
20054	15.171	0.81818	0.	12.977
20055	15.171	0.90909	5.e-002	4.6496
20056	15.447	0.90909	0.	13.528
20057	15.355	0.81818	0.	13.495
20058	15.355	0.90909	5.e-002	4.6294
20059	15.631	0.90909	0.	14.067
20060	15.539	0.81818	0.	14.006
20061	15.539	0.90909	5.e-002	4.6094
20062	15.815	0.90909	0.	14.602
20063	15.723	0.81818	0.	14.514
20064	15.723	0.90909	5.e-002	4.5895
20065	15.999	0.90909	0.	15.138
20066	15.907	0.81818	0.	15.021
20067	15.907	0.90909	5.e-002	4.5699
20068	16.183	0.90909	0.	15.677
20069	16.091	0.81818	0.	15.53
20070	16.091	0.90909	5.e-002	4.5505
20071	16.367	0.90909	0.	16.22
20072	16.275	0.81818	0.	16.042
20073	16.275	0.90909	5.e-002	4.5313
20074	16.55	0.90909	0.	16.772
20075	16.458	0.81818	0.	16.561
20076	16.458	0.90909	5.e-002	4.5122
20077	16.734	0.90909	0.	17.335
20078	16.642	0.81818	0.	17.088
20079	16.642	0.90909	5.e-002	4.4933
20080	16.918	0.90909	0.	17.91
20081	16.826	0.81818	0.	17.626
20082	16.826	0.90909	5.e-002	4.4746
20083	17.102	0.90909	0.	18.502
20084	17.01	0.81818	0.	18.178
20085	17.01	0.90909	5.e-002	4.4561
20086	17.286	0.90909	0.	19.113
20087	17.194	0.81818	0.	18.746
20088	17.194	0.90909	5.e-002	4.4379
20089	17.47	0.90909	0.	19.745
20090	17.378	0.81818	0.	19.332
20091	17.378	0.90909	5.e-002	4.4199
20092	17.654	0.90909	0.	20.402
20093	17.562	0.81818	0.	19.939
20094	17.562	0.90909	5.e-002	4.4021
20095	17.838	0.90909	0.	21.086
20096	17.746	0.81818	0.	20.57
20097	17.746	0.90909	5.e-002	4.3846
20098	18.022	0.90909	0.	21.801
20099	17.93	0.81818	0.	21.227
20100	17.93	0.90909	5.e-002	4.3674
20101	18.206	0.90909	0.	22.551
20102	18.114	0.81818	0.	21.913
20103	18.114	0.90909	5.e-002	4.3504
20104	18.39	0.90909	0.	23.337
20105	18.298	0.81818	0.	22.632
20106	18.298	0.90909	5.e-002	4.3338
20107	18.574	0.90909	0.	24.164
20108	18.482	0.81818	0.	23.385
20109	18.482	0.90909	5.e-002	4.3175
20110	18.758	0.90909	0.	25.036
20111	18.666	0.81818	0.	24.177
20112	18.666	0.90909	5.e-002	4.3015
20113	18.942	0.90909	0.	25.957
20114	18.85	0.81818	0.	25.011
20115	18.85	0.90909	5.e-002	4.2859
20116	19.126	0.90909	0.	26.93
20117	19.034	0.81818	0.	25.89
20118	19.034	0.90909	5.e-002	4.2707
20119	19.31	0.90909	0.	27.961
20120	19.218	0.81818	0.	26.818
20121	19.218	0.90909	5.e-002	4.2559
20122	19.493	0.90909	0.	29.053
20123	19.402	0.81818	0.	27.798
20124	19.402	0.90909	5.e-002	4.2416
20125	19.677	0.90909	0.	30.212
20126	19.585	0.81818	0.	28.836
20127	19.585	0.90909	5.e-002	4.2278
20128	19.861	0.90909	0.	31.443
20129	19.769	0.81818	0.	29.935
20130	19.769	0.90909	5.e-002	4.2146
20131	20.045	0.90909	0.	32.752
20132	19.953	0.81818	0.	31.1
20133	19.953	0.90909	5.e-002	4.2019
20134	20.229	0.90909	0.	34.145
20135	20.137	0.81818	0.	32.336
20136	20.137	0.90909	5.e-002	4.1899
20137	20.413	0.90909	0.	35.631
20138	20.321	0.81818	0.	33.649
20139	20.321	0.90909	5.e-002	4.1786
20140	20.597	0.90909	0.	37.215
20141	20.505	0.81818	0.	35.046
20142	20.505	0.90909	5.e-002	4.168
20143	20.781	0.90909	0.	38.908
20144	20.689	0.81818	0.	36.533
20145	20.689	0.90909	5.e-002	4.1582
20146	20.965	0.90909	0.	40.72
20147	20.873	0.81818	0.	38.118
20148	20.873	0.90909	5.e-002	4.1492
20149	21.149	0.90909	0.	42.663
20150	21.057	0.81818	0.	39.811
20151	21.057	0.90909	5.e-002	4.1412
20152	21.333	0.90909	0.	44.75
20153	21.241	0.81818	0.	41.623
20154	21.241	0.90909	5.e-002	4.1343
20155	21.517	0.90909	0.	47.
20156	21.425	0.81818	0.	43.568
20157	21.425	0.90909	5.e-002	4.1285
20158	21.701	0.90909	0.	49.432
20159	21.609	0.81818	0.	45.66
20160	21.609	0.90909	5.e-002	4.1241
20161	21.885	0.90909	0.	52.073
20162	21.793	0.81818	0.	47.92
20163	21.793	0.90909	5.e-002	4.1211
20164	22.069	0.90909	0.	54.956
20165	21.977	0.81818	0.	50.374
20166	21.977	0.90909	5.e-002	4.1199
20167	22.253	0.90909	0.	58.122
20168	22.161	0.81818	0.	53.055
20169	22.161	0.90909	5.e-002	4.1208
20170	22.437	0.90909	0.	61.627
20171	22.345	0.81818	0.	56.005
20172	22.345	0.90909	5.e-002	4.1242
20173	22.62	0.90909	0.	65.539
20174	22.528	0.81818	0.	59.283
20175	22.528	0.90909	5.e-002	4.131
20176	22.804	0.90909	0.	69.952
20177	22.712	0.81818	0.	62.966
20178	22.712	0.90909	5.e-002	4.1421
20179	22.988	0.90909	0.	74.985
20180	22.896	0.81818	0.	67.158
20181	22.896	0.90909	5.e-002	4.1594
20182	23.172	0.90909	0.	80.784
20183	23.08	0.81818	0.	72.001
20184	23.08	0.90909	5.e-002	4.1853
20185	23.356	0.90909	0.	87.515
20186	23.264	0.81818	0.	77.68
20187	23.264	0.90909	5.e-002	4.2239
20188	23.54	0.90909	0.	95.371
20189	23.448	0.81818	0.	84.406
20190	23.448	0.90909	5.e-002	4.2805
20191	23.724	0.90909	0.	104.47
20192	23.632	0.81818	0.	92.473
20193	23.632	0.90909	5.e-002	4.367
20194	23.816	0.81818	0.	101.99
20195	23.816	0.90909	5.e-002	4.5838
20196	23.908	0.90909	0.	113.48
20197	4.0426	0.72727	0.	689.56
20198	3.9506	0.63636	0.	724.66
20199	3.9506	0.72727	5.e-002	82.192
20200	3.8586	0.72727	0.	686.56
20201	4.2265	0.72727	0.	455.06
20202	4.1345	0.63636	0.	439.18
20203	4.1345	0.72727	5.e-002	62.151
20204	4.4105	0.72727	0.	341.8
20205	4.3185	0.63636	0.	323.07
20206	4.3185	0.72727	5.e-002	54.818
20207	4.5944	0.72727	0.	273.38
20208	4.5024	0.63636	0.	262.53
20209	4.5024	0.72727	5.e-002	46.417
20210	4.7783	0.72727	0.	225.02
20211	4.6864	0.63636	0.	222.8
20212	4.6864	0.72727	5.e-002	38.101
20213	4.9623	0.72727	0.	186.26
20214	4.8703	0.63636	0.	190.91
20215	4.8703	0.72727	5.e-002	30.552
20216	5.1462	0.72727	0.	152.7
20217	5.0542	0.63636	0.	162.02
20218	5.0542	0.72727	5.e-002	24.055
20219	5.3302	0.72727	0.	122.75
20220	5.2382	0.63636	0.	134.88
20221	5.2382	0.72727	5.e-002	18.631
20222	5.5141	0.72727	0.	95.911
20223	5.4221	0.63636	0.	109.46
20224	5.4221	0.72727	5.e-002	14.195
20225	5.698	0.72727	0.	72.074
20226	5.6061	0.63636	0.	86.082
20227	5.6061	0.72727	5.e-002	10.629
20228	5.882	0.72727	0.	51.218
20229	5.79	0.63636	0.	65.061
20230	5.79	0.72727	5.e-002	7.8271
20231	6.0659	0.72727	0.	33.303
20232	5.9739	0.63636	0.	46.574
20233	5.9739	0.72727	5.e-002	5.7178
20234	6.2498	0.72727	0.	18.288
20235	6.1579	0.63636	0.	30.674
20236	6.1579	0.72727	5.e-002	4.2739
20237	6.4338	0.72727	0.	6.5044
20238	6.3418	0.63636	0.	17.332
20239	6.3418	0.72727	5.e-002	3.4928
20240	6.6177	0.72727	0.	1.1901
20241	6.5258	0.63636	0.	6.6651
20242	6.5258	0.72727	5.e-002	3.2944
20243	6.8017	0.72727	0.	0.4225
20244	6.7097	0.63636	0.	1.0938
20245	6.7097	0.72727	5.e-002	3.4616
20246	6.9856	0.72727	0.	0.22638
20247	6.8936	0.63636	0.	0.34556
20248	6.8936	0.72727	5.e-002	3.7743
20249	7.1695	0.72727	0.	0.14437
20250	7.0776	0.63636	0.	0.18328
20251	7.0776	0.72727	5.e-002	4.1069
20252	7.3535	0.72727	0.	0.10143
20253	7.2615	0.63636	0.	0.11827
20254	7.2615	0.72727	5.e-002	4.4072
20255	7.5374	0.72727	0.	7.5835e-002
20256	7.4455	0.63636	0.	8.4524e-002
20257	7.4455	0.72727	5.e-002	4.6591
20258	7.7214	0.72727	0.	5.9183e-002
20259	7.6294	0.63636	0.	6.4286e-002
20260	7.6294	0.72727	5.e-002	4.8618
20261	7.9053	0.72727	0.	4.7643e-002
20262	7.8133	0.63636	0.	5.095e-002
20263	7.8133	0.72727	5.e-002	5.0198
20264	8.0892	0.72727	0.	3.9248e-002
20265	7.9973	0.63636	0.	4.1559e-002
20266	7.9973	0.72727	5.e-002	5.1396
20267	8.2732	0.72727	0.	3.2896e-002
20268	8.1812	0.63636	0.	3.46e-002
20269	8.1812	0.72727	5.e-002	5.2278
20270	8.4571	0.72727	0.	2.7942e-002
20271	8.3652	0.63636	0.	2.9238e-002
20272	8.3652	0.72727	5.e-002	5.2901
20273	8.6411	0.72727	0.	2.3983e-002
20274	8.5491	0.63636	0.	2.4986e-002
20275	8.5491	0.72727	5.e-002	5.3318
20276	8.825	0.72727	0.	2.0755e-002
20277	8.733	0.63636	0.	2.1534e-002
20278	8.733	0.72727	5.e-002	5.3571
20279	9.0089	0.72727	0.	1.8078e-002
20280	8.917	0.63636	0.	1.8674e-002
20281	8.917	0.72727	5.e-002	5.3696
20282	9.1929	0.72727	0.	1.583e-002
20283	9.1009	0.63636	0.	1.627e-002
20284	9.1009	0.72727	5.e-002	5.372
20285	9.3768	0.72727	0.	1.3925e-002
20286	9.2848	0.63636	0.	1.423e-002
20287	9.2848	0.72727	5.e-002	5.3666
20288	9.5608	0.72727	0.	1.2298e-002
20289	9.4688	0.63636	0.	1.2482e-002
20290	9.4688	0.72727	5.e-002	5.3554
20291	9.7447	0.72727	0.	1.0905e-002
20292	9.6527	0.63636	0.	1.097e-002
20293	9.6527	0.72727	5.e-002	5.3398
20294	9.9286	0.72727	0.	9.717e-003
20295	9.8367	0.63636	0.	9.6743e-003
20296	9.8367	0.72727	5.e-002	5.3208
20297	10.113	0.72727	0.	8.6877e-003
20298	10.021	0.63636	0.	8.5611e-003
20299	10.021	0.72727	5.e-002	5.2995
20300	10.297	0.72727	0.	7.7986e-003
20301	10.205	0.63636	0.	7.5718e-003
20302	10.205	0.72727	5.e-002	5.2764
20303	10.48	0.72727	0.	7.0606e-003
20304	10.388	0.63636	0.	6.7348e-003
20305	10.388	0.72727	5.e-002	5.2521
20306	10.664	0.72727	0.	6.4628e-003
20307	10.572	0.63636	0.	6.0507e-003
20308	10.572	0.72727	5.e-002	5.2271
20309	10.848	0.72727	0.	6.0369e-003
20310	10.756	0.63636	0.	5.5159e-003
20311	10.756	0.72727	5.e-002	5.2016
20312	11.032	0.72727	0.	5.8613e-003
20313	10.94	0.63636	0.	5.2467e-003
20314	10.94	0.72727	5.e-002	5.1758
20315	11.216	0.72727	0.	6.0621e-003
20316	11.124	0.63636	0.	5.4586e-003
20317	11.124	0.72727	5.e-002	5.15
20318	11.4	0.72727	0.	7.0806e-003
20319	11.308	0.63636	0.	7.097e-003
20320	11.308	0.72727	5.e-002	5.1243
20321	11.584	0.72727	0.	1.128e-002
20322	11.492	0.63636	0.	3.0346e-002
20323	11.492	0.72727	5.e-002	5.0988
20324	11.768	0.72727	0.	0.11655
20325	11.676	0.63636	0.	0.89434
20326	11.676	0.72727	5.e-002	5.0735
20327	11.952	0.72727	0.	1.1257
20328	11.86	0.63636	0.	1.9059
20329	11.86	0.72727	5.e-002	5.0486
20330	12.136	0.72727	0.	2.1489
20331	12.044	0.63636	0.	2.8637
20332	12.044	0.72727	5.e-002	5.024
20333	12.32	0.72727	0.	3.1165
20334	12.228	0.63636	0.	3.769
20335	12.228	0.72727	5.e-002	4.9996
20336	12.504	0.72727	0.	4.03
20337	12.412	0.63636	0.	4.6246
20338	12.412	0.72727	5.e-002	4.9756
20339	12.688	0.72727	0.	4.8928
20340	12.596	0.63636	0.	5.4338
20341	12.596	0.72727	5.e-002	4.9518
20342	12.872	0.72727	0.	5.7085
20343	12.78	0.63636	0.	6.1996
20344	12.78	0.72727	5.e-002	4.9284
20345	13.056	0.72727	0.	6.4806
20346	12.964	0.63636	0.	6.9253
20347	12.964	0.72727	5.e-002	4.9052
20348	13.24	0.72727	0.	7.2126
20349	13.148	0.63636	0.	7.6142
20350	13.148	0.72727	5.e-002	4.8823
20351	13.423	0.72727	0.	7.9079
20352	13.332	0.63636	0.	8.2691
20353	13.332	0.72727	5.e-002	4.8598
20354	13.607	0.72727	0.	8.5699
20355	13.515	0.63636	0.	8.8933
20356	13.515	0.72727	5.e-002	4.8375
20357	13.791	0.72727	0.	9.2018
20358	13.699	0.63636	0.	9.4894
20359	13.699	0.72727	5.e-002	4.8154
20360	13.975	0.72727	0.	9.8066
20361	13.883	0.63636	0.	10.06
20362	13.883	0.72727	5.e-002	4.7937
20363	14.159	0.72727	0.	10.387
20364	14.067	0.63636	0.	10.609
20365	14.067	0.72727	5.e-002	4.7722
20366	14.343	0.72727	0.	10.947
20367	14.251	0.63636	0.	11.137
20368	14.251	0.72727	5.e-002	4.7509
20369	14.527	0.72727	0.	11.487
20370	14.435	0.63636	0.	11.649
20371	14.435	0.72727	5.e-002	4.7298
20372	14.711	0.72727	0.	12.012
20373	14.619	0.63636	0.	12.145
20374	14.619	0.72727	5.e-002	4.7088
20375	14.895	0.72727	0.	12.524
20376	14.803	0.63636	0.	12.628
20377	14.803	0.72727	5.e-002	4.6881
20378	15.079	0.72727	0.	13.024
20379	14.987	0.63636	0.	13.101
20380	14.987	0.72727	5.e-002	4.6675
20381	15.263	0.72727	0.	13.516
20382	15.171	0.63636	0.	13.565
20383	15.171	0.72727	5.e-002	4.6472
20384	15.447	0.72727	0.	14.002
20385	15.355	0.63636	0.	14.023
20386	15.355	0.72727	5.e-002	4.627
20387	15.631	0.72727	0.	14.484
20388	15.539	0.63636	0.	14.477
20389	15.539	0.72727	5.e-002	4.607
20390	15.815	0.72727	0.	14.964
20391	15.723	0.63636	0.	14.929
20392	15.723	0.72727	5.e-002	4.5873
20393	15.999	0.72727	0.	15.444
20394	15.907	0.63636	0.	15.38
20395	15.907	0.72727	5.e-002	4.5677
20396	16.183	0.72727	0.	15.927
20397	16.091	0.63636	0.	15.833
20398	16.091	0.72727	5.e-002	4.5483
20399	16.367	0.72727	0.	16.415
20400	16.275	0.63636	0.	16.289
20401	16.275	0.72727	5.e-002	4.529
20402	16.55	0.72727	0.	16.909
20403	16.458	0.63636	0.	16.751
20404	16.458	0.72727	5.e-002	4.51
20405	16.734	0.72727	0.	17.413
20406	16.642	0.63636	0.	17.22
20407	16.642	0.72727	5.e-002	4.4911
20408	16.918	0.72727	0.	17.928
20409	16.826	0.63636	0.	17.699
20410	16.826	0.72727	5.e-002	4.4724
20411	17.102	0.72727	0.	18.456
20412	17.01	0.63636	0.	18.188
20413	17.01	0.72727	5.e-002	4.4539
20414	17.286	0.72727	0.	19.
20415	17.194	0.63636	0.	18.691
20416	17.194	0.72727	5.e-002	4.4356
20417	17.47	0.72727	0.	19.561
20418	17.378	0.63636	0.	19.208
20419	17.378	0.72727	5.e-002	4.4175
20420	17.654	0.72727	0.	20.143
20421	17.562	0.63636	0.	19.742
20422	17.562	0.72727	5.e-002	4.3997
20423	17.838	0.72727	0.	20.747
20424	17.746	0.63636	0.	20.296
20425	17.746	0.72727	5.e-002	4.3822
20426	18.022	0.72727	0.	21.376
20427	17.93	0.63636	0.	20.87
20428	17.93	0.72727	5.e-002	4.3649
20429	18.206	0.72727	0.	22.033
20430	18.114	0.63636	0.	21.467
20431	18.114	0.72727	5.e-002	4.3479
20432	18.39	0.72727	0.	22.719
20433	18.298	0.63636	0.	22.09
20434	18.298	0.72727	5.e-002	4.3312
20435	18.574	0.72727	0.	23.438
20436	18.482	0.63636	0.	22.74
20437	18.482	0.72727	5.e-002	4.3148
20438	18.758	0.72727	0.	24.193
20439	18.666	0.63636	0.	23.419
20440	18.666	0.72727	5.e-002	4.2987
20441	18.942	0.72727	0.	24.986
20442	18.85	0.63636	0.	24.131
20443	18.85	0.72727	5.e-002	4.283
20444	19.126	0.72727	0.	25.821
20445	19.034	0.63636	0.	24.878
20446	19.034	0.72727	5.e-002	4.2677
20447	19.31	0.72727	0.	26.7
20448	19.218	0.63636	0.	25.661
20449	19.218	0.72727	5.e-002	4.2528
20450	19.493	0.72727	0.	27.627
20451	19.402	0.63636	0.	26.484
20452	19.402	0.72727	5.e-002	4.2383
20453	19.677	0.72727	0.	28.606
20454	19.585	0.63636	0.	27.35
20455	19.585	0.72727	5.e-002	4.2243
20456	19.861	0.72727	0.	29.64
20457	19.769	0.63636	0.	28.262
20458	19.769	0.72727	5.e-002	4.2109
20459	20.045	0.72727	0.	30.733
20460	19.953	0.63636	0.	29.222
20461	19.953	0.72727	5.e-002	4.198
20462	20.229	0.72727	0.	31.891
20463	20.137	0.63636	0.	30.234
20464	20.137	0.72727	5.e-002	4.1857
20465	20.413	0.72727	0.	33.118
20466	20.321	0.63636	0.	31.301
20467	20.321	0.72727	5.e-002	4.174
20468	20.597	0.72727	0.	34.419
20469	20.505	0.63636	0.	32.428
20470	20.505	0.72727	5.e-002	4.1631
20471	20.781	0.72727	0.	35.8
20472	20.689	0.63636	0.	33.619
20473	20.689	0.72727	5.e-002	4.1528
20474	20.965	0.72727	0.	37.269
20475	20.873	0.63636	0.	34.879
20476	20.873	0.72727	5.e-002	4.1433
20477	21.149	0.72727	0.	38.835
20478	21.057	0.63636	0.	36.214
20479	21.057	0.72727	5.e-002	4.1347
20480	21.333	0.72727	0.	40.506
20481	21.241	0.63636	0.	37.631
20482	21.241	0.72727	5.e-002	4.1271
20483	21.517	0.72727	0.	42.296
20484	21.425	0.63636	0.	39.138
20485	21.425	0.72727	5.e-002	4.1204
20486	21.701	0.72727	0.	44.22
20487	21.609	0.63636	0.	40.746
20488	21.609	0.72727	5.e-002	4.1149
20489	21.885	0.72727	0.	46.297
20490	21.793	0.63636	0.	42.469
20491	21.793	0.72727	5.e-002	4.1107
20492	22.069	0.72727	0.	48.553
20493	21.977	0.63636	0.	44.322
20494	21.977	0.72727	5.e-002	4.1079
20495	22.253	0.72727	0.	51.022
20496	22.161	0.63636	0.	46.332
20497	22.161	0.72727	5.e-002	4.1069
20498	22.437	0.72727	0.	53.749
20499	22.345	0.63636	0.	48.528
20500	22.345	0.72727	5.e-002	4.1079
20501	22.62	0.72727	0.	56.8
20502	22.528	0.63636	0.	50.957
20503	22.528	0.72727	5.e-002	4.1117
20504	22.804	0.72727	0.	60.262
20505	22.712	0.63636	0.	53.683
20506	22.712	0.72727	5.e-002	4.1192
20507	22.988	0.72727	0.	64.261
20508	22.896	0.63636	0.	56.801
20509	22.896	0.72727	5.e-002	4.132
20510	23.172	0.72727	0.	68.976
20511	23.08	0.63636	0.	60.451
20512	23.08	0.72727	5.e-002	4.1529
20513	23.356	0.72727	0.	74.638
20514	23.264	0.63636	0.	64.847
20515	23.264	0.72727	5.e-002	4.1868
20516	23.54	0.72727	0.	81.558
20517	23.448	0.63636	0.	70.286
20518	23.448	0.72727	5.e-002	4.2416
20519	23.724	0.72727	0.	90.027
20520	23.632	0.63636	0.	77.243
20521	23.632	0.72727	5.e-002	4.3358
20522	23.816	0.63636	0.	86.116
20523	23.816	0.72727	5.e-002	4.5881
20524	23.908	0.72727	0.	98.588
20525	4.0426	0.54545	0.	429.01
20526	3.9506	0.45455	0.	441.72
20527	3.9506	0.54545	5.e-002	73.024
20528	3.8586	0.54545	0.	438.3
20529	4.2265	0.54545	0.	279.67
20530	4.1345	0.45455	0.	251.17
20531	4.1345	0.54545	5.e-002	58.712
20532	4.4105	0.54545	0.	228.61
20533	4.3185	0.45455	0.	200.76
20534	4.3185	0.54545	5.e-002	52.97
20535	4.5944	0.54545	0.	203.42
20536	4.5024	0.45455	0.	183.32
20537	4.5024	0.54545	5.e-002	45.885
20538	4.7783	0.54545	0.	183.73
20539	4.6864	0.45455	0.	171.08
20540	4.6864	0.54545	5.e-002	38.466
20541	4.9623	0.54545	0.	163.72
20542	4.8703	0.45455	0.	157.06
20543	4.8703	0.54545	5.e-002	31.376
20544	5.1462	0.54545	0.	142.43
20545	5.0542	0.45455	0.	140.22
20546	5.0542	0.54545	5.e-002	24.999
20547	5.3302	0.54545	0.	120.52
20548	5.2382	0.45455	0.	121.51
20549	5.2382	0.54545	5.e-002	19.477
20550	5.5141	0.54545	0.	99.007
20551	5.4221	0.45455	0.	102.21
20552	5.4221	0.54545	5.e-002	14.818
20553	5.698	0.54545	0.	78.724
20554	5.6061	0.45455	0.	83.432
20555	5.6061	0.54545	5.e-002	10.964
20556	5.882	0.54545	0.	60.249
20557	5.79	0.45455	0.	65.94
20558	5.79	0.54545	5.e-002	7.8359
20559	6.0659	0.54545	0.	43.899
20560	5.9739	0.45455	0.	50.2
20561	5.9739	0.54545	5.e-002	5.3612
20562	6.2498	0.54545	0.	29.793
20563	6.1579	0.45455	0.	36.427
20564	6.1579	0.54545	5.e-002	3.5138
20565	6.4338	0.54545	0.	17.92
20566	6.3418	0.45455	0.	24.668
20567	6.3418	0.54545	5.e-002	2.3788
20568	6.6177	0.54545	0.	8.2438
20569	6.5258	0.45455	0.	14.861
20570	6.5258	0.54545	5.e-002	2.1144
20571	6.8017	0.54545	0.	1.6119
20572	6.7097	0.45455	0.	6.9216
20573	6.7097	0.54545	5.e-002	2.4822
20574	6.9856	0.54545	0.	0.338
20575	6.8936	0.45455	0.	1.3491
20576	6.8936	0.54545	5.e-002	3.025
20577	7.1695	0.54545	0.	0.16428
20578	7.0776	0.45455	0.	0.25466
20579	7.0776	0.54545	5.e-002	3.5392
20580	7.3535	0.54545	0.	0.10435
20581	7.2615	0.45455	0.	0.1292
20582	7.2615	0.54545	5.e-002	3.9739
20583	7.5374	0.54545	0.	7.4849e-002
20584	7.4455	0.45455	0.	8.8714e-002
20585	7.4455	0.54545	5.e-002	4.3249
20586	7.7214	0.54545	0.	5.7472e-002
20587	7.6294	0.45455	0.	6.9461e-002
20588	7.6294	0.54545	5.e-002	4.6012
20589	7.9053	0.54545	0.	4.6042e-002
20590	7.8133	0.45455	0.	5.8202e-002
20591	7.8133	0.54545	5.e-002	4.8145
20592	8.0892	0.54545	0.	3.7933e-002
20593	7.9973	0.45455	0.	5.0633e-002
20594	7.9973	0.54545	5.e-002	4.9762
20595	8.2732	0.54545	0.	3.1854e-002
20596	8.1812	0.45455	0.	4.4983e-002
20597	8.1812	0.54545	5.e-002	5.0963
20598	8.4571	0.54545	0.	2.7108e-002
20599	8.3652	0.45455	0.	4.0433e-002
20600	8.3652	0.54545	5.e-002	5.1832
20601	8.6411	0.54545	0.	2.3289e-002
20602	8.5491	0.45455	0.	3.6572e-002
20603	8.5491	0.54545	5.e-002	5.2437
20604	8.825	0.54545	0.	2.0142e-002
20605	8.733	0.45455	0.	3.3178e-002
20606	8.733	0.54545	5.e-002	5.2835
20607	9.0089	0.54545	0.	1.7498e-002
20608	8.917	0.45455	0.	3.0119e-002
20609	8.917	0.54545	5.e-002	5.3071
20610	9.1929	0.54545	0.	1.5246e-002
20611	9.1009	0.45455	0.	2.7322e-002
20612	9.1009	0.54545	5.e-002	5.3181
20613	9.3768	0.54545	0.	1.3309e-002
20614	9.2848	0.45455	0.	2.4745e-002
20615	9.2848	0.54545	5.e-002	5.3195
20616	9.5608	0.54545	0.	1.1625e-002
20617	9.4688	0.45455	0.	2.2361e-002
20618	9.4688	0.54545	5.e-002	5.3134
20619	9.7447	0.54545	0.	1.0157e-002
20620	9.6527	0.45455	0.	2.014e-002
20621	9.6527	0.54545	5.e-002	5.3019
20622	9.9286	0.54545	0.	8.8809e-003
20623	9.8367	0.45455	0.	1.8088e-002
20624	9.8367	0.54545	5.e-002	5.286
20625	10.113	0.54545	0.	7.7492e-003
20626	10.021	0.45455	0.	1.6186e-002
20627	10.021	0.54545	5.e-002	5.2671
20628	10.297	0.54545	0.	6.7465e-003
20629	10.205	0.45455	0.	1.4384e-002
20630	10.205	0.54545	5.e-002	5.246
20631	10.48	0.54545	0.	5.8861e-003
20632	10.388	0.45455	0.	1.2715e-002
20633	10.388	0.54545	5.e-002	5.2233
20634	10.664	0.54545	0.	5.1691e-003
20635	10.572	0.45455	0.	1.1169e-002
20636	10.572	0.54545	5.e-002	5.1995
20637	10.848	0.54545	0.	4.6747e-003
20638	10.756	0.45455	0.	9.7277e-003
20639	10.756	0.54545	5.e-002	5.175
20640	11.032	0.54545	0.	4.7707e-003
20641	10.94	0.45455	0.	0.18795
20642	10.94	0.54545	5.e-002	5.15
20643	11.216	0.54545	0.	1.3607e-002
20644	11.124	0.45455	0.	1.1682
20645	11.124	0.54545	5.e-002	5.1249
20646	11.4	0.54545	0.	0.86668
20647	11.308	0.45455	0.	2.1024
20648	11.308	0.54545	5.e-002	5.0998
20649	11.584	0.54545	0.	1.8515
20650	11.492	0.45455	0.	2.991
20651	11.492	0.54545	5.e-002	5.0747
20652	11.768	0.54545	0.	2.7854
20653	11.676	0.45455	0.	3.8353
20654	11.676	0.54545	5.e-002	5.0499
20655	11.952	0.54545	0.	3.67
20656	11.86	0.45455	0.	4.6369
20657	11.86	0.54545	5.e-002	5.0253
20658	12.136	0.54545	0.	4.5074
20659	12.044	0.45455	0.	5.3976
20660	12.044	0.54545	5.e-002	5.001
20661	12.32	0.54545	0.	5.3005
20662	12.228	0.45455	0.	6.1197
20663	12.228	0.54545	5.e-002	4.9769
20664	12.504	0.54545	0.	6.0518
20665	12.412	0.45455	0.	6.8054
20666	12.412	0.54545	5.e-002	4.9531
20667	12.688	0.54545	0.	6.7642
20668	12.596	0.45455	0.	7.457
20669	12.596	0.54545	5.e-002	4.9295
20670	12.872	0.54545	0.	7.4404
20671	12.78	0.45455	0.	8.0769
20672	12.78	0.54545	5.e-002	4.9063
20673	13.056	0.54545	0.	8.0833
20674	12.964	0.45455	0.	8.6675
20675	12.964	0.54545	5.e-002	4.8833
20676	13.24	0.54545	0.	8.6955
20677	13.148	0.45455	0.	9.2311
20678	13.148	0.54545	5.e-002	4.8606
20679	13.423	0.54545	0.	9.2797
20680	13.332	0.45455	0.	9.7699
20681	13.332	0.54545	5.e-002	4.8382
20682	13.607	0.54545	0.	9.8384
20683	13.515	0.45455	0.	10.286
20684	13.515	0.54545	5.e-002	4.8161
20685	13.791	0.54545	0.	10.374
20686	13.699	0.45455	0.	10.782
20687	13.699	0.54545	5.e-002	4.7942
20688	13.975	0.54545	0.	10.889
20689	13.883	0.45455	0.	11.26
20690	13.883	0.54545	5.e-002	4.7726
20691	14.159	0.54545	0.	11.386
20692	14.067	0.45455	0.	11.721
20693	14.067	0.54545	5.e-002	4.7513
20694	14.343	0.54545	0.	11.867
20695	14.251	0.45455	0.	12.169
20696	14.251	0.54545	5.e-002	4.7301
20697	14.527	0.54545	0.	12.333
20698	14.435	0.45455	0.	12.603
20699	14.435	0.54545	5.e-002	4.7091
20700	14.711	0.54545	0.	12.788
20701	14.619	0.45455	0.	13.027
20702	14.619	0.54545	5.e-002	4.6883
20703	14.895	0.54545	0.	13.233
20704	14.803	0.45455	0.	13.443
20705	14.803	0.54545	5.e-002	4.6677
20706	15.079	0.54545	0.	13.67
20707	14.987	0.45455	0.	13.851
20708	14.987	0.54545	5.e-002	4.6473
20709	15.263	0.54545	0.	14.101
20710	15.171	0.45455	0.	14.253
20711	15.171	0.54545	5.e-002	4.627
20712	15.447	0.54545	0.	14.528
20713	15.355	0.45455	0.	14.652
20714	15.355	0.54545	5.e-002	4.607
20715	15.631	0.54545	0.	14.952
20716	15.539	0.45455	0.	15.048
20717	15.539	0.54545	5.e-002	4.5871
20718	15.815	0.54545	0.	15.376
20719	15.723	0.45455	0.	15.443
20720	15.723	0.54545	5.e-002	4.5674
20721	15.999	0.54545	0.	15.8
20722	15.907	0.45455	0.	15.838
20723	15.907	0.54545	5.e-002	4.548
20724	16.183	0.54545	0.	16.227
20725	16.091	0.45455	0.	16.236
20726	16.091	0.54545	5.e-002	4.5287
20727	16.367	0.54545	0.	16.658
20728	16.275	0.45455	0.	16.637
20729	16.275	0.54545	5.e-002	4.5095
20730	16.55	0.54545	0.	17.095
20731	16.458	0.45455	0.	17.042
20732	16.458	0.54545	5.e-002	4.4905
20733	16.734	0.54545	0.	17.539
20734	16.642	0.45455	0.	17.454
20735	16.642	0.54545	5.e-002	4.4718
20736	16.918	0.54545	0.	17.993
20737	16.826	0.45455	0.	17.873
20738	16.826	0.54545	5.e-002	4.4531
20739	17.102	0.54545	0.	18.457
20740	17.01	0.45455	0.	18.302
20741	17.01	0.54545	5.e-002	4.4347
20742	17.286	0.54545	0.	18.934
20743	17.194	0.45455	0.	18.74
20744	17.194	0.54545	5.e-002	4.4165
20745	17.47	0.54545	0.	19.425
20746	17.378	0.45455	0.	19.19
20747	17.378	0.54545	5.e-002	4.3986
20748	17.654	0.54545	0.	19.931
20749	17.562	0.45455	0.	19.653
20750	17.562	0.54545	5.e-002	4.3808
20751	17.838	0.54545	0.	20.456
20752	17.746	0.45455	0.	20.13
20753	17.746	0.54545	5.e-002	4.3633
20754	18.022	0.54545	0.	20.999
20755	17.93	0.45455	0.	20.623
20756	17.93	0.54545	5.e-002	4.3461
20757	18.206	0.54545	0.	21.563
20758	18.114	0.45455	0.	21.133
20759	18.114	0.54545	5.e-002	4.3292
20760	18.39	0.54545	0.	22.15
20761	18.298	0.45455	0.	21.661
20762	18.298	0.54545	5.e-002	4.3126
20763	18.574	0.54545	0.	22.761
20764	18.482	0.45455	0.	22.21
20765	18.482	0.54545	5.e-002	4.2962
20766	18.758	0.54545	0.	23.399
20767	18.666	0.45455	0.	22.779
20768	18.666	0.54545	5.e-002	4.2802
20769	18.942	0.54545	0.	24.066
20770	18.85	0.45455	0.	23.372
20771	18.85	0.54545	5.e-002	4.2645
20772	19.126	0.54545	0.	24.762
20773	19.034	0.45455	0.	23.988
20774	19.034	0.54545	5.e-002	4.2492
20775	19.31	0.54545	0.	25.491
20776	19.218	0.45455	0.	24.631
20777	19.218	0.54545	5.e-002	4.2344
20778	19.493	0.54545	0.	26.255
20779	19.402	0.45455	0.	25.3
20780	19.402	0.54545	5.e-002	4.22
20781	19.677	0.54545	0.	27.055
20782	19.585	0.45455	0.	25.998
20783	19.585	0.54545	5.e-002	4.206
20784	19.861	0.54545	0.	27.894
20785	19.769	0.45455	0.	26.725
20786	19.769	0.54545	5.e-002	4.1926
20787	20.045	0.54545	0.	28.774
20788	19.953	0.45455	0.	27.485
20789	19.953	0.54545	5.e-002	4.1797
20790	20.229	0.54545	0.	29.698
20791	20.137	0.45455	0.	28.277
20792	20.137	0.54545	5.e-002	4.1673
20793	20.413	0.54545	0.	30.668
20794	20.321	0.45455	0.	29.104
20795	20.321	0.54545	5.e-002	4.1556
20796	20.597	0.54545	0.	31.688
20797	20.505	0.45455	0.	29.967
20798	20.505	0.54545	5.e-002	4.1445
20799	20.781	0.54545	0.	32.76
20800	20.689	0.45455	0.	30.868
20801	20.689	0.54545	5.e-002	4.1341
20802	20.965	0.54545	0.	33.889
20803	20.873	0.45455	0.	31.81
20804	20.873	0.54545	5.e-002	4.1245
20805	21.149	0.54545	0.	35.079
20806	21.057	0.45455	0.	32.794
20807	21.057	0.54545	5.e-002	4.1156
20808	21.333	0.54545	0.	36.336
20809	21.241	0.45455	0.	33.822
20810	21.241	0.54545	5.e-002	4.1076
20811	21.517	0.54545	0.	37.666
20812	21.425	0.45455	0.	34.9
20813	21.425	0.54545	5.e-002	4.1005
20814	21.701	0.54545	0.	39.077
20815	21.609	0.45455	0.	36.03
20816	21.609	0.54545	5.e-002	4.0943
20817	21.885	0.54545	0.	40.582
20818	21.793	0.45455	0.	37.219
20819	21.793	0.54545	5.e-002	4.0893
20820	22.069	0.54545	0.	42.196
20821	21.977	0.45455	0.	38.474
20822	21.977	0.54545	5.e-002	4.0854
20823	22.253	0.54545	0.	43.941
20824	22.161	0.45455	0.	39.807
20825	22.161	0.54545	5.e-002	4.0829
20826	22.437	0.54545	0.	45.846
20827	22.345	0.45455	0.	41.234
20828	22.345	0.54545	5.e-002	4.082
20829	22.62	0.54545	0.	47.959
20830	22.528	0.45455	0.	42.78
20831	22.528	0.54545	5.e-002	4.0832
20832	22.804	0.54545	0.	50.348
20833	22.712	0.45455	0.	44.483
20834	22.712	0.54545	5.e-002	4.0872
20835	22.988	0.54545	0.	53.12
20836	22.896	0.45455	0.	46.406
20837	22.896	0.54545	5.e-002	4.0954
20838	23.172	0.54545	0.	56.45
20839	23.08	0.45455	0.	48.65
20840	23.08	0.54545	5.e-002	4.1101
20841	23.356	0.54545	0.	60.611
20842	23.264	0.45455	0.	51.398
20843	23.264	0.54545	5.e-002	4.1367
20844	23.54	0.54545	0.	66.061
20845	23.448	0.45455	0.	54.961
20846	23.448	0.54545	5.e-002	4.1857
20847	23.724	0.54545	0.	73.397
20848	23.632	0.45455	0.	59.994
20849	23.632	0.54545	5.e-002	4.2839
20850	23.816	0.45455	0.	67.473
20851	23.816	0.54545	5.e-002	4.5847
20852	23.908	0.54545	0.	81.202
20853	4.0426	0.36364	0.	221.68
20854	3.9506	0.27273	0.	227.62
20855	3.9506	0.36364	5.e-002	68.39
20856	3.8586	0.36364	0.	226.03
20857	4.2265	0.36364	0.	153.99
20858	4.1345	0.27273	0.	139.06
20859	4.1345	0.36364	5.e-002	58.052
20860	4.4105	0.36364	0.	146.96
20861	4.3185	0.27273	0.	130.41
20862	4.3185	0.36364	5.e-002	52.782
20863	4.5944	0.36364	0.	146.36
20864	4.5024	0.27273	0.	130.53
20865	4.5024	0.36364	5.e-002	46.205
20866	4.7783	0.36364	0.	141.62
20867	4.6864	0.27273	0.	126.84
20868	4.6864	0.36364	5.e-002	39.268
20869	4.9623	0.36364	0.	131.8
20870	4.8703	0.27273	0.	118.55
20871	4.8703	0.36364	5.e-002	32.492
20872	5.1462	0.36364	0.	118.18
20873	5.0542	0.27273	0.	106.81
20874	5.0542	0.36364	5.e-002	26.231
20875	5.3302	0.36364	0.	102.48
20876	5.2382	0.27273	0.	93.205
20877	5.2382	0.36364	5.e-002	20.67
20878	5.5141	0.36364	0.	86.19
20879	5.4221	0.27273	0.	79.05
20880	5.4221	0.36364	5.e-002	15.871
20881	5.698	0.36364	0.	70.381
20882	5.6061	0.27273	0.	65.305
20883	5.6061	0.36364	5.e-002	11.818
20884	5.882	0.36364	0.	55.742
20885	5.79	0.27273	0.	52.573
20886	5.79	0.36364	5.e-002	8.4535
20887	6.0659	0.36364	0.	42.656
20888	5.9739	0.27273	0.	41.184
20889	5.9739	0.36364	5.e-002	5.7014
20890	6.2498	0.36364	0.	31.282
20891	6.1579	0.27273	0.	31.271
20892	6.1579	0.36364	5.e-002	3.492
20893	6.4338	0.36364	0.	21.631
20894	6.3418	0.27273	0.	22.84
20895	6.3418	0.36364	5.e-002	1.8053
20896	6.6177	0.36364	0.	13.625
20897	6.5258	0.27273	0.	15.817
20898	6.5258	0.36364	5.e-002	0.95677
20899	6.8017	0.36364	0.	7.1473
20900	6.7097	0.27273	0.	10.086
20901	6.7097	0.36364	5.e-002	1.4557
20902	6.9856	0.36364	0.	2.1917
20903	6.8936	0.27273	0.	5.5235
20904	6.8936	0.36364	5.e-002	2.2372
20905	7.1695	0.36364	0.	0.28659
20906	7.0776	0.27273	0.	2.0568
20907	7.0776	0.36364	5.e-002	2.9114
20908	7.3535	0.36364	0.	0.12743
20909	7.2615	0.27273	0.	0.34508
20910	7.2615	0.36364	5.e-002	3.4532
20911	7.5374	0.36364	0.	9.0401e-002
20912	7.4455	0.27273	0.	0.14492
20913	7.4455	0.36364	5.e-002	3.8786
20914	7.7214	0.36364	0.	7.5245e-002
20915	7.6294	0.27273	0.	0.10243
20916	7.6294	0.36364	5.e-002	4.2076
20917	7.9053	0.36364	0.	6.6975e-002
20918	7.8133	0.27273	0.	8.5026e-002
20919	7.8133	0.36364	5.e-002	4.4586
20920	8.0892	0.36364	0.	6.1408e-002
20921	7.9973	0.27273	0.	7.56e-002
20922	7.9973	0.36364	5.e-002	4.6472
20923	8.2732	0.36364	0.	5.7018e-002
20924	8.1812	0.27273	0.	6.9646e-002
20925	8.1812	0.36364	5.e-002	4.7863
20926	8.4571	0.36364	0.	5.3182e-002
20927	8.3652	0.27273	0.	6.5583e-002
20928	8.3652	0.36364	5.e-002	4.8863
20929	8.6411	0.36364	0.	4.9636e-002
20930	8.5491	0.27273	0.	6.2817e-002
20931	8.5491	0.36364	5.e-002	4.9556
20932	8.825	0.36364	0.	4.6262e-002
20933	8.733	0.27273	0.	6.1199e-002
20934	8.733	0.36364	5.e-002	5.0011
20935	9.0089	0.36364	0.	4.3021e-002
20936	8.917	0.27273	0.	6.089e-002
20937	8.917	0.36364	5.e-002	5.028
20938	9.1929	0.36364	0.	3.991e-002
20939	9.1009	0.27273	0.	6.2466e-002
20940	9.1009	0.36364	5.e-002	5.0406
20941	9.3768	0.36364	0.	3.6946e-002
20942	9.2848	0.27273	0.	6.7392e-002
20943	9.2848	0.36364	5.e-002	5.0422
20944	9.5608	0.36364	0.	3.4159e-002
20945	9.4688	0.27273	0.	7.989e-002
20946	9.4688	0.36364	5.e-002	5.0356
20947	9.7447	0.36364	0.	3.1605e-002
20948	9.6527	0.27273	0.	0.11731
20949	9.6527	0.36364	5.e-002	5.0228
20950	9.9286	0.36364	0.	2.9406e-002
20951	9.8367	0.27273	0.	0.30375
20952	9.8367	0.36364	5.e-002	5.0055
20953	10.113	0.36364	0.	2.7852e-002
20954	10.021	0.27273	0.	0.93709
20955	10.021	0.36364	5.e-002	4.9849
20956	10.297	0.36364	0.	2.8415e-002
20957	10.205	0.27273	0.	1.7309
20958	10.205	0.36364	5.e-002	4.9619
20959	10.48	0.36364	0.	7.7808e-002
20960	10.388	0.27273	0.	2.5342
20961	10.388	0.36364	5.e-002	4.9373
20962	10.664	0.36364	0.	0.90376
20963	10.572	0.27273	0.	3.3227
20964	10.572	0.36364	5.e-002	4.9117
20965	10.848	0.36364	0.	1.7937
20966	10.756	0.27273	0.	4.0887
20967	10.756	0.36364	5.e-002	4.8855
20968	11.032	0.36364	0.	2.65
20969	10.94	0.27273	0.	4.8287
20970	10.94	0.36364	5.e-002	4.8589
20971	11.216	0.36364	0.	3.47
20972	11.124	0.27273	0.	5.5409
20973	11.124	0.36364	5.e-002	4.8323
20974	11.4	0.36364	0.	4.2533
20975	11.308	0.27273	0.	6.2247
20976	11.308	0.36364	5.e-002	4.8059
20977	11.584	0.36364	0.	5.0004
20978	11.492	0.27273	0.	6.8801
20979	11.492	0.36364	5.e-002	4.7797
20980	11.768	0.36364	0.	5.7123
20981	11.676	0.27273	0.	7.5076
20982	11.676	0.36364	5.e-002	4.7538
20983	11.952	0.36364	0.	6.3903
20984	11.86	0.27273	0.	8.1081
20985	11.86	0.36364	5.e-002	4.7284
20986	12.136	0.36364	0.	7.0359
20987	12.044	0.27273	0.	8.6826
20988	12.044	0.36364	5.e-002	4.7034
20989	12.32	0.36364	0.	7.651
20990	12.228	0.27273	0.	9.2325
20991	12.228	0.36364	5.e-002	4.6788
20992	12.504	0.36364	0.	8.2373
20993	12.412	0.27273	0.	9.7593
20994	12.412	0.36364	5.e-002	4.6546
20995	12.688	0.36364	0.	8.7968
20996	12.596	0.27273	0.	10.264
20997	12.596	0.36364	5.e-002	4.6308
20998	12.872	0.36364	0.	9.3314
20999	12.78	0.27273	0.	10.749
21000	12.78	0.36364	5.e-002	4.6074
21001	13.056	0.36364	0.	9.8431
21002	12.964	0.27273	0.	11.216
21003	12.964	0.36364	5.e-002	4.5845
21004	13.24	0.36364	0.	10.334
21005	13.148	0.27273	0.	11.665
21006	13.148	0.36364	5.e-002	4.5619
21007	13.423	0.36364	0.	10.805
21008	13.332	0.27273	0.	12.098
21009	13.332	0.36364	5.e-002	4.5398
21010	13.607	0.36364	0.	11.259
21011	13.515	0.27273	0.	12.518
21012	13.515	0.36364	5.e-002	4.518
21013	13.791	0.36364	0.	11.698
21014	13.699	0.27273	0.	12.925
21015	13.699	0.36364	5.e-002	4.4965
21016	13.975	0.36364	0.	12.122
21017	13.883	0.27273	0.	13.321
21018	13.883	0.36364	5.e-002	4.4754
21019	14.159	0.36364	0.	12.534
21020	14.067	0.27273	0.	13.707
21021	14.067	0.36364	5.e-002	4.4547
21022	14.343	0.36364	0.	12.936
21023	14.251	0.27273	0.	14.085
21024	14.251	0.36364	5.e-002	4.4342
21025	14.527	0.36364	0.	13.328
21026	14.435	0.27273	0.	14.455
21027	14.435	0.36364	5.e-002	4.414
21028	14.711	0.36364	0.	13.713
21029	14.619	0.27273	0.	14.82
21030	14.619	0.36364	5.e-002	4.394
21031	14.895	0.36364	0.	14.092
21032	14.803	0.27273	0.	15.179
21033	14.803	0.36364	5.e-002	4.3743
21034	15.079	0.36364	0.	14.466
21035	14.987	0.27273	0.	15.536
21036	14.987	0.36364	5.e-002	4.3548
21037	15.263	0.36364	0.	14.837
21038	15.171	0.27273	0.	15.889
21039	15.171	0.36364	5.e-002	4.3357
21040	15.447	0.36364	0.	15.205
21041	15.355	0.27273	0.	16.241
21042	15.355	0.36364	5.e-002	4.3168
21043	15.631	0.36364	0.	15.572
21044	15.539	0.27273	0.	16.593
21045	15.539	0.36364	5.e-002	4.2981
21046	15.815	0.36364	0.	15.94
21047	15.723	0.27273	0.	16.946
21048	15.723	0.36364	5.e-002	4.2797
21049	15.999	0.36364	0.	16.31
21050	15.907	0.27273	0.	17.3
21051	15.907	0.36364	5.e-002	4.2615
21052	16.183	0.36364	0.	16.682
21053	16.091	0.27273	0.	17.656
21054	16.091	0.36364	5.e-002	4.2436
21055	16.367	0.36364	0.	17.058
21056	16.275	0.27273	0.	18.016
21057	16.275	0.36364	5.e-002	4.2259
21058	16.55	0.36364	0.	17.439
21059	16.458	0.27273	0.	18.381
21060	16.458	0.36364	5.e-002	4.2084
21061	16.734	0.36364	0.	17.826
21062	16.642	0.27273	0.	18.751
21063	16.642	0.36364	5.e-002	4.1912
21064	16.918	0.36364	0.	18.221
21065	16.826	0.27273	0.	19.126
21066	16.826	0.36364	5.e-002	4.1743
21067	17.102	0.36364	0.	18.623
21068	17.01	0.27273	0.	19.509
21069	17.01	0.36364	5.e-002	4.1576
21070	17.286	0.36364	0.	19.036
21071	17.194	0.27273	0.	19.9
21072	17.194	0.36364	5.e-002	4.1412
21073	17.47	0.36364	0.	19.458
21074	17.378	0.27273	0.	20.299
21075	17.378	0.36364	5.e-002	4.1251
21076	17.654	0.36364	0.	19.893
21077	17.562	0.27273	0.	20.707
21078	17.562	0.36364	5.e-002	4.1094
21079	17.838	0.36364	0.	20.339
21080	17.746	0.27273	0.	21.126
21081	17.746	0.36364	5.e-002	4.0939
21082	18.022	0.36364	0.	20.8
21083	17.93	0.27273	0.	21.555
21084	17.93	0.36364	5.e-002	4.0789
21085	18.206	0.36364	0.	21.275
21086	18.114	0.27273	0.	21.996
21087	18.114	0.36364	5.e-002	4.0642
21088	18.39	0.36364	0.	21.766
21089	18.298	0.27273	0.	22.449
21090	18.298	0.36364	5.e-002	4.0499
21091	18.574	0.36364	0.	22.274
21092	18.482	0.27273	0.	22.914
21093	18.482	0.36364	5.e-002	4.036
21094	18.758	0.36364	0.	22.799
21095	18.666	0.27273	0.	23.393
21096	18.666	0.36364	5.e-002	4.0225
21097	18.942	0.36364	0.	23.343
21098	18.85	0.27273	0.	23.885
21099	18.85	0.36364	5.e-002	4.0096
21100	19.126	0.36364	0.	23.907
21101	19.034	0.27273	0.	24.391
21102	19.034	0.36364	5.e-002	3.9971
21103	19.31	0.36364	0.	24.491
21104	19.218	0.27273	0.	24.912
21105	19.218	0.36364	5.e-002	3.9852
21106	19.493	0.36364	0.	25.096
21107	19.402	0.27273	0.	25.447
21108	19.402	0.36364	5.e-002	3.9739
21109	19.677	0.36364	0.	25.723
21110	19.585	0.27273	0.	25.997
21111	19.585	0.36364	5.e-002	3.9632
21112	19.861	0.36364	0.	26.373
21113	19.769	0.27273	0.	26.562
21114	19.769	0.36364	5.e-002	3.9532
21115	20.045	0.36364	0.	27.047
21116	19.953	0.27273	0.	27.141
21117	19.953	0.36364	5.e-002	3.944
21118	20.229	0.36364	0.	27.745
21119	20.137	0.27273	0.	27.735
21120	20.137	0.36364	5.e-002	3.9355
21121	20.413	0.36364	0.	28.468
21122	20.321	0.27273	0.	28.342
21123	20.321	0.36364	5.e-002	3.9279
21124	20.597	0.36364	0.	29.216
21125	20.505	0.27273	0.	28.963
21126	20.505	0.36364	5.e-002	3.9211
21127	20.781	0.36364	0.	29.989
21128	20.689	0.27273	0.	29.596
21129	20.689	0.36364	5.e-002	3.9152
21130	20.965	0.36364	0.	30.79
21131	20.873	0.27273	0.	30.24
21132	20.873	0.36364	5.e-002	3.9103
21133	21.149	0.36364	0.	31.617
21134	21.057	0.27273	0.	30.894
21135	21.057	0.36364	5.e-002	3.9065
21136	21.333	0.36364	0.	32.472
21137	21.241	0.27273	0.	31.556
21138	21.241	0.36364	5.e-002	3.9038
21139	21.517	0.36364	0.	33.356
21140	21.425	0.27273	0.	32.224
21141	21.425	0.36364	5.e-002	3.9023
21142	21.701	0.36364	0.	34.27
21143	21.609	0.27273	0.	32.896
21144	21.609	0.36364	5.e-002	3.902
21145	21.885	0.36364	0.	35.218
21146	21.793	0.27273	0.	33.57
21147	21.793	0.36364	5.e-002	3.9031
21148	22.069	0.36364	0.	36.202
21149	21.977	0.27273	0.	34.244
21150	21.977	0.36364	5.e-002	3.9056
21151	22.253	0.36364	0.	37.23
21152	22.161	0.27273	0.	34.914
21153	22.161	0.36364	5.e-002	3.9097
21154	22.437	0.36364	0.	38.311
21155	22.345	0.27273	0.	35.579
21156	22.345	0.36364	5.e-002	3.9156
21157	22.62	0.36364	0.	39.465
21158	22.528	0.27273	0.	36.238
21159	22.528	0.36364	5.e-002	3.9235
21160	22.804	0.36364	0.	40.722
21161	22.712	0.27273	0.	36.893
21162	22.712	0.36364	5.e-002	3.9339
21163	22.988	0.36364	0.	42.137
21164	22.896	0.27273	0.	37.555
21165	22.896	0.36364	5.e-002	3.9478
21166	23.172	0.36364	0.	43.818
21167	23.08	0.27273	0.	38.245
21168	23.08	0.36364	5.e-002	3.9668
21169	23.356	0.36364	0.	45.976
21170	23.264	0.27273	0.	39.026
21171	23.264	0.36364	5.e-002	3.9946
21172	23.54	0.36364	0.	49.097
21173	23.448	0.27273	0.	40.039
21174	23.448	0.36364	5.e-002	4.0419
21175	23.724	0.36364	0.	54.214
21176	23.632	0.27273	0.	41.731
21177	23.632	0.36364	5.e-002	4.1492
21178	23.816	0.27273	0.	45.525
21179	23.816	0.36364	5.e-002	4.5304
21180	23.908	0.36364	0.	60.45
21181	4.0426	0.18182	0.	118.4
21182	3.9506	0.18182	5.e-002	75.577
21183	3.9506	9.0909e-002	0.	57.83
21184	3.8586	0.18182	0.	69.29
21185	4.2265	0.18182	0.	107.73
21186	4.1345	0.18182	5.e-002	67.148
21187	4.1345	9.0909e-002	0.	47.372
21188	4.4105	0.18182	0.	110.23
21189	4.3185	0.18182	5.e-002	61.978
21190	4.3185	9.0909e-002	0.	54.578
21191	4.5944	0.18182	0.	108.64
21192	4.5024	0.18182	5.e-002	55.668
21193	4.5024	9.0909e-002	0.	58.509
21194	4.7783	0.18182	0.	102.12
21195	4.6864	0.18182	5.e-002	48.646
21196	4.6864	9.0909e-002	0.	57.666
21197	4.9623	0.18182	0.	92.411
21198	4.8703	0.18182	5.e-002	41.465
21199	4.8703	9.0909e-002	0.	53.801
21200	5.1462	0.18182	0.	81.054
21201	5.0542	0.18182	5.e-002	34.566
21202	5.0542	9.0909e-002	0.	48.195
21203	5.3302	0.18182	0.	69.258
21204	5.2382	0.18182	5.e-002	28.243
21205	5.2382	9.0909e-002	0.	41.846
21206	5.5141	0.18182	0.	57.844
21207	5.4221	0.18182	5.e-002	22.651
21208	5.4221	9.0909e-002	0.	35.422
21209	5.698	0.18182	0.	47.312
21210	5.6061	0.18182	5.e-002	17.839
21211	5.6061	9.0909e-002	0.	29.337
21212	5.882	0.18182	0.	37.92
21213	5.79	0.18182	5.e-002	13.786
21214	5.79	9.0909e-002	0.	23.82
21215	6.0659	0.18182	0.	29.763
21216	5.9739	0.18182	5.e-002	10.431
21217	5.9739	9.0909e-002	0.	18.974
21218	6.2498	0.18182	0.	22.83
21219	6.1579	0.18182	5.e-002	7.6958
21220	6.1579	9.0909e-002	0.	14.819
21221	6.4338	0.18182	0.	17.05
21222	6.3418	0.18182	5.e-002	5.4952
21223	6.3418	9.0909e-002	0.	11.331
21224	6.6177	0.18182	0.	12.319
21225	6.5258	0.18182	5.e-002	3.7486
21226	6.5258	9.0909e-002	0.	8.4569
21227	6.8017	0.18182	0.	8.5231
21228	6.7097	0.18182	5.e-002	2.3845
21229	6.7097	9.0909e-002	0.	6.1336
21230	6.9856	0.18182	0.	5.5479
21231	6.8936	0.18182	5.e-002	1.348
21232	6.8936	9.0909e-002	0.	4.2948
21233	7.1695	0.18182	0.	3.2914
21234	7.0776	0.18182	5.e-002	0.63632
21235	7.0776	9.0909e-002	0.	2.8764
21236	7.3535	0.18182	0.	1.6856
21237	7.2615	0.18182	5.e-002	0.474
21238	7.2615	9.0909e-002	0.	1.8202
21239	7.5374	0.18182	0.	0.74548
21240	7.4455	0.18182	5.e-002	0.75693
21241	7.4455	9.0909e-002	0.	1.0784
21242	7.7214	0.18182	0.	0.4002
21243	7.6294	0.18182	5.e-002	1.0339
21244	7.6294	9.0909e-002	0.	0.62117
21245	7.9053	0.18182	0.	0.29972
21246	7.8133	0.18182	5.e-002	1.2346
21247	7.8133	9.0909e-002	0.	0.41842
21248	8.0892	0.18182	0.	0.27163
21249	7.9973	0.18182	5.e-002	1.3644
21250	7.9973	9.0909e-002	0.	0.37566
21251	8.2732	0.18182	0.	0.27739
21252	8.1812	0.18182	5.e-002	1.4363
21253	8.1812	9.0909e-002	0.	0.41197
21254	8.4571	0.18182	0.	0.31441
21255	8.3652	0.18182	5.e-002	1.4629
21256	8.3652	9.0909e-002	0.	0.50962
21257	8.6411	0.18182	0.	0.40094
21258	8.5491	0.18182	5.e-002	1.455
21259	8.5491	9.0909e-002	0.	0.67415
21260	8.825	0.18182	0.	0.58372
21261	8.733	0.18182	5.e-002	1.4214
21262	8.733	9.0909e-002	0.	0.90739
21263	9.0089	0.18182	0.	0.92085
21264	8.917	0.18182	5.e-002	1.3691
21265	8.917	9.0909e-002	0.	1.2002
21266	9.1929	0.18182	0.	1.4085
21267	9.1009	0.18182	5.e-002	1.3037
21268	9.1009	9.0909e-002	0.	1.5384
21269	9.3768	0.18182	0.	1.9919
21270	9.2848	0.18182	5.e-002	1.2296
21271	9.2848	9.0909e-002	0.	1.9083
21272	9.5608	0.18182	0.	2.6273
21273	9.4688	0.18182	5.e-002	1.1502
21274	9.4688	9.0909e-002	0.	2.299
21275	9.7447	0.18182	0.	3.2889
21276	9.6527	0.18182	5.e-002	1.0681
21277	9.6527	9.0909e-002	0.	2.7018
21278	9.9286	0.18182	0.	3.9607
21279	9.8367	0.18182	5.e-002	0.98537
21280	9.8367	9.0909e-002	0.	3.1098
21281	10.113	0.18182	0.	4.6325
21282	10.021	0.18182	5.e-002	0.90347
21283	10.021	9.0909e-002	0.	3.5181
21284	10.297	0.18182	0.	5.297
21285	10.205	0.18182	5.e-002	0.82351
21286	10.205	9.0909e-002	0.	3.9226
21287	10.48	0.18182	0.	5.9493
21288	10.388	0.18182	5.e-002	0.7462
21289	10.388	9.0909e-002	0.	4.3206
21290	10.664	0.18182	0.	6.5858
21291	10.572	0.18182	5.e-002	0.67217
21292	10.572	9.0909e-002	0.	4.7099
21293	10.848	0.18182	0.	7.2042
21294	10.756	0.18182	5.e-002	0.60165
21295	10.756	9.0909e-002	0.	5.0891
21296	11.032	0.18182	0.	7.8032
21297	10.94	0.18182	5.e-002	0.53492
21298	10.94	9.0909e-002	0.	5.4573
21299	11.216	0.18182	0.	8.3819
21300	11.124	0.18182	5.e-002	0.47211
21301	11.124	9.0909e-002	0.	5.8139
21302	11.4	0.18182	0.	8.94
21303	11.308	0.18182	5.e-002	0.41324
21304	11.308	9.0909e-002	0.	6.1588
21305	11.584	0.18182	0.	9.4778
21306	11.492	0.18182	5.e-002	0.3582
21307	11.492	9.0909e-002	0.	6.4918
21308	11.768	0.18182	0.	9.9958
21309	11.676	0.18182	5.e-002	0.30693
21310	11.676	9.0909e-002	0.	6.8134
21311	11.952	0.18182	0.	10.495
21312	11.86	0.18182	5.e-002	0.25934
21313	11.86	9.0909e-002	0.	7.1239
21314	12.136	0.18182	0.	10.975
21315	12.044	0.18182	5.e-002	0.21523
21316	12.044	9.0909e-002	0.	7.4236
21317	12.32	0.18182	0.	11.438
21318	12.228	0.18182	5.e-002	0.17436
21319	12.228	9.0909e-002	0.	7.7133
21320	12.504	0.18182	0.	11.886
21321	12.412	0.18182	5.e-002	0.13663
21322	12.412	9.0909e-002	0.	7.9935
21323	12.688	0.18182	0.	12.318
21324	12.596	0.18182	5.e-002	0.10191
21325	12.596	9.0909e-002	0.	8.2649
21326	12.872	0.18182	0.	12.736
21327	12.78	0.18182	5.e-002	6.9948e-002
21328	12.78	9.0909e-002	0.	8.5281
21329	13.056	0.18182	0.	13.141
21330	12.964	0.18182	5.e-002	4.0626e-002
21331	12.964	9.0909e-002	0.	8.7839
21332	13.24	0.18182	0.	13.535
21333	13.148	0.18182	5.e-002	1.3811e-002
21334	13.148	9.0909e-002	0.	9.0331
21335	13.423	0.18182	0.	13.919
21336	13.332	0.18182	5.e-002	1.0598e-002
21337	13.332	9.0909e-002	0.	9.2761
21338	13.607	0.18182	0.	14.293
21339	13.515	0.18182	5.e-002	3.2872e-002
21340	13.515	9.0909e-002	0.	9.5138
21341	13.791	0.18182	0.	14.659
21342	13.699	0.18182	5.e-002	5.3095e-002
21343	13.699	9.0909e-002	0.	9.7468
21344	13.975	0.18182	0.	15.018
21345	13.883	0.18182	5.e-002	7.1392e-002
21346	13.883	9.0909e-002	0.	9.9757
21347	14.159	0.18182	0.	15.371
21348	14.067	0.18182	5.e-002	8.7877e-002
21349	14.067	9.0909e-002	0.	10.201
21350	14.343	0.18182	0.	15.719
21351	14.251	0.18182	5.e-002	0.10273
21352	14.251	9.0909e-002	0.	10.424
21353	14.527	0.18182	0.	16.063
21354	14.435	0.18182	5.e-002	0.11603
21355	14.435	9.0909e-002	0.	10.644
21356	14.711	0.18182	0.	16.404
21357	14.619	0.18182	5.e-002	0.12786
21358	14.619	9.0909e-002	0.	10.863
21359	14.895	0.18182	0.	16.743
21360	14.803	0.18182	5.e-002	0.13837
21361	14.803	9.0909e-002	0.	11.081
21362	15.079	0.18182	0.	17.08
21363	14.987	0.18182	5.e-002	0.1476
21364	14.987	9.0909e-002	0.	11.298
21365	15.263	0.18182	0.	17.417
21366	15.171	0.18182	5.e-002	0.15567
21367	15.171	9.0909e-002	0.	11.516
21368	15.447	0.18182	0.	17.755
21369	15.355	0.18182	5.e-002	0.16263
21370	15.355	9.0909e-002	0.	11.734
21371	15.631	0.18182	0.	18.093
21372	15.539	0.18182	5.e-002	0.16863
21373	15.539	9.0909e-002	0.	11.953
21374	15.815	0.18182	0.	18.434
21375	15.723	0.18182	5.e-002	0.17376
21376	15.723	9.0909e-002	0.	12.173
21377	15.999	0.18182	0.	18.777
21378	15.907	0.18182	5.e-002	0.17808
21379	15.907	9.0909e-002	0.	12.395
21380	16.183	0.18182	0.	19.123
21381	16.091	0.18182	5.e-002	0.18177
21382	16.091	9.0909e-002	0.	12.62
21383	16.367	0.18182	0.	19.474
21384	16.275	0.18182	5.e-002	0.18497
21385	16.275	9.0909e-002	0.	12.847
21386	16.55	0.18182	0.	19.829
21387	16.458	0.18182	5.e-002	0.18781
21388	16.458	9.0909e-002	0.	13.078
21389	16.734	0.18182	0.	20.19
21390	16.642	0.18182	5.e-002	0.19047
21391	16.642	9.0909e-002	0.	13.312
21392	16.918	0.18182	0.	20.556
21393	16.826	0.18182	5.e-002	0.19315
21394	16.826	9.0909e-002	0.	13.55
21395	17.102	0.18182	0.	20.929
21396	17.01	0.18182	5.e-002	0.19609
21397	17.01	9.0909e-002	0.	13.793
21398	17.286	0.18182	0.	21.309
21399	17.194	0.18182	5.e-002	0.19952
21400	17.194	9.0909e-002	0.	14.04
21401	17.47	0.18182	0.	21.696
21402	17.378	0.18182	5.e-002	0.20376
21403	17.378	9.0909e-002	0.	14.292
21404	17.654	0.18182	0.	22.091
21405	17.562	0.18182	5.e-002	0.20914
21406	17.562	9.0909e-002	0.	14.55
21407	17.838	0.18182	0.	22.495
21408	17.746	0.18182	5.e-002	0.21601
21409	17.746	9.0909e-002	0.	14.813
21410	18.022	0.18182	0.	22.907
21411	17.93	0.18182	5.e-002	0.22473
21412	17.93	9.0909e-002	0.	15.082
21413	18.206	0.18182	0.	23.328
21414	18.114	0.18182	5.e-002	0.23564
21415	18.114	9.0909e-002	0.	15.357
21416	18.39	0.18182	0.	23.758
21417	18.298	0.18182	5.e-002	0.24911
21418	18.298	9.0909e-002	0.	15.638
21419	18.574	0.18182	0.	24.197
21420	18.482	0.18182	5.e-002	0.26541
21421	18.482	9.0909e-002	0.	15.926
21422	18.758	0.18182	0.	24.646
21423	18.666	0.18182	5.e-002	0.28483
21424	18.666	9.0909e-002	0.	16.22
21425	18.942	0.18182	0.	25.104
21426	18.85	0.18182	5.e-002	0.30761
21427	18.85	9.0909e-002	0.	16.521
21428	19.126	0.18182	0.	25.571
21429	19.034	0.18182	5.e-002	0.33396
21430	19.034	9.0909e-002	0.	16.828
21431	19.31	0.18182	0.	26.047
21432	19.218	0.18182	5.e-002	0.36408
21433	19.218	9.0909e-002	0.	17.141
21434	19.493	0.18182	0.	26.531
21435	19.402	0.18182	5.e-002	0.39817
21436	19.402	9.0909e-002	0.	17.46
21437	19.677	0.18182	0.	27.022
21438	19.585	0.18182	5.e-002	0.43642
21439	19.585	9.0909e-002	0.	17.785
21440	19.861	0.18182	0.	27.521
21441	19.769	0.18182	5.e-002	0.47903
21442	19.769	9.0909e-002	0.	18.116
21443	20.045	0.18182	0.	28.025
21444	19.953	0.18182	5.e-002	0.52624
21445	19.953	9.0909e-002	0.	18.452
21446	20.229	0.18182	0.	28.533
21447	20.137	0.18182	5.e-002	0.57829
21448	20.137	9.0909e-002	0.	18.791
21449	20.413	0.18182	0.	29.044
21450	20.321	0.18182	5.e-002	0.63542
21451	20.321	9.0909e-002	0.	19.134
21452	20.597	0.18182	0.	29.556
21453	20.505	0.18182	5.e-002	0.69796
21454	20.505	9.0909e-002	0.	19.48
21455	20.781	0.18182	0.	30.066
21456	20.689	0.18182	5.e-002	0.76624
21457	20.689	9.0909e-002	0.	19.826
21458	20.965	0.18182	0.	30.571
21459	20.873	0.18182	5.e-002	0.84065
21460	20.873	9.0909e-002	0.	20.172
21461	21.149	0.18182	0.	31.068
21462	21.057	0.18182	5.e-002	0.92158
21463	21.057	9.0909e-002	0.	20.516
21464	21.333	0.18182	0.	31.553
21465	21.241	0.18182	5.e-002	1.0095
21466	21.241	9.0909e-002	0.	20.855
21467	21.517	0.18182	0.	32.02
21468	21.425	0.18182	5.e-002	1.105
21469	21.425	9.0909e-002	0.	21.187
21470	21.701	0.18182	0.	32.465
21471	21.609	0.18182	5.e-002	1.2086
21472	21.609	9.0909e-002	0.	21.509
21473	21.885	0.18182	0.	32.879
21474	21.793	0.18182	5.e-002	1.321
21475	21.793	9.0909e-002	0.	21.816
21476	22.069	0.18182	0.	33.255
21477	21.977	0.18182	5.e-002	1.4429
21478	21.977	9.0909e-002	0.	22.105
21479	22.253	0.18182	0.	33.584
21480	22.161	0.18182	5.e-002	1.5753
21481	22.161	9.0909e-002	0.	22.369
21482	22.437	0.18182	0.	33.851
21483	22.345	0.18182	5.e-002	1.7192
21484	22.345	9.0909e-002	0.	22.602
21485	22.62	0.18182	0.	34.045
21486	22.528	0.18182	5.e-002	1.876
21487	22.528	9.0909e-002	0.	22.794
21488	22.804	0.18182	0.	34.146
21489	22.712	0.18182	5.e-002	2.0474
21490	22.712	9.0909e-002	0.	22.935
21491	22.988	0.18182	0.	34.136
21492	22.896	0.18182	5.e-002	2.2356
21493	22.896	9.0909e-002	0.	23.008
21494	23.172	0.18182	0.	33.995
21495	23.08	0.18182	5.e-002	2.4438
21496	23.08	9.0909e-002	0.	22.993
21497	23.356	0.18182	0.	33.717
21498	23.264	0.18182	5.e-002	2.6778
21499	23.264	9.0909e-002	0.	22.864
21500	23.54	0.18182	0.	33.379
21501	23.448	0.18182	5.e-002	2.945
21502	23.448	9.0909e-002	0.	22.567
21503	23.724	0.18182	0.	33.691
21504	23.632	0.18182	5.e-002	3.2804
21505	23.632	9.0909e-002	0.	22.132
21506	23.816	0.18182	5.e-002	3.9981
21507	23.816	9.0909e-002	0.	21.455
21508	23.908	0.18182	0.	34.93
21509	23.724	0.18182	0.1	54.838
21510	23.816	0.27273	0.1	37.226
21511	23.908	0.18182	0.1	20.517
21512	23.816	9.0909e-002	0.1	34.468
21513	23.54	0.18182	0.1	91.596
21514	23.632	0.27273	0.1	72.374
21515	23.632	9.0909e-002	0.1	69.046
21516	23.356	0.18182	0.1	129.72
21517	23.448	0.27273	0.1	109.63
21518	23.448	9.0909e-002	0.1	105.67
21519	23.172	0.18182	0.1	168.38
21520	23.264	0.27273	0.1	147.73
21521	23.264	9.0909e-002	0.1	143.21
21522	22.988	0.18182	0.1	207.36
21523	23.08	0.27273	0.1	186.34
21524	23.08	9.0909e-002	0.1	181.36
21525	22.804	0.18182	0.1	246.57
21526	22.896	0.27273	0.1	225.28
21527	22.896	9.0909e-002	0.1	219.93
21528	22.62	0.18182	0.1	285.98
21529	22.712	0.27273	0.1	264.47
21530	22.712	9.0909e-002	0.1	258.82
21531	22.437	0.18182	0.1	325.53
21532	22.528	0.27273	0.1	303.85
21533	22.528	9.0909e-002	0.1	297.99
21534	22.253	0.18182	0.1	365.23
21535	22.345	0.27273	0.1	343.41
21536	22.345	9.0909e-002	0.1	337.37
21537	22.069	0.18182	0.1	405.05
21538	22.161	0.27273	0.1	383.11
21539	22.161	9.0909e-002	0.1	376.96
21540	21.885	0.18182	0.1	445.
21541	21.977	0.27273	0.1	422.94
21542	21.977	9.0909e-002	0.1	416.71
21543	21.701	0.18182	0.1	485.06
21544	21.793	0.27273	0.1	462.91
21545	21.793	9.0909e-002	0.1	456.63
21546	21.517	0.18182	0.1	525.24
21547	21.609	0.27273	0.1	503.
21548	21.609	9.0909e-002	0.1	496.7
21549	21.333	0.18182	0.1	565.55
21550	21.425	0.27273	0.1	543.22
21551	21.425	9.0909e-002	0.1	536.92
21552	21.149	0.18182	0.1	605.97
21553	21.241	0.27273	0.1	583.57
21554	21.241	9.0909e-002	0.1	577.29
21555	20.965	0.18182	0.1	646.53
21556	21.057	0.27273	0.1	624.04
21557	21.057	9.0909e-002	0.1	617.8
21558	20.781	0.18182	0.1	687.21
21559	20.873	0.27273	0.1	664.65
21560	20.873	9.0909e-002	0.1	658.45
21561	20.597	0.18182	0.1	728.02
21562	20.689	0.27273	0.1	705.39
21563	20.689	9.0909e-002	0.1	699.25
21564	20.413	0.18182	0.1	768.98
21565	20.505	0.27273	0.1	746.28
21566	20.505	9.0909e-002	0.1	740.2
21567	20.229	0.18182	0.1	810.08
21568	20.321	0.27273	0.1	787.3
21569	20.321	9.0909e-002	0.1	781.3
21570	20.045	0.18182	0.1	851.32
21571	20.137	0.27273	0.1	828.48
21572	20.137	9.0909e-002	0.1	822.55
21573	19.861	0.18182	0.1	892.72
21574	19.953	0.27273	0.1	869.8
21575	19.953	9.0909e-002	0.1	863.96
21576	19.677	0.18182	0.1	934.27
21577	19.769	0.27273	0.1	911.29
21578	19.769	9.0909e-002	0.1	905.53
21579	19.493	0.18182	0.1	975.98
21580	19.585	0.27273	0.1	952.93
21581	19.585	9.0909e-002	0.1	947.25
21582	19.31	0.18182	0.1	1017.9
21583	19.402	0.27273	0.1	994.73
21584	19.402	9.0909e-002	0.1	989.14
21585	19.126	0.18182	0.1	1059.9
21586	19.218	0.27273	0.1	1036.7
21587	19.218	9.0909e-002	0.1	1031.2
21588	18.942	0.18182	0.1	1102.1
21589	19.034	0.27273	0.1	1078.8
21590	19.034	9.0909e-002	0.1	1073.4
21591	18.758	0.18182	0.1	1144.5
21592	18.85	0.27273	0.1	1121.1
21593	18.85	9.0909e-002	0.1	1115.8
21594	18.574	0.18182	0.1	1187.
21595	18.666	0.27273	0.1	1163.6
21596	18.666	9.0909e-002	0.1	1158.4
21597	18.39	0.18182	0.1	1229.8
21598	18.482	0.27273	0.1	1206.3
21599	18.482	9.0909e-002	0.1	1201.2
21600	18.206	0.18182	0.1	1272.7
21601	18.298	0.27273	0.1	1249.1
21602	18.298	9.0909e-002	0.1	1244.1
21603	18.022	0.18182	0.1	1315.8
21604	18.114	0.27273	0.1	1292.2
21605	18.114	9.0909e-002	0.1	1287.2
21606	17.838	0.18182	0.1	1359.1
21607	17.93	0.27273	0.1	1335.4
21608	17.93	9.0909e-002	0.1	1330.5
21609	17.654	0.18182	0.1	1402.5
21610	17.746	0.27273	0.1	1378.8
21611	17.746	9.0909e-002	0.1	1374.
21612	17.47	0.18182	0.1	1446.2
21613	17.562	0.27273	0.1	1422.4
21614	17.562	9.0909e-002	0.1	1417.7
21615	17.286	0.18182	0.1	1490.1
21616	17.378	0.27273	0.1	1466.1
21617	17.378	9.0909e-002	0.1	1461.5
21618	17.102	0.18182	0.1	1534.1
21619	17.194	0.27273	0.1	1510.1
21620	17.194	9.0909e-002	0.1	1505.6
21621	16.918	0.18182	0.1	1578.3
21622	17.01	0.27273	0.1	1554.2
21623	17.01	9.0909e-002	0.1	1549.8
21624	16.734	0.18182	0.1	1622.8
21625	16.826	0.27273	0.1	1598.6
21626	16.826	9.0909e-002	0.1	1594.2
21627	16.55	0.18182	0.1	1667.4
21628	16.642	0.27273	0.1	1643.1
21629	16.642	9.0909e-002	0.1	1638.8
21630	16.367	0.18182	0.1	1712.2
21631	16.458	0.27273	0.1	1687.9
21632	16.458	9.0909e-002	0.1	1683.7
21633	16.183	0.18182	0.1	1757.2
21634	16.275	0.27273	0.1	1732.8
21635	16.275	9.0909e-002	0.1	1728.7
21636	15.999	0.18182	0.1	1802.4
21637	16.091	0.27273	0.1	1778.
21638	16.091	9.0909e-002	0.1	1773.9
21639	15.815	0.18182	0.1	1847.9
21640	15.907	0.27273	0.1	1823.3
21641	15.907	9.0909e-002	0.1	1819.3
21642	15.631	0.18182	0.1	1893.5
21643	15.723	0.27273	0.1	1868.8
21644	15.723	9.0909e-002	0.1	1864.9
21645	15.447	0.18182	0.1	1939.3
21646	15.539	0.27273	0.1	1914.6
21647	15.539	9.0909e-002	0.1	1910.7
21648	15.263	0.18182	0.1	1985.3
21649	15.355	0.27273	0.1	1960.5
21650	15.355	9.0909e-002	0.1	1956.8
21651	15.079	0.18182	0.1	2031.5
21652	15.171	0.27273	0.1	2006.6
21653	15.171	9.0909e-002	0.1	2003.
21654	14.895	0.18182	0.1	2078.
21655	14.987	0.27273	0.1	2053.
21656	14.987	9.0909e-002	0.1	2049.4
21657	14.711	0.18182	0.1	2124.6
21658	14.803	0.27273	0.1	2099.5
21659	14.803	9.0909e-002	0.1	2096.
21660	14.527	0.18182	0.1	2171.4
21661	14.619	0.27273	0.1	2146.3
21662	14.619	9.0909e-002	0.1	2142.9
21663	14.343	0.18182	0.1	2218.5
21664	14.435	0.27273	0.1	2193.2
21665	14.435	9.0909e-002	0.1	2189.9
21666	14.159	0.18182	0.1	2265.7
21667	14.251	0.27273	0.1	2240.4
21668	14.251	9.0909e-002	0.1	2237.1
21669	13.975	0.18182	0.1	2313.2
21670	14.067	0.27273	0.1	2287.8
21671	14.067	9.0909e-002	0.1	2284.6
21672	13.791	0.18182	0.1	2360.9
21673	13.883	0.27273	0.1	2335.3
21674	13.883	9.0909e-002	0.1	2332.3
21675	13.607	0.18182	0.1	2408.8
21676	13.699	0.27273	0.1	2383.1
21677	13.699	9.0909e-002	0.1	2380.1
21678	13.423	0.18182	0.1	2456.9
21679	13.515	0.27273	0.1	2431.1
21680	13.515	9.0909e-002	0.1	2428.2
21681	13.24	0.18182	0.1	2505.2
21682	13.332	0.27273	0.1	2479.3
21683	13.332	9.0909e-002	0.1	2476.5
21684	13.056	0.18182	0.1	2553.7
21685	13.148	0.27273	0.1	2527.7
21686	13.148	9.0909e-002	0.1	2525.1
21687	12.872	0.18182	0.1	2602.4
21688	12.964	0.27273	0.1	2576.4
21689	12.964	9.0909e-002	0.1	2573.8
21690	12.688	0.18182	0.1	2651.4
21691	12.78	0.27273	0.1	2625.2
21692	12.78	9.0909e-002	0.1	2622.8
21693	12.504	0.18182	0.1	2700.6
21694	12.596	0.27273	0.1	2674.3
21695	12.596	9.0909e-002	0.1	2671.9
21696	12.32	0.18182	0.1	2750.
21697	12.412	0.27273	0.1	2723.6
21698	12.412	9.0909e-002	0.1	2721.3
21699	12.136	0.18182	0.1	2799.6
21700	12.228	0.27273	0.1	2773.1
21701	12.228	9.0909e-002	0.1	2771.
21702	11.952	0.18182	0.1	2849.4
21703	12.044	0.27273	0.1	2822.8
21704	12.044	9.0909e-002	0.1	2820.8
21705	11.768	0.18182	0.1	2899.4
21706	11.86	0.27273	0.1	2872.7
21707	11.86	9.0909e-002	0.1	2870.9
21708	11.584	0.18182	0.1	2949.7
21709	11.676	0.27273	0.1	2922.8
21710	11.676	9.0909e-002	0.1	2921.2
21711	11.4	0.18182	0.1	3000.2
21712	11.492	0.27273	0.1	2973.2
21713	11.492	9.0909e-002	0.1	2971.7
21714	11.216	0.18182	0.1	3050.9
21715	11.308	0.27273	0.1	3023.8
21716	11.308	9.0909e-002	0.1	3022.4
21717	11.032	0.18182	0.1	3101.8
21718	11.124	0.27273	0.1	3074.6
21719	11.124	9.0909e-002	0.1	3073.4
21720	10.848	0.18182	0.1	3153.
21721	10.94	0.27273	0.1	3125.6
21722	10.94	9.0909e-002	0.1	3124.6
21723	10.664	0.18182	0.1	3204.3
21724	10.756	0.27273	0.1	3176.8
21725	10.756	9.0909e-002	0.1	3176.
21726	10.48	0.18182	0.1	3255.9
21727	10.572	0.27273	0.1	3228.3
21728	10.572	9.0909e-002	0.1	3227.6
21729	10.297	0.18182	0.1	3307.6
21730	10.388	0.27273	0.1	3279.9
21731	10.388	9.0909e-002	0.1	3279.3
21732	10.113	0.18182	0.1	3359.5
21733	10.205	0.27273	0.1	3331.7
21734	10.205	9.0909e-002	0.1	3331.3
21735	9.9286	0.18182	0.1	3411.5
21736	10.021	0.27273	0.1	3383.6
21737	10.021	9.0909e-002	0.1	3383.5
21738	9.7447	0.18182	0.1	3463.7
21739	9.8367	0.27273	0.1	3435.8
21740	9.8367	9.0909e-002	0.1	3435.8
21741	9.5608	0.18182	0.1	3516.
21742	9.6527	0.27273	0.1	3488.
21743	9.6527	9.0909e-002	0.1	3488.1
21744	9.3768	0.18182	0.1	3568.2
21745	9.4688	0.27273	0.1	3540.2
21746	9.4688	9.0909e-002	0.1	3540.6
21747	9.1929	0.18182	0.1	3620.5
21748	9.2848	0.27273	0.1	3592.5
21749	9.2848	9.0909e-002	0.1	3593.
21750	9.0089	0.18182	0.1	3672.6
21751	9.1009	0.27273	0.1	3644.8
21752	9.1009	9.0909e-002	0.1	3645.4
21753	8.825	0.18182	0.1	3724.5
21754	8.917	0.27273	0.1	3696.9
21755	8.917	9.0909e-002	0.1	3697.6
21756	8.6411	0.18182	0.1	3776.
21757	8.733	0.27273	0.1	3748.7
21758	8.733	9.0909e-002	0.1	3749.4
21759	8.4571	0.18182	0.1	3827.
21760	8.5491	0.27273	0.1	3800.1
21761	8.5491	9.0909e-002	0.1	3800.8
21762	8.2732	0.18182	0.1	3877.2
21763	8.3652	0.27273	0.1	3850.9
21764	8.3652	9.0909e-002	0.1	3851.5
21765	8.0892	0.18182	0.1	3926.3
21766	8.1812	0.27273	0.1	3900.8
21767	8.1812	9.0909e-002	0.1	3901.2
21768	7.9053	0.18182	0.1	3973.9
21769	7.9973	0.27273	0.1	3949.5
21770	7.9973	9.0909e-002	0.1	3949.6
21771	7.7214	0.18182	0.1	4019.5
21772	7.8133	0.27273	0.1	3996.6
21773	7.8133	9.0909e-002	0.1	3996.3
21774	7.5374	0.18182	0.1	4062.5
21775	7.6294	0.27273	0.1	4041.5
21776	7.6294	9.0909e-002	0.1	4040.6
21777	7.3535	0.18182	0.1	4102.1
21778	7.4455	0.27273	0.1	4083.7
21779	7.4455	9.0909e-002	0.1	4081.8
21780	7.1695	0.18182	0.1	4137.4
21781	7.2615	0.27273	0.1	4122.1
21782	7.2615	9.0909e-002	0.1	4119.2
21783	6.9856	0.18182	0.1	4167.
21784	7.0776	0.27273	0.1	4155.9
21785	7.0776	9.0909e-002	0.1	4151.4
21786	6.8017	0.18182	0.1	4189.5
21787	6.8936	0.27273	0.1	4183.6
21788	6.8936	9.0909e-002	0.1	4177.1
21789	6.6177	0.18182	0.1	4202.9
21790	6.7097	0.27273	0.1	4203.6
21791	6.7097	9.0909e-002	0.1	4194.6
21792	6.4338	0.18182	0.1	4204.8
21793	6.5258	0.27273	0.1	4213.7
21794	6.5258	9.0909e-002	0.1	4201.7
21795	6.2498	0.18182	0.1	4192.3
21796	6.3418	0.27273	0.1	4211.5
21797	6.3418	9.0909e-002	0.1	4195.7
21798	6.0659	0.18182	0.1	4162.
21799	6.1579	0.27273	0.1	4193.8
21800	6.1579	9.0909e-002	0.1	4173.2
21801	5.882	0.18182	0.1	4109.5
21802	5.9739	0.27273	0.1	4156.8
21803	5.9739	9.0909e-002	0.1	4130.5
21804	5.698	0.18182	0.1	4029.9
21805	5.79	0.27273	0.1	4095.9
21806	5.79	9.0909e-002	0.1	4062.6
21807	5.5141	0.18182	0.1	3917.4
21808	5.6061	0.27273	0.1	4005.9
21809	5.6061	9.0909e-002	0.1	3964.3
21810	5.3302	0.18182	0.1	3765.6
21811	5.4221	0.27273	0.1	3880.5
21812	5.4221	9.0909e-002	0.1	3829.1
21813	5.1462	0.18182	0.1	3567.6
21814	5.2382	0.27273	0.1	3713.
21815	5.2382	9.0909e-002	0.1	3650.2
21816	4.9623	0.18182	0.1	3316.6
21817	5.0542	0.27273	0.1	3496.2
21818	5.0542	9.0909e-002	0.1	3420.4
21819	4.7783	0.18182	0.1	3006.5
21820	4.8703	0.27273	0.1	3223.2
21821	4.8703	9.0909e-002	0.1	3132.9
21822	4.5944	0.18182	0.1	2632.8
21823	4.6864	0.27273	0.1	2888.7
21824	4.6864	9.0909e-002	0.1	2782.2
21825	4.4105	0.18182	0.1	2194.8
21826	4.5024	0.27273	0.1	2490.4
21827	4.5024	9.0909e-002	0.1	2365.
21828	4.2265	0.18182	0.1	1696.3
21829	4.3185	0.27273	0.1	2032.8
21830	4.3185	9.0909e-002	0.1	1881.8
21831	4.0426	0.18182	0.1	1163.5
21832	4.1345	0.27273	0.1	1534.5
21833	4.1345	9.0909e-002	0.1	1337.2
21834	3.9506	0.27273	0.1	1091.7
21835	3.8586	0.18182	0.1	654.05
21836	3.9506	9.0909e-002	0.1	754.68
21837	23.724	0.36364	0.1	55.378
21838	23.816	0.45455	0.1	38.393
21839	23.908	0.36364	0.1	21.457
21840	23.54	0.36364	0.1	91.112
21841	23.632	0.45455	0.1	73.481
21842	23.356	0.36364	0.1	128.27
21843	23.448	0.45455	0.1	110.04
21844	23.172	0.36364	0.1	166.25
21845	23.264	0.45455	0.1	147.52
21846	22.988	0.36364	0.1	204.75
21847	23.08	0.45455	0.1	185.64
21848	22.804	0.36364	0.1	243.61
21849	22.896	0.45455	0.1	224.19
21850	22.62	0.36364	0.1	282.74
21851	22.712	0.45455	0.1	263.08
21852	22.437	0.36364	0.1	322.09
21853	22.528	0.45455	0.1	302.23
21854	22.253	0.36364	0.1	361.62
21855	22.345	0.45455	0.1	341.59
21856	22.069	0.36364	0.1	401.31
21857	22.161	0.45455	0.1	381.13
21858	21.885	0.36364	0.1	441.15
21859	21.977	0.45455	0.1	420.84
21860	21.701	0.36364	0.1	481.12
21861	21.793	0.45455	0.1	460.69
21862	21.517	0.36364	0.1	521.24
21863	21.609	0.45455	0.1	500.69
21864	21.333	0.36364	0.1	561.49
21865	21.425	0.45455	0.1	540.84
21866	21.149	0.36364	0.1	601.88
21867	21.241	0.45455	0.1	581.12
21868	20.965	0.36364	0.1	642.4
21869	21.057	0.45455	0.1	621.54
21870	20.781	0.36364	0.1	683.06
21871	20.873	0.45455	0.1	662.1
21872	20.597	0.36364	0.1	723.86
21873	20.689	0.45455	0.1	702.81
21874	20.413	0.36364	0.1	764.81
21875	20.505	0.45455	0.1	743.66
21876	20.229	0.36364	0.1	805.91
21877	20.321	0.45455	0.1	784.66
21878	20.045	0.36364	0.1	847.16
21879	20.137	0.45455	0.1	825.82
21880	19.861	0.36364	0.1	888.57
21881	19.953	0.45455	0.1	867.13
21882	19.677	0.36364	0.1	930.14
21883	19.769	0.45455	0.1	908.61
21884	19.493	0.36364	0.1	971.87
21885	19.585	0.45455	0.1	950.24
21886	19.31	0.36364	0.1	1013.8
21887	19.402	0.45455	0.1	992.05
21888	19.126	0.36364	0.1	1055.8
21889	19.218	0.45455	0.1	1034.
21890	18.942	0.36364	0.1	1098.1
21891	19.034	0.45455	0.1	1076.2
21892	18.758	0.36364	0.1	1140.5
21893	18.85	0.45455	0.1	1118.5
21894	18.574	0.36364	0.1	1183.1
21895	18.666	0.45455	0.1	1161.
21896	18.39	0.36364	0.1	1225.8
21897	18.482	0.45455	0.1	1203.7
21898	18.206	0.36364	0.1	1268.8
21899	18.298	0.45455	0.1	1246.5
21900	18.022	0.36364	0.1	1311.9
21901	18.114	0.45455	0.1	1289.5
21902	17.838	0.36364	0.1	1355.2
21903	17.93	0.45455	0.1	1332.8
21904	17.654	0.36364	0.1	1398.7
21905	17.746	0.45455	0.1	1376.2
21906	17.47	0.36364	0.1	1442.4
21907	17.562	0.45455	0.1	1419.8
21908	17.286	0.36364	0.1	1486.3
21909	17.378	0.45455	0.1	1463.6
21910	17.102	0.36364	0.1	1530.4
21911	17.194	0.45455	0.1	1507.6
21912	16.918	0.36364	0.1	1574.7
21913	17.01	0.45455	0.1	1551.7
21914	16.734	0.36364	0.1	1619.1
21915	16.826	0.45455	0.1	1596.1
21916	16.55	0.36364	0.1	1663.8
21917	16.642	0.45455	0.1	1640.7
21918	16.367	0.36364	0.1	1708.6
21919	16.458	0.45455	0.1	1685.4
21920	16.183	0.36364	0.1	1753.7
21921	16.275	0.45455	0.1	1730.4
21922	15.999	0.36364	0.1	1798.9
21923	16.091	0.45455	0.1	1775.5
21924	15.815	0.36364	0.1	1844.4
21925	15.907	0.45455	0.1	1820.9
21926	15.631	0.36364	0.1	1890.
21927	15.723	0.45455	0.1	1866.4
21928	15.447	0.36364	0.1	1935.9
21929	15.539	0.45455	0.1	1912.2
21930	15.263	0.36364	0.1	1981.9
21931	15.355	0.45455	0.1	1958.1
21932	15.079	0.36364	0.1	2028.2
21933	15.171	0.45455	0.1	2004.3
21934	14.895	0.36364	0.1	2074.6
21935	14.987	0.45455	0.1	2050.6
21936	14.711	0.36364	0.1	2121.3
21937	14.803	0.45455	0.1	2097.2
21938	14.527	0.36364	0.1	2168.2
21939	14.619	0.45455	0.1	2143.9
21940	14.343	0.36364	0.1	2215.2
21941	14.435	0.45455	0.1	2190.9
21942	14.159	0.36364	0.1	2262.5
21943	14.251	0.45455	0.1	2238.
21944	13.975	0.36364	0.1	2310.
21945	14.067	0.45455	0.1	2285.4
21946	13.791	0.36364	0.1	2357.7
21947	13.883	0.45455	0.1	2333.
21948	13.607	0.36364	0.1	2405.6
21949	13.699	0.45455	0.1	2380.8
21950	13.423	0.36364	0.1	2453.7
21951	13.515	0.45455	0.1	2428.8
21952	13.24	0.36364	0.1	2502.
21953	13.332	0.45455	0.1	2477.
21954	13.056	0.36364	0.1	2550.5
21955	13.148	0.45455	0.1	2525.4
21956	12.872	0.36364	0.1	2599.3
21957	12.964	0.45455	0.1	2574.
21958	12.688	0.36364	0.1	2648.2
21959	12.78	0.45455	0.1	2622.8
21960	12.504	0.36364	0.1	2697.4
21961	12.596	0.45455	0.1	2671.9
21962	12.32	0.36364	0.1	2746.8
21963	12.412	0.45455	0.1	2721.1
21964	12.136	0.36364	0.1	2796.3
21965	12.228	0.45455	0.1	2770.6
21966	11.952	0.36364	0.1	2846.2
21967	12.044	0.45455	0.1	2820.3
21968	11.768	0.36364	0.1	2896.2
21969	11.86	0.45455	0.1	2870.2
21970	11.584	0.36364	0.1	2946.4
21971	11.676	0.45455	0.1	2920.3
21972	11.4	0.36364	0.1	2996.9
21973	11.492	0.45455	0.1	2970.6
21974	11.216	0.36364	0.1	3047.6
21975	11.308	0.45455	0.1	3021.2
21976	11.032	0.36364	0.1	3098.5
21977	11.124	0.45455	0.1	3071.9
21978	10.848	0.36364	0.1	3149.6
21979	10.94	0.45455	0.1	3122.9
21980	10.664	0.36364	0.1	3200.9
21981	10.756	0.45455	0.1	3174.
21982	10.48	0.36364	0.1	3252.4
21983	10.572	0.45455	0.1	3225.4
21984	10.297	0.36364	0.1	3304.1
21985	10.388	0.45455	0.1	3277.
21986	10.113	0.36364	0.1	3355.9
21987	10.205	0.45455	0.1	3328.7
21988	9.9286	0.36364	0.1	3407.9
21989	10.021	0.45455	0.1	3380.6
21990	9.7447	0.36364	0.1	3460.1
21991	9.8367	0.45455	0.1	3432.7
21992	9.5608	0.36364	0.1	3512.3
21993	9.6527	0.45455	0.1	3484.9
21994	9.3768	0.36364	0.1	3564.6
21995	9.4688	0.45455	0.1	3537.1
21996	9.1929	0.36364	0.1	3616.9
21997	9.2848	0.45455	0.1	3589.4
21998	9.0089	0.36364	0.1	3669.1
21999	9.1009	0.45455	0.1	3641.7
22000	8.825	0.36364	0.1	3721.1
22001	8.917	0.45455	0.1	3693.9
22002	8.6411	0.36364	0.1	3772.8
22003	8.733	0.45455	0.1	3745.8
22004	8.4571	0.36364	0.1	3824.
22005	8.5491	0.45455	0.1	3797.5
22006	8.2732	0.36364	0.1	3874.5
22007	8.3652	0.45455	0.1	3848.5
22008	8.0892	0.36364	0.1	3924.1
22009	8.1812	0.45455	0.1	3898.9
22010	7.9053	0.36364	0.1	3972.3
22011	7.9973	0.45455	0.1	3948.2
22012	7.7214	0.36364	0.1	4018.7
22013	7.8133	0.45455	0.1	3996.
22014	7.5374	0.36364	0.1	4062.8
22015	7.6294	0.45455	0.1	4042.
22016	7.3535	0.36364	0.1	4103.7
22017	7.4455	0.45455	0.1	4085.5
22018	7.1695	0.36364	0.1	4140.7
22019	7.2615	0.45455	0.1	4125.7
22020	6.9856	0.36364	0.1	4172.5
22021	7.0776	0.45455	0.1	4161.6
22022	6.8017	0.36364	0.1	4197.7
22023	6.8936	0.45455	0.1	4192.
22024	6.6177	0.36364	0.1	4214.4
22025	6.7097	0.45455	0.1	4215.5
22026	6.4338	0.36364	0.1	4220.4
22027	6.5258	0.45455	0.1	4229.9
22028	6.2498	0.36364	0.1	4212.9
22029	6.3418	0.45455	0.1	4233.
22030	6.0659	0.36364	0.1	4188.5
22031	6.1579	0.45455	0.1	4221.7
22032	5.882	0.36364	0.1	4143.1
22033	5.9739	0.45455	0.1	4192.5
22034	5.698	0.36364	0.1	4071.7
22035	5.79	0.45455	0.1	4141.
22036	5.5141	0.36364	0.1	3968.7
22037	5.6061	0.45455	0.1	4062.
22038	5.3302	0.36364	0.1	3827.4
22039	5.4221	0.45455	0.1	3949.4
22040	5.1462	0.36364	0.1	3640.7
22041	5.2382	0.45455	0.1	3796.4
22042	4.9623	0.36364	0.1	3401.7
22043	5.0542	0.45455	0.1	3595.8
22044	4.7783	0.36364	0.1	3104.
22045	4.8703	0.45455	0.1	3340.8
22046	4.5944	0.36364	0.1	2744.1
22047	4.6864	0.45455	0.1	3026.2
22048	4.4105	0.36364	0.1	2325.1
22049	4.5024	0.45455	0.1	2651.8
22050	4.2265	0.36364	0.1	1863.8
22051	4.3185	0.45455	0.1	2229.1
22052	4.0426	0.36364	0.1	1432.1
22053	4.1345	0.45455	0.1	1794.4
22054	3.9506	0.45455	0.1	1479.8
22055	3.8586	0.36364	0.1	1006.9
22056	23.724	0.54545	0.1	56.581
22057	23.816	0.63636	0.1	39.107
22058	23.908	0.54545	0.1	21.983
22059	23.54	0.54545	0.1	92.597
22060	23.632	0.63636	0.1	74.932
22061	23.356	0.54545	0.1	129.51
22062	23.448	0.63636	0.1	111.57
22063	23.172	0.54545	0.1	167.12
22064	23.264	0.63636	0.1	148.82
22065	22.988	0.54545	0.1	205.28
22066	23.08	0.63636	0.1	186.65
22067	22.804	0.54545	0.1	243.85
22068	22.896	0.63636	0.1	224.92
22069	22.62	0.54545	0.1	282.74
22070	22.712	0.63636	0.1	263.55
22071	22.437	0.54545	0.1	321.88
22072	22.528	0.63636	0.1	302.47
22073	22.253	0.54545	0.1	361.24
22074	22.345	0.63636	0.1	341.63
22075	22.069	0.54545	0.1	400.78
22076	22.161	0.63636	0.1	381.
22077	21.885	0.54545	0.1	440.49
22078	21.977	0.63636	0.1	420.56
22079	21.701	0.54545	0.1	480.36
22080	21.793	0.63636	0.1	460.28
22081	21.517	0.54545	0.1	520.38
22082	21.609	0.63636	0.1	500.17
22083	21.333	0.54545	0.1	560.55
22084	21.425	0.63636	0.1	540.21
22085	21.149	0.54545	0.1	600.86
22086	21.241	0.63636	0.1	580.4
22087	20.965	0.54545	0.1	641.32
22088	21.057	0.63636	0.1	620.74
22089	20.781	0.54545	0.1	681.92
22090	20.873	0.63636	0.1	661.23
22091	20.597	0.54545	0.1	722.67
22092	20.689	0.63636	0.1	701.87
22093	20.413	0.54545	0.1	763.58
22094	20.505	0.63636	0.1	742.67
22095	20.229	0.54545	0.1	804.64
22096	20.321	0.63636	0.1	783.62
22097	20.045	0.54545	0.1	845.85
22098	20.137	0.63636	0.1	824.73
22099	19.861	0.54545	0.1	887.23
22100	19.953	0.63636	0.1	866.01
22101	19.677	0.54545	0.1	928.77
22102	19.769	0.63636	0.1	907.45
22103	19.493	0.54545	0.1	970.48
22104	19.585	0.63636	0.1	949.05
22105	19.31	0.54545	0.1	1012.4
22106	19.402	0.63636	0.1	990.83
22107	19.126	0.54545	0.1	1054.4
22108	19.218	0.63636	0.1	1032.8
22109	18.942	0.54545	0.1	1096.6
22110	19.034	0.63636	0.1	1074.9
22111	18.758	0.54545	0.1	1139.
22112	18.85	0.63636	0.1	1117.2
22113	18.574	0.54545	0.1	1181.6
22114	18.666	0.63636	0.1	1159.7
22115	18.39	0.54545	0.1	1224.4
22116	18.482	0.63636	0.1	1202.3
22117	18.206	0.54545	0.1	1267.3
22118	18.298	0.63636	0.1	1245.2
22119	18.022	0.54545	0.1	1310.4
22120	18.114	0.63636	0.1	1288.2
22121	17.838	0.54545	0.1	1353.8
22122	17.93	0.63636	0.1	1331.4
22123	17.654	0.54545	0.1	1397.3
22124	17.746	0.63636	0.1	1374.9
22125	17.47	0.54545	0.1	1441.
22126	17.562	0.63636	0.1	1418.4
22127	17.286	0.54545	0.1	1484.8
22128	17.378	0.63636	0.1	1462.2
22129	17.102	0.54545	0.1	1528.9
22130	17.194	0.63636	0.1	1506.2
22131	16.918	0.54545	0.1	1573.2
22132	17.01	0.63636	0.1	1550.4
22133	16.734	0.54545	0.1	1617.7
22134	16.826	0.63636	0.1	1594.8
22135	16.55	0.54545	0.1	1662.3
22136	16.642	0.63636	0.1	1639.3
22137	16.367	0.54545	0.1	1707.2
22138	16.458	0.63636	0.1	1684.1
22139	16.183	0.54545	0.1	1752.2
22140	16.275	0.63636	0.1	1729.
22141	15.999	0.54545	0.1	1797.5
22142	16.091	0.63636	0.1	1774.2
22143	15.815	0.54545	0.1	1842.9
22144	15.907	0.63636	0.1	1819.5
22145	15.631	0.54545	0.1	1888.6
22146	15.723	0.63636	0.1	1865.1
22147	15.447	0.54545	0.1	1934.4
22148	15.539	0.63636	0.1	1910.8
22149	15.263	0.54545	0.1	1980.5
22150	15.355	0.63636	0.1	1956.8
22151	15.079	0.54545	0.1	2026.7
22152	15.171	0.63636	0.1	2002.9
22153	14.895	0.54545	0.1	2073.2
22154	14.987	0.63636	0.1	2049.2
22155	14.711	0.54545	0.1	2119.8
22156	14.803	0.63636	0.1	2095.8
22157	14.527	0.54545	0.1	2166.7
22158	14.619	0.63636	0.1	2142.5
22159	14.343	0.54545	0.1	2213.7
22160	14.435	0.63636	0.1	2189.5
22161	14.159	0.54545	0.1	2261.
22162	14.251	0.63636	0.1	2236.6
22163	13.975	0.54545	0.1	2308.5
22164	14.067	0.63636	0.1	2284.
22165	13.791	0.54545	0.1	2356.1
22166	13.883	0.63636	0.1	2331.6
22167	13.607	0.54545	0.1	2404.
22168	13.699	0.63636	0.1	2379.3
22169	13.423	0.54545	0.1	2452.1
22170	13.515	0.63636	0.1	2427.3
22171	13.24	0.54545	0.1	2500.4
22172	13.332	0.63636	0.1	2475.5
22173	13.056	0.54545	0.1	2548.9
22174	13.148	0.63636	0.1	2523.9
22175	12.872	0.54545	0.1	2597.6
22176	12.964	0.63636	0.1	2572.5
22177	12.688	0.54545	0.1	2646.5
22178	12.78	0.63636	0.1	2621.3
22179	12.504	0.54545	0.1	2695.7
22180	12.596	0.63636	0.1	2670.3
22181	12.32	0.54545	0.1	2745.
22182	12.412	0.63636	0.1	2719.5
22183	12.136	0.54545	0.1	2794.6
22184	12.228	0.63636	0.1	2768.9
22185	11.952	0.54545	0.1	2844.3
22186	12.044	0.63636	0.1	2818.5
22187	11.768	0.54545	0.1	2894.3
22188	11.86	0.63636	0.1	2868.4
22189	11.584	0.54545	0.1	2944.5
22190	11.676	0.63636	0.1	2918.4
22191	11.4	0.54545	0.1	2994.9
22192	11.492	0.63636	0.1	2968.7
22193	11.216	0.54545	0.1	3045.5
22194	11.308	0.63636	0.1	3019.2
22195	11.032	0.54545	0.1	3096.3
22196	11.124	0.63636	0.1	3069.9
22197	10.848	0.54545	0.1	3147.4
22198	10.94	0.63636	0.1	3120.8
22199	10.664	0.54545	0.1	3198.6
22200	10.756	0.63636	0.1	3171.9
22201	10.48	0.54545	0.1	3250.
22202	10.572	0.63636	0.1	3223.2
22203	10.297	0.54545	0.1	3301.6
22204	10.388	0.63636	0.1	3274.7
22205	10.113	0.54545	0.1	3353.4
22206	10.205	0.63636	0.1	3326.3
22207	9.9286	0.54545	0.1	3405.4
22208	10.021	0.63636	0.1	3378.2
22209	9.7447	0.54545	0.1	3457.5
22210	9.8367	0.63636	0.1	3430.2
22211	9.5608	0.54545	0.1	3509.7
22212	9.6527	0.63636	0.1	3482.3
22213	9.3768	0.54545	0.1	3562.
22214	9.4688	0.63636	0.1	3534.6
22215	9.1929	0.54545	0.1	3614.3
22216	9.2848	0.63636	0.1	3586.9
22217	9.0089	0.54545	0.1	3666.5
22218	9.1009	0.63636	0.1	3639.2
22219	8.825	0.54545	0.1	3718.6
22220	8.917	0.63636	0.1	3691.5
22221	8.6411	0.54545	0.1	3770.5
22222	8.733	0.63636	0.1	3743.6
22223	8.4571	0.54545	0.1	3822.
22224	8.5491	0.63636	0.1	3795.5
22225	8.2732	0.54545	0.1	3872.9
22226	8.3652	0.63636	0.1	3846.9
22227	8.0892	0.54545	0.1	3923.
22228	8.1812	0.63636	0.1	3897.8
22229	7.9053	0.54545	0.1	3972.
22230	7.9973	0.63636	0.1	3947.7
22231	7.7214	0.54545	0.1	4019.4
22232	7.8133	0.63636	0.1	3996.6
22233	7.5374	0.54545	0.1	4064.8
22234	7.6294	0.63636	0.1	4043.8
22235	7.3535	0.54545	0.1	4107.5
22236	7.4455	0.63636	0.1	4088.9
22237	7.1695	0.54545	0.1	4146.6
22238	7.2615	0.63636	0.1	4131.1
22239	6.9856	0.54545	0.1	4181.2
22240	7.0776	0.63636	0.1	4169.8
22241	6.8017	0.54545	0.1	4209.8
22242	6.8936	0.63636	0.1	4203.6
22243	6.6177	0.54545	0.1	4231.
22244	6.7097	0.63636	0.1	4231.3
22245	6.4338	0.54545	0.1	4242.4
22246	6.5258	0.63636	0.1	4251.2
22247	6.2498	0.54545	0.1	4241.7
22248	6.3418	0.63636	0.1	4261.
22249	6.0659	0.54545	0.1	4225.6
22250	6.1579	0.63636	0.1	4258.2
22251	5.882	0.54545	0.1	4190.2
22252	5.9739	0.63636	0.1	4239.3
22253	5.698	0.54545	0.1	4130.9
22254	5.79	0.63636	0.1	4200.5
22255	5.5141	0.54545	0.1	4042.2
22256	5.6061	0.63636	0.1	4136.7
22257	5.3302	0.54545	0.1	3917.7
22258	5.4221	0.63636	0.1	4042.4
22259	5.1462	0.54545	0.1	3750.4
22260	5.2382	0.63636	0.1	3911.1
22261	4.9623	0.54545	0.1	3533.2
22262	5.0542	0.63636	0.1	3735.8
22263	4.7783	0.54545	0.1	3260.2
22264	4.8703	0.63636	0.1	3509.7
22265	4.5944	0.54545	0.1	2929.3
22266	4.6864	0.63636	0.1	3228.5
22267	4.4105	0.54545	0.1	2547.3
22268	4.5024	0.63636	0.1	2893.5
22269	4.2265	0.54545	0.1	2140.7
22270	4.3185	0.63636	0.1	2519.8
22271	4.0426	0.54545	0.1	1796.9
22272	4.1345	0.63636	0.1	2148.4
22273	3.9506	0.63636	0.1	1913.8
22274	3.8586	0.54545	0.1	1364.9
22275	23.724	0.72727	0.1	57.46
22276	23.816	0.81818	0.1	39.509
22277	23.908	0.72727	0.1	22.279
22278	23.54	0.72727	0.1	93.973
22279	23.632	0.81818	0.1	76.012
22280	23.356	0.72727	0.1	130.99
22281	23.448	0.81818	0.1	112.96
22282	23.172	0.72727	0.1	168.47
22283	23.264	0.81818	0.1	150.26
22284	22.988	0.72727	0.1	206.41
22285	23.08	0.81818	0.1	187.96
22286	22.804	0.72727	0.1	244.74
22287	22.896	0.81818	0.1	226.05
22288	22.62	0.72727	0.1	283.4
22289	22.712	0.81818	0.1	264.47
22290	22.437	0.72727	0.1	322.34
22291	22.528	0.81818	0.1	303.19
22292	22.253	0.72727	0.1	361.5
22293	22.345	0.81818	0.1	342.16
22294	22.069	0.72727	0.1	400.88
22295	22.161	0.81818	0.1	381.35
22296	21.885	0.72727	0.1	440.44
22297	21.977	0.81818	0.1	420.74
22298	21.701	0.72727	0.1	480.17
22299	21.793	0.81818	0.1	460.32
22300	21.517	0.72727	0.1	520.07
22301	21.609	0.81818	0.1	500.07
22302	21.333	0.72727	0.1	560.13
22303	21.425	0.81818	0.1	539.99
22304	21.149	0.72727	0.1	600.34
22305	21.241	0.81818	0.1	580.07
22306	20.965	0.72727	0.1	640.71
22307	21.057	0.81818	0.1	620.32
22308	20.781	0.72727	0.1	681.24
22309	20.873	0.81818	0.1	660.72
22310	20.597	0.72727	0.1	721.93
22311	20.689	0.81818	0.1	701.28
22312	20.413	0.72727	0.1	762.77
22313	20.505	0.81818	0.1	742.01
22314	20.229	0.72727	0.1	803.77
22315	20.321	0.81818	0.1	782.9
22316	20.045	0.72727	0.1	844.94
22317	20.137	0.81818	0.1	823.95
22318	19.861	0.72727	0.1	886.27
22319	19.953	0.81818	0.1	865.18
22320	19.677	0.72727	0.1	927.78
22321	19.769	0.81818	0.1	906.57
22322	19.493	0.72727	0.1	969.45
22323	19.585	0.81818	0.1	948.14
22324	19.31	0.72727	0.1	1011.3
22325	19.402	0.81818	0.1	989.88
22326	19.126	0.72727	0.1	1053.3
22327	19.218	0.81818	0.1	1031.8
22328	18.942	0.72727	0.1	1095.5
22329	19.034	0.81818	0.1	1073.9
22330	18.758	0.72727	0.1	1137.9
22331	18.85	0.81818	0.1	1116.2
22332	18.574	0.72727	0.1	1180.5
22333	18.666	0.81818	0.1	1158.6
22334	18.39	0.72727	0.1	1223.2
22335	18.482	0.81818	0.1	1201.3
22336	18.206	0.72727	0.1	1266.1
22337	18.298	0.81818	0.1	1244.1
22338	18.022	0.72727	0.1	1309.3
22339	18.114	0.81818	0.1	1287.1
22340	17.838	0.72727	0.1	1352.6
22341	17.93	0.81818	0.1	1330.3
22342	17.654	0.72727	0.1	1396.1
22343	17.746	0.81818	0.1	1373.7
22344	17.47	0.72727	0.1	1439.8
22345	17.562	0.81818	0.1	1417.3
22346	17.286	0.72727	0.1	1483.6
22347	17.378	0.81818	0.1	1461.1
22348	17.102	0.72727	0.1	1527.7
22349	17.194	0.81818	0.1	1505.1
22350	16.918	0.72727	0.1	1572.
22351	17.01	0.81818	0.1	1549.2
22352	16.734	0.72727	0.1	1616.4
22353	16.826	0.81818	0.1	1593.6
22354	16.55	0.72727	0.1	1661.1
22355	16.642	0.81818	0.1	1638.1
22356	16.367	0.72727	0.1	1705.9
22357	16.458	0.81818	0.1	1682.9
22358	16.183	0.72727	0.1	1751.
22359	16.275	0.81818	0.1	1727.9
22360	15.999	0.72727	0.1	1796.2
22361	16.091	0.81818	0.1	1773.
22362	15.815	0.72727	0.1	1841.7
22363	15.907	0.81818	0.1	1818.3
22364	15.631	0.72727	0.1	1887.3
22365	15.723	0.81818	0.1	1863.9
22366	15.447	0.72727	0.1	1933.2
22367	15.539	0.81818	0.1	1909.6
22368	15.263	0.72727	0.1	1979.2
22369	15.355	0.81818	0.1	1955.6
22370	15.079	0.72727	0.1	2025.5
22371	15.171	0.81818	0.1	2001.7
22372	14.895	0.72727	0.1	2071.9
22373	14.987	0.81818	0.1	2048.
22374	14.711	0.72727	0.1	2118.5
22375	14.803	0.81818	0.1	2094.6
22376	14.527	0.72727	0.1	2165.4
22377	14.619	0.81818	0.1	2141.3
22378	14.343	0.72727	0.1	2212.4
22379	14.435	0.81818	0.1	2188.3
22380	14.159	0.72727	0.1	2259.7
22381	14.251	0.81818	0.1	2235.4
22382	13.975	0.72727	0.1	2307.1
22383	14.067	0.81818	0.1	2282.7
22384	13.791	0.72727	0.1	2354.8
22385	13.883	0.81818	0.1	2330.3
22386	13.607	0.72727	0.1	2402.7
22387	13.699	0.81818	0.1	2378.
22388	13.423	0.72727	0.1	2450.7
22389	13.515	0.81818	0.1	2426.
22390	13.24	0.72727	0.1	2499.
22391	13.332	0.81818	0.1	2474.1
22392	13.056	0.72727	0.1	2547.5
22393	13.148	0.81818	0.1	2522.5
22394	12.872	0.72727	0.1	2596.1
22395	12.964	0.81818	0.1	2571.1
22396	12.688	0.72727	0.1	2645.
22397	12.78	0.81818	0.1	2619.8
22398	12.504	0.72727	0.1	2694.1
22399	12.596	0.81818	0.1	2668.8
22400	12.32	0.72727	0.1	2743.4
22401	12.412	0.81818	0.1	2718.
22402	12.136	0.72727	0.1	2792.9
22403	12.228	0.81818	0.1	2767.4
22404	11.952	0.72727	0.1	2842.6
22405	12.044	0.81818	0.1	2816.9
22406	11.768	0.72727	0.1	2892.6
22407	11.86	0.81818	0.1	2866.7
22408	11.584	0.72727	0.1	2942.7
22409	11.676	0.81818	0.1	2916.7
22410	11.4	0.72727	0.1	2993.
22411	11.492	0.81818	0.1	2967.
22412	11.216	0.72727	0.1	3043.6
22413	11.308	0.81818	0.1	3017.4
22414	11.032	0.72727	0.1	3094.4
22415	11.124	0.81818	0.1	3068.
22416	10.848	0.72727	0.1	3145.3
22417	10.94	0.81818	0.1	3118.8
22418	10.664	0.72727	0.1	3196.5
22419	10.756	0.81818	0.1	3169.8
22420	10.48	0.72727	0.1	3247.8
22421	10.572	0.81818	0.1	3221.1
22422	10.297	0.72727	0.1	3299.4
22423	10.388	0.81818	0.1	3272.5
22424	10.113	0.72727	0.1	3351.1
22425	10.205	0.81818	0.1	3324.1
22426	9.9286	0.72727	0.1	3403.
22427	10.021	0.81818	0.1	3375.9
22428	9.7447	0.72727	0.1	3455.1
22429	9.8367	0.81818	0.1	3427.8
22430	9.5608	0.72727	0.1	3507.2
22431	9.6527	0.81818	0.1	3479.9
22432	9.3768	0.72727	0.1	3559.5
22433	9.4688	0.81818	0.1	3532.2
22434	9.1929	0.72727	0.1	3611.8
22435	9.2848	0.81818	0.1	3584.5
22436	9.0089	0.72727	0.1	3664.2
22437	9.1009	0.81818	0.1	3636.9
22438	8.825	0.72727	0.1	3716.4
22439	8.917	0.81818	0.1	3689.3
22440	8.6411	0.72727	0.1	3768.5
22441	8.733	0.81818	0.1	3741.6
22442	8.4571	0.72727	0.1	3820.4
22443	8.5491	0.81818	0.1	3793.7
22444	8.2732	0.72727	0.1	3871.8
22445	8.3652	0.81818	0.1	3845.6
22446	8.0892	0.72727	0.1	3922.5
22447	8.1812	0.81818	0.1	3897.
22448	7.9053	0.72727	0.1	3972.3
22449	7.9973	0.81818	0.1	3947.8
22450	7.7214	0.72727	0.1	4020.9
22451	7.8133	0.81818	0.1	3997.7
22452	7.5374	0.72727	0.1	4067.9
22453	7.6294	0.81818	0.1	4046.3
22454	7.3535	0.72727	0.1	4112.6
22455	7.4455	0.81818	0.1	4093.3
22456	7.1695	0.72727	0.1	4154.3
22457	7.2615	0.81818	0.1	4138.
22458	6.9856	0.72727	0.1	4192.2
22459	7.0776	0.81818	0.1	4179.7
22460	6.8017	0.72727	0.1	4225.1
22461	6.8936	0.81818	0.1	4217.6
22462	6.6177	0.72727	0.1	4251.6
22463	6.7097	0.81818	0.1	4250.4
22464	6.4338	0.72727	0.1	4269.8
22465	6.5258	0.81818	0.1	4276.7
22466	6.2498	0.72727	0.1	4277.5
22467	6.3418	0.81818	0.1	4294.7
22468	6.0659	0.72727	0.1	4271.8
22469	6.1579	0.81818	0.1	4302.
22470	5.882	0.72727	0.1	4249.3
22471	5.9739	0.81818	0.1	4295.9
22472	5.698	0.72727	0.1	4205.9
22473	5.79	0.81818	0.1	4272.7
22474	5.5141	0.72727	0.1	4136.3
22475	5.6061	0.81818	0.1	4228.4
22476	5.3302	0.72727	0.1	4034.8
22477	5.4221	0.81818	0.1	4157.8
22478	5.1462	0.72727	0.1	3894.7
22479	5.2382	0.81818	0.1	4055.2
22480	4.9623	0.72727	0.1	3709.4
22481	5.0542	0.81818	0.1	3914.1
22482	4.7783	0.72727	0.1	3473.
22483	4.8703	0.81818	0.1	3728.4
22484	4.5944	0.72727	0.1	3184.1
22485	4.6864	0.81818	0.1	3493.7
22486	4.4105	0.72727	0.1	2850.6
22487	4.5024	0.81818	0.1	3211.1
22488	4.2265	0.72727	0.1	2499.5
22489	4.3185	0.81818	0.1	2893.9
22490	4.0426	0.72727	0.1	2218.7
22491	4.1345	0.81818	0.1	2576.7
22492	3.9506	0.81818	0.1	2395.7
22493	3.8586	0.72727	0.1	1738.9
22494	23.724	0.90909	0.1	58.033
22495	23.816	1.	0.1	39.715
22496	23.908	0.90909	0.1	22.419
22497	23.54	0.90909	0.1	95.036
22498	23.632	1.	0.1	76.773
22499	23.356	0.90909	0.1	132.29
22500	23.448	1.	0.1	114.08
22501	23.172	0.90909	0.1	169.82
22502	23.264	1.	0.1	151.54
22503	22.988	0.90909	0.1	207.68
22504	23.08	1.	0.1	189.26
22505	22.804	0.90909	0.1	245.86
22506	22.896	1.	0.1	227.26
22507	22.62	0.90909	0.1	284.35
22508	22.712	1.	0.1	265.56
22509	22.437	0.90909	0.1	323.1
22510	22.528	1.	0.1	304.12
22511	22.253	0.90909	0.1	362.09
22512	22.345	1.	0.1	342.92
22513	22.069	0.90909	0.1	401.29
22514	22.161	1.	0.1	381.95
22515	21.885	0.90909	0.1	440.7
22516	21.977	1.	0.1	421.19
22517	21.701	0.90909	0.1	480.29
22518	21.793	1.	0.1	460.62
22519	21.517	0.90909	0.1	520.06
22520	21.609	1.	0.1	500.23
22521	21.333	0.90909	0.1	560.
22522	21.425	1.	0.1	540.03
22523	21.149	0.90909	0.1	600.11
22524	21.241	1.	0.1	579.99
22525	20.965	0.90909	0.1	640.38
22526	21.057	1.	0.1	620.13
22527	20.781	0.90909	0.1	680.82
22528	20.873	1.	0.1	660.44
22529	20.597	0.90909	0.1	721.42
22530	20.689	1.	0.1	700.92
22531	20.413	0.90909	0.1	762.19
22532	20.505	1.	0.1	741.56
22533	20.229	0.90909	0.1	803.13
22534	20.321	1.	0.1	782.38
22535	20.045	0.90909	0.1	844.24
22536	20.137	1.	0.1	823.37
22537	19.861	0.90909	0.1	885.52
22538	19.953	1.	0.1	864.54
22539	19.677	0.90909	0.1	926.98
22540	19.769	1.	0.1	905.88
22541	19.493	0.90909	0.1	968.61
22542	19.585	1.	0.1	947.4
22543	19.31	0.90909	0.1	1010.4
22544	19.402	1.	0.1	989.1
22545	19.126	0.90909	0.1	1052.4
22546	19.218	1.	0.1	1031.
22547	18.942	0.90909	0.1	1094.6
22548	19.034	1.	0.1	1073.
22549	18.758	0.90909	0.1	1136.9
22550	18.85	1.	0.1	1115.3
22551	18.574	0.90909	0.1	1179.5
22552	18.666	1.	0.1	1157.7
22553	18.39	0.90909	0.1	1222.2
22554	18.482	1.	0.1	1200.3
22555	18.206	0.90909	0.1	1265.1
22556	18.298	1.	0.1	1243.2
22557	18.022	0.90909	0.1	1308.2
22558	18.114	1.	0.1	1286.2
22559	17.838	0.90909	0.1	1351.5
22560	17.93	1.	0.1	1329.3
22561	17.654	0.90909	0.1	1395.
22562	17.746	1.	0.1	1372.7
22563	17.47	0.90909	0.1	1438.7
22564	17.562	1.	0.1	1416.3
22565	17.286	0.90909	0.1	1482.6
22566	17.378	1.	0.1	1460.1
22567	17.102	0.90909	0.1	1526.6
22568	17.194	1.	0.1	1504.
22569	16.918	0.90909	0.1	1570.9
22570	17.01	1.	0.1	1548.2
22571	16.734	0.90909	0.1	1615.3
22572	16.826	1.	0.1	1592.6
22573	16.55	0.90909	0.1	1660.
22574	16.642	1.	0.1	1637.1
22575	16.367	0.90909	0.1	1704.8
22576	16.458	1.	0.1	1681.8
22577	16.183	0.90909	0.1	1749.9
22578	16.275	1.	0.1	1726.8
22579	15.999	0.90909	0.1	1795.1
22580	16.091	1.	0.1	1771.9
22581	15.815	0.90909	0.1	1840.6
22582	15.907	1.	0.1	1817.3
22583	15.631	0.90909	0.1	1886.2
22584	15.723	1.	0.1	1862.8
22585	15.447	0.90909	0.1	1932.
22586	15.539	1.	0.1	1908.5
22587	15.263	0.90909	0.1	1978.1
22588	15.355	1.	0.1	1954.5
22589	15.079	0.90909	0.1	2024.3
22590	15.171	1.	0.1	2000.6
22591	14.895	0.90909	0.1	2070.7
22592	14.987	1.	0.1	2046.9
22593	14.711	0.90909	0.1	2117.4
22594	14.803	1.	0.1	2093.5
22595	14.527	0.90909	0.1	2164.2
22596	14.619	1.	0.1	2140.2
22597	14.343	0.90909	0.1	2211.2
22598	14.435	1.	0.1	2187.1
22599	14.159	0.90909	0.1	2258.5
22600	14.251	1.	0.1	2234.2
22601	13.975	0.90909	0.1	2305.9
22602	14.067	1.	0.1	2281.6
22603	13.791	0.90909	0.1	2353.6
22604	13.883	1.	0.1	2329.1
22605	13.607	0.90909	0.1	2401.4
22606	13.699	1.	0.1	2376.8
22607	13.423	0.90909	0.1	2449.4
22608	13.515	1.	0.1	2424.8
22609	13.24	0.90909	0.1	2497.7
22610	13.332	1.	0.1	2472.9
22611	13.056	0.90909	0.1	2546.1
22612	13.148	1.	0.1	2521.2
22613	12.872	0.90909	0.1	2594.8
22614	12.964	1.	0.1	2569.8
22615	12.688	0.90909	0.1	2643.6
22616	12.78	1.	0.1	2618.5
22617	12.504	0.90909	0.1	2692.7
22618	12.596	1.	0.1	2667.4
22619	12.32	0.90909	0.1	2741.9
22620	12.412	1.	0.1	2716.6
22621	12.136	0.90909	0.1	2791.4
22622	12.228	1.	0.1	2765.9
22623	11.952	0.90909	0.1	2841.1
22624	12.044	1.	0.1	2815.4
22625	11.768	0.90909	0.1	2890.9
22626	11.86	1.	0.1	2865.2
22627	11.584	0.90909	0.1	2941.
22628	11.676	1.	0.1	2915.1
22629	11.4	0.90909	0.1	2991.3
22630	11.492	1.	0.1	2965.3
22631	11.216	0.90909	0.1	3041.8
22632	11.308	1.	0.1	3015.7
22633	11.032	0.90909	0.1	3092.5
22634	11.124	1.	0.1	3066.2
22635	10.848	0.90909	0.1	3143.4
22636	10.94	1.	0.1	3117.
22637	10.664	0.90909	0.1	3194.5
22638	10.756	1.	0.1	3167.9
22639	10.48	0.90909	0.1	3245.8
22640	10.572	1.	0.1	3219.1
22641	10.297	0.90909	0.1	3297.2
22642	10.388	1.	0.1	3270.4
22643	10.113	0.90909	0.1	3348.9
22644	10.205	1.	0.1	3322.
22645	9.9286	0.90909	0.1	3400.7
22646	10.021	1.	0.1	3373.7
22647	9.7447	0.90909	0.1	3452.8
22648	9.8367	1.	0.1	3425.6
22649	9.5608	0.90909	0.1	3504.9
22650	9.6527	1.	0.1	3477.7
22651	9.3768	0.90909	0.1	3557.2
22652	9.4688	1.	0.1	3529.9
22653	9.1929	0.90909	0.1	3609.6
22654	9.2848	1.	0.1	3582.3
22655	9.0089	0.90909	0.1	3662.
22656	9.1009	1.	0.1	3634.7
22657	8.825	0.90909	0.1	3714.4
22658	8.917	1.	0.1	3687.2
22659	8.6411	0.90909	0.1	3766.8
22660	8.733	1.	0.1	3739.7
22661	8.4571	0.90909	0.1	3819.
22662	8.5491	1.	0.1	3792.2
22663	8.2732	0.90909	0.1	3870.9
22664	8.3652	1.	0.1	3844.5
22665	8.0892	0.90909	0.1	3922.4
22666	8.1812	1.	0.1	3896.6
22667	7.9053	0.90909	0.1	3973.2
22668	7.9973	1.	0.1	3948.2
22669	7.7214	0.90909	0.1	4023.1
22670	7.8133	1.	0.1	3999.3
22671	7.5374	0.90909	0.1	4071.8
22672	7.6294	1.	0.1	4049.5
22673	7.3535	0.90909	0.1	4118.7
22674	7.4455	1.	0.1	4098.5
22675	7.1695	0.90909	0.1	4163.4
22676	7.2615	1.	0.1	4145.8
22677	6.9856	0.90909	0.1	4205.1
22678	7.0776	1.	0.1	4191.1
22679	6.8017	0.90909	0.1	4242.9
22680	6.8936	1.	0.1	4233.4
22681	6.6177	0.90909	0.1	4275.5
22682	6.7097	1.	0.1	4271.9
22683	6.4338	0.90909	0.1	4301.6
22684	6.5258	1.	0.1	4305.6
22685	6.2498	0.90909	0.1	4319.2
22686	6.3418	1.	0.1	4332.8
22687	6.0659	0.90909	0.1	4325.9
22688	6.1579	1.	0.1	4351.9
22689	5.882	0.90909	0.1	4319.
22690	5.9739	1.	0.1	4360.6
22691	5.698	0.90909	0.1	4294.8
22692	5.79	1.	0.1	4356.
22693	5.5141	0.90909	0.1	4249.1
22694	5.6061	1.	0.1	4334.8
22695	5.3302	0.90909	0.1	4176.8
22696	5.4221	1.	0.1	4293.1
22697	5.1462	0.90909	0.1	4072.1
22698	5.2382	1.	0.1	4226.
22699	4.9623	0.90909	0.1	3929.
22700	5.0542	1.	0.1	4128.3
22701	4.7783	0.90909	0.1	3741.9
22702	4.8703	1.	0.1	3994.6
22703	4.5944	0.90909	0.1	3508.4
22704	4.6864	1.	0.1	3820.7
22705	4.4105	0.90909	0.1	3233.6
22706	4.5024	1.	0.1	3605.2
22707	4.2265	0.90909	0.1	2937.8
22708	4.3185	1.	0.1	3354.6
22709	4.0426	0.90909	0.1	2705.9
22710	4.1345	1.	0.1	3090.1
22711	3.9506	1.	0.1	2953.4
22712	3.8586	0.90909	0.1	2151.2
22713	23.724	1.0909	0.1	58.412
22714	23.816	1.1818	0.1	39.814
22715	23.908	1.0909	0.1	22.482
22716	23.54	1.0909	0.1	95.837
22717	23.632	1.1818	0.1	77.312
22718	23.356	1.0909	0.1	133.37
22719	23.448	1.1818	0.1	114.96
22720	23.172	1.0909	0.1	171.03
22721	23.264	1.1818	0.1	152.63
22722	22.988	1.0909	0.1	208.9
22723	23.08	1.1818	0.1	190.43
22724	22.804	1.0909	0.1	247.02
22725	22.896	1.1818	0.1	228.44
22726	22.62	1.0909	0.1	285.39
22727	22.712	1.1818	0.1	266.66
22728	22.437	1.0909	0.1	324.01
22729	22.528	1.1818	0.1	305.12
22730	22.253	1.0909	0.1	362.85
22731	22.345	1.1818	0.1	343.8
22732	22.069	1.0909	0.1	401.91
22733	22.161	1.1818	0.1	382.69
22734	21.885	1.0909	0.1	441.17
22735	21.977	1.1818	0.1	421.79
22736	21.701	1.0909	0.1	480.63
22737	21.793	1.1818	0.1	461.09
22738	21.517	1.0909	0.1	520.26
22739	21.609	1.1818	0.1	500.58
22740	21.333	1.0909	0.1	560.08
22741	21.425	1.1818	0.1	540.25
22742	21.149	1.0909	0.1	600.08
22743	21.241	1.1818	0.1	580.1
22744	20.965	1.0909	0.1	640.25
22745	21.057	1.1818	0.1	620.13
22746	20.781	1.0909	0.1	680.59
22747	20.873	1.1818	0.1	660.34
22748	20.597	1.0909	0.1	721.11
22749	20.689	1.1818	0.1	700.72
22750	20.413	1.0909	0.1	761.8
22751	20.505	1.1818	0.1	741.29
22752	20.229	1.0909	0.1	802.67
22753	20.321	1.1818	0.1	782.03
22754	20.045	1.0909	0.1	843.72
22755	20.137	1.1818	0.1	822.95
22756	19.861	1.0909	0.1	884.94
22757	19.953	1.1818	0.1	864.06
22758	19.677	1.0909	0.1	926.34
22759	19.769	1.1818	0.1	905.34
22760	19.493	1.0909	0.1	967.93
22761	19.585	1.1818	0.1	946.81
22762	19.31	1.0909	0.1	1009.7
22763	19.402	1.1818	0.1	988.46
22764	19.126	1.0909	0.1	1051.7
22765	19.218	1.1818	0.1	1030.3
22766	18.942	1.0909	0.1	1093.8
22767	19.034	1.1818	0.1	1072.3
22768	18.758	1.0909	0.1	1136.1
22769	18.85	1.1818	0.1	1114.5
22770	18.574	1.0909	0.1	1178.6
22771	18.666	1.1818	0.1	1157.
22772	18.39	1.0909	0.1	1221.3
22773	18.482	1.1818	0.1	1199.5
22774	18.206	1.0909	0.1	1264.2
22775	18.298	1.1818	0.1	1242.3
22776	18.022	1.0909	0.1	1307.3
22777	18.114	1.1818	0.1	1285.3
22778	17.838	1.0909	0.1	1350.6
22779	17.93	1.1818	0.1	1328.5
22780	17.654	1.0909	0.1	1394.1
22781	17.746	1.1818	0.1	1371.9
22782	17.47	1.0909	0.1	1437.7
22783	17.562	1.1818	0.1	1415.4
22784	17.286	1.0909	0.1	1481.6
22785	17.378	1.1818	0.1	1459.2
22786	17.102	1.0909	0.1	1525.7
22787	17.194	1.1818	0.1	1503.1
22788	16.918	1.0909	0.1	1569.9
22789	17.01	1.1818	0.1	1547.3
22790	16.734	1.0909	0.1	1614.4
22791	16.826	1.1818	0.1	1591.6
22792	16.55	1.0909	0.1	1659.
22793	16.642	1.1818	0.1	1636.2
22794	16.367	1.0909	0.1	1703.8
22795	16.458	1.1818	0.1	1680.9
22796	16.183	1.0909	0.1	1748.9
22797	16.275	1.1818	0.1	1725.8
22798	15.999	1.0909	0.1	1794.1
22799	16.091	1.1818	0.1	1771.
22800	15.815	1.0909	0.1	1839.5
22801	15.907	1.1818	0.1	1816.3
22802	15.631	1.0909	0.1	1885.2
22803	15.723	1.1818	0.1	1861.8
22804	15.447	1.0909	0.1	1931.
22805	15.539	1.1818	0.1	1907.6
22806	15.263	1.0909	0.1	1977.
22807	15.355	1.1818	0.1	1953.5
22808	15.079	1.0909	0.1	2023.3
22809	15.171	1.1818	0.1	1999.6
22810	14.895	1.0909	0.1	2069.7
22811	14.987	1.1818	0.1	2045.9
22812	14.711	1.0909	0.1	2116.3
22813	14.803	1.1818	0.1	2092.4
22814	14.527	1.0909	0.1	2163.1
22815	14.619	1.1818	0.1	2139.2
22816	14.343	1.0909	0.1	2210.1
22817	14.435	1.1818	0.1	2186.1
22818	14.159	1.0909	0.1	2257.4
22819	14.251	1.1818	0.1	2233.2
22820	13.975	1.0909	0.1	2304.8
22821	14.067	1.1818	0.1	2280.5
22822	13.791	1.0909	0.1	2352.4
22823	13.883	1.1818	0.1	2328.
22824	13.607	1.0909	0.1	2400.2
22825	13.699	1.1818	0.1	2375.7
22826	13.423	1.0909	0.1	2448.2
22827	13.515	1.1818	0.1	2423.6
22828	13.24	1.0909	0.1	2496.5
22829	13.332	1.1818	0.1	2471.7
22830	13.056	1.0909	0.1	2544.9
22831	13.148	1.1818	0.1	2520.
22832	12.872	1.0909	0.1	2593.5
22833	12.964	1.1818	0.1	2568.6
22834	12.688	1.0909	0.1	2642.3
22835	12.78	1.1818	0.1	2617.3
22836	12.504	1.0909	0.1	2691.3
22837	12.596	1.1818	0.1	2666.2
22838	12.32	1.0909	0.1	2740.6
22839	12.412	1.1818	0.1	2715.3
22840	12.136	1.0909	0.1	2790.
22841	12.228	1.1818	0.1	2764.6
22842	11.952	1.0909	0.1	2839.6
22843	12.044	1.1818	0.1	2814.1
22844	11.768	1.0909	0.1	2889.4
22845	11.86	1.1818	0.1	2863.8
22846	11.584	1.0909	0.1	2939.4
22847	11.676	1.1818	0.1	2913.7
22848	11.4	1.0909	0.1	2989.7
22849	11.492	1.1818	0.1	2963.8
22850	11.216	1.0909	0.1	3040.1
22851	11.308	1.1818	0.1	3014.
22852	11.032	1.0909	0.1	3090.7
22853	11.124	1.1818	0.1	3064.5
22854	10.848	1.0909	0.1	3141.5
22855	10.94	1.1818	0.1	3115.2
22856	10.664	1.0909	0.1	3192.6
22857	10.756	1.1818	0.1	3166.1
22858	10.48	1.0909	0.1	3243.8
22859	10.572	1.1818	0.1	3217.2
22860	10.297	1.0909	0.1	3295.2
22861	10.388	1.1818	0.1	3268.5
22862	10.113	1.0909	0.1	3346.8
22863	10.205	1.1818	0.1	3320.
22864	9.9286	1.0909	0.1	3398.6
22865	10.021	1.1818	0.1	3371.7
22866	9.7447	1.0909	0.1	3450.6
22867	9.8367	1.1818	0.1	3423.5
22868	9.5608	1.0909	0.1	3502.7
22869	9.6527	1.1818	0.1	3475.6
22870	9.3768	1.0909	0.1	3555.
22871	9.4688	1.1818	0.1	3527.8
22872	9.1929	1.0909	0.1	3607.4
22873	9.2848	1.1818	0.1	3580.1
22874	9.0089	1.0909	0.1	3659.9
22875	9.1009	1.1818	0.1	3632.6
22876	8.825	1.0909	0.1	3712.5
22877	8.917	1.1818	0.1	3685.3
22878	8.6411	1.0909	0.1	3765.2
22879	8.733	1.1818	0.1	3738.
22880	8.4571	1.0909	0.1	3817.7
22881	8.5491	1.1818	0.1	3790.8
22882	8.2732	1.0909	0.1	3870.2
22883	8.3652	1.1818	0.1	3843.6
22884	8.0892	1.0909	0.1	3922.5
22885	8.1812	1.1818	0.1	3896.3
22886	7.9053	1.0909	0.1	3974.3
22887	7.9973	1.1818	0.1	3948.9
22888	7.7214	1.0909	0.1	4025.7
22889	7.8133	1.1818	0.1	4001.2
22890	7.5374	1.0909	0.1	4076.2
22891	7.6294	1.1818	0.1	4053.
22892	7.3535	1.0909	0.1	4125.6
22893	7.4455	1.1818	0.1	4104.2
22894	7.1695	1.0909	0.1	4173.5
22895	7.2615	1.1818	0.1	4154.4
22896	6.9856	1.0909	0.1	4219.4
22897	7.0776	1.1818	0.1	4203.3
22898	6.8017	1.0909	0.1	4262.5
22899	6.8936	1.1818	0.1	4250.5
22900	6.6177	1.0909	0.1	4302.
22901	6.7097	1.1818	0.1	4295.2
22902	6.4338	1.0909	0.1	4336.8
22903	6.5258	1.1818	0.1	4336.8
22904	6.2498	1.0909	0.1	4365.5
22905	6.3418	1.1818	0.1	4374.3
22906	6.0659	1.0909	0.1	4386.4
22907	6.1579	1.1818	0.1	4406.4
22908	5.882	1.0909	0.1	4397.3
22909	5.9739	1.1818	0.1	4431.5
22910	5.698	1.0909	0.1	4395.5
22911	5.79	1.1818	0.1	4447.9
22912	5.5141	1.0909	0.1	4377.9
22913	5.6061	1.1818	0.1	4453.1
22914	5.3302	1.0909	0.1	4340.6
22915	5.4221	1.1818	0.1	4444.6
22916	5.1462	1.0909	0.1	4279.2
22917	5.2382	1.1818	0.1	4419.2
22918	4.9623	1.0909	0.1	4188.8
22919	5.0542	1.1818	0.1	4373.4
22920	4.7783	1.0909	0.1	4064.6
22921	4.8703	1.1818	0.1	4303.7
22922	4.5944	1.0909	0.1	3902.4
22923	4.6864	1.1818	0.1	4206.3
22924	4.4105	1.0909	0.1	3701.5
22925	4.5024	1.1818	0.1	4077.6
22926	4.2265	1.0909	0.1	3469.2
22927	4.3185	1.1818	0.1	3914.7
22928	4.0426	1.0909	0.1	3285.5
22929	4.1345	1.1818	0.1	3719.3
22930	3.9506	1.1818	0.1	3632.3
22931	3.8586	1.0909	0.1	2631.7
22932	23.724	1.2727	0.1	58.661
22933	23.816	1.3636	0.1	39.851
22934	23.908	1.2727	0.1	22.499
22935	23.54	1.2727	0.1	96.439
22936	23.632	1.3636	0.1	77.697
22937	23.356	1.2727	0.1	134.24
22938	23.448	1.3636	0.1	115.63
22939	23.172	1.2727	0.1	172.06
22940	23.264	1.3636	0.1	153.51
22941	22.988	1.2727	0.1	210.01
22942	23.08	1.3636	0.1	191.45
22943	22.804	1.2727	0.1	248.13
22944	22.896	1.3636	0.1	229.5
22945	22.62	1.2727	0.1	286.44
22946	22.712	1.3636	0.1	267.71
22947	22.437	1.2727	0.1	324.97
22948	22.528	1.3636	0.1	306.11
22949	22.253	1.2727	0.1	363.7
22950	22.345	1.3636	0.1	344.71
22951	22.069	1.2727	0.1	402.63
22952	22.161	1.3636	0.1	383.5
22953	21.885	1.2727	0.1	441.77
22954	21.977	1.3636	0.1	422.48
22955	21.701	1.2727	0.1	481.1
22956	21.793	1.3636	0.1	461.66
22957	21.517	1.2727	0.1	520.61
22958	21.609	1.3636	0.1	501.03
22959	21.333	1.2727	0.1	560.32
22960	21.425	1.3636	0.1	540.59
22961	21.149	1.2727	0.1	600.2
22962	21.241	1.3636	0.1	580.33
22963	20.965	1.2727	0.1	640.27
22964	21.057	1.3636	0.1	620.26
22965	20.781	1.2727	0.1	680.52
22966	20.873	1.3636	0.1	660.37
22967	20.597	1.2727	0.1	720.95
22968	20.689	1.3636	0.1	700.66
22969	20.413	1.2727	0.1	761.56
22970	20.505	1.3636	0.1	741.15
22971	20.229	1.2727	0.1	802.36
22972	20.321	1.3636	0.1	781.81
22973	20.045	1.2727	0.1	843.34
22974	20.137	1.3636	0.1	822.66
22975	19.861	1.2727	0.1	884.5
22976	19.953	1.3636	0.1	863.7
22977	19.677	1.2727	0.1	925.85
22978	19.769	1.3636	0.1	904.93
22979	19.493	1.2727	0.1	967.39
22980	19.585	1.3636	0.1	946.35
22981	19.31	1.2727	0.1	1009.1
22982	19.402	1.3636	0.1	987.96
22983	19.126	1.2727	0.1	1051.
22984	19.218	1.3636	0.1	1029.8
22985	18.942	1.2727	0.1	1093.1
22986	19.034	1.3636	0.1	1071.7
22987	18.758	1.2727	0.1	1135.4
22988	18.85	1.3636	0.1	1113.9
22989	18.574	1.2727	0.1	1177.9
22990	18.666	1.3636	0.1	1156.3
22991	18.39	1.2727	0.1	1220.6
22992	18.482	1.3636	0.1	1198.9
22993	18.206	1.2727	0.1	1263.5
22994	18.298	1.3636	0.1	1241.6
22995	18.022	1.2727	0.1	1306.5
22996	18.114	1.3636	0.1	1284.6
22997	17.838	1.2727	0.1	1349.8
22998	17.93	1.3636	0.1	1327.7
22999	17.654	1.2727	0.1	1393.2
23000	17.746	1.3636	0.1	1371.1
23001	17.47	1.2727	0.1	1436.9
23002	17.562	1.3636	0.1	1414.6
23003	17.286	1.2727	0.1	1480.7
23004	17.378	1.3636	0.1	1458.4
23005	17.102	1.2727	0.1	1524.8
23006	17.194	1.3636	0.1	1502.3
23007	16.918	1.2727	0.1	1569.
23008	17.01	1.3636	0.1	1546.5
23009	16.734	1.2727	0.1	1613.5
23010	16.826	1.3636	0.1	1590.8
23011	16.55	1.2727	0.1	1658.1
23012	16.642	1.3636	0.1	1635.3
23013	16.367	1.2727	0.1	1702.9
23014	16.458	1.3636	0.1	1680.1
23015	16.183	1.2727	0.1	1748.
23016	16.275	1.3636	0.1	1725.
23017	15.999	1.2727	0.1	1793.2
23018	16.091	1.3636	0.1	1770.1
23019	15.815	1.2727	0.1	1838.6
23020	15.907	1.3636	0.1	1815.4
23021	15.631	1.2727	0.1	1884.2
23022	15.723	1.3636	0.1	1861.
23023	15.447	1.2727	0.1	1930.1
23024	15.539	1.3636	0.1	1906.7
23025	15.263	1.2727	0.1	1976.1
23026	15.355	1.3636	0.1	1952.6
23027	15.079	1.2727	0.1	2022.3
23028	15.171	1.3636	0.1	1998.7
23029	14.895	1.2727	0.1	2068.7
23030	14.987	1.3636	0.1	2045.
23031	14.711	1.2727	0.1	2115.3
23032	14.803	1.3636	0.1	2091.5
23033	14.527	1.2727	0.1	2162.1
23034	14.619	1.3636	0.1	2138.2
23035	14.343	1.2727	0.1	2209.2
23036	14.435	1.3636	0.1	2185.1
23037	14.159	1.2727	0.1	2256.4
23038	14.251	1.3636	0.1	2232.2
23039	13.975	1.2727	0.1	2303.8
23040	14.067	1.3636	0.1	2279.5
23041	13.791	1.2727	0.1	2351.4
23042	13.883	1.3636	0.1	2327.
23043	13.607	1.2727	0.1	2399.2
23044	13.699	1.3636	0.1	2374.7
23045	13.423	1.2727	0.1	2447.2
23046	13.515	1.3636	0.1	2422.6
23047	13.24	1.2727	0.1	2495.4
23048	13.332	1.3636	0.1	2470.7
23049	13.056	1.2727	0.1	2543.7
23050	13.148	1.3636	0.1	2519.
23051	12.872	1.2727	0.1	2592.3
23052	12.964	1.3636	0.1	2567.5
23053	12.688	1.2727	0.1	2641.1
23054	12.78	1.3636	0.1	2616.1
23055	12.504	1.2727	0.1	2690.1
23056	12.596	1.3636	0.1	2665.
23057	12.32	1.2727	0.1	2739.3
23058	12.412	1.3636	0.1	2714.1
23059	12.136	1.2727	0.1	2788.7
23060	12.228	1.3636	0.1	2763.3
23061	11.952	1.2727	0.1	2838.2
23062	12.044	1.3636	0.1	2812.8
23063	11.768	1.2727	0.1	2888.
23064	11.86	1.3636	0.1	2862.4
23065	11.584	1.2727	0.1	2938.
23066	11.676	1.3636	0.1	2912.3
23067	11.4	1.2727	0.1	2988.1
23068	11.492	1.3636	0.1	2962.3
23069	11.216	1.2727	0.1	3038.5
23070	11.308	1.3636	0.1	3012.6
23071	11.032	1.2727	0.1	3089.1
23072	11.124	1.3636	0.1	3063.
23073	10.848	1.2727	0.1	3139.8
23074	10.94	1.3636	0.1	3113.6
23075	10.664	1.2727	0.1	3190.8
23076	10.756	1.3636	0.1	3164.5
23077	10.48	1.2727	0.1	3242.
23078	10.572	1.3636	0.1	3215.5
23079	10.297	1.2727	0.1	3293.3
23080	10.388	1.3636	0.1	3266.7
23081	10.113	1.2727	0.1	3344.8
23082	10.205	1.3636	0.1	3318.1
23083	9.9286	1.2727	0.1	3396.6
23084	10.021	1.3636	0.1	3369.7
23085	9.7447	1.2727	0.1	3448.5
23086	9.8367	1.3636	0.1	3421.5
23087	9.5608	1.2727	0.1	3500.6
23088	9.6527	1.3636	0.1	3473.5
23089	9.3768	1.2727	0.1	3552.9
23090	9.4688	1.3636	0.1	3525.8
23091	9.1929	1.2727	0.1	3605.4
23092	9.2848	1.3636	0.1	3578.1
23093	9.0089	1.2727	0.1	3658.
23094	9.1009	1.3636	0.1	3630.7
23095	8.825	1.2727	0.1	3710.8
23096	8.917	1.3636	0.1	3683.5
23097	8.6411	1.2727	0.1	3763.7
23098	8.733	1.3636	0.1	3736.4
23099	8.4571	1.2727	0.1	3816.7
23100	8.5491	1.3636	0.1	3789.6
23101	8.2732	1.2727	0.1	3869.7
23102	8.3652	1.3636	0.1	3842.8
23103	8.0892	1.2727	0.1	3922.8
23104	8.1812	1.3636	0.1	3896.2
23105	7.9053	1.2727	0.1	3975.7
23106	7.9973	1.3636	0.1	3949.7
23107	7.7214	1.2727	0.1	4028.5
23108	7.8133	1.3636	0.1	4003.2
23109	7.5374	1.2727	0.1	4081.
23110	7.6294	1.3636	0.1	4056.7
23111	7.3535	1.2727	0.1	4133.
23112	7.4455	1.3636	0.1	4110.1
23113	7.1695	1.2727	0.1	4184.2
23114	7.2615	1.3636	0.1	4163.3
23115	6.9856	1.2727	0.1	4234.5
23116	7.0776	1.3636	0.1	4216.1
23117	6.8017	1.2727	0.1	4283.3
23118	6.8936	1.3636	0.1	4268.2
23119	6.6177	1.2727	0.1	4330.1
23120	6.7097	1.3636	0.1	4319.5
23121	6.4338	1.2727	0.1	4374.3
23122	6.5258	1.3636	0.1	4369.5
23123	6.2498	1.2727	0.1	4415.1
23124	6.3418	1.3636	0.1	4417.8
23125	6.0659	1.2727	0.1	4451.4
23126	6.1579	1.3636	0.1	4463.7
23127	5.882	1.2727	0.1	4481.8
23128	5.9739	1.3636	0.1	4506.6
23129	5.698	1.2727	0.1	4505.
23130	5.79	1.3636	0.1	4545.6
23131	5.5141	1.2727	0.1	4518.9
23132	5.6061	1.3636	0.1	4579.6
23133	5.3302	1.2727	0.1	4521.5
23134	5.4221	1.3636	0.1	4607.8
23135	5.1462	1.2727	0.1	4510.3
23136	5.2382	1.3636	0.1	4629.
23137	4.9623	1.2727	0.1	4482.9
23138	5.0542	1.3636	0.1	4642.5
23139	4.7783	1.2727	0.1	4435.9
23140	4.8703	1.3636	0.1	4647.7
23141	4.5944	1.2727	0.1	4365.3
23142	4.6864	1.3636	0.1	4643.9
23143	4.4105	1.2727	0.1	4264.1
23144	4.5024	1.3636	0.1	4628.5
23145	4.2265	1.2727	0.1	4122.8
23146	4.3185	1.3636	0.1	4594.2
23147	4.0426	1.2727	0.1	4004.4
23148	4.1345	1.3636	0.1	4514.5
23149	3.9506	1.3636	0.1	4521.5
23150	3.8586	1.2727	0.1	3224.9
23151	23.724	1.4545	0.1	58.826
23152	23.816	1.5455	0.1	39.85
23153	23.908	1.4545	0.1	22.49
23154	23.54	1.4545	0.1	96.892
23155	23.632	1.5455	0.1	77.975
23156	23.356	1.4545	0.1	134.93
23157	23.448	1.5455	0.1	116.15
23158	23.172	1.4545	0.1	172.92
23159	23.264	1.5455	0.1	154.23
23160	22.988	1.4545	0.1	210.97
23161	23.08	1.5455	0.1	192.3
23162	22.804	1.4545	0.1	249.12
23163	22.896	1.5455	0.1	230.43
23164	22.62	1.4545	0.1	287.43
23165	22.712	1.5455	0.1	268.66
23166	22.437	1.4545	0.1	325.9
23167	22.528	1.5455	0.1	307.04
23168	22.253	1.4545	0.1	364.55
23169	22.345	1.5455	0.1	345.58
23170	22.069	1.4545	0.1	403.39
23171	22.161	1.5455	0.1	384.3
23172	21.885	1.4545	0.1	442.42
23173	21.977	1.5455	0.1	423.19
23174	21.701	1.4545	0.1	481.64
23175	21.793	1.5455	0.1	462.27
23176	21.517	1.4545	0.1	521.05
23177	21.609	1.5455	0.1	501.54
23178	21.333	1.4545	0.1	560.65
23179	21.425	1.5455	0.1	540.99
23180	21.149	1.4545	0.1	600.43
23181	21.241	1.5455	0.1	580.64
23182	20.965	1.4545	0.1	640.4
23183	21.057	1.5455	0.1	620.47
23184	20.781	1.4545	0.1	680.56
23185	20.873	1.5455	0.1	660.49
23186	20.597	1.4545	0.1	720.91
23187	20.689	1.5455	0.1	700.7
23188	20.413	1.4545	0.1	761.44
23189	20.505	1.5455	0.1	741.1
23190	20.229	1.4545	0.1	802.16
23191	20.321	1.5455	0.1	781.7
23192	20.045	1.4545	0.1	843.08
23193	20.137	1.5455	0.1	822.48
23194	19.861	1.4545	0.1	884.18
23195	19.953	1.5455	0.1	863.46
23196	19.677	1.4545	0.1	925.47
23197	19.769	1.5455	0.1	904.63
23198	19.493	1.4545	0.1	966.96
23199	19.585	1.5455	0.1	945.99
23200	19.31	1.4545	0.1	1008.6
23201	19.402	1.5455	0.1	987.55
23202	19.126	1.4545	0.1	1050.5
23203	19.218	1.5455	0.1	1029.3
23204	18.942	1.4545	0.1	1092.6
23205	19.034	1.5455	0.1	1071.3
23206	18.758	1.4545	0.1	1134.8
23207	18.85	1.5455	0.1	1113.4
23208	18.574	1.4545	0.1	1177.3
23209	18.666	1.5455	0.1	1155.8
23210	18.39	1.4545	0.1	1220.
23211	18.482	1.5455	0.1	1198.3
23212	18.206	1.4545	0.1	1262.8
23213	18.298	1.5455	0.1	1241.
23214	18.022	1.4545	0.1	1305.8
23215	18.114	1.5455	0.1	1284.
23216	17.838	1.4545	0.1	1349.1
23217	17.93	1.5455	0.1	1327.1
23218	17.654	1.4545	0.1	1392.5
23219	17.746	1.5455	0.1	1370.4
23220	17.47	1.4545	0.1	1436.2
23221	17.562	1.5455	0.1	1414.
23222	17.286	1.4545	0.1	1480.
23223	17.378	1.5455	0.1	1457.7
23224	17.102	1.4545	0.1	1524.
23225	17.194	1.5455	0.1	1501.6
23226	16.918	1.4545	0.1	1568.3
23227	17.01	1.5455	0.1	1545.8
23228	16.734	1.4545	0.1	1612.7
23229	16.826	1.5455	0.1	1590.1
23230	16.55	1.4545	0.1	1657.3
23231	16.642	1.5455	0.1	1634.6
23232	16.367	1.4545	0.1	1702.1
23233	16.458	1.5455	0.1	1679.3
23234	16.183	1.4545	0.1	1747.2
23235	16.275	1.5455	0.1	1724.2
23236	15.999	1.4545	0.1	1792.4
23237	16.091	1.5455	0.1	1769.4
23238	15.815	1.4545	0.1	1837.8
23239	15.907	1.5455	0.1	1814.7
23240	15.631	1.4545	0.1	1883.4
23241	15.723	1.5455	0.1	1860.2
23242	15.447	1.4545	0.1	1929.2
23243	15.539	1.5455	0.1	1905.9
23244	15.263	1.4545	0.1	1975.2
23245	15.355	1.5455	0.1	1951.8
23246	15.079	1.4545	0.1	2021.5
23247	15.171	1.5455	0.1	1997.9
23248	14.895	1.4545	0.1	2067.9
23249	14.987	1.5455	0.1	2044.2
23250	14.711	1.4545	0.1	2114.5
23251	14.803	1.5455	0.1	2090.7
23252	14.527	1.4545	0.1	2161.3
23253	14.619	1.5455	0.1	2137.4
23254	14.343	1.4545	0.1	2208.3
23255	14.435	1.5455	0.1	2184.3
23256	14.159	1.4545	0.1	2255.4
23257	14.251	1.5455	0.1	2231.4
23258	13.975	1.4545	0.1	2302.8
23259	14.067	1.5455	0.1	2278.7
23260	13.791	1.4545	0.1	2350.4
23261	13.883	1.5455	0.1	2326.1
23262	13.607	1.4545	0.1	2398.2
23263	13.699	1.5455	0.1	2373.8
23264	13.423	1.4545	0.1	2446.2
23265	13.515	1.5455	0.1	2421.7
23266	13.24	1.4545	0.1	2494.3
23267	13.332	1.5455	0.1	2469.8
23268	13.056	1.4545	0.1	2542.7
23269	13.148	1.5455	0.1	2518.
23270	12.872	1.4545	0.1	2591.3
23271	12.964	1.5455	0.1	2566.5
23272	12.688	1.4545	0.1	2640.
23273	12.78	1.5455	0.1	2615.1
23274	12.504	1.4545	0.1	2689.
23275	12.596	1.5455	0.1	2663.9
23276	12.32	1.4545	0.1	2738.1
23277	12.412	1.5455	0.1	2713.
23278	12.136	1.4545	0.1	2787.5
23279	12.228	1.5455	0.1	2762.2
23280	11.952	1.4545	0.1	2837.
23281	12.044	1.5455	0.1	2811.6
23282	11.768	1.4545	0.1	2886.7
23283	11.86	1.5455	0.1	2861.2
23284	11.584	1.4545	0.1	2936.6
23285	11.676	1.5455	0.1	2911.
23286	11.4	1.4545	0.1	2986.8
23287	11.492	1.5455	0.1	2961.
23288	11.216	1.4545	0.1	3037.1
23289	11.308	1.5455	0.1	3011.2
23290	11.032	1.4545	0.1	3087.6
23291	11.124	1.5455	0.1	3061.6
23292	10.848	1.4545	0.1	3138.3
23293	10.94	1.5455	0.1	3112.2
23294	10.664	1.4545	0.1	3189.2
23295	10.756	1.5455	0.1	3162.9
23296	10.48	1.4545	0.1	3240.2
23297	10.572	1.5455	0.1	3213.9
23298	10.297	1.4545	0.1	3291.5
23299	10.388	1.5455	0.1	3265.
23300	10.113	1.4545	0.1	3343.
23301	10.205	1.5455	0.1	3316.4
23302	9.9286	1.4545	0.1	3394.7
23303	10.021	1.5455	0.1	3368.
23304	9.7447	1.4545	0.1	3446.6
23305	9.8367	1.5455	0.1	3419.7
23306	9.5608	1.4545	0.1	3498.7
23307	9.6527	1.5455	0.1	3471.7
23308	9.3768	1.4545	0.1	3551.
23309	9.4688	1.5455	0.1	3523.9
23310	9.1929	1.4545	0.1	3603.5
23311	9.2848	1.5455	0.1	3576.3
23312	9.0089	1.4545	0.1	3656.2
23313	9.1009	1.5455	0.1	3628.9
23314	8.825	1.4545	0.1	3709.2
23315	8.917	1.5455	0.1	3681.8
23316	8.6411	1.4545	0.1	3762.3
23317	8.733	1.5455	0.1	3735.
23318	8.4571	1.4545	0.1	3815.7
23319	8.5491	1.5455	0.1	3788.4
23320	8.2732	1.4545	0.1	3869.3
23321	8.3652	1.5455	0.1	3842.1
23322	8.0892	1.4545	0.1	3923.2
23323	8.1812	1.5455	0.1	3896.2
23324	7.9053	1.4545	0.1	3977.2
23325	7.9973	1.5455	0.1	3950.6
23326	7.7214	1.4545	0.1	4031.5
23327	7.8133	1.5455	0.1	4005.3
23328	7.5374	1.4545	0.1	4085.9
23329	7.6294	1.5455	0.1	4060.5
23330	7.3535	1.4545	0.1	4140.5
23331	7.4455	1.5455	0.1	4116.1
23332	7.1695	1.4545	0.1	4195.2
23333	7.2615	1.5455	0.1	4172.2
23334	6.9856	1.4545	0.1	4249.9
23335	7.0776	1.5455	0.1	4228.9
23336	6.8017	1.4545	0.1	4304.5
23337	6.8936	1.5455	0.1	4286.1
23338	6.6177	1.4545	0.1	4358.9
23339	6.7097	1.5455	0.1	4344.
23340	6.4338	1.4545	0.1	4413.
23341	6.5258	1.5455	0.1	4402.6
23342	6.2498	1.4545	0.1	4466.4
23343	6.3418	1.5455	0.1	4461.9
23344	6.0659	1.4545	0.1	4518.8
23345	6.1579	1.5455	0.1	4522.1
23346	5.882	1.4545	0.1	4570.
23347	5.9739	1.5455	0.1	4583.4
23348	5.698	1.4545	0.1	4619.7
23349	5.79	1.5455	0.1	4645.9
23350	5.5141	1.4545	0.1	4667.6
23351	5.6061	1.5455	0.1	4710.2
23352	5.3302	1.4545	0.1	4713.6
23353	5.4221	1.5455	0.1	4777.2
23354	5.1462	1.4545	0.1	4758.1
23355	5.2382	1.5455	0.1	4848.3
23356	4.9623	1.4545	0.1	4802.1
23357	5.0542	1.5455	0.1	4926.2
23358	4.7783	1.4545	0.1	4846.6
23359	4.8703	1.5455	0.1	5015.
23360	4.5944	1.4545	0.1	4891.7
23361	4.6864	1.5455	0.1	5120.5
23362	4.4105	1.4545	0.1	4932.5
23363	4.5024	1.5455	0.1	5249.2
23364	4.2265	1.4545	0.1	4940.5
23365	4.3185	1.5455	0.1	5402.9
23366	4.0426	1.4545	0.1	4953.9
23367	4.1345	1.5455	0.1	5552.7
23368	3.9506	1.5455	0.1	5777.8
23369	3.8586	1.4545	0.1	4024.6
23370	23.724	1.6364	0.1	58.934
23371	23.816	1.7273	0.1	39.829
23372	23.908	1.6364	0.1	22.468
23373	23.54	1.6364	0.1	97.235
23374	23.632	1.7273	0.1	78.177
23375	23.356	1.6364	0.1	135.47
23376	23.448	1.7273	0.1	116.56
23377	23.172	1.6364	0.1	173.63
23378	23.264	1.7273	0.1	154.8
23379	22.988	1.6364	0.1	211.78
23380	23.08	1.7273	0.1	193.01
23381	22.804	1.6364	0.1	250.
23382	22.896	1.7273	0.1	231.22
23383	22.62	1.6364	0.1	288.31
23384	22.712	1.7273	0.1	269.49
23385	22.437	1.6364	0.1	326.76
23386	22.528	1.7273	0.1	307.87
23387	22.253	1.6364	0.1	365.36
23388	22.345	1.7273	0.1	346.39
23389	22.069	1.6364	0.1	404.13
23390	22.161	1.7273	0.1	385.05
23391	21.885	1.6364	0.1	443.08
23392	21.977	1.7273	0.1	423.88
23393	21.701	1.6364	0.1	482.21
23394	21.793	1.7273	0.1	462.88
23395	21.517	1.6364	0.1	521.53
23396	21.609	1.7273	0.1	502.06
23397	21.333	1.6364	0.1	561.03
23398	21.425	1.7273	0.1	541.43
23399	21.149	1.6364	0.1	600.72
23400	21.241	1.7273	0.1	580.99
23401	20.965	1.6364	0.1	640.6
23402	21.057	1.7273	0.1	620.73
23403	20.781	1.6364	0.1	680.68
23404	20.873	1.7273	0.1	660.67
23405	20.597	1.6364	0.1	720.94
23406	20.689	1.7273	0.1	700.8
23407	20.413	1.6364	0.1	761.4
23408	20.505	1.7273	0.1	741.13
23409	20.229	1.6364	0.1	802.06
23410	20.321	1.7273	0.1	781.66
23411	20.045	1.6364	0.1	842.91
23412	20.137	1.7273	0.1	822.38
23413	19.861	1.6364	0.1	883.95
23414	19.953	1.7273	0.1	863.3
23415	19.677	1.6364	0.1	925.19
23416	19.769	1.7273	0.1	904.41
23417	19.493	1.6364	0.1	966.63
23418	19.585	1.7273	0.1	945.73
23419	19.31	1.6364	0.1	1008.3
23420	19.402	1.7273	0.1	987.24
23421	19.126	1.6364	0.1	1050.1
23422	19.218	1.7273	0.1	1029.
23423	18.942	1.6364	0.1	1092.1
23424	19.034	1.7273	0.1	1070.9
23425	18.758	1.6364	0.1	1134.4
23426	18.85	1.7273	0.1	1113.
23427	18.574	1.6364	0.1	1176.8
23428	18.666	1.7273	0.1	1155.3
23429	18.39	1.6364	0.1	1219.4
23430	18.482	1.7273	0.1	1197.8
23431	18.206	1.6364	0.1	1262.2
23432	18.298	1.7273	0.1	1240.5
23433	18.022	1.6364	0.1	1305.3
23434	18.114	1.7273	0.1	1283.4
23435	17.838	1.6364	0.1	1348.5
23436	17.93	1.7273	0.1	1326.6
23437	17.654	1.6364	0.1	1391.9
23438	17.746	1.7273	0.1	1369.9
23439	17.47	1.6364	0.1	1435.5
23440	17.562	1.7273	0.1	1413.4
23441	17.286	1.6364	0.1	1479.4
23442	17.378	1.7273	0.1	1457.1
23443	17.102	1.6364	0.1	1523.4
23444	17.194	1.7273	0.1	1501.
23445	16.918	1.6364	0.1	1567.6
23446	17.01	1.7273	0.1	1545.1
23447	16.734	1.6364	0.1	1612.
23448	16.826	1.7273	0.1	1589.5
23449	16.55	1.6364	0.1	1656.6
23450	16.642	1.7273	0.1	1634.
23451	16.367	1.6364	0.1	1701.5
23452	16.458	1.7273	0.1	1678.7
23453	16.183	1.6364	0.1	1746.5
23454	16.275	1.7273	0.1	1723.6
23455	15.999	1.6364	0.1	1791.7
23456	16.091	1.7273	0.1	1768.7
23457	15.815	1.6364	0.1	1837.1
23458	15.907	1.7273	0.1	1814.
23459	15.631	1.6364	0.1	1882.7
23460	15.723	1.7273	0.1	1859.5
23461	15.447	1.6364	0.1	1928.5
23462	15.539	1.7273	0.1	1905.2
23463	15.263	1.6364	0.1	1974.5
23464	15.355	1.7273	0.1	1951.1
23465	15.079	1.6364	0.1	2020.7
23466	15.171	1.7273	0.1	1997.2
23467	14.895	1.6364	0.1	2067.1
23468	14.987	1.7273	0.1	2043.5
23469	14.711	1.6364	0.1	2113.7
23470	14.803	1.7273	0.1	2090.
23471	14.527	1.6364	0.1	2160.5
23472	14.619	1.7273	0.1	2136.7
23473	14.343	1.6364	0.1	2207.5
23474	14.435	1.7273	0.1	2183.6
23475	14.159	1.6364	0.1	2254.6
23476	14.251	1.7273	0.1	2230.6
23477	13.975	1.6364	0.1	2302.
23478	14.067	1.7273	0.1	2277.9
23479	13.791	1.6364	0.1	2349.6
23480	13.883	1.7273	0.1	2325.4
23481	13.607	1.6364	0.1	2397.3
23482	13.699	1.7273	0.1	2373.
23483	13.423	1.6364	0.1	2445.3
23484	13.515	1.7273	0.1	2420.9
23485	13.24	1.6364	0.1	2493.4
23486	13.332	1.7273	0.1	2468.9
23487	13.056	1.6364	0.1	2541.8
23488	13.148	1.7273	0.1	2517.2
23489	12.872	1.6364	0.1	2590.3
23490	12.964	1.7273	0.1	2565.6
23491	12.688	1.6364	0.1	2639.
23492	12.78	1.7273	0.1	2614.2
23493	12.504	1.6364	0.1	2688.
23494	12.596	1.7273	0.1	2663.
23495	12.32	1.6364	0.1	2737.1
23496	12.412	1.7273	0.1	2712.
23497	12.136	1.6364	0.1	2786.4
23498	12.228	1.7273	0.1	2761.2
23499	11.952	1.6364	0.1	2835.9
23500	12.044	1.7273	0.1	2810.6
23501	11.768	1.6364	0.1	2885.6
23502	11.86	1.7273	0.1	2860.1
23503	11.584	1.6364	0.1	2935.4
23504	11.676	1.7273	0.1	2909.9
23505	11.4	1.6364	0.1	2985.5
23506	11.492	1.7273	0.1	2959.8
23507	11.216	1.6364	0.1	3035.7
23508	11.308	1.7273	0.1	3010.
23509	11.032	1.6364	0.1	3086.2
23510	11.124	1.7273	0.1	3060.3
23511	10.848	1.6364	0.1	3136.8
23512	10.94	1.7273	0.1	3110.8
23513	10.664	1.6364	0.1	3187.7
23514	10.756	1.7273	0.1	3161.5
23515	10.48	1.6364	0.1	3238.7
23516	10.572	1.7273	0.1	3212.4
23517	10.297	1.6364	0.1	3289.9
23518	10.388	1.7273	0.1	3263.5
23519	10.113	1.6364	0.1	3341.3
23520	10.205	1.7273	0.1	3314.8
23521	9.9286	1.6364	0.1	3393.
23522	10.021	1.7273	0.1	3366.3
23523	9.7447	1.6364	0.1	3444.8
23524	9.8367	1.7273	0.1	3418.
23525	9.5608	1.6364	0.1	3496.9
23526	9.6527	1.7273	0.1	3470.
23527	9.3768	1.6364	0.1	3549.2
23528	9.4688	1.7273	0.1	3522.2
23529	9.1929	1.6364	0.1	3601.8
23530	9.2848	1.7273	0.1	3574.6
23531	9.0089	1.6364	0.1	3654.6
23532	9.1009	1.7273	0.1	3627.3
23533	8.825	1.6364	0.1	3707.7
23534	8.917	1.7273	0.1	3680.3
23535	8.6411	1.6364	0.1	3761.1
23536	8.733	1.7273	0.1	3733.7
23537	8.4571	1.6364	0.1	3814.8
23538	8.5491	1.7273	0.1	3787.4
23539	8.2732	1.6364	0.1	3869.
23540	8.3652	1.7273	0.1	3841.5
23541	8.0892	1.6364	0.1	3923.6
23542	8.1812	1.7273	0.1	3896.2
23543	7.9053	1.6364	0.1	3978.7
23544	7.9973	1.7273	0.1	3951.4
23545	7.7214	1.6364	0.1	4034.4
23546	7.8133	1.7273	0.1	4007.4
23547	7.5374	1.6364	0.1	4090.7
23548	7.6294	1.7273	0.1	4064.1
23549	7.3535	1.6364	0.1	4147.9
23550	7.4455	1.7273	0.1	4121.9
23551	7.1695	1.6364	0.1	4205.9
23552	7.2615	1.7273	0.1	4180.9
23553	6.9856	1.6364	0.1	4265.1
23554	7.0776	1.7273	0.1	4241.3
23555	6.8017	1.6364	0.1	4325.6
23556	6.8936	1.7273	0.1	4303.5
23557	6.6177	1.6364	0.1	4387.6
23558	6.7097	1.7273	0.1	4367.9
23559	6.4338	1.6364	0.1	4451.5
23560	6.5258	1.7273	0.1	4434.9
23561	6.2498	1.6364	0.1	4517.6
23562	6.3418	1.7273	0.1	4505.3
23563	6.0659	1.6364	0.1	4586.6
23564	6.1579	1.7273	0.1	4579.8
23565	5.882	1.6364	0.1	4659.
23566	5.9739	1.7273	0.1	4659.4
23567	5.698	1.6364	0.1	4736.
23568	5.79	1.7273	0.1	4745.7
23569	5.5141	1.6364	0.1	4819.
23570	5.6061	1.7273	0.1	4840.6
23571	5.3302	1.6364	0.1	4910.3
23572	5.4221	1.7273	0.1	4947.1
23573	5.1462	1.6364	0.1	5013.7
23574	5.2382	1.7273	0.1	5069.4
23575	4.9623	1.6364	0.1	5134.6
23576	5.0542	1.7273	0.1	5214.
23577	4.7783	1.6364	0.1	5281.4
23578	4.8703	1.7273	0.1	5391.2
23579	4.5944	1.6364	0.1	5465.5
23580	4.6864	1.7273	0.1	5616.4
23581	4.4105	1.6364	0.1	5698.1
23582	4.5024	1.7273	0.1	5914.
23583	4.2265	1.6364	0.1	5975.6
23584	4.3185	1.7273	0.1	6319.5
23585	4.0426	1.6364	0.1	6263.1
23586	4.1345	1.7273	0.1	6897.8
23587	3.9506	1.7273	0.1	7964.2
23588	3.8586	1.6364	0.1	5169.5
23589	23.724	1.8182	0.1	59.003
23590	23.816	1.9091	0.1	39.798
23591	23.908	1.8182	0.1	22.44
23592	23.54	1.8182	0.1	97.494
23593	23.632	1.9091	0.1	78.324
23594	23.356	1.8182	0.1	135.9
23595	23.448	1.9091	0.1	116.86
23596	23.172	1.8182	0.1	174.2
23597	23.264	1.9091	0.1	155.26
23598	22.988	1.8182	0.1	212.46
23599	23.08	1.9091	0.1	193.58
23600	22.804	1.8182	0.1	250.74
23601	22.896	1.9091	0.1	231.88
23602	22.62	1.8182	0.1	289.09
23603	22.712	1.9091	0.1	270.2
23604	22.437	1.8182	0.1	327.53
23605	22.528	1.9091	0.1	308.6
23606	22.253	1.8182	0.1	366.11
23607	22.345	1.9091	0.1	347.1
23608	22.069	1.8182	0.1	404.83
23609	22.161	1.9091	0.1	385.73
23610	21.885	1.8182	0.1	443.71
23611	21.977	1.9091	0.1	424.51
23612	21.701	1.8182	0.1	482.77
23613	21.793	1.9091	0.1	463.45
23614	21.517	1.8182	0.1	522.01
23615	21.609	1.9091	0.1	502.57
23616	21.333	1.8182	0.1	561.43
23617	21.425	1.9091	0.1	541.86
23618	21.149	1.8182	0.1	601.04
23619	21.241	1.9091	0.1	581.34
23620	20.965	1.8182	0.1	640.84
23621	21.057	1.9091	0.1	621.02
23622	20.781	1.8182	0.1	680.84
23623	20.873	1.9091	0.1	660.88
23624	20.597	1.8182	0.1	721.03
23625	20.689	1.9091	0.1	700.95
23626	20.413	1.8182	0.1	761.43
23627	20.505	1.9091	0.1	741.21
23628	20.229	1.8182	0.1	802.02
23629	20.321	1.9091	0.1	781.67
23630	20.045	1.8182	0.1	842.81
23631	20.137	1.9091	0.1	822.33
23632	19.861	1.8182	0.1	883.8
23633	19.953	1.9091	0.1	863.2
23634	19.677	1.8182	0.1	924.99
23635	19.769	1.9091	0.1	904.26
23636	19.493	1.8182	0.1	966.38
23637	19.585	1.9091	0.1	945.53
23638	19.31	1.8182	0.1	1008.
23639	19.402	1.9091	0.1	987.01
23640	19.126	1.8182	0.1	1049.8
23641	19.218	1.9091	0.1	1028.7
23642	18.942	1.8182	0.1	1091.8
23643	19.034	1.9091	0.1	1070.6
23644	18.758	1.8182	0.1	1134.
23645	18.85	1.9091	0.1	1112.6
23646	18.574	1.8182	0.1	1176.4
23647	18.666	1.9091	0.1	1154.9
23648	18.39	1.8182	0.1	1219.
23649	18.482	1.9091	0.1	1197.4
23650	18.206	1.8182	0.1	1261.8
23651	18.298	1.9091	0.1	1240.1
23652	18.022	1.8182	0.1	1304.8
23653	18.114	1.9091	0.1	1283.
23654	17.838	1.8182	0.1	1348.
23655	17.93	1.9091	0.1	1326.1
23656	17.654	1.8182	0.1	1391.4
23657	17.746	1.9091	0.1	1369.4
23658	17.47	1.8182	0.1	1435.
23659	17.562	1.9091	0.1	1412.9
23660	17.286	1.8182	0.1	1478.8
23661	17.378	1.9091	0.1	1456.6
23662	17.102	1.8182	0.1	1522.8
23663	17.194	1.9091	0.1	1500.5
23664	16.918	1.8182	0.1	1567.
23665	17.01	1.9091	0.1	1544.6
23666	16.734	1.8182	0.1	1611.4
23667	16.826	1.9091	0.1	1588.9
23668	16.55	1.8182	0.1	1656.
23669	16.642	1.9091	0.1	1633.4
23670	16.367	1.8182	0.1	1700.9
23671	16.458	1.9091	0.1	1678.1
23672	16.183	1.8182	0.1	1745.9
23673	16.275	1.9091	0.1	1723.
23674	15.999	1.8182	0.1	1791.1
23675	16.091	1.9091	0.1	1768.1
23676	15.815	1.8182	0.1	1836.5
23677	15.907	1.9091	0.1	1813.4
23678	15.631	1.8182	0.1	1882.1
23679	15.723	1.9091	0.1	1858.9
23680	15.447	1.8182	0.1	1927.9
23681	15.539	1.9091	0.1	1904.6
23682	15.263	1.8182	0.1	1973.9
23683	15.355	1.9091	0.1	1950.5
23684	15.079	1.8182	0.1	2020.
23685	15.171	1.9091	0.1	1996.6
23686	14.895	1.8182	0.1	2066.4
23687	14.987	1.9091	0.1	2042.9
23688	14.711	1.8182	0.1	2113.
23689	14.803	1.9091	0.1	2089.4
23690	14.527	1.8182	0.1	2159.8
23691	14.619	1.9091	0.1	2136.
23692	14.343	1.8182	0.1	2206.8
23693	14.435	1.9091	0.1	2182.9
23694	14.159	1.8182	0.1	2253.9
23695	14.251	1.9091	0.1	2230.
23696	13.975	1.8182	0.1	2301.3
23697	14.067	1.9091	0.1	2277.2
23698	13.791	1.8182	0.1	2348.8
23699	13.883	1.9091	0.1	2324.7
23700	13.607	1.8182	0.1	2396.6
23701	13.699	1.9091	0.1	2372.3
23702	13.423	1.8182	0.1	2444.5
23703	13.515	1.9091	0.1	2420.2
23704	13.24	1.8182	0.1	2492.7
23705	13.332	1.9091	0.1	2468.2
23706	13.056	1.8182	0.1	2541.
23707	13.148	1.9091	0.1	2516.4
23708	12.872	1.8182	0.1	2589.5
23709	12.964	1.9091	0.1	2564.8
23710	12.688	1.8182	0.1	2638.2
23711	12.78	1.9091	0.1	2613.4
23712	12.504	1.8182	0.1	2687.1
23713	12.596	1.9091	0.1	2662.2
23714	12.32	1.8182	0.1	2736.2
23715	12.412	1.9091	0.1	2711.2
23716	12.136	1.8182	0.1	2785.4
23717	12.228	1.9091	0.1	2760.3
23718	11.952	1.8182	0.1	2834.9
23719	12.044	1.9091	0.1	2809.7
23720	11.768	1.8182	0.1	2884.5
23721	11.86	1.9091	0.1	2859.2
23722	11.584	1.8182	0.1	2934.3
23723	11.676	1.9091	0.1	2908.9
23724	11.4	1.8182	0.1	2984.4
23725	11.492	1.9091	0.1	2958.8
23726	11.216	1.8182	0.1	3034.6
23727	11.308	1.9091	0.1	3008.9
23728	11.032	1.8182	0.1	3085.
23729	11.124	1.9091	0.1	3059.2
23730	10.848	1.8182	0.1	3135.5
23731	10.94	1.9091	0.1	3109.6
23732	10.664	1.8182	0.1	3186.3
23733	10.756	1.9091	0.1	3160.3
23734	10.48	1.8182	0.1	3237.3
23735	10.572	1.9091	0.1	3211.1
23736	10.297	1.8182	0.1	3288.5
23737	10.388	1.9091	0.1	3262.2
23738	10.113	1.8182	0.1	3339.8
23739	10.205	1.9091	0.1	3313.4
23740	9.9286	1.8182	0.1	3391.4
23741	10.021	1.9091	0.1	3364.9
23742	9.7447	1.8182	0.1	3443.2
23743	9.8367	1.9091	0.1	3416.6
23744	9.5608	1.8182	0.1	3495.3
23745	9.6527	1.9091	0.1	3468.5
23746	9.3768	1.8182	0.1	3547.6
23747	9.4688	1.9091	0.1	3520.6
23748	9.1929	1.8182	0.1	3600.2
23749	9.2848	1.9091	0.1	3573.1
23750	9.0089	1.8182	0.1	3653.1
23751	9.1009	1.9091	0.1	3625.8
23752	8.825	1.8182	0.1	3706.3
23753	8.917	1.9091	0.1	3678.9
23754	8.6411	1.8182	0.1	3760.
23755	8.733	1.9091	0.1	3732.5
23756	8.4571	1.8182	0.1	3814.1
23757	8.5491	1.9091	0.1	3786.4
23758	8.2732	1.8182	0.1	3868.7
23759	8.3652	1.9091	0.1	3841.
23760	8.0892	1.8182	0.1	3924.
23761	8.1812	1.9091	0.1	3896.2
23762	7.9053	1.8182	0.1	3980.1
23763	7.9973	1.9091	0.1	3952.2
23764	7.7214	1.8182	0.1	4037.1
23765	7.8133	1.9091	0.1	4009.3
23766	7.5374	1.8182	0.1	4095.3
23767	7.6294	1.9091	0.1	4067.5
23768	7.3535	1.8182	0.1	4154.9
23769	7.4455	1.9091	0.1	4127.3
23770	7.1695	1.8182	0.1	4216.2
23771	7.2615	1.9091	0.1	4188.9
23772	6.9856	1.8182	0.1	4279.7
23773	7.0776	1.9091	0.1	4252.9
23774	6.8017	1.8182	0.1	4345.8
23775	6.8936	1.9091	0.1	4319.8
23776	6.6177	1.8182	0.1	4415.2
23777	6.7097	1.9091	0.1	4390.4
23778	6.4338	1.8182	0.1	4488.7
23779	6.5258	1.9091	0.1	4465.5
23780	6.2498	1.8182	0.1	4567.3
23781	6.3418	1.9091	0.1	4546.5
23782	6.0659	1.8182	0.1	4652.5
23783	6.1579	1.9091	0.1	4634.7
23784	5.882	1.8182	0.1	4745.9
23785	5.9739	1.9091	0.1	4732.2
23786	5.698	1.8182	0.1	4849.9
23787	5.79	1.9091	0.1	4841.6
23788	5.5141	1.8182	0.1	4968.
23789	5.6061	1.9091	0.1	4966.5
23790	5.3302	1.8182	0.1	5104.8
23791	5.4221	1.9091	0.1	5111.7
23792	5.1462	1.8182	0.1	5267.5
23793	5.2382	1.9091	0.1	5284.4
23794	4.9623	1.8182	0.1	5467.
23795	5.0542	1.9091	0.1	5495.1
23796	4.7783	1.8182	0.1	5720.5
23797	4.8703	1.9091	0.1	5760.2
23798	4.5944	1.8182	0.1	6056.
23799	4.6864	1.9091	0.1	6106.3
23800	4.4105	1.8182	0.1	6522.2
23801	4.5024	1.9091	0.1	6579.9
23802	4.2265	1.8182	0.1	7215.2
23803	4.3185	1.9091	0.1	7274.
23804	4.0426	1.8182	0.1	8505.1
23805	4.1345	1.9091	0.1	8367.3
23806	3.9506	1.9091	0.1	11267
23807	3.8586	1.8182	0.1	7259.4
23808	23.724	2.	0.1	59.046
23809	23.816	2.0909	0.1	39.764
23810	23.908	2.	0.1	22.41
23811	23.54	2.	0.1	97.689
23812	23.632	2.0909	0.1	78.43
23813	23.356	2.	0.1	136.23
23814	23.448	2.0909	0.1	117.1
23815	23.172	2.	0.1	174.65
23816	23.264	2.0909	0.1	155.62
23817	22.988	2.	0.1	213.01
23818	23.08	2.0909	0.1	194.04
23819	22.804	2.	0.1	251.36
23820	22.896	2.0909	0.1	232.41
23821	22.62	2.	0.1	289.74
23822	22.712	2.0909	0.1	270.79
23823	22.437	2.	0.1	328.2
23824	22.528	2.0909	0.1	309.21
23825	22.253	2.	0.1	366.76
23826	22.345	2.0909	0.1	347.71
23827	22.069	2.	0.1	405.45
23828	22.161	2.0909	0.1	386.33
23829	21.885	2.	0.1	444.29
23830	21.977	2.0909	0.1	425.07
23831	21.701	2.	0.1	483.29
23832	21.793	2.0909	0.1	463.97
23833	21.517	2.	0.1	522.46
23834	21.609	2.0909	0.1	503.03
23835	21.333	2.	0.1	561.82
23836	21.425	2.0909	0.1	542.26
23837	21.149	2.	0.1	601.36
23838	21.241	2.0909	0.1	581.68
23839	20.965	2.	0.1	641.09
23840	21.057	2.0909	0.1	621.29
23841	20.781	2.	0.1	681.03
23842	20.873	2.0909	0.1	661.1
23843	20.597	2.	0.1	721.16
23844	20.689	2.0909	0.1	701.1
23845	20.413	2.	0.1	761.49
23846	20.505	2.0909	0.1	741.31
23847	20.229	2.	0.1	802.02
23848	20.321	2.0909	0.1	781.71
23849	20.045	2.	0.1	842.76
23850	20.137	2.0909	0.1	822.32
23851	19.861	2.	0.1	883.7
23852	19.953	2.0909	0.1	863.14
23853	19.677	2.	0.1	924.85
23854	19.769	2.0909	0.1	904.16
23855	19.493	2.	0.1	966.2
23856	19.585	2.0909	0.1	945.39
23857	19.31	2.	0.1	1007.8
23858	19.402	2.0909	0.1	986.83
23859	19.126	2.	0.1	1049.5
23860	19.218	2.0909	0.1	1028.5
23861	18.942	2.	0.1	1091.5
23862	19.034	2.0909	0.1	1070.3
23863	18.758	2.	0.1	1133.7
23864	18.85	2.0909	0.1	1112.4
23865	18.574	2.	0.1	1176.
23866	18.666	2.0909	0.1	1154.6
23867	18.39	2.	0.1	1218.6
23868	18.482	2.0909	0.1	1197.1
23869	18.206	2.	0.1	1261.4
23870	18.298	2.0909	0.1	1239.8
23871	18.022	2.	0.1	1304.4
23872	18.114	2.0909	0.1	1282.7
23873	17.838	2.	0.1	1347.6
23874	17.93	2.0909	0.1	1325.7
23875	17.654	2.	0.1	1391.
23876	17.746	2.0909	0.1	1369.
23877	17.47	2.	0.1	1434.6
23878	17.562	2.0909	0.1	1412.5
23879	17.286	2.	0.1	1478.3
23880	17.378	2.0909	0.1	1456.2
23881	17.102	2.	0.1	1522.3
23882	17.194	2.0909	0.1	1500.1
23883	16.918	2.	0.1	1566.5
23884	17.01	2.0909	0.1	1544.2
23885	16.734	2.	0.1	1610.9
23886	16.826	2.0909	0.1	1588.5
23887	16.55	2.	0.1	1655.5
23888	16.642	2.0909	0.1	1633.
23889	16.367	2.	0.1	1700.3
23890	16.458	2.0909	0.1	1677.7
23891	16.183	2.	0.1	1745.3
23892	16.275	2.0909	0.1	1722.6
23893	15.999	2.	0.1	1790.5
23894	16.091	2.0909	0.1	1767.7
23895	15.815	2.	0.1	1835.9
23896	15.907	2.0909	0.1	1812.9
23897	15.631	2.	0.1	1881.5
23898	15.723	2.0909	0.1	1858.4
23899	15.447	2.	0.1	1927.3
23900	15.539	2.0909	0.1	1904.1
23901	15.263	2.	0.1	1973.3
23902	15.355	2.0909	0.1	1950.
23903	15.079	2.	0.1	2019.5
23904	15.171	2.0909	0.1	1996.1
23905	14.895	2.	0.1	2065.9
23906	14.987	2.0909	0.1	2042.4
23907	14.711	2.	0.1	2112.4
23908	14.803	2.0909	0.1	2088.8
23909	14.527	2.	0.1	2159.2
23910	14.619	2.0909	0.1	2135.5
23911	14.343	2.	0.1	2206.2
23912	14.435	2.0909	0.1	2182.4
23913	14.159	2.	0.1	2253.3
23914	14.251	2.0909	0.1	2229.4
23915	13.975	2.	0.1	2300.7
23916	14.067	2.0909	0.1	2276.7
23917	13.791	2.	0.1	2348.2
23918	13.883	2.0909	0.1	2324.1
23919	13.607	2.	0.1	2395.9
23920	13.699	2.0909	0.1	2371.7
23921	13.423	2.	0.1	2443.9
23922	13.515	2.0909	0.1	2419.6
23923	13.24	2.	0.1	2492.
23924	13.332	2.0909	0.1	2467.6
23925	13.056	2.	0.1	2540.3
23926	13.148	2.0909	0.1	2515.8
23927	12.872	2.	0.1	2588.8
23928	12.964	2.0909	0.1	2564.2
23929	12.688	2.	0.1	2637.4
23930	12.78	2.0909	0.1	2612.7
23931	12.504	2.	0.1	2686.3
23932	12.596	2.0909	0.1	2661.5
23933	12.32	2.	0.1	2735.4
23934	12.412	2.0909	0.1	2710.4
23935	12.136	2.	0.1	2784.6
23936	12.228	2.0909	0.1	2759.6
23937	11.952	2.	0.1	2834.
23938	12.044	2.0909	0.1	2808.9
23939	11.768	2.	0.1	2883.6
23940	11.86	2.0909	0.1	2858.4
23941	11.584	2.	0.1	2933.4
23942	11.676	2.0909	0.1	2908.1
23943	11.4	2.	0.1	2983.4
23944	11.492	2.0909	0.1	2957.9
23945	11.216	2.	0.1	3033.5
23946	11.308	2.0909	0.1	3008.
23947	11.032	2.	0.1	3083.9
23948	11.124	2.0909	0.1	3058.2
23949	10.848	2.	0.1	3134.4
23950	10.94	2.0909	0.1	3108.6
23951	10.664	2.	0.1	3185.1
23952	10.756	2.0909	0.1	3159.2
23953	10.48	2.	0.1	3236.1
23954	10.572	2.0909	0.1	3210.
23955	10.297	2.	0.1	3287.2
23956	10.388	2.0909	0.1	3261.
23957	10.113	2.	0.1	3338.5
23958	10.205	2.0909	0.1	3312.2
23959	9.9286	2.	0.1	3390.
23960	10.021	2.0909	0.1	3363.6
23961	9.7447	2.	0.1	3441.8
23962	9.8367	2.0909	0.1	3415.3
23963	9.5608	2.	0.1	3493.8
23964	9.6527	2.0909	0.1	3467.1
23965	9.3768	2.	0.1	3546.1
23966	9.4688	2.0909	0.1	3519.3
23967	9.1929	2.	0.1	3598.8
23968	9.2848	2.0909	0.1	3571.7
23969	9.0089	2.	0.1	3651.7
23970	9.1009	2.0909	0.1	3624.5
23971	8.825	2.	0.1	3705.1
23972	8.917	2.0909	0.1	3677.7
23973	8.6411	2.	0.1	3758.9
23974	8.733	2.0909	0.1	3731.4
23975	8.4571	2.	0.1	3813.4
23976	8.5491	2.0909	0.1	3785.6
23977	8.2732	2.	0.1	3868.5
23978	8.3652	2.0909	0.1	3840.5
23979	8.0892	2.	0.1	3924.4
23980	8.1812	2.0909	0.1	3896.2
23981	7.9053	2.	0.1	3981.4
23982	7.9973	2.0909	0.1	3953.
23983	7.7214	2.	0.1	4039.7
23984	7.8133	2.0909	0.1	4011.
23985	7.5374	2.	0.1	4099.5
23986	7.6294	2.0909	0.1	4070.5
23987	7.3535	2.	0.1	4161.3
23988	7.4455	2.0909	0.1	4132.1
23989	7.1695	2.	0.1	4225.6
23990	7.2615	2.0909	0.1	4196.2
23991	6.9856	2.	0.1	4293.1
23992	7.0776	2.0909	0.1	4263.4
23993	6.8017	2.	0.1	4364.5
23994	6.8936	2.0909	0.1	4334.6
23995	6.6177	2.	0.1	4440.8
23996	6.7097	2.0909	0.1	4410.9
23997	6.4338	2.	0.1	4523.3
23998	6.5258	2.0909	0.1	4493.5
23999	6.2498	2.	0.1	4613.8
24000	6.3418	2.0909	0.1	4584.2
24001	6.0659	2.	0.1	4714.4
24002	6.1579	2.0909	0.1	4685.2
24003	5.882	2.	0.1	4827.8
24004	5.9739	2.0909	0.1	4799.4
24005	5.698	2.	0.1	4957.8
24006	5.79	2.0909	0.1	4930.5
24007	5.5141	2.	0.1	5109.6
24008	5.6061	2.0909	0.1	5083.5
24009	5.3302	2.	0.1	5290.2
24010	5.4221	2.0909	0.1	5265.2
24011	5.1462	2.	0.1	5510.2
24012	5.2382	2.0909	0.1	5485.4
24013	4.9623	2.	0.1	5785.5
24014	5.0542	2.0909	0.1	5758.2
24015	4.7783	2.	0.1	6142.
24016	4.8703	2.0909	0.1	6105.4
24017	4.5944	2.	0.1	6624.7
24018	4.6864	2.0909	0.1	6562.8
24019	4.4105	2.	0.1	7325.3
24020	4.5024	2.0909	0.1	7194.2
24021	4.2265	2.	0.1	8425.4
24022	4.3185	2.0909	0.1	8132.6
24023	4.0426	2.	0.1	11160
24024	4.1345	2.0909	0.1	9675.9
24025	3.9506	2.0909	0.1	13343
24026	3.8586	2.	0.1	19820
24027	23.724	2.1818	0.1	59.072
24028	23.816	2.2727	0.1	39.731
24029	23.908	2.1818	0.1	22.381
24030	23.54	2.1818	0.1	97.835
24031	23.632	2.2727	0.1	78.505
24032	23.356	2.1818	0.1	136.49
24033	23.448	2.2727	0.1	117.28
24034	23.172	2.1818	0.1	175.01
24035	23.264	2.2727	0.1	155.89
24036	22.988	2.1818	0.1	213.45
24037	23.08	2.2727	0.1	194.39
24038	22.804	2.1818	0.1	251.86
24039	22.896	2.2727	0.1	232.83
24040	22.62	2.1818	0.1	290.28
24041	22.712	2.2727	0.1	271.26
24042	22.437	2.1818	0.1	328.75
24043	22.528	2.2727	0.1	309.7
24044	22.253	2.1818	0.1	367.31
24045	22.345	2.2727	0.1	348.21
24046	22.069	2.1818	0.1	405.98
24047	22.161	2.2727	0.1	386.82
24048	21.885	2.1818	0.1	444.78
24049	21.977	2.2727	0.1	425.54
24050	21.701	2.1818	0.1	483.74
24051	21.793	2.2727	0.1	464.41
24052	21.517	2.1818	0.1	522.87
24053	21.609	2.2727	0.1	503.43
24054	21.333	2.1818	0.1	562.17
24055	21.425	2.2727	0.1	542.62
24056	21.149	2.1818	0.1	601.65
24057	21.241	2.2727	0.1	581.99
24058	20.965	2.1818	0.1	641.33
24059	21.057	2.2727	0.1	621.55
24060	20.781	2.1818	0.1	681.21
24061	20.873	2.2727	0.1	661.3
24062	20.597	2.1818	0.1	721.29
24063	20.689	2.2727	0.1	701.25
24064	20.413	2.1818	0.1	761.57
24065	20.505	2.2727	0.1	741.41
24066	20.229	2.1818	0.1	802.05
24067	20.321	2.2727	0.1	781.77
24068	20.045	2.1818	0.1	842.74
24069	20.137	2.2727	0.1	822.34
24070	19.861	2.1818	0.1	883.64
24071	19.953	2.2727	0.1	863.12
24072	19.677	2.1818	0.1	924.75
24073	19.769	2.2727	0.1	904.1
24074	19.493	2.1818	0.1	966.06
24075	19.585	2.2727	0.1	945.3
24076	19.31	2.1818	0.1	1007.6
24077	19.402	2.2727	0.1	986.7
24078	19.126	2.1818	0.1	1049.3
24079	19.218	2.2727	0.1	1028.3
24080	18.942	2.1818	0.1	1091.3
24081	19.034	2.2727	0.1	1070.1
24082	18.758	2.1818	0.1	1133.4
24083	18.85	2.2727	0.1	1112.2
24084	18.574	2.1818	0.1	1175.8
24085	18.666	2.2727	0.1	1154.4
24086	18.39	2.1818	0.1	1218.3
24087	18.482	2.2727	0.1	1196.9
24088	18.206	2.1818	0.1	1261.1
24089	18.298	2.2727	0.1	1239.5
24090	18.022	2.1818	0.1	1304.
24091	18.114	2.2727	0.1	1282.4
24092	17.838	2.1818	0.1	1347.2
24093	17.93	2.2727	0.1	1325.4
24094	17.654	2.1818	0.1	1390.6
24095	17.746	2.2727	0.1	1368.7
24096	17.47	2.1818	0.1	1434.2
24097	17.562	2.2727	0.1	1412.2
24098	17.286	2.1818	0.1	1478.
24099	17.378	2.2727	0.1	1455.9
24100	17.102	2.1818	0.1	1522.
24101	17.194	2.2727	0.1	1499.7
24102	16.918	2.1818	0.1	1566.1
24103	17.01	2.2727	0.1	1543.8
24104	16.734	2.1818	0.1	1610.5
24105	16.826	2.2727	0.1	1588.1
24106	16.55	2.1818	0.1	1655.1
24107	16.642	2.2727	0.1	1632.6
24108	16.367	2.1818	0.1	1699.9
24109	16.458	2.2727	0.1	1677.3
24110	16.183	2.1818	0.1	1744.9
24111	16.275	2.2727	0.1	1722.2
24112	15.999	2.1818	0.1	1790.1
24113	16.091	2.2727	0.1	1767.3
24114	15.815	2.1818	0.1	1835.5
24115	15.907	2.2727	0.1	1812.6
24116	15.631	2.1818	0.1	1881.1
24117	15.723	2.2727	0.1	1858.
24118	15.447	2.1818	0.1	1926.9
24119	15.539	2.2727	0.1	1903.7
24120	15.263	2.1818	0.1	1972.8
24121	15.355	2.2727	0.1	1949.6
24122	15.079	2.1818	0.1	2019.
24123	15.171	2.2727	0.1	1995.7
24124	14.895	2.1818	0.1	2065.4
24125	14.987	2.2727	0.1	2041.9
24126	14.711	2.1818	0.1	2111.9
24127	14.803	2.2727	0.1	2088.4
24128	14.527	2.1818	0.1	2158.7
24129	14.619	2.2727	0.1	2135.1
24130	14.343	2.1818	0.1	2205.7
24131	14.435	2.2727	0.1	2181.9
24132	14.159	2.1818	0.1	2252.8
24133	14.251	2.2727	0.1	2229.
24134	13.975	2.1818	0.1	2300.1
24135	14.067	2.2727	0.1	2276.2
24136	13.791	2.1818	0.1	2347.7
24137	13.883	2.2727	0.1	2323.6
24138	13.607	2.1818	0.1	2395.4
24139	13.699	2.2727	0.1	2371.3
24140	13.423	2.1818	0.1	2443.3
24141	13.515	2.2727	0.1	2419.1
24142	13.24	2.1818	0.1	2491.4
24143	13.332	2.2727	0.1	2467.1
24144	13.056	2.1818	0.1	2539.7
24145	13.148	2.2727	0.1	2515.2
24146	12.872	2.1818	0.1	2588.2
24147	12.964	2.2727	0.1	2563.6
24148	12.688	2.1818	0.1	2636.8
24149	12.78	2.2727	0.1	2612.2
24150	12.504	2.1818	0.1	2685.7
24151	12.596	2.2727	0.1	2660.9
24152	12.32	2.1818	0.1	2734.7
24153	12.412	2.2727	0.1	2709.8
24154	12.136	2.1818	0.1	2783.9
24155	12.228	2.2727	0.1	2758.9
24156	11.952	2.1818	0.1	2833.3
24157	12.044	2.2727	0.1	2808.2
24158	11.768	2.1818	0.1	2882.9
24159	11.86	2.2727	0.1	2857.7
24160	11.584	2.1818	0.1	2932.6
24161	11.676	2.2727	0.1	2907.4
24162	11.4	2.1818	0.1	2982.5
24163	11.492	2.2727	0.1	2957.2
24164	11.216	2.1818	0.1	3032.7
24165	11.308	2.2727	0.1	3007.2
24166	11.032	2.1818	0.1	3083.
24167	11.124	2.2727	0.1	3057.4
24168	10.848	2.1818	0.1	3133.5
24169	10.94	2.2727	0.1	3107.8
24170	10.664	2.1818	0.1	3184.1
24171	10.756	2.2727	0.1	3158.3
24172	10.48	2.1818	0.1	3235.
24173	10.572	2.2727	0.1	3209.1
24174	10.297	2.1818	0.1	3286.1
24175	10.388	2.2727	0.1	3260.
24176	10.113	2.1818	0.1	3337.4
24177	10.205	2.2727	0.1	3311.2
24178	9.9286	2.1818	0.1	3388.9
24179	10.021	2.2727	0.1	3362.6
24180	9.7447	2.1818	0.1	3440.6
24181	9.8367	2.2727	0.1	3414.2
24182	9.5608	2.1818	0.1	3492.6
24183	9.6527	2.2727	0.1	3466.
24184	9.3768	2.1818	0.1	3544.9
24185	9.4688	2.2727	0.1	3518.2
24186	9.1929	2.1818	0.1	3597.5
24187	9.2848	2.2727	0.1	3570.6
24188	9.0089	2.1818	0.1	3650.6
24189	9.1009	2.2727	0.1	3623.4
24190	8.825	2.1818	0.1	3704.
24191	8.917	2.2727	0.1	3676.7
24192	8.6411	2.1818	0.1	3758.1
24193	8.733	2.2727	0.1	3730.5
24194	8.4571	2.1818	0.1	3812.7
24195	8.5491	2.2727	0.1	3784.9
24196	8.2732	2.1818	0.1	3868.2
24197	8.3652	2.2727	0.1	3840.1
24198	8.0892	2.1818	0.1	3924.8
24199	8.1812	2.2727	0.1	3896.2
24200	7.9053	2.1818	0.1	3982.5
24201	7.9973	2.2727	0.1	3953.6
24202	7.7214	2.1818	0.1	4041.9
24203	7.8133	2.2727	0.1	4012.4
24204	7.5374	2.1818	0.1	4103.2
24205	7.6294	2.2727	0.1	4073.1
24206	7.3535	2.1818	0.1	4167.
24207	7.4455	2.2727	0.1	4136.3
24208	7.1695	2.1818	0.1	4234.
24209	7.2615	2.2727	0.1	4202.4
24210	6.9856	2.1818	0.1	4305.
24211	7.0776	2.2727	0.1	4272.5
24212	6.8017	2.1818	0.1	4381.
24213	6.8936	2.2727	0.1	4347.4
24214	6.6177	2.1818	0.1	4463.6
24215	6.7097	2.2727	0.1	4428.6
24216	6.4338	2.1818	0.1	4554.3
24217	6.5258	2.2727	0.1	4517.8
24218	6.2498	2.1818	0.1	4655.5
24219	6.3418	2.2727	0.1	4617.1
24220	6.0659	2.1818	0.1	4770.1
24221	6.1579	2.2727	0.1	4729.5
24222	5.882	2.1818	0.1	4901.9
24223	5.9739	2.2727	0.1	4858.5
24224	5.698	2.1818	0.1	5055.9
24225	5.79	2.2727	0.1	5009.
24226	5.5141	2.1818	0.1	5238.7
24227	5.6061	2.2727	0.1	5187.3
24228	5.3302	2.1818	0.1	5459.7
24229	5.4221	2.2727	0.1	5401.9
24230	5.1462	2.1818	0.1	5732.3
24231	5.2382	2.2727	0.1	5664.7
24232	4.9623	2.1818	0.1	6076.3
24233	5.0542	2.2727	0.1	5992.4
24234	4.7783	2.1818	0.1	6523.7
24235	4.8703	2.2727	0.1	6410.2
24236	4.5944	2.1818	0.1	7129.8
24237	4.6864	2.2727	0.1	6958.2
24238	4.4105	2.1818	0.1	8000.9
24239	4.5024	2.2727	0.1	7704.1
24240	4.2265	2.1818	0.1	9392.9
24241	4.3185	2.2727	0.1	8776.2
24242	4.0426	2.1818	0.1	11956
24243	4.1345	2.2727	0.1	10449
24244	3.9506	2.2727	0.1	13263
24245	3.8586	2.1818	0.1	16008
24246	23.724	2.3636	0.1	59.087
24247	23.816	2.4545	0.1	39.703
24248	23.908	2.3636	0.1	22.356
24249	23.54	2.3636	0.1	97.942
24250	23.632	2.4545	0.1	78.558
24251	23.356	2.3636	0.1	136.68
24252	23.448	2.4545	0.1	117.41
24253	23.172	2.3636	0.1	175.28
24254	23.264	2.4545	0.1	156.09
24255	22.988	2.3636	0.1	213.79
24256	23.08	2.4545	0.1	194.66
24257	22.804	2.3636	0.1	252.25
24258	22.896	2.4545	0.1	233.15
24259	22.62	2.3636	0.1	290.7
24260	22.712	2.4545	0.1	271.61
24261	22.437	2.3636	0.1	329.19
24262	22.528	2.4545	0.1	310.09
24263	22.253	2.3636	0.1	367.75
24264	22.345	2.4545	0.1	348.61
24265	22.069	2.3636	0.1	406.41
24266	22.161	2.4545	0.1	387.21
24267	21.885	2.3636	0.1	445.19
24268	21.977	2.4545	0.1	425.92
24269	21.701	2.3636	0.1	484.12
24270	21.793	2.4545	0.1	464.76
24271	21.517	2.3636	0.1	523.21
24272	21.609	2.4545	0.1	503.75
24273	21.333	2.3636	0.1	562.47
24274	21.425	2.4545	0.1	542.9
24275	21.149	2.3636	0.1	601.91
24276	21.241	2.4545	0.1	582.24
24277	20.965	2.3636	0.1	641.55
24278	21.057	2.4545	0.1	621.76
24279	20.781	2.3636	0.1	681.38
24280	20.873	2.4545	0.1	661.47
24281	20.597	2.3636	0.1	721.41
24282	20.689	2.4545	0.1	701.39
24283	20.413	2.3636	0.1	761.65
24284	20.505	2.4545	0.1	741.5
24285	20.229	2.3636	0.1	802.09
24286	20.321	2.4545	0.1	781.83
24287	20.045	2.3636	0.1	842.75
24288	20.137	2.4545	0.1	822.36
24289	19.861	2.3636	0.1	883.61
24290	19.953	2.4545	0.1	863.11
24291	19.677	2.3636	0.1	924.69
24292	19.769	2.4545	0.1	904.06
24293	19.493	2.3636	0.1	965.97
24294	19.585	2.4545	0.1	945.23
24295	19.31	2.3636	0.1	1007.5
24296	19.402	2.4545	0.1	986.61
24297	19.126	2.3636	0.1	1049.2
24298	19.218	2.4545	0.1	1028.2
24299	18.942	2.3636	0.1	1091.1
24300	19.034	2.4545	0.1	1070.
24301	18.758	2.3636	0.1	1133.2
24302	18.85	2.4545	0.1	1112.
24303	18.574	2.3636	0.1	1175.5
24304	18.666	2.4545	0.1	1154.2
24305	18.39	2.3636	0.1	1218.1
24306	18.482	2.4545	0.1	1196.7
24307	18.206	2.3636	0.1	1260.8
24308	18.298	2.4545	0.1	1239.3
24309	18.022	2.3636	0.1	1303.8
24310	18.114	2.4545	0.1	1282.2
24311	17.838	2.3636	0.1	1347.
24312	17.93	2.4545	0.1	1325.2
24313	17.654	2.3636	0.1	1390.3
24314	17.746	2.4545	0.1	1368.5
24315	17.47	2.3636	0.1	1433.9
24316	17.562	2.4545	0.1	1411.9
24317	17.286	2.3636	0.1	1477.7
24318	17.378	2.4545	0.1	1455.6
24319	17.102	2.3636	0.1	1521.7
24320	17.194	2.4545	0.1	1499.5
24321	16.918	2.3636	0.1	1565.8
24322	17.01	2.4545	0.1	1543.6
24323	16.734	2.3636	0.1	1610.2
24324	16.826	2.4545	0.1	1587.8
24325	16.55	2.3636	0.1	1654.8
24326	16.642	2.4545	0.1	1632.3
24327	16.367	2.3636	0.1	1699.6
24328	16.458	2.4545	0.1	1677.
24329	16.183	2.3636	0.1	1744.6
24330	16.275	2.4545	0.1	1721.9
24331	15.999	2.3636	0.1	1789.8
24332	16.091	2.4545	0.1	1767.
24333	15.815	2.3636	0.1	1835.1
24334	15.907	2.4545	0.1	1812.3
24335	15.631	2.3636	0.1	1880.7
24336	15.723	2.4545	0.1	1857.7
24337	15.447	2.3636	0.1	1926.5
24338	15.539	2.4545	0.1	1903.4
24339	15.263	2.3636	0.1	1972.5
24340	15.355	2.4545	0.1	1949.3
24341	15.079	2.3636	0.1	2018.6
24342	15.171	2.4545	0.1	1995.4
24343	14.895	2.3636	0.1	2065.
24344	14.987	2.4545	0.1	2041.6
24345	14.711	2.3636	0.1	2111.6
24346	14.803	2.4545	0.1	2088.1
24347	14.527	2.3636	0.1	2158.3
24348	14.619	2.4545	0.1	2134.7
24349	14.343	2.3636	0.1	2205.3
24350	14.435	2.4545	0.1	2181.6
24351	14.159	2.3636	0.1	2252.4
24352	14.251	2.4545	0.1	2228.6
24353	13.975	2.3636	0.1	2299.7
24354	14.067	2.4545	0.1	2275.8
24355	13.791	2.3636	0.1	2347.2
24356	13.883	2.4545	0.1	2323.3
24357	13.607	2.3636	0.1	2395.
24358	13.699	2.4545	0.1	2370.9
24359	13.423	2.3636	0.1	2442.9
24360	13.515	2.4545	0.1	2418.7
24361	13.24	2.3636	0.1	2490.9
24362	13.332	2.4545	0.1	2466.7
24363	13.056	2.3636	0.1	2539.2
24364	13.148	2.4545	0.1	2514.8
24365	12.872	2.3636	0.1	2587.7
24366	12.964	2.4545	0.1	2563.2
24367	12.688	2.3636	0.1	2636.3
24368	12.78	2.4545	0.1	2611.7
24369	12.504	2.3636	0.1	2685.1
24370	12.596	2.4545	0.1	2660.5
24371	12.32	2.3636	0.1	2734.1
24372	12.412	2.4545	0.1	2709.4
24373	12.136	2.3636	0.1	2783.3
24374	12.228	2.4545	0.1	2758.5
24375	11.952	2.3636	0.1	2832.7
24376	12.044	2.4545	0.1	2807.7
24377	11.768	2.3636	0.1	2882.2
24378	11.86	2.4545	0.1	2857.2
24379	11.584	2.3636	0.1	2932.
24380	11.676	2.4545	0.1	2906.8
24381	11.4	2.3636	0.1	2981.9
24382	11.492	2.4545	0.1	2956.6
24383	11.216	2.3636	0.1	3032.
24384	11.308	2.4545	0.1	3006.6
24385	11.032	2.3636	0.1	3082.2
24386	11.124	2.4545	0.1	3056.8
24387	10.848	2.3636	0.1	3132.7
24388	10.94	2.4545	0.1	3107.1
24389	10.664	2.3636	0.1	3183.3
24390	10.756	2.4545	0.1	3157.6
24391	10.48	2.3636	0.1	3234.2
24392	10.572	2.4545	0.1	3208.4
24393	10.297	2.3636	0.1	3285.2
24394	10.388	2.4545	0.1	3259.3
24395	10.113	2.3636	0.1	3336.4
24396	10.205	2.4545	0.1	3310.4
24397	9.9286	2.3636	0.1	3387.9
24398	10.021	2.4545	0.1	3361.7
24399	9.7447	2.3636	0.1	3439.6
24400	9.8367	2.4545	0.1	3413.3
24401	9.5608	2.3636	0.1	3491.6
24402	9.6527	2.4545	0.1	3465.1
24403	9.3768	2.3636	0.1	3543.9
24404	9.4688	2.4545	0.1	3517.3
24405	9.1929	2.3636	0.1	3596.5
24406	9.2848	2.4545	0.1	3569.7
24407	9.0089	2.3636	0.1	3649.6
24408	9.1009	2.4545	0.1	3622.6
24409	8.825	2.3636	0.1	3703.2
24410	8.917	2.4545	0.1	3675.9
24411	8.6411	2.3636	0.1	3757.3
24412	8.733	2.4545	0.1	3729.8
24413	8.4571	2.3636	0.1	3812.2
24414	8.5491	2.4545	0.1	3784.3
24415	8.2732	2.3636	0.1	3868.1
24416	8.3652	2.4545	0.1	3839.7
24417	8.0892	2.3636	0.1	3925.
24418	8.1812	2.4545	0.1	3896.2
24419	7.9053	2.3636	0.1	3983.4
24420	7.9973	2.4545	0.1	3954.
24421	7.7214	2.3636	0.1	4043.7
24422	7.8133	2.4545	0.1	4013.5
24423	7.5374	2.3636	0.1	4106.2
24424	7.6294	2.4545	0.1	4075.2
24425	7.3535	2.3636	0.1	4171.7
24426	7.4455	2.4545	0.1	4139.6
24427	7.1695	2.3636	0.1	4240.9
24428	7.2615	2.4545	0.1	4207.5
24429	6.9856	2.3636	0.1	4314.9
24430	7.0776	2.4545	0.1	4279.8
24431	6.8017	2.3636	0.1	4395.
24432	6.8936	2.4545	0.1	4357.8
24433	6.6177	2.3636	0.1	4482.8
24434	6.7097	2.4545	0.1	4443.1
24435	6.4338	2.3636	0.1	4580.6
24436	6.5258	2.4545	0.1	4537.7
24437	6.2498	2.3636	0.1	4691.1
24438	6.3418	2.4545	0.1	4644.2
24439	6.0659	2.3636	0.1	4817.8
24440	6.1579	2.4545	0.1	4766.
24441	5.882	2.3636	0.1	4965.5
24442	5.9739	2.4545	0.1	4907.4
24443	5.698	2.3636	0.1	5140.3
24444	5.79	2.4545	0.1	5074.2
24445	5.5141	2.3636	0.1	5350.3
24446	5.6061	2.4545	0.1	5273.7
24447	5.3302	2.3636	0.1	5606.5
24448	5.4221	2.4545	0.1	5515.9
24449	5.1462	2.3636	0.1	5924.2
24450	5.2382	2.4545	0.1	5814.2
24451	4.9623	2.3636	0.1	6325.5
24452	5.0542	2.4545	0.1	6186.8
24453	4.7783	2.3636	0.1	6844.
24454	4.8703	2.4545	0.1	6659.5
24455	4.5944	2.3636	0.1	7533.1
24456	4.6864	2.4545	0.1	7270.2
24457	4.4105	2.3636	0.1	8484.3
24458	4.5024	2.4545	0.1	8075.2
24459	4.2265	2.3636	0.1	9851.9
24460	4.3185	2.4545	0.1	9159.6
24461	4.0426	2.3636	0.1	11808
24462	4.1345	2.4545	0.1	10633
24463	3.9506	2.4545	0.1	12497
24464	3.8586	2.3636	0.1	13849
24465	23.724	2.5455	0.1	59.096
24466	23.816	2.6364	0.1	39.682
24467	23.908	2.5455	0.1	22.337
24468	23.54	2.5455	0.1	98.016
24469	23.632	2.6364	0.1	78.593
24470	23.356	2.5455	0.1	136.82
24471	23.448	2.6364	0.1	117.49
24472	23.172	2.5455	0.1	175.48
24473	23.264	2.6364	0.1	156.23
24474	22.988	2.5455	0.1	214.03
24475	23.08	2.6364	0.1	194.84
24476	22.804	2.5455	0.1	252.53
24477	22.896	2.6364	0.1	233.37
24478	22.62	2.5455	0.1	291.02
24479	22.712	2.6364	0.1	271.86
24480	22.437	2.5455	0.1	329.52
24481	22.528	2.6364	0.1	310.36
24482	22.253	2.5455	0.1	368.08
24483	22.345	2.6364	0.1	348.88
24484	22.069	2.5455	0.1	406.74
24485	22.161	2.6364	0.1	387.48
24486	21.885	2.5455	0.1	445.5
24487	21.977	2.6364	0.1	426.18
24488	21.701	2.5455	0.1	484.41
24489	21.793	2.6364	0.1	465.01
24490	21.517	2.5455	0.1	523.47
24491	21.609	2.6364	0.1	503.98
24492	21.333	2.5455	0.1	562.7
24493	21.425	2.6364	0.1	543.11
24494	21.149	2.5455	0.1	602.11
24495	21.241	2.6364	0.1	582.42
24496	20.965	2.5455	0.1	641.71
24497	21.057	2.6364	0.1	621.91
24498	20.781	2.5455	0.1	681.51
24499	20.873	2.6364	0.1	661.6
24500	20.597	2.5455	0.1	721.51
24501	20.689	2.6364	0.1	701.49
24502	20.413	2.5455	0.1	761.72
24503	20.505	2.6364	0.1	741.58
24504	20.229	2.5455	0.1	802.13
24505	20.321	2.6364	0.1	781.88
24506	20.045	2.5455	0.1	842.76
24507	20.137	2.6364	0.1	822.39
24508	19.861	2.5455	0.1	883.6
24509	19.953	2.6364	0.1	863.11
24510	19.677	2.5455	0.1	924.65
24511	19.769	2.6364	0.1	904.04
24512	19.493	2.5455	0.1	965.91
24513	19.585	2.6364	0.1	945.19
24514	19.31	2.5455	0.1	1007.4
24515	19.402	2.6364	0.1	986.55
24516	19.126	2.5455	0.1	1049.1
24517	19.218	2.6364	0.1	1028.1
24518	18.942	2.5455	0.1	1091.
24519	19.034	2.6364	0.1	1069.9
24520	18.758	2.5455	0.1	1133.1
24521	18.85	2.6364	0.1	1111.9
24522	18.574	2.5455	0.1	1175.4
24523	18.666	2.6364	0.1	1154.1
24524	18.39	2.5455	0.1	1217.9
24525	18.482	2.6364	0.1	1196.5
24526	18.206	2.5455	0.1	1260.7
24527	18.298	2.6364	0.1	1239.2
24528	18.022	2.5455	0.1	1303.6
24529	18.114	2.6364	0.1	1282.
24530	17.838	2.5455	0.1	1346.8
24531	17.93	2.6364	0.1	1325.1
24532	17.654	2.5455	0.1	1390.1
24533	17.746	2.6364	0.1	1368.3
24534	17.47	2.5455	0.1	1433.7
24535	17.562	2.6364	0.1	1411.8
24536	17.286	2.5455	0.1	1477.5
24537	17.378	2.6364	0.1	1455.4
24538	17.102	2.5455	0.1	1521.4
24539	17.194	2.6364	0.1	1499.3
24540	16.918	2.5455	0.1	1565.6
24541	17.01	2.6364	0.1	1543.4
24542	16.734	2.5455	0.1	1610.
24543	16.826	2.6364	0.1	1587.6
24544	16.55	2.5455	0.1	1654.6
24545	16.642	2.6364	0.1	1632.1
24546	16.367	2.5455	0.1	1699.3
24547	16.458	2.6364	0.1	1676.8
24548	16.183	2.5455	0.1	1744.3
24549	16.275	2.6364	0.1	1721.7
24550	15.999	2.5455	0.1	1789.5
24551	16.091	2.6364	0.1	1766.8
24552	15.815	2.5455	0.1	1834.9
24553	15.907	2.6364	0.1	1812.
24554	15.631	2.5455	0.1	1880.5
24555	15.723	2.6364	0.1	1857.5
24556	15.447	2.5455	0.1	1926.2
24557	15.539	2.6364	0.1	1903.2
24558	15.263	2.5455	0.1	1972.2
24559	15.355	2.6364	0.1	1949.1
24560	15.079	2.5455	0.1	2018.4
24561	15.171	2.6364	0.1	1995.1
24562	14.895	2.5455	0.1	2064.7
24563	14.987	2.6364	0.1	2041.4
24564	14.711	2.5455	0.1	2111.3
24565	14.803	2.6364	0.1	2087.8
24566	14.527	2.5455	0.1	2158.
24567	14.619	2.6364	0.1	2134.5
24568	14.343	2.5455	0.1	2205.
24569	14.435	2.6364	0.1	2181.3
24570	14.159	2.5455	0.1	2252.1
24571	14.251	2.6364	0.1	2228.4
24572	13.975	2.5455	0.1	2299.4
24573	14.067	2.6364	0.1	2275.6
24574	13.791	2.5455	0.1	2346.9
24575	13.883	2.6364	0.1	2323.
24576	13.607	2.5455	0.1	2394.6
24577	13.699	2.6364	0.1	2370.6
24578	13.423	2.5455	0.1	2442.5
24579	13.515	2.6364	0.1	2418.4
24580	13.24	2.5455	0.1	2490.6
24581	13.332	2.6364	0.1	2466.4
24582	13.056	2.5455	0.1	2538.9
24583	13.148	2.6364	0.1	2514.5
24584	12.872	2.5455	0.1	2587.3
24585	12.964	2.6364	0.1	2562.9
24586	12.688	2.5455	0.1	2635.9
24587	12.78	2.6364	0.1	2611.4
24588	12.504	2.5455	0.1	2684.7
24589	12.596	2.6364	0.1	2660.1
24590	12.32	2.5455	0.1	2733.7
24591	12.412	2.6364	0.1	2709.
24592	12.136	2.5455	0.1	2782.9
24593	12.228	2.6364	0.1	2758.1
24594	11.952	2.5455	0.1	2832.2
24595	12.044	2.6364	0.1	2807.4
24596	11.768	2.5455	0.1	2881.8
24597	11.86	2.6364	0.1	2856.8
24598	11.584	2.5455	0.1	2931.5
24599	11.676	2.6364	0.1	2906.4
24600	11.4	2.5455	0.1	2981.4
24601	11.492	2.6364	0.1	2956.2
24602	11.216	2.5455	0.1	3031.4
24603	11.308	2.6364	0.1	3006.2
24604	11.032	2.5455	0.1	3081.7
24605	11.124	2.6364	0.1	3056.3
24606	10.848	2.5455	0.1	3132.1
24607	10.94	2.6364	0.1	3106.6
24608	10.664	2.5455	0.1	3182.7
24609	10.756	2.6364	0.1	3157.1
24610	10.48	2.5455	0.1	3233.5
24611	10.572	2.6364	0.1	3207.8
24612	10.297	2.5455	0.1	3284.5
24613	10.388	2.6364	0.1	3258.7
24614	10.113	2.5455	0.1	3335.7
24615	10.205	2.6364	0.1	3309.8
24616	9.9286	2.5455	0.1	3387.2
24617	10.021	2.6364	0.1	3361.1
24618	9.7447	2.5455	0.1	3438.8
24619	9.8367	2.6364	0.1	3412.7
24620	9.5608	2.5455	0.1	3490.8
24621	9.6527	2.6364	0.1	3464.5
24622	9.3768	2.5455	0.1	3543.1
24623	9.4688	2.6364	0.1	3516.6
24624	9.1929	2.5455	0.1	3595.8
24625	9.2848	2.6364	0.1	3569.1
24626	9.0089	2.5455	0.1	3648.9
24627	9.1009	2.6364	0.1	3621.9
24628	8.825	2.5455	0.1	3702.5
24629	8.917	2.6364	0.1	3675.3
24630	8.6411	2.5455	0.1	3756.8
24631	8.733	2.6364	0.1	3729.2
24632	8.4571	2.5455	0.1	3811.8
24633	8.5491	2.6364	0.1	3783.9
24634	8.2732	2.5455	0.1	3867.9
24635	8.3652	2.6364	0.1	3839.5
24636	8.0892	2.5455	0.1	3925.2
24637	8.1812	2.6364	0.1	3896.2
24638	7.9053	2.5455	0.1	3984.1
24639	7.9973	2.6364	0.1	3954.4
24640	7.7214	2.5455	0.1	4045.1
24641	7.8133	2.6364	0.1	4014.4
24642	7.5374	2.5455	0.1	4108.6
24643	7.6294	2.6364	0.1	4076.7
24644	7.3535	2.5455	0.1	4175.4
24645	7.4455	2.6364	0.1	4142.
24646	7.1695	2.5455	0.1	4246.3
24647	7.2615	2.6364	0.1	4211.2
24648	6.9856	2.5455	0.1	4322.7
24649	7.0776	2.6364	0.1	4285.2
24650	6.8017	2.5455	0.1	4405.9
24651	6.8936	2.6364	0.1	4365.5
24652	6.6177	2.5455	0.1	4497.9
24653	6.7097	2.6364	0.1	4453.8
24654	6.4338	2.5455	0.1	4601.2
24655	6.5258	2.6364	0.1	4552.4
24656	6.2498	2.5455	0.1	4719.1
24657	6.3418	2.6364	0.1	4664.3
24658	6.0659	2.5455	0.1	4855.5
24659	6.1579	2.6364	0.1	4793.2
24660	5.882	2.5455	0.1	5016.
24661	5.9739	2.6364	0.1	4944.
24662	5.698	2.5455	0.1	5207.5
24663	5.79	2.6364	0.1	5123.1
24664	5.5141	2.5455	0.1	5439.4
24665	5.6061	2.6364	0.1	5338.8
24666	5.3302	2.5455	0.1	5723.6
24667	5.4221	2.6364	0.1	5602.
24668	5.1462	2.5455	0.1	6076.8
24669	5.2382	2.6364	0.1	5926.8
24670	4.9623	2.5455	0.1	6521.1
24671	5.0542	2.6364	0.1	6332.1
24672	4.7783	2.5455	0.1	7086.9
24673	4.8703	2.6364	0.1	6842.2
24674	4.5944	2.5455	0.1	7815.7
24675	4.6864	2.6364	0.1	7488.3
24676	4.4105	2.5455	0.1	8759.4
24677	4.5024	2.6364	0.1	8307.1
24678	4.2265	2.5455	0.1	9959.6
24679	4.3185	2.6364	0.1	9331.1
24680	4.0426	2.5455	0.1	11342
24681	4.1345	2.6364	0.1	10550
24682	3.9506	2.6364	0.1	11791
24683	3.8586	2.5455	0.1	12557
24684	23.724	2.7273	0.1	59.1
24685	23.816	2.8182	0.1	39.668
24686	23.908	2.7273	0.1	22.323
24687	23.54	2.7273	0.1	98.063
24688	23.632	2.8182	0.1	78.612
24689	23.356	2.7273	0.1	136.91
24690	23.448	2.8182	0.1	117.55
24691	23.172	2.7273	0.1	175.6
24692	23.264	2.8182	0.1	156.31
24693	22.988	2.7273	0.1	214.2
24694	23.08	2.8182	0.1	194.95
24695	22.804	2.7273	0.1	252.72
24696	22.896	2.8182	0.1	233.51
24697	22.62	2.7273	0.1	291.22
24698	22.712	2.8182	0.1	272.01
24699	22.437	2.7273	0.1	329.74
24700	22.528	2.8182	0.1	310.52
24701	22.253	2.7273	0.1	368.31
24702	22.345	2.8182	0.1	349.05
24703	22.069	2.7273	0.1	406.96
24704	22.161	2.8182	0.1	387.65
24705	21.885	2.7273	0.1	445.72
24706	21.977	2.8182	0.1	426.35
24707	21.701	2.7273	0.1	484.61
24708	21.793	2.8182	0.1	465.17
24709	21.517	2.7273	0.1	523.65
24710	21.609	2.8182	0.1	504.12
24711	21.333	2.7273	0.1	562.86
24712	21.425	2.8182	0.1	543.24
24713	21.149	2.7273	0.1	602.25
24714	21.241	2.8182	0.1	582.54
24715	20.965	2.7273	0.1	641.83
24716	21.057	2.8182	0.1	622.01
24717	20.781	2.7273	0.1	681.61
24718	20.873	2.8182	0.1	661.68
24719	20.597	2.7273	0.1	721.59
24720	20.689	2.8182	0.1	701.55
24721	20.413	2.7273	0.1	761.77
24722	20.505	2.8182	0.1	741.63
24723	20.229	2.7273	0.1	802.17
24724	20.321	2.8182	0.1	781.91
24725	20.045	2.7273	0.1	842.77
24726	20.137	2.8182	0.1	822.41
24727	19.861	2.7273	0.1	883.59
24728	19.953	2.8182	0.1	863.11
24729	19.677	2.7273	0.1	924.62
24730	19.769	2.8182	0.1	904.03
24731	19.493	2.7273	0.1	965.87
24732	19.585	2.8182	0.1	945.17
24733	19.31	2.7273	0.1	1007.3
24734	19.402	2.8182	0.1	986.52
24735	19.126	2.7273	0.1	1049.
24736	19.218	2.8182	0.1	1028.1
24737	18.942	2.7273	0.1	1090.9
24738	19.034	2.8182	0.1	1069.9
24739	18.758	2.7273	0.1	1133.
24740	18.85	2.8182	0.1	1111.8
24741	18.574	2.7273	0.1	1175.3
24742	18.666	2.8182	0.1	1154.
24743	18.39	2.7273	0.1	1217.8
24744	18.482	2.8182	0.1	1196.5
24745	18.206	2.7273	0.1	1260.5
24746	18.298	2.8182	0.1	1239.1
24747	18.022	2.7273	0.1	1303.5
24748	18.114	2.8182	0.1	1281.9
24749	17.838	2.7273	0.1	1346.6
24750	17.93	2.8182	0.1	1325.
24751	17.654	2.7273	0.1	1390.
24752	17.746	2.8182	0.1	1368.2
24753	17.47	2.7273	0.1	1433.5
24754	17.562	2.8182	0.1	1411.7
24755	17.286	2.7273	0.1	1477.3
24756	17.378	2.8182	0.1	1455.3
24757	17.102	2.7273	0.1	1521.3
24758	17.194	2.8182	0.1	1499.2
24759	16.918	2.7273	0.1	1565.4
24760	17.01	2.8182	0.1	1543.3
24761	16.734	2.7273	0.1	1609.8
24762	16.826	2.8182	0.1	1587.5
24763	16.55	2.7273	0.1	1654.4
24764	16.642	2.8182	0.1	1632.
24765	16.367	2.7273	0.1	1699.2
24766	16.458	2.8182	0.1	1676.7
24767	16.183	2.7273	0.1	1744.1
24768	16.275	2.8182	0.1	1721.6
24769	15.999	2.7273	0.1	1789.3
24770	16.091	2.8182	0.1	1766.6
24771	15.815	2.7273	0.1	1834.7
24772	15.907	2.8182	0.1	1811.9
24773	15.631	2.7273	0.1	1880.3
24774	15.723	2.8182	0.1	1857.4
24775	15.447	2.7273	0.1	1926.
24776	15.539	2.8182	0.1	1903.1
24777	15.263	2.7273	0.1	1972.
24778	15.355	2.8182	0.1	1948.9
24779	15.079	2.7273	0.1	2018.2
24780	15.171	2.8182	0.1	1995.
24781	14.895	2.7273	0.1	2064.5
24782	14.987	2.8182	0.1	2041.2
24783	14.711	2.7273	0.1	2111.1
24784	14.803	2.8182	0.1	2087.7
24785	14.527	2.7273	0.1	2157.8
24786	14.619	2.8182	0.1	2134.3
24787	14.343	2.7273	0.1	2204.8
24788	14.435	2.8182	0.1	2181.2
24789	14.159	2.7273	0.1	2251.9
24790	14.251	2.8182	0.1	2228.2
24791	13.975	2.7273	0.1	2299.2
24792	14.067	2.8182	0.1	2275.4
24793	13.791	2.7273	0.1	2346.7
24794	13.883	2.8182	0.1	2322.8
24795	13.607	2.7273	0.1	2394.4
24796	13.699	2.8182	0.1	2370.4
24797	13.423	2.7273	0.1	2442.3
24798	13.515	2.8182	0.1	2418.2
24799	13.24	2.7273	0.1	2490.4
24800	13.332	2.8182	0.1	2466.2
24801	13.056	2.7273	0.1	2538.6
24802	13.148	2.8182	0.1	2514.4
24803	12.872	2.7273	0.1	2587.
24804	12.964	2.8182	0.1	2562.7
24805	12.688	2.7273	0.1	2635.7
24806	12.78	2.8182	0.1	2611.2
24807	12.504	2.7273	0.1	2684.5
24808	12.596	2.8182	0.1	2659.9
24809	12.32	2.7273	0.1	2733.4
24810	12.412	2.8182	0.1	2708.8
24811	12.136	2.7273	0.1	2782.6
24812	12.228	2.8182	0.1	2757.9
24813	11.952	2.7273	0.1	2831.9
24814	12.044	2.8182	0.1	2807.2
24815	11.768	2.7273	0.1	2881.5
24816	11.86	2.8182	0.1	2856.6
24817	11.584	2.7273	0.1	2931.2
24818	11.676	2.8182	0.1	2906.2
24819	11.4	2.7273	0.1	2981.
24820	11.492	2.8182	0.1	2955.9
24821	11.216	2.7273	0.1	3031.1
24822	11.308	2.8182	0.1	3005.9
24823	11.032	2.7273	0.1	3081.3
24824	11.124	2.8182	0.1	3056.
24825	10.848	2.7273	0.1	3131.7
24826	10.94	2.8182	0.1	3106.3
24827	10.664	2.7273	0.1	3182.3
24828	10.756	2.8182	0.1	3156.8
24829	10.48	2.7273	0.1	3233.1
24830	10.572	2.8182	0.1	3207.5
24831	10.297	2.7273	0.1	3284.
24832	10.388	2.8182	0.1	3258.4
24833	10.113	2.7273	0.1	3335.2
24834	10.205	2.8182	0.1	3309.5
24835	9.9286	2.7273	0.1	3386.7
24836	10.021	2.8182	0.1	3360.8
24837	9.7447	2.7273	0.1	3438.3
24838	9.8367	2.8182	0.1	3412.3
24839	9.5608	2.7273	0.1	3490.3
24840	9.6527	2.8182	0.1	3464.1
24841	9.3768	2.7273	0.1	3542.6
24842	9.4688	2.8182	0.1	3516.2
24843	9.1929	2.7273	0.1	3595.2
24844	9.2848	2.8182	0.1	3568.7
24845	9.0089	2.7273	0.1	3648.4
24846	9.1009	2.8182	0.1	3621.5
24847	8.825	2.7273	0.1	3702.
24848	8.917	2.8182	0.1	3674.9
24849	8.6411	2.7273	0.1	3756.4
24850	8.733	2.8182	0.1	3728.9
24851	8.4571	2.7273	0.1	3811.6
24852	8.5491	2.8182	0.1	3783.6
24853	8.2732	2.7273	0.1	3867.8
24854	8.3652	2.8182	0.1	3839.3
24855	8.0892	2.7273	0.1	3925.4
24856	8.1812	2.8182	0.1	3896.2
24857	7.9053	2.7273	0.1	3984.6
24858	7.9973	2.8182	0.1	3954.6
24859	7.7214	2.7273	0.1	4046.
24860	7.8133	2.8182	0.1	4014.9
24861	7.5374	2.7273	0.1	4110.2
24862	7.6294	2.8182	0.1	4077.6
24863	7.3535	2.7273	0.1	4177.9
24864	7.4455	2.8182	0.1	4143.5
24865	7.1695	2.7273	0.1	4250.
24866	7.2615	2.8182	0.1	4213.4
24867	6.9856	2.7273	0.1	4328.
24868	7.0776	2.8182	0.1	4288.5
24869	6.8017	2.7273	0.1	4413.4
24870	6.8936	2.8182	0.1	4370.2
24871	6.6177	2.7273	0.1	4508.3
24872	6.7097	2.8182	0.1	4460.4
24873	6.4338	2.7273	0.1	4615.5
24874	6.5258	2.8182	0.1	4561.5
24875	6.2498	2.7273	0.1	4738.4
24876	6.3418	2.8182	0.1	4676.7
24877	6.0659	2.7273	0.1	4881.7
24878	6.1579	2.8182	0.1	4810.
24879	5.882	2.7273	0.1	5051.1
24880	5.9739	2.8182	0.1	4966.7
24881	5.698	2.7273	0.1	5254.4
24882	5.79	2.8182	0.1	5153.5
24883	5.5141	2.7273	0.1	5501.6
24884	5.6061	2.8182	0.1	5379.3
24885	5.3302	2.7273	0.1	5805.4
24886	5.4221	2.8182	0.1	5655.5
24887	5.1462	2.7273	0.1	6182.7
24888	5.2382	2.8182	0.1	5996.8
24889	4.9623	2.7273	0.1	6654.5
24890	5.0542	2.8182	0.1	6421.7
24891	4.7783	2.7273	0.1	7246.3
24892	4.8703	2.8182	0.1	6952.6
24893	4.5944	2.7273	0.1	7985.1
24894	4.6864	2.8182	0.1	7614.3
24895	4.4105	2.7273	0.1	8888.6
24896	4.5024	2.8182	0.1	8426.9
24897	4.2265	2.7273	0.1	9935.5
24898	4.3185	2.8182	0.1	9388.6
24899	4.0426	2.7273	0.1	11009
24900	4.1345	2.8182	0.1	10438
24901	3.9506	2.8182	0.1	11401
24902	3.8586	2.7273	0.1	11861
24903	23.724	2.9091	0.1	59.101
24904	23.816	3.	0.1	39.664
24905	23.908	2.9091	0.1	22.316
24906	23.54	2.9091	0.1	98.086
24907	23.632	3.	0.1	78.618
24908	23.356	2.9091	0.1	136.95
24909	23.448	3.	0.1	117.56
24910	23.172	2.9091	0.1	175.67
24911	23.264	3.	0.1	156.34
24912	22.988	2.9091	0.1	214.27
24913	23.08	3.	0.1	194.99
24914	22.804	2.9091	0.1	252.81
24915	22.896	3.	0.1	233.55
24916	22.62	2.9091	0.1	291.32
24917	22.712	3.	0.1	272.06
24918	22.437	2.9091	0.1	329.85
24919	22.528	3.	0.1	310.57
24920	22.253	2.9091	0.1	368.42
24921	22.345	3.	0.1	349.11
24922	22.069	2.9091	0.1	407.07
24923	22.161	3.	0.1	387.71
24924	21.885	2.9091	0.1	445.82
24925	21.977	3.	0.1	426.4
24926	21.701	2.9091	0.1	484.71
24927	21.793	3.	0.1	465.22
24928	21.517	2.9091	0.1	523.74
24929	21.609	3.	0.1	504.17
24930	21.333	2.9091	0.1	562.94
24931	21.425	3.	0.1	543.29
24932	21.149	2.9091	0.1	602.32
24933	21.241	3.	0.1	582.57
24934	20.965	2.9091	0.1	641.89
24935	21.057	3.	0.1	622.05
24936	20.781	2.9091	0.1	681.66
24937	20.873	3.	0.1	661.71
24938	20.597	2.9091	0.1	721.63
24939	20.689	3.	0.1	701.58
24940	20.413	2.9091	0.1	761.8
24941	20.505	3.	0.1	741.64
24942	20.229	2.9091	0.1	802.18
24943	20.321	3.	0.1	781.92
24944	20.045	2.9091	0.1	842.78
24945	20.137	3.	0.1	822.41
24946	19.861	2.9091	0.1	883.59
24947	19.953	3.	0.1	863.12
24948	19.677	2.9091	0.1	924.61
24949	19.769	3.	0.1	904.03
24950	19.493	2.9091	0.1	965.85
24951	19.585	3.	0.1	945.16
24952	19.31	2.9091	0.1	1007.3
24953	19.402	3.	0.1	986.51
24954	19.126	2.9091	0.1	1049.
24955	19.218	3.	0.1	1028.1
24956	18.942	2.9091	0.1	1090.9
24957	19.034	3.	0.1	1069.8
24958	18.758	2.9091	0.1	1132.9
24959	18.85	3.	0.1	1111.8
24960	18.574	2.9091	0.1	1175.2
24961	18.666	3.	0.1	1154.
24962	18.39	2.9091	0.1	1217.8
24963	18.482	3.	0.1	1196.4
24964	18.206	2.9091	0.1	1260.5
24965	18.298	3.	0.1	1239.1
24966	18.022	2.9091	0.1	1303.4
24967	18.114	3.	0.1	1281.9
24968	17.838	2.9091	0.1	1346.6
24969	17.93	3.	0.1	1324.9
24970	17.654	2.9091	0.1	1389.9
24971	17.746	3.	0.1	1368.2
24972	17.47	2.9091	0.1	1433.5
24973	17.562	3.	0.1	1411.6
24974	17.286	2.9091	0.1	1477.2
24975	17.378	3.	0.1	1455.3
24976	17.102	2.9091	0.1	1521.2
24977	17.194	3.	0.1	1499.1
24978	16.918	2.9091	0.1	1565.4
24979	17.01	3.	0.1	1543.2
24980	16.734	2.9091	0.1	1609.7
24981	16.826	3.	0.1	1587.5
24982	16.55	2.9091	0.1	1654.3
24983	16.642	3.	0.1	1632.
24984	16.367	2.9091	0.1	1699.1
24985	16.458	3.	0.1	1676.6
24986	16.183	2.9091	0.1	1744.1
24987	16.275	3.	0.1	1721.5
24988	15.999	2.9091	0.1	1789.2
24989	16.091	3.	0.1	1766.6
24990	15.815	2.9091	0.1	1834.6
24991	15.907	3.	0.1	1811.9
24992	15.631	2.9091	0.1	1880.2
24993	15.723	3.	0.1	1857.3
24994	15.447	2.9091	0.1	1926.
24995	15.539	3.	0.1	1903.
24996	15.263	2.9091	0.1	1971.9
24997	15.355	3.	0.1	1948.9
24998	15.079	2.9091	0.1	2018.1
24999	15.171	3.	0.1	1994.9
25000	14.895	2.9091	0.1	2064.4
25001	14.987	3.	0.1	2041.2
25002	14.711	2.9091	0.1	2111.
25003	14.803	3.	0.1	2087.6
25004	14.527	2.9091	0.1	2157.7
25005	14.619	3.	0.1	2134.3
25006	14.343	2.9091	0.1	2204.7
25007	14.435	3.	0.1	2181.1
25008	14.159	2.9091	0.1	2251.8
25009	14.251	3.	0.1	2228.2
25010	13.975	2.9091	0.1	2299.1
25011	14.067	3.	0.1	2275.4
25012	13.791	2.9091	0.1	2346.6
25013	13.883	3.	0.1	2322.8
25014	13.607	2.9091	0.1	2394.3
25015	13.699	3.	0.1	2370.4
25016	13.423	2.9091	0.1	2442.2
25017	13.515	3.	0.1	2418.2
25018	13.24	2.9091	0.1	2490.2
25019	13.332	3.	0.1	2466.2
25020	13.056	2.9091	0.1	2538.5
25021	13.148	3.	0.1	2514.3
25022	12.872	2.9091	0.1	2586.9
25023	12.964	3.	0.1	2562.7
25024	12.688	2.9091	0.1	2635.5
25025	12.78	3.	0.1	2611.2
25026	12.504	2.9091	0.1	2684.3
25027	12.596	3.	0.1	2659.9
25028	12.32	2.9091	0.1	2733.3
25029	12.412	3.	0.1	2708.8
25030	12.136	2.9091	0.1	2782.5
25031	12.228	3.	0.1	2757.8
25032	11.952	2.9091	0.1	2831.8
25033	12.044	3.	0.1	2807.1
25034	11.768	2.9091	0.1	2881.3
25035	11.86	3.	0.1	2856.5
25036	11.584	2.9091	0.1	2931.
25037	11.676	3.	0.1	2906.1
25038	11.4	2.9091	0.1	2980.8
25039	11.492	3.	0.1	2955.9
25040	11.216	2.9091	0.1	3030.9
25041	11.308	3.	0.1	3005.8
25042	11.032	2.9091	0.1	3081.1
25043	11.124	3.	0.1	3055.9
25044	10.848	2.9091	0.1	3131.5
25045	10.94	3.	0.1	3106.2
25046	10.664	2.9091	0.1	3182.1
25047	10.756	3.	0.1	3156.7
25048	10.48	2.9091	0.1	3232.8
25049	10.572	3.	0.1	3207.4
25050	10.297	2.9091	0.1	3283.8
25051	10.388	3.	0.1	3258.3
25052	10.113	2.9091	0.1	3335.
25053	10.205	3.	0.1	3309.3
25054	9.9286	2.9091	0.1	3386.4
25055	10.021	3.	0.1	3360.6
25056	9.7447	2.9091	0.1	3438.1
25057	9.8367	3.	0.1	3412.2
25058	9.5608	2.9091	0.1	3490.
25059	9.6527	3.	0.1	3464.
25060	9.3768	2.9091	0.1	3542.3
25061	9.4688	3.	0.1	3516.1
25062	9.1929	2.9091	0.1	3595.
25063	9.2848	3.	0.1	3568.5
25064	9.0089	2.9091	0.1	3648.1
25065	9.1009	3.	0.1	3621.4
25066	8.825	2.9091	0.1	3701.8
25067	8.917	3.	0.1	3674.8
25068	8.6411	2.9091	0.1	3756.2
25069	8.733	3.	0.1	3728.8
25070	8.4571	2.9091	0.1	3811.4
25071	8.5491	3.	0.1	3783.6
25072	8.2732	2.9091	0.1	3867.7
25073	8.3652	3.	0.1	3839.3
25074	8.0892	2.9091	0.1	3925.4
25075	8.1812	3.	0.1	3896.2
25076	7.9053	2.9091	0.1	3984.9
25077	7.9973	3.	0.1	3954.7
25078	7.7214	2.9091	0.1	4046.5
25079	7.8133	3.	0.1	4015.1
25080	7.5374	2.9091	0.1	4111.
25081	7.6294	3.	0.1	4078.
25082	7.3535	2.9091	0.1	4179.1
25083	7.4455	3.	0.1	4144.
25084	7.1695	2.9091	0.1	4251.9
25085	7.2615	3.	0.1	4214.2
25086	6.9856	2.9091	0.1	4330.7
25087	7.0776	3.	0.1	4289.6
25088	6.8017	2.9091	0.1	4417.2
25089	6.8936	3.	0.1	4371.8
25090	6.6177	2.9091	0.1	4513.6
25091	6.7097	3.	0.1	4462.6
25092	6.4338	2.9091	0.1	4622.7
25093	6.5258	3.	0.1	4564.6
25094	6.2498	2.9091	0.1	4748.3
25095	6.3418	3.	0.1	4680.9
25096	6.0659	2.9091	0.1	4895.
25097	6.1579	3.	0.1	4815.7
25098	5.882	2.9091	0.1	5069.1
25099	5.9739	3.	0.1	4974.4
25100	5.698	2.9091	0.1	5278.5
25101	5.79	3.	0.1	5163.8
25102	5.5141	2.9091	0.1	5533.5
25103	5.6061	3.	0.1	5393.1
25104	5.3302	2.9091	0.1	5847.4
25105	5.4221	3.	0.1	5673.7
25106	5.1462	2.9091	0.1	6236.8
25107	5.2382	3.	0.1	6020.5
25108	4.9623	2.9091	0.1	6721.8
25109	5.0542	3.	0.1	6451.9
25110	4.7783	2.9091	0.1	7324.3
25111	4.8703	3.	0.1	6989.4
25112	4.5944	2.9091	0.1	8062.4
25113	4.6864	3.	0.1	7655.1
25114	4.4105	2.9091	0.1	8936.2
25115	4.5024	3.	0.1	8463.1
25116	4.2265	2.9091	0.1	9901.5
25117	4.3185	3.	0.1	9400.3
25118	4.0426	2.9091	0.1	10837
25119	4.1345	3.	0.1	10393
25120	3.9506	3.	0.1	11275
25121	3.8586	2.9091	0.1	11548
25122	23.724	3.0909	0.1	59.101
25123	23.816	3.1818	0.1	39.668
25124	23.908	3.0909	0.1	22.316
25125	23.54	3.0909	0.1	98.086
25126	23.632	3.1818	0.1	78.612
25127	23.356	3.0909	0.1	136.95
25128	23.448	3.1818	0.1	117.55
25129	23.172	3.0909	0.1	175.67
25130	23.264	3.1818	0.1	156.31
25131	22.988	3.0909	0.1	214.27
25132	23.08	3.1818	0.1	194.95
25133	22.804	3.0909	0.1	252.81
25134	22.896	3.1818	0.1	233.51
25135	22.62	3.0909	0.1	291.32
25136	22.712	3.1818	0.1	272.01
25137	22.437	3.0909	0.1	329.85
25138	22.528	3.1818	0.1	310.52
25139	22.253	3.0909	0.1	368.42
25140	22.345	3.1818	0.1	349.05
25141	22.069	3.0909	0.1	407.07
25142	22.161	3.1818	0.1	387.65
25143	21.885	3.0909	0.1	445.82
25144	21.977	3.1818	0.1	426.35
25145	21.701	3.0909	0.1	484.71
25146	21.793	3.1818	0.1	465.17
25147	21.517	3.0909	0.1	523.74
25148	21.609	3.1818	0.1	504.12
25149	21.333	3.0909	0.1	562.94
25150	21.425	3.1818	0.1	543.24
25151	21.149	3.0909	0.1	602.32
25152	21.241	3.1818	0.1	582.54
25153	20.965	3.0909	0.1	641.89
25154	21.057	3.1818	0.1	622.01
25155	20.781	3.0909	0.1	681.66
25156	20.873	3.1818	0.1	661.68
25157	20.597	3.0909	0.1	721.63
25158	20.689	3.1818	0.1	701.55
25159	20.413	3.0909	0.1	761.8
25160	20.505	3.1818	0.1	741.63
25161	20.229	3.0909	0.1	802.18
25162	20.321	3.1818	0.1	781.91
25163	20.045	3.0909	0.1	842.78
25164	20.137	3.1818	0.1	822.41
25165	19.861	3.0909	0.1	883.59
25166	19.953	3.1818	0.1	863.11
25167	19.677	3.0909	0.1	924.61
25168	19.769	3.1818	0.1	904.03
25169	19.493	3.0909	0.1	965.85
25170	19.585	3.1818	0.1	945.17
25171	19.31	3.0909	0.1	1007.3
25172	19.402	3.1818	0.1	986.52
25173	19.126	3.0909	0.1	1049.
25174	19.218	3.1818	0.1	1028.1
25175	18.942	3.0909	0.1	1090.9
25176	19.034	3.1818	0.1	1069.9
25177	18.758	3.0909	0.1	1132.9
25178	18.85	3.1818	0.1	1111.8
25179	18.574	3.0909	0.1	1175.2
25180	18.666	3.1818	0.1	1154.
25181	18.39	3.0909	0.1	1217.8
25182	18.482	3.1818	0.1	1196.5
25183	18.206	3.0909	0.1	1260.5
25184	18.298	3.1818	0.1	1239.1
25185	18.022	3.0909	0.1	1303.4
25186	18.114	3.1818	0.1	1281.9
25187	17.838	3.0909	0.1	1346.6
25188	17.93	3.1818	0.1	1325.
25189	17.654	3.0909	0.1	1389.9
25190	17.746	3.1818	0.1	1368.2
25191	17.47	3.0909	0.1	1433.5
25192	17.562	3.1818	0.1	1411.7
25193	17.286	3.0909	0.1	1477.2
25194	17.378	3.1818	0.1	1455.3
25195	17.102	3.0909	0.1	1521.2
25196	17.194	3.1818	0.1	1499.2
25197	16.918	3.0909	0.1	1565.4
25198	17.01	3.1818	0.1	1543.3
25199	16.734	3.0909	0.1	1609.7
25200	16.826	3.1818	0.1	1587.5
25201	16.55	3.0909	0.1	1654.3
25202	16.642	3.1818	0.1	1632.
25203	16.367	3.0909	0.1	1699.1
25204	16.458	3.1818	0.1	1676.7
25205	16.183	3.0909	0.1	1744.1
25206	16.275	3.1818	0.1	1721.6
25207	15.999	3.0909	0.1	1789.2
25208	16.091	3.1818	0.1	1766.6
25209	15.815	3.0909	0.1	1834.6
25210	15.907	3.1818	0.1	1811.9
25211	15.631	3.0909	0.1	1880.2
25212	15.723	3.1818	0.1	1857.4
25213	15.447	3.0909	0.1	1926.
25214	15.539	3.1818	0.1	1903.1
25215	15.263	3.0909	0.1	1971.9
25216	15.355	3.1818	0.1	1948.9
25217	15.079	3.0909	0.1	2018.1
25218	15.171	3.1818	0.1	1995.
25219	14.895	3.0909	0.1	2064.4
25220	14.987	3.1818	0.1	2041.2
25221	14.711	3.0909	0.1	2111.
25222	14.803	3.1818	0.1	2087.7
25223	14.527	3.0909	0.1	2157.7
25224	14.619	3.1818	0.1	2134.3
25225	14.343	3.0909	0.1	2204.7
25226	14.435	3.1818	0.1	2181.2
25227	14.159	3.0909	0.1	2251.8
25228	14.251	3.1818	0.1	2228.2
25229	13.975	3.0909	0.1	2299.1
25230	14.067	3.1818	0.1	2275.4
25231	13.791	3.0909	0.1	2346.6
25232	13.883	3.1818	0.1	2322.8
25233	13.607	3.0909	0.1	2394.3
25234	13.699	3.1818	0.1	2370.4
25235	13.423	3.0909	0.1	2442.2
25236	13.515	3.1818	0.1	2418.2
25237	13.24	3.0909	0.1	2490.2
25238	13.332	3.1818	0.1	2466.2
25239	13.056	3.0909	0.1	2538.5
25240	13.148	3.1818	0.1	2514.4
25241	12.872	3.0909	0.1	2586.9
25242	12.964	3.1818	0.1	2562.7
25243	12.688	3.0909	0.1	2635.5
25244	12.78	3.1818	0.1	2611.2
25245	12.504	3.0909	0.1	2684.3
25246	12.596	3.1818	0.1	2659.9
25247	12.32	3.0909	0.1	2733.3
25248	12.412	3.1818	0.1	2708.8
25249	12.136	3.0909	0.1	2782.5
25250	12.228	3.1818	0.1	2757.9
25251	11.952	3.0909	0.1	2831.8
25252	12.044	3.1818	0.1	2807.2
25253	11.768	3.0909	0.1	2881.3
25254	11.86	3.1818	0.1	2856.6
25255	11.584	3.0909	0.1	2931.
25256	11.676	3.1818	0.1	2906.2
25257	11.4	3.0909	0.1	2980.8
25258	11.492	3.1818	0.1	2955.9
25259	11.216	3.0909	0.1	3030.9
25260	11.308	3.1818	0.1	3005.9
25261	11.032	3.0909	0.1	3081.1
25262	11.124	3.1818	0.1	3056.
25263	10.848	3.0909	0.1	3131.5
25264	10.94	3.1818	0.1	3106.3
25265	10.664	3.0909	0.1	3182.1
25266	10.756	3.1818	0.1	3156.8
25267	10.48	3.0909	0.1	3232.8
25268	10.572	3.1818	0.1	3207.5
25269	10.297	3.0909	0.1	3283.8
25270	10.388	3.1818	0.1	3258.4
25271	10.113	3.0909	0.1	3335.
25272	10.205	3.1818	0.1	3309.5
25273	9.9286	3.0909	0.1	3386.4
25274	10.021	3.1818	0.1	3360.8
25275	9.7447	3.0909	0.1	3438.1
25276	9.8367	3.1818	0.1	3412.3
25277	9.5608	3.0909	0.1	3490.
25278	9.6527	3.1818	0.1	3464.1
25279	9.3768	3.0909	0.1	3542.3
25280	9.4688	3.1818	0.1	3516.2
25281	9.1929	3.0909	0.1	3595.
25282	9.2848	3.1818	0.1	3568.7
25283	9.0089	3.0909	0.1	3648.1
25284	9.1009	3.1818	0.1	3621.5
25285	8.825	3.0909	0.1	3701.8
25286	8.917	3.1818	0.1	3674.9
25287	8.6411	3.0909	0.1	3756.2
25288	8.733	3.1818	0.1	3728.9
25289	8.4571	3.0909	0.1	3811.4
25290	8.5491	3.1818	0.1	3783.6
25291	8.2732	3.0909	0.1	3867.7
25292	8.3652	3.1818	0.1	3839.3
25293	8.0892	3.0909	0.1	3925.4
25294	8.1812	3.1818	0.1	3896.2
25295	7.9053	3.0909	0.1	3984.9
25296	7.9973	3.1818	0.1	3954.6
25297	7.7214	3.0909	0.1	4046.5
25298	7.8133	3.1818	0.1	4014.9
25299	7.5374	3.0909	0.1	4111.
25300	7.6294	3.1818	0.1	4077.6
25301	7.3535	3.0909	0.1	4179.1
25302	7.4455	3.1818	0.1	4143.5
25303	7.1695	3.0909	0.1	4251.9
25304	7.2615	3.1818	0.1	4213.4
25305	6.9856	3.0909	0.1	4330.7
25306	7.0776	3.1818	0.1	4288.5
25307	6.8017	3.0909	0.1	4417.2
25308	6.8936	3.1818	0.1	4370.2
25309	6.6177	3.0909	0.1	4513.6
25310	6.7097	3.1818	0.1	4460.4
25311	6.4338	3.0909	0.1	4622.7
25312	6.5258	3.1818	0.1	4561.5
25313	6.2498	3.0909	0.1	4748.3
25314	6.3418	3.1818	0.1	4676.7
25315	6.0659	3.0909	0.1	4895.
25316	6.1579	3.1818	0.1	4810.
25317	5.882	3.0909	0.1	5069.1
25318	5.9739	3.1818	0.1	4966.7
25319	5.698	3.0909	0.1	5278.5
25320	5.79	3.1818	0.1	5153.5
25321	5.5141	3.0909	0.1	5533.5
25322	5.6061	3.1818	0.1	5379.3
25323	5.3302	3.0909	0.1	5847.4
25324	5.4221	3.1818	0.1	5655.5
25325	5.1462	3.0909	0.1	6236.8
25326	5.2382	3.1818	0.1	5996.8
25327	4.9623	3.0909	0.1	6721.8
25328	5.0542	3.1818	0.1	6421.7
25329	4.7783	3.0909	0.1	7324.3
25330	4.8703	3.1818	0.1	6952.6
25331	4.5944	3.0909	0.1	8062.4
25332	4.6864	3.1818	0.1	7614.3
25333	4.4105	3.0909	0.1	8936.2
25334	4.5024	3.1818	0.1	8426.9
25335	4.2265	3.0909	0.1	9901.5
25336	4.3185	3.1818	0.1	9388.6
25337	4.0426	3.0909	0.1	10837
25338	4.1345	3.1818	0.1	10438
25339	3.9506	3.1818	0.1	11401
25340	3.8586	3.0909	0.1	11548
25341	23.724	3.2727	0.1	59.1
25342	23.816	3.3636	0.1	39.682
25343	23.908	3.2727	0.1	22.323
25344	23.54	3.2727	0.1	98.063
25345	23.632	3.3636	0.1	78.593
25346	23.356	3.2727	0.1	136.91
25347	23.448	3.3636	0.1	117.49
25348	23.172	3.2727	0.1	175.6
25349	23.264	3.3636	0.1	156.23
25350	22.988	3.2727	0.1	214.2
25351	23.08	3.3636	0.1	194.84
25352	22.804	3.2727	0.1	252.72
25353	22.896	3.3636	0.1	233.37
25354	22.62	3.2727	0.1	291.22
25355	22.712	3.3636	0.1	271.86
25356	22.437	3.2727	0.1	329.74
25357	22.528	3.3636	0.1	310.36
25358	22.253	3.2727	0.1	368.31
25359	22.345	3.3636	0.1	348.88
25360	22.069	3.2727	0.1	406.96
25361	22.161	3.3636	0.1	387.48
25362	21.885	3.2727	0.1	445.72
25363	21.977	3.3636	0.1	426.18
25364	21.701	3.2727	0.1	484.61
25365	21.793	3.3636	0.1	465.01
25366	21.517	3.2727	0.1	523.65
25367	21.609	3.3636	0.1	503.98
25368	21.333	3.2727	0.1	562.86
25369	21.425	3.3636	0.1	543.11
25370	21.149	3.2727	0.1	602.25
25371	21.241	3.3636	0.1	582.42
25372	20.965	3.2727	0.1	641.83
25373	21.057	3.3636	0.1	621.91
25374	20.781	3.2727	0.1	681.61
25375	20.873	3.3636	0.1	661.6
25376	20.597	3.2727	0.1	721.59
25377	20.689	3.3636	0.1	701.49
25378	20.413	3.2727	0.1	761.77
25379	20.505	3.3636	0.1	741.58
25380	20.229	3.2727	0.1	802.17
25381	20.321	3.3636	0.1	781.88
25382	20.045	3.2727	0.1	842.77
25383	20.137	3.3636	0.1	822.39
25384	19.861	3.2727	0.1	883.59
25385	19.953	3.3636	0.1	863.11
25386	19.677	3.2727	0.1	924.62
25387	19.769	3.3636	0.1	904.04
25388	19.493	3.2727	0.1	965.87
25389	19.585	3.3636	0.1	945.19
25390	19.31	3.2727	0.1	1007.3
25391	19.402	3.3636	0.1	986.55
25392	19.126	3.2727	0.1	1049.
25393	19.218	3.3636	0.1	1028.1
25394	18.942	3.2727	0.1	1090.9
25395	19.034	3.3636	0.1	1069.9
25396	18.758	3.2727	0.1	1133.
25397	18.85	3.3636	0.1	1111.9
25398	18.574	3.2727	0.1	1175.3
25399	18.666	3.3636	0.1	1154.1
25400	18.39	3.2727	0.1	1217.8
25401	18.482	3.3636	0.1	1196.5
25402	18.206	3.2727	0.1	1260.5
25403	18.298	3.3636	0.1	1239.2
25404	18.022	3.2727	0.1	1303.5
25405	18.114	3.3636	0.1	1282.
25406	17.838	3.2727	0.1	1346.6
25407	17.93	3.3636	0.1	1325.1
25408	17.654	3.2727	0.1	1390.
25409	17.746	3.3636	0.1	1368.3
25410	17.47	3.2727	0.1	1433.5
25411	17.562	3.3636	0.1	1411.8
25412	17.286	3.2727	0.1	1477.3
25413	17.378	3.3636	0.1	1455.4
25414	17.102	3.2727	0.1	1521.3
25415	17.194	3.3636	0.1	1499.3
25416	16.918	3.2727	0.1	1565.4
25417	17.01	3.3636	0.1	1543.4
25418	16.734	3.2727	0.1	1609.8
25419	16.826	3.3636	0.1	1587.6
25420	16.55	3.2727	0.1	1654.4
25421	16.642	3.3636	0.1	1632.1
25422	16.367	3.2727	0.1	1699.2
25423	16.458	3.3636	0.1	1676.8
25424	16.183	3.2727	0.1	1744.1
25425	16.275	3.3636	0.1	1721.7
25426	15.999	3.2727	0.1	1789.3
25427	16.091	3.3636	0.1	1766.8
25428	15.815	3.2727	0.1	1834.7
25429	15.907	3.3636	0.1	1812.
25430	15.631	3.2727	0.1	1880.3
25431	15.723	3.3636	0.1	1857.5
25432	15.447	3.2727	0.1	1926.
25433	15.539	3.3636	0.1	1903.2
25434	15.263	3.2727	0.1	1972.
25435	15.355	3.3636	0.1	1949.1
25436	15.079	3.2727	0.1	2018.2
25437	15.171	3.3636	0.1	1995.1
25438	14.895	3.2727	0.1	2064.5
25439	14.987	3.3636	0.1	2041.4
25440	14.711	3.2727	0.1	2111.1
25441	14.803	3.3636	0.1	2087.8
25442	14.527	3.2727	0.1	2157.8
25443	14.619	3.3636	0.1	2134.5
25444	14.343	3.2727	0.1	2204.8
25445	14.435	3.3636	0.1	2181.3
25446	14.159	3.2727	0.1	2251.9
25447	14.251	3.3636	0.1	2228.4
25448	13.975	3.2727	0.1	2299.2
25449	14.067	3.3636	0.1	2275.6
25450	13.791	3.2727	0.1	2346.7
25451	13.883	3.3636	0.1	2323.
25452	13.607	3.2727	0.1	2394.4
25453	13.699	3.3636	0.1	2370.6
25454	13.423	3.2727	0.1	2442.3
25455	13.515	3.3636	0.1	2418.4
25456	13.24	3.2727	0.1	2490.4
25457	13.332	3.3636	0.1	2466.4
25458	13.056	3.2727	0.1	2538.6
25459	13.148	3.3636	0.1	2514.5
25460	12.872	3.2727	0.1	2587.
25461	12.964	3.3636	0.1	2562.9
25462	12.688	3.2727	0.1	2635.7
25463	12.78	3.3636	0.1	2611.4
25464	12.504	3.2727	0.1	2684.5
25465	12.596	3.3636	0.1	2660.1
25466	12.32	3.2727	0.1	2733.4
25467	12.412	3.3636	0.1	2709.
25468	12.136	3.2727	0.1	2782.6
25469	12.228	3.3636	0.1	2758.1
25470	11.952	3.2727	0.1	2831.9
25471	12.044	3.3636	0.1	2807.4
25472	11.768	3.2727	0.1	2881.5
25473	11.86	3.3636	0.1	2856.8
25474	11.584	3.2727	0.1	2931.2
25475	11.676	3.3636	0.1	2906.4
25476	11.4	3.2727	0.1	2981.
25477	11.492	3.3636	0.1	2956.2
25478	11.216	3.2727	0.1	3031.1
25479	11.308	3.3636	0.1	3006.2
25480	11.032	3.2727	0.1	3081.3
25481	11.124	3.3636	0.1	3056.3
25482	10.848	3.2727	0.1	3131.7
25483	10.94	3.3636	0.1	3106.6
25484	10.664	3.2727	0.1	3182.3
25485	10.756	3.3636	0.1	3157.1
25486	10.48	3.2727	0.1	3233.1
25487	10.572	3.3636	0.1	3207.8
25488	10.297	3.2727	0.1	3284.
25489	10.388	3.3636	0.1	3258.7
25490	10.113	3.2727	0.1	3335.2
25491	10.205	3.3636	0.1	3309.8
25492	9.9286	3.2727	0.1	3386.7
25493	10.021	3.3636	0.1	3361.1
25494	9.7447	3.2727	0.1	3438.3
25495	9.8367	3.3636	0.1	3412.7
25496	9.5608	3.2727	0.1	3490.3
25497	9.6527	3.3636	0.1	3464.5
25498	9.3768	3.2727	0.1	3542.6
25499	9.4688	3.3636	0.1	3516.6
25500	9.1929	3.2727	0.1	3595.2
25501	9.2848	3.3636	0.1	3569.1
25502	9.0089	3.2727	0.1	3648.4
25503	9.1009	3.3636	0.1	3621.9
25504	8.825	3.2727	0.1	3702.
25505	8.917	3.3636	0.1	3675.3
25506	8.6411	3.2727	0.1	3756.4
25507	8.733	3.3636	0.1	3729.2
25508	8.4571	3.2727	0.1	3811.6
25509	8.5491	3.3636	0.1	3783.9
25510	8.2732	3.2727	0.1	3867.8
25511	8.3652	3.3636	0.1	3839.5
25512	8.0892	3.2727	0.1	3925.4
25513	8.1812	3.3636	0.1	3896.2
25514	7.9053	3.2727	0.1	3984.6
25515	7.9973	3.3636	0.1	3954.4
25516	7.7214	3.2727	0.1	4046.
25517	7.8133	3.3636	0.1	4014.4
25518	7.5374	3.2727	0.1	4110.2
25519	7.6294	3.3636	0.1	4076.7
25520	7.3535	3.2727	0.1	4177.9
25521	7.4455	3.3636	0.1	4142.
25522	7.1695	3.2727	0.1	4250.
25523	7.2615	3.3636	0.1	4211.2
25524	6.9856	3.2727	0.1	4328.
25525	7.0776	3.3636	0.1	4285.2
25526	6.8017	3.2727	0.1	4413.4
25527	6.8936	3.3636	0.1	4365.5
25528	6.6177	3.2727	0.1	4508.3
25529	6.7097	3.3636	0.1	4453.8
25530	6.4338	3.2727	0.1	4615.5
25531	6.5258	3.3636	0.1	4552.4
25532	6.2498	3.2727	0.1	4738.4
25533	6.3418	3.3636	0.1	4664.3
25534	6.0659	3.2727	0.1	4881.7
25535	6.1579	3.3636	0.1	4793.2
25536	5.882	3.2727	0.1	5051.1
25537	5.9739	3.3636	0.1	4944.
25538	5.698	3.2727	0.1	5254.4
25539	5.79	3.3636	0.1	5123.1
25540	5.5141	3.2727	0.1	5501.6
25541	5.6061	3.3636	0.1	5338.8
25542	5.3302	3.2727	0.1	5805.4
25543	5.4221	3.3636	0.1	5602.
25544	5.1462	3.2727	0.1	6182.7
25545	5.2382	3.3636	0.1	5926.8
25546	4.9623	3.2727	0.1	6654.5
25547	5.0542	3.3636	0.1	6332.1
25548	4.7783	3.2727	0.1	7246.3
25549	4.8703	3.3636	0.1	6842.2
25550	4.5944	3.2727	0.1	7985.1
25551	4.6864	3.3636	0.1	7488.3
25552	4.4105	3.2727	0.1	8888.6
25553	4.5024	3.3636	0.1	8307.1
25554	4.2265	3.2727	0.1	9935.5
25555	4.3185	3.3636	0.1	9331.1
25556	4.0426	3.2727	0.1	11009
25557	4.1345	3.3636	0.1	10550
25558	3.9506	3.3636	0.1	11791
25559	3.8586	3.2727	0.1	11861
25560	23.724	3.4545	0.1	59.096
25561	23.816	3.5455	0.1	39.703
25562	23.908	3.4545	0.1	22.337
25563	23.54	3.4545	0.1	98.016
25564	23.632	3.5455	0.1	78.558
25565	23.356	3.4545	0.1	136.82
25566	23.448	3.5455	0.1	117.41
25567	23.172	3.4545	0.1	175.48
25568	23.264	3.5455	0.1	156.09
25569	22.988	3.4545	0.1	214.03
25570	23.08	3.5455	0.1	194.66
25571	22.804	3.4545	0.1	252.53
25572	22.896	3.5455	0.1	233.15
25573	22.62	3.4545	0.1	291.02
25574	22.712	3.5455	0.1	271.61
25575	22.437	3.4545	0.1	329.52
25576	22.528	3.5455	0.1	310.09
25577	22.253	3.4545	0.1	368.08
25578	22.345	3.5455	0.1	348.61
25579	22.069	3.4545	0.1	406.74
25580	22.161	3.5455	0.1	387.21
25581	21.885	3.4545	0.1	445.5
25582	21.977	3.5455	0.1	425.92
25583	21.701	3.4545	0.1	484.41
25584	21.793	3.5455	0.1	464.76
25585	21.517	3.4545	0.1	523.47
25586	21.609	3.5455	0.1	503.75
25587	21.333	3.4545	0.1	562.7
25588	21.425	3.5455	0.1	542.9
25589	21.149	3.4545	0.1	602.11
25590	21.241	3.5455	0.1	582.24
25591	20.965	3.4545	0.1	641.71
25592	21.057	3.5455	0.1	621.76
25593	20.781	3.4545	0.1	681.51
25594	20.873	3.5455	0.1	661.47
25595	20.597	3.4545	0.1	721.51
25596	20.689	3.5455	0.1	701.39
25597	20.413	3.4545	0.1	761.72
25598	20.505	3.5455	0.1	741.5
25599	20.229	3.4545	0.1	802.13
25600	20.321	3.5455	0.1	781.83
25601	20.045	3.4545	0.1	842.76
25602	20.137	3.5455	0.1	822.36
25603	19.861	3.4545	0.1	883.6
25604	19.953	3.5455	0.1	863.11
25605	19.677	3.4545	0.1	924.65
25606	19.769	3.5455	0.1	904.06
25607	19.493	3.4545	0.1	965.91
25608	19.585	3.5455	0.1	945.23
25609	19.31	3.4545	0.1	1007.4
25610	19.402	3.5455	0.1	986.61
25611	19.126	3.4545	0.1	1049.1
25612	19.218	3.5455	0.1	1028.2
25613	18.942	3.4545	0.1	1091.
25614	19.034	3.5455	0.1	1070.
25615	18.758	3.4545	0.1	1133.1
25616	18.85	3.5455	0.1	1112.
25617	18.574	3.4545	0.1	1175.4
25618	18.666	3.5455	0.1	1154.2
25619	18.39	3.4545	0.1	1217.9
25620	18.482	3.5455	0.1	1196.7
25621	18.206	3.4545	0.1	1260.7
25622	18.298	3.5455	0.1	1239.3
25623	18.022	3.4545	0.1	1303.6
25624	18.114	3.5455	0.1	1282.2
25625	17.838	3.4545	0.1	1346.8
25626	17.93	3.5455	0.1	1325.2
25627	17.654	3.4545	0.1	1390.1
25628	17.746	3.5455	0.1	1368.5
25629	17.47	3.4545	0.1	1433.7
25630	17.562	3.5455	0.1	1411.9
25631	17.286	3.4545	0.1	1477.5
25632	17.378	3.5455	0.1	1455.6
25633	17.102	3.4545	0.1	1521.4
25634	17.194	3.5455	0.1	1499.5
25635	16.918	3.4545	0.1	1565.6
25636	17.01	3.5455	0.1	1543.6
25637	16.734	3.4545	0.1	1610.
25638	16.826	3.5455	0.1	1587.8
25639	16.55	3.4545	0.1	1654.6
25640	16.642	3.5455	0.1	1632.3
25641	16.367	3.4545	0.1	1699.3
25642	16.458	3.5455	0.1	1677.
25643	16.183	3.4545	0.1	1744.3
25644	16.275	3.5455	0.1	1721.9
25645	15.999	3.4545	0.1	1789.5
25646	16.091	3.5455	0.1	1767.
25647	15.815	3.4545	0.1	1834.9
25648	15.907	3.5455	0.1	1812.3
25649	15.631	3.4545	0.1	1880.5
25650	15.723	3.5455	0.1	1857.7
25651	15.447	3.4545	0.1	1926.2
25652	15.539	3.5455	0.1	1903.4
25653	15.263	3.4545	0.1	1972.2
25654	15.355	3.5455	0.1	1949.3
25655	15.079	3.4545	0.1	2018.4
25656	15.171	3.5455	0.1	1995.4
25657	14.895	3.4545	0.1	2064.7
25658	14.987	3.5455	0.1	2041.6
25659	14.711	3.4545	0.1	2111.3
25660	14.803	3.5455	0.1	2088.1
25661	14.527	3.4545	0.1	2158.
25662	14.619	3.5455	0.1	2134.7
25663	14.343	3.4545	0.1	2205.
25664	14.435	3.5455	0.1	2181.6
25665	14.159	3.4545	0.1	2252.1
25666	14.251	3.5455	0.1	2228.6
25667	13.975	3.4545	0.1	2299.4
25668	14.067	3.5455	0.1	2275.8
25669	13.791	3.4545	0.1	2346.9
25670	13.883	3.5455	0.1	2323.3
25671	13.607	3.4545	0.1	2394.6
25672	13.699	3.5455	0.1	2370.9
25673	13.423	3.4545	0.1	2442.5
25674	13.515	3.5455	0.1	2418.7
25675	13.24	3.4545	0.1	2490.6
25676	13.332	3.5455	0.1	2466.7
25677	13.056	3.4545	0.1	2538.9
25678	13.148	3.5455	0.1	2514.8
25679	12.872	3.4545	0.1	2587.3
25680	12.964	3.5455	0.1	2563.2
25681	12.688	3.4545	0.1	2635.9
25682	12.78	3.5455	0.1	2611.7
25683	12.504	3.4545	0.1	2684.7
25684	12.596	3.5455	0.1	2660.5
25685	12.32	3.4545	0.1	2733.7
25686	12.412	3.5455	0.1	2709.4
25687	12.136	3.4545	0.1	2782.9
25688	12.228	3.5455	0.1	2758.5
25689	11.952	3.4545	0.1	2832.2
25690	12.044	3.5455	0.1	2807.7
25691	11.768	3.4545	0.1	2881.8
25692	11.86	3.5455	0.1	2857.2
25693	11.584	3.4545	0.1	2931.5
25694	11.676	3.5455	0.1	2906.8
25695	11.4	3.4545	0.1	2981.4
25696	11.492	3.5455	0.1	2956.6
25697	11.216	3.4545	0.1	3031.4
25698	11.308	3.5455	0.1	3006.6
25699	11.032	3.4545	0.1	3081.7
25700	11.124	3.5455	0.1	3056.8
25701	10.848	3.4545	0.1	3132.1
25702	10.94	3.5455	0.1	3107.1
25703	10.664	3.4545	0.1	3182.7
25704	10.756	3.5455	0.1	3157.6
25705	10.48	3.4545	0.1	3233.5
25706	10.572	3.5455	0.1	3208.4
25707	10.297	3.4545	0.1	3284.5
25708	10.388	3.5455	0.1	3259.3
25709	10.113	3.4545	0.1	3335.7
25710	10.205	3.5455	0.1	3310.4
25711	9.9286	3.4545	0.1	3387.2
25712	10.021	3.5455	0.1	3361.7
25713	9.7447	3.4545	0.1	3438.8
25714	9.8367	3.5455	0.1	3413.3
25715	9.5608	3.4545	0.1	3490.8
25716	9.6527	3.5455	0.1	3465.1
25717	9.3768	3.4545	0.1	3543.1
25718	9.4688	3.5455	0.1	3517.3
25719	9.1929	3.4545	0.1	3595.8
25720	9.2848	3.5455	0.1	3569.7
25721	9.0089	3.4545	0.1	3648.9
25722	9.1009	3.5455	0.1	3622.6
25723	8.825	3.4545	0.1	3702.5
25724	8.917	3.5455	0.1	3675.9
25725	8.6411	3.4545	0.1	3756.8
25726	8.733	3.5455	0.1	3729.8
25727	8.4571	3.4545	0.1	3811.8
25728	8.5491	3.5455	0.1	3784.3
25729	8.2732	3.4545	0.1	3867.9
25730	8.3652	3.5455	0.1	3839.7
25731	8.0892	3.4545	0.1	3925.2
25732	8.1812	3.5455	0.1	3896.2
25733	7.9053	3.4545	0.1	3984.1
25734	7.9973	3.5455	0.1	3954.
25735	7.7214	3.4545	0.1	4045.1
25736	7.8133	3.5455	0.1	4013.5
25737	7.5374	3.4545	0.1	4108.6
25738	7.6294	3.5455	0.1	4075.2
25739	7.3535	3.4545	0.1	4175.4
25740	7.4455	3.5455	0.1	4139.6
25741	7.1695	3.4545	0.1	4246.3
25742	7.2615	3.5455	0.1	4207.5
25743	6.9856	3.4545	0.1	4322.7
25744	7.0776	3.5455	0.1	4279.8
25745	6.8017	3.4545	0.1	4405.9
25746	6.8936	3.5455	0.1	4357.8
25747	6.6177	3.4545	0.1	4497.9
25748	6.7097	3.5455	0.1	4443.1
25749	6.4338	3.4545	0.1	4601.2
25750	6.5258	3.5455	0.1	4537.7
25751	6.2498	3.4545	0.1	4719.1
25752	6.3418	3.5455	0.1	4644.2
25753	6.0659	3.4545	0.1	4855.5
25754	6.1579	3.5455	0.1	4766.
25755	5.882	3.4545	0.1	5016.
25756	5.9739	3.5455	0.1	4907.4
25757	5.698	3.4545	0.1	5207.5
25758	5.79	3.5455	0.1	5074.2
25759	5.5141	3.4545	0.1	5439.4
25760	5.6061	3.5455	0.1	5273.7
25761	5.3302	3.4545	0.1	5723.7
25762	5.4221	3.5455	0.1	5516.
25763	5.1462	3.4545	0.1	6076.8
25764	5.2382	3.5455	0.1	5814.2
25765	4.9623	3.4545	0.1	6521.1
25766	5.0542	3.5455	0.1	6186.8
25767	4.7783	3.4545	0.1	7086.9
25768	4.8703	3.5455	0.1	6659.5
25769	4.5944	3.4545	0.1	7815.7
25770	4.6864	3.5455	0.1	7270.2
25771	4.4105	3.4545	0.1	8759.4
25772	4.5024	3.5455	0.1	8075.2
25773	4.2265	3.4545	0.1	9959.6
25774	4.3185	3.5455	0.1	9159.6
25775	4.0426	3.4545	0.1	11342
25776	4.1345	3.5455	0.1	10633
25777	3.9506	3.5455	0.1	12497
25778	3.8586	3.4545	0.1	12557
25779	23.724	3.6364	0.1	59.087
25780	23.816	3.7273	0.1	39.731
25781	23.908	3.6364	0.1	22.356
25782	23.54	3.6364	0.1	97.942
25783	23.632	3.7273	0.1	78.505
25784	23.356	3.6364	0.1	136.68
25785	23.448	3.7273	0.1	117.28
25786	23.172	3.6364	0.1	175.28
25787	23.264	3.7273	0.1	155.89
25788	22.988	3.6364	0.1	213.79
25789	23.08	3.7273	0.1	194.39
25790	22.804	3.6364	0.1	252.25
25791	22.896	3.7273	0.1	232.83
25792	22.62	3.6364	0.1	290.7
25793	22.712	3.7273	0.1	271.26
25794	22.437	3.6364	0.1	329.19
25795	22.528	3.7273	0.1	309.7
25796	22.253	3.6364	0.1	367.75
25797	22.345	3.7273	0.1	348.21
25798	22.069	3.6364	0.1	406.41
25799	22.161	3.7273	0.1	386.82
25800	21.885	3.6364	0.1	445.19
25801	21.977	3.7273	0.1	425.54
25802	21.701	3.6364	0.1	484.12
25803	21.793	3.7273	0.1	464.41
25804	21.517	3.6364	0.1	523.21
25805	21.609	3.7273	0.1	503.43
25806	21.333	3.6364	0.1	562.47
25807	21.425	3.7273	0.1	542.62
25808	21.149	3.6364	0.1	601.91
25809	21.241	3.7273	0.1	581.99
25810	20.965	3.6364	0.1	641.55
25811	21.057	3.7273	0.1	621.55
25812	20.781	3.6364	0.1	681.38
25813	20.873	3.7273	0.1	661.3
25814	20.597	3.6364	0.1	721.41
25815	20.689	3.7273	0.1	701.25
25816	20.413	3.6364	0.1	761.65
25817	20.505	3.7273	0.1	741.41
25818	20.229	3.6364	0.1	802.09
25819	20.321	3.7273	0.1	781.77
25820	20.045	3.6364	0.1	842.75
25821	20.137	3.7273	0.1	822.34
25822	19.861	3.6364	0.1	883.61
25823	19.953	3.7273	0.1	863.12
25824	19.677	3.6364	0.1	924.69
25825	19.769	3.7273	0.1	904.1
25826	19.493	3.6364	0.1	965.97
25827	19.585	3.7273	0.1	945.3
25828	19.31	3.6364	0.1	1007.5
25829	19.402	3.7273	0.1	986.7
25830	19.126	3.6364	0.1	1049.2
25831	19.218	3.7273	0.1	1028.3
25832	18.942	3.6364	0.1	1091.1
25833	19.034	3.7273	0.1	1070.1
25834	18.758	3.6364	0.1	1133.2
25835	18.85	3.7273	0.1	1112.2
25836	18.574	3.6364	0.1	1175.5
25837	18.666	3.7273	0.1	1154.4
25838	18.39	3.6364	0.1	1218.1
25839	18.482	3.7273	0.1	1196.9
25840	18.206	3.6364	0.1	1260.8
25841	18.298	3.7273	0.1	1239.5
25842	18.022	3.6364	0.1	1303.8
25843	18.114	3.7273	0.1	1282.4
25844	17.838	3.6364	0.1	1347.
25845	17.93	3.7273	0.1	1325.4
25846	17.654	3.6364	0.1	1390.3
25847	17.746	3.7273	0.1	1368.7
25848	17.47	3.6364	0.1	1433.9
25849	17.562	3.7273	0.1	1412.2
25850	17.286	3.6364	0.1	1477.7
25851	17.378	3.7273	0.1	1455.9
25852	17.102	3.6364	0.1	1521.7
25853	17.194	3.7273	0.1	1499.7
25854	16.918	3.6364	0.1	1565.8
25855	17.01	3.7273	0.1	1543.8
25856	16.734	3.6364	0.1	1610.2
25857	16.826	3.7273	0.1	1588.1
25858	16.55	3.6364	0.1	1654.8
25859	16.642	3.7273	0.1	1632.6
25860	16.367	3.6364	0.1	1699.6
25861	16.458	3.7273	0.1	1677.3
25862	16.183	3.6364	0.1	1744.6
25863	16.275	3.7273	0.1	1722.2
25864	15.999	3.6364	0.1	1789.8
25865	16.091	3.7273	0.1	1767.3
25866	15.815	3.6364	0.1	1835.1
25867	15.907	3.7273	0.1	1812.6
25868	15.631	3.6364	0.1	1880.7
25869	15.723	3.7273	0.1	1858.
25870	15.447	3.6364	0.1	1926.5
25871	15.539	3.7273	0.1	1903.7
25872	15.263	3.6364	0.1	1972.5
25873	15.355	3.7273	0.1	1949.6
25874	15.079	3.6364	0.1	2018.6
25875	15.171	3.7273	0.1	1995.7
25876	14.895	3.6364	0.1	2065.
25877	14.987	3.7273	0.1	2041.9
25878	14.711	3.6364	0.1	2111.6
25879	14.803	3.7273	0.1	2088.4
25880	14.527	3.6364	0.1	2158.3
25881	14.619	3.7273	0.1	2135.1
25882	14.343	3.6364	0.1	2205.3
25883	14.435	3.7273	0.1	2181.9
25884	14.159	3.6364	0.1	2252.4
25885	14.251	3.7273	0.1	2229.
25886	13.975	3.6364	0.1	2299.7
25887	14.067	3.7273	0.1	2276.2
25888	13.791	3.6364	0.1	2347.2
25889	13.883	3.7273	0.1	2323.6
25890	13.607	3.6364	0.1	2395.
25891	13.699	3.7273	0.1	2371.3
25892	13.423	3.6364	0.1	2442.9
25893	13.515	3.7273	0.1	2419.1
25894	13.24	3.6364	0.1	2490.9
25895	13.332	3.7273	0.1	2467.1
25896	13.056	3.6364	0.1	2539.2
25897	13.148	3.7273	0.1	2515.2
25898	12.872	3.6364	0.1	2587.7
25899	12.964	3.7273	0.1	2563.6
25900	12.688	3.6364	0.1	2636.3
25901	12.78	3.7273	0.1	2612.2
25902	12.504	3.6364	0.1	2685.1
25903	12.596	3.7273	0.1	2660.9
25904	12.32	3.6364	0.1	2734.1
25905	12.412	3.7273	0.1	2709.8
25906	12.136	3.6364	0.1	2783.3
25907	12.228	3.7273	0.1	2758.9
25908	11.952	3.6364	0.1	2832.7
25909	12.044	3.7273	0.1	2808.2
25910	11.768	3.6364	0.1	2882.2
25911	11.86	3.7273	0.1	2857.7
25912	11.584	3.6364	0.1	2932.
25913	11.676	3.7273	0.1	2907.4
25914	11.4	3.6364	0.1	2981.9
25915	11.492	3.7273	0.1	2957.2
25916	11.216	3.6364	0.1	3032.
25917	11.308	3.7273	0.1	3007.2
25918	11.032	3.6364	0.1	3082.2
25919	11.124	3.7273	0.1	3057.4
25920	10.848	3.6364	0.1	3132.7
25921	10.94	3.7273	0.1	3107.8
25922	10.664	3.6364	0.1	3183.3
25923	10.756	3.7273	0.1	3158.3
25924	10.48	3.6364	0.1	3234.2
25925	10.572	3.7273	0.1	3209.1
25926	10.297	3.6364	0.1	3285.2
25927	10.388	3.7273	0.1	3260.
25928	10.113	3.6364	0.1	3336.4
25929	10.205	3.7273	0.1	3311.2
25930	9.9286	3.6364	0.1	3387.9
25931	10.021	3.7273	0.1	3362.6
25932	9.7447	3.6364	0.1	3439.6
25933	9.8367	3.7273	0.1	3414.2
25934	9.5608	3.6364	0.1	3491.6
25935	9.6527	3.7273	0.1	3466.
25936	9.3768	3.6364	0.1	3543.9
25937	9.4688	3.7273	0.1	3518.2
25938	9.1929	3.6364	0.1	3596.5
25939	9.2848	3.7273	0.1	3570.6
25940	9.0089	3.6364	0.1	3649.6
25941	9.1009	3.7273	0.1	3623.4
25942	8.825	3.6364	0.1	3703.2
25943	8.917	3.7273	0.1	3676.7
25944	8.6411	3.6364	0.1	3757.3
25945	8.733	3.7273	0.1	3730.5
25946	8.4571	3.6364	0.1	3812.2
25947	8.5491	3.7273	0.1	3784.9
25948	8.2732	3.6364	0.1	3868.1
25949	8.3652	3.7273	0.1	3840.1
25950	8.0892	3.6364	0.1	3925.
25951	8.1812	3.7273	0.1	3896.2
25952	7.9053	3.6364	0.1	3983.4
25953	7.9973	3.7273	0.1	3953.6
25954	7.7214	3.6364	0.1	4043.7
25955	7.8133	3.7273	0.1	4012.4
25956	7.5374	3.6364	0.1	4106.2
25957	7.6294	3.7273	0.1	4073.1
25958	7.3535	3.6364	0.1	4171.7
25959	7.4455	3.7273	0.1	4136.3
25960	7.1695	3.6364	0.1	4240.9
25961	7.2615	3.7273	0.1	4202.4
25962	6.9856	3.6364	0.1	4314.9
25963	7.0776	3.7273	0.1	4272.5
25964	6.8017	3.6364	0.1	4395.
25965	6.8936	3.7273	0.1	4347.4
25966	6.6177	3.6364	0.1	4482.8
25967	6.7097	3.7273	0.1	4428.6
25968	6.4338	3.6364	0.1	4580.6
25969	6.5258	3.7273	0.1	4517.8
25970	6.2498	3.6364	0.1	4691.1
25971	6.3418	3.7273	0.1	4617.1
25972	6.0659	3.6364	0.1	4817.8
25973	6.1579	3.7273	0.1	4729.5
25974	5.882	3.6364	0.1	4965.5
25975	5.9739	3.7273	0.1	4858.5
25976	5.698	3.6364	0.1	5140.3
25977	5.79	3.7273	0.1	5009.
25978	5.5141	3.6364	0.1	5350.3
25979	5.6061	3.7273	0.1	5187.3
25980	5.3302	3.6364	0.1	5606.5
25981	5.4221	3.7273	0.1	5401.9
25982	5.1462	3.6364	0.1	5924.2
25983	5.2382	3.7273	0.1	5664.7
25984	4.9623	3.6364	0.1	6325.5
25985	5.0542	3.7273	0.1	5992.4
25986	4.7783	3.6364	0.1	6844.
25987	4.8703	3.7273	0.1	6410.2
25988	4.5944	3.6364	0.1	7533.1
25989	4.6864	3.7273	0.1	6958.2
25990	4.4105	3.6364	0.1	8484.3
25991	4.5024	3.7273	0.1	7704.1
25992	4.2265	3.6364	0.1	9851.9
25993	4.3185	3.7273	0.1	8776.2
25994	4.0426	3.6364	0.1	11808
25995	4.1345	3.7273	0.1	10449
25996	3.9506	3.7273	0.1	13263
25997	3.8586	3.6364	0.1	13849
25998	23.724	3.8182	0.1	59.072
25999	23.816	3.9091	0.1	39.764
26000	23.908	3.8182	0.1	22.381
26001	23.54	3.8182	0.1	97.835
26002	23.632	3.9091	0.1	78.43
26003	23.356	3.8182	0.1	136.49
26004	23.448	3.9091	0.1	117.1
26005	23.172	3.8182	0.1	175.01
26006	23.264	3.9091	0.1	155.62
26007	22.988	3.8182	0.1	213.45
26008	23.08	3.9091	0.1	194.04
26009	22.804	3.8182	0.1	251.86
26010	22.896	3.9091	0.1	232.41
26011	22.62	3.8182	0.1	290.28
26012	22.712	3.9091	0.1	270.79
26013	22.437	3.8182	0.1	328.75
26014	22.528	3.9091	0.1	309.21
26015	22.253	3.8182	0.1	367.31
26016	22.345	3.9091	0.1	347.71
26017	22.069	3.8182	0.1	405.98
26018	22.161	3.9091	0.1	386.33
26019	21.885	3.8182	0.1	444.78
26020	21.977	3.9091	0.1	425.07
26021	21.701	3.8182	0.1	483.74
26022	21.793	3.9091	0.1	463.97
26023	21.517	3.8182	0.1	522.87
26024	21.609	3.9091	0.1	503.03
26025	21.333	3.8182	0.1	562.17
26026	21.425	3.9091	0.1	542.26
26027	21.149	3.8182	0.1	601.65
26028	21.241	3.9091	0.1	581.68
26029	20.965	3.8182	0.1	641.33
26030	21.057	3.9091	0.1	621.29
26031	20.781	3.8182	0.1	681.21
26032	20.873	3.9091	0.1	661.1
26033	20.597	3.8182	0.1	721.29
26034	20.689	3.9091	0.1	701.1
26035	20.413	3.8182	0.1	761.57
26036	20.505	3.9091	0.1	741.31
26037	20.229	3.8182	0.1	802.05
26038	20.321	3.9091	0.1	781.71
26039	20.045	3.8182	0.1	842.74
26040	20.137	3.9091	0.1	822.32
26041	19.861	3.8182	0.1	883.64
26042	19.953	3.9091	0.1	863.14
26043	19.677	3.8182	0.1	924.75
26044	19.769	3.9091	0.1	904.16
26045	19.493	3.8182	0.1	966.06
26046	19.585	3.9091	0.1	945.39
26047	19.31	3.8182	0.1	1007.6
26048	19.402	3.9091	0.1	986.83
26049	19.126	3.8182	0.1	1049.3
26050	19.218	3.9091	0.1	1028.5
26051	18.942	3.8182	0.1	1091.3
26052	19.034	3.9091	0.1	1070.3
26053	18.758	3.8182	0.1	1133.4
26054	18.85	3.9091	0.1	1112.4
26055	18.574	3.8182	0.1	1175.8
26056	18.666	3.9091	0.1	1154.6
26057	18.39	3.8182	0.1	1218.3
26058	18.482	3.9091	0.1	1197.1
26059	18.206	3.8182	0.1	1261.1
26060	18.298	3.9091	0.1	1239.8
26061	18.022	3.8182	0.1	1304.
26062	18.114	3.9091	0.1	1282.7
26063	17.838	3.8182	0.1	1347.2
26064	17.93	3.9091	0.1	1325.7
26065	17.654	3.8182	0.1	1390.6
26066	17.746	3.9091	0.1	1369.
26067	17.47	3.8182	0.1	1434.2
26068	17.562	3.9091	0.1	1412.5
26069	17.286	3.8182	0.1	1478.
26070	17.378	3.9091	0.1	1456.2
26071	17.102	3.8182	0.1	1522.
26072	17.194	3.9091	0.1	1500.1
26073	16.918	3.8182	0.1	1566.1
26074	17.01	3.9091	0.1	1544.2
26075	16.734	3.8182	0.1	1610.5
26076	16.826	3.9091	0.1	1588.5
26077	16.55	3.8182	0.1	1655.1
26078	16.642	3.9091	0.1	1633.
26079	16.367	3.8182	0.1	1699.9
26080	16.458	3.9091	0.1	1677.7
26081	16.183	3.8182	0.1	1744.9
26082	16.275	3.9091	0.1	1722.6
26083	15.999	3.8182	0.1	1790.1
26084	16.091	3.9091	0.1	1767.7
26085	15.815	3.8182	0.1	1835.5
26086	15.907	3.9091	0.1	1812.9
26087	15.631	3.8182	0.1	1881.1
26088	15.723	3.9091	0.1	1858.4
26089	15.447	3.8182	0.1	1926.9
26090	15.539	3.9091	0.1	1904.1
26091	15.263	3.8182	0.1	1972.8
26092	15.355	3.9091	0.1	1950.
26093	15.079	3.8182	0.1	2019.
26094	15.171	3.9091	0.1	1996.1
26095	14.895	3.8182	0.1	2065.4
26096	14.987	3.9091	0.1	2042.4
26097	14.711	3.8182	0.1	2111.9
26098	14.803	3.9091	0.1	2088.8
26099	14.527	3.8182	0.1	2158.7
26100	14.619	3.9091	0.1	2135.5
26101	14.343	3.8182	0.1	2205.7
26102	14.435	3.9091	0.1	2182.4
26103	14.159	3.8182	0.1	2252.8
26104	14.251	3.9091	0.1	2229.4
26105	13.975	3.8182	0.1	2300.1
26106	14.067	3.9091	0.1	2276.7
26107	13.791	3.8182	0.1	2347.7
26108	13.883	3.9091	0.1	2324.1
26109	13.607	3.8182	0.1	2395.4
26110	13.699	3.9091	0.1	2371.7
26111	13.423	3.8182	0.1	2443.3
26112	13.515	3.9091	0.1	2419.6
26113	13.24	3.8182	0.1	2491.4
26114	13.332	3.9091	0.1	2467.6
26115	13.056	3.8182	0.1	2539.7
26116	13.148	3.9091	0.1	2515.8
26117	12.872	3.8182	0.1	2588.2
26118	12.964	3.9091	0.1	2564.2
26119	12.688	3.8182	0.1	2636.8
26120	12.78	3.9091	0.1	2612.7
26121	12.504	3.8182	0.1	2685.7
26122	12.596	3.9091	0.1	2661.5
26123	12.32	3.8182	0.1	2734.7
26124	12.412	3.9091	0.1	2710.4
26125	12.136	3.8182	0.1	2783.9
26126	12.228	3.9091	0.1	2759.6
26127	11.952	3.8182	0.1	2833.3
26128	12.044	3.9091	0.1	2808.9
26129	11.768	3.8182	0.1	2882.9
26130	11.86	3.9091	0.1	2858.4
26131	11.584	3.8182	0.1	2932.6
26132	11.676	3.9091	0.1	2908.1
26133	11.4	3.8182	0.1	2982.5
26134	11.492	3.9091	0.1	2957.9
26135	11.216	3.8182	0.1	3032.7
26136	11.308	3.9091	0.1	3008.
26137	11.032	3.8182	0.1	3083.
26138	11.124	3.9091	0.1	3058.2
26139	10.848	3.8182	0.1	3133.5
26140	10.94	3.9091	0.1	3108.6
26141	10.664	3.8182	0.1	3184.1
26142	10.756	3.9091	0.1	3159.2
26143	10.48	3.8182	0.1	3235.
26144	10.572	3.9091	0.1	3210.
26145	10.297	3.8182	0.1	3286.1
26146	10.388	3.9091	0.1	3261.
26147	10.113	3.8182	0.1	3337.4
26148	10.205	3.9091	0.1	3312.2
26149	9.9286	3.8182	0.1	3388.9
26150	10.021	3.9091	0.1	3363.6
26151	9.7447	3.8182	0.1	3440.6
26152	9.8367	3.9091	0.1	3415.3
26153	9.5608	3.8182	0.1	3492.6
26154	9.6527	3.9091	0.1	3467.1
26155	9.3768	3.8182	0.1	3544.9
26156	9.4688	3.9091	0.1	3519.3
26157	9.1929	3.8182	0.1	3597.5
26158	9.2848	3.9091	0.1	3571.7
26159	9.0089	3.8182	0.1	3650.6
26160	9.1009	3.9091	0.1	3624.5
26161	8.825	3.8182	0.1	3704.
26162	8.917	3.9091	0.1	3677.7
26163	8.6411	3.8182	0.1	3758.1
26164	8.733	3.9091	0.1	3731.4
26165	8.4571	3.8182	0.1	3812.7
26166	8.5491	3.9091	0.1	3785.6
26167	8.2732	3.8182	0.1	3868.2
26168	8.3652	3.9091	0.1	3840.5
26169	8.0892	3.8182	0.1	3924.8
26170	8.1812	3.9091	0.1	3896.2
26171	7.9053	3.8182	0.1	3982.5
26172	7.9973	3.9091	0.1	3953.
26173	7.7214	3.8182	0.1	4041.9
26174	7.8133	3.9091	0.1	4011.
26175	7.5374	3.8182	0.1	4103.2
26176	7.6294	3.9091	0.1	4070.5
26177	7.3535	3.8182	0.1	4167.
26178	7.4455	3.9091	0.1	4132.1
26179	7.1695	3.8182	0.1	4234.
26180	7.2615	3.9091	0.1	4196.2
26181	6.9856	3.8182	0.1	4305.
26182	7.0776	3.9091	0.1	4263.4
26183	6.8017	3.8182	0.1	4381.
26184	6.8936	3.9091	0.1	4334.6
26185	6.6177	3.8182	0.1	4463.6
26186	6.7097	3.9091	0.1	4410.9
26187	6.4338	3.8182	0.1	4554.3
26188	6.5258	3.9091	0.1	4493.5
26189	6.2498	3.8182	0.1	4655.5
26190	6.3418	3.9091	0.1	4584.2
26191	6.0659	3.8182	0.1	4770.1
26192	6.1579	3.9091	0.1	4685.2
26193	5.882	3.8182	0.1	4901.9
26194	5.9739	3.9091	0.1	4799.4
26195	5.698	3.8182	0.1	5055.9
26196	5.79	3.9091	0.1	4930.5
26197	5.5141	3.8182	0.1	5238.7
26198	5.6061	3.9091	0.1	5083.5
26199	5.3302	3.8182	0.1	5459.7
26200	5.4221	3.9091	0.1	5265.2
26201	5.1462	3.8182	0.1	5732.3
26202	5.2382	3.9091	0.1	5485.4
26203	4.9623	3.8182	0.1	6076.3
26204	5.0542	3.9091	0.1	5758.2
26205	4.7783	3.8182	0.1	6523.7
26206	4.8703	3.9091	0.1	6105.4
26207	4.5944	3.8182	0.1	7129.8
26208	4.6864	3.9091	0.1	6562.8
26209	4.4105	3.8182	0.1	8000.9
26210	4.5024	3.9091	0.1	7194.2
26211	4.2265	3.8182	0.1	9392.9
26212	4.3185	3.9091	0.1	8132.6
26213	4.0426	3.8182	0.1	11956
26214	4.1345	3.9091	0.1	9675.9
26215	3.9506	3.9091	0.1	13343
26216	3.8586	3.8182	0.1	16008
26217	23.724	4.	0.1	59.046
26218	23.816	4.0909	0.1	39.798
26219	23.908	4.	0.1	22.41
26220	23.54	4.	0.1	97.689
26221	23.632	4.0909	0.1	78.324
26222	23.356	4.	0.1	136.23
26223	23.448	4.0909	0.1	116.86
26224	23.172	4.	0.1	174.65
26225	23.264	4.0909	0.1	155.26
26226	22.988	4.	0.1	213.01
26227	23.08	4.0909	0.1	193.58
26228	22.804	4.	0.1	251.36
26229	22.896	4.0909	0.1	231.88
26230	22.62	4.	0.1	289.74
26231	22.712	4.0909	0.1	270.2
26232	22.437	4.	0.1	328.2
26233	22.528	4.0909	0.1	308.6
26234	22.253	4.	0.1	366.76
26235	22.345	4.0909	0.1	347.1
26236	22.069	4.	0.1	405.45
26237	22.161	4.0909	0.1	385.73
26238	21.885	4.	0.1	444.29
26239	21.977	4.0909	0.1	424.51
26240	21.701	4.	0.1	483.29
26241	21.793	4.0909	0.1	463.45
26242	21.517	4.	0.1	522.46
26243	21.609	4.0909	0.1	502.57
26244	21.333	4.	0.1	561.82
26245	21.425	4.0909	0.1	541.86
26246	21.149	4.	0.1	601.36
26247	21.241	4.0909	0.1	581.34
26248	20.965	4.	0.1	641.09
26249	21.057	4.0909	0.1	621.02
26250	20.781	4.	0.1	681.03
26251	20.873	4.0909	0.1	660.88
26252	20.597	4.	0.1	721.16
26253	20.689	4.0909	0.1	700.95
26254	20.413	4.	0.1	761.49
26255	20.505	4.0909	0.1	741.21
26256	20.229	4.	0.1	802.02
26257	20.321	4.0909	0.1	781.67
26258	20.045	4.	0.1	842.76
26259	20.137	4.0909	0.1	822.33
26260	19.861	4.	0.1	883.7
26261	19.953	4.0909	0.1	863.2
26262	19.677	4.	0.1	924.85
26263	19.769	4.0909	0.1	904.26
26264	19.493	4.	0.1	966.2
26265	19.585	4.0909	0.1	945.53
26266	19.31	4.	0.1	1007.8
26267	19.402	4.0909	0.1	987.01
26268	19.126	4.	0.1	1049.5
26269	19.218	4.0909	0.1	1028.7
26270	18.942	4.	0.1	1091.5
26271	19.034	4.0909	0.1	1070.6
26272	18.758	4.	0.1	1133.7
26273	18.85	4.0909	0.1	1112.6
26274	18.574	4.	0.1	1176.
26275	18.666	4.0909	0.1	1154.9
26276	18.39	4.	0.1	1218.6
26277	18.482	4.0909	0.1	1197.4
26278	18.206	4.	0.1	1261.4
26279	18.298	4.0909	0.1	1240.1
26280	18.022	4.	0.1	1304.4
26281	18.114	4.0909	0.1	1283.
26282	17.838	4.	0.1	1347.6
26283	17.93	4.0909	0.1	1326.1
26284	17.654	4.	0.1	1391.
26285	17.746	4.0909	0.1	1369.4
26286	17.47	4.	0.1	1434.6
26287	17.562	4.0909	0.1	1412.9
26288	17.286	4.	0.1	1478.3
26289	17.378	4.0909	0.1	1456.6
26290	17.102	4.	0.1	1522.3
26291	17.194	4.0909	0.1	1500.5
26292	16.918	4.	0.1	1566.5
26293	17.01	4.0909	0.1	1544.6
26294	16.734	4.	0.1	1610.9
26295	16.826	4.0909	0.1	1588.9
26296	16.55	4.	0.1	1655.5
26297	16.642	4.0909	0.1	1633.4
26298	16.367	4.	0.1	1700.3
26299	16.458	4.0909	0.1	1678.1
26300	16.183	4.	0.1	1745.3
26301	16.275	4.0909	0.1	1723.
26302	15.999	4.	0.1	1790.5
26303	16.091	4.0909	0.1	1768.1
26304	15.815	4.	0.1	1835.9
26305	15.907	4.0909	0.1	1813.4
26306	15.631	4.	0.1	1881.5
26307	15.723	4.0909	0.1	1858.9
26308	15.447	4.	0.1	1927.3
26309	15.539	4.0909	0.1	1904.6
26310	15.263	4.	0.1	1973.3
26311	15.355	4.0909	0.1	1950.5
26312	15.079	4.	0.1	2019.5
26313	15.171	4.0909	0.1	1996.6
26314	14.895	4.	0.1	2065.9
26315	14.987	4.0909	0.1	2042.9
26316	14.711	4.	0.1	2112.4
26317	14.803	4.0909	0.1	2089.4
26318	14.527	4.	0.1	2159.2
26319	14.619	4.0909	0.1	2136.
26320	14.343	4.	0.1	2206.2
26321	14.435	4.0909	0.1	2182.9
26322	14.159	4.	0.1	2253.3
26323	14.251	4.0909	0.1	2230.
26324	13.975	4.	0.1	2300.7
26325	14.067	4.0909	0.1	2277.2
26326	13.791	4.	0.1	2348.2
26327	13.883	4.0909	0.1	2324.7
26328	13.607	4.	0.1	2395.9
26329	13.699	4.0909	0.1	2372.3
26330	13.423	4.	0.1	2443.9
26331	13.515	4.0909	0.1	2420.2
26332	13.24	4.	0.1	2492.
26333	13.332	4.0909	0.1	2468.2
26334	13.056	4.	0.1	2540.3
26335	13.148	4.0909	0.1	2516.4
26336	12.872	4.	0.1	2588.8
26337	12.964	4.0909	0.1	2564.8
26338	12.688	4.	0.1	2637.4
26339	12.78	4.0909	0.1	2613.4
26340	12.504	4.	0.1	2686.3
26341	12.596	4.0909	0.1	2662.2
26342	12.32	4.	0.1	2735.4
26343	12.412	4.0909	0.1	2711.2
26344	12.136	4.	0.1	2784.6
26345	12.228	4.0909	0.1	2760.3
26346	11.952	4.	0.1	2834.
26347	12.044	4.0909	0.1	2809.7
26348	11.768	4.	0.1	2883.6
26349	11.86	4.0909	0.1	2859.2
26350	11.584	4.	0.1	2933.4
26351	11.676	4.0909	0.1	2908.9
26352	11.4	4.	0.1	2983.4
26353	11.492	4.0909	0.1	2958.8
26354	11.216	4.	0.1	3033.5
26355	11.308	4.0909	0.1	3008.9
26356	11.032	4.	0.1	3083.9
26357	11.124	4.0909	0.1	3059.2
26358	10.848	4.	0.1	3134.4
26359	10.94	4.0909	0.1	3109.6
26360	10.664	4.	0.1	3185.1
26361	10.756	4.0909	0.1	3160.3
26362	10.48	4.	0.1	3236.1
26363	10.572	4.0909	0.1	3211.1
26364	10.297	4.	0.1	3287.2
26365	10.388	4.0909	0.1	3262.2
26366	10.113	4.	0.1	3338.5
26367	10.205	4.0909	0.1	3313.4
26368	9.9286	4.	0.1	3390.
26369	10.021	4.0909	0.1	3364.9
26370	9.7447	4.	0.1	3441.8
26371	9.8367	4.0909	0.1	3416.6
26372	9.5608	4.	0.1	3493.8
26373	9.6527	4.0909	0.1	3468.5
26374	9.3768	4.	0.1	3546.1
26375	9.4688	4.0909	0.1	3520.6
26376	9.1929	4.	0.1	3598.8
26377	9.2848	4.0909	0.1	3573.1
26378	9.0089	4.	0.1	3651.7
26379	9.1009	4.0909	0.1	3625.8
26380	8.825	4.	0.1	3705.1
26381	8.917	4.0909	0.1	3678.9
26382	8.6411	4.	0.1	3758.9
26383	8.733	4.0909	0.1	3732.5
26384	8.4571	4.	0.1	3813.4
26385	8.5491	4.0909	0.1	3786.4
26386	8.2732	4.	0.1	3868.5
26387	8.3652	4.0909	0.1	3841.
26388	8.0892	4.	0.1	3924.4
26389	8.1812	4.0909	0.1	3896.2
26390	7.9053	4.	0.1	3981.4
26391	7.9973	4.0909	0.1	3952.2
26392	7.7214	4.	0.1	4039.7
26393	7.8133	4.0909	0.1	4009.3
26394	7.5374	4.	0.1	4099.5
26395	7.6294	4.0909	0.1	4067.5
26396	7.3535	4.	0.1	4161.3
26397	7.4455	4.0909	0.1	4127.3
26398	7.1695	4.	0.1	4225.6
26399	7.2615	4.0909	0.1	4188.9
26400	6.9856	4.	0.1	4293.1
26401	7.0776	4.0909	0.1	4252.9
26402	6.8017	4.	0.1	4364.5
26403	6.8936	4.0909	0.1	4319.8
26404	6.6177	4.	0.1	4440.8
26405	6.7097	4.0909	0.1	4390.4
26406	6.4338	4.	0.1	4523.3
26407	6.5258	4.0909	0.1	4465.6
26408	6.2498	4.	0.1	4613.8
26409	6.3418	4.0909	0.1	4546.5
26410	6.0659	4.	0.1	4714.4
26411	6.1579	4.0909	0.1	4634.7
26412	5.882	4.	0.1	4827.8
26413	5.9739	4.0909	0.1	4732.2
26414	5.698	4.	0.1	4957.8
26415	5.79	4.0909	0.1	4841.6
26416	5.5141	4.	0.1	5109.6
26417	5.6061	4.0909	0.1	4966.5
26418	5.3302	4.	0.1	5290.2
26419	5.4221	4.0909	0.1	5111.7
26420	5.1462	4.	0.1	5510.2
26421	5.2382	4.0909	0.1	5284.4
26422	4.9623	4.	0.1	5785.5
26423	5.0542	4.0909	0.1	5495.1
26424	4.7783	4.	0.1	6142.
26425	4.8703	4.0909	0.1	5760.2
26426	4.5944	4.	0.1	6624.8
26427	4.6864	4.0909	0.1	6106.3
26428	4.4105	4.	0.1	7325.3
26429	4.5024	4.0909	0.1	6579.9
26430	4.2265	4.	0.1	8425.4
26431	4.3185	4.0909	0.1	7274.
26432	4.0426	4.	0.1	11160
26433	4.1345	4.0909	0.1	8367.3
26434	3.9506	4.0909	0.1	11267
26435	3.8586	4.	0.1	19820
26436	23.724	4.1818	0.1	59.003
26437	23.816	4.2727	0.1	39.829
26438	23.908	4.1818	0.1	22.44
26439	23.54	4.1818	0.1	97.494
26440	23.632	4.2727	0.1	78.177
26441	23.356	4.1818	0.1	135.9
26442	23.448	4.2727	0.1	116.56
26443	23.172	4.1818	0.1	174.2
26444	23.264	4.2727	0.1	154.8
26445	22.988	4.1818	0.1	212.46
26446	23.08	4.2727	0.1	193.01
26447	22.804	4.1818	0.1	250.74
26448	22.896	4.2727	0.1	231.22
26449	22.62	4.1818	0.1	289.09
26450	22.712	4.2727	0.1	269.49
26451	22.437	4.1818	0.1	327.53
26452	22.528	4.2727	0.1	307.87
26453	22.253	4.1818	0.1	366.11
26454	22.345	4.2727	0.1	346.39
26455	22.069	4.1818	0.1	404.83
26456	22.161	4.2727	0.1	385.05
26457	21.885	4.1818	0.1	443.71
26458	21.977	4.2727	0.1	423.88
26459	21.701	4.1818	0.1	482.77
26460	21.793	4.2727	0.1	462.88
26461	21.517	4.1818	0.1	522.01
26462	21.609	4.2727	0.1	502.06
26463	21.333	4.1818	0.1	561.43
26464	21.425	4.2727	0.1	541.43
26465	21.149	4.1818	0.1	601.04
26466	21.241	4.2727	0.1	580.99
26467	20.965	4.1818	0.1	640.84
26468	21.057	4.2727	0.1	620.73
26469	20.781	4.1818	0.1	680.84
26470	20.873	4.2727	0.1	660.67
26471	20.597	4.1818	0.1	721.03
26472	20.689	4.2727	0.1	700.8
26473	20.413	4.1818	0.1	761.43
26474	20.505	4.2727	0.1	741.13
26475	20.229	4.1818	0.1	802.02
26476	20.321	4.2727	0.1	781.66
26477	20.045	4.1818	0.1	842.81
26478	20.137	4.2727	0.1	822.38
26479	19.861	4.1818	0.1	883.8
26480	19.953	4.2727	0.1	863.3
26481	19.677	4.1818	0.1	924.99
26482	19.769	4.2727	0.1	904.41
26483	19.493	4.1818	0.1	966.38
26484	19.585	4.2727	0.1	945.73
26485	19.31	4.1818	0.1	1008.
26486	19.402	4.2727	0.1	987.24
26487	19.126	4.1818	0.1	1049.8
26488	19.218	4.2727	0.1	1029.
26489	18.942	4.1818	0.1	1091.8
26490	19.034	4.2727	0.1	1070.9
26491	18.758	4.1818	0.1	1134.
26492	18.85	4.2727	0.1	1113.
26493	18.574	4.1818	0.1	1176.4
26494	18.666	4.2727	0.1	1155.3
26495	18.39	4.1818	0.1	1219.
26496	18.482	4.2727	0.1	1197.8
26497	18.206	4.1818	0.1	1261.8
26498	18.298	4.2727	0.1	1240.5
26499	18.022	4.1818	0.1	1304.8
26500	18.114	4.2727	0.1	1283.4
26501	17.838	4.1818	0.1	1348.
26502	17.93	4.2727	0.1	1326.6
26503	17.654	4.1818	0.1	1391.4
26504	17.746	4.2727	0.1	1369.9
26505	17.47	4.1818	0.1	1435.
26506	17.562	4.2727	0.1	1413.4
26507	17.286	4.1818	0.1	1478.8
26508	17.378	4.2727	0.1	1457.1
26509	17.102	4.1818	0.1	1522.8
26510	17.194	4.2727	0.1	1501.
26511	16.918	4.1818	0.1	1567.
26512	17.01	4.2727	0.1	1545.1
26513	16.734	4.1818	0.1	1611.4
26514	16.826	4.2727	0.1	1589.5
26515	16.55	4.1818	0.1	1656.
26516	16.642	4.2727	0.1	1634.
26517	16.367	4.1818	0.1	1700.9
26518	16.458	4.2727	0.1	1678.7
26519	16.183	4.1818	0.1	1745.9
26520	16.275	4.2727	0.1	1723.6
26521	15.999	4.1818	0.1	1791.1
26522	16.091	4.2727	0.1	1768.7
26523	15.815	4.1818	0.1	1836.5
26524	15.907	4.2727	0.1	1814.
26525	15.631	4.1818	0.1	1882.1
26526	15.723	4.2727	0.1	1859.5
26527	15.447	4.1818	0.1	1927.9
26528	15.539	4.2727	0.1	1905.2
26529	15.263	4.1818	0.1	1973.9
26530	15.355	4.2727	0.1	1951.1
26531	15.079	4.1818	0.1	2020.
26532	15.171	4.2727	0.1	1997.2
26533	14.895	4.1818	0.1	2066.4
26534	14.987	4.2727	0.1	2043.5
26535	14.711	4.1818	0.1	2113.
26536	14.803	4.2727	0.1	2090.
26537	14.527	4.1818	0.1	2159.8
26538	14.619	4.2727	0.1	2136.7
26539	14.343	4.1818	0.1	2206.8
26540	14.435	4.2727	0.1	2183.6
26541	14.159	4.1818	0.1	2253.9
26542	14.251	4.2727	0.1	2230.6
26543	13.975	4.1818	0.1	2301.3
26544	14.067	4.2727	0.1	2277.9
26545	13.791	4.1818	0.1	2348.8
26546	13.883	4.2727	0.1	2325.4
26547	13.607	4.1818	0.1	2396.6
26548	13.699	4.2727	0.1	2373.
26549	13.423	4.1818	0.1	2444.5
26550	13.515	4.2727	0.1	2420.9
26551	13.24	4.1818	0.1	2492.7
26552	13.332	4.2727	0.1	2468.9
26553	13.056	4.1818	0.1	2541.
26554	13.148	4.2727	0.1	2517.2
26555	12.872	4.1818	0.1	2589.5
26556	12.964	4.2727	0.1	2565.6
26557	12.688	4.1818	0.1	2638.2
26558	12.78	4.2727	0.1	2614.2
26559	12.504	4.1818	0.1	2687.1
26560	12.596	4.2727	0.1	2663.
26561	12.32	4.1818	0.1	2736.2
26562	12.412	4.2727	0.1	2712.
26563	12.136	4.1818	0.1	2785.4
26564	12.228	4.2727	0.1	2761.2
26565	11.952	4.1818	0.1	2834.9
26566	12.044	4.2727	0.1	2810.6
26567	11.768	4.1818	0.1	2884.5
26568	11.86	4.2727	0.1	2860.1
26569	11.584	4.1818	0.1	2934.3
26570	11.676	4.2727	0.1	2909.9
26571	11.4	4.1818	0.1	2984.4
26572	11.492	4.2727	0.1	2959.8
26573	11.216	4.1818	0.1	3034.6
26574	11.308	4.2727	0.1	3010.
26575	11.032	4.1818	0.1	3085.
26576	11.124	4.2727	0.1	3060.3
26577	10.848	4.1818	0.1	3135.5
26578	10.94	4.2727	0.1	3110.8
26579	10.664	4.1818	0.1	3186.3
26580	10.756	4.2727	0.1	3161.5
26581	10.48	4.1818	0.1	3237.3
26582	10.572	4.2727	0.1	3212.4
26583	10.297	4.1818	0.1	3288.5
26584	10.388	4.2727	0.1	3263.5
26585	10.113	4.1818	0.1	3339.8
26586	10.205	4.2727	0.1	3314.8
26587	9.9286	4.1818	0.1	3391.4
26588	10.021	4.2727	0.1	3366.3
26589	9.7447	4.1818	0.1	3443.2
26590	9.8367	4.2727	0.1	3418.1
26591	9.5608	4.1818	0.1	3495.3
26592	9.6527	4.2727	0.1	3470.
26593	9.3768	4.1818	0.1	3547.6
26594	9.4688	4.2727	0.1	3522.2
26595	9.1929	4.1818	0.1	3600.2
26596	9.2848	4.2727	0.1	3574.6
26597	9.0089	4.1818	0.1	3653.1
26598	9.1009	4.2727	0.1	3627.3
26599	8.825	4.1818	0.1	3706.3
26600	8.917	4.2727	0.1	3680.3
26601	8.6411	4.1818	0.1	3760.
26602	8.733	4.2727	0.1	3733.7
26603	8.4571	4.1818	0.1	3814.1
26604	8.5491	4.2727	0.1	3787.4
26605	8.2732	4.1818	0.1	3868.7
26606	8.3652	4.2727	0.1	3841.5
26607	8.0892	4.1818	0.1	3924.
26608	8.1812	4.2727	0.1	3896.2
26609	7.9053	4.1818	0.1	3980.1
26610	7.9973	4.2727	0.1	3951.4
26611	7.7214	4.1818	0.1	4037.1
26612	7.8133	4.2727	0.1	4007.4
26613	7.5374	4.1818	0.1	4095.3
26614	7.6294	4.2727	0.1	4064.1
26615	7.3535	4.1818	0.1	4154.9
26616	7.4455	4.2727	0.1	4121.9
26617	7.1695	4.1818	0.1	4216.2
26618	7.2615	4.2727	0.1	4180.9
26619	6.9856	4.1818	0.1	4279.7
26620	7.0776	4.2727	0.1	4241.3
26621	6.8017	4.1818	0.1	4345.8
26622	6.8936	4.2727	0.1	4303.5
26623	6.6177	4.1818	0.1	4415.2
26624	6.7097	4.2727	0.1	4367.9
26625	6.4338	4.1818	0.1	4488.7
26626	6.5258	4.2727	0.1	4434.9
26627	6.2498	4.1818	0.1	4567.3
26628	6.3418	4.2727	0.1	4505.3
26629	6.0659	4.1818	0.1	4652.5
26630	6.1579	4.2727	0.1	4579.8
26631	5.882	4.1818	0.1	4745.9
26632	5.9739	4.2727	0.1	4659.4
26633	5.698	4.1818	0.1	4849.9
26634	5.79	4.2727	0.1	4745.7
26635	5.5141	4.1818	0.1	4968.
26636	5.6061	4.2727	0.1	4840.6
26637	5.3302	4.1818	0.1	5104.8
26638	5.4221	4.2727	0.1	4947.1
26639	5.1462	4.1818	0.1	5267.5
26640	5.2382	4.2727	0.1	5069.4
26641	4.9623	4.1818	0.1	5467.
26642	5.0542	4.2727	0.1	5214.
26643	4.7783	4.1818	0.1	5720.5
26644	4.8703	4.2727	0.1	5391.2
26645	4.5944	4.1818	0.1	6056.
26646	4.6864	4.2727	0.1	5616.4
26647	4.4105	4.1818	0.1	6522.2
26648	4.5024	4.2727	0.1	5914.
26649	4.2265	4.1818	0.1	7215.2
26650	4.3185	4.2727	0.1	6319.5
26651	4.0426	4.1818	0.1	8505.1
26652	4.1345	4.2727	0.1	6897.8
26653	3.9506	4.2727	0.1	7964.2
26654	3.8586	4.1818	0.1	7259.4
26655	23.724	4.3636	0.1	58.934
26656	23.816	4.4545	0.1	39.85
26657	23.908	4.3636	0.1	22.468
26658	23.54	4.3636	0.1	97.235
26659	23.632	4.4545	0.1	77.975
26660	23.356	4.3636	0.1	135.47
26661	23.448	4.4545	0.1	116.15
26662	23.172	4.3636	0.1	173.63
26663	23.264	4.4545	0.1	154.23
26664	22.988	4.3636	0.1	211.78
26665	23.08	4.4545	0.1	192.3
26666	22.804	4.3636	0.1	250.
26667	22.896	4.4545	0.1	230.43
26668	22.62	4.3636	0.1	288.31
26669	22.712	4.4545	0.1	268.66
26670	22.437	4.3636	0.1	326.76
26671	22.528	4.4545	0.1	307.04
26672	22.253	4.3636	0.1	365.36
26673	22.345	4.4545	0.1	345.58
26674	22.069	4.3636	0.1	404.13
26675	22.161	4.4545	0.1	384.3
26676	21.885	4.3636	0.1	443.08
26677	21.977	4.4545	0.1	423.19
26678	21.701	4.3636	0.1	482.21
26679	21.793	4.4545	0.1	462.27
26680	21.517	4.3636	0.1	521.53
26681	21.609	4.4545	0.1	501.54
26682	21.333	4.3636	0.1	561.03
26683	21.425	4.4545	0.1	540.99
26684	21.149	4.3636	0.1	600.72
26685	21.241	4.4545	0.1	580.64
26686	20.965	4.3636	0.1	640.6
26687	21.057	4.4545	0.1	620.47
26688	20.781	4.3636	0.1	680.68
26689	20.873	4.4545	0.1	660.49
26690	20.597	4.3636	0.1	720.94
26691	20.689	4.4545	0.1	700.7
26692	20.413	4.3636	0.1	761.4
26693	20.505	4.4545	0.1	741.1
26694	20.229	4.3636	0.1	802.06
26695	20.321	4.4545	0.1	781.7
26696	20.045	4.3636	0.1	842.91
26697	20.137	4.4545	0.1	822.48
26698	19.861	4.3636	0.1	883.95
26699	19.953	4.4545	0.1	863.46
26700	19.677	4.3636	0.1	925.19
26701	19.769	4.4545	0.1	904.63
26702	19.493	4.3636	0.1	966.63
26703	19.585	4.4545	0.1	946.
26704	19.31	4.3636	0.1	1008.3
26705	19.402	4.4545	0.1	987.55
26706	19.126	4.3636	0.1	1050.1
26707	19.218	4.4545	0.1	1029.3
26708	18.942	4.3636	0.1	1092.1
26709	19.034	4.4545	0.1	1071.3
26710	18.758	4.3636	0.1	1134.4
26711	18.85	4.4545	0.1	1113.4
26712	18.574	4.3636	0.1	1176.8
26713	18.666	4.4545	0.1	1155.8
26714	18.39	4.3636	0.1	1219.4
26715	18.482	4.4545	0.1	1198.3
26716	18.206	4.3636	0.1	1262.2
26717	18.298	4.4545	0.1	1241.
26718	18.022	4.3636	0.1	1305.3
26719	18.114	4.4545	0.1	1284.
26720	17.838	4.3636	0.1	1348.5
26721	17.93	4.4545	0.1	1327.1
26722	17.654	4.3636	0.1	1391.9
26723	17.746	4.4545	0.1	1370.4
26724	17.47	4.3636	0.1	1435.5
26725	17.562	4.4545	0.1	1414.
26726	17.286	4.3636	0.1	1479.4
26727	17.378	4.4545	0.1	1457.7
26728	17.102	4.3636	0.1	1523.4
26729	17.194	4.4545	0.1	1501.6
26730	16.918	4.3636	0.1	1567.6
26731	17.01	4.4545	0.1	1545.8
26732	16.734	4.3636	0.1	1612.
26733	16.826	4.4545	0.1	1590.1
26734	16.55	4.3636	0.1	1656.6
26735	16.642	4.4545	0.1	1634.6
26736	16.367	4.3636	0.1	1701.5
26737	16.458	4.4545	0.1	1679.3
26738	16.183	4.3636	0.1	1746.5
26739	16.275	4.4545	0.1	1724.2
26740	15.999	4.3636	0.1	1791.7
26741	16.091	4.4545	0.1	1769.4
26742	15.815	4.3636	0.1	1837.1
26743	15.907	4.4545	0.1	1814.7
26744	15.631	4.3636	0.1	1882.7
26745	15.723	4.4545	0.1	1860.2
26746	15.447	4.3636	0.1	1928.5
26747	15.539	4.4545	0.1	1905.9
26748	15.263	4.3636	0.1	1974.5
26749	15.355	4.4545	0.1	1951.8
26750	15.079	4.3636	0.1	2020.7
26751	15.171	4.4545	0.1	1997.9
26752	14.895	4.3636	0.1	2067.1
26753	14.987	4.4545	0.1	2044.2
26754	14.711	4.3636	0.1	2113.7
26755	14.803	4.4545	0.1	2090.7
26756	14.527	4.3636	0.1	2160.5
26757	14.619	4.4545	0.1	2137.4
26758	14.343	4.3636	0.1	2207.5
26759	14.435	4.4545	0.1	2184.3
26760	14.159	4.3636	0.1	2254.6
26761	14.251	4.4545	0.1	2231.4
26762	13.975	4.3636	0.1	2302.
26763	14.067	4.4545	0.1	2278.7
26764	13.791	4.3636	0.1	2349.6
26765	13.883	4.4545	0.1	2326.1
26766	13.607	4.3636	0.1	2397.3
26767	13.699	4.4545	0.1	2373.8
26768	13.423	4.3636	0.1	2445.3
26769	13.515	4.4545	0.1	2421.7
26770	13.24	4.3636	0.1	2493.4
26771	13.332	4.4545	0.1	2469.8
26772	13.056	4.3636	0.1	2541.8
26773	13.148	4.4545	0.1	2518.
26774	12.872	4.3636	0.1	2590.3
26775	12.964	4.4545	0.1	2566.5
26776	12.688	4.3636	0.1	2639.
26777	12.78	4.4545	0.1	2615.1
26778	12.504	4.3636	0.1	2688.
26779	12.596	4.4545	0.1	2663.9
26780	12.32	4.3636	0.1	2737.1
26781	12.412	4.4545	0.1	2713.
26782	12.136	4.3636	0.1	2786.4
26783	12.228	4.4545	0.1	2762.2
26784	11.952	4.3636	0.1	2835.9
26785	12.044	4.4545	0.1	2811.6
26786	11.768	4.3636	0.1	2885.6
26787	11.86	4.4545	0.1	2861.2
26788	11.584	4.3636	0.1	2935.4
26789	11.676	4.4545	0.1	2911.
26790	11.4	4.3636	0.1	2985.5
26791	11.492	4.4545	0.1	2961.
26792	11.216	4.3636	0.1	3035.7
26793	11.308	4.4545	0.1	3011.2
26794	11.032	4.3636	0.1	3086.2
26795	11.124	4.4545	0.1	3061.6
26796	10.848	4.3636	0.1	3136.8
26797	10.94	4.4545	0.1	3112.2
26798	10.664	4.3636	0.1	3187.7
26799	10.756	4.4545	0.1	3162.9
26800	10.48	4.3636	0.1	3238.7
26801	10.572	4.4545	0.1	3213.9
26802	10.297	4.3636	0.1	3289.9
26803	10.388	4.4545	0.1	3265.
26804	10.113	4.3636	0.1	3341.3
26805	10.205	4.4545	0.1	3316.4
26806	9.9286	4.3636	0.1	3393.
26807	10.021	4.4545	0.1	3368.
26808	9.7447	4.3636	0.1	3444.8
26809	9.8367	4.4545	0.1	3419.7
26810	9.5608	4.3636	0.1	3496.9
26811	9.6527	4.4545	0.1	3471.7
26812	9.3768	4.3636	0.1	3549.2
26813	9.4688	4.4545	0.1	3523.9
26814	9.1929	4.3636	0.1	3601.8
26815	9.2848	4.4545	0.1	3576.3
26816	9.0089	4.3636	0.1	3654.6
26817	9.1009	4.4545	0.1	3628.9
26818	8.825	4.3636	0.1	3707.7
26819	8.917	4.4545	0.1	3681.8
26820	8.6411	4.3636	0.1	3761.1
26821	8.733	4.4545	0.1	3735.
26822	8.4571	4.3636	0.1	3814.9
26823	8.5491	4.4545	0.1	3788.4
26824	8.2732	4.3636	0.1	3869.
26825	8.3652	4.4545	0.1	3842.1
26826	8.0892	4.3636	0.1	3923.6
26827	8.1812	4.4545	0.1	3896.2
26828	7.9053	4.3636	0.1	3978.7
26829	7.9973	4.4545	0.1	3950.6
26830	7.7214	4.3636	0.1	4034.4
26831	7.8133	4.4545	0.1	4005.3
26832	7.5374	4.3636	0.1	4090.7
26833	7.6294	4.4545	0.1	4060.5
26834	7.3535	4.3636	0.1	4147.9
26835	7.4455	4.4545	0.1	4116.1
26836	7.1695	4.3636	0.1	4205.9
26837	7.2615	4.4545	0.1	4172.2
26838	6.9856	4.3636	0.1	4265.1
26839	7.0776	4.4545	0.1	4228.9
26840	6.8017	4.3636	0.1	4325.6
26841	6.8936	4.4545	0.1	4286.1
26842	6.6177	4.3636	0.1	4387.6
26843	6.7097	4.4545	0.1	4344.
26844	6.4338	4.3636	0.1	4451.5
26845	6.5258	4.4545	0.1	4402.6
26846	6.2498	4.3636	0.1	4517.6
26847	6.3418	4.4545	0.1	4461.9
26848	6.0659	4.3636	0.1	4586.6
26849	6.1579	4.4545	0.1	4522.1
26850	5.882	4.3636	0.1	4659.
26851	5.9739	4.4545	0.1	4583.4
26852	5.698	4.3636	0.1	4736.
26853	5.79	4.4545	0.1	4645.9
26854	5.5141	4.3636	0.1	4819.
26855	5.6061	4.4545	0.1	4710.2
26856	5.3302	4.3636	0.1	4910.3
26857	5.4221	4.4545	0.1	4777.2
26858	5.1462	4.3636	0.1	5013.7
26859	5.2382	4.4545	0.1	4848.3
26860	4.9623	4.3636	0.1	5134.6
26861	5.0542	4.4545	0.1	4926.2
26862	4.7783	4.3636	0.1	5281.4
26863	4.8703	4.4545	0.1	5015.
26864	4.5944	4.3636	0.1	5465.5
26865	4.6864	4.4545	0.1	5120.5
26866	4.4105	4.3636	0.1	5698.1
26867	4.5024	4.4545	0.1	5249.2
26868	4.2265	4.3636	0.1	5975.6
26869	4.3185	4.4545	0.1	5402.9
26870	4.0426	4.3636	0.1	6263.1
26871	4.1345	4.4545	0.1	5552.8
26872	3.9506	4.4545	0.1	5777.8
26873	3.8586	4.3636	0.1	5169.5
26874	23.724	4.5455	0.1	58.826
26875	23.816	4.6364	0.1	39.851
26876	23.908	4.5455	0.1	22.49
26877	23.54	4.5455	0.1	96.892
26878	23.632	4.6364	0.1	77.697
26879	23.356	4.5455	0.1	134.93
26880	23.448	4.6364	0.1	115.63
26881	23.172	4.5455	0.1	172.92
26882	23.264	4.6364	0.1	153.51
26883	22.988	4.5455	0.1	210.97
26884	23.08	4.6364	0.1	191.45
26885	22.804	4.5455	0.1	249.12
26886	22.896	4.6364	0.1	229.5
26887	22.62	4.5455	0.1	287.43
26888	22.712	4.6364	0.1	267.71
26889	22.437	4.5455	0.1	325.9
26890	22.528	4.6364	0.1	306.11
26891	22.253	4.5455	0.1	364.55
26892	22.345	4.6364	0.1	344.71
26893	22.069	4.5455	0.1	403.39
26894	22.161	4.6364	0.1	383.5
26895	21.885	4.5455	0.1	442.42
26896	21.977	4.6364	0.1	422.48
26897	21.701	4.5455	0.1	481.64
26898	21.793	4.6364	0.1	461.66
26899	21.517	4.5455	0.1	521.05
26900	21.609	4.6364	0.1	501.03
26901	21.333	4.5455	0.1	560.65
26902	21.425	4.6364	0.1	540.59
26903	21.149	4.5455	0.1	600.43
26904	21.241	4.6364	0.1	580.33
26905	20.965	4.5455	0.1	640.4
26906	21.057	4.6364	0.1	620.26
26907	20.781	4.5455	0.1	680.56
26908	20.873	4.6364	0.1	660.37
26909	20.597	4.5455	0.1	720.91
26910	20.689	4.6364	0.1	700.66
26911	20.413	4.5455	0.1	761.44
26912	20.505	4.6364	0.1	741.15
26913	20.229	4.5455	0.1	802.16
26914	20.321	4.6364	0.1	781.81
26915	20.045	4.5455	0.1	843.08
26916	20.137	4.6364	0.1	822.66
26917	19.861	4.5455	0.1	884.18
26918	19.953	4.6364	0.1	863.7
26919	19.677	4.5455	0.1	925.47
26920	19.769	4.6364	0.1	904.93
26921	19.493	4.5455	0.1	966.96
26922	19.585	4.6364	0.1	946.35
26923	19.31	4.5455	0.1	1008.6
26924	19.402	4.6364	0.1	987.96
26925	19.126	4.5455	0.1	1050.5
26926	19.218	4.6364	0.1	1029.8
26927	18.942	4.5455	0.1	1092.6
26928	19.034	4.6364	0.1	1071.7
26929	18.758	4.5455	0.1	1134.8
26930	18.85	4.6364	0.1	1113.9
26931	18.574	4.5455	0.1	1177.3
26932	18.666	4.6364	0.1	1156.3
26933	18.39	4.5455	0.1	1220.
26934	18.482	4.6364	0.1	1198.9
26935	18.206	4.5455	0.1	1262.8
26936	18.298	4.6364	0.1	1241.6
26937	18.022	4.5455	0.1	1305.8
26938	18.114	4.6364	0.1	1284.6
26939	17.838	4.5455	0.1	1349.1
26940	17.93	4.6364	0.1	1327.7
26941	17.654	4.5455	0.1	1392.5
26942	17.746	4.6364	0.1	1371.1
26943	17.47	4.5455	0.1	1436.2
26944	17.562	4.6364	0.1	1414.6
26945	17.286	4.5455	0.1	1480.
26946	17.378	4.6364	0.1	1458.4
26947	17.102	4.5455	0.1	1524.
26948	17.194	4.6364	0.1	1502.3
26949	16.918	4.5455	0.1	1568.3
26950	17.01	4.6364	0.1	1546.5
26951	16.734	4.5455	0.1	1612.7
26952	16.826	4.6364	0.1	1590.8
26953	16.55	4.5455	0.1	1657.3
26954	16.642	4.6364	0.1	1635.3
26955	16.367	4.5455	0.1	1702.1
26956	16.458	4.6364	0.1	1680.1
26957	16.183	4.5455	0.1	1747.2
26958	16.275	4.6364	0.1	1725.
26959	15.999	4.5455	0.1	1792.4
26960	16.091	4.6364	0.1	1770.1
26961	15.815	4.5455	0.1	1837.8
26962	15.907	4.6364	0.1	1815.4
26963	15.631	4.5455	0.1	1883.4
26964	15.723	4.6364	0.1	1861.
26965	15.447	4.5455	0.1	1929.2
26966	15.539	4.6364	0.1	1906.7
26967	15.263	4.5455	0.1	1975.2
26968	15.355	4.6364	0.1	1952.6
26969	15.079	4.5455	0.1	2021.5
26970	15.171	4.6364	0.1	1998.7
26971	14.895	4.5455	0.1	2067.9
26972	14.987	4.6364	0.1	2045.
26973	14.711	4.5455	0.1	2114.5
26974	14.803	4.6364	0.1	2091.5
26975	14.527	4.5455	0.1	2161.3
26976	14.619	4.6364	0.1	2138.2
26977	14.343	4.5455	0.1	2208.3
26978	14.435	4.6364	0.1	2185.1
26979	14.159	4.5455	0.1	2255.4
26980	14.251	4.6364	0.1	2232.2
26981	13.975	4.5455	0.1	2302.8
26982	14.067	4.6364	0.1	2279.5
26983	13.791	4.5455	0.1	2350.4
26984	13.883	4.6364	0.1	2327.
26985	13.607	4.5455	0.1	2398.2
26986	13.699	4.6364	0.1	2374.7
26987	13.423	4.5455	0.1	2446.2
26988	13.515	4.6364	0.1	2422.6
26989	13.24	4.5455	0.1	2494.3
26990	13.332	4.6364	0.1	2470.7
26991	13.056	4.5455	0.1	2542.7
26992	13.148	4.6364	0.1	2519.
26993	12.872	4.5455	0.1	2591.3
26994	12.964	4.6364	0.1	2567.5
26995	12.688	4.5455	0.1	2640.
26996	12.78	4.6364	0.1	2616.1
26997	12.504	4.5455	0.1	2689.
26998	12.596	4.6364	0.1	2665.
26999	12.32	4.5455	0.1	2738.1
27000	12.412	4.6364	0.1	2714.1
27001	12.136	4.5455	0.1	2787.5
27002	12.228	4.6364	0.1	2763.3
27003	11.952	4.5455	0.1	2837.
27004	12.044	4.6364	0.1	2812.8
27005	11.768	4.5455	0.1	2886.7
27006	11.86	4.6364	0.1	2862.4
27007	11.584	4.5455	0.1	2936.6
27008	11.676	4.6364	0.1	2912.3
27009	11.4	4.5455	0.1	2986.8
27010	11.492	4.6364	0.1	2962.3
27011	11.216	4.5455	0.1	3037.1
27012	11.308	4.6364	0.1	3012.6
27013	11.032	4.5455	0.1	3087.6
27014	11.124	4.6364	0.1	3063.
27015	10.848	4.5455	0.1	3138.3
27016	10.94	4.6364	0.1	3113.6
27017	10.664	4.5455	0.1	3189.2
27018	10.756	4.6364	0.1	3164.5
27019	10.48	4.5455	0.1	3240.2
27020	10.572	4.6364	0.1	3215.5
27021	10.297	4.5455	0.1	3291.5
27022	10.388	4.6364	0.1	3266.7
27023	10.113	4.5455	0.1	3343.
27024	10.205	4.6364	0.1	3318.1
27025	9.9286	4.5455	0.1	3394.7
27026	10.021	4.6364	0.1	3369.7
27027	9.7447	4.5455	0.1	3446.6
27028	9.8367	4.6364	0.1	3421.5
27029	9.5608	4.5455	0.1	3498.7
27030	9.6527	4.6364	0.1	3473.5
27031	9.3768	4.5455	0.1	3551.
27032	9.4688	4.6364	0.1	3525.8
27033	9.1929	4.5455	0.1	3603.5
27034	9.2848	4.6364	0.1	3578.1
27035	9.0089	4.5455	0.1	3656.2
27036	9.1009	4.6364	0.1	3630.7
27037	8.825	4.5455	0.1	3709.2
27038	8.917	4.6364	0.1	3683.5
27039	8.6411	4.5455	0.1	3762.3
27040	8.733	4.6364	0.1	3736.4
27041	8.4571	4.5455	0.1	3815.7
27042	8.5491	4.6364	0.1	3789.6
27043	8.2732	4.5455	0.1	3869.3
27044	8.3652	4.6364	0.1	3842.8
27045	8.0892	4.5455	0.1	3923.2
27046	8.1812	4.6364	0.1	3896.2
27047	7.9053	4.5455	0.1	3977.2
27048	7.9973	4.6364	0.1	3949.7
27049	7.7214	4.5455	0.1	4031.5
27050	7.8133	4.6364	0.1	4003.2
27051	7.5374	4.5455	0.1	4085.9
27052	7.6294	4.6364	0.1	4056.7
27053	7.3535	4.5455	0.1	4140.5
27054	7.4455	4.6364	0.1	4110.1
27055	7.1695	4.5455	0.1	4195.2
27056	7.2615	4.6364	0.1	4163.3
27057	6.9856	4.5455	0.1	4249.9
27058	7.0776	4.6364	0.1	4216.1
27059	6.8017	4.5455	0.1	4304.5
27060	6.8936	4.6364	0.1	4268.2
27061	6.6177	4.5455	0.1	4358.9
27062	6.7097	4.6364	0.1	4319.5
27063	6.4338	4.5455	0.1	4413.
27064	6.5258	4.6364	0.1	4369.5
27065	6.2498	4.5455	0.1	4466.4
27066	6.3418	4.6364	0.1	4417.8
27067	6.0659	4.5455	0.1	4518.8
27068	6.1579	4.6364	0.1	4463.7
27069	5.882	4.5455	0.1	4570.
27070	5.9739	4.6364	0.1	4506.6
27071	5.698	4.5455	0.1	4619.7
27072	5.79	4.6364	0.1	4545.6
27073	5.5141	4.5455	0.1	4667.6
27074	5.6061	4.6364	0.1	4579.6
27075	5.3302	4.5455	0.1	4713.6
27076	5.4221	4.6364	0.1	4607.8
27077	5.1462	4.5455	0.1	4758.1
27078	5.2382	4.6364	0.1	4629.
27079	4.9623	4.5455	0.1	4802.1
27080	5.0542	4.6364	0.1	4642.5
27081	4.7783	4.5455	0.1	4846.6
27082	4.8703	4.6364	0.1	4647.7
27083	4.5944	4.5455	0.1	4891.7
27084	4.6864	4.6364	0.1	4643.9
27085	4.4105	4.5455	0.1	4932.5
27086	4.5024	4.6364	0.1	4628.5
27087	4.2265	4.5455	0.1	4940.5
27088	4.3185	4.6364	0.1	4594.2
27089	4.0426	4.5455	0.1	4953.9
27090	4.1345	4.6364	0.1	4514.5
27091	3.9506	4.6364	0.1	4521.5
27092	3.8586	4.5455	0.1	4024.6
27093	23.724	4.7273	0.1	58.661
27094	23.816	4.8182	0.1	39.814
27095	23.908	4.7273	0.1	22.499
27096	23.54	4.7273	0.1	96.439
27097	23.632	4.8182	0.1	77.312
27098	23.356	4.7273	0.1	134.24
27099	23.448	4.8182	0.1	114.96
27100	23.172	4.7273	0.1	172.06
27101	23.264	4.8182	0.1	152.63
27102	22.988	4.7273	0.1	210.01
27103	23.08	4.8182	0.1	190.43
27104	22.804	4.7273	0.1	248.13
27105	22.896	4.8182	0.1	228.44
27106	22.62	4.7273	0.1	286.44
27107	22.712	4.8182	0.1	266.66
27108	22.437	4.7273	0.1	324.97
27109	22.528	4.8182	0.1	305.12
27110	22.253	4.7273	0.1	363.7
27111	22.345	4.8182	0.1	343.8
27112	22.069	4.7273	0.1	402.63
27113	22.161	4.8182	0.1	382.69
27114	21.885	4.7273	0.1	441.77
27115	21.977	4.8182	0.1	421.79
27116	21.701	4.7273	0.1	481.1
27117	21.793	4.8182	0.1	461.09
27118	21.517	4.7273	0.1	520.61
27119	21.609	4.8182	0.1	500.58
27120	21.333	4.7273	0.1	560.32
27121	21.425	4.8182	0.1	540.25
27122	21.149	4.7273	0.1	600.2
27123	21.241	4.8182	0.1	580.1
27124	20.965	4.7273	0.1	640.27
27125	21.057	4.8182	0.1	620.13
27126	20.781	4.7273	0.1	680.52
27127	20.873	4.8182	0.1	660.34
27128	20.597	4.7273	0.1	720.95
27129	20.689	4.8182	0.1	700.72
27130	20.413	4.7273	0.1	761.56
27131	20.505	4.8182	0.1	741.29
27132	20.229	4.7273	0.1	802.36
27133	20.321	4.8182	0.1	782.03
27134	20.045	4.7273	0.1	843.34
27135	20.137	4.8182	0.1	822.95
27136	19.861	4.7273	0.1	884.5
27137	19.953	4.8182	0.1	864.06
27138	19.677	4.7273	0.1	925.85
27139	19.769	4.8182	0.1	905.34
27140	19.493	4.7273	0.1	967.39
27141	19.585	4.8182	0.1	946.81
27142	19.31	4.7273	0.1	1009.1
27143	19.402	4.8182	0.1	988.46
27144	19.126	4.7273	0.1	1051.
27145	19.218	4.8182	0.1	1030.3
27146	18.942	4.7273	0.1	1093.1
27147	19.034	4.8182	0.1	1072.3
27148	18.758	4.7273	0.1	1135.4
27149	18.85	4.8182	0.1	1114.5
27150	18.574	4.7273	0.1	1177.9
27151	18.666	4.8182	0.1	1157.
27152	18.39	4.7273	0.1	1220.6
27153	18.482	4.8182	0.1	1199.5
27154	18.206	4.7273	0.1	1263.5
27155	18.298	4.8182	0.1	1242.3
27156	18.022	4.7273	0.1	1306.5
27157	18.114	4.8182	0.1	1285.3
27158	17.838	4.7273	0.1	1349.8
27159	17.93	4.8182	0.1	1328.5
27160	17.654	4.7273	0.1	1393.2
27161	17.746	4.8182	0.1	1371.9
27162	17.47	4.7273	0.1	1436.9
27163	17.562	4.8182	0.1	1415.4
27164	17.286	4.7273	0.1	1480.7
27165	17.378	4.8182	0.1	1459.2
27166	17.102	4.7273	0.1	1524.8
27167	17.194	4.8182	0.1	1503.1
27168	16.918	4.7273	0.1	1569.
27169	17.01	4.8182	0.1	1547.3
27170	16.734	4.7273	0.1	1613.5
27171	16.826	4.8182	0.1	1591.6
27172	16.55	4.7273	0.1	1658.1
27173	16.642	4.8182	0.1	1636.2
27174	16.367	4.7273	0.1	1702.9
27175	16.458	4.8182	0.1	1680.9
27176	16.183	4.7273	0.1	1748.
27177	16.275	4.8182	0.1	1725.8
27178	15.999	4.7273	0.1	1793.2
27179	16.091	4.8182	0.1	1771.
27180	15.815	4.7273	0.1	1838.6
27181	15.907	4.8182	0.1	1816.3
27182	15.631	4.7273	0.1	1884.2
27183	15.723	4.8182	0.1	1861.8
27184	15.447	4.7273	0.1	1930.1
27185	15.539	4.8182	0.1	1907.6
27186	15.263	4.7273	0.1	1976.1
27187	15.355	4.8182	0.1	1953.5
27188	15.079	4.7273	0.1	2022.3
27189	15.171	4.8182	0.1	1999.6
27190	14.895	4.7273	0.1	2068.7
27191	14.987	4.8182	0.1	2045.9
27192	14.711	4.7273	0.1	2115.3
27193	14.803	4.8182	0.1	2092.4
27194	14.527	4.7273	0.1	2162.1
27195	14.619	4.8182	0.1	2139.2
27196	14.343	4.7273	0.1	2209.2
27197	14.435	4.8182	0.1	2186.1
27198	14.159	4.7273	0.1	2256.4
27199	14.251	4.8182	0.1	2233.2
27200	13.975	4.7273	0.1	2303.8
27201	14.067	4.8182	0.1	2280.5
27202	13.791	4.7273	0.1	2351.4
27203	13.883	4.8182	0.1	2328.
27204	13.607	4.7273	0.1	2399.2
27205	13.699	4.8182	0.1	2375.7
27206	13.423	4.7273	0.1	2447.2
27207	13.515	4.8182	0.1	2423.6
27208	13.24	4.7273	0.1	2495.4
27209	13.332	4.8182	0.1	2471.7
27210	13.056	4.7273	0.1	2543.7
27211	13.148	4.8182	0.1	2520.
27212	12.872	4.7273	0.1	2592.3
27213	12.964	4.8182	0.1	2568.6
27214	12.688	4.7273	0.1	2641.1
27215	12.78	4.8182	0.1	2617.3
27216	12.504	4.7273	0.1	2690.1
27217	12.596	4.8182	0.1	2666.2
27218	12.32	4.7273	0.1	2739.3
27219	12.412	4.8182	0.1	2715.3
27220	12.136	4.7273	0.1	2788.7
27221	12.228	4.8182	0.1	2764.6
27222	11.952	4.7273	0.1	2838.2
27223	12.044	4.8182	0.1	2814.1
27224	11.768	4.7273	0.1	2888.
27225	11.86	4.8182	0.1	2863.8
27226	11.584	4.7273	0.1	2938.
27227	11.676	4.8182	0.1	2913.7
27228	11.4	4.7273	0.1	2988.1
27229	11.492	4.8182	0.1	2963.8
27230	11.216	4.7273	0.1	3038.5
27231	11.308	4.8182	0.1	3014.
27232	11.032	4.7273	0.1	3089.1
27233	11.124	4.8182	0.1	3064.5
27234	10.848	4.7273	0.1	3139.8
27235	10.94	4.8182	0.1	3115.2
27236	10.664	4.7273	0.1	3190.8
27237	10.756	4.8182	0.1	3166.1
27238	10.48	4.7273	0.1	3242.
27239	10.572	4.8182	0.1	3217.2
27240	10.297	4.7273	0.1	3293.3
27241	10.388	4.8182	0.1	3268.5
27242	10.113	4.7273	0.1	3344.8
27243	10.205	4.8182	0.1	3320.
27244	9.9286	4.7273	0.1	3396.6
27245	10.021	4.8182	0.1	3371.7
27246	9.7447	4.7273	0.1	3448.5
27247	9.8367	4.8182	0.1	3423.5
27248	9.5608	4.7273	0.1	3500.6
27249	9.6527	4.8182	0.1	3475.6
27250	9.3768	4.7273	0.1	3552.9
27251	9.4688	4.8182	0.1	3527.8
27252	9.1929	4.7273	0.1	3605.4
27253	9.2848	4.8182	0.1	3580.1
27254	9.0089	4.7273	0.1	3658.
27255	9.1009	4.8182	0.1	3632.6
27256	8.825	4.7273	0.1	3710.8
27257	8.917	4.8182	0.1	3685.3
27258	8.6411	4.7273	0.1	3763.7
27259	8.733	4.8182	0.1	3738.
27260	8.4571	4.7273	0.1	3816.7
27261	8.5491	4.8182	0.1	3790.8
27262	8.2732	4.7273	0.1	3869.7
27263	8.3652	4.8182	0.1	3843.6
27264	8.0892	4.7273	0.1	3922.8
27265	8.1812	4.8182	0.1	3896.3
27266	7.9053	4.7273	0.1	3975.7
27267	7.9973	4.8182	0.1	3948.9
27268	7.7214	4.7273	0.1	4028.5
27269	7.8133	4.8182	0.1	4001.2
27270	7.5374	4.7273	0.1	4081.
27271	7.6294	4.8182	0.1	4053.
27272	7.3535	4.7273	0.1	4133.
27273	7.4455	4.8182	0.1	4104.2
27274	7.1695	4.7273	0.1	4184.2
27275	7.2615	4.8182	0.1	4154.4
27276	6.9856	4.7273	0.1	4234.5
27277	7.0776	4.8182	0.1	4203.3
27278	6.8017	4.7273	0.1	4283.3
27279	6.8936	4.8182	0.1	4250.5
27280	6.6177	4.7273	0.1	4330.1
27281	6.7097	4.8182	0.1	4295.2
27282	6.4338	4.7273	0.1	4374.3
27283	6.5258	4.8182	0.1	4336.8
27284	6.2498	4.7273	0.1	4415.1
27285	6.3418	4.8182	0.1	4374.3
27286	6.0659	4.7273	0.1	4451.4
27287	6.1579	4.8182	0.1	4406.4
27288	5.882	4.7273	0.1	4481.8
27289	5.9739	4.8182	0.1	4431.5
27290	5.698	4.7273	0.1	4505.
27291	5.79	4.8182	0.1	4447.9
27292	5.5141	4.7273	0.1	4518.9
27293	5.6061	4.8182	0.1	4453.1
27294	5.3302	4.7273	0.1	4521.5
27295	5.4221	4.8182	0.1	4444.6
27296	5.1462	4.7273	0.1	4510.3
27297	5.2382	4.8182	0.1	4419.2
27298	4.9623	4.7273	0.1	4482.9
27299	5.0542	4.8182	0.1	4373.5
27300	4.7783	4.7273	0.1	4435.9
27301	4.8703	4.8182	0.1	4303.7
27302	4.5944	4.7273	0.1	4365.3
27303	4.6864	4.8182	0.1	4206.3
27304	4.4105	4.7273	0.1	4264.1
27305	4.5024	4.8182	0.1	4077.6
27306	4.2265	4.7273	0.1	4122.8
27307	4.3185	4.8182	0.1	3914.7
27308	4.0426	4.7273	0.1	4004.4
27309	4.1345	4.8182	0.1	3719.3
27310	3.9506	4.8182	0.1	3632.3
27311	3.8586	4.7273	0.1	3224.9
27312	23.724	4.9091	0.1	58.412
27313	23.816	5.	0.1	39.715
27314	23.908	4.9091	0.1	22.482
27315	23.54	4.9091	0.1	95.837
27316	23.632	5.	0.1	76.773
27317	23.356	4.9091	0.1	133.37
27318	23.448	5.	0.1	114.08
27319	23.172	4.9091	0.1	171.03
27320	23.264	5.	0.1	151.54
27321	22.988	4.9091	0.1	208.9
27322	23.08	5.	0.1	189.26
27323	22.804	4.9091	0.1	247.02
27324	22.896	5.	0.1	227.26
27325	22.62	4.9091	0.1	285.39
27326	22.712	5.	0.1	265.56
27327	22.437	4.9091	0.1	324.01
27328	22.528	5.	0.1	304.12
27329	22.253	4.9091	0.1	362.85
27330	22.345	5.	0.1	342.92
27331	22.069	4.9091	0.1	401.91
27332	22.161	5.	0.1	381.95
27333	21.885	4.9091	0.1	441.17
27334	21.977	5.	0.1	421.19
27335	21.701	4.9091	0.1	480.63
27336	21.793	5.	0.1	460.62
27337	21.517	4.9091	0.1	520.26
27338	21.609	5.	0.1	500.23
27339	21.333	4.9091	0.1	560.08
27340	21.425	5.	0.1	540.03
27341	21.149	4.9091	0.1	600.08
27342	21.241	5.	0.1	579.99
27343	20.965	4.9091	0.1	640.25
27344	21.057	5.	0.1	620.13
27345	20.781	4.9091	0.1	680.59
27346	20.873	5.	0.1	660.44
27347	20.597	4.9091	0.1	721.11
27348	20.689	5.	0.1	700.92
27349	20.413	4.9091	0.1	761.8
27350	20.505	5.	0.1	741.56
27351	20.229	4.9091	0.1	802.67
27352	20.321	5.	0.1	782.38
27353	20.045	4.9091	0.1	843.72
27354	20.137	5.	0.1	823.37
27355	19.861	4.9091	0.1	884.94
27356	19.953	5.	0.1	864.54
27357	19.677	4.9091	0.1	926.34
27358	19.769	5.	0.1	905.88
27359	19.493	4.9091	0.1	967.93
27360	19.585	5.	0.1	947.4
27361	19.31	4.9091	0.1	1009.7
27362	19.402	5.	0.1	989.1
27363	19.126	4.9091	0.1	1051.7
27364	19.218	5.	0.1	1031.
27365	18.942	4.9091	0.1	1093.8
27366	19.034	5.	0.1	1073.
27367	18.758	4.9091	0.1	1136.1
27368	18.85	5.	0.1	1115.3
27369	18.574	4.9091	0.1	1178.6
27370	18.666	5.	0.1	1157.7
27371	18.39	4.9091	0.1	1221.3
27372	18.482	5.	0.1	1200.3
27373	18.206	4.9091	0.1	1264.2
27374	18.298	5.	0.1	1243.2
27375	18.022	4.9091	0.1	1307.3
27376	18.114	5.	0.1	1286.2
27377	17.838	4.9091	0.1	1350.6
27378	17.93	5.	0.1	1329.3
27379	17.654	4.9091	0.1	1394.1
27380	17.746	5.	0.1	1372.7
27381	17.47	4.9091	0.1	1437.7
27382	17.562	5.	0.1	1416.3
27383	17.286	4.9091	0.1	1481.6
27384	17.378	5.	0.1	1460.1
27385	17.102	4.9091	0.1	1525.7
27386	17.194	5.	0.1	1504.
27387	16.918	4.9091	0.1	1569.9
27388	17.01	5.	0.1	1548.2
27389	16.734	4.9091	0.1	1614.4
27390	16.826	5.	0.1	1592.6
27391	16.55	4.9091	0.1	1659.
27392	16.642	5.	0.1	1637.1
27393	16.367	4.9091	0.1	1703.8
27394	16.458	5.	0.1	1681.9
27395	16.183	4.9091	0.1	1748.9
27396	16.275	5.	0.1	1726.8
27397	15.999	4.9091	0.1	1794.1
27398	16.091	5.	0.1	1771.9
27399	15.815	4.9091	0.1	1839.5
27400	15.907	5.	0.1	1817.3
27401	15.631	4.9091	0.1	1885.2
27402	15.723	5.	0.1	1862.8
27403	15.447	4.9091	0.1	1931.
27404	15.539	5.	0.1	1908.5
27405	15.263	4.9091	0.1	1977.
27406	15.355	5.	0.1	1954.5
27407	15.079	4.9091	0.1	2023.3
27408	15.171	5.	0.1	2000.6
27409	14.895	4.9091	0.1	2069.7
27410	14.987	5.	0.1	2046.9
27411	14.711	4.9091	0.1	2116.3
27412	14.803	5.	0.1	2093.5
27413	14.527	4.9091	0.1	2163.1
27414	14.619	5.	0.1	2140.2
27415	14.343	4.9091	0.1	2210.1
27416	14.435	5.	0.1	2187.1
27417	14.159	4.9091	0.1	2257.4
27418	14.251	5.	0.1	2234.2
27419	13.975	4.9091	0.1	2304.8
27420	14.067	5.	0.1	2281.6
27421	13.791	4.9091	0.1	2352.4
27422	13.883	5.	0.1	2329.1
27423	13.607	4.9091	0.1	2400.2
27424	13.699	5.	0.1	2376.8
27425	13.423	4.9091	0.1	2448.2
27426	13.515	5.	0.1	2424.8
27427	13.24	4.9091	0.1	2496.5
27428	13.332	5.	0.1	2472.9
27429	13.056	4.9091	0.1	2544.9
27430	13.148	5.	0.1	2521.2
27431	12.872	4.9091	0.1	2593.5
27432	12.964	5.	0.1	2569.8
27433	12.688	4.9091	0.1	2642.3
27434	12.78	5.	0.1	2618.5
27435	12.504	4.9091	0.1	2691.3
27436	12.596	5.	0.1	2667.4
27437	12.32	4.9091	0.1	2740.6
27438	12.412	5.	0.1	2716.6
27439	12.136	4.9091	0.1	2790.
27440	12.228	5.	0.1	2765.9
27441	11.952	4.9091	0.1	2839.6
27442	12.044	5.	0.1	2815.4
27443	11.768	4.9091	0.1	2889.4
27444	11.86	5.	0.1	2865.2
27445	11.584	4.9091	0.1	2939.4
27446	11.676	5.	0.1	2915.1
27447	11.4	4.9091	0.1	2989.7
27448	11.492	5.	0.1	2965.3
27449	11.216	4.9091	0.1	3040.1
27450	11.308	5.	0.1	3015.7
27451	11.032	4.9091	0.1	3090.7
27452	11.124	5.	0.1	3066.2
27453	10.848	4.9091	0.1	3141.5
27454	10.94	5.	0.1	3117.
27455	10.664	4.9091	0.1	3192.6
27456	10.756	5.	0.1	3167.9
27457	10.48	4.9091	0.1	3243.8
27458	10.572	5.	0.1	3219.1
27459	10.297	4.9091	0.1	3295.2
27460	10.388	5.	0.1	3270.4
27461	10.113	4.9091	0.1	3346.8
27462	10.205	5.	0.1	3322.
27463	9.9286	4.9091	0.1	3398.6
27464	10.021	5.	0.1	3373.7
27465	9.7447	4.9091	0.1	3450.6
27466	9.8367	5.	0.1	3425.6
27467	9.5608	4.9091	0.1	3502.7
27468	9.6527	5.	0.1	3477.7
27469	9.3768	4.9091	0.1	3555.
27470	9.4688	5.	0.1	3529.9
27471	9.1929	4.9091	0.1	3607.4
27472	9.2848	5.	0.1	3582.3
27473	9.0089	4.9091	0.1	3659.9
27474	9.1009	5.	0.1	3634.7
27475	8.825	4.9091	0.1	3712.5
27476	8.917	5.	0.1	3687.2
27477	8.6411	4.9091	0.1	3765.2
27478	8.733	5.	0.1	3739.7
27479	8.4571	4.9091	0.1	3817.8
27480	8.5491	5.	0.1	3792.2
27481	8.2732	4.9091	0.1	3870.2
27482	8.3652	5.	0.1	3844.5
27483	8.0892	4.9091	0.1	3922.5
27484	8.1812	5.	0.1	3896.6
27485	7.9053	4.9091	0.1	3974.3
27486	7.9973	5.	0.1	3948.2
27487	7.7214	4.9091	0.1	4025.7
27488	7.8133	5.	0.1	3999.3
27489	7.5374	4.9091	0.1	4076.2
27490	7.6294	5.	0.1	4049.5
27491	7.3535	4.9091	0.1	4125.6
27492	7.4455	5.	0.1	4098.5
27493	7.1695	4.9091	0.1	4173.5
27494	7.2615	5.	0.1	4145.8
27495	6.9856	4.9091	0.1	4219.4
27496	7.0776	5.	0.1	4191.1
27497	6.8017	4.9091	0.1	4262.5
27498	6.8936	5.	0.1	4233.4
27499	6.6177	4.9091	0.1	4302.
27500	6.7097	5.	0.1	4271.9
27501	6.4338	4.9091	0.1	4336.8
27502	6.5258	5.	0.1	4305.6
27503	6.2498	4.9091	0.1	4365.5
27504	6.3418	5.	0.1	4332.8
27505	6.0659	4.9091	0.1	4386.4
27506	6.1579	5.	0.1	4351.9
27507	5.882	4.9091	0.1	4397.3
27508	5.9739	5.	0.1	4360.6
27509	5.698	4.9091	0.1	4395.5
27510	5.79	5.	0.1	4356.
27511	5.5141	4.9091	0.1	4377.9
27512	5.6061	5.	0.1	4334.8
27513	5.3302	4.9091	0.1	4340.6
27514	5.4221	5.	0.1	4293.1
27515	5.1462	4.9091	0.1	4279.2
27516	5.2382	5.	0.1	4226.
27517	4.9623	4.9091	0.1	4188.8
27518	5.0542	5.	0.1	4128.3
27519	4.7783	4.9091	0.1	4064.6
27520	4.8703	5.	0.1	3994.6
27521	4.5944	4.9091	0.1	3902.4
27522	4.6864	5.	0.1	3820.7
27523	4.4105	4.9091	0.1	3701.5
27524	4.5024	5.	0.1	3605.2
27525	4.2265	4.9091	0.1	3469.2
27526	4.3185	5.	0.1	3354.6
27527	4.0426	4.9091	0.1	3285.5
27528	4.1345	5.	0.1	3090.1
27529	3.9506	5.	0.1	2953.4
27530	3.8586	4.9091	0.1	2631.7
27531	23.724	5.0909	0.1	58.033
27532	23.816	5.1818	0.1	39.509
27533	23.908	5.0909	0.1	22.419
27534	23.54	5.0909	0.1	95.036
27535	23.632	5.1818	0.1	76.012
27536	23.356	5.0909	0.1	132.29
27537	23.448	5.1818	0.1	112.96
27538	23.172	5.0909	0.1	169.82
27539	23.264	5.1818	0.1	150.26
27540	22.988	5.0909	0.1	207.68
27541	23.08	5.1818	0.1	187.96
27542	22.804	5.0909	0.1	245.86
27543	22.896	5.1818	0.1	226.05
27544	22.62	5.0909	0.1	284.35
27545	22.712	5.1818	0.1	264.47
27546	22.437	5.0909	0.1	323.1
27547	22.528	5.1818	0.1	303.19
27548	22.253	5.0909	0.1	362.09
27549	22.345	5.1818	0.1	342.16
27550	22.069	5.0909	0.1	401.29
27551	22.161	5.1818	0.1	381.35
27552	21.885	5.0909	0.1	440.7
27553	21.977	5.1818	0.1	420.74
27554	21.701	5.0909	0.1	480.29
27555	21.793	5.1818	0.1	460.32
27556	21.517	5.0909	0.1	520.06
27557	21.609	5.1818	0.1	500.07
27558	21.333	5.0909	0.1	560.
27559	21.425	5.1818	0.1	539.99
27560	21.149	5.0909	0.1	600.11
27561	21.241	5.1818	0.1	580.07
27562	20.965	5.0909	0.1	640.38
27563	21.057	5.1818	0.1	620.32
27564	20.781	5.0909	0.1	680.82
27565	20.873	5.1818	0.1	660.72
27566	20.597	5.0909	0.1	721.42
27567	20.689	5.1818	0.1	701.28
27568	20.413	5.0909	0.1	762.19
27569	20.505	5.1818	0.1	742.01
27570	20.229	5.0909	0.1	803.13
27571	20.321	5.1818	0.1	782.9
27572	20.045	5.0909	0.1	844.24
27573	20.137	5.1818	0.1	823.95
27574	19.861	5.0909	0.1	885.52
27575	19.953	5.1818	0.1	865.18
27576	19.677	5.0909	0.1	926.98
27577	19.769	5.1818	0.1	906.57
27578	19.493	5.0909	0.1	968.61
27579	19.585	5.1818	0.1	948.14
27580	19.31	5.0909	0.1	1010.4
27581	19.402	5.1818	0.1	989.88
27582	19.126	5.0909	0.1	1052.4
27583	19.218	5.1818	0.1	1031.8
27584	18.942	5.0909	0.1	1094.6
27585	19.034	5.1818	0.1	1073.9
27586	18.758	5.0909	0.1	1136.9
27587	18.85	5.1818	0.1	1116.2
27588	18.574	5.0909	0.1	1179.5
27589	18.666	5.1818	0.1	1158.6
27590	18.39	5.0909	0.1	1222.2
27591	18.482	5.1818	0.1	1201.3
27592	18.206	5.0909	0.1	1265.1
27593	18.298	5.1818	0.1	1244.1
27594	18.022	5.0909	0.1	1308.2
27595	18.114	5.1818	0.1	1287.1
27596	17.838	5.0909	0.1	1351.5
27597	17.93	5.1818	0.1	1330.3
27598	17.654	5.0909	0.1	1395.
27599	17.746	5.1818	0.1	1373.7
27600	17.47	5.0909	0.1	1438.7
27601	17.562	5.1818	0.1	1417.3
27602	17.286	5.0909	0.1	1482.6
27603	17.378	5.1818	0.1	1461.1
27604	17.102	5.0909	0.1	1526.6
27605	17.194	5.1818	0.1	1505.1
27606	16.918	5.0909	0.1	1570.9
27607	17.01	5.1818	0.1	1549.2
27608	16.734	5.0909	0.1	1615.3
27609	16.826	5.1818	0.1	1593.6
27610	16.55	5.0909	0.1	1660.
27611	16.642	5.1818	0.1	1638.1
27612	16.367	5.0909	0.1	1704.8
27613	16.458	5.1818	0.1	1682.9
27614	16.183	5.0909	0.1	1749.9
27615	16.275	5.1818	0.1	1727.9
27616	15.999	5.0909	0.1	1795.1
27617	16.091	5.1818	0.1	1773.
27618	15.815	5.0909	0.1	1840.6
27619	15.907	5.1818	0.1	1818.3
27620	15.631	5.0909	0.1	1886.2
27621	15.723	5.1818	0.1	1863.9
27622	15.447	5.0909	0.1	1932.
27623	15.539	5.1818	0.1	1909.6
27624	15.263	5.0909	0.1	1978.1
27625	15.355	5.1818	0.1	1955.6
27626	15.079	5.0909	0.1	2024.3
27627	15.171	5.1818	0.1	2001.7
27628	14.895	5.0909	0.1	2070.7
27629	14.987	5.1818	0.1	2048.
27630	14.711	5.0909	0.1	2117.4
27631	14.803	5.1818	0.1	2094.6
27632	14.527	5.0909	0.1	2164.2
27633	14.619	5.1818	0.1	2141.3
27634	14.343	5.0909	0.1	2211.2
27635	14.435	5.1818	0.1	2188.3
27636	14.159	5.0909	0.1	2258.5
27637	14.251	5.1818	0.1	2235.4
27638	13.975	5.0909	0.1	2305.9
27639	14.067	5.1818	0.1	2282.7
27640	13.791	5.0909	0.1	2353.6
27641	13.883	5.1818	0.1	2330.3
27642	13.607	5.0909	0.1	2401.4
27643	13.699	5.1818	0.1	2378.
27644	13.423	5.0909	0.1	2449.4
27645	13.515	5.1818	0.1	2426.
27646	13.24	5.0909	0.1	2497.7
27647	13.332	5.1818	0.1	2474.1
27648	13.056	5.0909	0.1	2546.1
27649	13.148	5.1818	0.1	2522.5
27650	12.872	5.0909	0.1	2594.8
27651	12.964	5.1818	0.1	2571.1
27652	12.688	5.0909	0.1	2643.6
27653	12.78	5.1818	0.1	2619.8
27654	12.504	5.0909	0.1	2692.7
27655	12.596	5.1818	0.1	2668.8
27656	12.32	5.0909	0.1	2741.9
27657	12.412	5.1818	0.1	2718.
27658	12.136	5.0909	0.1	2791.4
27659	12.228	5.1818	0.1	2767.4
27660	11.952	5.0909	0.1	2841.1
27661	12.044	5.1818	0.1	2816.9
27662	11.768	5.0909	0.1	2890.9
27663	11.86	5.1818	0.1	2866.7
27664	11.584	5.0909	0.1	2941.
27665	11.676	5.1818	0.1	2916.7
27666	11.4	5.0909	0.1	2991.3
27667	11.492	5.1818	0.1	2967.
27668	11.216	5.0909	0.1	3041.8
27669	11.308	5.1818	0.1	3017.4
27670	11.032	5.0909	0.1	3092.5
27671	11.124	5.1818	0.1	3068.
27672	10.848	5.0909	0.1	3143.4
27673	10.94	5.1818	0.1	3118.8
27674	10.664	5.0909	0.1	3194.5
27675	10.756	5.1818	0.1	3169.8
27676	10.48	5.0909	0.1	3245.8
27677	10.572	5.1818	0.1	3221.1
27678	10.297	5.0909	0.1	3297.2
27679	10.388	5.1818	0.1	3272.5
27680	10.113	5.0909	0.1	3348.9
27681	10.205	5.1818	0.1	3324.1
27682	9.9286	5.0909	0.1	3400.7
27683	10.021	5.1818	0.1	3375.9
27684	9.7447	5.0909	0.1	3452.8
27685	9.8367	5.1818	0.1	3427.8
27686	9.5608	5.0909	0.1	3504.9
27687	9.6527	5.1818	0.1	3479.9
27688	9.3768	5.0909	0.1	3557.2
27689	9.4688	5.1818	0.1	3532.2
27690	9.1929	5.0909	0.1	3609.6
27691	9.2848	5.1818	0.1	3584.5
27692	9.0089	5.0909	0.1	3662.
27693	9.1009	5.1818	0.1	3636.9
27694	8.825	5.0909	0.1	3714.4
27695	8.917	5.1818	0.1	3689.3
27696	8.6411	5.0909	0.1	3766.8
27697	8.733	5.1818	0.1	3741.6
27698	8.4571	5.0909	0.1	3819.
27699	8.5491	5.1818	0.1	3793.7
27700	8.2732	5.0909	0.1	3870.9
27701	8.3652	5.1818	0.1	3845.6
27702	8.0892	5.0909	0.1	3922.4
27703	8.1812	5.1818	0.1	3897.
27704	7.9053	5.0909	0.1	3973.2
27705	7.9973	5.1818	0.1	3947.8
27706	7.7214	5.0909	0.1	4023.1
27707	7.8133	5.1818	0.1	3997.7
27708	7.5374	5.0909	0.1	4071.8
27709	7.6294	5.1818	0.1	4046.3
27710	7.3535	5.0909	0.1	4118.7
27711	7.4455	5.1818	0.1	4093.3
27712	7.1695	5.0909	0.1	4163.4
27713	7.2615	5.1818	0.1	4138.
27714	6.9856	5.0909	0.1	4205.1
27715	7.0776	5.1818	0.1	4179.7
27716	6.8017	5.0909	0.1	4242.9
27717	6.8936	5.1818	0.1	4217.6
27718	6.6177	5.0909	0.1	4275.5
27719	6.7097	5.1818	0.1	4250.4
27720	6.4338	5.0909	0.1	4301.6
27721	6.5258	5.1818	0.1	4276.7
27722	6.2498	5.0909	0.1	4319.2
27723	6.3418	5.1818	0.1	4294.7
27724	6.0659	5.0909	0.1	4325.9
27725	6.1579	5.1818	0.1	4302.
27726	5.882	5.0909	0.1	4319.
27727	5.9739	5.1818	0.1	4295.9
27728	5.698	5.0909	0.1	4294.8
27729	5.79	5.1818	0.1	4272.7
27730	5.5141	5.0909	0.1	4249.1
27731	5.6061	5.1818	0.1	4228.4
27732	5.3302	5.0909	0.1	4176.8
27733	5.4221	5.1818	0.1	4157.8
27734	5.1462	5.0909	0.1	4072.1
27735	5.2382	5.1818	0.1	4055.2
27736	4.9623	5.0909	0.1	3929.
27737	5.0542	5.1818	0.1	3914.1
27738	4.7783	5.0909	0.1	3741.9
27739	4.8703	5.1818	0.1	3728.4
27740	4.5944	5.0909	0.1	3508.4
27741	4.6864	5.1818	0.1	3493.7
27742	4.4105	5.0909	0.1	3233.6
27743	4.5024	5.1818	0.1	3211.1
27744	4.2265	5.0909	0.1	2937.8
27745	4.3185	5.1818	0.1	2893.9
27746	4.0426	5.0909	0.1	2705.9
27747	4.1345	5.1818	0.1	2576.7
27748	3.9506	5.1818	0.1	2395.7
27749	3.8586	5.0909	0.1	2151.2
27750	23.724	5.2727	0.1	57.46
27751	23.816	5.3636	0.1	39.107
27752	23.908	5.2727	0.1	22.279
27753	23.54	5.2727	0.1	93.973
27754	23.632	5.3636	0.1	74.932
27755	23.356	5.2727	0.1	130.99
27756	23.448	5.3636	0.1	111.57
27757	23.172	5.2727	0.1	168.47
27758	23.264	5.3636	0.1	148.82
27759	22.988	5.2727	0.1	206.41
27760	23.08	5.3636	0.1	186.65
27761	22.804	5.2727	0.1	244.74
27762	22.896	5.3636	0.1	224.92
27763	22.62	5.2727	0.1	283.4
27764	22.712	5.3636	0.1	263.55
27765	22.437	5.2727	0.1	322.34
27766	22.528	5.3636	0.1	302.47
27767	22.253	5.2727	0.1	361.5
27768	22.345	5.3636	0.1	341.63
27769	22.069	5.2727	0.1	400.88
27770	22.161	5.3636	0.1	381.
27771	21.885	5.2727	0.1	440.44
27772	21.977	5.3636	0.1	420.56
27773	21.701	5.2727	0.1	480.17
27774	21.793	5.3636	0.1	460.28
27775	21.517	5.2727	0.1	520.07
27776	21.609	5.3636	0.1	500.17
27777	21.333	5.2727	0.1	560.13
27778	21.425	5.3636	0.1	540.21
27779	21.149	5.2727	0.1	600.34
27780	21.241	5.3636	0.1	580.4
27781	20.965	5.2727	0.1	640.71
27782	21.057	5.3636	0.1	620.74
27783	20.781	5.2727	0.1	681.24
27784	20.873	5.3636	0.1	661.23
27785	20.597	5.2727	0.1	721.93
27786	20.689	5.3636	0.1	701.87
27787	20.413	5.2727	0.1	762.77
27788	20.505	5.3636	0.1	742.67
27789	20.229	5.2727	0.1	803.77
27790	20.321	5.3636	0.1	783.62
27791	20.045	5.2727	0.1	844.94
27792	20.137	5.3636	0.1	824.73
27793	19.861	5.2727	0.1	886.27
27794	19.953	5.3636	0.1	866.01
27795	19.677	5.2727	0.1	927.78
27796	19.769	5.3636	0.1	907.45
27797	19.493	5.2727	0.1	969.45
27798	19.585	5.3636	0.1	949.05
27799	19.31	5.2727	0.1	1011.3
27800	19.402	5.3636	0.1	990.83
27801	19.126	5.2727	0.1	1053.3
27802	19.218	5.3636	0.1	1032.8
27803	18.942	5.2727	0.1	1095.5
27804	19.034	5.3636	0.1	1074.9
27805	18.758	5.2727	0.1	1137.9
27806	18.85	5.3636	0.1	1117.2
27807	18.574	5.2727	0.1	1180.5
27808	18.666	5.3636	0.1	1159.7
27809	18.39	5.2727	0.1	1223.2
27810	18.482	5.3636	0.1	1202.3
27811	18.206	5.2727	0.1	1266.1
27812	18.298	5.3636	0.1	1245.2
27813	18.022	5.2727	0.1	1309.3
27814	18.114	5.3636	0.1	1288.2
27815	17.838	5.2727	0.1	1352.6
27816	17.93	5.3636	0.1	1331.4
27817	17.654	5.2727	0.1	1396.1
27818	17.746	5.3636	0.1	1374.9
27819	17.47	5.2727	0.1	1439.8
27820	17.562	5.3636	0.1	1418.4
27821	17.286	5.2727	0.1	1483.6
27822	17.378	5.3636	0.1	1462.2
27823	17.102	5.2727	0.1	1527.7
27824	17.194	5.3636	0.1	1506.2
27825	16.918	5.2727	0.1	1572.
27826	17.01	5.3636	0.1	1550.4
27827	16.734	5.2727	0.1	1616.4
27828	16.826	5.3636	0.1	1594.8
27829	16.55	5.2727	0.1	1661.1
27830	16.642	5.3636	0.1	1639.3
27831	16.367	5.2727	0.1	1705.9
27832	16.458	5.3636	0.1	1684.1
27833	16.183	5.2727	0.1	1751.
27834	16.275	5.3636	0.1	1729.
27835	15.999	5.2727	0.1	1796.2
27836	16.091	5.3636	0.1	1774.2
27837	15.815	5.2727	0.1	1841.7
27838	15.907	5.3636	0.1	1819.5
27839	15.631	5.2727	0.1	1887.3
27840	15.723	5.3636	0.1	1865.1
27841	15.447	5.2727	0.1	1933.2
27842	15.539	5.3636	0.1	1910.8
27843	15.263	5.2727	0.1	1979.2
27844	15.355	5.3636	0.1	1956.8
27845	15.079	5.2727	0.1	2025.5
27846	15.171	5.3636	0.1	2002.9
27847	14.895	5.2727	0.1	2071.9
27848	14.987	5.3636	0.1	2049.2
27849	14.711	5.2727	0.1	2118.5
27850	14.803	5.3636	0.1	2095.8
27851	14.527	5.2727	0.1	2165.4
27852	14.619	5.3636	0.1	2142.5
27853	14.343	5.2727	0.1	2212.4
27854	14.435	5.3636	0.1	2189.5
27855	14.159	5.2727	0.1	2259.7
27856	14.251	5.3636	0.1	2236.6
27857	13.975	5.2727	0.1	2307.1
27858	14.067	5.3636	0.1	2284.
27859	13.791	5.2727	0.1	2354.8
27860	13.883	5.3636	0.1	2331.6
27861	13.607	5.2727	0.1	2402.7
27862	13.699	5.3636	0.1	2379.3
27863	13.423	5.2727	0.1	2450.7
27864	13.515	5.3636	0.1	2427.3
27865	13.24	5.2727	0.1	2499.
27866	13.332	5.3636	0.1	2475.5
27867	13.056	5.2727	0.1	2547.5
27868	13.148	5.3636	0.1	2523.9
27869	12.872	5.2727	0.1	2596.1
27870	12.964	5.3636	0.1	2572.5
27871	12.688	5.2727	0.1	2645.
27872	12.78	5.3636	0.1	2621.3
27873	12.504	5.2727	0.1	2694.1
27874	12.596	5.3636	0.1	2670.3
27875	12.32	5.2727	0.1	2743.4
27876	12.412	5.3636	0.1	2719.5
27877	12.136	5.2727	0.1	2792.9
27878	12.228	5.3636	0.1	2768.9
27879	11.952	5.2727	0.1	2842.6
27880	12.044	5.3636	0.1	2818.5
27881	11.768	5.2727	0.1	2892.6
27882	11.86	5.3636	0.1	2868.4
27883	11.584	5.2727	0.1	2942.7
27884	11.676	5.3636	0.1	2918.4
27885	11.4	5.2727	0.1	2993.
27886	11.492	5.3636	0.1	2968.7
27887	11.216	5.2727	0.1	3043.6
27888	11.308	5.3636	0.1	3019.2
27889	11.032	5.2727	0.1	3094.4
27890	11.124	5.3636	0.1	3069.9
27891	10.848	5.2727	0.1	3145.3
27892	10.94	5.3636	0.1	3120.8
27893	10.664	5.2727	0.1	3196.5
27894	10.756	5.3636	0.1	3171.9
27895	10.48	5.2727	0.1	3247.8
27896	10.572	5.3636	0.1	3223.2
27897	10.297	5.2727	0.1	3299.4
27898	10.388	5.3636	0.1	3274.7
27899	10.113	5.2727	0.1	3351.1
27900	10.205	5.3636	0.1	3326.3
27901	9.9286	5.2727	0.1	3403.
27902	10.021	5.3636	0.1	3378.2
27903	9.7447	5.2727	0.1	3455.1
27904	9.8367	5.3636	0.1	3430.2
27905	9.5608	5.2727	0.1	3507.2
27906	9.6527	5.3636	0.1	3482.3
27907	9.3768	5.2727	0.1	3559.5
27908	9.4688	5.3636	0.1	3534.6
27909	9.1929	5.2727	0.1	3611.8
27910	9.2848	5.3636	0.1	3586.9
27911	9.0089	5.2727	0.1	3664.2
27912	9.1009	5.3636	0.1	3639.2
27913	8.825	5.2727	0.1	3716.4
27914	8.917	5.3636	0.1	3691.5
27915	8.6411	5.2727	0.1	3768.5
27916	8.733	5.3636	0.1	3743.6
27917	8.4571	5.2727	0.1	3820.4
27918	8.5491	5.3636	0.1	3795.5
27919	8.2732	5.2727	0.1	3871.8
27920	8.3652	5.3636	0.1	3846.9
27921	8.0892	5.2727	0.1	3922.5
27922	8.1812	5.3636	0.1	3897.8
27923	7.9053	5.2727	0.1	3972.3
27924	7.9973	5.3636	0.1	3947.7
27925	7.7214	5.2727	0.1	4020.9
27926	7.8133	5.3636	0.1	3996.6
27927	7.5374	5.2727	0.1	4067.9
27928	7.6294	5.3636	0.1	4043.8
27929	7.3535	5.2727	0.1	4112.6
27930	7.4455	5.3636	0.1	4088.9
27931	7.1695	5.2727	0.1	4154.3
27932	7.2615	5.3636	0.1	4131.1
27933	6.9856	5.2727	0.1	4192.2
27934	7.0776	5.3636	0.1	4169.8
27935	6.8017	5.2727	0.1	4225.1
27936	6.8936	5.3636	0.1	4203.6
27937	6.6177	5.2727	0.1	4251.6
27938	6.7097	5.3636	0.1	4231.3
27939	6.4338	5.2727	0.1	4269.8
27940	6.5258	5.3636	0.1	4251.2
27941	6.2498	5.2727	0.1	4277.5
27942	6.3418	5.3636	0.1	4261.
27943	6.0659	5.2727	0.1	4271.8
27944	6.1579	5.3636	0.1	4258.2
27945	5.882	5.2727	0.1	4249.3
27946	5.9739	5.3636	0.1	4239.3
27947	5.698	5.2727	0.1	4205.9
27948	5.79	5.3636	0.1	4200.5
27949	5.5141	5.2727	0.1	4136.3
27950	5.6061	5.3636	0.1	4136.7
27951	5.3302	5.2727	0.1	4034.8
27952	5.4221	5.3636	0.1	4042.4
27953	5.1462	5.2727	0.1	3894.7
27954	5.2382	5.3636	0.1	3911.1
27955	4.9623	5.2727	0.1	3709.4
27956	5.0542	5.3636	0.1	3735.8
27957	4.7783	5.2727	0.1	3473.
27958	4.8703	5.3636	0.1	3509.7
27959	4.5944	5.2727	0.1	3184.1
27960	4.6864	5.3636	0.1	3228.5
27961	4.4105	5.2727	0.1	2850.6
27962	4.5024	5.3636	0.1	2893.5
27963	4.2265	5.2727	0.1	2499.5
27964	4.3185	5.3636	0.1	2519.8
27965	4.0426	5.2727	0.1	2218.7
27966	4.1345	5.3636	0.1	2148.4
27967	3.9506	5.3636	0.1	1913.8
27968	3.8586	5.2727	0.1	1738.9
27969	23.724	5.4545	0.1	56.581
27970	23.816	5.5455	0.1	38.393
27971	23.908	5.4545	0.1	21.983
27972	23.54	5.4545	0.1	92.597
27973	23.632	5.5455	0.1	73.481
27974	23.356	5.4545	0.1	129.51
27975	23.448	5.5455	0.1	110.04
27976	23.172	5.4545	0.1	167.12
27977	23.264	5.5455	0.1	147.52
27978	22.988	5.4545	0.1	205.28
27979	23.08	5.5455	0.1	185.64
27980	22.804	5.4545	0.1	243.85
27981	22.896	5.5455	0.1	224.19
27982	22.62	5.4545	0.1	282.74
27983	22.712	5.5455	0.1	263.08
27984	22.437	5.4545	0.1	321.88
27985	22.528	5.5455	0.1	302.23
27986	22.253	5.4545	0.1	361.24
27987	22.345	5.5455	0.1	341.59
27988	22.069	5.4545	0.1	400.78
27989	22.161	5.5455	0.1	381.13
27990	21.885	5.4545	0.1	440.49
27991	21.977	5.5455	0.1	420.84
27992	21.701	5.4545	0.1	480.36
27993	21.793	5.5455	0.1	460.69
27994	21.517	5.4545	0.1	520.38
27995	21.609	5.5455	0.1	500.69
27996	21.333	5.4545	0.1	560.55
27997	21.425	5.5455	0.1	540.84
27998	21.149	5.4545	0.1	600.86
27999	21.241	5.5455	0.1	581.12
28000	20.965	5.4545	0.1	641.32
28001	21.057	5.5455	0.1	621.54
28002	20.781	5.4545	0.1	681.92
28003	20.873	5.5455	0.1	662.1
28004	20.597	5.4545	0.1	722.67
28005	20.689	5.5455	0.1	702.81
28006	20.413	5.4545	0.1	763.58
28007	20.505	5.5455	0.1	743.66
28008	20.229	5.4545	0.1	804.64
28009	20.321	5.5455	0.1	784.66
28010	20.045	5.4545	0.1	845.85
28011	20.137	5.5455	0.1	825.82
28012	19.861	5.4545	0.1	887.23
28013	19.953	5.5455	0.1	867.13
28014	19.677	5.4545	0.1	928.77
28015	19.769	5.5455	0.1	908.61
28016	19.493	5.4545	0.1	970.48
28017	19.585	5.5455	0.1	950.24
28018	19.31	5.4545	0.1	1012.4
28019	19.402	5.5455	0.1	992.05
28020	19.126	5.4545	0.1	1054.4
28021	19.218	5.5455	0.1	1034.
28022	18.942	5.4545	0.1	1096.6
28023	19.034	5.5455	0.1	1076.2
28024	18.758	5.4545	0.1	1139.
28025	18.85	5.5455	0.1	1118.5
28026	18.574	5.4545	0.1	1181.6
28027	18.666	5.5455	0.1	1161.
28028	18.39	5.4545	0.1	1224.4
28029	18.482	5.5455	0.1	1203.7
28030	18.206	5.4545	0.1	1267.3
28031	18.298	5.5455	0.1	1246.5
28032	18.022	5.4545	0.1	1310.4
28033	18.114	5.5455	0.1	1289.5
28034	17.838	5.4545	0.1	1353.8
28035	17.93	5.5455	0.1	1332.8
28036	17.654	5.4545	0.1	1397.3
28037	17.746	5.5455	0.1	1376.2
28038	17.47	5.4545	0.1	1441.
28039	17.562	5.5455	0.1	1419.8
28040	17.286	5.4545	0.1	1484.8
28041	17.378	5.5455	0.1	1463.6
28042	17.102	5.4545	0.1	1528.9
28043	17.194	5.5455	0.1	1507.6
28044	16.918	5.4545	0.1	1573.2
28045	17.01	5.5455	0.1	1551.7
28046	16.734	5.4545	0.1	1617.7
28047	16.826	5.5455	0.1	1596.1
28048	16.55	5.4545	0.1	1662.3
28049	16.642	5.5455	0.1	1640.7
28050	16.367	5.4545	0.1	1707.2
28051	16.458	5.5455	0.1	1685.4
28052	16.183	5.4545	0.1	1752.2
28053	16.275	5.5455	0.1	1730.4
28054	15.999	5.4545	0.1	1797.5
28055	16.091	5.5455	0.1	1775.5
28056	15.815	5.4545	0.1	1842.9
28057	15.907	5.5455	0.1	1820.9
28058	15.631	5.4545	0.1	1888.6
28059	15.723	5.5455	0.1	1866.4
28060	15.447	5.4545	0.1	1934.4
28061	15.539	5.5455	0.1	1912.2
28062	15.263	5.4545	0.1	1980.5
28063	15.355	5.5455	0.1	1958.1
28064	15.079	5.4545	0.1	2026.7
28065	15.171	5.5455	0.1	2004.3
28066	14.895	5.4545	0.1	2073.2
28067	14.987	5.5455	0.1	2050.6
28068	14.711	5.4545	0.1	2119.8
28069	14.803	5.5455	0.1	2097.2
28070	14.527	5.4545	0.1	2166.7
28071	14.619	5.5455	0.1	2143.9
28072	14.343	5.4545	0.1	2213.7
28073	14.435	5.5455	0.1	2190.9
28074	14.159	5.4545	0.1	2261.
28075	14.251	5.5455	0.1	2238.
28076	13.975	5.4545	0.1	2308.5
28077	14.067	5.5455	0.1	2285.4
28078	13.791	5.4545	0.1	2356.1
28079	13.883	5.5455	0.1	2333.
28080	13.607	5.4545	0.1	2404.
28081	13.699	5.5455	0.1	2380.8
28082	13.423	5.4545	0.1	2452.1
28083	13.515	5.5455	0.1	2428.8
28084	13.24	5.4545	0.1	2500.4
28085	13.332	5.5455	0.1	2477.
28086	13.056	5.4545	0.1	2548.9
28087	13.148	5.5455	0.1	2525.4
28088	12.872	5.4545	0.1	2597.6
28089	12.964	5.5455	0.1	2574.
28090	12.688	5.4545	0.1	2646.5
28091	12.78	5.5455	0.1	2622.8
28092	12.504	5.4545	0.1	2695.7
28093	12.596	5.5455	0.1	2671.9
28094	12.32	5.4545	0.1	2745.
28095	12.412	5.5455	0.1	2721.1
28096	12.136	5.4545	0.1	2794.6
28097	12.228	5.5455	0.1	2770.6
28098	11.952	5.4545	0.1	2844.3
28099	12.044	5.5455	0.1	2820.3
28100	11.768	5.4545	0.1	2894.3
28101	11.86	5.5455	0.1	2870.2
28102	11.584	5.4545	0.1	2944.5
28103	11.676	5.5455	0.1	2920.3
28104	11.4	5.4545	0.1	2994.9
28105	11.492	5.5455	0.1	2970.6
28106	11.216	5.4545	0.1	3045.5
28107	11.308	5.5455	0.1	3021.2
28108	11.032	5.4545	0.1	3096.3
28109	11.124	5.5455	0.1	3071.9
28110	10.848	5.4545	0.1	3147.4
28111	10.94	5.5455	0.1	3122.9
28112	10.664	5.4545	0.1	3198.6
28113	10.756	5.5455	0.1	3174.
28114	10.48	5.4545	0.1	3250.
28115	10.572	5.5455	0.1	3225.4
28116	10.297	5.4545	0.1	3301.6
28117	10.388	5.5455	0.1	3277.
28118	10.113	5.4545	0.1	3353.4
28119	10.205	5.5455	0.1	3328.7
28120	9.9286	5.4545	0.1	3405.4
28121	10.021	5.5455	0.1	3380.6
28122	9.7447	5.4545	0.1	3457.5
28123	9.8367	5.5455	0.1	3432.7
28124	9.5608	5.4545	0.1	3509.7
28125	9.6527	5.5455	0.1	3484.9
28126	9.3768	5.4545	0.1	3562.
28127	9.4688	5.5455	0.1	3537.1
28128	9.1929	5.4545	0.1	3614.3
28129	9.2848	5.5455	0.1	3589.4
28130	9.0089	5.4545	0.1	3666.5
28131	9.1009	5.5455	0.1	3641.7
28132	8.825	5.4545	0.1	3718.6
28133	8.917	5.5455	0.1	3693.9
28134	8.6411	5.4545	0.1	3770.5
28135	8.733	5.5455	0.1	3745.8
28136	8.4571	5.4545	0.1	3822.
28137	8.5491	5.5455	0.1	3797.5
28138	8.2732	5.4545	0.1	3872.9
28139	8.3652	5.5455	0.1	3848.5
28140	8.0892	5.4545	0.1	3923.
28141	8.1812	5.5455	0.1	3898.9
28142	7.9053	5.4545	0.1	3972.
28143	7.9973	5.5455	0.1	3948.2
28144	7.7214	5.4545	0.1	4019.4
28145	7.8133	5.5455	0.1	3996.
28146	7.5374	5.4545	0.1	4064.8
28147	7.6294	5.5455	0.1	4042.
28148	7.3535	5.4545	0.1	4107.5
28149	7.4455	5.5455	0.1	4085.5
28150	7.1695	5.4545	0.1	4146.6
28151	7.2615	5.5455	0.1	4125.7
28152	6.9856	5.4545	0.1	4181.2
28153	7.0776	5.5455	0.1	4161.6
28154	6.8017	5.4545	0.1	4209.8
28155	6.8936	5.5455	0.1	4192.
28156	6.6177	5.4545	0.1	4231.
28157	6.7097	5.5455	0.1	4215.5
28158	6.4338	5.4545	0.1	4242.4
28159	6.5258	5.5455	0.1	4229.9
28160	6.2498	5.4545	0.1	4241.7
28161	6.3418	5.5455	0.1	4233.
28162	6.0659	5.4545	0.1	4225.6
28163	6.1579	5.5455	0.1	4221.7
28164	5.882	5.4545	0.1	4190.2
28165	5.9739	5.5455	0.1	4192.5
28166	5.698	5.4545	0.1	4130.9
28167	5.79	5.5455	0.1	4141.
28168	5.5141	5.4545	0.1	4042.2
28169	5.6061	5.5455	0.1	4062.
28170	5.3302	5.4545	0.1	3917.7
28171	5.4221	5.5455	0.1	3949.4
28172	5.1462	5.4545	0.1	3750.4
28173	5.2382	5.5455	0.1	3796.4
28174	4.9623	5.4545	0.1	3533.2
28175	5.0542	5.5455	0.1	3595.8
28176	4.7783	5.4545	0.1	3260.2
28177	4.8703	5.5455	0.1	3340.8
28178	4.5944	5.4545	0.1	2929.3
28179	4.6864	5.5455	0.1	3026.2
28180	4.4105	5.4545	0.1	2547.3
28181	4.5024	5.5455	0.1	2651.8
28182	4.2265	5.4545	0.1	2140.7
28183	4.3185	5.5455	0.1	2229.1
28184	4.0426	5.4545	0.1	1796.9
28185	4.1345	5.5455	0.1	1794.4
28186	3.9506	5.5455	0.1	1479.8
28187	3.8586	5.4545	0.1	1364.9
28188	23.724	5.6364	0.1	55.378
28189	23.816	5.7273	0.1	37.226
28190	23.908	5.6364	0.1	21.457
28191	23.54	5.6364	0.1	91.112
28192	23.632	5.7273	0.1	72.374
28193	23.356	5.6364	0.1	128.27
28194	23.448	5.7273	0.1	109.63
28195	23.172	5.6364	0.1	166.25
28196	23.264	5.7273	0.1	147.73
28197	22.988	5.6364	0.1	204.75
28198	23.08	5.7273	0.1	186.34
28199	22.804	5.6364	0.1	243.61
28200	22.896	5.7273	0.1	225.28
28201	22.62	5.6364	0.1	282.74
28202	22.712	5.7273	0.1	264.47
28203	22.437	5.6364	0.1	322.09
28204	22.528	5.7273	0.1	303.85
28205	22.253	5.6364	0.1	361.62
28206	22.345	5.7273	0.1	343.41
28207	22.069	5.6364	0.1	401.31
28208	22.161	5.7273	0.1	383.11
28209	21.885	5.6364	0.1	441.15
28210	21.977	5.7273	0.1	422.94
28211	21.701	5.6364	0.1	481.12
28212	21.793	5.7273	0.1	462.91
28213	21.517	5.6364	0.1	521.24
28214	21.609	5.7273	0.1	503.
28215	21.333	5.6364	0.1	561.49
28216	21.425	5.7273	0.1	543.22
28217	21.149	5.6364	0.1	601.88
28218	21.241	5.7273	0.1	583.57
28219	20.965	5.6364	0.1	642.4
28220	21.057	5.7273	0.1	624.04
28221	20.781	5.6364	0.1	683.06
28222	20.873	5.7273	0.1	664.65
28223	20.597	5.6364	0.1	723.86
28224	20.689	5.7273	0.1	705.39
28225	20.413	5.6364	0.1	764.81
28226	20.505	5.7273	0.1	746.28
28227	20.229	5.6364	0.1	805.91
28228	20.321	5.7273	0.1	787.3
28229	20.045	5.6364	0.1	847.16
28230	20.137	5.7273	0.1	828.48
28231	19.861	5.6364	0.1	888.57
28232	19.953	5.7273	0.1	869.8
28233	19.677	5.6364	0.1	930.14
28234	19.769	5.7273	0.1	911.29
28235	19.493	5.6364	0.1	971.87
28236	19.585	5.7273	0.1	952.93
28237	19.31	5.6364	0.1	1013.8
28238	19.402	5.7273	0.1	994.73
28239	19.126	5.6364	0.1	1055.8
28240	19.218	5.7273	0.1	1036.7
28241	18.942	5.6364	0.1	1098.1
28242	19.034	5.7273	0.1	1078.8
28243	18.758	5.6364	0.1	1140.5
28244	18.85	5.7273	0.1	1121.1
28245	18.574	5.6364	0.1	1183.1
28246	18.666	5.7273	0.1	1163.6
28247	18.39	5.6364	0.1	1225.8
28248	18.482	5.7273	0.1	1206.3
28249	18.206	5.6364	0.1	1268.8
28250	18.298	5.7273	0.1	1249.1
28251	18.022	5.6364	0.1	1311.9
28252	18.114	5.7273	0.1	1292.2
28253	17.838	5.6364	0.1	1355.2
28254	17.93	5.7273	0.1	1335.4
28255	17.654	5.6364	0.1	1398.7
28256	17.746	5.7273	0.1	1378.8
28257	17.47	5.6364	0.1	1442.4
28258	17.562	5.7273	0.1	1422.4
28259	17.286	5.6364	0.1	1486.3
28260	17.378	5.7273	0.1	1466.1
28261	17.102	5.6364	0.1	1530.4
28262	17.194	5.7273	0.1	1510.1
28263	16.918	5.6364	0.1	1574.7
28264	17.01	5.7273	0.1	1554.3
28265	16.734	5.6364	0.1	1619.1
28266	16.826	5.7273	0.1	1598.6
28267	16.55	5.6364	0.1	1663.8
28268	16.642	5.7273	0.1	1643.1
28269	16.367	5.6364	0.1	1708.6
28270	16.458	5.7273	0.1	1687.9
28271	16.183	5.6364	0.1	1753.7
28272	16.275	5.7273	0.1	1732.8
28273	15.999	5.6364	0.1	1798.9
28274	16.091	5.7273	0.1	1778.
28275	15.815	5.6364	0.1	1844.4
28276	15.907	5.7273	0.1	1823.3
28277	15.631	5.6364	0.1	1890.
28278	15.723	5.7273	0.1	1868.8
28279	15.447	5.6364	0.1	1935.9
28280	15.539	5.7273	0.1	1914.6
28281	15.263	5.6364	0.1	1981.9
28282	15.355	5.7273	0.1	1960.5
28283	15.079	5.6364	0.1	2028.2
28284	15.171	5.7273	0.1	2006.6
28285	14.895	5.6364	0.1	2074.6
28286	14.987	5.7273	0.1	2053.
28287	14.711	5.6364	0.1	2121.3
28288	14.803	5.7273	0.1	2099.5
28289	14.527	5.6364	0.1	2168.2
28290	14.619	5.7273	0.1	2146.3
28291	14.343	5.6364	0.1	2215.2
28292	14.435	5.7273	0.1	2193.2
28293	14.159	5.6364	0.1	2262.5
28294	14.251	5.7273	0.1	2240.4
28295	13.975	5.6364	0.1	2310.
28296	14.067	5.7273	0.1	2287.8
28297	13.791	5.6364	0.1	2357.7
28298	13.883	5.7273	0.1	2335.3
28299	13.607	5.6364	0.1	2405.6
28300	13.699	5.7273	0.1	2383.1
28301	13.423	5.6364	0.1	2453.7
28302	13.515	5.7273	0.1	2431.1
28303	13.24	5.6364	0.1	2502.
28304	13.332	5.7273	0.1	2479.3
28305	13.056	5.6364	0.1	2550.5
28306	13.148	5.7273	0.1	2527.7
28307	12.872	5.6364	0.1	2599.3
28308	12.964	5.7273	0.1	2576.4
28309	12.688	5.6364	0.1	2648.2
28310	12.78	5.7273	0.1	2625.2
28311	12.504	5.6364	0.1	2697.4
28312	12.596	5.7273	0.1	2674.3
28313	12.32	5.6364	0.1	2746.8
28314	12.412	5.7273	0.1	2723.6
28315	12.136	5.6364	0.1	2796.3
28316	12.228	5.7273	0.1	2773.1
28317	11.952	5.6364	0.1	2846.2
28318	12.044	5.7273	0.1	2822.8
28319	11.768	5.6364	0.1	2896.2
28320	11.86	5.7273	0.1	2872.7
28321	11.584	5.6364	0.1	2946.4
28322	11.676	5.7273	0.1	2922.8
28323	11.4	5.6364	0.1	2996.9
28324	11.492	5.7273	0.1	2973.2
28325	11.216	5.6364	0.1	3047.6
28326	11.308	5.7273	0.1	3023.8
28327	11.032	5.6364	0.1	3098.5
28328	11.124	5.7273	0.1	3074.6
28329	10.848	5.6364	0.1	3149.6
28330	10.94	5.7273	0.1	3125.6
28331	10.664	5.6364	0.1	3200.9
28332	10.756	5.7273	0.1	3176.8
28333	10.48	5.6364	0.1	3252.4
28334	10.572	5.7273	0.1	3228.3
28335	10.297	5.6364	0.1	3304.1
28336	10.388	5.7273	0.1	3279.9
28337	10.113	5.6364	0.1	3355.9
28338	10.205	5.7273	0.1	3331.7
28339	9.9286	5.6364	0.1	3407.9
28340	10.021	5.7273	0.1	3383.6
28341	9.7447	5.6364	0.1	3460.1
28342	9.8367	5.7273	0.1	3435.8
28343	9.5608	5.6364	0.1	3512.3
28344	9.6527	5.7273	0.1	3488.
28345	9.3768	5.6364	0.1	3564.6
28346	9.4688	5.7273	0.1	3540.2
28347	9.1929	5.6364	0.1	3616.9
28348	9.2848	5.7273	0.1	3592.5
28349	9.0089	5.6364	0.1	3669.1
28350	9.1009	5.7273	0.1	3644.8
28351	8.825	5.6364	0.1	3721.1
28352	8.917	5.7273	0.1	3696.9
28353	8.6411	5.6364	0.1	3772.8
28354	8.733	5.7273	0.1	3748.7
28355	8.4571	5.6364	0.1	3824.
28356	8.5491	5.7273	0.1	3800.1
28357	8.2732	5.6364	0.1	3874.5
28358	8.3652	5.7273	0.1	3850.9
28359	8.0892	5.6364	0.1	3924.1
28360	8.1812	5.7273	0.1	3900.8
28361	7.9053	5.6364	0.1	3972.3
28362	7.9973	5.7273	0.1	3949.5
28363	7.7214	5.6364	0.1	4018.7
28364	7.8133	5.7273	0.1	3996.6
28365	7.5374	5.6364	0.1	4062.8
28366	7.6294	5.7273	0.1	4041.5
28367	7.3535	5.6364	0.1	4103.7
28368	7.4455	5.7273	0.1	4083.7
28369	7.1695	5.6364	0.1	4140.7
28370	7.2615	5.7273	0.1	4122.2
28371	6.9856	5.6364	0.1	4172.5
28372	7.0776	5.7273	0.1	4155.9
28373	6.8017	5.6364	0.1	4197.7
28374	6.8936	5.7273	0.1	4183.6
28375	6.6177	5.6364	0.1	4214.4
28376	6.7097	5.7273	0.1	4203.6
28377	6.4338	5.6364	0.1	4220.4
28378	6.5258	5.7273	0.1	4213.7
28379	6.2498	5.6364	0.1	4212.9
28380	6.3418	5.7273	0.1	4211.5
28381	6.0659	5.6364	0.1	4188.5
28382	6.1579	5.7273	0.1	4193.8
28383	5.882	5.6364	0.1	4143.1
28384	5.9739	5.7273	0.1	4156.8
28385	5.698	5.6364	0.1	4071.7
28386	5.79	5.7273	0.1	4095.9
28387	5.5141	5.6364	0.1	3968.7
28388	5.6061	5.7273	0.1	4005.9
28389	5.3302	5.6364	0.1	3827.4
28390	5.4221	5.7273	0.1	3880.5
28391	5.1462	5.6364	0.1	3640.7
28392	5.2382	5.7273	0.1	3713.
28393	4.9623	5.6364	0.1	3401.7
28394	5.0542	5.7273	0.1	3496.2
28395	4.7783	5.6364	0.1	3104.
28396	4.8703	5.7273	0.1	3223.2
28397	4.5944	5.6364	0.1	2744.1
28398	4.6864	5.7273	0.1	2888.7
28399	4.4105	5.6364	0.1	2325.1
28400	4.5024	5.7273	0.1	2490.4
28401	4.2265	5.6364	0.1	1863.8
28402	4.3185	5.7273	0.1	2032.8
28403	4.0426	5.6364	0.1	1432.1
28404	4.1345	5.7273	0.1	1534.5
28405	3.9506	5.7273	0.1	1091.7
28406	3.8586	5.6364	0.1	1006.9
28407	23.724	5.8182	0.1	54.838
28408	23.816	5.9091	0.1	34.468
28409	23.908	5.8182	0.1	20.517
28410	23.54	5.8182	0.1	91.596
28411	23.632	5.9091	0.1	69.046
28412	23.356	5.8182	0.1	129.72
28413	23.448	5.9091	0.1	105.67
28414	23.172	5.8182	0.1	168.38
28415	23.264	5.9091	0.1	143.21
28416	22.988	5.8182	0.1	207.36
28417	23.08	5.9091	0.1	181.36
28418	22.804	5.8182	0.1	246.57
28419	22.896	5.9091	0.1	219.93
28420	22.62	5.8182	0.1	285.98
28421	22.712	5.9091	0.1	258.82
28422	22.437	5.8182	0.1	325.53
28423	22.528	5.9091	0.1	297.99
28424	22.253	5.8182	0.1	365.23
28425	22.345	5.9091	0.1	337.37
28426	22.069	5.8182	0.1	405.05
28427	22.161	5.9091	0.1	376.96
28428	21.885	5.8182	0.1	445.
28429	21.977	5.9091	0.1	416.71
28430	21.701	5.8182	0.1	485.06
28431	21.793	5.9091	0.1	456.63
28432	21.517	5.8182	0.1	525.24
28433	21.609	5.9091	0.1	496.7
28434	21.333	5.8182	0.1	565.55
28435	21.425	5.9091	0.1	536.92
28436	21.149	5.8182	0.1	605.97
28437	21.241	5.9091	0.1	577.29
28438	20.965	5.8182	0.1	646.53
28439	21.057	5.9091	0.1	617.8
28440	20.781	5.8182	0.1	687.21
28441	20.873	5.9091	0.1	658.45
28442	20.597	5.8182	0.1	728.02
28443	20.689	5.9091	0.1	699.25
28444	20.413	5.8182	0.1	768.98
28445	20.505	5.9091	0.1	740.2
28446	20.229	5.8182	0.1	810.08
28447	20.321	5.9091	0.1	781.3
28448	20.045	5.8182	0.1	851.32
28449	20.137	5.9091	0.1	822.55
28450	19.861	5.8182	0.1	892.72
28451	19.953	5.9091	0.1	863.96
28452	19.677	5.8182	0.1	934.27
28453	19.769	5.9091	0.1	905.53
28454	19.493	5.8182	0.1	975.98
28455	19.585	5.9091	0.1	947.25
28456	19.31	5.8182	0.1	1017.9
28457	19.402	5.9091	0.1	989.14
28458	19.126	5.8182	0.1	1059.9
28459	19.218	5.9091	0.1	1031.2
28460	18.942	5.8182	0.1	1102.1
28461	19.034	5.9091	0.1	1073.4
28462	18.758	5.8182	0.1	1144.5
28463	18.85	5.9091	0.1	1115.8
28464	18.574	5.8182	0.1	1187.
28465	18.666	5.9091	0.1	1158.4
28466	18.39	5.8182	0.1	1229.8
28467	18.482	5.9091	0.1	1201.2
28468	18.206	5.8182	0.1	1272.7
28469	18.298	5.9091	0.1	1244.1
28470	18.022	5.8182	0.1	1315.8
28471	18.114	5.9091	0.1	1287.2
28472	17.838	5.8182	0.1	1359.1
28473	17.93	5.9091	0.1	1330.5
28474	17.654	5.8182	0.1	1402.5
28475	17.746	5.9091	0.1	1374.
28476	17.47	5.8182	0.1	1446.2
28477	17.562	5.9091	0.1	1417.7
28478	17.286	5.8182	0.1	1490.1
28479	17.378	5.9091	0.1	1461.5
28480	17.102	5.8182	0.1	1534.1
28481	17.194	5.9091	0.1	1505.6
28482	16.918	5.8182	0.1	1578.3
28483	17.01	5.9091	0.1	1549.8
28484	16.734	5.8182	0.1	1622.8
28485	16.826	5.9091	0.1	1594.2
28486	16.55	5.8182	0.1	1667.4
28487	16.642	5.9091	0.1	1638.8
28488	16.367	5.8182	0.1	1712.2
28489	16.458	5.9091	0.1	1683.7
28490	16.183	5.8182	0.1	1757.2
28491	16.275	5.9091	0.1	1728.7
28492	15.999	5.8182	0.1	1802.4
28493	16.091	5.9091	0.1	1773.9
28494	15.815	5.8182	0.1	1847.9
28495	15.907	5.9091	0.1	1819.3
28496	15.631	5.8182	0.1	1893.5
28497	15.723	5.9091	0.1	1864.9
28498	15.447	5.8182	0.1	1939.3
28499	15.539	5.9091	0.1	1910.7
28500	15.263	5.8182	0.1	1985.3
28501	15.355	5.9091	0.1	1956.8
28502	15.079	5.8182	0.1	2031.5
28503	15.171	5.9091	0.1	2003.
28504	14.895	5.8182	0.1	2078.
28505	14.987	5.9091	0.1	2049.4
28506	14.711	5.8182	0.1	2124.6
28507	14.803	5.9091	0.1	2096.
28508	14.527	5.8182	0.1	2171.4
28509	14.619	5.9091	0.1	2142.9
28510	14.343	5.8182	0.1	2218.5
28511	14.435	5.9091	0.1	2189.9
28512	14.159	5.8182	0.1	2265.7
28513	14.251	5.9091	0.1	2237.1
28514	13.975	5.8182	0.1	2313.2
28515	14.067	5.9091	0.1	2284.6
28516	13.791	5.8182	0.1	2360.9
28517	13.883	5.9091	0.1	2332.3
28518	13.607	5.8182	0.1	2408.8
28519	13.699	5.9091	0.1	2380.1
28520	13.423	5.8182	0.1	2456.9
28521	13.515	5.9091	0.1	2428.2
28522	13.24	5.8182	0.1	2505.2
28523	13.332	5.9091	0.1	2476.5
28524	13.056	5.8182	0.1	2553.7
28525	13.148	5.9091	0.1	2525.1
28526	12.872	5.8182	0.1	2602.4
28527	12.964	5.9091	0.1	2573.8
28528	12.688	5.8182	0.1	2651.4
28529	12.78	5.9091	0.1	2622.8
28530	12.504	5.8182	0.1	2700.6
28531	12.596	5.9091	0.1	2671.9
28532	12.32	5.8182	0.1	2750.
28533	12.412	5.9091	0.1	2721.3
28534	12.136	5.8182	0.1	2799.6
28535	12.228	5.9091	0.1	2771.
28536	11.952	5.8182	0.1	2849.4
28537	12.044	5.9091	0.1	2820.8
28538	11.768	5.8182	0.1	2899.4
28539	11.86	5.9091	0.1	2870.9
28540	11.584	5.8182	0.1	2949.7
28541	11.676	5.9091	0.1	2921.2
28542	11.4	5.8182	0.1	3000.2
28543	11.492	5.9091	0.1	2971.7
28544	11.216	5.8182	0.1	3050.9
28545	11.308	5.9091	0.1	3022.4
28546	11.032	5.8182	0.1	3101.8
28547	11.124	5.9091	0.1	3073.4
28548	10.848	5.8182	0.1	3153.
28549	10.94	5.9091	0.1	3124.6
28550	10.664	5.8182	0.1	3204.3
28551	10.756	5.9091	0.1	3176.
28552	10.48	5.8182	0.1	3255.9
28553	10.572	5.9091	0.1	3227.6
28554	10.297	5.8182	0.1	3307.6
28555	10.388	5.9091	0.1	3279.3
28556	10.113	5.8182	0.1	3359.5
28557	10.205	5.9091	0.1	3331.3
28558	9.9286	5.8182	0.1	3411.5
28559	10.021	5.9091	0.1	3383.5
28560	9.7447	5.8182	0.1	3463.7
28561	9.8367	5.9091	0.1	3435.8
28562	9.5608	5.8182	0.1	3516.
28563	9.6527	5.9091	0.1	3488.1
28564	9.3768	5.8182	0.1	3568.2
28565	9.4688	5.9091	0.1	3540.6
28566	9.1929	5.8182	0.1	3620.5
28567	9.2848	5.9091	0.1	3593.
28568	9.0089	5.8182	0.1	3672.6
28569	9.1009	5.9091	0.1	3645.4
28570	8.825	5.8182	0.1	3724.5
28571	8.917	5.9091	0.1	3697.6
28572	8.6411	5.8182	0.1	3776.1
28573	8.733	5.9091	0.1	3749.4
28574	8.4571	5.8182	0.1	3827.
28575	8.5491	5.9091	0.1	3800.8
28576	8.2732	5.8182	0.1	3877.2
28577	8.3652	5.9091	0.1	3851.5
28578	8.0892	5.8182	0.1	3926.3
28579	8.1812	5.9091	0.1	3901.2
28580	7.9053	5.8182	0.1	3973.9
28581	7.9973	5.9091	0.1	3949.6
28582	7.7214	5.8182	0.1	4019.5
28583	7.8133	5.9091	0.1	3996.3
28584	7.5374	5.8182	0.1	4062.5
28585	7.6294	5.9091	0.1	4040.6
28586	7.3535	5.8182	0.1	4102.1
28587	7.4455	5.9091	0.1	4081.8
28588	7.1695	5.8182	0.1	4137.4
28589	7.2615	5.9091	0.1	4119.2
28590	6.9856	5.8182	0.1	4167.
28591	7.0776	5.9091	0.1	4151.4
28592	6.8017	5.8182	0.1	4189.5
28593	6.8936	5.9091	0.1	4177.1
28594	6.6177	5.8182	0.1	4202.9
28595	6.7097	5.9091	0.1	4194.6
28596	6.4338	5.8182	0.1	4204.8
28597	6.5258	5.9091	0.1	4201.7
28598	6.2498	5.8182	0.1	4192.3
28599	6.3418	5.9091	0.1	4195.7
28600	6.0659	5.8182	0.1	4162.
28601	6.1579	5.9091	0.1	4173.2
28602	5.882	5.8182	0.1	4109.5
28603	5.9739	5.9091	0.1	4130.5
28604	5.698	5.8182	0.1	4029.9
28605	5.79	5.9091	0.1	4062.6
28606	5.5141	5.8182	0.1	3917.4
28607	5.6061	5.9091	0.1	3964.3
28608	5.3302	5.8182	0.1	3765.6
28609	5.4221	5.9091	0.1	3829.1
28610	5.1462	5.8182	0.1	3567.6
28611	5.2382	5.9091	0.1	3650.2
28612	4.9623	5.8182	0.1	3316.6
28613	5.0542	5.9091	0.1	3420.4
28614	4.7783	5.8182	0.1	3006.5
28615	4.8703	5.9091	0.1	3132.9
28616	4.5944	5.8182	0.1	2632.8
28617	4.6864	5.9091	0.1	2782.2
28618	4.4105	5.8182	0.1	2194.8
28619	4.5024	5.9091	0.1	2365.
28620	4.2265	5.8182	0.1	1696.3
28621	4.3185	5.9091	0.1	1881.8
28622	4.0426	5.8182	0.1	1163.5
28623	4.1345	5.9091	0.1	1337.2
28624	3.8586	5.8182	0.1	654.05
28625	3.9506	5.9091	0.1	754.68
28626	0.18	0.27273	0.1	4234.1
28627	0.27	0.18182	0.1	4477.4
28628	9.e-002	0.18182	0.1	3294.2
28629	0.18	9.0909e-002	0.1	3732.
28630	0.18	0.45455	0.1	4904.2
28631	0.27	0.36364	0.1	4857.1
28632	9.e-002	0.36364	0.1	4657.1
28633	0.18	0.63636	0.1	5520.7
28634	0.27	0.54545	0.1	5356.3
28635	9.e-002	0.54545	0.1	5528.6
28636	0.18	0.81818	0.1	5980.4
28637	0.27	0.72727	0.1	5788.1
28638	9.e-002	0.72727	0.1	6109.3
28639	0.18	1.	0.1	6321.2
28640	0.27	0.90909	0.1	6137.3
28641	9.e-002	0.90909	0.1	6512.6
28642	0.18	1.1818	0.1	6575.1
28643	0.27	1.0909	0.1	6412.
28644	9.e-002	1.0909	0.1	6801.9
28645	0.18	1.3636	0.1	6766.
28646	0.27	1.2727	0.1	6626.8
28647	9.e-002	1.2727	0.1	7013.2
28648	0.18	1.5455	0.1	6910.
28649	0.27	1.4545	0.1	6794.2
28650	9.e-002	1.4545	0.1	7168.7
28651	0.18	1.7273	0.1	7018.4
28652	0.27	1.6364	0.1	6924.3
28653	9.e-002	1.6364	0.1	7282.9
28654	0.18	1.9091	0.1	7099.4
28655	0.27	1.8182	0.1	7024.8
28656	9.e-002	1.8182	0.1	7366.2
28657	0.18	2.0909	0.1	7159.3
28658	0.27	2.	0.1	7101.7
28659	9.e-002	2.	0.1	7426.
28660	0.18	2.2727	0.1	7202.6
28661	0.27	2.1818	0.1	7159.5
28662	9.e-002	2.1818	0.1	7468.2
28663	0.18	2.4545	0.1	7232.9
28664	0.27	2.3636	0.1	7201.8
28665	9.e-002	2.3636	0.1	7497.
28666	0.18	2.6364	0.1	7252.7
28667	0.27	2.5455	0.1	7231.2
28668	9.e-002	2.5455	0.1	7515.9
28669	0.18	2.8182	0.1	7263.9
28670	0.27	2.7273	0.1	7249.8
28671	9.e-002	2.7273	0.1	7527.2
28672	0.18	3.	0.1	7267.6
28673	0.27	2.9091	0.1	7258.8
28674	9.e-002	2.9091	0.1	7532.4
28675	0.18	3.1818	0.1	7263.9
28676	0.27	3.0909	0.1	7258.8
28677	9.e-002	3.0909	0.1	7532.4
28678	0.18	3.3636	0.1	7252.7
28679	0.27	3.2727	0.1	7249.8
28680	9.e-002	3.2727	0.1	7527.2
28681	0.18	3.5455	0.1	7232.9
28682	0.27	3.4545	0.1	7231.2
28683	9.e-002	3.4545	0.1	7515.9
28684	0.18	3.7273	0.1	7202.6
28685	0.27	3.6364	0.1	7201.8
28686	9.e-002	3.6364	0.1	7497.
28687	0.18	3.9091	0.1	7159.3
28688	0.27	3.8182	0.1	7159.5
28689	9.e-002	3.8182	0.1	7468.2
28690	0.18	4.0909	0.1	7099.4
28691	0.27	4.	0.1	7101.7
28692	9.e-002	4.	0.1	7426.
28693	0.18	4.2727	0.1	7018.4
28694	0.27	4.1818	0.1	7024.8
28695	9.e-002	4.1818	0.1	7366.2
28696	0.18	4.4545	0.1	6910.
28697	0.27	4.3636	0.1	6924.3
28698	9.e-002	4.3636	0.1	7282.9
28699	0.18	4.6364	0.1	6766.
28700	0.27	4.5455	0.1	6794.2
28701	9.e-002	4.5455	0.1	7168.7
28702	0.18	4.8182	0.1	6575.1
28703	0.27	4.7273	0.1	6626.8
28704	9.e-002	4.7273	0.1	7013.2
28705	0.18	5.	0.1	6321.2
28706	0.27	4.9091	0.1	6412.
28707	9.e-002	4.9091	0.1	6801.9
28708	0.18	5.1818	0.1	5980.4
28709	0.27	5.0909	0.1	6137.3
28710	9.e-002	5.0909	0.1	6512.6
28711	0.18	5.3636	0.1	5520.7
28712	0.27	5.2727	0.1	5788.1
28713	9.e-002	5.2727	0.1	6109.3
28714	0.18	5.5455	0.1	4904.2
28715	0.27	5.4545	0.1	5356.3
28716	9.e-002	5.4545	0.1	5528.6
28717	0.18	5.7273	0.1	4234.1
28718	0.27	5.6364	0.1	4857.1
28719	9.e-002	5.6364	0.1	4657.1
28720	0.27	5.8182	0.1	4477.4
28721	9.e-002	5.8182	0.1	3294.2
28722	0.18	5.9091	0.1	3732.
28723	0.36	0.27273	0.1	5085.3
28724	0.45	0.18182	0.1	5236.1
28725	0.36	9.0909e-002	0.1	4860.9
28726	0.36	0.45455	0.1	5309.8
28727	0.45	0.36364	0.1	5312.9
28728	0.36	0.63636	0.1	5631.1
28729	0.45	0.54545	0.1	5529.1
28730	0.36	0.81818	0.1	5951.5
28731	0.45	0.72727	0.1	5785.9
28732	0.36	1.	0.1	6232.4
28733	0.45	0.90909	0.1	6037.3
28734	0.36	1.1818	0.1	6466.3
28735	0.45	1.0909	0.1	6262.9
28736	0.36	1.3636	0.1	6656.6
28737	0.45	1.2727	0.1	6456.6
28738	0.36	1.5455	0.1	6809.5
28739	0.45	1.4545	0.1	6619.
28740	0.36	1.7273	0.1	6931.4
28741	0.45	1.6364	0.1	6753.
28742	0.36	1.9091	0.1	7027.4
28743	0.45	1.8182	0.1	6862.2
28744	0.36	2.0909	0.1	7102.
28745	0.45	2.	0.1	6949.6
28746	0.36	2.2727	0.1	7158.7
28747	0.45	2.1818	0.1	7018.3
28748	0.36	2.4545	0.1	7200.2
28749	0.45	2.3636	0.1	7070.6
28750	0.36	2.6364	0.1	7228.4
28751	0.45	2.5455	0.1	7108.2
28752	0.36	2.8182	0.1	7244.7
28753	0.45	2.7273	0.1	7132.6
28754	0.36	3.	0.1	7250.1
28755	0.45	2.9091	0.1	7144.5
28756	0.36	3.1818	0.1	7244.7
28757	0.45	3.0909	0.1	7144.5
28758	0.36	3.3636	0.1	7228.4
28759	0.45	3.2727	0.1	7132.6
28760	0.36	3.5455	0.1	7200.2
28761	0.45	3.4545	0.1	7108.2
28762	0.36	3.7273	0.1	7158.7
28763	0.45	3.6364	0.1	7070.6
28764	0.36	3.9091	0.1	7102.
28765	0.45	3.8182	0.1	7018.3
28766	0.36	4.0909	0.1	7027.4
28767	0.45	4.	0.1	6949.6
28768	0.36	4.2727	0.1	6931.4
28769	0.45	4.1818	0.1	6862.2
28770	0.36	4.4545	0.1	6809.5
28771	0.45	4.3636	0.1	6753.
28772	0.36	4.6364	0.1	6656.6
28773	0.45	4.5455	0.1	6619.
28774	0.36	4.8182	0.1	6466.3
28775	0.45	4.7273	0.1	6456.6
28776	0.36	5.	0.1	6232.4
28777	0.45	4.9091	0.1	6262.9
28778	0.36	5.1818	0.1	5951.5
28779	0.45	5.0909	0.1	6037.3
28780	0.36	5.3636	0.1	5631.1
28781	0.45	5.2727	0.1	5785.9
28782	0.36	5.5455	0.1	5309.8
28783	0.45	5.4545	0.1	5529.1
28784	0.36	5.7273	0.1	5085.3
28785	0.45	5.6364	0.1	5312.9
28786	0.45	5.8182	0.1	5236.1
28787	0.36	5.9091	0.1	4860.9
28788	0.54	0.27273	0.1	5461.6
28789	0.63	0.18182	0.1	5573.
28790	0.54	9.0909e-002	0.1	5345.7
28791	0.54	0.45455	0.1	5528.1
28792	0.63	0.36364	0.1	5563.
28793	0.54	0.63636	0.1	5680.9
28794	0.63	0.54545	0.1	5653.8
28795	0.54	0.81818	0.1	5870.8
28796	0.63	0.72727	0.1	5793.2
28797	0.54	1.	0.1	6068.
28798	0.63	0.90909	0.1	5956.5
28799	0.54	1.1818	0.1	6253.8
28800	0.63	1.0909	0.1	6123.8
28801	0.54	1.3636	0.1	6419.7
28802	0.63	1.2727	0.1	6282.8
28803	0.54	1.5455	0.1	6563.
28804	0.63	1.4545	0.1	6427.
28805	0.54	1.7273	0.1	6684.2
28806	0.63	1.6364	0.1	6553.8
28807	0.54	1.9091	0.1	6784.6
28808	0.63	1.8182	0.1	6662.6
28809	0.54	2.0909	0.1	6866.
28810	0.63	2.	0.1	6753.7
28811	0.54	2.2727	0.1	6930.2
28812	0.63	2.1818	0.1	6828.
28813	0.54	2.4545	0.1	6978.6
28814	0.63	2.3636	0.1	6886.3
28815	0.54	2.6364	0.1	7012.4
28816	0.63	2.5455	0.1	6929.3
28817	0.54	2.8182	0.1	7032.3
28818	0.63	2.7273	0.1	6957.6
28819	0.54	3.	0.1	7038.9
28820	0.63	2.9091	0.1	6971.7
28821	0.54	3.1818	0.1	7032.3
28822	0.63	3.0909	0.1	6971.7
28823	0.54	3.3636	0.1	7012.4
28824	0.63	3.2727	0.1	6957.6
28825	0.54	3.5455	0.1	6978.6
28826	0.63	3.4545	0.1	6929.3
28827	0.54	3.7273	0.1	6930.2
28828	0.63	3.6364	0.1	6886.3
28829	0.54	3.9091	0.1	6866.
28830	0.63	3.8182	0.1	6828.
28831	0.54	4.0909	0.1	6784.6
28832	0.63	4.	0.1	6753.7
28833	0.54	4.2727	0.1	6684.2
28834	0.63	4.1818	0.1	6662.6
28835	0.54	4.4545	0.1	6563.
28836	0.63	4.3636	0.1	6553.8
28837	0.54	4.6364	0.1	6419.7
28838	0.63	4.5455	0.1	6427.
28839	0.54	4.8182	0.1	6253.8
28840	0.63	4.7273	0.1	6282.8
28841	0.54	5.	0.1	6068.
28842	0.63	4.9091	0.1	6123.8
28843	0.54	5.1818	0.1	5870.8
28844	0.63	5.0909	0.1	5956.5
28845	0.54	5.3636	0.1	5680.9
28846	0.63	5.2727	0.1	5793.2
28847	0.54	5.5455	0.1	5528.1
28848	0.63	5.4545	0.1	5653.8
28849	0.54	5.7273	0.1	5461.6
28850	0.63	5.6364	0.1	5563.
28851	0.63	5.8182	0.1	5573.
28852	0.54	5.9091	0.1	5345.7
28853	0.72	0.27273	0.1	5674.
28854	0.81	0.18182	0.1	5734.2
28855	0.72	9.0909e-002	0.1	5596.7
28856	0.72	0.45455	0.1	5687.5
28857	0.81	0.36364	0.1	5701.3
28858	0.72	0.63636	0.1	5764.2
28859	0.81	0.54545	0.1	5741.4
28860	0.72	0.81818	0.1	5877.3
28861	0.81	0.72727	0.1	5820.2
28862	0.72	1.	0.1	6011.5
28863	0.81	0.90909	0.1	5926.6
28864	0.72	1.1818	0.1	6152.6
28865	0.81	1.0909	0.1	6048.5
28866	0.72	1.3636	0.1	6290.2
28867	0.81	1.2727	0.1	6175.5
28868	0.72	1.5455	0.1	6417.9
28869	0.81	1.4545	0.1	6299.6
28870	0.72	1.7273	0.1	6532.4
28871	0.81	1.6364	0.1	6415.5
28872	0.72	1.9091	0.1	6631.8
28873	0.81	1.8182	0.1	6520.1
28874	0.72	2.0909	0.1	6715.8
28875	0.81	2.	0.1	6611.4
28876	0.72	2.2727	0.1	6784.1
28877	0.81	2.1818	0.1	6688.4
28878	0.72	2.4545	0.1	6837.
28879	0.81	2.3636	0.1	6750.4
28880	0.72	2.6364	0.1	6874.5
28881	0.81	2.5455	0.1	6797.2
28882	0.72	2.8182	0.1	6897.
28883	0.81	2.7273	0.1	6828.4
28884	0.72	3.	0.1	6904.5
28885	0.81	2.9091	0.1	6844.1
28886	0.72	3.1818	0.1	6897.
28887	0.81	3.0909	0.1	6844.1
28888	0.72	3.3636	0.1	6874.5
28889	0.81	3.2727	0.1	6828.4
28890	0.72	3.5455	0.1	6837.
28891	0.81	3.4545	0.1	6797.2
28892	0.72	3.7273	0.1	6784.1
28893	0.81	3.6364	0.1	6750.4
28894	0.72	3.9091	0.1	6715.8
28895	0.81	3.8182	0.1	6688.4
28896	0.72	4.0909	0.1	6631.9
28897	0.81	4.	0.1	6611.4
28898	0.72	4.2727	0.1	6532.4
28899	0.81	4.1818	0.1	6520.1
28900	0.72	4.4545	0.1	6417.9
28901	0.81	4.3636	0.1	6415.5
28902	0.72	4.6364	0.1	6290.2
28903	0.81	4.5455	0.1	6299.6
28904	0.72	4.8182	0.1	6152.6
28905	0.81	4.7273	0.1	6175.5
28906	0.72	5.	0.1	6011.5
28907	0.81	4.9091	0.1	6048.5
28908	0.72	5.1818	0.1	5877.3
28909	0.81	5.0909	0.1	5926.6
28910	0.72	5.3636	0.1	5764.2
28911	0.81	5.2727	0.1	5820.2
28912	0.72	5.5455	0.1	5687.5
28913	0.81	5.4545	0.1	5741.4
28914	0.72	5.7273	0.1	5674.
28915	0.81	5.6364	0.1	5701.3
28916	0.81	5.8182	0.1	5734.2
28917	0.72	5.9091	0.1	5596.7
28918	0.9	0.27273	0.1	5761.7
28919	0.99	0.18182	0.1	5785.4
28920	0.9	9.0909e-002	0.1	5703.7
28921	0.9	0.45455	0.1	5755.2
28922	0.99	0.36364	0.1	5748.8
28923	0.9	0.63636	0.1	5796.6
28924	0.99	0.54545	0.1	5768.6
28925	0.9	0.81818	0.1	5868.3
28926	0.99	0.72727	0.1	5818.5
28927	0.9	1.	0.1	5962.6
28928	0.99	0.90909	0.1	5893.3
28929	0.9	1.1818	0.1	6070.8
28930	0.99	1.0909	0.1	5986.4
28931	0.9	1.3636	0.1	6184.5
28932	0.99	1.2727	0.1	6090.4
28933	0.9	1.5455	0.1	6297.
28934	0.99	1.4545	0.1	6198.4
28935	0.9	1.7273	0.1	6403.2
28936	0.99	1.6364	0.1	6304.8
28937	0.9	1.9091	0.1	6499.6
28938	0.99	1.8182	0.1	6405.
28939	0.9	2.0909	0.1	6584.
28940	0.99	2.	0.1	6495.7
28941	0.9	2.2727	0.1	6654.6
28942	0.99	2.1818	0.1	6574.5
28943	0.9	2.4545	0.1	6710.6
28944	0.99	2.3636	0.1	6639.6
28945	0.9	2.6364	0.1	6751.
28946	0.99	2.5455	0.1	6689.5
28947	0.9	2.8182	0.1	6775.5
28948	0.99	2.7273	0.1	6723.4
28949	0.9	3.	0.1	6783.6
28950	0.99	2.9091	0.1	6740.4
28951	0.9	3.1818	0.1	6775.5
28952	0.99	3.0909	0.1	6740.4
28953	0.9	3.3636	0.1	6751.
28954	0.99	3.2727	0.1	6723.4
28955	0.9	3.5455	0.1	6710.6
28956	0.99	3.4545	0.1	6689.5
28957	0.9	3.7273	0.1	6654.6
28958	0.99	3.6364	0.1	6639.6
28959	0.9	3.9091	0.1	6584.
28960	0.99	3.8182	0.1	6574.5
28961	0.9	4.0909	0.1	6499.6
28962	0.99	4.	0.1	6495.7
28963	0.9	4.2727	0.1	6403.2
28964	0.99	4.1818	0.1	6405.
28965	0.9	4.4545	0.1	6297.
28966	0.99	4.3636	0.1	6304.8
28967	0.9	4.6364	0.1	6184.5
28968	0.99	4.5455	0.1	6198.4
28969	0.9	4.8182	0.1	6070.8
28970	0.99	4.7273	0.1	6090.4
28971	0.9	5.	0.1	5962.6
28972	0.99	4.9091	0.1	5986.4
28973	0.9	5.1818	0.1	5868.3
28974	0.99	5.0909	0.1	5893.3
28975	0.9	5.3636	0.1	5796.6
28976	0.99	5.2727	0.1	5818.5
28977	0.9	5.5455	0.1	5755.2
28978	0.99	5.4545	0.1	5768.6
28979	0.9	5.7273	0.1	5761.7
28980	0.99	5.6364	0.1	5748.8
28981	0.99	5.8182	0.1	5785.4
28982	0.9	5.9091	0.1	5703.7
28983	1.08	0.27273	0.1	5772.7
28984	1.17	0.18182	0.1	5764.6
28985	1.08	9.0909e-002	0.1	5722.9
28986	1.08	0.45455	0.1	5762.4
28987	1.17	0.36364	0.1	5733.
28988	1.08	0.63636	0.1	5790.2
28989	1.17	0.54545	0.1	5747.9
28990	1.08	0.81818	0.1	5842.9
28991	1.17	0.72727	0.1	5787.3
28992	1.08	1.	0.1	5916.3
28993	1.17	0.90909	0.1	5848.3
28994	1.08	1.1818	0.1	6005.3
28995	1.17	1.0909	0.1	5927.3
28996	1.08	1.3636	0.1	6103.8
28997	1.17	1.2727	0.1	6019.2
28998	1.08	1.5455	0.1	6205.9
28999	1.17	1.4545	0.1	6118.6
29000	1.08	1.7273	0.1	6306.4
29001	1.17	1.6364	0.1	6220.
29002	1.08	1.9091	0.1	6401.
29003	1.17	1.8182	0.1	6318.8
29004	1.08	2.0909	0.1	6486.2
29005	1.17	2.	0.1	6410.8
29006	1.08	2.2727	0.1	6559.4
29007	1.17	2.1818	0.1	6492.7
29008	1.08	2.4545	0.1	6618.4
29009	1.17	2.3636	0.1	6561.6
29010	1.08	2.6364	0.1	6661.7
29011	1.17	2.5455	0.1	6615.3
29012	1.08	2.8182	0.1	6688.2
29013	1.17	2.7273	0.1	6652.1
29014	1.08	3.	0.1	6697.1
29015	1.17	2.9091	0.1	6670.8
29016	1.08	3.1818	0.1	6688.2
29017	1.17	3.0909	0.1	6670.8
29018	1.08	3.3636	0.1	6661.7
29019	1.17	3.2727	0.1	6652.1
29020	1.08	3.5455	0.1	6618.4
29021	1.17	3.4545	0.1	6615.3
29022	1.08	3.7273	0.1	6559.4
29023	1.17	3.6364	0.1	6561.6
29024	1.08	3.9091	0.1	6486.2
29025	1.17	3.8182	0.1	6492.7
29026	1.08	4.0909	0.1	6401.
29027	1.17	4.	0.1	6410.8
29028	1.08	4.2727	0.1	6306.4
29029	1.17	4.1818	0.1	6318.8
29030	1.08	4.4545	0.1	6205.9
29031	1.17	4.3636	0.1	6220.
29032	1.08	4.6364	0.1	6103.8
29033	1.17	4.5455	0.1	6118.6
29034	1.08	4.8182	0.1	6005.3
29035	1.17	4.7273	0.1	6019.2
29036	1.08	5.	0.1	5916.3
29037	1.17	4.9091	0.1	5927.3
29038	1.08	5.1818	0.1	5842.9
29039	1.17	5.0909	0.1	5848.3
29040	1.08	5.3636	0.1	5790.3
29041	1.17	5.2727	0.1	5787.3
29042	1.08	5.5455	0.1	5762.4
29043	1.17	5.4545	0.1	5747.9
29044	1.08	5.7273	0.1	5772.7
29045	1.17	5.6364	0.1	5733.
29046	1.17	5.8182	0.1	5764.6
29047	1.08	5.9091	0.1	5722.9
29048	1.26	0.27273	0.1	5724.9
29049	1.35	0.18182	0.1	5688.3
29050	1.26	9.0909e-002	0.1	5677.3
29051	1.26	0.45455	0.1	5718.6
29052	1.35	0.36364	0.1	5665.8
29053	1.26	0.63636	0.1	5744.8
29054	1.35	0.54545	0.1	5684.2
29055	1.26	0.81818	0.1	5792.4
29056	1.35	0.72727	0.1	5724.4
29057	1.26	1.	0.1	5858.8
29058	1.35	0.90909	0.1	5784.2
29059	1.26	1.1818	0.1	5940.7
29060	1.35	1.0909	0.1	5861.
29061	1.26	1.3636	0.1	6033.5
29062	1.35	1.2727	0.1	5951.3
29063	1.26	1.5455	0.1	6132.3
29064	1.35	1.4545	0.1	6050.5
29065	1.26	1.7273	0.1	6232.1
29066	1.35	1.6364	0.1	6153.7
29067	1.26	1.9091	0.1	6328.4
29068	1.35	1.8182	0.1	6256.2
29069	1.26	2.0909	0.1	6417.1
29070	1.35	2.	0.1	6353.5
29071	1.26	2.2727	0.1	6494.7
29072	1.35	2.1818	0.1	6441.5
29073	1.26	2.4545	0.1	6558.3
29074	1.35	2.3636	0.1	6516.6
29075	1.26	2.6364	0.1	6605.4
29076	1.35	2.5455	0.1	6575.8
29077	1.26	2.8182	0.1	6634.4
29078	1.35	2.7273	0.1	6616.8
29079	1.26	3.	0.1	6644.2
29080	1.35	2.9091	0.1	6637.7
29081	1.26	3.1818	0.1	6634.4
29082	1.35	3.0909	0.1	6637.7
29083	1.26	3.3636	0.1	6605.4
29084	1.35	3.2727	0.1	6616.8
29085	1.26	3.5455	0.1	6558.3
29086	1.35	3.4545	0.1	6575.8
29087	1.26	3.7273	0.1	6494.7
29088	1.35	3.6364	0.1	6516.6
29089	1.26	3.9091	0.1	6417.1
29090	1.35	3.8182	0.1	6441.5
29091	1.26	4.0909	0.1	6328.4
29092	1.35	4.	0.1	6353.5
29093	1.26	4.2727	0.1	6232.1
29094	1.35	4.1818	0.1	6256.2
29095	1.26	4.4545	0.1	6132.3
29096	1.35	4.3636	0.1	6153.7
29097	1.26	4.6364	0.1	6033.5
29098	1.35	4.5455	0.1	6050.5
29099	1.26	4.8182	0.1	5940.7
29100	1.35	4.7273	0.1	5951.3
29101	1.26	5.	0.1	5858.8
29102	1.35	4.9091	0.1	5861.
29103	1.26	5.1818	0.1	5792.4
29104	1.35	5.0909	0.1	5784.2
29105	1.26	5.3636	0.1	5744.8
29106	1.35	5.2727	0.1	5724.4
29107	1.26	5.5455	0.1	5718.6
29108	1.35	5.4545	0.1	5684.2
29109	1.26	5.7273	0.1	5724.9
29110	1.35	5.6364	0.1	5665.8
29111	1.35	5.8182	0.1	5688.3
29112	1.26	5.9091	0.1	5677.3
29113	1.44	0.27273	0.1	5629.2
29114	1.53	0.18182	0.1	5565.
29115	1.44	9.0909e-002	0.1	5579.4
29116	1.44	0.45455	0.1	5631.6
29117	1.53	0.36364	0.1	5554.1
29118	1.44	0.63636	0.1	5663.8
29119	1.53	0.54545	0.1	5581.6
29120	1.44	0.81818	0.1	5716.
29121	1.53	0.72727	0.1	5630.4
29122	1.44	1.	0.1	5786.1
29123	1.53	0.90909	0.1	5698.3
29124	1.44	1.1818	0.1	5871.4
29125	1.53	1.0909	0.1	5783.1
29126	1.44	1.3636	0.1	5968.
29127	1.53	1.2727	0.1	5881.6
29128	1.44	1.5455	0.1	6071.6
29129	1.53	1.4545	0.1	5989.7
29130	1.44	1.7273	0.1	6177.6
29131	1.53	1.6364	0.1	6102.6
29132	1.44	1.9091	0.1	6281.
29133	1.53	1.8182	0.1	6215.6
29134	1.44	2.0909	0.1	6377.6
29135	1.53	2.	0.1	6323.8
29136	1.44	2.2727	0.1	6463.1
29137	1.53	2.1818	0.1	6422.6
29138	1.44	2.4545	0.1	6533.9
29139	1.53	2.3636	0.1	6507.8
29140	1.44	2.6364	0.1	6586.8
29141	1.53	2.5455	0.1	6575.4
29142	1.44	2.8182	0.1	6619.6
29143	1.53	2.7273	0.1	6622.4
29144	1.44	3.	0.1	6630.7
29145	1.53	2.9091	0.1	6646.5
29146	1.44	3.1818	0.1	6619.6
29147	1.53	3.0909	0.1	6646.5
29148	1.44	3.3636	0.1	6586.8
29149	1.53	3.2727	0.1	6622.4
29150	1.44	3.5455	0.1	6533.9
29151	1.53	3.4545	0.1	6575.4
29152	1.44	3.7273	0.1	6463.1
29153	1.53	3.6364	0.1	6507.8
29154	1.44	3.9091	0.1	6377.6
29155	1.53	3.8182	0.1	6422.6
29156	1.44	4.0909	0.1	6281.
29157	1.53	4.	0.1	6323.8
29158	1.44	4.2727	0.1	6177.6
29159	1.53	4.1818	0.1	6215.6
29160	1.44	4.4545	0.1	6071.6
29161	1.53	4.3636	0.1	6102.6
29162	1.44	4.6364	0.1	5968.
29163	1.53	4.5455	0.1	5989.7
29164	1.44	4.8182	0.1	5871.4
29165	1.53	4.7273	0.1	5881.6
29166	1.44	5.	0.1	5786.1
29167	1.53	4.9091	0.1	5783.1
29168	1.44	5.1818	0.1	5716.
29169	1.53	5.0909	0.1	5698.3
29170	1.44	5.3636	0.1	5663.8
29171	1.53	5.2727	0.1	5630.4
29172	1.44	5.5455	0.1	5631.6
29173	1.53	5.4545	0.1	5581.6
29174	1.44	5.7273	0.1	5629.2
29175	1.53	5.6364	0.1	5554.1
29176	1.53	5.8182	0.1	5565.
29177	1.44	5.9091	0.1	5579.4
29178	1.62	0.27273	0.1	5489.8
29179	1.71	0.18182	0.1	5397.5
29180	1.62	9.0909e-002	0.1	5434.4
29181	1.62	0.45455	0.1	5504.1
29182	1.71	0.36364	0.1	5399.8
29183	1.62	0.63636	0.1	5548.2
29184	1.71	0.54545	0.1	5440.8
29185	1.62	0.81818	0.1	5612.6
29186	1.71	0.72727	0.1	5504.4
29187	1.62	1.	0.1	5695.2
29188	1.71	0.90909	0.1	5588.5
29189	1.62	1.1818	0.1	5793.3
29190	1.71	1.0909	0.1	5690.3
29191	1.62	1.3636	0.1	5903.1
29192	1.71	1.2727	0.1	5806.6
29193	1.62	1.5455	0.1	6020.4
29194	1.71	1.4545	0.1	5933.1
29195	1.62	1.7273	0.1	6140.4
29196	1.71	1.6364	0.1	6064.8
29197	1.62	1.9091	0.1	6258.1
29198	1.71	1.8182	0.1	6196.5
29199	1.62	2.0909	0.1	6368.6
29200	1.71	2.	0.1	6323.
29201	1.62	2.2727	0.1	6466.9
29202	1.71	2.1818	0.1	6439.
29203	1.62	2.4545	0.1	6548.9
29204	1.71	2.3636	0.1	6539.3
29205	1.62	2.6364	0.1	6610.5
29206	1.71	2.5455	0.1	6619.3
29207	1.62	2.8182	0.1	6648.7
29208	1.71	2.7273	0.1	6675.1
29209	1.62	3.	0.1	6661.7
29210	1.71	2.9091	0.1	6703.7
29211	1.62	3.1818	0.1	6648.7
29212	1.71	3.0909	0.1	6703.7
29213	1.62	3.3636	0.1	6610.5
29214	1.71	3.2727	0.1	6675.1
29215	1.62	3.5455	0.1	6548.9
29216	1.71	3.4545	0.1	6619.3
29217	1.62	3.7273	0.1	6466.9
29218	1.71	3.6364	0.1	6539.3
29219	1.62	3.9091	0.1	6368.6
29220	1.71	3.8182	0.1	6439.
29221	1.62	4.0909	0.1	6258.1
29222	1.71	4.	0.1	6323.
29223	1.62	4.2727	0.1	6140.4
29224	1.71	4.1818	0.1	6196.5
29225	1.62	4.4545	0.1	6020.4
29226	1.71	4.3636	0.1	6064.8
29227	1.62	4.6364	0.1	5903.1
29228	1.71	4.5455	0.1	5933.1
29229	1.62	4.8182	0.1	5793.3
29230	1.71	4.7273	0.1	5806.6
29231	1.62	5.	0.1	5695.2
29232	1.71	4.9091	0.1	5690.3
29233	1.62	5.1818	0.1	5612.6
29234	1.71	5.0909	0.1	5588.5
29235	1.62	5.3636	0.1	5548.2
29236	1.71	5.2727	0.1	5504.4
29237	1.62	5.5455	0.1	5504.1
29238	1.71	5.4545	0.1	5440.8
29239	1.62	5.7273	0.1	5489.8
29240	1.71	5.6364	0.1	5399.8
29241	1.71	5.8182	0.1	5397.5
29242	1.62	5.9091	0.1	5434.4
29243	1.8	0.27273	0.1	5307.4
29244	1.89	0.18182	0.1	5185.1
29245	1.8	9.0909e-002	0.1	5243.5
29246	1.8	0.45455	0.1	5336.4
29247	1.89	0.36364	0.1	5202.1
29248	1.8	0.63636	0.1	5397.1
29249	1.89	0.54545	0.1	5260.3
29250	1.8	0.81818	0.1	5480.4
29251	1.89	0.72727	0.1	5344.6
29252	1.8	1.	0.1	5583.7
29253	1.89	0.90909	0.1	5452.2
29254	1.8	1.1818	0.1	5703.8
29255	1.89	1.0909	0.1	5580.1
29256	1.8	1.3636	0.1	5836.7
29257	1.89	1.2727	0.1	5724.2
29258	1.8	1.5455	0.1	5977.4
29259	1.89	1.4545	0.1	5879.4
29260	1.8	1.7273	0.1	6120.7
29261	1.89	1.6364	0.1	6040.2
29262	1.8	1.9091	0.1	6261.2
29263	1.89	1.8182	0.1	6200.6
29264	1.8	2.0909	0.1	6393.1
29265	1.89	2.	0.1	6354.4
29266	1.8	2.2727	0.1	6510.8
29267	1.89	2.1818	0.1	6495.5
29268	1.8	2.4545	0.1	6609.1
29269	1.89	2.3636	0.1	6617.7
29270	1.8	2.6364	0.1	6683.2
29271	1.89	2.5455	0.1	6715.2
29272	1.8	2.8182	0.1	6729.2
29273	1.89	2.7273	0.1	6783.2
29274	1.8	3.	0.1	6744.9
29275	1.89	2.9091	0.1	6818.1
29276	1.8	3.1818	0.1	6729.2
29277	1.89	3.0909	0.1	6818.1
29278	1.8	3.3636	0.1	6683.2
29279	1.89	3.2727	0.1	6783.2
29280	1.8	3.5455	0.1	6609.1
29281	1.89	3.4545	0.1	6715.2
29282	1.8	3.7273	0.1	6510.8
29283	1.89	3.6364	0.1	6617.7
29284	1.8	3.9091	0.1	6393.1
29285	1.89	3.8182	0.1	6495.5
29286	1.8	4.0909	0.1	6261.2
29287	1.89	4.	0.1	6354.4
29288	1.8	4.2727	0.1	6120.7
29289	1.89	4.1818	0.1	6200.6
29290	1.8	4.4545	0.1	5977.4
29291	1.89	4.3636	0.1	6040.2
29292	1.8	4.6364	0.1	5836.7
29293	1.89	4.5455	0.1	5879.4
29294	1.8	4.8182	0.1	5703.8
29295	1.89	4.7273	0.1	5724.2
29296	1.8	5.	0.1	5583.7
29297	1.89	4.9091	0.1	5580.1
29298	1.8	5.1818	0.1	5480.4
29299	1.89	5.0909	0.1	5452.2
29300	1.8	5.3636	0.1	5397.1
29301	1.89	5.2727	0.1	5344.6
29302	1.8	5.5455	0.1	5336.4
29303	1.89	5.4545	0.1	5260.3
29304	1.8	5.7273	0.1	5307.4
29305	1.89	5.6364	0.1	5202.1
29306	1.89	5.8182	0.1	5185.1
29307	1.8	5.9091	0.1	5243.5
29308	1.98	0.27273	0.1	5079.8
29309	2.07	0.18182	0.1	4925.
29310	1.98	9.0909e-002	0.1	5004.7
29311	1.98	0.45455	0.1	5126.
29312	2.07	0.36364	0.1	4957.9
29313	1.98	0.63636	0.1	5208.1
29314	2.07	0.54545	0.1	5037.1
29315	1.98	0.81818	0.1	5316.8
29316	2.07	0.72727	0.1	5147.7
29317	1.98	1.	0.1	5449.2
29318	2.07	0.90909	0.1	5286.6
29319	1.98	1.1818	0.1	5601.
29320	2.07	1.0909	0.1	5450.
29321	1.98	1.3636	0.1	5767.4
29322	2.07	1.2727	0.1	5632.7
29323	1.98	1.5455	0.1	5942.6
29324	2.07	1.4545	0.1	5828.6
29325	1.98	1.7273	0.1	6120.2
29326	2.07	1.6364	0.1	6030.8
29327	1.98	1.9091	0.1	6293.8
29328	2.07	1.8182	0.1	6231.8
29329	1.98	2.0909	0.1	6456.6
29330	2.07	2.	0.1	6424.2
29331	1.98	2.2727	0.1	6601.8
29332	2.07	2.1818	0.1	6600.3
29333	1.98	2.4545	0.1	6722.9
29334	2.07	2.3636	0.1	6752.6
29335	1.98	2.6364	0.1	6814.2
29336	2.07	2.5455	0.1	6873.8
29337	1.98	2.8182	0.1	6870.9
29338	2.07	2.7273	0.1	6958.1
29339	1.98	3.	0.1	6890.1
29340	2.07	2.9091	0.1	7001.2
29341	1.98	3.1818	0.1	6870.9
29342	2.07	3.0909	0.1	7001.2
29343	1.98	3.3636	0.1	6814.2
29344	2.07	3.2727	0.1	6958.1
29345	1.98	3.5455	0.1	6722.9
29346	2.07	3.4545	0.1	6873.8
29347	1.98	3.7273	0.1	6601.8
29348	2.07	3.6364	0.1	6752.6
29349	1.98	3.9091	0.1	6456.6
29350	2.07	3.8182	0.1	6600.3
29351	1.98	4.0909	0.1	6293.8
29352	2.07	4.	0.1	6424.2
29353	1.98	4.2727	0.1	6120.2
29354	2.07	4.1818	0.1	6231.8
29355	1.98	4.4545	0.1	5942.6
29356	2.07	4.3636	0.1	6030.8
29357	1.98	4.6364	0.1	5767.4
29358	2.07	4.5455	0.1	5828.6
29359	1.98	4.8182	0.1	5601.
29360	2.07	4.7273	0.1	5632.7
29361	1.98	5.	0.1	5449.2
29362	2.07	4.9091	0.1	5450.
29363	1.98	5.1818	0.1	5316.8
29364	2.07	5.0909	0.1	5286.6
29365	1.98	5.3636	0.1	5208.1
29366	2.07	5.2727	0.1	5147.7
29367	1.98	5.5455	0.1	5126.
29368	2.07	5.4545	0.1	5037.1
29369	1.98	5.7273	0.1	5079.8
29370	2.07	5.6364	0.1	4957.9
29371	2.07	5.8182	0.1	4925.
29372	1.98	5.9091	0.1	5004.7
29373	2.16	0.27273	0.1	4803.2
29374	2.25	0.18182	0.1	4612.9
29375	2.16	9.0909e-002	0.1	4714.5
29376	2.16	0.45455	0.1	4869.1
29377	2.25	0.36364	0.1	4662.9
29378	2.16	0.63636	0.1	4977.2
29379	2.25	0.54545	0.1	4766.6
29380	2.16	0.81818	0.1	5118.3
29381	2.25	0.72727	0.1	4909.4
29382	2.16	1.	0.1	5288.6
29383	2.25	0.90909	0.1	5087.8
29384	2.16	1.1818	0.1	5482.9
29385	2.25	1.0909	0.1	5297.2
29386	2.16	1.3636	0.1	5695.1
29387	2.25	1.2727	0.1	5531.1
29388	2.16	1.5455	0.1	5917.7
29389	2.25	1.4545	0.1	5781.8
29390	2.16	1.7273	0.1	6142.9
29391	2.25	1.6364	0.1	6040.4
29392	2.16	1.9091	0.1	6362.4
29393	2.25	1.8182	0.1	6297.1
29394	2.16	2.0909	0.1	6567.8
29395	2.25	2.	0.1	6542.4
29396	2.16	2.2727	0.1	6750.5
29397	2.25	2.1818	0.1	6766.
29398	2.16	2.4545	0.1	6902.4
29399	2.25	2.3636	0.1	6958.3
29400	2.16	2.6364	0.1	7016.2
29401	2.25	2.5455	0.1	7110.1
29402	2.16	2.8182	0.1	7086.6
29403	2.25	2.7273	0.1	7214.6
29404	2.16	3.	0.1	7110.4
29405	2.25	2.9091	0.1	7267.8
29406	2.16	3.1818	0.1	7086.6
29407	2.25	3.0909	0.1	7267.8
29408	2.16	3.3636	0.1	7016.2
29409	2.25	3.2727	0.1	7214.6
29410	2.16	3.5455	0.1	6902.4
29411	2.25	3.4545	0.1	7110.1
29412	2.16	3.7273	0.1	6750.5
29413	2.25	3.6364	0.1	6958.3
29414	2.16	3.9091	0.1	6567.8
29415	2.25	3.8182	0.1	6766.1
29416	2.16	4.0909	0.1	6362.4
29417	2.25	4.	0.1	6542.4
29418	2.16	4.2727	0.1	6142.9
29419	2.25	4.1818	0.1	6297.1
29420	2.16	4.4545	0.1	5917.7
29421	2.25	4.3636	0.1	6040.4
29422	2.16	4.6364	0.1	5695.1
29423	2.25	4.5455	0.1	5781.8
29424	2.16	4.8182	0.1	5482.9
29425	2.25	4.7273	0.1	5531.1
29426	2.16	5.	0.1	5288.6
29427	2.25	4.9091	0.1	5297.2
29428	2.16	5.1818	0.1	5118.3
29429	2.25	5.0909	0.1	5087.8
29430	2.16	5.3636	0.1	4977.2
29431	2.25	5.2727	0.1	4909.4
29432	2.16	5.5455	0.1	4869.1
29433	2.25	5.4545	0.1	4766.6
29434	2.16	5.7273	0.1	4803.2
29435	2.25	5.6364	0.1	4662.9
29436	2.25	5.8182	0.1	4612.9
29437	2.16	5.9091	0.1	4714.5
29438	2.34	0.27273	0.1	4472.9
29439	2.43	0.18182	0.1	4243.9
29440	2.34	9.0909e-002	0.1	4368.1
29441	2.34	0.45455	0.1	4560.8
29442	2.43	0.36364	0.1	4312.
29443	2.34	0.63636	0.1	4700.
29444	2.43	0.54545	0.1	4444.2
29445	2.34	0.81818	0.1	4880.8
29446	2.43	0.72727	0.1	4625.6
29447	2.34	1.	0.1	5098.8
29448	2.43	0.90909	0.1	4852.3
29449	2.34	1.1818	0.1	5347.9
29450	2.43	1.0909	0.1	5119.1
29451	2.34	1.3636	0.1	5620.2
29452	2.43	1.2727	0.1	5418.7
29453	2.34	1.5455	0.1	5906.3
29454	2.43	1.4545	0.1	5741.4
29455	2.34	1.7273	0.1	6195.8
29456	2.43	1.6364	0.1	6075.7
29457	2.34	1.9091	0.1	6477.7
29458	2.43	1.8182	0.1	6408.2
29459	2.34	2.0909	0.1	6740.6
29460	2.43	2.	0.1	6725.1
29461	2.34	2.2727	0.1	6973.
29462	2.43	2.1818	0.1	7012.3
29463	2.34	2.4545	0.1	7164.4
29464	2.43	2.3636	0.1	7255.9
29465	2.34	2.6364	0.1	7306.2
29466	2.43	2.5455	0.1	7444.6
29467	2.34	2.8182	0.1	7393.
29468	2.43	2.7273	0.1	7571.8
29469	2.34	3.	0.1	7422.1
29470	2.43	2.9091	0.1	7635.4
29471	2.34	3.1818	0.1	7393.
29472	2.43	3.0909	0.1	7635.4
29473	2.34	3.3636	0.1	7306.2
29474	2.43	3.2727	0.1	7571.8
29475	2.34	3.5455	0.1	7164.4
29476	2.43	3.4545	0.1	7444.6
29477	2.34	3.7273	0.1	6973.
29478	2.43	3.6364	0.1	7255.9
29479	2.34	3.9091	0.1	6740.6
29480	2.43	3.8182	0.1	7012.3
29481	2.34	4.0909	0.1	6477.7
29482	2.43	4.	0.1	6725.1
29483	2.34	4.2727	0.1	6195.8
29484	2.43	4.1818	0.1	6408.2
29485	2.34	4.4545	0.1	5906.3
29486	2.43	4.3636	0.1	6075.7
29487	2.34	4.6364	0.1	5620.2
29488	2.43	4.5455	0.1	5741.4
29489	2.34	4.8182	0.1	5347.9
29490	2.43	4.7273	0.1	5418.7
29491	2.34	5.	0.1	5098.8
29492	2.43	4.9091	0.1	5119.1
29493	2.34	5.1818	0.1	4880.8
29494	2.43	5.0909	0.1	4852.3
29495	2.34	5.3636	0.1	4700.
29496	2.43	5.2727	0.1	4625.6
29497	2.34	5.5455	0.1	4560.8
29498	2.43	5.4545	0.1	4444.2
29499	2.34	5.7273	0.1	4472.9
29500	2.43	5.6364	0.1	4312.
29501	2.43	5.8182	0.1	4243.9
29502	2.34	5.9091	0.1	4368.1
29503	2.52	0.27273	0.1	4083.5
29504	2.61	0.18182	0.1	3813.1
29505	2.52	9.0909e-002	0.1	3960.5
29506	2.52	0.45455	0.1	4196.3
29507	2.61	0.36364	0.1	3900.8
29508	2.52	0.63636	0.1	4372.1
29509	2.61	0.54545	0.1	4066.2
29510	2.52	0.81818	0.1	4600.8
29511	2.61	0.72727	0.1	4293.3
29512	2.52	1.	0.1	4877.3
29513	2.61	0.90909	0.1	4577.7
29514	2.52	1.1818	0.1	5194.8
29515	2.61	1.0909	0.1	4914.
29516	2.52	1.3636	0.1	5544.3
29517	2.61	1.2727	0.1	5295.1
29518	2.52	1.5455	0.1	5914.2
29519	2.61	1.4545	0.1	5711.
29520	2.52	1.7273	0.1	6290.2
29521	2.61	1.6364	0.1	6146.8
29522	2.52	1.9091	0.1	6656.7
29523	2.61	1.8182	0.1	6583.4
29524	2.52	2.0909	0.1	6996.8
29525	2.61	2.	0.1	6999.
29526	2.52	2.2727	0.1	7294.
29527	2.61	2.1818	0.1	7371.
29528	2.52	2.4545	0.1	7533.7
29529	2.61	2.3636	0.1	7677.9
29530	2.52	2.6364	0.1	7706.8
29531	2.61	2.5455	0.1	7905.9
29532	2.52	2.8182	0.1	7810.1
29533	2.61	2.7273	0.1	8052.5
29534	2.52	3.	0.1	7844.2
29535	2.61	2.9091	0.1	8123.1
29536	2.52	3.1818	0.1	7810.1
29537	2.61	3.0909	0.1	8123.1
29538	2.52	3.3636	0.1	7706.8
29539	2.61	3.2727	0.1	8052.5
29540	2.52	3.5455	0.1	7533.7
29541	2.61	3.4545	0.1	7905.9
29542	2.52	3.7273	0.1	7294.
29543	2.61	3.6364	0.1	7677.9
29544	2.52	3.9091	0.1	6996.8
29545	2.61	3.8182	0.1	7371.
29546	2.52	4.0909	0.1	6656.7
29547	2.61	4.	0.1	6999.
29548	2.52	4.2727	0.1	6290.2
29549	2.61	4.1818	0.1	6583.4
29550	2.52	4.4545	0.1	5914.2
29551	2.61	4.3636	0.1	6146.8
29552	2.52	4.6364	0.1	5544.3
29553	2.61	4.5455	0.1	5711.
29554	2.52	4.8182	0.1	5194.8
29555	2.61	4.7273	0.1	5295.1
29556	2.52	5.	0.1	4877.3
29557	2.61	4.9091	0.1	4914.
29558	2.52	5.1818	0.1	4600.8
29559	2.61	5.0909	0.1	4577.7
29560	2.52	5.3636	0.1	4372.1
29561	2.61	5.2727	0.1	4293.3
29562	2.52	5.5455	0.1	4196.3
29563	2.61	5.4545	0.1	4066.2
29564	2.52	5.7273	0.1	4083.5
29565	2.61	5.6364	0.1	3900.8
29566	2.61	5.8182	0.1	3813.1
29567	2.52	5.9091	0.1	3960.5
29568	2.7	0.27273	0.1	3631.2
29569	2.79	0.18182	0.1	3317.
29570	2.7	9.0909e-002	0.1	3487.5
29571	2.7	0.45455	0.1	3772.6
29572	2.79	0.36364	0.1	3427.8
29573	2.7	0.63636	0.1	3991.9
29574	2.79	0.54545	0.1	3633.6
29575	2.7	0.81818	0.1	4277.2
29576	2.79	0.72727	0.1	3914.9
29577	2.7	1.	0.1	4623.
29578	2.79	0.90909	0.1	4265.6
29579	2.7	1.1818	0.1	5023.2
29580	2.79	1.0909	0.1	4681.7
29581	2.7	1.3636	0.1	5469.8
29582	2.79	1.2727	0.1	5159.9
29583	2.7	1.5455	0.1	5949.7
29584	2.79	1.4545	0.1	5693.8
29585	2.7	1.7273	0.1	6443.7
29586	2.79	1.6364	0.1	6268.2
29587	2.7	1.9091	0.1	6927.3
29588	2.79	1.8182	0.1	6853.2
29589	2.7	2.0909	0.1	7373.
29590	2.79	2.	0.1	7410.7
29591	2.7	2.2727	0.1	7752.9
29592	2.79	2.1818	0.1	7897.5
29593	2.7	2.4545	0.1	8046.2
29594	2.79	2.3636	0.1	8276.3
29595	2.7	2.6364	0.1	8246.2
29596	2.79	2.5455	0.1	8532.3
29597	2.7	2.8182	0.1	8359.2
29598	2.79	2.7273	0.1	8679.7
29599	2.7	3.	0.1	8395.3
29600	2.79	2.9091	0.1	8744.9
29601	2.7	3.1818	0.1	8359.2
29602	2.79	3.0909	0.1	8744.9
29603	2.7	3.3636	0.1	8246.2
29604	2.79	3.2727	0.1	8679.7
29605	2.7	3.5455	0.1	8046.2
29606	2.79	3.4545	0.1	8532.3
29607	2.7	3.7273	0.1	7752.9
29608	2.79	3.6364	0.1	8276.3
29609	2.7	3.9091	0.1	7373.
29610	2.79	3.8182	0.1	7897.5
29611	2.7	4.0909	0.1	6927.3
29612	2.79	4.	0.1	7410.7
29613	2.7	4.2727	0.1	6443.7
29614	2.79	4.1818	0.1	6853.2
29615	2.7	4.4545	0.1	5949.7
29616	2.79	4.3636	0.1	6268.2
29617	2.7	4.6364	0.1	5469.8
29618	2.79	4.5455	0.1	5693.8
29619	2.7	4.8182	0.1	5023.2
29620	2.79	4.7273	0.1	5159.9
29621	2.7	5.	0.1	4623.
29622	2.79	4.9091	0.1	4681.7
29623	2.7	5.1818	0.1	4277.2
29624	2.79	5.0909	0.1	4265.6
29625	2.7	5.3636	0.1	3991.9
29626	2.79	5.2727	0.1	3914.9
29627	2.7	5.5455	0.1	3772.6
29628	2.79	5.4545	0.1	3633.6
29629	2.7	5.7273	0.1	3631.2
29630	2.79	5.6364	0.1	3427.8
29631	2.79	5.8182	0.1	3317.
29632	2.7	5.9091	0.1	3487.5
29633	2.88	0.27273	0.1	3114.8
29634	2.97	0.18182	0.1	2755.
29635	2.88	9.0909e-002	0.1	2946.6
29636	2.88	0.45455	0.1	3292.5
29637	2.97	0.36364	0.1	2898.4
29638	2.88	0.63636	0.1	3565.
29639	2.97	0.54545	0.1	3157.7
29640	2.88	0.81818	0.1	3915.9
29641	2.97	0.72727	0.1	3503.6
29642	2.88	1.	0.1	4339.5
29643	2.97	0.90909	0.1	3926.6
29644	2.88	1.1818	0.1	4834.
29645	2.97	1.0909	0.1	4426.5
29646	2.88	1.3636	0.1	5397.8
29647	2.97	1.2727	0.1	5010.7
29648	2.88	1.5455	0.1	6022.5
29649	2.97	1.4545	0.1	5689.4
29650	2.88	1.7273	0.1	6683.5
29651	2.97	1.6364	0.1	6455.1
29652	2.88	1.9091	0.1	7338.5
29653	2.97	1.8182	0.1	7269.8
29654	2.88	2.0909	0.1	7934.
29655	2.97	2.	0.1	8054.9
29656	2.88	2.2727	0.1	8416.7
29657	2.97	2.1818	0.1	8698.8
29658	2.88	2.4545	0.1	8755.3
29659	2.97	2.3636	0.1	9139.1
29660	2.88	2.6364	0.1	8957.1
29661	2.97	2.5455	0.1	9369.7
29662	2.88	2.8182	0.1	9056.1
29663	2.97	2.7273	0.1	9465.5
29664	2.88	3.	0.1	9085.
29665	2.97	2.9091	0.1	9495.9
29666	2.88	3.1818	0.1	9056.1
29667	2.97	3.0909	0.1	9495.9
29668	2.88	3.3636	0.1	8957.1
29669	2.97	3.2727	0.1	9465.5
29670	2.88	3.5455	0.1	8755.3
29671	2.97	3.4545	0.1	9369.7
29672	2.88	3.7273	0.1	8416.7
29673	2.97	3.6364	0.1	9139.1
29674	2.88	3.9091	0.1	7934.
29675	2.97	3.8182	0.1	8698.8
29676	2.88	4.0909	0.1	7338.5
29677	2.97	4.	0.1	8054.9
29678	2.88	4.2727	0.1	6683.5
29679	2.97	4.1818	0.1	7269.8
29680	2.88	4.4545	0.1	6022.5
29681	2.97	4.3636	0.1	6455.1
29682	2.88	4.6364	0.1	5397.8
29683	2.97	4.5455	0.1	5689.4
29684	2.88	4.8182	0.1	4834.
29685	2.97	4.7273	0.1	5010.7
29686	2.88	5.	0.1	4339.5
29687	2.97	4.9091	0.1	4426.5
29688	2.88	5.1818	0.1	3915.9
29689	2.97	5.0909	0.1	3926.6
29690	2.88	5.3636	0.1	3565.
29691	2.97	5.2727	0.1	3503.6
29692	2.88	5.5455	0.1	3292.5
29693	2.97	5.4545	0.1	3157.7
29694	2.88	5.7273	0.1	3114.8
29695	2.97	5.6364	0.1	2898.4
29696	2.97	5.8182	0.1	2755.
29697	2.88	5.9091	0.1	2946.6
29698	3.06	0.27273	0.1	2540.5
29699	3.15	0.18182	0.1	2131.3
29700	3.06	9.0909e-002	0.1	2338.1
29701	3.06	0.45455	0.1	2771.8
29702	3.15	0.36364	0.1	2334.8
29703	3.06	0.63636	0.1	3112.5
29704	3.15	0.54545	0.1	2672.9
29705	3.06	0.81818	0.1	3536.2
29706	3.15	0.72727	0.1	3094.1
29707	3.06	1.	0.1	4038.7
29708	3.15	0.90909	0.1	3587.2
29709	3.06	1.1818	0.1	4629.1
29710	3.15	1.0909	0.1	4161.4
29711	3.06	1.3636	0.1	5326.
29712	3.15	1.2727	0.1	4843.6
29713	3.06	1.5455	0.1	6139.4
29714	3.15	1.4545	0.1	5675.
29715	3.06	1.7273	0.1	7049.3
29716	3.15	1.6364	0.1	6708.5
29717	3.06	1.9091	0.1	7986.7
29718	3.15	1.8182	0.1	7942.2
29719	3.06	2.0909	0.1	8814.7
29720	3.15	2.	0.1	9118.
29721	3.06	2.2727	0.1	9411.1
29722	3.15	2.1818	0.1	10032
29723	3.06	2.4545	0.1	9740.3
29724	3.15	2.3636	0.1	10410
29725	3.06	2.6364	0.1	9864.9
29726	3.15	2.5455	0.1	10449
29727	3.06	2.8182	0.1	9892.8
29728	3.15	2.7273	0.1	10382
29729	3.06	3.	0.1	9894.7
29730	3.15	2.9091	0.1	10327
29731	3.06	3.1818	0.1	9892.8
29732	3.15	3.0909	0.1	10327
29733	3.06	3.3636	0.1	9864.9
29734	3.15	3.2727	0.1	10382
29735	3.06	3.5455	0.1	9740.3
29736	3.15	3.4545	0.1	10449
29737	3.06	3.7273	0.1	9411.1
29738	3.15	3.6364	0.1	10410
29739	3.06	3.9091	0.1	8814.7
29740	3.15	3.8182	0.1	10032
29741	3.06	4.0909	0.1	7986.7
29742	3.15	4.	0.1	9118.
29743	3.06	4.2727	0.1	7049.3
29744	3.15	4.1818	0.1	7942.2
29745	3.06	4.4545	0.1	6139.4
29746	3.15	4.3636	0.1	6708.5
29747	3.06	4.6364	0.1	5326.
29748	3.15	4.5455	0.1	5675.
29749	3.06	4.8182	0.1	4629.1
29750	3.15	4.7273	0.1	4843.6
29751	3.06	5.	0.1	4038.7
29752	3.15	4.9091	0.1	4161.4
29753	3.06	5.1818	0.1	3536.2
29754	3.15	5.0909	0.1	3587.2
29755	3.06	5.3636	0.1	3112.5
29756	3.15	5.2727	0.1	3094.1
29757	3.06	5.5455	0.1	2771.8
29758	3.15	5.4545	0.1	2672.9
29759	3.06	5.7273	0.1	2540.5
29760	3.15	5.6364	0.1	2334.8
29761	3.15	5.8182	0.1	2131.3
29762	3.06	5.9091	0.1	2338.1
29763	3.24	0.27273	0.1	1931.2
29764	3.33	0.18182	0.1	1477.7
29765	3.24	9.0909e-002	0.1	1665.1
29766	3.24	0.45455	0.1	2256.3
29767	3.33	0.36364	0.1	1827.3
29768	3.24	0.63636	0.1	2684.7
29769	3.33	0.54545	0.1	2285.
29770	3.24	0.81818	0.1	3179.9
29771	3.33	0.72727	0.1	2790.2
29772	3.24	1.	0.1	3747.6
29773	3.33	0.90909	0.1	3347.3
29774	3.24	1.1818	0.1	4416.
29775	3.33	1.0909	0.1	3981.8
29776	3.24	1.3636	0.1	5234.
29777	3.33	1.2727	0.1	4739.4
29778	3.24	1.5455	0.1	6276.8
29779	3.33	1.4545	0.1	5710.5
29780	3.24	1.7273	0.1	7617.6
29781	3.33	1.6364	0.1	7026.9
29782	3.24	1.9091	0.1	9062.7
29783	3.33	1.8182	0.1	9266.5
29784	3.24	2.0909	0.1	10316
29785	3.33	2.	0.1	11931
29786	3.24	2.2727	0.1	11004
29787	3.33	2.1818	0.1	12520
29788	3.24	2.4545	0.1	11096
29789	3.33	2.3636	0.1	12229
29790	3.24	2.6364	0.1	10949
29791	3.33	2.5455	0.1	11682
29792	3.24	2.8182	0.1	10802
29793	3.33	2.7273	0.1	11308
29794	3.24	3.	0.1	10747
29795	3.33	2.9091	0.1	11118
29796	3.24	3.1818	0.1	10802
29797	3.33	3.0909	0.1	11118
29798	3.24	3.3636	0.1	10949
29799	3.33	3.2727	0.1	11308
29800	3.24	3.5455	0.1	11096
29801	3.33	3.4545	0.1	11682
29802	3.24	3.7273	0.1	11004
29803	3.33	3.6364	0.1	12229
29804	3.24	3.9091	0.1	10316
29805	3.33	3.8182	0.1	12520
29806	3.24	4.0909	0.1	9062.7
29807	3.33	4.	0.1	11931
29808	3.24	4.2727	0.1	7617.6
29809	3.33	4.1818	0.1	9266.5
29810	3.24	4.4545	0.1	6276.8
29811	3.33	4.3636	0.1	7026.9
29812	3.24	4.6364	0.1	5234.
29813	3.33	4.5455	0.1	5710.5
29814	3.24	4.8182	0.1	4416.
29815	3.33	4.7273	0.1	4739.4
29816	3.24	5.	0.1	3747.6
29817	3.33	4.9091	0.1	3981.8
29818	3.24	5.1818	0.1	3179.9
29819	3.33	5.0909	0.1	3347.3
29820	3.24	5.3636	0.1	2684.7
29821	3.33	5.2727	0.1	2790.2
29822	3.24	5.5455	0.1	2256.3
29823	3.33	5.4545	0.1	2285.
29824	3.24	5.7273	0.1	1931.2
29825	3.33	5.6364	0.1	1827.3
29826	3.33	5.8182	0.1	1477.7
29827	3.24	5.9091	0.1	1665.1
29828	3.42	0.27273	0.1	1406.4
29829	3.51	0.18182	0.1	852.3
29830	3.42	9.0909e-002	0.1	953.62
29831	3.42	0.45455	0.1	1904.8
29832	3.51	0.36364	0.1	1322.5
29833	3.42	0.63636	0.1	2438.6
29834	3.51	0.54545	0.1	1781.4
29835	3.42	0.81818	0.1	3004.8
29836	3.51	0.72727	0.1	2238.6
29837	3.42	1.	0.1	3631.1
29838	3.51	0.90909	0.1	2717.5
29839	3.42	1.1818	0.1	4362.
29840	3.51	1.0909	0.1	3247.9
29841	3.42	1.3636	0.1	5285.6
29842	3.51	1.2727	0.1	3873.1
29843	3.42	1.5455	0.1	6560.8
29844	3.51	1.4545	0.1	4686.2
29845	3.42	1.7273	0.1	8749.1
29846	3.51	1.6364	0.1	5819.
29847	3.42	1.9091	0.1	12071
29848	3.51	1.8182	0.1	7877.7
29849	3.42	2.0909	0.1	14017
29850	3.51	2.	0.1	20587
29851	3.42	2.2727	0.1	13692
29852	3.51	2.1818	0.1	16347
29853	3.42	2.4545	0.1	12795
29854	3.51	2.3636	0.1	14072
29855	3.42	2.6364	0.1	12030
29856	3.51	2.5455	0.1	12726
29857	3.42	2.8182	0.1	11615
29858	3.51	2.7273	0.1	12005
29859	3.42	3.	0.1	11480
29860	3.51	2.9091	0.1	11683
29861	3.42	3.1818	0.1	11615
29862	3.51	3.0909	0.1	11683
29863	3.42	3.3636	0.1	12030
29864	3.51	3.2727	0.1	12005
29865	3.42	3.5455	0.1	12795
29866	3.51	3.4545	0.1	12726
29867	3.42	3.7273	0.1	13692
29868	3.51	3.6364	0.1	14072
29869	3.42	3.9091	0.1	14017
29870	3.51	3.8182	0.1	16347
29871	3.42	4.0909	0.1	12071
29872	3.51	4.	0.1	20587
29873	3.42	4.2727	0.1	8749.1
29874	3.51	4.1818	0.1	7877.7
29875	3.42	4.4545	0.1	6560.8
29876	3.51	4.3636	0.1	5819.
29877	3.42	4.6364	0.1	5285.6
29878	3.51	4.5455	0.1	4686.2
29879	3.42	4.8182	0.1	4362.
29880	3.51	4.7273	0.1	3873.1
29881	3.42	5.	0.1	3631.1
29882	3.51	4.9091	0.1	3247.9
29883	3.42	5.1818	0.1	3004.8
29884	3.51	5.0909	0.1	2717.5
29885	3.42	5.3636	0.1	2438.6
29886	3.51	5.2727	0.1	2238.6
29887	3.42	5.5455	0.1	1904.8
29888	3.51	5.4545	0.1	1781.4
29889	3.42	5.7273	0.1	1406.4
29890	3.51	5.6364	0.1	1322.5
29891	3.51	5.8182	0.1	852.3
29892	3.42	5.9091	0.1	953.62
29893	3.7667	3.7273	0.1	16699
29894	3.6833	3.8182	0.1	18511
29895	3.7667	3.9091	0.1	22233
29896	3.7667	3.5455	0.1	13941
29897	3.6833	3.6364	0.1	14809
29898	3.7667	3.3636	0.1	12636
29899	3.6833	3.4545	0.1	13103
29900	3.7667	3.1818	0.1	12007
29901	3.6833	3.2727	0.1	12226
29902	3.7667	3.	0.1	11819
29903	3.6833	3.0909	0.1	11850
29904	3.7667	2.8182	0.1	12007
29905	3.6833	2.9091	0.1	11850
29906	3.7667	2.6364	0.1	12636
29907	3.6833	2.7273	0.1	12226
29908	3.7667	2.4545	0.1	13941
29909	3.6833	2.5455	0.1	13103
29910	3.7667	2.2727	0.1	16699
29911	3.6833	2.3636	0.1	14809
29912	3.6833	2.1818	0.1	18511
29913	3.7667	2.0909	0.1	22233
29914	3.6	3.7273	0.1	16847
29915	3.6	3.9091	0.1	22695
29916	3.6	3.5455	0.1	14037
29917	3.6	3.3636	0.1	12710
29918	3.6	3.1818	0.1	12073
29919	3.6	3.	0.1	11882
29920	3.6	2.8182	0.1	12073
29921	3.6	2.6364	0.1	12710
29922	3.6	2.4545	0.1	14037
29923	3.6	2.2727	0.1	16847
29924	3.6	2.0909	0.1	22695
29925	3.7667	5.7273	0.1	665.54
29926	3.7667	5.9091	0.1	262.42
29927	3.7667	5.8182	5.e-002	115.87
29928	3.7667	5.5455	0.1	1005.9
29929	3.7667	5.6364	5.e-002	246.96
29930	3.7667	5.3636	0.1	1324.8
29931	3.7667	5.4545	5.e-002	376.87
29932	3.7667	5.1818	0.1	1656.9
29933	3.7667	5.2727	5.e-002	517.41
29934	3.7667	5.	0.1	2027.8
29935	3.7667	5.0909	5.e-002	675.98
29936	3.7667	4.8182	0.1	2469.4
29937	3.7667	4.9091	5.e-002	863.43
29938	3.7667	4.6364	0.1	3043.4
29939	3.7667	4.7273	5.e-002	1098.4
29940	3.7667	4.4545	0.1	3827.6
29941	3.7667	4.5455	5.e-002	1412.6
29942	3.7667	4.2727	0.1	5373.4
29943	3.7667	4.3636	5.e-002	1914.5
29944	3.7667	4.0909	0.1	14822
29945	3.7667	4.1818	5.e-002	3179.
29946	3.6833	4.	0.1	23932
29947	3.7667	4.	5.e-002	2738.9
29948	3.6	4.0909	0.1	15294
29949	3.6	4.	5.e-002	2999.3
29950	3.6	4.2727	0.1	5918.1
29951	3.6	4.1818	5.e-002	3495.4
29952	3.6	4.4545	0.1	4410.8
29953	3.6	4.3636	5.e-002	2159.
29954	3.6	4.6364	0.1	3639.
29955	3.6	4.5455	5.e-002	1625.4
29956	3.6	4.8182	0.1	3049.5
29957	3.6	4.7273	5.e-002	1282.7
29958	3.6	5.	0.1	2573.4
29959	3.6	4.9091	5.e-002	1022.3
29960	3.6	5.1818	0.1	2149.9
29961	3.6	5.0909	5.e-002	810.37
29962	3.6	5.3636	0.1	1747.9
29963	3.6	5.2727	5.e-002	627.29
29964	3.6	5.5455	0.1	1340.6
29965	3.6	5.4545	5.e-002	461.45
29966	3.6	5.7273	0.1	888.1
29967	3.6	5.6364	5.e-002	304.78
29968	3.6	5.9091	0.1	346.03
29969	3.6	5.8182	5.e-002	142.38
29970	3.7667	0.27273	0.1	665.54
29971	3.7667	9.0909e-002	0.1	262.42
29972	3.7667	0.18182	5.e-002	115.87
29973	3.7667	0.45455	0.1	1005.9
29974	3.7667	0.36364	5.e-002	246.96
29975	3.7667	0.63636	0.1	1324.8
29976	3.7667	0.54545	5.e-002	376.87
29977	3.7667	0.81818	0.1	1656.9
29978	3.7667	0.72727	5.e-002	517.41
29979	3.7667	1.	0.1	2027.8
29980	3.7667	0.90909	5.e-002	675.98
29981	3.7667	1.1818	0.1	2469.4
29982	3.7667	1.0909	5.e-002	863.43
29983	3.7667	1.3636	0.1	3043.4
29984	3.7667	1.2727	5.e-002	1098.4
29985	3.7667	1.5455	0.1	3827.6
29986	3.7667	1.4545	5.e-002	1412.6
29987	3.7667	1.7273	0.1	5373.4
29988	3.7667	1.6364	5.e-002	1914.5
29989	3.7667	1.9091	0.1	14822
29990	3.7667	1.8182	5.e-002	3179.
29991	3.6833	2.	0.1	23932
29992	3.7667	2.	5.e-002	2738.9
29993	3.6	1.9091	0.1	15294
29994	3.6	2.	5.e-002	2999.3
29995	3.6	1.7273	0.1	5918.1
29996	3.6	1.8182	5.e-002	3495.4
29997	3.6	1.5455	0.1	4410.8
29998	3.6	1.6364	5.e-002	2159.
29999	3.6	1.3636	0.1	3639.
30000	3.6	1.4545	5.e-002	1625.4
30001	3.6	1.1818	0.1	3049.5
30002	3.6	1.2727	5.e-002	1282.7
30003	3.6	1.	0.1	2573.4
30004	3.6	1.0909	5.e-002	1022.3
30005	3.6	0.81818	0.1	2149.9
30006	3.6	0.90909	5.e-002	810.38
30007	3.6	0.63636	0.1	1747.9
30008	3.6	0.72727	5.e-002	627.29
30009	3.6	0.45455	0.1	1340.6
30010	3.6	0.54545	5.e-002	461.45
30011	3.6	0.27273	0.1	888.1
30012	3.6	0.36364	5.e-002	304.78
30013	3.6	9.0909e-002	0.1	346.03
30014	3.6	0.18182	5.e-002	142.38
30015	3.8586	6.	0.1	346.78
30016	3.7667	6.	5.e-002	35.809
30017	4.0426	6.	0.1	962.4
30018	3.9506	6.	5.e-002	25.435
30019	4.2265	6.	0.1	1552.9
30020	4.1345	6.	5.e-002	66.956
30021	4.4105	6.	0.1	2075.2
30022	4.3185	6.	5.e-002	86.78
30023	4.5944	6.	0.1	2531.7
30024	4.5024	6.	5.e-002	96.008
30025	4.7783	6.	0.1	2921.4
30026	4.6864	6.	5.e-002	97.756
30027	4.9623	6.	0.1	3245.9
30028	4.8703	6.	5.e-002	94.916
30029	5.1462	6.	0.1	3509.6
30030	5.0542	6.	5.e-002	89.485
30031	5.3302	6.	0.1	3718.4
30032	5.2382	6.	5.e-002	82.919
30033	5.5141	6.	0.1	3879.4
30034	5.4221	6.	5.e-002	76.196
30035	5.698	6.	0.1	3999.5
30036	5.6061	6.	5.e-002	69.93
30037	5.882	6.	0.1	4085.5
30038	5.79	6.	5.e-002	64.461
30039	6.0659	6.	0.1	4143.1
30040	5.9739	6.	5.e-002	59.94
30041	6.2498	6.	0.1	4177.7
30042	6.1579	6.	5.e-002	56.393
30043	6.4338	6.	0.1	4193.5
30044	6.3418	6.	5.e-002	53.771
30045	6.6177	6.	0.1	4194.3
30046	6.5258	6.	5.e-002	51.983
30047	6.8017	6.	0.1	4183.
30048	6.7097	6.	5.e-002	50.916
30049	6.9856	6.	0.1	4162.2
30050	6.8936	6.	5.e-002	50.456
30051	7.1695	6.	0.1	4133.8
30052	7.0776	6.	5.e-002	50.491
30053	7.3535	6.	0.1	4099.5
30054	7.2615	6.	5.e-002	50.921
30055	7.5374	6.	0.1	4060.6
30056	7.4455	6.	5.e-002	51.656
30057	7.7214	6.	0.1	4018.
30058	7.6294	6.	5.e-002	52.618
30059	7.9053	6.	0.1	3972.7
30060	7.8133	6.	5.e-002	53.741
30061	8.0892	6.	0.1	3925.3
30062	7.9973	6.	5.e-002	54.972
30063	8.2732	6.	0.1	3876.3
30064	8.1812	6.	5.e-002	56.265
30065	8.4571	6.	0.1	3826.1
30066	8.3652	6.	5.e-002	57.585
30067	8.6411	6.	0.1	3775.1
30068	8.5491	6.	5.e-002	58.904
30069	8.825	6.	0.1	3723.4
30070	8.733	6.	5.e-002	60.2
30071	9.0089	6.	0.1	3671.3
30072	8.917	6.	5.e-002	61.456
30073	9.1929	6.	0.1	3618.9
30074	9.1009	6.	5.e-002	62.66
30075	9.3768	6.	0.1	3566.5
30076	9.2848	6.	5.e-002	63.802
30077	9.5608	6.	0.1	3513.9
30078	9.4688	6.	5.e-002	64.878
30079	9.7447	6.	0.1	3461.4
30080	9.6527	6.	5.e-002	65.883
30081	9.9286	6.	0.1	3409.
30082	9.8367	6.	5.e-002	66.816
30083	10.113	6.	0.1	3356.6
30084	10.021	6.	5.e-002	67.677
30085	10.297	6.	0.1	3304.5
30086	10.205	6.	5.e-002	68.465
30087	10.48	6.	0.1	3252.5
30088	10.388	6.	5.e-002	69.183
30089	10.664	6.	0.1	3200.7
30090	10.572	6.	5.e-002	69.833
30091	10.848	6.	0.1	3149.1
30092	10.756	6.	5.e-002	70.417
30093	11.032	6.	0.1	3097.7
30094	10.94	6.	5.e-002	70.939
30095	11.216	6.	0.1	3046.5
30096	11.124	6.	5.e-002	71.401
30097	11.4	6.	0.1	2995.6
30098	11.308	6.	5.e-002	71.806
30099	11.584	6.	0.1	2944.9
30100	11.492	6.	5.e-002	72.158
30101	11.768	6.	0.1	2894.4
30102	11.676	6.	5.e-002	72.459
30103	11.952	6.	0.1	2844.1
30104	11.86	6.	5.e-002	72.712
30105	12.136	6.	0.1	2794.1
30106	12.044	6.	5.e-002	72.921
30107	12.32	6.	0.1	2744.3
30108	12.228	6.	5.e-002	73.088
30109	12.504	6.	0.1	2694.7
30110	12.412	6.	5.e-002	73.216
30111	12.688	6.	0.1	2645.4
30112	12.596	6.	5.e-002	73.307
30113	12.872	6.	0.1	2596.2
30114	12.78	6.	5.e-002	73.363
30115	13.056	6.	0.1	2547.3
30116	12.964	6.	5.e-002	73.387
30117	13.24	6.	0.1	2498.6
30118	13.148	6.	5.e-002	73.38
30119	13.423	6.	0.1	2450.1
30120	13.332	6.	5.e-002	73.345
30121	13.607	6.	0.1	2401.9
30122	13.515	6.	5.e-002	73.283
30123	13.791	6.	0.1	2353.8
30124	13.699	6.	5.e-002	73.196
30125	13.975	6.	0.1	2306.
30126	13.883	6.	5.e-002	73.085
30127	14.159	6.	0.1	2258.4
30128	14.067	6.	5.e-002	72.951
30129	14.343	6.	0.1	2211.
30130	14.251	6.	5.e-002	72.795
30131	14.527	6.	0.1	2163.8
30132	14.435	6.	5.e-002	72.619
30133	14.711	6.	0.1	2116.8
30134	14.619	6.	5.e-002	72.424
30135	14.895	6.	0.1	2070.
30136	14.803	6.	5.e-002	72.209
30137	15.079	6.	0.1	2023.4
30138	14.987	6.	5.e-002	71.976
30139	15.263	6.	0.1	1977.
30140	15.171	6.	5.e-002	71.726
30141	15.447	6.	0.1	1930.9
30142	15.355	6.	5.e-002	71.458
30143	15.631	6.	0.1	1884.9
30144	15.539	6.	5.e-002	71.173
30145	15.815	6.	0.1	1839.1
30146	15.723	6.	5.e-002	70.872
30147	15.999	6.	0.1	1793.6
30148	15.907	6.	5.e-002	70.554
30149	16.183	6.	0.1	1748.2
30150	16.091	6.	5.e-002	70.219
30151	16.367	6.	0.1	1703.
30152	16.275	6.	5.e-002	69.867
30153	16.55	6.	0.1	1658.
30154	16.458	6.	5.e-002	69.499
30155	16.734	6.	0.1	1613.3
30156	16.642	6.	5.e-002	69.113
30157	16.918	6.	0.1	1568.7
30158	16.826	6.	5.e-002	68.709
30159	17.102	6.	0.1	1524.3
30160	17.01	6.	5.e-002	68.288
30161	17.286	6.	0.1	1480.1
30162	17.194	6.	5.e-002	67.847
30163	17.47	6.	0.1	1436.1
30164	17.378	6.	5.e-002	67.386
30165	17.654	6.	0.1	1392.3
30166	17.562	6.	5.e-002	66.905
30167	17.838	6.	0.1	1348.6
30168	17.746	6.	5.e-002	66.403
30169	18.022	6.	0.1	1305.2
30170	17.93	6.	5.e-002	65.877
30171	18.206	6.	0.1	1261.9
30172	18.114	6.	5.e-002	65.327
30173	18.39	6.	0.1	1218.8
30174	18.298	6.	5.e-002	64.752
30175	18.574	6.	0.1	1175.9
30176	18.482	6.	5.e-002	64.149
30177	18.758	6.	0.1	1133.2
30178	18.666	6.	5.e-002	63.518
30179	18.942	6.	0.1	1090.6
30180	18.85	6.	5.e-002	62.855
30181	19.126	6.	0.1	1048.3
30182	19.034	6.	5.e-002	62.159
30183	19.31	6.	0.1	1006.
30184	19.218	6.	5.e-002	61.427
30185	19.493	6.	0.1	964.01
30186	19.402	6.	5.e-002	60.657
30187	19.677	6.	0.1	922.14
30188	19.585	6.	5.e-002	59.845
30189	19.861	6.	0.1	880.43
30190	19.769	6.	5.e-002	58.989
30191	20.045	6.	0.1	838.88
30192	19.953	6.	5.e-002	58.086
30193	20.229	6.	0.1	797.49
30194	20.137	6.	5.e-002	57.13
30195	20.413	6.	0.1	756.26
30196	20.321	6.	5.e-002	56.119
30197	20.597	6.	0.1	715.19
30198	20.505	6.	5.e-002	55.046
30199	20.781	6.	0.1	674.27
30200	20.689	6.	5.e-002	53.908
30201	20.965	6.	0.1	633.5
30202	20.873	6.	5.e-002	52.699
30203	21.149	6.	0.1	592.88
30204	21.057	6.	5.e-002	51.412
30205	21.333	6.	0.1	552.42
30206	21.241	6.	5.e-002	50.04
30207	21.517	6.	0.1	512.11
30208	21.425	6.	5.e-002	48.576
30209	21.701	6.	0.1	471.97
30210	21.609	6.	5.e-002	47.011
30211	21.885	6.	0.1	431.99
30212	21.793	6.	5.e-002	45.333
30213	22.069	6.	0.1	392.19
30214	21.977	6.	5.e-002	43.532
30215	22.253	6.	0.1	352.58
30216	22.161	6.	5.e-002	41.593
30217	22.437	6.	0.1	313.18
30218	22.345	6.	5.e-002	39.499
30219	22.62	6.	0.1	274.04
30220	22.528	6.	5.e-002	37.231
30221	22.804	6.	0.1	235.19
30222	22.712	6.	5.e-002	34.762
30223	22.988	6.	0.1	196.71
30224	22.896	6.	5.e-002	32.058
30225	23.172	6.	0.1	158.69
30226	23.08	6.	5.e-002	29.073
30227	23.356	6.	0.1	121.31
30228	23.264	6.	5.e-002	25.742
30229	23.54	6.	0.1	84.883
30230	23.448	6.	5.e-002	21.958
30231	23.724	6.	0.1	50.06
30232	23.632	6.	5.e-002	17.524
30233	23.908	6.	0.1	18.568
30234	23.816	6.	5.e-002	11.809
30235	24.	5.9091	0.1	5.869
30236	24.	6.	5.e-002	4.5342
30237	24.	5.7273	0.1	6.9102
30238	24.	5.8182	5.e-002	4.0364
30239	24.	5.5455	0.1	7.1644
30240	24.	5.6364	5.e-002	4.6267
30241	24.	5.3636	0.1	7.2464
30242	24.	5.4545	5.e-002	5.1387
30243	24.	5.1818	0.1	7.2558
30244	24.	5.2727	5.e-002	5.416
30245	24.	5.	0.1	7.2255
30246	24.	5.0909	5.e-002	5.5419
30247	24.	4.8182	0.1	7.1806
30248	24.	4.9091	5.e-002	5.5632
30249	24.	4.6364	0.1	7.1293
30250	24.	4.7273	5.e-002	5.5113
30251	24.	4.4545	0.1	7.0775
30252	24.	4.5455	5.e-002	5.4095
30253	24.	4.2727	0.1	7.0282
30254	24.	4.3636	5.e-002	5.2757
30255	24.	4.0909	0.1	6.9834
30256	24.	4.1818	5.e-002	5.1244
30257	24.	3.9091	0.1	6.9442
30258	24.	4.	5.e-002	4.9683
30259	24.	3.7273	0.1	6.9114
30260	24.	3.8182	5.e-002	4.8186
30261	24.	3.5455	0.1	6.8855
30262	24.	3.6364	5.e-002	4.6851
30263	24.	3.3636	0.1	6.8668
30264	24.	3.4545	5.e-002	4.5764
30265	24.	3.1818	0.1	6.8555
30266	24.	3.2727	5.e-002	4.4996
30267	24.	3.	0.1	6.8518
30268	24.	3.0909	5.e-002	4.4599
30269	24.	2.8182	0.1	6.8555
30270	24.	2.9091	5.e-002	4.4599
30271	24.	2.6364	0.1	6.8668
30272	24.	2.7273	5.e-002	4.4996
30273	24.	2.4545	0.1	6.8855
30274	24.	2.5455	5.e-002	4.5764
30275	24.	2.2727	0.1	6.9114
30276	24.	2.3636	5.e-002	4.6851
30277	24.	2.0909	0.1	6.9442
30278	24.	2.1818	5.e-002	4.8186
30279	24.	1.9091	0.1	6.9834
30280	24.	2.	5.e-002	4.9683
30281	24.	1.7273	0.1	7.0282
30282	24.	1.8182	5.e-002	5.1244
30283	24.	1.5455	0.1	7.0775
30284	24.	1.6364	5.e-002	5.2757
30285	24.	1.3636	0.1	7.1293
30286	24.	1.4545	5.e-002	5.4095
30287	24.	1.1818	0.1	7.1806
30288	24.	1.2727	5.e-002	5.5113
30289	24.	1.	0.1	7.2255
30290	24.	1.0909	5.e-002	5.5632
30291	24.	0.81818	0.1	7.2558
30292	24.	0.90909	5.e-002	5.5419
30293	24.	0.63636	0.1	7.2464
30294	24.	0.72727	5.e-002	5.416
30295	24.	0.45455	0.1	7.1644
30296	24.	0.54545	5.e-002	5.1387
30297	24.	0.27273	0.1	6.9102
30298	24.	0.36364	5.e-002	4.6267
30299	24.	9.0909e-002	0.1	5.869
30300	24.	0.18182	5.e-002	4.0364
30301	2.3842e-015	0.27273	0.1	3694.7
30302	7.9472e-016	9.0909e-002	0.1	1560.4
30303	1.6109e-015	0.18182	5.e-002	83.629
30304	3.9736e-015	0.45455	0.1	5296.5
30305	3.2219e-015	0.36364	5.e-002	55.786
30306	5.563e-015	0.63636	0.1	6125.2
30307	4.8328e-015	0.54545	5.e-002	51.258
30308	7.1525e-015	0.81818	0.1	6645.4
30309	6.4438e-015	0.72727	5.e-002	45.626
30310	8.7419e-015	1.	0.1	6995.4
30311	8.0547e-015	0.90909	5.e-002	39.157
30312	1.0331e-014	1.1818	0.1	7241.1
30313	9.6657e-015	1.0909	5.e-002	33.296
30314	1.1921e-014	1.3636	0.1	7416.5
30315	1.1277e-014	1.2727	5.e-002	28.143
30316	1.351e-014	1.5455	0.1	7541.9
30317	1.2888e-014	1.4545	5.e-002	23.552
30318	1.51e-014	1.7273	0.1	7630.8
30319	1.4498e-014	1.6364	5.e-002	19.447
30320	1.6689e-014	1.9091	0.1	7692.8
30321	1.6109e-014	1.8182	5.e-002	15.795
30322	1.8279e-014	2.0909	0.1	7734.9
30323	1.772e-014	2.	5.e-002	12.59
30324	1.9868e-014	2.2727	0.1	7762.6
30325	1.9331e-014	2.1818	5.e-002	9.8499
30326	2.1457e-014	2.4545	0.1	7780.1
30327	2.0942e-014	2.3636	5.e-002	7.6039
30328	2.3047e-014	2.6364	0.1	7790.4
30329	2.2553e-014	2.5455	5.e-002	5.884
30330	2.4636e-014	2.8182	0.1	7795.7
30331	2.4164e-014	2.7273	5.e-002	4.7193
30332	2.6226e-014	3.	0.1	7797.3
30333	2.5775e-014	2.9091	5.e-002	4.131
30334	2.7815e-014	3.1818	0.1	7795.7
30335	2.7386e-014	3.0909	5.e-002	4.131
30336	2.9405e-014	3.3636	0.1	7790.4
30337	2.8997e-014	3.2727	5.e-002	4.7194
30338	3.0994e-014	3.5455	0.1	7780.1
30339	3.0608e-014	3.4545	5.e-002	5.8841
30340	3.2583e-014	3.7273	0.1	7762.6
30341	3.2219e-014	3.6364	5.e-002	7.6041
30342	3.4173e-014	3.9091	0.1	7734.9
30343	3.383e-014	3.8182	5.e-002	9.8501
30344	3.5762e-014	4.0909	0.1	7692.8
30345	3.5441e-014	4.	5.e-002	12.59
30346	3.7352e-014	4.2727	0.1	7630.8
30347	3.7052e-014	4.1818	5.e-002	15.795
30348	3.8941e-014	4.4545	0.1	7541.9
30349	3.8663e-014	4.3636	5.e-002	19.448
30350	4.0531e-014	4.6364	0.1	7416.5
30351	4.0274e-014	4.5455	5.e-002	23.552
30352	4.212e-014	4.8182	0.1	7241.1
30353	4.1885e-014	4.7273	5.e-002	28.144
30354	4.371e-014	5.	0.1	6995.4
30355	4.3495e-014	4.9091	5.e-002	33.296
30356	4.5299e-014	5.1818	0.1	6645.4
30357	4.5106e-014	5.0909	5.e-002	39.157
30358	4.6888e-014	5.3636	0.1	6125.2
30359	4.6717e-014	5.2727	5.e-002	45.627
30360	4.8478e-014	5.5455	0.1	5296.5
30361	4.8328e-014	5.4545	5.e-002	51.259
30362	5.0067e-014	5.7273	0.1	3694.7
30363	4.9939e-014	5.6364	5.e-002	55.786
30364	5.1657e-014	5.9091	0.1	1560.4
30365	5.155e-014	5.8182	5.e-002	83.629
30366	23.908	0.	0.1	18.568
30367	24.	0.	5.e-002	4.5342
30368	23.724	0.	0.1	50.06
30369	23.816	0.	5.e-002	11.809
30370	23.54	0.	0.1	84.883
30371	23.632	0.	5.e-002	17.524
30372	23.356	0.	0.1	121.31
30373	23.448	0.	5.e-002	21.958
30374	23.172	0.	0.1	158.69
30375	23.264	0.	5.e-002	25.742
30376	22.988	0.	0.1	196.71
30377	23.08	0.	5.e-002	29.073
30378	22.804	0.	0.1	235.19
30379	22.896	0.	5.e-002	32.058
30380	22.62	0.	0.1	274.04
30381	22.712	0.	5.e-002	34.762
30382	22.437	0.	0.1	313.18
30383	22.528	0.	5.e-002	37.231
30384	22.253	0.	0.1	352.58
30385	22.345	0.	5.e-002	39.499
30386	22.069	0.	0.1	392.19
30387	22.161	0.	5.e-002	41.593
30388	21.885	0.	0.1	431.99
30389	21.977	0.	5.e-002	43.532
30390	21.701	0.	0.1	471.97
30391	21.793	0.	5.e-002	45.333
30392	21.517	0.	0.1	512.11
30393	21.609	0.	5.e-002	47.011
30394	21.333	0.	0.1	552.42
30395	21.425	0.	5.e-002	48.576
30396	21.149	0.	0.1	592.88
30397	21.241	0.	5.e-002	50.04
30398	20.965	0.	0.1	633.5
30399	21.057	0.	5.e-002	51.412
30400	20.781	0.	0.1	674.27
30401	20.873	0.	5.e-002	52.699
30402	20.597	0.	0.1	715.19
30403	20.689	0.	5.e-002	53.908
30404	20.413	0.	0.1	756.26
30405	20.505	0.	5.e-002	55.046
30406	20.229	0.	0.1	797.49
30407	20.321	0.	5.e-002	56.118
30408	20.045	0.	0.1	838.88
30409	20.137	0.	5.e-002	57.13
30410	19.861	0.	0.1	880.43
30411	19.953	0.	5.e-002	58.086
30412	19.677	0.	0.1	922.14
30413	19.769	0.	5.e-002	58.989
30414	19.493	0.	0.1	964.01
30415	19.585	0.	5.e-002	59.845
30416	19.31	0.	0.1	1006.
30417	19.402	0.	5.e-002	60.657
30418	19.126	0.	0.1	1048.3
30419	19.218	0.	5.e-002	61.427
30420	18.942	0.	0.1	1090.6
30421	19.034	0.	5.e-002	62.159
30422	18.758	0.	0.1	1133.2
30423	18.85	0.	5.e-002	62.855
30424	18.574	0.	0.1	1175.9
30425	18.666	0.	5.e-002	63.518
30426	18.39	0.	0.1	1218.8
30427	18.482	0.	5.e-002	64.149
30428	18.206	0.	0.1	1261.9
30429	18.298	0.	5.e-002	64.752
30430	18.022	0.	0.1	1305.2
30431	18.114	0.	5.e-002	65.327
30432	17.838	0.	0.1	1348.6
30433	17.93	0.	5.e-002	65.877
30434	17.654	0.	0.1	1392.3
30435	17.746	0.	5.e-002	66.402
30436	17.47	0.	0.1	1436.1
30437	17.562	0.	5.e-002	66.905
30438	17.286	0.	0.1	1480.1
30439	17.378	0.	5.e-002	67.386
30440	17.102	0.	0.1	1524.3
30441	17.194	0.	5.e-002	67.847
30442	16.918	0.	0.1	1568.7
30443	17.01	0.	5.e-002	68.287
30444	16.734	0.	0.1	1613.3
30445	16.826	0.	5.e-002	68.709
30446	16.55	0.	0.1	1658.
30447	16.642	0.	5.e-002	69.113
30448	16.367	0.	0.1	1703.
30449	16.458	0.	5.e-002	69.499
30450	16.183	0.	0.1	1748.2
30451	16.275	0.	5.e-002	69.867
30452	15.999	0.	0.1	1793.6
30453	16.091	0.	5.e-002	70.219
30454	15.815	0.	0.1	1839.1
30455	15.907	0.	5.e-002	70.553
30456	15.631	0.	0.1	1884.9
30457	15.723	0.	5.e-002	70.872
30458	15.447	0.	0.1	1930.9
30459	15.539	0.	5.e-002	71.173
30460	15.263	0.	0.1	1977.
30461	15.355	0.	5.e-002	71.458
30462	15.079	0.	0.1	2023.4
30463	15.171	0.	5.e-002	71.726
30464	14.895	0.	0.1	2070.
30465	14.987	0.	5.e-002	71.976
30466	14.711	0.	0.1	2116.8
30467	14.803	0.	5.e-002	72.209
30468	14.527	0.	0.1	2163.8
30469	14.619	0.	5.e-002	72.423
30470	14.343	0.	0.1	2211.
30471	14.435	0.	5.e-002	72.619
30472	14.159	0.	0.1	2258.4
30473	14.251	0.	5.e-002	72.795
30474	13.975	0.	0.1	2306.
30475	14.067	0.	5.e-002	72.951
30476	13.791	0.	0.1	2353.8
30477	13.883	0.	5.e-002	73.084
30478	13.607	0.	0.1	2401.9
30479	13.699	0.	5.e-002	73.196
30480	13.423	0.	0.1	2450.1
30481	13.515	0.	5.e-002	73.283
30482	13.24	0.	0.1	2498.6
30483	13.332	0.	5.e-002	73.345
30484	13.056	0.	0.1	2547.3
30485	13.148	0.	5.e-002	73.38
30486	12.872	0.	0.1	2596.2
30487	12.964	0.	5.e-002	73.387
30488	12.688	0.	0.1	2645.4
30489	12.78	0.	5.e-002	73.363
30490	12.504	0.	0.1	2694.7
30491	12.596	0.	5.e-002	73.306
30492	12.32	0.	0.1	2744.3
30493	12.412	0.	5.e-002	73.216
30494	12.136	0.	0.1	2794.1
30495	12.228	0.	5.e-002	73.088
30496	11.952	0.	0.1	2844.1
30497	12.044	0.	5.e-002	72.921
30498	11.768	0.	0.1	2894.4
30499	11.86	0.	5.e-002	72.712
30500	11.584	0.	0.1	2944.9
30501	11.676	0.	5.e-002	72.458
30502	11.4	0.	0.1	2995.6
30503	11.492	0.	5.e-002	72.157
30504	11.216	0.	0.1	3046.5
30505	11.308	0.	5.e-002	71.806
30506	11.032	0.	0.1	3097.7
30507	11.124	0.	5.e-002	71.401
30508	10.848	0.	0.1	3149.1
30509	10.94	0.	5.e-002	70.939
30510	10.664	0.	0.1	3200.7
30511	10.756	0.	5.e-002	70.417
30512	10.48	0.	0.1	3252.5
30513	10.572	0.	5.e-002	69.833
30514	10.297	0.	0.1	3304.5
30515	10.388	0.	5.e-002	69.183
30516	10.113	0.	0.1	3356.6
30517	10.205	0.	5.e-002	68.465
30518	9.9286	0.	0.1	3409.
30519	10.021	0.	5.e-002	67.676
30520	9.7447	0.	0.1	3461.4
30521	9.8367	0.	5.e-002	66.816
30522	9.5608	0.	0.1	3513.9
30523	9.6527	0.	5.e-002	65.883
30524	9.3768	0.	0.1	3566.5
30525	9.4688	0.	5.e-002	64.878
30526	9.1929	0.	0.1	3618.9
30527	9.2848	0.	5.e-002	63.802
30528	9.0089	0.	0.1	3671.3
30529	9.1009	0.	5.e-002	62.66
30530	8.825	0.	0.1	3723.4
30531	8.917	0.	5.e-002	61.456
30532	8.6411	0.	0.1	3775.1
30533	8.733	0.	5.e-002	60.2
30534	8.4571	0.	0.1	3826.1
30535	8.5491	0.	5.e-002	58.904
30536	8.2732	0.	0.1	3876.3
30537	8.3652	0.	5.e-002	57.585
30538	8.0892	0.	0.1	3925.3
30539	8.1812	0.	5.e-002	56.265
30540	7.9053	0.	0.1	3972.7
30541	7.9973	0.	5.e-002	54.971
30542	7.7214	0.	0.1	4018.
30543	7.8133	0.	5.e-002	53.741
30544	7.5374	0.	0.1	4060.6
30545	7.6294	0.	5.e-002	52.617
30546	7.3535	0.	0.1	4099.5
30547	7.4455	0.	5.e-002	51.656
30548	7.1695	0.	0.1	4133.8
30549	7.2615	0.	5.e-002	50.921
30550	6.9856	0.	0.1	4162.2
30551	7.0776	0.	5.e-002	50.491
30552	6.8017	0.	0.1	4183.
30553	6.8936	0.	5.e-002	50.455
30554	6.6177	0.	0.1	4194.3
30555	6.7097	0.	5.e-002	50.915
30556	6.4338	0.	0.1	4193.5
30557	6.5258	0.	5.e-002	51.982
30558	6.2498	0.	0.1	4177.7
30559	6.3418	0.	5.e-002	53.771
30560	6.0659	0.	0.1	4143.1
30561	6.1579	0.	5.e-002	56.393
30562	5.882	0.	0.1	4085.5
30563	5.9739	0.	5.e-002	59.94
30564	5.698	0.	0.1	3999.5
30565	5.79	0.	5.e-002	64.461
30566	5.5141	0.	0.1	3879.4
30567	5.6061	0.	5.e-002	69.93
30568	5.3302	0.	0.1	3718.4
30569	5.4221	0.	5.e-002	76.196
30570	5.1462	0.	0.1	3509.6
30571	5.2382	0.	5.e-002	82.918
30572	4.9623	0.	0.1	3245.9
30573	5.0542	0.	5.e-002	89.485
30574	4.7783	0.	0.1	2921.4
30575	4.8703	0.	5.e-002	94.916
30576	4.5944	0.	0.1	2531.7
30577	4.6864	0.	5.e-002	97.756
30578	4.4105	0.	0.1	2075.2
30579	4.5024	0.	5.e-002	96.008
30580	4.2265	0.	0.1	1552.9
30581	4.3185	0.	5.e-002	86.78
30582	4.0426	0.	0.1	962.4
30583	4.1345	0.	5.e-002	66.956
30584	3.8586	0.	0.1	346.78
30585	3.9506	0.	5.e-002	25.435
30586	3.7667	0.	5.e-002	35.809
30587	3.51	-5.9143e-032	0.1	429.81
30588	3.6	-6.0659e-032	5.e-002	45.664
30589	3.33	-5.611e-032	0.1	1194.5
30590	3.42	0.	5.e-002	44.161
30591	3.15	-5.3077e-032	0.1	1922.7
30592	3.24	0.	5.e-002	109.92
30593	2.97	-5.0044e-032	0.1	2573.5
30594	3.06	0.	5.e-002	149.98
30595	2.79	-4.7011e-032	0.1	3155.3
30596	2.88	0.	5.e-002	178.51
30597	2.61	-4.3978e-032	0.1	3668.8
30598	2.7	0.	5.e-002	199.26
30599	2.43	-4.0945e-032	0.1	4115.3
30600	2.52	0.	5.e-002	215.72
30601	2.25	-3.7912e-032	0.1	4498.
30602	2.34	0.	5.e-002	230.33
30603	2.07	-3.4879e-032	0.1	4821.3
30604	2.16	0.	5.e-002	244.98
30605	1.89	-3.1846e-032	0.1	5089.9
30606	1.98	0.	5.e-002	261.08
30607	1.71	-2.8813e-032	0.1	5307.8
30608	1.8	0.	5.e-002	279.69
30609	1.53	-2.578e-032	0.1	5477.6
30610	1.62	0.	5.e-002	301.64
30611	1.35	-2.2747e-032	0.1	5599.4
30612	1.44	0.	5.e-002	327.67
30613	1.17	-1.9714e-032	0.1	5670.
30614	1.26	0.	5.e-002	358.52
30615	0.99	-1.6681e-032	0.1	5679.9
30616	1.08	0.	5.e-002	395.15
30617	0.81	-1.3648e-032	0.1	5610.4
30618	0.9	0.	5.e-002	438.79
30619	0.63	-1.0615e-032	0.1	5419.8
30620	0.72	0.	5.e-002	491.98
30621	0.45	-7.5824e-033	0.1	5026.4
30622	0.54	0.	5.e-002	558.09
30623	0.27	-4.5494e-033	0.1	4173.
30624	0.36	0.	5.e-002	649.62
30625	9.e-002	-1.5165e-033	0.1	2026.
30626	0.18	0.	5.e-002	832.87
30627	0.	0.	5.e-002	1117.5
30628	9.e-002	6.	0.1	2026.
30629	5.2451e-014	6.	5.e-002	1117.5
30630	0.27	6.	0.1	4173.
30631	0.18	6.	5.e-002	832.87
30632	0.45	6.	0.1	5026.4
30633	0.36	6.	5.e-002	649.62
30634	0.63	6.	0.1	5419.8
30635	0.54	6.	5.e-002	558.09
30636	0.81	6.	0.1	5610.4
30637	0.72	6.	5.e-002	491.98
30638	0.99	6.	0.1	5679.9
30639	0.9	6.	5.e-002	438.79
30640	1.17	6.	0.1	5670.
30641	1.08	6.	5.e-002	395.15
30642	1.35	6.	0.1	5599.4
30643	1.26	6.	5.e-002	358.52
30644	1.53	6.	0.1	5477.6
30645	1.44	6.	5.e-002	327.67
30646	1.71	6.	0.1	5307.8
30647	1.62	6.	5.e-002	301.64
30648	1.89	6.	0.1	5089.9
30649	1.8	6.	5.e-002	279.69
30650	2.07	6.	0.1	4821.3
30651	1.98	6.	5.e-002	261.08
30652	2.25	6.	0.1	4498.
30653	2.16	6.	5.e-002	244.98
30654	2.43	6.	0.1	4115.3
30655	2.34	6.	5.e-002	230.33
30656	2.61	6.	0.1	3668.8
30657	2.52	6.	5.e-002	215.72
30658	2.79	6.	0.1	3155.3
30659	2.7	6.	5.e-002	199.26
30660	2.97	6.	0.1	2573.5
30661	2.88	6.	5.e-002	178.51
30662	3.15	6.	0.1	1922.7
30663	3.06	6.	5.e-002	149.98
30664	3.33	6.	0.1	1194.5
30665	3.24	6.	5.e-002	109.92
30666	3.51	6.	0.1	429.81
30667	3.42	6.	5.e-002	44.161
30668	3.6	6.	5.e-002	45.664
30669	3.33	6.	0.	36.082
30670	3.51	6.	0.	12.079
30671	3.15	6.	0.	46.493
30672	2.97	6.	0.	52.183
30673	2.79	6.	0.	54.073
30674	2.61	6.	0.	53.857
30675	2.43	6.	0.	52.906
30676	2.25	6.	0.	52.056
30677	2.07	6.	0.	51.913
30678	1.89	6.	0.	52.933
30679	1.71	6.	0.	55.527
30680	1.53	6.	0.	60.132
30681	1.35	6.	0.	67.316
30682	1.17	6.	0.	77.84
30683	0.99	6.	0.	93.13
30684	0.81	6.	0.	115.05
30685	0.63	6.	0.	149.32
30686	0.45	6.	0.	205.11
30687	0.27	6.	0.	326.49
30688	9.e-002	6.	0.	849.61
30689	3.6	5.9091	0.	34.287
30690	5.1657e-014	5.9091	0.	39.155
30691	0.27	-4.5494e-033	0.	326.49
30692	9.e-002	-1.5165e-033	0.	849.61
30693	0.45	-7.5824e-033	0.	205.11
30694	0.63	-1.0615e-032	0.	149.32
30695	0.81	-1.3648e-032	0.	115.05
30696	0.99	-1.6681e-032	0.	93.13
30697	1.17	-1.9714e-032	0.	77.84
30698	1.35	-2.2747e-032	0.	67.316
30699	1.53	-2.578e-032	0.	60.132
30700	1.71	-2.8813e-032	0.	55.527
30701	1.89	-3.1846e-032	0.	52.933
30702	2.07	-3.4879e-032	0.	51.913
30703	2.25	-3.7912e-032	0.	52.056
30704	2.43	-4.0945e-032	0.	52.906
30705	2.61	-4.3978e-032	0.	53.857
30706	2.79	-4.7011e-032	0.	54.073
30707	2.97	-5.0044e-032	0.	52.183
30708	3.15	-5.3077e-032	0.	46.493
30709	3.33	-5.611e-032	0.	36.082
30710	3.51	-5.9143e-032	0.	12.079
30711	3.6	9.0909e-002	0.	34.287
30712	7.9472e-016	9.0909e-002	0.	39.154
30713	4.0426	0.	0.	22.571
30714	3.8586	0.	0.	7.4654
30715	4.2265	0.	0.	26.585
30716	4.4105	0.	0.	27.518
30717	4.5944	0.	0.	25.987
30718	4.7783	0.	0.	23.191
30719	4.9623	0.	0.	20.005
30720	5.1462	0.	0.	16.859
30721	5.3302	0.	0.	13.989
30722	5.5141	0.	0.	11.485
30723	5.698	0.	0.	9.367
30724	5.882	0.	0.	7.612
30725	6.0659	0.	0.	6.1816
30726	6.2498	0.	0.	5.0324
30727	6.4338	0.	0.	4.1225
30728	6.6177	0.	0.	3.4147
30729	6.8017	0.	0.	2.8765
30730	6.9856	0.	0.	2.4804
30731	7.1695	0.	0.	2.2031
30732	7.3535	0.	0.	2.0248
30733	7.5374	0.	0.	1.9289
30734	7.7214	0.	0.	1.9011
30735	7.9053	0.	0.	1.9293
30736	8.0892	0.	0.	2.003
30737	8.2732	0.	0.	2.1134
30738	8.4571	0.	0.	2.2528
30739	8.6411	0.	0.	2.4148
30740	8.825	0.	0.	2.5939
30741	9.0089	0.	0.	2.7856
30742	9.1929	0.	0.	2.986
30743	9.3768	0.	0.	3.1921
30744	9.5608	0.	0.	3.4012
30745	9.7447	0.	0.	3.6112
30746	9.9286	0.	0.	3.8207
30747	10.113	0.	0.	4.0282
30748	10.297	0.	0.	4.2327
30749	10.48	0.	0.	4.4337
30750	10.664	0.	0.	4.6305
30751	10.848	0.	0.	4.8228
30752	11.032	0.	0.	5.0106
30753	11.216	0.	0.	5.1937
30754	11.4	0.	0.	5.3721
30755	11.584	0.	0.	5.5459
30756	11.768	0.	0.	5.7154
30757	11.952	0.	0.	5.8808
30758	12.136	0.	0.	6.0421
30759	12.32	0.	0.	6.1999
30760	12.504	0.	0.	6.3544
30761	12.688	0.	0.	6.5058
30762	12.872	0.	0.	6.6545
30763	13.056	0.	0.	6.8008
30764	13.24	0.	0.	6.945
30765	13.423	0.	0.	7.0874
30766	13.607	0.	0.	7.2284
30767	13.791	0.	0.	7.3683
30768	13.975	0.	0.	7.5072
30769	14.159	0.	0.	7.6456
30770	14.343	0.	0.	7.7837
30771	14.527	0.	0.	7.9218
30772	14.711	0.	0.	8.0602
30773	14.895	0.	0.	8.1991
30774	15.079	0.	0.	8.3389
30775	15.263	0.	0.	8.4796
30776	15.447	0.	0.	8.6216
30777	15.631	0.	0.	8.7652
30778	15.815	0.	0.	8.9104
30779	15.999	0.	0.	9.0576
30780	16.183	0.	0.	9.2069
30781	16.367	0.	0.	9.3586
30782	16.55	0.	0.	9.5128
30783	16.734	0.	0.	9.6696
30784	16.918	0.	0.	9.8294
30785	17.102	0.	0.	9.9921
30786	17.286	0.	0.	10.158
30787	17.47	0.	0.	10.327
30788	17.654	0.	0.	10.5
30789	17.838	0.	0.	10.676
30790	18.022	0.	0.	10.855
30791	18.206	0.	0.	11.038
30792	18.39	0.	0.	11.225
30793	18.574	0.	0.	11.414
30794	18.758	0.	0.	11.608
30795	18.942	0.	0.	11.804
30796	19.126	0.	0.	12.004
30797	19.31	0.	0.	12.207
30798	19.493	0.	0.	12.412
30799	19.677	0.	0.	12.619
30800	19.861	0.	0.	12.829
30801	20.045	0.	0.	13.039
30802	20.229	0.	0.	13.25
30803	20.413	0.	0.	13.46
30804	20.597	0.	0.	13.669
30805	20.781	0.	0.	13.875
30806	20.965	0.	0.	14.078
30807	21.149	0.	0.	14.275
30808	21.333	0.	0.	14.465
30809	21.517	0.	0.	14.645
30810	21.701	0.	0.	14.813
30811	21.885	0.	0.	14.964
30812	22.069	0.	0.	15.095
30813	22.253	0.	0.	15.201
30814	22.437	0.	0.	15.274
30815	22.62	0.	0.	15.306
30816	22.804	0.	0.	15.284
30817	22.988	0.	0.	15.189
30818	23.172	0.	0.	14.993
30819	23.356	0.	0.	14.632
30820	23.54	0.	0.	14.053
30821	23.724	0.	0.	12.541
30822	23.908	0.	0.	8.6048
30823	3.7667	9.0909e-002	0.	28.714
30824	24.	9.0909e-002	0.	20.335
30825	5.0067e-014	5.7273	0.	-1739.7
30826	4.8478e-014	5.5455	0.	-2581.
30827	4.6888e-014	5.3636	0.	-3004.7
30828	4.5299e-014	5.1818	0.	-3265.6
30829	4.371e-014	5.	0.	-3440.5
30830	4.212e-014	4.8182	0.	-3563.1
30831	4.0531e-014	4.6364	0.	-3650.5
30832	3.8941e-014	4.4545	0.	-3713.
30833	3.7352e-014	4.2727	0.	-3757.4
30834	3.5762e-014	4.0909	0.	-3788.3
30835	3.4173e-014	3.9091	0.	-3809.3
30836	3.2583e-014	3.7273	0.	-3823.2
30837	3.0994e-014	3.5455	0.	-3831.9
30838	2.9405e-014	3.3636	0.	-3837.
30839	2.7815e-014	3.1818	0.	-3839.7
30840	2.6226e-014	3.	0.	-3840.5
30841	2.4636e-014	2.8182	0.	-3839.7
30842	2.3047e-014	2.6364	0.	-3837.
30843	2.1457e-014	2.4545	0.	-3831.9
30844	1.9868e-014	2.2727	0.	-3823.2
30845	1.8279e-014	2.0909	0.	-3809.3
30846	1.6689e-014	1.9091	0.	-3788.3
30847	1.51e-014	1.7273	0.	-3757.4
30848	1.351e-014	1.5455	0.	-3713.
30849	1.1921e-014	1.3636	0.	-3650.5
30850	1.0331e-014	1.1818	0.	-3563.1
30851	8.7419e-015	1.	0.	-3440.5
30852	7.1525e-015	0.81818	0.	-3265.6
30853	5.563e-015	0.63636	0.	-3004.7
30854	3.9736e-015	0.45455	0.	-2581.
30855	2.3842e-015	0.27273	0.	-1739.7
30856	24.	0.27273	0.	50.345
30857	24.	0.45455	0.	74.692
30858	24.	0.63636	0.	94.101
30859	24.	0.81818	0.	110.43
30860	24.	1.	0.	124.43
30861	24.	1.1818	0.	136.54
30862	24.	1.3636	0.	147.03
30863	24.	1.5455	0.	156.08
30864	24.	1.7273	0.	163.85
30865	24.	1.9091	0.	170.41
30866	24.	2.0909	0.	175.86
30867	24.	2.2727	0.	180.26
30868	24.	2.4545	0.	183.63
30869	24.	2.6364	0.	186.02
30870	24.	2.8182	0.	187.45
30871	24.	3.	0.	187.92
30872	24.	3.1818	0.	187.45
30873	24.	3.3636	0.	186.02
30874	24.	3.5455	0.	183.63
30875	24.	3.7273	0.	180.26
30876	24.	3.9091	0.	175.86
30877	24.	4.0909	0.	170.41
30878	24.	4.2727	0.	163.85
30879	24.	4.4545	0.	156.08
30880	24.	4.6364	0.	147.03
30881	24.	4.8182	0.	136.54
30882	24.	5.	0.	124.43
30883	24.	5.1818	0.	110.43
30884	24.	5.3636	0.	94.102
30885	24.	5.5455	0.	74.692
30886	24.	5.7273	0.	50.345
30887	24.	5.9091	0.	20.335
30888	23.908	6.	0.	8.6048
30889	23.724	6.	0.	12.541
30890	23.54	6.	0.	14.053
30891	23.356	6.	0.	14.632
30892	23.172	6.	0.	14.993
30893	22.988	6.	0.	15.189
30894	22.804	6.	0.	15.284
30895	22.62	6.	0.	15.306
30896	22.437	6.	0.	15.274
30897	22.253	6.	0.	15.201
30898	22.069	6.	0.	15.095
30899	21.885	6.	0.	14.964
30900	21.701	6.	0.	14.813
30901	21.517	6.	0.	14.645
30902	21.333	6.	0.	14.465
30903	21.149	6.	0.	14.275
30904	20.965	6.	0.	14.078
30905	20.781	6.	0.	13.876
30906	20.597	6.	0.	13.669
30907	20.413	6.	0.	13.46
30908	20.229	6.	0.	13.25
30909	20.045	6.	0.	13.039
30910	19.861	6.	0.	12.829
30911	19.677	6.	0.	12.619
30912	19.493	6.	0.	12.412
30913	19.31	6.	0.	12.207
30914	19.126	6.	0.	12.004
30915	18.942	6.	0.	11.804
30916	18.758	6.	0.	11.608
30917	18.574	6.	0.	11.414
30918	18.39	6.	0.	11.225
30919	18.206	6.	0.	11.038
30920	18.022	6.	0.	10.855
30921	17.838	6.	0.	10.676
30922	17.654	6.	0.	10.5
30923	17.47	6.	0.	10.327
30924	17.286	6.	0.	10.158
30925	17.102	6.	0.	9.9921
30926	16.918	6.	0.	9.8294
30927	16.734	6.	0.	9.6696
30928	16.55	6.	0.	9.5128
30929	16.367	6.	0.	9.3586
30930	16.183	6.	0.	9.2069
30931	15.999	6.	0.	9.0576
30932	15.815	6.	0.	8.9104
30933	15.631	6.	0.	8.7652
30934	15.447	6.	0.	8.6216
30935	15.263	6.	0.	8.4796
30936	15.079	6.	0.	8.3389
30937	14.895	6.	0.	8.1991
30938	14.711	6.	0.	8.0602
30939	14.527	6.	0.	7.9218
30940	14.343	6.	0.	7.7837
30941	14.159	6.	0.	7.6456
30942	13.975	6.	0.	7.5072
30943	13.791	6.	0.	7.3683
30944	13.607	6.	0.	7.2284
30945	13.423	6.	0.	7.0874
30946	13.24	6.	0.	6.945
30947	13.056	6.	0.	6.8008
30948	12.872	6.	0.	6.6545
30949	12.688	6.	0.	6.5058
30950	12.504	6.	0.	6.3544
30951	12.32	6.	0.	6.1999
30952	12.136	6.	0.	6.0421
30953	11.952	6.	0.	5.8808
30954	11.768	6.	0.	5.7154
30955	11.584	6.	0.	5.5459
30956	11.4	6.	0.	5.3721
30957	11.216	6.	0.	5.1937
30958	11.032	6.	0.	5.0106
30959	10.848	6.	0.	4.8228
30960	10.664	6.	0.	4.6305
30961	10.48	6.	0.	4.4337
30962	10.297	6.	0.	4.2327
30963	10.113	6.	0.	4.0282
30964	9.9286	6.	0.	3.8207
30965	9.7447	6.	0.	3.6112
30966	9.5608	6.	0.	3.4012
30967	9.3768	6.	0.	3.1921
30968	9.1929	6.	0.	2.986
30969	9.0089	6.	0.	2.7856
30970	8.825	6.	0.	2.5939
30971	8.6411	6.	0.	2.4148
30972	8.4571	6.	0.	2.2528
30973	8.2732	6.	0.	2.1134
30974	8.0892	6.	0.	2.003
30975	7.9053	6.	0.	1.9293
30976	7.7214	6.	0.	1.9011
30977	7.5374	6.	0.	1.9289
30978	7.3535	6.	0.	2.0248
30979	7.1695	6.	0.	2.2031
30980	6.9856	6.	0.	2.4804
30981	6.8017	6.	0.	2.8765
30982	6.6177	6.	0.	3.4147
30983	6.4338	6.	0.	4.1225
30984	6.2498	6.	0.	5.0324
30985	6.0659	6.	0.	6.1816
30986	5.882	6.	0.	7.612
30987	5.698	6.	0.	9.367
30988	5.5141	6.	0.	11.485
30989	5.3302	6.	0.	13.989
30990	5.1462	6.	0.	16.859
30991	4.9623	6.	0.	20.005
30992	4.7783	6.	0.	23.191
30993	4.5944	6.	0.	25.987
30994	4.4105	6.	0.	27.518
30995	4.2265	6.	0.	26.585
30996	4.0426	6.	0.	22.571
30997	3.8586	6.	0.	7.4654
30998	3.7667	5.9091	0.	28.714
30999	3.6	1.7273	0.	4649.3
31000	3.6	1.9091	0.	4564.9
31001	3.6	1.5455	0.	2629.6
31002	3.6	1.3636	0.	2000.9
31003	3.6	1.1818	0.	1484.7
31004	3.6	1.	0.	1111.4
31005	3.6	0.81818	0.	816.45
31006	3.6	0.63636	0.	573.64
31007	3.6	0.45455	0.	368.47
31008	3.6	0.27273	0.	192.78
31009	3.6833	2.	0.	2812.7
31010	3.7667	0.27273	0.	171.11
31011	3.7667	0.45455	0.	334.97
31012	3.7667	0.63636	0.	528.91
31013	3.7667	0.81818	0.	759.31
31014	3.7667	1.	0.	1038.4
31015	3.7667	1.1818	0.	1389.4
31016	3.7667	1.3636	0.	1870.6
31017	3.7667	1.5455	0.	2453.5
31018	3.7667	1.7273	0.	4347.
31019	3.7667	1.9091	0.	4250.1
31020	3.6	4.2727	0.	4649.3
31021	3.6	4.0909	0.	4564.9
31022	3.6	4.4545	0.	2629.6
31023	3.6	4.6364	0.	2000.9
31024	3.6	4.8182	0.	1484.7
31025	3.6	5.	0.	1111.4
31026	3.6	5.1818	0.	816.45
31027	3.6	5.3636	0.	573.64
31028	3.6	5.5455	0.	368.47
31029	3.6	5.7273	0.	192.78
31030	3.6833	4.	0.	2812.7
31031	3.7667	5.7273	0.	171.11
31032	3.7667	5.5455	0.	334.97
31033	3.7667	5.3636	0.	528.91
31034	3.7667	5.1818	0.	759.31
31035	3.7667	5.	0.	1038.4
31036	3.7667	4.8182	0.	1389.4
31037	3.7667	4.6364	0.	1870.6
31038	3.7667	4.4545	0.	2453.5
31039	3.7667	4.2727	0.	4347.
31040	3.7667	4.0909	0.	4250.1
